# x y z rho theta phi s1 s2 stress_xx np intf bulk
-0.806840 -10.854988 -14.419633 18.066753 1.496604 2.494983 -0.005790 0.002605 -1016260.000000 1 0 0
2.070360 -13.501588 -13.093233 18.921205 -1.418640 2.335035 -0.006793 0.011655 613800.000000 1 0 0
2.089360 -11.163788 -14.764033 18.627191 -1.385782 2.485868 -0.001095 0.003559 343103.000000 1 0 0
-5.624540 -6.256388 -16.547033 18.562924 0.838530 2.671226 0.012126 0.001759 -1318890.000000 1 0 0
4.489060 -14.068388 -11.665333 18.818905 -1.261920 2.239377 -0.007435 0.010816 -159398.000000 1 0 0
13.848260 -10.877088 -7.970233 19.328993 -0.665805 1.995824 0.004770 0.002615 -553654.000000 1 0 0
7.158560 10.826612 -10.842333 16.912028 0.986588 2.266729 0.013071 -0.005737 482240.000000 1 0 0
5.743560 -4.335488 -12.643533 14.547985 -0.646594 2.624159 -0.003409 0.001759 1010400.000000 1 0 0
13.610860 0.444412 -10.114533 16.963395 0.032640 2.209626 0.003442 0.004493 1083150.000000 1 0 0
14.154860 5.011312 -10.339033 18.230988 0.340265 2.173793 0.007161 0.001286 372177.000000 1 0 0
4.152460 4.330512 -13.414533 14.695100 0.806384 2.721026 0.008597 0.000394 3492870.000000 1 0 0
10.235260 -5.116488 -13.806633 17.932153 -0.463558 2.449539 0.011735 0.005055 -399047.000000 1 0 0
2.446260 -7.556588 -12.032233 14.417380 -1.257718 2.558138 -0.004374 0.005408 1998600.000000 1 0 0
-5.620640 -1.955488 -15.147133 16.274248 0.334813 2.767234 0.010559 -0.004377 -494209.000000 1 0 0
10.615060 0.025012 -9.665833 14.356478 0.002356 2.309423 0.005729 0.002940 2052670.000000 1 0 0
-1.742440 -9.629488 -16.972833 19.591840 1.391785 2.618586 -0.001203 -0.004375 1951730.000000 1 0 0
8.704560 1.577012 -18.028633 20.082030 0.179227 2.685430 0.015194 0.006551 1528250.000000 1 0 0
16.339160 -6.119288 -8.868133 19.571858 -0.358347 2.041043 0.015086 0.000067 -1712290.000000 1 0 0
10.202260 7.576012 -9.978033 16.156832 0.638737 2.236450 0.009265 0.000539 1166960.000000 1 0 0
13.752660 -2.391888 -10.650133 17.557964 -0.172199 2.222535 0.011585 -0.000041 -1356230.000000 1 0 0
7.206460 -1.967888 -13.722033 15.623695 -0.266574 2.643057 0.004456 -0.000100 831902.000000 1 0 0
-2.778340 6.645412 -13.755733 15.527423 -1.174798 2.659225 -0.001623 0.000752 -198872.000000 1 0 0
11.263660 1.828312 -14.089833 18.131082 0.160916 2.460856 0.000970 0.004894 -66269.700000 1 0 0
-2.336140 10.719912 -12.850433 16.896973 -1.356226 2.434905 -0.003399 0.001404 -1978180.000000 1 0 0
2.793560 -1.103188 -15.236533 15.529743 -0.376105 2.946963 0.009521 -0.003576 2690650.000000 1 0 0
-9.119140 0.505412 -15.238633 17.765981 -0.055367 2.601658 0.004285 0.002329 -479474.000000 1 0 0
2.296560 -1.718488 -18.054633 18.281060 -0.642404 2.984039 0.015003 -0.013354 1155350.000000 1 0 0
1.024260 7.847212 -13.067933 15.277392 1.441005 2.597075 0.003484 -0.004759 105696.000000 1 0 0
9.313460 -9.187488 -10.002233 16.468003 -0.778589 2.223547 -0.000025 0.005434 -766651.000000 1 0 0
3.923960 7.269912 -13.608433 15.919753 1.075854 2.595989 0.002032 0.000254 363801.000000 1 0 0
-2.725340 9.090612 -15.466933 18.146424 -1.279526 2.591241 -0.006723 0.003589 -820911.000000 1 0 0
5.420460 -7.593988 -15.365333 17.976192 -0.950880 2.595885 -0.007117 0.003567 -931000.000000 1 0 0
4.188060 7.250612 -16.450333 18.458729 1.046999 2.670770 0.012190 0.000014 -118836.000000 1 0 0
-0.283940 5.094512 -13.453433 14.388521 -1.515119 2.779088 0.007617 -0.006414 1152820.000000 1 0 0
8.877460 4.226212 -16.712733 19.390348 0.444314 2.609821 0.015441 0.006970 948733.000000 1 0 0
5.322460 0.263412 -14.402433 15.356694 0.049450 2.787208 0.005931 0.001585 1160490.000000 1 0 0
6.307760 7.977012 -11.721133 15.517909 0.901726 2.426953 0.004073 0.000387 -1679210.000000 1 0 0
2.640960 -8.347988 -15.036333 17.399853 -1.264400 2.614284 -0.004592 -0.001036 1396550.000000 1 0 0
3.981160 11.434612 -13.802733 18.360703 1.235755 2.421514 0.002347 -0.009084 -688630.000000 1 0 0
0.592160 -4.626388 -13.824633 14.590222 -1.443492 2.816206 0.004522 0.000475 775365.000000 1 0 0
8.449260 -0.158288 -11.703333 14.435479 -0.018732 2.516201 -0.001906 0.004651 601441.000000 1 0 0
-1.113940 -5.081888 -16.251333 17.063770 1.355011 2.831772 -0.003079 -0.004561 992159.000000 1 0 0
4.459360 0.922212 -11.729033 12.581994 0.203929 2.771262 0.002163 -0.000666 601414.000000 1 0 0
-3.029340 -7.276388 -15.631133 17.505857 1.176297 2.674561 0.000975 0.000680 2252040.000000 1 0 0
11.362260 -3.888488 -11.456633 16.597461 -0.329735 2.332650 0.009866 0.002389 1276030.000000 1 0 0
6.472960 -7.158288 -12.642933 15.905472 -0.835632 2.489605 -0.006634 0.005268 -1145950.000000 1 0 0
3.450760 -3.990988 -14.698833 15.617023 -0.857865 2.796978 0.006848 -0.001244 4669640.000000 1 0 0
-0.684340 -1.551788 -18.264233 18.342807 1.155451 3.049000 0.011088 -0.016438 297391.000000 1 0 0
14.851360 2.865012 -8.533933 17.366612 0.190571 2.084491 -0.000870 0.004816 -419329.000000 1 0 0
6.960960 4.294612 -14.373133 16.537400 0.552795 2.624235 0.007783 0.005892 1108390.000000 1 0 0
9.971260 -9.757188 -14.214333 19.916726 -0.774548 2.365546 0.012196 0.000669 21368.400000 1 0 0
8.904660 -3.319588 -15.625333 18.288348 -0.356834 2.595167 0.008556 -0.005322 -75241.600000 1 0 0
-5.215940 -2.048988 -18.036133 18.886674 0.374312 2.840342 -0.001257 0.001671 77933.800000 1 0 0
4.923060 -9.120388 -11.158433 15.229203 -1.075829 2.393077 -0.009280 0.004096 2346120.000000 1 0 0
-2.352640 3.889212 -17.097833 17.691715 -1.026771 2.881755 0.006419 -0.001994 1884870.000000 1 0 0
9.360360 9.368912 -14.590033 19.704363 0.785855 2.404531 0.021593 0.001336 -153289.000000 1 0 0
9.875460 9.998112 -11.666933 18.264837 0.791570 2.263688 0.019168 -0.003656 -663576.000000 1 0 0
11.989660 -6.065188 -9.777833 16.617595 -0.468331 2.199878 0.014343 0.001484 1263370.000000 1 0 0
8.082660 6.932712 -13.758133 17.397647 0.708963 2.482918 0.009296 0.006480 -304998.000000 1 0 0
3.982360 -4.100088 -17.672033 18.573386 -0.799963 2.828777 0.014804 -0.009298 361643.000000 1 0 0
9.311260 -7.615188 -12.541033 17.377231 -0.685529 2.377042 0.006780 0.003580 1204880.000000 1 0 0
11.956560 -8.776188 -8.905533 17.299980 -0.633186 2.111537 0.007896 0.003290 1089350.000000 1 0 0
-3.006540 -2.464588 -13.794633 14.331970 0.686663 2.866897 0.005744 -0.005955 -1981230.000000 1 0 0
-0.480740 6.147012 -17.597233 18.646165 -1.492748 2.804576 0.012954 0.000482 1388030.000000 1 0 0
0.956260 -8.506288 -17.491133 19.473343 -1.458848 2.686474 0.005754 -0.004694 903515.000000 1 0 0
0.006060 8.545712 -15.920533 18.069106 1.570087 2.648961 -0.000195 0.001152 -386644.000000 1 0 0
1.697360 3.383612 -14.929333 15.401780 1.105836 2.893266 0.011369 -0.003350 2490810.000000 1 0 0
-1.993740 -0.492888 -15.765133 15.898344 0.242358 3.012050 0.009396 -0.005768 2307290.000000 1 0 0
14.078460 -4.411388 -8.491533 17.022617 -0.303653 2.093054 0.013619 0.000441 336486.000000 1 0 0
0.495260 0.668612 -14.616633 14.640296 0.933256 3.084728 0.007754 -0.006325 1705190.000000 1 0 0
8.904960 2.727012 -12.636033 15.697268 0.297167 2.506443 0.002480 0.005218 1547750.000000 1 0 0
5.907460 0.928612 -17.155833 18.168187 0.155917 2.806193 0.014292 0.001798 -246895.000000 1 0 0
15.263460 1.547112 -12.377233 19.711993 0.101016 2.249653 0.002625 0.000695 -237743.000000 1 0 0
8.703960 -11.273788 -12.041233 18.650697 -0.913330 2.272629 0.001054 0.002640 290711.000000 1 0 0
-4.731240 0.749312 -15.082833 15.825231 -0.157071 2.834074 0.010706 -0.004227 95281.600000 1 0 0
2.291660 5.115012 -17.275233 18.161738 1.149585 2.827860 0.011662 -0.000139 879487.000000 1 0 0
5.841060 -11.669588 -12.484033 18.059577 -1.106719 2.334041 -0.007432 0.005466 326131.000000 1 0 0
12.861260 7.179212 -8.644033 17.078419 0.509120 2.101497 0.010106 0.002154 760044.000000 1 0 0
-4.964440 3.646012 -15.673833 16.840668 -0.633459 2.767154 0.003464 -0.001150 845132.000000 1 0 0
-0.625840 -4.388288 -19.039733 19.548917 1.429136 2.912855 0.003911 -0.014233 -685661.000000 1 0 0
9.848160 4.449412 -10.318733 14.941880 0.424351 2.333103 0.000151 0.007696 693523.000000 1 0 0
13.280060 3.635012 -12.768633 18.777947 0.267175 2.318532 -0.000764 0.000288 -251657.000000 1 0 0
-6.215540 5.830612 -17.112733 19.117390 -0.753455 2.679541 -0.004865 0.004482 -652586.000000 1 0 0
-10.137540 3.189112 -15.424433 18.731078 -0.304783 2.538292 -0.002088 0.004726 -626845.000000 1 0 0
10.608960 13.483612 -8.486533 19.141031 0.904154 2.030150 0.029942 -0.003866 1298360.000000 1 0 0
7.288460 13.388912 -12.420833 19.663715 1.072289 2.254492 0.022768 -0.007492 -685427.000000 1 0 0
5.168760 15.187512 -11.321633 19.635579 1.242762 2.185342 0.005383 -0.009521 7846.950000 1 0 0
14.193760 9.503812 -9.735433 19.661229 0.590015 2.088814 0.028244 -0.000569 -3209450.000000 1 0 0
8.128260 -17.346588 -2.180533 19.280234 -1.132599 1.684136 0.002075 0.010894 -387486.000000 1 0 0
0.667260 -15.981088 -0.091233 15.995272 -1.529067 1.576500 0.006944 -0.006426 2379520.000000 1 0 0
-9.059540 -11.580488 7.550767 16.528674 0.906935 1.096370 0.000184 -0.007652 1420470.000000 1 0 0
2.024460 -15.975988 -2.658433 16.321700 -1.444749 1.734402 0.003551 -0.000675 2512000.000000 1 0 0
-1.315840 -11.055988 -9.523933 14.651676 1.452337 2.278412 0.002651 0.000765 1041370.000000 1 0 0
-4.954940 -12.548288 -13.001433 18.736281 1.194720 2.337712 0.016074 -0.005621 -734160.000000 1 0 0
-8.129040 -17.687188 -1.850533 19.553577 1.139987 1.665577 0.001691 -0.009260 -2157840.000000 1 0 0
-11.442440 -7.050188 -8.829333 16.080787 0.552205 2.152037 0.010920 -0.005063 2770160.000000 1 0 0
-13.467040 -11.505488 -4.582933 18.295920 0.707011 1.823982 -0.004385 -0.000059 -482496.000000 1 0 0
-5.765140 -13.321988 9.768367 17.496662 1.162377 0.978462 0.006830 -0.010395 -50672.900000 1 0 0
0.150260 -14.012688 -3.703833 14.494702 -1.560074 1.829192 0.002724 -0.001380 1224110.000000 1 0 0
-14.708340 -11.668888 1.931667 18.874044 0.670674 1.468272 0.004571 0.001036 954220.000000 1 0 0
-3.897540 -16.443588 -7.595733 18.527751 1.338066 1.993212 -0.004719 -0.005302 -6301.690000 1 0 0
0.520660 -15.351488 -9.352333 17.983476 -1.536893 2.117708 0.002215 0.009350 321284.000000 1 0 0
4.547960 -14.279788 -2.593633 15.209313 -1.262464 1.742163 0.000585 0.004511 -395177.000000 1 0 0
-3.567540 -18.029588 -2.519033 18.550981 1.375448 1.707007 -0.011713 -0.006604 1548710.000000 1 0 0
-0.929340 -13.457688 0.559267 13.501326 1.501849 1.529361 0.003492 -0.002735 2763570.000000 1 0 0
-8.579640 -11.231988 -10.486533 17.599294 0.918485 2.209120 0.017610 -0.007272 2747450.000000 1 0 0
-3.737340 -14.169688 -0.476433 14.662017 1.312913 1.603296 -0.008231 -0.001314 2554540.000000 1 0 0
-1.474540 -14.909088 -7.357433 16.690925 1.472215 2.027291 -0.004744 -0.000043 -237060.000000 1 0 0
-14.147440 -7.802288 -1.844133 16.261199 0.503993 1.684448 -0.001496 0.003317 2851070.000000 1 0 0
-10.789940 -7.186888 -11.619933 17.409681 0.587591 2.301563 0.009467 -0.003571 96436.900000 1 0 0
-9.324840 -14.593488 6.803067 18.606565 1.002212 1.196490 -0.003609 -0.004932 1379860.000000 1 0 0
-2.597040 -14.184488 -12.360933 18.993077 1.389712 2.279450 0.014251 -0.005010 -250636.000000 1 0 0
2.266160 -17.905988 -4.798633 18.675833 -1.444907 1.830654 0.005718 0.003227 -1180270.000000 1 0 0
-6.588940 -9.644488 -9.235333 14.890321 0.971447 2.239824 0.012672 -0.004651 1038870.000000 1 0 0
-10.930740 -15.376088 0.435067 18.870465 0.952798 1.547739 -0.000025 -0.003760 1961930.000000 1 0 0
-12.563940 -11.059188 3.970667 17.202454 0.721786 1.337876 0.007258 -0.004589 1247810.000000 1 0 0
-16.982640 -8.855888 -1.608733 19.220427 0.480673 1.654593 -0.002603 0.005683 -856755.000000 1 0 0
-1.494240 -19.227288 -4.049033 19.705736 1.493238 1.777745 -0.011778 -0.004278 -244043.000000 1 0 0
3.225360 -14.175388 -8.965433 17.079917 -1.347073 2.123407 -0.009053 0.008585 1457170.000000 1 0 0
-4.415840 -8.112988 -13.164533 16.081826 1.072345 2.529760 0.006320 0.003493 1575930.000000 1 0 0
5.521560 -16.684788 1.219167 17.616928 -1.251207 1.501537 0.009237 -0.001445 4343390.000000 1 0 0
-2.873140 -13.818988 -3.285733 14.491908 1.365804 1.799514 -0.006422 -0.004237 126936.000000 1 0 0
-0.432240 -14.011088 3.594767 14.471343 1.539956 1.319762 -0.001933 -0.000765 -2794590.000000 1 0 0
1.245760 -16.180388 7.042967 17.690683 -1.493956 1.161333 0.002013 -0.010054 2023650.000000 1 0 0
-5.637740 -10.332788 -14.815133 18.921913 1.071325 2.470209 0.012402 0.001677 13351.900000 1 0 0
-0.349140 -17.314788 -5.936833 18.307642 1.550635 1.901049 -0.000113 0.000103 951861.000000 1 0 0
-6.528940 -13.384188 -1.372633 14.954854 1.116948 1.662711 -0.000477 -0.004400 4089650.000000 1 0 0
-1.753440 -17.722188 -0.176133 17.809590 1.472177 1.580686 -0.009329 -0.000775 2597650.000000 1 0 0
-9.436440 -9.819688 -4.830833 14.450246 0.805298 1.911667 0.013244 -0.005843 1473530.000000 1 0 0
-0.815640 -16.618788 4.870267 17.336922 1.521756 1.286045 0.000390 -0.010445 743001.000000 1 0 0
-6.809140 -9.987288 -6.329433 13.644487 0.972403 2.053169 0.016153 -0.007420 2817540.000000 1 0 0
-6.050940 -14.518888 -8.599733 17.926723 1.175923 2.071127 0.007662 -0.009011 -443497.000000 1 0 0
-5.837640 -12.212188 -10.269233 16.990371 1.124889 2.219828 0.014869 -0.007312 1451770.000000 1 0 0
-10.880440 -12.053188 -8.685733 18.414811 0.836490 2.061981 0.019549 -0.016846 204485.000000 1 0 0
3.951160 -17.229388 6.364267 18.787426 -1.345367 1.225207 0.008718 -0.009432 308244.000000 1 0 0
-6.732940 -14.401288 -4.186133 16.439382 1.133466 1.828272 0.004715 -0.010861 -576389.000000 1 0 0
-2.808940 -12.212288 -7.196833 14.450762 1.344719 2.092115 0.006219 -0.003091 3935650.000000 1 0 0
-6.960540 -12.799588 4.377867 15.213293 1.072718 1.278903 -0.000994 0.000205 1401310.000000 1 0 0
2.550960 -16.429588 2.339567 16.790245 -1.416760 1.431001 0.001654 -0.006113 2975150.000000 1 0 0
-6.143840 -11.925488 7.195067 15.222780 1.095074 1.078499 0.000847 -0.003195 1975600.000000 1 0 0
-11.139740 -12.832788 -0.957633 17.020321 0.855906 1.627090 0.002577 -0.000263 2549670.000000 1 0 0
-14.080640 -8.684088 4.574467 17.164019 0.552637 1.301021 0.001601 -0.003716 -18365.900000 1 0 0
-7.875640 -15.521388 4.429067 17.959839 1.101242 1.321616 -0.003315 0.002964 177849.000000 1 0 0
-16.370040 -9.217288 1.193667 18.824491 0.512814 1.507343 -0.007102 0.004684 193779.000000 1 0 0
-6.578140 -17.101788 2.408267 18.480877 1.203596 1.440113 -0.011053 0.004295 2966390.000000 1 0 0
-11.627840 -15.019788 -4.656333 19.557150 0.912006 1.811194 0.020100 -0.001633 -185638.000000 1 0 0
-10.200440 -9.881288 -12.566133 18.963030 0.769507 2.295168 0.014294 -0.001051 222195.000000 1 0 0
-4.359840 -15.970788 -4.602533 17.183061 1.304301 1.841960 -0.007419 -0.006508 -184810.000000 1 0 0
-11.765040 -8.239788 -0.033033 14.363543 0.610969 1.573096 0.000524 0.000437 2187090.000000 1 0 0
-9.560340 -11.258988 3.415067 15.160066 0.866808 1.343579 -0.002794 0.001748 3624510.000000 1 0 0
-14.112640 -12.969188 -0.627033 19.177059 0.743201 1.603499 0.002086 0.002143 137940.000000 1 0 0
5.495860 -15.011188 -7.276333 17.563748 -1.219836 1.997949 -0.007567 0.007238 370395.000000 1 0 0
-7.357840 -10.534588 -1.253833 12.910749 0.961114 1.668065 0.003373 -0.002895 1797870.000000 1 0 0
-11.623740 -8.249988 -6.097933 15.503497 0.617242 1.975043 0.007054 -0.005330 1377600.000000 1 0 0
-14.498140 -6.641888 -9.170633 18.395957 0.429586 2.092679 -0.001713 -0.002265 1762500.000000 1 0 0
-3.817440 -16.369788 1.491467 16.875049 1.341691 1.482298 -0.011178 -0.000718 2046030.000000 1 0 0
-7.915840 -15.540488 0.184667 17.441370 1.099682 1.560208 -0.000079 -0.004233 636980.000000 1 0 0
0.919260 -18.571588 3.623367 18.944068 -1.521339 1.378344 0.004296 -0.013464 483270.000000 1 0 0
-14.107740 -8.701888 -4.605433 17.203523 0.552693 1.841804 -0.000632 -0.002577 2268690.000000 1 0 0
-3.335740 -14.428088 11.120267 18.519104 1.343591 0.926701 0.001007 -0.015213 967289.000000 1 0 0
-10.759240 -12.198688 -3.816033 16.707224 0.848016 1.801237 0.010924 -0.004350 1538820.000000 1 0 0
-9.906040 -10.616888 0.481167 14.528574 0.820021 1.537672 -0.002507 0.002042 1556120.000000 1 0 0
-0.178640 -13.204088 -11.241833 17.342395 1.557268 2.276052 0.004419 0.000423 237907.000000 1 0 0
-5.853040 -12.637088 -6.320933 15.294060 1.137050 1.996864 0.000897 -0.008990 1821640.000000 1 0 0
1.852860 -15.900888 9.856167 18.799344 -1.454794 1.018924 0.000652 -0.005001 221959.000000 1 0 0
-9.031640 -15.679288 -5.591733 18.938798 1.048193 1.870516 0.017494 -0.007371 140718.000000 1 0 0
-3.306140 -15.362288 5.935367 16.797590 1.358818 1.209651 -0.007958 -0.001827 166505.000000 1 0 0
-17.515140 -5.520588 -6.457533 19.466812 0.305333 1.908923 -0.001914 0.003624 687821.000000 1 0 0
18.875060 5.513012 -2.868533 19.871831 0.284174 1.715654 -0.010646 0.016798 -912983.000000 1 0 0
12.604560 -12.590988 -5.884833 18.762707 -0.784859 1.889826 0.001703 0.002435 -1197480.000000 1 0 0
10.911560 -13.630688 -1.668533 17.539720 -0.895742 1.666069 0.001465 0.004506 2335430.000000 1 0 0
18.607460 -2.931788 4.602167 19.391052 -0.156275 1.331175 0.000327 -0.003209 -175785.000000 1 0 0
8.442460 -16.882188 5.084567 19.548305 -1.107084 1.307668 0.013830 -0.013720 -1780030.000000 1 0 0
18.005460 -0.986688 6.611467 19.206292 -0.054745 1.219373 0.019867 -0.004766 -1446570.000000 1 0 0
17.844960 -4.335188 -5.116033 19.063322 -0.238319 1.842497 0.013718 0.000347 977151.000000 1 0 0
5.370660 -11.751088 14.809967 19.653681 -1.142107 0.717356 -0.001971 -0.001263 315193.000000 1 0 0
15.825260 -8.885388 -0.936733 18.173234 -0.511606 1.622364 0.017700 -0.000281 346768.000000 1 0 0
13.725960 -12.605888 -1.500733 18.696593 -0.742887 1.651150 0.016256 0.002779 445764.000000 1 0 0
11.125660 -2.018688 13.832467 17.865961 -0.179492 0.685290 -0.001528 0.002727 -1144060.000000 1 0 0
16.897660 -6.137488 -1.517933 18.041724 -0.348399 1.655030 0.014904 0.000869 -973263.000000 1 0 0
17.859860 3.571612 -0.973933 18.239505 0.197376 1.624219 -0.002879 0.013249 1588830.000000 1 0 0
9.653760 -11.108788 9.523667 17.529988 -0.855363 0.996459 0.019287 -0.007203 -335328.000000 1 0 0
9.001760 -11.100088 4.278467 14.918073 -0.889406 1.279914 0.000086 -0.000113 -692000.000000 1 0 0
14.109760 -10.095388 6.898567 18.670630 -0.621046 1.192339 0.021533 -0.005374 413349.000000 1 0 0
16.307060 -0.568588 -4.782733 17.003471 -0.034853 1.855924 0.003844 0.005908 -615333.000000 1 0 0
15.662660 -0.469088 -1.808633 15.773716 -0.029940 1.685710 -0.001343 0.004856 544329.000000 1 0 0
12.828860 -5.189288 -0.313033 13.842194 -0.384381 1.593413 0.006560 0.000437 1186520.000000 1 0 0
14.211760 -7.560988 1.029467 16.130792 -0.488937 1.506933 0.014874 0.002569 2815180.000000 1 0 0
15.453560 2.516512 3.637967 16.074208 0.161427 1.342495 0.005833 -0.001173 297923.000000 1 0 0
15.950260 -7.083988 5.005667 18.156277 -0.417962 1.291480 0.018091 -0.003795 -629551.000000 1 0 0
13.617660 -12.075688 3.353967 18.507080 -0.725456 1.388563 0.019640 -0.001124 524643.000000 1 0 0
14.057260 -1.027988 9.262167 16.865677 -0.072999 0.989422 0.019186 -0.001922 1756900.000000 1 0 0
14.144560 -2.809888 -1.573033 14.506498 -0.196102 1.679446 0.005402 0.002486 120838.000000 1 0 0
15.026660 1.754312 9.112567 17.661172 0.116221 1.028661 0.029825 -0.005757 -1237920.000000 1 0 0
14.169960 -10.089288 -3.035833 17.657796 -0.618747 1.743581 0.018004 0.000780 607818.000000 1 0 0
7.228760 -12.604788 6.155667 15.780617 -1.050095 1.170080 -0.004864 -0.003844 -270538.000000 1 0 0
12.421860 -4.701488 6.999667 15.013392 -0.361823 1.085774 0.011236 -0.006273 3074530.000000 1 0 0
14.726860 -9.105988 -5.805533 18.262082 -0.553785 1.894311 0.017856 -0.000896 -575334.000000 1 0 0
14.324160 -4.539788 4.635167 15.725012 -0.306918 1.271588 0.008983 -0.003464 1053030.000000 1 0 0
17.125760 -4.257388 0.908067 17.670359 -0.243656 1.519384 0.007176 0.001470 -1541310.000000 1 0 0
10.134360 -14.497388 1.082167 17.721473 -0.960710 1.509693 0.013296 0.000075 666914.000000 1 0 0
16.491560 -2.612788 8.608467 18.785737 -0.157126 1.094777 0.024027 -0.006202 1771190.000000 1 0 0
16.006660 -2.654488 3.156567 16.529470 -0.164341 1.378650 0.000420 -0.001948 1628700.000000 1 0 0
7.761560 -15.333088 2.712267 17.398327 -1.102204 1.414265 0.001531 -0.002549 1833740.000000 1 0 0
16.703760 -7.026388 7.900367 19.768701 -0.398178 1.159672 0.022557 -0.002862 -1666210.000000 1 0 0
10.195960 -8.555288 5.090567 14.250067 -0.698124 1.205495 0.008247 -0.002575 1793640.000000 1 0 0
10.845860 -11.886488 2.223567 16.243938 -0.831144 1.433479 0.006930 -0.001106 -412420.000000 1 0 0
12.308860 -7.380188 12.036367 18.730973 -0.540113 0.872920 0.012215 -0.013561 -298482.000000 1 0 0
15.079360 -9.803588 4.281467 18.488602 -0.576469 1.337102 0.014101 -0.002755 1523360.000000 1 0 0
7.320860 -10.209388 7.816767 14.796231 -0.948705 1.014206 0.000688 -0.000738 894576.000000 1 0 0
15.181060 -3.318188 -4.376533 16.144008 -0.215190 1.845325 0.011908 0.002709 632453.000000 1 0 0
11.690460 -9.014388 9.793067 17.715253 -0.656862 0.985071 0.011697 -0.012168 -1153310.000000 1 0 0
16.892660 -6.735588 2.307967 18.331852 -0.379410 1.444562 0.016568 0.001016 1108300.000000 1 0 0
17.386260 4.079512 1.958567 17.965535 0.230471 1.461561 -0.005316 0.006947 701858.000000 1 0 0
14.732260 -5.016788 8.773267 17.865550 -0.328214 1.057477 0.015560 -0.007402 179566.000000 1 0 0
12.838860 -12.593388 6.230367 19.032793 -0.775746 1.237300 0.025941 -0.001132 -605197.000000 1 0 0
18.148760 0.672712 -0.761033 18.177161 0.037050 1.612676 -0.002409 0.006696 244476.000000 1 0 0
11.674060 -2.224388 10.974667 16.176368 -0.188284 0.825162 0.002336 0.001483 722193.000000 1 0 0
5.869160 -12.540288 10.613967 17.445978 -1.133055 0.916765 -0.005807 0.000955 -2983160.000000 1 0 0
10.759060 -5.132488 11.092767 16.283405 -0.445110 0.821353 0.010526 -0.003053 -476489.000000 1 0 0
17.772760 1.382612 5.069267 18.533216 0.077638 1.293742 0.018590 -0.007080 41779.700000 1 0 0
12.275660 -7.790888 7.189167 16.219553 -0.565517 1.111586 0.015895 -0.005384 505239.000000 1 0 0
10.732360 -8.052188 14.357967 19.651272 -0.643675 0.751540 0.017385 -0.007656 -373531.000000 1 0 0
14.169260 -0.214888 3.664367 14.636997 -0.015165 1.317755 0.000204 -0.001092 1248150.000000 1 0 0
11.624060 -7.686188 2.543467 14.165644 -0.584230 1.390265 0.006269 0.001385 1180980.000000 1 0 0
9.328160 6.084012 3.564367 11.693352 0.577934 1.261047 -0.002610 0.001442 2091220.000000 1 0 0
-3.967440 14.805712 -9.859733 18.225368 -1.308980 2.142410 -0.002940 -0.005223 361431.000000 1 0 0
8.753760 -6.369588 9.312267 14.279996 -0.629037 0.860419 0.005093 -0.001928 -553576.000000 1 0 0
5.813660 -10.603788 -8.569733 14.821581 -1.069288 2.187308 -0.012712 0.003317 100686.000000 1 0 0
5.431860 1.045412 0.536667 5.557518 0.190135 1.474080 0.003464 -0.000381 4478120.000000 1 0 0
-0.440840 9.933012 10.996367 14.824951 -1.526444 0.735124 -0.007227 0.003938 -170703.000000 1 0 0
-6.302540 -5.182788 1.014967 8.222740 0.688211 1.447047 0.006124 -0.003106 3305370.000000 1 0 0
-1.005140 4.009612 -10.819433 11.582203 -1.325175 2.776646 0.010982 -0.004823 2056070.000000 1 0 0
10.968560 5.804812 1.272267 12.474928 0.486752 1.468633 -0.001114 0.002218 815078.000000 1 0 0
-10.153840 -1.788188 -13.664433 17.117675 0.174322 2.495205 0.007060 -0.002138 2525280.000000 1 0 0
7.473160 10.897312 -6.160733 14.579237 0.969678 2.007074 0.006368 -0.000563 924119.000000 1 0 0
-12.501940 -2.885488 -9.563033 16.002379 0.226831 2.211302 0.003697 -0.006811 494741.000000 1 0 0
-3.783640 -8.637788 2.509867 9.758419 1.157938 1.310673 0.003820 -0.001178 -460677.000000 1 0 0
7.938560 -6.675388 -5.961433 11.963286 -0.699176 2.092445 -0.007938 0.000430 1174160.000000 1 0 0
14.346860 3.147012 -4.328733 15.312544 0.215932 1.857396 0.006820 0.004069 906984.000000 1 0 0
-2.527840 -4.897288 9.822467 11.262960 1.094295 0.511311 0.001643 -0.002474 1520210.000000 1 0 0
3.502960 -1.880788 -4.626033 6.099858 -0.492741 2.431626 -0.005926 -0.000031 -3818320.000000 1 0 0
-4.027240 8.438912 -3.513333 9.988864 -1.125536 1.930209 0.004098 -0.002156 1431390.000000 1 0 0
5.829760 0.131612 11.783767 13.147646 0.022572 0.459522 0.002230 0.001627 723133.000000 1 0 0
7.207960 4.757912 12.467267 15.166581 0.583437 0.605843 0.001582 0.002113 776352.000000 1 0 0
1.260560 -14.545188 12.339267 19.115675 -1.484347 0.869112 -0.013486 -0.004310 884017.000000 1 0 0
2.985460 8.727612 -9.109833 12.964306 1.241203 2.349962 0.003685 -0.002551 23698.000000 1 0 0
-4.431140 -8.880188 -4.634733 10.953241 1.107956 2.007702 0.009213 -0.002713 1256950.000000 1 0 0
5.670560 -6.597388 -4.088833 9.612457 -0.860804 2.010165 -0.009083 0.000056 1652380.000000 1 0 0
-3.121640 3.393812 8.651367 9.803507 -0.827147 0.489694 0.000224 -0.000086 2711350.000000 1 0 0
-3.731640 3.112612 -11.016233 12.040385 -0.695199 2.726156 0.007488 -0.007489 -57473.100000 1 0 0
3.105860 -6.110588 8.547967 10.956888 -1.100551 0.675898 -0.005960 0.005469 1256940.000000 1 0 0
-5.130340 -8.710988 10.501467 14.576780 1.038541 0.766382 0.006382 -0.004393 2901740.000000 1 0 0
-13.261040 -2.520888 6.546567 15.002253 0.187856 1.119233 -0.004934 0.000271 589271.000000 1 0 0
3.890860 -5.908488 -8.378333 10.965650 -0.988455 2.440368 -0.008876 0.001668 2781030.000000 1 0 0
2.967360 -0.541688 12.466267 12.826008 -0.180561 0.237402 0.004773 -0.000860 2204770.000000 1 0 0
1.495760 -1.418988 -7.561733 7.837769 -0.759065 2.875407 -0.000340 -0.003033 -708927.000000 1 0 0
3.624260 -3.566288 3.434767 6.136065 -0.777336 0.976692 0.001591 0.001991 2389240.000000 1 0 0
1.538560 0.419312 -11.820233 11.927317 0.266074 3.007492 0.009508 -0.004258 825926.000000 1 0 0
4.049060 3.536012 -10.552533 11.842897 0.717862 2.670434 0.001111 0.000154 585233.000000 1 0 0
2.803360 3.242812 3.355667 5.443819 0.857953 0.906611 -0.002157 0.001260 -509565.000000 1 0 0
-5.355240 0.860612 2.616167 6.021925 -0.159342 1.121379 0.002783 -0.003708 1505160.000000 1 0 0
-9.430740 -9.293888 5.610967 14.380478 0.778090 1.169970 0.000102 -0.000663 -2182880.000000 1 0 0
-3.098240 3.872012 -0.624033 4.998098 -0.895956 1.695977 0.003575 -0.004669 -76578.400000 1 0 0
-15.716540 -6.458688 4.996767 17.711351 0.389909 1.284791 -0.004769 -0.003801 2157770.000000 1 0 0
1.033360 6.707612 -8.068133 10.542991 1.417940 2.442242 0.006761 -0.002814 465255.000000 1 0 0
-1.570540 6.592812 -9.442433 11.622879 -1.336935 2.519054 0.005241 -0.002560 121146.000000 1 0 0
2.048960 -0.376188 5.234367 5.633680 -0.181577 0.378769 0.002851 -0.000300 2535270.000000 1 0 0
-3.454540 -0.579488 -6.332333 7.236580 0.166199 2.636325 0.016098 -0.008960 1324110.000000 1 0 0
1.865560 -1.138688 -2.520533 3.336167 -0.548012 2.427240 0.002065 0.000874 -575267.000000 1 0 0
2.419160 -8.551488 -7.631433 11.714053 -1.295107 2.280326 -0.009575 0.005431 1536100.000000 1 0 0
-2.415540 13.987012 -5.476833 15.214041 -1.399784 1.939049 0.003374 -0.003038 3177170.000000 1 0 0
6.850160 -5.131188 -8.177133 11.837199 -0.642900 2.333391 -0.005750 0.001281 3883780.000000 1 0 0
-14.105640 -4.895688 -2.190233 15.090857 0.334065 1.716447 -0.000750 -0.001397 -324259.000000 1 0 0
-2.698540 6.929912 -6.775333 10.060365 -1.199457 2.309686 0.007907 -0.003517 -1863970.000000 1 0 0
-5.798240 -1.137488 -8.109233 10.033600 0.193718 2.511899 0.015988 -0.010269 -242636.000000 1 0 0
-5.670740 -10.497288 3.490867 12.431271 1.075500 1.286155 -0.000485 -0.000945 -3303120.000000 1 0 0
8.040060 -7.511788 6.739367 12.903046 -0.751443 1.021241 0.000411 -0.000420 111824.000000 1 0 0
8.817860 -6.141888 13.206267 17.025949 -0.608392 0.683044 0.008664 0.001589 1701700.000000 1 0 0
-4.658240 9.469712 -0.749533 10.580002 -1.113642 1.641700 0.000749 0.000057 200291.000000 1 0 0
2.842460 6.592812 12.118067 14.085180 1.163732 0.534857 -0.005098 0.000150 -212963.000000 1 0 0
6.123860 -2.821688 11.059267 12.952643 -0.431774 0.547510 0.003868 0.002580 -177692.000000 1 0 0
-9.639340 -6.464888 -1.143333 11.662712 0.590774 1.668987 0.003712 -0.002580 -1073760.000000 1 0 0
0.942760 -13.388688 6.226367 14.795723 -1.500498 1.136445 -0.002545 -0.004002 1044060.000000 1 0 0
-0.499740 -3.161088 8.697267 9.267398 1.414003 0.352594 0.003379 -0.000844 1471390.000000 1 0 0
4.244560 0.730412 3.433067 5.507789 0.170413 0.897826 0.000041 0.001246 2996680.000000 1 0 0
-10.203540 5.614612 8.410267 14.365538 -0.503044 0.945365 0.001031 -0.003791 1149800.000000 1 0 0
9.355560 7.967312 -0.028733 12.288425 0.705429 1.573135 -0.001172 0.000416 -600830.000000 1 0 0
4.301160 2.870412 8.198867 9.693331 0.588481 0.562685 -0.004631 0.000601 2998620.000000 1 0 0
1.341060 2.641312 -9.718633 10.160059 1.100988 2.845736 0.007534 -0.005634 1077190.000000 1 0 0
-1.307540 -10.175188 2.920567 10.666481 1.442994 1.293446 0.002204 -0.003339 -728349.000000 1 0 0
-9.873040 9.547212 9.115267 16.483758 -0.768622 0.984854 0.006357 -0.009746 1225700.000000 1 0 0
9.737260 -2.044088 -7.725433 12.596620 -0.206920 2.231021 0.004520 0.004466 2233930.000000 1 0 0
-5.147840 -1.871388 6.686567 8.643641 0.348676 0.686322 0.000400 -0.003686 1089930.000000 1 0 0
3.142660 -7.874388 -4.903633 9.794279 -1.191067 2.095161 -0.011214 0.002303 1907450.000000 1 0 0
-5.036640 4.897912 -13.012633 14.788032 -0.771435 2.646540 -0.000719 -0.007194 2937580.000000 1 0 0
-5.603140 9.569612 5.479167 12.369072 -1.041097 1.111884 -0.003041 -0.001507 1808830.000000 1 0 0
-0.416940 -1.768088 -9.430033 9.603410 1.339213 2.951286 0.008406 -0.006726 204034.000000 1 0 0
-16.645340 0.001612 6.421767 17.841145 -0.000097 1.202591 -0.012379 0.007991 -290389.000000 1 0 0
-5.956240 -2.824088 4.053867 7.738611 0.442746 1.019433 -0.001695 -0.002478 3428860.000000 1 0 0
1.068860 -5.653088 -5.102133 7.689709 -1.383927 2.296285 -0.000987 0.000425 2179820.000000 1 0 0
-7.139940 1.406512 -8.447933 11.150094 -0.194502 2.430510 0.007089 -0.006498 2156120.000000 1 0 0
8.076460 1.919212 4.666567 9.523100 0.233303 1.058677 -0.002573 -0.000273 806165.000000 1 0 0
0.502660 -8.097788 -0.476833 8.127374 -1.508802 1.629500 -0.002172 0.000464 2050050.000000 1 0 0
5.469960 5.557112 -3.497933 8.546198 0.793301 1.992480 -0.001395 0.001376 736870.000000 1 0 0
-0.711840 -0.408288 -1.187533 1.443485 0.520756 2.536913 0.004707 -0.002845 -93164.000000 1 0 0
9.146360 6.382212 -6.414633 12.866081 0.609239 2.092744 0.002491 0.001215 1167130.000000 1 0 0
-14.910440 -7.119988 2.451767 16.704090 0.445500 1.423488 -0.005309 -0.003169 318035.000000 1 0 0
-6.337540 6.792212 9.014367 12.944396 -0.820013 0.800439 0.000574 -0.001011 845888.000000 1 0 0
-9.523240 -3.112688 -9.602433 13.877595 0.315906 2.334966 0.012008 -0.005544 291157.000000 1 0 0
14.953360 3.421112 -1.299633 15.394675 0.224915 1.655318 -0.002743 0.004759 171208.000000 1 0 0
11.979960 1.687212 -5.848333 13.437601 0.139916 2.021081 0.010168 0.004395 -367379.000000 1 0 0
1.674660 -9.448988 12.738667 15.948715 -1.395386 0.645620 -0.006867 -0.001432 -155966.000000 1 0 0
-3.582040 6.329912 7.927467 10.758417 -1.055835 0.742380 -0.001382 0.000293 1726850.000000 1 0 0
-3.990340 13.130512 -12.345633 18.459356 -1.275767 2.303391 -0.007277 -0.001541 -586938.000000 1 0 0
-10.181440 7.801612 6.586967 14.419258 -0.653825 1.096382 0.000056 -0.003248 -574371.000000 1 0 0
8.049460 -9.308088 -7.260833 14.288247 -0.857783 2.103853 -0.009370 0.001506 -772420.000000 1 0 0
5.718060 -3.833888 -0.387433 6.895289 -0.590643 1.627014 -0.001626 0.000837 -2436360.000000 1 0 0
-1.610540 -4.484588 4.211767 6.359587 1.226013 0.846951 0.001755 -0.002753 634525.000000 1 0 0
9.899560 -1.994988 -2.672533 10.446229 -0.198859 1.829510 0.003120 0.001493 -2656010.000000 1 0 0
13.511260 7.164512 1.428367 15.359838 0.487563 1.477668 0.001733 0.003008 -130137.000000 1 0 0
5.362760 -3.717788 -3.344133 7.332419 -0.606188 2.044376 -0.003037 0.000009 -3433100.000000 1 0 0
-12.186940 -5.934088 1.897267 13.687020 0.453130 1.431731 0.000711 -0.000568 2067750.000000 1 0 0
3.679960 -5.735788 -0.269233 6.820106 -1.000364 1.610283 -0.001754 -0.000289 207634.000000 1 0 0
-5.258640 3.651912 -8.618033 10.735933 -0.606998 2.502652 0.009701 -0.006703 814464.000000 1 0 0
-1.699040 -9.215888 7.225867 11.833532 1.388484 0.913945 0.001427 -0.001760 1924660.000000 1 0 0
-7.419740 -7.375388 2.607667 10.781874 0.782400 1.326518 0.003212 -0.002152 -2263470.000000 1 0 0
-5.813840 13.128712 -8.462633 16.666733 -1.153918 2.103374 0.007136 -0.010592 478145.000000 1 0 0
9.093360 -13.932388 -4.213633 17.162614 -0.992541 1.818844 -0.003797 0.005580 318492.000000 1 0 0
-6.572040 -5.141088 -6.751133 10.733140 0.663834 2.251061 0.015253 -0.005821 1249020.000000 1 0 0
3.464160 0.446412 -6.245733 7.156037 0.128160 2.631690 -0.003961 -0.002681 1666090.000000 1 0 0
-3.636840 5.743712 5.005867 8.442484 -1.006332 0.936094 -0.002299 -0.000022 1784090.000000 1 0 0
-2.681240 -10.821688 -2.895333 11.518721 1.327922 1.824880 0.005204 -0.001571 1285990.000000 1 0 0
-12.636840 -0.463188 1.742267 12.764786 0.036637 1.433879 0.000588 -0.002682 1397630.000000 1 0 0
8.239260 -12.003188 -6.099933 15.785154 -0.969241 1.967559 -0.010515 0.000894 -1691370.000000 1 0 0
6.152160 3.917112 0.998567 7.361384 0.566972 1.434727 0.000129 0.000516 -570909.000000 1 0 0
3.414160 -4.822088 -11.036233 12.518285 -0.954705 2.650057 -0.003657 0.001329 381951.000000 1 0 0
-7.637040 4.250712 8.638467 12.288859 -0.507890 0.791258 -0.001598 -0.002224 1823100.000000 1 0 0
8.260360 8.713412 4.131267 12.697420 0.812083 1.239401 -0.001610 0.002471 1441940.000000 1 0 0
0.329560 10.643112 -6.288133 12.366287 1.539842 2.104227 0.004426 -0.001802 1722170.000000 1 0 0
5.447760 8.010512 3.345467 10.248831 0.973567 1.238278 -0.003607 -0.000054 3084250.000000 1 0 0
8.150960 6.668412 -3.824033 11.203977 0.685689 1.919107 -0.000318 0.002106 2129610.000000 1 0 0
10.476060 2.551112 -8.352733 13.639067 0.238869 2.229905 0.002351 0.006081 435919.000000 1 0 0
3.333860 -12.562088 -0.267033 12.999691 -1.311386 1.591339 -0.006978 -0.000535 -2760460.000000 1 0 0
0.605960 2.127112 5.246867 5.693980 1.293273 0.398932 0.002235 0.000558 -456938.000000 1 0 0
-4.822140 13.482012 1.472667 14.393972 -1.227303 1.468306 -0.007856 0.003298 2455540.000000 1 0 0
8.175060 4.107112 -8.149133 12.251871 0.465562 2.298469 -0.003707 0.003785 1211200.000000 1 0 0
-13.860540 -0.486288 -3.598033 14.328185 0.035070 1.824629 -0.001294 -0.006857 -80082.800000 1 0 0
-8.608740 0.003412 -0.500833 8.623297 -0.000396 1.628908 -0.000543 -0.002387 -848227.000000 1 0 0
1.747360 -3.737588 -1.098533 4.269614 -1.133477 1.831014 0.000928 -0.001518 -1028230.000000 1 0 0
8.015160 -5.591688 -0.336133 9.778688 -0.609140 1.605177 -0.002189 0.000414 1608870.000000 1 0 0
-2.258940 -1.174188 7.433167 7.857067 0.479359 0.329981 0.003775 -0.002440 2074400.000000 1 0 0
-5.761540 8.778412 -11.574133 15.627425 -0.989984 2.404803 -0.003808 -0.002650 -1885850.000000 1 0 0
-6.212240 9.272712 -8.762133 14.189788 -0.980525 2.236351 -0.001123 -0.001741 -946886.000000 1 0 0
-1.547740 14.042412 -8.397033 16.434567 -1.461020 2.107071 0.000181 -0.002894 -1562770.000000 1 0 0
-1.487740 7.241912 9.743067 12.230536 -1.368181 0.649117 -0.006074 0.001317 784118.000000 1 0 0
10.042960 2.386512 -3.953033 11.053640 0.233303 1.936517 0.002870 0.004300 -1219310.000000 1 0 0
-2.992140 -7.511388 -7.012333 10.702647 1.191716 2.285238 0.008869 -0.000415 2453370.000000 1 0 0
-5.469540 -5.087388 -1.607333 7.640740 0.749215 1.782743 0.010150 -0.002771 1079630.000000 1 0 0
5.721160 7.430812 -8.940333 12.956782 0.914665 2.332302 0.001161 -0.000294 -835594.000000 1 0 0
-9.540440 5.304112 -7.471633 13.227959 -0.507408 2.171031 -0.002389 0.001123 -144161.000000 1 0 0
-0.410540 6.117512 -5.302733 8.106261 -1.503788 2.283858 0.007297 -0.003912 -726558.000000 1 0 0
-8.222340 2.876812 -6.319733 10.762061 -0.336566 2.198420 0.005833 -0.003643 739217.000000 1 0 0
3.651760 1.458712 -2.043433 4.431570 0.380036 2.050040 -0.000520 -0.001788 3249920.000000 1 0 0
-6.756440 12.510212 -3.401533 14.619347 -1.075606 1.805622 0.001192 0.001849 897133.000000 1 0 0
-6.585440 3.222612 -2.344233 7.697316 -0.455095 1.880264 0.004541 -0.002006 -599152.000000 1 0 0
12.159960 4.064112 -0.742433 12.842618 0.322549 1.628639 0.004331 0.003111 1252490.000000 1 0 0
2.389660 12.341212 -5.489533 13.716813 1.379531 1.982537 -0.002119 -0.000618 99011.500000 1 0 0
-9.266740 -1.345188 -4.360533 10.329388 0.144156 2.006610 0.002453 -0.003086 -572044.000000 1 0 0
-1.121940 5.686512 3.505567 6.773786 -1.376000 1.026847 -0.001876 -0.000258 -105915.000000 1 0 0
11.511460 2.546012 11.956267 16.791314 0.217668 0.778382 0.003183 0.005590 -193294.000000 1 0 0
-7.133340 -2.303188 -5.789033 9.471120 0.312310 2.228410 0.014305 -0.006223 -1173660.000000 1 0 0
7.416060 -7.433788 10.889167 15.127231 -0.786592 0.767226 0.004142 -0.000811 294686.000000 1 0 0
-5.503940 -1.927188 -10.883333 12.347240 0.336806 2.649696 0.014780 -0.004964 -621344.000000 1 0 0
0.827860 -6.198888 4.494367 7.701357 -1.438032 0.947665 -0.002267 -0.000117 523472.000000 1 0 0
-4.776740 -9.282088 7.454067 12.827218 1.095522 0.950700 -0.000277 -0.003268 2375530.000000 1 0 0
-8.606140 9.248712 1.721467 12.750207 -0.821371 1.435368 -0.003259 0.001297 1510180.000000 1 0 0
-8.125340 7.282412 -9.092533 14.203128 -0.730745 2.265527 -0.000252 -0.001345 -346326.000000 1 0 0
-1.238640 -10.599288 -0.167333 10.672728 1.454463 1.586476 0.002177 -0.000469 -471903.000000 1 0 0
-3.928140 10.279712 7.804367 13.491142 -1.205793 0.953931 0.001285 0.001004 1438210.000000 1 0 0
-7.383940 12.064712 2.041367 14.291502 -1.021580 1.427468 -0.006315 -0.002178 268537.000000 1 0 0
-8.098040 -8.209988 -2.873433 11.884392 0.792263 1.814998 0.011756 -0.004484 1253000.000000 1 0 0
5.391560 4.641912 -8.048433 10.742138 0.710822 2.417709 0.001131 0.002281 2176040.000000 1 0 0
-9.064940 -0.131588 -10.216233 13.658765 0.014515 2.415782 0.003924 -0.007215 -1634320.000000 1 0 0
-15.165640 -2.237688 -1.564533 15.409466 0.146493 1.672502 -0.002133 -0.005030 723647.000000 1 0 0
-7.239140 -5.769788 8.796367 12.769952 0.672925 0.810918 0.004847 -0.002551 -54579.700000 1 0 0
8.099560 3.481012 -0.948633 8.866804 0.405911 1.677988 0.000334 0.003270 686737.000000 1 0 0
11.984560 7.253112 -5.865033 15.186702 0.544238 1.967300 0.011718 -0.000214 738118.000000 1 0 0
3.730260 13.332412 -9.557333 16.822921 1.297983 2.175008 -0.004447 -0.004544 321273.000000 1 0 0
-9.737640 5.479812 -0.458033 11.183013 -0.512576 1.611766 -0.002283 0.000602 588263.000000 1 0 0
11.257160 -1.332388 -5.278933 12.504641 -0.117811 2.006621 0.008155 0.002747 -36999.200000 1 0 0
10.585160 1.787512 -1.217233 10.803817 0.167291 1.683703 0.002715 0.003037 2487340.000000 1 0 0
14.579360 5.077012 4.801367 16.167465 0.335100 1.269271 0.005419 -0.000022 1579890.000000 1 0 0
0.894960 -0.843688 10.318367 10.391413 -0.755917 0.118640 0.005115 -0.001875 3136460.000000 1 0 0
-7.992140 1.434712 -12.574833 14.968605 -0.177624 2.568228 0.004109 -0.004622 487745.000000 1 0 0
3.079960 -11.509588 -7.884633 14.287204 -1.309323 2.155397 -0.010002 0.005724 -343171.000000 1 0 0
2.898260 5.050912 -6.716433 8.889437 1.049857 2.427293 0.002752 -0.000308 -1587250.000000 1 0 0
6.527360 7.970012 0.508567 10.314367 0.884583 1.521470 -0.001230 -0.001245 -566993.000000 1 0 0
-8.995940 -5.272088 6.749267 12.420727 0.530100 0.996329 -0.000590 0.000892 -1550940.000000 1 0 0
-0.384040 -6.903888 -11.884033 13.749232 1.515227 2.614636 -0.001265 0.002886 1753400.000000 1 0 0
6.305260 -13.493888 -4.737633 15.629666 -1.133676 1.878759 -0.009216 0.006115 2001120.000000 1 0 0
-3.290940 -0.356488 10.069967 10.600076 0.107903 0.317592 0.002523 -0.000514 142697.000000 1 0 0
8.547860 8.467112 6.962867 13.901058 0.780653 1.046172 -0.006382 0.001190 -640732.000000 1 0 0
-7.980240 5.753212 -2.657033 10.190363 -0.624637 1.834585 0.002853 -0.002061 -24373.100000 1 0 0
-5.409840 5.866312 -6.476633 10.277488 -0.825857 2.252577 0.007425 -0.002447 476382.000000 1 0 0
3.238760 -13.700888 2.557067 14.308825 -1.338667 1.391126 -0.003163 -0.006562 -1307320.000000 1 0 0
-11.164340 -6.986688 6.440067 14.660517 0.559177 1.116000 0.001121 -0.001834 -813255.000000 1 0 0
-12.938840 -3.727388 -6.807933 15.088239 0.280483 2.038915 0.007606 -0.004909 506838.000000 1 0 0
6.078560 0.353812 -7.339733 9.536548 0.058141 2.449077 -0.004061 0.003611 3138.930000 1 0 0
-1.446440 2.133612 -2.460733 3.563663 -0.975036 2.332985 0.007406 -0.004819 3407000.000000 1 0 0
7.535260 0.994012 -4.973733 9.083293 0.131158 2.150253 -0.000300 0.003568 1156690.000000 1 0 0
3.668660 -4.425988 10.922167 12.342697 -0.878686 0.484497 -0.001698 0.004133 462713.000000 1 0 0
6.001460 -2.571488 2.055467 6.845072 -0.404812 1.265806 0.003010 0.000400 -457428.000000 1 0 0
-6.156040 7.692412 1.146567 9.918904 -0.895888 1.454943 -0.001233 -0.000761 1393880.000000 1 0 0
6.093260 -3.365088 7.978267 10.587936 -0.504580 0.717390 0.002678 -0.002195 1096670.000000 1 0 0
6.724960 -2.309488 -7.871233 10.607315 -0.330801 2.406930 -0.004994 0.001880 -777746.000000 1 0 0
11.843760 -8.270888 -5.924533 15.613530 -0.609606 1.959997 0.005168 0.000458 1099780.000000 1 0 0
5.560260 -9.666488 9.991567 14.972939 -1.048804 0.840207 -0.008527 0.004120 1989790.000000 1 0 0
-6.708640 7.598412 -4.488133 11.085353 -0.847509 1.987634 0.005229 -0.000901 2002730.000000 1 0 0
-1.260940 -7.494788 9.682967 12.309414 1.404115 0.665463 0.004470 -0.003299 -261367.000000 1 0 0
10.023960 -9.375388 0.756067 13.745883 -0.751978 1.515765 -0.000066 0.001125 295663.000000 1 0 0
11.002760 6.040112 9.858167 15.960174 0.502047 0.905016 -0.002127 0.000500 1839970.000000 1 0 0
-15.315340 -4.231688 -4.934333 16.637742 0.269578 1.871900 -0.007467 0.000102 3598660.000000 1 0 0
-4.744840 -4.613388 7.868867 10.281825 0.771352 0.699261 0.001885 -0.004268 -682298.000000 1 0 0
2.977560 10.935712 -11.069333 15.842531 1.304962 2.344389 -0.002430 -0.000890 -375994.000000 1 0 0
9.909260 -1.448788 1.446067 10.118475 -0.145177 1.427392 0.000976 0.000658 -455837.000000 1 0 0
-1.636240 -2.645988 0.665167 3.181349 1.016968 1.360159 0.003465 -0.002240 -361597.000000 1 0 0
1.570460 2.996612 0.880067 3.495790 1.088072 1.316308 -0.000540 -0.002052 -25942.300000 1 0 0
-8.956740 -2.274288 4.273667 10.181346 0.248664 1.137621 -0.002868 -0.001215 3182650.000000 1 0 0
9.923960 4.954012 -2.596133 11.391537 0.463005 1.800717 -0.000383 0.004718 678847.000000 1 0 0
2.598860 8.494112 2.518167 9.232832 1.273881 1.294556 -0.004298 -0.001252 2052150.000000 1 0 0
-8.212040 -0.047488 2.487867 8.580754 0.005783 1.276637 -0.001404 -0.002918 1260690.000000 1 0 0
7.063660 2.084412 13.767067 15.613206 0.286946 0.491220 0.002607 0.003313 -219735.000000 1 0 0
6.810760 4.331212 3.722167 8.888216 0.566425 1.138700 -0.003015 0.001146 745256.000000 1 0 0
-0.328940 3.329012 7.699667 8.394963 -1.472306 0.409859 -0.001779 -0.000021 -451683.000000 1 0 0
2.640060 -10.324388 9.270667 14.124736 -1.320450 0.854835 -0.014699 0.000032 2645940.000000 1 0 0
1.298460 -4.555388 6.876667 8.350216 -1.293122 0.603187 -0.003254 0.001377 24153.400000 1 0 0
-0.129740 10.734612 -1.947933 10.910691 -1.558711 1.750293 0.001913 -0.001376 2465260.000000 1 0 0
8.718960 5.421412 8.032467 13.035816 0.556292 0.906907 -0.006893 0.000969 -1457560.000000 1 0 0
2.703660 11.343012 -2.866633 12.007968 1.336808 1.811852 0.003354 -0.004967 1240040.000000 1 0 0
1.528060 2.479212 -6.660033 7.268941 1.018442 2.729367 0.002623 -0.004601 2081150.000000 1 0 0
-13.606040 -2.283688 3.560567 14.248410 0.166294 1.318227 0.000480 -0.002770 384108.000000 1 0 0
-0.977040 -10.653188 -5.352633 11.962261 1.479339 2.034719 -0.000487 0.001082 500010.000000 1 0 0
-5.725140 2.810412 0.435767 6.392616 -0.456333 1.502576 0.004139 -0.003913 1536360.000000 1 0 0
3.683560 7.273212 -5.043733 9.586838 1.101997 2.124816 0.001356 -0.002196 -2526970.000000 1 0 0
2.994360 9.809712 -6.519633 12.153282 1.274535 2.137022 0.002797 -0.000827 454934.000000 1 0 0
-12.203040 1.751712 -2.561333 12.591390 -0.142573 1.775645 -0.000991 -0.002146 856255.000000 1 0 0
-2.448140 9.708512 -5.735933 11.539043 -1.323782 2.091037 0.004741 -0.003230 1840030.000000 1 0 0
-1.343240 3.265712 1.737867 3.935652 -1.180573 1.113448 -0.000500 -0.002658 -40420.000000 1 0 0
12.796660 3.669812 9.636667 16.434335 0.279284 0.944221 0.014260 0.001006 317960.000000 1 0 0
-2.488140 -9.570088 11.557367 15.210199 1.316436 0.707724 0.000981 -0.006459 2816170.000000 1 0 0
-0.450440 -8.943888 -7.556333 11.717260 1.520476 2.271674 0.000515 0.002288 1426430.000000 1 0 0
2.400560 7.679512 -0.517233 8.062576 1.267827 1.634993 -0.001644 -0.000991 320140.000000 1 0 0
-11.887840 -1.271488 -5.610833 13.206774 0.106552 2.009587 0.002948 -0.002140 -916234.000000 1 0 0
-6.212940 -7.128788 -10.967233 14.481037 0.853936 2.430044 0.011113 -0.002443 858840.000000 1 0 0
-4.713640 -2.328888 -1.468233 5.458739 0.458896 1.843119 0.008215 -0.003316 292439.000000 1 0 0
-10.422440 3.690012 4.583267 11.968700 -0.340274 1.177822 -0.003735 0.000102 3280520.000000 1 0 0
6.845960 9.322612 -3.699333 12.143448 0.937394 1.880353 0.000546 -0.000040 -369978.000000 1 0 0
1.232060 -2.696788 -11.569533 11.943397 -1.142251 2.890723 0.006241 -0.003791 478149.000000 1 0 0
1.283960 8.797912 7.488767 11.624691 1.425880 0.870804 -0.010943 0.006919 875653.000000 1 0 0
10.310860 0.281912 10.416767 14.659548 0.027334 0.780476 -0.001399 0.005041 618334.000000 1 0 0
-5.336440 -0.879488 -3.943133 6.693234 0.163340 2.200768 0.010699 -0.007099 48430.600000 1 0 0
11.720060 5.639712 5.446867 14.100870 0.448496 1.174202 0.000218 -0.000679 2897140.000000 1 0 0
9.973460 -3.489588 3.617167 11.168304 -0.336574 1.240971 0.004644 -0.003316 -253998.000000 1 0 0
7.245860 -1.635488 -3.438733 8.185487 -0.221993 2.004353 -0.001419 0.001867 -2885430.000000 1 0 0
2.419260 9.196612 10.408467 14.098464 1.313564 0.740295 -0.009092 0.003150 2319080.000000 1 0 0
2.488760 -10.892188 6.354167 12.853370 -1.346162 1.053700 -0.013658 0.000903 1963050.000000 1 0 0
5.924260 -7.561088 -1.237433 9.684944 -0.906186 1.698915 -0.009435 -0.000284 1396750.000000 1 0 0
-0.198840 -5.550788 -2.213433 5.979136 1.534990 1.950013 -0.000011 0.001367 -260304.000000 1 0 0
7.724860 -5.044988 2.667067 9.604093 -0.578541 1.289396 0.002318 -0.001213 2009320.000000 1 0 0
-2.615940 -12.427688 4.621467 13.514752 1.363332 1.221797 -0.001053 -0.001812 -740384.000000 1 0 0
4.870960 -10.314488 -1.145833 11.464198 -1.129599 1.670912 -0.008979 -0.000148 1163320.000000 1 0 0
0.900660 0.160612 1.118767 1.445207 0.176472 0.685469 -0.000976 -0.000277 -2015390.000000 1 0 0
-1.567140 8.457612 2.431667 8.938688 -1.387581 1.295286 -0.004389 0.000173 745839.000000 1 0 0
-7.615140 0.671912 -3.059633 8.234268 -0.088006 1.951499 0.003712 -0.001597 -1043300.000000 1 0 0
4.381960 -6.326388 12.973867 15.084627 -0.965022 0.535385 0.000441 0.001913 -603951.000000 1 0 0
-5.139940 13.010612 8.434267 16.334989 -1.194558 1.028235 0.005081 -0.006196 881983.000000 1 0 0
0.548960 6.101412 8.133167 10.182190 1.481065 0.645558 -0.007678 0.003947 -1387520.000000 1 0 0
7.963260 -0.495188 -0.772433 8.015945 -0.062104 1.667308 0.003499 -0.000727 2731490.000000 1 0 0
2.442860 -9.276488 -2.426733 9.894939 -1.313303 1.818574 -0.008950 0.001327 1803100.000000 1 0 0
-7.103140 12.143512 4.934867 14.908803 -1.041529 1.233429 -0.004151 -0.002621 1722720.000000 1 0 0
-15.021340 0.263412 0.137967 15.024283 -0.017534 1.561613 0.000776 -0.002923 -1127510.000000 1 0 0
6.847160 -0.619588 3.950767 7.929442 -0.090243 1.049228 0.003829 0.000304 353042.000000 1 0 0
-4.219140 -5.024888 5.081367 8.298851 0.872343 0.911833 0.002737 -0.004082 -230600.000000 1 0 0
2.853560 5.080112 6.859067 8.999842 1.059006 0.704197 -0.007050 0.002670 -558058.000000 1 0 0
2.100760 -7.251988 1.830867 7.768951 -1.288834 1.332894 -0.005593 -0.000325 2776110.000000 1 0 0
-2.486140 6.421212 -1.805933 7.118585 -1.201394 1.827292 0.004784 -0.001272 1974640.000000 1 0 0
2.727460 -3.772388 -6.538033 8.025947 -0.944796 2.522856 -0.007081 -0.000613 -1516950.000000 1 0 0
-5.190240 0.942012 -12.162233 13.256918 -0.179542 2.732357 0.008995 -0.006045 663176.000000 1 0 0
-7.412240 6.390712 -11.860933 15.377394 -0.711525 2.451713 -0.006181 -0.002705 1261950.000000 1 0 0
-1.056440 11.264212 -9.028533 14.474562 -1.477283 2.244330 -0.001423 0.000298 2638820.000000 1 0 0
4.647960 5.827012 -0.646133 7.481650 0.897485 1.657266 -0.000913 -0.000732 275933.000000 1 0 0
-2.600640 13.349312 3.560367 14.058580 -1.378392 1.314756 -0.009215 0.003626 1929790.000000 1 0 0
1.480560 -7.859488 10.155367 12.926527 -1.384600 0.667095 -0.006296 -0.000174 -22031.400000 1 0 0
12.928460 -0.255488 -1.162433 12.983128 -0.019759 1.660450 0.008204 0.001715 -616946.000000 1 0 0
-0.999740 3.067012 -5.356333 6.252707 -1.255691 2.599522 0.009418 -0.007029 1879350.000000 1 0 0
6.676060 1.153612 7.259567 9.929850 0.171109 0.750885 0.000442 0.001099 1251000.000000 1 0 0
5.515260 -6.088788 6.852467 10.698025 -0.834783 0.875601 -0.004941 0.003784 874161.000000 1 0 0
12.215160 -4.939788 2.610267 13.432242 -0.384292 1.375223 0.003494 0.000485 -432984.000000 1 0 0
4.350260 -9.190188 13.914767 17.233835 -1.128688 0.631048 -0.002926 0.000817 33529.600000 1 0 0
-2.736240 -4.353488 -1.359533 5.318665 1.009672 1.829281 0.008562 -0.002499 1687630.000000 1 0 0
-9.346340 -5.130688 -7.479233 13.023707 0.502038 2.182519 0.016975 -0.007801 824276.000000 1 0 0
-10.578740 -3.076788 7.835067 13.519047 0.283038 0.952611 -0.002174 0.000756 117302.000000 1 0 0
12.047760 -0.643988 1.595667 12.170020 -0.053402 1.439303 0.000271 -0.000990 499823.000000 1 0 0
-7.613240 4.733512 4.405867 9.988955 -0.556257 1.114001 -0.000571 -0.003290 1729560.000000 1 0 0
-0.999140 10.565812 6.940467 12.680881 -1.476513 0.991641 -0.005629 0.005470 1868480.000000 1 0 0
7.381060 -10.119788 1.813867 12.656234 -0.940630 1.426983 -0.005537 -0.001042 2651140.000000 1 0 0
-4.324540 -1.654688 1.590867 4.895967 0.365441 1.239854 0.002504 -0.001571 1893420.000000 1 0 0
6.664160 -15.066988 -0.956933 16.502753 -1.154362 1.628815 -0.001045 0.004125 -2593070.000000 1 0 0
-10.525540 1.632512 2.403167 10.919126 -0.153874 1.348892 -0.005721 0.000171 -227634.000000 1 0 0
-2.950740 8.311212 -11.373933 14.392688 -1.229646 2.482026 -0.002662 0.001223 -142191.000000 1 0 0
-1.170540 -5.105788 -6.944633 8.698687 1.345433 2.495353 0.002713 -0.000792 116050.000000 1 0 0
12.947060 -0.514188 6.419967 14.460523 -0.039694 1.110777 0.008429 -0.004814 1113510.000000 1 0 0
5.876760 -13.345988 3.785967 15.066029 -1.156005 1.316782 -0.006206 -0.002173 583881.000000 1 0 0
-5.568440 3.503212 -4.914833 8.211918 -0.561556 2.212424 0.009090 -0.004365 2451480.000000 1 0 0
-4.289940 8.014412 3.390167 9.701939 -1.079326 1.213832 -0.002500 -0.000694 64312.300000 1 0 0
14.071060 6.154412 -4.025133 15.876814 0.412310 1.827117 0.014879 0.001749 -1499550.000000 1 0 0
-6.740240 -8.444388 5.317467 12.042175 0.897159 1.113448 0.003948 -0.000655 -252064.000000 1 0 0
1.783760 11.347412 2.698567 11.799484 1.414877 1.340052 -0.002701 -0.000279 768788.000000 1 0 0
-7.397840 7.250012 6.071867 12.006593 -0.775306 1.040590 -0.001129 -0.003434 -436613.000000 1 0 0
-17.412840 -4.155888 5.144967 18.626569 0.234285 1.290941 -0.002002 -0.001061 -640070.000000 1 0 0
7.441060 -13.145688 -8.583533 17.373990 -1.055717 2.087532 -0.007883 0.005987 -614381.000000 1 0 0
-2.252040 12.794612 -2.674733 13.263785 -1.396566 1.773846 -0.003242 0.001032 716255.000000 1 0 0
-5.506940 13.909812 -5.677833 16.001470 -1.193827 1.933531 0.006091 -0.003133 3236820.000000 1 0 0
-5.691640 2.441612 7.420067 9.665073 -0.405239 0.695521 0.000849 -0.002142 24965.200000 1 0 0
-7.385840 5.078012 1.507667 9.088999 -0.602310 1.404148 0.000341 -0.000547 2243370.000000 1 0 0
10.614760 -5.729888 -5.066433 13.083328 -0.494981 1.968436 0.001630 0.000476 2380190.000000 1 0 0
-9.555440 -0.677888 6.776367 11.733930 0.070824 0.955131 -0.006008 -0.000549 915265.000000 1 0 0
-11.284040 -4.562588 -2.573233 12.440591 0.384242 1.779142 0.005098 -0.002780 -709326.000000 1 0 0
6.597260 -4.439288 13.590267 15.745681 -0.592305 0.529399 0.011143 -0.000435 -1779700.000000 1 0 0
0.204260 10.257312 -11.570233 15.463650 1.550885 2.416173 -0.000068 -0.000744 -1284230.000000 1 0 0
-11.814640 -3.173788 1.420567 12.315708 0.262436 1.455193 0.000225 -0.003564 1928450.000000 1 0 0
5.256960 5.842812 5.453467 9.566315 0.838130 0.964206 -0.006341 0.001657 -5650620.000000 1 0 0
-7.115740 -0.034988 8.110267 10.789412 0.004917 0.720179 -0.003137 -0.000784 353088.000000 1 0 0
1.778660 2.082612 9.612767 9.995309 0.863954 0.277556 0.001553 -0.001008 3248950.000000 1 0 0
10.445160 -4.857588 -2.079833 11.705692 -0.435304 1.749422 -0.000402 0.001882 1663950.000000 1 0 0
-9.758040 -2.320088 -1.698133 10.172797 0.233427 1.738510 0.001404 -0.003480 193497.000000 1 0 0
-1.956640 -5.132588 -9.954033 11.369022 1.206585 2.637349 0.009989 -0.001657 1123850.000000 1 0 0
7.717660 -1.549888 6.495867 10.205916 -0.198187 0.880870 0.004512 -0.001498 1116560.000000 1 0 0
1.552860 -11.902188 -2.572633 12.275662 -1.441061 1.781933 -0.005041 0.002009 -3237930.000000 1 0 0
-0.723840 -1.554188 4.831867 5.127025 1.134934 0.340969 0.003051 -0.000913 1377960.000000 1 0 0
7.592260 1.401112 9.916667 12.567650 0.182492 0.661514 0.002230 0.004113 304253.000000 1 0 0
-3.884240 10.770512 -7.989933 13.961743 -1.224677 2.180072 0.005518 -0.000076 3233710.000000 1 0 0
-9.567940 12.625412 6.439467 17.100095 -0.922302 1.184700 0.002904 -0.008950 1055910.000000 1 0 0
-2.562840 -2.366588 -11.059733 11.596835 0.745607 2.836055 0.012267 -0.006414 -1933990.000000 1 0 0
1.141160 -11.975888 11.078167 16.353896 -1.475795 0.826571 -0.014321 0.001695 1958860.000000 1 0 0
1.349060 3.489712 -1.944833 4.216685 1.201910 2.050170 0.003461 -0.002597 1633430.000000 1 0 0
-1.968140 -9.423988 -12.141833 15.495458 1.364912 2.471193 -0.000271 0.001363 2527880.000000 1 0 0
1.258660 -2.731188 1.590267 3.401847 -1.138959 1.084368 0.003496 -0.000774 4006360.000000 1 0 0
-1.057640 -2.169788 -6.617433 7.043933 1.117248 2.791822 0.006818 -0.006989 356884.000000 1 0 0
1.848560 5.852112 3.989267 7.319743 1.264836 0.994406 -0.007166 0.001415 -670032.000000 1 0 0
-10.844940 8.507012 3.666267 14.262661 -0.665170 1.310824 -0.007412 -0.000003 3061590.000000 1 0 0
-16.398840 -1.614388 3.891267 16.931337 0.098129 1.338897 -0.000940 0.001687 519115.000000 1 0 0
-12.257840 0.254412 6.860467 14.049391 -0.020752 1.060643 -0.003425 0.001039 281266.000000 1 0 0
-5.137640 3.057312 4.695967 7.602277 -0.536795 0.904975 -0.001614 -0.002222 662536.000000 1 0 0
5.235560 -6.133688 3.891867 8.954320 -0.864231 1.121163 -0.005095 0.000843 265958.000000 1 0 0
9.999460 3.416212 6.234667 12.269099 0.329208 1.037749 -0.004850 0.001363 1458260.000000 1 0 0
-12.123640 5.798712 3.255167 13.827647 -0.446136 1.333156 -0.000863 0.002436 2219780.000000 1 0 0
-4.871640 12.272812 -1.275833 13.265841 -1.192926 1.667119 -0.006592 0.002244 812793.000000 1 0 0
-1.776440 -12.191588 10.247367 16.024952 1.426104 0.876996 0.005375 -0.009500 1206520.000000 1 0 0
5.258960 6.326612 13.915167 16.165227 0.877292 0.533940 -0.001029 -0.001343 983209.000000 1 0 0
12.914960 -3.854288 -5.896433 14.711208 -0.290021 1.983200 0.007517 0.000966 1637610.000000 1 0 0
3.540860 -2.544988 6.394767 7.740006 -0.623198 0.598473 -0.000376 0.001823 2257470.000000 1 0 0
7.232760 -11.969688 -0.645833 14.000119 -1.027253 1.616943 -0.005691 0.003357 -1348260.000000 1 0 0
-6.113540 -6.612188 -4.116433 9.901587 0.824562 1.999547 0.012706 -0.004236 -2619290.000000 1 0 0
0.325060 -8.982488 5.022067 10.296208 -1.534624 1.061276 -0.002234 -0.001450 1519120.000000 1 0 0
-10.293140 2.499012 -0.311633 10.596741 -0.238176 1.600209 -0.002534 0.000549 -205621.000000 1 0 0
-1.833440 8.909812 -0.392133 9.104945 -1.367852 1.613878 0.003458 -0.001971 541288.000000 1 0 0
-3.538040 2.270212 -6.527533 7.764037 -0.570489 2.569444 0.015308 -0.008323 1431150.000000 1 0 0
-12.587640 3.067812 6.534467 14.510666 -0.239056 1.103671 -0.003992 0.000205 954740.000000 1 0 0
11.377660 1.514112 7.964667 13.970669 0.132300 0.964170 0.003661 -0.001603 -1770480.000000 1 0 0
5.975860 2.725112 -3.223533 7.316304 0.427849 2.027059 -0.002679 0.001949 765507.000000 1 0 0
10.623360 -2.381588 6.346267 12.601700 -0.220538 1.043031 0.003116 -0.004447 3882510.000000 1 0 0
-0.895040 10.944712 4.029167 11.697094 -1.489200 1.219134 -0.003337 0.003025 2009710.000000 1 0 0
-1.500340 -12.200688 7.427567 14.362331 1.448439 1.027271 -0.004860 -0.000711 -352878.000000 1 0 0
8.090360 8.634912 -7.856933 14.203768 0.817945 2.156947 0.006849 -0.001090 2180640.000000 1 0 0
-4.650440 -5.892288 -8.749633 11.528301 0.902650 2.432526 0.013272 -0.001932 84418.900000 1 0 0
-8.540640 -5.244788 -11.639133 15.359679 0.550721 2.430688 0.015842 -0.003215 1664690.000000 1 0 0
5.989560 -0.709488 -9.978733 11.659902 -0.117905 2.597923 -0.002439 0.003398 -135827.000000 1 0 0
-11.219640 -5.463688 -5.378533 13.588996 0.453174 1.977736 0.006481 -0.008417 -1080190.000000 1 0 0
4.003160 8.893612 -2.717533 10.124555 1.147846 1.842539 0.002203 -0.003384 95514.000000 1 0 0
11.484260 -10.431388 -4.046933 16.033706 -0.737393 1.825958 -0.001388 0.000929 609074.000000 1 0 0
3.899960 -11.349888 3.915767 12.623901 -1.239823 1.255407 -0.009812 0.000387 885581.000000 1 0 0
-1.024440 0.823712 3.217467 3.475640 -0.677212 0.387863 0.002497 -0.002492 -2476240.000000 1 0 0
-10.502940 -5.028288 4.471267 12.473478 0.446504 1.204177 0.001425 -0.002015 3020920.000000 1 0 0
4.631260 -8.732588 2.673467 10.239828 -1.083171 1.306650 -0.007905 0.002451 2723420.000000 1 0 0
-3.714040 -5.718988 2.593967 7.295860 0.994827 1.207305 0.002785 -0.002499 2605250.000000 1 0 0
10.039160 4.999412 12.332567 16.669465 0.462039 0.737979 0.002520 0.001744 -708410.000000 1 0 0
1.595160 -12.317388 -5.373933 13.532987 -1.442008 1.979150 -0.004969 0.003669 1191850.000000 1 0 0
9.760060 -10.846088 -1.693433 14.688911 -0.838054 1.686340 -0.003447 0.000155 -661572.000000 1 0 0
9.561760 -4.550188 -9.280633 14.080540 -0.444161 2.290432 0.002385 0.002285 1548720.000000 1 0 0
-7.396740 -2.989588 -13.087533 15.327521 0.384102 2.594150 0.012376 -0.001236 2140120.000000 1 0 0
0.468160 6.217912 -2.542033 6.733761 1.495646 1.957897 0.002675 -0.003098 2696310.000000 1 0 0
-5.921440 -9.421188 1.016967 11.173918 1.009667 1.479658 0.002307 -0.001573 145138.000000 1 0 0
-9.006140 -4.067688 0.556767 9.897809 0.424231 1.514515 -0.001887 -0.003663 4381240.000000 1 0 0
2.006460 3.718912 12.079867 12.797632 1.076028 0.336506 -0.002932 -0.001781 694518.000000 1 0 0
6.641760 4.237912 9.704567 12.500060 0.567943 0.681924 -0.006162 0.003606 2382830.000000 1 0 0
-8.368040 9.965112 -3.631633 13.509860 -0.872293 1.842957 -0.004392 0.000564 1786290.000000 1 0 0
16.359960 2.103312 -6.134133 17.598290 0.127863 1.926835 0.000102 0.006500 -800319.000000 1 0 0
-10.966040 2.681812 -5.140633 12.404526 -0.239848 1.998097 -0.001360 -0.001216 1052730.000000 1 0 0
-13.758640 4.016412 1.507667 14.411967 -0.284027 1.465992 -0.000503 0.006046 291472.000000 1 0 0
-17.249840 10.518312 3.386767 20.485655 -0.547567 1.404710 0.025811 -0.006807 -233186.000000 1 0 0
-14.348940 2.926612 -1.144633 14.689021 -0.201200 1.648800 0.001622 0.000769 1461360.000000 1 0 0
-14.368340 5.068412 5.249267 16.114987 -0.339121 1.239004 0.000244 0.004840 663544.000000 1 0 0
-17.364040 7.651112 3.120167 19.229791 -0.415034 1.407819 0.017266 0.001386 -1248420.000000 1 0 0
-14.731240 12.616812 -3.342833 19.681664 -0.708236 1.741469 0.014423 -0.004067 -979129.000000 1 0 0
-8.484040 12.612112 -9.553333 17.953008 -0.978635 2.131911 -0.004871 -0.010837 704697.000000 1 0 0
-12.435740 9.002012 -9.799733 18.213144 -0.626575 2.138928 -0.003128 0.006207 -1544910.000000 1 0 0
-13.929640 -3.420288 -12.166733 18.808579 0.240777 2.274271 -0.006393 -0.000358 -1695520.000000 1 0 0
-14.787640 5.720912 -7.630733 17.596341 -0.369137 2.019341 0.007415 0.004131 1510590.000000 1 0 0
-10.846740 13.725512 -8.363133 19.390293 -0.902022 2.016735 0.003782 -0.004920 265980.000000 1 0 0
-10.850840 13.586012 3.963267 17.833338 -0.896862 1.346686 0.002608 -0.008137 -1437080.000000 1 0 0
-15.117540 3.184612 3.123267 15.761871 -0.207621 1.371323 -0.001922 0.005890 -56973.400000 1 0 0
-11.035340 9.457012 -12.371833 19.086017 -0.708530 2.276034 -0.000977 0.000276 40596.200000 1 0 0
-13.007240 11.747312 -8.917133 19.664763 -0.734545 2.041437 -0.004018 -0.005539 1066580.000000 1 0 0
-8.815940 14.709212 -3.431833 17.488831 -1.030856 1.768308 0.003216 -0.004760 3029760.000000 1 0 0
-16.676440 8.233512 -4.086433 19.041883 -0.458612 1.787081 0.018626 -0.004123 -1474520.000000 1 0 0
-16.922440 6.830012 0.367667 18.252485 -0.383612 1.550652 0.024533 0.001187 471386.000000 1 0 0
-10.583340 2.885012 -12.587933 16.696899 -0.266133 2.424787 0.004280 -0.001856 1041120.000000 1 0 0
-16.860340 0.932312 2.369267 17.051501 -0.055240 1.431398 0.007392 0.000120 -325312.000000 1 0 0
-12.749840 1.258012 -6.963433 14.581852 -0.098351 2.068650 0.002958 -0.006179 554062.000000 1 0 0
-12.307040 8.950512 -5.368233 16.136692 -0.628793 1.909932 0.002747 0.001126 -1938080.000000 1 0 0
-9.473340 13.908912 1.344167 16.882204 -0.972869 1.491092 0.010378 -0.006595 -1586040.000000 1 0 0
-12.088940 11.154312 2.849067 16.693662 -0.745209 1.399289 0.003122 -0.003580 -185604.000000 1 0 0
-12.611840 6.804512 -3.599333 14.775490 -0.494772 1.816874 0.002009 0.004625 1169180.000000 1 0 0
-15.821840 3.544712 -9.203233 18.643903 -0.220400 2.087058 0.005900 -0.007697 -2364500.000000 1 0 0
-15.130040 5.852612 -4.700533 16.889825 -0.369094 1.852826 0.010960 0.003014 576801.000000 1 0 0
-17.901640 5.327612 7.535567 20.140431 -0.289258 1.187315 0.010654 0.006871 -431403.000000 1 0 0
-15.704140 10.153212 -2.125033 18.820826 -0.573933 1.683946 0.024060 -0.002556 -1348860.000000 1 0 0
-8.844640 10.085312 -8.306233 15.777664 -0.850845 2.125222 0.002149 -0.003848 601035.000000 1 0 0
-16.989440 4.370612 -1.318733 17.592111 -0.251795 1.645828 0.005787 0.000044 612549.000000 1 0 0
-10.224640 5.405012 -4.514033 12.415068 -0.486285 1.942918 -0.000833 -0.001132 283906.000000 1 0 0
-18.056940 2.663012 6.280367 19.302532 -0.146423 1.239399 -0.010056 0.010269 -1007630.000000 1 0 0
-10.455440 10.105112 -5.716433 15.623928 -0.768361 1.945371 -0.002530 -0.001983 529824.000000 1 0 0
-15.454140 0.530612 -5.840833 16.529589 -0.034321 1.931953 -0.001223 -0.007494 504452.000000 1 0 0
-16.481040 -4.143488 -8.755933 19.116996 0.246305 2.046561 -0.007187 -0.004822 -872535.000000 1 0 0
-9.939440 9.636912 -1.022833 13.881957 -0.769946 1.644544 -0.008664 0.000880 1830180.000000 1 0 0
-17.401140 -3.020788 -3.195133 17.948084 0.171884 1.749771 -0.000389 -0.000065 -623726.000000 1 0 0
-11.929940 5.182812 -11.574233 17.411142 -0.409837 2.297969 0.002142 0.000770 -710814.000000 1 0 0
-16.281140 7.124312 5.866367 18.714850 -0.412478 1.251961 0.011285 0.005755 -2051410.000000 1 0 0
-12.109540 6.118812 -8.887133 16.219185 -0.467870 2.150695 0.001362 0.001427 1476330.000000 1 0 0
-14.516840 8.531712 -0.022833 16.838328 -0.531335 1.572152 0.013791 -0.001625 758244.000000 1 0 0
-14.768640 11.873012 3.962467 19.359295 -0.677135 1.364659 0.010942 -0.013768 573354.000000 1 0 0
-17.286140 4.133212 -4.094833 18.239017 -0.234699 1.797236 0.006874 -0.003482 -958173.000000 1 0 0
-13.652940 13.416712 -0.765833 19.157177 -0.776672 1.610783 0.021366 -0.007368 -627169.000000 1 0 0
-9.960840 6.904912 -13.081533 17.833190 -0.606152 2.394327 -0.008342 -0.001083 1606610.000000 1 0 0
-15.933640 -1.183888 -8.270733 17.991317 0.074165 2.048461 -0.007377 -0.007814 818068.000000 1 0 0
-11.263240 11.954912 0.027067 16.425019 -0.815180 1.569148 0.005328 -0.003178 450357.000000 1 0 0
-12.010140 7.489612 -0.908933 14.183227 -0.557597 1.634925 -0.005047 0.004990 1929960.000000 1 0 0
-11.530540 0.198312 -11.669033 16.406066 -0.017197 2.362090 -0.000503 -0.008286 -1131550.000000 1 0 0
-19.114340 -1.245688 -4.613833 19.702720 0.065078 1.807164 0.005847 -0.006823 -3415500.000000 1 0 0
-18.058840 1.476712 -5.004933 18.797652 -0.081591 1.840300 0.002024 -0.006980 88420.400000 1 0 0
-13.431140 -0.105288 -9.499733 16.451490 0.007839 2.186385 0.002911 -0.008001 -228874.000000 1 0 0
-6.047540 11.234012 -13.170433 18.336741 -1.076961 2.372086 -0.016915 0.000040 -1955340.000000 1 0 0
16.331060 5.834512 7.098167 18.738437 0.343132 1.182294 0.030798 -0.001558 1158860.000000 1 0 0
14.856360 10.132112 -5.399633 18.775707 0.598546 1.862502 0.033784 -0.003390 -1249760.000000 1 0 0
2.379360 16.964212 4.354367 17.675021 1.431448 1.321877 0.008291 -0.002078 1553900.000000 1 0 0
-3.862140 18.189812 -5.814033 19.483028 -1.361579 1.873828 0.009326 -0.004143 850281.000000 1 0 0
5.409860 14.619112 5.697367 16.596536 1.216369 1.220382 -0.000775 -0.002637 -2431510.000000 1 0 0
9.902560 6.131412 15.100967 19.070766 0.554399 0.656983 0.013548 0.002270 -1414420.000000 1 0 0
4.686860 12.721812 -1.033033 13.596997 1.217814 1.646845 -0.002496 -0.005710 1675430.000000 1 0 0
3.533060 13.563112 13.071467 19.165171 1.315969 0.820244 -0.016180 0.000280 -1612540.000000 1 0 0
-0.787740 12.376912 9.177467 15.428363 -1.507236 0.933725 -0.000659 0.002624 -712891.000000 1 0 0
-7.772140 13.869912 8.373067 17.969109 -1.060034 1.086066 0.012068 -0.017272 -267714.000000 1 0 0
11.444960 12.836612 -4.224633 17.709129 0.842649 1.811676 0.030133 -0.005322 1361570.000000 1 0 0
-5.747540 16.177412 0.938467 17.193708 -1.229424 1.516187 -0.007725 0.003087 522235.000000 1 0 0
3.174560 10.688212 6.823767 13.072089 1.282080 1.021590 -0.007149 0.005017 1219220.000000 1 0 0
-1.136440 15.476512 2.478067 15.714794 -1.497498 1.412445 -0.007045 0.002117 -1372820.000000 1 0 0
9.764260 8.728512 9.535267 16.200278 0.729448 0.941487 -0.001884 -0.001773 2064620.000000 1 0 0
7.147460 12.284612 6.199967 15.506046 1.043850 1.159452 -0.007242 -0.000188 631123.000000 1 0 0
11.894960 13.929012 -1.560333 18.383201 0.864002 1.655777 0.023826 -0.005240 68585.800000 1 0 0
9.634960 15.759812 -1.214633 18.511604 1.022064 1.636458 0.009903 -0.003366 913037.000000 1 0 0
10.102960 13.718412 3.053667 17.308654 0.936022 1.393444 0.006596 -0.001620 2810870.000000 1 0 0
-5.989640 14.475112 6.312467 16.889402 -1.178460 1.187744 -0.007291 -0.007398 627735.000000 1 0 0
-0.900640 18.261912 -6.195033 19.305104 -1.521518 1.897477 0.010593 0.001459 1049500.000000 1 0 0
-3.484440 15.654712 5.441967 16.935948 -1.351786 1.243666 -0.012280 -0.000959 1669140.000000 1 0 0
7.017960 12.220312 10.565767 17.613155 1.049498 0.927446 -0.010239 0.001707 3076450.000000 1 0 0
1.508560 14.669212 6.246767 16.015107 1.468318 1.170105 -0.002149 0.003657 278291.000000 1 0 0
17.403960 7.701212 -1.496433 19.090464 0.416598 1.649263 0.003379 0.013408 1376010.000000 1 0 0
2.125960 16.154812 -3.382833 16.641551 1.439949 1.775499 -0.011608 -0.000613 369983.000000 1 0 0
6.751060 11.115912 0.622767 13.020298 1.025002 1.522948 -0.000467 -0.003172 1944060.000000 1 0 0
12.625260 9.373612 3.244567 16.055809 0.638651 1.367314 0.005244 0.002111 -1293530.000000 1 0 0
5.988160 14.262512 -3.427433 15.843756 1.173293 1.788847 -0.007036 -0.001822 148043.000000 1 0 0
3.099660 16.473712 1.547667 16.834083 1.384813 1.478730 0.005106 -0.007122 -919167.000000 1 0 0
2.945160 18.722412 -2.472733 19.113270 1.414768 1.700533 0.004748 -0.012655 -401547.000000 1 0 0
3.919560 11.923412 10.575467 16.412532 1.253196 0.870619 -0.012936 0.003728 982119.000000 1 0 0
8.000260 11.499012 3.424867 14.420858 0.962939 1.331011 -0.004978 0.001224 1588340.000000 1 0 0
0.828460 12.453112 0.152767 12.481574 1.504368 1.558557 -0.000215 -0.003240 -2753310.000000 1 0 0
11.965060 9.917912 -4.647933 16.221311 0.692120 1.861402 0.020107 -0.000342 1108560.000000 1 0 0
-1.252840 16.451612 9.928467 19.256158 -1.494790 1.029089 0.003440 -0.001467 -936170.000000 1 0 0
8.103760 14.820412 -8.087633 18.727663 1.070415 2.017345 0.017710 0.000868 -412915.000000 1 0 0
14.495860 7.676512 -1.339333 16.457600 0.487020 1.652267 0.011492 0.003976 -193768.000000 1 0 0
12.489660 8.252412 6.076367 16.155994 0.583888 1.185206 -0.000335 0.002726 -1062290.000000 1 0 0
-3.005040 14.273912 10.090967 17.737036 -1.363300 0.965603 0.005377 -0.007101 1930160.000000 1 0 0
-4.434840 17.102912 -3.048533 17.929611 -1.317081 1.741654 0.002185 -0.002712 -439376.000000 1 0 0
-7.065140 16.548212 -1.668533 18.070516 -1.167281 1.663263 -0.000874 0.003042 885635.000000 1 0 0
8.329160 11.273612 -1.973433 14.154988 0.934489 1.710668 0.003007 -0.003243 -1046730.000000 1 0 0
8.564160 12.908012 -4.244733 16.061736 0.985006 1.838250 0.011750 -0.002556 2533680.000000 1 0 0
2.547560 14.848012 -7.297933 16.739574 1.400875 2.021911 -0.013213 -0.001495 -521792.000000 1 0 0
11.205360 11.295112 9.760367 18.665595 0.789387 1.020539 0.006456 -0.002531 2852900.000000 1 0 0
8.547160 15.653012 1.472167 17.895195 1.070999 1.488437 0.005426 -0.005704 231198.000000 1 0 0
5.986060 9.934812 7.689667 13.916335 1.028516 0.985359 -0.004704 0.003905 753548.000000 1 0 0
14.357860 11.485912 2.694967 18.583250 0.674725 1.425262 0.016284 0.001939 -464439.000000 1 0 0
12.040760 12.566312 1.141367 17.441182 0.806753 1.505309 0.020007 -0.003381 3321610.000000 1 0 0
5.479360 15.828912 8.296167 18.692358 1.237545 1.110932 0.010236 -0.000929 -832360.000000 1 0 0
11.550460 15.053112 5.230967 19.681777 0.916306 1.301786 0.021626 -0.002703 634369.000000 1 0 0
5.961960 16.852012 1.778367 17.963793 1.230755 1.471637 0.002270 -0.009706 943055.000000 1 0 0
-0.581940 16.142912 -4.212633 16.693668 -1.534763 1.825904 0.002520 -0.001618 985860.000000 1 0 0
16.035760 6.551012 2.617467 17.518918 0.387834 1.420827 0.000140 0.005086 372861.000000 1 0 0
7.681560 16.617912 -3.158033 18.577797 1.137806 1.741615 -0.007634 -0.001813 482420.000000 1 0 0
14.781460 8.094312 7.565567 18.472879 0.500998 1.148836 0.022731 -0.002711 -408087.000000 1 0 0
2.020660 12.978312 8.611367 15.705900 1.416341 0.990480 -0.005804 0.004485 1202900.000000 1 0 0
16.063960 7.484512 -5.812433 18.650821 0.436013 1.887720 0.015846 0.004869 -421242.000000 1 0 0
-2.919840 17.007512 0.735767 17.272009 -1.400774 1.528185 -0.012524 0.004185 151699.000000 1 0 0
-2.926140 18.566812 4.673867 19.368372 -1.414481 1.327076 -0.011754 -0.000670 119160.000000 1 0 0
-0.965540 19.171212 0.893367 19.216289 -1.520475 1.524289 -0.005637 0.001289 -762130.000000 1 0 0
6.941960 16.867512 -6.089633 19.229857 1.180366 1.893019 -0.005236 0.003887 -703605.000000 1 0 0
10.942160 10.041112 0.823767 14.873916 0.742483 1.515385 0.008468 0.000334 -1646700.000000 1 0 0
9.093360 8.802212 14.234967 19.047373 0.769130 0.726739 0.003533 -0.005404 -73236.300000 1 0 0
6.365260 12.444012 -8.397833 16.306243 1.097982 2.111812 0.008758 -0.005008 986648.000000 1 0 0
6.336760 9.002112 13.353167 17.306057 0.957445 0.689461 -0.004945 -0.004130 1284290.000000 1 0 0
16.541460 9.541912 3.089167 19.344533 0.523222 1.410418 0.010764 0.004514 -491344.000000 1 0 0
2.573860 14.683112 -0.746733 14.925688 1.397266 1.620847 -0.002485 -0.005671 220787.000000 1 0 0
9.061460 12.874712 8.292967 17.794425 0.957512 1.085983 0.001583 -0.005936 895545.000000 1 0 0
7.043460 9.244912 10.504467 15.665968 0.919739 0.835876 -0.008538 -0.000477 847190.000000 1 0 0
4.405060 15.783112 -5.350933 17.237856 1.298623 1.886429 -0.008802 0.000565 1577680.000000 1 0 0
0.218460 16.378712 -8.102633 18.274644 1.557459 2.030164 -0.006522 0.000990 15088.400000 1 0 0
-2.268940 15.694412 -1.937933 15.975552 -1.427221 1.692402 -0.006156 0.000295 -1106450.000000 1 0 0
13.202760 10.446012 7.773967 18.543641 0.669351 1.138204 0.014091 -0.000263 1529900.000000 1 0 0
-1.037640 15.911112 7.094567 17.452022 -1.505674 1.152156 0.000545 0.000759 3293110.000000 1 0 0
13.247560 13.328112 6.805167 19.986163 0.788429 1.223354 0.022204 -0.005799 210.793000 1 0 0
5.354660 17.419512 4.574167 18.789220 1.272570 1.324879 0.012358 -0.007909 367957.000000 1 0 0
10.696260 9.588812 -1.875633 14.487004 0.730858 1.700631 0.010872 0.001332 381901.000000 1 0 0
3.176260 12.803012 4.775767 14.029031 1.327619 1.223432 -0.002538 0.001745 2668740.000000 1 0 0
-0.212340 18.019312 3.523567 18.361814 -1.559013 1.377702 -0.000871 -0.001970 3362370.000000 1 0 0
-7.590040 16.058912 -5.665833 18.644008 -1.129278 1.879575 0.011820 -0.007716 761373.000000 1 0 0
-12.363940 -9.084288 8.183767 17.388656 0.633663 1.080782 0.002938 -0.005046 -579383.000000 1 0 0
-13.214340 -11.680788 6.785367 18.897111 0.723875 1.203526 0.011173 -0.005393 -582009.000000 1 0 0
-6.554540 -12.311288 12.303967 18.598855 1.081565 0.847920 0.014445 -0.007719 -998100.000000 1 0 0
-1.780940 -10.700288 14.270067 17.924919 1.405870 0.649970 -0.003828 -0.008015 1368780.000000 1 0 0
-8.837540 2.931412 11.049567 14.449506 -0.320280 0.700217 0.001807 -0.002915 574828.000000 1 0 0
0.597560 10.008612 15.318467 18.308054 1.511163 0.579555 -0.012767 -0.001689 -209232.000000 1 0 0
1.037360 -6.775288 16.670767 18.024847 -1.418867 0.390084 -0.001680 -0.001187 2055730.000000 1 0 0
6.212860 2.364212 17.791767 18.993054 0.363615 0.357567 0.009817 -0.003807 560126.000000 1 0 0
-5.027340 -2.846288 17.643067 18.564841 0.515167 0.316443 0.016646 -0.007875 661408.000000 1 0 0
-4.247540 8.167812 12.979767 15.913174 -1.091250 0.616924 0.000448 -0.001484 335263.000000 1 0 0
0.069760 -4.925288 18.669067 19.307962 -1.556634 0.257968 0.003391 -0.004717 643903.000000 1 0 0
-11.649540 2.100712 11.296267 16.362470 -0.178408 0.808787 0.005320 -0.001570 1983010.000000 1 0 0
-3.402940 -6.010888 14.298967 15.879900 1.055654 0.450006 0.010704 -0.006133 1140900.000000 1 0 0
-7.455040 -2.180188 14.650967 16.582572 0.284511 0.487480 0.014372 -0.004301 2336250.000000 1 0 0
-6.164440 -1.157188 10.590267 12.308256 0.185560 0.534703 0.002982 -0.002919 1116660.000000 1 0 0
-3.920040 2.453412 11.191767 12.109566 -0.559220 0.391838 0.000290 0.001408 1328790.000000 1 0 0
-6.366640 6.204712 13.567267 16.220459 -0.772518 0.580061 0.003223 -0.006543 849387.000000 1 0 0
-8.906340 5.517212 12.676667 16.445681 -0.554613 0.690668 0.004263 -0.007078 -1532010.000000 1 0 0
-12.210440 -2.126788 15.879467 20.143871 0.172448 0.662751 0.003486 0.003498 1846370.000000 1 0 0
-3.474840 -7.626588 16.902967 18.866628 1.143277 0.460301 0.010242 -0.004563 126870.000000 1 0 0
-0.511640 -5.377188 14.412867 15.391773 1.475932 0.358567 0.001830 -0.002713 1429450.000000 1 0 0
-14.168740 -2.113188 13.681167 19.808915 0.148053 0.808399 -0.006203 0.002672 -122539.000000 1 0 0
-6.477540 1.462712 12.152267 13.848309 -0.222088 0.500116 0.004779 -0.002817 1719390.000000 1 0 0
2.199260 -2.198288 14.700667 15.025939 -0.785177 0.208451 0.006425 0.001268 1458200.000000 1 0 0
-12.532140 3.973312 9.342967 16.128632 -0.307024 0.952953 -0.003526 -0.000714 -1472210.000000 1 0 0
-9.051040 -3.005188 12.575267 15.782580 0.320574 0.648846 0.001436 0.003890 246973.000000 1 0 0
-7.158040 -7.136288 15.236067 18.283924 0.783876 0.585739 0.018532 -0.008934 -785367.000000 1 0 0
-2.987740 6.074512 19.478867 20.621653 -1.113691 0.334474 0.008320 -0.005455 53986.900000 1 0 0
0.681760 5.356712 16.107567 16.988610 1.444205 0.323467 -0.004380 -0.010197 -229264.000000 1 0 0
3.564860 1.450412 16.853767 17.287608 0.386409 0.224505 0.009075 -0.002318 2940410.000000 1 0 0
-11.763040 11.422112 7.992667 18.240518 -0.770695 1.117221 0.008999 -0.014553 -140345.000000 1 0 0
0.694960 -9.486088 15.468367 18.158723 -1.497666 0.551304 -0.009047 0.003542 -170212.000000 1 0 0
-2.433640 -3.535288 18.827767 19.310766 0.967908 0.224129 0.015878 -0.010115 235772.000000 1 0 0
-12.842340 2.349312 13.865567 19.044656 -0.180934 0.755315 0.002252 -0.005921 234881.000000 1 0 0
-5.420340 -0.479888 15.893867 16.799565 0.088304 0.329859 0.016664 -0.001604 2622510.000000 1 0 0
-4.490340 -6.005088 11.650667 13.855045 0.928733 0.571858 0.008475 -0.004137 -515827.000000 1 0 0
2.520360 1.777212 14.066767 14.400855 0.614169 0.215821 0.005258 -0.001763 533742.000000 1 0 0
0.139860 3.233812 14.223667 14.587317 1.527574 0.223756 0.003919 -0.002557 -119689.000000 1 0 0
-12.961740 7.202112 12.299467 19.265358 -0.507166 0.878347 0.010637 -0.001744 70494.600000 1 0 0
0.974660 1.461012 18.317667 18.401670 0.982485 0.095587 0.009619 0.000465 853985.000000 1 0 0
-1.945240 6.432512 12.480267 14.174563 -1.277132 0.493945 -0.003988 0.000381 874561.000000 1 0 0
-13.442340 -2.702788 10.923667 17.530775 0.198420 0.898079 -0.000546 0.003699 -629836.000000 1 0 0
-2.454640 3.646712 13.459367 14.159037 -0.978346 0.315682 -0.001729 -0.000866 -925003.000000 1 0 0
3.503660 6.160412 16.309267 17.782534 1.053681 0.409924 -0.004595 -0.006267 1081190.000000 1 0 0
-3.643140 12.428712 12.335367 17.885934 -1.285661 0.809765 0.003181 -0.002298 1200430.000000 1 0 0
3.773760 -1.462488 17.083067 17.555948 -0.369720 0.232626 0.014800 -0.003419 904246.000000 1 0 0
-15.707040 0.218312 9.297767 18.253965 -0.013898 1.036360 -0.015756 0.005536 -790257.000000 1 0 0
-4.480540 4.627312 15.236767 16.542259 -0.801512 0.399948 0.009905 -0.006710 1467900.000000 1 0 0
-8.031440 -8.148588 10.557067 15.567761 0.792638 0.825572 0.006504 -0.003172 2811210.000000 1 0 0
-2.657140 -0.438088 14.740667 14.984645 0.163402 0.180700 0.010851 -0.003470 2516000.000000 1 0 0
-1.747340 1.029912 17.186667 17.305937 -0.532602 0.117471 0.007485 -0.006267 2113560.000000 1 0 0
-0.675440 -2.489788 14.464967 14.693214 1.305888 0.176491 0.009419 -0.002681 -584732.000000 1 0 0
4.954760 -8.369388 16.596867 19.236743 -1.036273 0.530075 0.002728 0.001035 458509.000000 1 0 0
-4.391440 9.993112 10.703667 15.287758 -1.156753 0.795194 -0.001077 -0.001601 -1697300.000000 1 0 0
-6.217940 2.172512 15.172867 16.540813 -0.336135 0.409553 0.017907 -0.004481 1499360.000000 1 0 0
-4.697140 6.860512 17.221567 19.123601 -0.970438 0.449786 0.008303 -0.006908 -542956.000000 1 0 0
-4.009440 9.261412 15.588967 18.570548 -1.162237 0.574534 0.004429 -0.006212 -1655790.000000 1 0 0
-4.639640 -9.915688 18.320967 21.342562 1.133149 0.538607 0.019327 -0.004899 811156.000000 1 0 0
-6.838040 -4.146588 11.129267 13.704509 0.545112 0.623075 0.005917 0.000817 368694.000000 1 0 0
-2.203940 -0.757388 19.591267 19.729388 0.331008 0.118397 0.014025 -0.004264 924858.000000 1 0 0
-5.661240 -4.452188 15.243167 16.858996 0.666414 0.441396 0.014651 -0.004099 1749860.000000 1 0 0
-12.840340 -0.027088 9.786867 16.144901 0.002110 0.919536 -0.006321 0.002592 1275230.000000 1 0 0
-14.581740 8.748812 10.399267 19.932727 -0.540408 1.021933 0.018368 -0.006514 -746287.000000 1 0 0
-8.362540 10.518212 12.896867 18.625092 -0.899079 0.805923 0.015878 -0.013395 -1097360.000000 1 0 0
-10.455740 7.254612 10.836867 16.714951 -0.606580 0.865402 0.005873 -0.005485 453446.000000 1 0 0
-9.938740 -6.575288 14.835667 19.029188 0.584474 0.676726 0.016302 -0.001981 92622.900000 1 0 0
-0.598640 -13.515288 14.416367 19.770003 1.526532 0.753638 -0.008339 -0.010028 1459500.000000 1 0 0
3.896360 -5.679388 16.949267 18.295210 -0.969492 0.385975 0.011594 -0.003944 2597160.000000 1 0 0
-7.220040 9.315412 10.439067 15.744206 -0.911446 0.845921 0.007079 -0.007884 1317930.000000 1 0 0
-10.356340 -6.713888 11.837067 17.101059 0.575171 0.806287 0.004501 -0.002137 2108810.000000 1 0 0
-10.854440 -3.897388 10.698467 15.731043 0.344723 0.822916 -0.001194 0.004302 -669038.000000 1 0 0
-10.133640 -10.231988 9.824567 17.432910 0.790227 0.972102 0.006731 -0.003128 2435410.000000 1 0 0
-9.839640 -3.704288 15.274267 18.543018 0.360055 0.602854 0.011831 -0.003356 2830590.000000 1 0 0
5.713460 -3.327488 16.099767 17.404548 -0.527374 0.389676 0.016052 -0.001164 405284.000000 1 0 0
-11.287940 0.544912 15.397267 19.099486 -0.048236 0.633161 0.011623 -0.001424 348575.000000 1 0 0
-3.039640 3.265812 18.802267 19.324342 -0.821252 0.232976 0.013281 -0.006162 937693.000000 1 0 0
0.522760 7.331512 13.936767 15.756200 1.499614 0.485320 -0.013028 -0.004786 1086240.000000 1 0 0
-13.170740 -7.303688 12.216767 19.392309 0.506321 0.889269 -0.007589 -0.004266 -831059.000000 1 0 0
-1.482840 -1.180588 12.144067 12.291093 0.672399 0.154828 0.006319 -0.002825 859698.000000 1 0 0
1.972360 -4.808088 13.141267 14.131554 -1.181513 0.376591 -0.000940 -0.000920 721279.000000 1 0 0
-14.627440 -4.132888 8.641767 17.484934 0.275366 1.053835 -0.002666 -0.004243 -1231910.000000 1 0 0
8.324560 1.090512 16.192567 18.239703 0.130258 0.478330 0.008867 0.002196 -201404.000000 1 0 0
-1.135240 11.364412 13.425967 17.626549 -1.471232 0.704879 -0.008949 0.000918 1302450.000000 1 0 0
2.698560 -12.271388 -13.846833 18.697699 -1.354335 2.404705 -0.002642 0.007805 -619842.000000 1 0 0
0.717060 -10.672088 -14.082233 17.683804 -1.503707 2.492008 -0.001801 0.004519 -2074350.000000 1 0 0
3.202960 -14.460388 -12.509133 19.386598 -1.352817 2.272142 -0.007305 0.014310 -845117.000000 1 0 0
-5.223040 -10.207388 -16.303633 19.931868 1.097839 2.528666 0.006093 -0.004068 -792324.000000 1 0 0
-1.037740 -12.318588 -15.124733 19.534125 1.486753 2.456361 -0.001508 -0.004078 -241450.000000 1 0 0
5.718360 -14.878288 -12.245533 20.100153 -1.203860 2.225880 -0.012035 0.012516 -355388.000000 1 0 0
1.912760 -11.843888 -16.183333 20.145386 -1.410681 2.503657 0.006141 0.002227 -682156.000000 1 0 0
1.164760 -14.409288 -14.087633 20.185283 -1.490138 2.343280 0.003362 0.010083 -428825.000000 1 0 0
-1.133240 -10.707588 -15.976833 19.266444 1.465354 2.548573 -0.006749 -0.002918 -483900.000000 1 0 0
-5.845240 -5.450088 -15.157933 17.135729 0.750429 2.656390 0.012821 0.002093 -130174.000000 1 0 0
-6.497840 -7.568788 -16.590333 19.358399 0.861386 2.600234 0.010756 0.005021 -105820.000000 1 0 0
4.791960 -12.535088 -11.712633 17.812273 -1.205655 2.288371 -0.011199 0.009900 -1065060.000000 1 0 0
-1.958840 -15.438588 -13.165433 20.384201 1.444591 2.272951 0.010855 -0.002078 300892.000000 1 0 0
15.558960 -7.503588 -9.050933 19.501396 -0.449362 2.053434 0.001944 0.005398 297443.000000 1 0 0
19.289860 -3.757188 -4.620433 20.188203 -0.192367 1.801711 0.003840 0.003025 1198220.000000 1 0 0
14.696260 -11.893688 -8.867733 20.882446 -0.680386 2.009372 0.005233 -0.002364 264805.000000 1 0 0
17.667460 -3.686588 -6.589533 19.213329 -0.205714 1.920870 0.015118 0.001355 451625.000000 1 0 0
9.259560 -9.293388 -15.620033 20.398332 -0.787221 2.443004 0.015567 0.000450 48109.800000 1 0 0
1.260760 1.907412 -15.264433 15.434722 0.986742 2.992910 0.011295 -0.006630 -65285.000000 1 0 0
4.883560 -4.341488 -14.017433 15.465642 -0.726705 2.705383 0.001305 0.002674 686821.000000 1 0 0
13.050460 -5.576588 -8.768533 16.682326 -0.403825 2.124238 0.015089 0.002017 -1897250.000000 1 0 0
2.974160 0.907912 -12.283633 12.671131 0.296282 2.893648 0.006879 -0.003408 -2633410.000000 1 0 0
0.632960 6.287812 -12.925133 14.387365 1.470470 2.686834 0.009119 -0.003102 138572.000000 1 0 0
3.091660 -1.171388 -16.798733 17.120979 -0.362174 2.947268 0.015382 -0.007217 12545.700000 1 0 0
13.142960 4.215812 -11.303733 17.840539 0.310397 2.256992 -0.000921 0.001537 640840.000000 1 0 0
-3.831940 9.496012 -16.553233 19.464520 -1.187249 2.587601 -0.007624 0.006239 -353516.000000 1 0 0
-0.360340 -5.113388 -17.659433 18.388370 1.500443 2.859083 0.003845 -0.010924 531798.000000 1 0 0
-0.623440 -8.655588 -17.611033 19.633042 1.498893 2.683754 0.000741 -0.004656 -961553.000000 1 0 0
5.461960 -10.140288 -12.258333 16.820379 -1.076717 2.387333 -0.006658 0.002407 486521.000000 1 0 0
1.607860 -9.856188 -18.082133 20.656553 -1.409089 2.636998 0.002173 -0.000563 -373443.000000 1 0 0
10.839160 8.709912 -14.720033 20.249181 0.676908 2.384658 0.020634 -0.001861 108233.000000 1 0 0
10.976260 -3.902288 -13.026933 17.475901 -0.341585 2.411965 0.011925 0.002300 744150.000000 1 0 0
5.031560 7.425912 -12.478333 15.367809 0.975285 2.518330 0.000186 0.000872 -947211.000000 1 0 0
9.495960 -6.067988 -12.764033 17.026869 -0.568609 2.418315 0.004828 0.003050 -1090360.000000 1 0 0
-3.411140 0.297712 -15.839833 16.205703 -0.087056 2.928698 0.011111 -0.003646 -916124.000000 1 0 0
-0.766740 10.724712 -12.776633 16.698793 -1.499425 2.442029 -0.000656 0.001028 -1908250.000000 1 0 0
6.635960 -5.587388 -12.463733 15.185503 -0.699823 2.533546 -0.004677 0.002886 -624604.000000 1 0 0
17.723260 -6.468088 -8.185233 20.565703 -0.349930 1.980136 0.005303 -0.003019 -568807.000000 1 0 0
12.947060 4.767512 -13.857533 19.554712 0.352823 2.358386 -0.007360 -0.003799 377122.000000 1 0 0
14.135360 0.748412 -11.581433 18.289289 0.052897 2.256523 0.003897 0.000378 -142275.000000 1 0 0
15.094560 6.035212 -11.136033 19.704841 0.380357 2.171402 0.009434 -0.001292 379963.000000 1 0 0
8.377860 1.452412 -11.834033 14.571972 0.171657 2.518554 -0.001987 0.006151 650463.000000 1 0 0
9.852460 1.264612 -9.058833 13.443685 0.127657 2.310184 0.000126 0.004963 316503.000000 1 0 0
-0.121740 -5.866388 -13.073633 14.330010 1.550047 2.719724 0.000530 0.000381 81220.900000 1 0 0
10.497160 -5.803688 -9.136633 15.078170 -0.505053 2.221757 0.005317 0.001213 667760.000000 1 0 0
10.311360 8.491612 -11.271233 17.477766 0.688919 2.271675 0.015480 -0.003365 802815.000000 1 0 0
8.304560 8.172312 -14.740833 18.789480 0.777372 2.472727 0.016944 0.004432 506501.000000 1 0 0
8.746260 10.624812 -10.734433 17.453130 0.882073 2.233237 0.021177 -0.005529 -332589.000000 1 0 0
7.090960 1.739212 -17.847433 19.283087 0.240524 2.753278 0.015789 0.000263 453928.000000 1 0 0
12.193960 2.491812 -12.961633 17.969577 0.201573 2.376488 0.001388 0.002602 -1444510.000000 1 0 0
2.620660 -0.865888 -19.351333 19.547166 -0.319116 2.999922 0.016387 -0.016382 -265656.000000 1 0 0
10.173060 -2.321088 -15.598433 18.766718 -0.224320 2.552015 0.009015 0.001221 32535.100000 1 0 0
8.313260 -0.951888 -13.090633 15.536443 -0.114006 2.572845 0.002205 0.002265 928979.000000 1 0 0
0.430260 4.340012 -14.648833 15.284277 1.471981 2.852227 0.009122 -0.004288 209097.000000 1 0 0
3.911560 -7.596588 -15.736533 17.906616 -1.095292 2.644161 -0.004402 0.000521 -1358380.000000 1 0 0
11.323160 -5.858488 -14.708133 19.464455 -0.477462 2.427428 0.016562 0.002047 -676567.000000 1 0 0
-5.758440 4.299612 -16.926333 18.388775 -0.641362 2.740080 0.000126 0.000564 549029.000000 1 0 0
11.458360 7.844312 -9.069033 16.585373 0.600311 2.149345 0.012078 -0.000212 -1033640.000000 1 0 0
9.499260 6.196412 -13.557033 17.675537 0.577994 2.444940 0.010533 0.007296 -555279.000000 1 0 0
12.023260 0.501512 -10.260633 15.814262 0.041688 2.276831 0.002857 0.004767 -1059250.000000 1 0 0
5.463860 -7.406588 -13.811833 16.597531 -0.935212 2.553791 -0.007782 0.004127 -938367.000000 1 0 0
8.526760 -10.288588 -10.796333 17.179100 -0.878764 2.250365 -0.004199 0.004803 26584.400000 1 0 0
10.237360 4.851112 -16.039033 19.636380 0.442521 2.526642 0.017952 0.008049 1290560.000000 1 0 0
9.790860 -0.531388 -10.919233 14.675590 -0.054221 2.409894 -0.002304 0.005782 -499527.000000 1 0 0
-1.741140 5.486312 -13.979133 15.117782 -1.263489 2.750994 0.001890 -0.004918 -583101.000000 1 0 0
1.224560 -0.737088 -14.982333 15.050354 -0.541830 3.046483 0.008696 -0.007292 763663.000000 1 0 0
11.230760 -10.660288 -14.724433 21.367747 -0.759344 2.331037 0.017688 0.007375 378424.000000 1 0 0
9.376160 -7.949288 -10.974433 16.478523 -0.703227 2.299608 0.003168 0.003208 -121540.000000 1 0 0
13.975160 -1.052988 -9.754133 17.075040 -0.075205 2.178825 0.003888 0.004212 773534.000000 1 0 0
4.009460 11.208412 -12.205633 17.049391 1.227262 2.368706 0.001552 -0.005201 -1102180.000000 1 0 0
-1.127740 2.850812 -17.095133 17.367858 -1.194101 2.964143 0.009355 -0.002672 18689.600000 1 0 0
6.085260 -0.556788 -17.676933 18.703325 -0.091244 2.808766 0.011564 0.001291 -7998.630000 1 0 0
6.230060 -6.451788 -16.109633 18.437990 -0.802880 2.633594 0.001043 -0.000254 -329287.000000 1 0 0
-1.815340 -5.069588 -19.902133 20.617737 1.226938 2.877355 0.003183 -0.012892 -127905.000000 1 0 0
-0.146740 -4.302488 -15.187233 15.785594 1.536704 2.865377 0.002488 -0.002834 432669.000000 1 0 0
0.535060 0.752912 -13.033633 13.066321 0.952956 3.070843 0.009437 -0.006885 531427.000000 1 0 0
15.727360 0.657512 -13.632233 20.823543 0.041783 2.284522 0.009789 -0.000749 712676.000000 1 0 0
-0.178340 7.036412 -16.309733 17.763735 -1.545456 2.734177 0.005831 -0.000140 -253114.000000 1 0 0
-4.761240 -0.497388 -18.207833 18.826629 0.104088 2.884494 0.000675 -0.003540 -522499.000000 1 0 0
10.434260 -8.489688 -13.363233 18.961133 -0.683000 2.352895 0.018436 -0.000796 1403900.000000 1 0 0
4.266660 8.428912 -17.486033 19.874916 1.102206 2.646246 0.012418 -0.006964 -112111.000000 1 0 0
9.206760 0.376512 -17.063933 19.392885 0.040872 2.646462 0.008725 0.005122 -310728.000000 1 0 0
3.259660 4.722712 -18.530533 19.398712 0.966672 2.841285 0.015672 -0.002980 -61667.600000 1 0 0
1.342560 -8.206188 -15.948433 17.986008 -1.408630 2.660983 -0.000492 -0.003440 125851.000000 1 0 0
4.411660 7.823112 -15.001433 17.484474 1.057324 2.602132 0.006295 0.001819 827799.000000 1 0 0
-5.795740 -0.360188 -15.300433 16.365316 0.062067 2.778859 0.009835 -0.001252 -1338010.000000 1 0 0
2.843860 3.414912 -13.775233 14.474329 0.876387 2.829526 0.010218 -0.003205 1925560.000000 1 0 0
-2.619440 -10.417388 -18.113033 21.058618 1.324455 2.606310 0.004757 -0.005158 508887.000000 1 0 0
6.133860 -9.006988 -15.649333 19.069653 -0.972928 2.533328 -0.008897 0.005718 31626.600000 1 0 0
-1.853740 5.375512 -17.453233 18.356138 -1.238718 2.826642 0.006289 0.000856 -27033.800000 1 0 0
9.925260 -12.257988 -11.800733 19.698384 -0.890170 2.213137 0.006164 0.006805 -504029.000000 1 0 0
10.938960 3.610012 -9.442333 14.894653 0.318760 2.257435 0.001885 0.004759 -450362.000000 1 0 0
4.841660 -0.450488 -11.035133 12.058970 -0.092777 2.726546 0.000678 -0.000721 -264340.000000 1 0 0
6.307060 9.562512 -11.343533 16.121302 0.987729 2.351298 0.006608 -0.004685 276705.000000 1 0 0
10.763460 -9.664188 -9.539233 17.327595 -0.731637 2.153786 0.008794 0.004422 -514608.000000 1 0 0
3.194260 -2.415388 -14.488333 15.031606 -0.647435 2.871919 0.010060 -0.003921 -259028.000000 1 0 0
9.097760 -4.633088 -14.759333 17.946382 -0.471025 2.536435 0.011028 -0.002002 -607475.000000 1 0 0
-4.103840 -6.645788 -16.656433 18.396868 1.017601 2.703106 -0.002495 -0.000381 -1626260.000000 1 0 0
5.882660 -7.795288 -11.281933 14.921602 -0.924330 2.428100 -0.005082 0.004568 1115430.000000 1 0 0
5.370260 6.202812 -16.778433 18.677001 0.857213 2.686789 0.016150 -0.015534 -680886.000000 1 0 0
9.058360 1.142512 -19.537833 21.565856 0.125465 2.704441 0.021537 -0.004733 473658.000000 1 0 0
13.127860 5.775412 -9.362233 17.127390 0.414453 2.149123 0.002781 0.001963 1157590.000000 1 0 0
-1.629140 -0.765388 -17.264933 17.358509 0.439206 3.037712 0.009140 -0.007391 27846.000000 1 0 0
-0.562740 -0.718388 -19.637033 19.658225 0.906298 3.095155 0.006373 -0.014805 -117359.000000 1 0 0
2.793560 6.490612 -16.612933 18.053298 1.164361 2.739428 0.008555 0.003004 -807715.000000 1 0 0
7.701960 3.785412 -15.698333 17.890981 0.456814 2.641304 0.011466 0.002993 637222.000000 1 0 0
3.035560 -9.878288 -14.890533 18.125208 -1.272659 2.534898 -0.002655 0.001500 329913.000000 1 0 0
8.889960 -10.662288 -13.477933 19.348655 -0.875797 2.341419 0.007071 0.003829 -82093.900000 1 0 0
3.763360 0.106312 -14.785033 15.256847 0.028242 2.892252 0.009930 -0.003073 -405033.000000 1 0 0
-1.249040 -2.970388 -18.652633 18.928920 1.172746 2.970527 0.008118 -0.012610 218401.000000 1 0 0
9.255760 10.072012 -13.150233 18.974803 0.827605 2.336489 0.021592 -0.004876 269028.000000 1 0 0
4.611960 2.110312 -10.668633 11.812845 0.429134 2.697820 -0.000383 0.001480 -323834.000000 1 0 0
-0.487340 7.048112 -18.903533 20.180608 -1.501761 2.783930 0.020461 -0.003871 156169.000000 1 0 0
0.759260 -1.747988 -17.662333 17.764851 -1.161023 3.034109 0.012287 -0.014453 -2388080.000000 1 0 0
-4.524540 -2.176388 -14.039033 14.909814 0.448347 2.798137 0.011648 -0.006746 -4170560.000000 1 0 0
10.120660 6.037512 -10.521233 15.797964 0.537881 2.299612 0.003048 0.006769 145731.000000 1 0 0
8.216160 5.296712 -17.698733 20.218941 0.572619 2.636964 0.021887 0.001642 96298.500000 1 0 0
11.272760 0.249312 -13.866833 17.872502 0.022113 2.458898 -0.001388 0.009213 511826.000000 1 0 0
6.836660 11.926212 -11.968833 18.227107 1.050281 2.287165 0.016455 -0.007284 -259204.000000 1 0 0
-1.014440 0.571712 -15.080733 15.125622 -0.513205 3.064531 0.009044 -0.007275 -991532.000000 1 0 0
-4.318240 -2.963488 -18.991233 19.700162 0.601453 2.872506 0.000300 0.001439 -219517.000000 1 0 0
5.761460 -12.009588 -14.050433 19.360767 -1.123489 2.382872 -0.006308 0.006787 151850.000000 1 0 0
2.133160 -4.815788 -14.170833 15.118025 -1.153819 2.785732 0.003771 0.000862 371308.000000 1 0 0
11.861460 2.025112 -15.604933 19.705564 0.169100 2.484719 0.008006 0.005357 632056.000000 1 0 0
9.783060 2.340312 -13.904033 17.161219 0.234808 2.515291 0.004396 0.003597 -1017240.000000 1 0 0
-2.412740 -4.156988 -16.332733 17.025276 1.044909 2.855389 0.002112 -0.005899 -1285460.000000 1 0 0
-2.893140 10.113912 -14.247233 17.710029 -1.292181 2.505583 -0.007404 0.000036 108922.000000 1 0 0
3.573360 5.751212 -13.708933 15.289872 1.014846 2.682832 0.002491 0.000898 220352.000000 1 0 0
-5.106740 -2.610288 -16.517633 17.484982 0.472524 2.807400 0.006547 -0.001000 320311.000000 1 0 0
-4.272440 6.238312 -13.445833 15.425975 -0.970296 2.629326 -0.003699 -0.001870 -1040610.000000 1 0 0
5.876360 -1.184688 -14.075033 15.298419 -0.198936 2.738958 0.007120 0.000781 -1452910.000000 1 0 0
6.778760 -3.136188 -12.768633 14.792743 -0.433323 2.612308 -0.001045 0.002872 516699.000000 1 0 0
2.934160 -3.141688 -18.424033 18.918892 -0.819541 2.912369 0.011611 -0.012571 64752.400000 1 0 0
7.340360 -12.076088 -12.064033 18.581003 -1.024630 2.277417 -0.001697 0.006953 -715907.000000 1 0 0
-6.106240 -5.386988 -17.797933 19.572231 0.722899 2.712506 0.021010 0.003973 237021.000000 1 0 0
0.544560 8.690312 -11.807233 14.670679 1.508215 2.506166 0.000929 -0.002171 -71751.000000 1 0 0
0.324660 8.497512 -14.379033 16.705379 1.532608 2.607523 -0.000484 -0.001288 236186.000000 1 0 0
7.611460 -2.570188 -15.129233 17.129912 -0.325652 2.653450 0.004352 -0.004154 -649909.000000 1 0 0
14.172260 1.479312 -9.014033 16.861023 0.104004 2.134840 -0.004056 0.005223 514351.000000 1 0 0
2.696260 10.678612 -14.475533 18.189107 1.323474 2.491182 0.001149 -0.002581 562911.000000 1 0 0
6.088860 1.012512 -15.564133 16.743405 0.164781 2.764035 0.008073 0.002001 410581.000000 1 0 0
16.612160 -5.496988 -10.328033 20.318686 -0.319560 2.104008 0.029210 -0.012370 379008.000000 1 0 0
4.897460 -4.263688 -11.302533 13.035007 -0.716328 2.620128 -0.005323 0.003951 -892737.000000 1 0 0
8.637660 -3.703888 -17.186933 19.588737 -0.405091 2.641188 -0.000274 -0.003561 291366.000000 1 0 0
13.227460 -9.752188 -8.887333 18.683028 -0.635303 2.066545 0.011533 0.004825 -140365.000000 1 0 0
2.151460 -7.865688 -13.578533 15.839014 -1.303802 2.600767 -0.002401 0.003535 95865.000000 1 0 0
-6.768240 -2.109188 -18.508733 19.819963 0.302092 2.775807 0.003152 0.001236 396412.000000 1 0 0
-1.619440 -6.525788 -15.804433 17.175232 1.327550 2.739355 -0.004028 -0.000584 322595.000000 1 0 0
1.468360 -7.323688 -18.421333 19.878078 -1.372925 2.756373 0.004854 -0.007657 -182106.000000 1 0 0
5.264560 10.744712 -14.473133 18.778605 1.115207 2.450774 0.013706 -0.015865 -223201.000000 1 0 0
5.394560 -3.338488 -17.557033 18.668052 -0.554173 2.794853 0.013951 -0.004583 -489807.000000 1 0 0
3.951260 13.005812 -14.146933 19.618851 1.275850 2.376169 0.002012 -0.006672 -149055.000000 1 0 0
9.106960 10.459012 -15.761633 20.994207 0.854391 2.420010 0.025879 -0.004719 377641.000000 1 0 0
2.442760 3.926412 -16.219633 16.865950 1.014260 2.863859 0.015257 -0.003562 467528.000000 1 0 0
16.563460 1.698612 -11.419433 20.190021 0.102195 2.171954 -0.001200 0.000979 311260.000000 1 0 0
9.951360 -3.825988 -10.677933 15.089268 -0.367046 2.356964 0.006409 0.002438 395719.000000 1 0 0
14.661860 -2.226788 -11.910333 19.020640 -0.150724 2.247440 0.014224 -0.005537 -371469.000000 1 0 0
-2.792440 -8.770488 -16.138333 18.578616 1.262554 2.623269 -0.000059 0.003387 -482988.000000 1 0 0
14.095360 8.096612 -9.038633 18.599225 0.521396 2.078267 0.029701 0.002268 355304.000000 1 0 0
-8.331240 0.227712 -16.653833 18.622877 -0.027326 2.677588 0.009518 -0.000109 -7189.870000 1 0 0
-3.399540 3.835912 -15.874333 16.681293 -0.845635 2.829278 0.005431 -0.004296 -493636.000000 1 0 0
15.156660 3.950012 -9.672733 18.408930 0.254942 2.124025 0.009969 0.004602 693565.000000 1 0 0
5.380160 1.104412 -13.054233 14.162586 0.202462 2.743342 0.003155 0.003182 690457.000000 1 0 0
7.837260 -7.856688 -13.043733 17.125687 -0.786636 2.436648 0.001575 0.006446 -3034700.000000 1 0 0
3.146960 -6.137988 -11.932933 13.783074 -1.097039 2.617478 -0.002188 0.002894 -907242.000000 1 0 0
-3.186340 3.480912 -18.421133 19.015984 -0.829551 2.890809 0.008694 -0.004979 -362884.000000 1 0 0
0.817060 5.199812 -17.820933 18.582015 1.414938 2.854397 0.008770 -0.005391 -829218.000000 1 0 0
6.346060 7.105712 -10.352433 14.068990 0.841811 2.397693 0.001000 0.001498 263422.000000 1 0 0
9.841760 3.677212 -11.717633 15.738013 0.357572 2.410647 0.005705 0.006228 388709.000000 1 0 0
4.509360 1.542512 -17.595933 18.229935 0.329592 2.877087 0.015073 -0.002202 -713179.000000 1 0 0
2.610160 8.031212 -13.213033 15.681121 1.256563 2.572904 0.000023 -0.002576 -959089.000000 1 0 0
14.322060 -3.593488 -9.821533 17.734065 -0.245831 2.157745 0.014696 -0.000536 40831.600000 1 0 0
-1.356940 9.327212 -16.190533 18.734234 -1.426328 2.614398 0.000777 0.002913 -2119780.000000 1 0 0
-5.394740 2.076212 -15.678433 16.710091 -0.367386 2.788366 0.011268 -0.005049 920695.000000 1 0 0
4.512560 4.218012 -11.892933 13.401368 0.751673 2.662561 0.004433 0.000641 693030.000000 1 0 0
9.347260 3.001112 -17.626033 20.175603 0.310672 2.633412 0.013532 0.004850 806186.000000 1 0 0
-4.131940 14.448612 -13.249133 20.034342 -1.292256 2.293375 -0.004768 -0.000402 -389990.000000 1 0 0
15.432360 -5.117788 -8.020333 18.129402 -0.320214 2.029062 0.013936 0.002080 -213376.000000 1 0 0
1.239060 9.163812 -16.736333 19.121076 1.436399 2.636815 0.005439 -0.000936 -228785.000000 1 0 0
0.538160 -3.291788 -12.895233 13.319629 -1.408744 2.888480 0.003488 -0.002361 199129.000000 1 0 0
7.617460 3.578112 -13.095233 15.566429 0.439136 2.570384 0.004423 0.005984 450145.000000 1 0 0
-2.914340 7.560012 -15.017933 17.064157 -1.202857 2.646840 -0.006321 0.002903 -26948.400000 1 0 0
12.150060 -5.241088 -11.139233 17.296689 -0.407248 2.270524 0.018188 0.001042 -481682.000000 1 0 0
0.692060 -4.302988 -19.944533 20.415167 -1.411330 2.926454 0.014136 -0.016524 -768804.000000 1 0 0
3.444560 -4.485288 -16.227533 17.184750 -0.915894 2.806253 0.007125 -0.007080 247296.000000 1 0 0
-5.572340 4.307612 -14.380833 16.012959 -0.658081 2.686169 -0.000566 -0.002128 429771.000000 1 0 0
12.237360 -7.618488 -9.926133 17.502070 -0.556843 2.173826 0.010842 0.003086 53199.600000 1 0 0
-2.138440 -1.836888 -14.952533 15.215956 0.709687 2.955246 0.006700 -0.004144 213755.000000 1 0 0
7.066360 5.834512 -14.291433 16.977044 0.690201 2.571423 0.010312 0.002078 -257568.000000 1 0 0
4.175760 -5.481088 -18.438233 19.683692 -0.919755 2.783955 0.010885 -0.013525 115068.000000 1 0 0
7.618360 7.531212 -12.392233 16.380659 0.779646 2.428766 0.006865 0.000335 -2281750.000000 1 0 0
12.227060 -2.621988 -11.081533 16.708566 -0.211242 2.295916 0.009847 0.000418 -620285.000000 1 0 0
7.377060 -0.818688 -10.746033 13.060187 -0.110525 2.537132 -0.002582 0.004952 -1492690.000000 1 0 0
5.422160 3.979512 -14.368433 15.864684 0.633140 2.703793 0.004855 0.001204 -580501.000000 1 0 0
14.714460 2.976812 -12.910833 19.800665 0.199611 2.281069 -0.002433 -0.001869 -243279.000000 1 0 0
-6.402540 6.714112 -15.744133 18.274286 -0.809148 2.609103 -0.006228 0.005864 550883.000000 1 0 0
-11.110040 3.900112 -16.457633 20.236046 -0.337605 2.520569 -0.000846 -0.005216 -283484.000000 1 0 0
-5.113140 6.498312 -18.031933 19.837411 -0.904131 2.711642 -0.001204 0.013128 -471941.000000 1 0 0
-10.150740 1.637412 -15.605533 18.688266 -0.159932 2.559010 0.012333 -0.002810 -452326.000000 1 0 0
-7.645640 5.917412 -17.859333 20.308307 -0.658659 2.645418 -0.003032 -0.000973 155178.000000 1 0 0
-8.653640 3.790012 -15.606233 18.242921 -0.412803 2.597250 -0.004527 0.006592 -479888.000000 1 0 0
8.846560 13.499412 -12.144233 20.198469 0.990684 2.215855 0.043139 -0.012313 -1350970.000000 1 0 0
13.812760 9.346012 -11.302233 20.146482 0.594863 2.166393 0.018822 -0.003829 262042.000000 1 0 0
8.384460 15.982012 -9.145533 20.232762 1.087648 2.039820 0.032201 -0.005732 -34088.600000 1 0 0
7.027560 13.609412 -13.975733 20.734604 1.094135 2.310446 0.022292 -0.007571 -127735.000000 1 0 0
4.743260 15.976512 -12.681833 20.942214 1.282196 2.221270 0.022118 -0.013721 141291.000000 1 0 0
11.129260 10.949312 -11.645633 19.477388 0.777248 2.211682 0.026499 -0.005158 -555216.000000 1 0 0
15.696760 9.960312 -9.651833 20.946455 0.565434 2.049677 0.034080 0.001325 -914597.000000 1 0 0
13.261060 10.540012 -9.026833 19.194564 0.671568 2.060405 0.041155 -0.003619 -344846.000000 1 0 0
10.426160 11.893512 -8.538833 17.974207 0.851046 2.065829 0.024119 0.002445 301242.000000 1 0 0
5.154960 16.221112 -10.077833 19.780314 1.263096 2.105386 0.004364 -0.009889 7019.500000 1 0 0
6.609760 14.590412 -11.588133 19.770025 1.145433 2.197091 0.015047 -0.003960 -738894.000000 1 0 0
10.693260 14.099912 -9.957533 20.305314 0.921946 2.083334 0.039501 0.001350 -323489.000000 1 0 0
7.991260 -18.751788 -1.376733 20.430007 -1.167944 1.638235 0.006080 0.014729 -414260.000000 1 0 0
7.249360 -17.422388 -3.536933 19.199029 -1.176493 1.756079 0.006052 0.006570 -47728.700000 1 0 0
4.455260 -18.509788 5.566167 19.835418 -1.334592 1.286359 0.008754 0.004365 120655.000000 1 0 0
9.674460 -17.170988 -2.576833 19.876571 -1.057709 1.700804 0.005140 0.008717 -712898.000000 1 0 0
-9.869540 -11.993588 -9.922233 18.431079 0.882246 2.139265 0.021186 -0.010674 68012.300000 1 0 0
-5.281540 -7.118088 -12.254833 15.124244 0.932442 2.515422 0.007211 0.001431 155831.000000 1 0 0
-10.785340 -9.552588 -5.657033 15.478292 0.724859 1.944947 0.007391 -0.004095 -33955.100000 1 0 0
-4.703140 -11.395488 -14.090733 18.722324 1.179373 2.422823 0.013675 -0.004564 322882.000000 1 0 0
-2.882440 -15.263388 7.479767 17.240255 1.384148 1.122030 -0.008953 -0.003326 91867.600000 1 0 0
-5.010940 -11.878388 -11.572233 17.324035 1.171594 2.302297 0.013190 -0.004619 144036.000000 1 0 0
-14.309540 -12.794188 -4.178333 19.644659 0.729547 1.785129 -0.002451 0.000566 -296224.000000 1 0 0
-3.271940 -12.259488 -3.273433 13.104045 1.309985 1.823273 0.002030 -0.004321 637344.000000 1 0 0
-2.498740 -17.344088 -1.532833 17.590073 1.427712 1.658049 -0.015473 -0.001551 -812174.000000 1 0 0
-5.704540 -12.077788 3.691667 13.857963 1.129540 1.301147 -0.001972 -0.001416 364439.000000 1 0 0
-8.875540 -10.598188 -11.923133 18.255352 0.873629 2.282508 0.012388 -0.002044 1463430.000000 1 0 0
-10.099940 -11.840388 -7.293533 17.187181 0.864559 2.009050 0.014732 -0.014883 -293494.000000 1 0 0
-10.740540 -15.071288 6.141967 19.499402 0.951631 1.250358 0.008169 -0.008215 260173.000000 1 0 0
-9.386340 -15.775588 0.685167 18.369595 1.034068 1.533489 0.001749 0.001820 -1274860.000000 1 0 0
-14.976640 -7.855088 -8.239833 18.812150 0.483047 2.024176 -0.003340 0.000688 -7130.070000 1 0 0
-2.350440 -16.393388 5.146267 17.342197 1.428390 1.269511 -0.006979 -0.002930 -1064170.000000 1 0 0
4.379560 -15.952288 5.528967 17.442061 -1.302857 1.248242 0.005822 -0.003993 -290285.000000 1 0 0
4.224960 -14.487588 -10.173533 18.200034 -1.287040 2.163957 -0.003609 0.007876 166605.000000 1 0 0
-7.580740 -14.031488 -0.300733 15.951198 1.075457 1.589651 0.001496 -0.002230 1129210.000000 1 0 0
3.010860 -14.825788 9.530567 17.880184 -1.370438 1.008626 -0.005491 -0.009593 -401872.000000 1 0 0
2.540560 -17.314888 10.279067 20.295788 -1.425109 1.039718 0.007364 -0.006639 57935.600000 1 0 0
-8.313640 -17.090588 -5.843733 19.883511 1.118051 1.869099 0.015068 -0.007212 -473253.000000 1 0 0
-6.522640 -9.187288 -7.693133 13.643144 0.953415 2.169876 0.016464 -0.008186 470734.000000 1 0 0
-6.185440 -13.072688 -4.822033 15.244895 1.128852 1.892628 0.001948 -0.011415 60615.400000 1 0 0
1.910960 -19.478188 -4.938733 20.185209 -1.473002 1.817977 -0.005031 0.000649 -302988.000000 1 0 0
-5.454240 -12.799788 8.308967 16.205624 1.167978 1.032445 0.003719 -0.007356 700599.000000 1 0 0
2.158160 -17.545788 3.469767 18.015316 -1.448409 1.376984 0.004492 -0.010596 385729.000000 1 0 0
-17.574540 -10.088988 -2.461033 20.413447 0.521134 1.691650 -0.000069 0.003011 443343.000000 1 0 0
-3.468040 -15.204488 2.522367 15.797661 1.346540 1.410443 -0.011737 -0.002124 -659453.000000 1 0 0
-10.299540 -10.175288 -14.129333 20.230053 0.779330 2.344002 0.011802 -0.004670 -156960.000000 1 0 0
5.919560 -14.658788 -5.785033 16.834128 -1.186998 1.921596 -0.013076 0.006307 451554.000000 1 0 0
-7.397440 -12.282388 -10.709333 17.896060 1.028702 2.212322 0.016255 -0.007139 -165621.000000 1 0 0
-7.004040 -14.288188 3.948567 16.395123 1.115021 1.327567 -0.005411 0.004464 520794.000000 1 0 0
3.239560 -15.018888 -3.176633 15.689255 -1.358352 1.774678 0.001421 0.001105 433999.000000 1 0 0
-7.479440 -11.232988 7.745367 15.559973 0.983362 1.049765 -0.000956 -0.008020 -135622.000000 1 0 0
-12.695740 -12.321588 -0.930333 17.716344 0.770444 1.623333 -0.000003 0.004310 298774.000000 1 0 0
-1.930640 -13.653988 3.968567 14.349504 1.430330 1.290579 -0.008156 0.000206 -2791610.000000 1 0 0
-3.149440 -13.889088 5.260167 15.182065 1.347811 1.216988 -0.010051 0.001308 382584.000000 1 0 0
-14.337940 -10.214388 -4.327333 18.128322 0.619002 1.811829 -0.009198 -0.001111 339486.000000 1 0 0
-6.133940 -8.653488 -10.390933 14.848554 0.954162 2.345906 0.010581 -0.002227 3710.830000 1 0 0
0.655160 -19.377688 2.265767 19.520700 -1.536999 1.454464 0.007569 -0.015093 123002.000000 1 0 0
6.547560 -14.389588 -8.245333 17.830207 -1.143775 2.051537 -0.007318 0.011452 -1829800.000000 1 0 0
-3.862640 -16.592488 -5.985333 18.056989 1.342075 1.908657 -0.008761 -0.009688 -614139.000000 1 0 0
-3.811940 -13.562688 -13.186833 19.296890 1.296804 2.323159 0.019012 -0.007336 -1659590.000000 1 0 0
-8.241540 -14.648688 -4.595433 17.424840 1.058321 1.837682 0.008897 -0.008905 -1217720.000000 1 0 0
-4.567840 -14.335888 10.104767 18.124270 1.262337 0.979393 0.006738 -0.007499 -317530.000000 1 0 0
-0.334840 -12.207488 -10.014633 15.793282 1.543374 2.257650 0.006015 0.001549 461172.000000 1 0 0
2.394460 -17.247688 6.704567 18.659244 -1.432850 1.203261 0.006059 -0.011296 -1065700.000000 1 0 0
-2.982940 -19.098088 -3.531233 19.649542 1.415858 1.751489 -0.016038 -0.007040 -1191400.000000 1 0 0
0.650260 -15.408088 -3.189933 15.748260 -1.528619 1.774765 0.003195 -0.002704 -795874.000000 1 0 0
6.012460 -18.000888 0.527267 18.985775 -1.248438 1.543021 0.012812 -0.003470 -621892.000000 1 0 0
-7.069540 -16.794288 3.923667 18.639251 1.172362 1.358704 -0.006366 0.008752 174479.000000 1 0 0
-5.283040 -13.561488 -9.605433 17.438142 1.199320 2.154153 0.009043 -0.005791 61526.100000 1 0 0
5.672960 -15.233588 -2.149533 16.397108 -1.214309 1.702267 -0.000796 0.004213 -2620910.000000 1 0 0
-8.804440 -10.206588 -0.595733 13.492498 0.859019 1.614964 -0.000561 -0.000270 49624.100000 1 0 0
-7.297040 -17.788488 -3.187133 19.489354 1.181518 1.735066 0.000793 -0.021713 -733401.000000 1 0 0
7.786060 -16.097488 -1.284333 17.927670 -1.120288 1.642497 0.001642 0.008654 -1160410.000000 1 0 0
-8.100440 -10.142988 -9.418533 16.037646 0.896895 2.198486 0.017170 -0.006002 -577946.000000 1 0 0
-9.132840 -14.998388 -7.074433 18.931667 1.023843 1.953772 0.018713 -0.009215 -333025.000000 1 0 0
-11.524240 -10.376688 -11.810733 19.493003 0.733049 2.221688 0.011488 -0.001090 -472279.000000 1 0 0
6.558960 -16.366888 2.399067 17.794676 -1.189647 1.435565 0.010073 -0.002797 314788.000000 1 0 0
-2.239240 -11.112288 -6.216733 12.928453 1.371949 2.072428 0.005695 -0.002180 -586771.000000 1 0 0
-12.282840 -15.364188 -3.226233 19.933264 0.896393 1.733363 0.005248 -0.004631 -375617.000000 1 0 0
-0.414540 -19.585188 -2.893633 19.802135 1.549633 1.717449 -0.003725 -0.007577 377225.000000 1 0 0
-5.881840 -15.589088 -4.788433 17.336228 1.210006 1.850644 -0.003733 -0.010909 -2481070.000000 1 0 0
1.959860 -15.965388 -1.032733 16.118350 -1.448651 1.634912 0.005451 -0.008867 575175.000000 1 0 0
-13.105840 -11.895788 5.212567 18.451116 0.737037 1.284390 0.011654 -0.007862 212225.000000 1 0 0
2.072560 -15.259088 -9.152933 17.914001 -1.435798 2.107071 -0.003343 0.010536 -2542310.000000 1 0 0
-11.852940 -16.656788 0.081967 20.443764 0.952329 1.566787 0.014942 -0.011798 595925.000000 1 0 0
-7.445140 -16.591788 -0.982733 18.212174 1.149004 1.624783 0.001222 -0.003257 414820.000000 1 0 0
-3.103940 -14.519488 -1.858633 14.963438 1.360189 1.695330 -0.008530 -0.003110 83460.400000 1 0 0
-1.881240 -10.488688 -13.341533 17.074781 1.393324 2.467637 0.004253 0.001212 -588568.000000 1 0 0
1.238260 -19.549088 4.828767 20.174665 -1.507540 1.329102 0.012583 -0.013635 62057.900000 1 0 0
-17.277440 -9.404188 2.537367 19.833984 0.498460 1.442514 -0.008114 0.001300 -222886.000000 1 0 0
-2.627140 -15.634588 -8.131633 17.817566 1.404318 2.044722 -0.003127 -0.001707 -1285140.000000 1 0 0
-10.299640 -12.112588 0.199567 15.900855 0.866113 1.558245 -0.002152 0.000084 425816.000000 1 0 0
-6.919740 -11.517988 -6.680633 15.005922 1.029806 2.032194 0.007980 -0.007774 132832.000000 1 0 0
-2.012940 -13.563388 -6.789033 15.300601 1.423462 2.030531 -0.002554 -0.002440 530915.000000 1 0 0
-14.090640 -14.541588 -1.030133 20.274740 0.801147 1.621627 0.001512 0.003694 -105263.000000 1 0 0
-9.521640 -11.356588 -4.451733 15.474225 0.873061 1.862607 0.010636 -0.008382 1247830.000000 1 0 0
9.305360 -15.224888 -5.169933 18.577275 -1.022187 1.852813 -0.002609 0.009202 120089.000000 1 0 0
-5.601140 -10.925488 -9.289433 15.395864 1.097066 2.218519 0.012513 -0.006985 135648.000000 1 0 0
-10.476840 -16.019488 -5.023033 19.789366 0.991610 1.827429 0.019821 -0.003862 -1797260.000000 1 0 0
2.243860 -17.449088 -3.267933 17.893713 -1.442904 1.754457 0.007225 0.001957 394049.000000 1 0 0
-0.148940 -14.582488 -8.127833 16.695293 1.560583 2.079258 0.003829 0.003837 -844108.000000 1 0 0
-0.716340 -18.232688 -7.234233 19.628504 1.531528 1.948253 -0.004454 0.001012 -199006.000000 1 0 0
-1.819440 -10.067588 -10.687433 14.794861 1.392004 2.378027 0.005056 0.000413 441119.000000 1 0 0
-4.975240 -17.293588 2.167767 18.125132 1.290668 1.450909 -0.009875 0.001181 1217120.000000 1 0 0
0.284060 -12.846388 -2.658433 13.121648 -1.548688 1.774808 -0.001383 -0.000834 -1359310.000000 1 0 0
2.562860 -15.009788 3.033267 15.526194 -1.401681 1.374167 0.002659 -0.006137 -1476190.000000 1 0 0
-9.360740 -12.986188 6.823967 17.402042 0.946232 1.167844 -0.003136 -0.005544 -328080.000000 1 0 0
-1.025240 -17.854388 -4.601333 18.466254 1.513437 1.822625 -0.008840 -0.002833 -520308.000000 1 0 0
-9.632940 -17.366188 -2.243033 19.985225 1.064356 1.683268 0.015340 -0.017408 -952095.000000 1 0 0
1.321160 -16.150088 1.341367 16.259461 -1.489173 1.488205 0.002619 -0.009834 305124.000000 1 0 0
-0.493940 -17.985288 4.076967 18.448204 1.543340 1.347961 0.010720 -0.012762 104076.000000 1 0 0
-17.297840 -9.282888 -0.075333 19.631428 0.492536 1.574634 -0.008831 0.003487 475744.000000 1 0 0
-14.863540 -7.021988 -10.664433 19.594981 0.441350 2.146283 0.001624 -0.006262 534212.000000 1 0 0
2.755060 -12.618788 -8.990033 15.736736 -1.355839 2.178857 -0.008643 0.006716 683867.000000 1 0 0
-11.602940 -14.649488 1.725867 18.767374 0.900930 1.478705 0.002511 -0.004800 372079.000000 1 0 0
-2.254340 -15.521888 10.589967 18.925075 1.426569 0.976925 -0.001044 -0.001335 494450.000000 1 0 0
-7.031940 -15.864288 1.447367 17.413175 1.153565 1.487581 -0.004499 -0.001752 -1131790.000000 1 0 0
-12.674040 -15.165888 -5.890933 20.623737 0.874667 1.860469 0.019799 -0.003681 353088.000000 1 0 0
0.953260 -13.752188 -5.138133 14.711621 -1.501590 1.927574 0.000050 0.002378 789052.000000 1 0 0
5.631560 -16.583288 -7.361433 18.997647 -1.243423 1.968706 -0.002186 0.005085 155999.000000 1 0 0
-6.501240 -12.827688 5.941367 15.560062 1.101713 1.179016 0.000616 -0.001451 -189539.000000 1 0 0
-2.537140 -13.637288 0.411967 13.877407 1.386855 1.541106 -0.001326 -0.002842 514333.000000 1 0 0
-4.297640 -15.562888 0.159667 16.146166 1.301364 1.560907 -0.011066 0.000149 213348.000000 1 0 0
-17.727940 -7.487888 -1.979233 19.345947 0.399647 1.673283 -0.007690 0.011561 465885.000000 1 0 0
1.192260 -12.813888 -11.934033 17.551021 -1.478019 2.318508 0.003138 0.006938 -390476.000000 1 0 0
1.239560 -17.081988 -5.738233 18.062617 -1.498358 1.894084 0.005178 -0.000623 336314.000000 1 0 0
-12.904140 -6.444588 -9.114533 17.062364 0.463184 2.134345 0.003593 -0.000177 236514.000000 1 0 0
-11.564440 -13.476888 -8.676833 19.764873 0.861622 2.025285 0.020549 -0.012433 294535.000000 1 0 0
-4.260340 -9.771988 3.596867 11.250764 1.159667 1.245384 0.004267 -0.001643 -2815050.000000 1 0 0
-7.129540 -14.120188 9.661067 18.535001 1.103222 1.022500 0.008172 -0.011698 -1456580.000000 1 0 0
-5.207740 -15.786688 -8.191533 18.532169 1.252155 2.028642 0.000345 -0.011337 -1190440.000000 1 0 0
-0.265140 -13.520788 2.065267 13.680180 1.551189 1.419249 -0.000330 -0.003638 666412.000000 1 0 0
-10.997440 -13.529388 -4.691133 18.055325 0.888266 1.833632 0.016369 -0.005708 -1067910.000000 1 0 0
-9.727840 -10.448688 6.637167 15.743505 0.821110 1.135608 0.001841 -0.003086 -699056.000000 1 0 0
-15.592240 -8.058588 -4.827533 18.203402 0.477023 1.839207 0.001553 0.002749 885797.000000 1 0 0
-14.307240 -7.270988 5.336667 16.912847 0.470189 1.249771 -0.002793 -0.002906 636205.000000 1 0 0
-1.731340 -19.292188 0.033667 19.369749 1.481293 1.569058 -0.009321 0.000749 -457936.000000 1 0 0
-15.289740 -12.243888 -1.442933 19.641054 0.675223 1.644328 -0.001880 0.009462 385270.000000 1 0 0
-4.359640 -12.184488 -6.681733 14.564126 1.227187 2.047418 0.005060 -0.004908 593806.000000 1 0 0
-7.213240 -18.463188 1.862067 19.909481 1.198348 1.477133 -0.008082 0.004836 -92839.300000 1 0 0
-2.548340 -11.737888 -8.721733 14.843876 1.357010 2.198842 0.004598 -0.000672 604521.000000 1 0 0
-1.515340 -20.323688 -5.203933 21.034007 1.496374 1.820798 -0.005736 0.000466 -132599.000000 1 0 0
-5.453240 -8.981788 -14.043633 17.539497 1.025140 2.499236 0.009833 0.002619 646602.000000 1 0 0
-8.079940 -19.084488 -1.038833 20.750477 1.170301 1.620880 -0.001600 0.003177 -24179.000000 1 0 0
-16.876940 -7.346588 5.718567 19.274477 0.410565 1.269570 -0.005573 -0.003594 -241144.000000 1 0 0
-3.582140 -14.615188 -4.400933 15.678126 1.330437 1.855325 -0.006600 -0.006859 -2599170.000000 1 0 0
-2.995440 -14.723588 -10.878533 18.549910 1.370090 2.197461 0.007627 -0.005267 -1021590.000000 1 0 0
-0.075340 -16.655388 6.257867 17.792373 1.566273 1.211392 0.005650 -0.011474 -568562.000000 1 0 0
-11.102840 -11.671388 3.775067 16.545256 0.810358 1.340603 0.003191 -0.001937 607366.000000 1 0 0
-0.176940 -14.617088 -0.258233 14.620439 1.558692 1.588460 0.002623 -0.001055 620926.000000 1 0 0
-7.241440 -9.529988 -2.475533 12.222413 0.921016 1.774748 0.008287 -0.000923 -43983.600000 1 0 0
-10.933640 -14.405988 -0.829133 18.104266 0.921582 1.616610 -0.002504 -0.007841 145113.000000 1 0 0
0.038460 -14.688988 -10.725933 18.188278 -1.568178 2.201504 -0.000041 0.005860 -557711.000000 1 0 0
-1.424040 -14.021988 -3.925333 14.630525 1.469586 1.842422 -0.005226 -0.001973 -1615380.000000 1 0 0
-11.282340 -8.044188 -7.633833 15.820100 0.619391 2.074349 0.008506 -0.005408 563069.000000 1 0 0
-0.217740 -17.274088 -0.338733 17.278781 1.558192 1.590402 0.002223 -0.004539 -237883.000000 1 0 0
-12.718540 -9.498388 4.439067 16.482899 0.641459 1.298116 0.006705 -0.004023 -855003.000000 1 0 0
3.939360 -16.856688 1.625467 17.387025 -1.341219 1.477172 0.005191 -0.009270 2190750.000000 1 0 0
-3.714640 -17.889688 -8.261933 20.052407 1.366064 1.995463 0.001066 -0.004404 3978.950000 1 0 0
-13.249540 -11.290988 2.513267 17.588440 0.705758 1.427412 -0.000418 -0.001944 304631.000000 1 0 0
-8.408940 -12.193988 4.052667 15.356683 0.967086 1.303730 0.002007 -0.003874 -201226.000000 1 0 0
-8.241040 -9.522088 -5.809333 13.868426 0.857392 2.003018 0.015653 -0.009387 -1332970.000000 1 0 0
3.706760 -17.706188 -5.374933 18.871647 -1.364428 1.859610 -0.003636 0.017184 -1816880.000000 1 0 0
-2.670140 -13.001388 11.258767 17.404757 1.368239 0.867312 0.006969 -0.012958 -209533.000000 1 0 0
0.197160 -16.952788 -9.443833 19.406748 -1.559167 2.079020 0.003410 0.011968 -88796.100000 1 0 0
-7.204240 -10.727188 -14.689433 19.564076 0.979395 2.420125 0.014721 0.007653 -44530.300000 1 0 0
-4.674040 -18.702588 -1.542033 19.339372 1.325899 1.650616 0.000121 -0.007899 -348364.000000 1 0 0
-2.429840 -17.103588 1.147167 17.313371 1.429675 1.504489 -0.005015 -0.005998 314422.000000 1 0 0
3.990760 -14.572788 -7.608833 16.917052 -1.303499 2.037307 -0.006438 0.006353 174945.000000 1 0 0
-1.027540 -15.896388 -6.192033 17.090707 1.506246 1.941535 -0.001274 -0.000596 -667226.000000 1 0 0
-9.340840 -15.197088 8.297967 19.673816 1.019677 1.135392 -0.003110 -0.000952 -635060.000000 1 0 0
-7.201740 -12.022388 -1.806633 14.130350 1.031092 1.699002 0.000975 -0.005262 556784.000000 1 0 0
-7.365940 -15.114788 -9.300133 19.214743 1.117333 2.076028 0.016676 -0.008087 -608102.000000 1 0 0
-5.012240 -13.247788 -0.709533 14.182026 1.209096 1.620848 -0.001560 -0.002908 2021890.000000 1 0 0
-6.311940 -13.790788 -7.257533 16.813631 1.141564 2.017113 0.001200 -0.009022 145482.000000 1 0 0
5.722860 -15.413088 0.305867 16.444086 -1.215275 1.552195 0.003275 0.000737 405105.000000 1 0 0
-14.450140 -12.908988 0.949767 19.399757 0.729127 1.521819 0.005849 -0.002097 1027870.000000 1 0 0
0.952060 -15.384788 11.048067 18.964649 -1.508992 0.948920 -0.001144 -0.002966 28431.700000 1 0 0
-9.293740 -10.741588 1.963467 14.339125 0.857537 1.433434 -0.001327 0.001902 -16404.900000 1 0 0
-9.413740 -8.791888 -3.607933 13.376583 0.751254 1.843899 0.012279 -0.003674 78830.300000 1 0 0
-12.275240 -7.139388 -12.248333 18.752974 0.526787 2.282521 0.005073 -0.002114 -354665.000000 1 0 0
-13.265340 -8.248388 -0.602933 15.632296 0.556295 1.609376 0.000476 0.000939 -523464.000000 1 0 0
-11.220240 -9.706588 0.378967 14.840999 0.713193 1.545258 -0.000853 0.001939 480882.000000 1 0 0
-15.665340 -11.995388 3.175267 19.984357 0.653491 1.411232 0.006694 -0.001128 -321049.000000 1 0 0
-10.380840 -12.504688 -2.308933 16.415244 0.877936 1.711922 0.006980 -0.003986 664864.000000 1 0 0
-3.515840 -8.954888 -12.119033 15.473271 1.196671 2.470630 0.004902 0.002637 648330.000000 1 0 0
-0.295840 -15.548188 3.853967 16.021446 1.551771 1.327863 0.002589 -0.006790 -1039810.000000 1 0 0
-15.623340 -7.753288 1.211867 17.483445 0.460654 1.501426 -0.010015 0.000080 318069.000000 1 0 0
-6.357640 -13.203288 -13.404733 19.860344 1.122042 2.311693 0.017618 -0.003142 -369952.000000 1 0 0
-15.200240 -10.357588 1.159667 18.430186 0.598140 1.507833 0.000240 -0.000770 956878.000000 1 0 0
-9.996940 -8.333888 -12.416433 17.987782 0.694922 2.332659 0.014364 -0.002266 612959.000000 1 0 0
-13.208940 -11.675388 -6.122033 18.661995 0.723849 1.905033 0.004004 -0.003557 -398378.000000 1 0 0
-12.096340 -11.345988 -3.785133 17.011176 0.753401 1.795183 0.000055 0.000558 -1852680.000000 1 0 0
-12.056940 -10.943188 -8.857033 18.535647 0.737012 2.068988 0.013441 -0.012137 862942.000000 1 0 0
-13.199440 -8.451088 -5.919633 16.753750 0.569498 1.931927 0.000239 -0.002722 -337967.000000 1 0 0
-13.382140 -8.039388 -3.274633 15.951070 0.540974 1.777559 0.001779 -0.003016 1043450.000000 1 0 0
-4.371340 -17.011488 -3.420133 17.894039 1.319274 1.763112 -0.007620 -0.007932 -167853.000000 1 0 0
-15.425640 -8.819088 -1.749133 17.854583 0.519363 1.668919 -0.001233 0.004380 -1575700.000000 1 0 0
-9.289740 -15.499788 3.658867 18.437191 1.030858 1.371020 -0.003437 -0.006252 -837846.000000 1 0 0
4.670260 -17.131288 7.825067 19.404227 -1.304648 1.155713 0.011196 -0.029858 209842.000000 1 0 0
-8.065040 -15.323088 6.026867 18.334803 1.086305 1.235857 -0.004003 0.001342 772897.000000 1 0 0
0.908760 -16.013188 8.567767 18.183912 -1.514106 1.080176 -0.001151 -0.007224 415203.000000 1 0 0
-10.847740 -7.757688 -10.135733 16.750769 0.620817 2.220676 0.011992 -0.002608 869228.000000 1 0 0
-4.844240 -15.874288 5.834167 17.592532 1.274610 1.232768 -0.006933 0.000667 107692.000000 1 0 0
-1.427740 -13.150388 -12.201033 17.995453 1.462650 2.315843 0.005424 -0.002843 -1424970.000000 1 0 0
-6.481940 -14.387288 -2.606933 15.993927 1.147500 1.734522 0.001332 -0.007191 294820.000000 1 0 0
-17.741840 -6.959288 -7.173133 20.363163 0.373810 1.930781 -0.003738 0.002788 163009.000000 1 0 0
-17.351740 -4.089188 -10.111233 20.494911 0.231442 2.086737 -0.008127 -0.002847 634584.000000 1 0 0
-15.364840 -5.304988 -8.880733 18.522652 0.332453 2.070827 -0.009737 -0.007106 175743.000000 1 0 0
-16.149540 -5.466488 -5.576133 17.938322 0.326386 1.886884 -0.005780 0.003846 1446560.000000 1 0 0
-15.309240 -4.157388 -12.361533 20.111295 0.265166 2.232746 0.001389 -0.000577 -1131310.000000 1 0 0
-18.768740 -5.326088 -5.479733 20.264755 0.276505 1.844612 -0.004252 0.010428 -488636.000000 1 0 0
-17.433740 -4.346288 -7.487633 19.465101 0.244323 1.965646 -0.015485 -0.002322 362431.000000 1 0 0
12.029860 -7.859188 8.773967 16.836474 -0.578696 1.022624 0.015066 -0.009561 183706.000000 1 0 0
15.987660 -3.415588 1.683267 16.434868 -0.210475 1.468196 0.002284 0.000800 442404.000000 1 0 0
12.002660 -2.094788 12.515667 17.466938 -0.172787 0.771975 0.002092 0.002121 98789.100000 1 0 0
9.626160 -10.054288 5.239367 14.872882 -0.807149 1.210794 0.006892 -0.002518 148365.000000 1 0 0
16.898060 -1.924988 7.213467 18.473877 -0.113429 1.169656 0.016145 -0.008853 -295935.000000 1 0 0
5.143060 -12.894288 9.254167 16.683924 -1.191270 0.982823 -0.006773 0.003129 -425028.000000 1 0 0
14.893960 -8.958388 -2.207233 17.520121 -0.541505 1.697115 0.013518 -0.001239 -301669.000000 1 0 0
11.120160 -8.554288 6.398467 15.419928 -0.655714 1.142911 0.014406 -0.005940 -984343.000000 1 0 0
19.931460 -3.153888 3.711367 20.517903 -0.156935 1.388911 0.009288 -0.004371 569166.000000 1 0 0
13.698660 -8.533988 7.035067 17.606090 -0.557145 1.159736 0.016409 -0.003983 -567815.000000 1 0 0
8.216960 -10.987388 8.896267 16.351902 -0.928670 0.995539 0.005340 -0.003166 -2607680.000000 1 0 0
16.665660 0.080012 -0.714233 16.681150 0.004801 1.613626 -0.002437 0.005915 -957481.000000 1 0 0
12.326560 -12.377088 2.457067 17.640112 -0.787444 1.431053 0.010846 -0.003131 -1315020.000000 1 0 0
10.309660 -11.672688 3.641267 15.993735 -0.847324 1.341114 0.005117 0.000048 -1137710.000000 1 0 0
16.115460 3.172512 2.344367 16.591231 0.194376 1.429020 -0.003955 0.001189 -482468.000000 1 0 0
18.354760 -3.327688 0.509567 18.660932 -0.179350 1.543486 0.004200 0.003122 -26644.300000 1 0 0
13.433860 -11.701188 -0.168933 17.816142 -0.716573 1.580278 0.019909 0.002007 -366252.000000 1 0 0
16.810360 -7.623788 -0.975033 18.484075 -0.425775 1.623571 0.016729 0.000001 63276.500000 1 0 0
10.178560 -5.849488 9.784167 15.282327 -0.521599 0.876002 0.013416 -0.005024 -489468.000000 1 0 0
11.339760 -13.137288 6.220967 18.435805 -0.858704 1.226601 0.024554 -0.000700 -654563.000000 1 0 0
13.038260 -1.898088 10.169067 16.643584 -0.144563 0.913485 0.009119 -0.001747 568644.000000 1 0 0
15.537260 -2.012688 -1.404533 15.729910 -0.128822 1.660206 0.001301 0.001053 96450.000000 1 0 0
10.255860 -12.538888 9.086367 18.573326 -0.885221 1.059606 0.023390 -0.009921 -72634.100000 1 0 0
14.604560 1.227412 3.218467 15.005274 0.083846 1.354628 0.003107 -0.001195 598317.000000 1 0 0
15.050860 -5.805888 5.300067 16.980207 -0.368163 1.253360 0.012729 -0.003693 -495532.000000 1 0 0
14.285760 -3.332588 -3.042333 14.981484 -0.229182 1.775291 0.008985 0.001359 1052700.000000 1 0 0
14.140860 0.505012 9.675467 17.141576 0.035698 0.971036 0.021929 -0.000425 689726.000000 1 0 0
15.324460 -3.332888 4.410467 16.291084 -0.214153 1.296646 0.003939 -0.000020 -888154.000000 1 0 0
18.565260 4.756012 -4.227533 19.625508 0.250785 1.787908 -0.018819 0.009133 458242.000000 1 0 0
17.905260 -5.940288 -5.212233 19.571733 -0.320336 1.840364 0.020742 -0.003932 545933.000000 1 0 0
17.288460 0.053312 5.724667 18.211686 0.003084 1.251035 0.018293 -0.007448 254442.000000 1 0 0
17.018760 -6.773588 3.888967 18.725484 -0.378787 1.361590 0.013762 0.001614 -284723.000000 1 0 0
9.774360 -6.820188 14.282967 18.602587 -0.609223 0.695404 0.011644 -0.003632 -866102.000000 1 0 0
8.427460 -12.251488 5.215367 15.758207 -0.968256 1.233474 -0.002596 -0.003126 -2288990.000000 1 0 0
16.693860 -10.267288 -0.806233 19.615101 -0.551400 1.611911 0.020174 0.003185 200133.000000 1 0 0
14.892160 -8.838188 0.343467 17.320738 -0.535611 1.550965 0.023667 0.000487 -131170.000000 1 0 0
9.918060 -12.955788 1.525867 16.387453 -0.917429 1.477549 0.003600 -0.000859 3849.770000 1 0 0
17.052660 -8.221388 8.890067 20.914534 -0.449240 1.131761 0.027683 -0.006737 256352.000000 1 0 0
19.003560 -0.327088 -1.657633 19.078523 -0.017210 1.657791 0.001030 0.004734 -606889.000000 1 0 0
13.617660 -1.188288 7.709067 15.693387 -0.087040 1.057295 0.014409 -0.006825 134381.000000 1 0 0
12.598960 -9.790888 -3.087833 16.252076 -0.660632 1.761955 0.003422 0.001786 -1388410.000000 1 0 0
8.745560 -15.242488 1.472167 17.634782 -1.049893 1.487218 0.008118 0.005299 -353326.000000 1 0 0
11.388860 -8.359788 11.166167 18.007650 -0.633203 0.901953 0.013713 -0.011548 69128.200000 1 0 0
13.866660 -4.000288 -0.527833 14.441785 -0.280857 1.607353 0.006881 0.000341 -600727.000000 1 0 0
7.280960 -13.240088 10.658367 18.490892 -1.068016 0.956466 0.010259 -0.000984 -1303000.000000 1 0 0
15.353560 -6.747588 1.835867 16.871045 -0.414071 1.461763 0.015159 0.000521 -223839.000000 1 0 0
15.765160 -6.059188 -2.617933 17.091155 -0.366934 1.724576 0.015969 0.000999 -433977.000000 1 0 0
11.134760 -8.511088 3.814367 14.524837 -0.652635 1.305070 0.009606 -0.001653 393660.000000 1 0 0
10.527560 -14.627988 -0.463333 18.028373 -0.946980 1.596499 0.011157 0.005475 487281.000000 1 0 0
13.378060 -12.800688 4.772667 19.120890 -0.763347 1.318524 0.019159 0.000255 16510.200000 1 0 0
12.850060 -11.072588 6.671867 18.227453 -0.711234 1.196053 0.018464 -0.007364 112968.000000 1 0 0
10.875260 -10.583888 1.356967 15.235856 -0.771821 1.481614 0.003450 -0.001345 456888.000000 1 0 0
13.894960 -7.579988 11.813967 19.750847 -0.499398 0.929606 0.016211 -0.021868 119123.000000 1 0 0
15.268960 -1.817188 -4.965233 16.158491 -0.118455 1.883133 0.010256 0.002147 381131.000000 1 0 0
12.730060 -11.575588 -7.098933 18.612993 -0.737936 1.962103 0.007620 0.004511 -325099.000000 1 0 0
17.603660 -5.348088 1.937667 18.499877 -0.294944 1.465864 0.009565 0.000304 540892.000000 1 0 0
10.544160 -9.860888 9.126767 17.079646 -0.751925 1.007040 0.012101 -0.007800 -1641940.000000 1 0 0
16.466360 1.801212 9.814167 19.253656 0.108954 1.035925 0.035995 -0.004245 330240.000000 1 0 0
18.088860 3.629012 0.589667 18.458719 0.197993 1.538846 -0.012341 0.009707 711700.000000 1 0 0
13.267360 -4.066888 5.737767 15.016138 -0.297440 1.178721 0.012499 -0.009428 -1034180.000000 1 0 0
12.170260 -6.257888 6.670067 15.223869 -0.474939 1.117277 0.016986 -0.006579 -133674.000000 1 0 0
16.438360 -10.196288 3.507067 19.659183 -0.555194 1.391443 0.007004 0.001498 -86032.000000 1 0 0
16.091360 -8.291288 -5.683633 18.973165 -0.475784 1.875030 0.018628 -0.000290 101861.000000 1 0 0
14.043860 -0.338188 5.286167 15.009595 -0.024076 1.210891 0.005657 -0.003839 -8188.430000 1 0 0
18.179360 -4.366588 5.207567 19.408116 -0.235729 1.299149 0.011032 -0.001868 182753.000000 1 0 0
13.725460 -13.370388 7.326567 20.514242 -0.772295 1.205586 0.034478 -0.002575 227573.000000 1 0 0
14.918760 -13.554488 -0.963133 20.179722 -0.737521 1.618542 0.016550 0.002362 384551.000000 1 0 0
17.881760 -5.959988 7.997967 20.475504 -0.321720 1.169501 0.028407 -0.000135 -655728.000000 1 0 0
14.267460 3.179012 9.290167 17.319750 0.219234 1.004641 0.020759 -0.005358 -192474.000000 1 0 0
18.524660 3.886412 3.128667 19.184780 0.206797 1.406984 0.003522 0.003596 753591.000000 1 0 0
14.953060 -10.548488 8.200967 20.052941 -0.614368 1.149476 0.024933 -0.009993 -218560.000000 1 0 0
14.789160 -4.840588 10.376267 18.703408 -0.316317 0.982698 0.011433 -0.008995 321656.000000 1 0 0
17.741460 -7.959988 1.709867 19.520360 -0.421744 1.483090 0.020663 -0.002810 -213539.000000 1 0 0
18.372160 -5.876388 -2.145433 19.408016 -0.309569 1.681566 0.014527 -0.000238 878988.000000 1 0 0
14.072860 -13.072988 -5.523833 19.986524 -0.748581 1.850819 0.006477 0.001729 -1006290.000000 1 0 0
15.491260 -1.729488 9.446967 18.226778 -0.111182 1.025933 0.020891 -0.004470 -235356.000000 1 0 0
13.003760 -9.924788 10.089967 19.219954 -0.651911 1.018112 0.010384 -0.021878 -679027.000000 1 0 0
16.476460 2.264112 4.806767 17.311989 0.136560 1.289444 0.012451 -0.005929 -1294040.000000 1 0 0
15.024160 2.345712 -0.081733 15.206394 0.154879 1.576171 -0.000363 0.005255 -1125480.000000 1 0 0
14.878660 -10.088688 -7.038133 19.305218 -0.595852 1.943969 0.015038 0.000666 651256.000000 1 0 0
16.157460 -0.055188 -3.270233 16.485175 -0.003416 1.770495 -0.002355 0.007420 172971.000000 1 0 0
12.078360 2.453912 13.488767 18.271708 0.200438 0.740350 0.013661 0.003480 218413.000000 1 0 0
17.786860 -3.072588 9.525867 20.409687 -0.171057 1.085204 0.025212 -0.009245 1285250.000000 1 0 0
7.753760 -18.231788 4.675467 20.356298 -1.168682 1.339046 0.027289 -0.007790 -431453.000000 1 0 0
6.781560 -11.138788 6.660367 14.643177 -1.023914 1.098599 -0.004504 -0.001681 28916.300000 1 0 0
18.161460 2.076412 -1.476833 18.339333 0.113836 1.651412 0.004719 0.011424 628136.000000 1 0 0
17.489960 -2.290988 3.632667 18.009542 -0.130247 1.367695 -0.000107 -0.000260 -631481.000000 1 0 0
12.490760 -13.547988 -2.006133 18.536225 -0.825978 1.679236 0.004884 0.006839 937254.000000 1 0 0
14.964760 -8.204588 4.385167 17.620698 -0.501507 1.319289 0.016734 -0.002784 -88392.600000 1 0 0
11.643260 -3.193188 14.837567 19.128914 -0.267671 0.683033 -0.003033 0.001274 185226.000000 1 0 0
11.747860 -13.800188 -6.522233 19.261280 -0.865558 1.916245 -0.007916 -0.000181 -235135.000000 1 0 0
10.572760 -12.135888 -1.221633 16.141729 -0.854124 1.646550 0.000796 0.001813 -1212910.000000 1 0 0
13.111960 -8.064388 2.106267 15.536866 -0.551405 1.434812 0.013041 0.002000 -474626.000000 1 0 0
8.653060 -7.848388 9.945767 15.342455 -0.736673 0.865511 0.006000 -0.003518 -949066.000000 1 0 0
15.697760 -3.934488 8.161167 18.124693 -0.245581 1.103719 0.018029 -0.009080 -355740.000000 1 0 0
9.862260 -17.191188 5.677067 20.616261 -1.049954 1.291823 0.017788 -0.007475 -1667690.000000 1 0 0
15.321660 -6.441588 8.378967 18.613286 -0.397988 1.103851 0.020052 -0.000875 -783544.000000 1 0 0
16.567360 -5.032888 -0.386733 17.319265 -0.294924 1.593128 0.013847 -0.000809 -179020.000000 1 0 0
13.757960 -10.514188 3.605067 17.686891 -0.652544 1.365531 0.014424 -0.003107 1310890.000000 1 0 0
14.726560 -10.082288 -4.542733 18.416311 -0.600338 1.820038 0.018250 -0.003637 344219.000000 1 0 0
13.511560 -6.666488 -0.114833 15.067100 -0.458347 1.578418 0.014356 0.000686 127405.000000 1 0 0
17.801660 -1.014688 -5.090533 18.542983 -0.056938 1.848893 0.001427 0.005715 -893920.000000 1 0 0
14.274860 0.297512 -1.729733 14.382354 0.020839 1.691356 0.002494 0.004390 -2795880.000000 1 0 0
5.049260 -13.053288 11.873067 18.353557 -1.201704 0.867273 -0.006830 0.005658 -668783.000000 1 0 0
12.073260 -7.660988 13.566467 19.710489 -0.565431 0.811672 0.016136 -0.013271 420070.000000 1 0 0
12.024160 -5.846488 11.620367 17.714253 -0.452570 0.855303 0.010922 -0.006561 -989451.000000 1 0 0
13.255260 -4.721288 8.335867 16.354790 -0.342172 1.035972 0.016820 -0.008342 -2076650.000000 1 0 0
15.316560 -1.205288 3.057467 15.665179 -0.078530 1.374359 0.001880 -0.000834 895639.000000 1 0 0
15.175460 -10.300588 5.776167 19.229165 -0.596332 1.265699 0.020503 -0.004954 -307396.000000 1 0 0
13.446160 -8.176488 -5.805633 16.773775 -0.546347 1.924222 0.013887 0.001018 -861840.000000 1 0 0
9.589260 -2.212688 13.450267 16.666121 -0.226777 0.631670 0.000691 -0.000362 -924914.000000 1 0 0
10.043460 -9.319388 13.687467 19.366694 -0.748021 0.785898 0.022025 -0.005209 -366964.000000 1 0 0
20.270060 6.266012 -3.038433 21.432926 0.299809 1.713040 0.003116 0.010788 -486910.000000 1 0 0
11.245860 -3.720788 10.542267 15.857270 -0.319522 0.843540 0.009418 0.001127 893374.000000 1 0 0
10.071360 -14.063288 -2.952233 17.547764 -0.949316 1.739840 -0.004113 0.005033 294106.000000 1 0 0
14.859560 -12.760288 2.627267 19.761933 -0.709538 1.437456 0.014157 0.010053 -361762.000000 1 0 0
11.462860 -0.665288 14.611967 18.583577 -0.057974 0.666025 0.007981 0.009723 301921.000000 1 0 0
18.995260 -1.890388 5.762567 19.939926 -0.099192 1.277618 0.017132 -0.006572 629739.000000 1 0 0
18.912960 -0.387188 7.784767 20.456113 -0.020469 1.180395 0.030502 -0.006079 341726.000000 1 0 0
18.799160 0.693312 0.731867 18.826171 0.036863 1.531912 -0.006852 0.001196 135628.000000 1 0 0
18.468260 0.972112 3.642467 18.849117 0.052588 1.376330 0.006722 -0.003425 413491.000000 1 0 0
16.685960 -3.796488 -4.137833 17.605574 -0.223717 1.808045 0.012137 0.000237 39499.200000 1 0 0
11.055860 -8.345688 15.886067 21.077231 -0.646608 0.717111 0.019709 -0.009614 215706.000000 1 0 0
16.644960 -7.575788 6.373667 19.366747 -0.427120 1.235442 0.020045 -0.001649 191454.000000 1 0 0
18.824360 2.260812 5.997167 19.885518 0.119528 1.264442 0.026431 -0.009150 1206290.000000 1 0 0
15.375560 1.645112 7.551267 17.208599 0.106590 1.116525 0.027354 -0.009214 180062.000000 1 0 0
8.649260 -15.845988 3.923767 18.474333 -1.071158 1.356776 0.006969 -0.006299 426507.000000 1 0 0
11.207560 -15.179288 2.062167 18.980851 -0.934796 1.461937 0.008879 0.005383 -241005.000000 1 0 0
7.619960 -16.106188 6.238667 18.878401 -1.128893 1.233999 0.007332 -0.008629 -115880.000000 1 0 0
14.327860 -11.622088 -2.574533 18.627633 -0.681505 1.709451 0.012691 0.000093 338817.000000 1 0 0
13.683160 -4.954088 3.235167 14.907654 -0.347376 1.352042 0.004537 0.002224 -1320980.000000 1 0 0
-0.967840 10.262112 -5.498833 11.682672 -1.476762 2.060861 0.002480 -0.001761 -1357860.000000 1 0 0
8.201360 -1.807688 -8.057133 11.638188 -0.216944 2.335470 -0.004920 0.003939 -3613090.000000 1 0 0
2.966660 -10.298688 7.743667 13.222270 -1.290328 0.945110 -0.014565 0.000693 386675.000000 1 0 0
-6.219440 1.280912 8.341367 10.483348 -0.203113 0.650671 -0.002290 -0.001328 28127.000000 1 0 0
7.171160 -6.352588 -7.255833 12.017821 -0.724943 2.219001 -0.008936 0.000507 -429978.000000 1 0 0
-11.426740 -4.491588 -4.133033 12.954795 0.374524 1.895507 0.006564 -0.004560 -471281.000000 1 0 0
2.123560 -3.347088 2.812667 4.860412 -1.005430 0.953676 0.001745 0.001168 1504160.000000 1 0 0
-3.607740 -4.190688 8.911867 10.488042 0.860011 0.555348 0.002015 -0.004267 -1970720.000000 1 0 0
-4.936540 -1.123988 -2.438033 5.619322 0.223871 2.019576 0.006551 -0.003649 -371948.000000 1 0 0
4.964760 -5.217388 -3.707833 8.100494 -0.810204 2.046236 -0.005252 0.000548 -190913.000000 1 0 0
2.686960 14.238612 -8.773433 16.939036 1.384280 2.115239 -0.006146 -0.004666 -173766.000000 1 0 0
5.461060 -5.515988 13.758967 15.797420 -0.790402 0.513638 0.006288 -0.000764 -1718430.000000 1 0 0
-4.755640 -0.914288 9.891667 11.013497 0.189936 0.455274 0.005712 -0.001730 -2974820.000000 1 0 0
-0.950240 11.928312 -2.574133 12.239843 -1.491302 1.782686 -0.002475 -0.001778 -979894.000000 1 0 0
3.107260 9.461912 -10.498733 14.470876 1.253495 2.382568 0.002670 -0.001836 -308102.000000 1 0 0
-10.705140 2.664312 1.207967 11.097647 -0.243926 1.461731 -0.003791 0.001102 -194632.000000 1 0 0
5.719360 -9.047688 -0.772833 10.731682 -1.007083 1.642873 -0.011014 0.001042 367203.000000 1 0 0
-6.931440 5.407812 9.464867 12.917934 -0.662542 0.748527 0.000656 -0.002425 -127136.000000 1 0 0
-5.434740 -1.776688 5.113467 7.670760 0.315961 0.841134 0.002253 -0.004954 729884.000000 1 0 0
6.676560 -3.774788 -7.310033 10.595379 -0.514574 2.332184 -0.006162 0.000521 282615.000000 1 0 0
6.294560 4.807812 11.153267 13.679617 0.652278 0.617514 -0.000421 0.000104 260585.000000 1 0 0
3.757160 -9.984888 3.129467 11.117904 -1.210900 1.285460 -0.011331 0.001602 1241230.000000 1 0 0
-6.670740 6.657012 -5.817133 11.074909 -0.784368 2.123809 0.004488 -0.001594 246326.000000 1 0 0
-10.996440 8.295312 5.278767 14.751247 -0.646288 1.204829 -0.001091 -0.002549 243570.000000 1 0 0
-9.065540 -5.404788 5.105867 11.724574 0.537614 1.120220 -0.000535 -0.000581 -993062.000000 1 0 0
3.245060 9.851412 -8.020733 13.111556 1.252590 2.229042 0.001514 -0.001411 815374.000000 1 0 0
-8.122240 -8.444188 6.014867 13.170183 0.804829 1.096510 0.002894 -0.000765 -2860960.000000 1 0 0
-7.861540 -5.691988 -7.478733 12.252917 0.626672 2.227316 0.015927 -0.005414 -1480480.000000 1 0 0
9.301960 -1.484088 6.732567 11.578274 -0.158212 0.950246 0.001872 -0.002649 1564840.000000 1 0 0
-4.104440 -0.473888 -4.865033 6.382753 0.114948 2.437525 0.015302 -0.009293 -342854.000000 1 0 0
9.035560 1.258512 -4.494033 10.169638 0.138394 2.028520 0.000872 0.003747 -1780770.000000 1 0 0
-1.931240 -10.664188 10.556167 15.129020 1.391642 0.798554 0.000413 -0.006418 318459.000000 1 0 0
-12.922840 0.316712 -2.576733 13.181034 -0.024503 1.767551 0.000461 -0.003783 -668560.000000 1 0 0
-9.828040 -5.111288 -6.022633 12.609034 0.479576 2.068768 0.012016 -0.007303 -1491610.000000 1 0 0
-5.274440 8.194712 -0.077933 9.745722 -0.998905 1.578793 0.000242 0.000251 -329706.000000 1 0 0
6.314160 9.575712 0.546767 11.483111 0.987846 1.523163 -0.000449 -0.002969 300286.000000 1 0 0
-0.522440 -12.028188 -0.112033 12.040050 1.527389 1.580101 0.003819 -0.000038 -1072500.000000 1 0 0
6.100160 4.734812 2.347867 8.071114 0.660046 1.275632 -0.000223 0.000337 467006.000000 1 0 0
3.449860 -7.456388 -8.250333 11.643335 -1.137455 2.358292 -0.009263 0.002356 523377.000000 1 0 0
-6.582240 -9.829788 4.554567 12.676541 0.980751 1.203288 -0.000121 -0.000223 -3405200.000000 1 0 0
-0.020640 6.612312 -9.222533 11.348049 -1.567675 2.519563 0.005663 -0.002497 -2694230.000000 1 0 0
-17.351540 -2.872788 4.197167 18.081622 0.164075 1.336536 0.001838 0.001926 618546.000000 1 0 0
-8.537540 0.921612 -9.106533 12.516705 -0.107532 2.385541 0.002175 -0.004821 1497250.000000 1 0 0
-10.011640 -5.822088 -11.861733 16.578008 0.526729 2.368150 0.011683 0.001308 -685596.000000 1 0 0
2.190160 9.493312 6.365467 11.637824 1.344058 0.992063 -0.009965 0.005811 -186271.000000 1 0 0
-11.282040 1.706012 -1.268533 11.480596 -0.150078 1.681516 -0.000104 -0.000789 -1850420.000000 1 0 0
-5.953540 -5.398988 -3.056233 8.598504 0.736589 1.934179 0.014898 -0.003626 358342.000000 1 0 0
-6.970640 -8.283788 1.330467 10.907846 0.871270 1.448518 0.003454 -0.001168 43497.800000 1 0 0
0.007960 11.182512 -7.766733 13.615094 1.570085 2.177850 0.000922 -0.001117 1614980.000000 1 0 0
-2.984140 9.420112 -4.243133 10.753966 -1.264013 1.976390 0.007419 -0.001718 312148.000000 1 0 0
3.511460 -4.830088 9.374567 11.114972 -0.942180 0.567183 -0.001499 0.000113 -758286.000000 1 0 0
-8.989840 1.518712 -0.443233 9.127988 -0.167356 1.619373 -0.001558 -0.001535 -721161.000000 1 0 0
2.456460 3.527412 -10.391933 11.245848 0.962496 2.749387 0.003610 -0.002067 -1078820.000000 1 0 0
-13.744140 0.454512 1.006067 13.788406 -0.033057 1.497767 0.000878 -0.002243 -1148500.000000 1 0 0
9.289960 -12.628688 -5.113433 16.490431 -0.936560 1.886079 -0.002801 0.005015 -2709660.000000 1 0 0
-4.751040 9.434112 -8.210533 13.378629 -1.104271 2.231541 -0.000978 -0.001635 -1364720.000000 1 0 0
-2.351240 7.290912 8.377167 11.351769 -1.258837 0.740752 -0.000905 0.001803 -433208.000000 1 0 0
-10.814240 -1.128888 -4.488233 11.762925 0.104012 1.962277 0.003684 -0.003641 -3649650.000000 1 0 0
2.806460 -7.173688 9.700467 12.386972 -1.197885 0.671132 -0.006679 0.002030 -1420740.000000 1 0 0
-16.044240 -6.515088 3.409967 17.649133 0.385728 1.376365 -0.001191 -0.001575 -99537.500000 1 0 0
-10.844040 0.025712 6.160967 12.472024 -0.002371 1.054132 -0.005946 0.000643 -1384900.000000 1 0 0
-8.346240 9.842212 9.411667 15.972111 -0.867462 0.940658 0.007307 -0.010348 -208634.000000 1 0 0
0.236060 -6.004188 -3.741333 7.078387 -1.531501 2.127696 -0.002590 0.001256 868122.000000 1 0 0
4.931360 1.558812 -2.986133 5.972034 0.306163 2.094417 -0.002541 0.000504 -263422.000000 1 0 0
0.356960 5.342612 3.787367 6.558588 1.504082 0.955174 -0.002243 0.001153 -3368540.000000 1 0 0
6.030360 -11.356688 -1.527433 12.948847 -1.082660 1.689031 -0.011091 0.000841 -1304240.000000 1 0 0
6.155560 -13.480288 5.359767 15.758686 -1.142439 1.223757 -0.005729 -0.004325 -174351.000000 1 0 0
8.316460 -8.261288 -6.056433 13.194422 -0.782070 2.047682 -0.004714 0.000525 434123.000000 1 0 0
-13.145640 -1.320288 -4.707433 14.025368 0.100100 1.913078 0.001515 -0.005244 -3403780.000000 1 0 0
-6.918840 -1.552788 -7.112733 10.043529 0.220771 2.357728 0.012839 -0.006400 -971438.000000 1 0 0
-5.730640 12.844512 -4.514633 14.771718 -1.151145 1.881393 0.000273 0.000023 -272302.000000 1 0 0
-4.262340 6.951912 -6.723733 10.569069 -1.020787 2.260321 0.007595 -0.003224 -2328390.000000 1 0 0
-9.479740 -3.641088 -8.059433 12.964469 0.366717 2.241651 0.011762 -0.005669 382096.000000 1 0 0
-2.199140 -6.306988 9.216367 11.382255 1.235295 0.627132 0.003577 -0.003210 -537738.000000 1 0 0
7.424660 -5.993488 10.151667 13.932115 -0.679140 0.754444 0.000794 0.001562 355405.000000 1 0 0
9.695660 -5.101988 12.296467 16.469341 -0.484398 0.727818 0.009523 0.002788 187053.000000 1 0 0
-6.563340 2.810012 -9.050533 11.527608 -0.404525 2.473683 0.006604 -0.006662 226641.000000 1 0 0
7.424260 5.385212 8.936267 12.805351 0.627540 0.798399 -0.006668 0.000339 -897955.000000 1 0 0
12.717460 3.212612 11.137267 17.207364 0.247438 0.866840 0.013641 0.004227 376379.000000 1 0 0
-7.453740 -7.276888 -3.999733 11.158369 0.773393 1.937405 0.014155 -0.007542 -3767190.000000 1 0 0
2.406360 1.538012 -5.725333 6.398085 0.568706 2.678894 -0.001358 -0.002832 317511.000000 1 0 0
12.918360 6.904112 -7.067933 16.263655 0.490820 2.020373 0.011603 0.001603 -366265.000000 1 0 0
0.838160 -7.922388 1.077967 8.039201 -1.465392 1.436302 -0.004300 -0.000099 806228.000000 1 0 0
-10.331940 -5.976988 -8.463333 14.632203 0.524458 2.187568 0.013950 -0.007103 273393.000000 1 0 0
-6.769040 0.302812 3.153367 7.473642 -0.044705 1.135221 0.001782 -0.003258 792820.000000 1 0 0
10.689760 -7.998188 1.292367 13.413135 -0.642355 1.474296 -0.000779 0.000835 180166.000000 1 0 0
6.210960 0.968412 10.526367 12.260434 0.154674 0.538334 0.005184 0.003361 -1082710.000000 1 0 0
-12.945640 5.343612 1.929367 14.137406 -0.391469 1.433897 -0.001619 0.003919 713714.000000 1 0 0
2.064360 7.389312 3.571567 8.462837 1.298371 1.135113 -0.006787 0.000991 134212.000000 1 0 0
10.165860 -9.558088 -0.814833 13.977328 -0.754594 1.629126 -0.004345 0.002743 825546.000000 1 0 0
6.665360 -11.873788 -9.117233 16.387123 -1.059280 2.160802 -0.013708 0.006405 -310014.000000 1 0 0
10.242060 3.456512 11.926267 16.096059 0.325480 0.736322 -0.003131 0.004077 -1875530.000000 1 0 0
-11.134040 -3.083588 -2.058833 11.735167 0.270179 1.747150 0.002936 -0.003478 -59424.200000 1 0 0
12.452360 0.951112 6.878967 14.257842 0.076232 1.067325 0.003836 -0.003041 271522.000000 1 0 0
-9.307140 8.827812 3.130767 13.204349 -0.758973 1.331415 -0.003130 -0.003077 2458940.000000 1 0 0
-6.638540 7.761112 -8.738433 13.441179 -0.863199 2.278544 0.000903 -0.003548 -811680.000000 1 0 0
8.567160 5.456412 12.043067 15.754496 0.567110 0.700654 0.000822 0.002805 -3094440.000000 1 0 0
1.318260 4.894512 -2.733433 5.758968 1.307705 2.065351 0.003284 -0.002951 129614.000000 1 0 0
1.256860 0.577412 9.575867 9.675243 0.430651 0.143449 0.004318 -0.000383 766963.000000 1 0 0
2.701660 12.537512 -3.904033 13.406329 1.358556 1.866286 0.002321 -0.004155 474459.000000 1 0 0
2.088760 0.630012 13.059467 13.240450 0.292943 0.165531 0.006067 -0.003861 -214287.000000 1 0 0
-12.265540 -1.738888 0.812367 12.414795 0.140832 1.505314 -0.004026 -0.001264 -82881.500000 1 0 0
3.339160 8.716012 -1.272333 9.420068 1.204938 1.706277 0.001432 -0.002104 -158223.000000 1 0 0
3.740060 -2.757788 -5.902833 7.512448 -0.635365 2.474688 -0.006452 0.000338 -1715720.000000 1 0 0
-7.848840 -7.144988 9.384467 14.167687 0.738490 0.846798 0.003155 -0.000407 120250.000000 1 0 0
-7.135140 10.971712 -3.474233 13.541011 -0.994195 1.830269 -0.001621 0.001952 397178.000000 1 0 0
0.344760 0.564012 2.560367 2.644324 1.022136 0.252663 0.000811 -0.001412 -3389610.000000 1 0 0
-7.112840 4.658812 -1.891733 8.710665 -0.579872 1.789715 0.004423 -0.002437 -972808.000000 1 0 0
-6.788440 -3.851388 -5.906233 9.787732 0.516062 2.218595 0.015258 -0.004714 84094.100000 1 0 0
2.921460 -6.046688 13.493767 15.072462 -1.120719 0.461783 -0.000488 0.000997 -1829540.000000 1 0 0
-5.570640 -0.506988 -11.605433 12.883134 0.090761 2.692459 0.014705 -0.006712 -644313.000000 1 0 0
11.908160 2.506712 -0.602633 12.184049 0.207475 1.620277 0.001368 0.003292 212799.000000 1 0 0
6.103360 -10.942988 10.803267 16.544200 -1.062029 0.859265 -0.003957 0.000334 247376.000000 1 0 0
-8.145440 6.392912 -10.423133 14.692148 -0.665432 2.359493 -0.001646 -0.002829 337625.000000 1 0 0
2.931660 7.858212 11.109267 13.919840 1.213719 0.646680 -0.006868 0.001936 864932.000000 1 0 0
-6.118440 -10.184488 -0.359833 11.886487 1.029818 1.601073 0.005515 -0.001344 -352078.000000 1 0 0
11.375060 4.265812 6.111967 13.599459 0.358783 1.104672 -0.001426 -0.000766 759206.000000 1 0 0
-7.727840 10.580512 1.583067 13.197456 -0.939968 1.450554 -0.006672 -0.001056 864451.000000 1 0 0
4.258160 -2.700188 -3.515933 6.146928 -0.565131 2.179717 -0.005433 -0.000520 -5662650.000000 1 0 0
6.364260 6.404512 6.325767 11.024378 0.788551 0.959660 -0.004309 0.001858 -5952150.000000 1 0 0
-0.371940 10.302612 -10.093833 14.428015 -1.534710 2.345633 -0.000072 -0.001162 -488065.000000 1 0 0
14.165160 6.565512 -2.482333 15.808848 0.434021 1.728471 0.015166 0.003285 885899.000000 1 0 0
1.458160 9.500312 -6.209633 11.442976 1.418499 2.144396 0.004094 -0.002653 -797730.000000 1 0 0
0.679960 7.366612 7.122867 10.269594 1.478754 0.804338 -0.009702 0.004293 154640.000000 1 0 0
12.234460 6.375212 2.001667 13.940302 0.480374 1.426710 -0.000652 0.001791 -968482.000000 1 0 0
-6.886540 6.733512 -3.191633 10.146484 -0.774163 1.890785 0.002445 -0.003424 174.501000 1 0 0
1.147460 9.866312 11.122667 14.912227 1.455016 0.728948 -0.009365 0.002962 -589224.000000 1 0 0
-3.604040 13.665912 -10.882933 17.837727 -1.312942 2.226993 -0.006872 -0.002275 -284537.000000 1 0 0
-10.017040 -5.482388 -2.293033 11.647131 0.500773 1.768966 0.006154 -0.002259 -342258.000000 1 0 0
-3.997440 3.829012 -12.397133 13.576810 -0.763881 2.721646 0.005648 -0.009759 -59898.500000 1 0 0
-3.157440 8.518412 2.392467 9.394502 -1.215835 1.313293 -0.001351 0.000966 -2292700.000000 1 0 0
7.001660 8.928512 7.033967 13.349841 0.905770 1.015853 -0.001294 0.000874 -394660.000000 1 0 0
-1.337340 -2.197988 -8.213533 8.607076 1.024195 2.838027 0.009778 -0.006215 -1418330.000000 1 0 0
0.857060 -1.371088 4.858467 5.120463 -1.012129 0.321275 0.004878 -0.000975 -1607590.000000 1 0 0
2.686160 -8.787288 -6.097633 11.027829 -1.274130 2.156675 -0.011301 0.004061 7674.190000 1 0 0
5.288260 3.908812 8.882267 11.051659 0.636520 0.637301 -0.004496 0.002633 417129.000000 1 0 0
6.132760 -7.443888 -2.833533 10.052418 -0.881672 1.856545 -0.010087 -0.000610 726784.000000 1 0 0
1.854860 2.372412 -8.179333 8.716096 0.907224 2.788816 0.003392 -0.003898 140744.000000 1 0 0
-5.370540 10.885412 -0.617833 12.153873 -1.112466 1.621652 -0.003023 0.001105 230130.000000 1 0 0
-5.381940 3.359912 -3.362933 7.180780 -0.558091 2.058189 0.007132 -0.002682 139912.000000 1 0 0
2.149260 13.705012 -6.253933 15.217042 1.415240 1.994327 -0.008672 -0.000786 465447.000000 1 0 0
-5.287540 -2.541988 2.569767 6.404958 0.448130 1.157953 -0.000607 -0.004091 919203.000000 1 0 0
10.394260 -3.287788 -1.860033 11.059381 -0.306350 1.739785 -0.000413 0.001625 -29754.300000 1 0 0
2.264660 -3.293388 6.987067 8.049484 -0.968415 0.519607 -0.000872 0.001661 -1113580.000000 1 0 0
-2.847540 9.901612 -11.582133 15.501491 -1.290769 2.414579 -0.003483 0.002171 -3066980.000000 1 0 0
0.527960 -1.982788 9.204767 9.430691 -1.310563 0.219328 0.004409 -0.002596 574473.000000 1 0 0
9.526760 2.571612 4.946867 11.038290 0.263652 1.106096 -0.003399 -0.000688 384779.000000 1 0 0
13.356660 2.090012 -5.060833 14.435392 0.155218 1.928992 0.006087 0.003919 233944.000000 1 0 0
-6.565040 3.717312 7.576167 10.691888 -0.515217 0.783298 -0.002346 -0.000974 -445883.000000 1 0 0
10.567660 -0.024788 1.750767 10.711734 -0.002346 1.406616 -0.001226 0.000631 998400.000000 1 0 0
15.421760 6.566112 -4.677533 17.401834 0.402522 1.842939 0.013892 0.002860 -1173350.000000 1 0 0
8.033560 -4.996788 -9.282133 13.253828 -0.556431 2.346664 -0.001381 0.003466 134651.000000 1 0 0
4.540260 5.568712 -2.197833 7.513653 0.886786 1.867649 -0.000239 -0.001162 203150.000000 1 0 0
-1.555840 -10.495388 1.396067 10.701533 1.423628 1.439969 0.000829 -0.001142 -938290.000000 1 0 0
-2.748140 12.255312 -12.718133 17.874447 -1.350205 2.362464 -0.006862 -0.001983 -699312.000000 1 0 0
8.362960 4.230812 -9.756233 13.528597 0.468356 2.376266 -0.001099 0.005009 -804438.000000 1 0 0
4.195460 7.734812 -9.053533 12.625199 1.073797 2.370429 0.004254 -0.001533 -2871480.000000 1 0 0
-1.711740 -5.163688 -2.301033 5.906647 1.250701 1.970957 0.004992 -0.002769 -1945780.000000 1 0 0
-3.247740 -8.888388 7.324467 11.966581 1.220476 0.912112 0.003041 0.001284 -1796290.000000 1 0 0
1.131560 7.247612 -1.391933 7.466310 1.415918 1.758322 -0.000759 -0.003115 222643.000000 1 0 0
0.376360 -0.853088 -2.229233 2.416378 -1.155306 2.745437 0.003965 -0.000420 -3460420.000000 1 0 0
4.176460 -6.696388 7.445667 10.849995 -1.013141 0.814493 -0.004391 0.004103 -319835.000000 1 0 0
-13.877340 3.944112 6.244167 15.720248 -0.276911 1.162327 -0.004536 0.006174 -521032.000000 1 0 0
4.290360 6.440512 12.642867 14.823275 0.983150 0.549269 -0.002425 -0.000819 -2556940.000000 1 0 0
8.338760 10.081812 -7.266833 14.966119 0.879743 2.077791 0.013263 -0.003027 374815.000000 1 0 0
12.364260 5.254212 9.464067 16.433205 0.401830 0.957078 0.011666 0.001631 353531.000000 1 0 0
7.533160 4.227312 0.338467 8.644838 0.511371 1.531634 0.002134 0.001323 -1848660.000000 1 0 0
-10.839840 -7.505188 -1.082533 13.228827 0.605587 1.652719 0.003129 -0.000012 -1453620.000000 1 0 0
10.381960 6.754712 0.177967 12.387207 0.576811 1.556429 -0.001716 0.000092 -645276.000000 1 0 0
14.490460 3.618912 4.217967 15.519704 0.244738 1.295553 0.003878 0.000145 122141.000000 1 0 0
2.039560 5.583112 8.115367 10.059331 1.220549 0.632165 -0.006903 0.003964 -1398230.000000 1 0 0
4.274560 0.228712 11.931167 12.675840 0.053454 0.344476 0.004735 0.000657 -2107920.000000 1 0 0
-1.494040 -1.606688 -0.545133 2.260701 0.821712 1.814331 0.007235 -0.003808 -1328180.000000 1 0 0
3.095660 -5.274588 -9.570233 11.357541 -1.040064 2.572950 -0.006961 0.001005 31558.300000 1 0 0
-3.893240 -5.469288 -1.415733 6.861102 0.952170 1.778631 0.008659 -0.001861 175877.000000 1 0 0
-1.100240 -8.370088 8.368267 11.886833 1.440097 0.789790 0.002478 0.003161 -784904.000000 1 0 0
3.887660 8.544812 -6.006133 11.144566 1.143814 2.139962 0.003404 -0.001088 490339.000000 1 0 0
-14.255140 -1.732788 -2.756233 14.622188 0.120962 1.760427 -0.001403 -0.004847 -555686.000000 1 0 0
8.685660 -10.551788 -6.579833 15.168227 -0.882101 2.019492 -0.016514 0.001216 -413555.000000 1 0 0
14.804060 6.319612 1.656067 16.181479 0.403465 1.468273 -0.002790 0.004739 -2230320.000000 1 0 0
-5.875840 0.409312 -8.485733 10.329603 -0.069548 2.534827 0.016252 -0.009798 292159.000000 1 0 0
-7.966840 -4.524188 -12.932433 15.848869 0.516465 2.525227 0.008109 -0.002083 745310.000000 1 0 0
0.895560 -10.716788 12.053167 16.153340 -1.487424 0.728503 -0.007979 -0.001290 -224362.000000 1 0 0
0.343560 11.647612 3.304867 12.112269 1.541309 1.294439 -0.003051 0.001586 -1153710.000000 1 0 0
5.097760 -13.272788 -3.726133 14.698235 -1.204092 1.827102 -0.007423 0.004628 -32967.100000 1 0 0
-7.517340 1.607812 -6.945833 10.360505 -0.210706 2.305564 0.006539 -0.004005 419138.000000 1 0 0
1.430760 2.826012 4.073967 5.160487 1.102136 0.660877 -0.000147 0.000571 -1266820.000000 1 0 0
17.191660 5.642012 1.937367 18.197221 0.317108 1.464129 -0.002384 0.000748 711588.000000 1 0 0
2.445860 -8.219888 -3.527133 9.273050 -1.281585 1.960986 -0.010147 0.001046 391695.000000 1 0 0
-0.578940 -9.278288 -0.735233 9.325361 1.508480 1.649721 0.001089 -0.000257 -790085.000000 1 0 0
0.860960 11.935812 -5.542133 13.187877 1.498789 2.004511 -0.000104 -0.001179 -1114350.000000 1 0 0
6.106260 -4.978088 7.826867 11.105297 -0.683967 0.788674 -0.001587 0.002152 -1263600.000000 1 0 0
-6.090740 -1.942588 -9.404833 11.371967 0.308742 2.544580 0.017254 -0.007718 -535366.000000 1 0 0
2.190160 -1.259588 11.227567 11.508329 -0.521919 0.221342 0.003219 -0.002559 894869.000000 1 0 0
17.928560 2.213512 -5.821533 18.979545 0.122841 1.882548 -0.013315 0.011192 -991622.000000 1 0 0
-8.912140 4.822512 7.835467 12.809271 -0.495998 0.912585 -0.000618 -0.005050 250676.000000 1 0 0
11.134060 -7.185388 -4.986633 14.158517 -0.573101 1.930717 0.006228 0.000606 84587.500000 1 0 0
10.756560 0.420012 8.883667 13.957060 0.039027 0.880845 0.000097 0.000269 94579.500000 1 0 0
-8.412040 -7.348788 -1.522833 11.273248 0.718039 1.706294 0.005744 -0.004632 -1673030.000000 1 0 0
10.112260 -10.552488 -3.195233 14.960692 -0.806698 1.786029 -0.001329 -0.000276 758983.000000 1 0 0
7.553960 -13.964588 -3.837833 16.334044 -1.074938 1.807973 -0.004517 0.003148 -2239680.000000 1 0 0
1.797560 -1.152788 -11.714733 11.907775 -0.570240 2.961285 0.006558 -0.003996 459868.000000 1 0 0
-11.869040 -2.614088 -6.437033 13.752925 0.216783 2.057877 0.006071 -0.004530 -259189.000000 1 0 0
2.718760 -12.137288 -6.496933 14.032660 -1.350433 2.052158 -0.006134 0.005395 635252.000000 1 0 0
-5.600940 1.409412 1.158867 5.890666 -0.246520 1.372775 0.002737 -0.003690 204397.000000 1 0 0
0.150860 6.884912 -3.997733 7.962829 1.548888 2.096763 0.007095 -0.003749 951704.000000 1 0 0
5.394960 -11.858988 3.567767 13.508151 -1.143854 1.303505 -0.012700 -0.001153 -1578270.000000 1 0 0
-4.362540 -9.134788 1.113767 10.184134 1.125250 1.461214 0.005027 -0.000953 -811328.000000 1 0 0
7.042560 -6.196188 -4.779933 10.527970 -0.721554 2.042071 -0.006145 0.000389 -862122.000000 1 0 0
-6.920640 -5.967088 2.216867 9.402973 0.711544 1.332793 0.004060 -0.002730 -415939.000000 1 0 0
-6.264940 -0.820088 7.056667 9.471989 0.130161 0.730256 -0.001717 -0.001470 -1002620.000000 1 0 0
4.220360 -5.082688 3.190367 7.336457 -0.877827 1.120908 -0.002856 0.001495 -696579.000000 1 0 0
-2.489240 10.591712 -8.743733 13.958279 -1.339968 2.247747 -0.000810 -0.000052 158121.000000 1 0 0
-2.359440 -4.767088 2.778867 6.001182 1.111202 1.089359 0.002460 -0.001974 1521010.000000 1 0 0
15.062660 5.140012 6.323967 17.125887 0.328851 1.192580 0.015508 -0.003232 1319110.000000 1 0 0
6.874760 0.328512 0.112767 6.883528 0.047749 1.554413 0.005768 -0.000708 3431200.000000 1 0 0
-9.611140 9.233012 0.480367 13.336164 -0.765335 1.534769 -0.008923 0.000685 -1552870.000000 1 0 0
7.197560 10.372612 -2.627033 12.895629 0.964176 1.775947 -0.001029 -0.000533 -62107.300000 1 0 0
1.658360 -4.219488 -5.446133 7.086226 -1.196318 2.447371 -0.003220 -0.000879 -962310.000000 1 0 0
0.899960 -8.094288 -7.859233 11.317904 -1.460067 2.338392 -0.005419 0.003753 464623.000000 1 0 0
-10.531340 0.298212 -10.469033 14.852565 -0.028309 2.353027 0.002077 -0.006410 -4852100.000000 1 0 0
5.848260 -2.517488 0.489667 6.385896 -0.406493 1.494041 0.001036 0.001057 285207.000000 1 0 0
-3.399440 5.319712 -1.162433 6.419251 -1.002174 1.752886 0.003782 -0.003574 561587.000000 1 0 0
-0.343540 4.489112 -5.053733 6.768335 -1.494418 2.413843 0.007963 -0.004749 -1338590.000000 1 0 0
3.962960 -9.796088 10.005167 14.552380 -1.186378 0.812717 -0.012364 0.003423 -1172940.000000 1 0 0
7.330860 -13.587888 -0.825233 15.461346 -1.076039 1.624196 -0.001828 0.003436 319489.000000 1 0 0
12.940760 -0.069988 0.424367 12.947905 -0.005408 1.538015 -0.001595 -0.000771 182951.000000 1 0 0
9.284960 2.510612 -0.601333 9.637181 0.264081 1.633234 0.001064 0.002749 -293818.000000 1 0 0
-0.704440 -5.749788 4.417667 7.285059 1.448888 0.919270 -0.000457 -0.000794 -756947.000000 1 0 0
11.496960 -3.708388 3.226467 12.503692 -0.312018 1.309802 0.004486 -0.001523 -1287120.000000 1 0 0
1.696460 -8.200688 11.717367 14.402290 -1.366806 0.620519 -0.007941 0.000616 219144.000000 1 0 0
9.274760 -5.768488 -5.950733 12.438161 -0.556407 2.069657 -0.007454 -0.001666 -150056.000000 1 0 0
3.209360 6.318912 -0.216333 7.090518 1.100851 1.601311 -0.001997 -0.000557 -1086450.000000 1 0 0
6.445660 -1.347588 11.605367 13.343428 -0.206100 0.516113 0.003605 0.003277 686535.000000 1 0 0
-4.907740 -7.587988 -3.892833 9.839594 0.996690 1.977549 0.012837 -0.002708 -896945.000000 1 0 0
-3.406140 -8.466088 -5.797133 10.811252 1.188285 2.136740 0.009629 0.000146 -531345.000000 1 0 0
9.844060 5.292612 2.277067 11.406239 0.493308 1.369812 -0.003938 0.001269 -144335.000000 1 0 0
8.901260 -1.438088 0.170967 9.018301 -0.160176 1.551837 0.003951 0.000489 760882.000000 1 0 0
-3.922740 9.564712 9.240267 13.865574 -1.181591 0.841402 -0.000905 -0.001121 -61481.900000 1 0 0
-14.396340 -3.571088 -6.091833 16.034890 0.243147 1.960497 -0.004843 -0.001795 992811.000000 1 0 0
10.709960 6.296512 -6.052633 13.819684 0.531484 2.024138 0.008121 -0.000705 -125221.000000 1 0 0
-1.756340 4.358612 2.846367 5.494000 -1.187742 1.026184 -0.001731 -0.003936 469383.000000 1 0 0
6.815860 -3.732288 2.692067 8.223937 -0.500990 1.237304 0.002673 0.000710 -1812360.000000 1 0 0
8.264160 -11.231588 -1.567233 14.032146 -0.936448 1.682719 -0.003729 0.000247 -3872860.000000 1 0 0
4.573860 0.433412 1.825967 4.943905 0.094476 1.192501 0.001890 0.000479 580797.000000 1 0 0
-10.779540 2.288512 3.826967 11.665395 -0.209195 1.236546 -0.007746 0.001425 162675.000000 1 0 0
-0.859740 -3.091488 4.490267 5.518963 1.299551 0.620467 0.001977 -0.002837 264289.000000 1 0 0
8.585360 -8.763588 -8.660033 15.016825 -0.795671 2.185466 -0.006404 0.003912 -961671.000000 1 0 0
12.032660 -4.895388 1.035867 13.031606 -0.386390 1.491224 0.001995 0.000066 146494.000000 1 0 0
2.964460 4.834512 3.468567 6.647668 1.020737 1.021869 -0.004981 0.000349 -554824.000000 1 0 0
6.196560 7.490412 2.034767 9.931964 0.879650 1.364465 -0.003629 0.000234 75599.100000 1 0 0
-1.619940 -1.287988 -10.359033 10.563744 0.671736 2.944405 0.013369 -0.007630 857977.000000 1 0 0
-1.038840 -8.749388 5.845067 10.573353 1.452617 0.985062 -0.003174 -0.000787 151417.000000 1 0 0
-4.288840 -0.260988 2.254667 4.852400 0.060778 1.087557 0.001928 -0.003037 414448.000000 1 0 0
-8.409940 6.229312 -7.969333 13.154531 -0.637528 2.221598 -0.001650 -0.001529 -1792810.000000 1 0 0
6.523560 11.242712 -9.443033 16.066309 1.045027 2.199076 0.007229 -0.003108 254343.000000 1 0 0
-11.132640 -5.737188 3.146767 12.913293 0.475851 1.324633 0.000625 -0.000808 897534.000000 1 0 0
1.678960 -6.443388 3.166767 7.373233 -1.315894 1.126863 -0.009191 0.000241 -86159.500000 1 0 0
10.174460 2.148712 7.190367 12.642705 0.208129 0.965827 -0.000428 -0.000324 -1169160.000000 1 0 0
-4.037040 -2.341288 -10.565833 11.550591 0.525548 2.725670 0.012555 -0.005822 -3912840.000000 1 0 0
-8.313840 11.732412 5.964767 15.567527 -0.954307 1.177587 0.000560 -0.004305 1481490.000000 1 0 0
6.923860 6.037712 -3.011333 9.667571 0.717137 1.887555 0.000310 0.001269 -1800150.000000 1 0 0
3.891560 -9.905988 -2.308033 10.890356 -1.196470 1.784349 -0.010846 0.000434 -2170840.000000 1 0 0
8.431060 -12.884788 -7.391733 17.080347 -0.991375 2.018351 -0.008729 0.003152 322880.000000 1 0 0
-1.088040 9.422812 3.623567 10.153987 -1.455837 1.205890 -0.003472 0.001251 -53946.500000 1 0 0
0.509960 -13.273588 4.696167 14.089080 -1.532396 1.230974 -0.002301 -0.004507 -1254120.000000 1 0 0
-11.228640 -7.029288 -5.166933 14.219368 0.559328 1.942682 0.005271 -0.006009 -4792.190000 1 0 0
3.678660 10.262012 -3.411633 11.422814 1.226593 1.874093 0.004266 -0.003350 -528705.000000 1 0 0
11.468560 -8.178788 -7.500933 15.958835 -0.619496 2.060107 0.009116 0.000498 203260.000000 1 0 0
11.735560 -4.922988 -5.848433 14.005832 -0.397197 2.001567 0.005371 0.000394 -370917.000000 1 0 0
1.263760 -10.353388 -2.704533 10.775167 -1.449335 1.824506 -0.007777 0.003709 65513.800000 1 0 0
2.332860 -12.074988 -3.968033 12.922571 -1.379950 1.882901 -0.006128 0.003173 -2092010.000000 1 0 0
-7.588040 -5.674588 7.240367 11.924857 0.642113 0.918307 0.001188 0.000687 -3262880.000000 1 0 0
-7.273340 -0.903588 9.464267 11.970393 0.123600 0.658943 -0.002359 0.000315 138369.000000 1 0 0
16.185360 2.526112 -7.705133 18.102933 0.154825 2.010453 0.000836 0.007073 -44690.800000 1 0 0
-1.999140 6.247412 -5.510833 8.567146 -1.261098 2.269534 0.007732 -0.002977 -18763.600000 1 0 0
7.722860 1.114112 8.411267 11.473152 0.143273 0.747889 -0.000058 0.000428 -1094480.000000 1 0 0
7.938360 8.293312 -3.800033 12.092842 0.807263 1.890450 0.002463 0.001448 -1829390.000000 1 0 0
7.991160 0.498812 3.884167 8.899113 0.062340 1.119128 0.001254 -0.001395 316645.000000 1 0 0
-6.997440 5.848112 5.402167 10.599434 -0.696163 1.036000 -0.000448 -0.005105 177394.000000 1 0 0
-6.207540 -2.037088 -4.531133 7.950751 0.317090 2.177180 0.011224 -0.006113 -1660920.000000 1 0 0
-15.114840 -2.141888 3.057467 15.569013 0.140770 1.373130 -0.000631 -0.001207 -739363.000000 1 0 0
1.164660 1.217712 -10.455333 10.590243 0.807663 2.981804 0.008602 -0.006153 200889.000000 1 0 0
1.445560 -9.224488 9.389567 13.241782 -1.415352 0.782595 -0.006904 0.000062 -306008.000000 1 0 0
0.076960 -6.614488 -1.015733 6.692465 -1.559162 1.723158 -0.002112 0.001028 172069.000000 1 0 0
-0.391640 -10.191888 -8.551133 13.309764 1.532389 2.268514 -0.000602 0.002056 -228328.000000 1 0 0
-4.289340 6.467712 3.793867 8.638470 -0.985203 1.116108 -0.000556 -0.000327 -690394.000000 1 0 0
10.791360 -1.179988 -8.642133 13.875600 -0.108913 2.243150 0.008775 0.002815 1301060.000000 1 0 0
3.107860 -1.027788 6.241367 7.047681 -0.319384 0.483030 0.001996 0.000032 679052.000000 1 0 0
2.033460 -12.344088 6.724867 14.203355 -1.407531 1.077570 -0.009332 -0.002991 12853.600000 1 0 0
2.797760 -4.919588 -1.354633 5.819350 -1.053711 1.805732 0.001602 0.000386 -1436260.000000 1 0 0
-0.993840 9.424612 -1.648733 9.619218 -1.465733 1.743047 0.002702 -0.004030 16238.000000 1 0 0
4.471160 -2.600788 2.508667 5.748807 -0.526841 1.119224 0.002260 0.000208 -1083390.000000 1 0 0
17.654660 6.539512 -2.650533 19.012563 0.354743 1.710661 -0.012748 0.013178 660655.000000 1 0 0
-7.135840 3.567712 -5.398233 9.632741 -0.463624 2.165671 0.005910 -0.004651 248747.000000 1 0 0
-13.785940 -6.061888 2.149567 15.212471 0.414268 1.429019 -0.001351 -0.002784 645537.000000 1 0 0
6.670260 -6.108788 3.208067 9.596945 -0.741489 1.229955 -0.002160 -0.000967 -391966.000000 1 0 0
-4.683040 2.010412 3.557467 6.215158 -0.405504 0.961384 0.001376 -0.003447 658404.000000 1 0 0
6.764160 -12.204888 -5.553633 15.018521 -1.064721 1.949575 -0.011196 0.003487 -1174200.000000 1 0 0
2.821360 -12.382788 3.375667 13.141105 -1.346775 1.311005 -0.006537 -0.004244 -936609.000000 1 0 0
3.418460 11.283312 -6.158933 13.301558 1.276621 2.052200 0.000120 0.000947 -100792.000000 1 0 0
-5.616540 -8.282388 6.467867 11.915401 0.974899 0.997010 0.003687 -0.000606 411793.000000 1 0 0
-4.077840 6.474012 6.388667 9.967782 -1.008697 0.875085 -0.002655 -0.000620 207746.000000 1 0 0
4.305560 4.345612 -6.940833 9.251884 0.790028 2.419172 0.000052 0.001492 -1569470.000000 1 0 0
-0.374340 -2.797888 1.632067 3.260667 1.437792 1.046583 0.001678 -0.000803 216219.000000 1 0 0
-13.253340 -0.922588 6.457767 14.771762 0.069500 1.118347 -0.007808 0.001450 -372545.000000 1 0 0
-0.439240 -9.263788 -5.990233 11.040543 1.523417 2.144286 -0.001911 0.003906 443227.000000 1 0 0
2.104660 -1.654188 -4.021833 4.831260 -0.666124 2.554330 -0.003326 0.000042 -2787780.000000 1 0 0
11.371060 -2.023088 1.058467 11.598027 -0.176073 1.479406 0.003241 -0.000754 817945.000000 1 0 0
0.416760 -4.130288 -1.904533 4.567298 -1.470233 2.000931 0.001089 -0.000638 -1397080.000000 1 0 0
1.024660 -7.327188 -11.249933 13.464717 -1.431854 2.559860 -0.004276 0.004447 600795.000000 1 0 0
-4.404440 4.001112 -9.917433 11.565616 -0.737451 2.601173 0.006457 -0.005060 -125666.000000 1 0 0
-1.026440 5.802012 -2.104833 6.256776 -1.395697 1.913897 0.004818 -0.004020 -145953.000000 1 0 0
-11.409540 1.748112 -3.912633 12.187789 -0.152033 1.897612 -0.001121 -0.002453 -275980.000000 1 0 0
-1.631840 -11.305988 4.030567 12.113370 1.427452 1.231592 0.003974 -0.002432 -653776.000000 1 0 0
-3.456140 -5.202488 -9.467533 11.342176 0.984417 2.558419 0.008086 0.004281 -2574180.000000 1 0 0
-12.905440 -3.875188 -8.373233 15.864378 0.291710 2.126806 0.002864 -0.001614 -249489.000000 1 0 0
11.485660 4.471312 0.622767 12.341023 0.371244 1.520312 0.001119 0.003372 408105.000000 1 0 0
-8.984140 -2.286388 -3.108233 9.777702 0.249202 1.894299 0.002663 -0.003891 -211511.000000 1 0 0
-2.395040 -6.063988 -6.556733 9.246562 1.194641 2.359017 0.004951 -0.002071 -212701.000000 1 0 0
-0.074240 2.798012 -1.890633 3.377703 -1.544269 2.164867 0.003953 -0.004053 -470199.000000 1 0 0
8.215360 5.955312 -5.251133 11.425072 0.627242 2.048358 0.003804 0.001301 -529347.000000 1 0 0
-9.806640 -0.921288 -0.916633 9.892380 0.093670 1.663590 -0.000224 -0.002840 -1247310.000000 1 0 0
6.137360 0.471912 -8.931833 10.847466 0.076741 2.538178 -0.003171 0.003312 367244.000000 1 0 0
-4.201740 2.543712 7.854667 9.263956 -0.544377 0.558834 0.000383 -0.001318 -2377460.000000 1 0 0
-10.208240 -3.273888 1.368067 10.807318 0.310347 1.443869 -0.001891 -0.003576 1092910.000000 1 0 0
-1.782840 -8.152188 -7.841533 11.451040 1.355491 2.325109 0.002368 -0.000159 -919886.000000 1 0 0
-9.351840 -9.866088 4.124467 14.205908 0.812151 1.276220 -0.001705 0.000115 -773947.000000 1 0 0
-1.073440 -10.690488 7.536167 13.123743 1.470721 0.959122 0.000365 -0.002832 363077.000000 1 0 0
9.507660 3.822212 -3.687033 10.890322 0.382241 1.916183 0.001111 0.003298 -657329.000000 1 0 0
12.859760 -0.784788 2.983167 13.224546 -0.060951 1.343260 -0.000298 -0.001555 -783372.000000 1 0 0
6.532960 12.012512 -6.869733 15.302720 1.072690 2.036355 0.003434 0.000456 457370.000000 1 0 0
-11.944040 -0.043888 -6.553233 13.623762 0.003674 2.072608 0.000642 -0.003664 413779.000000 1 0 0
-7.637640 -6.535088 -11.335433 15.150345 0.707761 2.416136 0.017044 -0.006712 -1690840.000000 1 0 0
4.160760 5.907712 6.568467 9.765129 0.957195 0.833019 -0.008485 0.004191 -2896620.000000 1 0 0
-4.368040 -1.394388 -7.437933 8.737673 0.309000 2.589157 0.017264 -0.010342 282076.000000 1 0 0
9.584360 9.201212 0.928267 13.318556 0.765005 1.501042 0.002782 -0.000366 -1280170.000000 1 0 0
-8.855440 3.871112 4.953767 10.860209 -0.412113 1.097144 -0.000653 -0.003151 676930.000000 1 0 0
-6.848740 7.838512 -12.210733 16.045233 -0.852686 2.435679 -0.007485 -0.002076 -891275.000000 1 0 0
11.183560 -3.623288 7.219067 13.795476 -0.313312 1.020086 0.008756 -0.005971 906476.000000 1 0 0
11.810360 6.844312 6.493867 15.116201 0.525223 1.126750 -0.000026 0.001225 169538.000000 1 0 0
-9.983240 -0.788588 -14.860533 17.919888 0.078827 2.548607 0.002350 0.004299 572948.000000 1 0 0
1.780560 -13.100888 11.969667 17.834702 -1.435713 0.835044 -0.014555 -0.000709 -38133.900000 1 0 0
3.034060 2.947912 13.080667 13.747711 0.770998 0.312787 0.001174 -0.000861 -613222.000000 1 0 0
-2.548940 -1.469488 11.002567 11.389160 0.522968 0.261296 0.005870 -0.002476 22969.300000 1 0 0
2.512060 -10.086988 -8.215533 13.249632 -1.326722 2.239612 -0.011148 0.005642 -1397590.000000 1 0 0
13.882360 3.601712 -7.475433 16.173260 0.253848 2.051281 0.005175 0.002563 -2544070.000000 1 0 0
7.297460 -1.719788 4.989267 9.005741 -0.231446 0.983623 0.002321 0.000260 187810.000000 1 0 0
-1.207440 8.760412 10.213267 13.509758 -1.433830 0.713628 -0.008821 0.001844 131330.000000 1 0 0
-12.208740 -4.627888 0.912567 13.088295 0.362328 1.501016 -0.000695 -0.001877 -283035.000000 1 0 0
-4.906640 4.875912 -5.305733 8.717823 -0.782257 2.225101 0.009428 -0.004980 -91092.100000 1 0 0
-11.272040 0.326412 1.961167 11.446030 -0.028950 1.398606 -0.005952 -0.000097 -2281700.000000 1 0 0
-1.220840 2.159212 -4.054733 4.753263 -1.056199 2.592584 0.009244 -0.006065 821138.000000 1 0 0
3.119160 -9.894888 13.185467 16.777798 -1.265427 0.666666 -0.007572 0.001491 -2742710.000000 1 0 0
8.857260 4.703712 -1.476733 10.136898 0.488184 1.716996 -0.000374 0.001442 -1449850.000000 1 0 0
4.012960 2.290912 3.761967 5.958567 0.518731 0.887498 -0.001916 0.002126 -10902.700000 1 0 0
-5.526540 -3.280288 7.435067 9.827673 0.535665 0.712784 0.001622 -0.004191 89736.800000 1 0 0
1.789460 -5.777588 7.758267 9.837347 -1.270442 0.662179 -0.004648 0.002008 -1253920.000000 1 0 0
-5.697340 -6.105288 -9.899533 12.951254 0.819949 2.440858 0.020158 -0.004374 -603738.000000 1 0 0
-11.619040 -5.706588 5.481167 14.057398 0.456535 1.170259 -0.001541 -0.001185 -1082890.000000 1 0 0
10.456460 6.213012 4.645667 13.020035 0.536129 1.205946 -0.001744 0.000248 -1255590.000000 1 0 0
1.443660 -3.689088 0.403667 3.982018 -1.197784 1.469249 0.004088 -0.000999 -861016.000000 1 0 0
8.799260 4.284212 6.883267 11.964983 0.453099 0.957845 -0.004835 0.002577 392714.000000 1 0 0
-7.897940 12.035112 3.538367 14.823678 -0.990046 1.329772 -0.005944 -0.003852 300438.000000 1 0 0
-6.288440 13.256912 -6.942433 16.232300 -1.127877 2.012735 0.009433 -0.008701 743746.000000 1 0 0
4.451760 -6.956088 -1.021533 8.321590 -1.001497 1.693864 -0.002978 -0.000809 393545.000000 1 0 0
-1.815740 -8.237288 11.000067 13.861865 1.353837 0.654177 0.001780 -0.005541 -207363.000000 1 0 0
11.536160 8.851412 -5.745733 15.634703 0.654466 1.947114 0.018282 0.000070 837411.000000 1 0 0
-3.300140 -2.982088 -1.958533 4.860002 0.734814 1.985578 0.010630 -0.003370 -1288280.000000 1 0 0
-2.018440 5.958012 4.807967 7.917611 -1.244154 0.918202 -0.003311 0.000757 1595500.000000 1 0 0
0.347960 -11.434188 -5.688733 12.775892 -1.540374 2.032273 -0.005101 0.001354 -1278490.000000 1 0 0
-8.954940 6.295512 -1.556333 11.056518 -0.612751 1.712027 -0.000423 0.000430 -1073320.000000 1 0 0
2.882160 -0.056088 3.901667 4.851082 -0.019458 0.636320 0.001233 0.000059 847632.000000 1 0 0
-10.015140 3.948212 -0.911633 10.803818 -0.375517 1.655277 0.002851 0.000526 -66196.600000 1 0 0
6.549360 5.455212 13.728167 16.159085 0.694505 0.555639 0.006551 0.003014 -996600.000000 1 0 0
-8.790840 -1.406288 5.611667 10.523655 0.158628 1.008367 -0.004001 -0.000986 -237599.000000 1 0 0
12.922960 -1.805688 -1.529433 13.137830 -0.138828 1.687475 0.006489 0.001689 -2660480.000000 1 0 0
5.320360 -5.545688 5.376267 9.378973 -0.806132 0.960359 -0.004200 0.000552 126973.000000 1 0 0
-9.078740 -1.214888 3.137367 9.682073 0.133027 1.240801 -0.005096 -0.001993 73109.500000 1 0 0
2.014260 5.518812 5.547067 8.079882 1.220839 0.814093 -0.004338 0.001229 -1037950.000000 1 0 0
9.258860 3.095012 -7.513433 12.318980 0.322598 2.226740 0.000087 0.003769 -939674.000000 1 0 0
2.281060 -2.354388 -1.586733 3.641991 -0.801216 2.021587 0.000050 0.000537 -380939.000000 1 0 0
-6.286840 0.375412 -3.893233 7.404225 -0.059643 2.124466 0.005750 -0.002920 -1380300.000000 1 0 0
-3.998840 4.147412 5.008067 7.633642 -0.803634 0.855220 -0.001826 -0.002089 285941.000000 1 0 0
-6.496240 1.865112 -12.255233 13.995375 -0.279586 2.637603 0.003348 -0.004080 -1418070.000000 1 0 0
-0.175640 3.067012 6.182367 6.903555 -1.513591 0.461167 0.000697 -0.000127 746138.000000 1 0 0
-8.784140 9.394912 -2.158633 13.041671 -0.818983 1.737080 -0.007081 0.001385 868870.000000 1 0 0
-1.244740 -3.695388 -6.132433 7.267187 1.245897 2.575219 0.001659 -0.001832 126320.000000 1 0 0
-3.299340 7.070312 -3.014533 8.364351 -1.134185 1.939496 0.005118 -0.001013 871793.000000 1 0 0
6.939160 -0.373888 -4.343233 8.194840 -0.053829 2.129392 -0.001530 0.002455 -47925.000000 1 0 0
-5.054040 -10.749188 6.916367 13.744981 1.131289 1.043508 0.000253 -0.000896 923012.000000 1 0 0
9.652260 8.443812 -1.536633 12.916088 0.718718 1.690049 0.004152 -0.000204 -419039.000000 1 0 0
13.737660 4.615912 -4.384133 15.141023 0.324152 1.864556 0.004839 -0.000385 826940.000000 1 0 0
4.760660 1.141212 -6.883833 8.447094 0.235278 2.523413 -0.005574 0.000980 -521490.000000 1 0 0
8.937160 -4.711988 3.651367 10.742818 -0.485198 1.223997 0.001699 -0.002231 91934.700000 1 0 0
-8.891840 -3.294488 -0.817933 9.517746 0.354826 1.656840 -0.001787 -0.003164 -162354.000000 1 0 0
-8.642540 -4.191988 -10.401433 14.158251 0.451609 2.395955 0.015273 -0.005842 127550.000000 1 0 0
10.516360 -1.280188 10.507467 14.921112 -0.121137 0.789499 0.002105 0.005128 -251549.000000 1 0 0
2.171560 -11.686588 9.887767 15.461564 -1.387075 0.876940 -0.014531 -0.000049 916.340000 1 0 0
-6.386940 -10.412088 2.082167 12.391126 1.020571 1.401958 0.002381 -0.000998 -799501.000000 1 0 0
-3.677940 -1.310788 6.736067 7.785885 0.342358 0.525319 0.003950 -0.002483 -1796710.000000 1 0 0
4.789560 -7.662188 3.871467 9.830425 -1.012132 1.166007 -0.008279 0.002111 172223.000000 1 0 0
11.219260 -9.588688 -5.317333 15.687216 -0.707195 1.916607 -0.001512 0.000706 183253.000000 1 0 0
11.300160 1.067712 11.350067 16.051718 0.094207 0.785417 -0.003403 0.003691 -448943.000000 1 0 0
-10.181640 -3.410588 4.355167 11.587294 0.323227 1.185475 0.000143 -0.002126 1057430.000000 1 0 0
2.110660 8.677912 8.885267 12.597977 1.332207 0.787960 -0.010315 0.005580 -29957.000000 1 0 0
6.632960 8.723612 4.153367 11.719557 0.920707 1.208528 -0.004435 0.001721 910546.000000 1 0 0
-4.307840 3.573512 0.344967 5.607716 -0.692494 1.509241 0.002685 -0.004634 -667560.000000 1 0 0
4.919760 6.861012 4.258467 9.455796 0.948712 1.103633 -0.004170 0.000200 -1284310.000000 1 0 0
-8.198240 13.039112 1.139367 15.444343 -1.009511 1.496957 -0.004728 -0.004042 -1731140.000000 1 0 0
8.883860 8.135712 -9.185233 15.148640 0.741468 2.222247 0.006874 -0.003254 -23192.300000 1 0 0
7.134560 1.907412 5.963567 9.492329 0.261239 0.891493 0.000129 0.000760 -848243.000000 1 0 0
11.480460 -6.207388 3.104567 13.415326 -0.495669 1.337260 0.003773 0.000568 -392099.000000 1 0 0
11.389660 4.798212 -1.979333 12.516587 0.398714 1.729600 0.005738 0.001831 157461.000000 1 0 0
-3.941840 14.211912 -5.967733 15.910072 -1.300236 1.955292 0.002757 -0.003411 535074.000000 1 0 0
7.281760 -2.906088 7.025067 10.527153 -0.379723 0.840181 0.002400 -0.002932 -172967.000000 1 0 0
-7.986040 -0.417688 0.918867 8.049572 0.052255 1.456396 -0.000051 -0.001827 177645.000000 1 0 0
-3.239540 1.067712 10.793967 11.320086 -0.318376 0.306076 0.003127 0.000728 -66597.200000 1 0 0
7.125560 -1.281788 -1.891533 7.482946 -0.177982 1.826348 0.001396 0.001312 -2129450.000000 1 0 0
-7.869240 5.392212 2.966967 9.990185 -0.600742 1.269259 -0.001392 -0.001645 706735.000000 1 0 0
9.469160 -2.214488 2.781167 10.114536 -0.229734 1.292241 0.000924 -0.001595 -1431440.000000 1 0 0
0.212060 3.418512 1.647767 3.800833 1.508843 1.122392 -0.000451 -0.001519 -3339150.000000 1 0 0
-7.569840 -2.993088 3.982767 9.062201 0.376531 1.115763 0.000223 -0.002777 182045.000000 1 0 0
-2.305640 8.458612 -6.734533 11.055226 -1.304682 2.225812 0.003099 -0.002338 -340913.000000 1 0 0
4.481460 9.848312 7.256667 13.028122 1.143752 0.980027 -0.009507 0.006427 -942877.000000 1 0 0
-11.793440 -3.116188 6.815167 13.972915 0.258327 1.061296 -0.000811 -0.000244 -842401.000000 1 0 0
-4.852040 2.311512 -5.635133 7.787176 -0.444590 2.379862 0.013179 -0.007250 -586431.000000 1 0 0
-2.724540 2.949212 -1.892033 4.438554 -0.824976 2.011164 0.005748 -0.003174 950266.000000 1 0 0
2.478360 5.167712 11.494567 12.844166 1.123613 0.462533 -0.006575 -0.000443 383598.000000 1 0 0
-0.648340 1.584112 4.531567 4.844054 -1.182319 0.361151 0.002532 -0.002119 -1074640.000000 1 0 0
5.182360 1.655312 7.610667 9.355168 0.309170 0.620607 0.000355 0.001462 676736.000000 1 0 0
3.424360 -8.222488 1.791967 9.085521 -1.176179 1.372261 -0.006851 0.000561 1700470.000000 1 0 0
5.003760 6.498012 -4.683033 9.444182 0.914590 2.089626 0.001952 -0.000827 -2417210.000000 1 0 0
-4.179440 2.766812 -7.885633 9.343777 -0.584769 2.575391 0.013701 -0.008075 50144.300000 1 0 0
-8.714740 -2.041188 -12.949733 15.741941 0.230075 2.536811 0.008903 -0.003441 1272940.000000 1 0 0
-7.663640 8.151412 1.076367 11.239905 -0.816231 1.474886 -0.002875 -0.000801 -1575290.000000 1 0 0
7.391860 0.846712 -6.583433 9.934692 0.114049 2.295176 -0.003070 0.003796 173031.000000 1 0 0
8.972860 8.831212 5.520967 13.747131 0.777442 1.157524 -0.004673 0.003958 -138520.000000 1 0 0
9.381160 -1.067288 -1.442333 9.551209 -0.113282 1.722387 0.003186 0.001248 840699.000000 1 0 0
5.431360 0.032912 4.275467 6.912335 0.006060 0.903929 0.001179 0.001833 -980733.000000 1 0 0
-4.169940 -7.221688 -8.079833 11.611411 1.047146 2.340403 0.016067 -0.005004 -4052.380000 1 0 0
-2.261840 7.382312 -0.602733 7.744530 -1.273491 1.648702 0.002782 -0.002803 -305282.000000 1 0 0
13.267860 -3.530088 -7.446333 15.618755 -0.260039 2.067757 0.008918 0.002616 1045800.000000 1 0 0
-4.765240 -5.070688 1.559767 7.131077 0.816442 1.350285 0.004614 -0.002227 1106910.000000 1 0 0
-8.985240 1.316312 2.567067 9.437004 -0.145462 1.295303 -0.003345 -0.002077 -1860060.000000 1 0 0
-1.008640 11.156812 10.188367 15.142478 -1.480636 0.832764 -0.004865 0.000802 328918.000000 1 0 0
-8.486640 0.351612 7.402367 11.266842 -0.041408 0.853958 -0.005336 -0.000953 -185863.000000 1 0 0
-6.087440 12.991612 -2.031033 14.490135 -1.132610 1.711426 -0.002926 0.001648 398407.000000 1 0 0
-13.099540 -0.773488 3.264667 13.522362 0.058978 1.326960 -0.002736 -0.001509 364064.000000 1 0 0
-6.689140 12.774512 8.697067 16.839588 -1.088423 1.028078 0.009249 -0.009863 -1137040.000000 1 0 0
-8.113640 0.985412 -14.098233 16.296084 -0.120859 2.616206 0.002582 -0.000823 -380927.000000 1 0 0
7.412760 2.868312 3.640767 8.742506 0.369200 1.141265 0.001378 0.000034 -606381.000000 1 0 0
-1.652540 0.628312 -1.920933 2.610680 -0.363330 2.397641 0.008256 -0.005234 340173.000000 1 0 0
-6.296340 9.618312 -10.354433 15.471590 -0.991180 2.304001 -0.002724 -0.002893 -392401.000000 1 0 0
-10.105740 13.681312 5.377367 17.838732 -0.934597 1.264590 -0.005439 -0.007568 559500.000000 1 0 0
-5.592740 8.251712 2.550967 10.289652 -0.975148 1.320268 -0.001885 -0.000627 -1631230.000000 1 0 0
-2.433140 -10.768888 -1.264133 11.112477 1.348586 1.684801 0.003313 -0.000766 75632.100000 1 0 0
-2.288140 -12.468588 8.777367 15.418931 1.389303 0.965192 -0.000484 -0.003830 299777.000000 1 0 0
-14.674540 -6.290288 -1.738433 16.060261 0.404961 1.679253 0.003708 -0.000360 257484.000000 1 0 0
-2.602140 -9.331488 3.219967 10.208623 1.298849 1.249901 0.002309 -0.001935 -1892140.000000 1 0 0
4.694960 -2.697188 7.535467 9.279048 -0.521448 0.623063 0.000454 0.001849 157112.000000 1 0 0
-15.069840 -1.281988 -0.272433 15.126724 0.084865 1.588807 0.000432 -0.007106 60344.700000 1 0 0
5.559260 8.749212 -2.862333 10.753931 1.004752 1.840210 -0.001214 0.000187 -1200950.000000 1 0 0
-5.664440 -5.684488 8.557967 11.731926 0.787165 0.753265 0.004929 -0.001329 -2174890.000000 1 0 0
3.397560 3.573912 7.033467 8.589873 0.810689 0.611463 -0.002842 0.001562 743475.000000 1 0 0
3.372060 2.266412 9.312567 10.160282 0.591765 0.411390 0.001171 -0.000318 743792.000000 1 0 0
10.030260 -3.198288 5.149967 11.719954 -0.308672 1.115845 0.004758 -0.002710 -145034.000000 1 0 0
6.598760 9.931412 -5.166833 12.995105 0.984342 1.979694 0.002431 -0.002327 545864.000000 1 0 0
-4.619240 12.093412 -8.543333 15.510530 -1.205935 2.154129 0.002782 -0.004766 -674313.000000 1 0 0
-3.203840 -7.171188 2.184067 8.152342 1.150635 1.299577 0.005508 -0.003554 1243080.000000 1 0 0
-7.428440 -4.028288 1.029167 8.512814 0.496896 1.449604 0.002883 -0.002650 3044040.000000 1 0 0
-2.000240 -3.919788 -10.990533 11.838814 1.098948 2.760739 0.010364 -0.002613 -835498.000000 1 0 0
-5.300840 8.386912 -4.467333 10.881005 -1.007153 1.993867 0.002933 -0.001488 -68479.300000 1 0 0
-11.017440 -3.129488 -10.114333 15.279968 0.276759 2.294193 0.009943 -0.005195 -1213130.000000 1 0 0
4.644560 -11.329288 -7.825633 14.531525 -1.181733 2.139485 -0.010512 0.003704 -2774850.000000 1 0 0
-9.304040 -3.852288 7.329367 12.454915 0.392555 0.941629 -0.004481 -0.000303 -655569.000000 1 0 0
-5.676940 -9.710988 -5.205533 12.394697 1.041785 2.004220 0.013933 -0.008422 138478.000000 1 0 0
4.753560 4.498212 -9.542833 11.571340 0.757805 2.540460 0.002157 0.000839 147033.000000 1 0 0
-3.548240 -7.211888 -14.115033 16.243013 1.113570 2.623956 0.002465 0.002749 -491065.000000 1 0 0
0.730760 -0.846588 -8.819933 8.890553 -0.858699 3.015467 0.006482 -0.007844 -136654.000000 1 0 0
-7.772340 2.277812 -2.902733 8.603694 -0.285084 1.914931 0.004969 -0.003027 72748.000000 1 0 0
-2.210040 7.516912 -12.559833 14.803299 -1.284845 2.583843 -0.002936 -0.000254 -404901.000000 1 0 0
-9.905840 8.932912 7.634767 15.369198 -0.733799 1.050937 0.005205 -0.007037 -632057.000000 1 0 0
-10.730840 -3.173588 -14.292633 18.152188 0.287548 2.477340 0.008886 0.003317 -370068.000000 1 0 0
-3.075640 4.816812 7.995967 9.828364 -1.002532 0.620547 -0.000627 -0.000775 -1037690.000000 1 0 0
8.641260 -2.323288 -3.538433 9.622346 -0.262649 1.947364 -0.001149 0.003530 -4575720.000000 1 0 0
1.924760 -8.536088 -1.127833 8.822783 -1.349020 1.698979 -0.004776 0.001823 476466.000000 1 0 0
-13.537640 -2.969488 5.026167 14.742724 0.215931 1.222895 -0.001685 -0.001219 275045.000000 1 0 0
7.002560 2.838112 -1.972433 7.809047 0.385064 1.826145 0.001601 0.001337 787560.000000 1 0 0
-11.103240 4.549512 9.155167 15.092948 -0.388880 0.919037 -0.001560 -0.001471 -3082800.000000 1 0 0
-1.783640 -2.545588 8.015267 8.596854 0.959615 0.369940 0.003000 -0.003423 -1383570.000000 1 0 0
3.061860 11.944212 -9.859433 15.787578 1.319853 2.245295 -0.003719 -0.005393 635739.000000 1 0 0
3.602960 -4.982388 -7.128533 9.413899 -0.944709 2.429865 -0.009927 0.000264 25168.900000 1 0 0
8.397360 -13.744388 -9.730533 18.817734 -1.022352 2.114248 -0.006842 0.008088 427396.000000 1 0 0
-6.241440 -5.825888 -0.439033 8.549228 0.750976 1.622172 0.008914 -0.002755 -501320.000000 1 0 0
-1.193340 -4.032788 9.906567 10.762319 1.283097 0.401473 0.001744 -0.001379 745240.000000 1 0 0
2.792960 3.251712 1.777867 4.640589 0.861147 1.177633 -0.002316 0.000334 -1419070.000000 1 0 0
-9.106240 13.349512 7.767567 17.929534 -0.972158 1.122726 0.004816 -0.017214 -1051500.000000 1 0 0
4.039360 -11.132288 -0.013933 11.842485 -1.222719 1.571973 -0.008415 0.000123 230762.000000 1 0 0
-12.606240 -1.392288 -9.054233 15.583160 0.109999 2.190786 0.004958 -0.006218 69631.000000 1 0 0
-4.336440 0.888512 -13.536833 14.242191 -0.202097 2.825554 0.007455 -0.006367 939659.000000 1 0 0
3.988660 -3.090488 4.980367 7.089752 -0.659197 0.791928 0.001793 0.003686 -34815.500000 1 0 0
1.686360 -1.226388 1.157567 2.384911 -0.628775 1.064009 0.001901 0.000056 261980.000000 1 0 0
8.184260 -8.937688 7.401767 14.200371 -0.829373 1.022496 0.005806 -0.000628 -902265.000000 1 0 0
-0.057140 2.256612 -6.394233 6.780986 -1.545481 2.802224 0.006427 -0.006734 852186.000000 1 0 0
-3.765740 -9.760488 -3.421833 11.007128 1.202578 1.886909 0.009195 -0.002189 342131.000000 1 0 0
-9.461840 2.308012 -5.496133 11.183059 -0.239256 2.084573 0.000790 -0.001292 -728845.000000 1 0 0
8.953660 -7.535188 5.373467 12.877159 -0.699583 1.140339 0.004214 -0.000306 1901820.000000 1 0 0
-5.498340 -4.212488 4.689767 8.364850 0.653750 0.975624 0.000765 -0.002543 -921947.000000 1 0 0
-0.208940 -12.490588 10.336267 16.214094 1.554070 0.879565 -0.002559 -0.002688 -363854.000000 1 0 0
-14.072940 -8.289788 3.053267 16.615976 0.532336 1.385991 -0.003255 -0.005728 -1371980.000000 1 0 0
10.927960 -1.311888 -3.687333 11.607660 -0.119477 1.894061 0.007721 0.002367 -162754.000000 1 0 0
-13.591140 2.962912 2.705167 14.170952 -0.214645 1.378722 -0.004731 0.006106 -1737180.000000 1 0 0
-6.228340 6.075512 1.035967 8.762266 -0.772978 1.452289 0.001304 -0.000171 506491.000000 1 0 0
7.147860 -6.920388 -0.480133 9.960632 -0.769230 1.619018 -0.004939 -0.000629 -455060.000000 1 0 0
-6.706240 7.841912 10.176167 14.492192 -0.863303 0.792338 0.003757 -0.003730 154558.000000 1 0 0
-12.564840 -5.069588 -1.868633 13.677270 0.383498 1.707848 0.002968 -0.003842 -3584590.000000 1 0 0
-9.414940 -5.601688 0.188567 10.956987 0.536719 1.553586 -0.000232 -0.002418 -1259560.000000 1 0 0
-1.826240 1.794612 2.247867 3.407153 -0.776663 0.850311 0.001999 -0.002076 -371066.000000 1 0 0
-7.025340 7.313712 7.611367 12.679854 -0.805506 0.926955 -0.001741 -0.003799 331493.000000 1 0 0
5.554260 7.115012 -0.369033 9.033791 0.907973 1.611658 -0.000512 -0.001377 -2444180.000000 1 0 0
-0.060540 -4.106188 7.517767 8.566287 1.556054 0.499965 0.002304 0.000840 -1657260.000000 1 0 0
6.593860 0.731612 13.063667 14.651746 0.110502 0.469904 0.001535 0.002006 713313.000000 1 0 0
5.848760 6.199112 -7.974433 11.671699 0.814470 2.322971 -0.000233 0.001144 -279574.000000 1 0 0
9.898760 5.220512 9.049267 14.391957 0.485319 0.890823 -0.002985 0.000212 -2454830.000000 1 0 0
-1.065140 -4.920788 -8.572233 9.941421 1.357628 2.610540 0.011840 -0.000559 1015810.000000 1 0 0
9.951760 -3.590288 -8.030733 13.282333 -0.346236 2.220082 0.003698 -0.000200 558681.000000 1 0 0
8.346560 -5.344188 1.217267 9.985347 -0.569516 1.448587 -0.000021 -0.000423 972105.000000 1 0 0
15.754260 3.152612 -5.056033 16.843371 0.197503 1.875677 0.003714 0.006027 -813460.000000 1 0 0
-6.891740 3.607212 1.200467 7.870780 -0.482200 1.417677 0.003481 -0.003844 507474.000000 1 0 0
-1.817340 3.891612 0.307767 4.306053 -1.133905 1.499262 0.004043 -0.003894 -651325.000000 1 0 0
-2.540940 10.048412 7.013367 12.514563 -1.323118 0.975908 -0.004133 0.002872 1256040.000000 1 0 0
5.453860 -5.711388 -8.767333 11.799604 -0.808459 2.408367 -0.010012 0.000464 556750.000000 1 0 0
-1.203640 -0.883588 6.258467 6.434119 0.633245 0.234202 0.004285 -0.002615 296153.000000 1 0 0
-5.684740 5.019212 -7.841033 10.908279 -0.723302 2.372892 0.007037 -0.004248 37883.500000 1 0 0
6.728660 -1.257488 2.529767 7.297661 -0.184754 1.216794 0.001859 0.001291 -1132230.000000 1 0 0
8.858360 7.583712 3.192967 12.090421 0.708029 1.303535 -0.003257 0.001831 -198216.000000 1 0 0
-5.321240 -4.856488 -7.737033 10.571790 0.739766 2.391839 0.014335 -0.005877 1150020.000000 1 0 0
-2.133240 7.963812 -10.041233 12.992281 -1.309074 2.454134 0.001321 -0.001263 204748.000000 1 0 0
-2.809540 -2.161888 1.652867 3.911425 0.655853 1.134513 0.001624 -0.001132 -207075.000000 1 0 0
5.916060 -2.105988 -9.219933 11.155362 -0.341991 2.543662 -0.004881 0.003659 881352.000000 1 0 0
1.030560 -7.611788 5.215467 9.284528 -1.436225 0.974312 -0.005034 0.001205 50564.600000 1 0 0
1.847560 11.816012 1.189767 12.018618 1.415692 1.471640 -0.001611 -0.002564 -7815.000000 1 0 0
-1.123740 6.901412 2.510567 7.429349 -1.409385 1.226084 -0.001785 0.000058 542237.000000 1 0 0
8.721760 7.870012 -6.634533 13.491598 0.734108 2.084898 0.009249 -0.001155 102462.000000 1 0 0
3.774460 -11.106088 5.444567 12.931939 -1.243188 1.136230 -0.010768 0.002108 96534.100000 1 0 0
7.878560 -7.222588 12.410367 16.378483 -0.741987 0.710978 0.005097 -0.001788 768418.000000 1 0 0
-8.690040 0.077312 -3.990233 9.562674 -0.008896 2.001237 0.004617 -0.002799 -1986280.000000 1 0 0
-3.300140 -5.054788 11.227667 12.747640 0.992403 0.493322 0.006132 -0.004450 52466.200000 1 0 0
-8.324240 0.248412 -11.578733 14.262599 -0.029833 2.518067 0.005923 -0.006084 -1754480.000000 1 0 0
1.447660 -5.035088 5.384367 7.512605 -1.290833 0.771722 -0.002695 0.001043 -645374.000000 1 0 0
6.694360 3.738812 -7.745533 10.898920 0.509347 2.361246 -0.002050 0.003384 -534809.000000 1 0 0
16.347360 4.123512 -1.289633 16.908657 0.247089 1.647141 -0.006507 0.011840 -404127.000000 1 0 0
7.930860 7.380412 0.120167 10.834365 0.749463 1.559705 -0.001006 -0.001573 -3657690.000000 1 0 0
5.405160 -10.355088 13.994067 18.228481 -1.089719 0.695547 -0.002065 -0.003556 -521428.000000 1 0 0
-5.306140 -9.204588 8.960167 13.898351 1.047860 0.870175 0.003707 -0.004356 379637.000000 1 0 0
-12.564840 -3.176588 2.841367 13.267980 0.247627 1.354973 -0.000447 -0.002464 -1036070.000000 1 0 0
-2.109240 -1.253288 -5.865433 6.357903 0.536136 2.745413 0.012555 -0.008642 -951217.000000 1 0 0
-2.340240 12.985712 -4.241233 13.859780 -1.392494 1.881796 0.001257 0.000859 584028.000000 1 0 0
3.955960 -0.411088 -4.996233 6.385997 -0.103544 2.469264 -0.003787 0.000450 -484104.000000 1 0 0
-8.873640 3.875112 -7.373433 12.170682 -0.411738 2.221612 -0.000119 -0.002050 320984.000000 1 0 0
-4.492240 7.911812 -11.173833 14.409425 -1.054398 2.458229 -0.000683 -0.001954 -1294210.000000 1 0 0
-10.091740 -6.269788 7.350267 13.970679 0.555919 1.016764 -0.004530 0.002079 -2118760.000000 1 0 0
8.019060 5.326812 4.101367 10.464295 0.586341 1.168058 -0.003110 0.001490 -892552.000000 1 0 0
-6.698340 -7.509888 4.070667 10.855252 0.842454 1.186405 0.004210 -0.000696 -452380.000000 1 0 0
-4.146640 11.808612 8.118167 14.917861 -1.233094 0.995372 0.001677 0.000137 245022.000000 1 0 0
-7.282140 10.075812 -7.882833 14.720415 -0.944975 2.135900 0.002420 -0.003807 -111288.000000 1 0 0
13.093160 5.567912 4.611867 14.956664 0.402085 1.257340 -0.003150 0.000336 -476272.000000 1 0 0
5.314960 4.006412 -3.838433 7.683339 0.645928 2.093909 0.000477 0.002132 244045.000000 1 0 0
-2.826940 -4.258888 5.193067 7.286814 0.984799 0.777505 0.003450 -0.003192 -1222680.000000 1 0 0
12.400560 -2.432588 -5.371533 13.731159 -0.193708 1.972724 0.007883 0.000077 -1637800.000000 1 0 0
-5.201140 9.761412 7.021767 13.101231 -1.081234 1.005149 -0.002489 0.000392 -401479.000000 1 0 0
1.760260 3.786512 -0.465733 4.201559 1.135640 1.681872 -0.000471 -0.001953 467271.000000 1 0 0
-0.069640 9.594512 7.726867 12.319253 -1.563538 0.892819 -0.008432 0.005034 -1116190.000000 1 0 0
-5.602940 2.073712 5.865767 8.372601 -0.354478 0.794571 -0.001530 -0.001950 579739.000000 1 0 0
8.817760 0.765712 10.716267 13.898834 0.086620 0.690356 0.000250 0.004547 -1206260.000000 1 0 0
0.394760 -2.881688 -10.216433 10.622404 -1.434655 2.864233 0.006154 -0.003970 -2612680.000000 1 0 0
1.250660 10.652312 -2.760633 11.075062 1.453924 1.822718 0.001645 -0.003021 275992.000000 1 0 0
2.270560 -4.282388 11.655867 12.623531 -1.083275 0.394095 -0.000728 0.000901 -619851.000000 1 0 0
6.584360 -2.970888 9.487667 11.924588 -0.423854 0.650735 0.002538 0.001832 703564.000000 1 0 0
-10.521140 -8.190988 5.591767 14.458718 0.661510 1.173702 -0.002274 -0.001131 -2119260.000000 1 0 0
-3.013040 0.816012 -6.909233 7.581674 -0.264482 2.717244 0.016977 -0.009837 724432.000000 1 0 0
10.969260 2.594612 -5.156633 12.395464 0.232266 1.999849 0.008805 0.003644 -3258110.000000 1 0 0
-2.087140 -4.077588 0.087167 4.581536 1.097709 1.551769 0.001278 -0.001643 752632.000000 1 0 0
-1.412440 -6.424188 -10.751233 12.603737 1.354377 2.592540 0.002568 0.000879 665741.000000 1 0 0
0.343860 6.753812 -6.639333 9.476970 1.519927 2.347000 0.008408 -0.001643 -3061430.000000 1 0 0
2.079460 3.840112 -6.111333 7.511258 1.074495 2.521153 0.001847 -0.002137 -1546550.000000 1 0 0
1.655360 -14.786288 6.449767 16.216474 -1.459308 1.161756 -0.004317 -0.005898 83115.900000 1 0 0
-1.727740 5.413212 -10.495433 11.934909 -1.261846 2.645375 0.006774 -0.002544 -75632.700000 1 0 0
13.735060 4.324612 -0.837633 14.424138 0.305033 1.628901 0.001163 0.001671 -426410.000000 1 0 0
-2.401840 3.346312 -6.088133 7.350646 -0.948252 2.546764 0.011653 -0.007225 121419.000000 1 0 0
5.778760 7.799712 14.259367 17.249902 0.933149 0.597695 -0.001037 -0.002165 650486.000000 1 0 0
15.990060 0.550612 -5.892033 17.049963 0.034421 1.923647 0.003487 0.005738 417335.000000 1 0 0
6.041860 -8.262688 10.661967 14.780177 -0.939422 0.765019 -0.004291 0.004179 764950.000000 1 0 0
0.118560 -5.875988 -6.367033 8.664894 -1.550622 2.396180 -0.001226 -0.000021 -343983.000000 1 0 0
8.722060 5.551912 -7.683733 12.881685 0.566852 2.209911 -0.000330 0.002603 -71139.600000 1 0 0
-15.978940 -0.833588 5.232867 16.834616 0.052121 1.254720 -0.010363 0.005178 -463742.000000 1 0 0
-0.455340 4.010512 -12.297933 12.943365 -1.457744 2.824462 0.008253 -0.005652 444972.000000 1 0 0
-11.222540 3.712812 5.973567 13.244391 -0.319501 1.102882 -0.001936 0.001221 -27770.200000 1 0 0
5.137960 -9.636288 -9.635433 14.563593 -1.080952 2.293761 -0.010142 0.004339 192382.000000 1 0 0
1.490460 11.198012 -11.609233 16.198495 1.438474 2.369835 -0.002501 -0.001573 -967488.000000 1 0 0
6.039260 2.318412 1.240567 6.586858 0.366542 1.381325 0.003686 0.000557 -268109.000000 1 0 0
5.741360 4.445312 4.890367 8.754411 0.658848 0.978078 -0.004093 0.000804 -430733.000000 1 0 0
0.391460 -1.534588 -6.406233 6.599092 -1.321032 2.899235 0.003141 -0.003934 -1033510.000000 1 0 0
12.771760 6.866612 -4.500533 15.182984 0.493304 1.871738 0.013842 -0.002474 -448804.000000 1 0 0
7.500160 3.219912 12.741467 15.131597 0.405518 0.569735 0.003168 0.002407 -850853.000000 1 0 0
-2.484240 -0.232488 8.705867 9.056358 0.093313 0.279118 0.003160 -0.001601 723016.000000 1 0 0
2.423360 -15.227088 13.253767 20.332221 -1.412972 0.860761 -0.008758 -0.004312 410078.000000 1 0 0
18.943860 4.463612 -1.697333 19.536494 0.231402 1.657786 0.003478 0.014396 470815.000000 1 0 0
-0.340640 -13.236788 7.161767 15.053886 1.545068 1.074989 -0.008351 -0.003586 -1866200.000000 1 0 0
4.442060 1.654112 -0.630333 4.781768 0.356467 1.703001 0.001186 -0.001253 1674950.000000 1 0 0
2.740760 -0.440788 -7.344833 7.851919 -0.159461 2.780238 -0.004185 -0.000878 -143744.000000 1 0 0
7.199660 -11.450488 0.885967 13.554841 -1.009495 1.505388 -0.008463 0.002294 244159.000000 1 0 0
-11.626140 -7.298888 1.239767 13.783248 0.560610 1.480727 0.001881 -0.000729 194813.000000 1 0 0
0.177360 -6.916688 10.065867 12.214488 -1.545160 0.602198 -0.000654 -0.002598 -886212.000000 1 0 0
-4.633740 -7.225688 10.638067 13.669330 1.000571 0.678933 0.006584 -0.001910 -1011900.000000 1 0 0
11.821360 0.790312 -1.730733 11.973495 0.066755 1.715851 0.006163 0.002687 1444910.000000 1 0 0
6.525160 -9.702988 -7.452533 13.865999 -0.978773 2.138228 -0.013334 0.000580 -1418520.000000 1 0 0
-10.880640 4.889012 3.640267 12.471660 -0.422298 1.274601 -0.005391 0.000129 24995.700000 1 0 0
5.992960 -9.195888 1.974867 11.152579 -0.993227 1.392780 -0.007090 -0.000116 2260310.000000 1 0 0
11.747960 -1.350688 5.797867 13.170201 -0.114470 1.114946 0.003433 -0.005609 -586690.000000 1 0 0
-6.435640 3.710912 4.120067 8.494898 -0.523050 1.064428 -0.001173 -0.002810 -1930710.000000 1 0 0
9.588260 6.382212 -3.145433 11.939896 0.587283 1.837382 0.002664 0.001686 780279.000000 1 0 0
-2.244440 6.550912 10.936467 12.944430 -1.240716 0.564459 -0.004833 0.001248 -435537.000000 1 0 0
1.957560 9.796912 3.010867 10.434407 1.373580 1.278082 -0.007352 -0.000810 -653882.000000 1 0 0
2.813860 6.053812 -5.509133 8.655460 1.135697 2.260738 0.001607 -0.002013 -2288650.000000 1 0 0
11.901860 0.054312 -5.762733 13.223703 0.004563 2.021710 0.012075 0.003015 588075.000000 1 0 0
-2.534540 -12.351488 6.205767 14.053280 1.368405 1.113428 0.000416 -0.002056 152827.000000 1 0 0
10.914560 1.873312 -2.766233 11.414419 0.169978 1.815579 0.007168 0.004357 233718.000000 1 0 0
-8.781940 5.432512 0.772367 10.355250 -0.553984 1.496140 -0.002025 -0.000761 132514.000000 1 0 0
1.229060 -10.143988 5.645567 11.674053 -1.450223 1.066034 -0.007857 -0.000646 412436.000000 1 0 0
9.326160 -5.676088 -1.232233 10.986975 -0.546734 1.683187 -0.001223 -0.000978 201223.000000 1 0 0
-7.876840 8.687012 -4.497633 12.559359 -0.834271 1.937039 -0.002345 0.000276 -398264.000000 1 0 0
-7.491440 -0.049288 -1.635833 7.668119 0.006579 1.785778 0.002370 -0.001811 -1391380.000000 1 0 0
4.190860 8.841312 2.739267 10.160497 1.128157 1.297819 -0.004266 -0.000916 1724610.000000 1 0 0
-1.387940 -10.538988 -3.817233 11.294596 1.439854 1.915555 0.002554 0.001802 -533779.000000 1 0 0
3.182360 7.854012 -3.636733 9.221646 1.185825 1.976178 0.002907 -0.003915 128194.000000 1 0 0
-4.286140 1.609012 -11.052833 11.963487 -0.359120 2.748896 0.011525 -0.008046 -298870.000000 1 0 0
1.356760 2.914512 10.905967 11.369930 1.135112 0.286659 0.000955 -0.001035 362711.000000 1 0 0
2.170360 5.557812 -8.084833 10.048097 1.198501 2.505820 0.004228 -0.000715 455837.000000 1 0 0
15.660360 6.024212 4.050167 17.260992 0.367229 1.333945 0.013548 0.001455 712974.000000 1 0 0
-4.389540 9.026812 4.626367 11.052361 -1.118186 1.138908 -0.003034 0.000661 -206893.000000 1 0 0
-0.845940 -8.323688 -12.467733 15.014784 1.469514 2.550556 -0.002167 0.001898 169346.000000 1 0 0
14.313760 -4.292288 -5.261833 15.842801 -0.291339 1.909355 0.011365 0.002239 255634.000000 1 0 0
-5.996740 -6.145488 -5.653933 10.280801 0.797648 2.153101 0.015335 -0.004417 535268.000000 1 0 0
-9.038940 2.602612 -12.243033 15.439167 -0.280350 2.486490 -0.002750 -0.003967 65835.200000 1 0 0
10.414960 5.272812 13.829767 18.097967 0.468653 0.701056 0.007069 -0.001597 688641.000000 1 0 0
-0.383940 10.828812 5.525567 12.163161 -1.535356 1.099224 -0.004152 0.006544 374488.000000 1 0 0
0.435660 11.139912 -0.568233 11.162900 1.531708 1.621722 -0.000595 -0.001503 -185259.000000 1 0 0
-1.431940 -0.675788 3.688767 4.014243 0.440948 0.405463 0.002480 -0.001579 230441.000000 1 0 0
-4.752240 6.602712 8.985767 12.121205 -0.946944 0.735752 -0.001778 -0.002054 -1011310.000000 1 0 0
3.389760 -8.678588 -11.415333 14.734931 -1.198429 2.457056 -0.008218 0.005439 491854.000000 1 0 0
6.748360 -3.828788 12.124067 14.394200 -0.516078 0.569282 0.006812 0.004323 -417196.000000 1 0 0
-2.454740 -1.788288 -12.503033 12.866606 0.629601 2.903302 0.007943 -0.007134 1036970.000000 1 0 0
-15.982140 -4.896488 5.338667 17.547244 0.297293 1.261650 -0.008218 -0.002434 732553.000000 1 0 0
-8.954240 7.262812 5.845967 12.926801 -0.681475 1.101525 -0.005095 -0.002176 -4989270.000000 1 0 0
-12.842240 1.551112 6.151067 14.323572 -0.120200 1.126927 -0.003691 0.000572 325832.000000 1 0 0
-3.435740 3.545512 10.200167 11.332183 -0.801121 0.450783 -0.001292 0.000699 373502.000000 1 0 0
2.082860 -12.324288 -1.115133 12.548701 -1.403374 1.659778 -0.003620 0.000922 -4141220.000000 1 0 0
10.266460 -5.098088 -3.637933 12.026024 -0.460905 1.878116 0.001280 0.002004 673184.000000 1 0 0
3.033560 -13.450188 0.983067 13.823041 -1.348968 1.499618 -0.003986 -0.001482 262207.000000 1 0 0
9.993260 -1.733888 -6.164133 11.868789 -0.171795 2.116894 0.006134 0.003759 53541.100000 1 0 0
11.841360 -5.418588 -1.567833 13.116288 -0.429155 1.690616 0.006251 0.001047 -742783.000000 1 0 0
1.473460 0.974912 5.913467 6.171761 0.584520 0.290331 0.002441 -0.001021 152706.000000 1 0 0
-10.820440 11.730312 6.738167 17.322963 -0.825724 1.171280 0.000667 -0.008791 -872026.000000 1 0 0
4.719660 -14.116688 3.056867 15.195410 -1.248147 1.368244 -0.005799 -0.002577 -2480310.000000 1 0 0
5.237560 -3.455688 -1.789633 6.525075 -0.583226 1.848627 -0.000879 0.000702 -1555050.000000 1 0 0
2.035160 -2.940688 -7.680433 8.472223 -0.965413 2.705817 -0.005445 -0.000919 -496574.000000 1 0 0
-2.820440 14.881812 -8.758033 17.496467 -1.383495 2.095042 -0.001651 -0.006083 -1920160.000000 1 0 0
-2.285440 6.101812 -8.103133 10.397890 -1.212419 2.464353 0.008906 -0.004655 -115391.000000 1 0 0
2.611260 -3.542088 -11.407833 12.227171 -0.935532 2.773430 -0.000653 0.001498 -473029.000000 1 0 0
14.684060 2.867912 -2.779533 15.217501 0.192880 1.754481 0.005467 0.006028 880584.000000 1 0 0
-3.400540 13.245912 2.193267 13.850209 -1.319500 1.411771 -0.010949 0.003323 -585895.000000 1 0 0
7.914260 -5.146188 14.056067 16.931975 -0.576546 0.591421 0.004448 -0.000806 -1554390.000000 1 0 0
-11.439540 7.246712 2.894967 13.847698 -0.564674 1.360185 -0.005604 0.003241 1191660.000000 1 0 0
-2.241540 11.859512 3.984367 12.710142 -1.383992 1.251941 -0.009086 0.002533 925053.000000 1 0 0
1.766160 1.400312 0.643767 2.344063 0.670370 1.292584 -0.001373 -0.000692 -758838.000000 1 0 0
-6.883540 8.588312 5.334967 12.231276 -0.895141 1.119454 -0.002018 -0.002187 141591.000000 1 0 0
-1.055440 9.048012 1.001267 9.164225 -1.454672 1.461320 -0.001460 -0.000496 430907.000000 1 0 0
4.931160 13.084612 -8.565133 16.397711 1.210390 2.120386 -0.000756 -0.007200 -2479310.000000 1 0 0
8.832860 6.866312 7.223067 13.316845 0.660783 0.997504 -0.010365 0.000642 -1588530.000000 1 0 0
7.181560 -13.878188 3.021267 15.915620 -1.093270 1.379807 0.000200 -0.002665 -275424.000000 1 0 0
4.190960 -13.397588 -1.312933 14.099053 -1.267625 1.664053 -0.005620 0.003865 -3081080.000000 1 0 0
11.900460 -11.878888 -4.638333 17.442564 -0.784491 1.839955 -0.003738 0.003398 -1363780.000000 1 0 0
2.865860 0.061212 -2.093233 3.549440 0.021356 2.201528 -0.000669 -0.001871 1422650.000000 1 0 0
-13.619740 -3.270888 -10.622333 17.579249 0.235694 2.219626 -0.006284 -0.005456 159347.000000 1 0 0
-6.637440 13.680412 5.078867 16.031350 -1.119076 1.248434 -0.000705 -0.004203 66563.400000 1 0 0
7.149460 -4.338788 -0.695033 8.391837 -0.545455 1.653714 -0.006035 0.001420 -2799590.000000 1 0 0
11.697960 2.086812 -7.382133 13.989029 0.176534 2.126697 0.010448 0.003643 -617675.000000 1 0 0
-7.491740 -4.533588 9.773067 13.122211 0.544194 0.730602 0.005868 -0.000702 -174186.000000 1 0 0
0.961360 2.784212 8.460867 8.958924 1.238324 0.335011 0.003031 0.000213 -1127180.000000 1 0 0
1.615460 8.019312 -8.757233 11.983664 1.372011 2.390237 0.005484 -0.002875 -792993.000000 1 0 0
-8.668640 -2.100388 -5.606933 10.535400 0.237716 2.131993 0.009868 -0.005957 -2111100.000000 1 0 0
6.793660 -0.415688 7.118067 9.848527 -0.061111 0.763017 0.003952 0.000138 87633.900000 1 0 0
-10.930240 6.588412 7.359767 14.732396 -0.542453 1.047702 0.003231 -0.001824 609503.000000 1 0 0
-5.952440 11.033412 4.936667 13.473619 -1.076056 1.195665 -0.007058 0.000047 -88558.900000 1 0 0
6.013260 -1.237088 -6.988433 9.302036 -0.202896 2.420796 -0.003506 0.002564 -845500.000000 1 0 0
4.513160 -5.681688 11.512167 13.608093 -0.899520 0.562397 -0.001238 0.002568 -1089400.000000 1 0 0
-8.994940 -7.278688 2.834267 11.913073 0.680324 1.330580 0.000190 -0.002674 -2510470.000000 1 0 0
-1.340340 12.777612 -9.370833 15.902088 -1.466281 2.200968 0.003490 0.000383 257817.000000 1 0 0
-4.707440 9.152912 -2.286633 10.543457 -1.095766 1.789410 0.000927 -0.001828 550107.000000 1 0 0
-3.170840 9.772012 -0.259833 10.276865 -1.257033 1.596082 0.001774 -0.001639 -1647880.000000 1 0 0
-3.381740 10.806212 -6.441433 13.026989 -1.267507 2.088019 0.001755 -0.000884 938935.000000 1 0 0
4.787260 -4.850288 0.371067 6.825016 -0.791938 1.516401 -0.001588 -0.000564 -2020850.000000 1 0 0
-2.198640 2.939112 -10.686833 11.299593 -0.928536 2.810758 0.010284 -0.005178 -1028160.000000 1 0 0
-3.592140 12.084312 -2.181933 12.794331 -1.281858 1.742173 -0.003447 0.002108 -978342.000000 1 0 0
-0.230340 0.314112 0.090867 0.399975 -0.938066 1.341613 0.001034 -0.001691 -2674470.000000 1 0 0
-4.810240 -1.745388 0.062967 5.117495 0.348075 1.558492 0.003624 -0.002332 50756.600000 1 0 0
2.564360 2.604712 -2.506733 4.432175 0.793204 2.171928 -0.003463 -0.001615 1934360.000000 1 0 0
5.965460 -9.751688 8.448767 14.214914 -1.021792 0.934328 -0.007813 0.003512 -1130310.000000 1 0 0
-4.239440 -5.417688 6.598167 9.532051 0.906806 0.806252 0.002547 -0.004693 142554.000000 1 0 0
-6.306140 5.303512 -12.071333 14.615462 -0.699250 2.542644 -0.003920 -0.003119 332972.000000 1 0 0
-12.683140 3.003212 8.138767 15.366225 -0.232505 1.012605 -0.005256 -0.000460 574974.000000 1 0 0
4.720260 -7.593288 -4.907733 10.199251 -1.014620 2.072803 -0.013244 0.001142 -153805.000000 1 0 0
-6.024740 2.440212 -1.068133 6.587339 -0.384837 1.733665 0.005360 -0.003684 -640538.000000 1 0 0
-6.887940 -2.661888 -14.539333 16.307102 0.368777 2.671652 0.011746 -0.000997 -1066370.000000 1 0 0
2.649660 -6.107088 0.864767 6.713050 -1.161440 1.441619 -0.003590 0.000300 -170017.000000 1 0 0
4.798260 -7.907688 13.023367 15.973820 -1.025403 0.617559 -0.003592 0.000686 -173925.000000 1 0 0
-9.977440 -1.625788 7.982367 12.880632 0.161527 0.902412 -0.000750 -0.000078 -477242.000000 1 0 0
-4.516440 13.324812 -0.119933 14.069941 -1.244000 1.579320 -0.007174 0.004397 531599.000000 1 0 0
6.714860 2.271912 -4.551333 8.424106 0.326251 2.141560 -0.001052 0.002808 -1133210.000000 1 0 0
4.975060 4.492112 0.092267 6.703641 0.734429 1.557032 -0.001756 -0.000410 -603096.000000 1 0 0
-5.819740 12.298212 1.971167 13.747760 -1.128803 1.426919 -0.005825 0.002028 -675479.000000 1 0 0
6.513260 -7.312688 6.545767 11.779008 -0.843155 0.981574 -0.004142 0.003400 -2665840.000000 1 0 0
-0.317140 4.915912 7.612667 9.067495 -1.506373 0.574331 -0.004896 0.001685 -1925350.000000 1 0 0
-5.804640 -3.523988 -1.602633 6.977160 0.545623 1.802563 0.007097 -0.002833 -73121.300000 1 0 0
2.413960 -6.517388 -5.129233 8.637857 -1.216075 2.206580 -0.007496 0.002395 -379151.000000 1 0 0
-14.283540 -4.633288 -3.776733 15.483881 0.313671 1.817196 -0.003825 -0.003775 -586285.000000 1 0 0
-12.430640 -5.157588 -6.316233 14.866618 0.393293 2.009604 0.005023 -0.005911 -1738030.000000 1 0 0
-14.708840 -3.714588 -1.269433 15.223653 0.247369 1.654279 -0.001657 -0.004222 306363.000000 1 0 0
11.819660 2.803212 8.744867 14.967801 0.232863 0.946847 0.004916 0.001076 -1199900.000000 1 0 0
8.628460 -6.405188 7.708567 13.224929 -0.638576 0.948526 0.006716 -0.002192 -534931.000000 1 0 0
-8.902540 -1.649588 -9.770033 13.320282 0.183216 2.394210 0.008486 -0.006595 -311233.000000 1 0 0
-8.820240 5.101712 -3.820033 10.881946 -0.524393 1.929481 0.002263 -0.003375 -997409.000000 1 0 0
-4.134340 -6.251988 4.073567 8.530772 0.986529 1.072973 0.003119 -0.002686 -1282280.000000 1 0 0
-0.007940 -9.408888 3.495167 10.037102 1.569952 1.215120 -0.002434 -0.002580 633606.000000 1 0 0
7.928060 -10.497488 3.268367 13.554837 -0.923954 1.327275 -0.004248 0.002032 -458355.000000 1 0 0
-0.054640 6.472212 9.571467 11.554458 -1.562354 0.594589 -0.010127 0.000180 995363.000000 1 0 0
0.058760 3.577912 -9.694233 10.333589 1.554375 2.787982 0.010674 -0.005241 -895504.000000 1 0 0
4.573960 -3.145588 11.084267 12.396645 -0.602434 0.464302 0.003394 0.000195 -2048170.000000 1 0 0
8.485960 -9.309788 1.063067 12.641747 -0.831659 1.486605 -0.004953 -0.000123 -2332760.000000 1 0 0
-0.232540 -0.464488 11.421167 11.432974 1.106639 0.045450 0.007650 -0.001444 -795426.000000 1 0 0
10.959360 5.967412 11.430767 16.922766 0.498614 0.829199 0.009864 0.001730 156363.000000 1 0 0
-6.275840 -2.885988 -11.942733 13.796520 0.431021 2.617211 0.012134 -0.004231 35746.200000 1 0 0
-1.664940 2.753312 8.352067 8.950407 -1.026925 0.367720 0.000217 -0.000065 193148.000000 1 0 0
-1.627640 13.585112 -6.829033 15.291834 -1.451554 2.033736 0.001258 -0.002222 637955.000000 1 0 0
7.665060 2.992612 9.803167 12.798866 0.372223 0.698294 -0.000703 0.004293 788780.000000 1 0 0
6.500860 8.510212 -8.092133 13.422649 0.918465 2.217892 0.003187 -0.000882 -96019.400000 1 0 0
6.585960 -2.997888 -3.957333 8.247586 -0.427165 2.071243 -0.001005 0.001320 -2622320.000000 1 0 0
2.041060 8.265612 0.984267 8.570592 1.328705 1.455700 -0.002880 0.000537 924678.000000 1 0 0
-17.563440 6.421112 6.422667 19.772601 -0.350500 1.239968 0.013740 0.006597 -833576.000000 1 0 0
-14.534440 3.035412 -9.957733 17.877923 -0.205884 2.161547 -0.000104 -0.009536 -1444120.000000 1 0 0
-18.367640 0.101612 -4.234833 18.849783 -0.005532 1.797393 0.015814 -0.009285 283718.000000 1 0 0
-13.061540 7.936712 0.197767 15.285102 -0.546018 1.557857 -0.000159 0.003517 -770741.000000 1 0 0
-12.827140 -4.311188 -12.931533 18.717543 0.324238 2.333499 0.008501 0.008494 -641600.000000 1 0 0
-17.472040 -0.787088 -8.655033 19.514130 0.045018 2.030326 -0.009015 -0.010291 977680.000000 1 0 0
-16.698340 -2.194788 -2.047733 16.965991 0.130688 1.691788 0.003172 -0.005493 -69776.200000 1 0 0
-15.342840 4.069812 1.818067 15.977218 -0.259287 1.456758 0.002905 0.003600 -432285.000000 1 0 0
-13.242040 5.876112 4.405867 15.142390 -0.417642 1.275564 -0.002433 0.004235 507551.000000 1 0 0
-9.909440 14.204412 2.854367 17.553055 -0.961662 1.407457 0.009351 -0.007001 -155669.000000 1 0 0
-11.909740 2.482612 -6.391633 13.742570 -0.205509 2.054541 0.000216 0.001550 14989.100000 1 0 0
-15.767440 10.597312 3.989367 19.412116 -0.591755 1.363812 0.016695 -0.009881 137975.000000 1 0 0
-12.966140 1.106012 -8.559533 15.575932 -0.085094 2.152605 0.000857 -0.006034 458061.000000 1 0 0
-12.173240 14.477412 4.077367 19.349630 -0.871642 1.358484 0.008336 -0.012524 -299511.000000 1 0 0
-10.157240 11.197512 -0.816433 15.140025 -0.834074 1.624748 -0.003226 0.000462 -154300.000000 1 0 0
-17.222140 5.648112 8.942467 20.210666 -0.316904 1.112453 0.019066 0.002160 256308.000000 1 0 0
-11.658940 12.575312 -9.221533 19.470645 -0.823193 2.064184 -0.001182 -0.006572 -87744.500000 1 0 0
-17.147640 -0.496088 3.042067 17.422452 0.028922 1.395291 0.001014 0.002963 368200.000000 1 0 0
-12.842940 14.832112 -0.905833 19.640601 -0.857151 1.616933 0.011527 -0.009556 379060.000000 1 0 0
-16.584740 4.491012 -10.284833 20.024999 -0.264450 2.110171 0.020148 -0.002325 598698.000000 1 0 0
-11.915940 7.696412 -8.993633 16.796125 -0.573482 2.135847 0.000130 0.004389 234250.000000 1 0 0
-14.661040 13.345912 -1.939633 19.920383 -0.738475 1.668320 0.023942 -0.013494 -204335.000000 1 0 0
-11.975940 10.537712 -5.394333 16.839399 -0.721602 1.896885 0.001719 -0.003467 618988.000000 1 0 0
-17.689440 2.951312 -0.948133 17.958995 -0.165318 1.623615 0.009826 -0.001507 -72710.800000 1 0 0
-9.362340 15.343912 0.704067 17.988462 -1.022935 1.531646 0.011331 -0.006083 39703.500000 1 0 0
-8.124140 13.301212 -3.650233 16.007751 -1.022487 1.800849 -0.001966 -0.004113 -245328.000000 1 0 0
-17.476640 11.564412 2.209367 21.072491 -0.584561 1.465757 0.029635 0.000015 -287504.000000 1 0 0
-7.865640 15.825312 -7.221233 19.090705 -1.109528 1.958711 0.014057 -0.016100 -30783.600000 1 0 0
-6.147040 15.332212 -5.277333 17.341081 -1.189494 1.880027 0.002054 -0.003100 1378290.000000 1 0 0
-17.344240 5.373912 -0.145833 18.158273 -0.300458 1.578828 0.017362 0.001396 629438.000000 1 0 0
-5.336140 12.317612 -12.233133 18.161704 -1.161990 2.309821 -0.018559 -0.001919 -1030270.000000 1 0 0
-11.339040 3.715112 -11.461033 16.544823 -0.316617 2.336059 0.010705 -0.004023 250128.000000 1 0 0
-11.630040 11.129212 1.355467 16.154086 -0.763396 1.486789 0.002820 -0.002671 171339.000000 1 0 0
-13.008340 0.087312 -11.072233 17.082707 -0.006712 2.275955 0.004968 -0.010190 352892.000000 1 0 0
-14.209740 -2.029688 -12.864433 19.275113 0.141878 2.301524 -0.005409 -0.003854 251708.000000 1 0 0
-18.796840 -2.365388 -3.527733 19.270733 0.125182 1.754896 0.006600 -0.000331 42301.700000 1 0 0
-18.320440 4.705212 -5.180733 19.611668 -0.251395 1.838135 0.021764 -0.007062 127749.000000 1 0 0
-8.126140 15.497112 -2.228233 17.639718 -1.087847 1.697454 0.007591 -0.002376 -4389.380000 1 0 0
-16.088540 9.090612 -5.318733 19.229386 -0.514314 1.851044 0.016225 -0.001944 -73608.000000 1 0 0
-18.189540 1.828012 2.195767 18.412561 -0.100162 1.451258 0.005883 -0.004387 -137866.000000 1 0 0
-15.728640 -2.757988 -8.563033 18.119662 0.173583 2.063015 -0.011293 -0.006893 -535689.000000 1 0 0
-9.757340 10.590812 -7.106533 16.058449 -0.826336 2.029227 -0.002236 -0.005693 507146.000000 1 0 0
-13.862040 12.196712 -7.551733 19.948549 -0.721578 1.959037 0.003909 -0.005714 1026070.000000 1 0 0
-11.031240 6.614012 -3.830333 13.420315 -0.540104 1.860234 -0.001694 0.001294 -329306.000000 1 0 0
-13.002940 5.207812 -12.744633 18.937355 -0.380946 2.309039 0.002322 0.000054 -437855.000000 1 0 0
-17.519640 9.126112 2.607867 19.925478 -0.480233 1.439539 0.023140 -0.008228 796529.000000 1 0 0
-13.404240 8.731712 -6.465733 17.254627 -0.577369 1.954896 -0.000831 0.002031 -1293680.000000 1 0 0
-15.849940 6.916512 -3.746133 17.694413 -0.411466 1.784123 0.016233 0.000473 -1068630.000000 1 0 0
-14.992140 -0.402688 -9.324033 17.659672 0.026853 2.127022 -0.002667 -0.009435 -92613.700000 1 0 0
-9.904340 5.872312 -6.021133 12.993615 -0.535185 2.052615 0.000039 0.001538 443659.000000 1 0 0
-12.598240 12.186412 -0.814833 17.546745 -0.768783 1.617251 0.015616 -0.008033 316532.000000 1 0 0
-10.652940 3.548312 -14.009533 17.953904 -0.321525 2.465951 -0.004262 0.001990 95481.400000 1 0 0
-10.831640 6.288812 -11.854133 17.245117 -0.526030 2.328687 -0.005651 0.000402 -1033920.000000 1 0 0
-5.682340 11.553912 -14.686833 19.531639 -1.113721 2.421813 -0.010965 -0.006261 -252821.000000 1 0 0
-15.440940 13.271912 3.614967 20.679320 -0.709999 1.395083 0.008262 -0.013446 -96195.000000 1 0 0
-15.071340 11.053412 -3.269633 18.974027 -0.632796 1.743982 0.024420 -0.000814 532233.000000 1 0 0
-18.131540 7.771112 -4.537333 20.241796 -0.404913 1.796874 0.021497 -0.006142 -640840.000000 1 0 0
-4.005640 16.215912 -10.600933 19.783345 -1.328625 2.136312 0.002679 -0.005084 -169639.000000 1 0 0
-15.767640 4.420312 -4.485433 16.978714 -0.273325 1.838150 0.005816 0.000957 -267551.000000 1 0 0
-18.647040 -1.735188 -6.050733 19.680812 0.092787 1.883301 -0.006571 -0.005175 228207.000000 1 0 0
-10.812840 8.543512 -5.793733 14.949129 -0.668691 1.968783 -0.001996 0.002390 143912.000000 1 0 0
-11.281340 13.768612 -6.754633 19.038602 -0.884366 1.933482 0.000455 -0.003086 497117.000000 1 0 0
-9.583840 10.565512 -4.467133 14.947753 -0.834079 1.874283 -0.009596 0.001112 -791755.000000 1 0 0
-11.042040 6.372112 -0.236133 12.750930 -0.523394 1.589316 -0.004194 0.004301 -402238.000000 1 0 0
-14.529740 9.423112 -1.346333 17.370118 -0.575348 1.648383 0.017748 -0.000095 -120291.000000 1 0 0
-18.628240 3.195112 4.879567 19.519996 -0.169867 1.318139 -0.002440 0.009518 32153.000000 1 0 0
-14.498540 13.404012 0.590967 19.754100 -0.746191 1.540876 0.011207 -0.000337 281249.000000 1 0 0
-16.756840 2.329312 -8.831733 19.084467 -0.138122 2.051915 0.001345 -0.011797 -252669.000000 1 0 0
-9.121340 8.562712 -8.859333 15.329927 -0.753819 2.186963 0.001226 0.001529 -2193030.000000 1 0 0
-17.599840 4.824612 -2.719733 18.450696 -0.267556 1.718741 0.004303 0.000531 588782.000000 1 0 0
-13.574140 5.805812 -4.381433 15.400055 -0.404165 1.859289 0.001182 0.006757 -950130.000000 1 0 0
-11.891140 9.706112 3.409367 15.723600 -0.684570 1.352229 -0.003128 0.001734 1129550.000000 1 0 0
-17.477940 2.555612 -3.995433 18.110026 -0.145190 1.793246 0.005346 -0.005021 1036250.000000 1 0 0
-11.357740 1.491012 -12.604433 17.032120 -0.130531 2.403925 0.004835 -0.004740 11592.300000 1 0 0
-11.092640 12.033612 3.686867 16.776396 -0.826064 1.349223 0.003625 -0.007288 -433248.000000 1 0 0
-15.836140 13.376312 -4.188833 21.148413 -0.701392 1.770183 0.000058 0.003116 8530.710000 1 0 0
-11.103940 4.133012 -4.568033 12.698275 -0.356324 1.938782 -0.003704 0.000304 -704805.000000 1 0 0
-11.191340 15.168812 -9.001233 20.889259 -0.935158 2.016289 0.009888 -0.013918 -182022.000000 1 0 0
-15.559340 7.363812 -0.280833 17.216203 -0.442038 1.587109 0.021073 0.005149 -678029.000000 1 0 0
-12.902740 8.305412 -4.057933 15.872221 -0.571929 1.829329 0.000412 0.002709 765643.000000 1 0 0
-19.404740 2.031812 -5.663033 20.316056 -0.104327 1.853285 0.027786 -0.015726 209158.000000 1 0 0
-12.582240 10.232812 -8.762133 18.433616 -0.682783 2.066140 -0.003583 0.000152 634850.000000 1 0 0
-16.475840 11.072112 -1.016733 19.876587 -0.591700 1.621971 0.018630 -0.002841 356663.000000 1 0 0
-10.582840 6.545512 -14.504533 19.110775 -0.553913 2.432528 -0.009391 -0.003634 -431171.000000 1 0 0
-13.282640 12.858712 -4.005033 18.916006 -0.769183 1.784138 0.003536 -0.009629 389391.000000 1 0 0
-18.096940 7.850012 -0.072333 19.726306 -0.409280 1.574463 0.041831 -0.003743 319784.000000 1 0 0
-12.818340 6.698312 -2.028233 14.604484 -0.481530 1.710124 -0.001801 0.005998 497403.000000 1 0 0
-13.801040 8.638512 -10.542033 19.396573 -0.559269 2.145397 0.000836 0.004493 -610639.000000 1 0 0
-15.011040 1.457612 -0.975033 15.113128 -0.096799 1.635357 0.000608 0.000867 -663781.000000 1 0 0
-13.315040 2.902512 -2.384933 13.834839 -0.214630 1.744048 0.000629 -0.000838 561650.000000 1 0 0
-11.269440 9.304712 -10.799333 18.171503 -0.690192 2.207192 -0.002929 -0.001890 -679654.000000 1 0 0
-15.386340 4.274512 -7.870833 17.803396 -0.270979 2.028732 0.005408 -0.001993 717663.000000 1 0 0
-18.394040 10.628812 4.520267 21.719696 -0.523966 1.361146 0.037704 -0.007260 639423.000000 1 0 0
-15.272840 6.313612 -6.232433 17.662519 -0.391994 1.931424 0.007387 0.006778 752507.000000 1 0 0
-7.623640 11.327312 -13.019833 18.866477 -0.978400 2.332429 -0.015779 0.002918 -1339180.000000 1 0 0
-16.755840 9.179112 -2.775733 19.305931 -0.501165 1.715073 0.023327 -0.006152 422989.000000 1 0 0
-20.645640 -0.971588 -4.675033 21.190620 0.047025 1.793244 0.012489 -0.008012 -1803800.000000 1 0 0
-15.335340 4.215412 4.337167 16.484944 -0.268257 1.304564 0.005013 0.009686 -331893.000000 1 0 0
-6.888740 12.607312 -9.469333 17.206607 -1.070715 2.153557 0.000486 -0.008904 -1442490.000000 1 0 0
-16.979740 1.494712 5.935467 18.049252 -0.087803 1.235712 -0.013467 0.007759 678616.000000 1 0 0
-10.393340 14.413512 -2.989833 18.019710 -0.946060 1.737487 0.014109 -0.009153 2236650.000000 1 0 0
-9.866840 8.470412 -12.911233 18.324911 -0.709392 2.352617 -0.014697 -0.002796 653003.000000 1 0 0
-13.599640 11.649712 2.917667 18.143285 -0.708324 1.409283 0.010520 -0.007103 -864688.000000 1 0 0
-16.733140 6.769112 1.959767 18.156529 -0.384408 1.462648 0.014873 0.002744 882436.000000 1 0 0
-9.302540 13.453112 -8.448833 18.409407 -0.965812 2.047599 0.005263 -0.014582 -1491070.000000 1 0 0
-5.574140 9.708812 -12.817533 17.018261 -1.049615 2.423654 -0.007555 -0.000620 -392368.000000 1 0 0
-15.814640 1.754012 3.197367 16.229681 -0.110459 1.372492 -0.002922 0.008638 -1098170.000000 1 0 0
-18.520340 -5.113388 4.516967 19.737090 0.269385 1.339893 -0.003805 0.005494 -935080.000000 1 0 0
-5.342640 14.498212 -9.127433 17.945807 -1.217733 2.104367 0.005387 -0.008389 -431606.000000 1 0 0
-15.501640 -0.774588 -6.778033 16.936427 0.049927 1.982536 -0.002389 -0.008855 775361.000000 1 0 0
-8.914740 11.099412 -9.537933 17.135977 -0.894124 2.161087 -0.004278 -0.008633 168836.000000 1 0 0
-16.824240 1.282912 -6.014533 17.912999 -0.076107 1.913212 0.001226 -0.011995 -59721.200000 1 0 0
-11.208640 8.766512 -1.426633 14.301071 -0.663744 1.670720 -0.008076 0.000709 -1089450.000000 1 0 0
-10.637540 10.987212 -12.623333 19.829892 -0.801567 2.260853 -0.000889 -0.000178 -184034.000000 1 0 0
-13.999040 11.889712 -10.191433 21.004849 -0.704101 2.077382 0.006027 0.000266 331255.000000 1 0 0
-13.150540 5.724412 -7.757833 16.306121 -0.410561 2.066627 0.000296 0.006100 1327740.000000 1 0 0
-8.778040 15.473012 -4.843733 18.437186 -1.054758 1.836632 0.003508 -0.007877 -447318.000000 1 0 0
-8.536940 6.154012 -12.980133 16.710328 -0.624595 2.460322 -0.009408 -0.002621 -62083.200000 1 0 0
-16.311540 7.572812 4.324567 18.496370 -0.434650 1.334806 0.016600 0.006653 447876.000000 1 0 0
-12.729040 5.511512 -10.236133 17.239015 -0.408616 2.206541 0.002317 0.001049 804644.000000 1 0 0
-12.386740 9.205112 -13.167633 20.286744 -0.639098 2.277165 0.007525 -0.002798 -1049830.000000 1 0 0
-10.757240 5.345612 -8.501533 14.716312 -0.461190 2.186698 -0.002828 0.003711 -781461.000000 1 0 0
-17.696140 -4.469988 -2.603133 18.436661 0.247421 1.712463 -0.003774 0.002558 367685.000000 1 0 0
-8.919440 13.220412 -10.977133 19.360608 -0.977272 2.173635 0.002404 -0.011588 138383.000000 1 0 0
-15.047640 6.216712 6.106767 17.388835 -0.391778 1.211956 0.004527 0.003564 -1794840.000000 1 0 0
-16.483840 -3.148388 -4.516833 17.379042 0.188725 1.833716 -0.003267 -0.002799 787075.000000 1 0 0
-11.182540 -1.065688 -12.615333 16.891759 0.095012 2.414084 0.003161 -0.000985 661265.000000 1 0 0
-15.344040 6.762812 -8.677033 18.880310 -0.415131 2.048320 0.005781 0.003875 -188855.000000 1 0 0
-14.875940 9.479712 1.226867 17.682300 -0.567361 1.501357 0.016578 -0.003533 -311867.000000 1 0 0
-19.507440 5.377212 7.756867 21.670801 -0.268970 1.204735 0.014588 0.005697 457102.000000 1 0 0
-16.329640 0.575412 0.911567 16.365183 -0.035223 1.515066 0.005876 -0.002692 -1129590.000000 1 0 0
-17.433640 3.899312 7.037667 19.200656 -0.220044 1.195517 -0.004532 0.012627 160356.000000 1 0 0
-15.394140 4.147012 -1.369733 16.001670 -0.263142 1.656501 0.006001 0.000764 -103610.000000 1 0 0
-10.671440 13.318612 0.528967 17.074685 -0.895298 1.539812 0.007391 -0.008059 -1587650.000000 1 0 0
-13.476240 3.399012 0.096667 13.898621 -0.247069 1.563841 0.001609 0.003339 -419188.000000 1 0 0
-15.115340 0.205712 -4.292933 15.714487 -0.013609 1.847497 -0.001059 -0.004866 -46816.000000 1 0 0
-18.831240 7.074012 3.431167 20.406620 -0.359343 1.401854 0.020479 0.006934 427165.000000 1 0 0
-14.166340 1.387112 -6.275833 15.556200 -0.097605 1.986058 -0.004851 -0.007086 -540238.000000 1 0 0
-14.206940 12.064912 5.445267 19.417780 -0.704045 1.286558 0.014367 -0.016985 57455.300000 1 0 0
17.731560 5.478312 6.346367 19.613681 0.299655 1.241298 0.032721 -0.003576 867954.000000 1 0 0
18.541860 7.703112 -0.326733 20.080968 0.393749 1.587068 0.011703 0.013769 957566.000000 1 0 0
16.475360 5.255712 8.604967 19.315938 0.308800 1.109080 0.032439 -0.000594 436368.000000 1 0 0
11.397860 12.339812 10.939767 20.046463 0.825059 0.993548 0.005142 -0.004359 492380.000000 1 0 0
-2.184840 16.398812 -0.529133 16.552177 -1.438345 1.602769 -0.007829 0.002999 -96362.900000 1 0 0
14.838860 12.808812 3.430867 19.900459 0.712104 1.397529 0.023230 -0.000861 384052.000000 1 0 0
13.497360 11.759312 6.900467 19.185322 0.716691 1.202878 0.017475 0.001500 752091.000000 1 0 0
-0.598840 15.893712 8.624367 18.092772 -1.533136 1.073928 0.000475 0.003853 -524491.000000 1 0 0
0.643260 12.975212 9.419867 16.046925 1.521261 0.943423 -0.006839 0.003091 -1711550.000000 1 0 0
0.821160 15.451112 -3.918533 15.961393 1.517701 1.818832 -0.003779 -0.000655 -970439.000000 1 0 0
5.314760 10.245512 13.576167 17.819358 1.092269 0.704590 -0.006539 -0.003881 288237.000000 1 0 0
-1.271340 16.519112 -2.854033 16.811986 -1.493986 1.741384 -0.000006 0.001282 -1191630.000000 1 0 0
8.652860 10.085012 3.422867 13.722080 0.861681 1.318692 -0.002714 0.001087 369790.000000 1 0 0
12.677060 13.578412 -4.963033 19.227918 0.819715 1.831868 0.048958 -0.013087 751303.000000 1 0 0
2.347860 11.660812 7.796367 14.222177 1.372107 0.990605 -0.005645 0.004789 66366.100000 1 0 0
-0.317840 14.975012 -8.630333 17.286835 -1.549575 2.093521 0.001187 -0.001745 -2053330.000000 1 0 0
2.379960 15.877012 0.270467 16.056677 1.422004 1.553951 0.000209 -0.005139 -1042870.000000 1 0 0
1.755060 13.449912 5.257367 14.547174 1.441041 1.201026 0.000126 0.002689 1474720.000000 1 0 0
17.565660 9.140812 -2.224133 19.926204 0.479818 1.682648 0.003764 0.012102 469766.000000 1 0 0
-7.167040 14.928312 7.299967 18.097251 -1.123197 1.155595 0.004131 -0.013026 -755999.000000 1 0 0
8.464560 15.765612 -0.100933 17.894510 1.078066 1.576437 0.000890 -0.007405 473775.000000 1 0 0
15.591560 10.583312 2.309267 18.985151 0.596345 1.448859 0.015043 0.005924 -1035700.000000 1 0 0
14.072560 7.378912 8.816167 18.171684 0.482935 1.064251 0.021836 -0.000812 -1199640.000000 1 0 0
4.255160 18.202912 -1.717933 18.772418 1.341157 1.662438 0.005349 -0.013631 -192295.000000 1 0 0
-0.371040 17.571812 -4.854933 18.233942 -1.549684 1.840305 0.002767 0.000382 187917.000000 1 0 0
1.343860 13.671712 -0.760233 13.758620 1.472816 1.626079 0.000380 -0.006416 -435665.000000 1 0 0
10.279760 14.765212 4.290367 18.495735 0.962615 1.336699 0.007660 -0.005388 333972.000000 1 0 0
-1.706140 15.346512 -5.071133 16.252469 -1.460077 1.888117 0.004109 -0.003262 914160.000000 1 0 0
15.166060 8.758312 -6.181533 18.572258 0.523707 1.910107 0.021804 0.001521 346286.000000 1 0 0
-2.364240 18.450212 0.958767 18.625767 -1.443349 1.519298 -0.010933 0.000016 -1485960.000000 1 0 0
-3.838640 19.279312 3.601167 19.984880 -1.374260 1.389612 -0.002234 -0.007146 -331175.000000 1 0 0
1.851560 17.605512 -2.743533 17.913942 1.466012 1.724552 -0.011613 -0.000357 -587398.000000 1 0 0
2.906560 12.263912 3.331867 13.036601 1.338089 1.312351 -0.001335 0.000134 145181.000000 1 0 0
-2.491140 16.038212 1.876467 16.338640 -1.416702 1.455694 -0.011369 -0.000263 -1503380.000000 1 0 0
11.873060 12.771312 -2.677833 17.642187 0.821831 1.723171 0.021464 -0.002580 668057.000000 1 0 0
7.026960 11.629812 4.713367 14.382160 1.027280 1.236904 -0.004944 0.000282 361067.000000 1 0 0
7.076060 15.740912 2.010967 17.375009 1.148331 1.454797 0.002773 -0.006489 -2042590.000000 1 0 0
5.441960 12.156212 10.179467 16.763352 1.149883 0.918207 -0.012186 0.006699 13642.100000 1 0 0
-1.231940 14.125612 3.226167 14.541621 -1.483803 1.347077 -0.009860 0.002948 -134424.000000 1 0 0
4.616160 16.002912 1.568367 16.729074 1.289962 1.476907 -0.000219 -0.008225 -1472520.000000 1 0 0
7.203060 13.024712 11.933367 19.077014 1.065630 0.894977 -0.008913 0.002961 167981.000000 1 0 0
0.670860 17.154012 -9.435633 19.589317 1.531708 2.073358 -0.001945 -0.004037 311822.000000 1 0 0
9.704560 9.634012 15.487767 20.660678 0.781750 0.723301 0.012083 -0.004592 -112561.000000 1 0 0
13.424560 7.473212 -0.148533 15.365213 0.507959 1.580463 -0.000247 0.002230 591193.000000 1 0 0
12.384060 13.508312 -0.111233 18.326260 0.828791 1.576866 0.022249 -0.005521 608653.000000 1 0 0
9.326660 12.420312 3.559367 15.934862 0.926707 1.345526 -0.000548 0.001532 1147370.000000 1 0 0
-0.541640 12.749212 0.850967 12.789055 -1.528338 1.504208 -0.000592 -0.001341 -1629250.000000 1 0 0
15.965160 7.534712 -0.815233 17.672658 0.440955 1.616942 0.006682 0.007649 -1876000.000000 1 0 0
-4.031940 18.477412 -2.279033 19.049023 -1.355955 1.690724 0.000514 0.001586 22404.700000 1 0 0
11.520560 9.269712 -3.234133 15.136396 0.677554 1.786122 0.014601 -0.000952 694888.000000 1 0 0
14.623460 9.686312 7.903367 19.238852 0.585030 1.147462 0.015671 -0.001027 360496.000000 1 0 0
4.398660 13.847712 4.766867 15.291513 1.263231 1.253780 0.000122 0.001205 -401961.000000 1 0 0
2.158060 15.981912 5.613467 17.075999 1.436577 1.235833 0.000835 0.003395 160832.000000 1 0 0
6.104860 18.418212 5.540467 20.179114 1.250735 1.292660 0.020146 -0.018962 -560270.000000 1 0 0
10.640260 16.946312 -0.964533 20.033047 1.010128 1.618962 0.024932 -0.009544 -1531880.000000 1 0 0
10.015760 13.596212 -4.446333 17.462597 0.935889 1.828251 0.022215 -0.004529 1609320.000000 1 0 0
16.545360 8.023012 2.493867 18.556321 0.451503 1.435994 0.006298 0.005275 283241.000000 1 0 0
3.974960 13.987512 -0.395633 14.546729 1.293916 1.597997 -0.002846 -0.006455 253172.000000 1 0 0
5.570960 13.190612 -2.323633 14.506106 1.171179 1.731672 -0.004013 -0.003572 -240371.000000 1 0 0
-5.980240 16.946212 -2.767733 18.182347 -1.231544 1.723611 0.001685 0.001301 -1530770.000000 1 0 0
18.033260 10.195112 3.008967 20.933052 0.514552 1.426554 0.023532 0.005932 739945.000000 1 0 0
7.921360 12.902412 9.407667 17.824825 1.020187 1.014806 -0.000024 -0.000290 69864.100000 1 0 0
-2.630340 15.749912 6.827367 17.366386 -1.405317 1.166756 -0.000460 0.001401 878775.000000 1 0 0
11.238160 16.017812 6.460867 20.606051 0.958995 1.251875 0.017098 -0.004870 -254837.000000 1 0 0
13.485160 11.815312 1.384767 17.982456 0.719493 1.493713 0.025048 -0.002837 1317130.000000 1 0 0
17.604060 7.819312 -5.454833 20.019984 0.418001 1.846755 0.002079 0.009458 613705.000000 1 0 0
9.385060 9.191012 8.056667 15.409865 0.774952 1.020634 -0.004264 -0.000022 -716041.000000 1 0 0
-1.932040 14.114212 -1.847633 14.365149 -1.434756 1.699773 -0.004571 0.000772 571104.000000 1 0 0
10.812660 11.624412 0.738567 15.892956 0.821561 1.524308 0.009094 0.001742 82713.600000 1 0 0
11.673460 9.762912 -0.598033 15.229634 0.696507 1.610074 0.008930 0.002792 -1400970.000000 1 0 0
-0.347640 16.115512 11.178767 19.616203 -1.549228 0.964444 0.007123 -0.001107 -975692.000000 1 0 0
2.310760 19.983912 -1.723933 20.190798 1.455677 1.656283 0.011495 -0.008701 -638025.000000 1 0 0
9.221060 14.277112 1.838467 17.095141 0.997335 1.463045 0.001170 -0.004758 -264611.000000 1 0 0
8.504560 11.662412 -5.246633 15.357948 0.940722 1.919440 0.010637 -0.003067 -1029440.000000 1 0 0
10.439860 9.972012 10.303267 17.736657 0.762482 0.950959 -0.006153 -0.002239 671395.000000 1 0 0
-5.042340 15.662212 5.800267 17.446294 -1.259332 1.231881 -0.014535 -0.003855 -156792.000000 1 0 0
14.359260 9.237212 -1.791633 17.167539 0.571646 1.675348 0.021950 0.007000 -110657.000000 1 0 0
12.105760 9.546012 6.988167 16.926614 0.667721 1.145214 0.004400 -0.000268 -666353.000000 1 0 0
3.127760 12.983212 9.750867 16.535601 1.334393 0.940122 -0.014919 0.005502 -831051.000000 1 0 0
8.411260 12.588212 -2.731733 15.384237 0.981743 1.749310 0.004811 -0.003915 -964612.000000 1 0 0
9.373960 16.910912 2.109267 19.449912 1.064647 1.462137 0.010841 -0.009864 82833.100000 1 0 0
9.474060 14.257812 -7.575833 18.719943 0.984308 1.987440 0.028565 -0.011132 -742978.000000 1 0 0
6.270860 11.440412 7.262267 14.931418 1.069388 1.062860 -0.009324 0.001659 -836057.000000 1 0 0
5.448960 16.962712 -5.638733 18.687431 1.259977 1.877313 -0.008167 0.005084 -2532020.000000 1 0 0
-4.065040 17.229512 -4.589433 18.287797 -1.339099 1.824464 0.005432 -0.002348 52764.800000 1 0 0
-0.196340 18.690112 -0.451733 18.696602 -1.560292 1.594960 -0.005260 0.006053 103578.000000 1 0 0
6.423960 15.652212 -2.779833 17.146034 1.181341 1.733642 -0.006835 0.001181 801299.000000 1 0 0
-1.050640 20.773212 1.067167 20.827123 -1.520263 1.519535 -0.002885 0.003470 -176894.000000 1 0 0
-1.379640 18.809312 4.329767 19.350466 -1.497579 1.345131 -0.001765 -0.002916 19753.700000 1 0 0
7.217060 13.748012 -4.373633 16.131412 1.087386 1.845358 -0.000990 -0.001030 576632.000000 1 0 0
-0.909840 12.003612 7.640467 14.258024 -1.495144 1.005257 -0.002238 0.007245 352222.000000 1 0 0
7.506260 10.758412 10.826367 17.008751 0.961608 0.880822 -0.009173 -0.002032 -12671.500000 1 0 0
1.438660 15.998412 -7.156533 17.585076 1.481112 1.989927 -0.010315 -0.003484 -395948.000000 1 0 0
8.939960 7.277512 14.648667 18.640507 0.683245 0.666725 0.003306 -0.004125 -470872.000000 1 0 0
11.375060 11.377512 -4.894033 16.816401 0.785506 1.866097 0.028742 -0.004461 -274737.000000 1 0 0
-3.267440 16.972212 4.585967 17.881925 -1.380606 1.311440 -0.012482 -0.001691 -338335.000000 1 0 0
3.991060 15.240712 -6.778833 17.151106 1.314679 1.977127 -0.008493 -0.004449 -685501.000000 1 0 0
-4.408040 14.133012 9.318867 17.493260 -1.268461 1.008995 0.010182 -0.010971 -8032.540000 1 0 0
6.212660 17.798912 0.490467 18.858393 1.234971 1.544785 0.002024 -0.007909 -283809.000000 1 0 0
9.829060 10.831412 -2.143133 14.782521 0.833876 1.716287 0.012012 -0.000356 -2188350.000000 1 0 0
7.533860 17.995912 -2.451633 19.662716 1.174323 1.695806 0.002683 0.002329 3681.530000 1 0 0
3.582360 10.355712 10.368267 15.085591 1.237751 0.813036 -0.010766 0.004803 771332.000000 1 0 0
-0.073640 18.549412 2.059467 18.663535 -1.566826 1.460224 -0.002200 -0.003189 271650.000000 1 0 0
-0.935040 17.194712 -7.366333 18.729530 -1.516470 1.975015 0.004645 0.001314 -74912.200000 1 0 0
10.178560 8.894412 13.070767 18.803154 0.718171 0.802186 0.011071 -0.000412 -310421.000000 1 0 0
3.682760 11.559912 5.570567 13.350113 1.262382 1.140360 -0.005354 0.001966 678577.000000 1 0 0
12.820760 13.913612 8.250267 20.640431 0.826254 1.159592 0.013121 -0.010698 -411314.000000 1 0 0
-0.615240 17.387912 6.711067 18.648229 -1.535428 1.202660 0.002090 -0.001345 -606271.000000 1 0 0
12.039660 13.630912 5.802167 19.089796 0.847306 1.261970 0.015227 -0.005386 73817.500000 1 0 0
4.817860 14.576612 -4.413633 15.974027 1.251580 1.850739 -0.006865 -0.000998 -1910240.000000 1 0 0
3.782860 17.684512 4.616567 18.664530 1.360064 1.320858 0.009644 -0.004772 -1049000.000000 1 0 0
7.210660 11.734612 2.043267 13.923709 1.019799 1.423517 -0.000564 -0.000459 617790.000000 1 0 0
6.359360 8.632812 11.790367 15.936739 0.935894 0.737989 -0.007176 -0.000760 248383.000000 1 0 0
-5.410440 14.927312 1.873167 15.987691 -1.223071 1.453364 -0.004681 0.005025 196815.000000 1 0 0
6.713560 13.826912 5.991867 16.497208 1.118781 1.199091 -0.004065 0.000904 -1304020.000000 1 0 0
5.830960 15.940112 5.024567 17.701230 1.220112 1.282985 0.002676 -0.009136 674977.000000 1 0 0
1.236660 18.103612 4.294067 18.646960 1.502592 1.338428 0.011954 0.001041 1339130.000000 1 0 0
7.250260 18.157712 -7.021733 20.774348 1.190899 1.915588 -0.002683 0.003750 411010.000000 1 0 0
-2.358740 18.788012 -5.825633 19.811387 -1.445905 1.869263 0.015207 -0.001698 -348105.000000 1 0 0
13.571060 9.917912 -4.555833 17.415346 0.631108 1.835475 0.026604 -0.001340 -1559080.000000 1 0 0
-1.407540 18.055112 9.876667 20.628059 -1.492996 1.071512 0.008396 -0.006997 -419931.000000 1 0 0
3.494460 11.720912 -1.522233 12.325106 1.281048 1.694619 0.000289 -0.005277 639317.000000 1 0 0
4.074660 14.056012 -10.961633 18.284740 1.288643 2.213668 -0.001286 -0.009754 315083.000000 1 0 0
11.549160 13.458312 2.382167 17.893686 0.861594 1.437271 0.017957 -0.002715 364755.000000 1 0 0
16.006160 6.574912 -7.120233 18.711610 0.389760 1.961160 0.007899 0.004489 296281.000000 1 0 0
2.453860 16.093012 2.965567 16.546935 1.419482 1.390601 0.004053 -0.003036 -181330.000000 1 0 0
13.375060 10.765812 3.632767 17.549699 0.677732 1.362290 0.009038 0.003477 -898362.000000 1 0 0
-4.932140 19.352112 -5.764833 20.786138 -1.321246 1.851821 0.007517 -0.004364 -437585.000000 1 0 0
5.466960 11.982112 0.122167 13.170937 1.142749 1.561521 -0.000806 -0.003945 466493.000000 1 0 0
5.302060 15.226112 9.796667 18.865869 1.235707 1.024788 0.003846 0.000868 50960.600000 1 0 0
7.778960 9.542312 13.795367 18.490000 0.886851 0.728613 0.000523 -0.005089 -1617020.000000 1 0 0
-4.962640 13.451112 6.930467 15.924559 -1.217350 1.120529 -0.004269 -0.003403 -977297.000000 1 0 0
-4.486040 17.041612 0.548167 17.630700 -1.313395 1.539700 -0.005625 -0.000733 -2342860.000000 1 0 0
-0.601640 16.503012 3.556567 16.892618 -1.534356 1.358669 -0.003711 -0.000312 -1733870.000000 1 0 0
7.783460 16.927712 -4.702233 19.215636 1.139818 1.818016 -0.005417 0.002255 581417.000000 1 0 0
3.133860 16.440312 -4.605233 17.358373 1.382436 1.839315 -0.010712 0.001069 233889.000000 1 0 0
9.491060 14.415112 8.142867 19.083552 0.988531 1.129960 0.006838 -0.006570 -16873.600000 1 0 0
12.701960 10.827012 9.231367 19.073073 0.705879 1.065576 0.013335 -0.005345 1904960.000000 1 0 0
3.657660 12.314112 12.085967 17.637643 1.282067 0.815867 -0.014062 0.001649 566287.000000 1 0 0
-3.293840 19.092112 6.124767 20.319225 -1.399954 1.264607 -0.002562 -0.011267 42738.600000 1 0 0
-2.668340 15.798612 10.180967 18.983369 -1.403478 1.004737 0.009414 -0.008376 -1064340.000000 1 0 0
2.127660 14.351712 7.694867 16.422837 1.423617 1.083151 -0.002437 0.003388 -225503.000000 1 0 0
4.725660 17.234412 8.087667 19.615483 1.303175 1.145808 0.019951 -0.003433 -92920.000000 1 0 0
-1.910640 13.455212 9.254067 16.441747 -1.429739 0.972979 0.005427 -0.001242 -1611920.000000 1 0 0
5.921760 17.745312 3.129767 18.967308 1.248708 1.405030 0.009630 -0.011527 629689.000000 1 0 0
7.265160 15.523512 -6.904833 18.478060 1.133067 1.953767 0.000475 0.001949 -258385.000000 1 0 0
10.887160 7.590912 9.492367 16.317391 0.608868 0.949938 -0.001446 -0.002080 266525.000000 1 0 0
9.056660 15.978712 -2.670033 18.559941 1.055150 1.715157 0.004893 -0.012760 -376446.000000 1 0 0
14.601960 11.232712 -6.497733 19.534881 0.655714 1.909879 0.044517 -0.006040 317394.000000 1 0 0
11.192660 6.705712 15.876767 20.550279 0.539770 0.687899 0.037275 -0.010818 -173921.000000 1 0 0
8.354460 8.347012 10.228467 15.623417 0.784952 0.857026 -0.005622 -0.002708 398990.000000 1 0 0
16.262660 9.469112 4.694867 19.395360 0.527274 1.326306 0.015979 0.003234 123975.000000 1 0 0
-3.321540 14.234012 4.651567 15.338736 -1.341546 1.262688 -0.010369 0.001842 -1229830.000000 1 0 0
4.679860 14.598112 12.775067 19.955158 1.260568 0.876052 -0.014954 0.004249 -1437710.000000 1 0 0
16.054260 10.578112 -4.476933 19.740280 0.582605 1.799579 0.032910 -0.007006 -261574.000000 1 0 0
14.667560 14.012812 6.463567 21.290231 0.762573 1.262335 0.027820 0.001838 429271.000000 1 0 0
6.080560 9.432912 9.198667 14.510979 0.998219 0.884197 -0.010664 0.002489 598764.000000 1 0 0
10.367460 12.025412 8.601767 18.057828 0.859303 1.074303 0.002901 -0.005123 -337916.000000 1 0 0
7.960060 11.425912 -0.403533 13.931147 0.962311 1.599767 0.000300 -0.002379 346761.000000 1 0 0
7.411660 13.578712 -8.786833 17.791081 1.071161 2.087354 0.017676 -0.003946 -1432240.000000 1 0 0
2.775160 15.228412 -2.255033 15.642609 1.390539 1.715460 -0.005753 -0.003220 370927.000000 1 0 0
12.056060 13.804312 -7.796233 19.917050 0.852899 1.972987 0.024476 -0.011306 1089840.000000 1 0 0
-8.127140 14.697312 9.693567 19.391406 -1.065677 1.047325 0.019408 -0.023219 293990.000000 1 0 0
11.416460 9.695112 2.285167 15.150998 0.704042 1.419392 0.009957 0.002110 -2343310.000000 1 0 0
12.089060 8.582312 4.507867 15.495881 0.617355 1.275621 -0.000242 0.003882 455479.000000 1 0 0
14.039460 7.947412 6.207067 17.285702 0.515102 1.203507 0.009398 -0.000746 -3025300.000000 1 0 0
16.201060 7.419712 7.273667 19.246628 0.429468 1.183249 0.035589 -0.000966 -157509.000000 1 0 0
13.501360 8.470512 2.285367 16.101528 0.560310 1.428381 -0.002698 0.003020 -1683970.000000 1 0 0
-4.081340 17.369512 -7.182733 19.234057 -1.340011 1.953509 0.007828 -0.008812 -11249.800000 1 0 0
3.496060 19.354312 -3.901433 20.050761 1.392089 1.766623 -0.000283 -0.001796 938139.000000 1 0 0
-0.078240 14.854412 6.315367 16.141361 -1.565529 1.168803 0.003211 0.005588 196515.000000 1 0 0
7.016560 16.203012 8.077967 19.417087 1.162135 1.141728 0.015615 -0.000730 -1277280.000000 1 0 0
12.832060 15.138912 -2.082833 19.954614 0.867685 1.675365 0.040318 -0.010102 125325.000000 1 0 0
12.724060 15.790412 4.383567 20.747397 0.892523 1.357909 0.032939 -0.007674 360118.000000 1 0 0
3.009960 18.045712 1.381567 18.347107 1.405521 1.495423 0.012679 -0.007495 -627612.000000 1 0 0
10.384560 14.333312 -1.217733 17.741640 0.943813 1.639487 0.013027 -0.000877 -571917.000000 1 0 0
-6.386940 15.762012 -0.451733 17.012880 -1.185806 1.597352 -0.004967 0.000301 -163975.000000 1 0 0
-3.737040 15.796012 -2.446233 16.415344 -1.338486 1.720375 -0.000961 -0.001819 -2186880.000000 1 0 0
-6.787140 17.082212 1.744167 18.463731 -1.192601 1.476191 -0.009273 0.001289 140225.000000 1 0 0
0.150760 19.410012 -6.581033 20.495885 1.563029 1.897677 -0.001459 -0.000918 406418.000000 1 0 0
4.841260 14.887512 7.125667 17.200318 1.256393 1.143650 0.004737 0.001257 -440118.000000 1 0 0
8.602960 12.350512 6.847867 16.536002 0.962378 1.143822 -0.004691 -0.001204 -688975.000000 1 0 0
-7.542240 17.654312 -5.412133 19.946210 -1.167049 1.845578 0.020454 -0.005576 231693.000000 1 0 0
-7.858440 17.851012 -1.235833 19.543311 -1.156102 1.634074 0.015436 0.002248 283567.000000 1 0 0
-13.771640 -9.059888 8.990867 18.776989 0.581885 1.071482 0.006779 -0.012555 548814.000000 1 0 0
-12.539940 -12.904088 7.578167 19.524195 0.799709 1.172181 0.009873 -0.005484 36115.700000 1 0 0
-3.862840 -14.810888 12.571067 19.806960 1.315669 0.883203 0.001332 -0.014146 -7029.130000 1 0 0
-1.862240 -14.306488 15.039467 20.840564 1.441357 0.764622 0.007147 -0.004033 -420222.000000 1 0 0
-7.046340 -13.801588 12.600467 19.972644 1.098748 0.888101 0.014426 -0.011081 -107003.000000 1 0 0
-9.901840 -11.480988 8.880067 17.570291 0.859116 1.040948 -0.000932 -0.006492 446920.000000 1 0 0
-10.839340 -10.670688 11.216867 18.899021 0.777558 0.935376 0.013606 -0.005739 310047.000000 1 0 0
-5.952240 -12.144088 10.836567 17.330298 1.115072 0.895285 0.010788 -0.008951 451720.000000 1 0 0
-12.433840 -10.319788 7.130667 17.661959 0.692754 1.155206 0.005118 -0.005508 -695874.000000 1 0 0
-7.843140 -11.379388 12.578367 18.687446 0.967328 0.832415 0.017148 -0.002515 101710.000000 1 0 0
-14.781840 -11.561888 7.144367 20.080389 0.663773 1.207039 0.011998 -0.006357 234305.000000 1 0 0
-11.128440 -9.215688 9.124267 17.088690 0.691654 1.007547 0.001149 -0.002903 -1301480.000000 1 0 0
-5.474840 -11.834688 13.372667 18.677846 1.137506 0.772792 0.021315 -0.010542 -1081470.000000 1 0 0
4.037960 -12.601488 14.503267 19.632814 -1.260699 0.739618 -0.011219 -0.000733 -460029.000000 1 0 0
6.661660 -12.577188 14.299067 20.174902 -1.083702 0.783064 0.012788 -0.007083 25155.300000 1 0 0
6.490260 -8.800588 16.322067 19.646468 -0.935356 0.590273 -0.002641 0.007997 157726.000000 1 0 0
0.675160 -1.702788 14.537267 14.652217 -1.193308 0.125344 0.007329 -0.003182 -1755230.000000 1 0 0
-0.095940 -6.366888 15.575767 16.827091 1.555729 0.388083 0.001020 -0.002772 370506.000000 1 0 0
-1.468040 -4.679388 18.277467 18.923996 1.266796 0.262148 0.009871 -0.012306 -887764.000000 1 0 0
-5.088640 12.770312 12.981567 18.907570 -1.191606 0.814021 0.012527 -0.005007 459734.000000 1 0 0
-4.007740 8.726412 11.528967 15.004311 -1.140264 0.694495 -0.003320 -0.001829 -664958.000000 1 0 0
-0.559240 -3.934388 15.084767 15.599435 1.429601 0.257588 0.006694 -0.004230 -487344.000000 1 0 0
-4.445840 9.335412 14.068867 17.459910 -1.126342 0.633803 0.004933 -0.004255 412671.000000 1 0 0
-13.495740 -2.253088 16.866167 21.718172 0.165422 0.681558 0.007604 0.006094 292024.000000 1 0 0
-0.155540 0.888112 17.361767 17.385163 -1.397419 0.051885 0.007874 -0.002358 -624611.000000 1 0 0
-3.360240 -7.239188 15.337267 17.289558 1.136218 0.479810 0.010998 -0.005777 343855.000000 1 0 0
-7.359240 5.508812 12.557367 15.562548 -0.642577 0.631917 0.004312 -0.006026 -3070580.000000 1 0 0
-9.808940 10.079212 13.381567 19.413196 -0.798987 0.810270 0.019224 -0.010867 -505125.000000 1 0 0
-5.520440 2.287412 11.191867 12.687214 -0.392818 0.490415 0.002277 0.000467 -732273.000000 1 0 0
-7.129340 -7.284688 16.821567 19.668739 0.796175 0.544775 0.010409 -0.012572 23199.300000 1 0 0
-4.658840 3.291812 18.613067 19.467591 -0.615124 0.297387 0.017874 -0.008051 352539.000000 1 0 0
0.975860 -8.392588 16.585367 18.613496 -1.455040 0.471165 -0.000357 0.002388 334045.000000 1 0 0
-14.954040 -3.482188 14.014867 20.788589 0.228782 0.830967 -0.000151 -0.002341 96486.200000 1 0 0
-14.238040 2.119012 13.116767 19.474639 -0.147743 0.831821 -0.006941 -0.002015 -986189.000000 1 0 0
-5.593440 1.059312 16.113967 17.090016 -0.187168 0.339601 0.018203 -0.005377 521004.000000 1 0 0
4.517160 5.674312 15.162467 16.807825 0.898455 0.446167 0.001008 -0.003019 50076.400000 1 0 0
-1.071340 -12.075788 13.856167 18.411024 1.482310 0.718792 -0.005472 -0.006116 144782.000000 1 0 0
-5.757540 -3.953688 16.735167 18.134132 0.601742 0.395369 0.012712 -0.004621 83041.000000 1 0 0
-12.938340 -1.604688 9.890767 16.364686 0.123396 0.921788 -0.005898 0.003359 -1167930.000000 1 0 0
-14.809340 10.322612 10.321967 20.794612 -0.608733 1.051376 0.020823 -0.001840 384613.000000 1 0 0
-3.473340 -3.206388 17.718067 18.337800 0.745455 0.260720 0.014093 -0.007833 -1921090.000000 1 0 0
-7.871240 9.377712 11.884367 17.062711 -0.872514 0.800273 0.010425 -0.009934 12384.300000 1 0 0
-4.099540 10.735512 16.349667 19.984221 -1.206019 0.612647 0.000710 -0.002938 277600.000000 1 0 0
-12.498940 12.729512 8.498667 19.760853 -0.794537 1.126219 0.003982 -0.013831 -187704.000000 1 0 0
-12.653440 3.178812 10.673167 16.856183 -0.246128 0.885128 0.001590 -0.000210 471669.000000 1 0 0
-10.108940 -3.437588 13.711267 17.378335 0.327787 0.661639 0.007523 0.003057 -977955.000000 1 0 0
-4.080440 -6.406488 17.734667 19.292784 1.003669 0.404655 0.013167 -0.006388 -345420.000000 1 0 0
0.949160 -3.718588 18.116867 18.518901 -1.320885 0.208750 0.005466 -0.001090 -763645.000000 1 0 0
-5.980140 1.793312 13.638967 14.999982 -0.291345 0.429280 0.011095 -0.001713 -658359.000000 1 0 0
-10.490140 8.730212 10.298067 17.097071 -0.694087 0.924380 0.006412 -0.011012 -28380.200000 1 0 0
4.697960 2.496712 17.358567 18.155557 0.488487 0.297398 0.009458 -0.001495 -812724.000000 1 0 0
0.536860 -5.463188 13.214667 14.309510 -1.472842 0.393720 -0.000276 -0.002352 -1534760.000000 1 0 0
-3.914940 5.786312 20.800267 21.942180 -0.975958 0.324036 0.019644 -0.005492 75006.000000 1 0 0
-10.851140 10.840512 9.170167 17.870532 -0.784908 1.031952 0.013127 -0.012611 806831.000000 1 0 0
0.829660 4.086012 13.089467 13.737466 1.370471 0.308369 0.002086 -0.002021 -2500850.000000 1 0 0
-3.056040 7.174512 13.340167 15.452284 -1.168115 0.528997 -0.003094 0.001839 -834404.000000 1 0 0
0.658360 8.861712 14.216167 16.764927 1.496640 0.558651 -0.012893 0.001252 145015.000000 1 0 0
-4.192640 -6.628488 13.092567 15.262057 1.006809 0.539724 0.014340 -0.004908 -453937.000000 1 0 0
-4.913740 8.265112 16.439267 19.044853 -1.034419 0.529248 0.010312 -0.005262 36145.300000 1 0 0
1.703560 -10.693588 15.758167 19.120010 -1.412817 0.602059 -0.009571 0.001288 -412712.000000 1 0 0
-15.112140 -0.970588 14.201467 20.760551 0.064138 0.817482 0.001225 0.000727 162022.000000 1 0 0
-13.695440 -5.397788 8.352067 16.925077 0.375436 1.054718 0.005772 -0.005694 -397358.000000 1 0 0
-14.085740 -1.872488 12.141067 18.690099 0.132160 0.863740 -0.004602 0.003157 52487.400000 1 0 0
9.615960 1.565212 16.967567 19.565656 0.161357 0.521221 0.011858 0.002208 -935002.000000 1 0 0
4.998160 -6.801588 16.812467 18.812290 -0.937061 0.465280 0.009640 -0.005835 155879.000000 1 0 0
-6.107740 -2.704688 11.102067 12.956686 0.416875 0.541648 0.003477 -0.001960 200238.000000 1 0 0
0.589360 -6.351188 18.137567 19.226447 -1.478266 0.338164 0.002188 -0.000460 102480.000000 1 0 0
-8.469040 11.961912 12.190767 19.063756 -0.954721 0.876983 0.019368 -0.014329 211272.000000 1 0 0
-6.595440 -5.683588 14.795867 17.167431 0.711273 0.531877 0.018299 -0.006984 -332315.000000 1 0 0
-4.431440 -8.930188 17.081967 19.778259 1.110168 0.528283 0.017179 -0.007811 494435.000000 1 0 0
2.455560 -6.113588 16.346367 17.624116 -1.188863 0.383128 0.001832 -0.003713 -138924.000000 1 0 0
2.246060 5.171012 16.103867 17.062201 1.161028 0.336752 -0.002344 -0.006870 -1863000.000000 1 0 0
0.967460 -8.875888 14.057467 16.653220 -1.462226 0.565858 -0.004863 -0.001908 -704798.000000 1 0 0
-9.858140 -2.781588 11.226067 15.196866 0.275012 0.739643 -0.005501 -0.000164 -644904.000000 1 0 0
-1.086140 10.125412 12.419467 16.060723 -1.463936 0.686795 -0.011928 0.000099 -168554.000000 1 0 0
-12.252840 -3.642588 11.433567 17.150131 0.288964 0.841057 -0.000660 0.003499 -1326590.000000 1 0 0
-1.628240 6.718812 20.012167 21.172634 -1.333040 0.332620 -0.003157 -0.004760 -683815.000000 1 0 0
0.607360 -13.342688 15.458167 20.429174 -1.525308 0.712590 -0.009785 -0.015654 -609569.000000 1 0 0
3.957560 -8.664688 15.367067 18.079985 -1.142347 0.554908 -0.001363 -0.000824 -657544.000000 1 0 0
4.515160 -4.403688 16.181967 17.367648 -0.772900 0.371647 0.012811 -0.001347 19091.700000 1 0 0
8.258060 1.861412 14.787167 17.038801 0.221700 0.519933 0.004076 0.005293 33871.600000 1 0 0
-6.317440 -0.132088 11.854467 13.433387 0.020905 0.489723 0.004150 0.000081 157616.000000 1 0 0
-3.493040 -11.015788 18.199767 21.558767 1.263732 0.565738 0.012324 -0.006399 -322727.000000 1 0 0
3.245560 -1.547088 13.671367 14.136245 -0.444817 0.257167 0.006889 -0.000613 530437.000000 1 0 0
-2.515440 8.747912 15.713767 18.159733 -1.290803 0.525031 -0.001056 -0.007213 -2381300.000000 1 0 0
-3.041440 4.005612 14.892967 15.719280 -0.921373 0.325681 0.004861 -0.001952 -14949.900000 1 0 0
-4.527340 -9.185588 19.712867 22.214161 1.112866 0.479120 0.016939 -0.002407 -40040.400000 1 0 0
-5.629040 -2.987788 19.160067 20.192106 0.487968 0.321099 0.011402 -0.007826 -1135810.000000 1 0 0
-6.621740 -8.608988 11.141967 15.559741 0.915141 0.772631 0.008398 -0.005349 -7119.760000 1 0 0
-11.612240 2.488712 12.827467 17.480896 -0.211124 0.746899 0.004732 -0.007985 289481.000000 1 0 0
-11.693440 -7.543888 11.652667 18.150246 0.572950 0.873677 0.000726 -0.000874 -1195220.000000 1 0 0
-11.086640 -7.392488 15.655767 20.558830 0.588090 0.705156 0.019876 -0.007044 559680.000000 1 0 0
0.254060 5.517112 17.610667 18.456399 1.524779 0.303900 -0.006122 -0.007628 -253670.000000 1 0 0
-2.130540 -0.197788 13.229167 13.401089 0.092569 0.160353 0.011468 -0.002101 -26140.000000 1 0 0
-6.129440 -10.626788 18.235467 21.977964 1.047617 0.592198 0.013221 0.001742 1307950.000000 1 0 0
0.487660 2.587212 19.337667 19.516067 1.384494 0.135315 0.007795 -0.002603 48552.100000 1 0 0
-0.621640 10.963812 14.905367 18.513822 -1.514158 0.634962 -0.007724 0.002604 256050.000000 1 0 0
-12.717140 -2.207288 14.386167 19.327689 0.171856 0.731266 0.004924 -0.000447 -145362.000000 1 0 0
-13.839740 8.397912 11.750567 20.003479 -0.545402 0.942922 0.021326 -0.009008 144699.000000 1 0 0
-18.025940 -0.710788 6.887067 19.309879 0.039411 1.206106 -0.002115 0.003324 39390.300000 1 0 0
-2.015540 -8.002688 17.476867 19.327346 1.324070 0.441162 0.000731 -0.004758 -1165420.000000 1 0 0
5.784160 2.574812 14.580067 15.895425 0.418812 0.409678 0.002452 -0.000383 -2219020.000000 1 0 0
-14.176640 -6.810688 11.117467 19.260339 0.447858 0.955475 0.005066 -0.004961 -211591.000000 1 0 0
3.046060 7.664212 16.245767 18.219319 1.192499 0.469758 -0.009939 -0.013392 -637485.000000 1 0 0
1.085860 2.034912 14.703167 14.882980 1.080620 0.155603 0.007962 -0.004146 -1125050.000000 1 0 0
-14.297840 0.630712 9.810967 17.351689 -0.044084 0.969856 -0.008065 0.003951 -2739640.000000 1 0 0
-9.583240 -5.252888 15.615467 19.059752 0.501408 0.610624 0.010179 0.002726 -596706.000000 1 0 0
-2.465740 -0.052688 18.188667 18.355115 0.021365 0.134774 0.010972 -0.006224 484942.000000 1 0 0
6.861560 3.795012 17.553567 19.225266 0.505207 0.420103 0.011905 0.000626 -550972.000000 1 0 0
-4.234040 -0.688488 14.814467 15.423020 0.161197 0.281850 0.014372 0.000705 -211272.000000 1 0 0
4.406860 -8.968388 17.959367 20.552160 -1.114071 0.507745 -0.001257 0.004336 -412939.000000 1 0 0
1.971760 6.862912 13.441267 15.220219 1.291025 0.488327 -0.007744 0.000139 -744981.000000 1 0 0
-3.645740 -0.800688 20.323567 20.663492 0.216191 0.181636 0.017753 -0.008146 -124859.000000 1 0 0
-10.609440 1.622412 16.352267 19.559885 -0.151746 0.580825 0.015128 -0.002506 -359273.000000 1 0 0
-3.633240 7.086412 18.387167 20.037604 -1.097036 0.408713 0.008184 -0.007471 -97157.500000 1 0 0
-12.681240 1.143212 14.867267 19.574382 -0.089907 0.708211 0.010912 -0.000761 236657.000000 1 0 0
-16.130240 -4.640288 8.532767 18.828835 0.280113 1.100472 0.000589 -0.007490 -1496700.000000 1 0 0
-2.222140 0.753312 15.717167 15.891341 -0.326845 0.148192 0.012291 -0.003307 235961.000000 1 0 0
-13.636840 -8.751688 12.712967 20.595509 0.570566 0.905530 -0.018141 -0.005399 295203.000000 1 0 0
6.262360 -3.259288 14.587167 16.205726 -0.479879 0.450742 0.012424 -0.000316 1103690.000000 1 0 0
-15.679640 0.076612 7.712267 17.473868 -0.004886 1.113683 -0.013091 0.004947 215338.000000 1 0 0
-13.916340 5.954912 12.660367 19.733484 -0.404331 0.874256 0.001842 -0.000150 40217.300000 1 0 0
0.236860 9.391112 16.781467 19.231920 1.545580 0.510328 -0.013977 -0.008629 -220138.000000 1 0 0
-10.307540 -5.439988 10.922267 15.972939 0.485614 0.817841 -0.000150 0.000078 126822.000000 1 0 0
-3.225340 -10.925088 14.931567 18.780630 1.283728 0.651704 0.012755 -0.010414 -892405.000000 1 0 0
-3.544140 2.819912 12.712867 13.495548 -0.672086 0.342242 0.004063 -0.001376 -1870800.000000 1 0 0
-12.261340 -7.660988 7.430067 16.255371 0.558461 1.096083 0.001930 -0.001883 252363.000000 1 0 0
-8.208840 -1.858288 13.276267 15.719337 0.222624 0.565013 0.006928 -0.000124 -578964.000000 1 0 0
-9.741940 6.402712 9.700567 15.165788 -0.581442 0.876773 0.002841 -0.004576 -464998.000000 1 0 0
-17.973140 -3.655388 6.544767 19.473818 0.200644 1.228044 -0.005079 -0.007957 160241.000000 1 0 0
-1.050440 -0.068488 20.508767 20.535765 0.065107 0.051283 0.012383 -0.001598 -441740.000000 1 0 0
-2.715640 2.628612 20.249867 20.599549 -0.769115 0.184518 0.017024 -0.003393 -362834.000000 1 0 0
-3.721140 11.318612 11.216467 16.363588 -1.253165 0.815571 -0.001374 -0.001655 -881505.000000 1 0 0
-4.119440 -4.703588 14.829467 16.093683 0.851509 0.399009 0.010017 -0.004358 408134.000000 1 0 0
-0.127340 -14.370588 13.128767 19.465213 1.561935 0.830545 -0.005649 -0.015785 60175.200000 1 0 0
-12.089740 0.327112 8.431467 14.743082 -0.027050 0.961985 -0.004006 0.000921 -916860.000000 1 0 0
-7.826340 2.106512 15.429467 17.428639 -0.262926 0.483671 0.015438 -0.001481 252149.000000 1 0 0
3.664060 -2.146388 18.536167 19.016356 -0.529909 0.225204 0.012014 0.000724 -124216.000000 1 0 0
-1.977540 4.847112 12.563067 13.610137 -1.183427 0.394817 -0.003811 0.002336 -379451.000000 1 0 0
-10.337840 -6.251788 13.367667 18.018055 0.543903 0.734891 0.001151 -0.000923 -781580.000000 1 0 0
2.291360 -3.761988 14.315867 14.978215 -1.023725 0.298498 0.002959 -0.000043 -1015280.000000 1 0 0
6.971260 1.235512 17.011867 18.426301 0.175408 0.394371 0.006296 -0.000757 -1103300.000000 1 0 0
-1.910840 -5.736488 13.806867 15.072763 1.249253 0.412767 0.006872 -0.004847 -2121960.000000 1 0 0
-12.993940 3.753112 14.628467 19.922861 -0.281183 0.746227 0.007573 -0.000994 161340.000000 1 0 0
-13.247340 -6.199988 13.446667 19.868184 0.437736 0.827397 -0.008531 -0.009083 -544256.000000 1 0 0
-9.504540 6.902312 12.124767 16.881593 -0.628102 0.769550 0.009429 -0.005279 451292.000000 1 0 0
-1.050840 -2.530788 12.887767 13.175875 1.177236 0.209507 0.007746 -0.003092 473952.000000 1 0 0
0.085660 6.621512 15.292667 16.664856 1.557860 0.408646 -0.006130 -0.008357 659236.000000 1 0 0
-16.282740 -1.081688 10.013867 19.146154 0.066334 1.020403 -0.015252 0.010104 -862948.000000 1 0 0
-1.211640 2.688412 13.640067 13.955181 -1.147369 0.212913 0.003852 0.000383 -1992850.000000 1 0 0
-11.224340 -3.390888 16.078667 19.899936 0.293383 0.630088 0.010943 -0.004975 1273120.000000 1 0 0
-5.162740 -1.319888 17.189767 17.996780 0.250295 0.300604 0.027512 -0.001470 157945.000000 1 0 0
-11.918940 6.753812 11.226667 17.711950 -0.515533 0.884279 0.010449 -0.001553 -1514370.000000 1 0 0
-2.523040 4.781012 18.779067 19.541678 -1.085219 0.280290 0.005197 -0.002741 99565.900000 1 0 0
5.177060 -1.886988 16.448267 17.346705 -0.349525 0.323253 0.011807 0.000099 -66068.100000 1 0 0
-8.016140 -4.128588 12.213467 15.181321 0.475603 0.635953 0.009786 0.000572 -2006790.000000 1 0 0
-11.473740 -0.781388 16.252667 19.909959 0.067997 0.615806 0.015349 0.000666 142514.000000 1 0 0
2.152560 2.014312 17.382167 17.630392 0.752233 0.168003 0.007023 -0.007009 -513360.000000 1 0 0
-9.017940 -7.616388 11.681867 16.607186 0.701340 0.790595 0.009257 -0.003626 689428.000000 1 0 0
-7.077740 6.891412 14.843067 17.829824 -0.772060 0.587218 0.008360 -0.006893 -787926.000000 1 0 0
-5.500940 3.533912 15.742967 17.046697 -0.571028 0.393637 0.014298 -0.004940 518214.000000 1 0 0
-9.313040 4.306112 11.766667 15.611847 -0.433097 0.717121 0.000462 -0.006343 103245.000000 1 0 0
-10.266340 0.196412 14.178967 17.506554 -0.019129 0.626775 0.008786 -0.002130 -29899.000000 1 0 0
8.403760 -0.515088 15.811567 17.913519 -0.061216 0.489302 0.003836 0.002844 197759.000000 1 0 0
-8.648540 -7.435088 14.816967 18.698136 0.710094 0.656013 0.018539 -0.003818 -3357840.000000 1 0 0
-0.053840 4.131412 15.549467 16.089046 -1.557765 0.259716 0.003271 -0.006784 -676451.000000 1 0 0
-8.143440 3.162912 9.637167 13.007483 -0.370467 0.736396 -0.001414 -0.001905 -365500.000000 1 0 0
-1.956140 -9.698488 13.056467 16.381651 1.371771 0.648455 -0.001412 -0.007337 287897.000000 1 0 0
-5.943640 10.241112 10.535467 15.849395 -1.044935 0.843672 0.010060 -0.009935 -2199520.000000 1 0 0
-8.550940 -2.834988 15.695867 18.097403 0.320137 0.521045 0.014601 -0.005721 938732.000000 1 0 0
4.094760 5.896312 17.773667 19.168641 0.963797 0.383859 0.000875 0.001202 -55857.600000 1 0 0
-6.846640 -0.870488 15.241667 16.731487 0.126462 0.425198 0.014050 -0.001499 483236.000000 1 0 0
-0.804940 -10.040088 15.374967 18.380449 1.490795 0.579959 -0.005951 -0.001936 -195897.000000 1 0 0
-4.137440 5.758412 16.239567 17.720081 -0.947759 0.411680 0.007904 -0.008030 283894.000000 1 0 0
3.826060 0.062612 17.561567 17.973628 0.016363 0.214541 0.015306 -0.001307 -725641.000000 1 0 0
1.480060 0.267012 19.235467 19.294172 0.178487 0.078028 0.009169 -0.001675 -1100460.000000 1 0 0
-6.110040 6.358012 17.812067 19.875277 -0.805284 0.459685 0.011409 -0.005358 -335271.000000 1 0 0
-12.113740 0.551812 11.064067 16.415261 -0.045521 0.831171 0.001955 0.002209 -307144.000000 1 0 0
-5.195640 5.181612 13.921967 15.737374 -0.784046 0.485067 0.006593 -0.003388 -578294.000000 1 0 0
-8.700340 -9.494688 10.026767 16.321185 0.829028 0.909246 0.009005 -0.001243 791262.000000 1 0 0
7.004360 -3.688988 16.972967 18.728356 -0.484755 0.436419 0.016721 -0.001340 -48526.900000 1 0 0
-16.682840 1.469812 9.631067 19.319290 -0.087876 1.048905 -0.006550 0.001271 277853.000000 1 0 0
-4.128240 -9.580388 11.402967 15.454897 1.163934 0.740958 0.010622 -0.005109 1808570.000000 1 0 0
-11.089540 -3.767288 9.134867 14.853153 0.327483 0.908395 -0.001651 0.002135 -448073.000000 1 0 0
3.772460 -5.314888 18.478867 19.594592 -0.953529 0.339085 0.004864 -0.003321 11114.900000 1 0 0
2.472260 -1.850688 16.210967 16.502502 -0.642593 0.188246 0.010350 -0.002828 388728.000000 1 0 0
-3.131640 -4.074988 20.155367 20.800277 0.915558 0.249665 0.010015 -0.008763 -1253880.000000 1 0 0
-6.252140 -3.241888 14.389567 16.020572 0.478357 0.455155 0.014215 -0.000815 537813.000000 1 0 0
-9.423940 5.202412 14.184067 17.806277 -0.504410 0.649185 0.008136 -0.004148 53765.400000 1 0 0
-5.879140 -5.255388 11.772067 14.169155 0.729437 0.590211 0.010829 -0.001938 -831521.000000 1 0 0
6.262860 1.979512 19.377667 20.460593 0.306135 0.326806 0.010612 -0.007274 220949.000000 1 0 0
-2.626540 11.986212 13.485467 18.232548 -1.355076 0.738266 -0.001408 -0.004743 -238922.000000 1 0 0
3.494260 1.266812 15.259067 15.705216 0.347803 0.238928 0.009327 -0.001476 -568384.000000 1 0 0
-5.640640 7.413412 12.854867 15.875236 -0.920375 0.627082 -0.000950 -0.007850 -389048.000000 1 0 0
-1.867240 -1.754388 15.256767 15.470404 0.754248 0.166381 0.009406 -0.003641 735121.000000 1 0 0
-7.365440 10.604912 14.169967 19.170338 -0.963750 0.738972 0.033945 -0.010222 357694.000000 1 0 0
-10.150640 2.167712 10.658767 14.877627 -0.210394 0.772126 -0.003630 -0.002239 -720794.000000 1 0 0
-13.701440 5.058312 9.244167 17.284982 -0.353659 1.006514 0.000862 -0.000020 204596.000000 1 0 0
0.282360 -4.824488 20.250167 20.818854 -1.512337 0.234270 -0.000169 -0.003027 -148520.000000 1 0 0
-14.364140 -2.982188 7.596567 16.520587 0.204705 1.092999 -0.007559 -0.001014 205701.000000 1 0 0
-2.298940 2.500012 17.614067 17.938521 -0.827273 0.190483 0.007301 -0.005807 428989.000000 1 0 0
-6.309540 -8.288188 14.456267 17.818193 0.920122 0.624389 0.018020 -0.010693 54201.100000 1 0 0
-7.997040 1.964912 12.017167 14.567973 -0.240932 0.600765 0.001031 -0.003376 85382.600000 1 0 0
-14.471540 -3.626488 10.174567 18.058203 0.245538 0.972262 -0.005876 0.000887 -390098.000000 1 0 0
-0.476640 7.009512 12.748567 14.556319 -1.502902 0.503685 -0.008425 -0.001184 -779672.000000 1 0 0
-1.657840 -2.221088 19.176267 19.375523 0.929597 0.143538 0.012144 -0.010039 -378697.000000 1 0 0
-12.747840 10.260512 7.486767 17.995478 -0.677711 1.141715 0.008331 -0.015645 -341238.000000 1 0 0
-19.202240 2.096012 7.235667 20.627025 -0.108724 1.212386 -0.016040 0.012059 -188886.000000 1 0 0
-16.150740 8.426312 6.791267 19.441462 -0.480879 1.213952 0.017419 0.003033 475984.000000 1 0 0
-12.209240 7.693812 13.657267 19.869103 -0.562303 0.812946 0.012078 -0.000164 380521.000000 1 0 0
-16.052040 8.092112 10.430667 20.783385 -0.466936 1.045031 0.008256 -0.006504 25097.800000 1 0 0
1.953060 10.883612 15.225267 18.816913 1.393237 0.628132 -0.017325 -0.004771 -547750.000000 1 0 0
2.144460 14.311712 12.930967 19.407054 1.422063 0.841557 -0.020057 0.004240 -1370580.000000 1 0 0
-3.140440 13.751212 11.585767 18.253444 -1.346271 0.883154 0.000654 -0.008863 108483.000000 1 0 0
9.045560 5.131912 16.000267 19.083166 0.516059 0.576365 0.011672 0.010209 83007.000000 1 0 0
-0.176040 12.550612 12.977667 18.054603 -1.556771 0.768720 -0.011456 -0.000551 -580236.000000 1 0 0
3.723960 13.018212 14.541167 19.869254 1.292179 0.749774 -0.016181 -0.003392 -170362.000000 1 0 0
-2.971640 -4.046288 -13.639733 14.534284 0.937347 2.788918 0.002811 -0.003943 -101487.000000 1 0 0
5.545260 -11.629588 16.396067 20.852536 -1.125861 0.666021 -0.011055 0.002122 86963.700000 1 0 0
7.870260 -13.466888 7.373467 17.253002 -1.041915 1.129211 -0.001107 -0.005912 -183577.000000 1 0 0
-0.059440 15.540112 1.284767 15.593244 -1.566971 1.488310 -0.007587 -0.001662 -2839480.000000 1 0 0
-13.751540 8.120612 9.162967 18.412202 -0.533423 1.049901 0.008176 -0.001772 671597.000000 1 0 0
-15.357840 -9.652488 4.881867 18.784738 0.561116 1.307893 0.009246 -0.005516 -234771.000000 1 0 0
9.473360 -11.099488 11.125767 18.350092 -0.864277 0.919389 0.019321 -0.008702 -237515.000000 1 0 0
-5.932840 -10.433688 -16.893133 20.722895 1.053767 2.523857 0.014811 -0.004720 143785.000000 1 0 0
-1.928840 -12.647888 -15.131833 19.815697 1.419459 2.439711 0.007654 -0.001778 15581.900000 1 0 0
5.567060 -15.796188 -12.052933 20.634556 -1.231958 2.194584 -0.002153 0.014811 149770.000000 1 0 0
2.638260 -12.025188 -16.769233 20.803190 -1.354824 2.508310 0.004212 0.005192 105311.000000 1 0 0
0.222960 -14.316988 -14.004033 20.028449 -1.555224 2.345084 0.007479 0.006875 172839.000000 1 0 0
-6.286640 -5.941188 -14.475033 16.862566 0.757154 2.602963 0.006955 -0.000091 48913.400000 1 0 0
-6.119940 -8.186688 -17.205133 20.012299 0.928867 2.605533 -0.001697 -0.001975 100757.000000 1 0 0
-2.565740 -16.114988 -13.442433 21.141780 1.412907 2.259871 0.014913 -0.002052 183777.000000 1 0 0
15.929160 -8.054088 -9.730933 20.329720 -0.468133 2.069919 -0.000654 0.002794 -22971.900000 1 0 0
19.373560 -3.793488 -3.674833 20.080582 -0.193361 1.754838 0.015693 -0.000582 206387.000000 1 0 0
15.529160 -11.492088 -9.085833 21.348893 -0.637092 2.010408 0.002710 -0.003909 191024.000000 1 0 0
18.305660 -3.006088 -6.769033 19.747242 -0.162764 1.920675 0.109273 0.000137 -275558.000000 1 0 0
8.713760 -9.957088 -16.025133 20.781677 -0.851892 2.451392 0.020442 0.010230 294515.000000 1 0 0
-4.701940 9.569712 -16.178833 19.376333 -1.114104 2.558891 -0.004673 0.001392 481144.000000 1 0 0
1.814860 -9.900688 -19.008233 21.508841 -1.389503 2.654592 0.001845 0.023797 265493.000000 1 0 0
10.999960 8.080712 -15.413333 20.588051 0.633580 2.416826 0.021083 -0.011906 398648.000000 1 0 0
18.468460 -6.514688 -8.772633 21.458897 -0.339120 1.991947 0.014696 0.000884 251229.000000 1 0 0
12.065760 5.112412 -13.774233 19.011807 0.400780 2.381119 -0.010446 -0.001256 143788.000000 1 0 0
15.910360 6.317212 -10.739333 20.208414 0.377961 2.131083 0.001991 -0.003306 133574.000000 1 0 0
3.534960 -0.637688 -19.471833 19.800375 -0.178475 2.959171 0.021521 -0.004537 146775.000000 1 0 0
10.283160 -1.683988 -14.902333 18.184024 -0.162321 2.531385 0.007719 0.001006 155708.000000 1 0 0
12.239060 -5.772288 -14.470933 19.812163 -0.440694 2.389713 0.020597 0.008529 137087.000000 1 0 0
10.156060 6.656412 -13.047533 17.823902 0.580171 2.392085 0.011257 0.004246 527271.000000 1 0 0
10.499760 5.712612 -16.341533 20.246595 0.498280 2.510062 0.006417 0.000939 386973.000000 1 0 0
11.400060 -10.552788 -15.652933 22.053050 -0.746822 2.359990 0.021611 0.004709 186480.000000 1 0 0
-1.349040 2.117812 -17.657533 17.835176 -1.003616 3.000335 0.006702 -0.006117 220715.000000 1 0 0
6.539360 -1.206788 -17.153633 18.397464 -0.182489 2.771769 0.013862 0.005111 96480.900000 1 0 0
7.170160 -6.578788 -16.059333 18.777481 -0.742412 2.596818 0.002695 0.004945 152171.000000 1 0 0
-2.243340 -4.376388 -20.390733 20.975398 1.097119 2.904931 0.003985 -0.019289 375901.000000 1 0 0
15.955360 -0.216488 -13.337833 20.797071 -0.013568 2.267030 0.003198 0.001543 7727.520000 1 0 0
-3.899440 -0.241488 -18.514833 18.922552 0.061850 2.933628 0.002057 -0.007998 132547.000000 1 0 0
3.462560 8.921812 -17.599833 20.033526 1.200590 2.643549 0.007153 -0.016174 -258854.000000 1 0 0
10.096160 0.461912 -16.740933 19.555169 0.045719 2.598447 0.022089 -0.018258 -172156.000000 1 0 0
4.089960 4.372712 -18.229833 19.187892 0.818797 2.824255 0.018340 -0.007950 382712.000000 1 0 0
-2.882340 -11.278388 -17.809833 21.276749 1.320589 2.562676 0.006308 -0.017572 283045.000000 1 0 0
5.769560 -9.475588 -16.391033 19.792436 -1.023868 2.546589 -0.005397 0.006081 149040.000000 1 0 0
10.050560 -12.455088 -10.879933 19.352413 -0.891835 2.167840 -0.006057 0.010569 114963.000000 1 0 0
6.217560 6.554612 -17.025233 19.273805 0.811782 2.653727 0.020774 -0.015076 266986.000000 1 0 0
8.655960 1.632312 -20.245433 22.078669 0.186388 2.731209 0.026066 -0.005021 -1374.910000 1 0 0
-1.161340 -1.009788 -20.314733 20.372942 0.715708 3.065981 0.008141 -0.011297 166571.000000 1 0 0
-0.732240 6.580612 -19.693433 20.776716 -1.459980 2.817251 0.018894 -0.010793 52113.300000 1 0 0
8.791060 5.903112 -18.150633 21.013685 0.591335 2.613467 0.028021 -0.004567 120573.000000 1 0 0
11.925260 -0.060688 -13.249733 17.826130 -0.005089 2.408750 -0.014854 0.003320 31454.900000 1 0 0
-4.040940 -2.598788 -19.823433 20.397338 0.571520 2.903815 -0.013045 -0.002762 344831.000000 1 0 0
5.496860 -11.243888 -14.546533 19.189635 -1.116088 2.431101 -0.020380 0.001618 116673.000000 1 0 0
11.682760 2.902412 -15.922533 19.960910 0.243506 2.494244 0.023058 0.005551 -109022.000000 1 0 0
-3.025040 -4.409488 -17.013633 17.834185 0.969508 2.837069 0.001424 -0.005486 304621.000000 1 0 0
-6.686040 -4.699788 -17.491333 19.306420 0.612687 2.704498 0.014378 -0.004381 35906.600000 1 0 0
2.817160 10.515612 -15.403633 18.862301 1.309040 2.526354 -0.001794 -0.005686 257915.000000 1 0 0
16.986760 -6.093588 -10.965333 21.116826 -0.344427 2.116793 0.029461 -0.007874 -66141.100000 1 0 0
9.383660 -3.439188 -17.712233 20.337263 -0.351305 2.627878 -0.004607 -0.005601 160752.000000 1 0 0
-6.970740 -1.247188 -18.853033 20.139105 0.177044 2.782285 -0.008547 0.003795 381287.000000 1 0 0
1.518460 -7.628788 -19.319633 20.826722 -1.374321 2.758831 0.003027 -0.009931 252139.000000 1 0 0
5.849260 10.237512 -13.922433 18.244304 1.051705 2.438910 0.014401 -0.012199 412425.000000 1 0 0
5.818960 -3.349588 -18.406833 19.593150 -0.522310 2.791825 0.009971 -0.004874 447015.000000 1 0 0
4.565060 13.157812 -14.855833 20.363290 1.236844 2.388445 0.007813 -0.008293 94037.000000 1 0 0
9.079360 11.353712 -15.443633 21.209605 0.896249 2.386406 0.032490 -0.011946 -2317.950000 1 0 0
17.082260 0.911512 -11.537233 20.633521 0.053310 2.164156 0.010888 0.006684 50825.600000 1 0 0
15.007860 -3.046488 -12.243433 19.606596 -0.200272 2.245230 0.015331 -0.002232 142485.000000 1 0 0
-8.965340 0.207812 -17.361033 19.540368 -0.023175 2.664797 0.024456 -0.006892 569309.000000 1 0 0
-3.730540 4.046712 -18.956133 19.738991 -0.826029 2.859014 0.026169 -0.010622 284873.000000 1 0 0
4.143160 2.223312 -17.043833 17.680530 0.492514 2.872411 0.017527 -0.005670 493662.000000 1 0 0
-5.029940 14.688512 -13.445733 20.538754 -1.240872 2.284518 -0.002509 -0.006910 131390.000000 1 0 0
1.061960 8.897712 -17.630933 19.777432 1.452006 2.671370 0.010114 -0.018303 376523.000000 1 0 0
1.324360 -4.996088 -19.794933 20.458597 -1.311676 2.886186 0.009369 -0.007284 586624.000000 1 0 0
3.631160 -6.170588 -18.076933 19.443173 -1.038903 2.764480 0.009762 -0.016981 49511.600000 1 0 0
-6.951240 7.478012 -15.877833 18.877128 -0.821889 2.570137 -0.008712 0.006434 -1832.960000 1 0 0
-11.732140 3.351912 -16.921233 20.861605 -0.278290 2.516858 0.008090 -0.009557 282817.000000 1 0 0
-4.528040 7.068112 -17.546733 19.451200 -1.001037 2.695385 -0.003430 0.022362 358771.000000 1 0 0
-8.267540 5.254112 -17.583933 20.128403 -0.566122 2.633323 0.006477 -0.006494 479547.000000 1 0 0
-8.407040 4.257512 -14.816833 17.559706 -0.468772 2.575117 -0.016993 -0.016381 446929.000000 1 0 0
9.165860 14.389112 -12.238433 20.996161 1.003615 2.193076 0.034710 -0.014512 403316.000000 1 0 0
14.135160 10.033612 -11.873033 21.010593 0.617295 2.171348 0.038449 -0.010280 -177380.000000 1 0 0
8.625760 15.587212 -9.975233 20.417399 1.065356 2.081241 0.025552 -0.009124 -9116.760000 1 0 0
7.761960 13.408612 -14.543933 21.250056 1.046052 2.324602 0.038651 -0.019401 161228.000000 1 0 0
4.069960 15.522412 -13.174733 20.762549 1.314370 2.258214 0.010792 -0.010864 177817.000000 1 0 0
10.905560 11.861912 -11.505733 19.799447 0.827379 2.190893 0.028526 -0.005089 230259.000000 1 0 0
15.816360 10.759312 -10.151633 21.655847 0.597358 2.058695 0.029305 -0.000719 261412.000000 1 0 0
13.208460 11.409912 -9.404833 19.826759 0.712471 2.065022 0.034235 -0.004859 69954.900000 1 0 0
10.894060 11.539412 -7.791733 17.679075 0.814158 2.027210 0.022976 -0.003256 144871.000000 1 0 0
4.817260 17.024412 -10.456233 20.551628 1.295043 2.104562 0.005411 0.000377 -81571.200000 1 0 0
11.569160 14.289012 -10.273033 21.060782 0.890196 2.080341 0.054295 -0.010477 -13577.200000 1 0 0
8.278160 -19.580988 -1.740933 21.330116 -1.170820 1.652506 0.008276 0.008425 346804.000000 1 0 0
7.539260 -16.788688 -4.182633 18.873126 -1.148718 1.794270 0.005944 0.000097 329438.000000 1 0 0
3.943260 -18.596588 4.770767 19.599556 -1.361849 1.324914 0.015642 -0.025778 44479.100000 1 0 0
10.247660 -17.167788 -1.819233 20.076281 -1.032650 1.661537 0.007697 -0.019380 439382.000000 1 0 0
-2.090540 -15.735088 7.709567 17.646551 1.438711 1.118660 -0.007657 -0.005409 99800.800000 1 0 0
-15.211840 -12.755288 -4.473033 20.349581 0.697786 1.792416 -0.008748 0.005570 98711.900000 1 0 0
-9.260040 -12.284288 -7.281533 17.019776 0.924860 2.012884 0.015188 -0.015364 141332.000000 1 0 0
-11.253740 -15.577088 6.761067 20.371656 0.945159 1.232494 0.001467 0.001302 147235.000000 1 0 0
-15.699640 -8.327588 -8.635433 19.758495 0.487696 2.023112 0.065068 0.001786 -25139.100000 1 0 0
4.565560 -15.243488 6.133567 17.053706 -1.279790 1.202891 0.001023 -0.014781 211950.000000 1 0 0
2.629460 -13.978888 9.331367 17.011695 -1.384867 0.990195 -0.014279 -0.006438 359602.000000 1 0 0
3.064460 -17.777388 9.635467 20.451618 -1.400094 1.080220 -0.003473 0.001897 228116.000000 1 0 0
-7.371840 -16.988088 -5.914433 19.440156 1.161376 1.879935 -0.029968 -0.007285 -208097.000000 1 0 0
2.099660 -19.982788 -4.156233 20.518154 -1.466107 1.774771 0.010105 0.004326 119212.000000 1 0 0
-18.242740 -10.479188 -1.909933 21.124838 0.521406 1.661332 -0.011274 0.005275 -37758.700000 1 0 0
-4.150340 -14.578288 2.734267 15.402208 1.293441 1.392326 -0.010583 0.001512 90480.000000 1 0 0
-11.079340 -9.810688 -14.531233 20.740253 0.724743 2.347076 0.017645 -0.001614 245188.000000 1 0 0
0.155160 -20.170088 2.422767 20.315667 -1.563104 1.451256 0.003338 -0.015037 219538.000000 1 0 0
6.739360 -18.463888 0.926867 19.677226 -1.220820 1.523675 0.015502 0.005137 225132.000000 1 0 0
-7.238840 -18.703688 -3.435133 20.347700 1.201523 1.740430 -0.015409 -0.019545 62856.200000 1 0 0
-9.619440 -15.552288 -7.673533 19.831550 1.016869 1.968102 0.027722 -0.008777 84298.600000 1 0 0
-11.721140 -11.291688 -11.973533 20.205267 0.766739 2.205072 -0.000916 0.000912 260948.000000 1 0 0
-13.143640 -14.962488 -3.239833 20.177409 0.850022 1.732062 -0.000360 -0.007056 24398.500000 1 0 0
-0.603640 -20.462088 -2.580833 20.633035 1.541304 1.696207 -0.006960 -0.004039 438161.000000 1 0 0
-12.124340 -16.705588 -0.827133 20.658181 0.942987 1.610846 0.012610 -0.009255 214684.000000 1 0 0
0.515260 -20.113488 5.076167 20.750551 -1.545184 1.323660 0.019888 -0.016874 -52421.800000 1 0 0
-18.216340 -9.391288 2.392867 20.633883 0.476004 1.454567 0.005302 0.011554 50170.300000 1 0 0
-14.647940 -15.064988 -0.466233 21.017454 0.799433 1.592981 -0.005676 -0.001440 -118760.000000 1 0 0
10.206460 -15.517988 -5.238133 19.298130 -0.989015 1.845677 0.000254 0.009138 -212887.000000 1 0 0
-0.711440 -19.173788 -7.104833 20.460179 1.533709 1.925435 -0.008280 0.004755 204880.000000 1 0 0
-9.671340 -17.506188 -3.181833 20.251555 1.066072 1.728565 0.004805 0.011105 327720.000000 1 0 0
-14.429840 -6.504788 -11.333033 19.467156 0.423508 2.192181 -0.011670 -0.001203 -113933.000000 1 0 0
-12.361040 -14.974988 2.196767 19.541529 0.880731 1.458143 0.013427 -0.017128 339338.000000 1 0 0
-2.725940 -16.319288 10.379467 19.531596 1.405286 1.010521 -0.000665 -0.007348 394079.000000 1 0 0
-12.569740 -14.571188 -6.624333 20.351896 0.859008 1.902326 0.015912 -0.000526 176779.000000 1 0 0
5.809460 -17.092388 -6.579333 19.214244 -1.243160 1.920287 0.014476 -0.002799 -25060.700000 1 0 0
-17.450540 -7.242888 -2.854233 19.108308 0.393415 1.720729 -0.025174 0.010335 53028.000000 1 0 0
-11.979040 -13.721588 -9.495733 20.541380 0.853096 2.051354 0.014276 -0.014914 39577.800000 1 0 0
-7.111840 -14.651488 8.873767 18.546916 1.118896 1.071908 0.003085 -0.005488 174208.000000 1 0 0
-15.848140 -8.185588 -5.733633 18.736113 0.476761 1.881806 0.006828 0.005984 383170.000000 1 0 0
-0.860440 -19.629088 -0.141033 19.648444 1.526989 1.577974 -0.001816 -0.002105 337291.000000 1 0 0
-15.029540 -11.427388 -1.852833 18.971169 0.650079 1.668618 0.002041 0.007345 194511.000000 1 0 0
-6.771540 -18.737188 1.066867 19.951796 1.224006 1.517299 -0.015613 -0.005157 160377.000000 1 0 0
-2.378940 -20.636488 -5.446333 21.475254 1.456025 1.827206 -0.003956 0.000934 169134.000000 1 0 0
-8.886440 -19.253188 -0.565933 21.212599 1.138373 1.597479 0.000253 -0.012017 180050.000000 1 0 0
-17.663640 -7.276888 5.190767 19.796498 0.390782 1.305489 0.001913 -0.001890 113654.000000 1 0 0
-2.919240 -15.659588 -10.734633 19.208774 1.386493 2.163783 0.007921 -0.000917 105020.000000 1 0 0
-2.890240 -18.111588 -8.678733 20.290478 1.412551 2.012770 -0.001511 -0.000367 222482.000000 1 0 0
3.707860 -17.914988 -6.301733 19.349596 -1.366708 1.902525 -0.007387 0.041071 398802.000000 1 0 0
0.832860 -17.409288 -9.982333 20.085416 -1.522993 2.090928 0.004069 0.014932 -66436.200000 1 0 0
-7.693340 -10.323288 -13.982133 19.006783 0.930348 2.397406 0.007088 -0.027437 55950.100000 1 0 0
-5.441640 -19.059388 -1.973433 19.918990 1.292686 1.670032 0.003306 -0.012433 100484.000000 1 0 0
-9.912440 -15.955088 8.332167 20.548633 1.014883 1.153287 0.001407 -0.001514 94797.000000 1 0 0
-7.997440 -14.583688 -9.771033 19.290310 1.069196 2.101947 0.055730 -0.021119 403903.000000 1 0 0
-12.552540 -8.017088 -12.483433 19.433889 0.568378 2.268362 -0.000782 0.002035 137079.000000 1 0 0
-15.459740 -12.836288 3.566467 20.408173 0.692948 1.395138 0.004783 -0.005511 82091.200000 1 0 0
-6.256440 -14.146688 -13.452533 20.499816 1.154402 2.286604 0.001740 0.002583 378772.000000 1 0 0
-13.978240 -11.403588 -6.608633 19.212159 0.684307 1.921951 0.003830 -0.010533 159654.000000 1 0 0
-11.774040 -10.054588 -9.038433 17.928079 0.706790 2.099193 0.015132 -0.002951 208556.000000 1 0 0
-9.658540 -14.639988 3.494067 17.883656 0.987607 1.374154 -0.005238 -0.010435 561327.000000 1 0 0
5.206760 -17.903088 7.962567 20.273958 -1.287773 1.167178 0.023434 -0.034491 164559.000000 1 0 0
-5.001340 -16.802688 5.708667 18.437261 1.281496 1.255996 -0.006650 0.023198 472741.000000 1 0 0
-18.078540 -7.560088 -6.518833 20.651482 0.396080 1.891948 -0.020870 -0.004265 61867.600000 1 0 0
-16.957640 -3.370188 -10.591033 20.275347 0.196185 2.120413 -0.006376 -0.010768 -39242.000000 1 0 0
-15.798340 -3.848988 -13.115333 20.890529 0.238977 2.249536 -0.007827 0.000995 200478.000000 1 0 0
-19.320940 -4.615688 -5.784633 20.689738 0.234500 1.854163 -0.002912 0.008780 -230647.000000 1 0 0
5.283760 -13.814288 9.063667 17.346548 -1.205480 1.021009 0.002205 0.000979 227419.000000 1 0 0
19.826360 -3.436588 2.810567 20.317332 -0.171629 1.432018 0.005316 0.000305 28472.800000 1 0 0
18.161360 -2.479088 0.128767 18.330233 -0.135665 1.563771 0.007387 -0.003589 271246.000000 1 0 0
14.178760 -11.635888 0.416867 18.346795 -0.687210 1.548073 0.022904 0.006291 107145.000000 1 0 0
11.089960 -13.695488 5.493867 18.459040 -0.890137 1.268593 0.019208 0.002763 506191.000000 1 0 0
9.590460 -13.194688 9.258767 18.756372 -0.942281 1.054534 0.013099 -0.001504 250209.000000 1 0 0
19.257660 4.443812 -4.798133 20.337822 0.226786 1.808963 0.054309 0.020821 -63611.800000 1 0 0
18.692760 -6.258888 -4.787033 20.285676 -0.323097 1.809024 0.010748 -0.003052 -66342.500000 1 0 0
17.581560 -10.109688 -0.506933 20.287287 -0.521847 1.595787 0.027904 0.001222 431313.000000 1 0 0
17.863960 -8.643488 8.632767 21.641525 -0.450645 1.160481 0.061395 -0.010327 -289983.000000 1 0 0
19.706860 0.116012 -2.117533 19.820639 0.005887 1.677835 -0.000628 0.008543 97415.000000 1 0 0
7.313660 -13.922488 11.318567 19.376152 -1.087104 0.946965 0.006562 0.006810 198645.000000 1 0 0
16.010360 -6.365788 -3.483033 17.578009 -0.378439 1.770264 0.019257 0.000930 179074.000000 1 0 0
14.395560 -6.776088 11.737867 19.771824 -0.439940 0.935189 0.014866 -0.035787 306726.000000 1 0 0
16.603760 1.702612 10.748967 19.852557 0.102187 0.998647 0.048050 -0.002760 210625.000000 1 0 0
16.245360 -10.381288 2.595567 19.453016 -0.568625 1.436970 -0.008907 0.006231 216597.000000 1 0 0
16.101560 -7.516788 -6.233733 18.831403 -0.436766 1.908190 0.022157 0.006776 345717.000000 1 0 0
17.904360 -4.262888 6.110967 19.392840 -0.233740 1.250219 0.032954 -0.005573 14311.500000 1 0 0
13.197360 -13.456388 8.111467 20.519273 -0.795116 1.164391 0.024806 -0.009040 303258.000000 1 0 0
15.306560 -13.927688 -1.745933 20.768234 -0.738267 1.654963 0.026155 -0.005020 205008.000000 1 0 0
18.621960 -6.256188 8.514667 21.410671 -0.324110 1.161806 0.026186 -0.003864 91820.800000 1 0 0
19.319060 3.444012 2.853667 19.830046 0.176417 1.426389 0.009870 0.005652 241680.000000 1 0 0
15.886260 -10.377888 8.150567 20.652011 -0.578665 1.165096 0.047946 -0.027821 354454.000000 1 0 0
14.010660 -4.425788 10.728867 18.193262 -0.305968 0.940089 0.010078 -0.006718 -134858.000000 1 0 0
18.596960 -7.697188 1.391067 20.174952 -0.392427 1.501791 0.016109 -0.004647 72134.800000 1 0 0
18.739260 -5.051288 -1.850533 19.496149 -0.263298 1.665857 0.000624 0.000200 285331.000000 1 0 0
14.141160 -13.949388 -5.883933 20.716623 -0.778571 1.858780 -0.001054 0.002705 386565.000000 1 0 0
13.809760 -9.436388 9.971067 19.472469 -0.599439 1.033215 0.009467 -0.026997 533818.000000 1 0 0
14.429460 2.443712 0.652667 14.649472 0.167764 1.526229 -0.002431 0.001832 -186189.000000 1 0 0
12.874060 2.964312 13.582967 18.947970 0.226310 0.771514 0.005314 -0.000653 151801.000000 1 0 0
18.438960 -2.384488 9.465067 20.863090 -0.128604 1.099911 0.025744 -0.010658 180390.000000 1 0 0
7.182860 -18.580488 5.349867 20.626417 -1.201911 1.308427 0.022674 -0.013930 308282.000000 1 0 0
12.589660 -3.234288 14.764967 19.671411 -0.251462 0.721857 -0.000922 0.005977 -4382.550000 1 0 0
11.779960 -13.878188 -7.468433 19.676103 -0.866993 1.960126 0.010851 0.009832 281177.000000 1 0 0
10.466060 -17.650288 5.105067 21.145514 -1.035563 1.326962 0.011384 0.001159 528424.000000 1 0 0
18.259660 -0.368188 -5.614833 19.106991 -0.020161 1.869062 -0.000578 0.002748 -58663.000000 1 0 0
4.153360 -13.314088 11.694567 18.201050 -1.268411 0.873012 -0.017980 -0.009062 -326199.000000 1 0 0
9.183260 -2.911088 13.950167 16.953285 -0.306979 0.604372 0.001368 -0.000377 247419.000000 1 0 0
9.131760 -9.430788 13.930367 19.141158 -0.801506 0.755731 0.017259 -0.012288 325491.000000 1 0 0
20.981060 5.677212 -2.814033 21.916989 0.264259 1.699547 0.010240 0.012088 310851.000000 1 0 0
14.630260 -13.556888 2.163367 20.062748 -0.747336 1.462756 0.012897 0.010353 247275.000000 1 0 0
11.519960 -0.809588 15.549167 19.368570 -0.070162 0.638813 0.012246 0.012175 10698.600000 1 0 0
19.430160 0.348512 7.478567 20.822621 0.017935 1.203433 0.047108 -0.008119 60219.600000 1 0 0
19.703160 0.982812 0.692767 19.739817 0.049840 1.535694 0.002406 -0.001337 92148.200000 1 0 0
18.147260 0.221212 3.157067 18.421158 0.012189 1.398563 0.010216 -0.000435 -6184.740000 1 0 0
10.375660 -8.677788 16.460167 21.304822 -0.696522 0.687866 0.025404 0.004212 63989.700000 1 0 0
19.116360 3.053712 5.563067 20.142197 0.158405 1.290969 0.030015 -0.004991 122773.000000 1 0 0
14.881960 2.200612 6.959467 16.575573 0.146807 1.137502 0.010857 -0.011848 -21714.800000 1 0 0
11.188160 -16.127588 2.009767 19.731021 -0.964292 1.468761 -0.007934 0.012499 252246.000000 1 0 0
7.919260 -16.318088 7.115067 19.483810 -1.118973 1.196972 0.005874 -0.001014 383147.000000 1 0 0
6.136460 6.645812 7.215967 11.571220 0.825225 0.897440 -0.004270 0.003584 -1045840.000000 1 0 0
18.448360 2.221112 -6.616633 19.724481 0.119819 1.912882 -0.015807 0.012576 205042.000000 1 0 0
14.238160 4.413512 -7.133433 16.525440 0.300585 2.017133 0.011879 -0.002455 312507.000000 1 0 0
-10.478240 -3.859388 -13.685633 17.663095 0.352905 2.457219 0.004451 -0.002210 -88507.000000 1 0 0
7.849960 -14.008488 -10.460733 19.164721 -1.060025 2.148179 -0.010741 0.008669 201161.000000 1 0 0
2.295860 -16.166788 13.310867 21.066922 -1.429729 0.886875 -0.007356 -0.012275 428422.000000 1 0 0
-9.414140 -8.010288 2.396667 12.591059 0.705004 1.379281 0.001796 0.000631 399818.000000 1 0 0
-13.723740 3.401312 -9.624233 17.103679 -0.242946 2.168444 0.000518 -0.006744 204212.000000 1 0 0
-12.994440 -4.975388 -13.589833 19.449769 0.365666 2.344395 0.007327 0.010358 107332.000000 1 0 0
-17.743740 0.076812 -8.368133 19.618151 -0.004329 2.011472 0.006627 -0.017816 431418.000000 1 0 0
-12.086340 15.351312 4.439567 20.036271 -0.903837 1.347365 0.005233 -0.015993 352535.000000 1 0 0
-17.381440 6.535512 9.242067 20.742304 -0.359652 1.108990 0.016505 0.003928 -9974.290000 1 0 0
-12.627040 15.168412 -0.044033 19.736383 -0.876576 1.573027 0.009232 -0.021342 178944.000000 1 0 0
-15.883940 5.006312 -10.666733 19.777308 -0.305325 2.140452 0.007388 -0.000944 205271.000000 1 0 0
-18.227940 2.878012 -0.168933 18.454520 -0.156597 1.579950 0.029595 -0.002768 3500.170000 1 0 0
-9.559340 15.402012 -0.223533 18.128787 -1.015327 1.583127 0.006294 -0.006458 -128597.000000 1 0 0
-18.151440 12.151112 2.530167 21.989226 -0.589913 1.455477 0.046581 -0.010292 69319.100000 1 0 0
-8.657140 16.240012 -7.543633 19.889456 -1.081040 1.959812 0.028729 -0.028591 -48293.400000 1 0 0
-14.877240 -1.559988 -12.378333 19.416203 0.104476 2.262079 -0.012364 -0.024934 28770.900000 1 0 0
-19.025140 5.173512 -4.748733 20.279833 -0.265510 1.807151 0.037982 -0.011531 -29227.000000 1 0 0
-16.738340 9.648012 -5.730433 20.151775 -0.522887 1.859139 0.022992 0.010396 -56973.200000 1 0 0
-18.877440 1.524312 2.776367 19.141303 -0.080573 1.425237 0.004796 -0.012098 230813.000000 1 0 0
-13.658540 11.635412 -6.812833 19.192530 -0.705583 1.933682 0.002362 -0.008435 23612.700000 1 0 0
-12.737740 5.362712 -13.643633 19.420541 -0.398486 2.349751 0.000488 -0.002034 -404696.000000 1 0 0
-14.033440 9.432012 -6.593033 18.148509 -0.591761 1.942585 0.002861 0.000920 149388.000000 1 0 0
-6.456740 11.544712 -15.236933 20.177562 -1.060855 2.426668 -0.010409 -0.017447 -527012.000000 1 0 0
-14.821340 13.945112 3.358967 20.625735 -0.754948 1.407215 0.006969 -0.013251 -12325.000000 1 0 0
-18.808540 8.435912 -4.584733 21.117423 -0.421618 1.789646 0.039639 -0.010317 215266.000000 1 0 0
-3.752840 16.895912 -9.987533 19.982654 -1.352229 2.094176 -0.000473 -0.005466 -47120.300000 1 0 0
-19.237240 -1.480788 -6.750333 20.440918 0.076824 1.907350 -0.006150 -0.005798 -377798.000000 1 0 0
-10.541240 13.821012 -6.161333 18.441804 -0.919219 1.911442 -0.001994 -0.017323 69569.000000 1 0 0
-19.474740 2.791912 4.726767 20.233700 -0.142390 1.335009 0.019950 0.008317 146171.000000 1 0 0
-15.246840 12.818812 0.598667 19.928534 -0.699101 1.540751 0.021799 -0.001043 42532.400000 1 0 0
-17.515840 2.578212 -8.317433 19.560969 -0.146144 2.009985 0.003250 -0.014142 73460.400000 1 0 0
-16.249540 14.140812 -3.805233 21.874412 -0.716121 1.745644 -0.001865 0.045758 108838.000000 1 0 0
-10.561640 15.838912 -8.762433 20.957090 -0.982690 2.002163 0.008836 -0.012774 72575.900000 1 0 0
-19.370240 2.378612 -6.546733 20.584550 -0.122186 1.894459 0.031395 -0.015715 29169.000000 1 0 0
-16.876340 10.503012 -0.370033 19.881173 -0.556692 1.589410 0.016173 -0.003925 -108066.000000 1 0 0
-11.438240 6.958312 -14.526533 19.755293 -0.546528 2.396940 -0.005844 -0.005968 302641.000000 1 0 0
-13.350340 13.148412 -4.907233 19.369906 -0.777778 1.826931 0.020221 -0.000414 418781.000000 1 0 0
-18.965840 7.527812 0.136467 20.405628 -0.377843 1.564109 0.040224 -0.007831 199286.000000 1 0 0
-14.556740 9.212812 -10.501833 20.175804 -0.564253 2.118252 0.003356 0.009679 658341.000000 1 0 0
-18.600440 11.519312 4.778967 22.394407 -0.554492 1.355742 0.031197 -0.008530 279478.000000 1 0 0
-8.032340 11.963512 -13.594833 19.810694 -0.979522 2.327099 -0.021021 0.002918 393212.000000 1 0 0
-21.028140 -1.646388 -5.223633 21.729694 0.078135 1.813565 0.000700 -0.012621 174962.000000 1 0 0
-10.761140 13.537712 -2.978533 17.548317 -0.899172 1.741355 0.014114 -0.002777 552149.000000 1 0 0
-18.791040 -4.931588 3.624767 19.762659 0.256656 1.386337 0.005538 0.001639 5019.630000 1 0 0
-11.375140 11.546612 -12.836933 20.676192 -0.792879 2.240630 0.008641 -0.002255 69280.900000 1 0 0
-14.784740 12.381012 -9.982133 21.714534 -0.697144 2.048452 0.008598 0.034336 172216.000000 1 0 0
-12.698940 9.926812 -13.700733 21.154545 -0.663485 2.275292 0.021229 -0.004657 227955.000000 1 0 0
-18.241140 -4.996688 -3.175933 19.177920 0.267366 1.737166 -0.019992 0.006295 -350637.000000 1 0 0
-9.236440 12.534912 -11.553333 19.388537 -0.935760 2.209163 0.000144 -0.010494 -92318.700000 1 0 0
-15.763940 7.547912 -8.345533 19.368033 -0.446551 2.016277 0.004400 0.004504 17678.400000 1 0 0
-14.482340 9.199712 2.044967 17.278738 -0.565927 1.452167 0.014528 0.000225 -108681.000000 1 0 0
-19.826440 6.270012 7.817467 22.215165 -0.306293 1.211199 0.026423 0.004286 288590.000000 1 0 0
-18.840640 6.168812 3.719367 20.170713 -0.316420 1.385341 0.012809 0.009452 293529.000000 1 0 0
-14.561140 12.812412 5.912467 20.276636 -0.721601 1.274908 0.017301 -0.016177 31561.500000 1 0 0
17.835360 6.043212 5.589667 19.643443 0.326692 1.282253 0.015434 -0.001761 137183.000000 1 0 0
18.281460 7.082312 0.343467 19.608388 0.369601 1.553279 0.015998 -0.000853 61958.700000 1 0 0
16.834660 4.385912 8.734767 19.466334 0.254863 1.105473 0.035573 -0.004000 -11758.200000 1 0 0
12.313560 12.587912 10.989467 20.756871 0.796415 1.012859 0.026620 -0.008942 203801.000000 1 0 0
15.350460 12.797412 4.231267 20.428265 0.694944 1.362158 0.027073 0.002772 161299.000000 1 0 0
4.425960 10.010912 13.336567 17.253159 1.154520 0.687251 -0.005259 -0.028558 388778.000000 1 0 0
13.338760 12.988712 -5.304833 19.358988 0.772103 1.848371 0.051298 -0.015594 95943.900000 1 0 0
18.306360 9.320412 -2.791133 20.731216 0.470929 1.705841 0.042303 0.012526 -210972.000000 1 0 0
14.512760 7.375212 9.658067 18.928608 0.470177 1.035337 0.030421 -0.001509 76408.900000 1 0 0
4.725560 18.914212 -1.299333 19.538849 1.325967 1.637345 -0.002321 -0.006567 406569.000000 1 0 0
-4.603840 19.706912 3.967467 20.622767 -1.341297 1.377207 -0.011247 0.017301 279064.000000 1 0 0
7.663660 13.825812 11.712867 19.674248 1.064657 0.933108 0.023910 0.017275 119876.000000 1 0 0
0.362760 16.837012 -10.276533 19.728753 1.549254 2.118691 -0.002744 0.001224 -143628.000000 1 0 0
10.626960 9.417712 15.557667 21.063395 0.725144 0.739788 0.026718 -0.011705 123343.000000 1 0 0
-1.074140 12.008812 1.116767 12.108366 -1.481588 1.478434 -0.004028 0.000639 462636.000000 1 0 0
-4.629240 19.202012 -2.422633 19.900158 -1.334229 1.692838 0.005150 0.012101 49960.900000 1 0 0
5.713060 18.456712 6.405067 20.354709 1.270612 1.250685 0.020978 -0.013246 125952.000000 1 0 0
11.001860 17.249412 -1.789033 20.537375 1.003038 1.658018 0.028302 -0.003060 200135.000000 1 0 0
18.223960 10.954412 3.547067 21.556752 0.541228 1.405499 0.012030 0.007554 309450.000000 1 0 0
11.699660 16.846212 6.403967 21.486919 0.963773 1.268157 0.021944 0.002861 -207793.000000 1 0 0
18.081060 7.005812 -5.339933 20.112708 0.369656 1.839519 -0.013747 0.006224 315461.000000 1 0 0
0.266560 15.399512 11.066567 18.965362 1.553488 0.947746 -0.004831 0.001042 420485.000000 1 0 0
1.427060 20.099812 -2.052633 20.254685 1.499917 1.672312 0.007007 -0.002133 273969.000000 1 0 0
14.142560 9.839712 -1.089833 17.263246 0.607869 1.633969 0.019396 -0.000798 -145967.000000 1 0 0
10.088560 17.154612 1.532767 19.960189 1.039176 1.493929 0.036995 -0.017672 134475.000000 1 0 0
-0.033140 17.755012 -0.413933 17.759868 -1.568930 1.594106 -0.010319 0.002278 -28375.000000 1 0 0
-0.537040 21.158912 1.767167 21.239371 -1.545421 1.487498 0.005870 0.004955 147058.000000 1 0 0
6.328660 17.209912 -0.245833 18.338306 1.218412 1.584202 0.003796 -0.019717 -94711.200000 1 0 0
6.900660 18.617812 -2.790333 20.050636 1.215846 1.710414 -0.016549 0.000687 107420.000000 1 0 0
10.115960 9.717012 12.599767 18.854896 0.765286 0.838944 0.005837 -0.003940 179203.000000 1 0 0
12.143360 14.577712 8.200167 20.669147 0.876250 1.162839 0.007205 -0.009695 124215.000000 1 0 0
-0.069740 17.797612 7.372167 19.264182 -1.566878 1.178093 0.009607 0.009267 239657.000000 1 0 0
6.667260 18.172412 -7.771633 20.858744 1.219155 1.952588 -0.010260 0.000431 20424.200000 1 0 0
-0.649140 18.576812 10.111767 21.160510 -1.535867 1.072579 0.009091 0.007890 128293.000000 1 0 0
16.085160 7.028212 -7.951333 19.270491 0.411938 1.996122 0.027816 0.004485 -252721.000000 1 0 0
-5.371840 19.445212 -6.601833 21.226331 -1.301264 1.887063 0.017637 -0.010366 272727.000000 1 0 0
4.440160 15.462012 10.119067 19.004851 1.291155 1.009308 -0.006175 0.001315 212314.000000 1 0 0
8.934160 14.865612 7.518867 18.903413 1.029645 1.161731 0.004488 -0.004987 -44861.100000 1 0 0
-2.509040 19.206312 6.647767 20.478538 -1.440896 1.240185 -0.003251 -0.010254 162050.000000 1 0 0
5.032660 17.935412 8.650467 20.538677 1.297232 1.136051 0.020045 -0.008484 172237.000000 1 0 0
15.389560 11.643912 -6.834033 20.472500 0.647719 1.911144 0.053792 -0.016651 -124753.000000 1 0 0
11.899560 6.964112 15.297067 20.593656 0.529497 0.733546 0.036554 -0.009647 253662.000000 1 0 0
17.024260 9.271212 5.227167 20.077452 0.498679 1.307412 0.022227 -0.000032 154694.000000 1 0 0
5.478160 14.400812 13.250867 20.321887 1.207294 0.860512 -0.012494 0.001509 322715.000000 1 0 0
15.958860 10.192612 -3.613933 19.277839 0.568377 1.759378 0.045605 -0.017211 77086.700000 1 0 0
14.869360 14.685312 7.103367 22.072927 0.779171 1.243152 0.018057 0.032334 195029.000000 1 0 0
12.642260 14.356212 -8.300433 20.852452 0.848796 1.980193 0.045327 -0.018563 232074.000000 1 0 0
-8.181040 15.611312 9.440367 19.994075 -1.088098 1.079059 0.012524 -0.020839 149239.000000 1 0 0
-3.768040 16.481312 -7.058133 18.320726 -1.346034 1.966279 -0.003330 -0.013205 88154.700000 1 0 0
2.762760 19.512812 -4.484233 20.211161 1.430144 1.794527 -0.002560 -0.006698 195307.000000 1 0 0
7.440360 16.598512 8.830567 20.220002 1.149395 1.118842 0.016322 -0.002226 611510.000000 1 0 0
13.553360 15.260112 -1.476633 20.463261 0.844564 1.643019 0.060794 -0.014886 96730.900000 1 0 0
12.691860 16.739812 4.381067 21.459226 0.922078 1.365193 0.036306 -0.016675 292566.000000 1 0 0
2.494760 18.371712 0.653067 18.551823 1.435828 1.535587 0.004301 -0.009125 81221.100000 1 0 0
-6.334440 17.877712 1.998767 19.071780 -1.230278 1.465801 -0.044621 0.024086 295193.000000 1 0 0
0.245560 20.072512 -5.906733 20.924998 1.558563 1.856967 -0.004564 0.008051 176550.000000 1 0 0
-7.286140 18.077212 -6.223333 20.459797 -1.187658 1.879867 0.024298 -0.009672 13066.300000 1 0 0
-7.246040 18.569312 -1.342933 19.978186 -1.198753 1.638067 0.007318 0.006469 228696.000000 1 0 0
-14.213740 -9.898188 9.055867 19.545159 0.608293 1.089047 0.007484 0.011232 417343.000000 1 0 0
-13.169440 -13.430788 8.056467 20.462817 0.795223 1.166129 0.011563 -0.002623 -146418.000000 1 0 0
-3.337840 -15.511988 12.938967 20.473881 1.358850 0.886698 0.001303 -0.007098 104106.000000 1 0 0
-1.649040 -14.995588 15.657567 21.742732 1.461268 0.766808 -0.000074 0.003248 472684.000000 1 0 0
-6.973440 -14.080488 13.505667 20.719364 1.110951 0.860791 -0.023857 0.005207 43006.300000 1 0 0
-10.291840 -11.046188 11.896367 19.221441 0.820736 0.903440 0.020087 -0.000639 67951.200000 1 0 0
-7.934840 -11.255688 13.515767 19.295807 0.956747 0.794767 0.025646 0.019932 426400.000000 1 0 0
-15.254540 -12.385588 7.121167 20.900115 0.681972 1.223110 0.006722 -0.005053 321697.000000 1 0 0
-4.654140 -12.215388 13.082767 18.494202 1.206770 0.784986 0.020477 -0.018480 165002.000000 1 0 0
3.618760 -12.235488 13.733367 18.745878 -1.283235 0.748652 -0.015292 -0.010534 442899.000000 1 0 0
6.717460 -13.474988 14.604567 20.976009 -1.108339 0.800635 0.013187 -0.006527 467602.000000 1 0 0
6.821760 -9.464888 16.914867 20.548315 -0.946284 0.603815 -0.001758 0.007184 540143.000000 1 0 0
-5.035640 13.684912 13.232967 19.691265 -1.218203 0.833860 0.003130 -0.005746 483964.000000 1 0 0
-13.593240 -1.622788 17.570267 22.273839 0.118820 0.661894 0.016279 -0.004956 315882.000000 1 0 0
-9.851940 9.132612 13.448867 19.008876 -0.747526 0.784835 0.006589 -0.012507 383747.000000 1 0 0
-7.678140 -7.979188 17.166367 20.428055 0.804623 0.572899 0.006039 -0.007070 98132.100000 1 0 0
-4.981240 2.402612 18.524367 19.332291 -0.449414 0.290123 0.021465 -0.000805 489793.000000 1 0 0
-15.829440 -3.263888 14.312667 21.588807 0.203341 0.846021 0.019702 -0.011116 18044.300000 1 0 0
-14.462740 2.944312 12.703267 19.473388 -0.200835 0.860129 -0.005164 0.004980 29771.500000 1 0 0
-13.990240 10.803512 10.340167 20.478324 -0.657570 1.041493 -0.034244 0.028458 12218.000000 1 0 0
-3.902040 11.453312 15.759667 19.868855 -1.242439 0.654776 -0.008442 0.000105 213693.000000 1 0 0
-12.898340 13.229312 7.796367 20.054057 -0.798065 1.171503 0.009660 -0.026178 128050.000000 1 0 0
-3.541240 -6.228988 18.496367 19.835732 1.053853 0.369585 0.009235 -0.007715 211509.000000 1 0 0
0.445060 -2.928388 17.962367 18.204949 -1.419969 0.163430 0.006719 -0.008132 -42233.200000 1 0 0
-4.191840 6.521512 21.334467 22.699364 -0.999520 0.348545 0.016480 0.001876 280187.000000 1 0 0
2.244760 -10.622288 16.535667 19.781310 -1.362535 0.580983 -0.006696 -0.002517 296815.000000 1 0 0
-14.855640 -0.098688 13.924967 20.361839 0.006643 0.817735 -0.020949 0.005930 -13858.100000 1 0 0
-14.202940 -6.143388 8.053567 17.444904 0.408243 1.090934 0.012268 -0.001098 194918.000000 1 0 0
10.333260 0.945612 16.903767 19.834510 0.091257 0.550544 0.014261 0.017668 293476.000000 1 0 0
-7.592440 12.328012 12.193867 18.929222 -1.018790 0.870843 0.022062 -0.010499 191179.000000 1 0 0
-1.457740 7.575712 19.639167 21.100078 -1.380697 0.374303 -0.005679 -0.024168 387371.000000 1 0 0
1.149760 -14.105288 15.621767 21.078916 -1.489463 0.736076 -0.015176 0.003809 608728.000000 1 0 0
-3.752840 -11.699788 17.593867 21.459567 1.260403 0.609628 0.014145 -0.013012 281331.000000 1 0 0
-2.199740 8.923612 16.592367 18.967772 -1.329107 0.505843 0.000339 -0.013648 246845.000000 1 0 0
-5.237040 -9.351588 20.322367 22.975582 1.060296 0.485332 0.042490 -0.010121 -107118.000000 1 0 0
-6.554040 -3.204088 19.155367 20.497554 0.454706 0.363889 0.011316 -0.009468 116432.000000 1 0 0
-10.596940 -8.001488 16.195867 20.943377 0.646741 0.686740 0.019790 -0.007813 294366.000000 1 0 0
-0.299140 6.274112 17.763467 18.841304 -1.523154 0.339882 -0.001749 -0.013347 38934.200000 1 0 0
-6.328840 -11.200388 18.966067 22.917561 1.056468 0.596017 0.012417 0.001800 424019.000000 1 0 0
0.866460 3.370712 18.956567 19.273399 1.319188 0.181571 0.008468 0.001077 127996.000000 1 0 0
-18.396540 -0.389688 7.700767 19.947089 0.021179 1.174440 -0.011517 0.007668 248805.000000 1 0 0
-1.799140 -8.919988 17.596167 19.809800 1.371769 0.477263 -0.001942 0.000653 302266.000000 1 0 0
5.876860 3.405212 15.032167 16.495424 0.525155 0.424382 0.004020 -0.002323 455222.000000 1 0 0
-13.899240 -6.863288 10.210367 18.561929 0.458666 0.988348 0.007007 -0.002515 138424.000000 1 0 0
3.384160 8.197712 16.955267 19.134683 1.179289 0.481932 -0.000536 -0.003987 217631.000000 1 0 0
6.280660 4.486712 17.259267 18.906602 0.620305 0.420537 0.009121 -0.024648 211293.000000 1 0 0
4.168560 -9.874388 17.801867 20.779483 -1.171335 0.541951 -0.021112 0.000693 395198.000000 1 0 0
-4.381940 -0.675288 19.736367 20.228238 0.152904 0.220976 0.017408 -0.011152 716900.000000 1 0 0
-11.104740 1.760612 17.151067 20.507904 -0.157237 0.580269 0.036575 -0.004745 263706.000000 1 0 0
-16.624540 -3.885788 8.830967 19.221359 0.229616 1.093437 -0.008500 -0.010674 248716.000000 1 0 0
-12.910140 -9.334188 12.899967 20.498974 0.626004 0.890146 -0.019726 -0.008223 96996.800000 1 0 0
-14.753440 6.225912 13.018467 20.637501 -0.399325 0.888192 0.007616 -0.008187 -127920.000000 1 0 0
0.934760 9.353012 17.424867 19.798450 1.471185 0.494697 -0.021461 -0.007832 227928.000000 1 0 0
-3.860940 -10.265388 14.679967 18.324478 1.211051 0.641645 0.015898 -0.013047 741987.000000 1 0 0
-18.666240 -3.026188 6.382667 19.958075 0.160723 1.245274 0.063091 -0.014446 -421670.000000 1 0 0
-0.749940 -0.526688 21.284867 21.304586 0.612272 0.043028 0.013079 0.005606 439365.000000 1 0 0
-1.813340 2.331312 20.257567 20.471743 -0.909727 0.144778 0.007235 -0.011709 101374.000000 1 0 0
-8.065540 2.207012 16.343367 18.358363 -0.267097 0.472922 0.016539 0.006202 593252.000000 1 0 0
3.228960 -2.990188 18.500767 19.016987 -0.747024 0.233533 0.025056 -0.005556 -69248.300000 1 0 0
-12.368140 4.417712 14.365367 19.464091 -0.343061 0.740629 -0.003670 -0.001847 161767.000000 1 0 0
-13.530340 -5.357088 13.112367 19.588330 0.376994 0.837400 0.013241 -0.004163 41130.000000 1 0 0
-17.209040 -1.080488 10.224567 20.046453 0.062704 1.035561 -0.011521 0.005525 -944646.000000 1 0 0
-7.385140 7.776912 14.688167 18.186889 -0.811231 0.630685 0.019200 -0.009161 -10357.000000 1 0 0
-9.461140 0.696912 14.239767 17.110518 -0.073528 0.587691 0.012970 -0.001890 160395.000000 1 0 0
7.772660 -0.838188 15.179167 17.074072 -0.107423 0.475599 0.006922 0.003667 175836.000000 1 0 0
3.842560 6.515712 18.448367 19.938957 1.037957 0.389123 -0.000180 0.002486 -82994.200000 1 0 0
2.151460 0.427812 19.888067 20.008674 0.196287 0.109852 0.010642 -0.005162 306772.000000 1 0 0
-6.811740 6.668112 17.251867 19.710161 -0.774744 0.504786 0.011305 -0.016012 413235.000000 1 0 0
7.649260 -3.007688 16.823267 18.723773 -0.374630 0.454461 0.004055 0.007333 329984.000000 1 0 0
-16.330340 2.351912 9.644967 19.111172 -0.143037 1.041789 0.000843 0.004934 134280.000000 1 0 0
3.678060 -6.105888 18.996567 20.289888 -1.028629 0.358974 -0.004392 -0.007660 165419.000000 1 0 0
-3.511440 -3.414088 20.722267 21.293158 0.771342 0.232085 0.006650 -0.004231 380734.000000 1 0 0
-9.464540 5.942512 14.778367 18.528117 -0.560661 0.647460 0.011482 -0.000001 -186865.000000 1 0 0
6.925260 2.506812 19.808667 21.133543 0.347308 0.355969 0.016372 -0.012630 119845.000000 1 0 0
-7.272440 11.410712 14.664467 19.953429 -1.003376 0.745226 0.029055 -0.013657 243610.000000 1 0 0
-14.266940 5.182612 9.997267 18.175544 -0.348439 0.988385 -0.002108 0.005706 354903.000000 1 0 0
0.208660 -5.699088 20.613767 21.388093 -1.534200 0.269904 -0.010145 0.003807 164903.000000 1 0 0
-6.195240 -8.059188 13.541467 16.932302 0.915423 0.643932 0.018286 -0.007784 213391.000000 1 0 0
-12.684140 10.125212 6.548667 17.501211 -0.673678 1.187280 -0.006315 -0.019510 92302.600000 1 0 0
-19.234640 2.533412 8.078367 21.015460 -0.130957 1.176237 -0.034678 0.014620 46974.400000 1 0 0
-15.830440 9.190212 6.326267 19.367098 -0.525988 1.238039 0.013858 -0.000819 55686.100000 1 0 0
-12.732940 8.316112 14.148167 20.771522 -0.578564 0.821487 0.012693 -0.000775 229010.000000 1 0 0
-16.703240 8.768512 10.575167 21.626817 -0.483415 1.059872 0.014216 -0.013799 165429.000000 1 0 0
2.694460 10.310012 15.379467 18.710545 1.315170 0.605939 -0.017691 -0.020267 394004.000000 1 0 0
1.576960 14.446512 13.680867 19.958824 1.462068 0.815568 -0.016870 -0.005952 556802.000000 1 0 0
9.129360 5.139612 16.946467 19.923443 0.512751 0.553710 0.017056 0.003182 83043.100000 1 0 0
-0.179540 13.260612 13.608967 19.002107 -1.557258 0.772480 -0.007667 0.013680 110203.000000 1 0 0
4.235760 12.217812 14.543967 19.461336 1.237076 0.726767 -0.005396 -0.008507 160721.000000 1 0 0
-3.614540 -4.505388 -14.167333 15.299567 0.894672 2.754461 0.001954 -0.003011 9073.200000 1 0 0
5.897860 -12.425288 16.776767 21.694065 -1.127621 0.686713 -0.023544 0.020950 159395.000000 1 0 0
8.778860 -13.684988 7.201967 17.782452 -1.000423 1.153813 0.009132 -0.006315 389284.000000 1 0 0
-0.336340 15.138012 0.469867 15.149037 -1.548582 1.539775 -0.008461 -0.000453 -271517.000000 1 0 0
-14.279440 7.777312 8.451667 18.325383 -0.498727 1.091449 0.015263 -0.001855 -2266.840000 1 0 0
-15.563940 -9.810588 5.795667 19.289210 0.562431 1.265620 -0.001933 -0.002960 137204.000000 1 0 0
8.574960 -11.301388 11.359267 18.173724 -0.921717 0.895616 -0.006488 0.005562 -238804.000000 1 0 0
-24.835140 6.061512 31.436574 40.518937 -0.239390 0.682737 0.022916 -0.012108 -104030.000000 0 0 1
-23.581040 5.447412 31.257334 39.531768 -0.227026 0.658863 0.015381 -0.009488 -206837.000000 0 0 1
-22.634940 5.964512 32.160684 39.777198 -0.257652 0.629163 0.007561 -0.015038 183116.000000 0 0 1
-21.279740 5.207812 32.066944 38.836034 -0.240013 0.599353 0.006031 -0.009127 -168263.000000 0 0 1
-21.289440 3.819712 32.506714 39.045062 -0.177529 0.587113 -0.008220 -0.007548 -184041.000000 0 0 1
-20.013440 3.294312 32.231674 38.082425 -0.163142 0.561671 -0.009517 -0.000670 -90989.500000 0 0 1
-19.744640 2.032212 33.025504 38.531346 -0.102564 0.541168 -0.007787 -0.006431 -114455.000000 0 0 1
-20.368840 0.887312 32.465594 38.336559 -0.043535 0.560749 0.004632 -0.013482 185256.000000 0 0 1
-20.382540 -0.137488 33.425091 39.149758 0.006745 0.547603 -0.000548 -0.012674 -28778.900000 0 0 1
-21.101840 -1.436988 32.931514 39.138692 0.067993 0.570917 0.003676 -0.019016 -129360.000000 0 0 1
-20.369240 -2.247388 32.013054 38.010424 0.109888 0.569413 0.021445 -0.018577 12417.800000 0 0 1
-20.326340 -3.674988 32.368264 38.397528 0.178867 0.568001 0.020906 -0.020812 744947.000000 0 0 1
-21.663540 -4.542388 32.172064 39.051043 0.206685 0.602632 0.018920 -0.013851 1554660.000000 0 0 1
-22.791140 -4.331188 33.018734 40.353835 0.187799 0.612470 0.012406 -0.012933 592613.000000 0 0 1
-22.555140 -4.560788 34.371784 41.363688 0.199516 0.589956 0.013186 -0.010517 -1073920.000000 0 0 1
-23.841040 -4.413588 -33.922663 41.696786 0.183053 2.521038 0.003314 -0.003292 -315877.000000 0 0 1
-23.792140 -4.715688 -32.542603 40.587247 0.195668 2.501087 0.006375 0.003504 -489076.000000 0 0 1
-25.027640 -4.544888 -31.914683 40.811588 0.179637 2.468665 -0.005280 0.001167 -760245.000000 0 0 1
-25.100600 -4.994088 -30.434373 39.764709 0.196398 2.442399 -0.019593 0.010552 -992743.000000 0 0 1
-25.236580 -6.399188 -30.366713 39.999648 0.248334 2.432840 -0.013640 0.004647 440622.000000 0 0 1
-25.324750 -6.949888 -29.064943 39.171607 0.267837 2.406830 -0.032139 0.012995 -47025.200000 0 0 1
-25.532050 -8.480388 -29.008313 39.563680 0.320682 2.393820 -0.025788 0.009509 538244.000000 0 0 1
-26.865570 -8.914888 -29.327293 40.759345 0.320400 2.373912 -0.010048 0.008885 448090.000000 0 0 1
-27.054270 -10.136388 -28.591103 40.646415 0.358480 2.350980 -0.015559 0.007138 -200469.000000 0 0 1
-28.533930 -10.517988 -28.594433 41.742722 0.353160 2.325422 0.021843 -0.004019 -133218.000000 0 0 1
-28.885200 -11.495588 -27.606783 41.576890 0.378759 2.296943 0.023193 -0.008958 53039.100000 0 0 1
-30.248950 -11.414988 -27.228213 42.269096 0.360845 2.270726 0.026824 -0.007597 -171636.000000 0 0 1
-30.529640 -12.255288 -25.992053 41.926576 0.381732 2.239465 0.020178 0.000317 -51147.300000 0 0 1
-29.885220 -11.701588 -24.862333 40.597896 0.373202 2.229895 0.019044 -0.004169 297312.000000 0 0 1
-29.856990 -12.463988 -23.650933 40.076894 0.395464 2.202027 0.015931 -0.001049 -166513.000000 0 0 1
-29.473210 -11.605988 -22.384333 38.786949 0.375134 2.185982 0.015641 -0.001392 108216.000000 0 0 1
-29.294530 -12.357588 -21.208733 38.218972 0.399191 2.159071 0.007722 0.005029 1906960.000000 0 0 1
-27.928350 -12.900188 -21.071833 37.288466 0.432708 2.171355 0.008207 -0.004794 1464310.000000 0 0 1
-27.685270 -13.250988 -19.576733 36.404826 0.446406 2.138564 0.006394 -0.015371 -223052.000000 0 0 1
-27.441820 -12.110188 -18.753933 35.375417 0.415599 2.129562 0.004338 -0.014137 64077.300000 0 0 1
-26.888650 -12.604388 -17.589533 34.514660 0.438347 2.105545 -0.011933 -0.000873 -215395.000000 0 0 1
-26.683550 -11.533888 -16.468433 33.410353 0.407993 2.086232 -0.008036 -0.007930 597396.000000 0 0 1
-25.501840 -10.766488 -16.789633 32.375189 0.399484 2.116004 0.014250 -0.017820 817999.000000 0 0 1
-25.418910 -9.484088 -16.256333 31.628109 0.357114 2.110619 0.031520 -0.020717 141481.000000 0 0 1
-24.032240 -8.756588 -16.456033 30.414263 0.349417 2.142497 0.042215 -0.021854 882700.000000 0 0 1
-23.098040 -9.360888 -15.555333 29.378803 0.385039 2.128778 0.010691 -0.023724 847225.000000 0 0 1
-21.838940 -8.656288 -15.627133 28.214852 0.377373 2.157792 0.044444 -0.040867 987153.000000 0 0 1
-20.755340 -9.068888 -14.599433 26.947584 0.411942 2.143340 0.019316 -0.004399 -150547.000000 0 0 1
-20.162140 -10.304588 -14.713833 27.003579 0.472477 2.147048 0.011274 -0.008761 689030.000000 0 0 1
-19.076140 -10.415888 -13.763733 25.726060 0.499780 2.135317 0.008579 -0.000492 773756.000000 0 0 1
-17.967740 -11.440388 -14.155933 25.575625 0.566982 2.157349 0.006148 0.000336 188456.000000 0 0 1
-17.197840 -11.025188 -15.290733 25.517190 0.570079 2.213339 0.013412 -0.008126 -28365.100000 0 0 1
-17.718140 -11.408688 -16.528233 26.781955 0.572074 2.235900 0.008307 -0.011138 -361637.000000 0 0 1
-17.002840 -10.671988 -17.652933 26.732264 0.560509 2.292095 0.004234 -0.004639 -112439.000000 0 0 1
-17.571140 -11.054788 -18.890933 28.068143 0.561574 2.309105 0.002404 -0.005723 171741.000000 0 0 1
-17.056940 -10.345188 -19.970133 28.227085 0.545192 2.356724 0.002322 -0.005913 -414764.000000 0 0 1
-17.738640 -10.608988 -21.308733 29.686227 0.539001 2.371432 0.009238 -0.001819 -660149.000000 0 0 1
-19.006140 -10.036688 -21.359033 30.301431 0.485855 2.353058 0.017624 -0.018113 -262246.000000 0 0 1
-19.750340 -10.602588 -22.437633 31.716528 0.492676 2.356670 0.010599 -0.009077 -326441.000000 0 0 1
-21.092540 -9.999888 -22.778133 32.614971 0.442710 2.343949 0.020519 -0.015524 -603003.000000 0 0 1
-20.925840 -8.760788 -23.471533 32.642840 0.396487 2.373217 0.016925 -0.017791 755966.000000 0 0 1
-22.092440 -8.269488 -24.158733 33.765437 0.358168 2.368117 0.011865 -0.017710 247015.000000 0 0 1
-21.695640 -7.418388 -25.391303 34.211862 0.329467 2.407111 -0.000200 -0.017566 272058.000000 0 0 1
-20.993240 -8.240688 -26.338393 34.674717 0.374059 2.433471 0.012469 -0.015979 327026.000000 0 0 1
-20.297040 -7.528688 -27.365103 34.892690 0.355194 2.472306 0.008549 -0.022740 217059.000000 0 0 1
-19.074740 -8.251788 -27.969043 34.845445 0.408293 2.502538 0.035468 -0.013683 27938.000000 0 0 1
-19.399840 -9.454088 -28.718103 35.923015 0.453459 2.497150 0.037369 -0.009475 821552.000000 0 0 1
-18.190540 -10.074388 -29.190943 35.839924 0.505776 2.522631 0.006573 -0.000770 568680.000000 0 0 1
-18.454840 -11.167688 -30.240493 37.145468 0.544187 2.521991 0.026942 0.003104 -206506.000000 0 0 1
-18.779140 -10.595088 -31.485713 38.161002 0.513676 2.541132 0.021306 0.004363 305055.000000 0 0 1
-18.860740 -11.645388 -32.463653 39.309430 0.553145 2.542502 -0.000552 0.009798 115638.000000 0 0 1
-19.347040 -11.273188 -33.896483 40.624676 0.527589 2.557806 -0.016494 0.006139 132979.000000 0 0 1
-18.307640 -10.746988 34.424397 40.443869 0.530822 0.552596 -0.001630 -0.003419 20088.800000 0 0 1
-18.653440 -10.902988 33.089342 39.518736 0.528947 0.578456 0.000677 -0.006910 18866.200000 0 0 1
-18.142540 -12.231288 32.356574 39.060262 0.593184 0.594594 0.015443 -0.009050 -285040.000000 0 0 1
-16.774340 -12.196488 32.034594 38.162128 0.628678 0.574555 0.021649 -0.013788 -61393.900000 0 0 1
-16.458340 -12.945188 30.853374 37.287874 0.666481 0.596268 0.028321 -0.013839 -80092.900000 0 0 1
-16.528340 -14.471788 30.918294 37.928348 0.719155 0.617763 0.026215 -0.007174 -634207.000000 0 0 1
-17.791740 -15.126188 30.885574 38.720360 0.704599 0.647396 0.010229 -0.007361 81892.300000 0 0 1
-17.723340 -16.462588 31.297714 39.556042 0.748536 0.657987 0.016178 -0.007554 -426998.000000 0 0 1
-18.054740 -16.742188 32.774304 40.993042 0.747696 0.644319 -0.003126 -0.011301 -555873.000000 0 0 1
-17.068840 -16.309488 33.683546 41.133027 0.762652 0.611317 0.015817 -0.009396 143586.000000 0 0 1
-17.611440 -16.135788 -34.099010 41.632547 0.741699 2.530544 0.003171 -0.008076 351063.000000 0 0 1
-16.507540 -15.521088 -33.182173 40.180339 0.754609 2.542471 0.017818 -0.001729 503107.000000 0 0 1
-16.244240 -14.187988 -33.541583 39.877464 0.717932 2.570140 0.021855 -0.002745 -300344.000000 0 0 1
-15.065240 -13.658788 -32.983623 38.748462 0.736473 2.589110 0.023851 -0.003212 91184.000000 0 0 1
-15.191740 -13.102088 -31.487223 37.334955 0.711677 2.574323 0.023645 -0.004105 -111164.000000 0 0 1
-15.159840 -14.169888 -30.624983 36.993189 0.751658 2.546069 0.022580 -0.009454 -166774.000000 0 0 1
-15.555440 -13.941588 -29.288253 35.974176 0.730740 2.522054 0.026656 -0.005629 -176109.000000 0 0 1
-15.610140 -15.236088 -28.448883 35.849041 0.773272 2.487457 0.020234 0.001084 742838.000000 0 0 1
-14.340840 -15.855288 -28.191193 35.380690 0.835510 2.492770 0.025518 -0.007600 329910.000000 0 0 1
-13.776340 -16.536788 -29.285103 36.343777 0.876212 2.507788 0.018644 -0.013941 88497.700000 0 0 1
-12.258540 -16.801488 -29.019593 35.702921 0.940473 2.519751 0.020844 -0.011114 447116.000000 0 0 1
-11.495240 -15.621188 -28.908683 34.811981 0.936397 2.550664 0.021098 -0.010711 702681.000000 0 0 1
-10.105340 -15.949488 -28.688603 34.344432 1.006048 2.559512 0.015945 -0.014401 1594340.000000 0 0 1
-9.119940 -14.750788 -28.515163 33.374744 1.017053 2.595179 0.008030 -0.007768 196971.000000 0 0 1
-9.167940 -14.112588 -27.277453 32.051142 0.994682 2.588798 0.009124 -0.009949 -235966.000000 0 0 1
-8.077740 -13.247688 -27.030203 31.167017 1.023241 2.620487 -0.003255 -0.005671 -81316.600000 0 0 1
-7.925240 -11.857088 -27.718373 31.172234 0.981597 2.666392 0.001192 -0.007148 -241795.000000 0 0 1
-7.446540 -12.070988 -29.051433 32.328709 1.018046 2.687425 0.010919 -0.005211 244505.000000 0 0 1
-7.546840 -10.900088 -29.897963 32.705579 0.965213 2.724214 0.010781 -0.006389 -593674.000000 0 0 1
-6.376040 -10.809988 -30.849573 33.304742 1.037889 2.755219 0.009786 0.006866 -41065.200000 0 0 1
-5.086040 -10.736088 -30.230603 32.481083 1.128382 2.767157 0.021635 0.002775 1658200.000000 0 0 1
-3.928740 -10.486388 -31.063973 33.020747 1.212331 2.795605 0.034193 -0.002740 887618.000000 0 0 1
-3.916940 -9.056088 -31.786303 33.282491 1.162573 2.840611 0.022958 0.004468 -467881.000000 0 0 1
-2.740140 -8.791688 -32.552493 33.829971 1.268664 2.865905 0.018249 0.001262 318619.000000 0 0 1
-2.883740 -7.511388 -33.133253 34.096178 1.204232 2.903368 -0.001911 -0.000379 285991.000000 0 0 1
-1.541040 -6.848188 -33.554413 34.280769 1.349454 2.935371 0.009688 -0.001485 462599.000000 0 0 1
-0.997040 -7.501588 34.383239 35.206179 1.438660 0.216640 0.020140 -0.013397 -41142.900000 0 0 1
0.285960 -6.982688 34.102348 34.811060 -1.529866 0.202130 0.009236 -0.000541 101549.000000 0 0 1
0.856060 -7.550388 32.795514 33.664327 -1.457899 0.227684 0.003561 -0.001364 -234153.000000 0 0 1
0.215860 -7.088988 31.629604 32.414999 -1.540356 0.220580 -0.011713 0.002430 -44581.000000 0 0 1
0.854560 -7.597288 30.526134 31.468935 -1.458785 0.245400 -0.004282 -0.005725 -160291.000000 0 0 1
0.356860 -7.011588 29.191424 30.023806 -1.519944 0.236022 -0.002773 -0.000720 112164.000000 0 0 1
0.933160 -5.721488 28.916384 29.491752 -1.409122 0.197855 -0.013626 0.005144 324109.000000 0 0 1
0.539260 -5.281788 27.593104 28.099243 -1.469051 0.190089 -0.009058 0.013568 -239983.000000 0 0 1
-0.772640 -4.527788 27.313914 27.697432 1.401780 0.166606 -0.008466 0.015453 -443925.000000 0 0 1
-1.929240 -5.287888 27.439294 28.010687 1.220961 0.202331 0.001876 0.004313 -1525140.000000 0 0 1
-2.990940 -4.416488 27.270244 27.786998 0.975522 0.193158 -0.000971 0.000464 -1039680.000000 0 0 1
-4.346240 -5.077588 27.490344 28.291177 0.862849 0.238501 0.004921 0.001701 -446324.000000 0 0 1
-4.749140 -6.028788 26.541344 27.628673 0.903573 0.281482 0.000939 0.005283 -141209.000000 0 0 1
-6.072740 -6.459888 26.796844 28.225505 0.816280 0.319527 -0.006079 0.002643 472831.000000 0 0 1
-6.246840 -7.961388 26.585234 28.446113 0.905490 0.363713 -0.004020 0.001030 -64903.300000 0 0 1
-5.583140 -8.585188 27.626684 29.463716 0.994194 0.354987 0.004046 -0.009560 -132013.000000 0 0 1
-5.904140 -9.925388 27.703874 30.014610 1.034170 0.394957 0.006702 -0.011424 46429.000000 0 0 1
-5.015440 -10.433188 28.852724 31.088353 1.122691 0.381552 0.013107 -0.018715 111104.000000 0 0 1
-5.112540 -11.851288 28.998824 31.741501 1.163525 0.418761 0.022268 -0.026679 -437579.000000 0 0 1
-4.306940 -12.371488 29.988634 32.724939 1.235785 0.411843 0.030429 -0.029907 -378239.000000 0 0 1
-4.366340 -13.869388 29.915944 33.262419 1.265801 0.452420 0.039726 -0.030916 430454.000000 0 0 1
-5.723040 -14.290788 30.037984 33.752930 1.189884 0.473589 0.044206 -0.030579 180348.000000 0 0 1
-5.822840 -15.703488 30.170874 34.507776 1.215714 0.506761 0.045345 -0.029306 -22857.900000 0 0 1
-5.947240 -16.144988 31.657634 36.031043 1.217856 0.497830 0.047108 -0.029241 -308660.000000 0 0 1
-7.225440 -15.937188 32.192944 36.641323 1.145144 0.497881 0.053511 -0.025617 -337791.000000 0 0 1
-7.203240 -16.487788 33.438441 37.971873 1.158904 0.493647 0.043921 -0.024850 -218920.000000 0 0 1
-8.573440 -16.762888 34.124518 38.974107 1.098028 0.504184 0.054710 -0.020549 579608.000000 0 0 1
-9.333240 -17.918888 33.739493 39.326191 1.090600 0.539551 0.047561 -0.019217 482609.000000 0 0 1
-9.571340 -18.139788 32.318934 38.277617 1.085279 0.565483 0.047803 -0.020514 -663197.000000 0 0 1
-10.091040 -19.586788 32.082444 38.919848 1.095066 0.601795 0.055460 -0.020190 963500.000000 0 0 1
-11.434140 -20.004988 32.433524 39.785331 1.051548 0.617699 0.061824 -0.015774 1277150.000000 0 0 1
-11.649540 -21.387988 32.332224 40.478766 1.072049 0.645589 0.043751 -0.011457 -265385.000000 0 0 1
-11.002940 -22.350288 33.355985 41.631980 1.113332 0.641481 0.039532 -0.015466 -1186700.000000 0 0 1
-9.622340 -22.483988 33.217527 41.249524 1.166418 0.634644 0.027920 -0.011927 -814254.000000 0 0 1
-9.024540 -23.220388 34.262149 42.361817 1.200115 0.628691 0.025855 -0.019457 -77505.600000 0 0 1
-9.536240 -24.615488 -34.480241 43.425213 1.201192 2.488181 0.024956 -0.009514 -670309.000000 0 0 1
-9.312040 -25.563418 33.629848 43.257012 1.221464 0.680207 0.020674 -0.001774 36100.200000 0 0 1
-9.329140 -26.872868 34.142399 44.439704 1.236655 0.694637 0.034040 -0.000758 -1130030.000000 0 0 1
-8.804640 -27.881718 33.093336 44.159719 1.264921 0.723639 0.018227 0.003690 1071290.000000 0 0 1
-7.415040 -27.669908 32.776664 43.530636 1.308966 0.718253 0.016042 0.003122 675249.000000 0 0 1
-6.516240 -28.135108 33.722659 44.398912 1.343204 0.708194 0.012143 0.002044 -1003890.000000 0 0 1
-5.063040 -27.636718 33.755159 43.918485 1.389606 0.694167 0.010731 -0.002578 122172.000000 0 0 1
-4.795140 -26.384128 34.369273 43.593147 1.391015 0.662576 0.005990 -0.001301 57700.500000 0 0 1
-4.924440 -25.265348 33.515983 42.260017 1.378301 0.654931 0.019289 -0.010591 35615.800000 0 0 1
-4.390940 -23.965288 34.208361 41.997944 1.389585 0.618887 0.021370 -0.007737 716376.000000 0 0 1
-3.004640 -23.903788 -34.544186 42.115552 1.445755 2.532599 0.007603 -0.005618 653782.000000 0 0 1
-2.749440 -22.857388 -33.674333 40.791914 1.451085 2.541910 0.009667 -0.012276 -236186.000000 0 0 1
33.770717 -15.622888 2.115367 37.269434 -0.433296 1.514007 0.072587 -0.042238 -354577.000000 0 0 1
34.620675 -16.194988 3.078367 38.345079 -0.437544 1.490429 0.053712 -0.033705 76317.900000 0 0 1
33.993537 -16.780288 4.208467 38.142494 -0.458540 1.460236 0.061160 -0.037757 185967.000000 0 0 1
34.957709 -16.742288 5.442967 39.140408 -0.446650 1.431282 0.036577 -0.018506 813591.000000 0 0 1
-34.258177 -17.594388 5.318267 38.877617 0.474454 1.433571 0.053360 -0.022422 281855.000000 0 0 1
-33.620290 -17.643688 6.555567 38.530495 0.483285 1.399825 0.044103 -0.014823 -753224.000000 0 0 1
-32.558110 -18.725788 6.529267 38.122395 0.521947 1.398677 0.020736 -0.014999 -699851.000000 0 0 1
-32.946120 -20.069388 6.571767 39.133301 0.547126 1.402064 0.037861 -0.020482 7264.960000 0 0 1
-31.920100 -20.749888 7.260467 38.757774 0.576415 1.382354 0.012825 -0.010046 -104973.000000 0 0 1
-32.178950 -22.257388 7.498867 39.838538 0.605117 1.381435 0.007124 -0.005140 -931432.000000 0 0 1
-31.908950 -23.031988 6.348367 39.861702 0.625210 1.410855 0.025978 0.001100 281426.000000 0 0 1
-32.225650 -24.409988 6.479067 40.942867 0.648265 1.411882 0.030910 -0.007150 97743.600000 0 0 1
-31.692980 -25.103548 5.205167 40.764284 0.669896 1.442757 0.032930 -0.007116 360065.000000 0 0 1
-32.412260 -24.686988 4.023867 40.941342 0.650919 1.472354 0.040693 -0.006012 177445.000000 0 0 1
-31.720810 -25.027048 2.865867 40.506495 0.667984 1.499986 0.042628 0.003516 -224565.000000 0 0 1
-32.560390 -24.787488 1.583567 40.952488 0.650680 1.532118 0.028132 0.001811 266880.000000 0 0 1
-33.685360 -25.713318 1.424767 42.401747 0.651983 1.537188 0.034326 0.002501 855021.000000 0 0 1
-34.375096 -25.325448 0.241767 42.697588 0.634959 1.565134 0.039494 0.006105 464796.000000 0 0 1
34.954048 -24.133588 0.435267 42.478289 -0.604279 1.560549 0.060260 -0.000658 -355059.000000 0 0 1
33.617427 -24.544688 0.259267 41.624996 -0.630655 1.564568 0.043266 0.001286 185500.000000 0 0 1
32.741807 -23.490088 0.714267 40.302858 -0.622331 1.553073 0.071528 -0.014253 826635.000000 0 0 1
31.222017 -23.634188 0.413867 39.160701 -0.647948 1.560228 0.016848 -0.006722 555671.000000 0 0 1
30.903497 -23.476288 -0.951633 38.820971 -0.649658 1.595312 0.024974 -0.010194 1223650.000000 0 0 1
29.473657 -23.327788 -1.188633 37.607114 -0.669524 1.602408 0.022502 -0.004218 1597440.000000 0 0 1
29.127727 -23.162188 -2.711133 37.313023 -0.671803 1.643520 0.006341 0.012145 195140.000000 0 0 1
29.673687 -21.923688 -3.166033 37.029712 -0.636311 1.656401 0.018394 -0.007022 305774.000000 0 0 1
29.244947 -21.655688 -4.477833 36.664516 -0.637389 1.693232 0.022334 -0.026470 281490.000000 0 0 1
29.636877 -20.241388 -4.838933 36.214273 -0.599211 1.704817 0.025931 -0.029008 809421.000000 0 0 1
28.668317 -19.411488 -4.158633 34.870797 -0.595195 1.690339 0.025681 -0.028732 727673.000000 0 0 1
28.899037 -18.029588 -4.411833 34.346538 -0.557795 1.699603 0.033338 -0.026362 -158948.000000 0 0 1
28.008627 -17.283688 -3.423633 33.089731 -0.552887 1.674447 0.038131 -0.027061 -545392.000000 0 0 1
28.457797 -17.072588 -2.091133 33.251952 -0.540365 1.633725 0.039301 -0.020062 -85816.800000 0 0 1
28.907007 -18.208788 -1.295733 34.188506 -0.562122 1.608705 0.033103 -0.011729 -314325.000000 0 0 1
27.985447 -19.462688 -1.041133 34.103745 -0.607671 1.601329 0.018059 -0.007350 -507202.000000 0 0 1
26.780557 -19.147288 -0.430233 32.924185 -0.620702 1.583864 0.009125 0.013967 -976662.000000 0 0 1
26.155707 -20.344888 -0.132833 33.136885 -0.661080 1.574805 -0.006139 0.019331 -719136.000000 0 0 1
25.145887 -20.100688 0.996767 32.207869 -0.674352 1.539843 -0.001850 0.018820 -907703.000000 0 0 1
24.406087 -21.230988 1.337867 32.375945 -0.715937 1.529462 -0.001682 0.016852 -77857.600000 0 0 1
23.763487 -21.022788 2.614167 31.835433 -0.724279 1.488589 -0.011221 0.018200 -427176.000000 0 0 1
22.336787 -20.495788 2.591567 30.425739 -0.742443 1.485516 -0.013719 0.018408 -1212510.000000 0 0 1
22.084887 -19.156188 2.229867 29.320199 -0.714503 1.494671 0.005667 0.008459 171000.000000 0 0 1
22.479287 -18.257988 3.232667 29.139708 -0.682144 1.459631 0.008331 0.013938 -359056.000000 0 0 1
22.520087 -16.807988 2.732067 28.233437 -0.641164 1.473878 0.006960 0.011062 512445.000000 0 0 1
21.236387 -16.385088 2.260267 26.917727 -0.657156 1.486728 0.002838 0.016556 457332.000000 0 0 1
21.408187 -15.165088 1.551067 26.281099 -0.616327 1.511744 0.011559 0.005937 -527138.000000 0 0 1
20.124687 -14.596688 0.948867 24.879041 -0.627513 1.532648 0.015052 0.001830 -553736.000000 0 1 0
19.176387 -14.465088 1.979967 24.101719 -0.646259 1.488553 0.014634 0.004207 -18123.100000 0 1 0
18.214287 -13.418388 1.836667 22.697725 -0.634932 1.489789 0.024420 -0.000199 14994.600000 0 1 0
18.634587 -11.998588 2.217867 22.274041 -0.572067 1.471059 0.028393 0.001775 -710840.000000 0 1 0
19.568287 -11.471388 1.283767 22.719125 -0.530228 1.514260 0.023895 -0.005290 276612.000000 0 1 0
20.157187 -10.310988 1.761367 22.709713 -0.472828 1.493158 0.031682 -0.006407 -335035.000000 0 1 0
21.051787 -9.715488 0.645767 23.194514 -0.432380 1.542951 0.045201 -0.001295 110083.000000 0 1 0
20.350187 -9.201888 -0.517533 22.339935 -0.424663 1.593965 0.038790 0.002549 727908.000000 0 1 0
21.278987 -8.867788 -1.510933 23.102291 -0.394853 1.636245 0.039269 -0.000279 -288334.000000 0 1 0
20.598887 -8.586288 -2.888733 22.502961 -0.394933 1.699523 0.055605 -0.000833 479040.000000 0 1 0
21.520087 -8.247188 -3.950033 23.382323 -0.365968 1.740543 0.040451 0.005015 1107060.000000 0 1 0
22.289887 -9.320988 -4.545733 24.584214 -0.396072 1.756771 0.027167 0.008969 -139759.000000 0 1 0
21.445387 -10.380388 -5.353733 24.419655 -0.450797 1.791830 0.006907 0.002382 -36351.700000 0 1 0
20.906987 -9.784388 -6.497033 23.980154 -0.437718 1.845159 0.004762 -0.005982 -536437.000000 0 1 0
19.532887 -9.575288 -6.386733 22.671792 -0.455788 1.856366 0.003605 -0.001614 -805481.000000 0 1 0
18.834787 -9.497688 -7.774733 22.481142 -0.467052 1.923923 0.000544 0.001991 -399481.000000 0 1 0
18.818087 -10.698088 -8.592233 23.289396 -0.516936 1.948657 0.005666 0.001929 162913.000000 0 1 0
19.935187 -10.944488 -9.398233 24.607322 -0.502078 1.962678 0.001096 -0.003431 -371620.000000 0 1 0
19.758887 -12.352788 -9.973133 25.346960 -0.558726 1.975194 -0.007478 -0.005323 -336745.000000 0 0 1
18.745787 -12.477588 -10.915733 25.024947 -0.587278 2.022161 0.003644 -0.000049 -229056.000000 0 0 1
18.754287 -13.801388 -11.330933 25.895784 -0.634420 2.023679 0.002899 -0.000053 -644854.000000 0 0 1
17.622687 -14.158188 -12.257233 25.714843 -0.676815 2.067648 0.009695 0.001283 -544187.000000 0 0 1
17.501587 -15.522088 -12.543533 26.543944 -0.725528 2.062987 0.005027 0.000553 -274594.000000 0 0 1
16.363787 -15.755988 -13.310533 26.328596 -0.766478 2.100821 0.015329 -0.002897 -495870.000000 0 0 1
16.292487 -17.177788 -13.772733 27.389956 -0.811842 2.097676 0.015994 -0.004234 -444895.000000 0 0 1
15.918787 -18.120388 -12.769033 27.291105 -0.849987 2.057690 0.007216 0.001128 127712.000000 0 0 1
15.950887 -19.439288 -13.333333 28.462159 -0.883651 2.058341 0.012061 0.001525 -679015.000000 0 0 1
15.057387 -20.391888 -12.571433 28.294786 -0.934760 2.031191 0.014234 0.002889 957660.000000 0 0 1
13.647087 -20.181588 -12.847433 27.542622 -0.976213 2.056077 0.008773 0.000173 529520.000000 0 0 1
12.860787 -20.925388 -11.968833 27.322603 -1.019709 2.024231 0.006756 -0.003493 -271180.000000 0 0 1
11.403787 -20.606288 -12.353033 26.594414 -1.065337 2.053863 0.009919 0.000596 -213505.000000 0 0 1
10.457187 -21.104888 -11.439233 26.184444 -1.110766 2.022914 -0.003130 0.000180 -713949.000000 0 0 1
9.148887 -20.890888 -11.886833 25.718245 -1.158019 2.051265 0.005101 0.005677 -698500.000000 0 0 1
8.139187 -21.378788 -10.889833 25.335497 -1.207026 2.015095 0.001423 0.002937 -684830.000000 0 0 1
8.109287 -22.784688 -10.765633 26.472653 -1.228867 1.989602 0.016569 0.000040 -111577.000000 0 0 1
7.331287 -23.238088 -9.682033 26.220188 -1.265194 1.949008 0.013279 -0.009100 5536.160000 0 0 1
7.193987 -24.780888 -9.845533 27.618479 -1.288259 1.935298 0.015952 -0.007742 644988.000000 0 0 1
8.424887 -25.443278 -9.559333 28.455579 -1.251035 1.913398 0.007208 0.002096 92633.800000 0 0 1
8.452187 -26.799948 -9.962933 29.815041 -1.265289 1.911508 0.000568 -0.000433 -103392.000000 0 0 1
9.839287 -27.428058 -9.788733 30.739701 -1.226365 1.894879 0.004086 -0.002363 -112769.000000 0 0 1
10.220287 -27.385628 -8.421633 30.419579 -1.213606 1.851310 0.010668 -0.005457 -704029.000000 0 0 1
11.541487 -27.842998 -8.366533 31.279983 -1.177835 1.841565 0.018176 0.001173 -543361.000000 0 0 1
11.910987 -28.158548 -6.868833 31.336182 -1.170623 1.791789 0.023923 -0.008782 -96291.100000 0 0 1
11.507387 -29.354388 -6.196833 32.132550 -1.197192 1.764864 0.031392 -0.016408 359737.000000 0 0 1
10.117787 -29.411638 -5.878533 31.653929 -1.239471 1.757593 0.024315 -0.011724 173465.000000 0 0 1
9.847287 -30.493488 -4.827133 32.405602 -1.258437 1.720313 0.033448 -0.015691 57381.900000 0 0 1
10.003187 -31.873448 -5.143433 33.799931 -1.266690 1.723563 0.039642 -0.021021 1175910.000000 0 0 1
8.947087 -32.345308 -6.094833 34.108889 -1.300932 1.750449 0.047161 -0.013230 1650090.000000 0 0 1
9.268687 -33.818608 -6.502933 35.663636 -1.303294 1.754163 0.041152 -0.010872 -25117.900000 0 0 1
8.771887 34.405586 -5.518333 35.932469 1.321159 1.724982 0.039267 -0.010911 84049.300000 0 0 1
9.295587 33.107813 -5.659333 34.850585 1.297076 1.733907 0.034781 -0.005681 40462.000000 0 0 1
8.871987 32.188953 -4.439933 33.683139 1.301852 1.702996 0.026761 -0.000691 362596.000000 0 0 1
7.495587 31.863423 -4.513433 33.042891 1.339756 1.707818 0.022176 -0.001875 -276374.000000 0 0 1
7.143187 30.945793 -3.454733 31.946868 1.343941 1.679148 0.008076 -0.003174 -42178.100000 0 0 1
5.679887 30.474953 -3.541233 31.201349 1.386532 1.684538 0.006096 -0.005626 -11828.700000 0 0 1
5.265487 29.644733 -4.660833 30.467342 1.395010 1.724377 0.016246 -0.007067 91527.100000 0 0 1
4.952387 30.414653 -5.807133 31.357615 1.409384 1.757062 0.009660 -0.012746 -647892.000000 0 0 1
5.460787 29.766433 -7.131233 31.092044 1.389359 1.802215 0.022115 -0.018408 -112292.000000 0 0 1
4.689987 28.673143 -7.536833 30.015812 1.408665 1.824608 0.018034 -0.016205 243687.000000 0 0 1
5.251187 27.460303 -6.953733 28.809679 1.381849 1.814572 0.003205 -0.010417 -402418.000000 0 0 1
4.466087 26.174093 -7.300133 27.537629 1.401794 1.839100 0.001566 -0.003129 -243631.000000 0 0 1
3.201987 25.981193 -6.699833 27.021526 1.448172 1.821354 -0.008863 -0.006451 -833716.000000 0 0 1
2.169687 26.583293 -7.382833 27.674631 1.489358 1.840839 -0.000445 -0.004327 -711200.000000 0 0 1
1.520087 25.822993 -8.589533 27.256517 1.511999 1.891397 0.010324 -0.007715 -465100.000000 0 0 1
2.348387 25.793923 -9.730133 27.667976 1.480002 1.930156 0.012169 -0.013306 94492.700000 0 0 1
1.731587 25.166423 -10.883433 27.473557 1.502099 1.978108 0.034450 -0.014060 -137137.000000 0 0 1
1.734887 23.629543 -11.081533 26.156558 1.497508 2.008280 0.029864 -0.008173 -887276.000000 0 0 1
0.716887 23.029043 -10.405533 25.280939 1.539677 1.995001 0.029527 -0.006622 -987564.000000 0 0 1
0.903687 21.662543 -10.181933 23.953166 1.529104 2.009843 0.017046 -0.005265 -803256.000000 0 1 0
-0.195813 21.045543 -9.342433 23.026816 -1.561492 1.988562 0.019586 -0.001696 -1158790.000000 0 1 0
-1.400413 20.929443 -10.000333 23.238102 -1.503985 2.015668 0.027888 -0.006083 -746202.000000 0 1 0
-2.392813 20.415543 -9.085033 22.473490 -1.454123 1.986961 0.023300 -0.008533 409489.000000 0 1 0
-3.693713 20.141343 -9.869433 22.731540 -1.389422 2.019917 0.018627 -0.015568 -752019.000000 0 1 0
-4.738813 19.682043 -9.088433 22.190962 -1.334525 1.992763 0.018452 -0.017506 -792289.000000 0 1 0
-5.605513 19.076843 -10.004633 22.258490 -1.285002 2.036974 0.014749 -0.020493 -666859.000000 0 1 0
-6.531413 17.965143 -9.407333 21.305014 -1.222093 2.028127 0.018658 -0.023421 -36233.800000 0 1 0
-7.646313 18.320243 -8.638833 21.650100 -1.175406 1.981245 0.038094 -0.020145 -128151.000000 0 1 0
-8.809713 18.737643 -9.334533 22.712195 -1.131303 1.994338 0.030137 -0.018458 39855.200000 0 1 0
-9.869413 19.098243 -8.256133 23.028502 -1.093822 1.937476 0.039654 -0.018489 -375.399000 0 1 0
-10.232713 17.924843 -7.562233 21.981715 -1.052073 1.921995 0.039778 -0.024609 -171815.000000 0 1 0
-11.164813 18.279543 -6.533433 22.393760 -1.022487 1.866855 0.037993 -0.011265 -329480.000000 0 1 0
-11.712213 17.032743 -5.779333 21.463712 -0.968421 1.843422 0.026824 -0.020268 -161666.000000 0 1 0
-12.746913 17.477743 -4.924433 22.185701 -0.940661 1.794625 0.035017 -0.004405 -58.085100 0 1 0
-13.180013 16.441643 -4.131133 21.473393 -0.895066 1.764387 0.035978 -0.004850 -407881.000000 0 1 0
-14.441813 16.816843 -3.340533 22.417210 -0.861232 1.720370 0.027889 -0.004941 -672532.000000 0 1 0
-15.564013 16.986143 -4.143533 23.408042 -0.829061 1.748747 0.029956 -0.014796 -199442.000000 0 1 0
-16.620113 17.540143 -3.358233 24.395952 -0.812324 1.708890 0.023296 -0.005623 854689.000000 0 1 0
-17.943813 17.846243 -4.148533 25.645256 -0.782672 1.733276 0.022541 -0.010636 421038.000000 0 0 1
-17.723813 18.746943 -5.180033 26.313764 -0.813444 1.768947 0.015410 -0.009459 -108332.000000 0 0 1
-18.922313 18.887243 -5.909433 27.380710 -0.784471 1.788333 -0.004177 -0.003150 -438672.000000 0 0 1
-18.835613 19.764543 -7.162633 28.226243 -0.809459 1.827360 -0.006495 0.001466 -231339.000000 0 0 1
-18.706413 21.155343 -6.866333 29.062432 -0.846757 1.809313 -0.004718 0.004659 -19387.700000 0 0 1
-18.499513 21.896343 -7.997433 29.759717 -0.869289 1.842874 -0.006008 0.006917 -34726.700000 0 0 1
-18.390913 23.388543 -7.611033 30.711194 -0.904452 1.821232 -0.001117 0.010339 -144233.000000 0 0 1
-17.202513 23.676943 -6.908533 30.070782 -0.942472 1.802609 -0.001256 0.012613 -14495.300000 0 0 1
-17.411513 24.676933 -5.920833 30.776096 -0.956336 1.764387 -0.006251 0.004814 215161.000000 0 0 1
-16.039113 24.967713 -5.281733 30.141940 -0.999787 1.746934 0.008377 0.007689 107703.000000 0 0 1
-16.138013 26.078763 -4.441333 30.988107 -1.016655 1.714615 0.004984 0.000552 -151751.000000 0 0 1
-14.943213 26.448253 -3.788133 30.613063 -1.056511 1.694857 0.006170 -0.000145 135564.000000 0 0 1
-14.175513 27.628513 -4.462933 31.371925 -1.096743 1.713539 0.024410 -0.001199 327730.000000 0 0 1
-14.834413 28.916613 -4.325833 32.786326 -1.096798 1.703122 0.023171 -0.007774 323824.000000 0 0 1
-14.115413 29.922253 -5.050633 33.467820 -1.130014 1.722285 0.028357 -0.014322 -234171.000000 0 0 1
-14.691713 31.343633 -4.904333 34.961725 -1.132476 1.711538 0.023860 -0.028003 -152676.000000 0 0 1
-15.884913 31.579363 -5.616333 35.792874 -1.104739 1.728360 0.031556 -0.017111 -422316.000000 0 0 1
-16.605313 32.511873 -4.880733 36.831778 -1.098589 1.703701 0.030197 -0.020561 -583111.000000 0 0 1
12.638460 -8.507488 18.772964 24.177100 -0.592473 0.681741 0.030173 -0.006710 -382008.000000 0 1 0
12.367260 -9.893688 18.870464 24.635921 -0.674735 0.698242 0.016021 -0.008880 -73734.100000 0 1 0
12.985460 -10.713188 17.897564 24.570660 -0.689808 0.754795 0.021038 -0.018888 -382920.000000 0 1 0
13.435560 -12.107088 18.444964 25.832393 -0.733435 0.775566 0.035287 -0.018612 -71594.100000 0 0 1
14.703160 -11.961188 19.085064 26.897817 -0.682925 0.781952 0.031824 -0.009356 513614.000000 0 0 1
15.024560 -13.077288 19.899564 28.155736 -0.716215 0.785878 0.031036 -0.014158 50498.700000 0 0 1
15.744660 -14.234088 19.155264 28.590693 -0.735053 0.836611 0.038635 -0.021000 -297250.000000 0 0 1
14.904560 -14.777188 18.140864 27.741704 -0.781107 0.858042 0.038871 -0.021358 450694.000000 0 0 1
15.454660 -15.915988 17.566964 28.297763 -0.800103 0.901047 0.047275 -0.016791 -14962.000000 0 0 1
14.646460 -16.329188 16.269964 27.310673 -0.839669 0.932614 0.048663 -0.022373 -626306.000000 0 0 1
13.318260 -16.676288 16.427664 26.932188 -0.896889 0.914781 0.074698 -0.022041 -721153.000000 0 0 1
12.622660 -16.575988 15.206764 25.794197 -0.919974 0.940305 0.082600 -0.031872 -324848.000000 0 0 1
12.275960 -17.949588 14.575764 26.178995 -0.970949 0.980300 0.068406 -0.016543 -845668.000000 0 0 1
13.290660 -18.779888 14.125864 26.997516 -0.954917 1.020162 0.069871 -0.014637 -234478.000000 0 0 1
12.764260 -19.850988 13.391364 27.135156 -0.999355 1.054680 0.064491 -0.011892 -34335.600000 0 0 1
13.885460 -20.835888 12.949264 28.189070 -0.982964 1.093508 0.060879 -0.008927 -26734.000000 0 0 1
14.489560 -21.544788 13.970664 29.483973 -0.978744 1.077151 0.056463 -0.007819 57743.500000 0 0 1
14.907460 -22.846988 13.501864 30.438751 -0.992672 1.111213 0.033078 -0.005991 -209627.000000 0 0 1
15.684860 -23.640788 14.596964 31.905690 -0.985013 1.095611 0.032286 -0.003302 586231.000000 0 0 1
17.057260 -23.274288 14.662564 32.367165 -0.938342 1.100661 0.009353 -0.001938 422924.000000 0 0 1
17.721560 -23.645188 15.882764 33.547143 -0.927629 1.077597 0.012722 -0.001409 163992.000000 0 0 1
19.089160 -22.986688 16.123464 33.952171 -0.877766 1.075960 0.004721 -0.010096 537673.000000 0 0 1
20.104960 -23.598388 15.298464 34.570744 -0.865164 1.112382 0.006645 -0.016118 -578543.000000 0 0 1
21.316360 -22.933088 15.477464 34.926574 -0.821919 1.111695 0.003356 -0.009162 -39315.300000 0 0 1
22.477260 -23.869188 14.972764 36.043709 -0.815422 1.142408 -0.010139 -0.012128 220902.000000 0 0 1
22.595260 -25.042978 15.726364 37.215790 -0.836734 1.134515 -0.001386 -0.011131 513347.000000 0 0 1
23.738360 -25.759668 15.247764 38.204247 -0.826212 1.160248 0.002849 -0.016409 181961.000000 0 0 1
24.055960 -26.936858 16.238564 39.597657 -0.841834 1.148245 0.018582 -0.012042 -197585.000000 0 0 1
24.469460 -26.472678 17.488664 40.067574 -0.824701 1.119115 0.012646 0.006240 5836.830000 0 0 1
25.087060 -27.469018 18.275764 41.447691 -0.830689 1.114155 0.033129 0.007613 195462.000000 0 0 1
25.418260 -26.958618 19.690664 41.959233 -0.814799 1.082320 0.018358 0.013340 -238849.000000 0 0 1
24.259060 -26.607158 20.393364 41.380335 -0.831528 1.055460 0.024143 0.016983 -291868.000000 0 0 1
24.474360 -26.057038 21.681264 41.809577 -0.816709 1.025617 0.020518 0.022016 925024.000000 0 0 1
23.104660 -25.995308 22.484664 41.414266 -0.844203 0.996885 0.024435 0.014449 850803.000000 0 0 1
22.641160 -27.258878 22.652764 42.057297 -0.877675 1.002002 0.023910 0.011650 -15707.800000 0 0 1
21.428860 -27.275228 23.403964 41.843513 -0.904865 0.977230 0.018373 0.008237 336866.000000 0 0 1
20.847360 -28.710738 23.528364 42.573499 -0.942756 0.985252 0.023749 0.004191 150491.000000 0 0 1
21.736260 -29.520968 24.312634 43.989279 -0.936122 0.985202 0.026272 0.001588 631789.000000 0 0 1
21.674060 -30.799708 23.743264 44.521112 -0.957585 1.008295 0.040916 -0.004234 -128931.000000 0 0 1
22.868460 -31.666328 24.236694 45.968904 -0.945346 1.015446 0.027437 -0.008836 81274.400000 0 0 1
22.837860 -31.975318 25.624934 46.910831 -0.950581 0.992918 0.026009 -0.008860 275092.000000 0 0 1
24.037860 -32.533368 26.134534 48.158619 -0.934458 0.997176 0.041462 -0.006845 -527289.000000 0 0 1
23.920660 -33.036648 27.597234 49.246577 -0.944102 0.975941 0.041722 -0.016200 377869.000000 0 0 1
23.043860 -34.143752 27.792724 49.691556 -0.977110 0.977249 0.024775 -0.008373 1037780.000000 0 0 1
21.643460 -34.031605 27.531844 48.832283 -1.004339 0.971812 0.022355 -0.012379 536916.000000 0 0 1
20.794360 33.815714 28.005734 48.582189 1.019470 0.956405 0.050234 -0.025551 292121.000000 0 0 1
20.551560 33.688709 29.403154 49.212206 1.023025 0.930445 0.049128 -0.018031 354256.000000 0 0 1
19.789460 32.539003 29.736354 48.318321 1.024386 0.907870 0.045545 -0.025656 -59531.900000 0 0 1
19.273060 32.566423 31.140524 49.007703 1.036422 0.882243 0.035103 -0.021612 289482.000000 0 0 1
20.396760 32.643363 32.023004 50.070847 1.012315 0.876879 0.020181 -0.002302 1175790.000000 0 0 1
19.894960 32.887483 33.347903 50.886920 1.026752 0.856172 0.005631 -0.001664 -79149.800000 0 0 1
21.100660 32.844443 34.297716 51.964686 0.999752 0.849951 -0.002402 0.012163 -13673.600000 0 0 1
21.625860 31.599563 34.518686 51.553369 0.970636 0.837164 0.007925 0.003403 403206.000000 0 0 1
22.891860 31.711963 -33.919273 51.770676 0.945544 2.285221 -0.004199 0.010665 618340.000000 0 0 1
23.392060 30.301413 -33.495023 50.865319 0.913376 2.289626 0.005241 0.006304 -71053.500000 0 0 1
23.828760 29.410093 34.548185 51.247834 0.889852 0.830997 0.016071 -0.001671 233299.000000 0 0 1
22.734460 28.788883 33.921804 49.963429 0.902370 0.824488 0.019912 -0.010006 -603403.000000 0 0 1
23.059060 28.043223 32.682984 48.849975 0.882624 0.837869 0.063180 -0.022154 -440406.000000 0 0 1
23.932060 26.951523 32.879234 48.787007 0.844669 0.831275 0.046271 -0.023911 384045.000000 0 0 1
24.354260 26.249983 31.744344 47.852847 0.822842 0.845477 0.058585 -0.034930 -709534.000000 0 0 1
25.698460 25.557793 31.940314 48.309370 0.782654 0.848430 0.030716 -0.024997 -615507.000000 0 0 1
25.761660 24.458063 32.858844 48.389705 0.759446 0.824334 0.041637 -0.024473 99581.900000 0 0 1
26.829860 24.597173 33.778799 49.657523 0.742011 0.822713 0.035720 -0.025410 -657196.000000 0 0 1
26.803060 23.728143 -34.034413 49.394028 0.724621 2.330959 0.032388 -0.025440 -217133.000000 0 0 1
25.686060 23.971543 -33.169003 48.317609 0.750885 2.327431 0.029083 -0.020396 1400540.000000 0 0 1
24.372260 23.596043 -33.616453 47.758206 0.769218 2.351653 0.024228 -0.020501 303627.000000 0 0 1
24.211260 22.075243 -33.707433 47.007366 0.739283 2.370382 0.015354 -0.022280 -1076580.000000 0 0 1
24.146260 21.580343 -32.397423 45.807708 0.729343 2.356395 -0.003011 -0.022724 422351.000000 0 0 1
23.915260 20.168543 -32.375893 45.021197 0.700611 2.373339 -0.000946 -0.021132 -487203.000000 0 0 1
23.769960 19.618543 -30.948113 43.677041 0.690008 2.358262 0.003816 -0.019659 1442920.000000 0 0 1
22.442560 19.948443 -30.388343 42.720724 0.726630 2.362179 -0.001228 -0.025750 1991260.000000 0 0 1
22.386060 19.283943 -29.164703 41.516094 0.711090 2.349689 0.002671 -0.028004 -401160.000000 0 0 1
21.084360 19.595443 -28.412063 40.444739 0.748814 2.349688 0.018772 -0.034204 -242987.000000 0 0 1
20.920660 19.051843 -27.150443 39.214707 0.738680 2.335542 0.018264 -0.023138 -144380.000000 0 0 1
21.517860 19.822043 -26.165393 39.249961 0.744400 2.300481 0.012332 -0.018850 -332994.000000 0 0 1
21.773960 19.132943 -24.808933 38.153086 0.720926 2.278706 0.017778 -0.009088 -40723.800000 0 0 1
22.680160 18.060643 -24.842433 38.180138 0.672492 2.279255 0.022493 -0.022681 139059.000000 0 0 1
22.639560 17.319243 -23.647433 37.036562 0.653032 2.263330 0.022742 -0.018470 -155308.000000 0 0 1
23.540660 16.069143 -23.833333 37.153839 0.598961 2.267218 0.038063 -0.023552 41737.200000 0 0 1
24.918460 16.426743 -23.820233 38.186006 0.582829 2.244385 0.075703 -0.029668 774438.000000 0 0 1
25.830960 15.301743 -23.809633 38.318148 0.534798 2.241283 0.073166 -0.032122 474259.000000 0 0 1
25.949560 14.513343 -22.459133 37.261635 0.509948 2.217729 0.059965 -0.023833 -171826.000000 0 0 1
24.772860 13.727343 -22.295333 36.044645 0.506007 2.237689 0.028831 -0.014973 255941.000000 0 0 1
24.524060 13.402743 -20.957333 34.932404 0.500163 2.214222 0.016366 -0.020344 66084.000000 0 0 1
23.184860 12.662943 -20.658433 33.535931 0.499900 2.234462 0.005309 0.000835 488448.000000 0 0 1
22.105060 13.554143 -20.823233 33.255909 0.550047 2.247404 0.032069 -0.008833 184121.000000 0 0 1
20.891160 12.939743 -21.280833 32.507712 0.554554 2.284502 0.017717 -0.009799 241782.000000 0 0 1
19.747560 13.950843 -21.332333 32.243768 0.615048 2.293741 0.026560 -0.010530 -846629.000000 0 0 1
20.024960 15.077843 -22.152933 33.452844 0.645388 2.294566 0.009544 -0.004108 -36179.900000 0 0 1
19.221060 16.194343 -21.893033 33.331828 0.700142 2.287391 0.001252 -0.002056 140213.000000 0 0 1
17.837460 16.237943 -22.614233 33.064321 0.738492 2.323955 0.013362 0.000684 -319924.000000 0 0 1
16.985860 15.262043 -22.148733 31.812195 0.731994 2.340934 0.003654 0.000924 -332761.000000 0 0 1
15.833060 15.209943 -22.979833 31.782084 0.765328 2.378994 -0.002279 -0.008051 63399.100000 0 0 1
14.684560 14.285943 -22.547633 30.465065 0.771640 2.404037 -0.008834 -0.009610 -147436.000000 0 0 1
13.529260 14.501943 -23.304233 30.601217 0.820084 2.436491 0.015306 -0.013610 -1324770.000000 0 0 1
12.492960 13.685743 -22.920133 29.473821 0.830930 2.461706 0.035585 -0.015890 -590076.000000 0 0 1
11.254260 14.029643 -23.793633 29.826602 0.894729 2.494321 0.045134 -0.008367 -112916.000000 0 0 1
10.624660 15.293343 -23.571033 30.039363 0.963620 2.472962 0.015214 -0.009699 254567.000000 0 0 1
9.962960 15.771243 -24.739133 30.984147 1.007381 2.495504 0.021383 -0.009036 -623538.000000 0 0 1
9.996960 17.341743 -24.783133 31.857164 1.047860 2.462185 0.007310 -0.003441 1258520.000000 0 0 1
11.330260 17.926843 -24.748233 32.591740 1.007159 2.433096 0.000401 0.000754 1393420.000000 0 0 1
12.341660 17.624543 -25.717373 33.530946 0.959900 2.444909 0.001158 -0.005192 66676.400000 0 0 1
12.096060 17.771243 -27.219523 34.684783 0.973173 2.473119 0.024292 -0.015753 -678205.000000 0 0 1
13.227360 17.790643 -28.048643 35.751873 0.931468 2.472744 0.016400 -0.018827 -340679.000000 0 0 1
12.901060 17.296843 -29.317873 36.402689 0.929949 2.507107 0.021213 -0.028477 -34586.000000 0 0 1
13.872360 17.638243 -30.473463 37.844179 0.904346 2.506868 0.024682 -0.028621 365431.000000 0 0 1
15.093360 16.891543 -30.510643 38.000435 0.841559 2.502945 0.015051 -0.024048 -126986.000000 0 0 1
15.799760 17.290143 -31.630093 39.357899 0.830408 2.504205 0.013876 -0.014822 -1827670.000000 0 0 1
17.106360 16.593043 -31.697683 39.657278 0.770167 2.496910 0.014274 -0.018396 -2035290.000000 0 0 1
17.957860 17.006743 -30.663253 39.394785 0.758203 2.462843 0.020853 -0.018921 -166014.000000 0 0 1
19.150360 16.228243 -30.669123 39.631897 0.702990 2.455693 0.022210 -0.013983 688914.000000 0 0 1
20.365660 16.889943 -31.403443 41.063445 0.692374 2.441456 0.016698 -0.015514 -370240.000000 0 0 1
20.319760 17.063443 -32.789643 42.180735 0.698511 2.461255 0.021647 -0.014121 61130.700000 0 0 1
21.479760 17.737043 -33.208403 43.344905 0.690250 2.443615 0.011813 -0.004537 -460843.000000 0 0 1
21.442860 17.968043 34.360541 44.309069 0.697457 0.683330 -0.000774 0.007891 -192177.000000 0 0 1
22.341460 18.968043 33.957991 44.856133 0.703917 0.712022 0.005764 0.004125 229881.000000 0 0 1
22.031660 19.350943 32.633564 43.872571 0.720710 0.732020 0.012102 0.003498 -11582.600000 0 0 1
22.924560 20.535143 32.134284 44.495390 0.730473 0.763828 0.022527 -0.004024 395082.000000 0 0 1
24.270960 20.174143 31.876524 44.857422 0.693481 0.780419 0.022349 -0.007353 17526.600000 0 0 1
25.088660 21.323443 31.985614 45.904352 0.704450 0.799886 0.040861 -0.023154 -765773.000000 0 0 1
26.548460 21.012043 31.746144 46.412760 0.669512 0.817570 0.027684 -0.022353 -803174.000000 0 0 1
27.152560 20.244743 32.747644 47.111775 0.640674 0.802230 0.022454 -0.021872 354587.000000 0 0 1
28.578560 20.246243 32.638854 47.874202 0.616369 0.820627 0.015076 -0.020180 556840.000000 0 0 1
29.276660 19.552643 33.783137 48.792715 0.588827 0.806013 -0.002245 -0.021972 -368720.000000 0 0 1
29.303860 20.258043 -34.048003 49.278505 0.604870 2.333571 -0.002869 -0.023334 407966.000000 0 0 1
28.139860 20.060643 -33.231483 47.943848 0.619325 2.336623 -0.000202 -0.025773 183098.000000 0 0 1
28.404960 20.306143 -31.787843 47.219150 0.620643 2.309322 0.011004 -0.019941 -478627.000000 0 0 1
29.241660 19.373343 -31.213753 46.954227 0.585130 2.297982 0.014173 -0.024936 -510847.000000 0 0 1
29.497260 19.738943 -29.904513 46.411142 0.589740 2.270955 0.000101 -0.024473 404869.000000 0 0 1
30.992160 19.440243 -29.582483 47.048489 0.560225 2.250761 0.051983 -0.019634 696784.000000 0 0 1
31.967760 20.142143 -30.390713 48.489576 0.562242 2.248168 0.011581 -0.021131 378556.000000 0 0 1
33.162360 20.012243 -29.643473 48.774660 0.542962 2.224038 0.042727 -0.019917 -576468.000000 0 0 1
34.319460 20.907743 -30.014683 50.158152 0.547164 2.212300 0.032733 -0.016596 -472196.000000 0 0 1
34.909560 20.642743 -31.272553 51.213014 0.534013 2.227661 0.014718 -0.013480 285681.000000 0 0 1
-34.195167 21.304843 -31.364283 51.058046 -0.557186 2.232278 0.022370 -0.024101 220218.000000 0 0 1
-33.322667 20.761643 -32.550943 51.000097 -0.557195 2.263023 0.025423 -0.030149 -329279.000000 0 0 1
-32.547967 19.654343 -32.308873 49.895156 -0.543251 2.275142 0.050032 -0.021671 -532524.000000 0 0 1
-31.776667 19.306043 -33.395663 49.977497 -0.545955 2.302602 0.040567 -0.012587 -109070.000000 0 0 1
-30.936367 17.997643 -33.238353 48.844263 -0.526902 2.319236 0.025942 -0.000986 175155.000000 0 0 1
-31.739567 16.842243 -33.240813 48.949085 -0.487857 2.317318 0.029698 -0.003716 140662.000000 0 0 1
-30.982567 15.648043 -33.380763 48.156578 -0.467687 2.336676 0.020327 0.003119 79271.200000 0 0 1
-31.881667 14.476643 -33.743263 48.627376 -0.426237 2.337708 0.020632 0.004221 269807.000000 0 0 1
-31.115067 13.306043 -33.966573 47.947119 -0.404105 2.358050 0.025296 0.000041 505022.000000 0 0 1
-32.062167 12.240343 -33.843243 48.199312 -0.364692 2.349212 0.027142 -0.001131 279342.000000 0 0 1
-31.494567 10.832643 -33.802453 47.453764 -0.331277 2.363600 0.024223 0.001612 -281514.000000 0 0 1
-30.880767 10.432043 34.109327 47.179397 -0.325780 0.762704 0.007889 -0.000222 -32030.400000 0 0 1
-31.243667 9.094043 33.837889 46.945405 -0.283243 0.765852 0.018476 -0.007267 -451681.000000 0 0 1
-30.376867 8.452943 32.764444 45.472135 -0.271403 0.766217 0.033480 -0.004340 -9241.140000 0 0 1
-29.084667 8.286743 33.334273 45.008463 -0.277563 0.736800 0.022468 0.003424 -143836.000000 0 0 1
-28.197167 7.738543 32.375454 43.624939 -0.267849 0.734551 0.023281 -0.000193 -68937.500000 0 0 1
19.958160 -4.233988 -31.929733 37.891459 -0.209044 2.573006 0.016318 -0.022489 194408.000000 0 0 1
21.179060 -4.258188 -32.665443 39.162685 -0.198411 2.557288 0.024828 -0.028497 564651.000000 0 0 1
22.165660 -3.281288 -32.321703 39.329071 -0.146967 2.535407 0.036890 -0.026834 198246.000000 0 0 1
21.851860 -1.735388 -32.471223 39.177744 -0.079250 2.547788 0.036810 -0.019253 -272599.000000 0 0 1
22.915060 -0.941888 -31.987843 39.359995 -0.041080 2.519566 0.039735 -0.024056 507212.000000 0 0 1
22.588760 0.361012 -32.417513 39.513005 0.015981 2.532953 0.022442 -0.018803 -691414.000000 0 0 1
23.601260 1.365012 -31.962393 39.755217 0.057772 2.504754 0.043242 -0.016492 -168016.000000 0 0 1
24.879660 1.061212 -32.501443 40.944687 0.042628 2.487810 0.054214 -0.025355 289206.000000 0 0 1
25.992460 1.456512 -31.688123 41.010566 0.055977 2.453852 0.048038 -0.019402 1450630.000000 0 0 1
27.340760 1.139112 -32.463293 42.457981 0.041639 2.441214 0.039983 -0.030832 743397.000000 0 0 1
27.655760 2.036112 -33.543243 43.521672 0.073491 2.450775 0.049613 -0.030523 -41109.700000 0 0 1
28.251860 1.269512 34.522342 44.627025 0.044905 0.686333 0.030340 -0.025630 -93409.100000 0 0 1
29.047960 2.078312 33.480267 44.373772 0.071426 0.715896 0.034032 -0.026138 -379742.000000 0 0 1
28.269160 2.984512 32.769014 43.380422 0.105185 0.714552 0.042675 -0.016555 -13160.700000 0 0 1
28.337460 4.261912 33.272200 43.911443 0.149280 0.710997 0.037949 -0.008861 3083.470000 0 0 1
27.421660 5.166912 32.417084 42.772792 0.186241 0.710723 0.038651 -0.003262 -104435.000000 0 0 1
27.667960 6.547812 32.491964 43.175428 0.232382 0.718860 0.033800 -0.004752 155798.000000 0 0 1
26.947160 7.331812 31.529664 42.119171 0.265650 0.724875 0.025979 0.000742 -67313.400000 0 0 1
27.093060 8.826312 31.765324 42.672866 0.314935 0.731173 0.022549 0.005601 -471745.000000 0 0 1
28.408360 9.258212 31.675344 43.543964 0.315043 0.756222 0.018920 -0.001504 -759523.000000 0 0 1
28.570260 10.655312 31.931974 44.152535 0.356973 0.762344 0.017250 -0.001938 534843.000000 0 0 1
29.911560 11.209812 31.311844 44.730223 0.358565 0.795377 0.013549 0.006043 -808990.000000 0 0 1
30.935660 10.582412 31.955564 45.718274 0.329600 0.796844 0.017740 0.002217 -426753.000000 0 0 1
32.261260 11.037512 31.680954 46.543511 0.329646 0.822114 0.007052 0.006246 728530.000000 0 0 1
32.676060 12.494212 31.909594 47.350316 0.365213 0.831315 0.020865 0.001743 -1013330.000000 0 0 1
32.771060 12.932012 33.263485 48.452438 0.375857 0.814107 0.026869 0.004505 98993.500000 0 0 1
33.455260 14.153812 33.323966 49.295756 0.400232 0.828474 0.020085 0.006257 455161.000000 0 0 1
32.566560 15.464812 33.110460 48.949400 0.443341 0.827902 0.022509 -0.005218 -289946.000000 0 0 1
32.067360 15.579812 31.815894 47.783859 0.452261 0.842192 0.021921 -0.006685 85930.300000 0 0 1
31.103060 16.604512 31.683384 47.401972 0.490363 0.838743 0.018373 -0.008088 711888.000000 0 0 1
29.628560 16.173712 31.982014 46.500427 0.499676 0.812371 0.019980 -0.000209 262127.000000 0 0 1
28.974360 15.449312 30.938944 45.115552 0.489858 0.815134 0.014314 0.006459 644560.000000 0 0 1
27.789160 14.763512 31.350504 44.419059 0.488349 0.787259 0.011656 0.005848 533914.000000 0 0 1
26.873260 14.241812 30.237164 42.886914 0.487329 0.788311 0.007324 0.009068 -77217.900000 0 0 1
27.186560 12.896312 29.784274 42.338244 0.442929 0.790509 0.013026 0.007442 37147.800000 0 0 1
26.354860 12.394412 28.756724 40.928587 0.439598 0.791741 0.003213 -0.001847 -250551.000000 0 0 1
26.323760 10.845712 28.695354 40.422681 0.390819 0.781465 0.006373 0.006594 289573.000000 0 0 1
27.335960 10.211612 27.892004 40.367011 0.357507 0.807980 0.008774 0.011989 203102.000000 0 0 1
27.123260 8.826112 27.834124 39.853606 0.314600 0.797624 0.015454 0.015316 290400.000000 0 0 1
28.377460 8.060712 27.321394 40.208381 0.276763 0.823722 0.012510 0.006749 75267.100000 0 0 1
28.616260 8.420212 26.008524 39.575670 0.286169 0.853719 0.006564 0.015734 -395171.000000 0 0 1
29.548360 7.635712 25.325474 39.658408 0.252882 0.878131 0.000338 0.024618 -232030.000000 0 0 1
29.940660 8.075312 23.907664 39.156483 0.263442 0.914020 0.007002 0.022169 -411724.000000 0 0 1
30.812260 9.157412 23.909864 40.061642 0.288886 0.931256 0.006509 0.018152 9989.660000 0 0 1
30.253660 10.403912 23.433764 39.656861 0.331221 0.938606 0.009980 0.012159 20048.600000 0 0 1
29.691360 10.391812 21.959264 38.363731 0.336670 0.961371 0.007186 0.022263 464955.000000 0 0 1
30.720160 10.608712 21.002664 38.696058 0.332512 0.997077 0.005154 0.010470 578936.000000 0 0 1
30.197260 10.356712 19.744864 37.536591 0.330397 1.016887 0.017115 0.001330 -740102.000000 0 0 1
30.987960 10.974712 18.571064 37.756885 0.340376 1.056573 0.028683 -0.011390 899989.000000 0 0 1
32.247360 10.406212 18.201264 38.463846 0.312150 1.077872 0.031097 -0.008894 1123470.000000 0 0 1
33.356460 10.522612 19.074464 39.839854 0.305579 1.071534 0.029546 0.000846 -326766.000000 0 0 1
34.699460 9.959412 18.609064 40.614525 0.279506 1.094841 0.019064 -0.008127 -592885.000000 0 0 1
34.647560 8.540012 18.446864 40.170537 0.241665 1.093686 0.015643 -0.007258 680041.000000 0 0 1
-34.552867 7.937012 17.876364 39.704675 -0.225789 1.103770 0.011458 -0.003263 4170.400000 0 0 1
-34.706667 6.375212 17.676864 39.467298 -0.181663 1.106396 0.007438 -0.007226 -61761.200000 0 0 1
34.616160 6.071412 16.736864 38.926382 0.173626 1.126346 -0.002428 -0.001156 587248.000000 0 0 1
34.711260 4.746112 16.264764 38.625635 0.135889 1.136153 -0.000492 -0.003045 -836018.000000 0 0 1
33.459960 3.900412 16.429064 37.479278 0.116046 1.117034 -0.000600 -0.002097 -605393.000000 0 0 1
33.289360 3.285712 17.678764 37.835381 0.098383 1.084613 0.006363 0.001900 -334301.000000 0 0 1
32.173860 2.448412 17.648164 36.777842 0.075953 1.070303 -0.000461 0.003813 -424349.000000 0 0 1
32.091560 1.585312 18.921164 37.287959 0.049360 1.038592 0.003370 -0.005527 -310749.000000 0 0 1
32.848760 0.399912 19.000264 37.950112 0.012174 1.046430 0.003376 0.000439 -121036.000000 0 0 1
32.541860 -0.338488 20.163264 38.283736 -0.010401 1.016107 0.008097 -0.002818 202994.000000 0 0 1
33.233960 -1.765588 20.173164 38.917476 -0.053076 1.025867 0.016856 -0.001648 269935.000000 0 0 1
32.795860 -2.516388 21.265464 39.167851 -0.076579 0.996872 0.026010 -0.001677 65372.600000 0 0 1
33.209360 -3.891588 21.210264 39.596481 -0.116651 1.005507 0.019851 0.000606 34098.100000 0 0 1
32.758260 -4.752388 22.469264 40.006957 -0.144069 0.974437 0.014763 0.005164 79511.900000 0 0 1
33.307660 -4.251488 23.684864 41.090730 -0.126956 0.956475 0.018321 0.000141 419988.000000 0 0 1
32.622960 -4.751888 24.827684 41.270472 -0.144644 0.925313 0.016622 -0.007060 26074.600000 0 0 1
32.947960 -4.062688 26.130464 42.247777 -0.122687 0.903958 0.001955 -0.002355 -200444.000000 0 0 1
32.096060 -4.422688 27.173734 42.286275 -0.136933 0.872892 0.009349 -0.004724 -245356.000000 0 0 1
32.388760 -3.671288 28.290484 43.160880 -0.112869 0.855997 0.008547 -0.001643 -143404.000000 0 0 1
31.553060 -3.934188 29.568174 43.420621 -0.124045 0.821709 0.008075 -0.010194 -125342.000000 0 0 1
31.795260 -5.228188 30.091014 44.087885 -0.162975 0.819587 0.017763 -0.009672 -391098.000000 0 0 1
30.937260 -5.539488 31.123224 44.231833 -0.177178 0.790291 0.026567 -0.016973 -998738.000000 0 0 1
30.935460 -7.039088 31.539194 44.735581 -0.223732 0.788354 0.028867 -0.014887 221712.000000 0 0 1
32.161660 -7.453488 32.122644 46.062904 -0.227731 0.799082 0.039194 -0.018608 -98015.200000 0 0 1
32.329960 -8.825388 32.160474 46.447926 -0.266486 0.805988 0.025160 -0.011766 -500770.000000 0 0 1
33.690760 -9.268188 32.661164 47.830098 -0.268455 0.819129 0.017283 -0.007142 -435701.000000 0 0 1
33.603560 -9.587988 34.041570 48.784806 -0.277941 0.798488 0.023580 -0.023289 -110697.000000 0 0 1
34.778460 -10.158488 34.548338 50.063198 -0.284185 0.809177 0.013777 -0.031545 -378458.000000 0 0 1
34.844160 -10.286088 -33.006453 49.085079 -0.287050 2.308288 0.040149 -0.028755 -183385.000000 0 0 1
34.493260 -9.109388 -32.272693 48.107095 -0.258197 2.306152 0.019814 -0.033912 708978.000000 0 0 1
-35.004867 -7.981188 -32.510573 48.435291 0.224170 2.306645 0.024475 -0.020724 219090.000000 0 0 1
34.951660 -6.712088 -31.703193 47.663016 -0.189729 2.298495 0.024629 -0.023620 113029.000000 0 0 1
35.136960 -6.926188 -30.341513 46.938102 -0.194625 2.273673 0.011485 -0.015809 -38784.500000 0 0 1
34.312960 -5.967288 -29.781493 45.824939 -0.172186 2.278245 0.021675 -0.014423 -252806.000000 0 0 1
34.490160 -5.822488 -28.242703 44.956899 -0.167239 2.250056 0.007394 -0.004423 410532.000000 0 0 1
-34.635667 -5.222888 -27.846573 44.747510 0.149667 2.242480 0.005613 -0.002300 218823.000000 0 0 1
-34.432567 -5.200988 -26.449493 43.729025 0.149915 2.220374 0.006880 -0.000916 -184810.000000 0 0 1
-33.018067 -4.772488 -26.063363 42.335190 0.143548 2.233998 -0.008681 0.008901 -1025590.000000 0 0 1
-32.998067 -4.033588 -24.862033 41.512202 0.121634 2.212934 -0.000209 0.012070 322078.000000 0 0 1
-31.741567 -3.930588 -24.198333 40.106557 0.123204 2.218493 -0.004015 0.012141 599898.000000 0 0 1
-30.645467 -3.074788 -24.911133 39.612669 0.100000 2.250893 0.005792 0.009955 -322367.000000 0 0 1
-30.091867 -3.594688 -26.104763 39.998761 0.118894 2.281859 0.014465 0.007702 -197824.000000 0 0 1
-29.175467 -2.634888 -26.568733 39.548048 0.090067 2.307445 0.014084 0.001489 -60780.400000 0 0 1
-28.335867 -3.177388 -27.747333 39.786073 0.111667 2.342578 0.021070 0.012550 -167355.000000 0 0 1
-29.169967 -3.423788 -28.851453 41.170568 0.116839 2.347285 0.015295 0.017169 58150.300000 0 0 1
-28.491667 -4.214088 -29.809973 41.450792 0.146841 2.373397 0.025573 0.007599 -977921.000000 0 0 1
-29.303867 -4.593188 -31.099833 42.976896 0.155478 2.379859 0.014522 0.005499 -492698.000000 0 0 1
-30.419567 -5.451588 -30.886543 43.692658 0.177331 2.355909 0.005990 0.002028 958638.000000 0 0 1
-31.602567 -4.864188 -30.321343 44.065479 0.152719 2.329660 0.022034 -0.000754 219301.000000 0 0 1
-32.357267 -3.907288 -31.340453 45.215966 0.120173 2.336616 0.047248 -0.008924 -983268.000000 0 0 1
-31.753467 -2.692288 -31.729233 44.969715 0.084585 2.354022 0.049572 0.001487 -1741.960000 0 0 1
-31.599967 -1.793288 -30.658873 44.065182 0.056689 2.340276 0.027800 0.002738 -145483.000000 0 0 1
-31.304667 -0.403388 -31.292623 44.264807 0.012885 2.355961 0.042973 0.006406 1067360.000000 0 0 1
-32.487567 0.202612 -31.882513 45.518982 -0.006237 2.346785 0.039101 0.004352 891936.000000 0 0 1
-32.254367 1.526712 -32.083183 45.519289 -0.047298 2.352974 0.040202 0.010490 -249698.000000 0 0 1
-33.542767 2.319912 -32.289763 46.616821 -0.069053 2.335971 0.027481 0.006113 -620341.000000 0 0 1
-34.135867 2.043212 -33.504203 47.874458 -0.059784 2.345962 0.014613 -0.001461 215046.000000 0 0 1
34.907260 2.614012 -33.476213 48.435593 0.074745 2.333874 0.004321 -0.005700 555803.000000 0 0 1
33.987560 2.175112 34.435721 48.432471 0.063910 0.779870 -0.002121 -0.007135 -37860.000000 0 0 1
34.434160 2.475612 33.116544 47.838745 0.071771 0.806189 -0.004841 0.002687 -383909.000000 0 0 1
-34.997867 1.631412 32.552324 47.824324 -0.046581 0.822127 -0.009681 0.006796 -574694.000000 0 0 1
-35.002967 1.728312 31.011274 46.796302 -0.049336 0.846396 0.000160 -0.000605 -244799.000000 0 0 1
-34.591667 3.011012 30.569044 46.261389 -0.086826 0.848926 0.014358 -0.001759 184807.000000 0 0 1
-34.262367 3.031312 29.212504 45.127254 -0.088244 0.866712 0.020255 -0.000399 48506.300000 0 0 1
-33.698867 4.400312 28.767714 44.525922 -0.129843 0.868347 0.025040 0.004473 112563.000000 0 0 1
-33.072067 4.385112 27.464154 43.211926 -0.131824 0.882051 0.025869 0.005599 406482.000000 0 0 1
-32.552667 5.643212 27.196024 42.791888 -0.171650 0.882087 0.024755 0.009277 -442155.000000 0 0 1
-31.768067 5.772712 25.880444 41.380330 -0.179753 0.895116 0.022571 0.007603 -396548.000000 0 0 1
-30.450567 5.263212 25.994884 40.381585 -0.171153 0.871432 0.026505 0.000521 1058750.000000 0 0 1
-29.537967 5.666712 24.927904 39.064095 -0.189542 0.878732 0.027481 -0.006396 724333.000000 0 0 1
-30.023467 5.334212 23.451164 38.468422 -0.175833 0.915214 0.025451 -0.013879 -452952.000000 0 0 1
-30.164667 3.931512 23.288964 38.311092 -0.129604 0.917395 0.016216 -0.003779 2162.570000 0 0 1
-30.716967 3.689012 22.013164 37.969992 -0.119524 0.952373 0.025948 -0.008606 -237404.000000 0 0 1
-30.681667 2.239612 21.577864 37.576386 -0.072866 0.959121 0.011947 0.003942 134744.000000 0 0 1
-29.528867 1.745612 20.908364 36.223761 -0.059047 0.955500 0.004328 0.017147 280950.000000 0 0 1
-29.507067 2.109012 19.523464 35.444049 -0.071353 0.987444 0.005804 0.010243 397906.000000 0 0 1
-28.218767 1.455412 18.888664 33.988214 -0.051530 0.981542 0.001894 0.018774 475251.000000 0 0 1
-28.182967 0.050912 18.829264 33.894298 -0.001806 0.981797 0.011464 0.015770 214881.000000 0 0 1
-27.003067 -0.497688 18.275064 32.609681 0.018429 0.975905 0.017983 0.013781 -246250.000000 0 0 1
-26.940467 -0.503288 16.709564 31.705703 0.018679 1.015705 0.035480 0.018770 -318733.000000 0 0 1
-26.759567 0.788412 16.172164 31.276747 -0.029454 1.027376 0.030608 0.021709 171857.000000 0 0 1
-26.598267 0.790512 14.769364 30.433975 -0.029712 1.064099 0.039821 0.016303 -88375.900000 0 0 1
-26.350167 2.244012 14.249264 30.040114 -0.084956 1.076581 0.041977 0.012037 -921404.000000 0 0 1
-25.016767 2.570112 14.130964 28.846633 -0.102376 1.058861 0.036507 0.006863 -885944.000000 0 0 1
-24.888667 3.970512 13.888364 28.776681 -0.158198 1.067146 0.037535 0.001150 -253582.000000 0 0 1
-23.476467 4.414012 13.500264 27.438753 -0.185849 1.056394 0.027075 0.009318 -612635.000000 0 0 1
-22.527467 4.358612 14.515864 27.151327 -0.191118 1.006729 0.013654 0.012196 -858509.000000 0 0 1
-21.311467 4.828012 14.074564 25.991954 -0.222785 0.998580 0.013609 0.006280 -1400180.000000 0 0 1
-20.511467 5.515812 15.132064 26.079184 -0.262699 0.951779 0.000177 0.008219 -696899.000000 0 0 1
-20.915467 6.811912 15.593964 26.963505 -0.314854 0.954109 0.007460 0.003131 596931.000000 0 0 1
-20.198167 7.119612 16.779864 27.206960 -0.338890 0.906190 -0.000124 0.004766 17291.800000 0 0 1
-20.497667 8.551812 17.221864 28.104812 -0.395253 0.911232 -0.002051 0.005040 -236904.000000 0 0 1
-19.772667 9.479712 16.396264 27.379934 -0.447061 0.928742 0.002031 0.001944 674118.000000 0 0 1
-19.977667 10.828912 16.710464 28.206597 -0.496720 0.936723 0.011039 0.001972 -205239.000000 0 0 1
-19.523467 11.395912 18.119264 28.971371 -0.528350 0.895127 0.015263 0.007984 -146067.000000 0 0 1
-20.151267 10.850612 19.283164 29.927408 -0.493939 0.870648 0.018073 0.007267 401315.000000 0 0 1
-19.714167 11.571012 20.420664 30.651920 -0.530760 0.841679 0.023362 0.012700 -186115.000000 0 0 1
-12.269340 -33.355918 -21.668333 41.625361 1.218326 2.118298 0.046884 -0.000474 272234.000000 0 0 1
-13.144340 -33.954418 -20.696633 41.881103 1.201445 2.087683 0.068214 -0.001375 316745.000000 0 0 1
-14.200340 -33.072818 -20.321533 41.333106 1.165234 2.084783 0.049945 -0.019992 145003.000000 0 0 1
-15.206240 -33.807018 -19.415833 41.846371 1.148113 2.053278 0.040591 -0.006976 -856505.000000 0 0 1
-15.659340 34.103012 -20.041233 42.542701 -1.140337 2.061317 0.032679 -0.011103 162437.000000 0 0 1
-16.356140 33.164812 -19.219533 41.675155 -1.112622 2.050115 0.037236 -0.009631 875015.000000 0 0 1
-17.756740 33.568712 -18.634133 42.301196 -1.084245 2.026964 0.046533 -0.011370 -59451.600000 0 0 1
-17.681440 34.538912 -17.558533 42.589574 -1.097652 1.995744 0.046927 -0.012977 -305054.000000 0 0 1
-18.961440 -34.316218 -17.054233 42.754952 1.065997 1.981095 0.037844 -0.004501 -254547.000000 0 0 1
-19.133940 34.255212 -15.627633 42.234466 -1.061397 1.949828 0.040757 0.003147 -352595.000000 0 0 1
-19.008840 32.865512 -15.459433 40.993560 -1.046424 1.957480 0.035738 -0.001129 -31016.700000 0 0 1
-19.627140 32.384612 -14.309433 40.481448 -1.025930 1.932086 0.045474 0.004145 -24879.800000 0 0 1
-19.683040 30.842412 -14.358733 39.304576 -1.002775 1.944772 0.030238 0.001194 268298.000000 0 0 1
-18.463540 30.261712 -13.938233 38.091310 -1.022962 1.945414 0.024717 -0.003171 47586.700000 0 0 1
-18.552740 28.860512 -13.907733 37.021053 -0.999470 1.955917 0.024860 -0.003975 167633.000000 0 0 1
-17.214340 28.185112 -13.481633 35.671956 -1.022503 1.958360 0.036791 -0.000581 360115.000000 0 0 1
-16.176540 28.190312 -14.449633 35.569173 -1.049839 1.989132 0.037795 -0.005563 -732501.000000 0 0 1
-15.173840 27.330512 -14.024433 34.262035 -1.063971 1.992514 0.042205 -0.011226 -1232100.000000 0 0 1
-13.894940 27.675412 -14.753933 34.302716 -1.105496 2.015411 0.038779 -0.011755 -1021890.000000 0 0 1
-13.967340 27.542112 -16.152233 34.850382 -1.101464 2.052708 0.020136 -0.015413 -190047.000000 0 0 1
-13.031840 28.445812 -16.702333 35.467746 -1.141203 2.061125 0.026840 -0.007616 -48970.500000 0 0 1
-13.094540 28.500912 -18.213433 36.269796 -1.140118 2.096897 0.039218 -0.024152 -58067.100000 0 0 1
-12.643740 27.256512 -18.740433 35.411657 -1.136460 2.128473 0.020879 -0.021457 -23828.600000 0 0 1
-13.031340 27.119712 -20.062433 36.163460 -1.122861 2.158884 0.018034 -0.026934 -384802.000000 0 0 1
-12.334840 25.956812 -20.835433 35.496755 -1.127180 2.198104 0.002814 -0.018534 -1377840.000000 0 0 1
-11.070740 26.342912 -21.208733 35.585400 -1.172952 2.209301 -0.001249 -0.016603 -1516830.000000 0 0 1
-10.469040 25.177012 -21.709033 34.853477 -1.176729 2.243197 0.009206 -0.019810 136347.000000 0 0 1
-9.163740 25.553812 -22.463333 35.235959 -1.226476 2.262060 0.018184 -0.019007 101586.000000 0 0 1
-9.468840 26.279612 -23.668633 36.612582 -1.224965 2.273734 0.017666 -0.018948 166848.000000 0 0 1
-8.339840 26.520212 -24.478633 37.041572 -1.266117 2.292737 0.009396 -0.017781 -380322.000000 0 0 1
-8.775940 27.187412 -25.759003 38.466852 -1.258561 2.304522 0.005772 -0.011737 -92693.700000 0 0 1
-9.545640 26.473912 -26.698893 38.791986 -1.224738 2.329881 0.009579 -0.014667 -350755.000000 0 0 1
-9.877140 27.282112 -27.714313 40.124241 -1.223438 2.333270 0.020706 -0.011354 24023.300000 0 0 1
-11.033840 26.634812 -28.525473 40.556891 -1.178054 2.350888 0.007390 -0.012422 162709.000000 0 0 1
-11.434440 27.374112 -29.680773 41.964708 -1.175117 2.356439 0.021633 -0.006474 335962.000000 0 0 1
-12.654140 26.834612 -30.191333 42.328953 -1.130158 2.364927 0.017671 -0.008338 388274.000000 0 0 1
-12.667140 27.083312 -31.743893 43.607763 -1.133313 2.386111 0.009415 -0.004889 55907.400000 0 0 1
-11.800040 26.315712 -32.602483 43.527917 -1.149271 2.417350 0.006437 -0.002599 306115.000000 0 0 1
-12.037940 24.912412 -32.484913 42.670948 -1.120670 2.436095 0.006738 -0.008345 -286.150000 0 0 1
-11.261740 24.226812 -33.589593 42.918830 -1.135665 2.469677 -0.009832 0.006538 120943.000000 0 0 1
-11.890840 24.382512 34.232389 43.677860 -1.117054 0.670120 -0.005605 0.008968 584892.000000 0 0 1
-11.083340 23.837312 33.166832 42.321349 -1.135573 0.670211 -0.007512 0.007280 23732.400000 0 0 1
-11.820040 23.986112 31.790684 41.541479 -1.112936 0.699327 -0.003125 0.018743 -918885.000000 0 0 1
-12.880740 23.142512 31.548394 41.192117 -1.062913 0.698381 0.009782 0.006686 -734345.000000 0 0 1
-13.158540 23.013112 30.173974 40.164900 -1.051382 0.720839 0.014086 0.014627 -585286.000000 0 0 1
-14.387140 22.177712 29.911274 39.918981 -0.995321 0.723793 0.007131 0.002273 -670287.000000 0 0 1
-14.224740 20.826012 30.212144 39.355300 -0.971552 0.695589 -0.021594 -0.001592 -712133.000000 0 0 1
-15.408140 20.103412 30.231024 39.439482 -0.916854 0.697397 -0.010862 -0.009671 -303964.000000 0 0 1
-15.022840 18.601712 30.194054 38.514806 -0.891435 0.669778 -0.023924 -0.016005 -30973.800000 0 0 1
-14.541640 18.126912 28.956724 37.128643 -0.894708 0.676286 -0.017375 -0.017044 102776.000000 0 0 1
-14.066640 16.780912 28.977324 36.320169 -0.873162 0.647109 -0.030214 -0.025568 10613.300000 0 0 1
-13.618240 16.225112 27.611704 34.801105 -0.872529 0.654398 0.000611 -0.028253 -512123.000000 0 0 1
-12.560240 16.924112 27.068834 34.306078 -0.932338 0.661553 -0.027798 -0.018461 -802373.000000 0 0 1
-12.257340 16.354812 25.800324 32.914723 -0.927638 0.669949 -0.032407 -0.015862 416157.000000 0 0 1
-10.967540 16.936512 25.130074 32.228140 -0.996133 0.676521 -0.014900 -0.008409 233957.000000 0 0 1
-11.128840 17.935812 24.123634 32.054550 -1.015453 0.718824 -0.006542 -0.002454 -23230.000000 0 0 1
-11.502540 19.299912 24.520944 33.257657 -1.033331 0.741728 -0.001602 -0.007699 920371.000000 0 0 1
-10.446240 20.006412 25.508244 34.059521 -1.089590 0.724348 -0.034973 -0.003777 768974.000000 0 0 1
-10.404640 19.641512 26.892144 34.888866 -1.083651 0.690709 -0.039805 -0.004259 -560187.000000 0 0 1
-11.528940 20.050612 27.599674 36.009520 -1.048968 0.697493 -0.011463 -0.000504 -461581.000000 0 0 1
-11.498540 19.537412 29.041544 36.842071 -1.038846 0.662802 -0.025644 -0.000925 -613398.000000 0 0 1
-10.476940 20.147012 29.753714 37.429291 -1.091258 0.651902 -0.036883 0.001387 -291284.000000 0 0 1
-10.770340 19.947212 31.147654 38.523601 -1.075708 0.629139 -0.030741 0.000508 23357.100000 0 0 1
-9.710140 20.622112 32.029304 39.312016 -1.130731 0.618506 -0.036734 0.003041 636164.000000 0 0 1
-8.417440 20.003912 31.953604 38.626967 -1.172497 0.596627 -0.034206 0.001924 119332.000000 0 0 1
-7.441540 20.861412 32.432654 39.274064 -1.228154 0.599171 -0.019393 0.001206 104642.000000 0 0 1
-6.122440 20.182512 32.912224 39.090057 -1.276266 0.569893 -0.015351 0.001295 -142920.000000 0 0 1
-6.294240 19.370912 34.063237 39.688207 -1.256625 0.538905 -0.006872 0.000283 -157222.000000 0 0 1
-5.126840 18.981612 -34.356877 39.585112 -1.306996 2.621804 -0.012076 0.002598 7322.810000 0 0 1
-4.223840 17.946812 34.068440 38.737417 -1.339650 0.496046 -0.012734 0.004863 -285903.000000 0 0 1
-4.743640 16.640912 34.191499 38.320760 -1.293103 0.468504 -0.006197 0.005621 123799.000000 0 0 1
-4.620340 15.849912 33.023784 36.920693 -1.287151 0.463592 -0.008141 0.008089 -146330.000000 0 0 1
-5.350840 14.489312 33.096225 36.523030 -1.217036 0.436649 0.001510 -0.008528 -447057.000000 0 0 1
-4.694840 13.544312 33.874566 36.782824 -1.237129 0.400325 0.005300 -0.006564 -324119.000000 0 0 1
-5.200940 12.272512 33.691947 36.232742 -1.169953 0.376721 0.002907 -0.001367 138322.000000 0 0 1
-4.300240 11.163512 34.342194 36.366225 -1.203109 0.335204 0.010519 -0.012214 375251.000000 0 0 1
-4.342140 11.105112 -33.361583 35.428419 -1.198069 2.798330 0.024722 -0.017037 78866.500000 0 0 1
-3.635140 9.910812 -32.927673 34.578463 -1.219247 2.831350 0.029940 -0.014180 422718.000000 0 0 1
-3.546540 9.658612 -31.443063 33.083726 -1.218891 2.825344 0.035575 -0.012648 -1062370.000000 0 0 1
-4.700040 9.176912 -30.909883 32.584152 -1.097469 2.819633 0.036151 -0.008318 -1260300.000000 0 0 1
-4.568440 8.781212 -29.604923 31.215890 -1.091079 2.818924 0.046282 -0.005180 12395.300000 0 0 1
-5.705340 7.783512 -29.315683 30.863299 -0.938262 2.823571 0.045841 -0.010419 -5031.240000 0 0 1
-5.560640 6.811512 -28.266883 29.602940 -0.886160 2.840009 0.048689 -0.012852 -797254.000000 0 0 1
-6.713040 6.070112 -28.142103 29.561616 -0.735146 2.830440 0.054156 -0.021938 -1216230.000000 0 0 1
-6.884240 5.302512 -26.804803 28.178127 -0.656329 2.828101 0.056944 -0.025008 -341094.000000 0 0 1
-7.207740 6.046312 -25.660133 27.330419 -0.697993 2.790174 0.034451 -0.019000 372765.000000 0 0 1
-6.254340 7.069112 -25.262803 26.968469 -0.846475 2.784032 0.045137 -0.017080 496567.000000 0 0 1
-6.759340 8.000112 -24.121033 26.296667 -0.869267 2.731956 0.033835 -0.010995 206065.000000 0 0 1
-6.801740 7.370012 -22.863033 24.965957 -0.825476 2.728213 0.027389 -0.010398 -168102.000000 0 1 0
-8.030240 7.659712 -22.249733 24.863760 -0.761787 2.678927 0.020276 -0.004589 -470006.000000 0 1 0
-7.847840 7.924312 -20.788633 23.591324 -0.790247 2.649187 0.010727 -0.002512 -68846.900000 0 1 0
-7.030240 9.025112 -20.435133 23.419470 -0.909014 2.631236 -0.009123 0.001244 144912.000000 0 1 0
-6.751140 9.242812 -19.056533 22.229685 -0.939944 2.600713 -0.006966 0.004840 100533.000000 0 1 0
-8.014740 9.536312 -18.171633 22.031467 -0.871876 2.540651 -0.020523 0.010250 171939.000000 0 1 0
-7.689640 9.630612 -16.798233 20.834104 -0.896996 2.508642 -0.028237 0.011061 -177055.000000 0 1 0
-8.741640 9.986112 -15.944133 20.744977 -0.851751 2.447412 -0.018676 0.001376 -375203.000000 0 1 0
-9.332140 11.378112 -16.113833 21.822142 -0.883869 2.401516 -0.013697 0.002879 -981986.000000 0 1 0
-8.387540 12.339212 -15.843833 21.763135 -0.973793 2.386215 -0.023536 0.006404 -778958.000000 0 1 0
-8.780840 13.672812 -16.131033 22.896706 -0.999916 2.352533 -0.004733 -0.000295 264865.000000 0 1 0
-7.640740 14.628012 -15.673633 22.760106 -1.089440 2.330415 0.004830 -0.003385 124899.000000 0 1 0
-7.306340 14.637412 -14.296933 21.726452 -1.107825 2.289013 0.007556 -0.008813 230858.000000 0 1 0
-8.224140 15.219212 -13.376733 21.867736 -1.075370 2.229018 0.001860 -0.019906 -540211.000000 0 1 0
-7.495240 16.152912 -12.369833 21.681973 -1.136346 2.177926 -0.004412 -0.014038 260210.000000 0 1 0
-7.058340 17.450812 -12.803433 22.765740 -1.186442 2.168081 0.002879 -0.009715 392393.000000 0 1 0
-5.845040 17.357012 -13.563033 22.790047 -1.245971 2.208223 0.007582 -0.010864 102009.000000 0 1 0
-5.596240 18.651612 -14.283433 24.149886 -1.279302 2.203651 0.023670 -0.002681 -16423.100000 0 1 0
-5.354840 19.715412 -13.361133 24.410892 -1.305587 2.149983 0.035654 -0.010387 -157389.000000 0 1 0
-5.490140 20.976612 -13.963833 25.790474 -1.314812 2.142938 0.041394 -0.003032 -448298.000000 0 0 1
-4.847440 22.099512 -13.154133 26.170925 -1.354870 2.097428 0.037246 -0.005179 -780313.000000 0 0 1
-5.173740 23.433712 -13.555933 27.562107 -1.353500 2.084989 0.032375 -0.006383 666408.000000 0 0 1
-6.489540 23.966712 -13.334133 28.183622 -1.306364 2.063621 0.036753 -0.007689 511118.000000 0 0 1
-7.065740 24.021412 -11.914033 27.728994 -1.284721 2.014912 0.019086 -0.005018 -309378.000000 0 0 1
-7.386340 22.723812 -11.433933 26.488950 -1.256521 2.017117 0.027339 0.000381 -4671.730000 0 0 1
-7.993840 22.696412 -10.113733 26.102034 -1.232157 1.968681 0.039764 -0.000036 77739.400000 0 0 1
-7.184540 23.130312 -8.867033 25.792503 -1.269633 1.921739 0.044463 -0.002923 -75658.700000 0 0 1
-6.944840 24.549512 -8.838933 27.000668 -1.295109 1.904304 0.043836 -0.000770 -136646.000000 0 0 1
-6.478740 24.998012 -7.571733 26.911073 -1.317206 1.856009 0.039337 -0.003148 32105.200000 0 0 1
-6.473540 26.548612 -7.525633 28.343794 -1.331626 1.839532 0.020206 -0.004827 -68294.000000 0 0 1
-5.458540 27.266712 -8.179333 28.985699 -1.373217 1.856867 0.013777 -0.003430 -394756.000000 0 0 1
-5.364140 27.262012 -9.624933 29.404602 -1.376516 1.904270 0.013121 0.000682 -356121.000000 0 0 1
-4.862040 28.607312 -10.213233 30.762443 -1.402447 1.909223 0.000564 0.004583 108203.000000 0 0 1
-5.816040 29.643812 -10.258633 31.903314 -1.377060 1.898166 -0.003436 0.010971 337876.000000 0 0 1
-6.840040 29.462812 -11.266033 32.276415 -1.342679 1.927352 0.001820 0.013204 743436.000000 0 0 1
-8.023440 30.467012 -11.123733 33.411852 -1.313294 1.910203 0.003974 0.021392 112776.000000 0 0 1
-8.907440 30.248612 -10.047033 33.094771 -1.284417 1.879248 0.020989 0.009875 -130740.000000 0 0 1
-9.843840 31.296712 -9.901633 34.269924 -1.266061 1.863906 0.010897 0.011615 -700928.000000 0 0 1
-10.900340 30.983212 -8.907033 34.031046 -1.232506 1.835613 0.032891 0.000985 -634359.000000 0 0 1
-11.786340 30.007612 -9.390033 33.578971 -1.196531 1.854216 0.038315 -0.000733 -589911.000000 0 0 1
-13.042640 29.955812 -8.772233 33.829177 -1.160153 1.833104 0.054428 -0.003277 4466.820000 0 0 1
-13.977540 28.923112 -9.408733 33.473009 -1.120626 1.855720 0.054893 -0.003459 19374.000000 0 0 1
-13.766840 27.590812 -8.949533 32.107210 -1.107977 1.853277 0.049839 -0.002337 85743.600000 0 0 1
-14.867040 26.857712 -9.443333 32.117629 -1.065233 1.869230 0.053428 0.000065 57576.500000 0 0 1
-15.010440 25.399912 -8.898433 30.816407 -1.037047 1.863724 0.048568 -0.003600 -30165.100000 0 0 1
-14.021240 24.452012 -9.288733 29.677881 -1.050151 1.889131 0.050180 -0.001665 253851.000000 0 0 1
-14.367940 23.152912 -8.847233 28.649059 -1.015391 1.884742 0.057668 -0.003099 8981.710000 0 0 1
-13.277440 22.117512 -9.185733 27.383434 -1.030146 1.912878 0.048712 -0.005805 -92089.100000 0 0 1
-13.168340 21.703912 -10.549533 27.491046 -1.025445 1.964644 0.040968 -0.004516 207010.000000 0 0 1
-12.257040 20.642012 -10.823133 26.333779 -1.034955 1.994345 0.032741 -0.010548 5274.030000 0 0 1
-12.460140 19.954812 -12.230633 26.514864 -1.012616 2.050228 0.030108 -0.007583 119549.000000 0 0 1
-13.724240 19.343412 -12.417433 26.771533 -0.953720 2.053110 0.038059 -0.010289 -54366.400000 0 0 1
-13.812440 18.641312 -13.661833 26.924481 -0.933107 2.102976 0.033483 -0.014714 -129781.000000 0 0 1
-15.250140 18.549312 -14.181733 27.888444 -0.882700 2.104257 0.025965 0.001085 57835.900000 0 0 1
-15.849940 19.795712 -14.532833 29.228309 -0.895644 2.091185 0.009307 -0.000029 342498.000000 0 0 1
-17.099540 19.616012 -15.198833 30.136137 -0.853831 2.099413 0.011540 -0.001630 227788.000000 0 0 1
-17.717540 20.819712 -15.843333 31.597197 -0.865723 2.096031 0.008568 -0.001719 -298635.000000 0 0 1
-18.125440 21.847912 -14.968333 32.092271 -0.878254 2.056030 0.007813 -0.010017 327851.000000 0 0 1
-18.550640 22.915312 -15.808133 33.453473 -0.890271 2.062968 0.019609 -0.011410 -74455.200000 0 0 1
-18.897540 24.273912 -15.156133 34.293559 -0.909296 2.028571 0.019254 -0.006560 657325.000000 0 0 1
-20.219440 24.225412 -14.601333 34.769171 -0.875289 2.004187 0.022994 -0.004151 478591.000000 0 0 1
-20.633840 25.479712 -14.164333 35.715535 -0.890100 1.978593 0.023056 -0.007141 -26576.800000 0 0 1
-25.219920 -1.141488 3.947767 25.552539 0.045230 1.415679 0.025460 -0.014850 -48762.300000 0 0 1
-25.499440 -0.451288 5.142367 26.016707 0.017696 1.371830 0.033519 -0.013239 -38533.900000 0 0 1
-26.859710 -0.630688 5.465467 27.417387 0.023476 1.370109 0.052083 -0.018569 -139045.000000 0 0 1
-27.238270 0.249412 6.705067 28.052513 -0.009156 1.329441 0.055211 -0.007588 -498107.000000 0 0 1
-27.451530 1.641812 6.385567 28.232207 -0.059737 1.342642 0.046358 -0.007550 -3465.160000 0 0 1
-27.518470 2.591512 7.494267 28.638194 -0.093897 1.306026 0.042944 0.004911 -637725.000000 0 0 1
-26.285150 2.983412 8.316767 27.730461 -0.113018 1.266193 0.044494 0.000042 -530589.000000 0 0 1
-25.840640 1.883912 9.060067 27.447634 -0.072776 1.234402 0.056364 -0.003088 -234199.000000 0 0 1
-24.871940 2.190012 10.000867 26.896596 -0.087825 1.189821 0.052416 -0.011257 -421819.000000 0 0 1
-24.297740 0.908712 10.685167 26.558967 -0.037382 1.156748 0.036727 -0.002886 277419.000000 0 0 1
-23.346940 0.022012 10.059067 25.421741 -0.000943 1.163980 0.016951 -0.009073 909172.000000 0 0 1
-23.841640 -0.746388 8.912367 25.463919 0.031296 1.213225 0.013083 -0.001099 -191409.000000 0 0 1
-22.729040 -1.568688 8.276767 24.239945 0.068908 1.222335 -0.004820 -0.007684 -328022.000000 0 1 0
-22.005140 -2.441888 9.101267 23.937879 0.110517 1.180780 0.005598 -0.002755 130087.000000 0 1 0
-20.779340 -2.851388 8.526167 22.640824 0.136371 1.184691 0.007207 -0.010094 -31.189600 0 1 0
-19.625040 -2.701488 9.529667 21.983057 0.136795 1.122423 -0.018449 -0.004731 -435666.000000 0 1 0
-19.229840 -1.358188 9.860467 21.653181 0.070512 1.097995 -0.014553 0.002415 -599525.000000 0 1 0
-20.120940 -0.699288 10.724567 22.811347 0.034740 1.081345 0.000160 -0.002797 -741736.000000 0 1 0
-19.703040 0.720012 11.140667 22.646030 -0.036527 1.056471 -0.008802 0.007041 -457707.000000 0 1 0
-20.135940 1.704912 10.235267 22.652230 -0.084469 1.101965 -0.010949 0.013860 397528.000000 0 1 0
-20.348740 2.955612 10.930467 23.286949 -0.144239 1.082206 -0.007778 0.013579 -455525.000000 0 1 0
-21.179840 3.989712 10.176867 23.834262 -0.186191 1.129641 -0.000116 0.016227 -512255.000000 0 1 0
-21.485940 5.127712 10.923867 24.642847 -0.234272 1.111533 0.006223 0.012190 647905.000000 0 1 0
-22.078840 6.169712 10.141367 25.067666 -0.272489 1.154299 0.007854 0.010147 -167944.000000 0 0 1
-22.232540 7.364212 11.042267 25.893032 -0.319862 1.130224 0.010804 0.008062 -532762.000000 0 0 1
-23.167340 7.060912 12.032567 27.043757 -0.295835 1.109701 0.010029 0.007472 -7393.660000 0 0 1
-23.240040 8.176012 12.905667 27.811920 -0.338284 1.088253 0.013818 0.001550 265023.000000 0 0 1
-24.158440 7.859212 14.155267 29.082108 -0.314521 1.062449 0.021895 -0.000642 -146708.000000 0 0 1
-25.463760 7.645512 13.724667 29.920284 -0.291687 1.094256 0.025822 -0.000684 -319924.000000 0 0 1
-26.329470 7.335412 14.860267 31.110719 -0.271711 1.072810 0.033602 0.000439 922685.000000 0 0 1
-27.762310 6.931012 14.396167 32.031772 -0.244654 1.104665 0.030844 0.008406 280270.000000 0 0 1
-27.782090 5.699412 13.641167 31.470769 -0.202340 1.122473 0.037580 0.018650 355153.000000 0 0 1
-28.848470 5.666712 12.681767 32.018324 -0.193961 1.163554 0.022482 0.005753 167893.000000 0 0 1
-29.088890 4.283412 12.032167 31.769233 -0.146202 1.182366 0.052082 0.010808 110890.000000 0 0 1
-29.824780 3.385012 12.881167 32.663440 -0.113013 1.165425 0.031599 0.008249 341290.000000 0 0 1
-30.163200 2.257112 12.102467 32.578872 -0.074691 1.190192 0.046331 0.009990 -128747.000000 0 0 1
-31.214260 1.348712 12.763167 33.749778 -0.043181 1.182977 0.039146 0.017190 -377872.000000 0 0 1
-30.668630 0.318912 13.522767 33.519126 -0.010398 1.155529 0.049496 0.011385 -297939.000000 0 0 1
-31.700430 -0.352988 14.200467 34.737518 0.011135 1.149665 0.040156 0.018914 -197160.000000 0 0 1
-31.364100 -1.698388 14.900467 34.765144 0.054098 1.127850 0.030820 0.012098 -257314.000000 0 0 1
-31.432460 -2.905188 14.105167 34.574491 0.092165 1.150573 0.022310 0.007715 240969.000000 0 0 1
-31.513220 -4.009488 15.000267 35.130714 0.126552 1.129641 0.025148 0.011412 -60266.200000 0 0 1
-31.390930 -5.417688 14.384267 34.952095 0.170904 1.146651 0.022605 0.010898 -580897.000000 0 0 1
-32.543690 -5.706488 13.685267 35.762303 0.173584 1.178109 0.003756 0.003465 -646465.000000 0 0 1
-32.409030 -6.924688 13.009367 35.602530 0.210500 1.196728 0.004905 0.009454 -557257.000000 0 0 1
-33.483460 -7.054388 11.926367 36.237339 0.207646 1.235427 0.009756 0.020204 1270670.000000 0 0 1
-34.869195 -7.034588 12.353467 37.655735 0.199070 1.236544 -0.008493 0.022976 872267.000000 0 0 1
34.942175 -5.800688 12.633867 37.606092 -0.164508 1.228180 -0.002443 0.012504 -781907.000000 0 0 1
33.418117 -5.660688 12.485267 36.120574 -0.167797 1.217859 -0.006043 0.003393 188299.000000 0 0 1
32.663377 -6.282888 13.505567 35.899460 -0.190032 1.185099 -0.007083 0.009781 -303738.000000 0 0 1
31.284567 -6.106188 13.305267 34.540408 -0.192759 1.175362 0.001961 0.008890 -433693.000000 0 0 1
30.342267 -7.187188 13.759567 34.082760 -0.232584 1.155227 -0.007520 -0.002245 -311901.000000 0 0 1
30.106577 -7.111988 15.152967 34.447043 -0.231974 1.115318 0.013400 0.001330 -204389.000000 0 0 1
29.094597 -8.024388 15.492167 33.924823 -0.269113 1.096557 0.028587 0.006728 -219405.000000 0 0 1
28.749397 -8.137088 16.996267 34.374600 -0.275821 1.053603 0.015911 0.002774 -44466.500000 0 0 1
29.730037 -8.642988 17.871267 35.748546 -0.282917 1.047295 0.000533 0.011994 -158131.000000 0 0 1
29.161897 -8.767688 19.167067 35.981454 -0.292058 1.009017 0.009699 0.004455 -271609.000000 0 0 1
30.109767 -9.243788 20.293467 37.468260 -0.297869 0.998436 0.003060 0.007727 596712.000000 0 0 1
31.155637 -8.325588 20.668567 38.303770 -0.261124 1.000839 0.007758 0.005151 76378.100000 0 0 1
32.367277 -8.667288 20.063467 39.055156 -0.261641 1.031280 -0.013363 0.016980 177746.000000 0 0 1
33.643937 -7.955888 20.671267 40.280416 -0.232208 1.031906 -0.002786 0.006154 742727.000000 0 0 1
33.882877 -8.341088 21.978767 41.239415 -0.241375 1.008707 -0.001546 0.004588 -517663.000000 0 0 1
35.126515 -7.936688 22.471367 42.447914 -0.222214 1.012919 -0.011666 0.004189 -387751.000000 0 0 1
-34.900070 -8.613388 23.834367 43.130991 0.241966 0.985311 -0.016452 0.010188 -84600.600000 0 0 1
34.902223 -7.941788 25.002367 43.661832 -0.223734 0.961078 -0.007984 0.002557 342665.000000 0 0 1
34.490491 -8.975588 25.890467 44.050783 -0.254587 0.942532 -0.016578 0.001327 -338206.000000 0 0 1
33.912427 -8.429288 27.246667 44.311246 -0.243623 0.908546 -0.002024 0.001631 -801090.000000 0 0 1
34.941277 -8.050788 28.046267 45.522534 -0.226457 0.907019 -0.004056 -0.006610 -1058270.000000 0 0 1
34.568789 -7.271288 29.146967 45.797582 -0.207320 0.880935 -0.003666 -0.004850 237966.000000 0 0 1
-34.546514 -6.737688 29.902367 46.184517 0.192614 0.866557 -0.000937 -0.005720 702097.000000 0 0 1
-34.079581 -7.645788 30.930067 46.653456 0.220697 0.846011 -0.001995 0.003154 192290.000000 0 0 1
-32.776790 -7.274088 31.378667 45.954881 0.218389 0.819188 0.000714 -0.006750 455622.000000 0 0 1
-32.377650 -8.082988 32.608667 46.658034 0.244647 0.796957 -0.004128 -0.004876 -252885.000000 0 0 1
-31.962540 -9.372688 32.282867 46.385717 0.285243 0.801032 0.004934 -0.011424 198746.000000 0 0 1
-31.498560 -10.085188 33.392867 46.999509 0.309866 0.780596 0.008081 -0.016403 -400858.000000 0 0 1
-31.590230 -11.632488 33.188867 47.273230 0.352823 0.792504 0.008170 -0.019150 779851.000000 0 0 1
-33.008440 -11.904188 33.274167 48.357388 0.346123 0.811945 0.012566 -0.022001 1217740.000000 0 0 1
-33.207290 -13.292788 33.535367 49.031043 0.380763 0.817617 0.021491 -0.022655 -238909.000000 0 0 1
-34.697258 -13.625788 33.660067 50.225113 0.374202 0.836340 0.019734 -0.020913 -323201.000000 0 0 1
-34.934949 -14.962788 33.838767 50.886126 0.404666 0.843316 0.022242 -0.018457 -46094.900000 0 0 1
34.060227 -15.130788 34.139867 50.542758 -0.418050 0.829201 0.012951 -0.014311 -177604.000000 0 0 1
33.657077 -16.572988 -34.518729 50.980442 -0.457555 2.314608 0.012493 -0.006933 142871.000000 0 0 1
34.282947 -17.043188 -33.298029 50.740018 -0.461351 2.286632 0.012120 -0.017980 353897.000000 0 0 1
33.919327 -18.358588 -33.227929 50.908288 -0.496095 2.281941 0.016147 -0.017918 -325495.000000 0 0 1
34.523109 -19.115188 -32.046629 50.835243 -0.505674 2.252867 0.024884 -0.018558 -19260.100000 0 0 1
33.883677 -18.848188 -30.784429 49.507968 -0.507638 2.241845 0.017270 -0.019828 -165580.000000 0 0 1
34.241557 -19.736488 -29.737729 49.460547 -0.522878 2.215850 0.012829 -0.010288 -1126940.000000 0 0 1
33.166907 -19.881688 -28.654929 48.129307 -0.540010 2.208527 0.017685 -0.004019 785481.000000 0 0 1
31.883757 -20.403688 -29.013629 47.693554 -0.569271 2.224757 0.015417 -0.006864 551867.000000 0 0 1
31.061267 -19.567988 -29.792929 47.279246 -0.562173 2.252540 0.011255 -0.000223 -68721.400000 0 0 1
29.673507 -20.265488 -30.071429 46.856140 -0.599190 2.267616 0.002523 0.002233 677391.000000 0 0 1
28.741827 -19.494588 -30.787229 46.411045 -0.595990 2.296096 -0.011838 0.007228 -586827.000000 0 0 1
27.504217 -20.139788 -30.758329 45.914789 -0.632040 2.304871 -0.012648 0.002871 -212403.000000 0 0 1
26.484797 -19.460288 -31.719729 45.675907 -0.633684 2.338454 -0.014988 0.009917 112489.000000 0 0 1
26.783817 -19.729788 -33.090129 46.921147 -0.634890 2.353542 -0.014503 0.004716 -50232.000000 0 0 1
25.775467 -19.260388 -33.948229 46.774133 -0.641731 2.382979 0.003462 0.006172 -150437.000000 0 0 1
26.086257 -19.597088 33.691867 46.900752 -0.644295 0.769347 0.002001 0.004420 262551.000000 0 0 1
27.050197 -18.711588 33.110967 46.670899 -0.605158 0.782070 -0.010536 -0.001399 325376.000000 0 0 1
27.254977 -18.802788 31.727167 45.858388 -0.603905 0.806747 -0.010012 0.007446 -197763.000000 0 0 1
26.164127 -18.122888 30.876567 44.343692 -0.605784 0.800565 -0.011167 0.003742 -253689.000000 0 0 1
25.929867 -16.744088 31.228467 43.908310 -0.573378 0.779564 -0.006896 0.000699 935797.000000 0 0 1
25.063787 -16.116088 30.213067 42.435258 -0.571441 0.778482 0.007066 -0.005279 759628.000000 0 0 1
24.735387 -14.687988 30.533067 41.950501 -0.535852 0.755636 0.013024 -0.005030 -395501.000000 0 0 1
25.952027 -14.008988 30.596767 42.496136 -0.494981 0.767009 0.021412 -0.004142 -112952.000000 0 0 1
25.750517 -12.706588 31.169167 42.379989 -0.458394 0.744438 0.040155 -0.009434 -371083.000000 0 0 1
27.020237 -11.893288 31.445467 43.131901 -0.414643 0.753858 0.041926 -0.012205 -4479.090000 0 0 1
27.692347 -11.550588 30.236467 42.597255 -0.395164 0.781551 0.035686 -0.010880 -859220.000000 0 0 1
28.978757 -11.094688 30.399667 43.439616 -0.365640 0.795659 0.033338 -0.010054 -499244.000000 0 0 1
29.690957 -10.416488 29.163967 42.902134 -0.337414 0.823335 0.026973 -0.006944 319743.000000 0 0 1
29.531957 -9.016188 29.168767 42.476407 -0.296315 0.813850 0.029498 -0.011810 77590.800000 0 0 1
30.037397 -8.512888 27.935667 41.894104 -0.276168 0.840868 0.026086 -0.004412 33831.600000 0 0 1
29.917327 -6.966388 27.812167 41.437829 -0.228778 0.834999 0.027754 -0.008286 -392730.000000 0 0 1
28.616727 -6.526788 27.584767 40.279466 -0.224240 0.816420 0.034160 -0.008007 -766617.000000 0 0 1
28.628367 -5.183788 27.066967 39.737586 -0.179131 0.821474 0.031484 -0.009227 508922.000000 0 0 1
27.201207 -4.584388 26.903567 38.532119 -0.166967 0.797900 0.034308 -0.008716 286980.000000 0 0 1
26.537507 -4.992188 25.746667 37.310214 -0.185945 0.809210 0.034585 -0.005821 -750668.000000 0 0 1
25.224187 -4.550388 25.696367 36.294200 -0.178478 0.784131 0.047458 -0.008772 -1082150.000000 0 0 1
24.504687 -4.970988 24.439567 34.964022 -0.200143 0.796810 0.045961 0.004268 -378791.000000 0 0 1
25.023887 -4.264688 23.325567 34.474115 -0.168803 0.827646 0.050785 0.008615 486266.000000 0 0 1
24.374387 -4.691988 22.147267 33.266003 -0.190170 0.842281 0.046255 0.005749 349039.000000 0 0 1
24.878887 -3.788988 20.970867 32.758094 -0.151136 0.876072 0.047991 0.000348 340226.000000 0 0 1
24.279187 -2.520788 21.068767 32.244786 -0.103454 0.858728 0.043168 0.001692 -130642.000000 0 0 1
24.705587 -1.760888 20.016467 31.845341 -0.071155 0.891106 0.042933 0.006716 72517.100000 0 0 1
23.575387 -0.780488 19.569267 30.649050 -0.033094 0.878255 0.024729 0.002001 115136.000000 0 0 1
22.625187 -1.508688 18.849867 29.487162 -0.066583 0.877265 0.028814 0.001428 -1165510.000000 0 0 1
21.611287 -0.712388 18.368867 28.372002 -0.032952 0.866590 0.027920 0.009426 106317.000000 0 0 1
20.440387 -1.478788 17.657367 27.051411 -0.072221 0.859609 0.016851 -0.002925 225662.000000 0 0 1
20.737687 -1.900988 16.322067 26.458936 -0.091413 0.906020 0.017172 -0.008400 49456.000000 0 0 1
19.715887 -2.772188 15.901567 25.480602 -0.139691 0.896861 0.021757 -0.013453 -104432.000000 0 0 1
20.001887 -3.283888 14.480967 24.910998 -0.162727 0.950461 0.023518 -0.015626 -46529.400000 0 1 0
19.136787 -4.295788 13.988967 24.090696 -0.220818 0.951234 0.021264 -0.012447 598660.000000 0 1 0
19.411487 -4.486688 12.615667 23.581587 -0.227147 1.006313 0.018740 -0.016374 -196478.000000 0 1 0
18.401887 -5.444988 11.959867 22.612292 -0.287685 1.013481 0.011881 -0.018383 -226920.000000 0 1 0
18.561687 -6.760488 12.409367 23.328798 -0.349284 1.009914 0.025460 -0.024821 297122.000000 0 1 0
17.400387 -7.525788 12.210267 22.549980 -0.408212 0.998605 0.016201 -0.015376 -429309.000000 0 1 0
17.457487 -8.980888 12.763067 23.416150 -0.475135 0.994343 0.024819 -0.021064 -818318.000000 0 1 0
18.122687 -9.856388 11.885867 23.808696 -0.498125 1.048094 0.005789 -0.026298 306706.000000 0 1 0
17.741487 -11.204288 11.954567 24.149702 -0.563282 1.052939 0.009751 -0.020778 57337.600000 0 1 0
18.396787 -11.981688 10.743767 24.442405 -0.577283 1.115694 0.004171 -0.018284 74751.100000 0 1 0
18.095987 -11.439188 9.478067 23.412679 -0.563717 1.154008 0.031727 -0.016007 140130.000000 0 1 0
18.943087 -11.931388 8.470467 23.936319 -0.562083 1.209085 0.033988 -0.012725 -182950.000000 0 1 0
18.616987 -11.325288 7.133967 22.929192 -0.546523 1.254414 0.030404 0.000177 -275084.000000 0 1 0
18.925287 -9.993888 7.100867 22.549204 -0.485851 1.250439 0.029430 0.001445 332332.000000 0 1 0
19.202787 -9.667288 5.765767 22.258651 -0.466389 1.308773 -0.002546 -0.000456 -399345.000000 0 1 0
19.783387 -8.260388 5.543467 22.143768 -0.395536 1.317765 0.016009 0.004889 -682882.000000 0 1 0
20.122987 -8.001988 4.214767 22.061974 -0.378482 1.378573 0.007001 -0.001813 343598.000000 0 1 0
20.455587 -6.691688 4.042167 21.898604 -0.316159 1.385146 0.010652 0.000070 -841079.000000 0 1 0
21.293387 -6.384088 2.798167 22.405237 -0.291288 1.445580 0.020791 0.000181 -406663.000000 0 1 0
20.561487 -6.254188 1.642367 21.554280 -0.295278 1.494526 0.011288 -0.009622 453313.000000 0 1 0
21.436587 -5.740988 0.642067 22.201317 -0.261672 1.541872 0.039431 -0.000595 330298.000000 0 1 0
-24.988240 -15.752688 0.222967 29.539956 0.562476 1.563248 -0.006528 0.007666 -564784.000000 0 0 1
-24.066440 -15.150088 -0.685933 28.446251 0.561837 1.594912 -0.018835 0.015037 73856.400000 0 0 1
-22.709740 -15.466788 -0.493233 27.480850 0.597904 1.588746 -0.020520 0.012743 440920.000000 0 0 1
-22.028440 -14.966988 0.871667 26.646251 0.596793 1.538078 -0.026752 0.008949 -1198520.000000 0 0 1
-22.553040 -15.570588 2.063467 27.483463 0.604253 1.495645 -0.010953 0.018373 -175750.000000 0 0 1
-21.879640 -15.181788 3.248967 26.828364 0.606605 1.449396 -0.003381 0.023195 -112407.000000 0 0 1
-22.383040 -15.832688 4.562867 27.793781 0.615643 1.405881 0.007869 0.021575 -603793.000000 0 0 1
-22.110640 -17.221588 4.619967 28.404359 0.661731 1.407421 0.013018 0.012490 196239.000000 0 0 1
-22.672640 -17.768588 5.793267 29.382533 0.664724 1.372329 0.019354 0.006254 -397499.000000 0 0 1
-22.834140 -19.296888 5.728767 30.439885 0.701636 1.381468 0.004186 0.008099 -15847.300000 0 0 1
-23.214440 -19.971588 6.896467 31.390059 0.710449 1.349287 0.006213 0.003710 -117367.000000 0 0 1
-23.522640 -21.330388 6.667067 32.446106 0.736561 1.363841 0.005576 0.004478 30229.400000 0 0 1
-24.170640 -22.104188 7.792567 33.668072 0.740772 1.337226 0.001480 0.006073 228975.000000 0 0 1
-23.174040 -22.411188 8.743267 33.402727 0.768665 1.305958 0.006041 0.006621 -52432.400000 0 0 1
-23.787340 -23.162788 9.753467 34.604659 0.772096 1.285070 0.008507 0.005746 -30434.600000 0 0 1
-22.881540 -23.706488 10.861667 34.692049 0.803104 1.252353 -0.009095 0.005213 -30565.300000 0 0 1
-22.600040 -22.759688 11.872967 34.201353 0.788918 1.216267 0.007507 0.003562 -345980.000000 0 0 1
-21.847340 -23.167688 12.969567 34.383974 0.814721 1.184027 0.011818 0.002794 -338863.000000 0 0 1
-22.122440 -22.356988 14.270067 34.537980 0.790671 1.144864 0.006030 0.009922 169753.000000 0 0 1
-23.450440 -22.551688 14.725767 35.712043 0.765863 1.145767 0.013358 0.008659 -158707.000000 0 0 1
-23.820040 -21.759988 15.782867 35.916435 0.740233 1.115829 0.010204 0.017207 -510297.000000 0 0 1
-25.164320 -22.247688 16.315967 37.341845 0.723959 1.118608 -0.012790 0.018247 -216378.000000 0 0 1
-26.310100 -22.027188 15.500867 37.652294 0.697024 1.146495 -0.011194 0.014057 237448.000000 0 0 1
-26.623530 -23.125788 14.674767 38.196377 0.715206 1.176463 -0.018549 0.004174 -228587.000000 0 0 1
-27.585790 -24.206888 15.208667 39.727230 0.720251 1.177942 -0.013818 0.007861 -613726.000000 0 0 1
-27.098240 -24.827788 16.316067 40.211288 0.741701 1.152988 -0.013718 0.018108 59688.900000 0 0 1
-27.804480 -26.063588 16.659967 41.592718 0.753092 1.158679 -0.033892 0.021418 14418.300000 0 0 1
-27.534630 -27.285888 15.710467 41.826957 0.780861 1.185745 -0.023437 0.010497 -373228.000000 0 0 1
-28.237000 -27.473938 14.528567 41.990769 0.771702 1.217498 -0.031235 0.003529 885598.000000 0 0 1
-29.552340 -28.073558 14.767067 43.353566 0.759742 1.223221 -0.026979 -0.000320 1165820.000000 0 0 1
-30.269640 -28.370908 13.447067 43.611732 0.753030 1.257353 -0.020263 -0.010383 -190223.000000 0 0 1
-29.599770 -29.398428 12.746167 43.621998 0.781985 1.274274 -0.005192 -0.015886 395506.000000 0 0 1
-30.231880 -29.704678 11.497367 43.914962 0.776602 1.305899 0.003250 -0.008554 -129095.000000 0 0 1
-29.624940 -30.972648 10.875167 44.217771 0.807635 1.322301 0.021664 -0.016908 -60486.700000 0 0 1
-29.691690 -32.175678 11.612267 45.295866 0.825527 1.311537 0.008646 -0.009893 219616.000000 0 0 1
-29.115050 -33.237138 10.842467 45.496731 0.851412 1.330168 0.024141 -0.010300 75426.500000 0 0 1
-29.281250 34.487444 11.540367 46.689993 -0.866859 1.321038 0.012964 -0.003733 234263.000000 0 0 1
-30.621790 34.032950 11.523167 47.209311 -0.838109 1.324218 0.003700 0.005485 -273417.000000 0 0 1
-30.692690 32.687583 11.882967 46.386681 -0.816863 1.311736 0.003689 0.000052 -732613.000000 0 0 1
-32.086380 32.326663 12.438467 47.215086 -0.789128 1.304207 0.013493 0.002946 384871.000000 0 0 1
-33.157220 32.274253 11.491867 47.676951 -0.771904 1.327363 -0.000736 0.003607 339881.000000 0 0 1
-33.512260 33.509593 10.892767 48.627325 -0.785358 1.344874 0.002502 0.011664 -1097390.000000 0 0 1
-34.912855 33.425409 10.236267 49.405937 -0.763636 1.362098 -0.002342 0.022775 114743.000000 0 0 1
-35.115140 32.740193 8.982167 48.843348 -0.750412 1.385846 -0.016266 0.015466 -1020400.000000 0 0 1
33.921447 32.729153 8.615667 47.917552 0.767511 1.390011 -0.005710 0.017369 -1104620.000000 0 0 1
33.673077 32.127033 7.226767 47.098286 0.761906 1.416748 -0.000826 0.010952 -199862.000000 0 0 1
33.842997 30.768943 7.162467 46.296622 0.737857 1.415464 -0.000784 0.003174 -428.397000 0 0 1
33.723677 30.360943 5.812667 45.747791 0.732973 1.443393 0.025226 -0.009041 103544.000000 0 0 1
34.151167 28.888543 5.554367 45.074395 0.702110 1.447256 0.024192 -0.008492 477532.000000 0 0 1
33.212887 27.998583 6.178367 43.876973 0.700418 1.429516 0.022256 -0.009870 569284.000000 0 0 1
33.672477 27.622923 7.469667 44.188885 0.687022 1.400941 0.008477 -0.006969 -397924.000000 0 0 1
32.789667 26.550743 7.995767 42.942246 0.680645 1.383505 0.009769 -0.006377 -389706.000000 0 0 1
32.997807 25.276493 7.362767 42.213348 0.653666 1.395482 0.010688 -0.007509 -78588.000000 0 0 1
31.870907 24.444573 7.562467 40.871540 0.654284 1.384694 0.013552 -0.003584 -665463.000000 0 0 1
31.772797 23.244543 6.581367 39.914080 0.631612 1.405152 0.017948 0.007847 -95829.900000 0 0 1
32.640597 22.116643 6.764067 40.003838 0.595521 1.400895 0.025620 0.008134 -216103.000000 0 0 1
34.001057 22.488643 6.692667 41.311049 0.584355 1.408072 0.038388 -0.000387 -712665.000000 0 0 1
34.893665 21.239443 6.896167 41.427514 0.546785 1.403554 0.021762 0.003001 -251118.000000 0 0 1
34.828662 20.357143 5.789067 40.754905 0.528940 1.428268 0.035216 -0.006160 13029.000000 0 0 1
-35.001856 19.120943 6.172467 40.358886 -0.499986 1.417254 0.026035 -0.006581 -232761.000000 0 0 1
34.973225 18.003843 5.209967 39.678818 0.475409 1.439113 0.023936 -0.009116 -232105.000000 0 0 1
-34.640980 17.839243 4.039367 39.173366 -0.475556 1.467498 0.032698 -0.008769 88913.500000 0 0 1
35.171815 16.737843 3.306167 39.091466 0.444173 1.486120 0.012107 -0.002989 -408467.000000 0 0 1
-34.319474 16.205043 2.124967 38.012435 -0.441147 1.514865 0.024341 0.012881 -355276.000000 0 0 1
-33.196640 15.460043 2.441667 36.701384 -0.435842 1.504219 0.032117 0.005906 -476765.000000 0 0 1
-32.016380 16.241143 2.516067 35.988247 -0.469451 1.500826 0.037517 -0.003280 443119.000000 0 0 1
-30.803970 15.320343 2.977367 34.532046 -0.461525 1.484469 0.010577 0.000345 631345.000000 0 0 1
-30.997690 14.649143 4.257167 34.548193 -0.441479 1.447258 0.013070 -0.003766 347335.000000 0 0 1
-29.721990 14.218243 4.706267 33.282189 -0.446198 1.428916 0.006388 0.001825 171733.000000 0 0 1
-29.627470 13.584343 6.106567 33.160391 -0.429904 1.385587 -0.002219 0.001966 -486614.000000 0 0 1
-29.714570 12.161543 6.146867 32.690102 -0.388480 1.381636 -0.005495 0.014654 417223.000000 0 0 1
-29.404310 11.678943 7.445667 32.503063 -0.378077 1.339668 -0.020020 0.012083 -356277.000000 0 0 1
-29.395180 10.138743 7.523567 31.991792 -0.332135 1.333401 -0.016571 0.010970 -946050.000000 0 0 1
-30.633130 9.572243 7.364367 32.927958 -0.302867 1.345238 -0.015978 0.008027 -1077220.000000 0 0 1
-30.558490 8.137543 7.218867 32.436907 -0.260254 1.346366 -0.010983 0.008182 772340.000000 0 0 1
-31.979380 7.500443 6.997367 33.584231 -0.230376 1.360906 -0.005068 0.007476 978010.000000 0 0 1
-32.794440 7.459343 8.178367 34.612177 -0.223652 1.332255 -0.002257 0.008674 153855.000000 0 0 1
-33.931270 6.660543 7.930167 35.476492 -0.193831 1.345359 -0.007238 0.012278 162877.000000 0 0 1
-34.631138 6.048943 9.188367 36.336366 -0.172923 1.315151 -0.006341 0.009580 354345.000000 0 0 1
35.079436 6.918843 10.149767 37.167930 0.194734 1.294204 -0.006824 0.006777 -113578.000000 0 0 1
-34.437583 7.734343 10.880467 36.934425 -0.220924 1.271771 -0.006741 -0.000336 -572750.000000 0 0 1
-35.164958 8.793443 11.809067 38.122867 -0.245038 1.255852 0.001226 -0.009731 -613286.000000 0 0 1
34.530402 8.195443 12.893667 37.759245 0.233028 1.222315 0.001114 -0.010454 335640.000000 0 0 1
33.967107 9.139443 13.754867 37.768905 0.262842 1.198039 0.026752 -0.016152 -721796.000000 0 0 1
33.294827 8.525543 14.931967 37.472577 0.250676 1.160940 0.018510 -0.014396 -359302.000000 0 0 1
31.975837 8.038143 14.765667 36.126041 0.246279 1.149738 0.013871 -0.016260 285125.000000 0 0 1
31.471537 7.705243 16.063967 36.164616 0.240109 1.110526 0.002359 -0.009317 1163950.000000 0 0 1
29.910167 7.483643 16.100167 34.782731 0.245171 1.089557 0.006147 0.002203 465165.000000 0 0 1
29.116647 8.646343 16.102167 34.377582 0.288661 1.083327 -0.002148 0.000427 731148.000000 0 0 1
27.707787 8.400043 16.089167 33.123156 0.294358 1.063589 -0.001820 0.005403 889601.000000 0 0 1
27.012147 7.755743 17.349767 33.027595 0.279599 1.017715 0.005495 0.014216 -600733.000000 0 0 1
27.114297 8.600243 18.463167 33.912208 0.307147 0.995075 0.011535 0.007303 264670.000000 0 0 1
26.572237 8.078043 19.692967 34.046314 0.295125 0.954010 0.015602 0.007780 -87973.600000 0 0 1
27.326867 6.986643 20.474267 34.853500 0.250307 0.942907 0.014986 0.006962 -310053.000000 0 0 1
26.559277 6.610143 21.566967 34.845707 0.243927 0.903420 0.004423 0.009417 -17759.900000 0 0 1
27.149667 5.528343 22.275467 35.550857 0.200878 0.893639 0.010057 0.012961 -705398.000000 0 0 1
26.588717 5.322043 23.735567 36.036942 0.197551 0.851779 0.012056 0.010978 1041680.000000 0 0 1
25.186587 5.017443 23.800367 35.014231 0.196637 0.823396 0.023678 0.004653 761956.000000 0 0 1
24.342687 6.135043 23.565767 34.431825 0.246887 0.816991 0.018526 0.017179 -92012.800000 0 0 1
22.841487 5.911543 23.946567 33.617227 0.253251 0.777984 0.012418 0.006433 630843.000000 0 0 1
22.232687 4.957343 23.148467 32.476440 0.219387 0.777346 0.014572 0.012585 -933252.000000 0 0 1
20.857287 5.019243 23.032967 31.475972 0.236157 0.749891 0.032648 0.003213 -1754530.000000 0 0 1
20.271687 4.067443 22.032667 30.214629 0.198017 0.753636 0.031620 0.002361 308057.000000 0 0 1
18.891987 4.234243 21.734767 29.107320 0.220485 0.727692 0.037167 -0.002133 1110640.000000 0 0 1
17.927387 3.856043 22.771367 29.236885 0.211864 0.677954 0.041124 -0.000297 395516.000000 0 0 1
16.519987 3.882843 22.111367 27.872908 0.230849 0.654599 0.043217 0.001458 -225803.000000 0 0 1
16.293887 2.865543 21.183767 26.878506 0.174086 0.663031 0.029504 -0.001554 183252.000000 0 0 1
15.023987 2.806343 20.558667 25.617466 0.184663 0.639280 0.031032 -0.011303 173773.000000 0 0 1
14.019987 1.783643 21.150267 25.437673 0.126542 0.589076 0.028478 -0.009383 -355893.000000 0 0 1
14.261287 0.391243 20.948967 25.345544 0.027427 0.597873 0.016396 -0.008814 461389.000000 0 0 1
13.444787 -0.363057 21.853267 25.660464 -0.026997 0.551706 0.010562 -0.007039 380397.000000 0 0 1
13.897487 -1.878457 21.858767 25.970646 -0.134351 0.570424 0.006595 -0.006999 131594.000000 0 0 1
13.502787 -2.558257 20.656767 24.810723 -0.187242 0.587057 0.001375 -0.001356 166062.000000 0 1 0
13.702787 -3.940857 20.646567 25.091382 -0.280038 0.604379 -0.007417 0.005969 -117456.000000 0 0 1
13.493687 -4.509957 19.250867 23.937736 -0.322555 0.636458 -0.004272 0.001899 -200884.000000 0 1 0
12.135387 -4.735457 18.967867 23.010262 -0.372046 0.601793 0.000550 0.000169 -339406.000000 0 1 0
11.961387 -5.139757 17.659567 21.939740 -0.405841 0.635269 0.013503 -0.001347 -212618.000000 0 1 0
10.463587 -5.392557 17.492767 21.084668 -0.475863 0.592327 0.019394 -0.000907 -244608.000000 0 1 0
9.921987 -6.404757 18.311367 21.789284 -0.573213 0.572805 0.017540 0.003905 -954472.000000 0 1 0
8.556287 -6.476357 18.063367 21.010438 -0.647910 0.536050 0.019300 -0.008417 -382236.000000 0 1 0
7.712887 -7.317657 19.062167 21.826657 -0.759109 0.508772 0.012883 -0.006983 -183805.000000 0 1 0
7.754587 -8.755557 18.968567 22.284522 -0.845952 0.552530 0.011115 -0.000189 323175.000000 0 1 0
8.981887 -9.366557 19.384567 23.327412 -0.806360 0.589933 0.022918 -0.005488 548751.000000 0 1 0
8.991487 -10.780657 18.849567 23.502672 -0.875642 0.640130 0.034321 -0.013733 153322.000000 0 1 0
9.179087 -10.878757 17.467567 22.532619 -0.869935 0.683745 0.034275 -0.011946 189461.000000 0 1 0
9.725387 -12.156157 17.072367 23.104567 -0.896032 0.739334 0.042848 -0.015619 53178.000000 0 1 0
9.851187 -12.113157 15.524267 22.017660 -0.888020 0.788257 0.047476 -0.018068 32861.400000 0 1 0
10.450387 -13.222057 14.904367 22.498301 -0.901952 0.846690 0.047661 -0.020000 -73227.900000 0 1 0
10.170387 -13.289857 13.529167 21.519652 -0.917591 0.890930 0.042858 -0.019591 -212172.000000 0 1 0
10.980687 -14.386957 12.817567 22.177693 -0.918876 0.954584 0.061989 -0.022468 1198340.000000 0 1 0
12.356687 -14.100357 12.473867 22.518995 -0.851209 0.983723 0.050930 -0.023995 972148.000000 0 1 0
12.544087 -13.288457 11.314667 21.493229 -0.814205 1.016401 0.032408 -0.021951 -1534900.000000 0 1 0
13.996087 -13.242357 10.934467 22.154301 -0.757734 1.054618 0.032417 -0.021132 -1108460.000000 0 1 0
14.517187 -14.434857 10.456067 22.987892 -0.782554 1.098591 0.042781 -0.014929 641634.000000 0 1 0
15.835987 -14.247857 9.915067 23.496563 -0.732657 1.135169 0.038180 -0.021029 228691.000000 0 1 0
16.564587 -15.542857 9.624567 24.669784 -0.753587 1.170017 0.038922 -0.019413 -82850.000000 0 1 0
16.998587 -16.274257 10.788067 25.887947 -0.763632 1.140960 0.037955 -0.013017 415949.000000 0 0 1
16.116187 -17.367657 11.113167 26.170011 -0.822756 1.132218 0.066664 -0.008911 376276.000000 0 0 1
16.460987 -18.140057 12.437067 27.471920 -0.833887 1.100984 0.046722 -0.008519 -295547.000000 0 0 1
17.574587 -18.977957 12.293767 28.638535 -0.823773 1.127108 0.061913 -0.013892 -397154.000000 0 0 1
17.849487 -19.752657 13.423267 29.815361 -0.835968 1.103792 0.037040 -0.012213 -960774.000000 0 0 1
19.231787 -20.373757 13.374967 31.045795 -0.814224 1.125402 -0.001472 -0.017259 -797991.000000 0 0 1
20.117887 -19.279757 13.091367 30.786723 -0.764128 1.131583 0.000005 -0.018142 -1323850.000000 0 0 1
21.366987 -19.877257 12.963467 31.932820 -0.749294 1.152767 -0.006680 -0.023467 -1061410.000000 0 0 1
22.223587 -19.156657 11.955267 31.682704 -0.711418 1.183870 -0.014647 -0.017147 -1070110.000000 0 0 1
21.801287 -19.290957 10.613967 30.985375 -0.724384 1.221169 -0.004031 -0.015102 1233770.000000 0 0 1
20.519087 -18.701557 10.206567 29.579641 -0.739090 1.218500 0.003978 -0.013206 1396020.000000 0 0 1
20.305787 -17.204357 10.347367 28.554910 -0.702903 1.199990 0.027763 -0.018297 -496860.000000 0 0 1
21.286987 -16.486457 9.654767 28.603385 -0.658988 1.226495 0.015891 -0.005342 -106496.000000 0 0 1
20.964887 -15.101757 9.672367 27.588843 -0.624244 1.212596 0.025357 -0.018086 94633.900000 0 0 1
-33.771350 25.207412 7.870767 42.870347 -0.641202 1.386154 0.019538 0.001055 43737.200000 0 0 1
-32.860890 24.610512 8.769667 41.981216 -0.642816 1.360351 0.007144 0.003803 -67002.100000 0 0 1
-31.977480 25.513512 9.386167 41.971403 -0.673434 1.345257 0.004135 0.002529 -111203.000000 0 0 1
-30.861130 24.676212 10.106867 40.785703 -0.674490 1.320383 0.004393 -0.006672 820771.000000 0 0 1
-29.994510 23.975312 9.140567 39.471967 -0.674328 1.337104 0.002818 -0.007433 1312780.000000 0 0 1
-29.227990 22.890312 9.812967 38.399689 -0.664391 1.312382 0.006700 -0.007374 1229640.000000 0 0 1
-28.267260 22.027312 8.911567 36.927720 -0.661961 1.327066 0.015003 -0.013522 343356.000000 0 0 1
-29.007150 21.214112 8.017467 36.820281 -0.631452 1.351292 0.014140 -0.013263 14338.900000 0 0 1
-28.278530 20.354512 7.162267 35.570768 -0.623883 1.368058 0.010159 -0.014602 -470035.000000 0 0 1
-29.125450 19.739412 6.043067 35.699508 -0.595628 1.400701 0.014673 -0.014614 -170350.000000 0 0 1
-29.801330 18.604612 6.617567 35.749728 -0.558087 1.384614 0.013881 -0.007942 666726.000000 0 0 1
-30.913760 18.197212 5.815167 36.340271 -0.532028 1.410085 0.017379 -0.009479 278633.000000 0 0 1
-31.549260 16.922212 6.325567 36.355603 -0.492322 1.395915 0.023368 -0.005239 -305534.000000 0 0 1
-32.389800 16.981412 7.462367 37.324984 -0.482885 1.369510 0.021703 -0.002727 84338.300000 0 0 1
-33.148020 15.818112 7.536467 37.494029 -0.445239 1.368413 0.023710 -0.001333 -197351.000000 0 0 1
-34.190983 15.837912 8.684767 38.668954 -0.433792 1.344271 0.013026 -0.000489 559482.000000 0 0 1
35.074247 16.736512 8.492767 39.779904 0.445220 1.355646 0.021431 -0.003562 576675.000000 0 0 1
34.393096 17.109712 9.678567 39.614416 0.461626 1.323979 0.022388 0.002688 27725.900000 0 0 1
33.656317 18.464912 9.554267 39.559887 0.501792 1.326871 0.018051 0.003658 22188.600000 0 0 1
32.524537 18.324412 8.706367 38.333151 0.513075 1.341673 0.008748 0.000742 -91857.200000 0 0 1
31.946987 19.577412 8.529367 38.427011 0.549785 1.346969 0.005909 0.003701 -552422.000000 0 0 1
30.466557 19.555912 8.148967 37.108631 0.570647 1.349394 -0.006177 0.003748 -296077.000000 0 0 1
29.828687 20.874312 7.997667 37.275329 0.610596 1.354559 -0.014836 -0.002116 76403.800000 0 0 1
28.508427 20.827712 7.523767 36.098907 0.630957 1.360836 -0.022736 -0.002776 -167368.000000 0 0 1
28.251737 20.459312 6.072467 35.406482 0.626770 1.398437 -0.041575 0.016630 -958193.000000 0 0 1
28.367477 19.061312 5.822067 34.669062 0.591646 1.402064 -0.032209 0.019643 150731.000000 0 0 1
28.154267 18.672812 4.503567 34.082529 0.585621 1.438272 -0.027511 0.017980 527130.000000 0 0 1
26.786187 19.101912 3.816867 33.120256 0.619481 1.455297 -0.012135 0.014737 160261.000000 0 0 1
25.705537 18.428812 4.466267 31.942813 0.621992 1.430516 -0.008770 0.007657 221395.000000 0 0 1
24.441087 18.843012 3.981767 31.117203 0.656779 1.442484 0.007550 -0.003335 98532.700000 0 0 1
23.891987 20.118212 4.701367 31.585952 0.699860 1.421398 0.015754 -0.006046 -1040240.000000 0 0 1
24.437587 21.321112 4.204667 32.702671 0.717396 1.441867 0.001432 -0.002348 768.157000 0 0 1
23.642087 22.376312 4.624167 32.879029 0.757899 1.429687 -0.027039 0.006251 -524948.000000 0 0 1
24.227387 23.795712 4.394267 34.241960 0.776410 1.442112 -0.038326 0.007261 90149.900000 0 0 1
25.361167 24.127812 5.191267 35.387701 0.760482 1.423568 -0.045710 0.007323 118563.000000 0 0 1
26.060627 25.173712 4.599167 36.524299 0.768089 1.444540 -0.018114 0.008742 -270623.000000 0 0 1
27.287247 25.554812 5.503567 37.787981 0.752625 1.424633 -0.008590 0.004299 260715.000000 0 0 1
28.380067 24.686212 5.602467 38.029264 0.715902 1.422938 -0.015297 -0.002944 435371.000000 0 0 1
29.078077 24.139912 4.451267 38.053695 0.692872 1.453555 -0.015612 -0.003449 -211405.000000 0 0 1
30.022487 25.101812 3.680767 39.306472 0.696369 1.477016 -0.002142 -0.018259 -623668.000000 0 0 1
29.412937 26.255412 3.118267 39.549856 0.728739 1.491870 -0.003011 -0.009247 -912524.000000 0 0 1
30.277997 27.082412 2.450067 40.696646 0.729745 1.510557 0.033246 -0.015144 -1115300.000000 0 0 1
29.787367 28.568312 2.326967 41.338245 0.764511 1.514476 0.027859 -0.010458 249427.000000 0 0 1
28.576667 28.846512 1.645067 40.638078 0.790097 1.530304 0.048308 -0.010913 -189905.000000 0 0 1
27.460117 28.625212 2.485367 39.744658 0.806169 1.508222 0.023161 -0.004136 -293884.000000 0 0 1
26.183637 29.245312 1.846867 39.297354 0.840578 1.523782 -0.015527 -0.003914 128426.000000 0 0 1
26.103227 30.604712 2.134967 40.281323 0.864612 1.517770 -0.001329 -0.006755 192015.000000 0 0 1
24.786987 31.103012 2.003567 39.822185 0.897929 1.520462 -0.011429 0.002734 216523.000000 0 0 1
24.761987 32.512412 2.731567 40.959424 0.919902 1.504057 0.003238 -0.003236 -470178.000000 0 0 1
24.591987 32.598912 4.183367 41.048209 0.924498 1.468706 0.006879 -0.027877 128363.000000 0 0 1
25.749707 32.336512 4.959667 41.632869 0.898313 1.451384 0.009183 -0.023928 -80053.500000 0 0 1
25.478907 32.148312 6.458967 41.525979 0.900619 1.414622 0.018990 -0.037165 -120253.000000 0 0 1
24.894687 30.934412 6.930867 40.307818 0.893161 1.397989 0.012883 -0.037047 324105.000000 0 0 1
25.555977 29.692912 6.619167 39.731478 0.860137 1.403418 0.009421 -0.034480 -33529.900000 0 0 1
24.787887 28.556812 7.293167 38.511312 0.855933 1.380268 0.010486 -0.022677 -232780.000000 0 0 1
23.721187 28.089212 6.538367 37.342319 0.869507 1.394796 -0.014384 -0.025392 -311708.000000 0 0 1
22.970587 26.946812 7.029667 36.099789 0.864886 1.374815 -0.015573 -0.010125 807791.000000 0 0 1
21.762587 26.520612 6.117667 34.847940 0.883625 1.394329 -0.010552 -0.000297 157892.000000 0 0 1
22.005987 26.312912 4.753867 34.629930 0.874299 1.433085 -0.012741 -0.003195 -30365.200000 0 0 1
22.253087 27.564012 4.057867 35.657271 0.891605 1.456747 -0.008131 0.000230 -423722.000000 0 0 1
22.530887 27.263312 2.577567 35.462275 0.880153 1.498047 -0.016077 0.006513 247546.000000 0 0 1
23.741887 26.586312 2.242767 35.714692 0.841856 1.507958 -0.048277 0.026120 502483.000000 0 0 1
23.651287 26.433912 0.873367 35.480951 0.840899 1.546179 -0.035719 0.025933 -450702.000000 0 0 1
24.791287 25.635112 0.253267 35.662740 0.802130 1.563695 -0.023780 0.020120 -940349.000000 0 0 1
25.888197 26.492812 0.028867 37.041446 0.796940 1.570017 -0.028940 0.024213 1104510.000000 0 0 1
26.940997 25.943312 -0.864433 37.411496 0.766535 1.593904 -0.023231 0.028524 1577330.000000 0 0 1
27.913147 24.847312 -0.339933 37.371758 0.727355 1.579892 -0.019156 0.020021 -685743.000000 0 0 1
27.265097 23.632312 -0.174133 36.081879 0.714144 1.575622 -0.024791 0.014130 103976.000000 0 0 1
27.966887 22.721712 0.636567 36.039259 0.682287 1.553132 -0.025821 0.016411 122310.000000 0 0 1
26.956917 21.714512 1.239767 34.637154 0.678102 1.534996 -0.028976 0.013762 261958.000000 0 0 1
26.658047 20.640012 0.418267 33.717007 0.658842 1.558391 -0.010703 0.008013 -569119.000000 0 0 1
25.383117 20.173312 0.681567 32.430382 0.671533 1.549778 0.004483 0.011016 -1159610.000000 0 0 1
25.014787 18.956912 -0.196933 31.386986 0.648492 1.577071 0.022338 -0.005246 -192888.000000 0 0 1
23.684287 18.562612 0.075467 30.091888 0.664755 1.568288 0.026710 -0.001863 216513.000000 0 0 1
23.173487 17.466912 -0.709133 29.027683 0.645894 1.595228 0.044529 -0.022498 -564513.000000 0 0 1
21.754787 17.158312 -0.286033 27.708487 0.667821 1.581119 0.060576 -0.010216 -1333790.000000 0 0 1
21.302987 15.894912 -0.713733 26.589000 0.641023 1.597643 0.069941 -0.023176 -550838.000000 0 0 1
20.066887 15.435712 -0.319833 25.318836 0.655685 1.583429 0.094067 -0.027191 477138.000000 0 0 1
18.756787 16.135412 -0.916133 24.758996 0.710411 1.607807 0.088661 -0.038074 493973.000000 0 1 0
18.590187 17.470112 -0.482533 25.515343 0.754347 1.589709 0.067376 -0.025249 283061.000000 0 0 1
17.376687 18.083912 -0.888033 25.095134 0.805339 1.606190 0.053851 -0.032957 224990.000000 0 0 1
17.270287 19.630612 -0.584133 26.152724 0.849275 1.593134 0.042609 -0.013137 -4897.410000 0 0 1
17.359087 19.953212 0.797267 26.459483 0.854811 1.540660 0.055080 -0.013852 215703.000000 0 0 1
17.710587 21.301112 1.123867 27.724815 0.877177 1.530249 0.048545 -0.014138 -370640.000000 0 0 1
16.627687 22.372212 0.948767 27.890787 0.931642 1.536773 0.058632 -0.014264 -489093.000000 0 0 1
15.458387 22.172712 1.695167 27.082550 0.961965 1.508163 0.054611 -0.009090 -210931.000000 0 0 1
14.536087 23.165012 1.255467 27.376848 1.010400 1.524922 0.032392 -0.007934 582484.000000 0 0 1
13.067687 23.010412 1.766267 26.520996 1.054312 1.504148 0.017732 -0.003889 673825.000000 0 0 1
12.917087 23.466712 3.110267 26.966859 1.067613 1.455202 0.023053 0.002064 -1230110.000000 0 0 1
11.581987 23.502412 3.427267 26.424458 1.112925 1.440729 0.008877 -0.000368 -886441.000000 0 0 1
11.220087 23.685012 4.917167 26.665496 1.128392 1.385333 0.017007 0.000032 -175084.000000 0 0 1
11.839487 22.764312 5.737367 26.292675 1.091206 1.350815 0.023951 -0.023478 -58208.100000 0 0 1
11.137687 22.599512 6.959867 26.138588 1.112902 1.301277 0.016267 -0.019624 -761599.000000 0 0 1
11.731487 21.485112 7.840267 25.704234 1.071007 1.260838 0.021287 -0.018040 651417.000000 0 0 1
12.866087 21.797412 8.676667 26.757203 1.037571 1.240552 0.027141 -0.012903 37172.600000 0 0 1
14.035687 21.870412 7.923267 27.167878 1.000231 1.274854 0.026633 -0.008451 -1292590.000000 0 0 1
15.295587 21.866112 8.816367 28.103562 0.960399 1.251699 0.031953 -0.007458 -770712.000000 0 0 1
15.652687 20.535212 9.103867 27.378494 0.919510 1.231823 0.034147 -0.008540 473289.000000 0 0 1
16.868387 20.292512 9.809967 28.152513 0.877282 1.214871 0.036863 -0.009228 188018.000000 0 0 1
17.192587 21.041112 11.102267 29.352577 0.885718 1.182904 0.020455 -0.004707 -811720.000000 0 0 1
16.357187 20.780412 12.201967 29.125094 0.903943 1.138507 0.020097 -0.004610 -136543.000000 0 0 1
16.539487 21.555412 13.371267 30.281698 0.916314 1.113457 0.015844 0.009334 442710.000000 0 0 1
17.718687 21.196912 14.374367 31.142951 0.874540 1.091042 0.019997 0.001907 710285.000000 0 0 1
18.989787 21.492212 13.853467 31.850365 0.847135 1.120808 0.037437 0.004068 -257469.000000 0 0 1
20.006987 21.379112 14.854267 32.832838 0.818540 1.101318 0.030445 0.000755 -616630.000000 0 0 1
21.387087 21.751712 14.417867 33.740471 0.793850 1.129274 0.035459 0.001743 -1118060.000000 0 0 1
21.944887 20.778112 13.554267 33.121386 0.758095 1.149186 0.047969 -0.000342 -164609.000000 0 0 1
23.262387 21.138512 13.204067 34.092855 0.737601 1.173098 0.017604 0.011203 -50355.700000 0 0 1
23.767487 20.606612 11.840267 33.611275 0.714286 1.210800 0.021827 0.006993 301706.000000 0 0 1
23.290487 21.354112 10.704567 33.362144 0.742052 1.244159 0.019046 0.016876 1081900.000000 0 0 1
24.278487 21.215512 9.654867 33.656491 0.718173 1.279844 0.025022 0.007603 503706.000000 0 0 1
24.010487 22.305912 8.553267 33.870571 0.748612 1.315504 0.001630 -0.000982 -198350.000000 0 0 1
24.334487 23.616012 8.920767 35.063705 0.770416 1.313553 0.017867 -0.007912 -398362.000000 0 0 1
25.664907 23.927112 8.657367 36.140617 0.750371 1.328897 -0.005098 -0.005462 -866450.000000 0 0 1
26.004687 25.284612 9.246167 37.430562 0.771360 1.321191 0.011518 -0.002934 288360.000000 0 0 1
27.358127 25.608212 8.921067 38.520554 0.752372 1.337082 0.004137 -0.003162 597823.000000 0 0 1
27.765277 26.773512 9.553667 39.736685 0.767216 1.327993 0.010538 -0.006311 -212442.000000 0 0 1
28.925137 27.489112 8.865667 40.876826 0.759949 1.352172 0.014860 -0.013790 -303840.000000 0 0 1
28.586477 28.248812 7.738267 40.927532 0.779457 1.380579 0.020499 -0.015539 -83183.500000 0 0 1
29.743737 28.481512 6.986567 41.769589 0.763723 1.402742 0.021115 -0.010392 -264923.000000 0 0 1
29.554727 29.518512 5.906567 42.186633 0.784785 1.430324 0.041359 -0.008904 -5489.570000 0 0 1
29.726507 30.857512 6.336667 43.312869 0.804064 1.423969 0.035488 -0.018619 91186.200000 0 0 1
29.756187 31.766312 5.215267 43.837521 0.818060 1.451546 0.028489 -0.014379 -16676.100000 0 0 1
29.819987 33.277112 5.589467 45.031544 0.840134 1.446352 0.003057 -0.005394 -653573.000000 0 0 1
28.710177 33.629612 6.325467 44.668072 0.864148 1.428708 0.001778 -0.013626 -676135.000000 0 0 1
28.655837 -34.094718 6.591967 45.022893 -0.871857 1.423854 0.000648 -0.007866 -105592.000000 0 0 1
27.317917 -33.505218 7.107067 43.810714 -0.886776 1.407854 0.023834 -0.015518 238807.000000 0 0 1
26.368567 -33.522618 6.054067 43.078057 -0.904286 1.429792 0.018818 -0.022767 -312640.000000 0 0 1
25.145587 -32.940018 6.416267 41.934638 -0.918790 1.417187 0.007661 -0.022680 -362130.000000 0 0 1
24.026987 -33.026418 5.381667 41.194693 -0.941846 1.439782 0.019668 -0.015252 -341403.000000 0 0 1
24.231887 -32.292018 4.182167 40.588783 -0.927040 1.467576 -0.000230 -0.001461 110290.000000 0 0 1
23.224987 -32.603718 3.234467 40.160481 -0.951835 1.490170 0.002263 -0.007432 48171.800000 0 0 1
23.576187 -31.986718 1.824067 39.778310 -0.935627 1.524924 0.002981 0.004624 99019.800000 0 0 1
23.604187 -30.588418 1.961267 38.686633 -0.913570 1.520078 0.005111 0.017322 93155.600000 0 0 1
24.216287 -29.908418 0.873967 38.492933 -0.890180 1.548090 -0.006455 0.020912 -470126.000000 0 0 1
24.423287 -28.405618 1.198367 37.480824 -0.860638 1.538818 0.003431 0.019000 57434.700000 0 0 1
23.270487 -27.582218 1.244367 36.108763 -0.869984 1.536328 -0.013022 0.019705 -328961.000000 0 0 1
22.604187 -27.410918 0.054067 35.529011 -0.881209 1.569275 -0.004225 0.016062 -578039.000000 0 0 1
21.492987 -26.354918 0.125167 34.008027 -0.886663 1.567116 -0.009031 0.016052 -244227.000000 0 0 1
22.019387 -25.032018 0.286867 33.339731 -0.849339 1.562192 -0.007917 0.011959 236256.000000 0 0 1
22.330087 -24.610618 1.638667 33.271618 -0.833943 1.521525 -0.012235 0.016463 435019.000000 0 0 1
21.017587 -24.190018 2.345267 32.130923 -0.855458 1.497740 -0.012234 0.013133 425069.000000 0 0 1
21.256687 -23.665418 3.668267 32.021164 -0.838967 1.455987 -0.017601 0.012453 465979.000000 0 0 1
20.005587 -23.364018 4.296367 31.057361 -0.862681 1.432015 -0.006689 0.008927 695515.000000 0 0 1
20.183887 -22.593918 5.590967 30.808008 -0.841677 1.388307 -0.005019 0.004433 18438.400000 0 0 1
20.524387 -21.228818 5.591367 30.052897 -0.802268 1.383655 0.002100 0.013657 1130.210000 0 0 1
19.455687 -20.399818 5.175667 28.661191 -0.809083 1.389219 -0.005836 0.013880 -469934.000000 0 0 1
19.402087 -18.989318 5.834367 27.768238 -0.774647 1.359109 -0.005988 0.013186 -55740.900000 0 0 1
19.019487 -19.014618 7.220767 27.846653 -0.785270 1.308494 0.004688 0.004699 -495075.000000 0 0 1
17.668587 -19.284018 7.421067 27.186846 -0.829087 1.294322 0.013394 0.017562 -881300.000000 0 0 1
18.190860 -26.827788 -12.041733 34.578041 -0.974947 1.926498 0.044565 -0.021230 -384234.000000 0 0 1
18.374260 -25.566858 -12.707233 33.952193 -0.947646 1.954404 0.044549 -0.026497 -221905.000000 0 0 1
17.135860 -25.092958 -13.181033 33.121501 -0.971643 1.980088 0.025961 -0.015432 -202021.000000 0 0 1
17.252460 -23.682588 -13.664233 32.329918 -0.941206 2.007163 0.023535 -0.021454 90620.600000 0 0 1
17.414660 -22.704588 -12.618633 31.272969 -0.916497 1.986135 0.027481 -0.016909 302055.000000 0 0 1
18.746360 -22.535888 -12.114233 31.718242 -0.876937 1.962683 0.024116 -0.022701 167055.000000 0 0 1
18.941060 -23.160888 -10.716933 31.781176 -0.885293 1.914748 0.027331 -0.017528 351749.000000 0 0 1
18.093460 -22.562588 -9.704233 30.505996 -0.894884 1.894531 0.019947 -0.009126 1100310.000000 0 0 1
16.764460 -23.127688 -9.693633 30.164608 -0.943576 1.897959 0.032364 -0.006629 341091.000000 0 0 1
15.899860 -22.381888 -8.674133 28.792274 -0.953131 1.876816 0.022199 -0.000025 -674654.000000 0 0 1
15.521160 -21.081188 -8.938033 27.662453 -0.936149 1.899811 0.010103 0.001902 37601.200000 0 0 1
14.902960 -20.409188 -7.853933 26.463511 -0.940083 1.872119 0.002769 0.004249 1045630.000000 0 0 1
13.326260 -20.490288 -7.855533 25.673926 -0.994161 1.881757 0.005582 0.008737 924066.000000 0 0 1
12.818560 -21.829388 -7.700733 26.460139 -1.039830 1.866101 -0.000202 0.006618 -904036.000000 0 0 1
11.501260 -21.891888 -8.119333 26.028010 -1.087062 1.888037 -0.004872 0.008296 -748030.000000 0 0 1
10.761160 -23.209988 -7.822833 26.752622 -1.136655 1.867546 -0.006505 0.011241 -10689.400000 0 0 1
10.426760 -23.508088 -6.487533 26.522360 -1.153328 1.817910 -0.003093 0.012666 256422.000000 0 0 1
9.827860 -24.786688 -6.267333 27.390622 -1.193313 1.801655 0.000968 0.015207 -15580.100000 0 0 1
10.258460 -25.431218 -4.908533 27.858150 -1.187379 1.747918 0.007502 0.005828 -188259.000000 0 0 1
9.596760 -26.568408 -4.381033 28.586212 -1.224170 1.724660 0.013328 0.000070 -770775.000000 0 0 1
10.168660 -26.878208 -3.153233 28.909904 -1.209115 1.680085 0.006974 -0.010886 -411588.000000 0 0 1
9.191960 -27.500548 -2.164033 29.076714 -1.248224 1.645290 0.011764 -0.011828 -80290.700000 0 0 1
8.439160 -26.531368 -1.435633 27.878198 -1.262834 1.622316 0.009718 -0.004068 -164891.000000 0 0 1
7.707760 -27.195238 -0.415833 28.269479 -1.294616 1.585506 0.014772 -0.013489 -216098.000000 0 0 1
7.044060 -26.217028 0.559667 27.152616 -1.308313 1.550183 0.015944 -0.009957 -350248.000000 0 0 1
5.785660 -25.743988 0.181667 26.386735 -1.349731 1.563911 0.020486 -0.014873 -849241.000000 0 0 1
5.089060 -25.313768 1.286767 25.852295 -1.372402 1.521002 0.028179 -0.013349 -364137.000000 0 0 1
3.614460 -24.934788 1.136967 25.221036 -1.426842 1.525701 0.007195 -0.011623 -123313.000000 0 0 1
2.761760 -25.988788 0.780467 26.146769 -1.464926 1.540942 0.002403 -0.013183 -326581.000000 0 0 1
1.414260 -25.572108 0.762467 25.622533 -1.515548 1.541034 -0.002809 -0.008941 389139.000000 0 0 1
0.466760 -26.723808 0.254767 26.729098 -1.553332 1.561265 0.006216 -0.002113 375311.000000 0 0 1
0.137060 -27.661988 1.293767 27.692566 -1.565842 1.524060 0.009961 0.000304 -141756.000000 0 0 1
0.676560 -28.942928 0.948567 28.966370 -1.547425 1.538043 0.004878 -0.000758 28291.000000 0 0 1
0.224160 -30.119908 1.893467 30.180197 -1.563354 1.508016 0.017023 -0.005069 211373.000000 0 0 1
0.876060 -30.086368 3.146367 30.263123 -1.541686 1.466641 0.009504 -0.001379 482942.000000 0 0 1
0.104560 -30.865458 4.046467 31.129750 -1.567409 1.440440 0.019902 -0.002475 254816.000000 0 0 1
0.512060 -30.524398 5.488567 31.018147 -1.554022 1.392913 0.018930 -0.005552 -1020910.000000 0 0 1
1.776860 -30.957928 5.845967 31.555124 -1.513463 1.384458 0.012460 0.004047 -848020.000000 0 0 1
2.026660 -30.963928 7.244567 31.864650 -1.505437 1.341436 0.019638 0.006156 797037.000000 0 0 1
3.467560 -31.443538 7.662167 32.548869 -1.460961 1.333161 0.020649 0.004480 707959.000000 0 0 1
3.609160 -32.760668 7.198267 33.735774 -1.461071 1.355771 0.025441 -0.001569 -388403.000000 0 0 1
4.740860 -33.458598 7.642267 34.646180 -1.430040 1.348387 0.013755 -0.003894 -252279.000000 0 0 1
4.788160 34.143731 7.308567 35.243950 1.431470 1.361910 0.010310 -0.000149 -142651.000000 0 0 1
4.965460 34.013514 5.895567 34.875961 1.425835 1.400937 -0.003954 -0.003792 50869.800000 0 0 1
4.786460 32.651413 5.550367 33.463884 1.425240 1.404165 -0.006153 -0.001055 -544233.000000 0 0 1
5.247460 32.345493 4.080267 33.021437 1.409966 1.446916 -0.009775 -0.001345 -938594.000000 0 0 1
6.619060 32.349423 3.952367 33.255350 1.368971 1.451666 -0.005635 -0.000211 -868964.000000 0 0 1
7.186560 31.034983 4.112367 32.120529 1.343244 1.442415 -0.004502 -0.002934 -665910.000000 0 0 1
8.574560 30.911373 3.493267 32.268235 1.300208 1.462327 -0.016714 0.002419 -464008.000000 0 0 1
9.620360 31.455063 4.270667 33.169427 1.273986 1.441685 -0.007549 -0.002698 -1603930.000000 0 0 1
10.763060 31.583863 3.548667 33.555579 1.242361 1.464843 -0.000946 -0.003954 -1035290.000000 0 0 1
11.856860 32.064713 4.572667 34.491162 1.216611 1.437830 0.015086 -0.014157 -64754.900000 0 0 1
12.385560 31.022593 5.318767 33.824439 1.190943 1.412895 0.015339 -0.010757 -64242.100000 0 0 1
13.401560 31.517643 6.180067 34.801679 1.168749 1.392270 0.024494 -0.012207 -123301.000000 0 0 1
14.002860 30.475033 7.102967 34.282063 1.140082 1.362093 0.020840 -0.009358 -506699.000000 0 0 1
13.289060 30.185203 8.277267 34.003805 1.156079 1.324904 0.004610 -0.002309 -106308.000000 0 0 1
13.960060 29.216663 9.000967 33.608244 1.125056 1.299666 -0.004023 -0.000632 -129768.000000 0 0 1
13.709160 29.361203 10.486967 34.058740 1.133966 1.257803 -0.010392 0.008740 -108267.000000 0 0 1
14.402560 30.433623 11.086967 35.447990 1.128781 1.252691 -0.003448 0.003807 -46807.800000 0 0 1
13.822760 30.776143 12.331367 35.920778 1.148659 1.220375 -0.006932 0.009404 33522.700000 0 0 1
14.695060 31.741823 13.246867 37.402775 1.137221 1.208772 -0.005754 0.007453 1123810.000000 0 0 1
15.905760 31.144663 13.739167 37.573234 1.098621 1.196451 -0.014390 0.004035 506498.000000 0 0 1
16.576960 31.992393 14.631367 38.889404 1.092732 1.185072 -0.000098 0.001443 252174.000000 0 0 1
17.652060 31.372273 15.589867 39.228289 1.058282 1.162099 0.004736 -0.000496 994129.000000 0 0 1
18.892460 31.064413 14.942667 39.309110 1.024391 1.180857 0.018831 -0.001467 439698.000000 0 0 1
19.098560 29.636913 14.800167 38.238025 0.998355 1.173362 0.016855 0.000034 -794355.000000 0 0 1
20.533460 29.412723 14.362967 38.639696 0.961337 1.189940 0.040715 -0.003387 -687213.000000 0 0 1
21.502260 29.695103 15.309667 39.730747 0.944078 1.175225 0.044159 -0.008387 615465.000000 0 0 1
22.852260 29.423653 14.861967 40.110537 0.910448 1.191222 0.044028 -0.008036 1523710.000000 0 0 1
23.973360 29.439953 15.938267 41.175978 0.887388 1.173337 0.044601 -0.011251 90140.200000 0 0 1
24.112660 28.290043 16.790167 40.787947 0.864947 1.146538 0.032841 -0.004665 -759040.000000 0 0 1
24.965660 28.457713 17.847067 41.852639 0.850671 1.130258 0.028635 -0.002809 -1164220.000000 0 0 1
25.815860 27.203053 18.025067 41.609708 0.811556 1.122763 -0.006569 -0.001193 -363302.000000 0 0 1
25.182460 26.086633 18.621567 40.760661 0.803032 1.096344 0.001477 0.001574 58810.100000 0 0 1
24.764560 26.236013 20.002167 41.251648 0.814242 1.064568 0.021386 -0.001857 -124028.000000 0 0 1
24.229660 24.953983 20.550967 40.399504 0.800124 1.037130 0.034851 -0.002155 -177067.000000 0 0 1
25.268860 24.005643 20.556067 40.464034 0.759767 1.037925 0.002899 -0.001110 266813.000000 0 0 1
24.635360 22.726243 20.745767 39.417889 0.745111 1.016549 0.022215 -0.009558 490886.000000 0 0 1
25.589860 21.497343 20.636367 39.278955 0.698702 1.017635 -0.000586 -0.012752 -24726.100000 0 0 1
24.999760 20.288443 21.036367 38.459559 0.681741 0.992051 0.002444 -0.000534 35685.900000 0 0 1
25.923560 19.228343 20.931567 38.469347 0.638189 0.995468 0.011196 -0.006109 -19726.400000 0 0 1
26.586860 18.886943 22.282067 39.497699 0.617663 0.971410 0.020292 0.006826 -330904.000000 0 0 1
25.631460 18.415843 23.221267 39.183444 0.623025 0.936477 0.014682 0.016515 241087.000000 0 0 1
26.192460 18.046443 24.450167 40.118945 0.603301 0.915440 0.019887 0.023520 -128813.000000 0 0 1
25.112860 17.349443 25.288267 39.637802 0.604565 0.878919 0.007542 0.024937 300235.000000 0 0 1
24.629260 16.071443 24.823467 38.485013 0.578155 0.869751 0.008103 0.013594 857402.000000 0 0 1
23.519460 15.561543 25.569467 38.067365 0.584518 0.834309 0.002611 0.014908 350595.000000 0 0 1
23.038860 14.143543 25.071967 36.870482 0.550577 0.823032 -0.002360 0.013650 -683894.000000 0 0 1
21.901160 13.599743 25.618167 36.344247 0.555689 0.788549 0.001216 0.001009 -610354.000000 0 0 1
21.364760 12.625143 24.744467 35.044769 0.533726 0.786847 0.002062 0.005171 -328336.000000 0 0 1
20.195160 11.822743 25.363067 34.509519 0.529633 0.745191 0.007009 -0.002000 -434990.000000 0 0 1
19.097860 12.686543 25.386167 34.207223 0.586356 0.734555 0.010873 -0.004267 -903999.000000 0 0 1
17.870260 12.021443 25.285267 33.214545 0.592172 0.705525 0.017212 -0.006023 -859188.000000 0 0 1
16.679360 12.919943 25.465167 33.069634 0.659064 0.691882 0.019348 -0.015157 -757466.000000 0 0 1
16.584660 13.476543 26.774767 34.257208 0.682371 0.673601 0.029172 -0.007330 92753.600000 0 0 1
15.341660 14.129043 26.904867 34.042154 0.744275 0.659433 0.042262 -0.010409 19254.000000 0 0 1
14.926060 14.391143 28.356767 35.128315 0.767154 0.631346 0.046069 -0.005173 -167025.000000 0 0 1
14.560160 13.199343 29.095967 35.111198 0.736416 0.594050 0.051100 -0.008884 45240.300000 0 0 1
14.920760 13.272443 30.469067 36.430082 0.727000 0.580167 0.046907 -0.013346 -188522.000000 0 0 1
16.391360 13.010843 30.842967 37.272608 0.670926 0.596162 0.037110 0.004381 -521508.000000 0 0 1
17.219760 14.012843 30.332567 37.589154 0.683078 0.631827 0.033758 -0.002670 -568750.000000 0 0 1
18.581160 13.705243 30.469067 38.229011 0.635510 0.648461 0.012807 0.015835 -370639.000000 0 0 1
19.444560 14.963743 30.167867 38.885791 0.655902 0.682803 0.001800 0.010207 -363618.000000 0 0 1
19.347960 15.580143 28.847267 38.069006 0.677940 0.710919 0.011152 0.005451 234289.000000 0 0 1
19.608360 14.809843 27.724167 37.046574 0.646873 0.725211 0.011022 0.000677 -402764.000000 0 0 1
19.351560 15.568543 26.433167 36.270852 0.677486 0.754270 0.014255 0.000266 -357772.000000 0 0 1
20.311360 16.539743 26.077267 36.961308 0.683406 0.787627 0.014134 0.010333 178380.000000 0 0 1
19.989260 17.177443 24.848667 36.222801 0.709888 0.814826 0.005686 0.005207 -762309.000000 0 0 1
21.066860 18.129943 24.393167 36.980184 0.710610 0.850473 0.005463 0.008161 -696225.000000 0 0 1
20.881360 18.704743 23.153167 36.358874 0.730469 0.880461 0.001832 -0.003562 62617.000000 0 0 1
21.982060 19.523743 22.778667 37.192139 0.726239 0.911629 0.018411 0.002053 271629.000000 0 0 1
22.126660 20.935643 23.432767 38.431560 0.757747 0.915080 0.025559 -0.013881 -43819.500000 0 0 1
21.386360 21.956943 22.778667 38.188368 0.798562 0.931686 0.034863 -0.008999 164679.000000 0 0 1
21.608560 23.167443 23.391267 39.380346 0.820199 0.934795 0.044529 -0.006751 -114345.000000 0 0 1
20.780160 24.348313 22.844067 39.325651 0.864301 0.950969 0.053789 -0.018450 -154061.000000 0 0 1
21.242560 24.872723 21.632067 39.215367 0.863955 0.986488 0.061439 -0.019089 -656092.000000 0 0 1
20.446960 25.900443 21.197167 39.220288 0.902525 0.999807 0.067355 -0.023577 -562682.000000 0 0 1
20.911060 26.754883 19.946167 39.382049 0.907389 1.039700 0.067755 -0.024901 -152296.000000 0 0 1
20.722860 26.028793 18.778867 38.204461 0.898407 1.056944 0.045712 -0.016009 264484.000000 0 0 1
21.288860 26.830863 17.687367 38.548070 0.900064 1.094108 0.049485 -0.022392 211745.000000 0 0 1
21.112060 26.028093 16.352667 37.290621 0.889308 1.116846 0.029214 -0.001113 -779468.000000 0 0 1
19.777260 25.872783 16.003067 36.285521 0.918140 1.114048 0.036164 -0.000227 -927286.000000 0 0 1
19.679360 25.451223 14.632167 35.343207 0.912600 1.143950 0.040128 0.009633 -73375.600000 0 0 1
18.291760 25.451303 13.954567 34.308705 0.947632 1.151919 0.030915 0.008726 -212562.000000 0 0 1
17.713860 26.745723 13.881467 34.954394 0.985819 1.162408 0.024285 0.012071 205284.000000 0 0 1
16.675160 27.003993 14.818267 35.026528 1.017603 1.133978 0.039243 0.017692 1037830.000000 0 0 1
15.200960 26.503723 14.542167 33.837718 1.050060 1.126567 0.024633 0.000548 382257.000000 0 0 1
15.022660 25.110153 14.535367 32.672266 1.031650 1.109752 0.014728 0.007291 -92530.500000 0 0 1
14.895260 24.382053 15.743067 32.622039 1.022393 1.067187 0.020066 0.012583 -87927.900000 0 0 1
13.837260 24.833063 16.767667 33.004628 1.062434 1.037889 0.034264 0.004800 -258787.000000 0 0 1
14.109060 26.058883 17.371167 34.349504 1.074557 1.040582 0.028428 -0.005117 -393823.000000 0 0 1
12.994560 26.598793 18.032667 34.663114 1.116359 1.023680 0.021743 -0.007761 -230567.000000 0 0 1
13.281760 27.906033 18.859167 36.205248 1.126577 1.022896 0.029708 -0.013854 -263473.000000 0 0 1
13.463560 29.077933 18.083267 36.793997 1.137171 1.057016 0.022252 -0.007089 64230.600000 0 0 1
13.980960 30.128323 18.852567 38.191653 1.136322 1.054537 0.027994 -0.004965 -219201.000000 0 0 1
13.943160 31.470193 18.036967 38.860223 1.153729 1.088122 0.007252 -0.010566 -762695.000000 0 0 1
12.699260 31.991493 17.759367 38.731408 1.192916 1.094460 -0.001978 0.007723 -1009590.000000 0 0 1
12.785360 33.098803 16.886867 39.295833 1.202174 1.126595 0.001975 0.005790 828356.000000 0 0 1
11.455660 33.956450 16.854567 39.602387 1.245423 1.131177 0.008864 0.002013 680329.000000 0 0 1
11.502960 -33.918128 16.125267 39.278260 -1.243830 1.147751 0.007225 -0.004372 -139049.000000 0 0 1
12.317060 -32.895918 16.749567 38.915285 -1.212530 1.125848 0.009262 -0.006036 50292.400000 0 0 1
12.001660 -32.358708 18.127867 38.983912 -1.215630 1.087152 0.011315 -0.006625 -179576.000000 0 0 1
12.465860 -33.325648 19.061167 40.364893 -1.212848 1.078987 0.018336 -0.006925 377823.000000 0 0 1
12.069860 -32.950978 20.383267 40.582337 -1.219677 1.044575 0.017465 -0.009655 -120881.000000 0 0 1
12.941660 -33.744108 21.408167 42.005488 -1.204574 1.036016 0.041728 -0.009452 -163103.000000 0 0 1
14.273160 -33.314228 21.405767 42.092371 -1.166015 1.037305 0.041737 -0.011855 -582427.000000 0 0 1
14.968060 -33.891598 22.490167 43.341560 -1.154912 1.025226 0.040428 -0.013683 631461.000000 0 0 1
16.450860 -33.379158 22.451667 43.461205 -1.112886 1.027932 0.063837 -0.012102 681246.000000 0 0 1
16.572060 -31.979078 22.820767 42.638973 -1.092683 1.006041 0.056401 -0.004116 -470335.000000 0 0 1
17.817360 -31.464898 22.466067 42.570204 -1.055554 1.014857 0.050375 -0.003570 -452986.000000 0 0 1
-4.615940 13.201912 18.364664 23.083723 -1.234441 0.650852 0.003158 0.001299 -492696.000000 0 1 0
-4.234840 14.512312 18.076364 23.564720 -1.286870 0.696497 -0.006183 -0.002388 -81770.400000 0 1 0
-5.314440 15.330112 17.688664 24.003009 -1.237094 0.742271 -0.002417 -0.007210 -158347.000000 0 1 0
-4.952040 16.826812 17.588464 24.839854 -1.284582 0.784029 0.005191 -0.010582 -160258.000000 0 1 0
-4.602340 17.403812 18.844664 26.061381 -1.312270 0.762534 -0.010377 -0.000029 206120.000000 0 0 1
-4.119340 18.710212 18.655264 26.740603 -1.354088 0.798701 -0.016142 -0.001252 -553880.000000 0 0 1
-3.525440 19.334812 19.894564 27.965289 -1.390441 0.779305 -0.022708 0.002110 -649244.000000 0 0 1
-4.494440 19.571412 20.828864 28.932365 -1.345067 0.767115 -0.036603 0.008903 -347566.000000 0 0 1
-3.930040 20.337812 21.866864 30.120285 -1.379911 0.758331 -0.041761 0.012758 -141997.000000 0 0 1
-4.958740 20.671412 22.956064 31.287014 -1.335361 0.747008 -0.047864 0.017650 267238.000000 0 0 1
-5.522340 19.487712 23.598264 31.098959 -1.294660 0.709309 -0.047640 0.008977 230458.000000 0 0 1
-6.352240 19.608512 24.733164 32.195871 -1.257512 0.694757 -0.049112 0.007277 -67088.700000 0 0 1
-5.658540 19.935612 26.069624 33.302748 -1.294230 0.671632 -0.044811 0.009932 -583636.000000 0 0 1
-5.308440 21.295412 25.995734 34.021351 -1.326499 0.701150 -0.040249 0.003121 -289197.000000 0 0 1
-4.427340 21.797212 26.940794 34.936030 -1.370407 0.690156 -0.027220 0.009378 -469418.000000 0 0 1
-2.932740 21.584012 26.683464 34.445287 -1.435748 0.684615 -0.017139 0.016205 -592664.000000 0 0 1
-2.553540 20.225312 26.835384 33.700470 -1.445206 0.649657 -0.008277 0.019523 -545414.000000 0 0 1
-1.224940 19.964312 26.495884 33.197983 -1.509517 0.646632 -0.004927 0.019987 -284060.000000 0 0 1
-0.686540 18.618312 27.079404 32.869545 -1.533939 0.602635 -0.001721 0.021745 -899.309000 0 0 1
-1.192540 17.394412 26.451894 31.681073 -1.502345 0.582767 0.004750 0.013605 343274.000000 0 0 1
-0.426140 16.219412 26.793904 31.323541 -1.544529 0.544489 0.010449 0.008323 881733.000000 0 0 1
1.014060 16.050712 26.182154 30.727168 1.507702 0.550841 0.019283 0.009313 546787.000000 0 0 1
1.054860 15.894812 24.782104 29.460320 1.504528 0.571292 0.005977 0.010509 -174628.000000 0 0 1
0.608260 14.580112 24.470454 28.491275 1.529102 0.537727 0.015394 0.007395 -649668.000000 0 0 1
0.805460 14.287212 22.980664 27.071832 1.514480 0.556939 0.005827 -0.001735 218048.000000 0 0 1
2.196760 14.182612 22.689164 26.847167 1.417126 0.564001 0.013647 -0.003965 252649.000000 0 0 1
2.495460 13.616412 21.412364 25.497516 1.389539 0.573914 0.000399 -0.008409 990267.000000 0 0 1
4.012860 13.632712 20.986264 25.345160 1.284526 0.595232 -0.002055 -0.004612 1012370.000000 0 0 1
4.369960 14.723212 20.205764 25.379961 1.282271 0.649923 -0.003398 -0.008289 -817342.000000 0 0 1
5.736660 14.768512 19.935164 25.464269 1.200296 0.671534 0.008108 -0.006230 -386768.000000 0 0 1
6.239660 15.975012 19.121764 25.686110 1.198429 0.731101 0.013647 -0.004840 -158248.000000 0 0 1
5.848860 15.795612 17.816164 24.517876 1.216167 0.757348 0.009461 -0.008140 -48405.300000 0 1 0
6.306560 16.772212 16.909164 24.637362 1.211138 0.814376 0.001793 0.001944 -39783.300000 0 1 0
6.104660 16.305412 15.445264 23.274224 1.212556 0.845147 -0.007181 0.003736 607133.000000 0 1 0
7.134660 15.395312 14.999364 22.647294 1.136830 0.846908 -0.011546 0.004010 577006.000000 0 1 0
7.232860 14.114912 15.660064 22.288621 1.097257 0.791747 -0.002209 -0.001923 17342.600000 0 1 0
8.408160 13.248312 15.156464 21.815896 1.005281 0.802732 -0.000222 -0.001669 862197.000000 0 1 0
9.752660 13.732512 15.237164 22.712715 0.953266 0.835422 0.003673 -0.000284 797750.000000 0 1 0
10.592460 12.805512 14.542464 22.083129 0.879701 0.851929 -0.003302 0.007267 254599.000000 0 1 0
12.046360 13.288712 14.335264 22.960933 0.834396 0.896519 0.012117 0.005691 -292459.000000 0 1 0
12.861860 13.021112 15.475564 23.968101 0.791551 0.868892 0.016732 0.001110 578286.000000 0 1 0
14.122860 13.657412 15.580264 25.074383 0.768645 0.900317 0.014196 0.006837 704810.000000 0 0 1
15.261960 13.272112 14.583564 24.935050 0.715775 0.946086 0.013348 0.004006 -300140.000000 0 1 0
16.505160 13.801412 15.010764 26.233992 0.696420 0.961626 0.014326 -0.000128 113401.000000 0 0 1
17.501360 13.464712 14.064564 26.180299 0.655772 1.003659 0.017136 0.004311 -713058.000000 0 0 1
18.846460 14.074512 14.409864 27.584871 0.641449 1.021153 0.012454 -0.000249 -681140.000000 0 0 1
19.456460 13.396212 15.494364 28.250445 0.602981 0.990270 -0.004121 -0.005843 -469076.000000 0 0 1
20.681960 14.014612 15.729864 29.522558 0.595551 1.008881 0.002331 -0.000104 -263257.000000 0 0 1
21.434660 13.599512 17.040164 30.573822 0.565376 0.979612 0.012893 -0.006609 176294.000000 0 0 1
21.855960 12.253612 17.026264 30.294020 0.510985 0.973954 0.006441 -0.002435 508938.000000 0 0 1
22.842160 11.985312 18.015364 31.463714 0.483213 0.961152 -0.000143 -0.005147 -221751.000000 0 0 1
23.177660 10.450812 18.204864 31.270441 0.423602 0.949395 0.000821 0.010771 -190623.000000 0 0 1
22.161360 9.635712 18.772364 30.600236 0.410140 0.910348 -0.014984 0.007275 550888.000000 0 0 1
22.321160 8.288912 18.369964 30.073174 0.355565 0.913672 -0.016453 0.019459 -477120.000000 0 0 1
21.033460 7.521812 18.653464 29.102162 0.343440 0.875042 0.014097 0.021047 -663433.000000 0 0 1
20.928960 6.150312 18.326064 28.490214 0.285820 0.872073 0.027251 0.014205 852361.000000 0 0 1
19.723060 5.570712 18.856164 27.849360 0.275276 0.827013 0.022848 0.016169 307208.000000 0 0 1
19.522960 4.122312 18.350764 27.108854 0.208095 0.827214 0.038914 0.015051 -532736.000000 0 0 1
19.089060 3.978812 16.994264 25.865579 0.205492 0.853934 0.042447 0.008925 357436.000000 0 0 1
19.031960 2.648112 16.487864 25.319511 0.138253 0.861642 0.028045 0.004713 253553.000000 0 0 1
17.942660 1.703412 17.088164 24.836385 0.094653 0.812026 0.034019 0.005375 20279.900000 0 1 0
18.285360 1.236412 18.397764 25.968458 0.067515 0.783474 0.030091 0.005843 134800.000000 0 0 1
17.258760 0.408612 18.910464 25.605417 0.023671 0.739903 0.023877 -0.000442 -717328.000000 0 0 1
17.639860 -0.412188 20.108164 26.752062 -0.023363 0.720237 0.026605 -0.004966 -330054.000000 0 0 1
18.263460 -1.618088 19.790164 26.978190 -0.088366 0.747249 0.024577 0.000965 -83851.400000 0 0 1
17.446760 -2.733388 20.156164 26.797981 -0.155407 0.719474 0.023272 0.001595 175466.000000 0 0 1
17.814760 -4.068288 19.495464 26.720587 -0.224516 0.753053 0.020538 0.003296 -91793.800000 0 0 1
17.367460 -4.005088 18.151764 25.439259 -0.226646 0.776268 0.010177 -0.000795 330689.000000 0 0 1
17.295060 -5.287088 17.683464 25.293819 -0.296677 0.796628 0.020682 -0.004191 -353309.000000 0 0 1
16.664160 -5.322788 16.265064 23.886787 -0.309172 0.821774 0.000637 -0.003444 987345.000000 0 1 0
15.250660 -5.064588 16.101264 22.748261 -0.320631 0.784415 -0.009497 0.004400 881530.000000 0 1 0
14.816460 -5.027688 14.803764 21.539651 -0.327139 0.813059 -0.005630 0.000430 -10187.300000 0 1 0
15.369860 -3.959188 13.741064 20.993442 -0.252113 0.857221 -0.006064 0.003039 -147080.000000 0 1 0
14.795160 -2.672588 13.909064 20.481737 -0.178712 0.824266 0.000767 0.006826 496627.000000 0 1 0
15.566260 -1.680488 13.266564 20.521555 -0.107541 0.867848 0.016045 0.003844 286444.000000 0 1 0
14.773960 -0.339588 13.345664 19.912106 -0.022982 0.836279 0.021083 0.008373 233935.000000 0 1 0
15.426860 0.811312 12.783364 20.051449 0.052542 0.879511 0.035720 0.005569 212433.000000 0 1 0
15.985460 1.686512 13.728164 21.138631 0.105114 0.863955 0.036802 0.002194 25265.700000 0 1 0
16.172760 3.126112 13.219164 21.120536 0.190940 0.894522 0.039395 0.002939 225460.000000 0 1 0
14.993060 3.917412 13.206264 20.360338 0.255568 0.865017 0.032356 -0.000189 620824.000000 0 1 0
15.250960 5.177412 12.593564 20.444932 0.327273 0.907173 0.046968 -0.004243 76867.100000 0 1 0
14.089660 6.166112 12.845564 20.038662 0.412523 0.874945 0.040873 -0.008632 -139500.000000 0 1 0
14.271060 7.386712 12.084964 20.106542 0.477629 0.925987 0.033583 -0.017793 320650.000000 0 1 0
13.328360 8.426812 12.326464 20.014946 0.563793 0.907315 0.022828 -0.011707 -308112.000000 0 1 0
13.564060 9.280512 13.581964 21.320914 0.600042 0.880163 0.034009 -0.013603 -179837.000000 0 1 0
13.047660 8.817112 14.779164 21.596448 0.594273 0.817108 0.028467 -0.010999 239126.000000 0 1 0
13.587460 9.653912 15.782964 22.954717 0.617739 0.812660 0.038216 -0.012287 -26297.300000 0 1 0
13.277460 9.164812 17.219464 23.596497 0.604155 0.752845 0.050937 -0.014082 377322.000000 0 1 0
11.956760 9.459512 17.664664 23.334242 0.669317 0.712045 0.042582 -0.011492 398229.000000 0 1 0
11.329760 8.561912 18.582164 23.387317 0.647140 0.652546 0.048099 -0.013369 191930.000000 0 1 0
11.789460 8.618212 20.092164 24.838679 0.631236 0.628507 0.050698 -0.012969 -742847.000000 0 1 0
13.127160 8.274612 20.243864 25.506971 0.562432 0.653994 0.048696 -0.008187 -878575.000000 0 0 1
13.659960 8.549212 21.492964 26.863191 0.559217 0.643352 0.046471 -0.007087 262234.000000 0 0 1
15.183360 8.247612 21.359264 27.473181 0.497608 0.680181 0.042597 -0.001588 210656.000000 0 0 1
15.861260 9.168612 20.510364 27.501237 0.524124 0.729065 0.047016 0.004423 -52877.000000 0 0 1
17.220460 8.793512 20.404664 28.110859 0.472126 0.758506 0.042208 0.002698 -33245.400000 0 0 1
17.954360 9.941112 19.655964 28.417278 0.505670 0.806969 0.040311 0.006590 -106114.000000 0 0 1
18.485760 10.985612 20.485164 29.699309 0.536199 0.809650 0.019363 0.004824 341607.000000 0 0 1
19.235960 11.915912 19.724164 30.017557 0.554606 0.853848 0.013456 0.006375 -212078.000000 0 0 1
20.083860 12.821612 20.625664 31.514650 0.568180 0.857304 -0.006107 0.000040 -523541.000000 0 0 1
19.374760 13.920112 21.254764 31.951774 0.623012 0.843016 0.003092 -0.001487 412957.000000 0 0 1
20.170260 14.850512 21.976764 33.321993 0.634648 0.850607 -0.002665 0.001148 -496190.000000 0 0 1
21.421960 15.568612 21.447264 34.077370 0.628461 0.890054 -0.002998 0.003671 -244367.000000 0 0 1
22.461160 14.624612 21.306364 34.239511 0.577153 0.899152 -0.008113 0.000486 -387822.000000 0 0 1
23.710760 15.244512 21.516664 35.462122 0.571394 0.918830 0.002140 0.003018 -15057.900000 0 0 1
24.889460 14.254512 21.650064 35.936077 0.520114 0.924216 0.000251 0.002931 -35055.000000 0 0 1
25.257160 13.615612 20.443164 35.231122 0.494420 0.951750 0.001853 -0.003107 -559000.000000 0 0 1
26.460660 12.948812 20.457664 35.865781 0.455100 0.963810 0.010344 -0.005366 -812832.000000 0 0 1
26.802060 12.124812 19.226364 35.142774 0.424834 0.991909 0.011895 0.001040 -325943.000000 0 0 1
27.004160 12.920212 18.057164 34.960230 0.446262 1.028031 0.005621 -0.003138 239110.000000 0 0 1
27.160760 12.036412 16.947864 34.202517 0.417147 1.052369 0.017589 -0.009123 -224666.000000 0 0 1
25.921860 11.829012 16.062764 32.709031 0.428108 1.057467 0.006438 -0.015870 -351421.000000 0 0 1
25.547760 12.828612 15.149364 32.353741 0.465360 1.083497 0.020932 -0.011614 -44788.300000 0 0 1
24.380860 12.484912 14.436864 30.963243 0.473264 1.085740 0.015033 -0.005406 56116.300000 0 0 1
23.999460 13.505512 13.350464 30.604049 0.512574 1.119389 0.014904 0.005296 29278.000000 0 0 1
23.463960 14.725312 13.829964 30.962237 0.560446 1.107754 0.006430 -0.005081 173592.000000 0 0 1
23.286160 15.661112 12.769164 30.831270 0.592065 1.143774 -0.005432 0.002814 287924.000000 0 0 1
22.478760 16.930512 13.294964 31.123833 0.645532 1.129443 0.001588 0.001597 496858.000000 0 0 1
21.106460 16.614412 13.517264 30.070546 0.666870 1.104570 0.017007 -0.002091 356184.000000 0 0 1
20.349160 17.741912 13.869164 30.351564 0.717057 1.096232 0.015100 -0.000727 -859436.000000 0 0 1
19.626360 18.461012 12.689264 29.782888 0.754811 1.130664 0.029880 0.003307 536664.000000 0 0 1
18.583360 17.728612 11.995564 28.346755 0.761864 1.133853 0.022890 0.004340 316432.000000 0 0 1
17.464260 17.405612 12.755364 27.760674 0.783716 1.093391 0.011409 0.010730 -1573200.000000 0 0 1
16.291560 16.936012 11.912964 26.346957 0.804791 1.101614 0.018375 0.006922 -559877.000000 0 0 1
16.422560 15.580112 11.488164 25.385395 0.759080 1.101173 0.018420 0.002901 -124412.000000 0 0 1
15.338260 15.210412 10.700664 24.106494 0.781213 1.110860 0.018466 -0.007234 -352512.000000 0 1 0
15.493360 13.880912 10.103664 23.125915 0.730560 1.118649 0.029426 -0.005579 -278012.000000 0 1 0
15.600060 12.789512 11.041564 22.996731 0.686720 1.069986 0.026675 0.003067 416817.000000 0 1 0
16.087260 11.627012 10.445864 22.429967 0.625830 1.086359 0.035059 0.007155 -301377.000000 0 1 0
16.580960 10.509512 11.365264 22.683635 0.564924 1.046004 0.049100 -0.002661 -841444.000000 0 1 0
17.093360 9.361012 10.704964 22.235282 0.501030 1.068499 0.046676 -0.000116 779696.000000 0 1 0
17.850360 8.397612 11.454564 22.811450 0.439725 1.044724 0.062593 0.001497 1010360.000000 0 1 0
19.095660 8.878212 12.263264 24.369130 0.435203 1.043464 0.039988 0.000735 -146722.000000 0 1 0
18.685860 9.438812 13.491064 24.905046 0.467744 0.998338 0.029870 0.001602 1029280.000000 0 1 0
19.827160 9.712012 14.350664 26.332129 0.455482 0.994423 0.022514 0.009675 342835.000000 0 0 1
19.475460 9.856912 15.871364 26.988006 0.468531 0.942102 0.026132 0.010392 -73.326500 0 0 1
18.975660 8.635312 16.380164 26.513281 0.427065 0.904842 0.046090 0.004598 838178.000000 0 0 1
17.585860 8.357112 16.196464 25.326453 0.443626 0.876938 0.055183 -0.008152 62413.500000 0 0 1
17.195860 6.971612 16.694864 24.960358 0.385173 0.838129 0.046215 0.006768 -69483.300000 0 1 0
15.783560 6.823612 16.712764 23.979135 0.408058 0.799631 0.040140 -0.004343 359474.000000 0 1 0
15.420860 5.642512 17.415164 23.935931 0.350770 0.756017 0.047541 0.006593 798022.000000 0 1 0
13.861460 5.530012 17.654964 23.117501 0.379600 0.701763 0.024799 -0.005481 908978.000000 0 1 0
13.372160 4.206112 17.822964 22.675186 0.304745 0.666465 0.015270 -0.004009 114719.000000 0 1 0
13.117060 3.632412 16.520964 21.405465 0.270153 0.689113 0.023851 -0.005554 -410132.000000 0 1 0
13.014460 2.119712 16.648864 21.238032 0.161456 0.669846 0.013407 -0.002954 61653.100000 0 1 0
14.229060 1.558112 17.143664 22.333810 0.109068 0.695692 0.013376 0.010391 459001.000000 0 1 0
14.296560 0.155412 17.203864 22.369370 0.010870 0.693394 0.011303 0.012908 -530959.000000 0 1 0
13.326060 -0.619888 18.154564 22.529011 -0.046483 0.633720 0.005320 0.004077 698897.000000 0 1 0
11.958860 -0.627888 17.724064 21.390442 -0.052456 0.594199 0.006036 0.012519 558049.000000 0 1 0
11.223860 -1.441188 18.644464 21.809816 -0.127705 0.545504 0.001323 0.004941 23337.900000 0 1 0
-25.031440 14.398012 28.922584 40.870425 -0.521982 0.784608 0.034749 -0.014201 -253955.000000 0 0 1
-24.108440 14.237312 29.984144 41.023979 -0.533444 0.751167 0.031283 -0.018886 225280.000000 0 0 1
-23.705240 12.903412 30.150544 40.465933 -0.498478 0.730135 0.026129 -0.015934 -96299.100000 0 0 1
-22.509240 12.728412 31.101434 40.447219 -0.514647 0.693617 0.029441 -0.027490 -94421.100000 0 0 1
-22.910140 13.179412 32.347714 41.772551 -0.522034 0.685066 0.031074 -0.032449 -128756.000000 0 0 1
-21.817240 13.193712 33.250073 41.900279 -0.543896 0.654171 0.013872 -0.019795 -461565.000000 0 0 1
-22.090040 13.421512 -34.371073 43.005552 -0.545976 2.496799 0.007099 -0.007720 -208794.000000 0 0 1
-22.603540 12.279312 -33.729203 42.418871 -0.497644 2.490045 0.001763 -0.010369 16005.500000 0 0 1
-23.024540 12.553012 -32.387093 41.672909 -0.499152 2.460958 -0.008030 -0.004847 -238090.000000 0 0 1
-23.718140 11.397812 -31.682063 41.185111 -0.447969 2.448479 -0.015466 -0.005897 -259952.000000 0 0 1
-22.968440 10.302212 -31.175153 40.069626 -0.421637 2.462312 -0.010651 -0.008039 -43804.400000 0 0 1
-23.010840 9.158812 -32.073683 40.522879 -0.378800 2.484049 -0.017670 -0.004352 78672.600000 0 0 1
-22.379140 7.930512 -31.374273 39.345444 -0.340563 2.493780 -0.006537 -0.001946 -215847.000000 0 0 1
-23.094640 7.466512 -30.251413 38.784780 -0.312694 2.465433 -0.001686 -0.004151 -61967.800000 0 0 1
-22.344540 6.612612 -29.419223 37.529932 -0.287727 2.471698 -0.005465 0.002468 -670177.000000 0 0 1
-23.024540 5.929412 -28.251443 36.924672 -0.252049 2.442009 -0.001929 0.004226 -494550.000000 0 0 1
-23.879140 4.887312 -28.640383 37.608120 -0.201881 2.436494 0.002790 0.002544 -96202.200000 0 0 1
-24.244140 3.995412 -27.590633 36.945699 -0.163331 2.414017 0.018252 0.007696 -729132.000000 0 0 1
-24.902440 2.715712 -28.074593 37.625648 -0.108625 2.413065 0.022215 0.009491 1472770.000000 0 0 1
-26.279850 2.804412 -28.551713 38.906241 -0.106311 2.394782 0.003763 0.007954 1524400.000000 0 0 1
-26.481110 3.719312 -29.651183 39.928375 -0.139539 2.407754 0.005781 0.004634 -1130500.000000 0 0 1
-27.894230 3.468312 -30.204083 41.260197 -0.123703 2.392107 0.015624 -0.005472 -890897.000000 0 0 1
-28.981600 3.766812 -29.396183 41.451871 -0.129248 2.359108 0.023087 -0.008079 -343527.000000 0 0 1
-30.167510 3.999012 -30.125543 42.820779 -0.131792 2.351144 0.023612 -0.005995 169605.000000 0 0 1
-30.321070 5.459812 -30.711753 43.501593 -0.178157 2.354618 0.019310 -0.014113 -662440.000000 0 0 1
-29.446850 5.594212 -31.838503 43.727594 -0.187739 2.386357 0.029413 -0.013689 420544.000000 0 0 1
-29.401900 6.828612 -32.465553 44.329604 -0.228205 2.392588 0.020194 -0.011764 -432770.000000 0 0 1
-28.915430 8.051812 -31.651923 43.620844 -0.271581 2.382724 0.009340 -0.009306 -81628.500000 0 0 1
-27.502830 8.174112 -31.562513 42.654589 -0.288895 2.403801 -0.010549 -0.007804 548304.000000 0 0 1
-26.887910 7.652112 -30.387153 41.290357 -0.277263 2.397848 -0.014044 -0.007836 -383191.000000 0 0 1
-26.938340 8.604712 -29.123373 40.594163 -0.309179 2.370899 -0.020512 -0.002201 416991.000000 0 0 1
-28.194810 8.871212 -28.478853 41.044985 -0.304833 2.337611 -0.017696 0.001011 1037440.000000 0 0 1
-28.843390 7.724012 -27.831543 40.819068 -0.261652 2.321054 -0.013845 0.006067 432918.000000 0 0 1
-30.316660 7.944412 -27.364053 41.605348 -0.256285 2.288565 -0.012352 0.002936 396419.000000 0 0 1
-30.497340 8.827412 -26.253103 41.197529 -0.281749 2.261720 -0.035774 0.008963 -34688.500000 0 0 1
-30.277490 8.153512 -25.025433 40.118306 -0.263053 2.244380 -0.034516 0.015048 138158.000000 0 0 1
-29.554450 8.987312 -23.918333 39.068196 -0.295208 2.229662 -0.036236 0.022231 -278215.000000 0 0 1
-30.434850 9.877812 -23.354333 39.614090 -0.313830 2.201293 -0.030886 0.016097 426430.000000 0 0 1
-29.665480 10.875812 -22.642733 38.871807 -0.351399 2.192594 -0.028318 0.005751 844226.000000 0 0 1
-30.649900 11.737412 -21.777233 39.388210 -0.365723 2.156621 -0.027495 0.015693 377414.000000 0 0 1
-31.031950 11.226212 -20.527433 38.863675 -0.347115 2.127265 -0.042154 0.014013 349109.000000 0 0 1
-31.804980 12.120212 -19.736833 39.344617 -0.364090 2.096290 -0.040595 0.014193 -42614.700000 0 0 1
-30.942570 13.005612 -18.784833 38.463730 -0.397895 2.081026 -0.044920 0.019302 391903.000000 0 0 1
-30.265790 12.390512 -17.646933 37.161231 -0.388575 2.065618 -0.030289 0.016342 555373.000000 0 0 1
-31.095020 11.734912 -16.684233 37.188332 -0.360863 2.036041 -0.032204 0.019957 -181043.000000 0 0 1
-31.600110 12.684612 -15.570733 37.442143 -0.381722 1.999686 -0.030546 0.019635 -192960.000000 0 0 1
-32.348960 13.761612 -16.124633 38.676103 -0.402219 2.000845 -0.028749 0.018949 240873.000000 0 0 1
-32.933450 14.596112 -15.137933 39.074488 -0.417185 1.968619 -0.021059 0.012547 -25775.800000 0 0 1
-33.503330 15.917612 -15.702233 40.279072 -0.443534 1.971250 -0.017182 0.014566 961962.000000 0 0 1
-34.637121 15.678512 -16.590133 41.482266 -0.425056 1.982240 -0.010025 0.007597 1169130.000000 0 0 1
-35.137660 16.893912 -17.083833 42.566616 -0.448164 1.983779 -0.004173 0.001995 -677103.000000 0 0 1
34.875055 16.949812 -18.580633 42.997739 0.452397 2.017650 -0.003186 -0.002501 136422.000000 0 0 1
33.747907 16.229612 -18.984433 41.984881 0.448257 2.039997 0.028973 -0.010429 475307.000000 0 0 1
32.438647 16.676512 -18.650533 40.966013 0.474859 2.043470 0.077594 -0.019171 194932.000000 0 0 1
31.368607 15.604812 -18.996933 39.854525 0.461618 2.067644 0.087109 -0.026808 -104934.000000 0 0 1
31.211247 15.427512 -20.397833 40.351229 0.459072 2.100766 0.088063 -0.024834 419558.000000 0 0 1
30.122977 14.600112 -20.781933 39.401088 0.451320 2.126388 0.057112 -0.023138 180754.000000 0 0 1
30.422617 13.071812 -20.701833 39.050913 0.405823 2.129543 0.047801 0.007328 -3364.870000 0 0 1
30.410957 12.606712 -19.359633 38.190979 0.392982 2.102400 0.050127 0.003527 271883.000000 0 0 1
31.181907 11.394412 -19.273333 38.387567 0.350343 2.096790 0.045763 0.011284 24812.100000 0 0 1
31.480507 11.043512 -17.807933 37.816715 0.337392 2.061108 0.039397 0.009508 132805.000000 0 0 1
30.292007 11.057712 -17.038433 36.471727 0.350008 2.056882 0.035908 0.006769 324597.000000 0 0 1
30.623247 10.420912 -15.825033 36.011253 0.328002 2.025779 0.005532 0.005255 45539.200000 0 0 1
30.240537 11.093312 -14.495433 35.322362 0.351594 1.993662 0.022306 0.001081 -434600.000000 0 0 1
28.850897 11.123512 -14.293533 34.064819 0.367989 2.003799 0.012254 0.010330 -97443.800000 0 0 1
28.470517 12.262812 -13.536233 33.825678 0.406705 1.982505 0.011487 0.000396 -828266.000000 0 0 1
26.965257 12.417112 -13.569333 32.641026 0.431539 1.999524 0.028831 0.002264 -971615.000000 0 0 1
26.208697 11.355412 -12.944933 31.359408 0.408854 1.996314 0.008334 0.002004 1136550.000000 0 0 1
24.799087 11.505912 -13.225933 30.369492 0.434406 2.021391 0.005412 0.009088 594865.000000 0 0 1
24.473987 10.747512 -14.560133 30.438176 0.413786 2.069572 -0.004999 0.014143 -879189.000000 0 0 1
24.703887 9.374012 -14.648333 30.211385 0.362671 2.077001 -0.019038 0.015863 -318320.000000 0 0 1
26.031577 8.978012 -14.779733 31.252011 0.332115 2.063399 -0.015439 0.011243 -759971.000000 0 0 1
26.401577 7.800112 -13.842033 30.813745 0.287269 2.036684 -0.027164 0.009328 -328170.000000 0 0 1
25.913217 6.500312 -14.105133 30.210986 0.245778 2.056564 -0.017611 0.007632 330091.000000 0 0 1
26.179817 5.546612 -13.053533 29.774863 0.208779 2.024623 -0.036471 0.003768 -41289.500000 0 0 1
25.382527 4.239112 -13.282933 28.959956 0.165482 2.047289 -0.028923 0.006181 -6736.940000 0 0 1
24.788187 3.764612 -12.097933 27.838579 0.150719 2.020362 -0.035264 -0.000098 -73400.600000 0 0 1
23.914387 2.694512 -12.283933 27.019499 0.112200 2.042755 -0.030896 0.004214 93759.800000 0 0 1
23.001487 2.345512 -11.055033 25.627789 0.101621 2.016806 -0.035404 0.004882 -194035.000000 0 0 1
23.734487 1.830912 -9.985933 25.814666 0.076989 1.967990 -0.038134 0.007762 57156.100000 0 0 1
23.073387 1.849912 -8.744833 24.744201 0.080004 1.932010 -0.035409 0.013576 -973699.000000 0 1 0
23.928487 1.436012 -7.511833 25.120953 0.059941 1.874469 -0.022662 0.019085 -176920.000000 0 0 1
24.127887 0.050512 -7.228033 25.187337 0.002094 1.861860 -0.027992 0.014747 563818.000000 0 0 1
24.733187 -0.739988 -8.258133 26.085914 -0.029910 1.892912 -0.023052 0.010915 -621536.000000 0 0 1
24.732087 -2.197088 -7.954333 26.072490 -0.088603 1.880824 -0.008657 0.005972 -458500.000000 0 0 1
25.511437 -2.538688 -6.816133 26.528061 -0.099185 1.830651 0.007396 0.006615 510327.000000 0 0 1
25.615407 -3.928488 -6.618933 26.746820 -0.152179 1.820861 0.002295 0.008178 -1016130.000000 0 0 1
26.700177 -4.375288 -5.670833 27.644185 -0.162424 1.777400 0.015079 -0.002712 2599.370000 0 0 1
27.969517 -4.328788 -6.351733 29.006496 -0.153550 1.791561 0.019989 -0.007133 547411.000000 0 0 1
29.020217 -4.677788 -5.496933 29.904364 -0.159816 1.755665 0.035286 -0.008636 -430603.000000 0 0 1
30.321937 -5.120488 -6.177033 31.365507 -0.167292 1.769029 0.050212 -0.008679 -464598.000000 0 0 1
30.181237 -6.091588 -7.205333 31.621691 -0.199158 1.800676 0.034374 -0.007437 -479137.000000 0 0 1
31.135527 -6.053288 -8.212833 32.764523 -0.192022 1.824161 0.030707 -0.014995 -1063180.000000 0 0 1
30.659897 -6.775388 -9.497733 32.804605 -0.217490 1.864526 0.022522 -0.008575 604204.000000 0 0 1
29.479817 -6.319088 -10.172933 31.819476 -0.211158 1.896217 0.019273 -0.004825 265096.000000 0 0 1
28.315337 -6.815488 -9.560333 30.653045 -0.236206 1.887976 0.029068 -0.015141 -777698.000000 0 0 1
27.117957 -5.863488 -9.553633 29.343415 -0.212943 1.902422 0.015795 -0.007030 -1037740.000000 0 0 1
26.364207 -5.766688 -10.718033 29.037946 -0.215340 1.948841 -0.001229 -0.000792 576041.000000 0 0 1
25.120387 -5.101288 -10.504733 27.702101 -0.200349 1.959732 -0.014891 0.005043 524731.000000 0 0 1
23.915187 -5.983588 -10.145633 26.658458 -0.245167 1.961218 0.000674 0.001541 -1305320.000000 0 0 1
24.072187 -6.535688 -8.867233 26.472877 -0.265113 1.912354 0.005041 -0.004780 337102.000000 0 0 1
22.989187 -7.172288 -8.211933 25.443669 -0.302416 1.899429 0.005622 -0.009909 -117249.000000 0 0 1
21.940087 -6.228588 -7.520233 24.014925 -0.276613 1.889303 0.002979 -0.000156 30182.600000 0 1 0
21.228387 -5.447588 -8.416433 23.476733 -0.251198 1.937458 -0.008335 0.002752 195407.000000 0 1 0
21.208887 -4.083588 -7.962533 23.019438 -0.190214 1.923999 -0.016458 0.003588 -170945.000000 0 1 0
21.088787 -3.066188 -9.110133 23.176129 -0.144383 1.974778 -0.015741 0.006553 487312.000000 0 1 0
22.270387 -2.950588 -9.936433 24.564381 -0.131722 1.987235 -0.022763 0.005648 1071660.000000 0 1 0
22.078487 -2.068388 -11.047733 24.774790 -0.093411 2.033005 -0.019196 0.005471 299860.000000 0 1 0
23.331587 -2.087688 -12.000233 26.319707 -0.089241 2.044226 -0.014886 0.000658 -116127.000000 0 0 1
24.398987 -1.444388 -11.430033 26.982262 -0.059130 2.008226 -0.024465 0.005536 -8823.860000 0 0 1
25.547317 -1.369688 -12.284633 28.380515 -0.053562 2.018453 -0.020041 0.001717 1033890.000000 0 0 1
26.644247 -0.350988 -11.783033 29.135527 -0.013172 1.987142 -0.021341 0.010074 334760.000000 0 0 1
27.890667 -0.473188 -12.423333 30.536084 -0.016964 1.989790 -0.010540 0.004876 193096.000000 0 0 1
28.762107 0.653812 -12.277633 31.279810 0.022728 1.974155 0.008454 0.002739 219203.000000 0 0 1
28.526007 1.898612 -13.176733 31.479582 0.066459 2.002678 0.007010 0.000406 -449197.000000 0 0 1
28.796787 1.630312 -14.538833 32.300008 0.056554 2.037694 -0.006399 0.002055 323669.000000 0 0 1
28.889317 2.894512 -15.234033 32.787903 0.099860 2.054006 -0.003564 0.011745 -345464.000000 0 0 1
29.231897 2.611612 -16.675833 33.755114 0.089105 2.087508 -0.000852 -0.000208 235385.000000 0 0 1
28.189007 1.849812 -17.316933 33.134847 0.065528 2.120717 -0.006542 0.001831 212419.000000 0 0 1
28.397267 1.641612 -18.671933 34.025590 0.057745 2.151678 -0.010930 0.000081 -500427.000000 0 0 1
27.279427 0.913812 -19.416233 33.496153 0.033486 2.189102 -0.024914 0.003744 -554889.000000 0 0 1
27.142287 -0.474288 -19.293733 33.304306 -0.017472 2.188686 -0.010941 0.002617 166598.000000 0 0 1
27.028707 -1.090988 -20.520533 33.953402 -0.040342 2.219775 -0.011521 0.002284 -168618.000000 0 0 1
26.877467 -2.647588 -20.392033 33.841439 -0.098189 2.217521 -0.013406 0.001349 807848.000000 0 0 1
25.565737 -2.938188 -19.852433 32.501676 -0.114425 2.227883 -0.009335 -0.000229 1103660.000000 0 0 1
25.286087 -4.320488 -19.656533 32.317675 -0.169230 2.224623 -0.004060 -0.003676 -336580.000000 0 0 1
26.014407 -5.063688 -18.496433 32.318854 -0.192245 2.180117 -0.011515 -0.000350 444669.000000 0 0 1
27.420517 -5.077788 -18.728433 33.592006 -0.183108 2.162200 -0.020862 -0.000048 379958.000000 0 0 1
28.250467 -5.197688 -17.612233 33.694148 -0.181951 2.120822 -0.021694 0.008157 -307381.000000 0 0 1
29.748977 -5.102788 -17.898833 35.091428 -0.169875 2.106054 -0.010119 0.006115 -216920.000000 0 0 1
30.257477 -6.243988 -18.604633 36.064313 -0.203505 2.112824 -0.012671 0.006971 126835.000000 0 0 1
31.620157 -6.088788 -18.936033 37.356138 -0.190232 2.102387 -0.009339 0.010171 177321.000000 0 0 1
32.336857 -7.365088 -19.492133 38.468950 -0.223941 2.102146 -0.013887 0.023259 8049.550000 0 0 1
32.745987 -8.193288 -18.419933 38.454175 -0.245174 2.070323 -0.013364 0.011356 119001.000000 0 0 1
33.263707 -9.411188 -18.916433 39.406549 -0.275720 2.071488 -0.011897 0.014048 -272635.000000 0 0 1
34.078737 -10.239988 -17.951833 39.855815 -0.291897 2.038031 -0.011072 0.013379 -1047170.000000 0 0 1
33.271847 -10.828488 -16.972633 38.888844 -0.314643 2.022434 -0.008435 0.011609 37056.400000 0 0 1
33.953637 -11.613288 -16.008133 39.293489 -0.329560 1.990401 0.011849 -0.006003 -124247.000000 0 0 1
35.134018 -10.972888 -15.173533 39.812556 -0.302716 1.961808 0.010671 -0.006702 -48891.900000 0 0 1
-34.833855 -11.811888 -14.070533 39.381443 0.326925 1.936159 0.002531 -0.010232 129920.000000 0 0 1
-34.121876 -12.967288 -14.369933 39.229427 0.363172 1.945831 -0.000011 -0.006148 -430968.000000 0 0 1
-32.692790 -12.928388 -14.976733 38.213404 0.376578 1.973518 -0.012678 -0.001269 -325004.000000 0 0 1
-32.583330 -12.515288 -16.349133 38.543482 0.366726 2.008846 -0.018269 0.006445 -920029.000000 0 0 1
-31.279670 -12.601388 -16.803233 37.677067 0.382971 2.033066 -0.009408 0.009004 -1143030.000000 0 0 1
-31.052860 -11.843088 -18.113233 37.850073 0.364356 2.069801 -0.007193 0.014349 -31221.700000 0 0 1
-31.227390 -10.433188 -17.963633 37.505912 0.322444 2.070260 0.008813 0.001678 -597371.000000 0 0 1
-32.528920 -10.024788 -18.200033 38.598811 0.298945 2.061808 -0.001839 0.003317 -1051950.000000 0 0 1
-32.649680 -8.531888 -17.868933 38.184990 0.255600 2.057774 -0.005581 0.002004 319462.000000 0 0 1
-33.997700 -8.147388 -17.565733 39.125165 0.235210 2.036400 0.001903 0.003268 532706.000000 0 0 1
-34.249832 -6.746188 -17.479833 39.039808 0.194480 2.035037 0.005242 0.001217 -54644.600000 0 0 1
23.746560 27.761312 -27.739643 45.870223 0.863185 2.220238 -0.013423 0.030111 -322722.000000 0 0 1
24.226260 27.050212 -26.602543 45.014675 0.840416 2.203063 -0.012849 0.020929 402309.000000 0 0 1
25.266760 26.153612 -27.002183 45.293912 0.802644 2.209500 -0.012807 0.008831 -425489.000000 0 0 1
25.876160 25.224512 -25.971763 44.501507 0.772647 2.193970 -0.007405 0.002044 -585584.000000 0 0 1
26.474760 25.919412 -24.905833 44.643357 0.774799 2.162631 -0.002868 0.008180 232331.000000 0 0 1
26.803960 25.128412 -23.812133 43.782497 0.753145 2.145842 0.000006 0.004011 -219916.000000 0 0 1
27.486760 25.851912 -22.657433 44.013664 0.754757 2.111549 -0.009929 0.006202 202065.000000 0 0 1
26.619360 26.838512 -22.048133 43.760898 0.789498 2.098825 -0.011459 0.012984 247048.000000 0 0 1
27.286860 27.673412 -21.159633 44.250656 0.792431 2.069374 -0.022258 0.014160 -217388.000000 0 0 1
26.397060 28.736412 -20.424533 44.042567 0.827803 2.053014 -0.016649 0.020152 -402176.000000 0 0 1
25.783160 28.186912 -19.325733 42.810715 0.829907 2.039156 -0.012722 0.011991 -334161.000000 0 0 1
24.981660 29.186312 -18.739033 42.744304 0.862865 2.024612 -0.011173 0.009028 13617.500000 0 0 1
23.952560 28.719312 -17.666033 41.359554 0.875651 2.012116 -0.001352 0.006558 -122369.000000 0 0 1
22.868460 28.102612 -18.320233 40.599929 0.887728 2.038949 0.008155 0.007295 -226583.000000 0 0 1
21.805460 27.920312 -17.392633 39.465499 0.907755 2.027180 0.005274 0.005436 -124750.000000 0 0 1
20.893860 26.764012 -17.743833 38.310695 0.907954 2.052349 0.003712 0.008534 -300402.000000 0 0 1
20.215360 26.952212 -19.012133 38.685187 0.927267 2.084559 -0.003311 0.008188 228476.000000 0 0 1
19.545960 25.790112 -19.489333 37.775766 0.922267 2.112879 -0.002725 0.012967 49725.600000 0 0 1
18.849060 26.018912 -20.858233 38.305832 0.943857 2.146611 -0.008167 0.014372 333985.000000 0 0 1
17.834460 26.983812 -20.790433 38.450438 0.986775 2.142074 -0.020518 0.022135 -406936.000000 0 0 1
16.935460 27.172412 -21.849133 38.762539 1.013450 2.169614 -0.013704 0.018585 42132.000000 0 0 1
15.866960 28.235912 -21.492733 38.871130 1.058830 2.156664 -0.024037 0.024355 -118587.000000 0 0 1
15.004260 27.775112 -20.460533 37.619384 1.075504 2.145853 -0.020208 0.021415 -314557.000000 0 0 1
14.149160 28.805012 -20.077533 37.855446 1.114210 2.129838 -0.020242 0.020366 -275288.000000 0 0 1
13.753560 28.690712 -18.589933 36.849735 1.123786 2.099575 -0.015750 0.014787 368770.000000 0 0 1
12.808460 27.668112 -18.243233 35.530221 1.137240 2.110005 -0.015412 0.022109 373703.000000 0 0 1
12.286560 27.735112 -16.904333 34.726826 1.153782 2.079196 -0.004160 0.023665 96384.100000 0 0 1
11.363160 26.582212 -16.549933 33.311195 1.166833 2.090736 0.012859 0.021260 -280837.000000 0 0 1
12.031660 25.303312 -16.448033 32.489325 1.126942 2.101638 0.003278 0.023452 -451543.000000 0 0 1
11.222160 24.179812 -16.323333 31.257821 1.136268 2.120244 0.026846 0.021158 -70083.300000 0 0 1
12.089560 22.888012 -16.413833 30.650163 1.084840 2.135922 0.009103 0.022131 489314.000000 0 0 1
12.432260 22.619112 -17.758733 31.329825 1.068233 2.173451 0.008073 0.025383 -171051.000000 0 0 1
13.350960 21.564012 -17.981333 31.089919 1.016428 2.187520 0.013255 0.020521 -56973.500000 0 0 1
12.658960 20.204612 -18.204233 29.997828 1.011092 2.222890 0.022586 0.017317 -18208.200000 0 0 1
12.218760 19.568012 -17.032233 28.675811 1.012610 2.206766 0.036606 0.010979 -202381.000000 0 0 1
11.827660 18.252112 -17.333933 27.811839 0.995817 2.243697 0.027922 0.006879 -408147.000000 0 0 1
12.917960 17.168412 -17.392033 27.642555 0.925744 2.251289 0.026758 0.006134 -251473.000000 0 0 1
13.308460 16.796812 -16.090933 26.798622 0.900756 2.214846 0.014206 0.001266 -327408.000000 0 0 1
14.408860 15.934312 -16.101033 26.846989 0.835629 2.213964 0.016924 0.004194 -1213380.000000 0 0 1
14.862760 15.370112 -14.716633 25.956141 0.802178 2.173632 0.028370 0.008072 -1265910.000000 0 0 1
15.516660 16.296212 -13.873733 26.435085 0.809898 2.123303 -0.003610 0.008290 1870520.000000 0 0 1
16.865660 16.688512 -14.297733 27.701662 0.780119 2.113126 -0.022743 0.010984 996020.000000 0 0 1
17.904460 15.607612 -14.683533 27.924423 0.716967 2.124488 -0.029616 0.010996 -1287070.000000 0 0 1
18.326560 14.637912 -13.744933 27.185556 0.673964 2.100870 -0.007526 0.009601 480208.000000 0 0 1
19.011760 15.136412 -12.626633 27.385943 0.672395 2.049989 -0.021354 0.009000 -595498.000000 0 0 1
19.659060 14.162112 -11.621233 26.871865 0.624277 2.018025 -0.008117 0.005930 189487.000000 0 0 1
18.701560 13.479512 -10.793733 25.454867 0.624530 2.008691 0.016749 0.004838 869062.000000 0 0 1
19.374760 12.491512 -10.044333 25.145732 0.572662 1.981708 0.024002 -0.000118 25903.500000 0 0 1
19.815160 11.235512 -10.821333 25.218615 0.515813 2.014294 0.011739 -0.000018 -117292.000000 0 0 1
20.858860 11.428112 -11.787733 26.545140 0.501213 2.030925 0.002297 0.004063 764313.000000 0 0 1
21.322460 10.315612 -12.474133 26.770565 0.450596 2.055521 -0.001210 0.003520 -126774.000000 0 0 1
22.209160 9.306312 -11.694233 26.769559 0.396803 2.022888 -0.002679 0.005202 -804320.000000 0 0 1
21.435960 8.566112 -10.802533 25.486729 0.380174 2.008487 0.000426 0.002657 57623.400000 0 0 1
22.081760 7.522212 -10.159633 25.444173 0.328324 1.981540 -0.009165 0.003731 -1199830.000000 0 0 1
22.356460 6.332412 -11.095633 25.749249 0.276018 2.016298 -0.005996 0.007076 254314.000000 0 0 1
21.229560 5.502112 -11.388433 24.711614 0.253593 2.049753 0.010384 0.001629 1045960.000000 0 1 0
20.380160 5.907312 -12.484433 24.619267 0.282125 2.102613 -0.013388 0.000895 394198.000000 0 1 0
19.299360 4.848712 -12.821633 23.672126 0.246143 2.143176 -0.006603 -0.006589 15932.000000 0 1 0
19.819960 3.700912 -13.469633 24.247857 0.184601 2.159758 -0.004628 0.001280 430909.000000 0 1 0
18.850460 2.710912 -13.745233 23.486599 0.142832 2.195969 0.004687 0.001850 -8447.140000 0 1 0
19.504860 1.601212 -14.641233 24.441136 0.081909 2.213099 0.014340 0.005949 385070.000000 0 1 0
20.487860 0.764312 -14.064033 24.862293 0.037288 2.172051 0.012263 0.005812 188421.000000 0 1 0
21.552460 0.553412 -14.964233 26.243915 0.025672 2.177543 -0.007717 0.004100 7973.800000 0 0 1
22.033160 -0.792788 -15.431133 26.911122 -0.035966 2.181460 0.002093 0.000402 -896042.000000 0 0 1
21.076560 -1.446688 -16.189933 26.616315 -0.068532 2.224677 0.001732 0.000835 -254965.000000 0 0 1
21.630660 -2.552988 -16.923633 27.582831 -0.117483 2.231353 0.011448 -0.006914 -180909.000000 0 0 1
20.622960 -3.346388 -17.762433 27.422779 -0.160863 2.275392 0.008124 -0.003140 -743740.000000 0 0 1
19.713960 -4.085388 -17.050333 26.382654 -0.204341 2.273483 0.025661 -0.009552 -429411.000000 0 0 1
18.864860 -4.770688 -17.952833 26.475396 -0.247694 2.315964 0.026123 -0.010742 -202053.000000 0 0 1
18.035860 -5.876788 -17.240333 25.633142 -0.314991 2.308486 0.041482 -0.018348 -485153.000000 0 0 1
18.747760 -6.992288 -16.765933 26.104925 -0.356987 2.268229 0.036848 -0.008672 70909.000000 0 0 1
17.983960 -7.944188 -16.069633 25.392244 -0.415962 2.256033 0.048443 -0.007376 -330025.000000 0 0 1
18.924260 -9.006188 -15.530833 26.085356 -0.444188 2.208541 0.047769 -0.007506 -91076.800000 0 0 1
19.344360 -9.945288 -16.520433 27.313691 -0.474878 2.220362 0.052906 -0.009458 1085600.000000 0 0 1
20.403160 -10.780488 -15.994733 28.077381 -0.486088 2.176896 0.052287 -0.010128 480353.000000 0 0 1
21.279460 -11.574488 -16.984933 29.584998 -0.498169 2.182309 0.048960 -0.002973 343944.000000 0 0 1
22.331860 -10.914588 -17.702333 30.515779 -0.454603 2.189653 0.043760 0.003144 599337.000000 0 0 1
22.788160 -11.682388 -18.837233 31.790246 -0.473718 2.205014 0.046014 0.010624 -525402.000000 0 0 1
21.964260 -11.644588 -20.132633 31.989812 -0.487484 2.251507 0.052496 0.009998 330348.000000 0 0 1
20.628560 -12.123888 -20.194633 31.310531 -0.531344 2.271792 0.051209 0.004014 420182.000000 0 0 1
20.398060 -13.509188 -19.946533 31.566488 -0.584958 2.254785 0.044465 0.006764 -498160.000000 0 0 1
18.917860 -13.891088 -20.082833 30.889609 -0.633367 2.278576 0.043829 0.005556 -244173.000000 0 0 1
18.316360 -13.873288 -21.334733 31.354872 -0.648237 2.319143 0.040749 0.009415 -563851.000000 0 0 1
16.925960 -13.954488 -21.179733 30.492572 -0.689468 2.338641 0.051056 0.010342 -201611.000000 0 0 1
16.151160 -13.290888 -22.348733 30.610023 -0.688553 2.389282 0.049192 0.007539 -105850.000000 0 0 1
16.448660 -13.921588 -23.594433 31.954128 -0.702381 2.401468 0.037182 0.009481 681475.000000 0 0 1
15.761960 -13.212888 -24.646233 32.100725 -0.697649 2.446162 0.050720 -0.003780 -54206.800000 0 0 1
15.728360 -13.900688 -25.998833 33.414813 -0.723791 2.462373 0.041116 -0.009215 30445.100000 0 0 1
14.788760 -14.981288 -26.073993 33.511185 -0.791865 2.462381 0.044618 -0.010336 532806.000000 0 0 1
14.851560 -15.676488 -27.293573 34.803164 -0.812414 2.472245 0.038721 -0.014728 -2284.560000 0 0 1
15.799960 -16.934888 -27.436733 35.905480 -0.820055 2.440500 0.031128 -0.015807 -1978600.000000 0 0 1
17.080960 -16.547188 -27.474363 36.337436 -0.769527 2.428114 0.027790 -0.015595 -2302140.000000 0 0 1
17.879260 -17.675388 -27.647653 37.369506 -0.779664 2.403637 0.021417 -0.006634 473547.000000 0 0 1
19.419660 -17.397588 -27.654923 38.007815 -0.730531 2.385630 0.007558 -0.003070 556280.000000 0 0 1
19.930660 -17.008288 -26.408783 37.201302 -0.706449 2.360136 0.015534 0.000213 521518.000000 0 0 1
21.318860 -16.659388 -26.459293 37.843403 -0.663320 2.345044 0.019901 0.007424 544379.000000 0 0 1
21.975760 -16.164088 -25.154513 37.107429 -0.634183 2.315676 0.018508 0.014418 -53983.100000 0 0 1
21.644460 -14.864188 -24.670133 36.028352 -0.601773 2.325046 0.034590 0.007183 -30992.400000 0 0 1
20.275060 -14.585888 -24.402533 34.918617 -0.623628 2.344571 0.043791 0.005980 354676.000000 0 0 1
20.051560 -13.204088 -23.806333 33.810567 -0.582332 2.351964 0.047174 0.010081 -122370.000000 0 0 1
20.242460 -12.141588 -24.719733 34.179534 -0.540278 2.379267 0.046145 -0.003256 194015.000000 0 0 1
20.150660 -10.905488 -24.092733 33.248136 -0.496060 2.381300 0.050186 -0.005380 -7015.410000 0 0 1
20.155260 -9.630388 -24.997433 33.523880 -0.445739 2.412322 0.053269 -0.008691 -185935.000000 0 0 1
19.854260 -8.460588 -24.228133 32.446504 -0.402831 2.413899 0.057891 -0.005713 298231.000000 0 0 1
19.506960 -7.366588 -25.122683 32.648695 -0.361082 2.448831 0.041059 -0.005716 -301844.000000 0 0 1
19.099360 -6.061288 -24.415433 31.585410 -0.307302 2.454348 0.041222 -0.008255 209701.000000 0 0 1
17.802960 -6.098288 -23.817333 30.354569 -0.330017 2.472908 0.051107 -0.005425 337920.000000 0 0 1
17.619760 -5.105088 -22.805633 29.267982 -0.282014 2.464186 0.039337 -0.001195 -172651.000000 0 0 1
18.147260 -5.432788 -21.372133 28.558822 -0.290881 2.416375 0.038342 -0.006647 -535114.000000 0 0 1
17.566060 -6.490888 -20.598033 27.838409 -0.353952 2.403739 0.049803 -0.004961 180463.000000 0 0 1
17.699460 -7.752088 -21.172333 28.664149 -0.412817 2.401839 0.061774 -0.006968 -213010.000000 0 0 1
17.466060 -8.881188 -20.098933 28.069661 -0.470411 2.368906 0.059280 -0.010484 -317565.000000 0 0 1
16.145860 -9.106588 -19.704033 27.053052 -0.513543 2.386704 0.054048 -0.007103 -621111.000000 0 0 1
16.050860 -10.280088 -18.869833 26.821277 -0.569646 2.351162 0.059398 -0.000185 607416.000000 0 0 1
14.558960 -10.684788 -18.528933 25.873719 -0.633116 2.369037 0.059380 -0.003072 1256960.000000 0 0 1
13.747760 -9.839488 -17.730033 24.498377 -0.621196 2.379978 0.053123 -0.002577 348639.000000 0 1 0
13.441060 -8.608688 -18.346233 24.317809 -0.569651 2.425591 0.034435 -0.009188 -1198070.000000 0 1 0
12.445460 -7.722888 -17.589733 22.889543 -0.555385 2.447230 0.034367 0.000768 265812.000000 0 1 0
11.122760 -7.914988 -18.092333 22.664848 -0.618471 2.495189 0.022412 -0.010111 343804.000000 0 1 0
10.347660 -6.731088 -17.860133 21.710964 -0.576722 2.536821 0.008128 -0.004780 359637.000000 0 1 0
8.873860 -6.759188 -18.324333 21.452580 -0.650945 2.594765 0.008733 -0.002818 193039.000000 0 1 0
8.752560 -6.520288 -19.747233 22.562683 -0.640266 2.636680 0.016910 -0.008377 -322645.000000 0 1 0
7.429160 -6.124788 -19.983033 22.181683 -0.689458 2.692589 0.012584 -0.009997 -253399.000000 0 1 0
7.136760 -5.802688 -21.450633 23.339541 -0.682660 2.736506 0.019320 -0.017409 88070.400000 0 1 0
7.215860 -6.945288 -22.244933 24.395547 -0.766294 2.718550 0.025960 -0.019759 270464.000000 0 1 0
6.411960 -6.644188 -23.389433 25.146054 -0.803183 2.765599 0.031005 -0.019860 136626.000000 0 0 1
6.241960 -7.789988 -24.414433 26.376325 -0.895275 2.753465 0.026550 -0.016007 163644.000000 0 0 1
5.369060 -8.777988 -23.851533 25.976441 -1.021854 2.734305 0.022069 -0.013159 328933.000000 0 0 1
5.268560 -9.802588 -24.762133 27.147959 -1.077627 2.719217 0.015497 -0.003167 44916.700000 0 0 1
4.365060 -11.035588 -24.468333 27.194434 -1.194137 2.690004 0.026821 -0.002820 170328.000000 0 0 1
4.926160 -11.808888 -23.431133 26.697095 -1.175587 2.641767 0.024168 -0.002378 -59432.300000 0 0 1
4.415260 -13.120288 -23.489433 27.265178 -1.246179 2.609048 0.027142 0.005308 -540956.000000 0 0 1
5.158260 -14.289788 -22.756133 27.361419 -1.224378 2.552935 0.027723 -0.000130 149109.000000 0 0 1
6.297960 -14.781288 -23.464933 28.438598 -1.168014 2.541191 0.028065 0.004361 1612500.000000 0 0 1
7.563660 -14.069388 -23.594733 28.493298 -1.077525 2.546471 0.039479 0.000456 1706040.000000 0 0 1
8.317060 -13.730088 -22.239633 27.427907 -1.026156 2.516382 0.042630 0.004074 -218649.000000 0 0 1
8.780460 -14.798788 -21.437833 27.489658 -1.035301 2.465224 0.048555 0.011181 -81298.400000 0 0 1
7.759360 -15.451288 -20.751633 27.010743 -1.105405 2.446936 0.042959 0.011987 -704013.000000 0 0 1
8.131460 -15.997588 -19.389133 26.419348 -1.100536 2.394841 0.034329 0.008537 229352.000000 0 0 1
9.200560 -16.936788 -19.411033 27.354950 -1.073166 2.359725 0.039915 0.011375 16102.600000 0 0 1
9.698060 -17.329888 -18.137233 26.894918 -1.060601 2.310913 0.033218 0.013996 59673.100000 0 0 1
8.799560 -18.255188 -17.216233 26.591029 -1.121627 2.275024 0.021382 0.007262 -361468.000000 0 0 1
8.477360 -19.557188 -17.563533 27.619321 -1.161777 2.259990 0.024444 0.002078 170679.000000 0 0 1
7.697260 -19.756088 -18.751833 28.305159 -1.199275 2.294932 0.024893 0.008353 311019.000000 0 0 1
6.169160 -19.558488 -18.539133 27.645839 -1.265252 2.305806 0.029592 0.004716 -82921.500000 0 0 1
5.815060 -18.258888 -18.167433 26.405634 -1.262474 2.329544 0.022824 0.009624 1172230.000000 0 0 1
4.377760 -18.032888 -18.049033 25.886626 -1.332638 2.342328 0.014583 0.008062 1675300.000000 0 0 1
4.114060 -16.552288 -17.630633 24.530449 -1.327183 2.372762 -0.005812 0.018848 36241.700000 0 1 0
4.464560 -16.258588 -16.290633 23.444801 -1.302805 2.339008 -0.013527 0.019608 109470.000000 0 1 0
4.710760 -14.866388 -16.186433 22.476685 -1.263932 2.374805 -0.007826 0.022785 -37786.100000 0 1 0
10.760660 30.867512 -18.167533 37.398588 1.235362 2.078053 0.001484 0.006058 -338755.000000 0 0 1
9.804760 30.595012 -19.154533 37.404334 1.260668 2.108417 0.011088 0.012640 211869.000000 0 0 1
8.873460 29.602412 -18.670733 36.105919 1.279565 2.114267 0.021857 0.010995 161416.000000 0 0 1
7.915060 28.996412 -19.665733 35.919092 1.304321 2.150171 0.023691 0.003954 -661319.000000 0 0 1
6.918260 29.892012 -20.059133 36.657380 1.343359 2.149819 0.033282 -0.009459 -488884.000000 0 0 1
6.045560 29.241512 -20.958533 36.481159 1.366923 2.182793 0.043974 -0.019643 -27201.500000 0 0 1
5.047460 30.227312 -21.618333 37.503594 1.405339 2.185154 0.049276 -0.023059 555161.000000 0 0 1
3.931060 30.447212 -20.747533 37.053287 1.442396 2.165107 0.049116 -0.022937 182609.000000 0 0 1
2.859160 31.167112 -21.348733 37.885777 1.479316 2.169416 0.046253 -0.029316 1323.990000 0 0 1
1.532660 30.689812 -20.724733 37.063839 1.520897 2.164172 0.061677 -0.027418 -197786.000000 0 0 1
1.120460 29.349112 -20.983233 36.096009 1.532638 2.191143 0.057226 -0.038396 496754.000000 0 0 1
0.503160 29.009112 -22.263833 36.571300 1.553453 2.225317 0.054452 -0.035692 205005.000000 0 0 1
-0.050040 27.583612 -22.492433 35.591680 -1.568982 2.254873 0.054774 -0.032106 583021.000000 0 0 1
-1.140340 27.192812 -21.644433 34.773997 -1.528886 2.242642 0.049284 -0.034105 323490.000000 0 0 1
-1.806940 26.104812 -22.208033 34.320882 -1.501688 2.274532 0.051929 -0.038537 -72760.700000 0 0 1
-2.883240 25.549812 -21.240333 33.350528 -1.458424 2.261243 0.040869 -0.032556 38834.300000 0 0 1
-4.049440 26.346912 -21.155633 34.031141 -1.418293 2.241650 0.034233 -0.030476 -100522.000000 0 0 1
-4.926840 25.770412 -20.215833 33.122014 -1.381894 2.227292 0.032477 -0.025324 -242030.000000 0 0 1
-6.192040 26.634512 -20.111133 33.944017 -1.342372 2.204930 0.029899 -0.024608 26312.800000 0 0 1
-7.308340 26.076212 -19.434733 33.333009 -1.297539 2.193271 0.030857 -0.025567 -135161.000000 0 0 1
-8.021940 27.097012 -18.766233 33.923017 -1.282972 2.156998 0.023671 -0.027833 223887.000000 0 0 1
-9.386340 26.659912 -18.219533 33.627454 -1.232272 2.143380 0.024114 -0.018149 -158862.000000 0 0 1
-9.116640 25.801812 -17.124133 32.281304 -1.231155 2.129946 0.027591 -0.018381 -282488.000000 0 0 1
-10.224140 25.041912 -16.678933 31.777621 -1.183171 2.123352 0.006138 -0.014925 -78552.300000 0 0 1
-9.983940 24.238312 -15.402033 30.403905 -1.180067 2.102011 0.023654 -0.005990 -155728.000000 0 0 1
-9.352440 22.990812 -15.513233 29.269540 -1.184450 2.129412 0.021825 -0.002790 -292584.000000 0 0 1
-9.490740 22.252412 -14.326233 28.115564 -1.167653 2.105456 0.039855 0.009419 -436573.000000 0 0 1
-9.148240 20.783912 -14.293833 26.832349 -1.156156 2.132595 0.049984 0.005702 -105130.000000 0 0 1
-10.058640 19.861212 -14.884333 26.780354 -1.102005 2.160113 0.028987 0.002535 -333067.000000 0 0 1
-10.355240 19.956112 -16.259933 27.746402 -1.092143 2.196934 0.035544 0.003382 -473252.000000 0 0 1
-9.245040 19.904112 -17.307633 27.949930 -1.135967 2.238567 0.031723 -0.002615 -162386.000000 0 0 1
-8.598340 18.599312 -17.382433 26.870334 -1.137766 2.274309 0.024807 0.003804 -34199.500000 0 0 1
-7.940140 18.564112 -18.613633 27.461599 -1.166629 2.315571 0.028404 -0.001338 -217348.000000 0 0 1
-7.216440 17.285212 -18.965933 26.656372 -1.175302 2.362423 0.037630 -0.007592 -89732.800000 0 0 1
-8.126640 16.238812 -19.228433 26.447569 -1.106792 2.384797 0.027116 -0.008289 -110853.000000 0 0 1
-7.813940 15.388912 -20.344833 26.679365 -1.100957 2.438070 0.027534 -0.003647 -322071.000000 0 0 1
-6.528340 14.567012 -20.301233 25.825513 -1.149474 2.475257 0.026416 -0.000792 -346261.000000 0 0 1
-6.533340 13.520512 -19.294433 24.449211 -1.120665 2.480243 0.007518 0.003476 817276.000000 0 1 0
-5.208140 12.988012 -19.091533 23.670653 -1.189432 2.509087 0.012816 0.015632 993879.000000 0 1 0
-4.581340 13.439312 -17.732133 22.716345 -1.242259 2.466404 0.013443 0.019599 -270785.000000 0 1 0
-4.108540 14.734712 -17.748433 23.430722 -1.298869 2.430249 0.021495 0.010390 -585243.000000 0 1 0
-3.691940 15.055812 -16.436933 22.593819 -1.330324 2.385463 0.014663 0.014040 -82056.800000 0 1 0
-2.771240 16.266612 -16.494333 23.331212 -1.402053 2.355993 0.030631 0.007841 -295426.000000 0 1 0
-3.439740 17.482912 -16.604233 24.355381 -1.376529 2.320946 0.030386 0.000071 -46290.300000 0 1 0
-2.509840 18.559412 -16.784733 25.149122 -1.436379 2.301519 0.043308 -0.004014 306401.000000 0 0 1
-3.138040 19.816712 -17.414133 26.566923 -1.413747 2.285617 0.047957 -0.011453 128888.000000 0 0 1
-3.290540 19.675812 -18.794933 27.408297 -1.405092 2.326415 0.063247 -0.015505 -145112.000000 0 0 1
-3.890240 20.746712 -19.466433 28.714144 -1.385438 2.315751 0.064103 -0.013677 419157.000000 0 0 1
-2.896240 21.908812 -19.843933 29.701278 -1.439363 2.302472 0.051897 -0.016704 699285.000000 0 0 1
-1.750040 21.638212 -20.670733 29.975891 -1.490095 2.331703 0.067961 -0.021528 1277010.000000 0 0 1
-0.599340 22.456412 -20.386233 30.335592 -1.544114 2.307734 0.068559 -0.025217 946721.000000 0 0 1
0.201460 22.209612 -19.053933 29.263626 1.561726 2.279847 0.065769 -0.019178 -123479.000000 0 0 1
-0.492140 22.335912 -17.810133 28.571594 -1.548766 2.243817 0.062252 -0.017669 368408.000000 0 0 1
0.447360 21.882012 -16.778433 27.577861 1.550355 2.224842 0.055748 -0.016474 815813.000000 0 0 1
-0.051840 22.028112 -15.339433 26.842850 -1.568443 2.179072 0.051396 -0.017784 94844.800000 0 0 1
-1.032240 21.094212 -14.917933 25.856837 -1.521901 2.185778 0.044652 -0.008344 -54595.100000 0 0 1
-1.224240 21.204812 -13.534133 25.185622 -1.513126 2.138118 0.058653 -0.010694 -5804.520000 0 0 1
-1.934340 19.937912 -13.073733 23.920378 -1.474081 2.149038 0.022926 -0.004179 174298.000000 0 1 0
-1.014140 18.846612 -12.919333 22.872089 -1.517038 2.171050 0.018350 -0.003759 658453.000000 0 1 0
-1.752540 17.750612 -12.396533 21.721640 -1.472384 2.178154 0.012778 -0.008713 170936.000000 0 1 0
-1.277140 16.339012 -12.851133 20.826570 -1.492790 2.235791 0.000038 0.001200 414595.000000 0 1 0
-0.013940 15.923812 -12.298233 20.120003 -1.569921 2.228428 0.003322 0.002355 819788.000000 0 1 0
0.173960 14.529212 -12.286033 19.028265 1.558824 2.272700 0.006928 0.003440 385743.000000 0 1 0
0.823260 13.868912 -13.548733 19.405995 1.511506 2.343638 0.001964 0.000878 202877.000000 0 1 0
-0.129740 13.799212 -14.610533 20.097332 -1.561395 2.384722 -0.000074 -0.000016 432011.000000 0 1 0
0.343260 12.857412 -15.521233 20.157866 1.544105 2.449612 0.003508 -0.002191 -146402.000000 0 1 0
-0.417640 12.712012 -16.861233 21.120389 -1.537954 2.495328 0.009755 0.002457 -110015.000000 0 1 0
-0.422740 13.913512 -17.609133 22.446516 -1.540422 2.472674 0.017232 0.004213 79704.900000 0 1 0
-0.709940 13.692312 -18.996233 23.427341 -1.518993 2.516412 0.030695 -0.004008 -309681.000000 0 1 0
-1.278340 14.907212 -19.669633 24.713429 -1.485252 2.491303 0.038426 0.002032 -105855.000000 0 1 0
-0.384940 15.977912 -19.622833 25.308051 -1.546709 2.458080 0.031268 -0.009020 189431.000000 0 0 1
-1.130940 17.122712 -19.981533 26.338716 -1.504843 2.432015 0.054286 -0.008633 597073.000000 0 0 1
-0.124540 18.278712 -20.197233 27.240687 -1.563983 2.406005 0.061804 -0.007389 487335.000000 0 0 1
0.595860 18.165712 -21.422733 28.094157 1.538007 2.438016 0.053054 -0.007546 74611.800000 0 0 1
1.576060 19.187912 -21.450333 28.823198 1.488842 2.410138 0.049876 -0.006569 -102771.000000 0 0 1
2.137160 19.379912 -22.839433 30.029788 1.460963 2.434970 0.044311 -0.010770 -454471.000000 0 0 1
3.032960 18.366912 -23.160533 29.714518 1.407141 2.464560 0.025694 -0.009213 -396200.000000 0 0 1
3.266860 18.474412 -24.563333 30.908471 1.395774 2.489329 0.019609 -0.022272 151088.000000 0 0 1
4.028360 17.261412 -25.136803 30.757810 1.341526 2.527418 0.006220 -0.013715 278539.000000 0 0 1
5.341060 17.053812 -24.592733 30.400032 1.267284 2.513195 0.001109 -0.008744 882364.000000 0 0 1
6.063560 15.954312 -25.146423 30.391601 1.207599 2.545283 0.005321 -0.018103 84058.600000 0 0 1
6.502960 16.041112 -26.618843 31.751670 1.185649 2.565036 0.001388 -0.014010 -1638480.000000 0 0 1
7.553360 16.945512 -26.803393 32.597937 1.151487 2.536135 0.001898 -0.014457 -144161.000000 0 0 1
7.945660 17.131412 -28.153553 33.900462 1.136520 2.550760 -0.003137 -0.021289 284928.000000 0 0 1
8.613060 15.899912 -28.919533 34.107644 1.074344 2.582789 0.004515 -0.022387 128043.000000 0 0 1
9.957360 15.661312 -28.504253 34.013499 1.004473 2.564455 0.011624 -0.023736 517198.000000 0 0 1
10.398360 14.288912 -28.609083 33.627050 0.941706 2.588256 0.011438 -0.019835 7147.990000 0 0 1
9.900160 13.264112 -27.526913 32.119788 0.929612 2.600231 0.009630 -0.017029 -304.035000 0 0 1
8.516260 13.015812 -27.653823 31.728094 0.991403 2.629228 0.003012 -0.012845 -166419.000000 0 0 1
7.992660 12.348912 -26.553183 30.355391 0.996367 2.635703 0.015453 -0.013977 520044.000000 0 0 1
6.498860 11.905312 -26.633773 29.888618 1.071123 2.670562 0.004687 -0.017156 762045.000000 0 0 1
5.547560 12.950512 -26.492733 30.005934 1.166078 2.652834 -0.003542 -0.009231 -387349.000000 0 0 1
4.257160 12.391012 -26.330613 29.410232 1.239863 2.679872 -0.002288 -0.012677 84074.400000 0 0 1
3.279160 13.544412 -26.769783 30.179882 1.333263 2.661620 0.016730 -0.010521 -613145.000000 0 0 1
3.134360 13.545412 -28.187913 31.430253 1.343402 2.683370 0.023668 -0.018984 201222.000000 0 0 1
3.615360 14.734212 -28.723463 32.483921 1.330178 2.655653 0.023632 -0.024795 -191715.000000 0 0 1
3.536160 14.689412 -30.230303 33.795776 1.334563 2.678107 0.038043 -0.025947 86970.300000 0 0 1
4.482860 13.780612 -30.796733 34.035864 1.256291 2.701781 0.033120 -0.025497 161169.000000 0 0 1
4.322160 13.571912 -32.186443 35.197230 1.262488 2.724967 0.031396 -0.025513 -1173670.000000 0 0 1
5.399060 12.667712 -32.875983 35.643387 1.167904 2.744938 0.031070 -0.021956 -317774.000000 0 0 1
6.710260 13.153212 -32.901763 36.063286 1.099053 2.719745 0.034094 -0.024675 -122639.000000 0 0 1
7.366760 13.359812 -31.640913 35.126928 1.066870 2.692311 0.027187 -0.023280 -1227520.000000 0 0 1
7.462760 12.161112 -30.651673 33.809917 1.020395 2.705924 0.027725 -0.022763 164287.000000 0 0 1
8.405960 11.128212 -31.100803 34.084560 0.923865 2.720053 0.027842 -0.020552 844360.000000 0 0 1
8.318060 10.103112 -30.161433 32.878185 0.881999 2.732216 0.028736 -0.008761 -428853.000000 0 0 1
9.213760 8.918212 -30.422223 33.014232 0.769100 2.742691 0.022338 -0.005729 -67008.600000 0 0 1
10.594960 9.135112 -30.195173 33.278400 0.711542 2.707734 0.018457 -0.018902 -80998.300000 0 0 1
11.313260 7.938612 -30.250243 33.257910 0.611872 2.713033 -0.002776 -0.013567 -245086.000000 0 0 1
12.576860 8.043412 -29.341343 32.920940 0.568987 2.670928 -0.001570 -0.011593 219413.000000 0 0 1
13.175260 6.808912 -29.040643 32.608399 0.476993 2.669432 0.000511 -0.005840 759196.000000 0 0 1
14.235160 6.473612 -29.978513 33.812108 0.426807 2.660783 -0.009370 -0.003812 12434.400000 0 0 1
14.936360 5.144712 -29.684823 33.626650 0.331715 2.652537 -0.007714 -0.006188 -244805.000000 0 0 1
15.653460 5.202912 -28.502153 32.931350 0.320893 2.616948 -0.008030 -0.009304 -371104.000000 0 0 1
16.417060 4.051712 -28.282863 32.952338 0.241964 2.602736 -0.000359 -0.003380 -339681.000000 0 0 1
17.093060 4.147112 -26.891893 32.133240 0.238020 2.562368 -0.001675 -0.000704 36677.000000 0 0 1
18.161360 5.082712 -26.880783 32.836648 0.272883 2.529803 0.016773 -0.004551 460187.000000 0 0 1
18.652660 5.456412 -25.568963 32.116445 0.284587 2.491674 0.017825 0.001986 654385.000000 0 0 1
19.908160 6.378312 -25.522693 32.991295 0.310054 2.455329 0.006988 0.007624 318532.000000 0 0 1
19.463860 7.701512 -25.750643 33.185098 0.376779 2.459048 0.014025 0.002300 93723.300000 0 0 1
20.414860 8.508412 -26.368603 34.416025 0.394884 2.443660 0.022704 -0.011275 -844203.000000 0 0 1
20.487160 8.355812 -27.976163 35.668039 0.387260 2.472441 0.023413 -0.002068 255058.000000 0 0 1
19.422960 8.788512 -28.837073 35.861764 0.424915 2.504986 0.020033 -0.000108 124966.000000 0 0 1
18.299760 7.944812 -28.814263 35.046583 0.409594 2.536010 0.016047 0.000614 45173.000000 0 0 1
17.069060 8.668712 -29.476223 35.147505 0.469917 2.565584 0.009139 -0.003134 45215.300000 0 0 1
17.169460 8.802912 -30.896713 36.426480 0.473762 2.583362 0.005989 0.001228 -32870.900000 0 0 1
16.148160 9.606012 -31.410163 36.601050 0.536637 2.602503 0.000913 0.002730 -373019.000000 0 0 1
15.691360 9.105112 -32.804303 37.486586 0.525780 2.636427 0.005464 0.005224 18595.300000 0 0 1
14.892660 7.946412 -32.833903 36.918856 0.490149 2.666725 0.001669 0.007840 17157.100000 0 0 1
13.678360 8.096412 -33.539623 37.115438 0.534453 2.699029 0.003508 0.011956 65501.700000 0 0 1
13.125860 6.748912 -33.898303 36.972029 0.474919 2.730947 0.001047 0.006362 -71223.400000 0 0 1
12.750060 5.910112 -32.812283 35.695089 0.434053 2.736937 0.008449 0.001975 645091.000000 0 0 1
11.802260 4.866012 -33.163343 35.535598 0.391060 2.774133 0.004874 -0.006660 445221.000000 0 0 1
11.639860 3.802412 -32.065243 34.323818 0.315743 2.776801 0.010016 -0.007027 -267291.000000 0 0 1
12.790360 3.088312 -31.664533 34.289556 0.236921 2.747761 0.006337 -0.012813 -71388.700000 0 0 1
12.480960 2.054012 -30.761613 33.260640 0.163110 2.751478 0.010171 -0.014923 87118.500000 0 0 1
11.814060 0.747112 -31.277053 33.442252 0.063155 2.779777 0.005048 -0.007666 315965.000000 0 0 1
12.707960 -0.179488 -31.884363 34.324001 -0.014123 2.762290 0.007266 -0.006039 125267.000000 0 0 1
13.605160 -0.853288 -31.035153 33.897038 -0.062636 2.727722 0.000374 -0.010262 169972.000000 0 0 1
14.149960 -2.257688 -31.543313 34.645333 -0.158221 2.715200 0.021185 -0.011757 -59274.300000 0 0 1
13.172460 -3.249388 -31.651843 34.437064 -0.241852 2.736641 0.023875 -0.013209 -444174.000000 0 0 1
13.477660 -4.203688 -32.621123 35.545126 -0.302339 2.733144 0.017134 -0.015481 -273118.000000 0 0 1
12.564360 -5.433488 -32.843183 35.581745 -0.408166 2.746692 0.023598 -0.008247 -271006.000000 0 0 1
12.596060 -6.274288 -31.707193 34.689674 -0.462139 2.723892 0.025749 -0.011953 289797.000000 0 0 1
12.183760 -7.618988 -32.039503 35.114423 -0.558843 2.719983 0.034290 -0.014659 -123559.000000 0 0 1
12.247460 -8.505188 -30.735043 34.161109 -0.606988 2.689898 0.032406 -0.018621 -467305.000000 0 0 1
13.500260 -8.599788 -30.119813 34.108892 -0.567188 2.653116 0.038038 -0.016856 -365075.000000 0 0 1
13.514160 -9.011488 -28.744813 33.016718 -0.588108 2.627245 0.045720 -0.014505 -130379.000000 0 0 1
13.573360 -10.519688 -28.431783 33.215451 -0.659325 2.598241 0.039242 -0.018182 9879.180000 0 0 1
12.396960 -11.112588 -28.937053 33.384536 -0.730820 2.619505 0.021116 -0.015971 169377.000000 0 0 1
12.647360 -12.528588 -29.025993 34.050396 -0.780681 2.591435 0.014986 -0.024446 386907.000000 0 0 1
-10.518640 -2.971288 -17.810533 20.897019 0.275305 2.591164 0.027633 0.006885 472857.000000 0 1 0
-11.212340 -2.464688 -18.971433 22.174456 0.216378 2.597415 0.029669 0.003390 158303.000000 0 1 0
-11.963240 -3.492788 -19.588633 23.217089 0.284064 2.574965 0.019303 0.012561 -350263.000000 0 1 0
-12.763440 -2.837188 -20.773533 24.545767 0.218734 2.579832 0.012007 -0.007897 40835.200000 0 1 0
-13.752240 -1.905188 -20.411133 24.685384 0.137660 2.544282 -0.007190 -0.003972 69924.900000 0 1 0
-14.552840 -1.485688 -21.504333 26.008244 0.101737 2.544240 -0.002641 -0.009869 -36587.100000 0 0 1
-15.292540 -0.185688 -21.244133 26.176505 0.012142 2.517635 -0.006480 -0.004256 -559837.000000 0 0 1
-14.579440 0.984212 -21.368433 25.887037 -0.067405 2.541794 -0.009589 -0.010931 -297039.000000 0 0 1
-15.462840 2.043312 -21.109733 26.246816 -0.131382 2.505256 -0.014325 -0.002323 -45573.100000 0 0 1
-14.980740 3.410812 -21.661633 26.557156 -0.223864 2.524667 -0.011268 -0.012201 309048.000000 0 0 1
-13.720240 3.809812 -21.132333 25.482055 -0.270854 2.548655 0.001421 -0.012428 353991.000000 0 0 1
-13.230140 4.921812 -21.834133 25.999811 -0.356151 2.567675 0.004148 -0.018868 -321628.000000 0 0 1
-11.976540 5.464712 -21.089833 24.861248 -0.428068 2.583566 -0.007672 -0.015111 -408513.000000 0 1 0
-12.165540 6.017812 -19.841133 24.039238 -0.459367 2.541644 0.000193 -0.017763 -105880.000000 0 1 0
-10.969040 6.446112 -19.239933 23.066149 -0.531300 2.557332 -0.008112 -0.008105 -377613.000000 0 1 0
-11.103240 7.069912 -17.872233 22.196448 -0.566999 2.506783 -0.003671 -0.009563 -105867.000000 0 1 0
-11.721340 8.338612 -17.904333 22.967094 -0.618339 2.464767 -0.003198 -0.009378 -238706.000000 0 1 0
-12.682740 8.439312 -16.920533 22.767923 -0.587137 2.408598 0.016055 -0.004198 -656838.000000 0 1 0
-13.445140 9.795412 -16.940033 23.742085 -0.629629 2.365281 0.026797 -0.005748 -567623.000000 0 1 0
-12.700040 10.917412 -16.572033 23.560840 -0.710062 2.350926 0.000678 0.018528 265133.000000 0 1 0
-13.483840 12.108412 -16.612133 24.584356 -0.731706 2.312737 0.013357 0.003456 166894.000000 0 1 0
-12.841540 13.363512 -15.906133 24.423220 -0.805314 2.280054 0.011639 0.009835 -31891.200000 0 1 0
-12.509240 13.111612 -14.544233 23.236398 -0.808905 2.247113 0.035710 0.004266 363641.000000 0 1 0
-11.991140 14.357012 -14.042833 23.390434 -0.874951 2.214756 0.024907 0.002090 -687622.000000 0 1 0
-12.322540 14.430812 -12.514533 22.731187 -0.864040 2.153813 0.016962 -0.005659 1773330.000000 0 1 0
-13.645940 14.965612 -12.162133 23.624113 -0.831489 2.111592 0.003003 -0.005719 2083900.000000 0 1 0
-14.722440 14.065812 -12.454933 23.868864 -0.762593 2.119764 0.011400 -0.002286 -143973.000000 0 1 0
-16.126040 14.551312 -12.009833 24.819870 -0.734111 2.075879 0.002969 -0.002468 -349054.000000 0 1 0
-17.092240 13.650412 -12.418433 25.153447 -0.673906 2.087144 0.002934 -0.007053 -369151.000000 0 0 1
-18.340640 13.981012 -11.827433 25.917869 -0.651325 2.044677 0.047204 -0.000547 307658.000000 0 0 1
-19.541740 13.532212 -12.721933 26.960118 -0.605659 2.062218 0.029699 -0.000924 91725.900000 0 0 1
-19.976640 12.223512 -12.320133 26.462541 -0.549117 2.055074 0.039321 -0.007023 -203482.000000 0 0 1
-21.165840 11.855212 -12.944633 27.497316 -0.510573 2.060948 0.049987 -0.009470 -183164.000000 0 0 1
-21.856640 10.661712 -12.109733 27.166716 -0.453842 2.032815 0.041665 -0.010543 89379.100000 0 0 1
-21.330040 9.373012 -12.381933 26.384394 -0.414027 2.059283 0.052397 -0.009559 479620.000000 0 0 1
-21.988940 8.310812 -11.675033 26.246704 -0.361358 2.031768 0.052997 -0.008935 496094.000000 0 0 1
-20.978340 7.129612 -11.408733 24.921503 -0.327609 2.046300 0.068674 -0.007926 425171.000000 0 1 0
-20.702640 6.443212 -12.600933 25.077835 -0.301724 2.097253 0.068602 -0.002016 875384.000000 0 0 1
-19.504340 5.647512 -12.513033 23.851408 -0.281844 2.123070 0.055389 -0.009483 626006.000000 0 1 0
-19.305940 4.665112 -13.652533 24.101333 -0.237096 2.173005 0.049624 -0.015956 175010.000000 0 1 0
-20.112040 3.484112 -13.464533 24.452543 -0.171533 2.153926 0.042196 -0.021002 544339.000000 0 1 0
-19.789140 2.424012 -14.340833 24.559018 -0.121885 2.194362 0.045431 -0.026521 43630.600000 0 1 0
-20.616740 1.117712 -13.985033 24.937530 -0.054161 2.166151 0.032992 -0.024547 970635.000000 0 1 0
-21.823940 1.038812 -14.783633 26.380282 -0.047564 2.165671 0.048322 -0.025123 588602.000000 0 0 1
-22.271140 -0.264588 -14.658633 26.663631 0.011880 2.152875 0.041948 -0.030463 -13607.900000 0 0 1
-23.654540 -0.657488 -15.265933 28.160580 0.027788 2.143734 0.057511 -0.026312 907414.000000 0 0 1
-24.734040 -0.120988 -14.456533 28.649236 0.004892 2.099720 0.075755 -0.041600 779694.000000 0 0 1
-25.920960 -0.146988 -15.241933 30.070489 0.005671 2.102350 0.060204 -0.039774 506670.000000 0 0 1
-27.221470 0.386912 -14.585133 30.885016 -0.014213 2.062626 0.049054 -0.035426 -82298.900000 0 0 1
-27.593940 -0.406488 -13.487833 30.716647 0.014730 2.025399 0.063678 -0.038276 228733.000000 0 0 1
-28.762790 0.083712 -12.835633 31.496961 -0.002910 1.990533 0.067898 -0.038750 379638.000000 0 0 1
-29.004870 -0.608388 -11.468533 31.195831 0.020972 1.947256 0.068008 -0.038333 -247058.000000 0 0 1
-29.460380 -1.960888 -11.377633 31.641896 0.066462 1.938609 0.075321 -0.029844 732067.000000 0 0 1
-28.474200 -2.901488 -11.794833 30.956692 0.101548 1.961686 0.071906 -0.035240 -4174.180000 0 0 1
-28.803750 -4.350188 -11.404033 31.283096 0.149896 1.943938 0.063558 -0.027876 255955.000000 0 0 1
-29.898980 -5.000788 -12.072533 32.629786 0.165722 1.949789 0.062064 -0.027675 617554.000000 0 0 1
-30.245590 -6.275988 -11.442133 32.940949 0.204597 1.925543 0.049958 -0.020908 -12952.300000 0 0 1
-29.395690 -7.520688 -11.871533 32.582213 0.250471 1.943738 0.033274 -0.019070 287812.000000 0 0 1
-28.032440 -7.490888 -11.481933 31.205222 0.261121 1.947599 0.047263 -0.018580 46237.800000 0 0 1
-27.390230 -8.619888 -12.005833 31.123419 0.304894 1.966816 0.052322 -0.022950 198769.000000 0 0 1
-25.873650 -8.744188 -11.665933 29.698494 0.325906 1.974484 0.041625 -0.025102 98508.800000 0 0 1
-25.103460 -7.764388 -12.373933 29.044511 0.299963 2.010900 0.032703 -0.018901 491766.000000 0 0 1
-23.730440 -7.759588 -12.028933 27.713538 0.316030 2.019775 0.034420 -0.014651 159140.000000 0 0 1
-23.271440 -7.239188 -10.621133 26.585226 0.301587 1.981781 0.025341 -0.011678 -558191.000000 0 0 1
-23.614340 -5.930388 -10.247233 26.416138 0.246047 1.969165 0.034054 -0.000996 776871.000000 0 0 1
-25.002540 -5.774388 -9.951333 27.522710 0.226972 1.940746 0.039713 -0.006249 103035.000000 0 0 1
-25.370150 -4.535188 -9.132733 27.342627 0.176892 1.911352 0.054681 -0.022123 -422093.000000 0 0 1
-25.099270 -4.502088 -7.738333 26.648151 0.177484 1.865430 0.037738 -0.018369 378175.000000 0 0 1
-25.316000 -3.164588 -7.324033 26.543472 0.124358 1.850349 0.059995 -0.021311 -98039.000000 0 0 1
-25.280240 -2.913488 -5.806833 26.101691 0.114741 1.795143 0.046223 -0.012557 -116339.000000 0 0 1
-24.017640 -3.193788 -5.245933 24.790464 0.132201 1.784019 0.013428 -0.001411 112484.000000 0 1 0
-23.958040 -2.959588 -3.812433 24.439343 0.122909 1.727432 -0.003793 0.002294 1638130.000000 0 1 0
-22.519740 -3.386688 -3.218433 22.999275 0.149269 1.711193 -0.014588 0.007091 1517980.000000 0 1 0
-22.466140 -4.825588 -3.102533 23.187054 0.211579 1.705003 -0.004915 0.008875 372046.000000 0 1 0
-21.176640 -5.313488 -2.789133 22.010509 0.245837 1.697856 -0.012461 0.004158 -161986.000000 0 1 0
-21.168140 -6.873388 -2.847433 22.437502 0.313964 1.698045 -0.007854 0.010167 -191323.000000 0 1 0
-21.771540 -7.472588 -1.745033 23.084295 0.330629 1.646462 -0.008880 0.015334 364254.000000 0 1 0
-22.263740 -8.769388 -2.032533 24.014734 0.375225 1.655535 -0.019102 0.011215 427271.000000 0 1 0
-22.898340 -9.535988 -0.788133 24.817135 0.394606 1.602559 -0.018553 0.006090 -824968.000000 0 1 0
-21.923740 -9.939088 0.046567 24.071519 0.425635 1.568862 -0.025851 0.017225 -757783.000000 0 1 0
-22.297440 -10.802888 1.114367 24.801613 0.451163 1.525850 -0.031808 0.023154 -25024.200000 0 1 0
-21.015540 -11.343188 1.768267 23.946766 0.494942 1.496887 -0.023957 0.017772 26321.300000 0 1 0
-20.161240 -12.085088 0.949167 23.525005 0.539994 1.530438 -0.022529 0.023057 504586.000000 0 1 0
-18.990940 -12.473788 1.685967 22.783627 0.581160 1.496730 -0.029884 0.012349 339952.000000 0 1 0
-18.258040 -13.605788 0.984867 22.791302 0.640418 1.527570 -0.016314 0.006380 -220155.000000 0 1 0
-19.020740 -14.821788 1.017467 24.135227 0.661956 1.528627 -0.016295 0.007002 320721.000000 0 1 0
-18.393840 -15.941688 0.364467 24.343451 0.714102 1.555824 -0.016749 0.004265 -502112.000000 0 1 0
-17.268340 -16.739388 0.976067 24.069802 0.769846 1.530234 -0.008174 0.002370 -356633.000000 0 1 0
-16.053940 -15.991988 1.062967 22.684853 0.783465 1.523921 0.001253 -0.006235 10915.300000 0 1 0
-15.097140 -16.755888 1.754067 22.622117 0.837426 1.493181 0.016854 -0.008407 -105305.000000 0 1 0
-15.025340 -16.550388 3.304667 22.596394 0.833659 1.424022 0.025980 -0.014707 -279183.000000 0 1 0
-14.611240 -15.243088 3.644667 21.427171 0.806559 1.399870 0.006791 -0.017509 391781.000000 0 1 0
-13.797240 -15.121188 4.824867 21.030775 0.831148 1.339315 -0.004806 -0.012762 89178.100000 0 1 0
-14.436140 -15.564388 6.164567 22.105524 0.822988 1.288179 0.010449 -0.007071 -197631.000000 0 1 0
-15.385640 -14.669988 6.760367 22.307600 0.761592 1.262902 0.008601 -0.006081 504586.000000 0 1 0
-15.631040 -14.806588 8.179767 23.032000 0.758318 1.207724 0.012111 -0.002309 -98459.200000 0 1 0
-16.586140 -15.972388 8.561167 24.566457 0.766550 1.214837 0.009365 -0.000277 -312417.000000 0 1 0
-15.968040 -17.211288 8.337767 24.914355 0.822851 1.229555 0.006061 0.004631 102823.000000 0 1 0
-16.642840 -18.324288 8.957767 26.324993 0.833448 1.223586 0.010756 0.005119 45272.600000 0 0 1
-16.383940 -18.562888 10.454067 26.875673 0.847668 1.171273 0.000065 0.009565 -297534.000000 0 0 1
-15.105940 -19.090788 10.667867 26.579146 0.901402 1.157793 0.005357 0.010510 -322574.000000 0 0 1
-14.906540 -19.600388 12.020267 27.401952 0.920595 1.116684 0.005201 0.006330 524687.000000 0 0 1
-13.557440 -20.374688 12.264367 27.374199 0.983667 1.106240 0.004900 0.009319 1051050.000000 0 0 1
-12.415340 -19.526588 12.239067 26.176766 1.004456 1.084274 0.007273 0.004617 -384507.000000 0 0 1
-11.244740 -20.267888 12.443367 26.307201 1.064271 1.078101 0.004550 0.006236 652879.000000 0 0 1
-9.974840 -19.372188 12.719167 25.230068 1.095296 1.042425 0.009309 -0.000520 738627.000000 0 0 1
-9.428840 -18.730688 11.603567 23.966319 1.104440 1.065392 0.006414 0.001210 -1359540.000000 0 1 0
-8.423640 -17.932188 12.014967 23.170682 1.131640 1.025652 0.009229 -0.002505 -1188000.000000 0 1 0
-7.589740 -17.315288 10.927067 21.836303 1.157693 1.046726 0.003143 -0.004758 -492920.000000 0 1 0
-6.757940 -18.209888 10.252867 21.963403 1.215437 1.085109 0.007871 -0.001962 -401819.000000 0 1 0
-6.029640 -17.389688 9.343767 20.641313 1.237032 1.101035 0.006817 -0.000986 -172737.000000 0 1 0
-4.900140 -18.179788 8.670567 20.729081 1.307515 1.139245 -0.000780 -0.002103 -85824.700000 0 1 0
-3.636640 -18.218688 9.288367 20.770640 1.373775 1.107178 0.005357 -0.005762 105067.000000 0 1 0
-2.639140 -18.736388 8.420567 20.710462 1.430861 1.152083 0.012713 -0.009118 -58264.300000 0 1 0
-1.211640 -18.719688 8.969467 20.792934 1.506161 1.124785 0.006090 -0.025235 -189896.000000 0 1 0
-0.372140 -19.575888 8.197567 21.226257 1.551788 1.174289 0.016056 -0.009280 -191125.000000 0 1 0
0.844960 -19.860088 8.837167 21.753909 -1.528276 1.152468 0.025006 -0.015109 -61395.700000 0 1 0
1.846960 -20.558188 7.860367 22.087003 -1.481196 1.206939 0.025065 -0.018020 44661.100000 0 1 0
1.705160 -21.938088 7.560867 23.267015 -1.493226 1.239826 0.026338 -0.013762 -114243.000000 0 1 0
2.035760 -22.732488 8.674067 24.416178 -1.481482 1.207605 0.033346 -0.015384 -23740.800000 0 1 0
1.762560 -24.199488 8.354267 25.661559 -1.498090 1.239197 0.021292 -0.008281 147165.000000 0 0 1
1.897260 -25.095738 9.409267 26.868754 -1.495339 1.213018 0.024185 -0.004819 -54002.800000 0 0 1
1.534160 -26.404348 8.952767 27.923024 -1.512759 1.244409 0.023708 -0.003236 -379112.000000 0 0 1
1.733660 -27.412848 10.112867 29.270119 -1.507638 1.218023 0.021322 -0.003736 490545.000000 0 0 1
0.827660 -27.342288 11.223067 29.567600 -1.540535 1.181461 0.016679 -0.005795 513665.000000 0 0 1
-0.534140 -27.679408 10.962067 29.775860 1.551501 1.193775 0.009087 0.001471 212487.000000 0 0 1
-1.210440 -27.934178 12.308567 30.549702 1.527492 1.156110 0.006357 -0.005143 -248091.000000 0 0 1
-0.659840 -29.028498 12.983767 31.806718 1.548069 1.150306 -0.001281 -0.001871 -68850.100000 0 0 1
-1.060240 -28.997478 14.334567 32.364450 1.534249 1.111954 -0.006430 -0.003465 228144.000000 0 0 1
-0.504840 -30.219938 15.195167 33.828872 1.554092 1.104952 -0.015736 0.004621 347274.000000 0 0 1
-0.600540 -29.903468 16.558567 34.187193 1.550716 1.065176 -0.018702 0.005822 -138763.000000 0 0 1
-0.119340 -30.908268 17.403667 35.471438 1.566935 1.057974 -0.017675 0.008007 -180394.000000 0 0 1
-0.664540 -30.682058 18.809367 35.994758 1.549141 1.020947 -0.019929 0.001757 1007290.000000 0 0 1
-2.090040 -30.883878 18.922567 36.280101 1.503225 1.022108 -0.035017 0.003945 979016.000000 0 0 1
-2.481640 -30.670238 20.294267 36.860267 1.490059 0.987746 -0.013643 -0.002611 225946.000000 0 0 1
-4.021340 -30.635338 20.480767 37.069623 1.440278 0.985442 -0.000831 -0.012298 37627.100000 0 0 1
-4.656440 -29.461428 20.016567 35.921040 1.414041 0.979741 0.002868 -0.014682 153433.000000 0 0 1
-5.915240 -29.173388 20.602667 36.201471 1.370747 0.965372 0.006357 -0.015893 325086.000000 0 0 1
-5.894740 -28.208558 21.817267 36.145039 1.364791 0.922783 0.016031 -0.022043 -293419.000000 0 0 1
-5.159140 -28.779068 22.865467 37.117126 1.393413 0.907096 0.013744 -0.018744 -34630.800000 0 0 1
-5.100940 -27.839058 23.900567 37.044161 1.389577 0.869523 0.024236 -0.018142 -764475.000000 0 0 1
-3.979940 -28.064468 24.903767 37.731312 1.429922 0.849939 0.029261 -0.016799 -461322.000000 0 0 1
-4.159240 -29.160488 25.811167 39.164393 1.429119 0.851246 0.021244 -0.008693 447586.000000 0 0 1
-3.347640 -30.298058 25.447867 39.708600 1.460752 0.875171 0.018680 -0.008277 282315.000000 0 0 1
-3.655840 -31.614238 26.180867 41.209987 1.455669 0.882394 0.018908 -0.001191 -133848.000000 0 0 1
-3.331740 -31.435068 27.512167 41.906841 1.465203 0.854617 0.017276 -0.010264 206036.000000 0 0 1
-3.646740 -32.599358 28.247867 43.289246 1.459394 0.859868 0.023984 -0.007942 -215174.000000 0 0 1
-3.233440 -32.384368 29.728267 44.079159 1.471280 0.830605 0.034196 -0.005164 634883.000000 0 0 1
-1.897940 -32.790828 30.069967 44.531376 1.512981 0.829488 0.027995 -0.004102 838101.000000 0 0 1
-1.732340 -33.020578 31.465167 45.644455 1.518382 0.810200 0.022711 -0.018144 -241855.000000 0 0 1
-28.122800 3.279412 -10.170833 30.084751 -0.116086 1.915665 0.055256 -0.021453 -16859.000000 0 0 1
-28.943020 2.851712 -11.258133 31.186154 -0.098212 1.940134 0.043207 -0.038786 262372.000000 0 0 1
-29.747070 3.946412 -11.672833 32.198096 -0.131895 1.941779 0.010420 -0.033719 232142.000000 0 0 1
-30.581520 3.589112 -12.967533 33.410597 -0.116828 1.969394 0.021762 -0.029787 -417846.000000 0 0 1
-31.586880 2.675912 -12.778333 34.178609 -0.084514 1.953974 0.035889 -0.030840 -645028.000000 0 0 1
-32.377240 2.601512 -13.921133 35.339093 -0.080178 1.975700 0.045412 -0.029787 -469800.000000 0 0 1
-33.478640 1.561912 -13.832833 36.257498 -0.046620 1.962233 0.031710 -0.022883 -152495.000000 0 0 1
-32.954930 0.246812 -14.003133 35.807486 -0.007489 1.972587 0.042983 -0.021274 80221.000000 0 0 1
-33.149420 -0.509088 -12.863033 35.561227 0.015356 1.940903 0.035971 -0.018116 -231616.000000 0 0 1
-32.492550 -1.849588 -12.888933 35.004448 0.056862 1.947878 0.010308 -0.020160 -427923.000000 0 0 1
-33.124090 -2.778288 -13.709833 35.956693 0.083679 1.961985 0.019820 -0.011948 49369.000000 0 0 1
-32.765200 -4.009288 -13.148533 35.531910 0.121759 1.949858 0.027099 -0.018792 125640.000000 0 0 1
-33.321770 -5.277288 -13.899833 36.488292 0.157069 1.961609 0.008994 -0.009467 221842.000000 0 0 1
-32.792690 -6.449288 -13.315633 35.975824 0.194190 1.949942 0.012269 -0.019215 275686.000000 0 0 1
-33.327300 -7.599288 -14.007433 36.941390 0.224187 1.959706 0.009209 -0.007001 -485042.000000 0 0 1
-32.999830 -8.883588 -13.266433 36.659312 0.262967 1.941085 0.012461 -0.015735 -529779.000000 0 0 1
-31.663510 -9.307788 -13.194133 35.542903 0.285906 1.951116 0.009749 -0.018317 -240759.000000 0 0 1
-31.068850 -9.704788 -14.379033 35.583886 0.302761 1.986778 -0.000181 -0.015200 -364784.000000 0 0 1
-29.734740 -10.480488 -14.153433 34.558864 0.338870 1.992752 -0.002974 -0.014003 201523.000000 0 0 1
-29.942310 -11.886988 -13.864233 35.072202 0.377914 1.977197 -0.008721 -0.010197 1006720.000000 0 0 1
-28.709350 -12.566488 -13.496133 34.121679 0.412590 1.977441 -0.009307 -0.008199 606681.000000 0 0 1
-28.755710 -14.059888 -13.899133 34.896378 0.454763 1.980456 -0.007911 -0.003979 -32303.900000 0 0 1
-28.918470 -14.080488 -15.288733 35.612967 0.453115 2.014517 -0.011002 -0.003183 -52672.600000 0 0 1
-29.189860 -15.301188 -15.954833 36.615993 0.482816 2.021650 -0.001486 -0.007577 126084.000000 0 0 1
-28.106040 -16.451688 -15.781533 36.189284 0.529573 2.022038 -0.027107 -0.001332 1477040.000000 0 0 1
-26.852900 -15.968588 -16.331833 35.253408 0.536490 2.052477 -0.021110 -0.007102 330165.000000 0 0 1
-25.993130 -17.076788 -16.590433 35.249141 0.581262 2.060837 -0.016077 -0.006747 446334.000000 0 0 1
-24.694440 -16.475388 -17.210833 34.314232 0.588351 2.096204 -0.018106 -0.011047 268805.000000 0 0 1
-24.980040 -15.956188 -18.504033 34.942833 0.568431 2.128868 -0.006196 -0.015624 -58626.900000 0 0 1
-23.783440 -15.420288 -18.994733 34.120920 0.575223 2.161191 -0.000551 -0.012730 -478399.000000 0 0 1
-23.892740 -14.956288 -20.415533 34.804419 0.559301 2.197624 0.018729 -0.015243 -114647.000000 0 0 1
-24.301540 -15.989288 -21.293133 36.050238 0.581946 2.202663 0.015634 -0.018013 1529750.000000 0 0 1
-25.754930 -16.063988 -21.399833 37.139211 0.557682 2.184875 0.019884 -0.019945 997464.000000 0 0 1
-26.217510 -17.395988 -21.985033 38.383849 0.585825 2.180675 0.019187 -0.023970 -288175.000000 0 0 1
-25.849200 -17.643388 -23.327633 39.033943 0.598919 2.211331 0.022861 -0.013916 155407.000000 0 0 1
-26.438020 -18.842488 -23.857233 40.288656 0.619201 2.204530 0.008976 -0.012439 -763634.000000 0 0 1
-26.092070 -19.166288 -25.358083 41.123899 0.633548 2.235247 0.012908 -0.014794 5636.120000 0 0 1
-24.788740 -19.672488 -25.552793 40.674730 0.670830 2.250063 0.042059 -0.021462 -76954.300000 0 0 1
-24.572940 -21.038888 -25.111493 40.951816 0.708072 2.230897 0.030598 -0.020331 -447776.000000 0 0 1
-23.130340 -21.505788 -24.813533 40.164947 0.749019 2.236726 0.025488 -0.012340 240346.000000 0 0 1
-22.337940 -21.391988 -25.972273 40.387618 0.763770 2.269303 0.027046 -0.016614 -198091.000000 0 0 1
-20.973640 -21.667988 -25.744313 39.650535 0.801680 2.277434 0.032966 -0.018868 520169.000000 0 0 1
-19.983640 -21.472688 -26.941993 39.828296 0.821301 2.313733 0.026871 -0.024834 107441.000000 0 0 1
-20.017840 -22.367688 -28.024533 41.065823 0.840781 2.321878 0.049164 -0.017626 -15394.000000 0 0 1
-20.687240 -21.877288 -29.186973 41.933960 0.813350 2.340639 0.048055 -0.024647 -88091.100000 0 0 1
-19.844040 -22.140488 -30.440743 42.551451 0.840041 2.367974 0.048835 -0.027059 107701.000000 0 0 1
-19.542240 -23.492488 -30.794093 43.382857 0.876934 2.360041 0.048537 -0.029562 1715.500000 0 0 1
-18.719140 -23.419988 -31.928813 43.798985 0.896494 2.387635 0.052099 -0.030305 29487.200000 0 0 1
-18.243540 -24.792488 -32.583993 44.824221 0.936413 2.384635 0.042977 -0.021739 185717.000000 0 0 1
-17.523640 -24.839888 -33.795723 45.456010 0.956413 2.409058 0.040390 -0.014687 370682.000000 0 0 1
-18.373640 -24.660588 34.164246 45.966628 0.930464 0.732896 0.038921 -0.007206 -162153.000000 0 0 1
-17.597540 -24.786588 32.856474 44.761548 0.953416 0.746554 0.035276 -0.007921 -257600.000000 0 0 1
-16.861440 -23.624488 32.506944 43.578963 0.950917 0.728863 0.032108 -0.010530 -294870.000000 0 0 1
-16.280040 -23.715288 31.231164 42.459865 0.969203 0.744325 0.031039 -0.004784 101983.000000 0 0 1
-15.311240 -22.526788 31.072574 41.320637 0.973831 0.719725 0.019007 0.003019 -33065.400000 0 0 1
-16.019140 -21.496988 30.417634 40.545848 0.930387 0.722427 0.022322 -0.006737 140240.000000 0 0 1
-15.299740 -20.249788 30.283234 39.512153 0.923752 0.697534 0.022626 -0.009762 673.577000 0 0 1
-15.022240 -19.323288 31.534674 39.918577 0.909978 0.660028 0.027219 -0.014122 285489.000000 0 0 1
-14.623740 -17.975488 31.117894 38.798135 0.887855 0.640083 0.030768 -0.012962 357218.000000 0 0 1
-14.026140 -17.194688 32.190094 39.097213 0.886540 0.603534 0.027897 -0.013857 225102.000000 0 0 1
-13.432940 -15.819688 31.805754 37.977788 0.866809 0.578135 0.037012 -0.013225 116509.000000 0 0 1
-12.163840 -15.866388 31.163604 37.025281 0.916729 0.570401 0.043680 -0.015133 604593.000000 0 0 1
-11.651040 -14.571488 30.772054 35.986029 0.896313 0.545031 0.042266 -0.017405 220496.000000 0 0 1
-10.258940 -14.561488 30.093684 34.970167 0.957040 0.534442 0.050915 -0.019147 605398.000000 0 0 1
-9.595540 -13.294888 29.928194 34.125141 0.945624 0.501187 0.078019 -0.016414 157336.000000 0 0 1
-8.646640 -13.043988 30.944184 34.676397 0.985418 0.468226 0.042719 -0.021117 -1411.350000 0 0 1
-8.122940 -11.560988 30.978454 34.048542 0.958317 0.427917 0.042888 -0.019326 16928.800000 0 0 1
-9.003740 -10.791888 31.758204 34.729176 0.875484 0.416642 0.045262 -0.011748 253617.000000 0 0 1
-8.641740 -9.427188 31.697774 34.180410 0.828840 0.383484 0.030331 -0.006950 -198420.000000 0 0 1
-9.453240 -8.595388 32.699274 35.106793 0.737904 0.372493 0.010985 -0.002579 -605699.000000 0 0 1
-10.740940 -8.348688 32.255924 35.007328 0.660731 0.399116 0.015735 -0.004110 -130928.000000 0 0 1
-11.713840 -7.580688 32.999234 35.827787 0.574374 0.400025 0.013122 -0.009572 545287.000000 0 0 1
-11.406240 -6.200788 33.526809 35.952733 0.497940 0.369454 -0.001153 0.000909 -693477.000000 0 0 1
-11.271640 -5.102088 32.613074 34.881137 0.425054 0.362601 0.008629 -0.006525 130029.000000 0 0 1
-11.714940 -3.883588 33.121250 35.345994 0.320106 0.356689 -0.003015 -0.008967 -382868.000000 0 0 1
-11.340840 -2.749888 32.167164 34.218459 0.237885 0.348011 -0.000573 0.000974 954182.000000 0 0 1
-9.933740 -2.448388 32.056694 33.649746 0.241655 0.308935 -0.004404 0.007044 1015840.000000 0 0 1
-9.676040 -1.339588 31.242234 32.733735 0.137569 0.303034 -0.010022 0.010352 -300176.000000 0 0 1
-8.176740 -0.996688 31.215664 32.284209 0.121295 0.258001 -0.002491 0.013185 -1758.250000 0 0 1
-7.779940 -0.541688 32.538384 33.459936 0.069514 0.235242 0.003894 0.000770 1289850.000000 0 0 1
-6.414040 -0.029488 32.540514 33.166637 0.004597 0.194617 0.000962 0.004518 1463370.000000 0 0 1
-5.947740 0.854512 33.758341 34.288940 -0.142694 0.176150 0.010642 -0.000352 -231553.000000 0 0 1
-6.631640 2.109812 33.873235 34.580717 -0.308018 0.202628 0.027420 -0.000931 85752.900000 0 0 1
-6.173940 3.159612 33.037944 33.758057 -0.473016 0.206920 0.032762 0.001657 -415086.000000 0 0 1
-6.917040 4.509712 33.203705 34.215040 -0.577760 0.243742 0.040589 0.003695 246682.000000 0 0 1
-8.233640 4.389512 32.700564 34.005698 -0.489791 0.277949 0.026976 0.012740 27124.100000 0 0 1
-9.067240 5.427012 33.141879 34.785794 -0.539338 0.308659 0.019761 0.009946 15819.300000 0 0 1
-10.436140 5.500812 32.428014 34.507217 -0.485086 0.348910 0.008932 0.015664 -65213.600000 0 0 1
-11.163340 6.669212 32.714884 35.204576 -0.538521 0.378339 0.014357 0.010273 -145648.000000 0 0 1
-12.394740 6.551112 32.028494 34.962424 -0.486218 0.412595 -0.010389 0.015179 -916.080000 0 0 1
-13.320540 7.760812 32.224224 35.722088 -0.527542 0.446228 -0.014981 0.009596 112826.000000 0 0 1
-14.047940 7.911512 33.435381 37.119555 -0.512906 0.449307 -0.005536 0.010569 251969.000000 0 0 1
-14.789940 9.107612 33.545809 37.775815 -0.551955 0.477768 -0.013319 0.015458 -110201.000000 0 0 1
-15.394940 9.244112 -34.125412 38.561659 -0.540761 2.657198 -0.000266 0.016231 -477376.000000 0 0 1
-14.546540 9.537612 -33.067593 37.363533 -0.580345 2.657340 -0.002227 0.011244 -785263.000000 0 0 1
-15.240940 9.923812 -31.916053 36.734217 -0.577168 2.623645 0.000827 0.012907 -821495.000000 0 0 1
-14.299840 9.976612 -30.646433 35.259354 -0.609163 2.624321 -0.000388 0.004262 1058570.000000 0 0 1
-13.395540 11.101712 -30.682143 35.271552 -0.692034 2.625762 0.006378 0.008533 1074630.000000 0 0 1
-12.283740 10.990712 -31.621873 35.659906 -0.729900 2.661090 0.008022 0.000020 3506.630000 0 0 1
-11.438040 12.269412 -31.616473 35.790622 -0.820452 2.653808 0.011136 -0.002245 -321593.000000 0 0 1
-12.140240 13.400012 -32.009253 36.763270 -0.834683 2.627391 0.001808 -0.007808 -50232.100000 0 0 1
-11.246940 14.438412 -32.392763 37.205544 -0.909017 2.627305 0.005045 -0.008348 -55668.500000 0 0 1
-11.480540 15.799512 -31.670183 37.207901 -0.942415 2.589003 0.005507 -0.004827 -650318.000000 0 0 1
-12.731140 16.395512 -31.836913 38.006365 -0.910549 2.563805 -0.003473 -0.006260 -363755.000000 0 0 1
-13.033240 17.242612 -30.781853 37.612438 -0.923547 2.529410 -0.014990 0.002679 -743602.000000 0 0 1
-14.459540 17.761612 -30.847103 38.420007 -0.887523 2.502927 -0.029558 0.000533 -699844.000000 0 0 1
-14.660040 18.652512 -31.970623 39.811477 -0.904678 2.503193 -0.019073 -0.006765 -55459.100000 0 0 1
-15.967140 19.139312 -32.189623 40.711603 -0.875512 2.482706 -0.018523 -0.011884 122130.000000 0 0 1
-16.407240 20.412112 -31.425153 40.907115 -0.893743 2.446833 -0.029161 -0.014660 -245539.000000 0 0 1
-15.684040 21.579012 -31.820963 41.523687 -0.942297 2.443910 -0.020299 -0.011572 210842.000000 0 0 1
-16.119840 22.751312 -31.185333 41.832959 -0.954373 2.412040 -0.029108 -0.009171 -362161.000000 0 0 1
-17.420340 23.337512 -31.755943 43.087674 -0.929570 2.399429 -0.014175 -0.013037 66053.100000 0 0 1
-18.569540 22.684012 -31.231403 42.834481 -0.884806 2.387829 -0.015128 -0.011558 -243566.000000 0 0 1
-19.535740 22.451612 -32.199813 43.846870 -0.854733 2.395534 0.011167 -0.016098 -533060.000000 0 0 1
-20.890040 21.839412 -31.735763 43.823650 -0.807613 2.380626 0.018257 -0.020799 24921.700000 0 0 1
-21.692840 22.781212 -31.047783 44.198730 -0.809865 2.349643 0.029294 -0.023749 669272.000000 0 0 1
-22.500540 23.730312 -31.797243 45.612133 -0.811993 2.342172 0.047284 -0.014619 -347625.000000 0 0 1
-23.722440 23.207712 -32.542193 46.479526 -0.774431 2.346390 0.047823 -0.023668 -1036260.000000 0 0 1
-23.467140 22.214212 -33.520563 46.559704 -0.757977 2.374524 0.066507 -0.026159 -240400.000000 0 0 1
-24.582940 21.978612 -34.334602 47.605097 -0.729523 2.376384 0.081532 -0.027787 -222439.000000 0 0 1
-24.328940 20.912912 33.657418 46.498054 -0.710035 0.761436 0.086446 -0.024029 -67215.400000 0 0 1
-24.171340 19.608312 34.111952 46.177536 -0.681546 0.739637 0.084262 -0.026610 181417.000000 0 0 1
-23.681740 18.793912 33.040914 44.785466 -0.670828 0.741051 0.073377 -0.035547 -221733.000000 0 0 1
-23.426740 17.375012 33.617308 44.506478 -0.638151 0.714631 0.048619 -0.025904 -743354.000000 0 0 1
-24.527240 16.593412 33.951387 45.051343 -0.594800 0.717251 0.054583 -0.022335 -408917.000000 0 0 1
-24.756940 15.690412 32.964754 44.110884 -0.564887 0.726783 0.058396 -0.027190 -525598.000000 0 0 1
-25.692120 14.574512 33.438302 44.616381 -0.516010 0.723547 0.037318 -0.019700 133846.000000 0 0 1
-27.060500 15.009612 33.558031 45.647569 -0.506421 0.744901 0.041743 -0.010211 455638.000000 0 0 1
-27.967920 13.933812 33.485628 45.800032 -0.462212 0.750824 0.023253 0.000489 -133757.000000 0 0 1
-28.068950 12.777212 34.502630 46.276934 -0.427176 0.729409 0.010236 0.005017 -609983.000000 0 0 1
-26.924600 11.942812 34.452253 45.326842 -0.417490 0.707352 0.010824 -0.002022 -62396.800000 0 0 1
-27.335640 10.610212 -34.500263 45.277831 -0.370246 2.437143 0.014033 0.000463 -619236.000000 0 0 1
-26.220650 9.570612 -34.242903 44.177998 -0.349977 2.457689 0.005152 -0.008198 253909.000000 0 0 1
-25.300240 9.165412 33.846440 43.239894 -0.347560 0.671709 0.001035 -0.000193 -57431.500000 0 0 1
-24.382240 10.164412 33.565859 42.713883 -0.394971 0.666759 -0.014104 -0.006197 -425054.000000 0 0 1
-23.088740 9.674312 32.792594 41.255744 -0.396782 0.652017 -0.004162 -0.009403 494294.000000 0 0 1
-23.184240 9.495212 31.387264 40.160035 -0.388716 0.673642 0.003817 -0.008812 -337504.000000 0 0 1
-21.925040 9.298212 30.805574 38.937739 -0.401100 0.658110 0.004625 -0.008281 -199682.000000 0 0 1
-21.977340 9.204012 29.228194 37.709477 -0.396604 0.683941 0.008915 -0.008147 -32010.500000 0 0 1
-22.308240 10.479212 28.727754 37.851754 -0.439153 0.709091 0.015412 -0.013207 102787.000000 0 0 1
-22.287740 10.429612 27.297364 36.751411 -0.437683 0.733618 0.007828 -0.011380 -577736.000000 0 0 1
-22.616840 11.808412 26.683724 36.918575 -0.481176 0.762991 0.008697 -0.010527 -33091.500000 0 0 1
-23.917540 12.281312 26.894784 38.029051 -0.474378 0.785243 0.031799 -0.008194 199519.000000 0 0 1
-24.921940 11.788412 25.986594 37.886314 -0.441826 0.814943 0.034120 -0.003916 -49235.600000 0 0 1
-26.249320 12.520812 26.089744 39.070094 -0.445075 0.839591 0.022253 0.000839 -484766.000000 0 0 1
-26.157020 13.830312 25.598884 39.125057 -0.486376 0.857561 0.029958 -0.002402 -115207.000000 0 0 1
-27.326480 14.587312 25.845514 40.342493 -0.490333 0.875449 0.022379 -0.003434 -31797.500000 0 0 1
-27.415360 16.041712 25.321794 40.621814 -0.529418 0.897771 0.020712 -0.008153 168720.000000 0 0 1
-26.474770 16.919912 25.943614 40.746386 -0.568671 0.880573 0.037878 -0.013640 266319.000000 0 0 1
-26.607030 18.196212 25.374974 41.023475 -0.599830 0.903903 0.022063 -0.025956 -515532.000000 0 0 1
-21.760040 -8.767688 32.387834 39.991793 0.383026 0.626879 0.006682 0.006446 -445601.000000 0 0 1
-20.861440 -9.159688 31.411924 38.804749 0.413730 0.627519 0.011640 -0.005752 -602407.000000 0 0 1
-21.506740 -9.340788 30.203794 38.236885 0.409737 0.660130 0.018374 -0.004889 -636500.000000 0 0 1
-20.714140 -8.975388 28.976474 36.732400 0.408878 0.661855 0.032949 -0.006089 -1059120.000000 0 0 1
-20.409840 -7.592688 28.830854 36.130716 0.356148 0.646894 0.033691 -0.010694 748035.000000 0 0 1
-19.139040 -7.227588 29.402274 35.819472 0.361080 0.607905 0.025698 -0.013996 -915292.000000 0 0 1
-17.883440 -7.619788 28.714444 34.675609 0.402786 0.595109 0.034341 -0.012075 -2032870.000000 0 0 1
-17.479640 -8.991188 28.773794 34.846958 0.475086 0.599321 0.035521 -0.013457 96556.600000 0 0 1
-17.007040 -9.406588 30.058454 35.794328 0.505220 0.573965 0.041669 -0.015312 -565438.000000 0 0 1
-15.581040 -8.998288 30.473494 35.388866 0.523722 0.533359 0.035179 -0.017669 -178816.000000 0 0 1
-14.510740 -9.592188 29.736494 34.450409 0.584097 0.529285 0.034541 -0.015006 -554923.000000 0 0 1
-13.321340 -9.075688 30.252974 34.279274 0.598058 0.489551 0.022409 -0.011260 -399593.000000 0 0 1
-12.113440 -9.892688 29.734254 33.596526 0.684823 0.484217 0.025864 -0.012909 -52486.500000 0 0 1
-11.784440 -9.604788 28.378074 32.193789 0.683845 0.491816 0.036116 -0.014899 294248.000000 0 0 1
-10.563740 -10.272188 28.049754 31.684367 0.771406 0.483686 0.035263 -0.012214 397939.000000 0 0 1
-10.076240 -10.016688 26.615764 30.170574 0.782434 0.490333 0.021269 -0.009705 -71315.900000 0 0 1
-10.865140 -10.588588 25.596034 29.754435 0.772508 0.535051 0.027776 -0.003186 30325.900000 0 0 1
-10.226840 -10.406088 24.342934 28.380510 0.794085 0.539950 -0.010495 0.000603 -108609.000000 0 0 1
-11.052840 -10.913188 23.154064 27.881421 0.779041 0.590885 -0.010917 -0.001364 -941818.000000 0 0 1
-11.038140 -12.336388 22.985864 28.326259 0.840882 0.624136 -0.001355 -0.003899 472223.000000 0 0 1
-12.271840 -12.844988 22.505564 28.672150 0.808213 0.668217 0.002399 0.001474 123853.000000 0 0 1
-13.491940 -12.805388 23.423564 29.911097 0.759297 0.671151 0.009922 0.002329 -662394.000000 0 0 1
-14.667540 -13.393088 22.890164 30.306289 0.740012 0.714693 0.012415 0.004128 158053.000000 0 0 1
-15.727640 -13.163788 23.793264 31.412790 0.696889 0.711415 0.016472 0.005845 327533.000000 0 0 1
-17.102840 -13.764288 23.380664 32.072078 0.677658 0.753931 0.023500 -0.000600 222767.000000 0 0 1
-17.002740 -15.162088 23.433364 32.681870 0.728235 0.771287 0.006813 0.002354 1749410.000000 0 0 1
-18.335240 -15.756888 23.532664 33.737913 0.709913 0.798874 0.019646 0.009416 2072930.000000 0 0 1
-19.207740 -15.744288 24.837984 35.124711 0.686629 0.785355 0.018715 0.002841 380257.000000 0 0 1
-18.522540 -16.515288 25.787514 35.788756 0.728173 0.766204 0.006062 0.009142 285442.000000 0 0 1
-19.275040 -16.467488 26.982364 37.023685 0.707010 0.754248 0.008821 -0.000782 -54837.400000 0 0 1
-18.770340 -17.383688 28.119324 38.015979 0.747063 0.738215 0.008765 0.001017 -170976.000000 0 0 1
-19.056040 -18.730088 27.930784 38.653299 0.776772 0.763244 0.010762 0.003078 42928.700000 0 0 1
-18.818240 -19.386588 29.162744 39.754642 0.800273 0.747239 0.012165 -0.003774 -205701.000000 0 0 1
-18.716440 -20.902888 29.089124 40.415504 0.840529 0.767352 0.014931 0.002063 -13880.300000 0 0 1
-19.947040 -21.483888 28.671204 41.005850 0.822475 0.796521 0.010350 0.004612 317539.000000 0 0 1
-19.761140 -22.833288 28.497634 41.520800 0.857399 0.814344 0.018904 0.006300 -356302.000000 0 0 1
-20.948140 -23.501888 27.798104 41.998784 0.842787 0.847474 0.028682 0.015273 185158.000000 0 0 1
-21.974740 -23.652088 28.811464 43.271364 0.822144 0.842188 0.020528 0.006497 -149197.000000 0 0 1
-23.175240 -24.017688 28.202984 43.696102 0.803247 0.869204 0.008433 0.016601 -475644.000000 0 0 1
-23.983840 -25.056688 29.004604 45.214259 0.807271 0.874354 0.000930 0.022070 -120998.000000 0 0 1
-24.509240 -24.597588 30.242234 46.047116 0.787197 0.854273 0.005429 0.018818 24338.700000 0 0 1
-25.077030 -25.648428 30.950824 47.377767 0.796662 0.858891 0.000800 0.022041 700535.000000 0 0 1
-26.381180 -25.213268 31.758604 48.376487 0.762766 0.854642 0.032378 0.007115 268053.000000 0 0 1
-27.431730 -24.845788 30.916354 48.224827 0.735973 0.874881 0.030846 0.006602 -173114.000000 0 0 1
-28.504340 -24.555388 31.837974 49.286114 0.711110 0.868486 0.037254 -0.001533 512804.000000 0 0 1
-29.759380 -24.041588 31.037104 49.263784 0.679519 0.889219 0.041918 -0.001756 162952.000000 0 0 1
-30.405110 -25.148408 30.382224 49.799525 0.691055 0.914621 0.037773 -0.001920 47542.300000 0 0 1
-31.617680 -24.833788 29.745574 50.011937 0.665800 0.933817 0.029367 -0.000800 -716856.000000 0 0 1
-32.854170 -25.029868 30.562334 51.380415 0.651040 0.933749 0.028435 -0.002866 -1145050.000000 0 0 1
-33.311100 -26.363378 30.531854 52.314923 0.669493 0.947621 0.039848 -0.012529 -282962.000000 0 0 1
-34.314082 -26.737998 31.412814 53.657633 0.661937 0.945385 0.044907 -0.014646 -404702.000000 0 0 1
-34.172584 -28.257478 31.566604 54.430699 0.690932 0.952140 0.041450 -0.019977 -122758.000000 0 0 1
-33.166300 -28.559538 32.498434 54.514208 0.710904 0.932104 0.030076 -0.013788 -90704.200000 0 0 1
-32.792310 -29.960678 32.442064 55.004230 0.740305 0.939972 0.033049 -0.018251 103615.000000 0 0 1
-31.638030 -30.374828 33.379871 55.116340 0.765031 0.920244 0.038206 -0.020125 65568.500000 0 0 1
-32.028210 -30.499118 -34.369272 56.011153 0.760948 2.231427 0.036652 -0.018093 680323.000000 0 0 1
-30.868900 -30.423588 -33.509593 54.784820 0.778133 2.228951 0.019669 -0.023907 804724.000000 0 0 1
-31.263450 -30.274558 -32.007803 54.022695 0.769330 2.204940 0.016228 -0.021618 -50046.300000 0 0 1
-31.425590 -28.948268 -31.525943 53.098540 0.744388 2.206477 0.017330 -0.017312 359880.000000 0 0 1
-30.221010 -28.224048 -31.264583 51.839950 0.751243 2.218176 0.020730 -0.012046 -189682.000000 0 0 1
-30.480930 -26.694588 -31.278773 51.186421 0.719272 2.228215 0.013886 -0.009188 -125971.000000 0 0 1
-31.302980 -26.192208 -30.224903 50.788316 0.696741 2.208205 0.000483 -0.014706 55477.700000 0 0 1
-31.226480 -24.784788 -30.064153 49.932275 0.670894 2.216923 -0.002070 -0.002591 -472897.000000 0 0 1
-29.924510 -24.224488 -29.487483 48.495502 0.680519 2.224393 -0.007434 -0.007414 -447625.000000 0 0 1
-29.901700 -22.826288 -29.134223 47.581026 0.652008 2.229772 -0.010908 -0.003102 -461666.000000 0 0 1
-28.793020 -22.484388 -28.366823 46.252160 0.662984 2.231038 -0.002217 0.000610 -593740.000000 0 0 1
-28.544420 -20.998788 -28.407193 45.416975 0.634256 2.246537 0.004603 -0.005673 -175918.000000 0 0 1
-28.208160 -20.533288 -29.700073 45.819325 0.629220 2.276014 0.013117 -0.004764 393648.000000 0 0 1
-28.007040 -19.112488 -29.622443 45.024111 0.598828 2.288855 0.008727 -0.008128 -215078.000000 0 0 1
-27.356400 -18.608888 -30.943893 45.301080 0.597340 2.322757 0.013388 -0.004758 354607.000000 0 0 1
-28.221040 -18.475088 -32.077313 46.547932 0.579642 2.331076 0.014219 -0.007571 255424.000000 0 0 1
-29.066970 -17.342688 -32.050183 46.614073 0.537950 2.328926 0.007379 -0.011838 -767586.000000 0 0 1
-29.497460 -16.965288 -33.479763 47.736942 0.521943 2.348070 0.011333 -0.017135 -71571.700000 0 0 1
-30.484340 -17.768688 -34.085997 49.059927 0.527736 2.338914 0.015225 -0.015306 647067.000000 0 0 1
-31.808050 -17.410888 -33.682483 49.491421 0.500825 2.319340 0.023069 -0.016722 -312945.000000 0 0 1
-32.917160 -17.816188 34.479118 50.889739 0.496095 0.826403 0.030138 -0.014466 -696904.000000 0 0 1
-33.129860 -19.226288 -34.440023 51.510707 0.525832 2.303120 0.014478 -0.016564 188945.000000 0 0 1
-33.860160 -19.687488 33.531475 51.560328 0.526657 0.862771 0.023930 -0.012597 -191505.000000 0 0 1
-34.396758 -21.104888 33.608619 52.517545 0.550339 0.876363 0.028055 -0.017045 -230835.000000 0 0 1
-33.465260 -22.153488 33.471388 52.259300 0.584754 0.875664 0.035387 -0.015507 -254169.000000 0 0 1
-33.725930 -23.260988 34.305409 53.435690 0.603784 0.873700 0.034375 -0.014336 -1052540.000000 0 0 1
-32.603240 -24.303288 34.421795 53.277397 0.640567 0.868351 0.030866 -0.008862 -182752.000000 0 0 1
-31.490220 -24.078088 -33.878843 52.145606 0.652793 2.277982 0.013431 -0.013206 -313627.000000 0 0 1
-30.652960 -23.000588 -34.184454 51.353752 0.643728 2.299182 0.015662 -0.012341 -862925.000000 0 0 1
-29.322180 -23.040788 -33.390213 50.055714 0.666010 2.301053 0.017923 -0.006108 -108542.000000 0 0 1
-28.405560 -24.013488 -33.919113 50.339146 0.701806 2.310152 0.022437 -0.002624 1024020.000000 0 0 1
-27.101840 -23.803288 -33.331973 49.113406 0.720691 2.316751 0.029024 -0.000273 660121.000000 0 0 1
-26.772460 -24.295188 -31.878013 48.199880 0.736927 2.293442 0.021544 0.007942 -1053400.000000 0 0 1
-26.869150 -25.728148 -31.684173 48.864871 0.763708 2.276282 0.028593 0.000750 227512.000000 0 0 1
-26.555110 -25.997148 -30.319223 47.961243 0.774781 2.255135 0.012748 0.000003 -160821.000000 0 0 1
-26.297500 -27.483718 -29.994363 48.441460 0.807451 2.238504 0.020887 -0.008522 -186531.000000 0 0 1
-27.444700 -28.283058 -29.850443 49.438769 0.800441 2.219039 0.016723 -0.000201 -60709.000000 0 0 1
-27.123600 -29.476598 -29.175553 49.555750 0.826946 2.200298 0.025929 -0.001658 107077.000000 0 0 1
-27.871100 -30.655198 -29.887803 51.086399 0.832932 2.195731 0.023208 0.000668 -89823.900000 0 0 1
-27.390580 -31.066998 -31.139923 51.817922 0.848206 2.215484 0.032068 -0.013622 28906.100000 0 0 1
-27.546150 -32.481998 -31.285793 52.845732 0.867439 2.204361 0.034844 -0.008415 -185933.000000 0 0 1
-27.300370 -33.029678 -32.675023 53.888096 0.880080 2.222258 0.035966 -0.020642 -277780.000000 0 0 1
-26.019680 -32.666448 -33.122913 53.303357 0.898177 2.241330 0.023026 -0.017707 -539414.000000 0 0 1
-25.704720 -33.466518 -34.283217 54.369839 0.915829 2.253065 0.030346 -0.022786 -168334.000000 0 0 1
-24.200040 -33.277168 34.536974 53.719777 0.942030 0.872505 0.020715 -0.019524 -32932.200000 0 0 1
-23.825140 -33.894178 33.312530 53.161802 0.958108 0.893581 0.016980 -0.016324 172502.000000 0 0 1
-23.031340 34.042902 33.543106 53.051878 -0.975990 0.886317 -0.003060 -0.006320 -660040.000000 0 0 1
-22.645040 33.202342 32.336994 51.583665 -0.972232 0.893249 -0.002046 -0.004807 -916951.000000 0 0 1
-23.708040 32.402263 32.005784 51.345380 -0.939124 0.897786 0.024575 -0.018157 -667199.000000 0 0 1
-23.456040 31.656283 30.838174 50.032979 -0.933106 0.906688 0.013498 -0.008257 148507.000000 0 0 1
-24.728340 30.987453 30.180484 49.825442 -0.897269 0.920120 0.021323 -0.006421 356109.000000 0 0 1
-25.262690 30.025853 31.067124 50.049191 -0.871337 0.901121 0.021259 -0.007425 -885291.000000 0 0 1
-26.450220 29.654083 30.481024 50.080651 -0.842442 0.916453 0.026042 -0.011274 -602013.000000 0 0 1
-27.175740 28.551083 31.342104 50.358839 -0.810073 0.899022 0.035686 -0.023751 -283926.000000 0 0 1
-26.408440 27.382393 31.273134 49.246422 -0.803502 0.882744 0.033313 -0.022796 -71425.200000 0 0 1
-26.990790 26.146593 31.620954 49.112440 -0.769512 0.871279 0.038393 -0.021180 -28350.600000 0 0 1
-28.007470 25.472143 30.671554 48.723636 -0.738026 0.889886 0.048699 -0.024839 160520.000000 0 0 1
-27.455220 25.004213 29.460564 47.401736 -0.738710 0.900130 0.040153 -0.028067 -288542.000000 0 0 1
-28.377140 24.342583 28.608074 47.077015 -0.709019 0.917652 0.043483 -0.022027 528390.000000 0 0 1
-27.596040 24.022843 27.286724 45.642126 -0.716286 0.929992 0.051642 -0.031211 194508.000000 0 0 1
-26.612920 23.031143 27.322574 44.555629 -0.713374 0.910661 0.046203 -0.035785 -313471.000000 0 0 1
-26.169250 22.530443 26.091344 43.280581 -0.710817 0.923738 0.028177 -0.019454 -244480.000000 0 0 1
-24.784540 21.894743 26.327364 42.270359 -0.723570 0.898438 0.023669 -0.029680 -678319.000000 0 0 1
-24.844140 20.731343 27.140634 42.233090 -0.695400 0.872859 0.043396 -0.043291 1231220.000000 0 0 1
-23.579740 20.051043 27.361364 41.312137 -0.704697 0.846901 0.029662 -0.030073 788468.000000 0 0 1
-23.741640 18.903043 28.374064 41.546095 -0.672418 0.818998 0.049007 -0.034862 -913172.000000 0 0 1
-22.534740 18.306643 28.686554 40.815022 -0.682241 0.791410 0.043670 -0.034950 -568113.000000 0 0 1
-22.731040 17.131143 29.395454 40.917832 -0.645830 0.769294 0.047285 -0.033633 -56796.500000 0 0 1
-21.470440 16.258543 29.625404 40.037290 -0.648127 0.737807 0.045341 -0.034769 529033.000000 0 0 1
-20.453040 16.830743 30.487934 40.387063 -0.688547 0.715305 0.063524 -0.035552 738966.000000 0 0 1
-19.289840 16.031743 30.261444 39.304830 -0.693417 0.692086 0.044878 -0.033725 616266.000000 0 0 1
-18.024740 16.479843 31.054334 39.507571 -0.740654 0.666428 0.034819 -0.032604 203094.000000 0 0 1
-18.090540 16.150743 32.414844 40.482542 -0.728808 0.642314 0.017382 -0.020251 1081190.000000 0 0 1
-16.930340 16.728543 33.078287 40.751118 -0.779403 0.623714 0.009002 -0.016167 22862.500000 0 0 1
-16.981840 16.602243 -34.503163 41.886580 -0.774096 2.538752 -0.001874 -0.015617 380557.000000 0 0 1
-18.078240 17.217543 -33.822313 42.038261 -0.761018 2.505731 0.012061 -0.012350 -111152.000000 0 0 1
-19.286940 16.567843 -34.005613 42.460113 -0.709707 2.499566 0.019338 -0.007526 -1409090.000000 0 0 1
-20.530640 17.092943 -33.298233 42.690142 -0.694280 2.465459 0.023498 -0.026515 -306782.000000 0 0 1
-20.429340 16.998343 -31.892963 41.514608 -0.693984 2.446875 0.010647 -0.018626 134129.000000 0 0 1
-21.441040 17.800943 -31.331413 41.931482 -0.692903 2.414643 0.007419 -0.017659 -515023.000000 0 0 1
-21.535040 17.675943 -29.780863 40.781083 -0.687295 2.389501 -0.002541 -0.008999 -188183.000000 0 0 1
-22.229640 16.538943 -29.254433 40.292870 -0.639653 2.383349 0.005992 -0.011802 560111.000000 0 0 1
-23.631740 16.519243 -29.529493 41.271485 -0.610073 2.368127 0.028249 -0.017857 85123.700000 0 0 1
-24.425740 15.638043 -28.569653 40.711058 -0.569475 2.348670 0.022039 -0.015367 -254231.000000 0 0 1
-24.258840 14.238643 -28.685263 40.175547 -0.530766 2.365988 -0.005595 -0.002889 284494.000000 0 0 1
-25.252750 13.513843 -27.941513 40.013166 -0.491366 2.343827 -0.016266 0.000759 263026.000000 0 0 1
-25.079980 11.968543 -28.010913 39.457099 -0.445254 2.360164 -0.013302 0.001077 514335.000000 0 0 1
-24.031740 11.371543 -27.224603 38.052799 -0.441969 2.368054 -0.017127 0.008184 232526.000000 0 0 1
-23.279940 10.451143 -27.974483 37.864940 -0.421967 2.402079 -0.025149 0.009056 325723.000000 0 0 1
-22.154440 9.732843 -27.149413 36.368091 -0.413935 2.413609 0.007994 -0.000237 483357.000000 0 0 1
-22.642840 8.685343 -26.312613 35.783893 -0.366272 2.396935 -0.002141 -0.007301 1113140.000000 0 0 1
-21.598740 8.455943 -25.312843 34.332908 -0.373159 2.399826 0.029748 0.003418 558703.000000 0 0 1
-22.008040 7.449343 -24.167133 33.524571 -0.326378 2.375865 0.034864 0.005252 101161.000000 0 0 1
-22.302740 6.179643 -24.729033 33.869238 -0.270299 2.389312 0.025895 -0.009249 199383.000000 0 0 1
-22.746940 5.240843 -23.773233 33.317508 -0.226446 2.365328 0.028379 -0.002112 -393475.000000 0 0 1
34.286027 24.727012 -10.790833 43.627960 0.624812 1.820728 -0.033618 0.001481 354735.000000 0 0 1
-35.177025 24.171512 -9.824833 43.797402 -0.602042 1.797046 -0.021355 -0.001090 285933.000000 0 0 1
-34.300718 23.218012 -10.430233 42.713055 -0.595051 1.817484 -0.005045 0.002927 -136464.000000 0 0 1
-33.408040 22.528912 -9.427833 41.382763 -0.593307 1.800635 -0.018357 0.006405 -651680.000000 0 0 1
-34.101176 21.642012 -8.552033 41.284430 -0.565502 1.779456 -0.001677 0.002008 200256.000000 0 0 1
-33.195820 21.317012 -7.531433 40.163416 -0.570844 1.759433 -0.005126 0.002453 -198393.000000 0 0 1
-33.848100 20.498412 -6.400933 40.085543 -0.544527 1.731165 -0.004065 -0.002236 -130326.000000 0 0 1
-34.152048 19.150412 -6.947433 39.766412 -0.511051 1.746404 -0.009095 -0.007958 468270.000000 0 0 1
-34.739684 18.325412 -5.955833 39.725789 -0.485410 1.721287 -0.019791 -0.020714 -355157.000000 0 0 1
34.866670 17.111312 -6.509333 39.380872 0.456232 1.736850 -0.014699 -0.006464 997210.000000 0 0 1
33.613337 17.501612 -7.137533 38.563029 0.480050 1.756957 0.007882 -0.018346 681316.000000 0 0 1
33.032737 16.480812 -7.844333 37.740064 0.462786 1.780174 0.023330 -0.009580 -293263.000000 0 0 1
31.790787 16.800312 -8.676333 36.988963 0.486159 1.807568 0.037249 -0.027834 -314894.000000 0 0 1
31.450967 15.791012 -9.621733 36.484204 0.465313 1.837676 0.038898 -0.030988 -292454.000000 0 0 1
30.558007 16.380112 -10.528433 36.234621 0.492057 1.865611 0.045261 -0.029146 -496663.000000 0 0 1
29.866687 15.314812 -11.441833 35.460936 0.473813 1.899335 0.037946 -0.017776 290744.000000 0 0 1
28.814817 14.571512 -10.793333 34.045832 0.468193 1.893386 0.032857 -0.013377 572571.000000 0 0 1
29.170907 13.798112 -9.649633 33.681525 0.441823 1.861364 0.032781 -0.017804 -948691.000000 0 0 1
28.148787 12.695012 -9.385533 32.273918 0.423683 1.865868 0.023552 -0.013723 -205177.000000 0 0 1
28.321187 11.677812 -10.318633 32.325456 0.391094 1.895693 0.026274 -0.012278 720143.000000 0 0 1
27.288157 10.688412 -10.171233 31.021600 0.373319 1.904851 0.014131 -0.003898 13257.400000 0 0 1
27.716917 9.308112 -10.633933 31.111878 0.323994 1.919624 0.006002 0.000632 955430.000000 0 0 1
28.865817 8.853912 -9.824033 31.751201 0.297616 1.885365 0.008516 0.000117 1666910.000000 0 0 1
28.868477 7.448712 -9.709633 31.355211 0.252515 1.885638 0.013131 0.000122 -756448.000000 0 0 1
29.825037 6.978712 -8.636133 31.824802 0.229853 1.845607 0.024629 -0.004811 -560300.000000 0 0 1
31.135857 7.212312 -9.066233 33.221313 0.227626 1.847207 0.023444 -0.005374 -370436.000000 0 0 1
32.145967 6.696912 -8.213833 33.847879 0.205390 1.815913 0.025657 -0.009593 134595.000000 0 0 1
33.537097 7.045512 -8.779833 35.376003 0.207070 1.821604 0.025410 -0.008042 -147867.000000 0 0 1
33.835567 6.281912 -9.951733 35.823805 0.183570 1.852296 0.021915 -0.005153 86411.100000 0 0 1
-35.143200 6.309012 -10.218433 37.138451 -0.177631 1.849536 0.025721 -0.010233 -1108720.000000 0 0 1
-34.705585 5.558712 -11.487733 36.977627 -0.158819 1.886691 0.032170 -0.015162 1092270.000000 0 0 1
-33.285960 5.649012 -11.770133 35.754755 -0.168110 1.906243 0.030598 -0.017969 1705440.000000 0 0 1
-32.750800 6.865312 -12.318533 35.658010 -0.206631 1.923529 0.009759 -0.011539 -319116.000000 0 0 1
-32.184440 7.876612 -11.314133 35.012695 -0.240016 1.899846 0.008862 -0.007622 -677405.000000 0 0 1
-33.163930 8.571612 -10.558333 35.844068 -0.252927 1.869794 0.020376 -0.012830 205382.000000 0 0 1
-33.559460 9.821312 -11.122733 36.693470 -0.284704 1.878767 0.019814 -0.012769 -20161.600000 0 0 1
-34.137014 10.791612 -10.124933 37.206302 -0.306185 1.846402 0.032096 -0.008589 127208.000000 0 0 1
-33.193750 11.298212 -9.177733 36.245074 -0.328072 1.826797 0.022525 -0.007475 430046.000000 0 0 1
-33.835760 12.158812 -8.228533 36.883657 -0.344978 1.795784 0.034680 -0.009435 71594.600000 0 0 1
-32.800850 13.013012 -7.425033 36.060579 -0.377682 1.778184 0.048160 -0.006849 165517.000000 0 0 1
-32.193350 14.051512 -8.168733 36.063624 -0.411548 1.799288 0.024932 -0.013948 -60683.800000 0 0 1
-31.298160 14.761012 -7.322333 35.370593 -0.440691 1.779322 0.012616 -0.009339 76009.300000 0 0 1
-30.606020 15.941612 -8.100233 35.446823 -0.480200 1.801351 0.000441 -0.005349 56746.000000 0 0 1
-31.485300 16.839412 -8.767233 36.766211 -0.491125 1.811575 0.002176 -0.005143 129063.000000 0 0 1
-30.804090 18.029012 -9.177033 36.853157 -0.529526 1.822461 -0.003500 0.003589 390546.000000 0 0 1
-31.712380 18.849712 -10.129933 38.257055 -0.536289 1.838778 -0.019870 0.002895 447499.000000 0 0 1
-31.350520 18.716412 -11.503833 38.281815 -0.538214 1.876017 -0.029927 0.007674 -189002.000000 0 0 1
-32.359270 19.314512 -12.273033 39.633320 -0.538120 1.885637 -0.027153 0.001984 -239543.000000 0 0 1
-32.104440 19.258312 -13.775533 39.891640 -0.540320 1.923380 -0.042606 0.017404 -108589.000000 0 0 1
-31.196950 20.285912 -14.076433 39.785850 -0.576553 1.932432 -0.044840 0.017853 -20598.600000 0 0 1
-30.966360 20.391112 -15.464633 40.172973 -0.582322 1.965951 -0.044748 0.018174 -205555.000000 0 0 1
-30.139240 21.651112 -15.860033 40.356971 -0.622948 1.974681 -0.028769 0.012224 -864452.000000 0 0 1
-28.826270 21.677012 -15.424633 39.227108 -0.644772 1.974920 -0.038326 0.014984 -557211.000000 0 0 1
-28.266530 22.983112 -15.293233 39.510798 -0.682669 1.968242 -0.028982 0.009933 -52768.700000 0 0 1
-27.546610 23.501112 -16.532833 39.805183 -0.706314 1.999117 -0.030275 0.001551 -1082890.000000 0 0 1
-28.391370 24.312612 -17.300233 41.188239 -0.708162 2.004273 -0.014852 0.011041 86892.200000 0 0 1
-27.810320 24.795512 -18.532933 41.613711 -0.728151 2.032369 -0.015907 0.014647 574880.000000 0 0 1
-26.883870 26.086312 -18.347233 41.711618 -0.770343 2.026238 -0.002569 0.016427 673659.000000 0 0 1
-27.640430 27.175812 -17.877233 42.686223 -0.776922 2.002926 0.002718 0.025827 125359.000000 0 0 1
-26.845530 28.351912 -17.770733 42.898862 -0.812682 1.997912 0.001264 0.018332 -422184.000000 0 0 1
-27.550570 29.574712 -17.242633 43.943212 -0.820817 1.974019 -0.006364 0.017482 -633967.000000 0 0 1
-27.810030 29.764012 -15.855233 43.711356 -0.819324 1.941987 -0.008685 0.013603 -448333.000000 0 0 1
-26.790180 29.782412 -14.941333 42.754523 -0.838241 1.927799 -0.004831 0.013897 -877890.000000 0 0 1
-27.377660 30.465212 -13.666033 43.178998 -0.838726 1.892831 0.000048 0.004969 91971.600000 0 0 1
-27.442710 31.896912 -13.804533 44.284088 -0.860321 1.887806 0.008115 0.001179 201699.000000 0 0 1
-27.882650 32.556612 -12.608333 44.680479 -0.862578 1.856871 0.001729 -0.007033 158870.000000 0 0 1
-27.242140 33.982212 -12.405633 45.286032 -0.895045 1.848283 -0.013935 -0.002730 4406.470000 0 0 1
-27.561630 -34.209318 -13.404633 45.930438 0.892604 1.866953 -0.018838 -0.010657 -8652.040000 0 0 1
-26.667770 -33.092118 -13.500633 44.592885 0.892490 1.878376 -0.005169 -0.006127 37140.900000 0 0 1
-26.953160 -32.147218 -14.673733 44.443615 0.873058 1.907275 -0.017036 0.004031 -295849.000000 0 0 1
-26.578390 -32.738718 -15.913033 45.071711 0.888881 1.931636 -0.005711 -0.000932 -16501.100000 0 0 1
-27.069560 -31.922318 -16.945133 45.154546 0.867475 1.955484 0.006577 0.007733 133010.000000 0 0 1
-26.371420 -32.198018 -18.320933 45.473297 0.884554 1.985473 -0.008736 0.009267 -100141.000000 0 0 1
-26.587040 -33.536218 -18.798933 46.743433 0.900470 1.984685 -0.011082 0.010898 -549488.000000 0 0 1
-25.577510 -34.438618 -18.503533 46.718392 0.931985 1.978024 -0.007177 0.011845 -1164080.000000 0 0 1
-25.535350 33.363012 -19.295233 46.232572 -0.917525 2.001325 0.000400 0.004681 595021.000000 0 0 1
-26.731850 32.567612 -19.224433 46.312201 -0.883494 1.998855 -0.000946 0.001992 708348.000000 0 0 1
-27.721970 33.021012 -20.143333 47.588326 -0.872415 2.007862 -0.015934 0.010954 232716.000000 0 0 1
-29.165800 32.458212 -19.998833 48.001383 -0.838775 2.000532 -0.015031 0.006355 448577.000000 0 0 1
-29.413610 31.216812 -20.641233 47.599478 -0.815130 2.019329 -0.004581 0.010146 -293641.000000 0 0 1
-30.792250 30.989812 -20.659333 48.325347 -0.788596 2.012528 0.008989 0.010769 -463971.000000 0 0 1
-31.121670 29.750212 -21.489033 48.118728 -0.762872 2.033740 0.023797 0.009521 -296900.000000 0 0 1
-32.471600 29.388912 -21.639533 48.850613 -0.735606 2.029709 0.027177 0.008153 -103359.000000 0 0 1
-32.624230 28.237712 -22.449633 48.638409 -0.713449 2.050551 0.026540 0.009520 -633435.000000 0 0 1
-34.033430 27.700612 -22.621033 49.369114 -0.683173 2.046768 0.024390 0.002679 -677510.000000 0 0 1
-34.942734 28.432412 -23.411233 50.768913 -0.683031 2.050068 0.019787 0.010569 -391156.000000 0 0 1
34.564394 27.463612 -23.921033 50.211185 0.671417 2.067362 0.020515 0.006746 -395906.000000 0 0 1
33.675817 27.933412 -25.123293 50.453107 0.692460 2.092033 0.021469 0.000121 208892.000000 0 0 1
34.435170 28.239712 -26.249693 51.694377 0.686868 2.103409 0.036021 -0.010764 -284012.000000 0 0 1
33.590337 28.246512 -27.380703 51.728900 0.699194 2.128585 0.039772 -0.004716 -14916.500000 0 0 1
34.362218 28.295512 -28.704213 52.965365 0.688876 2.143544 0.042853 -0.011948 -108623.000000 0 0 1
34.861752 26.999212 -29.016523 52.785015 0.658976 2.152815 0.033837 -0.005109 188211.000000 0 0 1
-34.825334 27.095312 -30.299893 53.526100 -0.661203 2.172535 0.019759 -0.002906 -589295.000000 0 0 1
-34.327417 25.740812 -30.838583 52.839182 -0.643413 2.193989 0.018055 -0.000524 569994.000000 0 0 1
-33.228040 25.182312 -30.113723 51.430417 -0.648515 2.196322 0.033486 -0.003222 -50812.800000 0 0 1
-31.972720 25.698312 -30.482033 51.105894 -0.677028 2.209865 0.025358 -0.000106 -583947.000000 0 0 1
-30.868410 25.252212 -29.509953 49.612199 -0.685657 2.207829 0.023735 -0.005513 -423395.000000 0 0 1
-30.430670 23.899012 -29.788513 48.831793 -0.665750 2.226886 0.051379 -0.016064 12790.600000 0 0 1
-31.216270 22.874812 -29.231163 48.499211 -0.632392 2.217695 0.046275 -0.015593 -309395.000000 0 0 1
-30.892630 21.437812 -29.827053 47.995703 -0.606651 2.241392 0.037790 -0.016976 -1419750.000000 0 0 1
-29.599440 20.981512 -29.781863 46.939430 -0.616640 2.258125 0.045359 -0.010375 -1062330.000000 0 0 1
-29.471720 19.615612 -30.118173 46.480736 -0.587246 2.275714 0.035325 -0.016379 288636.000000 0 0 1
-28.014800 19.160612 -30.427283 45.582646 -0.599870 2.301668 0.042957 -0.022164 70317.700000 0 0 1
-27.592960 19.571712 -31.691833 46.355104 -0.616941 2.323583 0.058644 -0.025650 -194125.000000 0 0 1
-26.255500 19.300312 -32.015163 45.681769 -0.633894 2.347357 0.052790 -0.022883 -65802.300000 0 0 1
-25.919990 17.868712 -32.592283 45.314387 -0.603563 2.373516 0.054831 -0.022202 -199271.000000 0 0 1
-26.271260 16.878712 -31.612533 44.434472 -0.571069 2.362344 0.035498 -0.017184 137409.000000 0 0 1
-26.080420 15.637712 -32.187483 44.280474 -0.540122 2.384594 0.018315 -0.009003 -225408.000000 0 0 1
-26.642300 14.360912 -31.473093 43.664671 -0.494379 2.375739 0.008927 -0.006127 -396024.000000 0 0 1
-28.043320 14.410212 -31.502853 44.570301 -0.474670 2.355779 0.016460 -0.007021 -16945.800000 0 0 1
-28.828420 13.251912 -31.230083 44.519760 -0.430876 2.348280 0.009395 -0.004017 195881.000000 0 0 1
-28.630280 12.372312 -29.941873 43.235203 -0.407903 2.335793 -0.013709 -0.007709 -556195.000000 0 0 1
-29.063280 13.053412 -28.794923 42.944306 -0.422137 2.305703 -0.016146 -0.007907 318107.000000 0 0 1
-29.202410 12.135212 -27.696333 42.037257 -0.393844 2.290088 -0.012162 -0.000060 -48599.300000 0 0 1
-29.132550 12.788512 -26.346693 41.308592 -0.413649 2.262437 -0.019800 0.005978 92685.600000 0 0 1
-27.817390 13.081112 -25.930153 40.215613 -0.439565 2.271529 -0.024679 0.004517 5611.940000 0 0 1
-27.863720 13.749312 -24.710633 39.699444 -0.458393 2.242656 -0.031584 0.010721 -587758.000000 0 0 1
-26.462650 13.885812 -24.120733 38.404393 -0.483237 2.249870 -0.029344 0.020562 -1275060.000000 0 0 1
-25.700620 14.834012 -24.855933 38.709007 -0.523475 2.268060 -0.019951 0.014277 153301.000000 0 0 1
-24.318640 14.802012 -24.540833 37.586544 -0.546770 2.282223 -0.025891 0.014084 315639.000000 0 0 1
-23.972440 15.301112 -23.108533 36.644320 -0.568092 2.253144 -0.030228 0.021406 -1449120.000000 0 0 1
-23.866640 16.726212 -23.127933 37.205967 -0.611276 2.241604 -0.014133 0.008094 -19857.300000 0 0 1
-23.925140 17.238412 -21.798633 36.670909 -0.624362 2.207365 -0.020048 0.017375 186602.000000 0 0 1
-25.324600 17.388812 -21.120433 37.279738 -0.601701 2.173096 -0.026921 0.016951 85601.000000 0 0 1
-26.207070 16.297912 -21.177333 37.428758 -0.556360 2.172204 -0.020916 0.020503 31216.500000 0 0 1
-27.442930 16.717812 -20.620733 38.181334 -0.547146 2.141321 -0.020819 0.029218 -1323360.000000 0 0 1
-28.553420 15.712212 -20.785533 38.655010 -0.503054 2.138526 -0.036116 0.022562 -594821.000000 0 0 1
-29.079040 15.363112 -22.056433 39.599268 -0.486048 2.161555 -0.033650 0.019668 208399.000000 0 0 1
-29.755000 16.483412 -22.581033 40.828494 -0.505887 2.156841 -0.031493 0.011319 -843093.000000 0 0 1
-30.228940 16.287412 -24.073233 41.935536 -0.494205 2.182244 -0.022769 0.006477 -148021.000000 0 0 1
-31.463010 15.621612 -24.250133 42.685181 -0.460849 2.175011 -0.010957 0.007759 -114532.000000 0 0 1
-31.996030 15.926412 -25.519463 43.916279 -0.461856 2.190868 0.013255 -0.009671 184761.000000 0 0 1
-33.264320 15.102012 -25.902503 44.783093 -0.426176 2.187561 0.007246 -0.000200 226712.000000 0 0 1
-33.116460 13.696312 -25.955533 44.249052 -0.392158 2.197624 0.000858 -0.001615 37477.800000 0 0 1
-33.093230 12.911712 -24.712433 43.273300 -0.371996 2.178615 -0.017410 0.005392 -278704.000000 0 0 1
-33.011760 11.368312 -24.994233 42.938636 -0.331652 2.192095 -0.007518 -0.005874 2379.350000 0 0 1
-34.150774 10.772312 -25.594083 44.015624 -0.305556 2.191340 0.010361 -0.009936 92553.200000 0 0 1
-33.922940 9.412312 -25.787843 43.639092 -0.270653 2.203013 -0.001449 -0.001178 -394332.000000 0 0 1
-35.098191 8.755712 -26.498333 44.840909 -0.244474 2.203021 0.009840 0.002226 -965626.000000 0 0 1
34.190167 8.524212 -25.655293 43.586968 0.244336 2.200122 0.004183 0.010981 -992707.000000 0 0 1
33.278297 7.774312 -26.426323 43.199948 0.229499 2.229031 0.006017 0.015378 -327633.000000 0 0 1
32.453687 6.815512 -25.557393 41.867330 0.206999 2.227409 0.016613 0.005462 163909.000000 0 0 1
33.235287 5.775812 -24.946233 41.955439 0.172067 2.207550 0.008591 0.001142 28993.600000 0 0 1
32.411587 4.871712 -24.234733 40.762321 0.149191 2.207487 0.018702 0.005448 -157911.000000 0 0 1
33.129217 3.808612 -23.423533 40.751840 0.114460 2.183137 0.013142 0.004882 -402600.000000 0 0 1
33.889357 2.899112 -24.153633 41.716799 0.085339 2.188286 0.010079 0.002445 184265.000000 0 0 1
34.659889 2.042112 -23.279833 41.802258 0.058851 2.161450 0.015448 0.001382 600648.000000 0 0 1
-35.033312 0.879612 -24.084133 42.522372 -0.025103 2.172912 0.030423 0.000679 87694.000000 0 0 1
34.394918 -0.147488 -24.289033 42.106879 -0.004288 2.185654 0.009941 -0.002365 -79458.100000 0 0 1
34.975635 -1.398488 -24.585333 42.774869 -0.039963 2.183109 0.018127 -0.004794 30354.800000 0 0 1
-22.156340 29.750012 27.535594 46.197138 -0.930663 0.932229 0.014957 -0.007345 -160402.000000 0 0 1
-23.288240 30.107412 26.737014 46.515227 -0.912421 0.958435 0.006219 -0.007362 888113.000000 0 0 1
-23.536740 29.374412 25.508904 45.470192 -0.895283 0.975200 0.001547 0.009283 -230332.000000 0 0 1
-23.922640 27.854612 25.653324 44.791351 -0.861193 0.960965 0.004114 -0.004978 -829608.000000 0 0 1
-25.171750 27.522412 26.169944 45.562771 -0.829978 0.958961 0.007256 -0.010190 -376467.000000 0 0 1
-25.326460 27.575112 27.568474 46.495560 -0.827879 0.936107 0.019932 -0.011064 -988817.000000 0 0 1
-24.849840 26.252512 28.328484 45.926158 -0.812840 0.906092 0.026545 -0.010993 699170.000000 0 0 1
-23.441640 26.044312 28.554014 45.201199 -0.837944 0.887040 0.015054 -0.005067 737400.000000 0 0 1
-22.991540 26.861612 29.609054 46.117819 -0.862872 0.873652 0.009661 -0.012167 -221244.000000 0 0 1
-21.576940 26.523012 30.126784 45.570359 -0.887867 0.848506 0.013718 -0.007589 85261.600000 0 0 1
-20.489840 26.848012 29.241314 44.673300 -0.918914 0.857197 0.013308 -0.008877 1210690.000000 0 0 1
-19.233840 26.831512 29.944554 44.570696 -0.948859 0.834101 0.021548 -0.010864 526474.000000 0 0 1
-18.495040 25.526412 30.123644 43.601584 -0.943786 0.808085 0.021154 0.004475 -720592.000000 0 0 1
-17.931940 25.042312 28.891584 42.230267 -0.949369 0.817367 0.023123 0.000472 156732.000000 0 0 1
-18.825240 24.342312 28.006014 41.608589 -0.912515 0.832427 0.023334 -0.006524 -128317.000000 0 0 1
-18.784040 22.808912 28.085494 40.766182 -0.881866 0.810769 0.024371 0.000695 -157764.000000 0 0 1
-19.349440 22.239712 29.225114 41.510395 -0.854782 0.789721 0.027536 -0.010886 -99905.300000 0 0 1
-19.406840 20.830112 28.999894 40.638810 -0.820756 0.776171 0.038497 -0.017201 132057.000000 0 0 1
-19.921040 20.085512 30.211084 41.388226 -0.789509 0.752556 0.049290 -0.021032 307328.000000 0 0 1
-18.956640 20.225212 31.250244 41.773091 -0.817763 0.725610 0.035230 -0.017354 380088.000000 0 0 1
-19.452640 19.756312 32.488654 42.711002 -0.793143 0.706463 0.033829 -0.017089 78764.600000 0 0 1
-18.557440 20.290612 33.633587 43.443132 -0.829983 0.685349 0.030563 -0.012679 -25596.800000 0 0 1
-18.491740 21.746512 33.889374 44.309648 -0.866110 0.700018 0.018533 -0.015072 18823.700000 0 0 1
-17.691840 22.524512 33.017954 43.709726 -0.904992 0.714545 0.031128 -0.009988 376006.000000 0 0 1
-16.170640 22.642212 33.341446 43.425930 -0.950616 0.695431 0.018526 0.002383 445711.000000 0 0 1
-15.439340 21.462612 33.228921 42.463845 -0.947195 0.672089 0.012435 -0.015239 -208658.000000 0 0 1
-14.237740 21.572612 33.990037 42.701446 -0.987429 0.650151 -0.015376 -0.002818 -178374.000000 0 0 1
-13.423840 20.255512 33.897074 41.707276 -0.985527 0.621961 -0.025010 -0.002625 368125.000000 0 0 1
-12.041240 20.329112 34.226944 41.590239 -1.036047 0.604201 -0.037198 -0.007530 368725.000000 0 0 1
-11.879040 20.316612 -33.472383 40.917927 -1.041706 2.528786 -0.027976 -0.007026 -567762.000000 0 0 1
-10.396540 20.189812 -33.107893 40.147841 -1.095268 2.540378 -0.027537 -0.009411 -213331.000000 0 0 1
-9.643440 21.358212 -33.242133 40.671963 -1.146688 2.527546 -0.015353 -0.011209 -1368410.000000 0 0 1
-8.306340 21.102312 -33.034193 40.069449 -1.195800 2.539979 -0.011153 -0.005152 -998601.000000 0 0 1
-7.458140 22.396112 -32.999913 40.573439 -1.249336 2.520663 -0.019185 -0.009235 -223656.000000 0 0 1
-7.697340 23.392512 -31.986813 40.368489 -1.252904 2.485482 -0.011828 -0.009059 28605.200000 0 0 1
-7.572740 22.983012 -30.659603 39.058629 -1.252506 2.473434 -0.008497 -0.013542 -178831.000000 0 0 1
-7.338440 24.217512 -29.715383 39.030047 -1.276569 2.436183 -0.011505 -0.011830 -198409.000000 0 0 1
-6.192740 24.957912 -30.039803 39.542852 -1.327581 2.433613 -0.017432 -0.002614 -134472.000000 0 0 1
-5.987540 26.009712 -29.162763 39.532550 -1.344534 2.400439 -0.013553 0.001565 167400.000000 0 0 1
-4.659340 26.774212 -29.456353 40.077982 -1.398498 2.396428 -0.011683 0.002490 240494.000000 0 0 1
-3.522740 26.016312 -28.971403 39.097319 -1.436210 2.405366 -0.008343 0.012951 925008.000000 0 0 1
-2.289040 26.445812 -29.541813 39.715732 -1.484456 2.409581 -0.005070 0.007680 326838.000000 0 0 1
-1.734940 27.835512 -29.223623 40.396112 -1.508549 2.379549 -0.003569 0.001482 -863679.000000 0 0 1
-1.224140 27.919512 -27.874163 39.471086 -1.526979 2.354902 0.005246 -0.006852 447268.000000 0 0 1
-0.644340 29.207612 -27.686993 40.250085 -1.548739 2.329352 0.000424 0.001320 -953205.000000 0 0 1
-0.215040 29.455212 -26.206063 39.426051 -1.563496 2.297874 0.019883 -0.017136 607026.000000 0 0 1
0.940160 28.709212 -25.822803 38.625379 1.538060 2.303047 0.043816 -0.027815 430898.000000 0 0 1
2.167560 29.105212 -26.376743 39.338839 1.496460 2.305681 0.044133 -0.028745 127226.000000 0 0 1
3.447460 29.080512 -25.445133 38.794535 1.452798 2.286164 0.043495 -0.029229 873364.000000 0 0 1
3.783260 27.775512 -24.995633 37.557606 1.435421 2.298997 0.051995 -0.030691 -774866.000000 0 0 1
4.922260 27.791412 -24.242633 37.206135 1.395500 2.280457 0.046737 -0.021594 -886634.000000 0 0 1
5.540060 26.452012 -23.765733 35.989044 1.364342 2.292095 0.039846 -0.018836 -143868.000000 0 0 1
6.837460 26.709312 -23.288633 36.090146 1.320183 2.272200 0.025534 -0.017507 -12194.500000 0 0 1
7.659960 25.509912 -23.217233 35.333702 1.279088 2.287741 0.017366 0.000236 -339599.000000 0 0 1
9.084060 25.759012 -22.826933 35.596569 1.231758 2.266946 0.010995 0.014114 -1833200.000000 0 0 1
9.114460 26.375912 -21.569733 35.270604 1.238082 2.228814 0.015553 0.017551 513906.000000 0 0 1
10.422660 26.812512 -21.184433 35.725661 1.200049 2.205545 0.013885 0.020241 712660.000000 0 0 1
11.387560 25.706512 -20.687233 34.906488 1.153793 2.205138 0.008392 0.022274 -292176.000000 0 0 1
11.689960 24.704212 -21.631633 34.855140 1.128820 2.240323 0.004508 0.015883 -238390.000000 0 0 1
11.645460 23.385312 -21.052233 33.551245 1.108765 2.249090 -0.005178 0.027832 -313956.000000 0 0 1
11.778560 22.210712 -22.132233 33.494566 1.083196 2.292642 -0.007971 0.014238 410615.000000 0 0 1
10.680460 22.134612 -23.053033 33.696522 1.121228 2.324216 -0.003993 0.002821 620429.000000 0 0 1
11.003860 21.230812 -24.124033 33.967650 1.092619 2.360587 -0.010404 -0.001672 -128736.000000 0 0 1
10.092160 21.342912 -25.331943 34.627719 1.129097 2.391390 0.012393 -0.005662 1368260.000000 0 0 1
8.705960 20.941012 -25.106713 33.832924 1.176797 2.406963 0.008092 -0.005038 1087710.000000 0 0 1
7.966060 20.986712 -26.311243 34.585860 1.208020 2.435266 0.002275 -0.005873 263000.000000 0 0 1
6.574860 20.323812 -25.993973 33.644803 1.257917 2.453722 -0.000053 -0.010051 448049.000000 0 0 1
5.569860 21.109712 -25.374873 33.474281 1.312823 2.431100 0.021496 -0.004624 -64195.800000 0 0 1
5.802060 21.730112 -24.154433 33.004519 1.309878 2.391832 0.019606 -0.001686 -456035.000000 0 0 1
4.530760 22.345612 -23.474033 32.724370 1.370750 2.370753 0.035283 -0.007002 470620.000000 0 0 1
4.046460 23.543312 -24.079733 33.918946 1.400586 2.360181 0.033661 -0.014605 -432699.000000 0 0 1
2.737860 23.713212 -23.601633 33.568577 1.455848 2.350526 0.059168 -0.015296 -541629.000000 0 0 1
2.149560 24.849912 -24.422733 34.908575 1.484509 2.345662 0.052855 -0.013532 -1633230.000000 0 0 1
0.774960 24.856812 -24.411333 34.847882 1.539629 2.346910 0.056612 -0.029142 -1078260.000000 0 0 1
0.364760 25.426412 -25.641323 36.112504 1.556452 2.360351 0.033824 -0.016466 -226610.000000 0 0 1
-1.054140 25.099112 -26.115583 36.236726 -1.528822 2.375599 0.030539 -0.016163 -231371.000000 0 0 1
-1.230340 23.825812 -26.593003 35.726333 -1.519203 2.410362 0.035947 -0.025516 99817.300000 0 0 1
-2.570040 23.679012 -27.050563 36.042110 -1.462683 2.419655 0.034159 -0.013668 250939.000000 0 0 1
-3.000440 22.331312 -27.599613 35.629044 -1.437236 2.456939 0.032586 -0.016157 -879434.000000 0 0 1
-2.389240 22.028412 -28.831273 36.362092 -1.462757 2.486339 0.030733 -0.020434 -250992.000000 0 0 1
-2.718640 20.753712 -29.363483 36.059974 -1.440543 2.522311 0.020669 -0.019703 -317745.000000 0 0 1
-4.046240 20.680012 -30.160473 36.792514 -1.377578 2.531762 0.015182 -0.018002 -72067.500000 0 0 1
-4.137040 21.229812 -31.460593 38.178383 -1.378339 2.539306 0.011681 -0.012179 -101607.000000 0 0 1
-3.792840 22.599212 -31.605403 39.038590 -1.404515 2.514256 0.019277 -0.014466 -374498.000000 0 0 1
-3.477440 22.833012 -33.097053 40.359063 -1.419659 2.532321 0.006695 -0.006891 -376729.000000 0 0 1
-2.394340 22.027112 -33.453993 40.126004 -1.462522 2.556613 -0.001896 -0.009128 -246875.000000 0 0 1
-2.030840 22.262112 34.315183 40.954337 -1.479824 0.577392 -0.002762 0.002214 -133907.000000 0 0 1
-0.811540 21.421012 33.878768 40.091012 -1.532929 0.564144 0.002379 0.011085 -23201.600000 0 0 1
-1.078240 20.097712 33.569018 39.140255 -1.517198 0.540095 -0.004776 0.014303 -241534.000000 0 0 1
0.014560 19.553712 32.894414 38.267353 1.570052 0.536320 0.005684 0.008003 -323948.000000 0 0 1
-0.314940 18.137012 32.406134 37.137689 -1.553434 0.510308 0.009880 0.014741 39846.100000 0 0 1
-1.154240 18.099712 31.276624 36.154655 -1.507111 0.525489 0.001152 0.012130 91378.200000 0 0 1
-1.357440 16.761412 30.899864 35.179386 -1.489987 0.498394 0.003669 0.008205 89165.800000 0 0 1
-2.361040 16.481812 29.726904 34.072180 -1.428513 0.510565 -0.002106 0.014173 42149.600000 0 0 1
-3.734140 16.695312 29.923974 34.469138 -1.350754 0.519358 -0.013067 0.012995 -115734.000000 0 0 1
-4.035440 17.948312 29.372754 34.658121 -1.349637 0.559539 -0.017506 0.018829 -626106.000000 0 0 1
-5.529140 18.244912 29.482874 35.109658 -1.276543 0.573998 -0.023907 0.013272 -49676.900000 0 0 1
-6.412740 17.541012 28.623954 34.178079 -1.220305 0.578114 -0.038105 0.012667 -204340.000000 0 0 1
-7.752440 17.899412 28.875804 34.846827 -1.162075 0.594106 -0.054135 0.019052 -543872.000000 0 0 1
-8.707540 17.028312 28.056524 33.955165 -1.098105 0.598323 -0.050344 0.008520 -430174.000000 0 0 1
-9.069240 15.709612 28.449334 33.740297 -1.047231 0.567615 -0.041660 -0.001429 -42438.300000 0 0 1
-9.707140 15.621012 29.708064 34.940144 -1.014779 0.554325 -0.047744 -0.001343 -519721.000000 0 0 1
-10.296440 14.215812 30.013154 34.769173 -0.943950 0.529199 -0.041531 -0.009590 260130.000000 0 0 1
-9.336340 13.180212 30.246424 34.288940 -0.954481 0.490485 -0.019618 -0.010236 224302.000000 0 0 1
-8.423740 13.292212 31.310084 35.042312 -1.005940 0.465731 -0.021399 -0.002359 -209515.000000 0 0 1
-9.064540 13.087112 32.716954 36.384577 -0.965033 0.452862 0.004170 -0.014573 -451874.000000 0 0 1
-9.493640 11.780612 32.970844 36.276557 -0.892486 0.430218 0.011289 -0.010466 191678.000000 0 0 1
-9.815440 11.590112 34.278038 37.492098 -0.868116 0.417085 0.001405 -0.001716 -527217.000000 0 0 1
-10.243940 10.166012 -34.488423 37.386327 -0.781580 2.745272 0.008788 0.001111 95425.000000 0 0 1
-9.170340 9.206312 -34.457050 36.825801 -0.787356 2.780969 0.015147 -0.003285 605635.000000 0 0 1
-8.960340 8.532612 -33.196913 35.427788 -0.760952 2.784824 0.030381 -0.010298 145579.000000 0 0 1
-7.946440 9.244112 -32.255743 34.482350 -0.860743 2.780263 0.026149 -0.012145 303554.000000 0 0 1
-8.613740 10.303412 -31.542913 34.282826 -0.874481 2.739079 0.022314 -0.004188 790828.000000 0 0 1
-7.687240 11.029512 -30.712223 33.525877 -0.962107 2.728977 0.031038 -0.007020 40625.200000 0 0 1
-6.965740 12.115912 -31.522993 34.482110 -1.049018 2.724286 0.016186 -0.002822 -499867.000000 0 0 1
-7.801440 13.123312 -32.047923 35.498636 -1.034452 2.697017 0.012465 -0.003104 -88627.000000 0 0 1
-7.025940 14.194812 -32.541503 36.191241 -1.111185 2.688629 -0.000076 -0.004483 -29006.200000 0 0 1
-7.754940 15.549812 -32.855913 37.167819 -1.108176 2.655122 -0.001163 -0.004588 -292521.000000 0 0 1
-8.434140 15.604812 -34.074361 38.414931 -1.075289 2.661622 0.002911 -0.003584 -10523.300000 0 0 1
-8.978440 16.903412 -34.322472 39.298471 -1.082531 2.632895 0.013312 -0.003806 -361855.000000 0 0 1
-9.393740 17.081612 33.285784 38.574178 -1.068005 0.529810 -0.028272 -0.000751 1090430.000000 0 0 1
-10.503140 16.360212 32.679504 38.025287 -1.000071 0.536672 -0.040438 0.002623 2312960.000000 0 0 1
-11.815140 16.754712 33.193755 39.014655 -0.956600 0.553286 -0.026847 -0.004635 1637690.000000 0 0 1
-13.079440 16.404212 32.312324 38.526046 -0.897690 0.575879 -0.025146 -0.018875 515804.000000 0 0 1
-13.145840 15.036212 31.925304 37.658011 -0.852375 0.559031 -0.031080 -0.012001 195200.000000 0 0 1
-13.571440 14.119812 32.911574 38.297843 -0.805199 0.536783 -0.023364 -0.012220 -236418.000000 0 0 1
-12.955240 12.750112 32.697994 37.410726 -0.777418 0.507366 -0.031248 -0.000752 -178705.000000 0 0 1
-13.384640 12.221012 31.488344 36.332045 -0.739985 0.522283 -0.045569 -0.005747 187304.000000 0 0 1
-12.513940 11.143312 31.172614 35.390733 -0.727526 0.493220 -0.027860 -0.015227 204963.000000 0 0 1
-12.782840 10.599712 29.769774 34.088038 -0.692302 0.508819 -0.018818 -0.013319 -446110.000000 0 0 1
-13.998040 9.923512 29.700144 34.300434 -0.616689 0.523885 -0.023167 0.001757 -324591.000000 0 0 1
-14.283640 9.461112 28.393174 33.161836 -0.585025 0.542927 -0.016000 0.007004 279673.000000 0 0 1
-15.219740 8.230912 28.415384 33.268941 -0.495756 0.546956 -0.018737 0.011552 159060.000000 0 0 1
-14.488440 7.098312 28.869834 33.072167 -0.455559 0.509611 -0.016204 0.015668 450595.000000 0 0 1
-15.080840 5.946112 28.289434 32.604908 -0.375568 0.520354 -0.024699 0.021249 546588.000000 0 0 1
-14.118340 4.666412 28.248524 31.923064 -0.319218 0.484530 -0.014336 0.020879 1490520.000000 0 0 1
-13.060940 4.545912 27.271874 30.577910 -0.334940 0.469308 -0.007641 0.011356 748662.000000 0 0 1
-13.613640 4.274612 25.982114 29.642431 -0.304246 0.502217 -0.002614 0.013493 -500150.000000 0 0 1
-12.663040 4.114912 24.807534 28.154908 -0.314191 0.492595 0.002869 0.014456 104686.000000 0 0 1
-11.852440 2.889512 24.911154 27.737974 -0.239126 0.455393 -0.005117 0.014620 518554.000000 0 0 1
-11.047040 2.676412 23.787664 26.363862 -0.237694 0.445761 0.006216 0.001354 -412942.000000 0 0 1
-10.065640 1.536012 24.063754 26.129307 -0.151431 0.400288 0.012300 0.000095 -668344.000000 0 0 1
-8.779040 1.923712 24.461364 26.060133 -0.215716 0.352099 0.016972 -0.006264 -104051.000000 0 0 1
-7.972640 0.763112 24.718224 25.983378 -0.095426 0.313341 0.011767 -0.006132 -226473.000000 0 0 1
-6.493040 1.111012 24.530224 25.399327 -0.169467 0.262353 0.013565 -0.010604 -972135.000000 0 0 1
-6.139040 1.255212 23.179364 24.011378 -0.201684 0.264018 0.015957 -0.008269 1280810.000000 0 1 0
-4.755740 1.584212 22.875664 23.418428 -0.321555 0.215717 0.019395 -0.015680 1274340.000000 0 1 0
-4.231740 2.968312 23.328064 23.893871 -0.611692 0.218055 0.019002 -0.012576 -726571.000000 0 1 0
-4.009640 3.048012 24.745554 25.252921 -0.649979 0.200794 0.011987 -0.011928 107827.000000 0 0 1
-4.061840 4.302412 25.318134 26.000331 -0.814152 0.229580 0.015419 -0.009142 -184744.000000 0 0 1
3.910760 -23.585488 12.666567 27.055706 -1.406479 1.083582 0.034943 -0.000156 304998.000000 0 0 1
3.646960 -24.634888 13.565667 28.358514 -1.423823 1.072007 0.026979 -0.001307 -1403820.000000 0 0 1
2.453760 -25.253778 13.311167 28.652424 -1.473936 1.087643 0.008308 0.006244 -941350.000000 0 0 1
2.287060 -26.550818 14.049067 30.125618 -1.484869 1.085637 0.002846 0.007167 6566.860000 0 0 1
2.206560 -26.327658 15.421467 30.591439 -1.487180 1.042445 0.005293 -0.003505 -72881.600000 0 0 1
2.353960 -27.538298 16.055467 31.963682 -1.485524 1.044536 0.001301 -0.003090 -167667.000000 0 0 1
1.889160 -27.692068 17.529867 32.828582 -1.502682 1.007493 -0.008154 0.000563 335915.000000 0 0 1
2.816860 -27.230978 18.541867 33.064508 -1.467720 0.975470 0.001546 -0.005664 573815.000000 0 0 1
2.438260 -27.607548 19.880767 34.108162 -1.482706 0.948535 -0.000875 -0.004888 90482.600000 0 0 1
3.058560 -26.666158 20.920567 34.030999 -1.456597 0.908727 0.003162 -0.003495 -12375.500000 0 0 1
2.384060 -25.422448 20.927567 33.014355 -1.477292 0.884220 0.001418 -0.002088 253009.000000 0 0 1
2.923460 -24.577688 21.968167 33.093953 -1.452405 0.844892 0.026238 -0.014679 76664.800000 0 0 1
2.027360 -23.373188 22.312767 32.377086 -1.484274 0.810477 0.027776 -0.006190 -106775.000000 0 0 1
1.698060 -22.340088 21.359867 30.954917 -1.494933 0.809264 0.014141 -0.003348 356116.000000 0 0 1
2.860560 -21.727988 20.809767 30.221427 -1.439896 0.811272 0.019496 0.000229 289815.000000 0 0 1
2.503360 -20.393988 20.121767 28.758774 -1.448657 0.795855 0.009154 -0.007058 134081.000000 0 0 1
1.914060 -19.410688 20.955367 28.628060 -1.472506 0.749563 0.008669 -0.010139 370852.000000 0 0 1
1.091160 -18.495388 20.212267 27.419076 -1.511868 0.741937 0.002458 -0.011596 306136.000000 0 0 1
0.884060 -17.105588 20.820767 26.960843 -1.519160 0.688406 0.004195 -0.009292 200187.000000 0 0 1
2.049860 -16.290988 20.827167 26.521107 -1.445626 0.667607 -0.015079 0.000635 105911.000000 0 0 1
1.721960 -14.913788 20.989367 25.805808 -1.455844 0.620895 -0.001522 -0.005875 172239.000000 0 0 1
2.781860 -13.859588 20.562567 24.952877 -1.372711 0.602263 -0.022664 -0.007793 -481917.000000 0 1 0
2.971660 -13.603488 19.166967 23.690890 -1.355726 0.628273 -0.027433 -0.011769 941202.000000 0 1 0
1.804960 -13.047488 18.477867 22.691990 -1.433331 0.619291 -0.011135 -0.004889 1582060.000000 0 1 0
0.991060 -11.832888 19.095567 22.486443 -1.487237 0.556321 -0.014482 0.001764 -25027.500000 0 1 0
1.669060 -10.583388 18.891267 21.718053 -1.414379 0.515915 -0.012885 0.002635 -52306.100000 0 1 0
1.314360 -9.512288 19.816467 22.020525 -1.433491 0.451236 -0.011953 -0.005328 624301.000000 0 1 0
-0.191040 -9.267588 20.149267 22.179217 1.550185 0.431175 -0.010275 0.002664 506858.000000 0 1 0
-0.344140 -8.398088 21.246367 22.848510 1.529841 0.376711 -0.010091 -0.002241 -824586.000000 0 1 0
-1.691840 -8.170288 21.504767 23.066663 1.366610 0.370109 -0.005135 0.005906 -479031.000000 0 1 0
-1.867040 -7.433188 22.850067 24.101114 1.324711 0.323616 0.003094 0.007551 -168254.000000 0 1 0
-1.688740 -8.344988 23.932167 25.401561 1.371127 0.341798 0.000955 0.009879 43342.700000 0 0 1
-1.941040 -7.665388 25.203767 26.415066 1.322788 0.304010 -0.000038 0.013919 34155.300000 0 0 1
-2.056640 -8.569288 26.403467 27.835329 1.335250 0.322142 0.009354 0.001989 214178.000000 0 0 1
-0.843340 -9.226788 26.721567 28.282273 1.479648 0.333761 0.007313 0.000777 126369.000000 0 0 1
-1.071540 -10.314788 27.523667 29.412502 1.467284 0.360328 0.026010 -0.013154 625779.000000 0 0 1
0.170760 -11.268088 27.349867 29.580639 -1.555643 0.390847 0.023057 -0.016432 788183.000000 0 0 1
1.326860 -10.777388 27.994467 30.026702 -1.448298 0.370023 0.006400 -0.006652 -505741.000000 0 0 1
2.220860 -11.789188 28.342967 30.777280 -1.384597 0.400399 0.004521 -0.016532 -122120.000000 0 0 1
3.351460 -11.297588 29.272267 31.555244 -1.282413 0.382722 0.005203 -0.011574 -72114.000000 0 0 1
2.875760 -10.986988 30.573767 32.615014 -1.314797 0.355669 0.009399 -0.013894 163765.000000 0 0 1
3.867660 -10.511188 31.491867 33.424266 -1.218215 0.341702 -0.006600 0.002682 -195908.000000 0 0 1
3.283560 -10.249088 32.887567 34.603723 -1.260753 0.316259 -0.005468 0.002468 -196737.000000 0 0 1
3.188460 -11.406688 33.779867 35.796064 -1.298228 0.337228 0.001397 -0.009686 347034.000000 0 0 1
2.597260 -11.247388 -34.019729 35.924803 -1.343853 2.814469 0.003159 -0.006314 -32597.000000 0 0 1
3.414560 -10.408288 -32.996029 34.766789 -1.253798 2.821059 -0.015169 0.006690 155680.000000 0 0 1
3.049260 -9.012888 -33.074429 34.415810 -1.244563 2.861480 -0.012470 0.004844 325108.000000 0 0 1
3.836060 -8.330288 -32.145029 33.427713 -1.139249 2.863673 -0.016131 0.006930 -167991.000000 0 0 1
3.191660 -6.988788 -31.789229 32.704510 -1.142399 2.904452 -0.013888 0.005664 -92155.100000 0 0 1
3.341260 -5.969788 -32.743729 33.450773 -1.060540 2.935623 0.005109 0.002557 57520.900000 0 0 1
3.066160 -4.700688 -32.206729 32.692067 -0.992821 2.969067 0.002458 -0.000897 -165213.000000 0 0 1
2.961060 -3.549088 -33.209729 33.529838 -0.875479 3.003302 0.003883 0.005404 -283182.000000 0 0 1
1.840560 -3.555788 -34.048529 34.283139 -1.093149 3.024536 0.002977 0.004194 -123785.000000 0 0 1
2.099060 -2.491688 34.116467 34.271678 -0.870716 0.095208 0.016646 0.003652 87015.200000 0 0 1
1.540360 -2.655288 32.718567 32.862256 -1.045130 0.093549 0.007027 -0.001747 761052.000000 0 0 1
0.112860 -2.693188 32.572267 32.683613 -1.528915 0.082568 -0.001367 -0.000271 404625.000000 0 0 1
-0.184740 -3.342788 31.360467 31.538663 1.515587 0.106352 -0.000142 0.003050 480638.000000 0 0 1
-1.685940 -3.610688 31.050267 31.304929 1.133953 0.127639 -0.004537 -0.001495 140981.000000 0 0 1
-2.439640 -2.502188 30.781067 30.978813 0.798054 0.113049 -0.007946 -0.002923 -41798.900000 0 0 1
-3.804440 -2.855288 30.539367 30.907594 0.643830 0.154516 -0.004963 -0.000274 688596.000000 0 0 1
-4.594940 -1.800588 29.737867 30.144591 0.373472 0.164456 -0.001346 -0.004687 -73630.800000 0 0 1
-4.142340 -1.700388 28.363367 28.714646 0.389516 0.156579 0.005103 -0.004149 -99673.000000 0 0 1
-4.982940 -0.942388 27.542067 28.005058 0.186915 0.182089 0.004213 -0.008770 -130779.000000 0 0 1
-5.094140 0.544812 27.894367 28.360938 -0.106544 0.181640 0.008757 -0.011088 667030.000000 0 0 1
-6.135940 0.879512 28.845667 29.504166 -0.142368 0.211671 0.004264 -0.005841 363477.000000 0 0 1
-6.353040 2.281412 28.883967 29.662258 -0.344764 0.229582 0.010047 -0.001761 246320.000000 0 0 1
-7.640240 2.674812 29.707267 30.790414 -0.336760 0.266031 0.009184 -0.003217 310193.000000 0 0 1
-8.757040 2.180912 28.991167 30.363299 -0.244081 0.301778 0.000644 0.004730 -1305630.000000 0 0 1
-9.934740 2.628612 29.544867 31.281110 -0.258661 0.334741 -0.003666 0.008165 -741214.000000 0 0 1
-11.079440 2.180712 28.569167 30.719811 -0.194341 0.376406 -0.005166 0.011586 1146.080000 0 0 1
-11.517540 0.857112 28.796467 31.026197 -0.074281 0.381428 -0.004759 0.012071 37952.500000 0 0 1
-11.853840 0.130112 27.643667 30.078278 -0.010976 0.405114 -0.002871 0.011672 -754944.000000 0 0 1
-11.951240 -1.411288 27.893067 30.378398 0.117543 0.407316 0.000915 0.006065 125419.000000 0 0 1
-10.751040 -2.061588 28.314267 30.356758 0.189457 0.368921 0.000865 0.002421 1360130.000000 0 0 1
-9.613340 -2.076688 27.397767 29.109562 0.212752 0.344647 -0.007384 0.002255 612513.000000 0 0 1
-9.796940 -2.743888 25.974667 27.896098 0.273079 0.373319 -0.009330 0.005478 -579575.000000 0 0 1
-10.498340 -1.913088 25.055667 27.233463 0.180250 0.402633 -0.006915 0.004411 434486.000000 0 0 1
-10.517340 -2.551888 23.760467 26.109124 0.238036 0.427405 -0.000349 0.006447 -702614.000000 0 0 1
-9.416640 -2.143988 22.791367 24.753105 0.223865 0.400803 0.021679 -0.006610 -933132.000000 0 1 0
-8.183940 -2.680788 23.111967 24.664276 0.316552 0.356676 0.019088 -0.005208 -815332.000000 0 1 0
-7.185740 -2.237188 22.212567 23.452889 0.301825 0.326676 0.010769 -0.006248 231880.000000 0 1 0
-5.745140 -2.204188 22.780167 23.596633 0.366342 0.263827 0.005950 -0.000092 458061.000000 0 1 0
-4.958840 -3.408288 22.788867 23.569875 0.602162 0.258149 0.003542 -0.002436 382995.000000 0 1 0
-5.350340 -4.372888 23.771867 24.755807 0.685207 0.282885 0.000306 -0.001373 -189144.000000 0 1 0
-5.180240 -5.812488 23.277867 24.545448 0.842850 0.322778 -0.003429 -0.001842 -170611.000000 0 1 0
-6.127040 -6.347988 22.372667 24.049403 0.803108 0.375622 -0.004824 -0.003308 141658.000000 0 1 0
-5.753940 -6.052888 21.017567 22.615999 0.810713 0.378221 0.004403 -0.005917 -2830.070000 0 1 0
-6.933840 -6.165988 20.017567 22.063557 0.726850 0.434054 0.007710 -0.005656 -101638.000000 0 1 0
-7.904040 -5.210588 20.294467 22.393961 0.582837 0.436475 0.015621 -0.005979 -762279.000000 0 1 0
-8.906840 -5.103288 19.328567 21.885357 0.520302 0.488211 0.020826 0.000595 8954.320000 0 1 0
-9.634140 -3.736488 19.399767 21.980195 0.369978 0.489427 0.019434 -0.002375 -421956.000000 0 1 0
-8.800540 -2.677188 19.070067 21.172725 0.295312 0.449441 0.023354 -0.003944 -676848.000000 0 1 0
-9.350840 -1.422888 19.005567 21.229093 0.151008 0.461781 0.017995 -0.005989 -557490.000000 0 1 0
-8.379540 -0.459388 18.299567 20.132111 0.054768 0.429980 0.014981 -0.009531 757447.000000 0 1 0
-7.236840 0.055312 19.062067 20.389638 -0.007643 0.362847 0.018667 -0.006185 1178050.000000 0 1 0
-7.484840 0.849312 20.195967 21.555075 -0.112988 0.357006 0.026355 -0.006408 -510152.000000 0 1 0
-7.527040 2.326812 19.932267 21.432817 -0.299809 0.376416 0.030724 -0.015237 -102158.000000 0 1 0
-8.574740 2.716912 19.061467 21.077175 -0.306844 0.440906 0.021246 -0.016496 242953.000000 0 1 0
-8.496740 4.068412 18.828067 21.053330 -0.446561 0.463924 0.025506 -0.009847 16194.500000 0 1 0
-9.425340 4.569112 17.697767 20.565135 -0.451389 0.534406 0.023916 -0.004325 -616652.000000 0 1 0
-10.797740 4.473312 18.012267 21.471923 -0.392758 0.575583 0.027570 -0.001011 -348685.000000 0 1 0
-11.529840 5.060712 16.978867 21.138353 -0.413604 0.638106 0.019496 0.002053 -558500.000000 0 1 0
-11.636540 6.613112 17.010767 21.645058 -0.516789 0.666652 0.024182 0.008028 -769745.000000 0 1 0
-10.404540 7.319812 16.996267 21.229866 -0.613085 0.642529 0.029437 0.010112 199601.000000 0 1 0
-10.677140 8.717812 17.009067 21.893148 -0.684717 0.681049 0.032391 0.003382 169150.000000 0 1 0
-9.490840 9.701512 16.883567 21.662184 -0.796375 0.677084 0.028547 0.003486 104766.000000 0 1 0
-8.568940 9.834512 17.947067 22.186518 -0.854058 0.628487 0.031829 0.010638 -73943.900000 0 1 0
-7.590840 10.829712 17.849767 22.215258 -0.959448 0.637659 0.033964 -0.004087 -84057.600000 0 1 0
-8.107540 12.266512 17.753967 23.052177 -0.986763 0.691697 0.027201 0.001757 -497622.000000 0 1 0
-8.128140 12.586712 16.388567 22.205340 -0.997399 0.740626 0.022597 -0.012624 -62565.600000 0 1 0
-8.764740 13.821412 16.106567 22.962439 -1.005650 0.793393 0.029212 -0.019786 -174619.000000 0 1 0
-8.614940 14.373812 14.696267 22.289099 -1.030855 0.850845 0.029110 -0.015747 400382.000000 0 1 0
-7.343640 14.986912 14.568567 22.153549 -1.115178 0.853144 0.027679 -0.007914 169554.000000 0 1 0
-7.279740 15.680012 13.347167 21.840427 -1.136140 0.913319 0.021646 -0.014659 199308.000000 0 1 0
-6.225340 16.836412 13.476967 22.446565 -1.216632 0.926792 -0.004447 -0.002024 -306418.000000 0 1 0
-4.925440 16.390712 13.436767 21.759185 -1.278879 0.905208 -0.006052 -0.011074 -852763.000000 0 1 0
-3.953740 17.430112 13.675067 22.504407 -1.347737 0.917683 -0.008872 -0.015405 1375010.000000 0 1 0
-2.462140 16.970712 13.552667 21.857310 -1.426720 0.901987 -0.003101 -0.024028 517386.000000 0 1 0
-1.813340 16.444512 14.711967 22.139380 -1.460970 0.843951 -0.000378 -0.017996 45786.300000 0 1 0
-2.241440 15.174012 15.179767 21.580084 -1.424141 0.790605 0.007889 -0.012839 -325062.000000 0 1 0
-1.185540 14.708112 16.174467 21.894005 -1.490366 0.739564 0.000238 -0.005691 -781474.000000 0 1 0
-0.007240 14.225712 15.590567 21.105372 -1.570287 0.739655 -0.027729 -0.014919 -680933.000000 0 1 0
0.986360 13.904212 16.507467 21.605474 1.499975 0.701243 -0.023645 0.002326 -301288.000000 0 1 0
1.849760 15.006312 17.081667 22.812154 1.448150 0.724551 -0.025065 -0.002455 -474810.000000 0 1 0
1.103060 15.930912 17.900767 23.988501 1.501666 0.728426 -0.035648 -0.005574 25401.500000 0 1 0
1.961760 16.874812 18.512467 25.126067 1.455062 0.742496 -0.018119 -0.004910 -142873.000000 0 0 1
1.213560 18.103112 19.119767 26.358317 1.503860 0.759212 -0.015577 -0.005768 246795.000000 0 0 1
0.608760 19.008212 18.241967 26.352459 1.538781 0.806222 -0.024650 -0.001587 665581.000000 0 0 1
-0.533440 18.582412 17.480967 25.518127 -1.542097 0.816136 -0.020600 -0.003883 -76410.100000 0 0 1
-1.293340 19.574612 16.582767 25.687085 -1.504820 0.869029 -0.026868 0.002268 -263330.000000 0 0 1
-1.874640 20.580212 17.355667 26.986637 -1.479958 0.872230 -0.021326 0.001873 -422916.000000 0 0 1
-2.681140 21.381512 16.549667 27.170739 -1.446052 0.915872 0.000785 -0.009338 -1213980.000000 0 0 1
-3.382640 22.484012 17.276967 28.556377 -1.421470 0.921015 -0.001237 0.000535 874922.000000 0 0 1
-4.575740 21.979912 17.988267 28.768589 -1.365550 0.895313 0.006248 -0.001460 1173580.000000 0 0 1
-5.043740 23.025012 18.757667 30.123754 -1.355148 0.898624 0.004831 0.004523 -334013.000000 0 0 1
-6.104740 22.788112 19.840267 30.825349 -1.309051 0.871558 -0.007884 0.012117 -368761.000000 0 0 1
-7.379940 22.620712 19.298167 30.636243 -1.255437 0.889355 -0.008600 0.007324 -875067.000000 0 0 1
-8.292740 22.159612 20.232967 31.131831 -1.212703 0.863327 -0.039360 0.005234 -876569.000000 0 0 1
-9.750740 22.392812 19.894767 31.501059 -1.160116 0.887234 -0.025240 0.000812 -900292.000000 0 0 1
-9.989240 23.778712 19.897767 32.575040 -1.173090 0.913690 -0.015125 0.005887 -216646.000000 0 0 1
-11.146840 24.087412 19.163967 32.737030 -1.137377 0.945434 -0.024491 0.003069 -311397.000000 0 0 1
-11.591440 25.570612 19.208467 34.017391 -1.145192 0.970768 -0.023815 0.008757 -411058.000000 0 0 1
-12.216040 25.782012 20.433767 35.092487 -1.128311 0.949262 -0.018931 0.010742 -47498.500000 0 0 1
-12.444740 27.135212 20.833767 36.403807 -1.140798 0.961493 -0.014603 0.016350 -282467.000000 0 0 1
-13.200840 27.238612 22.199067 37.536686 -1.119514 0.938007 -0.006519 0.006576 -148650.000000 0 0 1
-14.466640 26.613712 22.225367 37.570471 -1.072897 0.937798 -0.002199 -0.001533 83239.600000 0 0 1
-15.029740 26.762512 23.522667 38.670933 -1.059093 0.916907 -0.005565 0.007233 -242182.000000 0 0 1
-16.524040 26.459812 23.639767 39.140825 -1.012560 0.922327 0.009744 -0.001255 -362941.000000 0 0 1
-16.803240 25.091412 23.463567 38.242213 -0.980710 0.910246 0.016396 -0.000292 1689480.000000 0 0 1
-18.208640 24.682512 23.633467 38.721076 -0.935205 0.914292 0.028026 0.000765 1851110.000000 0 0 1
26.773060 25.046912 24.002864 43.821023 0.752100 0.991127 0.043417 -0.022372 -222286.000000 0 0 1
26.422460 24.127712 25.001914 43.650757 0.740034 0.960913 0.046730 -0.027200 296572.000000 0 0 1
26.015160 22.846412 24.452354 42.387082 0.720637 0.955890 0.043828 -0.017397 -462329.000000 0 0 1
25.643760 21.759012 25.478444 42.192513 0.703629 0.922459 0.051171 -0.014998 -259341.000000 0 0 1
24.456760 22.123412 26.146334 42.085737 0.735347 0.900442 0.048173 -0.018807 39259.100000 0 0 1
24.381360 21.403512 27.338024 42.425565 0.720450 0.870589 0.050099 -0.014141 -122236.000000 0 0 1
23.044760 21.460812 28.098564 42.203752 0.749823 0.842253 0.045126 -0.015237 -242085.000000 0 0 1
22.874960 22.756512 28.557064 43.088613 0.782802 0.846309 0.057278 -0.032506 66961.400000 0 0 1
21.802760 22.789512 29.479604 43.171394 0.807523 0.819139 0.056782 -0.025493 -197944.000000 0 0 1
21.631060 24.126712 30.305054 44.366624 0.839885 0.818853 0.054616 -0.035180 -469123.000000 0 0 1
21.137360 25.164912 29.437834 44.120821 0.872164 0.840340 0.063721 -0.035226 340439.000000 0 0 1
20.630060 26.298612 30.169434 45.026782 0.905607 0.836543 0.054111 -0.032584 808596.000000 0 0 1
19.147060 26.131712 30.658114 44.602648 0.938451 0.812947 0.055161 -0.028825 -470654.000000 0 0 1
18.123060 26.266512 29.681134 43.581472 0.966835 0.821602 0.056228 -0.037656 606579.000000 0 0 1
16.910660 26.779912 30.228574 43.782426 1.007559 0.808717 0.037255 -0.033862 617178.000000 0 0 1
16.068860 25.755512 31.058664 43.430350 1.012989 0.773976 0.027774 -0.023091 -1184340.000000 0 0 1
16.561560 25.410512 32.309194 44.315498 0.993185 0.753831 0.019788 -0.022451 -466274.000000 0 0 1
15.635960 24.679512 33.034674 44.100468 1.006065 0.724128 0.013254 -0.017497 -419337.000000 0 0 1
16.172660 24.408212 34.413778 45.184332 0.985621 0.704970 0.030160 -0.015626 -223788.000000 0 0 1
16.350860 25.570912 -33.987263 45.567052 1.001886 2.412642 0.018986 -0.015916 21699.200000 0 0 1
16.747460 25.412812 -32.673013 44.652147 0.988109 2.391643 0.009497 -0.004810 -155920.000000 0 0 1
17.176760 26.688912 -31.965153 45.045645 0.998939 2.359751 -0.006581 0.010481 761190.000000 0 0 1
16.106460 27.640912 -31.640183 44.994880 1.043192 2.350678 0.006486 0.007904 799907.000000 0 0 1
16.590660 28.756312 -30.985313 45.412169 1.047505 2.321718 0.013266 0.007005 -415177.000000 0 0 1
16.139560 28.944612 -29.527583 44.386418 1.062136 2.298610 0.028589 0.003607 -367860.000000 0 0 1
16.701460 28.101112 -28.554013 43.404411 1.034553 2.288770 0.002134 0.014921 129342.000000 0 0 1
16.056460 28.307912 -27.299843 42.478574 1.054838 2.268779 0.000695 0.021592 113672.000000 0 0 1
16.764160 27.534412 -26.157993 41.514112 1.023899 2.252477 -0.008777 0.024491 675231.000000 0 0 1
18.164160 27.835612 -26.063933 42.238449 0.992630 2.235806 -0.009680 0.028883 178859.000000 0 0 1
18.671160 27.097412 -24.996433 41.324371 0.967465 2.220416 -0.006034 0.026571 -580024.000000 0 0 1
20.185060 27.186612 -24.850633 42.001220 0.932136 2.203918 -0.007127 0.024452 -200076.000000 0 0 1
20.697860 26.483512 -23.697633 41.126094 0.907415 2.184891 -0.006214 0.021314 297681.000000 0 0 1
22.119760 26.521012 -23.634233 41.847638 0.875637 2.170949 -0.000187 0.023651 536303.000000 0 0 1
22.605960 26.397312 -22.173833 41.225312 0.862614 2.138704 0.003903 0.016612 -2366.960000 0 0 1
22.422060 25.187312 -21.461333 39.971718 0.843415 2.137570 0.013370 0.012847 -121810.000000 0 0 1
23.194460 25.181612 -20.302133 39.802929 0.826452 2.106058 0.015983 0.005353 -769747.000000 0 0 1
22.961660 24.029412 -19.295133 38.431141 0.808117 2.096787 0.014629 -0.004097 -571117.000000 0 0 1
23.460060 22.761712 -19.721633 38.176076 0.770291 2.113668 0.021484 0.003754 383814.000000 0 0 1
22.903560 21.981712 -18.706633 36.847074 0.764863 2.103290 0.018823 0.004932 -526088.000000 0 0 1
22.818660 20.464012 -19.000033 36.062006 0.731050 2.125712 0.020595 0.001865 496455.000000 0 0 1
21.883060 19.986612 -19.975833 35.740270 0.740135 2.163875 0.011210 -0.007059 252177.000000 0 0 1
20.522960 20.330812 -19.817733 35.032504 0.780695 2.172073 -0.002442 -0.009271 -473352.000000 0 0 1
19.679460 19.867412 -21.040933 34.995944 0.790151 2.215847 -0.006128 -0.001545 -22594.000000 0 0 1
19.749060 20.572312 -22.262133 36.178004 0.805813 2.233626 -0.004505 -0.000223 39518.700000 0 0 1
19.624160 22.023712 -22.238633 36.941959 0.842950 2.216785 -0.002690 0.007357 -96724.800000 0 0 1
19.360060 22.697512 -23.669333 38.081837 0.864587 2.241502 0.003913 0.014290 471202.000000 0 0 1
17.950160 22.728612 -23.855333 37.521660 0.902330 2.259808 0.005631 0.008813 215841.000000 0 0 1
17.600560 23.250012 -25.155893 38.511839 0.922822 2.282598 0.008568 0.014673 -554431.000000 0 0 1
16.110060 23.403612 -25.439773 38.137188 0.967927 2.301051 -0.000039 0.011707 -598039.000000 0 0 1
15.692960 24.426812 -24.593933 38.049963 0.999748 2.273599 -0.003555 0.008879 776350.000000 0 0 1
14.260960 24.533512 -24.487033 37.481769 1.044252 2.282738 0.003566 0.003782 931700.000000 0 0 1
13.705060 25.763612 -23.772433 37.639354 1.081913 2.254392 -0.003109 0.008943 -124941.000000 0 0 1
13.916360 26.977812 -24.478833 38.995906 1.094554 2.249428 -0.003219 0.010936 545990.000000 0 0 1
13.004960 27.998012 -23.996633 39.100589 1.135953 2.231554 0.009477 0.010135 644927.000000 0 0 1
13.065260 29.274512 -24.809033 40.536233 1.151022 2.229410 0.008884 0.004296 111352.000000 0 0 1
12.611960 29.087712 -26.143623 41.093133 1.161678 2.260365 0.029799 -0.012637 -141202.000000 0 0 1
12.210660 30.272912 -26.800913 42.235511 1.187403 2.258234 0.051255 -0.024633 -199762.000000 0 0 1
13.070060 31.552312 -26.711603 43.357636 1.178079 2.234548 0.050224 -0.019317 704272.000000 0 0 1
14.385460 31.381612 -27.273243 43.995191 1.140976 2.239430 0.024572 -0.006849 413173.000000 0 0 1
15.054660 32.640612 -27.316793 45.147088 1.138647 2.220640 0.026194 -0.005028 -1078110.000000 0 0 1
16.445660 32.470912 -27.857373 45.835064 1.101983 2.224051 0.012412 0.019386 -1450560.000000 0 0 1
17.254560 31.871712 -26.937313 45.156890 1.074599 2.209963 -0.019883 0.024992 -57674.300000 0 0 1
18.539860 31.519812 -27.456483 45.728366 1.039101 2.214830 -0.020766 0.033128 339706.000000 0 0 1
19.534060 30.841712 -26.458803 45.087237 1.006204 2.197942 -0.023906 0.038036 49428.100000 0 0 1
20.055960 31.637312 -25.409223 45.263558 1.005799 2.166826 -0.020107 0.036452 148104.000000 0 0 1
20.663160 32.890012 -25.645863 46.544918 1.009863 2.154348 -0.028287 0.023635 572153.000000 0 0 1
22.065160 32.947312 -26.371123 47.621768 0.980689 2.157672 -0.029900 0.031184 560182.000000 0 0 1
21.990060 32.349512 -27.655463 47.904888 0.973781 2.186214 -0.035856 0.045971 -84611.400000 0 0 1
23.186260 32.486512 -28.387643 48.977897 0.950922 2.189035 -0.033378 0.044992 -830340.000000 0 0 1
23.049260 31.667512 -29.666313 49.134406 0.941621 2.219029 -0.031524 0.034851 -117487.000000 0 0 1
22.071660 32.177312 -30.531953 49.545310 0.969570 2.234760 -0.020789 0.028583 -2369.220000 0 0 1
20.820260 31.521412 -30.528223 48.570104 0.987067 2.250470 -0.023382 0.025528 -682935.000000 0 0 1
19.796060 32.261112 -31.326763 49.132773 1.020422 2.262167 -0.033157 0.023355 -1451470.000000 0 0 1
19.182760 33.374412 -30.753493 49.270752 1.049132 2.244869 -0.028505 0.026476 191768.000000 0 0 1
18.345660 34.083712 -31.673133 50.014498 1.077017 2.256579 -0.018998 0.019283 517821.000000 0 0 1
16.828060 33.704712 -31.602563 49.172281 1.107726 2.268801 0.007043 0.010696 183735.000000 0 0 1
16.415160 32.360312 -31.898843 48.313388 1.101356 2.291946 0.015408 0.003050 72674.400000 0 0 1
16.787660 31.887612 -33.166473 48.976119 1.086203 2.314743 0.008515 -0.000174 -723484.000000 0 0 1
16.238560 32.558912 -34.505567 50.143870 1.108154 2.329707 0.020631 -0.008782 -139380.000000 0 0 1
16.878460 33.792412 34.331026 51.043402 1.107569 0.833100 0.014918 0.004297 110886.000000 0 0 1
16.636160 34.357712 32.979434 50.446578 1.119865 0.858267 0.027329 -0.005506 243888.000000 0 0 1
15.231460 -34.124918 32.634614 49.613763 -1.150987 0.852938 0.033080 -0.014757 474495.000000 0 0 1
14.231160 33.979212 32.516464 49.136882 1.174172 0.847642 0.034564 -0.016615 855701.000000 0 0 1
12.869360 34.424312 32.415864 49.004509 1.213039 0.847996 0.027193 -0.013653 948840.000000 0 0 1
12.470060 -33.995518 31.068094 47.711887 -1.219221 0.861684 0.023201 -0.004982 -755047.000000 0 0 1
13.014560 -32.704518 30.866884 46.815903 -1.192064 0.850876 0.037676 -0.004815 621353.000000 0 0 1
12.316660 -32.196818 29.735804 45.525304 -1.205429 0.859032 0.038734 -0.004687 32834.900000 0 0 1
12.766260 -30.744418 29.438314 44.438845 -1.177223 0.846718 0.028557 -0.004429 -22776.600000 0 0 1
12.407360 -29.799218 30.453194 44.377168 -1.176262 0.814495 0.010988 0.003354 375573.000000 0 0 1
12.804760 -28.432718 30.146534 43.372743 -1.147649 0.802297 0.027145 -0.005639 -409317.000000 0 0 1
12.507560 -27.466118 31.391684 43.546120 -1.143476 0.765720 0.005679 0.000605 1218630.000000 0 0 1
11.089460 -27.212618 31.557814 43.120741 -1.183831 0.749767 -0.026593 0.011066 1184560.000000 0 0 1
10.434260 -26.338518 30.640294 41.730312 -1.193605 0.746242 -0.039161 0.012572 -333143.000000 0 0 1
10.929560 -24.877718 30.719754 41.012918 -1.156850 0.724205 -0.045329 0.021417 -365559.000000 0 0 1
10.417560 -24.255618 31.888654 41.397425 -1.165128 0.691477 -0.018332 0.010019 67637.000000 0 0 1
11.158560 -23.174118 32.369894 41.344446 -1.122050 0.671431 -0.021344 0.009006 172134.000000 0 0 1
10.295760 -22.515418 33.508573 41.662587 -1.141908 0.636326 -0.011650 0.008107 309130.000000 0 0 1
10.041260 -23.347718 -34.440343 42.802804 -1.164635 2.505845 -0.010124 0.007923 460519.000000 0 0 1
11.158460 -23.596418 -33.605083 42.551190 -1.129073 2.481208 -0.010756 0.005673 607572.000000 0 0 1
11.828460 -22.462418 -32.737423 41.427184 -1.086105 2.481997 -0.003188 -0.000039 291076.000000 0 0 1
12.133160 -21.218818 -33.392383 41.382400 -1.051362 2.509719 -0.018831 0.007845 276412.000000 0 0 1
13.201260 -20.480118 -32.803573 40.862977 -0.998234 2.502723 -0.020778 0.000230 36832.800000 0 0 1
13.577960 -19.206118 -33.605743 41.019287 -0.955414 2.530928 -0.037384 0.000767 -708523.000000 0 0 1
14.164960 -19.541218 34.187611 41.848513 -0.943569 0.614716 -0.022140 0.017170 572526.000000 0 0 1
13.973560 -18.531918 33.213493 40.519483 -0.924723 0.609923 -0.047711 0.017737 -353377.000000 0 0 1
14.952360 -17.315618 33.310827 40.410579 -0.858506 0.601815 -0.026436 0.014685 -584211.000000 0 0 1
14.860260 -16.475018 34.457625 40.982697 -0.836884 0.572065 -0.032717 0.012921 383809.000000 0 0 1
15.468160 -15.186918 34.269784 40.550272 -0.776224 0.564010 -0.010303 0.006789 -340337.000000 0 0 1
16.985860 -15.023118 34.452586 41.245535 -0.724156 0.582110 0.006530 0.003802 -48447.500000 0 0 1
17.672160 -15.702318 33.393400 40.914389 -0.726444 0.616032 0.004271 0.004763 -656772.000000 0 0 1
19.036060 -15.881318 33.524943 41.695439 -0.695294 0.636731 0.019306 0.003754 -881933.000000 0 0 1
19.690060 -16.505418 32.279184 41.256188 -0.697640 0.672273 0.026881 -0.000102 -651252.000000 0 0 1
19.792760 -15.743718 31.139484 40.115900 -0.671947 0.682120 0.018794 0.014341 395598.000000 0 0 1
20.431060 -16.442018 30.097824 39.920511 -0.677634 0.716751 0.012297 0.009960 -427048.000000 0 0 1
20.766160 -15.512818 28.885964 38.810821 -0.641594 0.731346 0.017527 0.011500 -182000.000000 0 0 1
21.728060 -14.501618 29.129534 39.127168 -0.588520 0.731035 0.005380 0.006878 316762.000000 0 0 1
21.972760 -13.691218 27.991414 38.128348 -0.557232 0.746402 0.009739 0.007850 -78718.900000 0 0 1
22.677060 -12.400718 28.422744 38.417174 -0.500414 0.737957 0.018835 0.005584 -56465.800000 0 0 1
21.845560 -11.432718 29.018324 38.078848 -0.482147 0.704309 0.021960 0.001567 -172803.000000 0 0 1
22.588560 -10.351418 29.465864 38.543898 -0.429701 0.700569 0.023881 -0.008758 110595.000000 0 0 1
21.693160 -9.062218 29.549864 37.761243 -0.395710 0.672054 0.033853 -0.016433 1089700.000000 0 0 1
20.583560 -9.115418 30.469564 37.883613 -0.416892 0.636310 0.033354 -0.018987 494277.000000 0 0 1
19.676660 -8.054818 30.164754 36.904789 -0.388548 0.613971 0.044744 -0.021903 879852.000000 0 0 1
18.366060 -8.117518 31.042244 36.970626 -0.416168 0.574165 0.031253 -0.014797 422069.000000 0 0 1
18.537660 -7.675918 32.389804 38.100708 -0.392578 0.554602 0.031125 -0.016395 139318.000000 0 0 1
19.188960 -8.655518 33.152064 39.270772 -0.423741 0.565741 0.034364 -0.019753 -679379.000000 0 0 1
19.283460 -8.137918 -34.458176 40.316788 -0.399340 2.595741 0.035314 -0.027017 -480853.000000 0 0 1
18.029660 -7.996718 -33.858363 39.184243 -0.417462 2.614118 0.021221 -0.027493 -399324.000000 0 0 1
18.111160 -7.183518 -32.654263 38.025228 -0.377602 2.603627 0.018374 -0.024189 -85510.600000 0 0 1
16.792860 -7.025518 -31.878113 36.709292 -0.396236 2.622750 0.022438 -0.026139 111313.000000 0 0 1
17.019760 -6.114618 -30.816773 35.731419 -0.344906 2.610898 0.017262 -0.020029 1036660.000000 0 0 1
15.793560 -5.950418 -30.076833 34.488547 -0.360315 2.630237 0.016569 -0.011915 733350.000000 0 0 1
15.855160 -4.751118 -29.095623 33.474087 -0.291143 2.624375 0.005853 -0.008401 -159512.000000 0 0 1
16.668660 -4.868418 -27.938743 32.895578 -0.284166 2.585485 0.005669 -0.002908 84063.700000 0 0 1
16.354460 -5.869018 -26.988683 32.098329 -0.344549 2.569579 0.022581 -0.006820 -53680.400000 0 0 1
15.045260 -5.687918 -26.165393 30.713841 -0.361445 2.590416 0.020795 -0.010339 293248.000000 0 0 1
14.920560 -4.483618 -25.380613 29.780891 -0.291915 2.591058 0.002720 0.002302 -183097.000000 0 0 1
13.614760 -4.355018 -24.842433 28.661374 -0.309589 2.619458 0.009425 -0.008375 234511.000000 0 0 1
13.413660 -3.090518 -23.974133 27.644830 -0.226449 2.620387 0.014173 -0.004579 -157831.000000 0 0 1
13.377560 -1.881518 -24.746033 28.193357 -0.139731 2.641891 -0.006439 -0.009296 157490.000000 0 0 1
13.043860 -0.776518 -23.953833 27.286102 -0.059461 2.642206 -0.008040 -0.003039 -122444.000000 0 0 1
13.459560 0.615482 -24.580233 28.030812 0.045696 2.640172 -0.010476 -0.005654 -477442.000000 0 0 1
12.680760 1.191482 -25.591023 28.585341 0.093685 2.679788 -0.013287 -0.005620 -42686.900000 0 0 1
13.391660 2.323482 -26.002853 29.340816 0.171792 2.659949 -0.017498 0.005252 -20440.000000 0 0 1
12.678960 3.071482 -27.146663 30.118621 0.237672 2.693615 -0.013308 -0.002903 254024.000000 0 0 1
11.479360 3.741482 -26.764863 29.362089 0.315074 2.717822 0.000792 -0.013139 303637.000000 0 0 1
10.980960 4.447482 -27.895423 30.307032 0.384824 2.739969 0.009026 -0.012373 67074.700000 0 0 1
9.563060 5.052482 -27.759633 29.792229 0.486056 2.770066 0.019516 -0.010514 55620.000000 0 0 1
9.444060 5.921482 -26.668583 28.904455 0.560040 2.745683 0.024925 -0.027492 -508205.000000 0 0 1
8.249360 6.636482 -26.680163 28.704110 0.677469 2.763822 0.038603 -0.027704 -423483.000000 0 0 1
8.269160 5.670012 -32.214783 33.739002 0.601052 2.839861 0.026633 -0.017173 -238992.000000 0 0 1
8.456760 4.743812 -31.150993 32.625219 0.511211 2.839827 0.013184 -0.006287 -54950.900000 0 0 1
7.887860 3.541912 -31.429643 32.597330 0.422050 2.873125 0.012011 0.000025 -605286.000000 0 0 1
7.715760 2.596512 -30.186543 31.265031 0.324616 2.878172 0.018687 -0.005180 72255.700000 0 0 1
8.903760 2.165312 -29.520333 30.909797 0.238560 2.840617 0.017395 -0.016051 724830.000000 0 0 1
8.534660 1.253612 -28.425903 29.705958 0.145842 2.846961 0.026224 -0.018186 316790.000000 0 0 1
9.765760 0.626512 -27.699743 29.377514 0.064066 2.801997 0.023383 -0.022364 304871.000000 0 0 1
10.528560 -0.282088 -28.467233 30.353146 -0.026786 2.787229 0.004464 -0.012259 413168.000000 0 0 1
11.516560 -0.900588 -27.638963 29.955875 -0.078041 2.745708 0.003308 -0.013220 91903.300000 0 0 1
12.051560 -2.210188 -28.212403 30.758165 -0.181379 2.731874 -0.000078 -0.006345 -310899.000000 0 0 1
11.180760 -3.285688 -28.156473 30.472809 -0.285823 2.749174 0.008248 -0.005251 -400173.000000 0 0 1
11.950360 -4.439688 -28.272163 31.013499 -0.355708 2.717976 0.015718 -0.007742 -299610.000000 0 0 1
11.328860 -5.742888 -27.750833 30.519380 -0.469173 2.712361 0.021353 -0.016610 -152770.000000 0 0 1
11.014460 -5.663188 -26.349513 29.115062 -0.474911 2.702207 0.020630 -0.014621 174653.000000 0 0 1
10.498260 -6.850888 -25.778483 28.664932 -0.578182 2.688971 0.035307 -0.019761 -42502.400000 0 0 1
10.200860 -6.657288 -24.257133 27.143793 -0.578215 2.676217 0.034202 -0.017827 1021020.000000 0 0 1
11.394660 -6.596788 -23.406933 26.855919 -0.524788 2.629201 0.030668 -0.010173 1177610.000000 0 0 1
11.073060 -6.560388 -22.048733 25.530334 -0.534860 2.613220 0.035978 -0.018535 -615951.000000 0 0 1
12.287960 -6.794988 -21.173033 25.405967 -0.505128 2.556006 0.038358 -0.012954 -180413.000000 0 0 1
12.996360 -5.579388 -21.016633 25.332465 -0.405510 2.549245 0.022773 -0.007389 1143600.000000 0 0 1
14.417860 -5.712288 -20.738233 25.895544 -0.377222 2.499496 0.038831 -0.002159 1040990.000000 0 0 1
14.922760 -4.518388 -19.958633 25.326895 -0.294010 2.478417 0.031533 -0.008468 -486570.000000 0 0 1
15.063260 -3.338088 -20.721933 25.834921 -0.218080 2.501583 0.017972 -0.006107 12176.800000 0 0 1
15.727460 -2.343888 -20.051233 25.590989 -0.147943 2.471118 0.013986 0.000576 139307.000000 0 0 1
16.719960 -1.472888 -20.925833 26.825677 -0.087865 2.465570 0.005614 0.001872 1309080.000000 0 0 1
17.992560 -2.113588 -21.127733 27.831287 -0.116934 2.432781 0.010019 -0.005180 803906.000000 0 0 1
18.933660 -1.231988 -21.755833 28.867240 -0.064977 2.424396 0.012836 0.002144 -199361.000000 0 0 1
20.229460 -1.944888 -22.078933 30.008214 -0.095847 2.397589 0.010345 -0.004754 -937389.000000 0 0 1
21.158660 -2.070688 -20.977033 29.866579 -0.097554 2.349501 0.002508 -0.005379 976000.000000 0 0 1
22.448760 -2.588188 -21.244233 31.015528 -0.114786 2.325338 -0.003975 -0.007274 648040.000000 0 0 1
23.408960 -1.886488 -22.231833 32.338717 -0.080414 2.328793 -0.000990 -0.009796 -1336520.000000 0 0 1
22.907060 -2.008788 -23.553033 32.916773 -0.087469 2.368183 0.004999 -0.012051 493259.000000 0 0 1
23.679260 -1.266088 -24.531033 34.118644 -0.053417 2.373147 0.003225 -0.001949 327736.000000 0 0 1
25.006360 -1.948088 -24.940833 35.371715 -0.077747 2.353370 0.009673 -0.013781 -890062.000000 0 0 1
25.890060 -2.078288 -23.821833 35.243357 -0.080102 2.313014 0.005775 -0.008423 905264.000000 0 0 1
27.089760 -2.852388 -24.125633 36.387324 -0.104907 2.295646 -0.000067 -0.008318 1588440.000000 0 0 1
28.132860 -2.188288 -25.118263 37.777950 -0.077628 2.298146 0.006619 -0.007105 -802826.000000 0 0 1
27.727960 -2.015988 -26.453473 38.375646 -0.072578 2.331360 0.021746 -0.009881 -214601.000000 0 0 1
28.422160 -0.986588 -27.084253 39.272755 -0.034698 2.331795 0.022078 -0.010260 -1341780.000000 0 0 1
27.915960 -0.674188 -28.509003 39.906373 -0.024146 2.366559 0.038799 -0.017254 -131079.000000 0 0 1
26.596060 -0.197388 -28.608053 39.061619 -0.007422 2.392611 0.030221 -0.011749 -114330.000000 0 0 1
26.329060 1.067912 -27.920693 38.391730 0.040538 2.385115 0.020278 -0.004756 -792766.000000 0 0 1
24.878060 1.550312 -28.064903 37.536117 0.062236 2.415354 0.021514 -0.008786 -63110.100000 0 0 1
23.882060 0.970112 -27.255763 36.251490 0.040599 2.421663 0.027560 -0.010222 180853.000000 0 0 1
22.600460 1.432612 -27.642633 35.734414 0.063304 2.455232 0.012984 -0.008528 171166.000000 0 0 1
21.519460 1.172212 -26.573563 34.214258 0.054418 2.460176 0.016006 -0.004698 -93325.500000 0 0 1
21.759160 1.876312 -25.368793 33.474725 0.086018 2.430806 0.015611 -0.005593 -26179.800000 0 0 1
20.662960 1.770312 -24.505333 32.103010 0.085467 2.439255 0.017817 -0.002438 -433720.000000 0 0 1
20.823360 2.378112 -23.075933 31.173168 0.113711 2.404238 0.012367 0.002025 -374328.000000 0 0 1
20.696060 3.748012 -22.994533 31.162847 0.179156 2.400725 0.006196 -0.000750 446977.000000 0 0 1
21.103760 4.033812 -21.652633 30.503718 0.188864 2.360061 -0.005671 0.006329 -162153.000000 0 0 1
20.553160 5.360712 -21.044033 29.900183 0.255138 2.351542 -0.008508 0.016289 -2216.130000 0 0 1
21.141260 6.499312 -21.723133 31.001426 0.298253 2.347194 -0.008166 0.019271 542717.000000 0 0 1
20.958160 7.824912 -21.216133 30.831769 0.357331 2.329699 -0.013750 0.011755 -735530.000000 0 0 1
21.540860 8.055212 -19.849433 30.379188 0.357850 2.282849 -0.031830 0.012921 -940602.000000 0 0 1
22.915560 8.297312 -19.744933 31.366075 0.347398 2.251705 -0.033793 0.014069 -149462.000000 0 0 1
23.413760 8.643212 -18.491933 31.062209 0.353633 2.208459 -0.022610 0.013757 -209308.000000 0 0 1
23.302360 10.141812 -18.114933 31.209087 0.410501 2.190063 -0.021995 0.003761 -520306.000000 0 0 1
21.986660 10.382112 -17.692833 30.070547 0.441162 2.199847 -0.014391 -0.000464 -292606.000000 0 0 1
21.742260 11.708812 -17.349633 30.179992 0.493993 2.183244 -0.008847 0.001774 -820047.000000 0 0 1
20.262460 12.067212 -17.112633 29.138070 0.537138 2.198509 -0.013696 -0.001738 54189.700000 0 0 1
19.461560 11.887812 -18.276533 29.225059 0.548349 2.246404 -0.011866 0.003821 83219.400000 0 0 1
18.923860 10.581812 -18.257633 28.344812 0.509863 2.270677 -0.006276 0.003390 -813662.000000 0 0 1
18.132460 10.238712 -19.553333 28.564841 0.514030 2.324748 0.018067 0.000559 168214.000000 0 0 1
18.917560 10.288712 -20.739433 29.897420 0.498125 2.337391 0.025903 -0.003328 -143172.000000 0 0 1
18.128060 10.077012 -21.841533 30.120181 0.507346 2.382043 0.014823 -0.010088 -609699.000000 0 0 1
18.915660 10.350312 -23.138033 31.627515 0.500677 2.391432 0.031040 -0.011362 -128600.000000 0 0 1
18.910060 11.719912 -23.395633 32.284708 0.554831 2.381346 0.019703 -0.010938 42831.900000 0 0 1
19.544060 12.102012 -24.586133 33.658682 0.554430 2.389783 0.022459 -0.010006 -129122.000000 0 0 1
19.447160 13.624612 -24.886633 34.397189 0.611126 2.379667 0.034299 -0.013073 -250466.000000 0 0 1
20.297360 14.083612 -25.892383 35.787518 0.606596 2.379660 0.027798 -0.019683 -16420.900000 0 0 1
20.233460 15.491312 -26.084843 36.466323 0.653429 2.367869 0.030372 -0.017379 -304035.000000 0 0 1
19.019060 15.974212 -26.866703 36.588520 0.698604 2.395421 0.041803 -0.020537 729895.000000 0 0 1
17.715260 15.730212 -26.291863 35.391130 0.726116 2.408180 0.039539 -0.022480 600346.000000 0 0 1
16.752060 15.805312 -27.323453 35.735283 0.756327 2.441228 0.033906 -0.024255 -450151.000000 0 0 1
15.395260 15.276412 -26.871003 34.531632 0.781523 2.462521 0.025393 -0.021550 -382862.000000 0 0 1
15.435260 13.867012 -26.645463 33.771615 0.731930 2.479960 0.028307 -0.017556 -2625.460000 0 0 1
14.111560 13.480212 -26.360513 32.798306 0.762520 2.504310 0.018898 -0.022420 -219420.000000 0 0 1
13.960860 11.950112 -26.287613 32.074123 0.707951 2.531490 0.011913 -0.017457 294054.000000 0 0 1
12.605660 11.525812 -26.185233 31.263612 0.740679 2.563603 0.025364 -0.020369 323487.000000 0 0 1
12.474060 10.122712 -26.194323 30.728066 0.681715 2.591461 0.028261 -0.023775 593410.000000 0 0 1
10.967160 9.766712 -25.960003 29.825979 0.727565 2.626774 0.021350 -0.024595 595473.000000 0 0 1
10.458660 10.268312 -24.757033 28.770340 0.776215 2.607057 0.029844 -0.026375 221912.000000 0 0 1
9.278660 9.616612 -24.299833 27.731834 0.803282 2.638806 0.027283 -0.028387 190532.000000 0 0 1
8.521860 10.313412 -23.151133 26.738802 0.880230 2.617594 0.025711 -0.025924 -437582.000000 0 0 1
7.998160 11.513412 -23.621533 27.468273 0.963648 2.605982 0.018082 -0.023982 278246.000000 0 0 1
7.248660 12.303912 -22.661833 26.785966 1.038404 2.579298 0.013308 -0.013119 993023.000000 0 0 1
8.207260 12.982512 -21.622033 26.522011 1.007052 2.523955 0.017182 -0.018156 526447.000000 0 0 1
8.908960 12.140712 -20.729833 25.622108 0.937738 2.513348 0.033646 -0.023751 -571179.000000 0 0 1
9.911360 12.825212 -20.086633 25.810733 0.912860 2.462635 0.037036 -0.016264 -453812.000000 0 0 1
11.129160 12.052912 -19.520133 25.498362 0.825225 2.442684 0.048223 -0.012056 -295481.000000 0 0 1
12.052660 11.464412 -20.407533 26.328060 0.760390 2.457709 0.052516 -0.014645 -22074.300000 0 0 1
11.639360 10.518012 -21.431633 26.559709 0.734833 2.509720 0.051713 -0.021501 -969957.000000 0 0 1
12.855460 9.845112 -22.086033 27.385798 0.653556 2.508967 0.062578 -0.017631 -58169.400000 0 0 1
13.607260 9.094012 -21.156133 26.747720 0.589147 2.483158 0.061173 -0.023340 116072.000000 0 0 1
14.616360 8.419912 -21.888433 27.633972 0.522631 2.485012 0.047761 -0.023517 -12494.000000 0 0 1
15.230460 7.148312 -21.222533 27.082488 0.438823 2.471277 0.061297 -0.018433 -197548.000000 0 0 1
16.016160 7.422212 -20.120833 26.766668 0.433958 2.421451 0.036236 -0.013432 -275722.000000 0 0 1
16.456160 6.199312 -19.621833 26.348681 0.360275 2.410880 0.020162 -0.011129 16068.600000 0 0 1
17.267560 6.232712 -18.291333 25.915018 0.346396 2.354376 0.031243 -0.009770 476829.000000 0 0 1
18.571360 6.824312 -18.421533 27.033674 0.352148 2.320510 0.025036 -0.008805 1059890.000000 0 0 1
19.226760 7.198512 -17.178433 26.769113 0.358245 2.267543 0.013939 -0.004982 366024.000000 0 0 1
19.879060 6.006712 -16.401233 26.462389 0.293440 2.239277 -0.000243 -0.005947 343289.000000 0 0 1
21.113460 5.601112 -17.025733 27.695238 0.259313 2.232869 -0.018138 0.002995 1003940.000000 0 0 1
21.681760 4.406212 -16.529733 27.617847 0.200492 2.212444 -0.004712 0.001083 -383923.000000 0 0 1
23.140660 4.166512 -16.920733 28.968279 0.178143 2.194582 -0.031433 0.023494 -403085.000000 0 0 1
23.726360 3.066812 -16.249233 28.920288 0.128545 2.167432 -0.026323 0.013569 -72658.700000 0 0 1
24.971760 2.639012 -16.724333 30.170457 0.105289 2.158352 -0.026109 0.010565 -542855.000000 0 0 1
25.519460 1.512912 -15.826033 30.066510 0.059215 2.125119 -0.019020 0.004646 -614053.000000 0 0 1
24.923860 0.208712 -15.841433 29.532920 0.008374 2.136961 -0.003163 -0.005645 -452041.000000 0 0 1
25.909560 -0.758888 -16.067333 30.496564 -0.029282 2.125695 -0.007255 0.001457 -768132.000000 0 0 1
25.497460 -2.212388 -16.290433 30.337985 -0.086552 2.137632 -0.010421 -0.009139 -528969.000000 0 0 1
25.025360 -2.872488 -15.122533 29.380450 -0.114283 2.111471 -0.000781 -0.004681 450291.000000 0 0 1
24.939860 -4.237988 -15.312333 29.570673 -0.168320 2.115099 -0.000257 0.000180 -956218.000000 0 0 1
24.517960 -5.104388 -14.061633 28.721327 -0.205258 2.082414 0.009556 -0.002344 1759150.000000 0 0 1
23.092660 -5.128788 -13.736233 27.354332 -0.218549 2.096890 0.015357 -0.000299 1548120.000000 0 0 1
22.186760 -5.649488 -14.653233 27.182462 -0.249335 2.140128 0.018182 -0.001659 -109158.000000 0 0 1
20.668560 -5.509188 -14.338333 25.751278 -0.260493 2.161326 0.026377 -0.004131 319529.000000 0 0 1
20.135360 -6.292488 -13.276933 24.925992 -0.302893 2.132530 0.024232 -0.008048 203524.000000 0 1 0
20.512660 -6.034688 -11.960233 24.499670 -0.286121 2.080799 0.032337 -0.009352 -897481.000000 0 1 0
20.184660 -7.195188 -10.992633 24.083795 -0.342425 2.044778 0.028985 -0.009531 -786369.000000 0 1 0
18.882560 -7.678088 -10.890533 23.110773 -0.386203 2.061483 0.031843 -0.007908 -9839.280000 0 1 0
18.568860 -8.598688 -11.949633 23.696703 -0.433670 2.099337 0.032416 -0.012655 -659161.000000 0 1 0
17.255260 -9.414888 -11.854133 22.954402 -0.499477 2.113462 0.043828 -0.007562 -354199.000000 0 1 0
16.238960 -8.462588 -11.869733 21.822231 -0.480407 2.145908 0.040407 -0.011604 -588401.000000 0 1 0
15.003160 -8.916488 -12.344433 21.377174 -0.536223 2.186409 0.038942 -0.007705 474130.000000 0 1 0
13.922760 -7.832388 -12.765733 20.448801 -0.512435 2.245003 0.027077 -0.008504 372970.000000 0 1 0
14.121760 -7.074788 -13.949933 21.073143 -0.464435 2.294250 0.032919 -0.006146 4987.530000 0 1 0
15.188260 -6.167588 -13.830333 21.447622 -0.385733 2.271613 0.036128 -0.008034 -166839.000000 0 1 0
15.045560 -5.006388 -14.864233 21.734263 -0.321224 2.323902 0.021817 -0.008367 -184463.000000 0 1 0
13.986860 -4.179788 -14.447533 20.538600 -0.290389 2.351013 0.021965 -0.008675 -16904.200000 0 1 0
13.577260 -3.078488 -15.240933 20.642313 -0.222969 2.401394 0.014560 -0.014453 -253727.000000 0 1 0
14.624360 -1.965988 -15.415233 21.339316 -0.133631 2.378044 0.013524 -0.016468 155200.000000 0 1 0
15.647260 -2.313188 -16.407633 22.790305 -0.146770 2.374511 0.006517 -0.006843 935651.000000 0 1 0
16.795560 -1.486688 -16.238533 23.409208 -0.088287 2.337384 0.012580 -0.001061 735058.000000 0 1 0
17.905460 -2.104688 -15.334733 23.668317 -0.117008 2.275622 0.020311 -0.000877 -13845.200000 0 1 0
17.395960 -2.269088 -14.000933 22.445363 -0.129705 2.244364 0.013857 0.000012 248130.000000 0 1 0
18.524060 -2.573288 -13.239333 22.913807 -0.138033 2.186813 0.009730 0.002779 -178762.000000 0 1 0
18.161860 -2.694088 -11.789833 21.819978 -0.147264 2.141617 0.008077 0.005761 -323603.000000 0 1 0
17.992860 -1.480788 -11.036133 21.159678 -0.082114 2.119480 0.011809 0.005393 528854.000000 0 1 0
17.453860 -1.809388 -9.794933 20.096065 -0.103298 2.079912 0.008737 0.002145 -1239600.000000 0 1 0
17.437760 -0.654588 -8.782333 19.535438 -0.037521 2.037068 0.004656 0.005275 579426.000000 0 1 0
18.674460 -0.215588 -8.162533 20.381582 -0.011544 1.982843 -0.007242 0.010309 1196660.000000 0 1 0
19.682660 0.393312 -8.920633 21.613410 0.019980 1.996252 -0.016246 0.015957 -430434.000000 0 1 0
19.317160 1.744212 -9.587133 21.635805 0.090049 2.029866 -0.016062 0.012606 -850475.000000 0 1 0
19.183060 2.828212 -8.702333 21.253686 0.146378 1.992648 -0.018652 0.012268 318039.000000 0 1 0
18.547160 3.849612 -9.400533 21.146789 0.204652 2.031454 -0.019484 0.004787 -739176.000000 0 1 0
18.822560 5.317012 -8.947133 21.508384 0.275308 1.999820 0.012722 0.007847 171840.000000 0 1 0
17.948760 6.220312 -9.661833 21.311999 0.333606 2.041319 0.003646 0.000788 776444.000000 0 1 0
18.464960 7.511412 -9.540733 22.099811 0.386348 2.017185 0.025798 0.003755 -279460.000000 0 1 0
-24.552140 -29.060448 5.821567 38.486463 0.869291 1.418951 0.000814 0.002774 -215357.000000 0 0 1
-25.021340 -28.077348 6.699367 38.200608 0.842888 1.394511 0.009170 0.003432 -699496.000000 0 0 1
-24.010240 -27.220818 7.085267 36.981963 0.847985 1.378017 0.001450 0.001880 -890450.000000 0 0 1
-24.427740 -26.255978 8.217367 36.791520 0.821454 1.345547 -0.006759 0.007520 471512.000000 0 0 1
-25.495160 -25.330348 7.812467 36.778585 0.782155 1.356747 -0.013375 0.006902 2054810.000000 0 0 1
-26.858290 -25.810508 7.925867 38.083716 0.765507 1.361147 -0.009181 0.009953 1343410.000000 0 0 1
-27.454460 -26.313818 9.308967 39.151261 0.764187 1.330728 -0.007759 0.011282 -892089.000000 0 0 1
-26.728260 -27.357798 9.792767 39.480974 0.797037 1.320142 -0.010460 0.007768 -643799.000000 0 0 1
-27.068240 -27.719768 11.101067 40.302715 0.797289 1.291747 -0.003227 0.011311 -720840.000000 0 0 1
-25.915880 -28.458708 11.796067 40.257646 0.832129 1.273418 -0.003011 0.008117 1750100.000000 0 0 1
-24.724540 -27.660668 12.167267 39.044306 0.841388 1.253891 -0.003313 0.009430 1421280.000000 0 0 1
-25.003740 -26.850908 13.256067 39.011301 0.821005 1.224091 0.003102 0.009856 149343.000000 0 0 1
-23.740340 -26.205228 13.985967 38.025320 0.834710 1.194147 0.011233 0.010076 553512.000000 0 0 1
-22.921740 -27.223528 14.476967 38.420167 0.870975 1.184450 0.024092 0.007448 -679063.000000 0 0 1
-21.797640 -26.624058 15.073567 37.565809 0.884745 1.157907 0.019199 0.002969 135682.000000 0 0 1
-20.894740 -27.690348 15.773267 38.106974 0.924367 1.144039 0.019548 -0.001229 -370637.000000 0 0 1
-21.596340 -28.350908 16.756567 39.382209 0.919817 1.131298 0.022116 0.000167 35649.000000 0 0 1
-20.811040 -29.325718 17.406567 39.951041 0.953622 1.119983 0.012096 0.002843 259578.000000 0 0 1
-21.706340 -30.185398 18.384467 41.476645 0.947366 1.111577 0.016086 0.000389 146588.000000 0 0 1
-22.653140 -30.962598 17.705467 42.253175 0.939157 1.138416 0.017164 -0.004975 13629.500000 0 0 1
-23.093140 -32.023228 18.569067 43.630156 0.946025 1.131170 0.012958 -0.002858 -138162.000000 0 0 1
-24.124940 -33.028368 18.053467 44.708092 0.939938 1.155121 0.005293 -0.003682 -170517.000000 0 0 1
-23.668740 -33.709838 16.910367 44.525531 0.958641 1.181227 0.007710 -0.003237 534510.000000 0 0 1
-24.616240 34.402561 16.482367 45.400043 -0.949720 1.199260 0.007794 -0.007389 -247040.000000 0 0 1
-24.366340 33.928118 15.035767 44.394932 -0.947976 1.225281 0.010309 -0.013361 703948.000000 0 0 1
-23.273640 33.023173 14.816567 43.031650 -0.956878 1.219284 -0.001362 -0.007614 1681270.000000 0 0 1
-21.944640 33.588470 14.937267 42.812084 -0.992078 1.214396 -0.000573 -0.003036 518083.000000 0 0 1
-20.791740 32.627213 14.631167 41.363058 -1.003435 1.209245 0.004820 -0.011910 -237795.000000 0 0 1
-20.854240 32.039033 13.347167 40.491306 -0.993788 1.234884 0.010100 -0.012100 -145994.000000 0 0 1
-20.091840 30.885203 13.403467 39.207534 -0.994047 1.221901 0.010135 -0.015908 -245798.000000 0 0 1
-20.078240 30.174353 12.036867 38.190489 -0.983666 1.250150 0.014723 -0.007021 52310.400000 0 0 1
-19.159640 30.729623 11.112667 37.879980 -1.013283 1.273051 0.007427 -0.007501 101943.000000 0 0 1
-19.322440 30.156343 9.813467 37.135776 -1.000957 1.303361 0.012521 -0.006748 24024.100000 0 0 1
-18.714340 31.080183 8.772067 37.324971 -1.028811 1.333558 -0.000789 -0.006959 -827749.000000 0 0 1
-17.323940 31.043273 8.681567 36.594717 -1.061788 1.331277 0.003841 -0.014578 -749233.000000 0 0 1
-16.908040 31.676703 7.446967 36.670869 -1.080500 1.366298 0.008305 -0.011451 -119901.000000 0 0 1
-16.326040 30.602043 6.492967 35.287154 -1.080713 1.385738 0.007742 -0.009722 -723641.000000 0 0 1
-17.238040 29.613583 6.071967 34.799183 -1.043643 1.395413 0.003532 -0.003726 -123592.000000 0 0 1
-17.330440 28.503413 6.893767 34.063363 -1.024506 1.367008 -0.000458 -0.001946 -310458.000000 0 0 1
-18.403940 27.553483 6.318967 33.731718 -0.981916 1.382353 0.010716 0.004756 79740.800000 0 0 1
-18.069440 26.901343 5.148267 32.812979 -0.979322 1.413248 0.015847 -0.002762 32119.600000 0 0 1
-19.220440 26.239463 4.708067 32.864884 -0.938589 1.427047 0.036138 -0.001968 -601930.000000 0 0 1
-18.914540 25.302823 3.469267 31.780945 -0.928880 1.461416 0.039540 -0.003681 -1183380.000000 0 0 1
-18.520240 26.033263 2.291467 32.030937 -0.952456 1.499196 0.032304 -0.006952 945317.000000 0 0 1
-17.264540 26.738183 2.278667 31.909044 -0.997458 1.499324 0.020715 -0.007093 274409.000000 0 0 1
-16.050140 25.775973 2.482367 30.465881 -1.013868 1.489226 0.008021 -0.009480 -1122880.000000 0 0 1
-15.884640 24.679003 1.647367 29.395387 -0.998898 1.514725 0.014950 -0.006803 42739.500000 0 0 1
-15.461040 25.019403 0.327967 29.412954 -1.017274 1.559646 0.015156 -0.005388 -305398.000000 0 0 1
-15.251140 23.734743 -0.473233 28.216294 -0.999665 1.587569 0.017266 -0.000122 -631730.000000 0 0 1
-16.306640 22.833643 -0.549533 28.063923 -0.950637 1.590379 0.020908 -0.003445 -625628.000000 0 0 1
-16.155440 21.700743 -1.438933 27.092269 -0.930847 1.623934 0.014693 -0.001981 -67734.900000 0 0 1
-15.222240 20.588643 -0.833433 25.618420 -0.934145 1.603335 0.020539 -0.002510 277474.000000 0 0 1
-15.846540 19.811343 0.175667 25.369923 -0.896133 1.563872 0.025961 -0.006633 -21205.600000 0 0 1
-15.047840 18.746843 0.616067 24.047061 -0.894419 1.545174 0.064262 -0.033616 -407889.000000 0 1 0
-15.856040 17.708743 1.381667 23.810136 -0.840540 1.512735 0.060815 -0.026869 86416.300000 0 1 0
-16.619240 16.801743 0.598767 23.640140 -0.790859 1.545465 0.042361 -0.023304 235904.000000 0 1 0
-17.318740 15.865743 1.369267 23.527334 -0.741641 1.512564 0.047181 -0.034539 -80540.900000 0 1 0
-17.622140 14.591143 0.539567 22.885201 -0.691583 1.547217 0.055367 -0.031914 -202583.000000 0 1 0
-18.567940 14.836643 -0.489133 23.772539 -0.674159 1.591373 0.047959 -0.034002 369502.000000 0 1 0
-19.168540 13.638043 -0.929533 23.543432 -0.618390 1.610288 0.039206 -0.025385 -27254.500000 0 1 0
-20.360840 13.945643 -1.908933 24.752551 -0.600537 1.647994 0.052477 -0.021146 460530.000000 0 1 0
-21.461640 13.044743 -1.983433 25.193279 -0.546147 1.649607 0.052409 -0.017911 1265520.000000 0 0 1
-22.311440 12.924843 -0.815033 25.797601 -0.525054 1.602395 0.031474 -0.007544 -271537.000000 0 0 1
-23.355940 14.026243 -0.603633 27.250684 -0.540819 1.592949 0.006587 -0.003421 -913604.000000 0 0 1
-22.835140 15.296643 -0.227633 27.486046 -0.590219 1.579078 -0.008192 -0.007457 -234581.000000 0 0 1
-23.782440 16.268443 0.083267 28.814469 -0.599943 1.567907 -0.024818 -0.004101 -570978.000000 0 0 1
-23.246140 17.379843 1.005267 29.042254 -0.641992 1.536175 -0.026926 -0.006641 5554.120000 0 0 1
-23.123940 16.998843 2.357967 28.796480 -0.633909 1.488821 -0.015422 -0.011513 209727.000000 0 0 1
-22.384340 17.930443 3.106867 28.848086 -0.675366 1.462890 -0.017181 -0.015863 -730973.000000 0 0 1
-23.204540 19.094343 3.642467 30.270649 -0.688532 1.450174 -0.010137 -0.018341 -679384.000000 0 0 1
-24.159240 18.632343 4.609467 30.855798 -0.656951 1.420848 -0.006784 -0.023270 -658324.000000 0 0 1
-25.383470 19.212043 4.342967 32.129185 -0.647885 1.435209 -0.017807 -0.023933 -1021660.000000 0 0 1
-26.320550 18.491243 3.358767 32.341595 -0.612429 1.466756 0.011451 -0.016005 -1312100.000000 0 0 1
-27.522140 19.207743 3.271467 33.721033 -0.609316 1.473628 0.020228 -0.016081 -505759.000000 0 0 1
-28.251310 18.492543 2.290667 33.843136 -0.579583 1.503060 0.038834 -0.010291 -6170.530000 0 0 1
-29.541090 19.218143 1.790467 35.287658 -0.576766 1.520035 0.044070 -0.021454 -534654.000000 0 0 1
-30.536230 19.235043 2.735967 36.193007 -0.562122 1.495130 0.068640 -0.016453 -315868.000000 0 0 1
-31.553910 20.161243 2.331067 37.517447 -0.568565 1.508623 0.047871 -0.021834 414185.000000 0 0 1
-32.351380 20.744343 3.524067 38.592209 -0.570178 1.479353 0.038516 -0.013150 -4643.370000 0 0 1
-31.486440 21.592043 4.256167 38.415195 -0.601103 1.459775 0.035959 -0.020301 38043.100000 0 0 1
-31.960920 22.083943 5.444867 39.228147 -0.604638 1.431547 0.022875 -0.013650 -824206.000000 0 0 1
-31.098780 23.155343 6.074167 39.245376 -0.640019 1.415398 0.014783 -0.006387 -368599.000000 0 0 1
-31.100880 24.341253 5.302167 39.848141 -0.664075 1.437341 0.009905 -0.004558 356375.000000 0 0 1
-30.174880 25.219793 5.909267 39.767836 -0.696185 1.421650 -0.010938 -0.002572 -97987.500000 0 0 1
-30.450240 26.673913 5.533067 40.857430 -0.719387 1.434955 -0.013523 0.001249 -547097.000000 0 0 1
-31.590000 27.129303 6.197967 42.099192 -0.709577 1.423036 -0.000844 0.001725 -230858.000000 0 0 1
-31.766690 28.507073 5.981367 43.099334 -0.731371 1.431566 -0.001693 0.001243 -42108.400000 0 0 1
-32.739110 29.116203 7.020767 44.372219 -0.726894 1.411904 -0.001992 0.004688 -452732.000000 0 0 1
-32.280040 29.186473 8.316367 44.305904 -0.735111 1.381973 -0.006077 0.007162 1564.090000 0 0 1
-33.182440 29.854173 9.180667 45.570063 -0.732648 1.367945 0.001262 0.010853 634878.000000 0 0 1
-34.319610 29.011923 9.898167 46.016313 -0.701786 1.354001 0.001939 0.011260 310100.000000 0 0 1
-33.816130 27.866123 10.594967 45.081091 -0.689233 1.333557 0.007855 0.001929 -164584.000000 0 0 1
-34.701354 27.380933 11.556767 45.688711 -0.668025 1.315072 0.017245 0.002394 -547464.000000 0 0 1
-34.408365 26.032863 12.108067 44.813512 -0.647702 1.297208 0.018395 0.002499 -166805.000000 0 0 1
-33.327660 26.179533 13.020067 44.335347 -0.665849 1.272730 0.016827 -0.008591 190942.000000 0 0 1
-33.189660 25.064623 13.878467 43.845190 -0.646817 1.248724 0.030411 -0.007631 101076.000000 0 0 1
-31.968710 25.181483 14.820467 43.309950 -0.667191 1.221544 0.034302 -0.012753 -36705.600000 0 0 1
-32.174220 26.197043 15.766067 44.385069 -0.683355 1.207656 0.032761 -0.016665 1069930.000000 0 0 1
-30.932950 26.661933 16.371967 43.997129 -0.711377 1.189510 0.055418 -0.016976 982889.000000 0 0 1
-31.139200 27.808133 17.428867 45.240551 -0.728949 1.175319 0.043585 -0.023297 -279358.000000 0 0 1
-31.567130 29.054323 16.941467 46.126464 -0.743971 1.194710 0.057278 -0.024270 33765.700000 0 0 1
-31.669330 30.062393 17.935367 47.205628 -0.759373 1.181064 0.048793 -0.025008 -113514.000000 0 0 1
-31.371700 31.446873 17.318367 47.676149 -0.786595 1.199042 0.029397 -0.014947 20933.400000 0 0 1
-30.055980 31.611913 16.839567 46.757310 -0.810624 1.202369 0.028387 -0.012899 -385687.000000 0 0 1
-29.799350 32.881643 16.387567 47.304926 -0.834533 1.217040 0.017260 -0.001330 -137932.000000 0 0 1
-28.368960 33.035993 15.791167 46.319928 -0.861256 1.222906 0.030189 -0.006885 274830.000000 0 0 1
-28.050130 32.403393 14.551667 45.260807 -0.857284 1.243476 0.020295 -0.010084 241056.000000 0 0 1
-27.683080 31.016583 14.732067 44.106861 -0.842126 1.230243 0.024754 -0.013248 -432394.000000 0 0 1
-28.813160 30.069383 14.353067 44.049705 -0.806729 1.238898 0.036349 -0.015965 -192293.000000 0 0 1
-28.934560 29.827573 12.930667 43.521202 -0.800594 1.269130 0.037883 -0.014303 236482.000000 0 0 1
-29.965350 28.869103 12.687867 43.500911 -0.766768 1.274825 0.040292 -0.010657 419885.000000 0 0 1
-30.209440 28.642663 11.207667 43.111764 -0.758782 1.307808 0.023538 -0.004185 861348.000000 0 0 1
-29.060110 27.973823 10.635067 41.714859 -0.766354 1.313004 0.004510 0.002195 804630.000000 0 0 1
-29.127180 28.148803 9.238467 41.546324 -0.768318 1.346556 0.006432 -0.004089 291503.000000 0 0 1
-28.022710 27.377973 8.452667 40.078339 -0.773761 1.358297 -0.000127 -0.007851 380612.000000 0 0 1
-27.805740 27.797503 7.113567 39.955765 -0.785250 1.391806 -0.007254 -0.006302 -12054.900000 0 0 1
-26.678150 27.143093 6.538267 38.616319 -0.794037 1.400663 0.003679 -0.002171 -54668.000000 0 0 1
-26.445310 27.411353 5.022867 38.418302 -0.803334 1.439679 -0.006037 -0.003578 -107327.000000 0 0 1
-25.632260 28.546743 4.741967 38.657671 -0.839140 1.447821 0.003874 -0.004557 285000.000000 0 0 1
-25.346760 28.675123 3.357367 38.418652 -0.846932 1.483296 -0.004444 0.002201 -161974.000000 0 0 1
-24.255240 29.707283 3.021767 38.470384 -0.886090 1.492167 0.002364 -0.000139 677517.000000 0 0 1
-22.954040 29.353763 3.511367 37.428078 -0.907141 1.476842 0.017735 -0.002593 487913.000000 0 0 1
-21.991140 30.370433 3.335767 37.644399 -0.944080 1.482067 0.017853 -0.012357 1517310.000000 0 0 1
-20.495540 29.821683 3.271767 36.333241 -0.968665 1.480625 0.015044 -0.013347 1327780.000000 0 0 1
-19.565740 30.827323 3.034167 36.638070 -1.005260 1.487887 0.007635 -0.013249 -180201.000000 0 0 1
-18.216040 30.363993 3.011467 35.536814 -1.030434 1.485952 0.012333 -0.010825 975919.000000 0 0 1
-17.173140 31.415683 2.542067 35.893230 -1.070535 1.499914 0.011889 -0.013558 153558.000000 0 0 1
-17.161740 32.604923 3.349067 36.997602 -1.086288 1.480151 0.007036 -0.014880 -52363.800000 0 0 1
-16.131440 33.513947 2.992567 37.314387 -1.122192 1.490511 0.000808 -0.006311 20522.300000 0 0 1
-15.931340 -34.318963 3.842067 38.031044 1.136185 1.469599 -0.002475 -0.006270 34791.400000 0 0 1
-16.892140 -33.278188 3.712367 37.504184 1.101084 1.471649 -0.001435 -0.008981 48536.200000 0 0 1
-16.474640 -32.178468 4.448667 36.423319 1.097613 1.448353 0.002861 -0.009160 298832.000000 0 0 1
-17.538640 -31.041768 4.654967 35.956418 1.056509 1.440971 -0.005529 -0.001701 304783.000000 0 0 1
-17.929140 -30.336358 3.510167 35.412850 1.037012 1.471512 -0.004353 -0.003658 756382.000000 0 0 1
-19.041240 -29.468078 3.845067 35.294773 0.997122 1.461638 -0.007104 -0.001828 412011.000000 0 0 1
-19.527640 -28.555768 2.687467 34.698459 0.970997 1.493267 -0.009381 -0.002966 -298473.000000 0 0 1
-18.678840 -27.498238 2.384967 33.327769 0.974116 1.499174 -0.005055 -0.002043 -68795.000000 0 0 1
-19.261840 -26.590088 1.435867 32.865072 0.943882 1.527093 -0.000645 -0.004835 16381.300000 0 0 1
-18.425040 -25.332328 1.352667 31.353447 0.941961 1.527640 0.003202 -0.004763 203984.000000 0 0 1
-17.124140 -25.501448 0.812967 30.728178 0.979457 1.544337 0.011357 -0.004929 -451874.000000 0 0 1
-16.268840 -24.432588 1.022367 29.371274 0.983348 1.535981 0.016289 -0.005757 -314434.000000 0 0 1
-14.815740 -24.763488 0.644367 28.864367 1.031635 1.548471 0.026490 -0.009688 -185483.000000 0 0 1
-14.641040 -24.720988 -0.775233 28.741751 1.036094 1.597772 0.026178 -0.001523 -36118.500000 0 0 1
-14.484040 -23.425088 -1.328733 27.573315 1.017020 1.619004 0.024298 -0.009528 -416157.000000 0 0 1
-14.678940 -23.508988 -2.870033 27.863612 1.012631 1.673982 0.003762 0.006107 164080.000000 0 0 1
-13.597940 -24.175488 -3.510333 27.958552 1.058431 1.696683 0.025292 0.001761 235828.000000 0 0 1
-13.700340 -23.993488 -4.930533 28.065939 1.051972 1.747389 0.022612 0.003018 785254.000000 0 0 1
-12.472540 -24.642088 -5.666233 28.194023 1.102243 1.773147 0.035513 0.002809 685297.000000 0 0 1
-12.608240 -26.038868 -5.647233 29.476797 1.119862 1.763570 0.016357 0.001998 -224125.000000 0 0 1
-11.657440 -26.603308 -6.525433 29.769333 1.157803 1.791791 0.024586 0.005355 179005.000000 0 0 1
22.550160 12.538812 28.661604 38.564479 0.507469 0.732937 0.003531 0.009270 -528757.000000 0 0 1
23.198060 11.372712 29.061684 38.885345 0.455812 0.726704 -0.002808 0.005738 139557.000000 0 0 1
22.690960 10.755212 30.241864 39.308073 0.442621 0.692965 -0.000510 0.000390 -707709.000000 0 0 1
22.863760 11.492712 31.588374 40.652913 0.465774 0.680869 0.008021 -0.007728 -393814.000000 0 0 1
21.980160 12.548712 31.746904 40.601275 0.518756 0.673058 0.008933 0.000658 -52481.500000 0 0 1
22.434760 13.374812 32.774924 41.909422 0.537595 0.672861 0.002456 0.003239 -258780.000000 0 0 1
21.320160 14.288412 33.382419 42.108121 0.590433 0.655442 -0.003277 0.006335 728342.000000 0 0 1
20.317060 13.551912 34.098961 41.942537 0.588248 0.621523 0.004874 0.008178 1284520.000000 0 0 1
19.317760 14.352812 -34.312652 41.911062 0.638997 2.529942 0.001313 0.010234 969654.000000 0 0 1
18.056560 13.599012 -33.799173 40.661488 0.645504 2.552118 0.010940 0.006580 218707.000000 0 0 1
17.021760 13.468512 34.350118 40.633382 0.669384 0.563545 0.019905 0.006437 256856.000000 0 0 1
15.914960 12.912312 -34.052233 39.743783 0.681612 2.599816 0.019844 -0.000674 -490582.000000 0 0 1
14.734060 12.413612 34.277458 39.320916 0.700130 0.512062 0.019703 -0.000773 -586813.000000 0 0 1
14.966160 11.335112 33.387698 38.304165 0.648209 0.512244 0.012554 0.006364 -551694.000000 0 0 1
13.795860 10.842112 32.823814 37.219348 0.666082 0.490915 0.023968 0.001528 -233141.000000 0 0 1
14.184960 9.762912 31.784324 36.149285 0.602802 0.496507 0.031970 0.000441 175113.000000 0 0 1
14.439660 8.487512 32.304714 36.388682 0.531394 0.478323 0.029644 0.005627 -13012.400000 0 0 1
14.873760 7.683012 31.209674 35.416114 0.476798 0.492342 0.027749 -0.002548 197218.000000 0 0 1
15.246460 6.227312 31.604214 35.637905 0.387764 0.480390 0.030659 -0.006145 473105.000000 0 0 1
14.124560 5.389812 31.883234 35.285888 0.364537 0.442768 0.016979 0.002311 304658.000000 0 0 1
14.601260 4.154812 32.436854 35.813527 0.277224 0.437733 0.022297 -0.004761 5128.120000 0 0 1
13.478760 3.140212 32.577354 35.395224 0.228892 0.401724 0.001770 -0.002379 -152013.000000 0 0 1
13.860760 1.861012 33.136338 35.966664 0.133467 0.399368 0.008652 -0.009196 -606420.000000 0 0 1
12.726460 1.174212 33.542759 35.895100 0.092005 0.364039 0.004780 -0.011612 -623545.000000 0 0 1
13.053960 -0.252988 33.936094 36.361083 -0.019378 0.367278 -0.016003 -0.011676 -95729.400000 0 0 1
13.196460 -1.321388 32.996064 35.561677 -0.099799 0.382178 -0.029479 -0.007930 -11077.200000 0 0 1
13.991360 -2.388188 33.443292 36.330639 -0.169061 0.401372 0.005975 -0.014262 -395514.000000 0 0 1
14.005860 -3.598988 32.422344 35.501059 -0.251521 0.419536 0.012621 -0.020938 -1354120.000000 0 0 1
14.382560 -4.897988 32.928374 36.264668 -0.328232 0.432307 0.019541 -0.023268 631750.000000 0 0 1
15.740060 -5.176788 33.287223 37.183166 -0.317748 0.461865 0.019246 -0.026095 864071.000000 0 0 1
16.868660 -4.701388 32.327274 36.765573 -0.271808 0.496446 0.023334 -0.027702 -1033910.000000 0 0 1
17.033560 -3.281588 32.298814 36.662302 -0.190322 0.492863 0.025734 -0.026536 -113485.000000 0 0 1
18.129160 -2.885388 31.502144 36.460622 -0.157833 0.527626 0.055534 -0.031391 -86250.500000 0 0 1
18.171660 -1.315188 31.447784 36.344216 -0.072250 0.525095 0.059036 -0.034666 -534329.000000 0 0 1
18.338160 -0.703188 32.752714 37.543613 -0.038327 0.510723 0.043667 -0.025398 242059.000000 0 0 1
18.047760 0.719512 32.749704 37.400300 0.039846 0.504009 0.038480 -0.018087 -352013.000000 0 0 1
19.116060 1.566712 32.083114 37.379199 0.081775 0.538820 0.053270 -0.022449 -507685.000000 0 0 1
19.304160 1.416412 30.676854 36.272940 0.073242 0.562878 0.043706 -0.024843 569388.000000 0 0 1
20.353860 2.251612 30.116714 36.419306 0.110175 0.597146 0.043413 -0.017928 493394.000000 0 0 1
20.179060 3.792012 29.942644 36.306139 0.185752 0.601077 0.041147 -0.006095 -323530.000000 0 0 1
20.157560 4.438912 31.212444 37.419885 0.216751 0.584272 0.033891 -0.008688 443044.000000 0 0 1
19.796760 5.829512 31.121784 37.342474 0.286374 0.585537 0.026751 -0.003348 -474849.000000 0 0 1
19.458060 6.441312 32.491054 38.415819 0.319681 0.562784 0.024395 0.000376 -124806.000000 0 0 1
18.307460 5.870112 33.110148 38.287115 0.310284 0.526073 0.018995 -0.003352 412033.000000 0 0 1
18.141960 6.454912 34.410629 39.432068 0.341833 0.510181 0.015123 0.000251 -169109.000000 0 0 1
16.945360 5.848812 -33.959033 38.400127 0.332354 2.655889 0.012376 0.000864 -532387.000000 0 0 1
17.029360 4.425912 -33.794513 38.100615 0.254273 2.661562 0.005045 -0.008951 -401873.000000 0 0 1
15.931860 3.801112 -33.180253 37.002727 0.234207 2.683048 0.008759 -0.014381 -312023.000000 0 0 1
15.805060 2.254012 -33.252463 36.886404 0.141658 2.693980 -0.000582 -0.017350 -440422.000000 0 0 1
16.845460 1.537612 -32.661863 36.782211 0.091025 2.663730 -0.009333 -0.009401 -480375.000000 0 0 1
16.845060 0.179112 -33.089433 37.130832 0.010633 2.670687 -0.003066 -0.014942 -270980.000000 0 0 1
17.940260 -0.696388 -32.440623 37.077377 -0.038798 2.636116 0.004619 -0.011496 -144252.000000 0 0 1
17.803960 -0.885988 -31.058023 35.810149 -0.049723 2.620542 0.011483 -0.010588 67684.700000 0 0 1
17.908960 0.284412 -30.180753 35.095435 0.015880 2.605992 0.008053 -0.008511 -318657.000000 0 0 1
17.604660 -0.014388 -28.690143 33.660787 -0.000817 2.591223 -0.005055 -0.001317 -435435.000000 0 0 1
16.233260 -0.185888 -28.469793 32.773196 -0.011451 2.623351 0.002995 -0.007400 -289489.000000 0 0 1
15.828860 -0.486388 -27.096433 31.384806 -0.030718 2.612690 -0.000808 -0.002843 98238.100000 0 0 1
16.624360 -1.562088 -26.242173 31.104037 -0.093689 2.574917 0.009307 0.001076 -910917.000000 0 0 1
17.915060 -1.103488 -25.953133 31.555224 -0.061518 2.536531 0.014185 -0.000669 -625215.000000 0 0 1
18.778860 -2.058788 -25.413633 31.666022 -0.109197 2.502357 0.019614 -0.001124 -132288.000000 0 0 1
19.430460 -2.907888 -26.483043 32.974993 -0.148554 2.503318 0.028207 -0.010976 -340501.000000 0 0 1
20.490560 -2.171188 -27.133733 34.070758 -0.105566 2.492105 0.036678 -0.006856 312262.000000 0 0 1
20.790560 -2.660888 -28.416073 35.310068 -0.127293 2.506065 0.039973 -0.011967 -782126.000000 0 0 1
22.139160 -2.182188 -28.906203 36.475648 -0.098250 2.485660 0.028475 -0.017951 -343486.000000 0 0 1
23.163160 -3.029688 -28.393153 36.767950 -0.130059 2.453133 0.019832 -0.018761 292093.000000 0 0 1
24.465860 -2.640688 -28.828143 37.902683 -0.107517 2.435007 0.006665 -0.021007 326334.000000 0 0 1
25.593560 -3.545888 -28.341973 38.351937 -0.137670 2.402377 0.012434 -0.022410 -691438.000000 0 0 1
25.704760 -4.717188 -29.120303 39.127721 -0.181495 2.410188 0.017224 -0.032046 665384.000000 0 0 1
26.866460 -5.533688 -28.943613 39.876824 -0.203129 2.383030 0.021489 -0.032076 185164.000000 0 0 1
26.624960 -6.563088 -27.803193 39.050994 -0.241683 2.363098 0.004927 -0.024919 -123967.000000 0 0 1
26.550160 -5.979888 -26.490493 37.979156 -0.221533 2.342700 -0.004870 -0.012906 360729.000000 0 0 1
26.330260 -7.000488 -25.571453 37.365607 -0.259861 2.324519 -0.027437 -0.007449 -463813.000000 0 0 1
26.507760 -6.617588 -24.097033 36.429669 -0.244647 2.293570 -0.032907 0.000760 -1241960.000000 0 0 1
27.782860 -6.402688 -23.638833 37.036146 -0.226500 2.263037 -0.037378 0.008824 -852965.000000 0 0 1
27.760560 -5.961688 -22.286633 36.095490 -0.211541 2.236275 -0.033792 0.005229 -785118.000000 0 0 1
29.086760 -5.487088 -21.735833 36.723210 -0.186454 2.204189 -0.023957 0.008797 -780224.000000 0 0 1
29.539960 -4.247688 -22.315933 37.264634 -0.142816 2.212861 -0.007374 0.003570 143353.000000 0 0 1
30.788360 -3.839188 -21.798533 37.918841 -0.124056 2.183246 -0.006411 0.006802 8823.320000 0 0 1
31.328860 -2.577588 -22.489633 38.651326 -0.082090 2.191809 0.004670 -0.001862 -471501.000000 0 0 1
30.602760 -1.420888 -22.195233 37.830889 -0.046397 2.197769 -0.002301 -0.006865 -78002.700000 0 0 1
31.135760 -0.260788 -22.782233 38.581520 -0.008376 2.202470 0.001814 -0.003703 -282418.000000 0 0 1
30.196160 0.936112 -22.728033 37.805395 0.030991 2.215779 0.005264 -0.001878 -7701.050000 0 0 1
29.153260 0.942712 -23.697133 37.581317 0.032325 2.253066 -0.001741 0.003612 306082.000000 0 0 1
28.106760 1.797012 -23.272633 36.535389 0.063848 2.261382 -0.005104 0.010595 360206.000000 0 0 1
26.963860 1.926812 -24.364633 36.392275 0.071338 2.304332 -0.004771 0.006842 95042.000000 0 0 1
26.079160 2.887912 -23.903433 35.494179 0.110287 2.309658 -0.006413 0.013064 -628103.000000 0 0 1
24.936360 2.952712 -24.719733 35.236426 0.117861 2.348351 0.007966 0.004397 -205485.000000 0 0 1
23.989960 4.098612 -24.292533 34.386683 0.169213 2.355269 0.011372 0.015094 -256782.000000 0 0 1
24.520360 5.445612 -24.478333 35.072661 0.218538 2.343302 0.002792 0.026383 137570.000000 0 0 1
23.652760 6.447212 -23.983333 34.296062 0.266113 2.345218 -0.000479 0.014664 -76200.800000 0 0 1
24.343360 7.631912 -23.240933 34.510668 0.303806 2.309651 0.004798 0.012812 173009.000000 0 0 1
25.062960 8.553412 -24.068333 35.785436 0.328883 2.308477 -0.000529 0.016500 334791.000000 0 0 1
24.856560 9.862412 -23.588933 35.658849 0.377721 2.293636 0.004008 0.013888 -174066.000000 0 0 1
25.639560 10.943312 -24.352333 37.015932 0.403406 2.288807 0.025153 0.011323 -3268.960000 0 0 1
25.202660 11.194512 -25.705323 37.699533 0.418003 2.321081 0.034694 0.003447 761197.000000 0 0 1
23.891560 11.750112 -25.853483 37.111647 0.457074 2.341501 0.031689 -0.006172 596325.000000 0 0 1
23.426360 11.922612 -27.341463 37.927544 0.470774 2.375877 0.027882 -0.012043 -162942.000000 0 0 1
23.219560 10.681312 -28.041553 37.941627 0.431150 2.402486 0.018219 0.000048 -245149.000000 0 0 1
24.354260 9.970812 -28.429013 38.739590 0.388590 2.394767 0.019694 -0.002101 -386263.000000 0 0 1
25.097060 10.471112 -29.695913 40.266038 0.395266 2.400147 0.022526 0.004854 -675224.000000 0 0 1
26.044960 11.513012 -29.506803 41.006595 0.416218 2.373968 0.026367 0.004387 544220.000000 0 0 1
26.835160 11.853612 -30.616473 42.402858 0.415947 2.377540 0.023495 0.009677 1039480.000000 0 0 1
27.891060 10.742612 -31.109783 43.140857 0.367651 2.376216 0.025209 0.001157 -81049.200000 0 0 1
27.273260 9.645112 -31.767903 42.965783 0.339920 2.402941 0.018601 0.011855 -405928.000000 0 0 1
28.128760 8.637312 -32.164073 43.593094 0.297924 2.400639 0.023356 0.008544 -738450.000000 0 0 1
27.462660 7.457412 -32.867863 43.475362 0.265153 2.427994 0.022712 0.008416 -759495.000000 0 0 1
26.418560 6.899412 -32.152913 42.182366 0.255452 2.437557 0.035515 0.004988 -832821.000000 0 0 1
25.778160 6.065912 -33.040373 42.343536 0.231108 2.465931 0.022981 0.004859 -269765.000000 0 0 1
24.401760 5.485712 -32.590533 41.081404 0.221132 2.487033 0.036776 0.005386 442385.000000 0 0 1
23.300060 6.366212 -32.668963 40.628593 0.266717 2.504936 0.026389 0.010069 121481.000000 0 0 1
23.186660 7.348112 -31.608153 39.883471 0.306899 2.485714 0.027363 0.011198 -624860.000000 0 0 1
21.786260 7.985412 -31.568073 39.178453 0.351328 2.507739 0.021873 0.008085 -8755.800000 0 0 1
21.453360 8.822012 -32.652173 40.052952 0.390140 2.523914 0.027383 0.006385 -812816.000000 0 0 1
20.123060 9.197412 -32.652673 39.442705 0.428708 2.546062 0.012524 0.011562 -853659.000000 0 0 1
19.640060 10.098712 -33.804573 40.379018 0.474935 2.562906 0.006312 0.012516 -189064.000000 0 0 1
19.560160 9.470412 34.024535 40.372732 0.450902 0.568406 0.005179 0.007317 9218.990000 0 0 1
19.291960 10.424812 33.028774 39.645382 0.495420 0.586098 0.004195 0.007217 -215002.000000 0 0 1
18.260660 9.927912 32.004504 38.161544 0.497976 0.575981 0.024342 0.002899 -369371.000000 0 0 1
18.654360 8.975212 31.083674 37.346142 0.448440 0.587529 0.017982 -0.004212 -74302.700000 0 0 1
19.462360 9.408112 29.987014 36.966431 0.450280 0.624602 0.016594 -0.009299 -761797.000000 0 0 1
18.901860 10.368312 28.953894 36.098617 0.501717 0.640030 0.026685 -0.011884 -783828.000000 0 0 1
17.904660 9.818412 28.169084 34.791886 0.501592 0.627249 0.026507 -0.005598 -141358.000000 0 0 1
16.651060 10.443312 28.382044 34.523340 0.560170 0.605686 0.027399 -0.011795 -545735.000000 0 0 1
15.456560 9.799412 27.727334 33.222564 0.565043 0.583402 0.041834 -0.012663 -897525.000000 0 0 1
15.335260 10.059012 26.307104 32.068951 0.580540 0.608810 0.041575 -0.012682 -169164.000000 0 0 1
14.171360 9.553712 25.707334 30.870178 0.593170 0.586729 0.056143 -0.015058 -270394.000000 0 0 1
14.132160 8.012512 25.375634 30.130401 0.515779 0.569457 0.052818 -0.008366 -62087.000000 0 0 1
14.205360 7.112612 26.460194 30.862977 0.464207 0.540709 0.043410 -0.008289 -24683.600000 0 0 1
13.708660 5.842012 26.119684 30.071487 0.402848 0.518454 0.045204 -0.008073 -184912.000000 0 0 1
13.705560 4.833912 27.295744 30.923562 0.339076 0.489253 0.044158 -0.007249 -552944.000000 0 0 1
14.907060 4.177112 27.566864 31.616462 0.273204 0.511697 0.028017 -0.006131 -220654.000000 0 0 1
14.938460 3.707312 28.918864 32.759769 0.243258 0.489101 0.013921 -0.003279 10824.500000 0 0 1
16.068060 2.664912 29.117244 33.363126 0.164355 0.510015 0.035503 -0.008170 -243343.000000 0 0 1
15.814260 1.288512 29.099194 33.143840 0.081298 0.499198 0.027027 -0.018488 213440.000000 0 0 1
14.925460 0.805312 30.127494 33.631589 0.053903 0.460547 0.013011 -0.014332 354935.000000 0 0 1
14.845360 -0.763688 30.017224 33.496293 -0.051398 0.459813 0.016517 -0.015063 -195207.000000 0 0 1
14.032060 -1.253988 28.950804 32.196587 -0.089129 0.452885 0.011951 -0.014377 796836.000000 0 0 1
14.707560 -1.233288 27.653864 31.345965 -0.083658 0.490251 0.019453 -0.008937 688573.000000 0 0 1
15.892660 -2.287288 27.387994 31.747607 -0.142939 0.530253 0.029917 -0.010673 1914770.000000 0 0 1
17.165760 -2.128688 28.048414 32.953120 -0.123378 0.552603 0.035908 -0.018694 1245160.000000 0 0 1
17.871860 -0.908088 27.677824 32.958913 -0.050767 0.573941 0.042532 -0.018744 252215.000000 0 0 1
19.351560 -0.815288 28.224754 34.231335 -0.042105 0.601426 0.063729 -0.016644 1062720.000000 0 0 1
20.176160 -1.574388 27.350914 34.023942 -0.077874 0.637019 0.046251 -0.021387 174315.000000 0 0 1
21.565260 -1.449088 27.610924 35.064561 -0.067095 0.664166 0.052628 -0.026410 645173.000000 0 0 1
22.565160 -2.110988 26.619644 34.960666 -0.093279 0.705300 0.049374 -0.017511 32487.200000 0 0 1
22.772060 -1.322888 25.442474 34.170692 -0.058027 0.730906 0.044431 -0.006861 267847.000000 0 0 1
22.005360 -1.887188 24.387764 32.902285 -0.085551 0.735913 0.038832 0.005007 55362.200000 0 0 1
21.942060 -1.072888 23.108664 31.884407 -0.048857 0.760105 0.041417 -0.015489 -843356.000000 0 0 1
20.773360 -0.331888 23.067764 31.044554 -0.015975 0.733175 0.025529 -0.004959 -539722.000000 0 0 1
20.795460 0.558112 21.951164 30.242623 0.026832 0.758548 0.031319 -0.002651 53995.200000 0 0 1
-29.419690 -27.775718 -10.243833 41.736612 0.756663 1.818770 -0.009592 0.006931 146586.000000 0 0 1
-29.193200 -26.683518 -9.355433 40.642062 0.740514 1.803070 -0.004827 0.011202 337914.000000 0 0 1
-29.991900 -26.954818 -8.156333 41.141245 0.732117 1.770370 0.015564 -0.002186 -72759.100000 0 0 1
-30.186750 -25.636618 -7.285833 40.268591 0.704069 1.752729 0.024161 -0.008146 469394.000000 0 0 1
-29.051800 -24.847718 -6.835533 38.834787 0.707557 1.747734 0.015679 -0.004392 486321.000000 0 0 1
-28.228720 -25.541318 -5.877233 38.519624 0.735460 1.723972 0.016755 -0.005754 621301.000000 0 0 1
-27.128550 -24.647418 -5.189333 37.018680 0.737514 1.711441 0.005683 -0.001473 -3372.340000 0 0 1
-27.516580 -23.635018 -4.334633 36.531703 0.709660 1.689731 0.020739 -0.004875 -214092.000000 0 0 1
-28.018470 -22.461618 -5.040233 36.262417 0.675760 1.710241 0.025037 -0.010195 282552.000000 0 0 1
-28.458330 -21.333018 -4.092533 35.801160 0.643260 1.685360 0.029574 -0.011400 -60556.600000 0 0 1
-27.279710 -20.620818 -3.783933 34.405216 0.647268 1.681001 0.026479 -0.020877 469958.000000 0 0 1
-27.600550 -19.367118 -3.171933 33.866455 0.611861 1.664594 0.013610 -0.013287 -451117.000000 0 0 1
-26.405260 -18.427918 -3.052333 32.344129 0.609307 1.665308 0.012767 -0.012902 -427081.000000 0 0 1
-26.057700 -17.804918 -4.230833 31.842092 0.599422 1.704060 0.019846 -0.018213 1155750.000000 0 0 1
-25.057240 -16.726918 -4.006233 30.392515 0.588613 1.702998 0.017765 -0.019151 1068570.000000 0 0 1
-25.121090 -15.627118 -5.082633 30.018480 0.556491 1.740933 0.015091 -0.021711 -12443.100000 0 0 1
-26.289490 -14.816718 -5.061133 30.598815 0.513224 1.736963 0.009879 -0.020722 302631.000000 0 0 1
-26.315230 -13.997518 -6.176933 30.439717 0.488854 1.775139 0.025419 -0.033505 -47589.300000 0 0 1
-27.623470 -13.167618 -6.156933 31.214581 0.444820 1.769344 0.019010 -0.023849 -246955.000000 0 0 1
-28.756320 -13.932318 -6.471733 32.602435 0.451168 1.770628 0.021943 -0.022055 65195.100000 0 0 1
-29.873680 -13.068318 -6.231533 33.197134 0.412371 1.759630 0.007607 -0.021083 1102140.000000 0 0 1
-31.298690 -13.566518 -6.693133 34.762860 0.409009 1.764543 0.006598 -0.017952 436348.000000 0 0 1
-31.757990 -14.759518 -6.079633 35.543990 0.435052 1.742687 0.008474 -0.019452 289379.000000 0 0 1
-31.877750 -15.696018 -7.133933 36.241536 0.457534 1.768934 0.005812 -0.026616 -358881.000000 0 0 1
-32.792570 -16.886118 -6.761633 37.499511 0.475526 1.752101 0.008368 -0.026158 1512240.000000 0 0 1
-34.231699 -16.706818 -6.770433 38.688057 0.454043 1.746703 0.019591 -0.031440 1431160.000000 0 0 1
-34.790703 -16.116918 -5.594433 38.748494 0.433821 1.715681 0.018688 -0.025303 519252.000000 0 0 1
34.016707 -16.256018 -5.479433 38.097489 -0.445798 1.715123 0.039403 -0.029937 436597.000000 0 0 1
33.291637 -15.542918 -6.501133 37.311930 -0.436795 1.745928 0.050887 -0.033112 812095.000000 0 0 1
31.870907 -15.541618 -6.459533 36.041950 -0.453713 1.750993 0.059354 -0.039702 601099.000000 0 0 1
31.220307 -14.728318 -5.291233 34.923174 -0.440797 1.722893 0.071967 -0.046299 -705473.000000 0 0 1
31.162427 -15.474818 -4.057633 35.029006 -0.460913 1.686893 0.078617 -0.047459 279424.000000 0 0 1
30.896367 -14.574318 -3.047033 34.296948 -0.440766 1.659756 0.068726 -0.044661 -790526.000000 0 0 1
31.036867 -15.187818 -1.660733 34.593569 -0.455089 1.618822 0.072786 -0.041309 -160660.000000 0 0 1
32.356867 -15.472518 -1.256533 35.887944 -0.446043 1.605816 0.091784 -0.039897 -239688.000000 0 0 1
33.067777 -16.554218 -1.789433 37.023264 -0.464139 1.619148 0.080158 -0.037878 -725128.000000 0 0 1
32.415867 -17.938018 -1.906933 37.097134 -0.505428 1.622223 0.075850 -0.034280 -1121740.000000 0 0 1
32.706477 -18.874118 -0.845333 37.771161 -0.523393 1.593179 0.079117 -0.032497 226681.000000 0 0 1
32.459287 -20.235918 -1.252533 38.270962 -0.557466 1.603530 0.069981 -0.028973 267378.000000 0 0 1
33.477997 -20.864318 -2.274333 39.512892 -0.557322 1.628387 0.050791 -0.027457 306776.000000 0 0 1
33.605457 -20.157718 -3.505733 39.344002 -0.540298 1.660019 0.044389 -0.027830 256848.000000 0 0 1
34.519258 -20.838718 -4.381733 40.558981 -0.543124 1.679041 0.048006 -0.025922 299856.000000 0 0 1
34.583355 -20.126118 -5.766933 40.426806 -0.527049 1.713936 0.051596 -0.032184 181014.000000 0 0 1
33.390447 -20.144118 -6.542533 39.541272 -0.542835 1.737022 0.048483 -0.037367 440373.000000 0 0 1
33.481737 -19.263118 -7.601033 39.368390 -0.522084 1.765091 0.042771 -0.036917 246572.000000 0 0 1
32.472177 -19.595818 -8.755933 38.924346 -0.542963 1.797685 0.041290 -0.041548 111039.000000 0 0 1
32.698007 -20.775218 -9.488233 39.884783 -0.566019 1.810990 0.042544 -0.035738 280023.000000 0 0 1
31.589337 -21.030818 -10.329233 39.330327 -0.587372 1.836541 0.048626 -0.039137 -226969.000000 0 0 1
31.624967 -22.543418 -10.747633 40.297095 -0.619289 1.840774 0.042889 -0.029076 -185908.000000 0 0 1
31.122697 -23.378718 -9.694333 40.114422 -0.644255 1.814880 0.039842 -0.023970 71271.500000 0 0 1
31.172877 -24.743918 -10.023833 41.042502 -0.670927 1.817522 0.026394 -0.008302 -436299.000000 0 0 1
30.259857 -25.645518 -9.178533 40.713598 -0.703046 1.798192 0.021074 -0.010556 3130.260000 0 0 1
28.910117 -25.237318 -9.355733 39.499960 -0.717672 1.809923 0.027338 -0.014168 167437.000000 0 0 1
27.990417 -26.171718 -8.788433 39.314868 -0.751832 1.796241 0.008315 -0.005709 608250.000000 0 0 1
26.552797 -25.585218 -8.746533 37.896653 -0.766842 1.803696 0.017702 -0.016696 653917.000000 0 0 1
25.860147 -25.442918 -9.997533 37.630307 -0.777266 1.839703 0.017811 -0.023158 579071.000000 0 0 1
24.638987 -24.716318 -10.007933 36.306126 -0.786965 1.850066 0.034521 -0.024362 231882.000000 0 0 1
23.994287 -24.504218 -11.368333 36.130618 -0.795912 1.890879 0.069956 -0.031615 -532677.000000 0 0 1
23.250587 -25.601518 -11.792433 36.538870 -0.833485 1.899416 0.059139 -0.026786 -282157.000000 0 0 1
22.343987 -25.086218 -12.741433 35.929323 -0.843150 1.933309 0.066518 -0.016332 -392871.000000 0 0 1
21.554287 -26.290018 -13.287633 36.500871 -0.884059 1.943394 0.073741 -0.023337 -357776.000000 0 0 1
22.307087 -27.148818 -14.161233 37.884100 -0.882987 1.953903 0.066533 -0.022224 107760.000000 0 0 1
21.759187 -28.458118 -14.272633 38.562090 -0.918014 1.949935 0.067374 -0.018061 -283680.000000 0 0 1
22.605587 -29.608118 -14.889933 40.116871 -0.918716 1.951058 0.059996 -0.027172 -304899.000000 0 0 1
22.834287 -29.519118 -16.276633 40.715007 -0.912398 1.982062 0.057647 -0.024010 273114.000000 0 0 1
23.296687 -30.716118 -16.848533 42.072421 -0.921908 1.982821 0.046384 -0.023290 -468896.000000 0 0 1
23.245587 -30.900118 -18.393933 42.819521 -0.925837 2.014812 0.037968 -0.015338 954532.000000 0 0 1
21.919787 -30.950318 -18.977333 42.409179 -0.954572 2.034744 0.038272 -0.012999 909768.000000 0 0 1
21.995587 -30.674718 -20.367233 42.890190 -0.948713 2.065612 0.027243 -0.006647 1046930.000000 0 0 1
20.526787 -30.813818 -20.935133 42.533753 -0.983148 2.085412 0.018058 -0.003844 1046410.000000 0 0 1
20.389387 -30.231118 -22.225633 42.703939 -0.977424 2.118184 0.006810 0.004716 136682.000000 0 0 1
19.059787 -30.404918 -22.672233 42.447199 -1.010857 2.134272 0.004434 0.004586 -279713.000000 0 0 1
18.996187 -30.565418 -24.214533 43.375610 -1.014723 2.163074 0.008839 0.006567 -886140.000000 0 0 1
19.387687 -29.393818 -24.912933 43.133898 -0.987713 2.186548 0.009003 0.007334 349465.000000 0 0 1
19.354487 -29.582818 -26.319053 44.073029 -0.991441 2.210764 0.005381 0.003021 -521808.000000 0 0 1
19.893387 -28.347118 -27.117283 43.984691 -0.958878 2.235107 -0.002790 -0.000793 -318027.000000 0 0 1
19.096087 -27.219318 -27.197483 42.956430 -0.959022 2.256401 0.007730 -0.011051 -77683.000000 0 0 1
18.020987 -27.368118 -28.134553 43.189385 -0.988492 2.280255 0.027982 -0.014559 60815.500000 0 0 1
17.288687 -26.071518 -28.506433 42.323037 -0.985249 2.309790 0.019886 -0.007998 -359014.000000 0 0 1
16.425787 -25.687018 -27.462283 41.034210 -1.001867 2.304000 0.013918 0.007518 -174015.000000 0 0 1
16.156587 -24.286318 -27.464413 40.064380 -0.983772 2.326096 0.000160 0.008970 -9362.520000 0 0 1
15.040187 -23.866618 -26.477533 38.689565 -1.008483 2.324520 0.008135 0.003127 723735.000000 0 0 1
13.798687 -24.602918 -26.587573 38.763467 -1.059657 2.326626 0.040809 -0.008739 925979.000000 0 0 1
12.761987 -24.194318 -25.689463 37.525749 -1.085408 2.324827 0.042570 -0.015643 351174.000000 0 0 1
12.950787 -24.569018 -24.192633 36.832636 -1.085690 2.287398 0.030622 0.000603 -581144.000000 0 0 1
13.937187 -23.870918 -23.485033 36.271376 -1.042332 2.275071 -0.007355 0.004797 -156271.000000 0 0 1
14.224687 -24.453418 -22.229733 35.978777 -1.043937 2.236810 -0.000220 0.006467 461163.000000 0 0 1
15.298587 -23.569918 -21.464433 35.359719 -0.995073 2.223115 -0.001529 0.004939 315146.000000 0 0 1
15.033087 -22.251818 -21.087333 34.144000 -0.976642 2.236484 -0.004458 0.000200 -426282.000000 0 0 1
16.190487 -21.501718 -20.855333 34.049973 -0.925387 2.230005 0.007146 0.000326 -720431.000000 0 0 1
15.946387 -20.080118 -20.371533 32.749012 -0.899640 2.242155 0.012289 0.007935 -70396.900000 0 0 1
15.256887 -20.073618 -19.118533 31.642393 -0.920896 2.219566 0.012028 -0.002055 -112267.000000 0 0 1
13.921187 -19.715318 -19.371933 30.947779 -0.955981 2.247152 0.018083 -0.006111 -567574.000000 0 0 1
13.047987 -19.725218 -18.082733 29.771118 -0.986388 2.223570 0.018495 -0.000449 -141256.000000 0 0 1
13.196187 -18.571618 -17.257133 28.580640 -0.953020 2.219062 0.025122 -0.004427 23503.400000 0 0 1
12.643687 -18.799918 -15.989933 27.730447 -0.978739 2.185382 0.018985 -0.005583 -256722.000000 0 0 1
12.685687 -17.560118 -15.049933 26.377735 -0.945185 2.177977 0.020302 0.004145 152461.000000 0 0 1
11.748087 -16.544418 -15.430333 25.491773 -0.953328 2.220947 0.015216 -0.005592 631045.000000 0 0 1
12.040787 -15.381318 -14.680133 24.435053 -0.906620 2.215275 0.015233 -0.008048 776006.000000 0 1 0
10.735787 -14.522718 -14.416333 23.108378 -0.934217 2.244465 0.017763 -0.006613 532081.000000 0 1 0
10.151287 -14.050618 -15.583033 23.308784 -0.945142 2.303050 0.025845 0.005722 -713190.000000 0 1 0
8.842087 -13.678118 -15.270033 22.325934 -0.996928 2.323973 0.012625 0.002267 -481944.000000 0 1 0
7.963587 -13.274218 -16.462933 22.597605 -1.030429 2.386963 0.009730 0.010440 -442512.000000 0 1 0
8.280987 -12.142718 -17.225733 22.643901 -0.972273 2.435222 0.014447 0.014646 18193.500000 0 1 0
9.504187 -12.246518 -17.962633 23.726841 -0.910817 2.429597 0.029191 0.010727 370900.000000 0 1 0
9.669487 -11.102118 -18.995433 24.032946 -0.854260 2.482244 0.036803 0.004110 -223016.000000 0 1 0
8.772587 -11.111718 -20.056133 24.549481 -0.902497 2.526929 0.032836 0.005113 -77003.500000 0 1 0
8.950687 -9.830718 -20.668133 24.574978 -0.832220 2.569969 0.034401 -0.007574 202571.000000 0 1 0
8.623787 -9.779518 -22.141933 25.695795 -0.848116 2.609397 0.039785 -0.007013 308770.000000 0 0 1
9.626787 -10.471318 -22.890833 26.950209 -0.827394 2.585596 0.039619 -0.003473 196553.000000 0 0 1
9.352187 -10.447318 -24.264233 28.024326 -0.840653 2.617598 0.033641 0.000060 252214.000000 0 0 1
10.514487 -11.126918 -25.039533 29.348611 -0.813690 2.592840 0.053155 -0.000341 -4554.930000 0 0 1
10.402587 -12.539418 -24.874033 29.734968 -0.878271 2.561706 0.043933 0.002094 232670.000000 0 0 1
11.528087 -13.264118 -25.349873 30.845578 -0.855307 2.535415 0.039569 -0.013693 51323.600000 0 0 1
11.377787 -14.811818 -25.136753 31.316136 -0.915776 2.502567 0.030612 -0.010114 217255.000000 0 0 1
10.400387 -15.486818 -25.921983 31.936794 -0.979411 2.517794 0.033059 -0.005693 -2322.130000 0 0 1
10.531387 -16.870118 -25.717933 32.510353 -1.012727 2.483351 0.034041 -0.009706 1224580.000000 0 0 1
9.297687 -17.806418 -26.162643 32.984836 -1.089583 2.486796 0.037203 -0.007260 1197410.000000 0 0 1
9.426887 -18.348318 -27.484203 34.364348 -1.096190 2.497739 0.032300 -0.021131 -440542.000000 0 0 1
8.337787 -19.162718 -27.755293 34.743125 -1.160398 2.496213 0.042470 -0.012417 -597394.000000 0 0 1
8.656087 -20.144718 -28.862223 36.245902 -1.164956 2.491932 0.038656 -0.021155 130709.000000 0 0 1
9.645487 -21.096518 -28.470233 36.724007 -1.141965 2.457905 0.039468 -0.023160 321588.000000 0 0 1
10.014987 -21.910418 -29.570513 38.141600 -1.142064 2.457958 0.050641 -0.019381 -19802.300000 0 0 1
10.465687 -23.303018 -29.110823 38.729850 -1.148680 2.421338 0.036836 -0.014450 -65369.900000 0 0 1
10.206987 -24.260718 -30.112083 39.993782 -1.172556 2.423283 0.042427 -0.011757 61969.200000 0 0 1
10.660887 -25.622318 -30.031423 40.890636 -1.176507 2.395627 0.049039 -0.001865 706.040000 0 0 1
10.023687 -26.565918 -28.960353 40.557667 -1.209999 2.366068 0.052572 -0.002391 -275784.000000 0 0 1
10.624487 -26.514018 -27.702573 39.790771 -1.189676 2.340895 0.054294 -0.001259 -968200.000000 0 0 1
9.822687 -26.732618 -26.593733 38.965943 -1.218668 2.321956 0.045673 0.001572 -166649.000000 0 0 1
8.833887 -25.637718 -26.180563 37.692865 -1.238971 2.338627 0.033414 0.000658 313556.000000 0 0 1
9.529087 -24.530218 -25.618113 36.726323 -1.200275 2.342756 0.036735 -0.001454 -187689.000000 0 0 1
8.675987 -23.434718 -25.401413 35.632717 -1.216223 2.364375 0.029515 0.002441 -525215.000000 0 0 1
9.466487 -22.119718 -25.265753 34.889176 -1.166416 2.380629 0.045399 -0.003860 248544.000000 0 0 1
10.067987 -21.971718 -23.986933 34.051340 -1.141124 2.352422 0.039826 -0.002350 2063.890000 0 0 1
11.065287 -20.995418 -23.875433 33.664291 -1.085757 2.359189 0.040991 -0.009251 -564546.000000 0 0 1
11.664587 -20.844018 -22.500433 32.814710 -1.060603 2.326336 0.023241 -0.001073 -266107.000000 0 0 1
10.919987 -20.227618 -21.442633 31.435476 -1.075775 2.321448 0.019275 0.000503 307.301000 0 0 1
10.467387 -18.895118 -21.632933 30.570827 -1.064908 2.356939 0.033190 0.003088 333903.000000 0 0 1
11.614487 -17.828718 -21.692633 30.386343 -0.993404 2.365840 0.037889 0.001198 324518.000000 0 0 1
12.545087 -17.950918 -22.745733 31.575038 -0.960839 2.375133 0.033706 0.000024 -651862.000000 0 0 1
13.350987 -16.844718 -22.619933 31.203441 -0.900589 2.381712 0.032970 0.011893 -331689.000000 0 0 1
14.683987 -16.881218 -23.411333 32.383414 -0.854895 2.378847 0.023392 0.006652 328350.000000 0 0 1
15.807487 -17.408718 -22.720733 32.698193 -0.833567 2.339024 0.017230 0.011075 23441.200000 0 0 1
16.981287 -17.052118 -23.377133 33.550398 -0.787479 2.341690 0.015224 0.008404 -105501.000000 0 0 1
18.288787 -17.343818 -22.574433 33.836264 -0.758885 2.301195 0.010927 0.011839 302657.000000 0 0 1
18.592487 -18.696318 -22.404633 34.600585 -0.788183 2.275124 0.002117 0.012280 1070860.000000 0 0 1
19.978687 -18.868618 -22.041033 35.227544 -0.756831 2.246794 0.002412 0.013208 1073720.000000 0 0 1
20.314787 -20.352918 -21.693533 36.021400 -0.786336 2.217101 -0.005707 0.012792 -211687.000000 0 0 1
19.791887 -20.785718 -20.474633 35.255857 -0.809885 2.190439 0.000282 0.013183 220732.000000 0 0 1
20.110987 -22.152218 -20.181233 36.089538 -0.833659 2.164216 0.006350 0.025701 -314518.000000 0 0 1
-15.340640 13.352912 29.351774 35.709412 -0.716234 0.605949 0.007078 -0.020747 637487.000000 0 0 1
-16.668240 13.744612 28.965554 36.135134 -0.689561 0.640847 0.021032 -0.027026 468762.000000 0 0 1
-16.916240 13.475812 27.615064 35.076323 -0.672676 0.664403 0.013805 -0.024323 677251.000000 0 0 1
-18.280340 13.973812 27.029964 35.497284 -0.652665 0.705225 0.021410 -0.018837 607548.000000 0 0 1
-18.325340 15.380712 27.081114 36.135455 -0.698257 0.723591 0.039423 -0.019526 -50475.200000 0 0 1
-19.439240 15.909012 26.387834 36.432108 -0.685858 0.760775 0.046370 -0.023524 -540873.000000 0 0 1
-19.604040 17.454412 26.547404 37.332821 -0.727457 0.779734 0.060356 -0.022197 -112740.000000 0 0 1
-18.602940 18.340712 26.088654 36.919764 -0.778300 0.786071 0.053444 -0.012181 -176500.000000 0 0 1
-17.450040 18.328912 26.910164 36.940626 -0.809957 0.754709 0.036584 -0.003736 -42658.700000 0 0 1
-16.288940 19.157212 26.289584 36.379535 -0.866141 0.763171 0.020056 -0.003645 64040.900000 0 0 1
-16.558340 20.513412 26.161444 37.140273 -0.891683 0.789225 0.030005 -0.006644 -840537.000000 0 0 1
-15.452740 21.146112 25.658124 36.664486 -0.939723 0.795667 0.040297 -0.008686 -606712.000000 0 0 1
-15.549840 22.676212 25.695174 37.633098 -0.969709 0.819234 0.029557 0.001535 15172.400000 0 0 1
-14.989840 23.204712 26.847304 38.521834 -0.997250 0.799678 0.020784 0.008712 80831.900000 0 0 1
-15.312840 24.584212 26.723324 39.408154 -1.013728 0.825599 0.017140 -0.002618 -199998.000000 0 0 1
-14.921940 25.500412 27.936344 40.661710 -1.041357 0.813385 0.007548 0.006111 228279.000000 0 0 1
-13.565140 25.912212 27.804654 40.355353 -1.088523 0.810694 0.001943 0.005457 83327.800000 0 0 1
-13.147340 26.773612 28.833914 41.485822 -1.114330 0.802334 0.004992 0.009077 1203470.000000 0 0 1
-11.572540 26.929112 28.869564 41.140643 -1.164917 0.792975 0.019748 0.006126 1217530.000000 0 0 1
-11.042340 27.714512 27.845634 40.809396 -1.191643 0.819846 0.025906 0.009372 -1050530.000000 0 0 1
-9.669140 27.653612 27.951574 40.490802 -1.234432 0.808866 0.016503 0.009222 -489108.000000 0 0 1
-8.755440 28.511212 26.990454 40.224763 -1.272850 0.835252 0.026090 0.000980 561518.000000 0 0 1
-7.374140 28.243812 26.935314 39.719038 -1.315409 0.825559 0.014147 -0.000678 306116.000000 0 0 1
-6.646940 28.878012 25.936754 39.380663 -1.344564 0.851818 0.029409 -0.004940 454752.000000 0 0 1
-5.187440 28.424112 25.621844 38.617594 -1.390282 0.845341 -0.007340 -0.005072 -89497.000000 0 0 1
-4.269440 28.797712 26.611924 39.442754 -1.423612 0.830242 -0.005149 -0.004636 206195.000000 0 0 1
-2.898140 28.718912 26.255854 39.019803 -1.470223 0.832694 -0.017573 0.006468 364461.000000 0 0 1
-2.399540 29.850412 25.324384 39.218992 -1.490583 0.868834 -0.026214 0.008647 -1043880.000000 0 0 1
-2.774040 29.598112 23.916664 38.154297 -1.477346 0.893305 -0.031386 0.012195 -195965.000000 0 0 1
-2.297340 30.587512 23.062664 38.376557 -1.495830 0.926098 -0.032522 0.011224 -613516.000000 0 0 1
-2.637540 30.282612 21.574264 37.275221 -1.483918 0.953561 -0.026366 0.013490 737438.000000 0 0 1
-4.028140 30.346512 21.237664 37.258222 -1.438830 0.964275 -0.019068 0.021330 476334.000000 0 0 1
-4.636240 29.073812 21.533064 36.475391 -1.412663 0.939310 -0.013197 0.019053 -791061.000000 0 0 1
-6.023740 28.965412 20.905864 36.226174 -1.365756 0.955632 -0.002996 0.020121 -508103.000000 0 0 1
-6.001740 28.751012 19.518164 35.264718 -1.365003 0.984265 -0.022458 0.030669 218399.000000 0 0 1
-7.171840 28.094712 19.072064 34.705789 -1.320860 0.988988 -0.020964 0.027365 -977214.000000 0 0 1
-6.863740 26.628012 18.800364 33.310894 -1.318524 0.971101 -0.022930 0.021463 434831.000000 0 0 1
-5.905440 26.369012 17.767264 32.339986 -1.350478 0.989162 -0.013224 0.022023 399714.000000 0 0 1
-4.571640 26.675812 18.113464 32.566799 -1.401067 0.980997 -0.011042 0.021081 -780892.000000 0 0 1
-3.722440 26.985812 16.841764 32.027108 -1.433721 1.017071 -0.008064 0.014034 -86338.600000 0 0 1
-3.314340 25.823112 16.139364 30.631635 -1.443146 1.015864 0.005786 0.003930 45289.000000 0 0 1
-2.385640 26.250312 15.157764 30.406052 -1.480165 1.048916 0.001813 -0.004755 103391.000000 0 0 1
-1.644940 25.109912 14.413364 28.999286 -1.505380 1.050630 0.012884 -0.006923 89557.500000 0 0 1
-0.825040 24.375312 15.301264 28.791756 -1.536962 1.010490 0.012108 -0.007644 -267657.000000 0 0 1
-0.225340 23.278212 14.722864 27.544304 -1.561116 1.006862 0.009404 -0.017185 -861162.000000 0 0 1
0.931860 22.792712 15.606464 27.639425 1.529935 0.970793 0.000091 -0.009211 -23725.500000 0 0 1
1.978060 23.761712 15.527064 28.453847 1.487742 0.993581 0.012680 -0.012736 -132176.000000 0 0 1
3.196960 23.270112 16.018764 28.430960 1.434266 0.972269 0.007321 -0.013520 -24926.900000 0 0 1
4.336560 24.305512 15.831664 29.329256 1.394235 1.000608 0.015183 -0.010259 25577.800000 0 0 1
5.645060 23.801612 15.818264 29.130756 1.337928 0.996780 0.015928 -0.006923 -152917.000000 0 0 1
6.606660 24.855912 15.722564 30.144043 1.311005 1.022093 0.020924 -0.003768 -482325.000000 0 0 1
8.011060 24.287412 15.914664 30.121952 1.252189 1.014151 0.021801 -0.001776 -574428.000000 0 0 1
8.509360 23.675912 14.742964 29.160127 1.225763 1.040735 0.026754 0.005099 713320.000000 0 0 1
9.444760 24.595612 14.068864 29.867718 1.204157 1.080328 0.020230 0.002511 579139.000000 0 0 1
10.069860 24.005512 12.758064 28.990255 1.173609 1.115107 0.030240 0.001744 -37874.900000 0 0 1
10.966960 22.959212 13.018564 28.581159 1.125171 1.097869 0.025336 0.000648 -177932.000000 0 0 1
11.559160 22.470712 11.862564 27.915363 1.095687 1.131892 0.042162 0.002647 -471979.000000 0 0 1
12.626460 21.421712 11.991064 27.606210 1.038190 1.121467 0.017127 0.002387 -365053.000000 0 0 1
12.080660 20.187512 12.371064 26.580467 1.031538 1.086688 0.024914 0.016073 -27379.400000 0 0 1
13.125060 19.285312 12.621064 26.523230 0.973228 1.074867 0.029722 0.011592 -136406.000000 0 0 1
13.494560 19.232712 14.099164 27.400489 0.958966 1.030303 0.024851 0.007905 98643.600000 0 0 1
14.672160 18.468912 14.381464 27.626066 0.899464 1.023271 0.022941 0.008298 638070.000000 0 0 1
14.950660 18.293112 15.769364 28.404806 0.885605 0.982235 0.013102 0.003780 38566.800000 0 0 1
16.061760 17.266512 16.068364 28.536028 0.821530 0.972676 -0.002182 0.000028 43133.300000 0 0 1
16.426960 17.037512 17.398164 29.373763 0.803641 0.936882 0.014454 -0.007266 -161291.000000 0 0 1
17.476360 16.104712 17.446764 29.481765 0.744575 0.937529 -0.001133 -0.005307 -5248.270000 0 0 1
18.036960 15.939812 18.895964 30.601748 0.723753 0.905262 0.007293 -0.009996 83029.000000 0 0 1
18.745760 17.026412 19.492964 31.957438 0.737371 0.914778 0.008102 -0.001715 820213.000000 0 0 1
17.863360 17.952912 20.148064 32.362805 0.787898 0.898776 0.005563 0.003387 7610.500000 0 0 1
18.564760 19.083712 20.836464 33.808233 0.799181 0.906744 0.004152 0.003174 -233366.000000 0 0 1
17.601160 20.095712 21.187664 34.096269 0.851476 0.900259 0.024590 -0.005578 553570.000000 0 0 1
18.136860 21.231912 21.919464 35.499334 0.863854 0.905285 0.021212 0.005406 311497.000000 0 0 1
17.033960 22.185312 22.511264 35.904051 0.915998 0.893121 0.035880 -0.005646 726135.000000 0 0 1
16.336260 21.630412 23.633664 35.962455 0.923947 0.853730 0.034128 -0.007972 488532.000000 0 0 1
15.492360 22.549512 24.340934 36.619322 0.968823 0.843702 0.043201 -0.018409 309603.000000 0 0 1
14.937260 22.088712 25.678394 37.019088 0.976196 0.804248 0.040045 -0.012544 -234803.000000 0 0 1
13.966860 21.129612 25.405924 35.874708 0.986721 0.783872 0.028616 -0.006373 -500026.000000 0 0 1
13.182760 20.829512 26.539184 36.221292 1.006544 0.748522 0.025300 0.001173 187229.000000 0 0 1
12.256160 19.572512 26.401544 35.076177 1.011340 0.718655 0.038540 -0.001740 112899.000000 0 0 1
12.812260 18.248212 26.492794 34.626859 0.958655 0.699609 0.036937 -0.002432 -218905.000000 0 0 1
13.461260 17.804212 25.327404 33.759041 0.923421 0.722370 0.040166 -0.007061 -452352.000000 0 0 1
12.663660 17.629512 24.021764 32.376120 0.947880 0.734808 0.053825 -0.007735 -718163.000000 0 0 1
12.336160 18.809612 23.250464 32.350679 0.990324 0.768864 0.053694 -0.011385 650286.000000 0 0 1
13.396960 19.442612 22.488964 32.607472 0.967456 0.809739 0.040610 -0.009370 974886.000000 0 0 1
14.191260 18.543312 21.487564 31.732660 0.917573 0.826923 0.043328 -0.007289 569236.000000 0 0 1
13.269360 18.115312 20.454864 30.375021 0.938593 0.831984 0.047179 0.000639 704065.000000 0 0 1
13.873260 17.071312 19.758964 29.568796 0.888380 0.838960 0.043275 -0.003878 -512954.000000 0 0 1
12.915360 16.262312 18.921964 28.094662 0.899608 0.831853 0.038703 0.008058 -358804.000000 0 0 1
12.464360 17.067912 17.841764 27.658677 0.940036 0.869682 0.038560 0.008569 -356939.000000 0 0 1
11.518860 16.358612 17.097764 26.317710 0.957293 0.863649 0.018173 0.009642 -159931.000000 0 0 1
11.051260 17.005412 15.799764 25.708888 0.994514 0.908963 0.014793 0.015827 -152410.000000 0 0 1
10.084960 18.016512 15.805464 26.002189 1.060489 0.917445 0.020460 0.009758 5665.580000 0 0 1
9.857260 18.512312 14.519764 25.508720 1.081511 0.965254 0.008321 0.012131 7714.720000 0 0 1
8.883160 19.754412 14.454864 26.040169 1.148209 0.982315 0.018313 0.007630 462659.000000 0 0 1
7.567760 19.487712 14.902464 25.673437 1.200386 0.951500 0.002795 0.003971 80519.600000 0 0 1
6.728560 20.634512 14.882164 26.316068 1.255585 0.969737 0.006260 -0.000194 -92027.200000 0 0 1
5.386260 20.338012 15.554864 26.164868 1.311903 0.934160 0.006772 -0.000027 -1167930.000000 0 0 1
4.570460 19.545712 14.809864 24.945060 1.341089 0.935148 0.009096 -0.008517 -1106980.000000 0 1 0
3.541060 19.149412 15.684964 25.005143 1.387944 0.892754 -0.007213 -0.002093 -540091.000000 0 0 1
2.255060 18.636312 15.053964 24.062819 1.450378 0.894882 -0.020862 -0.006902 -269618.000000 0 1 0
1.457060 19.607112 14.355964 24.344518 1.496620 0.940109 -0.010141 -0.009750 444983.000000 0 1 0
0.666360 18.916612 13.377064 23.178181 1.535585 0.955574 -0.005287 -0.019998 -222021.000000 0 1 0
-0.267440 19.802312 12.580964 23.462390 -1.557292 1.004846 0.011061 -0.030339 -119868.000000 0 1 0
-1.292440 20.478712 13.261964 24.432105 -1.507769 0.997018 0.008640 -0.026324 188743.000000 0 1 0
-2.365340 20.821012 12.392064 24.344869 -1.457678 1.036749 0.011534 -0.029257 369901.000000 0 1 0
-3.611040 21.492512 12.987464 25.370099 -1.404337 1.033378 0.014815 -0.024308 24906.200000 0 0 1
-4.367040 20.569712 13.757364 25.128652 -1.361598 0.991450 0.011568 -0.030584 -220183.000000 0 0 1
-5.442540 21.292512 14.313064 26.227011 -1.320546 0.993527 0.009656 -0.023172 -312670.000000 0 0 1
-6.148040 20.592912 15.554664 26.529493 -1.280669 0.944293 0.006272 -0.021995 -507643.000000 0 0 1
-6.998540 19.455912 15.188464 25.655438 -1.225495 0.937237 0.010803 -0.020977 589694.000000 0 0 1
-7.707840 18.990612 16.324364 26.201889 -1.185234 0.898196 0.007739 -0.010147 817411.000000 0 0 1
-8.842540 19.972912 16.876864 27.603193 -1.154007 0.912955 0.004676 -0.000249 -641254.000000 0 0 1
-9.909740 20.223312 16.030864 27.643696 -1.115168 0.952178 -0.002842 -0.004812 -385801.000000 0 0 1
-11.102140 19.903412 16.742964 28.279501 -1.061984 0.937192 -0.011526 0.002760 426084.000000 0 0 1
-12.367940 19.811512 15.840464 28.220245 -1.012715 0.974822 -0.012925 -0.004722 -10111.900000 0 0 1
-12.961640 21.038912 15.507664 29.174091 -1.018638 1.010360 -0.024016 -0.001901 152588.000000 0 0 1
-13.835140 20.850812 14.387164 28.864476 -0.984968 1.049000 -0.020252 -0.007413 290833.000000 0 0 1
-15.029740 21.830512 14.286964 30.109495 -0.967848 1.076400 -0.016911 -0.006783 -247795.000000 0 0 1
-16.006240 21.758912 15.263664 31.026270 -0.936564 1.056457 -0.009212 -0.006192 -1040580.000000 0 0 1
-16.863240 22.815312 15.222364 32.196703 -0.934295 1.078339 0.006183 -0.015159 -730591.000000 0 0 1
-18.183940 22.552512 15.950464 33.070966 -0.892230 1.067506 0.046446 -0.020094 -608733.000000 0 0 1
-19.082940 21.599212 15.327964 32.644005 -0.847171 1.082016 0.049412 -0.016987 -42452.200000 0 0 1
-20.280840 21.549412 16.027364 33.653618 -0.815716 1.074417 0.052573 -0.015857 -90941.400000 0 0 1
-21.311940 22.710312 15.920064 34.977214 -0.817153 1.098250 0.045404 -0.020480 -664786.000000 0 0 1
-22.091040 22.764312 14.745664 34.980889 -0.800407 1.135659 0.052592 -0.018056 335239.000000 0 0 1
-22.892240 23.943612 14.626564 36.211705 -0.807842 1.155000 0.054733 -0.021635 326087.000000 0 0 1
-22.185840 25.219012 13.964564 36.376079 -0.849295 1.176786 0.043913 -0.022851 456144.000000 0 0 1
-21.051340 25.657612 14.710764 36.302597 -0.883697 1.153570 0.035892 -0.023871 330605.000000 0 0 1
-20.451240 26.802012 14.118664 36.550482 -0.918996 1.174203 0.022128 -0.015571 -639296.000000 0 0 1
-18.981840 27.015612 14.437664 36.036089 -0.958311 1.158576 0.010144 -0.012804 -683382.000000 0 0 1
-18.136840 26.391112 13.517764 34.758678 -0.968690 1.171355 0.013646 -0.006711 -508075.000000 0 0 1
-16.778440 26.569412 13.817764 34.327545 -1.007540 1.156521 -0.007956 -0.000152 104919.000000 0 0 1
-15.777840 25.973912 12.775264 32.966524 -1.024917 1.172854 -0.001156 -0.005251 -214621.000000 0 0 1
-14.464040 26.380212 12.939464 32.749867 -1.069266 1.164620 -0.009566 0.001835 -730718.000000 0 0 1
-13.589340 26.026112 11.915664 31.686144 -1.089592 1.185264 -0.016428 0.000041 -240778.000000 0 0 1
-12.191540 26.633512 12.062064 31.677611 -1.141515 1.180161 -0.025229 0.002556 -602826.000000 0 0 1
-11.153640 25.940912 11.383464 30.445326 -1.164729 1.187587 -0.023024 -0.003227 1044460.000000 0 0 1
-9.798640 26.238212 11.743864 30.370635 -1.213386 1.173762 -0.002478 -0.006991 803055.000000 0 0 1
-9.384440 27.548012 11.058364 31.132750 -1.242468 1.207668 -0.006970 -0.007214 -758432.000000 0 0 1
-8.148040 28.095212 11.485964 31.427040 -1.288525 1.196648 0.018175 -0.016899 304251.000000 0 0 1
-7.941340 29.377712 11.014964 32.364244 -1.306788 1.223514 0.022025 -0.017777 -413236.000000 0 0 1
-6.660240 29.968712 11.641664 32.833076 -1.352111 1.208341 0.024448 -0.018090 251135.000000 0 0 1
-5.494840 29.252112 11.283164 31.830632 -1.385116 1.208444 0.035546 -0.022227 82851.000000 0 0 1
-4.384740 29.558312 12.117164 32.245084 -1.423528 1.185554 0.020743 -0.023586 -122347.000000 0 0 1
-3.043240 29.216312 11.466964 31.533244 -1.467008 1.198617 0.033960 -0.031523 -594041.000000 0 0 1
-2.726840 30.090112 10.432964 31.963999 -1.480421 1.238307 0.052227 -0.036025 46732.400000 0 0 1
-1.611140 29.695512 9.662164 31.269420 -1.516594 1.256658 0.036336 -0.033100 83078.000000 0 0 1
-1.419740 30.470312 8.336464 31.622021 -1.524236 1.304015 0.038567 -0.032804 -115376.000000 0 0 1
-2.394140 30.192612 7.354964 31.167631 -1.491666 1.332569 0.048080 -0.035121 -16420.600000 0 0 1
-2.224740 30.989412 6.223864 31.686426 -1.499129 1.373090 0.043719 -0.024614 28256.400000 0 0 1
10.530560 -34.542618 -27.413393 45.338497 -1.274890 2.220108 0.083967 -0.021007 107090.000000 0 0 1
11.103760 -34.525818 -26.107513 44.686999 -1.259636 2.194728 0.062598 -0.016456 -225744.000000 0 0 1
12.216260 -33.694618 -26.077153 44.323608 -1.222978 2.199795 0.059305 -0.007510 -476775.000000 0 0 1
12.946360 -33.720118 -24.703633 43.759846 -1.204215 2.170657 0.040892 0.011999 -402528.000000 0 0 1
12.254860 -32.956118 -23.704533 42.405097 -1.214787 2.163978 0.025496 0.013899 240474.000000 0 0 1
12.719560 -32.838718 -22.355233 41.712409 -1.201256 2.136414 0.004658 0.009799 112521.000000 0 0 1
14.164560 -32.250118 -22.132833 41.600086 -1.156952 2.131802 -0.009044 0.014402 958200.000000 0 0 1
15.146060 -33.166418 -22.604633 42.899695 -1.142411 2.125767 0.008025 0.010153 74362.500000 0 0 1
16.427960 -32.900118 -22.069433 42.887708 -1.107686 2.111322 0.000200 0.003542 303610.000000 0 0 1
17.387660 -34.151118 -22.069333 44.223128 -1.099864 2.093293 -0.016015 0.013896 -504290.000000 0 0 1
18.684560 -33.844318 -21.695533 44.331104 -1.066362 2.082195 -0.008016 0.010463 -534338.000000 0 0 1
19.494960 34.122812 -21.796733 44.939040 1.051734 2.077193 -0.016873 0.018817 -15354.500000 0 0 1
20.999960 34.288912 -21.498733 45.595212 1.021279 2.061802 -0.007557 0.016677 -5718.680000 0 0 1
21.781760 -34.317518 -22.552333 46.483813 -1.005243 2.077349 -0.015079 0.015519 -72202.700000 0 0 1
23.127960 -34.151518 -22.172833 46.828018 -0.975526 2.064051 -0.017273 0.012292 107974.000000 0 0 1
24.027360 -33.606718 -23.323533 47.441677 -0.950102 2.084752 0.003784 0.003602 78400.300000 0 0 1
23.892660 -32.247318 -23.640533 46.579218 -0.933132 2.103117 0.012530 -0.001061 576343.000000 0 0 1
22.664960 -31.992618 -24.352733 46.154996 -0.954426 2.126604 -0.007311 0.006010 562436.000000 0 0 1
22.465860 -30.516118 -24.513333 45.131495 -0.936188 2.144985 0.001724 -0.011023 -1369860.000000 0 0 1
23.305960 -29.887218 -25.410253 45.629974 -0.908496 2.161417 0.002176 -0.012226 -430393.000000 0 0 1
23.459760 -28.537018 -25.082453 44.652561 -0.882735 2.167266 0.010902 -0.004941 267700.000000 0 0 1
24.272160 -27.728518 -26.122393 45.170653 -0.851768 2.187445 0.006507 -0.001532 472495.000000 0 0 1
23.499460 -27.469618 -27.323433 45.314176 -0.863135 2.218025 -0.005164 -0.009733 266255.000000 0 0 1
24.246260 -26.616318 -28.172423 45.716462 -0.831962 2.234759 -0.005481 -0.009267 -376048.000000 0 0 1
23.383960 -25.873918 -29.220693 45.498551 -0.835905 2.268205 -0.008231 -0.005613 -132470.000000 0 0 1
22.625360 -24.805018 -28.799273 44.233403 -0.831321 2.279797 0.005206 -0.007405 -61518.500000 0 0 1
21.337360 -25.128818 -28.272183 43.428755 -0.866814 2.279699 -0.005516 -0.005464 256059.000000 0 0 1
20.502760 -23.852518 -27.943313 42.072967 -0.860776 2.297170 -0.007370 0.009587 72523.600000 0 0 1
20.122960 -23.028918 -29.039323 42.172821 -0.852639 2.330324 0.006088 0.000518 168401.000000 0 0 1
19.535560 -21.833418 -28.583303 40.930935 -0.840887 2.343858 -0.000562 0.011228 -389894.000000 0 0 1
18.545360 -21.088218 -29.483963 40.717900 -0.849470 2.380530 0.013852 0.001329 -237396.000000 0 0 1
17.331760 -21.773318 -29.564873 40.602328 -0.898494 2.386426 0.002939 0.000911 54359.000000 0 0 1
16.247860 -21.110418 -30.216973 40.282852 -0.914831 2.419040 -0.005014 -0.004342 -68037.900000 0 0 1
15.041460 -22.034018 -30.238923 40.325376 -0.971812 2.418667 -0.004197 -0.008104 -833347.000000 0 0 1
15.255460 -23.191018 -31.020193 41.626972 -0.988945 2.411623 -0.008572 -0.002980 112472.000000 0 0 1
14.379760 -24.195318 -30.587743 41.566825 -1.034564 2.397746 0.007375 -0.002767 -167898.000000 0 0 1
14.770560 -25.548518 -31.265623 42.993434 -1.046607 2.385057 0.024460 0.000837 37068.500000 0 0 1
13.982660 -26.588718 -30.720603 42.967781 -1.086654 2.367375 0.036795 -0.008709 93333.900000 0 0 1
14.363760 -27.866818 -31.211113 44.238114 -1.094871 2.353961 0.051970 -0.009615 327253.000000 0 0 1
13.654060 -29.096118 -30.480743 44.295521 -1.132030 2.329695 0.054017 -0.016213 219993.000000 0 0 1
13.879360 -29.282818 -29.073433 43.536015 -1.128184 2.302048 0.076941 -0.024746 132255.000000 0 0 1
13.439960 -28.261818 -28.194163 42.122129 -1.126898 2.304121 0.066101 -0.017041 -45400.000000 0 0 1
14.425960 -28.309118 -27.009443 41.701613 -1.099509 2.275336 0.046832 -0.006423 81464.100000 0 0 1
14.174460 -29.436918 -26.120183 41.829552 -1.122042 2.245215 0.050805 -0.008294 -16267.600000 0 0 1
14.958560 -29.474918 -24.967633 41.423568 -1.101166 2.217727 0.041916 -0.006688 -814145.000000 0 0 1
14.382760 -28.608718 -23.785133 39.888032 -1.104959 2.209677 0.019832 -0.000781 37471.800000 0 0 1
13.224960 -28.982918 -23.087633 39.343969 -1.142714 2.197916 0.025282 0.001666 135584.000000 0 0 1
12.053760 -28.727518 -23.869233 39.246703 -1.173517 2.224568 0.028211 0.006473 -182724.000000 0 0 1
10.874260 -28.221218 -22.988433 37.988877 -1.203007 2.220733 0.013013 0.008825 8752.290000 0 0 1
10.948860 -26.855618 -22.522033 36.719800 -1.183675 2.231090 0.004991 0.005088 -694919.000000 0 0 1
9.705760 -26.343318 -22.213933 35.799875 -1.217795 2.240180 0.011469 0.004222 -1052620.000000 0 0 1
9.719960 -24.838918 -21.985933 34.566324 -1.197795 2.260166 0.024096 -0.003442 80880.400000 0 0 1
10.236660 -24.519618 -20.662633 33.659253 -1.175305 2.231759 0.012020 -0.008563 150747.000000 0 0 1
10.029460 -23.146418 -20.414433 32.451438 -1.161912 2.251161 0.011862 -0.009893 -112000.000000 0 0 1
10.631960 -22.515718 -19.123333 31.395828 -1.129634 2.225727 0.013926 -0.010471 10433.500000 0 0 1
9.946660 -22.899218 -17.945433 30.746525 -1.161019 2.194022 0.019590 -0.016977 142007.000000 0 0 1
10.215160 -21.987618 -16.892433 29.549266 -1.135878 2.179336 0.014793 -0.013527 -326610.000000 0 0 1
9.321260 -22.279218 -15.683133 28.796009 -1.174543 2.146743 0.003577 -0.006878 -49092.600000 0 0 1
9.471160 -23.610718 -15.306033 29.689115 -1.189309 2.112438 0.006942 -0.003457 315452.000000 0 0 1
8.722260 -23.961418 -14.124733 29.150222 -1.221693 2.076645 0.010081 -0.001179 100073.000000 0 0 1
8.775560 -25.458318 -13.797833 30.257505 -1.238848 2.044307 0.008029 0.000787 -458280.000000 0 0 1
9.951260 -26.013418 -13.299133 30.864096 -1.205429 2.016279 0.003699 -0.003007 -651835.000000 0 0 1
10.016660 -27.389618 -13.649633 32.199956 -1.220195 2.008546 -0.004021 -0.013164 -1495080.000000 0 0 1
11.244160 -28.089418 -13.135833 32.984794 -1.190032 1.980393 0.004951 -0.014152 -236643.000000 0 0 1
12.471360 -27.698518 -13.758933 33.347428 -1.147731 1.996096 0.000392 -0.006009 316066.000000 0 0 1
12.702660 -27.948018 -15.114333 34.218304 -1.144198 2.028292 0.003617 -0.013398 -1789350.000000 0 0 1
14.008960 -27.409718 -15.638233 34.526772 -1.098312 2.040846 -0.014755 -0.011869 -819467.000000 0 0 1
15.047760 -28.326018 -15.359233 35.562683 -1.082474 2.017386 0.018931 -0.006614 250690.000000 0 0 1
16.307560 -27.748218 -15.724633 35.821282 -1.039472 2.025253 0.022554 -0.012410 1800980.000000 0 0 1
17.614260 -28.556318 -15.296033 36.874030 -1.018097 1.998540 0.019033 -0.020972 1320070.000000 0 0 1
17.705660 -29.753018 -16.077533 38.173545 -1.033997 2.005531 0.019924 -0.011531 525863.000000 0 0 1
19.078460 -30.074818 -16.336533 39.183729 -1.005490 2.000852 0.031116 -0.014212 665312.000000 0 0 1
19.290260 -31.202118 -17.341333 40.575955 -1.017076 2.012389 0.016585 -0.017657 -220922.000000 0 0 1
19.142160 -32.522118 -16.892533 41.345715 -1.038810 1.991681 0.011043 -0.004200 -69900.100000 0 0 1
19.341960 -33.396118 -17.969833 42.571434 -1.045835 2.006568 0.000033 -0.005970 53687.900000 0 0 1
19.179360 34.253112 -17.528633 42.992750 1.060361 1.990743 -0.014968 0.006637 -39980.700000 0 0 1
20.214360 33.905812 -16.611533 42.827181 1.033182 1.969120 0.006428 -0.005741 258609.000000 0 0 1
20.001660 32.627812 -16.086933 41.514214 1.020855 1.968719 0.001661 -0.012961 -724243.000000 0 0 1
20.947060 32.177212 -14.973533 41.211151 0.993725 1.942643 0.009622 -0.016494 -729557.000000 0 0 1
22.191560 31.664612 -15.369833 41.609431 0.959512 1.949142 0.012823 -0.010968 158698.000000 0 0 1
22.985860 31.205012 -14.248433 41.293103 0.935921 1.923095 0.017669 -0.003841 314713.000000 0 0 1
22.598060 29.819412 -13.649833 39.826971 0.922303 1.920616 0.016237 -0.001514 -679615.000000 0 0 1
22.890160 28.632712 -14.355633 39.368462 0.896396 1.944051 0.011988 0.004232 -136729.000000 0 0 1
22.759160 27.475612 -13.538633 38.159969 0.879012 1.933482 0.000518 0.010746 759166.000000 0 0 1
21.242760 27.139412 -13.299233 36.941469 0.906677 1.939073 0.001149 0.006158 511669.000000 0 0 1
20.513260 26.836512 -14.509833 36.763127 0.918156 1.976521 0.008909 -0.000195 1148710.000000 0 0 1
19.078460 26.773712 -14.381933 35.883970 0.951676 1.983175 0.007072 -0.006563 667959.000000 0 0 1
18.431260 28.174612 -14.518933 36.664963 0.991488 1.977941 0.008283 -0.009927 -581414.000000 0 0 1
18.544560 28.889712 -15.696033 37.747604 1.000130 1.999635 0.004897 -0.008457 -31193.300000 0 0 1
17.783060 28.394112 -16.774933 37.468136 1.011267 2.035001 -0.011222 0.002152 -334604.000000 0 0 1
17.875360 29.244212 -18.086833 38.754173 1.022150 2.056360 -0.017861 0.002874 -189936.000000 0 0 1
16.987660 30.340212 -17.905533 39.111599 1.060380 2.046322 -0.021629 0.008721 112170.000000 0 0 1
17.085360 31.242812 -19.004933 40.363477 1.070369 2.061044 -0.024945 0.012777 -1860.340000 0 0 1
16.031860 32.394212 -19.109833 40.885098 1.111238 2.057148 -0.030824 0.016429 339843.000000 0 0 1
16.278760 33.483212 -18.209133 41.445097 1.118268 2.025677 -0.019222 -0.001993 2517.290000 0 0 1
15.375860 34.531112 -18.581933 42.120102 1.151878 2.027693 -0.024967 0.007052 227810.000000 0 0 1
15.347760 -33.393418 -17.647333 40.768891 -1.139984 2.018462 -0.017702 0.010015 -85738.500000 0 0 1
14.572660 -32.331718 -18.157633 39.842215 -1.147341 2.043998 -0.027774 0.015906 -96216.500000 0 0 1
14.184460 -31.406718 -17.154833 38.495054 -1.146581 2.032682 -0.017123 0.013481 -449728.000000 0 0 1
13.104560 -30.436418 -17.578533 37.511463 -1.164230 2.058522 -0.009275 0.007349 -140127.000000 0 0 1
11.896560 -31.097718 -17.965233 37.833131 -1.205419 2.065595 -0.025014 0.015587 -286645.000000 0 0 1
10.887060 -30.119418 -18.048933 36.762364 -1.223946 2.083990 -0.042724 0.020171 148583.000000 0 0 1
9.542560 -30.818018 -18.425533 37.152537 -1.270517 2.089717 -0.008547 0.007748 -943119.000000 0 0 1
9.036560 -31.554618 -17.348833 37.125939 -1.291883 2.057027 -0.001160 0.005341 376614.000000 0 0 1
7.940160 -32.454918 -17.580433 37.754993 -1.330857 2.055160 0.022533 0.002900 151826.000000 0 0 1
6.620560 -31.827318 -18.067533 37.192012 -1.365706 2.078064 0.019305 0.009468 -1103170.000000 0 0 1
6.515560 -31.273618 -19.393733 37.371227 -1.365394 2.116416 0.008759 0.014630 -298402.000000 0 0 1
6.585760 -32.236718 -20.445733 38.737659 -1.369276 2.126805 0.019144 0.008044 -765946.000000 0 0 1
6.720560 -31.676918 -21.898133 39.091192 -1.361737 2.165400 0.011513 0.018737 458425.000000 0 0 1
8.039460 -31.287318 -22.285033 39.244769 -1.319282 2.174684 0.010649 0.013305 643239.000000 0 0 1
9.057660 -32.245418 -22.498033 40.348106 -1.296955 2.162286 0.012416 0.008566 -237559.000000 0 0 1
8.811260 -33.315018 -23.621233 41.779078 -1.312234 2.171695 0.018762 0.004504 -270316.000000 0 0 1
7.849760 -34.277018 -23.195533 42.125592 -1.345669 2.153913 0.025428 -0.011152 -108519.000000 0 0 1
7.664060 33.775712 -24.105033 42.197028 1.347664 2.178824 0.034410 -0.021362 -280241.000000 0 0 1
6.507360 32.822412 -23.695233 41.001470 1.375075 2.186964 0.034621 -0.024288 661253.000000 0 0 1
5.185760 33.354512 -23.808633 41.306980 1.416557 2.185092 0.038613 -0.017179 418481.000000 0 0 1
4.804960 34.108512 -22.714133 41.260272 1.430845 2.153770 0.030449 -0.016345 -608126.000000 0 0 1
3.408360 -34.388918 -22.919933 41.467312 -1.472007 2.156424 0.020391 -0.010662 451453.000000 0 0 1
2.255860 33.905012 -22.789333 40.914453 1.504360 2.161565 0.025376 -0.016763 482162.000000 0 0 1
1.070160 -34.539318 -23.187633 41.614614 -1.539822 2.161805 0.018696 -0.004588 1232370.000000 0 0 1
-0.291940 33.829012 -22.851333 40.824879 -1.562167 2.164869 0.019015 -0.011660 967215.000000 0 0 1
-0.483740 33.896212 -21.447233 40.114474 -1.556526 2.134891 0.014710 -0.011631 130006.000000 0 0 1
-1.521340 33.064312 -20.930133 39.161635 -1.524817 2.134659 0.021179 -0.002971 251578.000000 0 0 1
-1.753440 33.243112 -19.381333 38.520321 -1.518099 2.098031 0.032724 -0.006773 182884.000000 0 0 1
-0.738740 32.715412 -18.546833 37.614212 -1.548219 2.086423 0.041234 -0.017068 87840.200000 0 0 1
-1.318040 32.459612 -17.283833 36.798023 -1.530213 2.059741 0.028080 -0.016065 -108436.000000 0 0 1
-0.514540 31.517712 -16.414933 35.539850 -1.554472 2.050903 0.010532 -0.014522 -472934.000000 0 0 1
0.525660 32.121312 -15.745933 35.776940 1.554433 2.026522 0.030390 -0.008961 -668390.000000 0 0 1
1.403260 31.217312 -15.102033 34.706788 1.525875 2.020981 0.045808 -0.006656 250068.000000 0 0 1
2.444560 31.880212 -14.191833 34.981880 1.494267 1.988531 0.045344 -0.005900 146637.000000 0 0 1
3.460060 32.637712 -14.837433 36.018630 1.465177 1.995376 0.046897 -0.008315 158965.000000 0 0 1
4.222360 33.428812 -13.939433 36.463977 1.445153 1.963058 0.043611 -0.009285 -677765.000000 0 0 1
5.620060 33.762912 -14.433433 37.146242 1.405852 1.969861 0.043284 -0.021074 -335365.000000 0 0 1
6.487860 32.637012 -14.389533 36.253628 1.374566 1.978947 0.031996 -0.005578 -1230110.000000 0 0 1
7.614060 32.896312 -15.124933 36.998714 1.343345 1.991931 0.017810 0.006103 -751706.000000 0 0 1
8.541360 31.665412 -15.216833 36.155292 1.307329 2.005205 0.004956 0.002912 367755.000000 0 0 1
9.231560 31.318312 -13.998533 35.524883 1.284149 1.975829 -0.000610 0.002312 -182018.000000 0 0 1
9.911660 30.084212 -13.979333 34.622573 1.252532 1.986423 -0.005916 0.009236 172475.000000 0 0 1
9.067560 28.749112 -13.923233 33.205248 1.265269 2.003479 0.006287 0.008975 22363.000000 0 0 1
8.617760 28.272812 -15.181333 33.227858 1.274935 2.045287 0.014115 0.002433 -276111.000000 0 0 1
7.924060 27.093912 -14.946033 31.941426 1.286265 2.057732 0.019725 0.008675 -371602.000000 0 0 1
7.269660 26.405712 -16.188933 31.814952 1.302145 2.104641 0.026668 0.011041 140241.000000 0 0 1
8.158160 25.778112 -17.076733 31.979391 1.264293 2.134111 0.026131 0.016701 -577354.000000 0 0 1
7.456760 24.986012 -17.990633 31.679125 1.280774 2.174751 0.021424 0.016498 -288677.000000 0 0 1
8.318660 23.993112 -18.773033 31.579998 1.237055 2.207390 0.014998 0.022299 -537374.000000 0 0 1
7.591660 23.154912 -19.609633 31.278123 1.253976 2.248421 0.022086 0.014233 -114695.000000 0 0 1
8.388960 22.039812 -20.004333 30.924122 1.207101 2.274288 0.012774 0.016700 -198444.000000 0 0 1
7.780860 21.226612 -21.177733 30.977528 1.219444 2.323546 0.012965 0.005704 376096.000000 0 0 1
6.748060 20.423912 -20.562733 29.757327 1.251688 2.333687 0.006005 0.009176 559475.000000 0 0 1
6.309360 19.313912 -21.369533 29.487152 1.255051 2.381405 0.005939 0.005267 27666.500000 0 0 1
24.131660 -12.932088 -9.926333 29.122294 -0.491951 1.918617 0.046078 -0.008376 297093.000000 0 0 1
24.981760 -12.682688 -8.810333 29.369386 -0.469771 1.875472 0.052642 -0.016381 539201.000000 0 0 1
24.141860 -12.709388 -7.708733 28.351058 -0.484580 1.846166 0.040160 -0.009170 -340782.000000 0 0 1
24.834660 -12.159388 -6.461633 28.396545 -0.455304 1.800357 0.020277 -0.005951 -457894.000000 0 0 1
24.753460 -10.785488 -6.211233 27.706316 -0.410912 1.796899 0.014352 -0.001875 386184.000000 0 0 1
25.736560 -9.978488 -6.846633 28.439710 -0.369872 1.813927 0.012208 -0.012535 -766588.000000 0 0 1
25.756660 -8.513388 -6.430233 27.878866 -0.319227 1.803541 0.013410 -0.007318 -253137.000000 0 0 1
26.433360 -8.257688 -5.225833 28.181931 -0.302791 1.757308 0.026395 -0.018123 657694.000000 0 0 1
27.840860 -8.449688 -5.147733 29.546740 -0.294664 1.745913 0.034410 -0.015374 124108.000000 0 0 1
28.461060 -8.111888 -3.759533 29.832344 -0.277655 1.697154 0.043532 -0.017668 -138168.000000 0 0 1
28.435760 -6.767988 -3.262633 29.411611 -0.233662 1.681955 0.044098 -0.008210 160869.000000 0 0 1
29.194160 -6.630788 -2.093133 30.010790 -0.223338 1.640599 0.068452 -0.008560 -117452.000000 0 0 1
29.340960 -5.194588 -1.532633 29.836632 -0.175226 1.622186 0.068893 -0.012158 269561.000000 0 0 1
28.098660 -4.660588 -1.062433 28.502360 -0.164369 1.608080 0.053221 -0.003833 258680.000000 0 0 1
28.210060 -3.313288 -0.659633 28.411626 -0.116915 1.594015 0.062444 -0.001634 -319861.000000 0 0 1
28.984160 -3.045888 0.629267 29.150556 -0.104704 1.549208 0.065262 -0.006626 -142193.000000 0 0 1
28.340660 -3.372188 1.840667 28.599873 -0.118431 1.506393 0.048507 -0.005504 -55069.900000 0 0 1
29.246460 -3.106388 2.852567 29.548980 -0.105817 1.474109 0.046053 -0.002243 -310534.000000 0 0 1
28.869260 -3.742888 4.231067 29.416752 -0.128930 1.426464 0.046076 -0.006259 -130112.000000 0 0 1
29.142060 -5.125188 4.255467 29.893749 -0.174089 1.427958 0.049750 -0.016040 64702.700000 0 0 1
29.127660 -5.693688 5.554967 30.194309 -0.193039 1.385768 0.044897 -0.015857 -218337.000000 0 0 1
29.711460 -7.090788 5.710967 31.075155 -0.234273 1.385967 0.029836 -0.010853 -494831.000000 0 0 1
31.090560 -7.118088 5.509367 32.367317 -0.225068 1.399750 0.026546 -0.008880 -777917.000000 0 0 1
31.665860 -8.383188 5.615367 33.234573 -0.258802 1.401020 0.019006 -0.006220 794435.000000 0 0 1
33.231360 -8.273888 5.690567 34.715458 -0.244017 1.406133 0.018315 -0.001101 780330.000000 0 0 1
33.824160 -7.936888 4.447767 35.026427 -0.230482 1.443469 0.025357 -0.000167 408397.000000 0 0 1
-35.153567 -7.609888 4.624167 36.263847 0.213186 1.442934 0.024156 0.003022 779375.000000 0 0 1
-34.492367 -7.402388 3.229667 35.425266 0.211403 1.479501 0.033702 0.000946 -96128.100000 0 0 1
-34.357667 -8.603788 2.467167 35.504385 0.245372 1.501251 0.051419 -0.008026 397562.000000 0 0 1
-33.360667 -8.434588 1.469267 34.441764 0.247641 1.528124 0.072297 -0.019189 -46080.200000 0 0 1
-32.929567 -9.668288 0.691867 34.326533 0.285580 1.550639 0.068339 -0.016345 64956.900000 0 0 1
-32.243067 -10.636688 1.524567 33.986451 0.318649 1.525923 0.062792 -0.010867 490180.000000 0 0 1
-32.107067 -11.887888 0.903967 34.249128 0.354607 1.544399 0.064575 -0.023095 -721080.000000 0 0 1
-31.896567 -13.083388 1.884467 34.527051 0.389253 1.516190 0.040644 -0.025336 491608.000000 0 0 1
-30.583867 -13.330788 2.356167 33.445992 0.411047 1.500291 0.032211 -0.018260 256516.000000 0 0 1
-29.633867 -13.714488 1.372767 32.682377 0.433445 1.528781 0.039081 -0.009394 -579824.000000 0 0 1
-28.282767 -14.122988 1.982067 31.674947 0.463127 1.508180 0.024029 0.000054 -508192.000000 0 0 1
-27.572467 -12.996488 2.392567 30.575710 0.440472 1.492466 0.015047 0.006602 536605.000000 0 0 1
-26.284767 -13.439988 2.871067 29.660838 0.472664 1.473848 0.006581 0.011634 681647.000000 0 0 1
-25.588067 -12.313888 3.636767 28.628781 0.448524 1.443420 -0.012893 0.021578 -616636.000000 0 0 1
-24.364367 -12.654388 4.196567 27.773496 0.479032 1.419116 -0.021849 0.029355 -396790.000000 0 0 1
-23.757967 -11.612488 4.930567 26.899840 0.454634 1.386461 -0.019342 0.032607 -271273.000000 0 0 1
-22.586667 -12.053888 5.786967 26.247719 0.490222 1.348495 -0.013581 0.035958 -492246.000000 0 0 1
-22.929467 -12.919588 6.866967 27.199843 0.513110 1.315571 0.005319 0.019749 145823.000000 0 0 1
-21.757167 -13.369188 7.527467 26.622777 0.550993 1.284141 0.013529 0.020060 236745.000000 0 0 1
-21.429267 -12.656088 8.852567 26.415109 0.533478 1.229050 0.027863 0.016364 -401120.000000 0 0 1
-21.153067 -11.262388 8.721567 25.502144 0.489249 1.221759 0.028588 0.009076 899253.000000 0 0 1
-22.224667 -10.316788 9.003367 26.104263 0.434603 1.218664 0.018466 0.008634 223480.000000 0 0 1
-22.593067 -10.216988 10.493667 26.924906 0.424697 1.170449 0.034545 0.004676 -6204.000000 0 0 1
-23.279167 -11.297788 11.136367 28.170522 0.451833 1.164380 0.037753 -0.002180 690678.000000 0 0 1
-24.693967 -11.267488 10.967667 29.275212 0.428068 1.186788 0.047155 0.002237 582101.000000 0 0 1
-25.570167 -11.034188 12.252967 30.425679 0.407385 1.156312 0.051827 -0.004495 -114248.000000 0 0 1
-25.575467 -12.023788 13.244667 31.210530 0.439467 1.132535 0.063918 -0.003746 266175.000000 0 0 1
-26.489767 -11.736588 14.295967 32.308357 0.417069 1.112428 0.040621 -0.002657 37466.500000 0 0 1
-26.230967 -12.656788 15.533067 33.008091 0.449561 1.080844 0.037649 -0.004126 -60965.000000 0 0 1
-26.615467 -13.980488 15.178867 33.678408 0.483664 1.103247 0.043744 0.000051 331676.000000 0 0 1
-26.046067 -14.746788 16.177767 34.023308 0.515181 1.075275 0.026155 -0.000138 -634361.000000 0 0 1
-25.944067 -16.288188 15.901567 34.514628 0.560624 1.091990 0.017567 0.005649 -189737.000000 0 0 1
-27.133167 -17.032588 16.008567 35.813294 0.560568 1.107387 0.008621 0.009186 -136095.000000 0 0 1
-26.819867 -18.431888 15.957267 36.244643 0.602116 1.114902 -0.002520 0.013978 497609.000000 0 0 1
-27.931267 -19.371488 16.561267 37.811186 0.606378 1.117425 -0.025136 0.024848 384955.000000 0 0 1
-27.994267 -19.201988 17.931167 38.391693 0.601218 1.084835 -0.004552 0.023321 -131040.000000 0 0 1
-28.628267 -20.171388 18.729467 39.714676 0.613804 1.079691 -0.004391 0.021253 -14900.200000 0 0 1
-27.761367 -21.424588 19.110967 39.936644 0.657271 1.071814 -0.013370 0.020510 18416.500000 0 0 1
-26.616067 -21.136988 19.884867 39.377598 0.671160 1.041438 0.004307 0.018328 -254467.000000 0 0 1
-26.007767 -22.351688 20.180367 39.790063 0.709940 1.038897 -0.001184 0.018815 -119853.000000 0 0 1
-24.522267 -22.216888 20.583267 38.969252 0.736114 1.014326 0.012252 0.021373 334847.000000 0 0 1
-23.575967 -21.851988 19.574667 37.636461 0.747467 1.023830 0.006654 0.016007 71140.500000 0 0 1
-22.301567 -21.921288 20.165167 37.209363 0.776799 0.998055 0.016593 0.019399 572257.000000 0 0 1
-21.069267 -21.557588 19.250367 35.766189 0.796853 1.002463 0.016289 0.013733 643846.000000 0 0 1
-20.867367 -22.478788 18.202667 35.666231 0.822557 1.035191 0.009131 0.003603 -426710.000000 0 0 1
-19.656267 -22.293388 17.549067 34.515703 0.848179 1.037427 0.003305 0.007541 -490851.000000 0 0 1
-19.316767 -23.297688 16.459967 34.450693 0.878545 1.072667 0.003246 0.012901 -500595.000000 0 0 1
-19.303467 -24.700988 16.831267 35.581655 0.907447 1.078067 0.013713 0.006664 274515.000000 0 0 1
-18.125467 -25.088858 17.512867 35.562394 0.945161 1.055888 0.015339 0.002696 194517.000000 0 0 1
-16.735867 -25.253298 16.859367 34.670687 0.985531 1.062979 0.011980 0.005676 51118.600000 0 0 1
-16.252367 -23.977488 16.540667 33.356454 0.975113 1.051953 0.010519 0.005233 -206925.000000 0 0 1
-15.036967 -24.125788 15.794367 32.521163 1.013439 1.063673 0.011776 0.003762 169493.000000 0 0 1
-14.334467 -22.787988 15.762467 31.196550 1.009300 1.041109 0.020296 0.004460 -467017.000000 0 0 1
-14.966867 -21.809288 14.974867 30.395704 0.969351 1.055648 0.014591 0.008472 -46606.700000 0 0 1
-15.984667 -21.011388 15.562567 30.646068 0.920443 1.038149 0.012453 0.006151 -46689.900000 0 0 1
-15.544367 -19.943988 16.547167 30.219178 0.908742 0.991337 0.020194 -0.000798 -390234.000000 0 0 1
-14.908667 -18.819988 15.916467 28.806149 0.900847 0.985391 0.009031 0.000255 58758.600000 0 0 1
-14.944667 -17.737788 16.745567 28.607450 0.870653 0.945476 -0.002340 0.000328 -978432.000000 0 0 1
-14.167267 -16.494088 16.272667 27.158168 0.861141 0.928318 0.000952 -0.000662 -145561.000000 0 0 1
-14.662567 -15.778788 15.160467 26.340098 0.822050 0.957500 -0.018259 0.002227 -205468.000000 0 0 1
-14.506367 -16.355988 13.858667 25.884661 0.845258 1.005814 -0.016564 0.002583 -395356.000000 0 0 1
-15.322167 -15.495688 12.903567 25.325623 0.791029 1.036185 -0.006797 0.001153 -224798.000000 0 0 1
-16.691067 -15.709688 13.196467 26.448682 0.755119 1.048414 -0.013955 0.001357 -577693.000000 0 0 1
-17.427467 -14.712188 12.602967 26.057626 0.701115 1.065968 -0.010310 0.001900 -119309.000000 0 0 1
-18.969667 -14.947388 12.652067 27.264400 0.667358 1.088234 0.008711 0.000046 482420.000000 0 0 1
-19.442767 -16.009488 11.834867 27.827845 0.688857 1.131516 0.030352 -0.004438 -21306.700000 0 0 1
-19.737967 -15.709888 10.495367 27.322896 0.672250 1.176538 0.020990 0.003250 -688139.000000 0 0 1
-20.619967 -16.741688 9.818767 28.317404 0.681965 1.216703 0.016112 0.005202 -32077.800000 0 0 1
-20.029767 -18.034788 9.677167 28.637261 0.733036 1.226088 0.017226 0.009894 86635.300000 0 0 1
-21.013467 -18.924588 9.199267 29.737726 0.733143 1.256290 0.017641 0.005262 -48117.000000 0 0 1
-20.592967 -20.341188 9.339667 30.414858 0.779247 1.258677 0.022116 0.008163 -234786.000000 0 0 1
-19.619167 -20.619488 8.379567 29.669718 0.810253 1.284472 0.023441 0.006248 -678616.000000 0 0 1
-19.225767 -21.950388 8.379567 30.358966 0.851472 1.291149 0.011122 0.004784 447186.000000 0 0 1
-17.926867 -22.329088 7.591967 29.624292 0.894321 1.311630 0.014418 0.003339 424838.000000 0 0 1
-16.772867 -21.814788 8.195667 28.712071 0.915324 1.281327 0.014338 0.005857 -389741.000000 0 0 1
-15.565167 -22.168888 7.550167 28.120083 0.958651 1.298964 0.024727 0.009555 -1012820.000000 0 0 1
-14.400667 -21.900288 8.421567 27.530431 0.989128 1.259912 -0.006877 0.013733 -1854940.000000 0 0 1
-13.268367 -22.536688 7.941067 27.331528 1.038694 1.275999 0.009161 0.019946 -728956.000000 0 0 1
-12.129567 -22.108188 8.668167 26.665249 1.068993 1.239707 0.004835 0.011968 167786.000000 0 0 1
-10.804367 -22.389788 7.932467 26.095229 1.121200 1.261927 0.007707 0.011811 -84736.900000 0 0 1
-10.520867 -23.749588 7.841267 27.133320 1.153786 1.277624 0.007369 0.013341 -249300.000000 0 0 1
-9.348067 -24.102988 7.144367 26.821304 1.200818 1.301172 0.017459 0.007698 35862.500000 0 0 1
-9.189167 -25.656578 7.175867 28.181445 1.226870 1.313330 0.015438 0.004614 -180602.000000 0 0 1
-10.212767 -26.303818 6.438267 28.942058 1.200450 1.346466 0.019232 -0.004372 -136461.000000 0 0 1
-10.167567 -27.731648 6.352767 30.212272 1.219374 1.358944 0.015952 0.002654 101075.000000 0 0 1
-9.008067 -28.349958 5.527767 30.255935 1.263140 1.387064 0.016221 0.001001 -217692.000000 0 0 1
-7.725367 -28.107218 6.039267 29.768603 1.302566 1.366505 0.013312 -0.001968 -685639.000000 0 0 1
-6.752267 -28.993208 5.524867 30.277440 1.341984 1.387293 0.009391 0.007366 277745.000000 0 0 1
-6.660067 -30.414678 6.109367 31.729064 1.355223 1.377038 0.009257 0.001072 -408512.000000 0 0 1
-6.410567 -30.482188 7.459167 32.029647 1.363512 1.335755 0.002605 0.012802 62824.400000 0 0 1
-6.168767 -31.823758 7.872767 33.358443 1.379329 1.332543 0.020642 0.010511 -164200.000000 0 0 1
-6.529667 -32.056668 9.377067 34.032277 1.369854 1.291651 0.013690 0.007963 -49212.500000 0 0 1
-5.787367 -31.343048 10.405967 33.528561 1.388207 1.255223 0.012833 0.014749 504131.000000 0 0 1
-6.135467 -31.773828 11.744867 34.426182 1.380046 1.222645 0.012950 0.008048 -3279.530000 0 0 1
-5.458067 -30.928658 12.882667 33.946067 1.396122 1.181536 0.003641 0.010049 280960.000000 0 0 1
-5.829667 -29.549118 12.769267 32.713752 1.376010 1.169803 0.006281 0.008622 348666.000000 0 0 1
-4.930267 -28.706198 13.492467 32.099844 1.400707 1.136989 0.001496 0.000422 384342.000000 0 0 1
-5.623667 -27.936178 14.688267 32.059333 1.372147 1.094874 0.000042 -0.004226 48931.400000 0 0 1
-6.058267 -28.826668 15.741667 33.398794 1.363649 1.080004 -0.000560 -0.003113 -427317.000000 0 0 1
-5.108267 -29.350138 16.620567 34.114047 1.398477 1.061909 -0.004368 -0.000549 -395852.000000 0 0 1
-5.425267 -30.830658 17.047067 35.644992 1.396610 1.072140 0.006676 -0.011092 -449229.000000 0 0 1
-5.450567 -31.718588 15.980067 35.932437 1.400617 1.109929 -0.000013 -0.001065 181391.000000 0 0 1
-5.880367 -33.011218 16.427367 37.338688 1.394513 1.115247 -0.003588 -0.003323 -174151.000000 0 0 1
-5.389267 -34.259419 15.582867 38.020754 1.414767 1.148505 -0.009572 -0.000895 213704.000000 0 0 1
-6.155567 34.528059 14.397067 37.912444 -1.394373 1.181276 -0.005125 -0.001637 423175.000000 0 0 1
-5.668867 33.365200 13.736667 36.524905 -1.402500 1.185223 -0.001122 -0.002502 75874.100000 0 0 1
-4.402267 33.536348 12.862267 36.187077 -1.440274 1.207414 0.018557 -0.012366 35339.500000 0 0 1
-4.751267 33.931337 11.608867 36.175627 -1.431675 1.244114 0.013003 -0.010045 712295.000000 0 0 1
-3.597267 34.369343 10.876967 36.228449 -1.466511 1.265860 0.021912 -0.008160 -280407.000000 0 0 1
-3.919267 -34.411940 9.388067 35.884231 1.457392 1.306095 0.019211 -0.010549 -823502.000000 0 0 1
-4.288267 33.643269 8.482367 34.960111 -1.444017 1.325721 0.028240 -0.025243 521048.000000 0 0 1
-5.211267 32.582423 8.793967 34.148286 -1.412199 1.310339 0.046233 -0.026528 227647.000000 0 0 1
-6.600767 33.058283 9.260867 34.959746 -1.373718 1.302695 0.028237 -0.010303 -1011330.000000 0 0 1
-7.302767 33.598288 8.197467 35.346483 -1.356770 1.336748 0.025474 -0.006513 -830457.000000 0 0 1
-8.608067 33.982744 8.545367 36.082531 -1.322708 1.331696 0.018883 -0.002304 -151112.000000 0 0 1
-9.419167 34.229612 7.249467 36.234539 -1.302267 1.369366 0.024201 -0.005152 -165560.000000 0 0 1
-9.096267 -33.683608 6.605667 35.510032 1.307038 1.383684 0.020967 0.002435 81068.000000 0 0 1
-9.767967 -33.731198 5.386867 35.527809 1.288924 1.418585 0.021935 0.003101 -579890.000000 0 0 1
-9.701867 -32.340678 4.638867 34.081736 1.279349 1.434262 0.010945 0.005953 -55924.500000 0 0 1
-10.526967 -31.292778 5.095567 33.406882 1.246286 1.417668 0.022417 -0.000721 -225791.000000 0 0 1
-11.888867 -31.479098 4.769167 33.985640 1.209683 1.430003 0.027158 0.003067 209552.000000 0 0 1
-12.809967 -30.411218 5.486867 33.452102 1.172127 1.406030 0.029306 -0.004226 308483.000000 0 0 1
-12.923367 -30.815128 6.853567 34.110950 1.173692 1.368499 0.010360 0.009207 -921640.000000 0 0 1
-13.851867 -30.094378 7.530667 33.974354 1.139426 1.347282 0.003317 0.005326 -784513.000000 0 0 1
32.535667 -13.491588 -12.776633 37.467785 -0.393089 1.918780 0.023171 -0.022593 -147727.000000 0 0 1
31.834147 -13.335388 -11.562533 36.399693 -0.396694 1.894051 0.039676 -0.020649 63091.700000 0 0 1
31.382217 -14.557388 -11.017933 36.306417 -0.434331 1.879129 0.050029 -0.021000 4441.150000 0 0 1
32.409217 -15.285388 -10.119933 37.234574 -0.440701 1.846047 0.032879 -0.028316 1909270.000000 0 0 1
33.720057 -15.626488 -10.699033 38.674264 -0.433956 1.851097 0.036984 -0.023935 1480010.000000 0 0 1
34.683534 -15.903688 -9.681833 39.365120 -0.429931 1.819296 0.016984 -0.022463 179634.000000 0 0 1
-34.274860 -15.948688 -10.316933 39.186296 0.435519 1.837216 0.004842 -0.024412 -171806.000000 0 0 1
-33.806030 -14.645788 -10.684333 38.360158 0.408821 1.853056 0.002592 -0.019316 780278.000000 0 0 1
-32.397250 -14.745788 -10.980233 37.250310 0.427133 1.870010 0.004652 -0.022884 956802.000000 0 0 1
-31.899410 -13.316188 -11.210033 36.339483 0.395452 1.884392 -0.001796 -0.022956 -319135.000000 0 0 1
-32.001050 -12.467188 -10.120333 35.803898 0.371497 1.857362 0.016120 -0.023299 -26171.200000 0 0 1
-31.437350 -11.246688 -10.422633 34.977510 0.343562 1.873373 0.005224 -0.016625 -508147.000000 0 0 1
-31.927960 -10.051388 -9.554033 34.809547 0.304992 1.848831 0.006057 -0.018886 -293951.000000 0 0 1
-31.370940 -9.909188 -8.286033 33.926188 0.305954 1.817529 0.018729 -0.016020 -240980.000000 0 0 1
-32.005720 -8.918788 -7.554533 34.073184 0.271768 1.794369 0.027373 -0.013799 -518984.000000 0 0 1
-31.512370 -8.753888 -6.119533 33.273243 0.270960 1.755767 0.026537 -0.010866 -213433.000000 0 0 1
-30.170470 -8.260388 -6.078133 31.865890 0.267241 1.762713 0.036149 -0.020694 363317.000000 0 0 1
-29.764370 -8.093688 -4.716133 31.203644 0.265506 1.722518 0.042429 -0.018753 -59232.800000 0 0 1
-29.140160 -9.382388 -4.102833 30.887074 0.311493 1.704023 0.032705 -0.016309 -372591.000000 0 0 1
-30.122620 -10.368788 -3.883933 32.093129 0.331516 1.692114 0.040858 -0.023847 268064.000000 0 0 1
-30.171690 -10.776388 -2.542633 32.139172 0.343047 1.649992 0.031619 -0.020296 -208393.000000 0 0 1
-30.661500 -12.225788 -2.480033 33.102085 0.379415 1.645787 0.038986 -0.023606 -202399.000000 0 0 1
-32.058710 -12.343588 -2.649133 34.454941 0.367536 1.647759 0.056298 -0.031357 3625.120000 0 0 1
-32.391850 -13.752888 -2.595233 35.286104 0.401514 1.644411 0.068149 -0.036924 -1085290.000000 0 0 1
-33.899300 -13.822988 -2.560733 36.698704 0.387183 1.640630 0.043245 -0.034788 -986549.000000 0 0 1
-34.397594 -13.136988 -1.420133 36.848225 0.364820 1.609346 0.055664 -0.030455 437017.000000 0 0 1
34.538304 -13.089088 -1.465033 36.964375 -0.362249 1.610440 0.076491 -0.039206 351900.000000 0 0 1
33.956097 -11.986988 -0.592433 36.014655 -0.339358 1.587247 0.071697 -0.033122 -231637.000000 0 0 1
34.301777 -12.275988 0.736267 36.439729 -0.343679 1.550590 0.078214 -0.028103 176814.000000 0 0 1
33.980197 -11.231988 1.655367 35.826688 -0.319239 1.524575 0.071150 -0.021454 -274836.000000 0 0 1
34.396903 -11.503188 3.057167 36.398029 -0.322733 1.486705 0.057715 -0.017740 -76440.300000 0 0 1
33.620177 -12.438188 3.789067 36.046940 -0.354346 1.465487 0.049394 -0.020462 -213660.000000 0 0 1
34.182437 -12.694388 5.003167 36.805138 -0.355586 1.434437 0.042285 -0.015743 -1074280.000000 0 0 1
33.177387 -12.698088 6.115467 36.046905 -0.365533 1.400319 0.022192 -0.001432 -404488.000000 0 0 1
32.835067 -11.420988 6.695667 35.403567 -0.334739 1.380526 0.018513 -0.002190 -56222.200000 0 0 1
32.394827 -11.696788 7.999267 35.358563 -0.346502 1.342588 -0.023802 0.016404 -483216.000000 0 0 1
31.772817 -10.491488 8.738767 34.582500 -0.318931 1.315333 -0.026231 0.005287 -1165560.000000 0 0 1
30.470597 -10.191388 8.410567 33.212337 -0.322770 1.314772 -0.006782 0.005099 -1010100.000000 0 0 1
30.037367 -9.173388 9.274767 32.747760 -0.296403 1.283648 -0.003994 0.005143 -449452.000000 0 0 1
28.530627 -9.075188 9.616367 31.445671 -0.307966 1.260008 0.021902 -0.003393 264288.000000 0 0 1
27.815077 -8.447188 8.551467 30.301173 -0.294840 1.284693 0.033323 -0.004004 11063.200000 0 0 1
27.157757 -9.417088 7.773467 29.776704 -0.333781 1.306678 0.058674 -0.016783 -732802.000000 0 0 1
26.126507 -8.968988 6.746367 28.435024 -0.330685 1.331257 0.061354 -0.015624 -116604.000000 0 0 1
24.968987 -8.404788 7.353267 27.352538 -0.324696 1.298615 0.051395 -0.011175 55602.700000 0 0 1
23.953587 -8.016588 6.484267 26.078453 -0.322955 1.319516 0.048060 -0.009120 -199554.000000 0 0 1
24.220487 -6.660888 5.688367 25.755717 -0.268376 1.348102 0.039936 -0.003093 -619635.000000 0 0 1
24.850387 -6.849788 4.463667 26.160766 -0.268962 1.399333 0.031422 -0.004032 61371.800000 0 0 1
25.020687 -5.614388 3.878967 25.934582 -0.220734 1.420666 0.036415 -0.007494 -130628.000000 0 0 1
25.780527 -5.682288 2.559067 26.523062 -0.216941 1.474161 0.050089 -0.009472 -110474.000000 0 0 1
24.977687 -6.049988 1.475167 25.742248 -0.237639 1.513460 0.030772 -0.006087 -176603.000000 0 0 1
25.675587 -5.811388 0.286067 26.326599 -0.222589 1.559930 0.027895 -0.004352 -884083.000000 0 0 1
24.940587 -6.104188 -0.993033 25.695916 -0.240031 1.609452 0.024831 -0.013194 -213356.000000 0 0 1
23.859887 -5.227688 -1.301933 24.460539 -0.215691 1.624047 0.021933 -0.002605 233962.000000 0 1 0
23.489187 -5.342788 -2.674733 24.237192 -0.223652 1.681378 0.018672 0.000314 297020.000000 0 1 0
22.195187 -4.538288 -3.024333 22.855393 -0.201692 1.703510 -0.006859 0.004599 64546.300000 0 1 0
22.378187 -3.092288 -2.868733 22.772245 -0.137314 1.697107 -0.018703 0.007919 399566.000000 0 1 0
23.101887 -2.521088 -3.937333 23.570228 -0.108699 1.738630 -0.008884 0.007111 290577.000000 0 1 0
22.258687 -1.528788 -4.864933 22.835365 -0.068575 1.785486 -0.012265 0.015668 444465.000000 0 1 0
21.883787 -0.296788 -4.286833 22.301685 -0.013561 1.764220 -0.020190 0.016268 378656.000000 0 1 0
20.979687 0.430212 -5.090733 21.592775 0.020503 1.808798 -0.014804 0.019493 -273229.000000 0 1 0
20.611587 1.774212 -4.391333 21.148739 0.085867 1.779959 -0.017827 0.022854 -1201030.000000 0 1 0
21.675587 2.659712 -4.372033 22.271502 0.122095 1.768386 -0.011287 0.022754 -161625.000000 0 1 0
22.225887 2.752612 -3.057633 22.603452 0.123220 1.706485 0.000861 0.012716 774785.000000 0 1 0
23.578287 3.569512 -3.039533 24.039879 0.150249 1.697573 0.008169 0.010098 538274.000000 0 1 0
23.311487 4.898012 -3.384733 24.059767 0.207099 1.711945 0.005577 0.010816 77876.500000 0 1 0
24.323387 5.746312 -2.949133 25.166340 0.231993 1.688252 0.005161 0.000112 -560830.000000 0 0 1
24.067587 7.263112 -3.224033 25.345531 0.293089 1.698345 0.011725 -0.007989 -385073.000000 0 0 1
23.191887 7.809212 -2.289533 24.578230 0.324797 1.664084 0.029137 -0.005202 -91847.400000 0 1 0
22.675387 9.059412 -2.602233 24.556420 0.380098 1.676965 0.017062 0.009522 72897.100000 0 1 0
21.480687 9.345912 -1.629633 23.482370 0.410381 1.640250 0.015508 0.014273 19318.800000 0 1 0
21.893387 9.705712 -0.308333 23.950289 0.417283 1.583671 0.014084 0.010703 515718.000000 0 1 0
20.817887 10.077512 0.529967 23.134856 0.450830 1.547887 0.011908 0.006258 -168379.000000 0 1 0
21.245287 10.151912 2.048767 23.635164 0.445765 1.484004 0.033532 0.001131 -826911.000000 0 1 0
22.248987 11.024312 2.399967 24.946197 0.460039 1.474442 0.049757 -0.009583 -416373.000000 0 1 0
22.058687 12.448212 2.232167 25.426880 0.513773 1.482895 0.062594 -0.005439 -644100.000000 0 0 1
21.014787 13.184612 3.061367 24.996545 0.560321 1.448016 0.046785 0.001796 483126.000000 0 1 0
19.628087 12.908112 2.791267 23.657395 0.581724 1.452534 0.097733 -0.004602 1788810.000000 0 1 0
18.597487 13.674012 3.420667 23.335512 0.634001 1.423680 0.072377 -0.004888 476552.000000 0 1 0
18.514387 13.641012 4.940467 23.521649 0.634986 1.359181 0.045805 0.000544 -676091.000000 0 1 0
18.059387 12.429212 5.463567 22.593746 0.602790 1.326558 0.035992 0.005374 305321.000000 0 1 0
18.202087 12.488812 6.819867 23.104047 0.601350 1.271152 0.029113 -0.000318 -3542.090000 0 1 0
18.044287 11.139012 7.561467 22.513322 0.553054 1.228271 0.006979 -0.002685 350608.000000 0 1 0
19.123487 10.267412 7.176367 22.861053 0.492731 1.251485 0.002910 -0.005210 865298.000000 0 1 0
19.062387 8.893312 7.612767 22.370065 0.436521 1.223549 -0.001146 -0.002254 -402503.000000 0 1 0
19.969087 7.971412 6.754767 22.537407 0.379806 1.266404 0.012828 -0.002823 59825.200000 0 1 0
19.601287 7.745212 5.373267 21.750190 0.376308 1.321167 0.000538 -0.003068 683426.000000 0 1 0
20.674687 7.085512 4.723367 22.359727 0.330170 1.357948 0.012990 -0.004917 -58052.600000 0 1 0
20.517387 6.841612 3.243767 21.869908 0.321859 1.421926 0.019485 -0.000515 -395835.000000 0 1 0
21.444587 5.941212 2.694067 22.414868 0.270271 1.450314 0.017885 -0.006602 269535.000000 0 1 0
21.288987 5.851212 1.310467 22.117301 0.268224 1.511511 0.026262 0.005780 39105.400000 0 1 0
22.256987 4.844012 0.621267 22.786485 0.214298 1.543528 0.027679 0.001201 55694.400000 0 1 0
21.995687 3.483012 0.839267 22.285556 0.157046 1.533128 0.020250 0.003343 210192.000000 0 1 0
23.081687 2.643912 0.516967 23.238369 0.114049 1.548548 0.024825 0.006342 -121949.000000 0 1 0
22.921687 1.117212 0.747067 22.961054 0.048702 1.538254 0.028779 0.004667 220561.000000 0 1 0
21.849087 0.470612 0.018767 21.854163 0.021536 1.569938 -0.006381 -0.002154 897157.000000 0 1 0
22.111387 -0.816588 -0.475033 22.131559 -0.036914 1.592262 -0.000225 0.001333 -1046310.000000 0 1 0
21.992187 -1.994588 0.520167 22.088577 -0.090448 1.547245 0.023312 0.000074 774782.000000 0 1 0
23.051487 -2.096688 1.499467 23.195162 -0.090707 1.506106 0.040829 -0.002681 1000660.000000 0 1 0
24.359187 -2.434888 1.066167 24.503783 -0.099627 1.527272 0.043289 -0.000948 -585575.000000 0 1 0
25.299067 -1.942088 2.134667 25.463136 -0.076615 1.486864 0.055405 -0.006462 -869104.000000 0 0 1
25.267387 -0.548888 2.251967 25.373480 -0.021720 1.481927 0.049133 -0.011537 113278.000000 0 0 1
26.060487 -0.102388 3.308667 26.269883 -0.003929 1.444512 0.052111 -0.008849 -297839.000000 0 0 1
25.718447 1.379212 3.700467 26.019881 0.053576 1.428096 0.040514 -0.005310 -313156.000000 0 0 1
25.971727 2.410412 2.784667 26.231566 0.092544 1.464439 0.053609 -0.007877 -82603.600000 0 0 1
27.335147 2.620312 2.537867 27.577474 0.095567 1.478639 0.061728 -0.015589 -463898.000000 0 0 1
27.601897 3.654512 1.367167 27.876322 0.131635 1.521733 0.066420 -0.017648 -404243.000000 0 0 1
26.992617 3.329612 0.134867 27.197535 0.122733 1.565838 0.068323 -0.005346 477484.000000 0 0 1
27.411827 4.207112 -0.941033 27.748759 0.152290 1.604715 0.062777 -0.001337 -841667.000000 0 0 1
28.787117 4.054612 -1.556333 29.112887 0.139928 1.624280 0.046951 -0.001713 -405175.000000 0 0 1
29.813447 4.385512 -0.600633 30.140257 0.146051 1.590726 0.053139 -0.013877 -516857.000000 0 0 1
31.072377 4.247512 -1.177633 31.383448 0.135855 1.608329 0.032742 -0.009725 -791221.000000 0 0 1
32.177967 4.420312 -0.130633 32.480422 0.136516 1.574818 0.003243 -0.004844 -464258.000000 0 0 1
32.098797 3.456712 0.922267 32.297557 0.107276 1.542237 0.003932 -0.007320 325732.000000 0 0 1
31.341287 3.877512 2.049867 31.646695 0.123093 1.505977 0.013327 0.001468 -243070.000000 0 0 1
31.348237 2.896812 3.262167 31.650359 0.092146 1.467544 0.018196 0.000266 -192943.000000 0 0 1
30.444297 1.803712 3.221667 30.667373 0.059177 1.465550 0.027689 -0.003360 160237.000000 0 0 1
30.659967 0.792912 4.214467 30.958424 0.025856 1.434239 0.018024 -0.002700 181719.000000 0 0 1
31.856397 -0.161188 3.918367 32.096879 -0.005060 1.448412 0.029394 0.000923 1758250.000000 0 0 1
33.166487 0.338112 4.343267 33.451370 0.010194 1.440590 0.020645 -0.004454 1124050.000000 0 0 1
34.203407 -0.384688 3.778667 34.413651 -0.011247 1.460773 0.020371 -0.007400 -687258.000000 0 0 1
-34.748367 0.225412 3.947567 34.972605 -0.006487 1.457679 0.025339 -0.010684 -13201.300000 0 0 1
-34.626398 1.462112 3.282867 34.812389 -0.042200 1.476354 0.007961 -0.011101 172951.000000 0 0 1
-34.237141 1.322612 1.950867 34.318173 -0.038612 1.513919 0.014721 -0.016998 -1022010.000000 0 0 1
-34.030030 2.618312 1.223267 34.152524 -0.076790 1.534971 0.004082 -0.018453 1520080.000000 0 0 1
-32.815650 3.355012 1.601067 33.025542 -0.101884 1.522298 0.013277 -0.023872 2622250.000000 0 0 1
-31.561970 2.796912 1.127867 31.705721 -0.088386 1.535216 0.005990 -0.016573 -309621.000000 0 0 1
-30.317720 3.450012 1.652367 30.558093 -0.113308 1.516697 -0.001957 -0.014368 -887786.000000 0 0 1
-30.250450 3.269412 3.068067 30.580906 -0.107660 1.470301 0.011242 -0.014509 118619.000000 0 0 1
-29.351190 4.185912 3.651667 29.872209 -0.141659 1.448247 0.006096 -0.008967 -802978.000000 0 0 1
-29.652070 4.395112 5.197167 30.423228 -0.147151 1.399125 0.016454 -0.010992 -705524.000000 0 0 1
-30.894390 4.953812 5.518067 31.771885 -0.158993 1.396233 0.016684 -0.002510 252865.000000 0 0 1
-32.010610 4.053812 5.435867 32.720960 -0.125969 1.403895 0.025556 -0.004305 -536249.000000 0 0 1
-32.082160 2.870712 6.488467 32.857361 -0.089242 1.372016 0.031791 0.000053 -962564.000000 0 0 1
-32.382820 3.474612 7.747067 33.477411 -0.106889 1.337268 0.018248 0.006638 257694.000000 0 0 1
-32.460550 2.553812 8.810567 33.731815 -0.078513 1.306537 0.024340 0.008160 175727.000000 0 0 1
-33.705550 1.615812 8.889967 34.895651 -0.047902 1.313198 0.017091 0.009538 -207254.000000 0 0 1
-33.712390 0.607912 7.909667 34.633187 -0.018030 1.340379 0.026594 0.001450 -160862.000000 0 0 1
-34.612249 -0.460088 8.079767 35.545775 0.013292 1.341486 0.024788 0.009919 -275883.000000 0 0 1
-34.556080 -1.368588 9.393967 35.836327 0.039584 1.305562 0.018041 0.024551 702488.000000 0 0 1
-33.244000 -1.929888 9.626767 34.663564 0.057987 1.289376 0.028167 0.001014 963951.000000 0 0 1
-33.136860 -2.573888 10.880267 34.972226 0.077519 1.254434 0.019852 0.013454 -683422.000000 0 0 1
-31.893910 -3.425488 10.832067 33.856892 0.106992 1.245134 0.021083 0.011106 -806128.000000 0 0 1
-31.848040 -4.352588 9.810367 33.607826 0.135826 1.274576 0.024237 0.006420 421338.000000 0 0 1
-30.634930 -5.099288 9.951967 32.612012 0.164941 1.260687 0.032487 -0.003604 572405.000000 0 0 1
-30.539810 -6.203488 8.917367 32.414236 0.200401 1.292096 0.024734 0.004749 -255684.000000 0 0 1
-31.519510 -7.166788 9.061667 33.570168 0.223575 1.297474 0.022402 0.003801 -528032.000000 0 0 1
-31.403580 -8.147888 8.032367 33.422924 0.253860 1.328096 0.016983 0.011850 35164.400000 0 0 1
-32.412950 -9.306588 8.186667 34.702067 0.279604 1.332638 0.009630 0.008107 931063.000000 0 0 1
-33.775860 -8.872188 8.190967 35.869435 0.256875 1.340409 0.004753 0.001499 746629.000000 0 0 1
-34.723630 -9.944688 8.230667 37.045529 0.278929 1.346750 -0.004576 -0.000821 236116.000000 0 0 1
7.679360 -23.826488 10.720867 27.232537 -1.259005 1.166166 0.049237 -0.012908 68511.000000 0 0 1
7.025160 -24.446788 9.613267 27.192153 -1.290971 1.209453 0.045649 -0.006834 197629.000000 0 0 1
5.932660 -25.271768 9.999467 27.818124 -1.340217 1.203109 0.051864 -0.008753 517105.000000 0 0 1
5.571460 -26.222558 8.824167 28.222856 -1.361441 1.252804 0.044663 -0.007354 -19934.000000 0 0 1
4.964860 -25.578908 7.705567 27.171789 -1.379080 1.283264 0.046166 -0.004592 -77429.000000 0 0 1
4.983660 -26.465488 6.600867 27.727790 -1.384668 1.330429 0.033866 -0.002409 -342549.000000 0 0 1
4.262960 -25.899548 5.330767 26.783885 -1.407663 1.370429 0.031956 -0.004866 738646.000000 0 0 1
2.844760 -25.789058 5.313467 26.483978 -1.460932 1.368796 0.028196 -0.014113 318081.000000 0 0 1
2.124060 -27.003908 5.134067 27.569572 -1.492300 1.383481 0.021747 -0.012805 -1208660.000000 0 0 1
0.644760 -26.790138 4.981567 27.256985 -1.546734 1.387000 0.015184 -0.011905 -1345170.000000 0 0 1
0.003660 -26.335298 6.186667 27.052223 -1.570657 1.340061 0.018468 -0.013559 -448232.000000 0 0 1
-1.394440 -26.445918 6.160167 27.189680 1.518117 1.342249 0.004993 -0.013679 -146628.000000 0 0 1
-2.062740 -27.806378 6.201067 28.564012 1.496750 1.351960 0.010288 -0.000464 -787711.000000 0 0 1
-1.832540 -28.428228 7.434867 29.441460 1.506423 1.315502 0.017649 -0.011305 157623.000000 0 0 1
-2.334940 -29.772458 7.340167 30.752711 1.492530 1.329786 0.020776 -0.003749 -261800.000000 0 0 1
-2.207440 -30.674398 8.615367 31.937690 1.498957 1.297657 0.022335 0.000532 377412.000000 0 0 1
-0.867640 -30.973818 8.982567 32.261691 1.542792 1.288639 0.017757 0.006878 103066.000000 0 0 1
-0.716640 -31.351048 10.342967 33.020883 1.547942 1.252209 0.010239 0.014291 -101370.000000 0 0 1
0.727860 -31.510328 10.845167 33.332389 -1.547701 1.239399 0.016474 0.006576 -199955.000000 0 0 1
1.191660 -32.842308 10.740867 34.574607 -1.534528 1.254911 0.023771 0.001390 -487414.000000 0 0 1
2.544960 -32.959808 11.058967 34.858665 -1.493735 1.247966 0.027127 0.003677 -455400.000000 0 0 1
2.778660 -33.805038 12.280467 36.073694 -1.488784 1.223425 0.020944 -0.003095 -543628.000000 0 0 1
2.454360 -33.146578 13.471267 35.863554 -1.496886 1.185725 0.011777 0.004392 -45241.000000 0 0 1
3.079960 -33.549098 14.673367 36.746916 -1.479248 1.160034 0.007369 0.005353 -610438.000000 0 0 1
2.725260 -32.579718 15.784767 36.304599 -1.487342 1.120995 0.007115 -0.000083 -172641.000000 0 0 1
3.240360 -31.247908 15.633067 35.090233 -1.467467 1.109052 0.007272 -0.006271 762561.000000 0 0 1
4.648760 -31.066138 15.822767 35.172089 -1.422258 1.104180 0.010964 -0.001193 811761.000000 0 0 1
5.305560 -29.867818 15.074267 33.874312 -1.394995 1.109616 0.020759 -0.003486 -63770.900000 0 0 1
5.480260 -29.994328 13.723267 33.436821 -1.390080 1.147878 0.023604 -0.001140 -3168.690000 0 0 1
4.314760 -29.981648 12.901567 32.923651 -1.427864 1.168140 0.013050 0.002009 -254934.000000 0 0 1
4.586660 -29.808578 11.348467 32.223849 -1.418123 1.210901 0.017112 0.000605 141559.000000 0 0 1
5.205560 -30.917908 10.690967 33.125695 -1.403994 1.242174 0.028495 -0.001048 -1376.360000 0 0 1
6.575460 -31.097218 10.952067 33.618766 -1.362417 1.238968 0.031908 0.001143 -597452.000000 0 0 1
7.087660 -32.447078 10.418867 34.808053 -1.355737 1.266813 0.037288 -0.000449 -221415.000000 0 0 1
6.765860 -33.489178 11.335767 35.997243 -1.371448 1.250438 0.026424 -0.002094 261976.000000 0 0 1
6.857160 34.355333 10.739267 36.642072 1.373790 1.273344 0.032244 -0.005849 -100668.000000 0 0 1
6.612460 33.119914 11.578067 35.703011 1.373735 1.240537 0.027628 -0.003398 -2842.830000 0 0 1
5.317960 32.939643 12.106267 35.494542 1.410732 1.222737 0.019699 -0.004844 -85722.800000 0 0 1
5.075760 31.632523 12.499967 34.389374 1.411692 1.198792 0.025188 -0.010321 457434.000000 0 0 1
3.802260 31.413773 13.389167 34.359163 1.450344 1.170509 0.021436 -0.010518 618554.000000 0 0 1
3.886260 32.191303 14.557567 35.543013 1.450654 1.148807 0.040794 -0.006597 784626.000000 0 0 1
2.683560 31.992903 15.339867 35.581721 1.487112 1.125067 0.028117 -0.009233 802644.000000 0 0 1
2.898660 31.996523 16.887567 36.295587 1.480450 1.086847 0.018486 -0.006647 -43146.700000 0 0 1
3.418560 33.295503 17.223567 37.642109 1.468482 1.095546 0.010717 -0.008039 90469.200000 0 0 1
3.930560 33.205434 18.491167 38.209598 1.452974 1.065644 0.006017 -0.004137 -85601.000000 0 0 1
4.443760 34.552477 19.070067 39.715087 1.442889 1.069946 0.006204 -0.002595 532146.000000 0 0 1
3.344860 -33.656618 19.230467 38.907157 -1.471740 1.053807 -0.004421 -0.009421 428078.000000 0 0 1
3.680760 -32.693868 20.211767 38.612854 -1.458686 1.019905 -0.004305 -0.008464 374228.000000 0 0 1
2.431360 -31.912898 20.738867 38.137189 -1.494756 0.995842 -0.016868 -0.004385 573144.000000 0 0 1
1.428360 -32.847888 21.159967 39.099465 -1.527340 0.998953 -0.016471 -0.008057 372221.000000 0 0 1
0.492560 -32.136688 21.988367 38.942234 -1.555470 0.970799 -0.017370 0.000862 61695.200000 0 0 1
-0.506540 -33.024438 22.731667 40.094872 1.555459 0.968001 -0.021525 0.001484 -795694.000000 0 0 1
-1.380940 -33.767428 21.937167 40.291258 1.529923 0.995046 -0.028768 -0.000422 -198005.000000 0 0 1
-2.236240 34.427560 22.580067 41.232476 -1.505933 0.991269 -0.024319 0.003077 130104.000000 0 0 1
-3.517840 -34.012464 23.148267 41.292435 1.467735 0.975694 -0.001139 0.009387 -31117.800000 0 0 1
-4.471640 -33.610558 22.153867 40.502580 1.438530 0.992051 -0.001487 0.002783 776978.000000 0 0 1
-5.644540 -33.041018 22.790567 40.533685 1.401595 0.973677 0.005284 0.011877 323514.000000 0 0 1
-6.775040 -32.850948 21.809167 40.009070 1.367412 0.994281 0.010380 -0.001061 -831698.000000 0 0 1
-7.454040 -34.016212 21.473967 40.912060 1.355074 1.018221 0.008406 0.009156 96085.900000 0 0 1
-8.564240 -33.651068 20.639467 40.394655 1.321586 1.034512 0.009598 -0.003884 522060.000000 0 0 1
-9.775240 34.512452 20.782767 41.455857 -1.294787 1.045669 0.026333 -0.000703 110398.000000 0 0 1
-10.174840 34.401707 22.127067 42.149874 -1.283229 1.018126 0.032079 -0.001743 379169.000000 0 0 1
-11.510940 33.905299 22.254167 42.158261 -1.243504 1.014703 0.026931 0.003744 576251.000000 0 0 1
-11.917340 33.655544 23.757567 42.885203 -1.230476 0.983658 0.025073 0.000010 -36099.700000 0 0 1
-12.205540 -34.324001 24.587567 43.950662 1.229143 0.977092 0.029505 -0.004696 1043560.000000 0 0 1
-10.980140 -33.693598 25.051667 43.398249 1.255767 0.955439 0.030215 -0.004920 891837.000000 0 0 1
-11.101740 -32.384388 25.882567 42.917415 1.240540 0.923442 0.027714 -0.010200 -383013.000000 0 0 1
-11.772340 -32.418388 27.119367 43.874821 1.222466 0.904463 0.029343 -0.002610 24257.400000 0 0 1
-12.370640 -31.167158 27.329667 43.258932 1.192954 0.886963 0.026643 -0.004112 -1995.020000 0 0 1
-13.171240 -31.020168 28.638167 44.225298 1.169262 0.866429 0.031337 -0.005909 204231.000000 0 0 1
-12.350340 -30.784928 29.783867 44.579383 1.189272 0.839133 0.026231 0.004999 354709.000000 0 0 1
-13.168040 -30.361378 30.845567 45.240022 1.161571 0.820548 0.033841 0.007134 -153855.000000 0 0 1
-12.388040 -29.765268 32.030167 45.446301 1.176410 0.788667 0.033710 0.007983 -269842.000000 0 0 1
-13.294840 -29.215998 32.970667 46.015130 1.143748 0.771999 0.030740 0.004148 321726.000000 0 0 1
-12.784140 -28.929028 34.240667 46.612725 1.154687 0.745752 0.027443 0.007026 -602931.000000 0 0 1
-12.206340 -30.001948 -33.986029 46.948502 1.184397 2.380235 0.029128 0.015717 1242200.000000 0 0 1
-10.841940 -30.299028 -34.404429 47.108847 1.227162 2.389583 0.016764 0.014307 1082620.000000 0 0 1
-10.281340 -31.399228 -33.738129 47.221593 1.254360 2.366654 0.015576 0.020298 -115032.000000 0 0 1
-8.810340 -31.681658 -34.100029 47.372582 1.299560 2.374348 0.016293 0.012979 63356.400000 0 0 1
-7.971440 -30.661698 -33.569329 46.158243 1.316447 2.385127 0.028052 0.007065 -875702.000000 0 0 1
-6.680440 -31.143218 -33.431829 46.175919 1.359491 2.380394 0.018931 0.002914 -795592.000000 0 0 1
-5.860540 -30.452118 -32.350429 44.813253 1.380670 2.377332 0.003544 0.010097 -292998.000000 0 0 1
-6.592640 -30.380338 -31.146929 44.006352 1.357106 2.357151 0.004831 0.002681 121422.000000 0 0 1
-5.879640 -29.664208 -30.148629 42.702169 1.375126 2.354660 -0.010216 0.009328 -64012.900000 0 0 1
-6.416440 -29.832038 -28.710829 41.897887 1.358938 2.325753 -0.001818 0.009741 -209171.000000 0 0 1
-5.993340 -31.029368 -28.053629 42.258111 1.379995 2.296770 -0.013080 0.013781 -83215.500000 0 0 1
-6.943640 -31.454028 -27.109629 42.101093 1.353526 2.270404 -0.000514 0.014941 -175723.000000 0 0 1
-6.625140 -32.779688 -26.349929 42.576040 1.371372 2.238126 -0.003389 0.016002 -50808.000000 0 0 1
-5.603840 -32.526688 -25.424329 41.662753 1.400187 2.227161 -0.012250 0.010301 -208750.000000 0 0 1
-5.263240 -33.680518 -24.709529 42.102729 1.415780 2.198005 -0.011288 0.003971 -223324.000000 0 0 1
-4.274340 -33.383448 -23.561729 41.083813 1.443451 2.181573 0.002727 -0.004776 -194211.000000 0 0 1
-4.798140 -32.907298 -22.352129 40.069066 1.426009 2.162577 0.007738 0.001006 -142561.000000 0 0 1
-5.065840 -31.491028 -22.412929 38.983163 1.411297 2.183326 -0.001452 0.011473 -193940.000000 0 0 1
-5.422340 -30.832308 -21.038029 37.717790 1.396711 2.162499 0.017539 0.000796 -705157.000000 0 0 1
-6.772840 -31.061528 -20.728029 37.951826 1.356111 2.148578 0.026689 -0.006371 497415.000000 0 0 1
-7.578740 -29.835898 -20.438429 36.950609 1.322043 2.156911 0.037910 -0.010833 753547.000000 0 0 1
-7.668140 -28.746988 -21.582129 36.755652 1.310120 2.198365 0.030750 -0.016475 -1007310.000000 0 0 1
-6.520640 -27.954698 -21.717229 35.994749 1.341636 2.218485 0.025042 -0.007194 -496742.000000 0 0 1
-6.590840 -27.143088 -22.838529 36.080255 1.332588 2.256209 0.035345 -0.013742 -249241.000000 0 0 1
-5.566240 -27.537368 -23.958429 36.922838 1.371350 2.276906 0.028920 -0.007988 1513420.000000 0 0 1
-4.164840 -27.267848 -23.805429 36.435970 1.419230 2.282797 0.026624 -0.000315 1143800.000000 0 0 1
-3.441240 -27.603068 -22.627529 35.857727 1.446767 2.253685 0.002616 0.000350 420845.000000 0 0 1
-1.931640 -27.118188 -22.646529 35.383508 1.499686 2.265334 0.013565 0.001678 865361.000000 0 0 1
-1.645540 -25.712428 -22.869229 34.450521 1.506886 2.296722 0.012635 0.001994 -32889.900000 0 0 1
-2.163240 -24.787488 -21.955929 33.183761 1.483745 2.293809 0.022246 -0.001529 -672823.000000 0 0 1
-2.358540 -23.330788 -22.474829 32.480861 1.470047 2.334970 0.028234 0.000409 476771.000000 0 0 1
-3.224140 -23.143988 -23.597029 33.209322 1.432379 2.361082 0.016668 -0.002259 778137.000000 0 0 1
-4.620340 -23.300388 -23.348529 33.307798 1.375041 2.347585 0.015377 -0.001282 -50965.400000 0 0 1
-5.381940 -23.255188 -24.671729 34.328753 1.343371 2.372713 0.012848 -0.001718 -351492.000000 0 0 1
-5.329940 -21.989088 -25.439929 34.045826 1.332993 2.414675 0.023353 -0.007023 143051.000000 0 0 1
-5.912440 -22.100588 -26.726029 35.180585 1.309394 2.433619 0.026255 -0.003485 -352643.000000 0 0 1
-6.009440 -20.780988 -27.504829 34.992549 1.289296 2.475140 0.039243 -0.002716 -122106.000000 0 0 1
-6.023740 -20.953188 -28.935929 36.229954 1.290860 2.495885 0.036733 -0.011376 652590.000000 0 0 1
-4.818840 -21.452088 -29.552629 36.834375 1.349832 2.501953 0.026525 -0.015207 383507.000000 0 0 1
-4.888940 -21.791688 -31.025629 38.227857 1.350102 2.517678 0.031970 -0.024445 -218518.000000 0 0 1
-5.330740 -20.727288 -31.858229 38.379474 1.319067 2.550057 0.052234 -0.028532 -251494.000000 0 0 1
-6.148240 -21.175088 -32.879229 39.588242 1.288214 2.550855 0.042721 -0.026510 -297623.000000 0 0 1
-6.253340 -20.284888 -34.156929 40.215380 1.271764 2.585549 0.029616 -0.023157 991009.000000 0 0 1
-5.034640 -20.450188 34.199167 40.163924 1.329406 0.551977 0.039292 -0.017020 587268.000000 0 0 1
-5.210740 -19.960688 32.860767 38.799625 1.315445 0.560602 0.036337 -0.013515 -500076.000000 0 0 1
-4.133940 -20.397088 31.926567 38.110843 1.370832 0.577685 0.020123 -0.010452 -1882980.000000 0 0 1
-4.156340 -21.784588 31.854767 38.814554 1.382269 0.608176 0.018765 -0.007940 318294.000000 0 0 1
-3.132340 -22.536188 31.176467 38.596158 1.432690 0.630452 0.014091 0.003789 357442.000000 0 0 1
-1.678240 -22.225288 31.572367 38.647047 1.495429 0.614709 0.006799 -0.002626 -888643.000000 0 0 1
-1.175640 -20.984788 31.063367 37.505683 1.514831 0.594853 0.006626 -0.000097 432092.000000 0 0 1
-0.066240 -20.409488 31.784667 37.773227 1.567551 0.570816 0.011248 -0.007768 81714.200000 0 0 1
-0.274240 -20.014188 33.225667 38.789018 1.557095 0.542203 0.003435 -0.020526 -579514.000000 0 0 1
-1.244140 -18.988788 33.233467 38.296022 1.505370 0.520029 0.005759 -0.020934 -138456.000000 0 0 1
-1.707540 -18.783688 -34.541629 39.355645 1.480140 2.641794 0.010307 -0.022240 86314.200000 0 0 1
-2.788340 -17.675388 34.542867 38.902492 1.414333 0.477961 0.005972 -0.021192 92508.600000 0 0 1
-2.291940 -16.336488 34.427267 38.175523 1.431410 0.446844 0.020405 -0.021153 450293.000000 0 0 1
-3.370940 -15.404288 34.482167 37.916687 1.355361 0.428911 0.022139 -0.024549 360178.000000 0 0 1
-2.888340 -13.985588 34.253367 37.111081 1.367137 0.395002 0.023635 -0.024787 -747398.000000 0 0 1
-2.073840 -13.506688 -33.840629 36.495474 1.418444 2.757812 0.026300 -0.021836 -291207.000000 0 0 1
-1.835640 -12.052688 -33.861729 35.989631 1.419656 2.795999 0.024497 -0.018411 507873.000000 0 0 1
-0.982540 -11.512588 34.025467 35.933793 1.485658 0.327364 0.028473 -0.021744 -44517.700000 0 0 1
-1.788740 -11.365388 32.843567 34.800453 1.414692 0.336947 0.027434 -0.018944 374595.000000 0 0 1
-1.091640 -10.875788 31.725467 33.555621 1.470758 0.331795 0.026642 -0.013957 -671815.000000 0 0 1
-0.156240 -11.846288 31.083167 33.264429 1.557608 0.364151 0.019505 -0.021904 -889609.000000 0 0 1
-0.766840 -12.839688 30.280267 32.898939 1.511143 0.401688 0.040986 -0.025602 -420700.000000 0 0 1
0.022760 -13.971988 30.131367 33.213194 -1.569167 0.434191 0.034739 -0.030048 -429000.000000 0 0 1
-0.584240 -15.296888 30.682367 34.289120 1.532621 0.462783 0.030018 -0.022176 217542.000000 0 0 1
-1.482640 -15.977588 29.811167 33.855387 1.478266 0.493787 0.036643 -0.027831 312625.000000 0 0 1
-1.853240 -17.171188 30.487667 35.039721 1.463285 0.515414 0.028447 -0.018801 -158264.000000 0 0 1
-2.490340 -18.200688 29.522867 34.771634 1.434814 0.556611 0.021966 -0.014252 116994.000000 0 0 1
-3.750540 -17.824488 28.980667 34.229490 1.363407 0.561123 0.027863 -0.012490 104902.000000 0 0 1
-4.344140 -18.871588 28.233367 34.236405 1.344543 0.601197 0.026176 -0.006590 -94007.000000 0 0 1
-3.706340 -19.199988 26.866367 33.229177 1.380103 0.629168 0.025061 -0.006790 -436466.000000 0 0 1
-4.517440 -20.037188 26.070367 33.189761 1.349051 0.667302 0.034355 -0.008171 -420946.000000 0 0 1
-4.405740 -21.397088 26.357567 34.234007 1.367731 0.692075 0.019716 -0.006686 38179.400000 0 0 1
-28.022340 -34.463818 -0.821233 44.426127 0.888122 1.589283 0.002562 0.001690 -115728.000000 0 0 1
-27.598030 -33.192918 -0.428333 43.169487 0.877175 1.580719 0.009863 0.008820 -65499.700000 0 0 1
-28.087940 -32.957218 0.857467 43.311036 0.864995 1.550997 0.000257 0.019902 -225780.000000 0 0 1
-27.538840 -31.627018 1.505567 41.963350 0.854385 1.534910 0.014123 0.011525 310879.000000 0 0 1
-26.138260 -31.702618 1.670967 41.122461 0.881304 1.530151 0.008942 0.000345 -116240.000000 0 0 1
-25.558610 -30.493018 2.156967 39.846195 0.873205 1.516638 0.015849 0.001170 609148.000000 0 0 1
-24.026640 -30.423718 2.398267 38.841135 0.902347 1.509011 0.006143 -0.001303 456919.000000 0 0 1
-23.622040 -31.317918 3.445867 39.378761 0.924571 1.483179 0.005328 -0.003841 -978569.000000 0 0 1
-22.256340 -31.281118 3.631667 38.562184 0.952398 1.476480 -0.005815 0.000596 -1078850.000000 0 0 1
-21.762340 -31.794318 4.981667 38.849648 0.970568 1.442213 -0.001694 -0.004685 -126094.000000 0 0 1
-22.126540 -30.937818 5.998467 38.506025 0.949946 1.414379 0.001876 -0.009303 -285466.000000 0 0 1
-21.591340 -31.461118 7.174467 38.826034 0.969333 1.384943 0.006563 -0.009678 -343703.000000 0 0 1
-22.019540 -30.772918 8.504967 38.783593 0.949711 1.349707 0.008175 -0.004017 -379293.000000 0 0 1
-21.570940 -29.498618 8.871267 37.605496 0.939402 1.332648 0.008716 -0.002382 95852.300000 0 0 1
-22.126640 -29.172918 10.156167 37.997304 0.921900 1.300220 0.002093 -0.000029 283709.000000 0 0 1
-21.339140 -28.003218 10.810867 36.829526 0.919644 1.272870 0.009169 0.000472 207143.000000 0 0 1
-20.022440 -28.287518 11.210067 36.424544 0.954842 1.257957 0.008099 0.000374 -531187.000000 0 0 1
-19.538140 -27.201718 11.950667 35.559680 0.947914 1.228052 0.018596 0.000610 -555059.000000 0 0 1
-18.193840 -27.518418 12.577367 35.305373 0.986622 1.206550 0.015359 0.002411 -501348.000000 0 0 1
-18.385140 -28.409618 13.645367 36.487201 0.996431 1.187503 0.014014 0.005885 -635083.000000 0 0 1
-17.272340 -28.515218 14.457867 36.338428 1.026179 1.161605 0.020970 0.001713 -759574.000000 0 0 1
-17.395740 -29.780218 15.279567 37.721855 1.042122 1.153753 0.017466 -0.007346 -15134.600000 0 0 1
-17.080040 -30.991018 14.645267 38.296930 1.067087 1.178389 0.021783 -0.002391 -55602.200000 0 0 1
-17.352240 -31.995918 15.536667 39.575587 1.073863 1.167359 0.028722 -0.002559 82599.400000 0 0 1
-16.994940 -33.405618 15.013467 40.375333 1.100177 1.189798 0.019597 -0.004363 17709.200000 0 0 1
-17.323240 -34.473818 15.891767 41.726335 1.105147 1.180073 0.028696 0.002843 31270.400000 0 0 1
-17.076740 33.366512 15.334267 40.497888 -1.097759 1.182466 0.016057 -0.002598 -170824.000000 0 0 1
-16.882940 32.306112 16.461967 39.996436 -1.089238 1.146603 0.020616 -0.005543 592456.000000 0 0 1
-18.050440 32.162612 17.286767 40.731859 -1.059376 1.132493 0.027842 -0.008963 857733.000000 0 0 1
-17.836540 31.012612 18.058667 40.075426 -1.048858 1.103340 0.017266 -0.001584 284239.000000 0 0 1
-18.492540 31.050412 19.480567 41.055994 -1.033644 1.076414 0.017229 -0.006668 -142549.000000 0 0 1
-17.773340 31.851012 20.358767 41.771497 -1.061820 1.061705 0.013473 -0.002787 -363275.000000 0 0 1
-18.499640 32.149012 21.503467 42.874174 -1.048636 1.045409 0.011579 -0.002151 -401953.000000 0 0 1
-17.969540 33.252112 22.478867 43.976207 -1.075351 1.034263 -0.009905 0.004741 160181.000000 0 0 1
-16.791240 32.877212 23.181967 43.591977 -1.098605 1.010078 -0.000660 -0.004971 -22202.700000 0 0 1
-16.710140 33.711212 24.345967 44.815184 -1.110607 0.996490 -0.007310 -0.007110 -175272.000000 0 0 1
-17.528540 33.171512 25.564267 45.399677 -1.084671 0.972672 -0.012871 -0.005481 186264.000000 0 0 1
-18.904940 33.412012 25.346667 46.002314 -1.055894 0.987250 -0.021516 -0.008253 -346176.000000 0 0 1
-19.716940 32.594212 26.156867 46.209546 -1.026766 0.969091 -0.020626 -0.003159 8989.510000 0 0 1
-21.206040 32.936012 25.921867 46.972548 -0.998753 0.986214 0.016463 -0.008370 -120882.000000 0 0 1
-21.511940 32.752712 24.498467 46.213403 -0.989657 1.012059 0.019930 -0.001914 790910.000000 0 0 1
-22.902240 33.053212 24.314167 46.991554 -0.964858 1.026968 0.011770 -0.005059 601843.000000 0 0 1
-23.404940 32.481812 22.969667 46.156960 -0.946408 1.049918 0.004635 -0.005642 -70679.800000 0 0 1
-22.920240 33.239412 21.841467 45.904745 -0.967118 1.074923 0.006085 -0.012229 156399.000000 0 0 1
-22.557540 32.335312 20.843667 44.596788 -0.961674 1.084471 -0.012113 -0.003857 -85741.000000 0 0 1
-22.137640 33.055912 19.512567 44.311496 -0.980695 1.114808 -0.006297 -0.001611 -333743.000000 0 0 1
-20.902940 33.681912 19.753967 44.290217 -1.015368 1.108492 0.004899 0.002046 -487346.000000 0 0 1
-20.423740 34.119812 18.515167 43.864589 -1.031415 1.135038 0.010127 0.003616 23429.200000 0 0 1
-19.083240 -34.261918 18.779667 43.482468 1.062609 1.124208 0.015483 -0.002482 234468.000000 0 0 1
-19.394940 -33.137718 19.565867 43.094028 1.041269 1.099516 0.018245 -0.007156 609087.000000 0 0 1
-18.217640 -32.366218 19.667667 42.027035 1.058134 1.083797 0.008538 -0.008145 8217.740000 0 0 1
-18.348840 -31.517918 20.948767 42.058411 1.043589 1.049405 0.009861 -0.007284 287053.000000 0 0 1
-19.188740 -30.377218 20.681067 41.457082 1.007406 1.048519 0.009297 -0.002192 602505.000000 0 0 1
-19.477940 -29.672318 21.844867 41.677750 0.989911 1.019094 0.015557 0.000870 129498.000000 0 0 1
-20.287840 -28.369618 21.492567 40.967819 0.949991 1.018527 0.011736 0.005091 90400.700000 0 0 1
-19.416540 -27.390218 20.923967 39.560567 0.954132 1.013481 0.012092 0.005617 458136.000000 0 0 1
-19.992440 -26.119218 20.623667 38.823278 0.917493 1.010757 0.007735 0.015626 -411800.000000 0 0 1
-21.021440 -26.068718 19.466967 38.735537 0.892174 1.044238 0.017067 0.006749 -59869.300000 0 0 1
-22.357940 -26.034118 19.930367 39.684661 0.861219 1.044634 0.009216 0.008140 7518.050000 0 0 1
-23.257340 -25.985118 18.840267 39.636926 0.840736 1.075467 0.011564 0.008750 -48524.600000 0 0 1
-24.728540 -26.065018 19.336067 40.801585 0.811704 1.077076 -0.000376 0.009244 259963.000000 0 0 1
-25.261840 -27.309718 19.779467 42.133225 0.824333 1.082128 -0.006401 0.008070 151350.000000 0 0 1
-25.364790 -28.321718 18.762767 42.397332 0.840420 1.112361 0.003060 0.000947 -431452.000000 0 0 1
-26.281470 -29.473718 19.279067 43.944262 0.842590 1.116627 0.005395 -0.006468 1721390.000000 0 0 1
-27.702340 -29.176218 19.410167 44.670191 0.811305 1.121289 -0.013798 -0.004056 1335310.000000 0 0 1
-28.471430 -29.711118 18.349167 45.056241 0.806702 1.151355 -0.011367 -0.004174 121038.000000 0 0 1
-29.937000 -29.227318 18.540967 45.762731 0.773404 1.153649 -0.010644 -0.001736 109664.000000 0 0 1
-30.059560 -27.905818 18.100267 44.832260 0.748260 1.155203 -0.009823 0.008167 -20038.600000 0 0 1
-31.401080 -27.562818 18.386767 45.648768 0.720395 1.156236 -0.015711 0.023554 -100490.000000 0 0 1
-31.846040 -26.332718 17.577067 44.905853 0.690915 1.168622 -0.019589 0.010428 -385832.000000 0 0 1
-32.017590 -26.596218 16.173467 44.654966 0.693167 1.200183 0.002859 -0.007423 625150.000000 0 0 1
-32.700240 -25.490718 15.466767 44.252721 0.662132 1.213748 0.002959 -0.007914 30740.300000 0 0 1
-31.853550 -24.272918 15.161567 42.821681 0.651147 1.208884 -0.021692 0.000150 -40115.100000 0 0 1
-31.339040 -23.501918 16.285267 42.422701 0.643453 1.176801 -0.034487 0.009822 389576.000000 0 0 1
-30.762070 -22.243018 15.917667 41.163442 0.626040 1.173752 -0.025452 0.013336 183552.000000 0 0 1
-31.741330 -21.046618 16.095267 41.346461 0.585506 1.170949 -0.017111 0.007317 229074.000000 0 0 1
-31.936630 -20.792418 17.474067 41.923931 0.577115 1.140870 -0.013180 0.008509 583388.000000 0 0 1
-32.918700 -19.751518 17.659167 42.256473 0.540426 1.139659 -0.005265 0.003848 379312.000000 0 0 1
-33.286630 -19.494918 19.121967 43.054631 0.529815 1.110590 -0.003452 0.003411 -333402.000000 0 0 1
-34.172342 -20.351818 19.791467 44.425754 0.537151 1.109069 0.005102 0.006228 170730.000000 0 0 1
-34.321015 -19.877018 21.117967 44.933245 0.524948 1.081522 -0.003225 0.015720 693010.000000 0 0 1
34.565785 -20.074418 21.689567 45.477611 -0.526152 1.073640 -0.000841 0.019523 882126.000000 0 0 1
34.047687 -21.330118 21.974467 45.794063 -0.559661 1.070308 0.004851 0.019831 -288718.000000 0 0 1
34.844174 -22.137118 22.818767 47.168471 -0.565984 1.065837 0.000711 0.031299 -507041.000000 0 0 1
34.260157 -23.471218 23.315867 47.626528 -0.600648 1.059215 0.003072 0.035227 72143.800000 0 0 1
33.251327 -23.402418 24.317267 47.377774 -0.613274 1.031814 0.014374 0.017442 273937.000000 0 0 1
32.738497 -24.699018 24.498667 47.770654 -0.646333 1.032307 0.020940 0.008194 -7431.360000 0 0 1
31.849157 -24.746718 25.823467 47.891757 -0.660557 1.001304 0.027981 0.002454 -539589.000000 0 0 1
30.508997 -24.497218 25.601867 46.758617 -0.676538 0.991384 0.025220 0.005724 -1174470.000000 0 0 1
29.865147 -24.407218 26.840767 46.990064 -0.685170 0.962828 0.013929 0.011340 -170020.000000 0 0 1
28.396667 -24.854418 26.842267 46.310044 -0.718976 0.952533 0.002940 0.009482 -265172.000000 0 0 1
27.531057 -24.014418 26.132267 44.917110 -0.717280 0.949870 0.001710 0.012952 -390266.000000 0 0 1
26.219057 -24.536818 26.140967 44.416715 -0.752267 0.941546 0.004837 0.018371 762948.000000 0 0 1
25.117987 -23.547418 25.561167 42.880852 -0.753137 0.932165 -0.000686 0.018933 -12791.900000 0 0 1
25.177487 -23.099118 24.191067 41.865055 -0.742373 0.954724 0.016745 0.016444 -147016.000000 0 0 1
26.348737 -22.366018 23.877767 42.007648 -0.703824 0.966219 0.015094 0.017915 44158.300000 0 0 1
26.340037 -21.713618 22.473067 40.869518 -0.689418 0.988583 0.017487 0.013189 -321579.000000 0 0 1
25.610217 -20.514918 22.364667 39.710495 -0.675377 0.972552 0.016229 0.002684 -22158.000000 0 0 1
25.569797 -19.988118 21.018967 38.666994 -0.663487 0.996089 0.012724 -0.000120 17770.500000 0 0 1
24.592787 -18.766018 20.951467 37.362182 -0.651814 0.975485 0.017734 0.000239 116818.000000 0 0 1
25.092487 -17.546218 21.482967 37.403483 -0.610230 0.958977 0.012485 -0.011928 142035.000000 0 0 1
24.881787 -17.434418 22.897667 38.044256 -0.611189 0.924957 0.012301 -0.003270 -200588.000000 0 0 1
25.131787 -15.981918 23.402767 37.877671 -0.566417 0.904789 0.013361 0.008497 -517632.000000 0 0 1
23.998387 -15.172718 23.199767 36.665558 -0.563788 0.885710 0.010892 0.005859 -86269.600000 0 0 1
24.082287 -14.048918 24.010867 36.794706 -0.528103 0.859834 0.008476 0.009804 -101828.000000 0 0 1
22.837487 -13.175618 23.868767 35.564952 -0.523283 0.835062 0.002541 0.009889 -168667.000000 0 0 1
21.682087 -13.712718 24.446267 35.436867 -0.563935 0.809509 0.015655 0.007366 39086.400000 0 0 1
20.492187 -12.974418 24.129767 34.212731 -0.564431 0.787970 0.028159 0.012324 692741.000000 0 0 1
19.223987 -13.755518 24.545067 34.076917 -0.621079 0.766584 0.029005 0.012049 -170001.000000 0 0 1
18.983287 -14.843518 23.678367 33.784024 -0.663622 0.794173 0.032329 0.006157 599511.000000 0 0 1
17.752187 -15.422618 24.142467 33.702463 -0.715292 0.772252 0.021329 0.010676 569364.000000 0 0 1
17.168687 -16.515518 23.260967 33.295627 -0.766010 0.797330 0.016817 0.009651 -242949.000000 0 0 1
17.831587 -17.715518 23.476267 34.393898 -0.782133 0.819522 0.008442 0.010750 359936.000000 0 0 1
17.132987 -18.723418 22.725067 34.066616 -0.829725 0.840518 0.014603 0.015245 138971.000000 0 0 1
17.604387 -20.175918 23.074667 35.347170 -0.853359 0.859520 0.010152 0.018872 11469.100000 0 0 1
17.042487 -20.633818 24.297467 36.146476 -0.880432 0.833627 0.005235 0.015205 289161.000000 0 0 1
17.289087 -21.993518 24.598567 37.252072 -0.904589 0.849542 0.014784 0.008706 -236488.000000 0 0 1
16.785587 -23.183718 23.678267 37.147020 -0.944128 0.879651 0.016267 0.000405 -55141.600000 0 0 1
17.572787 -23.498418 22.543667 37.002641 -0.928686 0.915688 0.020682 0.003716 -410744.000000 0 0 1
18.702787 -24.261318 22.849167 38.216361 -0.914060 0.929931 0.023502 0.002194 -543320.000000 0 0 1
19.619087 -24.385118 21.585867 38.019630 -0.893286 0.967019 0.022348 0.013620 -218634.000000 0 0 1
19.119987 -25.211618 20.549367 37.728982 -0.921954 0.994816 0.033767 0.002532 -53513.100000 0 0 1
20.097887 -25.580818 19.613767 37.986882 -0.904859 1.028236 0.034683 0.005098 56431.400000 0 0 1
19.460587 -26.313618 18.407367 37.549329 -0.934008 1.058456 0.038499 -0.006663 498896.000000 0 0 1
18.644487 -27.435218 18.755967 38.106357 -0.973905 1.056180 0.046042 -0.013162 423284.000000 0 0 1
18.030687 -28.078118 17.624067 37.737172 -0.999951 1.084877 0.040024 -0.019703 -50696.500000 0 0 1
17.099487 -29.240318 17.965067 38.342305 -1.041635 1.083154 0.045886 -0.019920 296616.000000 0 0 1
16.011387 -28.886118 18.828967 38.017133 -1.064663 1.052644 0.040026 -0.021150 296461.000000 0 0 1
15.352887 -30.017318 19.367067 38.882308 -1.098017 1.049396 0.044839 -0.018776 -219793.000000 0 0 1
14.076087 -29.600218 20.108667 38.453448 -1.126908 1.020505 0.035376 -0.008659 -46546.100000 0 0 1
13.114187 -28.996718 19.255667 37.196402 -1.146061 1.026664 0.039401 -0.019383 -41120.200000 0 0 1
11.874787 -28.775418 19.915567 36.954906 -1.179414 1.001647 0.018536 -0.016302 537453.000000 0 0 1
10.751687 -28.257918 18.971367 35.693438 -1.207226 1.010416 0.024915 -0.018981 -142605.000000 0 0 1
10.439887 -29.189618 17.943167 35.818743 -1.227316 1.046108 0.018779 -0.015982 18287.000000 0 0 1
9.796187 -28.499718 16.883367 34.543412 -1.239719 1.060131 0.027837 -0.010028 -59102.500000 0 0 1
9.821887 -29.316918 15.581967 34.622953 -1.247524 1.103978 0.022664 -0.007463 18431.000000 0 0 1
8.972687 -30.448318 15.584467 35.362195 -1.284222 1.114407 0.014893 -0.002552 187546.000000 0 0 1
9.229887 -31.147018 14.354167 35.515767 -1.282707 1.154732 0.020702 0.001660 327.207000 0 0 1
8.227887 -32.290018 14.238267 36.236331 -1.321294 1.166983 0.024967 0.000564 -153451.000000 0 0 1
8.155187 -33.273618 15.287367 37.514589 -1.330440 1.151077 0.016171 0.003089 -375242.000000 0 0 1
7.129987 -34.187218 15.005167 38.009968 -1.365186 1.164980 0.012463 0.003979 -15652.200000 0 0 1
7.088887 33.779512 15.992067 38.040163 1.363941 1.136911 0.027267 -0.000815 -74834.000000 0 0 1
8.201487 32.934712 15.975467 37.512334 1.326738 1.130870 0.016563 0.001799 -416527.000000 0 0 1
7.976087 31.895512 16.872467 36.954321 1.325752 1.096653 0.026060 -0.002825 1576070.000000 0 0 1
9.309387 30.993712 16.974567 36.543273 1.279006 1.087720 0.009325 0.000588 1352770.000000 0 0 1
9.604787 30.154612 15.868767 35.402971 1.262438 1.106009 0.021093 0.001799 21091.300000 0 0 1
10.579687 29.181712 16.242067 35.032940 1.222989 1.088717 0.014607 0.003804 -303265.000000 0 0 1
11.515087 28.674412 15.167967 34.422179 1.188928 1.114479 0.007093 -0.001041 -417492.000000 0 0 1
10.976987 27.828612 14.186567 33.108679 1.195084 1.127981 0.005429 -0.001120 -83431.900000 0 0 1
11.884587 27.722012 13.113867 32.889617 1.165791 1.160672 0.015403 0.004094 -345529.000000 0 0 1
-9.409040 -9.213088 19.528564 23.553680 0.774876 0.593285 -0.000676 -0.001280 -129836.000000 0 1 0
-9.591540 -9.463988 18.128664 22.587898 0.778705 0.639184 0.003706 -0.002032 -25831.700000 0 1 0
-9.367440 -10.778988 17.687964 22.733226 0.855348 0.679214 -0.003758 -0.008253 -442914.000000 0 1 0
-9.736340 -10.957788 16.223264 21.864668 0.844354 0.734769 0.008386 -0.010817 -195098.000000 0 1 0
-11.143940 -10.908088 16.093464 22.409225 0.774703 0.769638 0.002765 -0.007925 24654.300000 0 1 0
-11.615740 -11.297588 14.798764 21.944574 0.771514 0.830685 0.004713 -0.007527 102089.000000 0 1 0
-11.478840 -12.824088 14.520964 22.518423 0.840695 0.869972 -0.004470 -0.009473 -927012.000000 0 1 0
-10.209140 -13.160488 14.043464 21.786323 0.911023 0.870296 -0.000876 -0.011453 -364585.000000 0 1 0
-9.942840 -14.548388 13.974364 22.489964 0.971276 0.900319 -0.003124 -0.012871 -213183.000000 0 1 0
-9.637540 -15.281088 15.309364 23.680592 1.008120 0.867816 0.001256 -0.013962 -500120.000000 0 1 0
-10.659940 -15.385388 16.235764 24.777904 0.964878 0.856281 -0.001158 -0.003569 -571075.000000 0 1 0
-10.110440 -15.890788 17.453764 25.678240 1.004151 0.823429 -0.001893 -0.001266 67765.200000 0 0 1
-11.016140 -15.502088 18.616564 26.612901 0.952976 0.796055 0.003967 0.002267 -712996.000000 0 0 1
-11.236840 -14.130688 18.795564 26.061775 0.898984 0.765274 0.000246 -0.007679 -3447.050000 0 0 1
-12.425940 -13.597288 18.254364 25.932837 0.830379 0.789910 -0.006641 -0.008773 -153810.000000 0 0 1
-13.685040 -13.796988 19.110964 27.255571 0.789472 0.793750 -0.015776 -0.005921 -345730.000000 0 0 1
-14.090540 -15.204488 19.208164 28.260809 0.823405 0.823477 -0.011921 -0.001754 101220.000000 0 0 1
-15.044040 -15.326288 20.270764 29.531714 0.794691 0.814260 0.003739 -0.001717 315643.000000 0 0 1
-15.654840 -16.718988 20.505564 30.742100 0.818257 0.840596 0.014153 -0.005625 334342.000000 0 0 1
-16.762140 -17.014588 19.625964 30.913492 0.792872 0.882960 0.009455 0.001195 427770.000000 0 0 1
-17.410340 -18.155088 20.138464 32.222428 0.806335 0.895687 0.009896 0.001408 -81646.900000 0 0 1
-18.623940 -18.683888 19.359064 32.721738 0.787005 0.937721 0.014124 0.006328 -215073.000000 0 0 1
-18.364940 -18.842288 17.966864 31.860807 0.798227 0.971675 0.005391 0.004800 -59289.700000 0 0 1
-18.700140 -17.720388 17.149164 30.948363 0.758504 0.983489 0.007008 0.004395 -720409.000000 0 0 1
-18.347540 -17.840588 15.589964 29.966077 0.771390 1.023648 0.003286 -0.001201 -674224.000000 0 0 1
-19.040440 -18.812788 14.864464 30.617179 0.779384 1.063868 0.010507 -0.000385 -269828.000000 0 0 1
-18.591540 -18.830288 13.535964 29.722843 0.791778 1.097968 -0.001134 -0.003609 -223910.000000 0 0 1
-19.022340 -19.955788 12.717964 30.361645 0.809342 1.138582 0.013771 -0.000639 -198280.000000 0 0 1
-18.480140 -21.168788 13.232164 31.059995 0.853106 1.130708 -0.000098 0.004929 -24126.400000 0 0 1
-18.250240 -22.143388 12.283664 31.213607 0.881482 1.166322 0.000917 0.007186 -425900.000000 0 0 1
-17.476240 -23.343488 12.855864 31.868646 0.928156 1.155565 0.000295 0.011329 -101340.000000 0 0 1
-17.435440 -24.488388 11.993064 32.365248 0.952070 1.191191 0.010319 0.002452 377877.000000 0 0 1
-16.473040 -24.409588 10.922264 31.408357 0.977143 1.215626 0.007506 0.004185 222522.000000 0 0 1
-16.705340 -25.514598 9.863564 32.052347 0.991099 1.257987 0.019218 0.003527 617742.000000 0 0 1
-17.979040 -25.432128 9.205264 32.477313 0.955426 1.283420 0.017530 0.006647 436978.000000 0 0 1
-18.090640 -26.619108 8.427264 33.269610 0.973886 1.314704 0.011494 0.010236 -145085.000000 0 0 1
-19.286840 -26.499658 7.487864 33.619669 0.941646 1.346190 0.014418 0.005067 -148763.000000 0 0 1
-19.122940 -25.601448 6.450064 32.599452 0.929252 1.371624 0.008361 0.002312 -37182.900000 0 0 1
-20.279640 -25.593948 5.647164 33.139167 0.900731 1.399553 0.010874 -0.002420 -88241.600000 0 0 1
-20.223440 -24.289788 4.864064 31.978750 0.876497 1.418101 0.009398 -0.006559 54741.100000 0 0 1
-21.105940 -24.127288 3.760464 32.275808 0.852094 1.454021 0.006405 -0.003828 -235927.000000 0 0 1
-20.988640 -22.947288 3.009464 31.243526 0.829948 1.474324 0.012489 -0.000249 -176807.000000 0 0 1
-21.667340 -23.000788 1.636264 31.641543 0.815242 1.519061 -0.003069 0.003484 -199049.000000 0 0 1
-21.089740 -23.808088 0.597264 31.811301 0.845870 1.552020 0.004161 -0.005831 -189201.000000 0 0 1
-21.521140 -23.430788 -0.686736 31.821893 0.827855 1.592379 0.003355 -0.005700 -564126.000000 0 0 1
-20.760840 -24.119688 -1.811636 31.875599 0.860099 1.627662 -0.006218 -0.005436 -691693.000000 0 0 1
-19.397840 -23.742288 -1.706336 30.706416 0.885765 1.626394 -0.002990 0.000734 -130383.000000 0 0 1
-18.640940 -24.111588 -2.847436 30.609822 0.912667 1.663955 -0.006337 -0.003508 104852.000000 0 0 1
-18.262840 -25.602768 -3.052336 31.596674 0.951190 1.667550 -0.004431 -0.007190 -421797.000000 0 0 1
-19.398140 -26.386078 -3.340736 32.919196 0.936857 1.672454 0.004976 -0.012162 -62782.300000 0 0 1
-18.949840 -27.663008 -3.682236 33.732733 0.970192 1.680173 0.012403 -0.015714 -285824.000000 0 0 1
-20.098540 -28.526388 -4.249536 35.153445 0.957017 1.691978 0.005469 -0.010100 324048.000000 0 0 1
-20.579540 -28.152418 -5.549436 35.311080 0.939564 1.728609 -0.001654 -0.005930 -257305.000000 0 0 1
-21.517640 -29.085148 -6.029836 36.678517 0.933845 1.735943 -0.004246 -0.013616 -432157.000000 0 0 1
-22.068840 -28.608538 -7.362836 36.874022 0.913735 1.771823 -0.010619 0.008462 -976548.000000 0 0 1
-21.133640 -28.427188 -8.351136 36.393368 0.931513 1.802328 0.008858 0.003658 -819295.000000 0 0 1
-21.678940 -28.587788 -9.667436 37.157736 0.921986 1.833998 0.013457 0.011397 -5095.110000 0 0 1
-22.477440 -27.356838 -10.163036 36.836384 0.883000 1.850319 -0.001045 0.018662 -319642.000000 0 0 1
-21.722840 -26.220418 -10.532136 35.641520 0.878935 1.870777 -0.012558 0.018985 -55626.600000 0 0 1
-21.303840 -25.471148 -9.435636 34.520490 0.874256 1.847654 -0.015628 0.015301 -260420.000000 0 0 1
-20.955840 -23.956888 -9.770836 33.294879 0.852119 1.868644 -0.020010 0.009439 344928.000000 0 0 1
-22.066640 -23.190388 -10.227936 33.605675 0.810223 1.880054 -0.032287 0.017737 424415.000000 0 0 1
-21.664540 -21.849188 -10.461636 32.499002 0.789642 1.898539 -0.030897 0.018613 984114.000000 0 0 1
-22.936140 -20.969188 -10.767936 32.889539 0.740628 1.904344 -0.030970 0.013982 601173.000000 0 0 1
-23.606240 -21.196888 -12.000336 33.920063 0.731673 1.932409 -0.045208 0.025714 908732.000000 0 0 1
-24.939640 -20.671788 -12.107236 34.581695 0.692100 1.928480 -0.038408 0.019381 715055.000000 0 0 1
-25.093980 -19.172788 -12.191136 33.851550 0.652426 1.939209 -0.033219 0.007832 -1169760.000000 0 0 1
-24.636340 -18.573588 -13.373636 33.627096 0.645999 1.979810 -0.037543 0.009512 389874.000000 0 0 1
-24.204140 -17.219788 -13.344636 32.564410 0.618362 1.993022 -0.024593 0.004991 361225.000000 0 0 1
-23.196240 -16.736388 -12.227536 31.107634 0.625019 1.974766 -0.041204 0.009487 9848.410000 0 0 1
-23.715040 -16.740188 -10.944536 31.022893 0.614667 1.931346 -0.024677 0.003056 97984.300000 0 0 1
-22.571740 -16.674088 -10.144736 29.839979 0.636240 1.917683 -0.029155 0.008465 74723.500000 0 0 1
-22.908540 -16.926388 -8.684936 29.778044 0.636338 1.866754 -0.030606 -0.002375 -5773.490000 0 0 1
-23.278040 -18.242288 -8.475936 30.765073 0.664704 1.849911 -0.029830 0.005332 105635.000000 0 0 1
-24.082640 -18.440488 -7.308336 31.199951 0.653484 1.807235 -0.011542 0.004058 304786.000000 0 0 1
-24.616640 -19.883288 -7.279736 32.470273 0.679429 1.796915 -0.003225 -0.002949 471330.000000 0 0 1
-25.675520 -20.237488 -8.189836 33.702547 0.667505 1.816257 -0.010719 -0.010464 593525.000000 0 0 1
-26.151470 -21.599488 -7.959636 34.839533 0.690358 1.801298 -0.005042 -0.001774 -313492.000000 0 0 1
-25.154030 -22.674588 -8.327936 34.874298 0.733604 1.811925 -0.027002 0.008486 -500907.000000 0 0 1
-25.654960 -23.954288 -8.116136 36.025776 0.751130 1.798034 -0.005166 0.011559 -473632.000000 0 0 1
-25.191300 -24.936788 -9.027136 36.577782 0.780321 1.820166 -0.011326 0.017207 -70400.200000 0 0 1
-25.694030 -26.394288 -8.817236 37.875919 0.798841 1.805745 0.005324 0.009547 29063.500000 0 0 1
-25.184480 -27.185198 -7.717636 37.853070 0.823583 1.776120 0.007634 -0.002435 248457.000000 0 0 1
-26.124850 -28.203878 -7.359336 39.142385 0.823647 1.759937 0.016863 -0.013401 326991.000000 0 0 1
-25.852410 -28.960668 -6.017336 39.284548 0.842044 1.724575 0.017882 -0.011488 -13043.200000 0 0 1
-26.038330 -28.074538 -4.923436 38.605887 0.823009 1.698675 0.018220 -0.008544 283487.000000 0 0 1
-25.128890 -28.303548 -3.832136 38.042571 0.844743 1.671700 0.014929 -0.014360 271770.000000 0 0 1
-25.421500 -29.506838 -2.846936 39.051392 0.859637 1.643763 0.028063 -0.008011 -210197.000000 0 0 1
-25.095880 -30.762918 -3.356036 39.842481 0.886505 1.655129 0.035451 -0.008282 -73815.600000 0 0 1
-25.375030 -31.889888 -2.497736 40.830084 0.898678 1.632008 0.030898 -0.010003 6636.930000 0 0 1
-24.416440 -32.107288 -1.266236 40.356460 0.920632 1.602178 0.022302 -0.009660 81262.100000 0 0 1
-23.081240 -32.128368 -1.724536 39.597344 0.947823 1.614362 0.018798 -0.023617 -347458.000000 0 0 1
-22.218340 -32.282498 -0.596136 39.194000 0.968002 1.586007 0.019451 -0.011793 465414.000000 0 0 1
-21.058840 -31.266178 -0.440536 37.699373 0.978054 1.582482 0.007510 -0.007237 -594505.000000 0 0 1
-21.485740 -29.995208 -0.112936 36.896643 0.949211 1.573857 0.004554 -0.008017 -219795.000000 0 0 1
-21.857240 -29.105848 -1.123536 36.416365 0.926683 1.601654 0.007919 -0.014974 -154663.000000 0 0 1
-22.462040 -27.745918 -0.654536 35.704448 0.890252 1.589129 0.001740 -0.006731 61509.500000 0 0 1
-23.831840 -27.889868 -0.328936 36.686640 0.863697 1.579763 0.004933 -0.007801 -55498.100000 0 0 1
-24.447940 -26.685298 0.167464 36.191642 0.829126 1.566169 0.015033 -0.003747 278175.000000 0 0 1
-23.871740 -25.985768 1.451064 35.316083 0.827774 1.529697 0.007732 0.007259 -323711.000000 0 0 1
-24.081440 -26.696198 2.654264 36.050629 0.836847 1.497104 0.001588 0.012336 -105481.000000 0 0 1
-23.655640 -25.987678 3.830964 35.350035 0.832340 1.462211 0.001667 0.007025 -263187.000000 0 0 1
-24.570640 -24.856788 4.349064 35.220599 0.791187 1.447000 0.011193 0.008719 -229790.000000 0 0 1
-24.591840 -23.749888 3.420564 34.358638 0.767983 1.471076 0.002433 0.012200 455324.000000 0 0 1
-25.516360 -22.711488 3.844764 34.375551 0.727305 1.458716 -0.006877 0.015312 495258.000000 0 0 1
-25.629210 -21.569088 2.840064 33.617673 0.699587 1.486214 0.000374 0.015282 265977.000000 0 0 1
-24.449540 -20.786788 2.876464 32.220251 0.704605 1.481402 -0.007162 0.016390 121126.000000 0 0 1
-24.509740 -19.762988 1.873064 31.540631 0.678590 1.511376 -0.010398 0.013221 120152.000000 0 0 1
-23.263640 -18.830788 1.837164 29.986175 0.680478 1.509491 -0.001388 0.014504 574785.000000 0 0 1
-22.061240 -19.535788 1.528964 29.507339 0.724760 1.518957 0.000634 0.009538 -293788.000000 0 0 1
-20.964140 -18.799688 1.983564 28.228673 0.731019 1.500471 -0.005690 0.012694 -341738.000000 0 0 1
-19.670040 -19.625688 1.789664 27.843868 0.784269 1.506477 -0.002964 -0.001495 -296013.000000 0 0 1
-19.324040 -19.817788 0.389964 27.682401 0.798012 1.556709 -0.013180 0.003362 -294423.000000 0 0 1
-18.302440 -20.769088 0.327864 27.684686 0.848446 1.558953 0.001246 0.008709 -202455.000000 0 0 1
-18.052940 -20.970988 -1.187236 27.696579 0.860035 1.613675 0.003828 0.002953 -53896.400000 0 0 1
-17.473640 -19.957088 -1.948636 26.597192 0.851649 1.644127 -0.006689 0.000334 -128634.000000 0 0 1
-17.675440 -20.224388 -3.295836 27.061219 0.852552 1.692891 0.006974 0.006528 67193.100000 0 0 1
-17.010840 -19.156588 -4.233136 25.966574 0.844657 1.734550 0.010890 0.012196 1242560.000000 0 0 1
-15.571540 -19.261388 -4.266036 25.133105 0.890934 1.741360 0.032450 0.002600 1174120.000000 0 0 1
-14.982840 -18.757588 -5.454636 24.618807 0.896811 1.794214 0.047327 0.008711 582832.000000 0 1 0
-13.448840 -18.483288 -5.504836 23.511836 0.941772 1.807120 0.064126 -0.003319 257317.000000 0 1 0
-12.674040 -19.623188 -5.669136 24.038301 0.997330 1.808877 0.049516 -0.009033 -342671.000000 0 1 0
-11.330340 -19.231788 -5.904136 23.088895 1.038396 1.829382 0.043416 -0.016849 633205.000000 0 1 0
-10.314240 -20.407588 -5.780036 23.585207 1.102828 1.818389 0.038558 -0.020027 495622.000000 0 1 0
-10.663140 -21.377688 -6.756836 24.826658 1.108111 1.846434 0.040218 -0.017137 471887.000000 0 1 0
-9.542640 -22.258588 -6.994936 25.207853 1.165781 1.851977 0.031637 -0.014502 606663.000000 0 0 1
-9.813740 -23.424188 -7.982336 26.621791 1.174055 1.875324 0.042378 -0.006339 -558251.000000 0 0 1
-10.201440 -22.980888 -9.268236 26.797216 1.153019 1.923958 0.033469 -0.001933 -138327.000000 0 0 1
-10.554540 -24.148188 -9.983136 28.181489 1.158744 1.932902 0.039343 -0.006330 100857.000000 0 0 1
-11.387340 -23.877088 -11.240936 28.742747 1.125787 1.972610 0.052832 -0.009501 554555.000000 0 0 1
-10.574240 -23.240488 -12.214936 28.304408 1.143799 2.017013 0.045083 0.001247 577544.000000 0 0 1
-11.549140 -22.659888 -13.075336 28.597510 1.099440 2.045662 0.050492 -0.013030 308688.000000 0 0 1
-11.079340 -21.486288 -14.013736 27.942748 1.094710 2.096147 0.053402 0.001918 -299029.000000 0 0 1
-10.792840 -20.317088 -13.248336 26.547841 1.082486 2.093283 0.061176 -0.006670 -321308.000000 0 0 1
-10.339740 -19.242888 -14.083736 25.991356 1.077734 2.143448 0.058169 0.000703 64032.500000 0 0 1
-9.975940 -17.954088 -13.299936 24.469511 1.063636 2.145434 0.048423 0.010950 80483.200000 0 1 0
-11.138440 -17.262588 -12.862336 24.238430 0.997778 2.130174 0.050878 0.000873 224702.000000 0 1 0
-10.891540 -16.178688 -11.961936 22.879325 0.978282 2.120961 0.051684 -0.001621 -13305.300000 0 1 0
-10.627040 -14.746988 -12.489936 22.054617 0.946362 2.172828 0.053290 0.005036 775760.000000 0 1 0
-11.807840 -14.020688 -12.893336 22.410776 0.870864 2.183790 0.046000 0.006660 631687.000000 0 1 0
-11.784540 -13.836888 -14.264836 23.104554 0.865330 2.236234 0.054513 0.000532 -278554.000000 0 1 0
-12.961640 -13.019888 -14.825136 23.607335 0.787640 2.249762 0.040383 0.002546 -342966.000000 0 1 0
-13.007240 -11.669288 -14.536036 22.730088 0.731232 2.264652 0.022734 0.006192 -850220.000000 0 1 0
-14.073440 -11.067788 -15.151036 23.454457 0.666412 2.273099 0.003301 0.005683 -1189320.000000 0 1 0
-14.410140 -9.696588 -14.544036 22.654027 0.592306 2.267909 -0.000037 -0.003300 -452364.000000 0 1 0
-13.377340 -8.757888 -14.573136 21.634004 0.579659 2.309895 0.008022 -0.000003 -134213.000000 0 1 0
-13.454140 -7.976888 -15.798336 22.231330 0.535179 2.361195 0.011868 0.001032 502614.000000 0 1 0
-12.361840 -6.847588 -15.879836 21.257322 0.505855 2.414378 0.013557 0.008744 425006.000000 0 1 0
-11.049640 -7.296988 -16.133736 20.871943 0.583639 2.454332 0.019905 0.005533 355641.000000 0 1 0
-10.170140 -6.154288 -15.925636 19.872919 0.544185 2.500385 0.018182 0.007728 655732.000000 0 1 0
11.164760 21.830812 15.967164 29.260666 1.098053 0.993588 0.036734 0.004997 -164670.000000 0 0 1
11.692960 22.038812 17.294064 30.356535 1.082999 0.964658 0.049550 -0.008209 123237.000000 0 0 1
12.393160 20.908312 17.749264 30.096251 1.035733 0.940047 0.042208 -0.004612 -300792.000000 0 0 1
13.545960 21.100612 18.732364 31.299047 1.000087 0.929174 0.043759 -0.014490 302318.000000 0 0 1
14.727160 21.682712 18.162864 31.889165 0.974159 0.964823 0.029676 -0.007121 71630.100000 0 0 1
15.796660 21.480612 19.049564 32.769453 0.936710 0.950445 0.030930 -0.009448 -382222.000000 0 0 1
17.145960 21.941112 18.473864 33.416762 0.907467 0.985037 0.028360 -0.007135 -1131020.000000 0 0 1
17.480760 23.278312 18.515064 34.500208 0.926690 1.004316 0.035205 -0.005784 1041580.000000 0 0 1
18.799160 23.565112 17.997564 35.108905 0.897426 1.032562 0.031465 -0.006629 1359030.000000 0 0 1
20.111460 22.939712 18.534564 35.696376 0.850999 1.024849 0.035800 -0.007074 -478023.000000 0 0 1
20.311360 21.513612 18.348964 34.814815 0.814135 1.015677 0.036699 -0.007335 38668.300000 0 0 1
21.481760 21.089112 19.006764 35.601597 0.776175 1.007621 0.046615 -0.010349 -208979.000000 0 0 1
21.653160 19.547512 18.796464 34.702617 0.734335 0.998405 0.037536 -0.017273 -264034.000000 0 0 1
21.775760 19.183312 17.432164 33.853560 0.722189 1.029872 0.025500 -0.008989 101610.000000 0 0 1
21.673760 17.837112 17.138364 32.888265 0.688598 1.022647 0.019029 -0.001763 -320246.000000 0 0 1
22.631060 16.863412 17.839964 33.388679 0.640386 1.007103 0.004002 -0.001169 36337.200000 0 0 1
23.923960 16.800012 17.249664 33.943293 0.612218 1.037714 0.010013 -0.006089 419668.000000 0 0 1
24.817560 16.100512 18.105564 34.683558 0.575499 1.021577 0.008545 -0.011129 532205.000000 0 0 1
26.169260 15.716012 17.418364 35.145734 0.540826 1.052266 0.021731 -0.005858 692204.000000 0 0 1
27.099760 16.825012 17.232564 36.255197 0.555613 1.075477 0.010349 -0.006858 1334900.000000 0 0 1
28.479560 16.608112 17.504964 37.327449 0.527944 1.082687 0.026702 -0.009462 993648.000000 0 0 1
29.266160 15.603412 16.574464 37.076778 0.489819 1.107353 0.028445 -0.009308 -257545.000000 0 0 1
29.249260 16.028712 15.201664 36.654187 0.501310 1.143148 0.029603 -0.006394 -37128.300000 0 0 1
29.151260 15.053612 14.256864 35.772411 0.476679 1.160868 0.055793 -0.014042 -379790.000000 0 0 1
28.311660 15.430812 13.061564 34.788856 0.499022 1.185911 0.044936 0.004560 -457022.000000 0 0 1
28.911360 16.346912 12.102664 35.349155 0.514601 1.221353 0.038441 0.006121 68367.900000 0 0 1
28.092460 16.819112 11.046264 34.555590 0.539467 1.245419 0.022022 0.014606 65361.200000 0 0 1
26.970760 17.808612 11.464564 34.292926 0.583577 1.229920 0.018347 0.013640 39966.900000 0 0 1
27.434560 19.094012 11.915764 35.485515 0.608026 1.228350 0.001939 0.015583 206454.000000 0 0 1
27.986160 19.203812 13.238664 36.431769 0.601397 1.198900 0.015721 0.019999 -449516.000000 0 0 1
27.138760 18.803112 14.457064 36.042697 0.605912 1.158069 0.006956 0.013873 -254717.000000 0 0 1
25.923960 19.533512 14.481364 35.543209 0.645733 1.151158 0.002459 0.018746 227257.000000 0 0 1
25.156360 19.253612 15.666564 35.340985 0.653258 1.111522 -0.001494 0.011633 194852.000000 0 0 1
25.642860 20.027012 16.940364 36.682604 0.663046 1.090762 0.005046 -0.007641 -184401.000000 0 0 1
25.612860 21.451012 16.843164 37.414659 0.697198 1.103834 -0.004857 -0.004231 36955.400000 0 0 1
24.340260 22.059812 16.741364 36.869457 0.736290 1.099467 0.004370 -0.000245 -310947.000000 0 0 1
24.337960 23.575012 16.715664 37.782680 0.769476 1.112505 0.003198 0.007531 -135394.000000 0 0 1
24.366160 24.025412 15.358164 37.507378 0.778357 1.148923 0.017753 -0.002458 95043.500000 0 0 1
24.486360 25.406912 15.204964 38.422441 0.803846 1.163932 0.021065 -0.001549 -330622.000000 0 0 1
24.386960 25.899012 13.711064 38.124479 0.815458 1.202915 0.019337 -0.003766 -162927.000000 0 0 1
23.037260 25.897612 13.316364 37.131216 0.843784 1.203997 0.033453 0.000025 -123211.000000 0 0 1
22.904960 26.272312 11.975164 36.854798 0.853765 1.239861 0.031820 -0.010726 42145.200000 0 0 1
22.431760 25.072612 11.086464 35.422160 0.840933 1.252466 0.027189 -0.004860 273433.000000 0 0 1
21.026160 24.826212 11.208064 34.410186 0.868085 1.239024 0.025040 -0.005655 746123.000000 0 0 1
20.607660 23.511012 10.777564 33.069612 0.851111 1.238827 0.023847 0.003451 146258.000000 0 0 1
20.523560 23.236412 9.246764 32.351971 0.847313 1.280937 0.027347 0.009755 -620889.000000 0 0 1
19.388560 23.779512 8.628764 31.872198 0.886767 1.296645 0.040160 0.004125 -192748.000000 0 0 1
19.444560 23.566412 7.229964 31.396482 0.880939 1.338432 0.022480 -0.009976 -293369.000000 0 0 1
18.177160 23.858612 6.435764 30.676727 0.919742 1.359433 0.009443 -0.009025 -469175.000000 0 0 1
17.252860 22.800412 6.129264 29.241885 0.923027 1.359625 0.029559 -0.000192 607958.000000 0 0 1
16.376460 22.993512 5.069864 28.680892 0.951915 1.393095 0.048648 -0.007810 335057.000000 0 0 1
15.213960 24.033912 5.198964 28.915787 1.006450 1.390017 0.043004 -0.010575 -234837.000000 0 0 1
15.651160 25.379312 5.063864 30.244190 1.018195 1.402571 0.047613 -0.015334 -105751.000000 0 0 1
14.610260 26.215912 5.447264 30.502564 1.062362 1.391249 0.029128 -0.014272 -362805.000000 0 0 1
14.477960 27.562612 4.659664 31.480492 1.087134 1.422233 0.022324 -0.013509 -206052.000000 0 0 1
13.890060 27.402012 3.365164 30.905151 1.101645 1.461693 0.031629 -0.006541 479008.000000 0 0 1
13.538360 28.691512 2.875064 31.855236 1.129914 1.480419 0.031579 -0.005305 -164359.000000 0 0 1
12.974960 28.801412 1.435564 31.621698 1.147529 1.525383 0.045522 -0.011391 -676127.000000 0 0 1
13.878660 28.565312 0.424464 31.761210 1.118527 1.557432 0.073376 -0.015249 -613200.000000 0 0 1
13.773360 27.168512 0.041064 30.460387 1.101596 1.569448 0.054830 -0.006243 111916.000000 0 0 1
14.761460 26.811512 -1.080436 30.625565 1.067520 1.606083 0.063410 -0.009053 18466.200000 0 0 1
14.481660 27.463412 -2.312736 31.133683 1.085542 1.645149 0.064522 -0.010908 -664847.000000 0 0 1
15.545460 27.392612 -3.212136 31.659664 1.054613 1.672430 0.062260 -0.006709 -316900.000000 0 0 1
15.171360 27.777012 -4.709936 31.998689 1.070888 1.718525 0.061984 -0.001346 -217880.000000 0 0 1
14.346660 26.812112 -5.333536 30.873332 1.079479 1.744423 0.072229 -0.009890 -445175.000000 0 0 1
14.038660 27.279212 -6.633636 31.388605 1.095515 1.783741 0.053384 -0.010754 705370.000000 0 0 1
12.795360 26.617512 -7.320736 30.427066 1.122698 1.813780 0.048346 -0.015925 836523.000000 0 0 1
12.987860 25.248412 -7.463836 29.357719 1.095693 1.827856 0.054073 -0.019106 -266425.000000 0 0 1
11.742560 24.880912 -7.979636 28.646502 1.129839 1.853086 0.039709 -0.000657 -148715.000000 0 0 1
11.626360 23.404212 -8.422336 27.456605 1.109741 1.882574 0.039588 -0.005761 -83499.200000 0 0 1
12.259460 23.097612 -9.640836 27.870052 1.082839 1.924017 0.042274 -0.003229 35262.300000 0 0 1
11.975260 21.781412 -10.050236 26.811267 1.068112 1.955033 0.040003 -0.003950 -326288.000000 0 0 1
12.460960 21.456412 -11.470136 27.335273 1.044646 2.003811 0.042304 0.001640 -2628.790000 0 0 1
12.361660 20.055012 -11.857236 26.374385 1.018414 2.037085 0.057022 -0.005829 -162850.000000 0 0 1
12.600060 19.851012 -13.268236 26.997598 1.005230 2.084562 0.051569 -0.000569 -198522.000000 0 0 1
14.044560 19.713012 -13.742936 27.833807 0.951763 2.087193 0.004303 0.002171 -283031.000000 0 0 1
14.839860 20.875512 -13.660736 29.027989 0.952810 2.060773 0.001555 0.008255 521962.000000 0 0 1
16.221760 20.556012 -13.900136 29.646398 0.902707 2.058801 0.019717 0.016148 622348.000000 0 0 1
17.217360 21.662612 -13.585236 30.826367 0.899237 2.027177 -0.011884 0.013834 -646266.000000 0 0 1
17.157760 22.839612 -14.390136 31.986132 0.926510 2.037435 -0.010160 0.011096 -558710.000000 0 0 1
15.992260 23.616812 -14.273436 31.894156 0.975567 2.034792 -0.001071 0.014058 -69464.100000 0 0 1
16.154660 24.942712 -14.993236 33.285268 0.996060 2.038062 0.003218 0.015223 -252684.000000 0 0 1
16.396560 25.019012 -16.401636 34.114686 0.990660 2.072340 -0.005023 0.013741 23909.900000 0 0 1
15.213660 25.054712 -17.187236 33.979334 1.025087 2.101122 -0.004974 0.020036 101799.000000 0 0 1
15.443560 25.023612 -18.697036 34.846289 1.017855 2.137149 -0.017084 0.020269 108611.000000 0 0 1
15.750160 23.756312 -19.232236 34.384718 0.985345 2.164368 -0.010320 0.020624 -86887.900000 0 0 1
15.442460 23.759312 -20.595936 35.030945 0.994453 2.199301 -0.002223 0.023974 -142732.000000 0 0 1
15.959660 22.468612 -21.220636 34.783109 0.953185 2.226964 -0.002956 0.023143 -666427.000000 0 0 1
15.087960 21.415112 -21.112636 33.645163 0.957025 2.249146 0.003182 0.026196 -192930.000000 0 0 1
15.602360 20.321112 -21.813736 33.648482 0.916006 2.276123 -0.003284 0.021755 -16437.000000 0 0 1
14.482860 19.279312 -21.976736 32.625482 0.926520 2.309874 -0.005779 0.021744 -674513.000000 0 0 1
14.242660 18.446012 -20.850436 31.270584 0.913284 2.300669 -0.002929 0.017282 249894.000000 0 0 1
13.396260 17.347012 -21.189636 30.485723 0.913206 2.339310 -0.000354 0.009328 713224.000000 0 0 1
11.888660 17.595012 -21.530936 30.240799 0.976577 2.363115 0.019340 0.008453 75254.600000 0 0 1
11.079660 17.622212 -20.359036 29.116861 1.009517 2.345100 0.016810 0.006175 802747.000000 0 0 1
9.677760 17.641312 -20.680836 28.854322 1.069040 2.369902 0.017442 0.005136 865176.000000 0 0 1
8.832860 17.269812 -19.429136 27.454638 1.098021 2.357007 0.018210 -0.006461 -310447.000000 0 0 1
8.568260 15.873812 -19.338736 26.445788 1.075839 2.390963 0.007015 -0.008830 113907.000000 0 0 1
7.258860 15.458912 -18.988136 25.538566 1.131797 2.409098 0.021066 -0.006940 205595.000000 0 0 1
6.865560 15.625312 -17.499036 24.443866 1.156803 2.368689 0.028839 -0.009633 -310264.000000 0 1 0
6.561760 16.945712 -17.125436 24.969870 1.201353 2.326559 0.044953 -0.008489 -179560.000000 0 1 0
6.239960 16.913512 -15.716236 23.916607 1.217355 2.287797 0.034062 -0.021018 -494248.000000 0 1 0
5.887360 18.318612 -15.094136 24.455378 1.259836 2.235990 0.040539 -0.021511 -627326.000000 0 1 0
6.910760 19.265312 -14.936536 25.337935 1.226379 2.201227 0.047463 -0.016223 -394760.000000 0 0 1
7.443860 19.909412 -16.085536 26.655960 1.213002 2.218617 0.048948 -0.006165 -443143.000000 0 0 1
8.768060 20.632312 -15.837736 27.448225 1.168953 2.185852 0.038993 0.013646 -265610.000000 0 0 1
8.749560 21.829812 -15.125236 27.961908 1.189594 2.142330 0.041289 0.007786 -108030.000000 0 0 1
8.398360 21.725112 -13.733236 27.039133 1.201918 2.103544 0.042106 -0.008883 -87542.700000 0 0 1
8.186660 23.116112 -13.085336 27.795720 1.230426 2.060957 0.043417 -0.010023 -8008.000000 0 0 1
6.915260 23.602912 -13.545736 28.078555 1.285789 2.074215 0.040101 -0.008230 499068.000000 0 0 1
6.352360 24.614412 -12.682236 28.408817 1.318232 2.033556 0.023526 -0.008599 560632.000000 0 0 1
5.721660 24.084212 -11.330836 27.224521 1.337551 2.000058 0.013447 0.000257 -278790.000000 0 0 1
6.715560 23.835812 -10.376636 26.849940 1.296173 1.967595 0.004547 0.000655 -143630.000000 0 0 1
6.125860 23.382612 -9.155536 25.847564 1.314571 1.932868 0.003930 -0.000842 -66032.200000 0 0 1
7.074660 23.215012 -7.956636 25.540080 1.274992 1.887605 -0.001864 -0.001537 -302550.000000 0 0 1
7.472360 24.441612 -7.513936 26.639966 1.274097 1.856732 -0.001348 0.001182 -30973.000000 0 0 1
8.244160 24.356312 -6.329836 26.481370 1.244420 1.812163 -0.004412 0.001201 -26287.800000 0 0 1
8.269260 25.740212 -5.601436 27.610057 1.259952 1.775091 -0.006790 -0.004254 -390037.000000 0 0 1
9.095660 26.626312 -6.250936 28.823007 1.241621 1.789407 0.009167 -0.007332 -336169.000000 0 0 1
8.964960 27.953212 -5.753836 29.914198 1.260447 1.764347 -0.001509 -0.007519 37641.500000 0 0 1
9.130160 29.071712 -6.767836 31.214226 1.266494 1.789351 0.009410 -0.004525 588601.000000 0 0 1
10.442960 29.137612 -7.342636 31.811479 1.226657 1.803714 0.022686 -0.010846 526658.000000 0 0 1
10.545960 30.279812 -8.214436 33.099264 1.235651 1.821593 0.025037 -0.009935 -532831.000000 0 0 1
11.904460 30.470712 -8.861436 33.892559 1.198346 1.835327 0.019043 -0.012031 61468.900000 0 0 1
13.042560 30.563112 -8.024436 34.184847 1.167451 1.807744 0.033160 -0.005502 -389029.000000 0 0 1
14.186460 31.009412 -8.677236 35.187124 1.141732 1.819969 0.025942 -0.005772 -108581.000000 0 0 1
15.436060 31.241012 -7.814236 35.711834 1.111883 1.791395 0.027252 -0.004506 12133.300000 0 0 1
16.103660 30.052312 -7.413436 34.891666 1.078878 1.784898 0.036608 -0.005434 43361.200000 0 0 1
17.294360 30.473312 -6.753936 35.683796 1.054598 1.761217 0.038655 0.005773 279281.000000 0 0 1
18.384860 29.440312 -6.461636 35.305634 1.012572 1.754854 0.032412 0.008502 -142913.000000 0 0 1
18.087560 28.473612 -5.482736 34.175529 1.004868 1.731921 0.050585 -0.007323 405216.000000 0 0 1
19.282960 27.733212 -5.155936 34.169391 0.963230 1.722268 0.036600 -0.003822 580250.000000 0 0 1
19.642460 26.476012 -5.997536 33.507848 0.932502 1.750755 0.033288 0.014885 -297309.000000 0 0 1
20.000260 26.776012 -7.297236 34.208404 0.929252 1.785765 0.021443 0.023247 141808.000000 0 0 1
19.680560 25.692912 -8.187136 33.383819 0.917139 1.818566 0.013844 0.020319 -655980.000000 0 0 1
20.155360 26.025412 -9.641936 34.300547 0.911830 1.855738 0.012622 0.010211 407512.000000 0 0 1
21.557360 26.197012 -9.733936 35.295223 0.882251 1.850204 -0.001857 0.015770 114714.000000 0 0 1
22.323560 24.995312 -9.724936 34.895291 0.841801 1.853225 0.003149 0.016869 -997483.000000 0 0 1
23.815960 25.214912 -9.550736 35.975107 0.813922 1.839500 -0.007076 0.016474 -777972.000000 0 0 1
24.461860 25.590712 -10.695836 36.981996 0.807948 1.864206 -0.007767 0.015883 -710202.000000 0 0 1
25.847560 25.724812 -10.527236 37.956357 0.783018 1.851832 -0.011836 0.017526 -313139.000000 0 0 1
26.619260 25.908312 -11.832536 38.985056 0.771864 1.879175 -0.010820 0.011480 -196044.000000 0 0 1
26.271160 27.037112 -12.615236 39.753282 0.799766 1.893718 -0.006191 0.014587 -124121.000000 0 0 1
27.120860 27.143512 -13.733736 40.754470 0.785816 1.914511 -0.012612 0.012234 -152328.000000 0 0 1
26.728160 28.255512 -14.757236 41.599814 0.813169 1.933435 -0.013421 0.006970 -178676.000000 0 0 1
27.005260 29.583212 -14.318036 42.537709 0.830923 1.914096 -0.015007 0.002327 -5435.190000 0 0 1
26.808760 30.427212 -15.452336 43.396999 0.848534 1.934854 -0.016797 0.009283 -34869.400000 0 0 1
27.138360 31.927212 -15.133936 44.551919 0.866298 1.917386 -0.011085 -0.002069 -12869.300000 0 0 1
28.447860 32.131412 -14.657136 45.349091 0.846129 1.899913 -0.019131 -0.000370 -100797.000000 0 0 1
28.867760 33.461512 -14.902636 46.638063 0.858967 1.896038 -0.012977 -0.009257 -10098.500000 0 0 1
14.774760 -32.732118 -29.397043 46.409818 -1.146792 2.256765 0.045182 -0.014340 -291082.000000 0 0 1
15.697260 -33.224918 -28.482363 46.492410 -1.129427 2.230173 0.037919 -0.006806 -121969.000000 0 0 1
15.905260 -32.388818 -27.396713 45.305549 -1.114316 2.220198 0.040133 -0.008361 234699.000000 0 0 1
17.123460 -32.898618 -26.519483 45.594023 -1.090890 2.191544 0.003893 0.002847 1417980.000000 0 0 1
18.497460 -32.708418 -26.842503 46.179180 -1.056111 2.191083 -0.000663 -0.000306 877836.000000 0 0 1
18.945060 -33.272818 -28.044363 47.460321 -1.053192 2.202972 -0.012860 0.004615 -101431.000000 0 0 1
20.436560 -32.953818 -28.381383 48.053200 -1.015687 2.202628 -0.009846 0.013594 514230.000000 0 0 1
20.670960 -31.619018 -28.718073 47.452909 -0.991789 2.220802 -0.003999 -0.006137 435299.000000 0 0 1
22.036660 -31.294018 -28.469953 47.701868 -0.957270 2.210342 -0.015188 0.000219 194222.000000 0 0 1
22.533760 -30.048118 -29.281423 47.624169 -0.927345 2.232984 -0.021895 0.003791 -59399.400000 0 0 1
22.868560 -30.385418 -30.630433 48.831016 -0.925623 2.248844 -0.016526 -0.004283 108109.000000 0 0 1
23.340160 -29.224118 -31.279723 48.756879 -0.896872 2.267307 -0.009827 -0.008580 -740.563000 0 0 1
23.626460 -29.324418 -32.774593 49.922991 -0.892594 2.286970 -0.003119 0.007949 641598.000000 0 0 1
24.834660 -30.049818 -33.072843 51.123036 -0.880134 2.274343 0.000339 -0.004539 529775.000000 0 0 1
24.893660 -30.593218 -34.383063 52.324319 -0.887758 2.287781 -0.001211 0.001380 -548209.000000 0 0 1
26.132160 -31.444618 34.497614 53.495226 -0.877405 0.869940 -0.003752 -0.002162 -213615.000000 0 0 1
27.254360 -30.633818 34.209177 53.399426 -0.843711 0.875480 0.000036 -0.013731 -714839.000000 0 0 1
28.445860 -31.348618 34.281076 54.471047 -0.833906 0.890086 0.013911 0.001866 250009.000000 0 0 1
29.724760 -30.440318 34.269167 54.631036 -0.797291 0.892736 0.014236 -0.011351 347064.000000 0 0 1
29.859560 -29.764718 33.007934 53.544892 -0.783808 0.906566 0.004301 -0.001331 -112331.000000 0 0 1
30.824660 -28.747618 33.142487 53.619117 -0.750546 0.904461 0.006393 -0.012298 -39225.500000 0 0 1
31.078660 -28.071618 31.775944 52.570043 -0.734605 0.921721 0.009642 -0.007968 -88522.800000 0 0 1
32.064760 -27.024618 31.842514 52.653818 -0.700307 0.921342 0.012052 -0.020539 588185.000000 0 0 1
32.065260 -26.324518 30.605764 51.554573 -0.687396 0.935200 0.015877 -0.010518 61456.200000 0 0 1
32.915060 -26.863718 29.392604 51.662227 -0.684513 0.965582 0.019126 -0.003082 -61400.100000 0 0 1
32.363160 -27.972818 28.690504 51.507259 -0.712761 0.980005 0.009791 -0.009835 1182080.000000 0 0 1
31.151560 -27.710818 27.941824 50.190185 -0.727011 0.980366 0.015809 -0.005411 766533.000000 0 0 1
30.563460 -28.877018 27.143354 50.047667 -0.757034 0.997565 0.000118 0.008520 323466.000000 0 0 1
29.248460 -28.583318 26.679774 48.829180 -0.773897 0.992749 0.013567 0.010985 375815.000000 0 0 1
28.801160 -29.555718 25.749134 48.642216 -0.798328 1.012953 0.003299 0.013651 158143.000000 0 0 1
27.507060 -29.139118 24.997134 47.229051 -0.814202 1.013051 0.009269 0.010650 153123.000000 0 0 1
26.383860 -29.064918 25.851974 47.002150 -0.833713 0.988412 0.004211 0.014930 -813237.000000 0 0 1
25.373860 -28.446818 25.113824 45.648203 -0.842432 0.988240 0.001909 0.015512 -511355.000000 0 0 1
24.126060 -28.153218 25.953864 45.257856 -0.862278 0.960065 0.004727 0.010197 -429036.000000 0 0 1
24.250160 -27.191818 26.942514 45.314063 -0.842520 0.934062 -0.014056 0.014400 -94898.300000 0 0 1
23.038160 -27.124818 27.658694 45.072341 -0.866686 0.910120 -0.008508 0.000511 -338602.000000 0 0 1
23.132060 -26.034218 28.790414 45.185846 -0.844357 0.879994 -0.010334 0.008497 -49486.300000 0 0 1
21.994460 -25.987618 29.651164 45.147581 -0.868429 0.854281 0.009986 -0.000639 320271.000000 0 0 1
21.979560 -24.895418 30.604904 45.161300 -0.847523 0.826193 0.015722 -0.003935 -393653.000000 0 0 1
21.413060 -23.523518 30.075354 43.776729 -0.832329 0.813421 0.007919 -0.000773 -561308.000000 0 0 1
22.069460 -22.973018 28.903154 43.014102 -0.805456 0.833963 -0.003469 0.001982 408453.000000 0 0 1
21.700460 -21.625718 28.485844 41.833300 -0.783673 0.821755 0.017688 0.007164 -212184.000000 0 0 1
22.277960 -20.473618 29.337344 42.144469 -0.743218 0.800826 0.010731 0.005641 -363737.000000 0 0 1
21.907260 -20.406018 30.684354 42.870307 -0.749934 0.773101 0.007947 0.006889 -160491.000000 0 0 1
22.719960 -19.451618 31.305634 43.296706 -0.708052 0.762591 0.005318 0.005919 -193546.000000 0 0 1
22.194860 -18.991218 32.696944 43.844821 -0.707770 0.729148 0.021627 -0.001876 -178601.000000 0 0 1
22.434960 -20.009318 33.632839 45.109512 -0.728311 0.729389 0.010122 0.004945 108171.000000 0 0 1
21.779060 -19.668618 -34.290950 45.133704 -0.734524 2.433746 0.013662 -0.004534 -243731.000000 0 0 1
21.694460 -20.763818 -33.239333 44.795524 -0.763483 2.406880 0.001675 0.003290 915534.000000 0 0 1
22.903660 -21.084318 -32.530043 45.025879 -0.744062 2.378171 0.009554 0.001808 957545.000000 0 0 1
22.431060 -22.067118 -31.633283 44.618099 -0.777220 2.358845 0.000895 0.001969 971057.000000 0 0 1
23.512260 -22.335518 -30.497953 44.517714 -0.759738 2.325502 -0.015791 0.005766 1170250.000000 0 0 1
24.701660 -22.915118 -31.025713 45.802506 -0.747897 2.314992 -0.007510 0.006584 100209.000000 0 0 1
25.623260 -23.215618 -29.996313 45.774394 -0.736140 2.285386 -0.010034 0.001665 747791.000000 0 0 1
26.864160 -24.107218 -30.404063 47.193730 -0.731363 2.270825 -0.014390 0.012751 489800.000000 0 0 1
27.891760 -23.511618 -31.174463 47.985348 -0.700392 2.277942 -0.006292 0.009245 -52101.500000 0 0 1
27.713760 -23.576318 -32.591153 48.847503 -0.704905 2.301242 -0.007493 0.005782 -422160.000000 0 0 1
28.028560 -24.938018 -33.253833 50.133046 -0.727115 2.296032 -0.014610 -0.004330 -189411.000000 0 0 1
27.124260 -25.992518 -32.926593 49.954950 -0.764095 2.290452 -0.001219 -0.002550 178632.000000 0 0 1
27.501560 -27.229318 -33.535103 51.209127 -0.780424 2.284801 -0.003435 -0.007534 159319.000000 0 0 1
26.888560 -27.439818 34.169012 51.414586 -0.795545 0.843867 -0.000105 0.003404 -96202.800000 0 0 1
27.594060 -26.716618 33.182441 50.757110 -0.769244 0.858267 -0.017570 0.003925 210881.000000 0 0 1
27.014860 -26.914618 31.885894 49.708244 -0.783539 0.874395 -0.013236 0.005707 184817.000000 0 0 1
28.017960 -26.437918 30.772314 49.304208 -0.756391 0.896777 -0.011252 0.000492 186826.000000 0 0 1
28.139860 -25.001218 30.564244 48.487995 -0.726404 0.888797 -0.024575 0.006512 197964.000000 0 0 1
28.521460 -24.244418 31.742904 49.080316 -0.704518 0.867475 -0.027225 0.006894 -1461080.000000 0 0 1
28.934560 -22.727118 31.543904 48.463889 -0.665816 0.862061 -0.018744 0.013530 1036670.000000 0 0 1
30.260860 -22.497018 31.049934 48.846022 -0.639287 0.881921 -0.011458 0.007825 835425.000000 0 0 1
31.305860 -23.020818 31.853424 50.245951 -0.634060 0.884146 -0.003843 -0.000769 -859201.000000 0 0 1
32.736860 -22.552818 31.532604 50.740878 -0.603246 0.900212 0.012233 -0.012791 4924.680000 0 0 1
33.074360 -22.884418 30.196504 50.293526 -0.605275 0.926788 0.015692 -0.006423 242276.000000 0 0 1
34.217160 -22.179118 29.729824 50.463747 -0.575100 0.940812 0.018256 -0.004635 123192.000000 0 0 1
34.601360 -22.489518 28.295034 50.036402 -0.576347 0.969770 0.023478 -0.002338 -352084.000000 0 0 1
35.090360 -23.805518 28.180364 50.913348 -0.596086 0.984240 0.034758 -0.002076 597972.000000 0 0 1
-34.578567 -23.900718 26.904464 49.907633 0.604796 1.001446 0.018572 0.012695 308940.000000 0 0 1
-34.258367 -25.404718 26.473154 50.198240 0.638079 1.015292 0.010925 0.001080 631210.000000 0 0 1
34.891260 -26.149318 26.200124 50.868786 -0.643150 1.029727 0.015965 0.000876 797089.000000 0 0 1
35.070460 -27.456518 25.676024 51.410658 -0.664224 1.047856 0.009239 0.012297 173906.000000 0 0 1
-34.579167 -28.448618 26.689464 52.128401 0.688436 1.033291 0.006562 0.000613 -215148.000000 0 0 1
-34.306867 -29.729518 26.081424 52.355001 0.714039 1.049315 0.007230 0.001738 1017430.000000 0 0 1
-33.345167 -30.533418 26.842394 52.580452 0.741409 1.035029 0.014825 -0.008153 1877630.000000 0 0 1
-31.838167 -30.047518 26.802794 51.331394 0.756471 1.021424 0.018573 -0.001352 23075.800000 0 0 1
-31.351167 -30.133118 25.486734 50.403116 0.765590 1.040652 0.012817 -0.002444 262145.000000 0 0 1
-30.123167 -29.425918 25.354144 49.154069 0.773690 1.028844 0.000686 0.002675 363296.000000 0 0 1
-29.484667 -29.579318 23.939064 48.138970 0.787001 1.050323 -0.008739 0.005151 -131948.000000 0 0 1
-29.243967 -30.882718 23.423464 48.555232 0.812646 1.067394 -0.003390 -0.001649 422732.000000 0 0 1
-29.099467 -30.761618 22.063764 47.747941 0.813158 1.090448 -0.008970 -0.007296 -693590.000000 0 0 1
-29.307367 -32.104918 21.348764 48.429508 0.830920 1.114283 -0.001729 -0.007864 490700.000000 0 0 1
-28.370967 -33.180518 21.595664 48.705557 0.863378 1.111417 0.007186 -0.018220 697401.000000 0 0 1
-27.012067 -32.944918 21.284664 47.624115 0.884029 1.107465 0.012256 -0.013628 -97844.800000 0 0 1
-26.102467 -34.169018 21.398164 48.028554 0.918444 1.109030 0.010089 -0.006641 -392443.000000 0 0 1
-26.225767 34.044712 20.257164 47.509851 -0.914409 1.130311 0.003244 -0.008529 138184.000000 0 0 1
-27.348167 33.186312 20.118464 47.476375 -0.881544 1.133207 0.008374 -0.012007 88780.700000 0 0 1
-27.514067 32.110912 21.225464 47.314426 -0.862342 1.105593 0.013671 -0.009176 170699.000000 0 0 1
-26.496167 31.106512 21.176064 46.022686 -0.865265 1.092663 0.006591 -0.008801 296531.000000 0 0 1
-26.562867 30.176412 22.201464 45.925012 -0.848999 1.066229 0.010162 -0.011867 -53002.900000 0 0 1
-25.670567 28.937512 21.928464 44.465888 -0.845152 1.055086 0.006772 -0.010048 -326169.000000 0 0 1
-24.303667 29.260412 21.947864 43.915244 -0.877674 1.047454 0.010428 -0.005245 -549606.000000 0 0 1
-23.547567 28.103812 21.719664 42.615208 -0.873382 1.035996 0.005215 -0.010254 -1893110.000000 0 0 1
-22.103067 28.404712 21.755064 42.055393 -0.909523 1.027109 0.000175 0.003381 -1961930.000000 0 0 1
-21.647467 28.693812 23.056064 42.702808 -0.924466 1.000455 0.005410 -0.002211 623641.000000 0 0 1
-20.282967 29.109912 23.001264 42.282903 -0.962240 0.995617 0.021517 -0.003983 487172.000000 0 0 1
-19.508067 29.204912 24.343604 42.732922 -0.981890 0.964694 0.009378 0.004981 -269303.000000 0 0 1
-19.253967 27.927712 24.874604 42.064454 -0.967205 0.938071 0.005208 -0.003148 141629.000000 0 0 1
-19.061467 27.777312 26.269464 42.720058 -0.969376 0.908510 0.008940 -0.004981 986893.000000 0 0 1
-17.677967 28.213312 26.938824 42.827582 -1.011060 0.890522 0.004827 0.007936 737524.000000 0 0 1
-17.524867 29.585212 26.913704 43.666385 -1.036019 0.906699 -0.006994 0.004881 887727.000000 0 0 1
-16.239567 30.103712 27.319874 43.775936 -1.076086 0.896837 -0.002691 0.003327 392254.000000 0 0 1
-16.028867 30.230312 28.817464 44.735250 -1.083262 0.870848 -0.009710 0.016774 -447009.000000 0 0 1
-16.041967 29.029812 29.569054 44.434262 -1.065957 0.842692 -0.002497 0.015627 288135.000000 0 0 1
-16.224167 29.240112 30.946884 45.562236 -1.064230 0.824094 -0.002098 0.018265 -172108.000000 0 0 1
-16.047167 27.969412 31.763674 45.262905 -1.049910 0.792932 -0.001683 0.022603 -811881.000000 0 0 1
-14.747767 27.574612 32.057824 44.783479 -1.079673 0.772969 0.002392 0.027849 -503401.000000 0 0 1
-14.671567 26.308912 32.669494 44.437704 -1.062087 0.744871 0.007160 0.020709 -76846.300000 0 0 1
-14.873767 26.203912 34.212424 45.589077 -1.054529 0.722050 0.014041 0.017922 1647020.000000 0 0 1
-16.295767 26.024712 34.501296 46.186330 -1.011360 0.727255 0.027326 0.008592 1349460.000000 0 0 1
-16.789667 26.892312 -33.568963 46.173203 -1.012679 2.384772 0.030917 0.004300 -234133.000000 0 0 1
-18.231867 26.515012 -33.241013 46.264585 -0.968437 2.372437 0.015543 0.003169 -641303.000000 0 0 1
-19.128967 26.801812 -34.273245 47.527990 -0.950922 2.376210 0.007192 0.002636 -1075460.000000 0 0 1
-20.374967 26.305812 -33.913213 47.510431 -0.911772 2.365714 0.022037 -0.003513 -653118.000000 0 0 1
-21.399267 26.366612 34.025838 48.071661 -0.889019 0.784396 0.016156 -0.021386 -390443.000000 0 0 1
-21.278167 25.469012 32.945654 46.763737 -0.874808 0.789060 0.023548 -0.012990 -80962.400000 0 0 1
-21.249667 24.046812 33.282316 46.233214 -0.847072 0.767168 0.028534 -0.017347 -151109.000000 0 0 1
-21.476667 23.159412 32.035014 44.987195 -0.823080 0.778323 0.033657 -0.026397 -566779.000000 0 0 1
-22.824267 23.113312 31.705474 45.391733 -0.791690 0.797517 0.037661 -0.025628 -977421.000000 0 0 1
-23.117867 22.803012 30.382044 44.468885 -0.778542 0.818633 0.043228 -0.027870 237797.000000 0 0 1
-24.615167 22.587012 30.060994 44.941550 -0.742457 0.838081 0.044573 -0.037576 337129.000000 0 0 1
-25.002367 21.264612 30.503504 44.808100 -0.704787 0.821998 0.057034 -0.037395 -397778.000000 0 0 1
-26.285267 20.850212 30.130624 45.094358 -0.670598 0.839052 0.053550 -0.036843 -418423.000000 0 0 1
-26.791967 19.543112 30.788954 45.251546 -0.630212 0.822494 0.073813 -0.033745 -570639.000000 0 0 1
-27.390367 19.757212 32.025734 46.542747 -0.624892 0.811939 0.076002 -0.029433 -207356.000000 0 0 1
-27.663167 18.588412 32.799394 46.760882 -0.591655 0.793397 0.059757 -0.018316 832188.000000 0 0 1
-28.601067 17.423612 32.171734 46.439463 -0.547153 0.805477 0.035762 -0.019017 1258740.000000 0 0 1
-29.989667 17.737512 32.010484 47.314591 -0.534112 0.827735 0.039541 -0.016837 397098.000000 0 0 1
-30.727667 16.576612 31.822134 47.240045 -0.494722 0.831692 0.033949 -0.001777 -319968.000000 0 0 1
-32.236167 16.803712 31.626334 48.184647 -0.480518 0.854816 0.021480 0.005644 -193108.000000 0 0 1
-32.872167 16.894312 32.908924 49.487316 -0.474737 0.843306 0.029319 0.002021 -559228.000000 0 0 1
-34.214067 17.213412 32.825444 50.442182 -0.466132 0.862219 0.015965 -0.004469 -812703.000000 0 0 1
-34.759967 17.657612 34.236622 51.886346 -0.470017 0.850192 0.022436 0.004302 -381970.000000 0 0 1
34.268660 18.091612 34.264657 51.727306 0.485745 0.846766 0.012106 -0.008090 -401673.000000 0 0 1
33.889760 18.376212 -33.510843 51.080110 0.496862 2.286363 0.006680 -0.013970 460652.000000 0 0 1
32.360160 18.373912 -33.212343 49.878255 0.516402 2.299453 0.007298 -0.013447 447592.000000 0 0 1
31.870960 17.056612 -33.294483 49.144773 0.491392 2.315124 0.011465 -0.004751 420449.000000 0 0 1
30.554160 16.970512 -32.743363 47.892408 0.506998 2.323598 0.007733 -0.003105 266971.000000 0 0 1
29.973960 15.548812 -32.784173 47.063848 0.478530 2.341429 0.008469 -0.004208 -278137.000000 0 0 1
29.549260 15.304112 -34.118449 47.659660 0.477880 2.368676 0.015321 -0.011698 -87678.800000 0 0 1
28.925060 14.054112 -34.289884 47.010353 0.452288 2.388257 0.009301 -0.006439 40777.800000 0 0 1
29.819160 12.753112 -34.180317 47.118131 0.404140 2.382437 0.015077 -0.001808 144125.000000 0 0 1
30.312460 12.440312 -32.913553 46.442530 0.389442 2.358442 0.024041 0.006195 -254827.000000 0 0 1
31.269260 11.449612 -33.053363 46.918920 0.351000 2.352484 0.032241 0.001412 -1000310.000000 0 0 1
17.827360 -21.744888 10.282567 29.939708 -0.884073 1.220216 0.002679 -0.008021 75066.800000 0 0 1
17.082860 -22.906288 10.587767 30.473315 -0.930007 1.215953 0.000963 -0.011554 78298.200000 0 0 1
17.894960 -23.871588 11.211267 31.871222 -0.927529 1.211337 -0.014167 -0.011454 -556064.000000 0 0 1
17.165260 -25.129798 11.588467 32.564482 -0.971527 1.206960 -0.017412 -0.003125 -573256.000000 0 0 1
16.694760 -25.845908 10.507567 32.513611 -0.997285 1.241714 -0.009932 -0.009032 -218524.000000 0 0 1
15.386760 -26.297578 10.761867 32.313043 -1.041403 1.231260 0.000831 -0.011212 24761.800000 0 0 1
14.662960 -27.107218 9.627067 32.287522 -1.074948 1.268025 -0.002949 -0.018856 94127.300000 0 0 1
14.494660 -26.316278 8.494867 31.221858 -1.067349 1.295242 -0.003926 -0.006966 -289212.000000 0 0 1
13.684160 -26.918398 7.566167 31.130423 -1.100485 1.325290 0.009713 -0.002398 -728768.000000 0 0 1
13.528260 -26.025148 6.336467 30.007881 -1.091423 1.358035 0.007731 0.002798 -308715.000000 0 0 1
12.850560 -24.836688 6.614867 28.735943 -1.093324 1.338518 0.011237 -0.004444 -99786.300000 0 0 1
12.595160 -24.126188 5.405567 27.747633 -1.089662 1.374731 0.022270 -0.000002 -253808.000000 0 0 1
11.873860 -22.781988 5.542567 26.281696 -1.090337 1.358310 0.026378 -0.005606 -286201.000000 0 0 1
11.410760 -22.244388 4.381867 25.381469 -1.096825 1.397287 0.024134 -0.008026 -215280.000000 0 0 1
10.575960 -21.139888 4.705167 24.101543 -1.106921 1.374312 0.029171 -0.006243 -183409.000000 0 1 0
9.985160 -20.660588 3.387467 23.195651 -1.120602 1.424233 0.026136 -0.009641 -535910.000000 0 1 0
10.870060 -20.045388 2.493767 22.938933 -1.073905 1.461868 0.017525 -0.001984 -211918.000000 0 1 0
10.158060 -19.502888 1.408867 22.034830 -1.090609 1.506814 0.011419 0.007290 -56443.500000 0 1 0
11.085160 -19.119488 0.274467 22.102283 -1.045375 1.558378 -0.000911 0.012408 -162700.000000 0 1 0
11.863660 -17.953788 0.488867 21.524960 -0.986874 1.548083 0.007818 0.008500 -319986.000000 0 1 0
12.714960 -17.650288 -0.543433 21.760013 -0.946521 1.595773 0.025783 0.007301 -1044010.000000 0 1 0
13.767060 -16.580188 -0.204733 21.551716 -0.877832 1.580296 0.018073 0.006023 -228298.000000 0 1 0
14.721660 -17.084588 0.679167 22.562617 -0.859553 1.540690 0.019441 0.000561 -122159.000000 0 1 0
16.040060 -16.667488 0.360367 23.134791 -0.804579 1.555219 0.022776 0.005289 115918.000000 0 1 0
17.153760 -17.334788 1.156267 24.414817 -0.790647 1.523419 0.017701 0.007691 -245378.000000 0 1 0
17.408160 -18.685188 0.856567 25.552182 -0.820765 1.537268 0.005945 0.010905 -224513.000000 0 0 1
18.432560 -19.122188 1.709667 26.614663 -0.803759 1.506514 -0.002073 0.014659 -162698.000000 0 0 1
18.792660 -20.538988 1.302967 27.869550 -0.829769 1.524027 -0.011978 0.010959 -549494.000000 0 0 1
17.852860 -21.534488 1.569167 28.016443 -0.878600 1.514758 -0.006670 0.018043 -232606.000000 0 0 1
17.960460 -22.668988 0.682067 28.929679 -0.900773 1.547217 -0.003365 0.015689 -140995.000000 0 0 1
16.785260 -23.647288 0.855267 29.011561 -0.953512 1.541312 0.001853 0.008120 -158323.000000 0 0 1
16.978360 -24.381988 2.001267 29.778366 -0.962525 1.503540 0.002696 0.009522 641585.000000 0 0 1
15.918560 -25.351268 2.094667 30.007915 -1.010100 1.500936 0.005925 0.004521 131779.000000 0 0 1
15.973560 -26.161818 3.442267 30.845494 -1.022643 1.458966 0.008765 -0.000299 111603.000000 0 0 1
16.963760 -27.183218 3.355067 32.217277 -1.012879 1.466468 0.001820 0.003793 156902.000000 0 0 1
18.181160 -26.658418 3.870667 32.499352 -0.972250 1.451413 0.005269 0.006152 -190118.000000 0 0 1
19.326360 -27.716678 3.738567 33.995578 -0.961896 1.460601 0.013959 0.006112 146410.000000 0 0 1
19.623760 -28.209648 2.455667 34.451509 -0.963003 1.499457 0.002178 0.014591 -83726.700000 0 0 1
20.566060 -29.273468 2.382467 35.854914 -0.958361 1.504300 0.010347 0.016124 -310788.000000 0 0 1
20.081460 -30.694298 2.775967 36.784656 -0.991446 1.495259 0.010723 0.012525 -225710.000000 0 0 1
20.058960 -30.939358 4.180067 37.109011 -0.995595 1.457914 0.025719 0.003508 -273232.000000 0 0 1
19.334960 -32.120568 4.341667 37.741511 -1.028945 1.455504 0.024076 -0.007901 -365858.000000 0 0 1
18.988560 -32.561468 5.775667 38.133619 -1.042851 1.418753 0.025462 -0.010506 -119937.000000 0 0 1
20.065660 -33.131588 6.501567 39.275987 -1.026244 1.404495 0.019554 -0.017899 277358.000000 0 0 1
19.588360 -33.818038 7.618767 39.817196 -1.045790 1.378265 0.017923 -0.012663 1242880.000000 0 0 1
20.816860 34.468428 8.224067 41.098047 1.027485 1.369328 0.020379 -0.018140 1961290.000000 0 0 1
21.802360 -33.844598 8.913367 41.234061 -0.998516 1.352911 0.026074 -0.019358 863177.000000 0 0 1
22.888660 34.513015 9.459167 42.479581 0.985205 1.346238 0.036861 -0.022996 294499.000000 0 0 1
23.715160 -33.767388 10.453567 42.566681 -0.958522 1.322677 0.036537 -0.022032 -196577.000000 0 0 1
24.755560 -33.022918 9.852767 42.431449 -0.927521 1.336453 0.034070 -0.016959 151848.000000 0 0 1
25.353360 -32.046638 10.666067 42.232036 -0.901482 1.315473 0.027340 -0.009270 271564.000000 0 0 1
26.014060 -30.975038 9.799167 41.619802 -0.872231 1.333120 0.022449 -0.015944 -429100.000000 0 0 1
24.975860 -30.143128 9.376867 40.253290 -0.878872 1.335690 0.019064 -0.017935 5593.580000 0 0 1
25.327160 -29.291128 8.250867 39.591817 -0.857847 1.360859 0.024958 -0.014430 -479295.000000 0 0 1
24.908060 -27.831978 8.491767 38.303271 -0.840782 1.347241 0.020069 -0.006799 123885.000000 0 0 1
25.654960 -27.223048 9.562467 38.609741 -0.815044 1.320522 0.015895 -0.019223 210580.000000 0 0 1
25.230960 -25.896428 9.791167 37.457887 -0.798413 1.306333 0.020593 -0.019554 -289090.000000 0 0 1
26.160760 -25.197298 10.763267 37.883203 -0.766641 1.282711 0.032636 -0.031572 467719.000000 0 0 1
27.485460 -25.066748 10.240667 38.583204 -0.739406 1.302159 0.045657 -0.023906 341478.000000 0 0 1
28.285160 -24.144188 10.996667 38.780391 -0.706580 1.283289 0.040045 -0.030017 970861.000000 0 0 1
29.647160 -23.901788 10.252367 39.438060 -0.678515 1.307814 0.058426 -0.035792 1053220.000000 0 0 1
29.422160 -23.112688 9.087867 38.502586 -0.665870 1.332515 0.059725 -0.032873 -976054.000000 0 0 1
30.708160 -22.947188 8.634067 39.295186 -0.641750 1.349266 0.052732 -0.038841 -814445.000000 0 0 1
30.821060 -22.192388 7.286567 38.672133 -0.624049 1.381244 0.043036 -0.015669 -440126.000000 0 0 1
30.326960 -20.841788 7.311067 37.517414 -0.602108 1.374670 0.035529 0.001512 -79192.200000 0 0 1
30.716760 -20.087988 6.205967 37.223119 -0.579164 1.403291 0.023429 0.001591 -313055.000000 0 0 1
30.203560 -18.596688 6.257967 36.017412 -0.551892 1.396162 0.023306 -0.004119 -188324.000000 0 0 1
30.830460 -17.813688 7.279467 36.343299 -0.523932 1.369135 0.020352 0.003040 -30773.600000 0 0 1
30.559060 -16.454088 7.179067 35.441955 -0.493921 1.366827 0.015176 0.013249 -64910.700000 0 0 1
31.072360 -15.684788 8.363167 35.797300 -0.467466 1.334991 0.007632 -0.001630 416897.000000 0 0 1
32.454460 -15.758088 8.710667 37.114485 -0.452017 1.333889 -0.002618 0.007126 284866.000000 0 0 1
32.663660 -14.961688 9.878567 37.260607 -0.429531 1.302467 -0.002603 -0.000585 -246878.000000 0 0 1
34.128960 -14.861988 10.332667 38.631963 -0.410702 1.300036 -0.016408 -0.000906 63356.000000 0 0 1
34.842960 -14.031688 9.421867 38.725853 -0.382842 1.325033 -0.006645 0.001867 -508934.000000 0 0 1
-34.268467 -14.508488 9.047867 38.297362 0.400495 1.332288 -0.007270 -0.003375 -539055.000000 0 0 1
-33.375567 -13.487288 8.321367 36.946997 0.384042 1.343623 0.005234 -0.002983 -449325.000000 0 0 1
-33.796067 -13.216288 7.028967 36.962830 0.372776 1.379468 0.024787 -0.005622 259329.000000 0 0 1
-32.698867 -12.914388 6.158667 35.692107 0.376145 1.397379 0.022744 -0.001915 540583.000000 0 0 1
-31.830467 -14.159888 5.764567 35.311631 0.418566 1.406814 0.011917 0.006511 -208320.000000 0 0 1
-30.932867 -14.638388 6.721267 34.875494 0.442004 1.376861 0.011714 0.005583 -808359.000000 0 0 1
-30.167367 -15.627888 6.189067 34.534120 0.477975 1.390607 0.006548 0.008477 -789073.000000 0 0 1
-29.343167 -16.304288 7.268867 34.346582 0.507164 1.357551 -0.005261 -0.012505 -729193.000000 0 0 1
-30.088267 -17.036888 8.186767 35.532837 0.515219 1.338308 0.013790 -0.017377 -273307.000000 0 0 1
-30.379467 -16.272988 9.348667 35.708819 0.491765 1.305907 -0.007623 -0.015580 344583.000000 0 0 1
-31.345967 -17.072088 10.285167 37.145801 0.498714 1.290244 -0.022555 -0.012926 115422.000000 0 0 1
-32.680767 -17.204788 9.859367 38.226226 0.484583 1.309926 0.004782 -0.014725 -375222.000000 0 0 1
-33.493967 -17.903788 10.759767 39.473587 0.490895 1.294721 0.018145 -0.016920 -218690.000000 0 0 1
-33.711567 -19.399788 10.328567 40.243022 0.522183 1.311237 0.011979 -0.015052 -663092.000000 0 0 1
-32.622667 -20.294788 10.431867 39.811313 0.556516 1.305668 0.017163 -0.015992 -515869.000000 0 0 1
-32.050267 -20.596488 11.671867 39.845545 0.571177 1.273509 -0.003132 -0.021893 -827970.000000 0 0 1
-32.888567 -21.351488 12.721167 41.223440 0.575818 1.257085 0.041409 -0.033334 -172106.000000 0 0 1
-33.058667 -22.738888 12.511567 42.029416 0.602514 1.268529 0.021985 -0.033250 362348.000000 0 0 1
-34.220967 -22.965288 11.701967 42.841745 0.591057 1.294136 0.030907 -0.031331 215350.000000 0 0 1
-34.567967 -24.417088 11.570067 43.874879 0.614975 1.303934 0.023672 -0.025295 -281832.000000 0 0 1
-34.691467 -25.024128 12.832267 44.658392 0.624901 1.279345 0.045483 -0.020247 -24481.200000 0 0 1
35.034860 -26.246578 12.750067 45.594829 -0.642961 1.287379 0.042219 -0.008068 -406160.000000 0 0 1
33.718760 -26.340828 13.544167 44.880268 -0.663167 1.264233 0.052634 -0.022808 -64357.700000 0 0 1
32.847960 -25.285418 13.130167 43.482665 -0.656035 1.264045 0.040607 -0.023458 -88284.400000 0 0 1
31.761360 -25.078098 13.996967 42.820673 -0.668354 1.237802 0.034007 0.001471 -254130.000000 0 0 1
31.326960 -23.614188 14.267767 41.744191 -0.645927 1.221975 0.034992 -0.004855 266727.000000 0 0 1
32.129460 -22.883788 15.200767 42.273316 -0.618892 1.202975 0.043826 -0.011588 318436.000000 0 0 1
33.408560 -22.529888 14.675967 42.884866 -0.593320 1.221520 0.038930 -0.023955 -135316.000000 0 0 1
34.402160 -22.142788 15.740367 43.835725 -0.571895 1.203518 0.033835 -0.022083 -430509.000000 0 0 1
34.298460 -20.828988 16.230267 43.285710 -0.545760 1.186446 0.030750 -0.005368 73408.400000 0 0 1
33.409460 -20.681788 17.335567 42.947063 -0.554302 1.155294 0.025077 -0.004767 191001.000000 0 0 1
33.370860 -19.287888 17.895267 42.495617 -0.524075 1.136129 0.020892 0.004202 -284859.000000 0 0 1
32.869560 -18.285388 16.996267 41.275131 -0.507668 1.146390 0.022773 -0.005280 306261.000000 0 0 1
32.774960 -16.935288 17.539567 40.848970 -0.476929 1.126995 0.005762 0.002354 575356.000000 0 0 1
34.157960 -16.263888 17.877067 41.843396 -0.444376 1.129361 0.000566 -0.001198 541155.000000 0 0 1
34.595460 -16.589088 19.180167 42.894318 -0.447127 1.107221 -0.009927 0.018164 254394.000000 0 0 1
-34.606467 -15.844988 19.521167 42.775544 0.429373 1.096893 -0.014111 0.014616 44604.700000 0 0 1
-34.263667 -15.632988 21.015467 43.128170 0.428044 1.061825 -0.024205 0.021675 -161169.000000 0 0 1
-33.591867 -16.727988 21.604167 43.301030 0.462028 1.048433 -0.006411 0.021226 185478.000000 0 0 1
-33.288067 -16.429788 22.983467 43.660888 0.458485 1.016425 -0.008200 0.020157 150461.000000 0 0 1
-32.379567 -17.533188 23.610667 43.741429 0.496286 1.000623 0.006056 0.019649 -391328.000000 0 0 1
-33.037167 -18.831888 23.651967 44.782921 0.518085 1.014379 0.000188 0.018534 301554.000000 0 0 1
-32.304267 -19.945588 24.121967 44.980679 0.553136 1.004780 0.007367 0.011440 -545969.000000 0 0 1
-31.216067 -20.468588 23.147567 43.922839 0.580377 1.015723 0.005032 0.014108 1147570.000000 0 0 1
-29.958567 -19.746988 23.355267 42.812706 0.582776 0.993785 0.012707 0.017015 1728940.000000 0 0 1
-28.817767 -20.624888 23.151967 42.330406 0.621186 0.992098 0.009126 0.014212 716921.000000 0 0 1
-27.484967 -19.851588 23.149267 41.053593 0.625517 0.971721 0.020024 0.024677 -127325.000000 0 0 1
-27.198067 -19.343888 24.447767 41.371659 0.618218 0.938585 0.029923 0.006340 -653438.000000 0 0 1
-26.063167 -18.576788 24.355867 40.219324 0.619239 0.920307 0.051990 0.006050 -706486.000000 0 0 1
-25.478167 -17.978588 25.694667 40.405229 0.614506 0.881591 0.052457 -0.013146 -466193.000000 0 0 1
-24.370867 -17.113888 25.534467 39.227966 0.612219 0.861994 0.056434 -0.012534 341449.000000 0 0 1
-23.706367 -16.794388 26.754267 39.494735 0.616364 0.826556 0.054618 -0.020680 330125.000000 0 0 1
-22.820367 -17.903888 27.401167 39.901658 0.665254 0.813833 0.028683 -0.018216 -583324.000000 0 0 1
-23.486567 -19.011088 27.949067 41.160547 0.680474 0.824362 0.041242 -0.016360 -136752.000000 0 0 1
-22.676267 -19.533288 28.993067 41.669658 0.711074 0.801286 0.026658 -0.015406 -98374.700000 0 0 1
-23.269167 -20.712588 29.744767 43.072226 0.727335 0.808507 0.028426 -0.004262 -767322.000000 0 0 1
-24.292667 -20.449588 30.633067 44.121470 0.699715 0.803364 0.027610 -0.012011 -509122.000000 0 0 1
-24.663967 -21.578088 31.317967 45.329242 0.718764 0.808063 0.016474 -0.001043 -646615.000000 0 0 1
-25.987967 -21.397088 32.073067 46.496144 0.688815 0.809583 0.025929 -0.004737 -1124570.000000 0 0 1
-25.869167 -20.513088 33.188467 46.813192 0.670430 0.782780 0.023914 -0.007733 459526.000000 0 0 1
-26.970567 -20.333488 34.091267 47.990382 0.646001 0.780762 0.021165 -0.007486 -39903.700000 0 0 1
-28.203467 -19.635088 33.531067 48.013589 0.608167 0.797684 0.028761 -0.007270 -697311.000000 0 0 1
-28.803567 -20.284888 32.440467 47.890563 0.613572 0.826591 0.038457 -0.010993 -389724.000000 0 0 1
-29.886367 -19.530388 31.961867 47.918597 0.578823 0.840617 0.035271 -0.022528 -849390.000000 0 0 1
-30.739967 -20.337188 31.026667 48.178843 0.584478 0.871095 0.045651 -0.007748 -712867.000000 0 0 1
-31.686467 -19.546688 30.354167 48.036243 0.552738 0.886792 0.038873 -0.013851 252908.000000 0 0 1
-32.169667 -20.112788 29.131767 47.833791 0.558750 0.915971 0.031597 -0.008499 -22419.900000 0 0 1
-33.201167 -19.214588 28.403967 47.731575 0.524635 0.933435 0.012964 0.002596 -99353.800000 0 0 1
-34.012567 -19.872588 27.449367 48.012938 0.528774 0.962211 0.015257 0.006340 165786.000000 0 0 1
-34.724167 -18.861988 26.769267 47.729823 0.497603 0.975384 0.006492 0.019211 -467766.000000 0 0 1
34.396760 -19.352988 25.983367 47.252625 -0.512496 0.988573 -0.001281 0.022303 -20947.400000 0 0 1
33.367760 -19.580888 26.929867 47.138480 -0.530672 0.962716 -0.006182 0.023263 -249421.000000 0 0 1
32.266260 -20.271488 26.381767 46.346978 -0.560938 0.965236 -0.001879 0.022182 255745.000000 0 0 1
31.280960 -20.589888 27.569667 46.502994 -0.582135 0.936193 0.000070 0.019342 -293405.000000 0 0 1
30.426860 -19.597688 27.989467 45.752305 -0.572211 0.912512 -0.004430 0.022452 -371325.000000 0 0 1
29.533660 -20.036388 28.956967 45.958675 -0.596099 0.889159 -0.001118 0.017220 -570598.000000 0 0 1
-29.595890 -6.007888 34.428940 45.796979 0.200276 0.720049 -0.002085 0.002015 182366.000000 0 0 1
-30.293600 -5.736788 33.227865 45.328842 0.187157 0.748015 0.003940 0.007343 828803.000000 0 0 1
-29.491630 -4.790288 32.492414 44.141364 0.161022 0.743507 0.008715 0.004810 470300.000000 0 0 1
-29.964640 -4.640688 30.985934 43.353705 0.153651 0.774567 0.004500 -0.001577 240659.000000 0 0 1
-29.832700 -5.756588 30.058034 42.738901 0.190620 0.790775 0.001275 -0.000588 -105159.000000 0 0 1
-28.463140 -5.912888 29.767734 41.608059 0.204825 0.773554 0.006101 -0.004838 -398352.000000 0 0 1
-28.303040 -6.817288 28.498094 40.739156 0.236365 0.796063 0.002637 -0.007971 -152780.000000 0 0 1
-28.963920 -6.377788 27.339244 40.336325 0.216739 0.826054 -0.004503 -0.009209 -92488.200000 0 0 1
-28.748640 -7.316288 26.320294 39.658167 0.249202 0.845070 0.010549 -0.012828 -187108.000000 0 0 1
-29.285790 -6.852888 24.952804 39.080199 0.229865 0.878245 -0.001396 -0.001918 -247210.000000 0 0 1
-28.714080 -5.672988 24.426014 38.122321 0.195056 0.875351 0.007823 -0.005865 -91873.400000 0 0 1
-29.444960 -5.139688 23.336464 37.921137 0.172811 0.907910 0.012875 -0.003315 -158204.000000 0 0 1
-28.861750 -3.819888 22.776164 36.964115 0.131586 0.906926 0.008841 0.000888 876350.000000 0 0 1
-27.559380 -4.021588 22.196164 35.614074 0.144902 0.897916 0.007558 0.009942 471643.000000 0 0 1
-27.302490 -2.862088 21.488364 34.862118 0.104447 0.906657 0.011491 0.008502 243120.000000 0 0 1
-25.926240 -2.950488 20.773364 33.352780 0.113316 0.898432 0.012808 0.017382 116608.000000 0 0 1
-25.787270 -3.887288 19.755464 32.716550 0.149618 0.922490 0.021838 0.006630 601954.000000 0 0 1
-24.531340 -3.697888 19.067864 31.289686 0.149615 0.915496 0.027242 0.010274 525870.000000 0 0 1
-24.410640 -4.222788 17.626464 30.404005 0.171294 0.952385 0.029863 0.009143 96009.000000 0 0 1
-25.402030 -3.692688 16.748464 30.649798 0.144359 0.992681 0.020825 0.011072 466931.000000 0 0 1
-25.119540 -4.139788 15.424664 29.766582 0.163335 1.026066 0.032034 -0.002390 485069.000000 0 0 1
-26.386020 -4.137388 14.496564 30.388985 0.155536 1.073520 0.046185 -0.011440 518385.000000 0 0 1
-26.699280 -2.863188 14.065464 30.313144 0.106830 1.088285 0.049976 -0.011396 -115315.000000 0 0 1
-27.962720 -2.895988 13.445664 31.162258 0.103198 1.124672 0.052918 -0.017638 -197679.000000 0 0 1
-28.278440 -1.715088 12.583764 30.999400 0.060576 1.152794 0.051034 0.000508 51840.800000 0 0 1
-27.468610 -1.667588 11.377764 29.778497 0.060634 1.178750 0.065732 -0.003366 630111.000000 0 0 1
-27.836750 -0.563888 10.569464 29.781138 0.020254 1.207984 0.068046 0.006810 526950.000000 0 0 1
-29.214690 -0.615588 9.823164 30.828098 0.021068 1.246499 0.061317 0.007357 615407.000000 0 0 1
-29.105880 -1.254688 8.529264 30.355804 0.043081 1.285985 0.056357 0.002283 -65529.200000 0 0 1
-30.397850 -1.521888 8.024064 31.475880 0.050024 1.313024 0.055054 -0.004544 -35780.800000 0 0 1
-30.415880 -2.285888 6.681464 31.224878 0.075013 1.355150 0.046742 -0.005940 -507413.000000 0 0 1
-30.004880 -1.460288 5.605764 30.558957 0.048630 1.386311 0.045630 -0.012106 930089.000000 0 0 1
-31.027160 -0.563088 5.121864 31.452110 0.018146 1.407221 0.026589 -0.005498 466648.000000 0 0 1
-30.497740 0.011512 3.764164 30.729159 -0.000377 1.447993 0.019473 -0.011243 217937.000000 0 0 1
-30.318180 -0.953688 2.738364 30.456530 0.031446 1.480764 0.008473 -0.019634 509697.000000 0 0 1
-29.718140 -0.485588 1.537164 29.761830 0.016338 1.519125 -0.004986 -0.024383 -25992.700000 0 0 1
-30.373940 -1.156988 0.271464 30.397180 0.038073 1.561866 -0.003535 -0.013878 -1456620.000000 0 0 1
-31.621630 -0.646988 0.087664 31.628370 0.020457 1.568025 0.007820 -0.009440 -1149450.000000 0 0 1
-32.224720 -1.161388 -1.086236 32.263932 0.036025 1.604470 0.006233 -0.005541 -356381.000000 0 0 1
-33.727120 -0.923288 -1.251836 33.762971 0.027368 1.607882 0.022795 -0.004595 -645064.000000 0 0 1
-34.498480 -1.689388 -0.362736 34.541725 0.048931 1.581298 0.027234 -0.004007 -11684.800000 0 0 1
34.481232 -1.524288 -0.611636 34.520326 -0.044178 1.588515 0.047329 -0.007997 109987.000000 0 0 1
33.656187 -2.704888 -0.027736 33.764717 -0.080196 1.571618 0.057478 -0.013376 -115968.000000 0 0 1
33.870737 -2.886688 1.350164 34.020328 -0.085021 1.531099 0.041540 -0.012088 684366.000000 0 0 1
32.918777 -3.860988 1.813364 33.193996 -0.116755 1.516140 0.050501 -0.010031 266785.000000 0 0 1
33.098677 -4.195488 3.302864 33.526608 -0.126085 1.472122 0.047947 0.000762 -94013.400000 0 0 1
32.622367 -3.230688 4.179264 33.047276 -0.098711 1.443994 0.038678 -0.008470 21490.300000 0 0 1
32.648037 -3.776088 5.447964 33.314163 -0.115149 1.406526 0.022959 -0.002985 -245423.000000 0 0 1
32.219227 -2.796888 6.601564 33.007300 -0.086591 1.369435 0.015321 0.000579 317109.000000 0 0 1
30.804577 -2.676288 6.604964 31.618192 -0.086662 1.360349 0.027989 -0.000370 145071.000000 0 0 1
30.412997 -1.509888 7.312164 31.316096 -0.049605 1.335125 0.019177 0.005864 733524.000000 0 0 1
28.920747 -1.348088 7.760864 29.974288 -0.046579 1.308895 0.028910 0.003988 798311.000000 0 0 1
27.945967 -1.283988 6.679564 28.761820 -0.045913 1.336419 0.028182 -0.002776 613872.000000 0 0 1
26.650907 -1.275388 7.243964 27.647287 -0.047819 1.305688 0.023945 0.002572 -188841.000000 0 0 1
26.011247 -2.681588 7.317064 27.153551 -0.102730 1.297954 0.045683 -0.008228 -825576.000000 0 0 1
26.510887 -3.608988 8.265564 28.003062 -0.135301 1.271167 0.033345 -0.007689 -68368.100000 0 0 1
25.774657 -4.780088 8.244364 27.480024 -0.183374 1.266090 0.048676 -0.015662 -518746.000000 0 0 1
26.054087 -5.810088 9.350164 28.284238 -0.219411 1.233880 0.043332 -0.015436 -609541.000000 0 0 1
25.597277 -5.383188 10.589664 28.219502 -0.207283 1.186119 0.032495 -0.012244 203632.000000 0 0 1
25.920727 -6.307388 11.651864 29.110705 -0.238695 1.158995 0.027863 -0.007903 -723753.000000 0 0 1
24.877187 -6.327288 12.725264 28.650329 -0.249060 1.110562 0.029970 -0.015529 49924.200000 0 0 1
23.587387 -6.730788 12.250564 27.417962 -0.277968 1.107602 0.042081 -0.024182 402372.000000 0 0 1
22.604487 -6.495888 13.248564 26.994145 -0.279831 1.057796 0.048570 -0.028154 -188261.000000 0 0 1
21.545087 -7.557788 13.314664 26.430876 -0.337378 1.042857 0.046473 -0.033467 -481026.000000 0 0 1
22.103587 -8.779488 13.762564 27.478285 -0.378088 1.046213 0.046031 -0.028561 265123.000000 0 0 1
21.111987 -9.803488 13.649964 26.984178 -0.434728 1.040429 0.062493 -0.039050 82188.900000 0 0 1
21.398087 -11.086288 14.376164 28.061682 -0.478020 1.032929 0.056453 -0.038093 -347284.000000 0 0 1
21.311387 -10.949888 15.760564 28.678749 -0.474630 0.988964 0.054443 -0.037030 161894.000000 0 0 1
21.609187 -12.170388 16.386964 29.725543 -0.512924 0.986904 0.043594 -0.032380 -549818.000000 0 0 1
21.429787 -12.199288 17.957064 30.504336 -0.517516 0.941381 0.049323 -0.030867 134350.000000 0 0 1
20.111187 -12.017388 18.446564 29.818672 -0.538614 0.903805 0.049447 -0.027154 15674.200000 0 0 1
19.867187 -12.338888 19.763264 30.619273 -0.555767 0.869182 0.060719 -0.017014 331677.000000 0 0 1
20.339587 -11.313588 20.885364 31.271305 -0.507617 0.839445 0.044891 -0.012400 95462.600000 0 0 1
19.363187 -10.294788 21.056664 30.402282 -0.488660 0.805707 0.044858 -0.017571 119165.000000 0 0 1
19.640587 -9.057688 20.414564 29.741365 -0.432106 0.814265 0.043969 -0.009292 -935516.000000 0 0 1
20.714787 -8.206388 21.173264 30.736856 -0.377192 0.810887 0.041153 0.007500 1010990.000000 0 0 1
22.058087 -8.680888 21.154364 31.771436 -0.374931 0.842191 0.040262 0.003881 418003.000000 0 0 1
22.699187 -8.681688 19.902564 31.412368 -0.365301 0.884612 0.037673 0.002379 -1757570.000000 0 0 1
24.055887 -9.334788 19.853364 32.557334 -0.370159 0.914992 0.025860 0.003908 -939682.000000 0 0 1
24.082687 -10.690588 20.336964 33.284480 -0.417779 0.913468 0.019410 -0.006393 457397.000000 0 0 1
25.290787 -11.411088 20.031764 34.221461 -0.423848 0.945476 0.009462 -0.006194 712249.000000 0 0 1
25.235487 -12.902088 20.412664 34.928076 -0.472621 0.946631 -0.008438 -0.009606 28886.700000 0 0 1
24.276587 -13.577788 19.607964 34.032062 -0.509952 0.956772 0.020926 -0.012386 299694.000000 0 0 1
24.275587 -14.980988 19.842064 34.748261 -0.552914 0.963045 0.013103 -0.017013 -112545.000000 0 0 1
23.095187 -15.649488 19.094164 33.806526 -0.595539 0.970597 0.045175 -0.026484 -250520.000000 0 0 1
23.375787 -15.596288 17.717264 33.220070 -0.588371 1.008264 0.031357 -0.023445 447155.000000 0 0 1
22.379087 -16.209488 16.894064 32.387967 -0.626858 1.022053 0.012945 -0.020828 -8141.620000 0 0 1
22.236487 -17.763388 17.029864 33.166483 -0.674033 1.031577 0.006851 -0.019357 1036150.000000 0 0 1
23.401287 -18.376688 16.372364 33.961407 -0.665704 1.067761 0.021325 -0.009248 1374510.000000 0 0 1
23.386687 -19.743588 16.656364 34.845098 -0.701131 1.072407 0.016925 -0.005946 383448.000000 0 0 1
24.696087 -20.480688 16.230364 35.955250 -0.692359 1.102458 0.012886 0.003380 251091.000000 0 0 1
24.786387 -20.539488 14.806264 35.432485 -0.691974 1.139694 0.009913 -0.009767 419634.000000 0 0 1
25.765167 -21.507888 14.395964 36.519541 -0.695583 1.165600 0.005728 -0.009223 401973.000000 0 0 1
26.091157 -21.540888 12.865364 36.197734 -0.690158 1.207434 -0.002882 -0.027187 -246594.000000 0 0 1
24.935987 -21.917388 12.144564 35.350612 -0.721061 1.220106 -0.004779 -0.021444 202856.000000 0 0 1
24.986387 -21.594088 10.786064 34.741378 -0.712700 1.255112 0.014295 -0.015262 420984.000000 0 0 1
23.609987 -21.895588 10.112864 33.750826 -0.747741 1.266488 -0.000068 -0.022597 410451.000000 0 0 1
23.178887 -23.257888 10.259364 34.401231 -0.787099 1.267962 0.000355 -0.021555 267494.000000 0 0 1
21.762687 -23.323788 10.246564 33.505308 -0.820009 1.259998 -0.011037 -0.009690 361929.000000 0 0 1
21.207887 -24.177288 9.047864 33.409274 -0.850732 1.296553 -0.005367 -0.005803 -461679.000000 0 0 1
21.608987 -25.526168 9.132864 34.669046 -0.868313 1.304220 -0.010172 -0.007541 94706.300000 0 0 1
21.312987 -26.342498 7.979264 34.811482 -0.890548 1.339527 -0.003152 -0.003488 -191421.000000 0 0 1
19.823687 -26.632238 7.692664 34.079785 -0.930921 1.343109 -0.008524 0.001389 122245.000000 0 0 1
19.093787 -25.469018 7.287064 32.654936 -0.927496 1.345748 -0.011811 -0.000604 -507441.000000 0 0 1
17.721187 -25.747368 7.429164 32.127245 -0.967985 1.337442 -0.008842 -0.010160 -169856.000000 0 0 1
16.846887 -24.472188 7.471964 30.635532 -0.967892 1.324412 -0.003737 -0.006302 -273401.000000 0 0 1
16.793687 -23.863788 6.195564 29.831080 -0.957571 1.361585 0.003171 -0.001202 287426.000000 0 0 1
15.974387 -22.697888 6.242264 28.448919 -0.957536 1.349576 0.004967 -0.005268 -245242.000000 0 0 1
15.718287 -22.167288 4.811764 27.597215 -0.954005 1.395544 0.011551 0.004625 -294068.000000 0 0 1
15.093687 -20.917088 4.916764 26.258685 -0.945723 1.382441 0.040950 0.000488 -93205.100000 0 0 1
15.112687 -20.367188 3.626564 25.619672 -0.932428 1.428765 0.052533 0.005852 -262195.000000 0 0 1
14.266887 -19.127188 3.609564 24.133428 -0.929927 1.420666 0.051814 0.003000 -196776.000000 0 1 0
14.884687 -18.020288 4.250364 23.756058 -0.880404 1.390911 0.031141 0.006394 277826.000000 0 1 0
14.157887 -16.834788 4.055364 22.367428 -0.871556 1.388481 0.016144 0.005589 -616741.000000 0 1 0
15.101687 -15.686388 4.152364 22.166773 -0.804387 1.382359 0.005877 0.005177 -1102880.000000 0 1 0
15.486487 -15.437888 5.455564 22.537144 -0.783827 1.326298 0.015347 -0.004442 42153.400000 0 1 0
16.567787 -14.546188 5.424964 22.704920 -0.720515 1.329529 0.013821 -0.011933 -592528.000000 0 1 0
17.977987 -15.123988 5.495064 24.127552 -0.699392 1.341029 0.005006 -0.008372 -467255.000000 0 1 0
18.963887 -14.084688 5.498764 24.253739 -0.638820 1.342090 0.017027 -0.008212 -800106.000000 0 1 0
20.213887 -14.638188 5.542264 25.565494 -0.626761 1.352274 0.027637 -0.007988 -1389520.000000 0 0 1
21.380887 -13.663588 5.539964 25.971661 -0.568643 1.355837 0.028218 -0.009625 -436693.000000 0 0 1
21.600287 -13.062588 6.830864 26.150799 -0.543899 1.306520 0.044560 -0.012034 117443.000000 0 0 1
22.704387 -12.177988 6.792964 26.644642 -0.492320 1.313004 0.053255 -0.010694 66054.600000 0 0 1
22.982187 -11.361688 8.089964 26.883385 -0.459133 1.265131 0.063148 -0.013075 -83948.900000 0 0 1
23.564887 -12.085488 9.143264 28.017177 -0.473883 1.238362 0.065788 -0.014165 206807.000000 0 0 1
23.387087 -11.418988 10.360564 28.012326 -0.454212 1.191941 0.077745 -0.027609 16002.300000 0 0 1
23.740387 -12.359688 11.576364 29.161277 -0.480006 1.162575 0.057549 -0.019232 1250410.000000 0 0 1
22.612087 -13.168088 12.070264 28.816597 -0.527338 1.138601 0.051819 -0.020944 1706860.000000 0 0 1
23.146087 -14.285688 12.864164 30.088352 -0.552968 1.129020 0.046372 -0.020995 315598.000000 0 0 1
22.069287 -15.342688 13.113264 29.906675 -0.607501 1.116898 0.026769 -0.022642 -88068.800000 0 0 1
20.938987 -14.904688 13.833464 29.188279 -0.618612 1.077038 0.025808 -0.031630 608187.000000 0 0 1
20.056287 -16.081088 14.051964 29.296992 -0.675836 1.070554 0.011285 -0.036011 1758380.000000 0 0 1
18.597387 -15.765588 14.585664 28.410529 -0.703176 1.031667 0.021079 -0.039894 799333.000000 0 0 1
18.614787 -15.007288 15.795064 28.656815 -0.678512 0.987019 0.021584 -0.032644 129950.000000 0 0 1
18.498287 -13.640588 15.740964 27.857319 -0.635386 0.970294 0.027661 -0.037522 120449.000000 0 0 1
17.015087 -13.158288 15.634864 26.591403 -0.658266 0.942253 0.031760 -0.038360 849.381000 0 0 1
16.320187 -13.429888 14.477364 25.618440 -0.688549 0.970224 0.030725 -0.044652 -1041210.000000 0 0 1
14.949887 -13.289688 14.592164 24.759769 -0.726676 0.940543 0.059768 -0.040131 -631267.000000 0 1 0
14.327387 -11.933188 14.220464 23.449874 -0.694479 0.919246 0.043488 -0.039503 -597343.000000 0 1 0
14.759587 -10.991188 15.138364 23.829009 -0.640088 0.882411 0.026855 -0.028104 132296.000000 0 1 0
14.590987 -9.756388 14.610564 22.837526 -0.589380 0.876609 0.022770 -0.030524 -661549.000000 0 1 0
15.073287 -8.643688 15.586964 23.342467 -0.520664 0.839612 0.021740 -0.027487 1296520.000000 0 1 0
16.491787 -8.536388 15.884664 24.437093 -0.477640 0.863182 0.017709 -0.031969 1221720.000000 0 1 0
16.995487 -9.316688 16.921864 25.729297 -0.501449 0.853050 0.026721 -0.029124 340925.000000 0 0 1
18.558387 -9.325188 16.840064 26.738747 -0.465628 0.889501 0.040404 -0.029896 429921.000000 0 0 1
18.977387 -8.026788 17.214264 26.849607 -0.400146 0.874818 0.032489 -0.030872 -1667290.000000 0 0 1
20.254587 -7.823988 16.823864 27.468263 -0.368625 0.911598 0.030909 -0.018285 -1894330.000000 0 0 1
20.759887 -6.420988 17.094264 27.648071 -0.299965 0.904243 0.025866 -0.004619 -513466.000000 0 0 1
21.045587 -6.217888 18.465664 28.680300 -0.287276 0.871284 0.036151 -0.002890 269716.000000 0 0 1
21.551887 -4.918688 18.731564 28.974969 -0.224382 0.867843 0.038192 -0.004141 22615.800000 0 0 1
-5.531740 -33.296118 -6.034933 34.287783 1.406162 1.747726 -0.022549 0.002217 -279281.000000 0 0 1
-5.850040 -31.999818 -6.451533 33.163740 1.389978 1.766580 -0.021477 -0.000444 -65534.400000 0 0 1
-5.427940 -31.109218 -5.455833 32.047030 1.398055 1.741874 -0.014516 -0.003844 -1554260.000000 0 0 1
-6.024340 -29.778918 -5.611633 30.896069 1.371188 1.753439 -0.005678 -0.004770 -126536.000000 0 0 1
-7.329740 -29.670018 -5.077433 30.980888 1.328604 1.735428 -0.004761 -0.000374 200954.000000 0 0 1
-8.299740 -30.107518 -6.025933 31.806607 1.301807 1.761404 -0.006935 0.003636 -1786200.000000 0 0 1
-9.743040 -29.883818 -5.701433 31.944886 1.255633 1.750235 0.031465 0.007292 -492886.000000 0 0 1
-10.683240 -30.513318 -6.592033 32.994683 1.234017 1.771941 0.017595 0.003683 248174.000000 0 0 1
-11.998940 -30.185418 -6.185233 33.066466 1.192440 1.758959 0.022783 -0.000072 64489.800000 0 0 1
-13.128240 -30.861418 -6.955433 34.251363 1.168593 1.775289 0.031785 -0.010947 -82084.100000 0 0 1
-13.165740 -30.290218 -8.246533 34.041730 1.160778 1.815478 0.050090 -0.014160 -66090.400000 0 0 1
-14.175840 -30.832318 -9.071733 35.126666 1.139846 1.832015 0.056335 -0.015001 163164.000000 0 0 1
-14.171040 -30.137718 -10.446233 34.903069 1.131264 1.874748 0.059311 -0.013250 -191611.000000 0 0 1
-14.547840 -28.759018 -10.513433 33.900635 1.102477 1.886121 0.056601 -0.025181 27867.800000 0 0 1
-13.624040 -27.784118 -10.031533 32.530038 1.114896 1.884283 0.056546 -0.021319 -173614.000000 0 0 1
-14.230440 -26.460518 -9.562933 31.529576 1.077369 1.878951 0.041936 -0.008073 -277645.000000 0 0 1
-14.639240 -25.662318 -10.628233 31.397791 1.052383 1.916121 0.056909 -0.013078 60982.600000 0 0 1
-15.177940 -24.470018 -10.066233 30.503782 1.015608 1.907099 0.038544 -0.002286 -273721.000000 0 0 1
-15.729640 -23.550518 -11.204133 30.456216 0.981933 1.947521 0.043476 -0.004717 311481.000000 0 0 1
-16.941240 -24.044318 -11.775633 31.682809 0.957001 1.951606 0.034450 -0.004278 80079.900000 0 0 1
-17.452740 -23.231018 -12.820233 31.759042 0.926484 1.986323 0.037785 -0.000814 -871888.000000 0 0 1
-18.875340 -23.654818 -13.133133 32.989515 0.897307 1.980241 0.016347 0.008860 -794244.000000 0 0 1
-19.035340 -24.979618 -13.650733 34.244241 0.919637 1.980817 0.034714 0.007079 -195963.000000 0 0 1
-19.115240 -25.877418 -12.581733 34.544655 0.934577 1.943588 0.046746 -0.004407 -1355020.000000 0 0 1
-19.343540 -27.359618 -12.914233 35.909590 0.955381 1.938670 0.043114 -0.007563 432291.000000 0 0 1
-18.347540 -27.997318 -13.701733 36.169318 0.990682 1.959319 0.059463 -0.008125 1883970.000000 0 0 1
-16.938940 -27.879218 -13.308133 35.231874 1.024820 1.958140 0.067717 -0.014867 1135030.000000 0 0 1
-16.041840 -28.973918 -13.847433 35.896796 1.065144 1.966824 0.060369 -0.013647 -361626.000000 0 0 1
-15.974240 -29.182618 -15.271733 36.606385 1.069960 2.001145 0.059878 -0.012984 -133139.000000 0 0 1
-15.343140 -30.423318 -15.639133 37.490969 1.103697 2.001097 0.058850 -0.011523 -213333.000000 0 0 1
-16.061440 -31.741718 -15.425533 38.774394 1.102357 1.979944 0.056059 -0.015773 -443696.000000 0 0 1
-16.261440 -32.042018 -14.049633 38.581311 1.101164 1.943523 0.064342 -0.012796 18008.400000 0 0 1
-16.515540 -33.434118 -13.793233 39.759988 1.111982 1.925073 0.041436 -0.000321 -1169960.000000 0 0 1
-17.110640 -33.685318 -12.379233 39.758271 1.100805 1.887423 0.050607 -0.011021 -397453.000000 0 0 1
-18.467740 -33.425118 -12.171533 40.080446 1.066027 1.879346 0.053450 -0.007262 -274361.000000 0 0 1
-18.942640 -32.086618 -12.261733 39.226583 1.037496 1.888712 0.059927 -0.011958 -297617.000000 0 0 1
-18.254140 -31.015418 -11.319333 37.726610 1.038838 1.875526 0.062771 -0.014592 -79535.400000 0 0 1
-18.513240 -31.289818 -9.980933 37.701616 1.036525 1.838725 0.044896 -0.019318 150055.000000 0 0 1
-18.319040 -30.149718 -9.153433 36.446921 1.024806 1.824658 0.048381 -0.013060 -165881.000000 0 0 1
-18.645740 -30.523018 -7.690833 36.585068 1.022419 1.782594 0.043281 -0.019785 81625.700000 0 0 1
-17.682540 -31.369718 -7.055333 36.694811 1.057510 1.764272 0.049112 -0.027626 299392.000000 0 0 1
-17.965140 -31.496218 -5.688833 36.703145 1.052433 1.726420 0.042444 -0.035774 -28049.400000 0 0 1
-17.157740 -32.659618 -5.048933 37.236144 1.087075 1.706808 0.042553 -0.028484 371420.000000 0 0 1
-15.811340 -32.373418 -4.703033 36.333940 1.116468 1.700600 0.023724 -0.020761 326522.000000 0 0 1
-15.704740 -31.921418 -3.336433 35.731605 1.113584 1.664307 0.020766 -0.014510 -99636.300000 0 0 1
-14.312940 -31.394218 -2.936133 34.627707 1.143038 1.655690 0.029227 -0.005058 -43172.100000 0 0 1
-13.172740 -32.191018 -3.115233 34.921160 1.182379 1.660123 0.020157 -0.004272 -344198.000000 0 0 1
-12.109140 -31.514018 -2.471933 33.850777 1.203944 1.643886 0.014441 0.003324 -211989.000000 0 0 1
-10.760940 -32.227118 -2.458533 34.065076 1.248527 1.643031 0.016738 -0.003813 -845058.000000 0 0 1
-10.745040 -33.436118 -1.776233 35.165109 1.259860 1.621329 0.015256 0.001052 66922.700000 0 0 1
-9.501940 -34.121518 -1.712933 35.461233 1.299204 1.619120 0.017634 -0.004107 919611.000000 0 0 1
-8.289440 -33.488118 -0.948733 34.511867 1.328140 1.598290 0.023457 -0.000235 79774.800000 0 0 1
-8.672340 -33.303918 0.400267 34.416866 1.316054 1.559166 0.031185 0.000172 -209629.000000 0 0 1
-7.602740 -32.936818 1.224367 33.825061 1.343942 1.534591 0.039487 -0.006243 135668.000000 0 0 1
-6.830340 -34.149018 1.852767 34.874658 1.373386 1.517645 0.038458 -0.010670 -5531.810000 0 0 1
-7.590740 34.341912 2.876167 35.288222 -1.353260 1.489201 0.040067 -0.014699 396895.000000 0 0 1
-6.897440 33.284712 3.611967 34.183228 -1.366463 1.464934 0.036608 -0.012337 -186779.000000 0 0 1
-6.054040 33.744112 4.780267 34.614556 -1.393275 1.432254 0.038506 -0.012475 -776571.000000 0 0 1
-4.989140 34.543512 4.437467 35.182906 -1.427358 1.444334 0.033430 -0.013730 -693872.000000 0 0 1
-4.282340 -34.033518 5.546367 34.747388 1.445627 1.410491 0.026619 -0.015085 -73652.700000 0 0 1
-3.176540 -33.059218 5.176767 33.612516 1.475004 1.416168 0.037696 -0.012525 -273385.000000 0 0 1
-3.653140 -31.853718 4.640967 32.396657 1.456610 1.427047 0.031608 -0.005667 13200.100000 0 0 1
-3.700740 -31.919618 3.242267 32.296591 1.455372 1.470237 0.022436 -0.008462 -128341.000000 0 0 1
-4.184040 -30.599718 2.613767 30.994850 1.434904 1.486367 0.020993 -0.004670 179286.000000 0 0 1
-3.413940 -29.457718 3.000567 29.806301 1.455418 1.469957 0.016050 -0.001305 134588.000000 0 0 1
-3.785440 -28.370818 2.226067 28.708679 1.438153 1.493179 0.020922 -0.004059 205188.000000 0 0 1
-2.819340 -27.175518 2.463267 27.432192 1.467421 1.480880 0.016278 -0.006666 11487.000000 0 0 1
-3.198740 -26.020518 1.748767 26.274655 1.448479 1.504190 0.019895 -0.009591 -293643.000000 0 0 1
-2.983840 -24.733218 2.343667 25.022553 1.450736 1.476997 0.005743 -0.006056 426767.000000 0 0 1
-4.021140 -24.295618 3.456367 24.867511 1.406774 1.431354 -0.001230 -0.005835 345603.000000 0 1 0
-3.961840 -25.075618 4.644167 25.807966 1.414096 1.389860 0.005478 -0.006506 -218314.000000 0 0 1
-4.878040 -24.461718 5.497367 25.541965 1.373963 1.353870 -0.002667 -0.002821 -248523.000000 0 0 1
-5.526340 -25.290818 6.639267 26.725378 1.355666 1.319742 0.010400 -0.002452 -738390.000000 0 0 1
-4.651740 -25.794818 7.551167 27.276940 1.392378 1.290299 0.009293 -0.011186 -494780.000000 0 0 1
-5.386340 -26.575018 8.488867 28.413116 1.370821 1.267397 0.011100 -0.008797 1191130.000000 0 0 1
-4.396040 -27.132318 9.619667 29.120884 1.410170 1.234137 0.010466 -0.001452 840732.000000 0 0 1
-4.105140 -26.188118 10.653667 28.568695 1.415306 1.188649 0.010665 -0.002802 -350019.000000 0 0 1
-5.183740 -25.846718 11.486767 28.755345 1.372865 1.159863 0.010918 -0.005945 -165744.000000 0 0 1
-4.872340 -24.791118 12.548367 28.209941 1.376734 1.109822 0.000293 -0.001960 385278.000000 0 0 1
-3.944640 -25.278018 13.509867 28.931901 1.415995 1.084953 -0.006320 -0.005918 -201779.000000 0 0 1
-3.429940 -24.290318 14.365467 28.427992 1.430518 1.041034 -0.004520 -0.007406 -344958.000000 0 0 1
-2.468340 -25.001118 15.337167 29.434288 1.472386 1.022698 -0.000077 -0.008167 -36782.100000 0 0 1
-3.035140 -25.884518 16.258667 30.717497 1.454072 1.013025 -0.007693 -0.001902 216431.000000 0 0 1
-1.946640 -26.462318 16.973667 31.498398 1.497366 1.001696 -0.020935 0.007636 576530.000000 0 0 1
-2.492840 -26.970218 18.293667 32.684326 1.478629 0.976763 -0.019820 -0.003326 3850.670000 0 0 1
-2.591640 -25.859818 19.187067 32.304649 1.470911 0.934847 -0.019339 -0.003990 -242887.000000 0 0 1
-2.638840 -26.340718 20.474567 33.466473 1.470948 0.912471 -0.010045 -0.006356 115846.000000 0 0 1
-2.838140 -25.222718 21.493567 33.259796 1.458744 0.868159 -0.007624 -0.009854 84256.500000 0 0 1
-2.838340 -25.733918 22.823367 34.513719 1.460945 0.848267 0.004452 -0.013870 -143015.000000 0 0 1
-3.057740 -24.707918 23.777367 34.426650 1.447667 0.808385 0.008546 -0.009432 431738.000000 0 0 1
-1.975540 -23.564518 24.016567 33.704373 1.487157 0.777649 0.007152 0.000746 606120.000000 0 0 1
-2.213540 -22.472418 23.122267 32.319477 1.472613 0.773559 0.006053 -0.000645 69255.800000 0 0 1
-1.090340 -21.604018 23.028067 31.594530 1.520370 0.754137 0.004205 -0.002295 -389058.000000 0 0 1
-1.366240 -20.485018 21.964967 30.065967 1.504200 0.751656 0.012358 -0.003128 216864.000000 0 0 1
-2.173240 -19.392118 22.436867 29.735337 1.459194 0.715825 0.016215 -0.011201 1529510.000000 0 0 1
-3.568640 -19.709918 22.703167 30.276226 1.391679 0.722934 0.017752 -0.010154 489047.000000 0 0 1
-4.573440 -19.495518 21.569167 29.431625 1.340374 0.748285 0.009481 -0.003924 -434239.000000 0 0 1
-4.658240 -20.404018 20.507967 29.301875 1.346343 0.795559 0.005016 -0.001646 -134227.000000 0 0 1
-5.184340 -21.661018 20.822867 30.490472 1.335876 0.819030 0.005341 -0.003132 -129694.000000 0 0 1
-5.111140 -22.413818 19.445067 30.110026 1.346595 0.868725 -0.008763 -0.001636 -109337.000000 0 0 1
-5.768740 -23.649818 19.350367 31.097090 1.331545 0.899174 -0.000799 -0.012396 -428915.000000 0 0 1
-5.518240 -24.283318 18.106967 30.789492 1.347347 0.942102 0.006863 -0.011226 141036.000000 0 0 1
-6.103840 -25.730618 17.971267 31.973239 1.337881 0.973907 -0.002980 -0.017931 -178488.000000 0 0 1
-7.499140 -25.697118 17.990367 32.252633 1.286853 0.979069 0.015054 -0.020205 -1063860.000000 0 0 1
-8.051840 -26.945618 17.663567 33.209940 1.280424 1.009982 0.027966 -0.025052 -39804.900000 0 0 1
-9.537640 -27.075518 18.025067 33.896214 1.232109 1.010104 0.023541 -0.029030 -493983.000000 0 0 1
-10.394140 -26.217718 17.326067 33.099842 1.193350 1.019903 0.038998 -0.025375 -839032.000000 0 0 1
-11.722040 -26.404518 17.716867 33.889411 1.152993 1.020682 0.044271 -0.020026 -125451.000000 0 0 1
-12.265240 -25.467618 18.868567 33.986152 1.121976 0.982212 0.043041 -0.026652 -454498.000000 0 0 1
-12.446740 -24.163118 18.336067 32.787025 1.095131 0.977318 0.046251 -0.019114 -158504.000000 0 0 1
-12.570940 -23.096918 19.246567 32.587214 1.072364 0.938973 0.035767 -0.016361 893030.000000 0 0 1
-11.169140 -22.615618 19.809467 32.072276 1.112066 0.905044 0.038793 -0.023553 676938.000000 0 0 1
-10.589640 -23.630318 20.571867 33.071652 1.149492 0.899452 0.044263 -0.023132 -352243.000000 0 0 1
-9.199840 -23.399218 20.429467 32.396352 1.196193 0.888457 0.036658 -0.028063 391755.000000 0 0 1
-8.251040 -24.348818 21.231067 33.342208 1.244073 0.880504 0.029684 -0.025616 296291.000000 0 0 1
-8.422240 -24.229018 22.598967 34.186149 1.236253 0.848571 0.035976 -0.024115 275613.000000 0 0 1
-7.310940 -24.849418 23.222667 34.788442 1.284660 0.839897 0.025228 -0.017396 284657.000000 0 0 1
-7.166140 -24.471218 24.748867 35.534498 1.285922 0.800324 0.026264 -0.013456 323036.000000 0 0 1
-5.958240 -25.017418 25.257667 36.046104 1.336988 0.794412 0.021614 -0.014700 81570.900000 0 0 1
-5.934940 -24.717218 26.620567 36.807866 1.335144 0.762328 0.018529 -0.009222 -548388.000000 0 0 1
-4.769440 -25.223018 27.440367 37.575550 1.383912 0.752077 0.030916 -0.006058 1500.150000 0 0 1
-3.514640 -24.671418 27.012867 36.752232 1.429290 0.745131 0.037051 -0.007775 367938.000000 0 0 1
-2.612040 -24.792918 28.113367 37.574898 1.465829 0.725458 0.025154 -0.008054 943433.000000 0 0 1
-1.249840 -24.051218 27.841067 36.812338 1.518877 0.713162 0.008638 -0.001236 61961.500000 0 0 1
-1.564640 -22.681118 27.713467 35.845746 1.501921 0.687033 0.007549 -0.004178 1152550.000000 0 0 1
-0.496640 -21.861618 27.122467 34.839708 1.548083 0.678535 0.009823 -0.010887 836908.000000 0 0 1
0.719560 -21.508418 27.983667 35.301777 -1.537354 0.655573 0.019348 -0.006102 -546304.000000 0 0 1
1.350160 -22.679018 28.329567 36.314256 -1.511333 0.675935 0.018916 -0.011539 -552352.000000 0 0 1
2.231360 -22.532318 29.436367 37.137367 -1.472089 0.655678 0.026103 -0.012528 38533.800000 0 0 1
2.950260 -23.793918 29.900467 38.326134 -1.447434 0.675877 0.019228 -0.010024 -792220.000000 0 0 1
3.848160 -24.257618 28.940767 37.957982 -1.413470 0.703717 0.014022 -0.018953 -294106.000000 0 0 1
4.341360 -25.536418 29.287967 39.099119 -1.402400 0.724140 -0.015149 -0.002334 -1219590.000000 0 0 1
5.554860 -25.548518 30.254867 39.986751 -1.356704 0.712665 -0.023480 0.002212 -124779.000000 0 0 1
6.730360 -24.984318 29.692067 39.384423 -1.307659 0.716812 -0.030017 0.006420 253445.000000 0 0 1
7.356660 -25.853618 28.790967 39.388448 -1.293573 0.751084 -0.028773 0.014489 -1669380.000000 0 0 1
8.444060 -25.201418 27.929267 38.554606 -1.247490 0.760621 -0.023080 0.010956 -681377.000000 0 0 1
7.998760 -24.354318 26.919667 37.172321 -1.253463 0.760943 -0.007834 0.008051 504013.000000 0 0 1
9.126560 -23.863018 26.197867 36.593251 -1.205505 0.772854 -0.018100 0.003818 372928.000000 0 0 1
8.772560 -22.554618 25.450667 35.119867 -1.199854 0.760226 0.003602 0.000741 230801.000000 0 0 1
7.886960 -22.881518 24.378967 34.352614 -1.238863 0.781769 0.010706 0.001161 219421.000000 0 0 1
7.541060 -21.758418 23.554267 32.940854 -1.237170 0.774105 0.010274 0.014529 141773.000000 0 0 1
6.757960 -22.219718 22.274167 32.179566 -1.275543 0.806286 0.035731 0.009335 -81705.900000 0 0 1
7.416160 -23.192818 21.529267 32.502548 -1.261310 0.846796 0.031566 0.005341 -363455.000000 0 0 1
6.883660 -23.328818 20.238867 31.642223 -1.283868 0.876798 0.044737 -0.003337 -447010.000000 0 0 1
7.481860 -24.280118 19.255367 31.879014 -1.271882 0.922268 0.034860 -0.012065 617244.000000 0 0 1
8.821360 -23.906918 18.875867 31.712072 -1.217307 0.933249 0.041697 -0.012614 413810.000000 0 0 1
9.293960 -24.772518 17.835967 31.908887 -1.211875 0.977659 0.051201 -0.019874 -586462.000000 0 0 1
10.677260 -24.345918 17.409167 31.777456 -1.157493 0.991008 0.045976 -0.018403 -788892.000000 0 0 1
10.660460 -23.298118 16.468767 30.457643 -1.141667 0.999515 0.057396 -0.011379 26550.100000 0 0 1
11.970260 -22.934718 16.066367 30.453515 -1.089761 1.015059 0.060178 -0.018725 226199.000000 0 0 1
-11.957540 22.565812 11.674767 28.080221 -1.083519 1.142013 -0.019050 -0.009707 -511867.000000 0 0 1
-12.869340 21.712012 11.045767 27.550687 -1.035740 1.158270 -0.025228 -0.011812 -300937.000000 0 0 1
-12.307740 20.495512 10.677167 26.182979 -1.030003 1.150764 -0.009951 -0.021917 62748.900000 0 0 1
-13.183140 19.816412 9.561567 25.649736 -0.983766 1.188799 -0.010019 -0.021282 -279528.000000 0 0 1
-13.208240 20.581512 8.412867 25.861798 -1.000241 1.239466 -0.008591 -0.022210 -332432.000000 0 0 1
-13.840740 19.974012 7.321267 25.379681 -0.964826 1.278168 -0.007798 -0.024715 -497384.000000 0 0 1
-15.367940 19.900312 7.351567 26.196213 -0.913209 1.286341 0.001376 -0.021868 -842907.000000 0 0 1
-15.946940 18.988912 8.244767 26.131588 -0.872252 1.249803 0.002595 -0.025484 -280514.000000 0 0 1
-17.312240 19.275712 8.403967 27.237720 -0.839011 1.257137 0.012919 -0.021369 -273020.000000 0 0 1
-18.119140 18.490512 9.468867 27.565590 -0.795542 1.220152 0.016825 -0.017128 -401.039000 0 0 1
-18.378140 17.195112 8.972567 26.719560 -0.752154 1.228336 0.020622 -0.022428 137588.000000 0 0 1
-18.947340 16.249312 9.845067 26.832204 -0.708892 1.195109 0.031490 -0.021882 -225739.000000 0 0 1
-17.899240 15.450612 10.645367 25.931218 -0.712107 1.147769 0.031407 -0.019741 -12927.200000 0 0 1
-17.173340 14.479812 9.923467 24.557357 -0.700508 1.154809 0.020936 -0.009668 330832.000000 0 1 0
-16.347740 13.638312 10.772967 23.860197 -0.695287 1.102346 0.011577 -0.006959 561955.000000 0 1 0
-17.104840 12.580712 11.664567 24.226267 -0.634160 1.068449 0.016195 -0.003547 -344742.000000 0 1 0
-17.861440 11.640612 10.994667 23.987864 -0.577582 1.094666 -0.000619 -0.001663 -290947.000000 0 1 0
-18.921040 11.295912 11.885967 25.037564 -0.538213 1.076144 0.020411 0.003592 555300.000000 0 0 1
-20.149240 10.595612 11.202067 25.372134 -0.484118 1.113515 0.029851 0.005465 113522.000000 0 0 1
-19.960440 9.299612 10.565367 24.423942 -0.435999 1.123441 0.044266 0.002988 -354606.000000 0 1 0
-19.278140 9.356612 9.351567 23.380434 -0.451858 1.159308 0.036282 0.004611 -673729.000000 0 1 0
-20.004840 9.750612 8.022667 23.656527 -0.453527 1.224803 0.040447 0.003851 -166821.000000 0 1 0
-20.640640 8.611212 7.514767 23.593659 -0.395243 1.246641 0.033950 0.004829 370760.000000 0 1 0
-21.311640 8.829512 6.286067 23.909432 -0.392777 1.304758 0.026297 0.004981 25086.100000 0 1 0
-21.541140 7.586812 5.431767 23.475190 -0.338634 1.337297 0.030070 0.004884 683826.000000 0 1 0
-22.598440 6.690712 5.878967 24.290273 -0.287847 1.326339 0.035131 0.009101 900544.000000 0 1 0
-22.144040 5.390912 5.736967 23.501771 -0.238802 1.324197 0.028026 0.015081 -212730.000000 0 1 0
-23.158940 4.202512 5.741267 24.227252 -0.179511 1.331545 0.052234 0.008935 -190468.000000 0 1 0
-23.982840 4.044112 4.623267 24.756940 -0.167054 1.382947 0.032967 0.003045 -82742.900000 0 1 0
-24.734340 2.873012 4.767967 25.353013 -0.115637 1.381607 0.035933 -0.006410 -921937.000000 0 0 1
-25.808480 2.665212 3.726167 26.211931 -0.102904 1.428158 0.029662 -0.019905 -648252.000000 0 0 1
-25.280570 2.633612 2.402567 25.530677 -0.103801 1.476552 0.022771 -0.012838 68574.700000 0 0 1
-26.293410 2.636412 1.431167 26.463982 -0.099935 1.516690 0.013049 -0.014532 -436415.000000 0 0 1
-25.886140 2.950812 0.011367 26.053784 -0.113502 1.570360 0.028310 -0.010766 -389146.000000 0 0 1
-25.529810 4.300012 -0.250433 25.890617 -0.166865 1.580469 0.035403 -0.014746 332194.000000 0 0 1
-25.536670 4.601012 -1.629033 25.998934 -0.178260 1.633495 0.064598 -0.013896 415087.000000 0 0 1
-26.904950 5.172212 -2.132333 27.480447 -0.189923 1.648469 0.055289 -0.022127 720963.000000 0 0 1
-27.962350 4.236612 -2.171133 28.364691 -0.150368 1.647415 0.023294 -0.015710 -572554.000000 0 0 1
-29.215860 4.837312 -2.287633 29.701841 -0.164083 1.647893 0.006210 0.007321 -701881.000000 0 0 1
-30.203990 3.661912 -2.376333 30.517824 -0.120651 1.648742 -0.001464 0.013458 -535798.000000 0 0 1
-30.202940 3.116412 -3.695533 30.587360 -0.102819 1.691911 -0.005768 0.016627 400998.000000 0 0 1
-31.103780 2.022712 -3.690533 31.387203 -0.064940 1.688650 0.014108 0.005289 91439.000000 0 0 1
-31.201530 1.429912 -5.111233 31.649721 -0.045796 1.733000 0.011218 -0.002224 354349.000000 0 0 1
-29.961220 0.859112 -5.552433 30.483476 -0.028666 1.753965 0.028335 -0.005828 738746.000000 0 0 1
-30.044960 0.010212 -6.717533 30.786766 -0.000340 1.790761 0.038037 -0.006414 -217279.000000 0 0 1
-30.276250 0.786712 -8.021733 31.330790 -0.025979 1.829713 0.039097 -0.010306 -48106.600000 0 0 1
-31.615790 1.216712 -8.200933 32.684765 -0.038465 1.824416 0.023234 -0.011233 392672.000000 0 0 1
-31.749150 1.949912 -9.420133 33.174532 -0.061339 1.858715 0.046934 -0.009733 -464746.000000 0 0 1
-33.203950 2.410912 -9.598333 34.647407 -0.072482 1.851497 0.059184 -0.010686 -147305.000000 0 0 1
-33.649290 3.316212 -8.583333 34.884747 -0.098235 1.819397 0.027383 -0.006668 -411737.000000 0 0 1
-35.024227 3.110712 -8.433833 36.159404 -0.088584 1.806205 0.025691 -0.003279 -421360.000000 0 0 1
34.833465 3.737812 -7.073533 35.740403 0.106896 1.770026 0.029720 0.001784 23200.300000 0 0 1
33.455917 3.563112 -6.811533 34.327702 0.106102 1.770549 0.035190 -0.003430 196441.000000 0 0 1
33.134437 4.210012 -5.624533 33.871086 0.126381 1.737626 0.027015 -0.012715 172401.000000 0 0 1
31.747747 3.868812 -5.017233 32.373751 0.121263 1.726402 0.027622 -0.011503 241761.000000 0 0 1
31.755677 2.569212 -4.539533 32.181225 0.080730 1.712330 0.044867 -0.013505 821465.000000 0 0 1
30.417817 2.030612 -4.459533 30.809973 0.066658 1.716050 0.057772 -0.016398 884641.000000 0 0 1
30.499077 0.698412 -3.765933 30.738636 0.022895 1.693620 0.072546 -0.008920 18313.300000 0 0 1
31.297257 -0.283988 -4.434233 31.611096 -0.009074 1.711535 0.057030 -0.012433 493220.000000 0 0 1
31.088287 -1.548388 -3.826833 31.361182 -0.049765 1.693126 0.064211 -0.005783 -30952.300000 0 0 1
32.265707 -2.470388 -4.191133 32.630419 -0.076415 1.699595 0.060567 -0.017849 -65761.200000 0 0 1
32.144647 -3.782588 -3.680733 32.575053 -0.117135 1.684031 0.052716 -0.019117 574483.000000 0 0 1
33.381227 -4.504988 -3.784433 33.895769 -0.134145 1.682679 0.055211 -0.020269 407171.000000 0 0 1
33.318247 -5.943188 -3.206933 33.995757 -0.176520 1.665270 0.059661 -0.016692 -81339.000000 0 0 1
33.211087 -6.116988 -1.810633 33.818223 -0.182144 1.624362 0.072756 -0.012536 -104774.000000 0 0 1
33.307577 -7.418388 -1.378033 34.151517 -0.219147 1.611158 0.077524 -0.018638 -151237.000000 0 0 1
32.867097 -7.717588 0.053067 33.761073 -0.230634 1.569224 0.068907 -0.007686 429759.000000 0 0 1
31.445417 -7.609388 0.122067 32.353237 -0.237423 1.567023 0.064134 -0.013298 596765.000000 0 0 1
30.839327 -7.785588 1.423567 31.838750 -0.247289 1.526070 0.049422 -0.007980 -227524.000000 0 0 1
30.874177 -9.136388 2.164267 32.270303 -0.287713 1.503679 0.049019 -0.012248 -268480.000000 0 0 1
29.820347 -9.986188 1.786967 31.498735 -0.323140 1.514034 0.055745 -0.021220 -169544.000000 0 0 1
28.579837 -9.713988 2.403667 30.281121 -0.327639 1.491334 0.048836 -0.024327 -899631.000000 0 0 1
27.539887 -10.789588 1.909867 29.639639 -0.373400 1.506315 0.044591 -0.025815 221482.000000 0 0 1
26.222247 -10.667388 2.462467 28.415896 -0.386360 1.484029 0.052321 -0.025992 1124760.000000 0 0 1
25.442487 -9.549688 1.989567 27.248396 -0.359072 1.497715 0.039575 -0.018189 -646112.000000 0 0 1
24.937287 -9.526388 0.515767 26.699932 -0.364906 1.551478 0.030135 -0.012161 -921054.000000 0 0 1
25.866277 -9.593988 -0.573033 27.594153 -0.355178 1.591564 0.027665 -0.016965 23591.100000 0 0 1
25.363777 -9.636888 -1.893533 27.198828 -0.363101 1.640471 0.024251 -0.013113 -494807.000000 0 0 1
24.725587 -11.015888 -2.266633 27.163248 -0.419127 1.654338 0.033769 -0.008767 341281.000000 0 0 1
23.391987 -11.099788 -1.740333 25.950320 -0.443050 1.637911 0.026472 -0.002075 392333.000000 0 0 1
22.859887 -12.376188 -1.960833 26.068934 -0.496211 1.646085 0.015099 -0.003962 -619054.000000 0 0 1
21.387887 -12.627688 -1.612933 24.889792 -0.533340 1.635645 0.015964 0.002412 -332637.000000 0 1 0
20.568587 -12.214688 -2.700633 24.074027 -0.535886 1.683213 0.016593 0.003902 275973.000000 0 1 0
19.209787 -12.467888 -2.352433 23.021687 -0.575699 1.673158 0.025576 0.003433 -1430.630000 0 1 0
18.238287 -11.951188 -3.412533 22.070600 -0.580078 1.726038 0.024755 0.006399 -312810.000000 0 1 0
18.094987 -12.887088 -4.480333 22.662281 -0.618861 1.769807 0.011324 0.004135 373811.000000 0 1 0
17.329387 -12.389888 -5.579333 22.021488 -0.620698 1.826947 0.019442 0.004592 -291244.000000 0 1 0
17.384787 -13.174288 -6.921433 22.884469 -0.648478 1.878059 0.011173 0.001200 -269171.000000 0 1 0
16.607287 -14.345888 -7.057933 23.052568 -0.712469 1.881960 -0.001534 0.004621 328813.000000 0 1 0
16.740787 -14.880188 -8.358333 23.906812 -0.726625 1.927963 -0.001437 0.000725 -271585.000000 0 1 0
15.913787 -16.140588 -8.681433 24.272092 -0.792474 1.936569 0.002714 0.002183 385886.000000 0 1 0
14.490587 -15.959488 -8.565633 23.195957 -0.833600 1.949023 0.006169 0.008832 1269060.000000 0 1 0
13.735187 -16.933988 -9.321333 23.712920 -0.889323 1.974787 0.005388 0.011614 272502.000000 0 1 0
13.670087 -16.628088 -10.841133 24.101758 -0.882719 2.037345 0.006787 0.004448 86239.400000 0 1 0
12.841087 -15.506488 -11.376333 23.125000 -0.879148 2.085124 0.006398 0.007511 1039110.000000 0 1 0
13.192787 -14.201288 -10.847533 22.212500 -0.822196 2.080997 0.006081 0.007759 -107486.000000 0 1 0
13.132287 -13.028388 -11.838633 21.962447 -0.781427 2.140093 0.021206 0.009589 143992.000000 0 1 0
14.245587 -12.819988 -12.716233 22.999813 -0.732775 2.156618 0.028453 0.001402 433828.000000 0 1 0
13.821587 -12.240788 -13.906233 23.113989 -0.724818 2.216345 0.038902 -0.002899 -280866.000000 0 1 0
14.975787 -11.898288 -14.891433 24.240425 -0.671379 2.232323 0.042364 -0.006196 248228.000000 0 1 0
15.710287 -13.010388 -15.321033 25.511122 -0.691668 2.215001 0.041590 -0.000917 -179619.000000 0 0 1
16.914187 -12.587988 -15.914233 26.416093 -0.639796 2.217357 0.044905 -0.000204 225321.000000 0 0 1
17.889687 -13.742788 -16.362633 27.868277 -0.655045 2.198320 0.040650 0.000749 317443.000000 0 0 1
18.695687 -14.208388 -15.281333 28.016533 -0.649859 2.147710 0.023983 -0.011736 -204677.000000 0 0 1
19.867987 -14.838388 -15.696433 29.347788 -0.641481 2.135117 0.018092 -0.004504 -656858.000000 0 0 1
20.920987 -14.856488 -14.597933 29.521222 -0.617488 2.088044 0.006352 -0.003749 -380967.000000 0 0 1
21.319587 -13.534988 -14.382933 29.061821 -0.565659 2.088525 0.009773 -0.007382 -175092.000000 0 0 1
22.268287 -13.332888 -13.363033 29.192690 -0.539492 2.046262 0.027289 -0.004486 365982.000000 0 0 1
23.047987 -11.984688 -13.299733 29.184334 -0.479510 2.043971 0.037465 -0.011075 21774.200000 0 0 1
22.330187 -10.999288 -12.573533 27.887548 -0.457690 2.038531 0.020571 -0.005375 476219.000000 0 0 1
22.958287 -9.712788 -12.663333 27.960350 -0.400228 2.040815 0.025404 -0.013272 292076.000000 0 0 1
24.143787 -9.467788 -11.705533 28.453136 -0.373714 1.994782 0.038984 -0.012495 381661.000000 0 0 1
25.293187 -10.272488 -11.920033 29.788530 -0.385785 1.982482 0.043105 -0.006683 30280.600000 0 0 1
26.332167 -9.994288 -11.034233 30.249349 -0.362751 1.944188 0.038581 -0.011749 -394450.000000 0 0 1
27.590107 -10.860388 -11.266733 31.719100 -0.375006 1.933928 0.048291 -0.011828 315479.000000 0 0 1
28.385867 -10.261188 -12.308933 32.596921 -0.346873 1.958010 0.029961 -0.003479 1089030.000000 0 0 1
29.660907 -10.925488 -12.473733 33.981314 -0.352925 1.946660 0.036570 -0.003601 810191.000000 0 0 1
30.380777 -10.589088 -13.747633 34.987395 -0.335379 1.974613 0.018561 -0.000118 -241572.000000 0 0 1
29.592157 -10.897588 -14.879233 34.868965 -0.352848 2.011658 0.010864 -0.000334 194541.000000 0 0 1
30.211377 -10.402388 -16.048533 35.756012 -0.331606 2.036257 -0.002130 0.005114 -266869.000000 0 0 1
29.772907 -11.006388 -17.405833 36.201237 -0.354097 2.072372 -0.026816 0.013529 646410.000000 0 0 1
28.547597 -10.520988 -17.983233 35.341946 -0.353097 2.104628 -0.022854 0.010908 859826.000000 0 0 1
28.702217 -9.225988 -18.618033 35.433985 -0.311007 2.124015 -0.026714 0.012314 -210042.000000 0 0 1
27.429447 -8.665388 -19.293433 34.636687 -0.305993 2.161593 -0.058363 0.009918 56855.900000 0 0 1
27.019917 -9.469688 -20.406133 35.159084 -0.337094 2.190009 -0.049739 0.017430 852119.000000 0 0 1
25.661687 -9.157688 -20.733033 34.238050 -0.342775 2.221260 -0.012720 0.020759 593533.000000 0 0 1
25.309967 -9.571288 -22.220933 35.013909 -0.361541 2.258328 -0.001010 0.010704 -79846.900000 0 0 1
25.255187 -10.970688 -22.455833 35.530901 -0.409800 2.254939 -0.007921 0.012257 472879.000000 0 0 1
24.318687 -11.288888 -23.491033 35.646404 -0.434605 2.290287 0.003083 0.001629 -369243.000000 0 0 1
24.335287 -12.796188 -23.927633 36.448323 -0.484096 2.286941 0.000087 0.009571 443411.000000 0 0 1
25.418757 -13.292288 -24.710233 37.860187 -0.481825 2.281900 -0.014570 0.013113 693893.000000 0 0 1
26.708207 -13.208588 -24.100633 38.322782 -0.459279 2.250915 -0.037971 0.021569 609496.000000 0 0 1
27.902707 -13.810688 -24.921133 39.879306 -0.459606 2.245818 -0.041549 0.034035 549966.000000 0 0 1
28.138147 -13.155488 -26.157153 40.608113 -0.437338 2.270690 -0.043312 0.024411 -107061.000000 0 0 1
29.442087 -13.431288 -26.607423 41.894999 -0.427992 2.258931 -0.054672 0.027560 -175719.000000 0 0 1
29.900237 -12.745788 -27.964393 42.877576 -0.402952 2.281268 -0.034029 0.002007 209981.000000 0 0 1
29.476547 -13.468088 -29.097203 43.553455 -0.428584 2.302422 -0.015435 -0.001846 597495.000000 0 0 1
30.470747 -13.300488 -30.105133 44.851850 -0.411571 2.306640 -0.008541 -0.017472 454391.000000 0 0 1
30.313407 -14.346288 -31.204673 45.808844 -0.442032 2.320188 0.003099 -0.018410 -103826.000000 0 0 1
30.476157 -15.651988 -30.718123 46.015040 -0.474454 2.301733 0.005836 -0.009874 -103733.000000 0 0 1
30.509357 -16.656288 -31.728363 47.063168 -0.499721 2.310631 0.014574 -0.011579 91580.100000 0 0 1
29.216097 -16.971688 -32.533023 46.904329 -0.526258 2.337276 0.014773 -0.003039 -18526.800000 0 0 1
28.788497 -15.950188 -33.377833 46.875002 -0.505945 2.363225 0.008391 -0.008695 -30177.200000 0 0 1
27.577137 -16.239288 -34.033553 46.717188 -0.532194 2.386929 -0.002477 -0.011528 -222841.000000 0 0 1
27.022747 -15.243088 34.055875 46.069330 -0.513592 0.738869 0.001109 -0.002338 -693515.000000 0 0 1
26.407937 -14.096588 -34.493753 45.671785 -0.490321 2.426836 0.001041 -0.010805 -245041.000000 0 0 1
27.234667 -13.149688 -33.832213 45.379070 -0.449817 2.412151 0.019347 -0.025640 -457550.000000 0 0 1
26.537427 -11.859888 -33.395923 44.273916 -0.420283 2.425387 0.023732 -0.026644 79363.000000 0 0 1
26.083377 -11.039488 -34.457195 44.603936 -0.400378 2.453588 0.030701 -0.014836 352496.000000 0 0 1
25.000487 -10.216688 -34.013193 43.431582 -0.387949 2.470502 0.006607 -0.025315 274801.000000 0 0 1
21.003360 -29.683718 9.825867 37.667120 -0.955007 1.306883 0.018392 -0.000080 39192.100000 0 0 1
21.032260 -29.498818 8.411267 37.192549 -0.951408 1.342668 0.022370 -0.003252 341647.000000 0 0 1
21.914760 -30.447218 7.808467 38.317907 -0.946930 1.365578 0.009145 -0.000474 -71110.900000 0 0 1
22.274560 -30.047618 6.368667 37.941736 -0.932881 1.402144 0.005769 -0.000385 -106644.000000 0 0 1
22.967060 -28.800618 6.261867 37.365391 -0.897612 1.402417 0.008970 0.005251 143881.000000 0 0 1
23.535260 -28.573518 4.980367 37.351820 -0.881786 1.437061 -0.000706 0.016419 75037.200000 0 0 1
23.714660 -27.053118 4.702867 36.281859 -0.851063 1.440810 0.000776 0.008123 289760.000000 0 0 1
24.658560 -26.349418 5.505867 36.505493 -0.818535 1.419396 0.005315 0.004055 177562.000000 0 0 1
24.301060 -24.960418 5.593867 35.282508 -0.798782 1.411579 0.009873 0.009865 282515.000000 0 0 1
25.205760 -24.046618 6.488567 35.435458 -0.761868 1.386648 0.010575 0.007980 39018.600000 0 0 1
26.341460 -23.522518 5.841667 35.795341 -0.728926 1.406867 0.013991 0.009288 73631.800000 0 0 1
27.100460 -22.776318 6.819667 36.051400 -0.698918 1.380484 0.018746 0.000426 20974.800000 0 0 1
26.878060 -21.236518 6.784467 34.920607 -0.668679 1.375270 0.011302 0.001568 -310070.000000 0 0 1
27.075660 -20.577218 5.550867 34.457589 -0.649864 1.408999 0.004113 0.014453 122862.000000 0 0 1
26.729560 -19.197318 5.627167 33.386695 -0.622840 1.401443 0.018268 0.004071 -401020.000000 0 0 1
26.670060 -18.513018 4.237167 32.741068 -0.606789 1.441018 0.022259 0.012327 -494719.000000 0 0 1
27.940860 -18.166818 3.785267 33.541813 -0.576508 1.457703 0.034327 0.003091 -355577.000000 0 0 1
27.896860 -17.525218 2.551667 33.043594 -0.560908 1.493498 0.034558 -0.001011 -529390.000000 0 0 1
28.964160 -16.490018 2.365467 33.413152 -0.517559 1.499943 0.047762 -0.020122 -448833.000000 0 0 1
28.706860 -15.378118 3.152167 32.718596 -0.491794 1.474305 0.054068 -0.025016 1065910.000000 0 0 1
29.825460 -14.440018 3.124167 33.284120 -0.450888 1.476794 0.050114 -0.018702 1215390.000000 0 0 1
29.538060 -13.212518 4.006167 32.605475 -0.420610 1.447617 0.046147 -0.014431 222400.000000 0 0 1
29.214860 -13.576418 5.311067 32.650186 -0.435019 1.407405 0.034077 0.005890 -59004.600000 0 0 1
29.025560 -12.422018 6.134567 32.162441 -0.404382 1.378883 0.025604 -0.001263 -36954.900000 0 0 1
28.581860 -12.786318 7.556067 32.210353 -0.420655 1.334005 0.031213 0.007902 -315696.000000 0 0 1
27.251460 -13.234018 7.639867 31.243381 -0.452082 1.323764 0.029723 0.002301 -464016.000000 0 0 1
26.787260 -13.279718 8.964567 31.213325 -0.460240 1.279491 0.029942 0.010931 54259.000000 0 0 1
27.179660 -14.480618 9.912667 32.352484 -0.489522 1.259392 0.023488 0.007239 669462.000000 0 0 1
28.480660 -14.441618 10.533767 33.625416 -0.469286 1.252164 0.008256 0.013121 653466.000000 0 0 1
28.787960 -15.646418 11.186267 34.622097 -0.497843 1.241797 0.006387 0.010636 -68263.200000 0 0 1
29.329160 -15.434618 12.632867 35.468527 -0.484430 1.206629 0.001362 0.013123 541470.000000 0 0 1
30.705260 -15.068418 12.651767 36.468307 -0.456215 1.216506 -0.010210 0.018949 301441.000000 0 0 1
31.267160 -15.315718 13.955267 37.509412 -0.455482 1.189583 -0.002127 0.015673 -3608.090000 0 0 1
32.795560 -15.247618 14.043567 38.797686 -0.435200 1.200417 -0.008407 0.009197 -98129.800000 0 0 1
33.350260 -13.930218 14.006067 38.761589 -0.395667 1.201093 -0.012196 0.012655 305624.000000 0 0 1
34.495360 -13.696018 14.806367 39.959220 -0.377952 1.191209 -0.014599 0.004938 -78863.100000 0 0 1
35.125660 -12.302418 14.564567 39.966087 -0.336889 1.197783 -0.017924 0.005193 -604884.000000 0 0 1
-34.376067 -12.279018 13.473767 38.910547 0.343072 1.217198 -0.003848 -0.002135 -453194.000000 0 0 1
-33.914667 -11.001618 13.194467 38.017552 0.313681 1.216359 -0.000434 -0.000700 -325579.000000 0 0 1
-33.104667 -11.038318 11.847567 36.852793 0.321844 1.243501 0.002313 0.000474 654684.000000 0 0 1
-31.843167 -11.690318 11.977467 35.973748 0.351846 1.231366 -0.006869 0.004358 232682.000000 0 0 1
-31.888067 -13.070218 11.838467 36.439385 0.388993 1.239910 -0.019984 0.000225 -275968.000000 0 0 1
-30.716567 -13.840518 12.491667 35.932008 0.423343 1.215736 -0.008439 0.002442 287284.000000 0 0 1
-29.452767 -13.769818 11.867067 34.610702 0.437329 1.220823 0.017724 -0.000126 -85887.700000 0 0 1
-28.649067 -14.823218 12.384367 34.552415 0.477476 1.204219 0.020249 -0.002741 -587776.000000 0 0 1
-27.200567 -14.835018 11.934667 33.202182 0.499300 1.203113 0.039038 -0.001182 -643587.000000 0 0 1
-27.088967 -15.019518 10.522967 32.712856 0.506254 1.243296 0.015651 0.003883 370533.000000 0 0 1
-25.725667 -15.052718 10.126867 31.479322 0.529410 1.243273 0.018250 0.004711 302471.000000 0 0 1
-25.499267 -14.614618 8.704367 30.652336 0.520434 1.282863 0.018355 0.014779 -132934.000000 0 0 1
-25.882667 -15.597718 7.821067 31.214906 0.542352 1.317542 0.015490 0.011748 135282.000000 0 0 1
-25.594667 -15.202018 6.486267 30.467360 0.535961 1.356262 0.005949 0.017419 -225992.000000 0 0 1
-25.807067 -16.282418 5.423167 30.992461 0.562851 1.394907 -0.000140 0.013209 -194140.000000 0 0 1
-27.144467 -16.493418 4.950767 32.145996 0.546001 1.416172 -0.004756 0.007715 619004.000000 0 0 1
-27.167567 -17.532918 3.962867 32.575823 0.573108 1.448844 -0.000203 0.009295 -338534.000000 0 0 1
-28.548667 -18.147918 3.737267 34.034402 0.566245 1.460766 0.001239 0.000157 -231248.000000 0 0 1
-29.496567 -17.221518 3.225367 34.307888 0.528459 1.476645 0.006699 -0.004673 -84110.300000 0 0 1
-30.796267 -17.691318 3.471967 35.685395 0.521431 1.473348 0.024833 -0.012319 10155.300000 0 0 1
-31.947567 -16.892418 2.812867 36.247939 0.486386 1.493117 0.030075 -0.017476 191078.000000 0 0 1
-32.156967 -17.327718 1.475567 36.558141 0.494241 1.530423 0.028035 -0.011003 -579020.000000 0 0 1
-33.183367 -16.563918 0.920267 37.099139 0.462978 1.545988 0.050900 -0.025147 -305489.000000 0 0 1
-33.792467 -17.321418 -0.303933 37.974396 0.473663 1.578800 0.055868 -0.029342 694113.000000 0 0 1
-32.777167 -17.411718 -1.334133 37.138801 0.488307 1.606727 0.048339 -0.024529 810342.000000 0 0 1
-33.283467 -18.125018 -2.407433 37.975008 0.498661 1.634234 0.045069 -0.016393 274767.000000 0 0 1
-32.215567 -18.473718 -3.497833 37.300883 0.520662 1.664708 0.034810 -0.012868 218064.000000 0 0 1
-32.597867 -19.562118 -4.266733 38.255750 0.540496 1.682561 0.028095 -0.020904 -348551.000000 0 0 1
-31.566367 -19.986918 -5.082033 37.705961 0.564454 1.705988 0.016785 -0.017036 -969499.000000 0 0 1
-32.040967 -21.100618 -6.052933 38.839383 0.582363 1.727279 0.022790 -0.015386 -256554.000000 0 0 1
-32.420667 -22.267918 -5.285933 39.685022 0.601841 1.704391 0.031745 -0.016415 88424.600000 0 0 1
-32.642967 -23.306118 -6.210733 40.587088 0.620041 1.724422 0.033229 -0.014759 256053.000000 0 0 1
-33.429867 -24.518118 -5.537433 41.825319 0.632805 1.703580 0.042226 -0.011970 372686.000000 0 0 1
-32.571067 -25.432118 -4.885133 41.611676 0.662935 1.688466 0.043835 -0.014559 50871.500000 0 0 1
-33.270067 -26.671918 -4.659033 42.895165 0.675764 1.679625 0.039593 -0.009607 354313.000000 0 0 1
-32.355367 -27.791618 -4.165933 42.855558 0.709667 1.668159 0.027353 -0.006845 -558800.000000 0 0 1
-31.396667 -28.250318 -5.113533 42.543853 0.732698 1.691282 0.019593 -0.009634 452332.000000 0 0 1
-30.501567 -29.235818 -4.649933 42.505300 0.764213 1.680412 0.024374 -0.002233 122362.000000 0 0 1
-29.481167 -28.898918 -3.548533 41.435236 0.775425 1.656542 0.027431 -0.005355 -922158.000000 0 0 1
-30.036267 -28.758618 -2.286033 41.646866 0.763671 1.625715 0.016406 -0.000267 -540513.000000 0 0 1
-29.063967 -28.668718 -1.300433 40.844837 0.778552 1.602640 0.021984 0.002808 -291979.000000 0 0 1
-29.678067 -28.484018 0.104867 41.135605 0.764871 1.568247 0.019713 0.006515 130098.000000 0 0 1
-30.283367 -29.626018 0.641467 42.369739 0.774426 1.555656 0.013456 0.012090 -176628.000000 0 0 1
-30.920367 -29.308618 1.859767 42.644143 0.758644 1.527171 0.022347 0.012119 -4201.200000 0 0 1
-31.195167 -30.581918 2.648367 43.765352 0.775472 1.510246 0.019659 0.019625 -940106.000000 0 0 1
-32.116567 -30.346018 3.697967 44.339933 0.757060 1.487299 0.021546 0.020051 613607.000000 0 0 1
-32.863467 -31.527018 4.092567 45.724277 0.764646 1.481171 0.004945 0.021413 -125776.000000 0 0 1
-33.800567 -32.107118 3.062267 46.719620 0.759710 1.505204 0.005607 0.013820 -1536490.000000 0 0 1
-34.548667 -33.095318 3.702967 47.985649 0.763916 1.493551 0.007963 0.008507 -1429470.000000 0 0 1
34.971660 -33.664718 2.848467 48.625549 -0.766359 1.512183 0.012324 0.008002 -1857930.000000 0 0 1
34.065560 34.407912 3.585567 48.551242 0.790398 1.496878 0.004268 0.012220 397661.000000 0 0 1
33.065060 -34.170718 4.492567 47.761065 -0.801841 1.476594 -0.003157 0.010193 1213960.000000 0 0 1
32.191560 -33.108218 4.101067 46.360214 -0.799435 1.482220 0.008886 0.010806 -24196.200000 0 0 1
31.130060 -33.392518 2.968267 45.748787 -0.820448 1.505869 0.014564 0.009316 -360913.000000 0 0 1
31.672660 -33.638818 1.637367 46.232115 -0.815493 1.535373 0.019186 0.014797 -58998.600000 0 0 1
30.854860 -33.173718 0.560067 45.308185 -0.821598 1.558435 0.022952 0.016440 -875979.000000 0 0 1
31.297260 -33.850618 -0.795233 46.108733 -0.824571 1.588044 0.025397 0.008807 1560990.000000 0 0 1
32.565560 -33.540218 -1.427433 46.770712 -0.800141 1.601321 0.016172 0.016854 -193729.000000 0 0 1
33.647460 -33.604918 -0.589033 47.558270 -0.784766 1.583182 0.018167 0.019553 -2514290.000000 0 0 1
34.932760 -33.543018 -1.393333 48.449697 -0.765106 1.599559 -0.000375 0.027359 -850376.000000 0 0 1
-35.103367 34.387412 -2.170933 49.187940 -0.775096 1.614946 0.005178 0.006895 268242.000000 0 0 1
-34.396167 -34.302318 -3.336833 48.691681 0.784032 1.639380 0.007672 0.006355 -108620.000000 0 0 1
-33.757967 33.724712 -4.277933 47.908843 -0.784905 1.660209 0.005245 -0.001761 240362.000000 0 0 1
-32.618267 33.114212 -3.703533 46.628517 -0.792943 1.650306 0.013092 -0.000501 -35106.700000 0 0 1
-31.969267 32.351512 -4.706333 45.725310 -0.791341 1.673905 0.025671 -0.012891 -524279.000000 0 0 1
-30.751467 31.554812 -4.256733 44.265999 -0.798291 1.667108 0.024469 -0.014485 -733144.000000 0 0 1
-29.590667 32.372912 -4.218733 44.061443 -0.830269 1.666690 0.011372 -0.007683 -336751.000000 0 0 1
-28.406167 31.623512 -4.119933 42.707502 -0.838943 1.667415 0.014528 -0.014198 58265.600000 0 0 1
-27.986867 31.316612 -2.621233 42.081656 -0.841487 1.633126 -0.000445 -0.014517 -765985.000000 0 0 1
-29.017867 30.762912 -1.851733 42.329922 -0.814581 1.614556 -0.000529 -0.006435 -641800.000000 0 0 1
-28.755367 30.597012 -0.483433 41.991452 -0.816417 1.582309 -0.002525 0.004309 -64327.300000 0 0 1
-29.972267 30.135512 0.369567 42.504382 -0.788114 1.562101 -0.006525 0.001434 83533.000000 0 0 1
-30.358167 28.835612 -0.024433 41.870174 -0.759682 1.571380 -0.002831 -0.002175 610254.000000 0 0 1
-31.632867 28.739112 -0.680633 42.743867 -0.737503 1.586721 0.015822 -0.008873 478215.000000 0 0 1
-32.056867 27.364412 -1.250733 42.166552 -0.706592 1.600462 0.022783 -0.009987 -54683.300000 0 0 1
-32.220867 26.358712 -0.222233 41.629501 -0.685659 1.576135 0.030086 -0.006211 74913.300000 0 0 1
-32.731867 25.148212 -0.825233 41.285454 -0.655117 1.590786 0.035111 0.000780 196838.000000 0 0 1
-32.879167 23.974412 0.192167 40.692125 -0.630034 1.566074 0.041714 -0.003443 1634180.000000 0 0 1
-31.557867 23.519212 0.642667 39.363249 -0.640469 1.554469 0.044135 -0.014168 1530300.000000 0 0 1
-31.173067 23.974512 1.911167 39.372451 -0.655599 1.522237 0.036557 -0.017404 -1180640.000000 0 0 1
-29.712667 23.643812 2.235467 38.037741 -0.672143 1.511993 0.025959 -0.020384 146848.000000 0 0 1
-28.716467 24.453912 1.564367 37.750186 -0.705401 1.529344 0.029199 -0.012164 628097.000000 0 0 1
-28.657267 25.793212 2.051567 38.610072 -0.732847 1.517636 -0.012522 -0.004619 -760844.000000 0 0 1
-28.140667 26.778212 0.965367 38.857454 -0.760595 1.545950 -0.018793 -0.002658 -722556.000000 0 0 1
-26.834767 26.512212 0.612267 37.727669 -0.779352 1.554567 -0.011602 -0.007369 -989370.000000 0 0 1
-26.288667 27.528012 -0.265933 38.065157 -0.808423 1.577783 0.002901 -0.014148 1000180.000000 0 0 1
-25.048267 26.949012 -1.052033 36.807224 -0.821937 1.599382 0.003076 -0.011313 58995.100000 0 0 1
-25.404767 26.285212 -2.271833 36.626163 -0.802430 1.632864 0.022539 -0.024718 -945252.000000 0 0 1
-24.354167 25.647612 -2.871433 35.484794 -0.811260 1.651805 0.009179 -0.009811 -329899.000000 0 0 1
-23.436767 24.548912 -2.204033 34.011600 -0.808571 1.635644 -0.000203 -0.007391 164912.000000 0 0 1
-24.024967 23.331712 -1.867533 33.541847 -0.770760 1.626503 -0.008646 -0.006646 -291873.000000 0 0 1
-23.038767 22.411012 -1.406033 32.171652 -0.771587 1.614514 -0.014994 -0.014379 -94369.700000 0 0 1
-23.591167 20.980712 -1.261933 31.596296 -0.726898 1.610746 -0.016889 -0.012638 33544.600000 0 0 1
-24.311267 20.669612 -0.043433 31.910382 -0.704614 1.572157 -0.024233 -0.009617 1015490.000000 0 0 1
-25.615367 21.228212 0.209867 33.269026 -0.692015 1.564488 -0.017056 -0.014004 670883.000000 0 0 1
-26.728267 20.764512 -0.734833 33.854176 -0.660480 1.592504 -0.001124 -0.023259 -874137.000000 0 0 1
-27.200167 19.441112 -0.588033 33.438776 -0.620552 1.588383 -0.010025 -0.016287 -266788.000000 0 0 1
-27.852167 18.974212 -1.678733 33.742882 -0.598029 1.620568 0.020627 -0.014422 -601495.000000 0 0 1
-28.051767 17.402012 -1.590033 33.049355 -0.555251 1.618926 -0.010133 0.002228 142171.000000 0 0 1
-28.881567 16.920712 -0.524533 33.477314 -0.529962 1.586465 -0.000421 -0.000750 471179.000000 0 0 1
-28.881767 15.530612 -0.357333 32.794574 -0.493375 1.581693 -0.004634 -0.002128 164093.000000 0 0 1
-27.665367 14.843812 0.344267 31.397927 -0.492457 1.559831 -0.009855 0.007497 -72399.900000 0 0 1
-27.576467 15.070112 1.738267 31.473662 -0.500140 1.515539 -0.006687 0.014270 -189857.000000 0 0 1
-26.375467 14.651912 2.314867 30.260575 -0.507066 1.494224 -0.011513 0.011567 -469595.000000 0 0 1
-26.104367 13.133212 2.470967 29.326182 -0.466128 1.486438 -0.004336 0.013051 -388048.000000 0 0 1
-25.853367 12.481612 1.255267 28.736091 -0.449781 1.527100 -0.008053 0.006145 421074.000000 0 0 1
-25.827067 11.074012 1.406167 28.136248 -0.405064 1.520798 0.015881 0.000266 -207941.000000 0 0 1
-25.688567 10.365312 0.040767 27.700972 -0.383519 1.569325 0.017425 -0.007379 -398054.000000 0 0 1
-26.883467 10.312612 -0.685633 28.801751 -0.366293 1.594604 0.006802 -0.001428 -200143.000000 0 0 1
-26.729367 9.522612 -1.828133 28.433805 -0.342241 1.635135 0.011578 -0.000865 10151.700000 0 0 1
-28.026867 9.191712 -2.619433 29.611726 -0.316907 1.659371 0.021842 -0.007396 -177343.000000 0 0 1
-27.866767 8.320212 -3.712033 29.318285 -0.290145 1.697749 0.042251 -0.011862 -387617.000000 0 0 1
-29.020767 8.105012 -4.460933 30.459745 -0.272344 1.717778 0.013499 -0.006403 -528251.000000 0 0 1
-11.698640 18.436012 -20.246833 29.777155 -1.005356 2.318484 0.047011 0.003870 99180.200000 0 0 1
-12.037740 17.706012 -21.474233 30.324128 -0.973710 2.357680 0.017599 0.004576 405321.000000 0 0 1
-10.959340 17.535112 -22.428833 30.506390 -1.012201 2.396784 0.031270 -0.011144 456934.000000 0 0 1
-11.077540 16.276512 -23.355433 30.546898 -0.973220 2.441180 0.020752 -0.007567 -186071.000000 0 0 1
-10.548040 15.080512 -22.776533 29.282306 -0.960441 2.461995 0.013005 -0.003340 119553.000000 0 0 1
-10.453040 14.048812 -23.701033 29.468188 -0.931113 2.505280 0.004478 0.000101 -9907.450000 0 0 1
-9.791340 12.725812 -23.137133 28.162804 -0.914989 2.534919 0.001095 0.002115 448352.000000 0 0 1
-8.373440 12.776412 -23.142233 27.729301 -0.990646 2.558161 0.015170 -0.004845 139493.000000 0 0 1
-7.794840 11.614112 -22.570833 26.553524 -0.979695 2.586806 0.008794 -0.001885 -570114.000000 0 0 1
-6.287440 11.634112 -22.430433 26.038602 -1.075329 2.608875 0.021173 -0.001833 -639154.000000 0 0 1
-5.590940 11.303112 -23.622433 26.777571 -1.111448 2.651252 0.026577 -0.013405 -389536.000000 0 0 1
-4.208440 11.471112 -23.406633 26.403936 -1.219170 2.660485 0.039132 -0.010372 129891.000000 0 0 1
-3.343640 10.952912 -24.594233 27.129735 -1.274508 2.705814 0.047832 -0.021052 -76368.800000 0 0 1
-3.225740 9.578912 -24.835833 26.813794 -1.245970 2.755091 0.042171 -0.020897 -78128.200000 0 0 1
-2.682940 9.341812 -26.109203 27.859614 -1.291126 2.785225 0.034783 -0.021996 -626974.000000 0 0 1
-2.281540 7.885912 -26.430023 27.675606 -1.289168 2.840434 0.034332 -0.010135 592514.000000 0 0 1
-0.962940 7.570012 -25.951933 27.050604 -1.444271 2.855609 0.038576 -0.006764 570279.000000 0 0 1
-0.820240 6.237812 -25.609833 26.371322 -1.440052 2.900696 0.037539 -0.009903 -765859.000000 0 0 1
0.505860 5.785912 -25.044233 25.708875 1.483588 2.913712 0.023066 -0.002846 -711118.000000 0 0 1
0.847060 6.371012 -23.842433 24.693499 1.438616 2.878287 0.021444 -0.007106 -320186.000000 0 1 0
1.653360 5.625012 -22.993833 23.729532 1.284918 2.891933 0.020027 -0.008936 -287071.000000 0 1 0
1.821860 6.360312 -21.615633 22.605493 1.291824 2.844568 0.016978 -0.010799 201516.000000 0 1 0
2.516960 7.582012 -21.782033 23.200839 1.250278 2.790062 0.002975 -0.011343 39625.700000 0 1 0
2.482760 8.249712 -20.473233 22.212049 1.278467 2.743282 0.014862 -0.012851 76177.400000 0 1 0
2.896560 9.738112 -20.516533 22.894301 1.281685 2.681793 0.002444 -0.010859 -319861.000000 0 1 0
2.679660 10.427612 -19.304833 22.104123 1.319262 2.632853 0.010667 -0.017070 92904.300000 0 1 0
3.225660 11.748112 -19.390933 22.900465 1.302831 2.580640 0.015749 -0.010989 -297613.000000 0 1 0
4.568060 11.890212 -18.673233 22.603848 1.203996 2.542963 0.017014 -0.013220 -555050.000000 0 1 0
5.514060 11.075612 -19.317433 22.939862 1.108865 2.571943 0.023610 -0.008992 22643.000000 0 1 0
6.509360 10.622012 -18.361633 22.188927 1.021005 2.545460 0.024463 -0.010781 278883.000000 0 1 0
7.634360 9.753412 -18.926333 22.618987 0.906670 2.562109 0.032227 -0.005382 -397801.000000 0 1 0
7.380760 8.416512 -19.138333 22.171808 0.850870 2.612337 0.031508 -0.005066 -133450.000000 0 1 0
6.701660 8.202212 -20.350433 22.941854 0.885742 2.661699 0.026865 -0.001590 -3885.290000 0 1 0
6.296060 6.668712 -20.522133 22.478212 0.814134 2.721323 0.025341 -0.000222 246734.000000 0 1 0
7.445860 5.851112 -20.715133 22.777029 0.666035 2.712815 0.032406 0.006084 344820.000000 0 1 0
7.221560 4.467812 -20.973633 22.627540 0.554039 2.756883 0.030110 0.002166 -266877.000000 0 1 0
7.038860 4.287512 -22.521433 23.982144 0.547099 2.790774 0.031306 -0.002824 -279393.000000 0 1 0
5.873660 4.771212 -23.159033 24.364013 0.682200 2.825775 0.017136 -0.003841 -44113.700000 0 1 0
5.818160 4.375012 -24.529733 25.587097 0.644753 2.853107 0.023175 -0.009837 304967.000000 0 0 1
4.735060 5.248412 -25.222933 26.194712 0.836773 2.868353 0.008361 -0.009604 54899.100000 0 0 1
5.133060 6.578512 -25.322513 26.661860 0.908198 2.823282 0.012448 -0.010661 149479.000000 0 0 1
5.070860 7.394812 -24.154033 25.764591 0.969710 2.786141 0.018124 -0.017179 -984303.000000 0 0 1
5.073160 8.910912 -24.548733 26.604165 1.053241 2.745927 0.019351 -0.017879 621800.000000 0 0 1
3.927360 9.484612 -25.195053 27.206115 1.178214 2.754685 0.010639 -0.013717 882393.000000 0 0 1
2.686260 9.344412 -24.532033 26.388533 1.290872 2.764251 0.005007 -0.014276 56266.800000 0 0 1
1.369460 9.703812 -25.270923 27.104592 1.430596 2.771651 0.020245 -0.008376 135519.000000 0 0 1
1.260660 11.032212 -25.783083 28.072519 1.457019 2.734929 0.025316 -0.015253 804514.000000 0 0 1
0.106360 11.190312 -26.644023 28.898760 1.561292 2.743954 0.046425 -0.019385 281675.000000 0 0 1
-0.274240 12.684012 -26.935453 29.773780 -1.549179 2.701402 0.034906 -0.020570 -147130.000000 0 0 1
-0.279140 13.544812 -25.769503 29.113693 -1.550191 2.657577 0.029960 -0.019720 210453.000000 0 0 1
-0.507440 14.889812 -26.196623 30.136806 -1.536730 2.624493 0.028019 -0.021852 -352719.000000 0 0 1
-0.939040 15.866612 -25.089273 29.700215 -1.511682 2.576895 0.030192 -0.020510 412162.000000 0 0 1
-2.242240 15.424612 -24.693033 29.200893 -1.426440 2.578533 0.035657 -0.017749 292180.000000 0 0 1
-2.527340 15.824512 -23.402533 28.363377 -1.412423 2.541170 0.041916 -0.021966 561846.000000 0 0 1
-3.875640 15.191512 -22.870833 27.728643 -1.321006 2.540661 0.048408 -0.025895 1620420.000000 0 0 1
-5.143740 15.658712 -23.344333 28.576410 -1.253411 2.526828 0.041129 -0.019664 540990.000000 0 0 1
-5.455840 15.087712 -24.598433 29.368149 -1.223818 2.563651 0.041367 -0.020610 2348.950000 0 0 1
-6.955040 15.380812 -24.913033 30.093208 -1.146123 2.546082 0.029444 -0.022682 397434.000000 0 0 1
-7.298940 16.747012 -25.146513 31.081893 -1.159784 2.513314 0.027191 -0.021231 1200100.000000 0 0 1
-8.633440 16.791312 -25.731593 31.915503 -1.095884 2.508567 0.021884 -0.015596 830309.000000 0 0 1
-9.118640 18.192412 -26.104843 33.099491 -1.106163 2.479452 0.019693 -0.009205 -243884.000000 0 0 1
-9.461140 19.046212 -25.063513 32.870215 -1.109755 2.437964 0.019638 -0.017070 127870.000000 0 0 1
-10.452640 19.935812 -25.559263 34.058335 -1.087887 2.419547 0.027075 -0.016449 330318.000000 0 0 1
-10.949540 21.025412 -24.578433 34.147617 -1.090666 2.374267 0.004538 -0.011002 452549.000000 0 0 1
-10.068540 22.172712 -24.477433 34.527516 -1.144541 2.358770 0.014554 -0.000509 509721.000000 0 0 1
-10.443840 23.247412 -25.307203 35.916159 -1.148568 2.352682 0.024645 -0.019257 -236992.000000 0 0 1
-10.053740 23.291012 -26.764853 36.876907 -1.163300 2.382977 0.018768 -0.024570 -153211.000000 0 0 1
-10.881440 22.464612 -27.557093 37.181419 -1.119721 2.405581 0.011177 -0.016053 150226.000000 0 0 1
-10.955440 22.955012 -28.877753 38.482189 -1.125508 2.419492 0.025313 -0.018265 -12312.600000 0 0 1
-11.706840 21.918412 -29.792993 38.795481 -1.080235 2.446431 0.021480 -0.017799 141931.000000 0 0 1
-10.882540 20.850612 -30.192383 38.272153 -1.089760 2.479791 0.021613 -0.019226 -70249.900000 0 0 1
-10.775740 19.794112 -29.214613 36.897385 -1.072270 2.484514 0.017075 -0.016395 128926.000000 0 0 1
-9.657740 18.749412 -29.575383 36.325138 -1.095145 2.522120 0.011638 -0.012751 -1424290.000000 0 0 1
-8.413340 19.345512 -29.375443 36.165588 -1.160571 2.518793 0.010747 -0.016842 -547053.000000 0 0 1
-7.394440 18.507212 -29.958053 35.981656 -1.190683 2.554568 0.007803 -0.015928 511158.000000 0 0 1
-7.074540 17.206812 -29.179233 34.605652 -1.180717 2.573991 0.015622 -0.022214 -936023.000000 0 0 1
-7.973240 16.139012 -29.563693 34.612891 -1.111932 2.594660 0.014314 -0.016207 505781.000000 0 0 1
-7.765340 14.945012 -28.855703 33.411158 -1.091597 2.613272 0.005368 -0.013547 -417815.000000 0 0 1
-9.097140 14.191912 -28.808023 33.377695 -1.000768 2.612157 0.005631 -0.005025 173583.000000 0 0 1
-10.031440 14.892612 -27.973523 33.240603 -0.978019 2.570937 0.011091 -0.006014 610621.000000 0 0 1
-11.297640 14.228112 -27.896583 33.291068 -0.899702 2.564331 0.018077 -0.003011 451845.000000 0 0 1
-12.264140 14.843612 -26.895753 33.077537 -0.880269 2.520275 0.014120 0.003287 -342616.000000 0 0 1
-12.735040 16.097712 -27.331053 34.180463 -0.901500 2.497442 0.008260 0.000936 -377027.000000 0 0 1
-13.638540 16.572212 -26.378103 34.006651 -0.882202 2.458580 -0.007247 0.003678 -396742.000000 0 0 1
-14.499040 17.742712 -26.847343 35.295974 -0.885666 2.435087 -0.019744 0.007900 -150515.000000 0 0 1
-13.897340 19.028612 -26.899073 35.760093 -0.939997 2.422205 -0.013779 0.002901 842703.000000 0 0 1
-14.911240 20.006612 -27.197983 36.909889 -0.930300 2.399233 -0.035271 0.005000 257643.000000 0 0 1
-14.234440 21.419712 -27.199473 37.433069 -0.984262 2.384180 -0.006122 -0.001158 97566.400000 0 0 1
-15.121340 22.455812 -27.539723 38.618063 -0.978159 2.364750 -0.021544 -0.008076 165582.000000 0 0 1
-14.499640 23.735412 -27.583603 39.172241 -1.022411 2.352039 -0.009938 -0.007701 -61016.500000 0 0 1
-14.147740 24.440812 -26.252593 38.557885 -1.046068 2.319735 -0.026588 -0.004683 159017.000000 0 0 1
-13.400440 25.634012 -26.465463 39.205804 -1.089107 2.311814 -0.002468 -0.017422 89687.800000 0 0 1
-12.983940 26.182212 -25.236063 38.612819 -1.110429 2.283084 0.010855 -0.024952 -146827.000000 0 0 1
-12.899340 27.721512 -25.234863 39.644338 -1.135277 2.260789 0.021597 -0.022700 564219.000000 0 0 1
-14.164740 28.269312 -25.627633 40.700976 -1.106298 2.251907 0.032475 -0.025997 546652.000000 0 0 1
-14.587740 29.375812 -24.796233 41.116829 -1.109880 2.218138 0.035655 -0.023440 1014160.000000 0 0 1
-15.994740 29.876312 -25.320833 42.303313 -1.079258 2.212492 0.034539 -0.023116 1110310.000000 0 0 1
-17.057440 28.952312 -25.109253 41.948388 -1.038388 2.212517 0.022132 -0.018327 -533805.000000 0 0 1
-18.191540 29.330112 -25.848443 43.119944 -1.015631 2.213616 0.018116 -0.014787 -343323.000000 0 0 1
-19.257440 28.227612 -25.667363 42.737110 -0.972103 2.215032 0.017759 -0.001659 -240875.000000 0 0 1
-19.570040 28.130012 -24.249433 41.979984 -0.962962 2.186634 0.031518 -0.015734 -97929.900000 0 0 1
-20.423840 27.041312 -23.968433 41.507247 -0.923923 2.186400 0.029873 -0.032604 -308910.000000 0 0 1
-21.060040 27.005912 -22.582833 41.022298 -0.908475 2.153761 0.031350 -0.025135 -453229.000000 0 0 1
-22.173340 27.841812 -22.561033 42.140523 -0.898252 2.135749 0.021913 -0.016703 -690863.000000 0 0 1
-22.507640 28.107012 -21.205833 41.788579 -0.895578 2.103025 0.009932 -0.006517 -359535.000000 0 0 1
-23.851640 28.847312 -21.154233 42.994996 -0.879912 2.085200 0.001435 0.002192 446625.000000 0 0 1
-24.942640 27.942912 -21.476833 43.176336 -0.842069 2.091420 -0.003827 0.002021 1082900.000000 0 0 1
-26.189800 28.629912 -21.288633 44.258145 -0.829880 2.072603 0.011100 0.006732 213039.000000 0 0 1
-27.436490 27.964712 -21.825433 44.845687 -0.794932 2.079080 0.003147 0.010490 -427418.000000 0 0 1
-27.501920 27.814512 -23.226033 45.491222 -0.791049 2.106633 -0.001979 0.005275 305165.000000 0 0 1
-28.720810 27.170412 -23.615933 46.052454 -0.757666 2.109245 0.007087 0.010496 597364.000000 0 0 1
-28.811210 26.792212 -25.100433 46.668407 -0.749103 2.138677 0.009869 0.012201 3427.450000 0 0 1
-28.150310 25.581712 -25.376633 45.725676 -0.737631 2.159130 0.014302 0.009657 -156929.000000 0 0 1
-28.254960 25.247312 -26.740003 46.376689 -0.729242 2.185336 0.036825 0.001244 -112643.000000 0 0 1
-28.176970 23.731512 -27.139543 45.756760 -0.699966 2.205733 0.033898 -0.006994 898047.000000 0 0 1
-26.903990 23.069112 -26.951353 44.523972 -0.708809 2.220967 0.013676 -0.004165 663300.000000 0 0 1
-27.083930 21.841312 -27.584633 44.401511 -0.678650 2.241139 0.039429 -0.017492 444969.000000 0 0 1
-25.881130 20.827312 -27.667383 43.233019 -0.677618 2.265242 0.023084 -0.005763 317339.000000 0 0 1
-25.396290 20.395012 -26.445443 41.955804 -0.676610 2.252757 0.034182 -0.006339 -26254.700000 0 0 1
-24.893640 19.071212 -26.342673 40.955352 -0.653731 2.269473 -0.005292 -0.011442 -46057.000000 0 0 1
-25.959720 17.980112 -26.039253 40.929625 -0.605753 2.260354 0.002119 0.001732 304377.000000 0 0 1
-26.911650 17.732912 -27.073223 42.091002 -0.582628 2.269475 0.012775 -0.010107 110876.000000 0 0 1
-27.762750 16.702512 -26.687103 41.975536 -0.541607 2.259812 0.008156 -0.010274 -369653.000000 0 0 1
-28.635430 16.189312 -27.866173 43.111545 -0.514559 2.273619 0.016835 -0.014552 55253.600000 0 0 1
-29.790410 16.912012 -28.231773 44.390513 -0.516331 2.260083 0.021787 -0.020968 -154121.000000 0 0 1
-30.571930 16.038412 -29.010263 45.094001 -0.483143 2.269635 0.030742 -0.011648 28181.000000 0 0 1
-31.813970 16.672712 -29.675663 46.591340 -0.482717 2.261312 0.033316 -0.017809 302105.000000 0 0 1
-32.939980 16.782512 -28.819233 46.874761 -0.471209 2.232946 0.026233 -0.012127 -365289.000000 0 0 1
-34.120858 16.998112 -29.524713 48.216983 -0.462185 2.229801 0.022237 -0.011969 224600.000000 0 0 1
34.982066 16.716212 -28.621093 48.190701 0.445772 2.206710 0.022492 -0.005614 248664.000000 0 0 1
34.764102 17.653312 -27.577133 47.756471 0.469870 2.186402 0.029814 -0.015844 446273.000000 0 0 1
33.657317 17.302812 -26.744583 46.340857 0.474854 2.186003 0.047045 -0.010074 309840.000000 0 0 1
33.297047 18.444012 -25.770783 45.967469 0.505850 2.165944 0.049070 -0.007765 31684.900000 0 0 1
32.749537 19.625812 -26.382353 46.408331 0.539882 2.175457 0.047324 -0.015887 195824.000000 0 0 1
32.331437 20.520212 -25.384423 45.943115 0.565532 2.156179 0.042424 -0.010949 -557504.000000 0 0 1
31.482077 21.652612 -25.975643 46.202714 0.602475 2.167852 0.042394 -0.012943 991473.000000 0 0 1
30.153997 21.329412 -26.450943 45.429723 0.615641 2.192276 0.032078 -0.019162 986099.000000 0 0 1
29.120217 21.568412 -25.523433 44.324136 0.637502 2.184423 0.038105 -0.015165 1242510.000000 0 0 1
27.629087 21.508112 -26.068003 43.652103 0.661467 2.210772 0.008619 -0.015444 1395220.000000 0 0 1
27.205387 20.178112 -26.308383 42.888464 0.638165 2.231172 0.021706 -0.027292 278383.000000 0 0 1
25.972897 20.162312 -27.034003 42.566977 0.660111 2.258926 0.017861 -0.028802 353886.000000 0 0 1
25.253887 18.786412 -27.079543 41.520955 0.639587 2.281266 0.039266 -0.024475 -482643.000000 0 0 1
25.878417 17.747712 -27.814973 41.932642 0.601140 2.296050 0.032946 -0.023649 160031.000000 0 0 1
26.881437 17.117612 -27.032923 41.789990 0.567027 2.274276 0.028304 -0.018449 187346.000000 0 0 1
27.912027 16.245512 -27.827743 42.630754 0.527098 2.282021 0.018057 -0.006444 138395.000000 0 0 1
27.432697 15.032812 -28.457693 42.289226 0.501298 2.308959 0.028696 -0.013640 285282.000000 0 0 1
26.893687 14.002512 -27.583483 40.990112 0.480040 2.308959 0.039903 -0.011386 214465.000000 0 0 1
27.914977 13.346912 -26.590113 40.797305 0.445997 2.280701 0.031929 -0.003094 290284.000000 0 0 1
28.270107 14.213312 -25.499873 40.638168 0.465860 2.249116 0.044842 -0.014730 -137611.000000 0 0 1
29.368487 13.664312 -24.815633 40.804866 0.435481 2.224529 0.040346 -0.012693 -290427.000000 0 0 1
-14.023240 -31.092918 -24.883133 42.220743 1.147102 2.201060 0.057380 0.009453 45386.300000 0 0 1
-13.328040 -29.890218 -25.135153 41.265454 1.151357 2.225733 0.039806 -0.001293 121736.000000 0 0 1
-13.610840 -29.486218 -26.457873 41.889272 1.138338 2.254430 0.029889 0.005900 97441.900000 0 0 1
-12.893140 -28.139318 -26.884663 40.998041 1.141153 2.285978 0.031139 0.002681 -155080.000000 0 0 1
-13.450240 -26.967718 -26.359593 40.037419 1.108147 2.289453 0.046858 -0.005696 475157.000000 0 0 1
-12.651340 -25.831318 -26.752163 39.280932 1.115368 2.319988 0.036422 -0.012063 -237845.000000 0 0 1
-13.133840 -24.504718 -26.204003 38.205088 1.078787 2.326605 0.043583 -0.019452 -453321.000000 0 0 1
-12.937040 -24.390818 -24.817133 37.123700 1.083121 2.302984 0.017388 -0.016242 319122.000000 0 0 1
-13.317440 -23.098018 -24.302233 36.075909 1.047789 2.309921 0.025261 -0.007848 -281249.000000 0 0 1
-12.600640 -22.830918 -22.980033 34.757861 1.066487 2.293142 0.013302 -0.004177 710847.000000 0 0 1
-11.185440 -22.646218 -23.157533 34.267136 1.112024 2.312838 0.013475 -0.008298 388494.000000 0 0 1
-10.668940 -22.241618 -21.945533 33.017000 1.123534 2.297853 0.019481 -0.005497 -256305.000000 0 0 1
-9.166440 -21.922618 -22.038633 32.408736 1.174761 2.318588 0.011277 -0.005516 -161817.000000 0 0 1
-8.909240 -20.860218 -22.930133 32.253903 1.167155 2.361610 0.010574 -0.010073 491861.000000 0 0 1
-7.521540 -20.525718 -22.892333 31.653398 1.219547 2.379248 0.017663 -0.005971 439652.000000 0 0 1
-7.241740 -19.264018 -23.729633 31.410837 1.211219 2.427152 0.010002 0.001662 -299975.000000 0 0 1
-7.775740 -18.118718 -23.225333 30.465820 1.165412 2.437718 0.010437 0.000110 -472241.000000 0 0 1
-8.238940 -17.187018 -24.170833 30.781535 1.123789 2.473877 0.005087 -0.000174 -683234.000000 0 0 1
-7.301640 -16.453918 -25.111963 30.897509 1.153141 2.519654 0.008594 0.001737 -699155.000000 0 0 1
-6.659940 -17.314218 -25.981973 31.924910 1.203591 2.521537 0.007304 -0.005243 -4227.280000 0 0 1
-5.799240 -16.528518 -26.819463 32.032900 1.233353 2.563026 0.001888 -0.005396 140267.000000 0 0 1
-5.432340 -17.249618 -28.104043 33.420007 1.265704 2.569804 0.005796 -0.001941 120518.000000 0 0 1
-6.440040 -17.099518 -29.109443 34.368988 1.210605 2.581053 0.021390 -0.007196 485723.000000 0 0 1
-6.113640 -17.871318 -30.258183 35.669570 1.241184 2.583546 0.024656 -0.011884 -361503.000000 0 0 1
-7.065440 -17.644018 -31.451593 36.748259 1.189907 2.598020 0.028326 -0.014254 46933.400000 0 0 1
-6.902040 -16.467718 -32.339013 36.940975 1.173912 2.637108 0.028943 -0.019936 -165668.000000 0 0 1
-6.894140 -15.250118 -31.646753 35.799612 1.146221 2.655141 0.018068 -0.015187 -94694.500000 0 0 1
-7.291440 -14.062218 -32.539123 36.189855 1.092448 2.688558 0.019899 -0.014797 -816410.000000 0 0 1
-6.392240 -13.878118 -33.578623 36.891555 1.139164 2.714558 0.029427 -0.025124 -245179.000000 0 0 1
-6.930140 -13.085118 34.476041 37.521255 1.083734 0.405665 0.038310 -0.023933 -286552.000000 0 0 1
-7.245640 -11.555218 -34.465143 37.065731 1.010728 2.764770 0.026089 -0.010394 311187.000000 0 0 1
-6.113840 -10.704418 -34.470327 36.608292 1.051859 2.798144 0.017778 -0.007583 276313.000000 0 0 1
-5.435040 -10.553018 33.377239 35.425216 1.095203 0.341693 0.026346 -0.015494 198556.000000 0 0 1
-4.422440 -9.384518 33.256430 34.837010 1.130413 0.302384 0.018665 -0.013538 117037.000000 0 0 1
-4.354440 -8.779818 31.942014 33.411654 1.110386 0.297698 0.014404 -0.005977 -484080.000000 0 0 1
-3.397640 -7.785518 32.026884 33.134265 1.159305 0.259264 0.009354 -0.006321 -1060500.000000 0 0 1
-3.411540 -6.822818 30.763074 31.694734 1.107133 0.243064 0.006505 -0.002682 1248250.000000 0 0 1
-4.569540 -5.929918 30.775564 31.673016 0.914247 0.238620 0.006134 -0.001408 1852620.000000 0 0 1
-5.847640 -6.577718 30.511714 31.755723 0.844088 0.280830 0.009735 -0.003938 187465.000000 0 0 1
-6.972840 -5.550018 30.637304 31.907171 0.672265 0.283075 0.000950 0.004654 385666.000000 0 0 1
-8.184040 -6.025718 30.020444 31.694082 0.634660 0.326427 -0.004102 0.006929 230876.000000 0 0 1
-9.260740 -5.124118 30.132264 31.936988 0.505386 0.337785 0.000072 0.002139 -71985.500000 0 0 1
-10.435640 -5.727718 29.317114 31.641784 0.501969 0.385710 0.010305 0.000941 -305350.000000 0 0 1
-10.142240 -5.767718 27.932044 30.270954 0.517074 0.395681 -0.002865 0.011501 -69770.900000 0 0 1
-11.149440 -6.417118 27.227114 30.113206 0.522251 0.441390 0.005289 0.005327 -578620.000000 0 0 1
-10.960540 -6.416618 25.719784 28.684730 0.529637 0.458682 0.000237 -0.000106 649294.000000 0 0 1
-9.727640 -6.936618 25.171364 27.862900 0.619453 0.443161 0.003096 0.000019 1029530.000000 0 0 1
-9.242440 -6.176118 24.050004 26.494713 0.589087 0.432959 0.001520 -0.000838 -58241.700000 0 0 1
-9.801140 -6.651018 22.646964 25.557452 0.596216 0.481892 -0.001131 -0.003746 154142.000000 0 0 1
-11.154340 -6.226518 22.645364 26.000026 0.509128 0.513614 -0.003427 0.001230 -6739.680000 0 0 1
-11.752040 -6.430818 21.366064 25.218536 0.500698 0.560035 -0.000930 -0.001950 62149.500000 0 0 1
-12.972140 -5.511618 21.160564 25.424866 0.401770 0.587591 0.003625 0.004847 -43817.700000 0 0 1
-12.590740 -4.191518 20.871264 24.732675 0.321365 0.566333 -0.007551 0.013796 634764.000000 0 1 0
-13.736040 -3.296518 20.851664 25.186062 0.235536 0.595434 -0.004566 0.013767 640157.000000 0 0 1
-13.413440 -1.808518 20.405964 24.486618 0.134021 0.585652 -0.003639 0.012521 855520.000000 0 1 0
-12.333440 -1.107518 21.098164 24.463705 0.089558 0.530751 -0.006432 0.004864 978553.000000 0 1 0
-12.462540 0.299482 21.011964 24.431685 -0.024026 0.535469 0.008524 -0.002938 -484711.000000 0 1 0
-12.233040 1.012482 19.602764 23.128786 -0.082578 0.559448 0.024450 -0.012544 173303.000000 0 1 0
-13.187140 0.847482 18.538164 22.765817 -0.064177 0.619277 0.030707 -0.005287 1336480.000000 0 1 0
-14.484240 1.444482 18.849564 23.815663 -0.099399 0.657574 0.023714 0.005001 344051.000000 0 1 0
-15.547940 0.869482 17.972564 23.780401 -0.055864 0.713964 0.032458 0.008876 -919791.000000 0 1 0
-15.643040 -0.541518 18.240664 24.035802 0.034603 0.709181 0.006436 0.007779 317279.000000 0 1 0
-16.761840 -1.109518 17.585464 24.319516 0.066097 0.762515 0.003711 0.016668 -16526.200000 0 1 0
-16.770340 -2.682518 17.762064 24.575010 0.158612 0.762995 0.005570 0.016417 -231418.000000 0 1 0
-17.106340 -3.171518 19.000564 25.762508 0.183319 0.741394 -0.001070 0.023406 63175.200000 0 0 1
-16.809740 -4.548518 19.179564 25.905830 0.264260 0.737195 -0.002390 0.023799 -523936.000000 0 0 1
-17.292540 -5.054318 20.533664 27.316834 0.284362 0.720183 -0.007480 0.028516 -356367.000000 0 0 1
-16.569740 -4.557718 21.652464 27.643413 0.268425 0.670876 -0.004224 0.023786 440850.000000 0 0 1
-17.299740 -4.597418 22.936764 29.094886 0.259747 0.662684 -0.004670 0.016367 365638.000000 0 0 1
-17.630340 -6.034818 23.469364 29.967632 0.329796 0.671069 0.020478 0.010572 73063.200000 0 0 1
-16.500440 -6.737518 23.940464 29.846348 0.387661 0.639953 0.002082 0.003139 103907.000000 0 0 1
-15.885340 -7.514318 22.889364 28.857096 0.441844 0.654755 0.018482 0.009887 -27303.000000 0 0 1
-14.662240 -8.278818 23.434264 28.856279 0.514010 0.623050 0.021192 0.016017 -14193.500000 0 0 1
-15.046140 -9.348818 24.285404 30.059401 0.555965 0.630193 0.015102 0.002407 371444.000000 0 0 1
-14.304640 -9.258118 25.503344 30.671746 0.574412 0.589006 0.022888 0.005279 362208.000000 0 0 1
-14.977740 -9.984818 26.695604 32.197586 0.587987 0.593268 0.025516 -0.005899 -102110.000000 0 0 1
-15.043440 -11.366118 26.498444 32.521704 0.647046 0.618425 0.025730 -0.010934 138423.000000 0 0 1
-14.174840 -12.059518 27.391964 33.116125 0.704941 0.596781 0.028435 -0.014546 147271.000000 0 0 1
-14.108740 -13.614418 27.266234 33.583574 0.767569 0.623411 0.019051 -0.013503 -82120.600000 0 0 1
-15.268640 -14.243618 27.766634 34.741877 0.750680 0.644789 0.017586 -0.015196 74592.500000 0 0 1
-15.456640 -15.617018 27.372254 35.100417 0.790559 0.676407 0.019308 -0.003971 80628.500000 0 0 1
-14.496840 -16.643918 28.074804 35.712365 0.854237 0.666263 0.024357 -0.001997 -102431.000000 0 0 1
-13.189940 -16.629918 27.592924 34.812328 0.900249 0.655703 0.019182 -0.007233 -327266.000000 0 0 1
-12.396340 -17.656918 28.200674 35.506535 0.958684 0.653042 0.023199 -0.003523 -217489.000000 0 0 1
-10.987740 -17.696518 27.594154 34.573610 1.015152 0.646615 0.030698 -0.010447 -469911.000000 0 0 1
-10.269940 -18.704518 28.272714 35.421420 1.068674 0.646526 0.042381 -0.013862 -187088.000000 0 0 1
-9.015440 -18.904218 27.664794 34.698537 1.125798 0.648004 0.040823 -0.011562 210883.000000 0 0 1
-7.916140 -19.578218 28.561704 35.521020 1.186559 0.636672 0.044574 -0.010889 3559.750000 0 0 1
-8.223640 -20.859418 29.116484 36.749330 1.195264 0.656227 0.034775 -0.004799 -627206.000000 0 0 1
-7.322340 -21.346418 30.035074 37.568496 1.240349 0.644376 0.038865 -0.006953 -563515.000000 0 0 1
-7.746040 -22.696218 30.632784 38.903559 1.241900 0.664211 0.028396 0.000630 69846.100000 0 0 1
-7.521540 -23.761318 29.769544 38.825244 1.264230 0.697022 0.021108 0.001414 -69404.900000 0 0 1
-8.107440 -24.852018 30.383774 40.081506 1.255454 0.710479 0.022582 0.000319 -469897.000000 0 0 1
-8.192840 -26.182218 29.584124 40.346643 1.267532 0.747709 0.020991 0.000493 -12844.400000 0 0 1
-9.211340 -26.217018 28.587914 39.867903 1.232920 0.771213 0.025383 -0.000983 344347.000000 0 0 1
-9.440140 -27.505018 28.068574 40.416421 1.240179 0.803093 0.028091 -0.002547 104926.000000 0 0 1
-10.758740 -27.687118 27.259354 40.316242 1.200171 0.828288 0.025317 -0.000578 155830.000000 0 0 1
-10.831640 -27.134718 25.957114 39.081826 1.190997 0.844409 0.042503 -0.008168 136782.000000 0 0 1
-10.984540 -25.722018 25.801804 38.052798 1.167192 0.825686 0.039214 0.000069 -259570.000000 0 0 1
-11.347340 -25.386618 24.337934 36.953722 1.150456 0.851832 0.056193 -0.024604 -597448.000000 0 0 1
-12.693840 -25.522718 24.016664 37.273890 1.109267 0.870650 0.045915 -0.019300 -477137.000000 0 0 1
-13.022740 -24.856918 22.818364 36.168161 1.088206 0.888088 0.040621 -0.024199 -681326.000000 0 0 1
-14.425440 -25.171018 22.350164 36.622443 1.050393 0.914375 0.020375 -0.018001 -884115.000000 0 0 1
-14.551740 -26.479518 21.803464 37.260020 1.068301 0.945706 0.035487 -0.015283 705886.000000 0 0 1
-15.797140 -26.614618 21.090764 37.452742 1.035132 0.972628 0.026859 -0.012893 705654.000000 0 0 1
-16.068940 -28.023018 20.585664 38.304960 1.050151 1.003427 0.027321 -0.015812 -40048.400000 0 0 1
-15.183940 -28.382718 19.552864 37.662252 1.079565 1.024924 0.018422 -0.011891 -83864.400000 0 0 1
-15.306540 -29.741718 19.284864 38.610438 1.095498 1.047806 0.019187 0.000814 90056.300000 0 0 1
-14.294140 -30.197518 18.210664 38.050504 1.128691 1.071746 0.016949 -0.004503 -108460.000000 0 0 1
-14.484040 -29.480118 16.987564 36.978942 1.114120 1.093494 0.021345 -0.012868 173269.000000 0 0 1
-13.423340 -29.677218 16.059764 36.315828 1.146022 1.112719 0.028247 -0.019122 233486.000000 0 0 1
-13.621040 -28.869918 14.719664 35.152147 1.129956 1.138737 0.003694 -0.005987 -299353.000000 0 0 1
-13.418740 -27.479318 14.723364 33.940433 1.116535 1.122090 0.010228 -0.010579 -135062.000000 0 0 1
-13.795640 -26.877218 13.505264 33.092245 1.096578 1.150414 0.006957 0.000260 -40522.900000 0 0 1
-12.975740 -27.175418 12.226764 32.501799 1.125326 1.185118 0.000273 0.002658 30698.100000 0 0 1
-13.375140 -26.430518 11.120064 31.640520 1.102321 1.211677 -0.003108 0.010504 10450.600000 0 0 1
-12.588440 -26.884918 10.033564 31.335923 1.132883 1.244862 0.002402 0.007029 267891.000000 0 0 1
-12.968640 -26.177818 8.692064 30.479760 1.110831 1.281607 0.007192 0.012365 807385.000000 0 0 1
-14.137340 -26.617218 7.962564 31.172795 1.082552 1.312501 0.009017 0.004618 541284.000000 0 0 1
-14.336840 -25.724318 6.918864 30.251549 1.062346 1.340043 0.021314 -0.000731 50196.100000 0 0 1
-15.361340 -26.242018 5.876964 30.970195 1.041202 1.379877 0.011422 0.008124 203179.000000 0 0 1
-14.929440 -27.343818 5.073064 31.564356 1.071037 1.409375 0.043833 -0.006134 5134.200000 0 0 1
-15.587840 -27.227318 3.818564 31.605206 1.050837 1.449680 0.029664 0.003693 1131.260000 0 0 1
-15.352140 -28.415818 2.823264 32.420946 1.075456 1.483604 0.019951 0.011040 388178.000000 0 0 1
-13.994640 -28.485818 2.389464 31.827682 1.114145 1.495651 0.037546 0.009304 179404.000000 0 0 1
-13.787940 -29.619618 1.551664 32.708359 1.135127 1.523339 0.029580 0.008909 968832.000000 0 0 1
-12.328040 -29.722318 0.925364 32.190885 1.177619 1.542046 0.007565 0.005264 1300920.000000 0 0 1
-12.053640 -28.846118 -0.152736 31.263591 1.174989 1.575682 0.029712 0.002564 -32250.200000 0 0 1
-12.078340 -27.443918 0.065664 29.984317 1.156197 1.568606 0.028113 0.003637 -372238.000000 0 0 1
-11.811140 -26.601118 -1.254936 29.132411 1.152936 1.613887 0.030164 0.008064 1014640.000000 0 0 1
-10.429140 -26.682818 -1.651936 28.696144 1.198197 1.628395 0.032206 -0.000872 555485.000000 0 0 1
-10.181340 -26.029018 -2.905236 28.099998 1.197939 1.674371 0.044580 -0.004469 758440.000000 0 0 1
-8.821740 -26.414718 -3.570636 28.076857 1.248472 1.698315 0.030829 -0.007224 631560.000000 0 0 1
-8.544440 -25.644718 -4.704536 27.437050 1.249179 1.743114 0.027583 -0.005536 539644.000000 0 0 1
-7.233240 -25.968018 -5.227636 27.458804 1.299138 1.762347 0.022755 0.002809 1303060.000000 0 0 1
-6.576940 -24.732118 -5.913436 26.265996 1.310885 1.797880 0.012595 -0.003611 -165350.000000 0 0 1
-6.918640 -24.560518 -7.270736 26.532061 1.296214 1.848383 0.016334 -0.005847 159412.000000 0 0 1
-6.110640 -23.510118 -7.861136 25.531609 1.316508 1.883779 0.008719 -0.004411 -384144.000000 0 0 1
-6.357440 -23.517118 -9.392836 26.109333 1.306775 1.938796 0.017209 0.001032 -111720.000000 0 0 1
-5.745240 -24.615718 -10.049836 27.201849 1.341504 1.949218 0.001044 -0.001550 -193511.000000 0 0 1
-6.027840 -24.887818 -11.439136 28.046251 1.333172 1.990913 0.000243 0.002656 165677.000000 0 0 1
-7.397140 -25.460418 -11.890936 29.057614 1.288046 1.992395 -0.001697 -0.006584 316745.000000 0 0 1
-7.511540 -25.451018 -13.238336 29.655204 1.283807 2.033544 0.006269 -0.002462 -877136.000000 0 0 1
-8.692440 -26.048418 -13.628336 30.656323 1.248713 2.031471 0.009709 -0.007135 -1056620.000000 0 0 1
-8.711140 -26.066618 -15.188036 31.401099 1.248277 2.075649 0.015443 -0.010632 425996.000000 0 0 1
-7.844340 -26.936918 -15.945736 32.270695 1.287422 2.087624 0.014381 -0.012291 181253.000000 0 0 1
-6.495940 -26.529718 -16.009236 31.659420 1.330666 2.100955 0.019563 -0.015001 -502740.000000 0 0 1
-5.612040 -27.504418 -16.742736 32.684970 1.369518 2.108594 0.008143 -0.010495 -735824.000000 0 0 1
-5.590340 -27.172318 -18.109636 33.129228 1.367891 2.149138 0.026675 -0.009797 -121156.000000 0 0 1
-4.773740 -28.075918 -18.789036 34.118524 1.402377 2.153998 0.015113 -0.011440 -289964.000000 0 0 1
-24.093340 14.644212 -5.374333 28.702359 -0.546144 1.759152 -0.002660 -0.008891 -37511.300000 0 0 1
-24.499340 13.464712 -4.704533 28.348700 -0.502532 1.737520 -0.013424 -0.003797 337764.000000 0 0 1
-23.433740 12.540012 -4.567033 26.967571 -0.491352 1.740969 0.003393 -0.004174 -626003.000000 0 0 1
-23.830340 11.132312 -4.028733 26.609099 -0.437023 1.722785 0.020251 -0.010608 -333807.000000 0 0 1
-24.143540 10.187912 -5.013733 26.680360 -0.399304 1.759839 0.018555 -0.010946 261476.000000 0 0 1
-25.491420 10.299512 -5.427533 28.024107 -0.383983 1.765702 0.013366 -0.008207 -529869.000000 0 0 1
-25.791710 9.701112 -6.773233 28.376056 -0.359764 1.811818 0.030028 -0.013181 -525341.000000 0 0 1
-25.207770 10.329112 -7.865733 28.354752 -0.388891 1.851888 0.034499 -0.006047 -167780.000000 0 0 1
-25.434620 9.540512 -9.060933 28.636372 -0.358858 1.892743 0.055716 -0.019419 39469.700000 0 0 1
-26.166250 10.453112 -10.084833 29.927313 -0.380065 1.914501 0.025954 -0.008269 -89729.100000 0 0 1
-25.287570 11.363312 -10.673333 29.707004 -0.422325 1.938300 0.028144 -0.002449 -21756.500000 0 0 1
-25.946220 11.918512 -11.767533 30.882553 -0.430606 1.961719 0.012920 -0.003324 -232855.000000 0 0 1
-25.116710 12.924212 -12.563533 30.914830 -0.475233 1.989298 0.010901 0.000986 -281747.000000 0 0 1
-24.740440 14.057512 -11.822033 30.813365 -0.516709 1.964559 0.014558 -0.002159 430528.000000 0 0 1
-24.054040 14.992512 -12.688333 31.054244 -0.557365 1.991701 0.018197 -0.001258 146170.000000 0 0 1
-23.938140 16.384512 -12.136133 31.444753 -0.600215 1.967035 0.031147 -0.002106 -325352.000000 0 0 1
-23.089140 16.500012 -11.036033 30.449184 -0.620472 1.941682 0.027676 0.002577 -192359.000000 0 0 1
-22.888740 17.854312 -10.641833 30.917948 -0.662456 1.922179 0.010797 0.009491 51508.300000 0 0 1
-21.821240 18.013312 -9.492633 29.845536 -0.690094 1.894477 0.006959 0.008179 -26753.400000 0 0 1
-22.156240 17.534412 -8.182033 29.415986 -0.669474 1.852663 0.009342 0.002116 38510.000000 0 0 1
-22.462540 18.568212 -7.248333 30.031359 -0.690769 1.814562 -0.006189 0.001223 -223121.000000 0 0 1
-22.823540 18.015812 -5.827033 29.655316 -0.668215 1.768575 -0.012220 0.009548 418622.000000 0 0 1
-21.718340 17.821312 -4.950033 28.526975 -0.687155 1.745200 -0.015937 -0.004368 174493.000000 0 0 1
-22.229940 17.713012 -3.647633 28.657046 -0.672792 1.698428 -0.021178 0.007233 205224.000000 0 0 1
-21.185840 17.574812 -2.497033 27.639628 -0.692504 1.661262 -0.024406 -0.004194 -160789.000000 0 0 1
-20.537840 18.749012 -2.007533 27.881150 -0.739897 1.642862 -0.019514 -0.000928 273377.000000 0 0 1
-19.772240 18.346112 -0.893833 26.987409 -0.748002 1.603923 0.014310 -0.016344 -48123.900000 0 0 1
-19.120740 19.565712 -0.165633 27.357764 -0.796900 1.576851 0.014951 -0.011161 338367.000000 0 0 1
-20.100340 20.384412 0.515767 28.632393 -0.792415 1.552782 0.007846 -0.010649 446114.000000 0 0 1
-19.630940 21.656712 0.905367 29.243917 -0.834424 1.539832 0.009976 -0.007753 -85898.300000 0 0 1
-20.590440 22.412812 1.825267 30.489867 -0.827750 1.510896 0.006575 -0.016471 -67931.800000 0 0 1
-20.479140 21.895012 3.149867 30.144791 -0.818799 1.466114 0.029288 -0.021387 327456.000000 0 0 1
-21.449840 22.442212 4.040167 31.306093 -0.808004 1.441382 0.010624 -0.017953 -1647.010000 0 0 1
-21.360440 22.102212 5.531267 31.230932 -0.802463 1.392748 0.028788 -0.014977 536961.000000 0 0 1
-20.170640 22.714612 6.095667 30.983310 -0.844649 1.372764 0.033163 -0.008402 1132390.000000 0 0 1
-19.577840 21.990712 7.195367 30.309348 -0.843379 1.331110 0.032605 -0.010872 41113.300000 0 0 1
-20.429940 21.989112 8.509367 31.197962 -0.822138 1.294542 0.037395 -0.030074 -290369.000000 0 0 1
-21.558840 21.172912 8.332467 31.344949 -0.776367 1.301730 0.034095 -0.025047 295634.000000 0 0 1
-22.318540 20.748112 9.462467 31.908301 -0.748949 1.269716 0.046772 -0.027326 266115.000000 0 0 1
-22.866040 21.620512 10.589967 33.203159 -0.757408 1.246181 0.045929 -0.024952 -762484.000000 0 0 1
-23.952140 22.418312 10.220767 34.362040 -0.752333 1.268782 0.049118 -0.021252 -284444.000000 0 0 1
-24.540740 22.919212 11.386367 35.456841 -0.751245 1.243871 0.056047 -0.013926 -117162.000000 0 0 1
-25.490850 24.106312 11.080767 36.792406 -0.757490 1.264877 0.038850 -0.019922 -166907.000000 0 0 1
-26.100710 24.503812 12.255567 37.840227 -0.753852 1.240972 0.026960 -0.016475 -199685.000000 0 0 1
-26.627200 25.810912 12.138967 39.020065 -0.769833 1.254451 0.021116 -0.014748 -81881.200000 0 0 1
-27.009350 26.321312 13.570067 40.080708 -0.772498 1.225401 0.025653 -0.017262 153986.000000 0 0 1
-25.921290 26.459212 14.466967 39.765517 -0.795667 1.198445 0.014746 -0.016383 373613.000000 0 0 1
-26.358840 27.137112 15.617367 40.928150 -0.799945 1.179291 0.019661 -0.021477 336052.000000 0 0 1
-25.218380 27.103912 16.667467 40.600409 -0.821419 1.147767 0.014612 -0.017762 -21572.200000 0 0 1
-24.958340 25.850112 17.227767 39.849003 -0.802948 1.123725 0.022558 -0.012872 224651.000000 0 0 1
-23.862440 25.954312 18.128367 39.644420 -0.827365 1.095869 0.019571 -0.007367 57830.200000 0 0 1
-23.590840 24.688912 18.962667 39.059607 -0.808138 1.063884 0.025187 -0.002899 798100.000000 0 0 1
-22.366440 24.676612 19.748267 38.719335 -0.834466 1.035569 0.025910 -0.011430 1269470.000000 0 0 1
-22.135840 23.384512 20.215267 38.019572 -0.812822 1.010182 0.031020 -0.008286 262452.000000 0 0 1
-20.643440 23.203712 20.655567 37.299013 -0.843723 0.983895 0.037309 -0.006916 81745.100000 0 0 1
-19.801440 23.127812 19.536667 36.175601 -0.862729 1.000299 0.037354 -0.006014 66438.000000 0 0 1
-18.434340 22.894012 19.839767 35.462333 -0.892891 0.977062 0.026309 -0.009102 322422.000000 0 0 1
-18.115240 21.345312 19.758067 34.266098 -0.867072 0.956227 0.036259 -0.000319 -442095.000000 0 0 1
-18.693140 20.656612 20.833567 34.787449 -0.835255 0.928692 0.054288 -0.006678 310028.000000 0 0 1
-17.886640 20.637712 22.019867 35.081642 -0.856688 0.892233 0.063657 -0.013074 198886.000000 0 0 1
-18.753240 20.321112 23.268567 36.139422 -0.825502 0.871270 0.053926 -0.010906 -196697.000000 0 0 1
-19.669840 21.321912 23.589667 37.389824 -0.825679 0.888069 0.034861 -0.001903 -84675.400000 0 0 1
-20.271640 21.064112 24.850567 38.369088 -0.804567 0.866272 0.033945 -0.008342 121685.000000 0 0 1
-21.356140 22.102112 25.260167 39.782711 -0.802562 0.882848 0.024292 -0.018163 -477765.000000 0 0 1
-20.856240 23.410712 25.548567 40.444697 -0.843040 0.887063 0.021322 -0.018071 -57380.000000 0 0 1
-21.843740 24.373112 25.774267 41.659458 -0.840072 0.903723 0.014104 -0.021088 -118492.000000 0 0 1
-22.679740 24.970412 24.584167 41.740548 -0.833434 0.941006 0.013640 -0.016866 189750.000000 0 0 1
-23.507540 23.996212 23.987967 41.277660 -0.795685 0.950671 0.012227 -0.024690 -222136.000000 0 0 1
-24.265540 24.591612 22.966067 41.484986 -0.792072 0.984116 0.006820 -0.015185 -34863.700000 0 0 1
-25.336830 23.611812 22.403767 41.248047 -0.750171 0.996615 0.006117 -0.012104 -20358.000000 0 0 1
-26.621730 23.765212 22.959067 42.433720 -0.728767 0.999103 0.001825 -0.022972 -212477.000000 0 0 1
-27.513470 22.893512 22.332467 42.188186 -0.694000 1.012958 0.012751 -0.024685 -267526.000000 0 0 1
-28.968690 22.786012 22.815667 43.346765 -0.666500 1.016492 0.025638 -0.021205 -1009810.000000 0 0 1
-29.659980 23.980312 22.551167 44.309423 -0.679907 1.036835 0.023330 -0.018420 -1043940.000000 0 0 1
-31.035100 23.935212 22.498767 45.191441 -0.656951 1.049673 0.027104 -0.024901 -735468.000000 0 0 1
-31.740810 23.047012 21.440767 44.702911 -0.628029 1.070566 0.027343 -0.033208 -1352170.000000 0 0 1
-31.644500 21.655912 21.725267 44.071988 -0.600145 1.055320 0.022057 -0.025640 266402.000000 0 0 1
-32.381160 20.804212 20.870167 43.782630 -0.571070 1.073926 0.011022 -0.012930 123589.000000 0 0 1
-33.900560 20.855512 20.627867 44.829781 -0.551519 1.092646 0.018681 -0.015027 -85886.000000 0 0 1
-34.426636 19.922412 19.703767 44.388447 -0.524604 1.110857 0.017581 -0.011231 1155320.000000 0 0 1
34.506392 20.083812 19.534767 44.448372 0.527103 1.115762 0.017616 -0.007486 1023780.000000 0 0 1
33.973737 19.242312 18.369367 43.149914 0.515338 1.131049 0.029207 -0.007963 -356053.000000 0 0 1
34.241167 17.799812 18.448567 42.774297 0.479391 1.124863 0.027179 -0.009677 335875.000000 0 0 1
33.656917 17.108212 17.377167 41.562542 0.470275 1.139447 0.033002 -0.012112 -51364.400000 0 0 1
33.838247 15.603412 17.442267 41.142753 0.432061 1.133000 0.029077 -0.009580 109559.000000 0 0 1
33.182967 14.971612 16.340667 39.903332 0.423838 1.148883 0.045744 -0.017796 124919.000000 0 0 1
33.363397 13.577212 16.385567 39.572007 0.386483 1.143876 0.030075 -0.022455 -142716.000000 0 0 1
32.448587 12.781412 15.455367 38.146346 0.375234 1.153643 0.040903 -0.021072 -277460.000000 0 0 1
32.666917 13.073112 14.097067 37.904631 0.380674 1.189732 0.041033 -0.020282 314310.000000 0 0 1
31.762367 12.406712 13.243067 36.580778 0.372386 1.200360 0.044667 -0.019826 -184454.000000 0 0 1
32.104417 12.818112 11.804867 36.528790 0.379871 1.241723 0.044357 -0.011367 886114.000000 0 0 1
33.361197 12.315412 11.285367 37.309494 0.353635 1.263503 0.043050 -0.016318 1098030.000000 0 0 1
33.427727 12.627612 9.905367 37.080801 0.361187 1.300384 0.026299 -0.010592 -1163460.000000 0 0 1
34.852369 12.487612 9.400167 38.196744 0.344050 1.322143 0.028019 -0.010695 -1027560.000000 0 0 1
-34.902751 11.248212 9.586967 37.902958 -0.311763 1.315084 0.023890 -0.007094 154580.000000 0 0 1
-33.578290 11.151112 9.097267 36.532303 -0.320634 1.319128 -0.000303 0.002019 -156266.000000 0 0 1
-33.502640 10.972412 7.535267 36.049979 -0.316499 1.360221 0.008319 -0.004050 -483476.000000 0 0 1
-33.933250 12.092012 6.815567 36.662435 -0.342318 1.383808 -0.003231 -0.000940 230651.000000 0 0 1
-33.346150 11.939412 5.507867 35.844831 -0.343824 1.416527 0.000584 -0.003218 -191710.000000 0 0 1
-33.982540 12.855912 4.464867 36.606318 -0.361669 1.448522 0.015277 0.005894 -114224.000000 0 0 1
35.069343 12.336712 4.211467 37.413764 0.338260 1.457993 0.013906 0.004054 211485.000000 0 0 1
34.030647 13.271312 4.277167 36.776444 0.371840 1.454231 0.010290 0.001401 -133223.000000 0 0 1
33.608847 13.735012 5.697667 36.751443 0.387960 1.415136 0.030774 -0.002074 -1417080.000000 0 0 1
32.785827 14.888112 5.577367 36.437253 0.426260 1.417124 0.022607 0.009265 361058.000000 0 0 1
32.192307 15.378312 6.798467 36.318814 0.445650 1.382497 0.006195 0.013682 -478429.000000 0 0 1
30.990687 14.601412 7.235967 35.014042 0.440306 1.362637 0.030671 -0.002360 -1420290.000000 0 0 1
31.356787 13.432712 7.970067 35.031526 0.404733 1.341275 0.039858 0.003645 -87155.700000 0 0 1
30.415367 12.361812 7.898467 33.768251 0.386040 1.334707 0.058675 0.017142 -187993.000000 0 0 1
30.717127 11.352412 6.723967 33.430987 0.354010 1.368285 0.053893 0.008687 -191292.000000 0 0 1
30.454537 11.889812 5.447267 33.143916 0.372214 1.405695 0.050561 0.005723 187516.000000 0 0 1
30.659117 10.866612 4.539467 32.843135 0.340619 1.432136 0.050120 -0.004240 -213208.000000 0 0 1
30.303307 11.237312 3.082467 32.466432 0.355108 1.475710 0.034016 -0.010260 992174.000000 0 0 1
28.896087 11.079012 2.807467 31.074270 0.366122 1.480326 0.044123 -0.000876 882652.000000 0 0 1
28.525817 11.525512 1.541367 30.804797 0.383983 1.520739 0.044095 -0.007560 706332.000000 0 0 1
27.014527 11.158612 1.308067 29.257654 0.391714 1.526073 0.056072 -0.000866 763722.000000 0 0 1
26.861297 9.768012 1.061267 28.601917 0.348780 1.533683 0.043620 -0.009105 674551.000000 0 0 1
25.474577 9.445812 1.234167 27.197438 0.355078 1.525403 0.055832 -0.003769 546555.000000 0 0 1
25.239887 7.920912 1.157967 26.478928 0.304092 1.527051 0.062041 -0.002825 75405.900000 0 0 1
25.695847 7.225212 2.293767 26.790700 0.274105 1.485073 0.072299 0.002860 1623310.000000 0 0 1
27.128567 7.142612 2.533667 28.167278 0.257445 1.480724 0.084345 -0.011963 959825.000000 0 0 1
27.538267 6.408812 3.835367 28.533122 0.228654 1.435970 0.081348 -0.014632 -4387.230000 0 0 1
28.932407 6.233012 3.997967 29.865002 0.212191 1.436525 0.084382 -0.011213 334987.000000 0 0 1
29.159597 5.657712 5.297367 30.172072 0.191645 1.394310 0.060183 -0.001872 -1097350.000000 0 0 1
30.544867 5.729412 5.850767 31.623513 0.185419 1.384711 0.038559 -0.000074 -1079410.000000 0 0 1
30.997477 6.992512 6.250267 32.385254 0.221870 1.376580 0.046646 -0.007763 290703.000000 0 0 1
32.305007 6.977612 6.817567 33.745811 0.212724 1.367369 0.007602 0.002083 405582.000000 0 0 1
32.610097 8.196612 7.721867 34.499712 0.246251 1.345060 0.022315 -0.013669 72519.300000 0 0 1
31.859867 8.090212 8.929167 34.062189 0.248675 1.305554 0.029297 -0.011425 48206.000000 0 0 1
32.240167 9.063612 9.818567 34.899595 0.274054 1.285609 0.030054 -0.007157 -742341.000000 0 0 1
31.492337 9.045912 11.135167 34.606181 0.279711 1.243200 0.040223 -0.009358 -1542040.000000 0 0 1
30.257367 9.647512 11.046467 33.624503 0.308658 1.236056 0.039305 -0.007049 -1059550.000000 0 0 1
29.623087 9.530412 12.288767 33.456985 0.311265 1.194691 0.033312 -0.011656 -311372.000000 0 0 1
28.156077 10.006012 12.363767 32.338023 0.341457 1.178481 0.029565 -0.015150 -275470.000000 0 0 1
27.920817 11.418912 12.387167 32.609899 0.388219 1.181152 0.035881 -0.009976 155143.000000 0 0 1
28.196387 12.193512 11.218567 32.704346 0.408163 1.220656 0.046012 -0.012382 -652796.000000 0 0 1
27.236517 11.987212 10.061867 31.412773 0.414604 1.244738 0.031824 -0.008385 -348973.000000 0 0 1
27.335767 13.040312 9.126067 31.631930 0.445113 1.278128 0.026644 0.006981 54621.100000 0 0 1
26.143657 13.093312 8.375367 30.415003 0.464305 1.291822 0.029160 0.012010 59409.200000 0 0 1
25.959397 14.356812 7.504767 30.599508 0.505181 1.323011 0.022028 0.012524 -119070.000000 0 0 1
25.866157 15.632612 8.108567 31.291940 0.543623 1.308679 0.024304 0.018884 259632.000000 0 0 1
25.813267 16.692512 7.195767 31.571249 0.574027 1.340854 0.012407 0.022673 -785519.000000 0 0 1
25.473737 18.080312 7.815167 32.200711 0.617248 1.325646 0.016979 0.017015 132462.000000 0 0 1
24.136887 18.495812 8.012667 31.446577 0.653844 1.313153 0.011886 0.015701 150044.000000 0 0 1
23.363187 17.655112 8.883367 30.601564 0.647127 1.276265 0.015583 0.009099 -1171270.000000 0 0 1
22.013787 18.299212 9.103667 30.039054 0.693514 1.262893 0.016059 0.005578 -1034450.000000 0 0 1
21.280787 18.504112 7.921067 29.291934 0.715719 1.296969 0.024736 -0.009841 -363115.000000 0 0 1
20.476887 19.619212 8.043867 29.477452 0.764011 1.294409 0.045154 -0.015232 -548717.000000 0 0 1
19.888187 20.103912 6.716467 29.065757 0.790792 1.337610 0.041658 -0.012260 -114621.000000 0 0 1
20.801087 20.686512 5.780567 29.900367 0.782637 1.376244 0.012010 0.000045 -15147.000000 0 0 1
20.318987 20.776312 4.449267 29.399190 0.796526 1.418873 0.014935 -0.009155 -553674.000000 0 0 1
17.132660 17.327212 33.367202 41.317436 0.791044 0.630756 0.027810 -0.001035 -80615.200000 0 0 1
16.612160 18.010212 32.291194 40.534588 0.825756 0.649092 0.024731 -0.005664 -337491.000000 0 0 1
16.332660 17.160012 31.187474 39.164784 0.810096 0.649619 0.037888 -0.010872 -59442.500000 0 0 1
15.846860 17.863112 29.880174 38.249687 0.845139 0.674231 0.030977 -0.009018 -550993.000000 0 0 1
16.794360 18.553512 29.165294 38.430427 0.835124 0.709156 0.022818 0.003260 -959389.000000 0 0 1
16.351860 18.847212 27.849664 37.392573 0.856172 0.730574 0.041799 -0.004747 283534.000000 0 0 1
17.489860 19.306312 26.857714 37.416115 0.834723 0.770143 0.025486 0.003164 357050.000000 0 0 1
18.056760 20.588512 27.191964 38.591920 0.850817 0.788933 0.042312 -0.007669 -179393.000000 0 0 1
18.859360 21.005812 26.136304 38.471106 0.839189 0.823886 0.031128 -0.002696 -478776.000000 0 0 1
19.336260 22.447412 26.542364 39.777812 0.859720 0.840265 0.046532 -0.012284 -357555.000000 0 0 1
18.446260 23.497612 26.274344 39.783708 0.905252 0.849405 0.040682 -0.017619 210943.000000 0 0 1
18.863160 24.736112 26.897144 41.123599 0.919295 0.857862 0.045156 -0.019117 416407.000000 0 0 1
17.887460 25.875812 26.458254 41.104234 0.965946 0.871490 0.061303 -0.017385 303193.000000 0 0 1
18.219160 26.338112 25.189324 40.744766 0.965635 0.904317 0.075406 -0.017205 166919.000000 0 0 1
17.319160 27.314612 24.737824 40.718562 1.005707 0.917847 0.077025 -0.026589 -385037.000000 0 0 1
17.658060 27.769312 23.286764 40.313957 1.004409 0.954968 0.065728 -0.031907 199445.000000 0 0 1
18.904260 28.446712 23.261764 41.324280 0.984261 0.972896 0.078023 -0.028650 201535.000000 0 0 1
18.879760 29.424912 22.225064 41.427337 1.000331 1.004532 0.068926 -0.034452 975082.000000 0 0 1
20.269860 30.167912 22.253364 42.616691 0.979178 1.021397 0.077151 -0.029642 507687.000000 0 0 1
21.316260 29.602512 21.528164 42.357449 0.946719 1.037645 0.076300 -0.027786 -460403.000000 0 0 1
22.395060 30.512512 21.439164 43.499309 0.937638 1.055420 0.060782 -0.026295 -79859.000000 0 0 1
22.774760 30.797412 19.971264 43.197473 0.934048 1.090181 0.044752 -0.021577 -151580.000000 0 0 1
21.870560 31.666112 19.319764 43.061785 0.966365 1.105540 0.050832 -0.016940 189754.000000 0 0 1
22.000360 31.666412 17.856564 42.492757 0.963600 1.137102 0.043794 -0.009221 -55725.600000 0 0 1
21.076860 32.681412 17.144564 42.499939 0.998001 1.155564 0.050692 -0.008476 -631361.000000 0 0 1
21.547560 33.990712 17.385564 43.839750 1.005805 1.163018 0.051650 -0.006552 277437.000000 0 0 1
21.706360 -34.330018 16.156764 43.712209 -1.006975 1.192200 0.042571 -0.006083 447803.000000 0 0 1
22.959860 34.305512 15.307464 44.026603 0.980989 1.215694 0.028606 -0.003248 199899.000000 0 0 1
22.809860 33.244412 14.371464 42.802098 0.969442 1.228379 0.046736 -0.006278 -129083.000000 0 0 1
21.941660 33.600512 13.320464 42.283160 0.992304 1.250308 0.029003 -0.009114 -217896.000000 0 0 1
21.448560 32.375912 12.485964 40.793869 0.985694 1.259729 0.034681 -0.021849 -349800.000000 0 0 1
22.412960 31.864312 11.626164 40.655170 0.957800 1.280778 0.050600 -0.037400 -294312.000000 0 0 1
21.933260 30.684512 10.996064 39.287665 0.950207 1.287121 0.046731 -0.036268 102894.000000 0 0 1
23.049460 29.850412 10.259864 39.084390 0.913260 1.305179 0.040753 -0.029840 1151850.000000 0 0 1
24.122560 29.212212 10.973864 39.442071 0.880538 1.288848 0.037929 -0.027917 973895.000000 0 0 1
25.133060 30.134512 11.403564 40.863196 0.875648 1.287974 0.037565 -0.023564 -857092.000000 0 0 1
26.493760 29.525812 11.635464 41.340984 0.839470 1.285490 0.029659 -0.017235 -601081.000000 0 0 1
26.609560 28.625312 12.751564 41.110577 0.821876 1.255417 0.030822 -0.005326 -294023.000000 0 0 1
27.952060 28.205512 12.707964 41.693656 0.789911 1.261075 0.023027 0.014879 54450.800000 0 0 1
28.305760 27.026812 13.646464 41.447444 0.762288 1.235290 0.016923 -0.007990 -233506.000000 0 0 1
28.768460 27.392212 14.917664 42.432232 0.760898 1.211555 -0.007583 -0.003180 -6096.870000 0 0 1
29.109360 26.146112 15.583064 42.116575 0.731821 1.191789 0.006283 -0.009195 -57741.700000 0 0 1
30.145660 26.342412 16.713864 43.382447 0.718171 1.175298 0.012200 -0.014993 1201960.000000 0 0 1
31.520760 26.312012 16.259164 44.161530 0.695575 1.193751 0.023902 -0.008226 1230370.000000 0 0 1
32.426960 26.830112 17.249964 45.485425 0.691227 1.181820 0.008916 -0.007123 1102320.000000 0 0 1
33.915560 26.878712 16.785464 46.416400 0.670162 1.200783 0.019967 -0.019470 534379.000000 0 0 1
34.183760 27.861512 15.801464 46.845273 0.683851 1.226736 0.024314 -0.005053 -726206.000000 0 0 1
-34.801467 28.081812 15.696764 47.393235 -0.678943 1.233218 0.032267 -0.007832 -352440.000000 0 0 1
-34.588567 29.356212 14.802264 47.720679 -0.703754 1.255408 0.020678 -0.004154 193824.000000 0 0 1
-35.075667 30.564412 15.435064 49.017619 -0.716779 1.250458 0.023253 -0.001045 26333.000000 0 0 1
-35.120567 31.608712 14.523264 49.431671 -0.732818 1.272591 0.009069 0.022671 325995.000000 0 0 1
34.154360 32.665812 14.908064 49.556291 0.763125 1.265233 0.005003 0.021504 -526947.000000 0 0 1
34.275260 33.824312 14.067264 50.167374 0.778776 1.286579 -0.017589 0.013707 311595.000000 0 0 1
33.181560 -34.374718 14.191064 49.839979 -0.803058 1.282069 -0.011342 0.026984 1113590.000000 0 0 1
31.870460 34.270512 13.453764 48.694948 0.821669 1.290868 0.012512 0.023773 416560.000000 0 0 1
31.360560 33.061512 13.984964 47.666839 0.811795 1.273026 0.000610 0.012810 -765003.000000 0 0 1
30.185760 32.585112 13.386464 46.391455 0.823604 1.278080 0.011260 0.012461 -400570.000000 0 0 1
29.599260 31.375912 14.148164 45.395315 0.814527 1.253851 0.024866 0.008943 -36899.800000 0 0 1
29.039160 31.850712 15.376764 45.762272 0.831540 1.228115 0.024964 0.011821 6084.820000 0 0 1
28.476260 30.865612 16.203964 45.012796 0.825641 1.202544 0.020222 -0.000108 306364.000000 0 0 1
27.379060 31.296912 17.237064 45.013620 0.852070 1.177830 0.004526 0.004135 211456.000000 0 0 1
27.240860 30.317012 18.295864 44.675769 0.838792 1.148863 -0.004565 0.005937 -402212.000000 0 0 1
27.937660 30.631212 19.462264 45.799167 0.831355 1.131892 -0.011745 0.002198 -375799.000000 0 0 1
27.920760 29.601112 20.646464 45.629718 0.814602 1.101254 -0.006769 -0.004237 -264327.000000 0 0 1
26.775860 29.553512 21.455164 45.284443 0.834669 1.077211 0.006897 -0.013320 -204456.000000 0 0 1
26.826360 28.470412 22.389864 45.072430 0.815121 1.050943 -0.003725 -0.014833 239979.000000 0 0 1
25.641460 28.445412 23.409464 44.884618 0.837193 1.022133 0.024076 -0.024480 282962.000000 0 0 1
24.473360 27.906312 22.822464 43.572611 0.850844 1.019514 0.048233 -0.024350 463929.000000 0 0 1
23.338060 27.767512 23.695064 43.326156 0.871855 0.992140 0.066481 -0.027118 654444.000000 0 0 1
23.294660 26.482812 24.583794 42.992365 0.849359 0.962077 0.046649 -0.028540 -68953.900000 0 0 1
24.230260 26.413712 25.695144 44.102495 0.828485 0.948844 0.022801 -0.027988 588680.000000 0 0 1
23.745360 25.594612 26.772824 43.996709 0.822860 0.916604 0.042977 -0.027146 -681209.000000 0 0 1
24.798160 25.370512 27.883804 45.123366 0.796806 0.904669 0.051830 -0.032781 -72285.500000 0 0 1
25.125660 26.523612 28.634054 46.418852 0.812458 0.906046 0.057126 -0.031448 615047.000000 0 0 1
26.045860 27.338512 27.887764 46.941543 0.809607 0.934655 0.034564 -0.018663 -804394.000000 0 0 1
26.477360 28.653412 28.498864 48.314117 0.824848 0.939903 0.003468 -0.011309 -500675.000000 0 0 1
27.298060 28.479312 29.632634 49.339115 0.806573 0.926556 -0.000930 -0.006514 151905.000000 0 0 1
27.422060 29.700312 30.303644 50.521171 0.825261 0.927519 0.007462 -0.010205 655503.000000 0 0 1
28.915860 30.143612 30.465824 51.700394 0.806184 0.940633 -0.008184 -0.002908 628650.000000 0 0 1
29.508560 30.589212 29.276824 51.609955 0.803378 0.967608 -0.026165 -0.007418 -171060.000000 0 0 1
30.896460 30.808312 29.438614 52.634355 0.783970 0.977250 -0.013070 -0.013630 22138.000000 0 0 1
31.568960 31.176312 28.074954 52.504902 0.779140 1.006630 -0.018523 -0.006396 -439058.000000 0 0 1
31.372360 32.512112 27.694254 52.992774 0.803237 1.020894 -0.020653 -0.001911 77710.700000 0 0 1
31.936460 32.781012 26.438494 52.853819 0.798447 1.046944 -0.013571 -0.006682 -286190.000000 0 0 1
31.939560 34.237812 26.067584 53.589945 0.820113 1.062801 -0.012009 -0.011614 -279667.000000 0 0 1
32.708860 -34.049018 26.930694 54.355013 -0.805470 1.052433 -0.003589 -0.008230 -39399.200000 0 0 1
32.343660 -32.695318 26.792074 53.225101 -0.790805 1.043298 -0.010491 -0.003664 -270017.000000 0 0 1
33.249660 -31.807718 27.629764 53.671917 -0.763238 1.030034 -0.010352 -0.000787 -237499.000000 0 0 1
33.032860 -31.897818 28.988034 54.304206 -0.767919 1.007699 -0.012939 -0.007066 503835.000000 0 0 1
33.952160 -31.042418 29.675484 54.745002 -0.740659 0.997901 -0.005272 -0.008738 -55144.500000 0 0 1
33.555460 -30.727618 31.135874 55.132550 -0.741436 0.970671 0.008378 -0.016005 -394459.000000 0 0 1
33.502660 -31.691718 32.124974 56.203267 -0.757628 0.962359 0.004053 -0.009144 883438.000000 0 0 1
32.223660 -32.352118 32.066684 55.796918 -0.787387 0.958555 -0.003515 -0.012445 429795.000000 0 0 1
32.200760 -33.238318 33.315423 57.022734 -0.801252 0.946843 -0.000442 -0.008048 -360835.000000 0 0 1
32.104860 -32.537018 34.550184 57.298297 -0.792083 0.923555 -0.004396 -0.008364 92812.000000 0 0 1
32.305060 -33.351118 -33.394933 57.193842 -0.801329 2.194309 -0.002309 -0.009117 -225696.000000 0 0 1
31.606160 34.389812 -33.146343 57.273804 0.827552 2.187973 0.004222 -0.010659 -209817.000000 0 0 1
31.879460 33.354912 -34.108120 57.377818 0.808012 2.207375 -0.003726 -0.010977 -188794.000000 0 0 1
31.044560 32.255412 -33.928173 56.172032 0.804525 2.219313 0.000560 -0.005050 -205428.000000 0 0 1
31.128560 31.271112 33.979318 55.690787 0.787683 0.914556 0.005762 0.000961 -291673.000000 0 0 1
32.224660 30.406312 33.979738 55.835429 0.756374 0.916540 0.003614 -0.001130 -278240.000000 0 0 1
32.211760 29.606912 32.815894 54.690489 0.743286 0.927259 0.004981 -0.000556 -300445.000000 0 0 1
33.523160 28.840112 32.618724 54.950300 0.710446 0.935266 0.000603 0.002589 -338346.000000 0 0 1
33.742360 27.897812 33.617983 55.199670 0.690864 0.915966 -0.004556 0.007407 329895.000000 0 0 1
35.052460 27.380012 33.462400 55.660329 0.663119 0.925808 -0.001342 0.001314 187910.000000 0 0 1
-35.059867 26.180312 34.350080 55.628509 -0.641406 0.905248 0.004329 -0.000078 -74851.500000 0 0 1
34.798360 24.931312 33.874740 54.589323 0.621682 0.901368 -0.002887 -0.001998 21640.100000 0 0 1
34.969360 23.901812 -34.294842 54.500357 0.599571 2.251396 0.004691 -0.017940 122307.000000 0 0 1
34.598060 22.485812 34.330076 53.676732 0.576316 0.876856 -0.001091 -0.021205 -228294.000000 0 0 1
-34.909667 22.205912 33.261595 53.085978 -0.566539 0.893664 0.003991 -0.019870 -117455.000000 0 0 1
34.986960 21.133912 32.530314 52.239362 0.543393 0.898587 0.002355 -0.016936 153960.000000 0 0 1
-34.320367 20.546212 31.555384 50.948765 -0.539433 0.902875 -0.002552 -0.019267 411065.000000 0 0 1
-33.785767 21.374412 30.501404 50.285974 -0.564078 0.919071 -0.002269 -0.015252 787683.000000 0 0 1
-32.715967 20.804812 29.694154 48.835617 -0.566415 0.917203 0.026886 -0.013344 639355.000000 0 0 1
-33.148767 19.794412 28.624564 48.062721 -0.538313 0.932825 0.029221 -0.011576 -442051.000000 0 0 1
-33.676267 18.581812 29.137184 48.252981 -0.504207 0.922484 0.013366 -0.006672 149204.000000 0 0 1
-34.009967 17.729312 28.069024 47.527639 -0.480540 0.939015 0.015285 -0.011627 -215144.000000 0 0 1
-34.728067 16.452912 28.537154 47.865500 -0.442439 0.932044 0.013030 0.000075 -643187.000000 0 0 1
-33.916567 15.433512 29.009214 47.223525 -0.427040 0.909303 0.016678 -0.003769 -269111.000000 0 0 1
-34.637267 14.311912 29.465434 47.673713 -0.391829 0.904518 0.017014 -0.000650 16960.000000 0 0 1
-33.697167 13.161912 29.926634 46.950383 -0.372372 0.879664 0.017559 0.008936 76793.500000 0 0 1
-33.273467 13.241112 31.294184 47.558139 -0.378736 0.852611 0.016280 0.012006 507462.000000 0 0 1
-32.314967 12.256312 31.624584 46.846436 -0.362515 0.829738 0.022330 0.011985 1156980.000000 0 0 1
-30.781367 12.621312 31.531254 45.836776 -0.389124 0.812201 0.020327 0.011750 -135971.000000 0 0 1
-30.313867 12.378412 30.211054 44.551806 -0.387677 0.825607 0.016555 0.008155 609112.000000 0 0 1
-28.954067 12.797212 30.081364 43.669155 -0.416167 0.810899 0.025990 0.001800 884897.000000 0 0 1
-27.851367 11.862912 30.654904 43.083065 -0.402664 0.779123 0.021085 0.001260 -392723.000000 0 0 1
-27.552567 10.796212 29.710454 41.933438 -0.373453 0.783405 0.015844 -0.000207 -192330.000000 0 0 1
-26.414667 10.103612 30.159304 41.344906 -0.365330 0.753270 0.014572 -0.004468 -287258.000000 0 0 1
-26.025467 8.935612 29.218084 40.135602 -0.330730 0.755419 0.012845 -0.005626 463770.000000 0 0 1
-26.861567 7.755212 29.317014 40.511411 -0.281067 0.761687 0.019725 -0.008233 1443740.000000 0 0 1
-28.166967 7.845912 28.668244 40.948804 -0.271664 0.795259 0.030574 -0.003093 1226060.000000 0 0 1
-28.822167 6.401412 28.702764 41.176985 -0.218553 0.799510 0.029755 -0.006543 -160099.000000 0 0 1
-29.383567 6.096512 29.923924 42.379272 -0.204578 0.786824 0.032035 -0.004554 69055.900000 0 0 1
-29.960867 4.788012 29.957054 42.638055 -0.158469 0.791766 0.035077 -0.006815 -124755.000000 0 0 1
-30.575067 4.491312 31.319564 43.999110 -0.145852 0.778706 0.019805 0.000191 659021.000000 0 0 1
-31.831867 5.160712 31.532174 45.101870 -0.160726 0.796613 0.023801 0.000649 580705.000000 0 0 1
-32.462267 4.949712 32.774344 46.394569 -0.151310 0.786360 0.018178 -0.003616 -407688.000000 0 0 1
-33.871267 5.498312 32.824514 47.486239 -0.160926 0.807589 0.005512 0.003763 -518044.000000 0 0 1
-33.896267 6.889512 33.121235 47.889858 -0.200521 0.807077 0.005846 -0.001602 160925.000000 0 0 1
35.133860 7.380612 33.059843 48.803840 0.207060 0.826571 0.004634 -0.000042 315914.000000 0 0 1
35.028460 8.821912 33.636059 49.357913 0.246719 0.821024 0.001420 0.009720 -80441.600000 0 0 1
35.092960 8.886212 -34.086739 49.723097 0.248006 2.326130 0.006718 0.003812 163605.000000 0 0 1
34.771860 10.164312 -33.557543 49.381213 0.284391 2.317960 0.007915 0.009901 -255128.000000 0 0 1
34.585260 10.192812 -32.044723 48.237930 0.286602 2.297361 0.010802 0.000110 290325.000000 0 0 1
33.330760 9.569412 -31.689483 46.975914 0.279585 2.311205 0.016986 -0.003607 665113.000000 0 0 1
33.115660 9.718212 -30.304453 45.928754 0.285449 2.291368 0.007734 0.004935 776186.000000 0 0 1
31.809360 9.032512 -29.757933 44.485461 0.276675 2.303573 0.017665 0.010366 632149.000000 0 0 1
32.002360 7.646812 -29.769903 44.371972 0.234547 2.306241 0.018755 0.008684 384865.000000 0 0 1
30.807660 6.952212 -29.470883 43.196969 0.221947 2.321624 0.015322 0.017306 -36896.300000 0 0 1
34.199297 6.245112 -18.796133 39.520728 0.180619 2.066444 0.021459 -0.010374 -674695.000000 0 0 1
33.723497 7.557812 -18.456733 39.179660 0.220468 2.061310 0.025502 0.010892 627984.000000 0 0 1
34.417301 8.638312 -19.107533 40.302219 0.245908 2.064745 0.008639 0.000274 895433.000000 0 0 1
-34.377869 8.780412 -18.822433 40.164879 -0.250063 2.058535 0.005064 -0.000015 914905.000000 0 0 1
-33.630960 7.917212 -19.599833 39.722502 -0.231205 2.086812 0.006674 -0.013321 -350168.000000 0 0 1
-33.367220 8.540112 -20.893633 40.284597 -0.250564 2.116068 -0.010164 -0.002045 -880617.000000 0 0 1
-32.484550 7.714212 -21.853233 39.903870 -0.233154 2.150346 -0.019395 0.006948 -413137.000000 0 0 1
-32.945590 6.482212 -22.343833 40.332094 -0.194274 2.157953 -0.021174 0.007365 -484879.000000 0 0 1
-33.985430 6.550112 -23.269733 41.706041 -0.190398 2.162705 -0.011867 0.001682 -192802.000000 0 0 1
-33.944000 5.413312 -24.322633 42.108070 -0.158146 2.186611 0.004013 0.005522 -770097.000000 0 0 1
-32.806200 5.514112 -25.101593 41.674239 -0.166525 2.217212 0.003342 0.009778 -767563.000000 0 0 1
-32.490220 4.318312 -25.736983 41.673187 -0.132137 2.236472 0.005690 0.005297 418108.000000 0 0 1
-31.086060 4.488212 -26.405153 41.033148 -0.143389 2.269869 0.011738 -0.002161 210142.000000 0 0 1
-30.046160 4.709112 -25.505223 39.692113 -0.155465 2.268653 0.011746 -0.001300 -259706.000000 0 0 1
-28.808060 4.277012 -26.078313 39.093165 -0.147389 2.301080 0.014860 -0.004092 522733.000000 0 0 1
-27.602470 4.612712 -25.165553 37.636133 -0.165582 2.303194 0.008500 -0.006379 -112847.000000 0 0 1
-27.323610 5.970612 -25.339443 37.740101 -0.215133 2.306919 -0.007952 0.002637 -928300.000000 0 0 1
-26.106250 6.367912 -24.848233 36.599471 -0.239251 2.317091 0.001021 0.002255 -910130.000000 0 0 1
-25.754360 7.853212 -25.253823 36.914978 -0.295971 2.324176 -0.011584 0.002407 7602.100000 0 0 1
-26.366100 8.823712 -24.397633 36.990183 -0.322945 2.291044 -0.020319 0.009141 -55266.600000 0 0 1
-25.935860 10.135812 -24.681433 37.209900 -0.372553 2.296020 -0.035335 0.011100 105751.000000 0 0 1
-24.596140 10.603012 -24.069733 36.010360 -0.407013 2.302867 -0.006530 0.011084 -17330.500000 0 0 1
-24.716340 10.781612 -22.646733 35.213849 -0.411330 2.269362 -0.025231 0.018279 280938.000000 0 0 1
-23.450240 10.954212 -22.045433 33.998671 -0.437004 2.276304 0.013403 0.001863 -355491.000000 0 0 1
-23.581140 11.157512 -20.520733 33.191275 -0.441941 2.237319 0.030579 0.002755 -798730.000000 0 0 1
-24.013940 12.460412 -20.033333 33.664011 -0.478639 2.208182 0.014276 0.007777 1181570.000000 0 0 1
-25.366200 12.889912 -20.274533 34.937811 -0.470149 2.189898 -0.001031 0.024401 1448470.000000 0 0 1
-26.495760 11.993612 -19.586433 35.064232 -0.425065 2.163478 -0.001245 0.014658 -35443.500000 0 0 1
-26.238330 11.871712 -18.176333 34.055346 -0.424895 2.133801 0.007767 0.001555 42253.100000 0 0 1
-27.138560 11.111712 -17.412933 34.105451 -0.388621 2.106634 -0.009724 -0.000992 -699260.000000 0 0 1
-26.508930 10.832912 -16.010833 32.808873 -0.387942 2.080597 0.010070 -0.004696 721141.000000 0 0 1
-25.476940 9.861012 -15.837933 31.577748 -0.369299 2.096190 0.020587 -0.011624 831206.000000 0 0 1
-24.267540 10.038012 -16.535533 31.033837 -0.392209 2.132729 0.038562 -0.004306 -523638.000000 0 0 1
-23.248940 8.861612 -16.371533 29.783695 -0.364162 2.152779 0.038908 -0.016168 -721257.000000 0 0 1
-21.953940 9.341312 -16.281133 28.884440 -0.402291 2.169612 0.045167 -0.009102 -649369.000000 0 0 1
-21.138440 8.389612 -15.655033 27.609768 -0.377822 2.173669 0.058357 -0.010945 388578.000000 0 0 1
-19.615540 8.751912 -15.566633 26.527070 -0.419666 2.197923 0.059307 -0.009658 568968.000000 0 0 1
-19.049340 8.741012 -16.876133 26.908856 -0.430199 2.248697 0.059346 -0.019663 -601469.000000 0 0 1
-17.723040 9.129912 -16.766033 26.049209 -0.475689 2.270027 0.044058 -0.018180 -1357190.000000 0 0 1
-17.086340 9.675412 -18.061233 26.678920 -0.515246 2.314455 0.037079 -0.014062 -315217.000000 0 0 1
-16.859240 8.745312 -19.140733 26.964460 -0.478515 2.360082 0.053220 -0.028632 158385.000000 0 0 1
-15.997540 7.656412 -18.974933 25.972871 -0.446381 2.389949 0.046721 -0.022989 -579007.000000 0 0 1
-15.396640 7.004012 -20.263333 26.395366 -0.426926 2.446017 0.022045 -0.025090 82985.000000 0 0 1
-16.297040 6.240012 -21.070133 27.358395 -0.365672 2.449876 0.012077 -0.020273 274174.000000 0 0 1
-17.367940 6.913412 -21.712833 28.651138 -0.378829 2.430785 0.025830 -0.016872 278054.000000 0 0 1
-18.367540 5.929012 -22.413933 29.578778 -0.312239 2.430686 0.026657 -0.013988 174958.000000 0 0 1
-19.047940 5.165212 -21.427933 29.131765 -0.264801 2.397278 0.053000 -0.017439 260520.000000 0 0 1
-19.797940 4.132012 -22.021933 29.899791 -0.205756 2.398714 0.032415 -0.005342 -501454.000000 0 0 1
-20.584140 3.300512 -21.038333 29.617759 -0.158989 2.360761 0.042196 -0.013122 -309848.000000 0 0 1
-21.417040 2.288312 -21.569033 30.481948 -0.106442 2.356893 0.049626 -0.012218 496593.000000 0 0 1
-22.106740 1.696512 -20.466133 30.173642 -0.076592 2.316214 0.051997 -0.014623 -13856.200000 0 0 1
-22.915440 0.432112 -20.635433 30.840318 -0.018855 2.303801 0.052873 -0.005945 -308838.000000 0 0 1
-22.088840 -0.696688 -20.610633 30.219206 0.031530 2.321341 0.047334 -0.011807 105720.000000 0 0 1
-22.787640 -1.958088 -20.732833 30.870066 0.085717 2.307184 0.049399 -0.014323 254451.000000 0 0 1
-23.444340 -2.312488 -22.148833 32.335050 0.098319 2.325371 0.052526 -0.014042 510447.000000 0 0 1
-22.557640 -2.382988 -23.274433 32.499615 0.105250 2.369059 0.038040 -0.014598 703825.000000 0 0 1
-21.651540 -3.530888 -23.371733 32.054551 0.161655 2.387837 0.029876 -0.022755 527768.000000 0 0 1
-20.580840 -3.241288 -24.440833 32.115903 0.156207 2.435680 0.017236 -0.014250 88044.500000 0 0 1
-21.078740 -3.208988 -25.767943 33.445445 0.151078 2.450338 0.015693 -0.012434 363865.000000 0 0 1
-19.926140 -3.379288 -26.564073 33.378445 0.167992 2.491198 0.016447 -0.016901 161770.000000 0 0 1
-20.212040 -3.607988 -28.074473 34.781032 0.176646 2.510152 0.004913 -0.013657 81935.800000 0 0 1
-20.903840 -4.786188 -28.431713 35.612363 0.225082 2.495374 0.009058 -0.008811 115500.000000 0 0 1
-21.545740 -4.607088 -29.685153 36.968263 0.210656 2.503092 -0.014212 -0.006342 -119994.000000 0 0 1
-21.354540 -5.873188 -30.579333 37.757202 0.268396 2.514768 -0.004544 -0.004243 -411407.000000 0 0 1
-20.013040 -5.975088 -30.960093 37.346362 0.290135 2.548112 -0.002928 -0.004960 -493171.000000 0 0 1
-19.705040 -7.245788 -31.506443 37.860877 0.352366 2.553794 -0.014641 0.001254 -836859.000000 0 0 1
-18.307440 -7.390688 -32.057113 37.648946 0.383691 2.589587 -0.001185 -0.007754 -1123550.000000 0 0 1
-18.082140 -6.820088 -33.335063 38.531854 0.360674 2.616206 0.000241 -0.014080 343132.000000 0 0 1
-18.630440 -7.547988 -34.428831 39.867403 0.384932 2.613131 0.002771 -0.013163 -602120.000000 0 0 1
-18.490640 -6.846788 33.326898 38.722918 0.354630 0.534251 0.007541 -0.021495 125865.000000 0 0 1
-17.159540 -6.798988 32.837734 37.669521 0.377245 0.512070 0.010007 -0.019015 270360.000000 0 0 1
-16.459140 -5.640788 33.232776 37.511854 0.330170 0.482307 0.001133 -0.022640 -663934.000000 0 0 1
-15.103840 -5.520588 32.554324 36.309598 0.350424 0.458819 0.005324 -0.020161 -726246.000000 0 0 1
-15.369340 -5.597088 31.171704 35.202544 0.349244 0.483236 0.002722 -0.010554 807614.000000 0 0 1
-14.205340 -5.411088 30.347184 33.941466 0.363950 0.464371 0.009566 -0.009838 451183.000000 0 0 1
-14.556040 -5.524688 28.790514 32.730630 0.362750 0.495734 0.013559 0.004097 87708.600000 0 0 1
-15.373140 -4.396388 28.504294 32.682662 0.278544 0.511210 -0.003763 0.000651 -111917.000000 0 0 1
-16.031840 -4.456688 27.261154 31.938260 0.271144 0.548020 0.013429 0.002582 -196549.000000 0 0 1
-15.213540 -4.152488 25.983064 30.394318 0.266456 0.545504 0.012743 0.005063 -125713.000000 0 0 1
-14.948140 -2.754288 25.927384 30.054321 0.182213 0.530243 0.012188 0.012887 124127.000000 0 0 1
-14.216540 -2.399188 24.741194 28.635516 0.167185 0.527628 -0.001108 0.016374 218149.000000 0 0 1
-13.949340 -0.860688 24.571774 28.268303 0.061623 0.517145 0.007101 0.003213 485171.000000 0 0 1
-15.133340 -0.164388 24.154984 28.504530 0.010862 0.559711 0.003889 0.002677 409194.000000 0 0 1
-15.013240 1.224212 24.386844 28.663814 -0.081362 0.553312 0.004621 0.007157 -229754.000000 0 0 1
-15.863440 2.077412 23.407364 28.352585 -0.130215 0.599565 0.009490 -0.001093 -360744.000000 0 0 1
-15.165940 2.868312 22.476864 27.266139 -0.186921 0.601742 0.007655 0.007384 -205472.000000 0 0 1
-15.927540 3.877912 21.878564 27.338550 -0.238825 0.643030 -0.002932 0.013753 -207609.000000 0 0 1
-15.104240 4.763212 20.881064 26.207729 -0.305485 0.648895 0.003667 0.019613 340241.000000 0 0 1
-14.123440 5.586112 21.530564 26.348461 -0.376639 0.614352 0.010985 0.013843 253969.000000 0 0 1
-13.161640 5.807212 20.527164 25.066251 -0.415531 0.611276 0.019282 0.017920 -426983.000000 0 0 1
-12.153040 6.906712 20.841064 25.094800 -0.516793 0.590804 0.022424 0.014379 -232273.000000 0 0 1
-12.660840 8.189112 20.613064 25.539319 -0.574127 0.631554 0.024069 0.011871 -51131.400000 0 0 1
-11.659740 9.165412 20.753564 25.508131 -0.666191 0.620469 0.033865 0.009334 -186240.000000 0 0 1
-12.152940 10.621112 20.900864 26.407349 -0.718237 0.657571 0.030226 0.013811 -340613.000000 0 0 1
-12.536040 11.174612 19.648664 25.847519 -0.728043 0.707212 0.036434 0.009465 208406.000000 0 0 1
-12.873840 12.546712 19.679764 26.654246 -0.772530 0.740198 0.018838 0.006906 -316177.000000 0 0 1
-13.329440 13.034412 18.254164 26.091845 -0.774208 0.795942 0.015805 0.004943 427286.000000 0 0 1
-12.250440 13.573212 17.474564 25.291614 -0.836577 0.808031 0.015605 0.000672 634930.000000 0 0 1
-11.741740 14.863112 17.890464 26.054736 -0.902188 0.813927 0.014686 -0.006321 -387279.000000 0 0 1
-12.599240 16.127512 17.534364 26.949794 -0.907608 0.862382 0.010118 0.003649 182901.000000 0 0 1
-12.508940 16.474612 16.149464 26.242935 -0.921379 0.907924 -0.001264 -0.007455 93304.000000 0 0 1
-13.337240 15.594712 15.418664 25.667338 -0.863267 0.926406 0.011394 -0.003295 -422393.000000 0 0 1
-13.777140 16.046312 14.000064 25.363271 -0.861339 0.986057 0.007378 -0.013786 175194.000000 0 0 1
-14.822840 17.020912 14.042164 26.582144 -0.854316 1.014252 0.008517 -0.013108 102216.000000 0 0 1
-15.088940 17.412112 12.695664 26.306608 -0.856757 1.067171 -0.006243 -0.016163 -621674.000000 0 0 1
-16.141940 18.464012 12.643764 27.592512 -0.852398 1.094792 0.012699 -0.014070 -328046.000000 0 0 1
-17.442640 18.032012 13.030964 28.270217 -0.802011 1.091739 0.031268 -0.017818 -246141.000000 0 0 1
-18.314140 19.095812 13.191464 29.564717 -0.806290 1.108293 0.053602 -0.021761 496919.000000 0 0 1
-19.764440 18.599812 13.553064 30.335979 -0.755050 1.107650 0.056678 -0.014203 626180.000000 0 0 1
-20.323840 17.836812 12.553164 29.812619 -0.720318 1.136173 0.047370 -0.020661 608401.000000 0 0 1
-21.675440 17.471612 12.921664 30.692855 -0.678423 1.136250 0.063488 -0.017242 1333250.000000 0 0 1
-22.548040 16.792912 11.835164 30.503887 -0.640140 1.172348 0.053011 -0.020365 382012.000000 0 0 1
-21.903640 15.625712 11.351064 29.202380 -0.619652 1.171572 0.049329 -0.009431 368513.000000 0 0 1
-22.667740 15.193612 10.247464 29.149319 -0.590496 1.211569 0.037849 -0.010131 -143039.000000 0 0 1
-22.271240 13.830912 9.698064 27.952723 -0.555733 1.216484 0.050154 0.003070 -633728.000000 0 0 1
-22.540140 12.732712 10.486964 27.931278 -0.514204 1.185908 0.042436 -0.003996 -242099.000000 0 0 1
-23.840040 12.230712 10.604164 28.816421 -0.474019 1.193950 0.029162 -0.011472 -175846.000000 0 0 1
-24.510540 11.497112 9.365464 28.647200 -0.438597 1.237749 0.030552 0.004229 43389.000000 0 0 1
-24.587540 12.444812 8.309264 28.783057 -0.468550 1.277942 0.032233 0.004422 -350958.000000 0 0 1
-25.708930 12.253212 7.506564 29.452314 -0.444764 1.313081 0.015240 0.012648 -1025030.000000 0 0 1
-25.994340 13.328712 6.490264 29.924636 -0.473799 1.352172 0.004185 0.013382 -385061.000000 0 0 1
-25.123800 13.571312 5.347364 29.051336 -0.495271 1.385675 -0.000344 0.017950 1531700.000000 0 0 1
-23.771440 14.033912 5.555064 28.158317 -0.533308 1.372214 0.011020 0.014820 568359.000000 0 0 1
-23.668440 15.490112 6.087464 28.934337 -0.579506 1.358824 0.014008 -0.002170 -476199.000000 0 0 1
-22.321940 15.921912 6.173764 28.105011 -0.619587 1.349322 0.009439 -0.013887 498521.000000 0 0 1
-22.225140 17.199112 6.792164 28.911932 -0.658596 1.333654 0.013124 -0.018301 475701.000000 0 0 1
-20.755840 17.726112 6.729564 28.112399 -0.706829 1.329068 0.019339 -0.021483 432748.000000 0 0 1
-20.396540 18.234612 5.452464 27.897120 -0.729493 1.374081 0.010633 -0.017698 -412927.000000 0 0 1
-19.018340 18.439012 5.352164 27.024805 -0.769933 1.371432 0.007450 -0.020922 -519611.000000 0 0 1
-18.517340 19.532112 4.347464 27.263451 -0.812062 1.410651 0.015743 -0.018635 -531443.000000 0 0 1
-17.121240 19.682612 4.411964 26.457655 -0.854881 1.403258 0.005652 -0.024542 -154613.000000 0 0 1
-16.666340 20.753112 3.639664 26.864581 -0.894182 1.434897 0.014732 -0.008911 -234694.000000 0 0 1
-16.870040 22.148612 4.312964 28.173763 -0.919865 1.417108 0.020533 -0.016721 -509068.000000 0 0 1
-16.091240 22.462812 5.437164 28.161475 -0.949181 1.376505 0.006931 -0.014220 -198892.000000 0 0 1
-16.389240 23.697912 6.003164 29.431891 -0.965737 1.365387 0.006367 -0.013055 -154924.000000 0 0 1
-15.498040 23.938112 7.230264 29.419367 -0.996236 1.322487 0.003151 -0.002543 -337801.000000 0 0 1
-15.973740 23.259812 8.331364 29.420926 -0.969017 1.283690 0.011423 -0.009177 -50884.800000 0 0 1
-15.297540 23.531312 9.541464 29.644172 -0.994356 1.243096 -0.000647 -0.004830 -91827.600000 0 0 1
-15.890840 22.700912 10.710664 29.708055 -0.960064 1.201960 -0.003265 -0.010547 -35065.000000 0 0 1
-17.042540 23.303912 11.244464 30.983196 -0.939360 1.199395 0.007252 -0.006061 -463420.000000 0 0 1
-17.997140 22.343612 11.648864 30.964982 -0.892728 1.185110 0.018542 -0.011656 342636.000000 0 0 1
-19.328740 22.966512 12.173664 32.392267 -0.871196 1.185515 0.034400 -0.019640 455290.000000 0 0 1
-20.095740 23.654912 11.177164 32.989735 -0.866571 1.225147 0.048397 -0.024414 190444.000000 0 0 1
-19.644140 24.948212 10.847064 33.555392 -0.903788 1.241626 0.020878 -0.013261 -378329.000000 0 0 1
-20.755040 25.718612 10.103164 34.558539 -0.891799 1.274114 0.027224 -0.005248 99504.100000 0 0 1
-21.732440 26.242512 10.976364 35.797332 -0.879132 1.259151 0.038337 -0.020224 115364.000000 0 0 1
-22.602940 27.118912 10.228264 36.755213 -0.875974 1.288793 0.031726 -0.013911 369809.000000 0 0 1
-23.575740 27.829112 11.210464 38.156906 -0.867953 1.272597 0.020311 -0.017341 -272112.000000 0 0 1
-22.859740 28.617112 12.142164 38.586772 -0.896779 1.250686 0.020566 -0.015643 14169.100000 0 0 1
-23.658240 29.115212 13.162164 39.757395 -0.888436 1.233367 0.010193 -0.020912 -476095.000000 0 0 1
8.603460 -32.612618 28.070344 43.881051 -1.312865 0.876699 -0.016351 -0.004042 -396752.000000 0 0 1
9.931360 -32.954118 27.797344 44.241363 -1.278084 0.891416 -0.005959 -0.001620 -240875.000000 0 0 1
10.195760 -32.788518 26.429054 43.330536 -1.269319 0.914811 0.005527 -0.004391 484855.000000 0 0 1
11.718760 -33.054618 26.161444 43.753380 -1.230094 0.929881 -0.007418 0.002054 656045.000000 0 0 1
12.042960 -34.430818 26.357754 45.002726 -1.234324 0.945062 0.006546 -0.015682 500872.000000 0 0 1
13.441560 34.501712 26.159464 45.336092 1.199295 0.955731 0.026344 -0.014881 479469.000000 0 0 1
13.961260 33.054012 25.825614 44.209126 1.171149 0.946940 0.048482 -0.013827 104783.000000 0 0 1
13.857560 32.719312 24.473654 43.145627 1.170173 0.967653 0.038890 -0.021104 299819.000000 0 0 1
14.894160 31.829612 24.123234 42.625000 1.133129 0.969222 0.053613 -0.023976 -858698.000000 0 0 1
14.948660 31.474912 22.630064 41.548193 1.127398 0.994800 0.053930 -0.026090 380550.000000 0 0 1
13.950860 30.576812 22.091964 40.219682 1.142752 0.989291 0.039585 -0.015028 316395.000000 0 0 1
14.062960 29.198012 22.501864 39.454083 1.121943 0.963888 0.042786 -0.013464 -32994.400000 0 0 1
13.672660 28.629112 23.909964 39.727246 1.125246 0.924977 0.050143 -0.023404 -213387.000000 0 0 1
14.538960 29.030512 24.927814 40.933457 1.106496 0.916017 0.059134 -0.024905 171345.000000 0 0 1
13.924560 28.735012 26.171514 41.286105 1.119556 0.884203 0.048050 -0.019242 99287.500000 0 0 1
14.900860 29.117012 27.329484 42.623195 1.097787 0.874751 0.052985 -0.026071 278520.000000 0 0 1
15.219960 30.422212 27.535064 43.764574 1.106916 0.890320 0.060799 -0.025520 -10874.600000 0 0 1
15.772760 30.536312 28.829564 44.859671 1.094017 0.872830 0.066063 -0.026667 -169304.000000 0 0 1
15.712360 31.910712 29.471244 46.192272 1.113259 0.878882 0.064823 -0.024662 -252660.000000 0 0 1
16.495060 32.864612 28.799824 46.707597 1.105622 0.906382 0.065373 -0.022819 -2895.880000 0 0 1
16.087060 34.207812 29.036834 47.666609 1.131211 0.915789 0.071793 -0.010837 155407.000000 0 0 1
16.960060 -33.889818 28.224964 47.252640 -1.106791 0.930641 0.063305 -0.020087 -174767.000000 0 0 1
16.893560 -34.123518 26.823504 46.575822 -1.111100 0.957079 0.062702 -0.021528 98243.900000 0 0 1
17.176860 -32.928518 26.049354 45.364090 -1.089986 0.959135 0.062777 -0.017720 -1001480.000000 0 0 1
18.570560 -32.353118 25.955294 45.445212 -1.049717 0.962910 0.050691 -0.011037 -1106870.000000 0 0 1
18.941460 -31.707618 27.142554 45.835251 -1.032306 0.937039 0.037536 -0.010943 -232999.000000 0 0 1
19.894560 -30.709718 26.897544 45.413194 -0.995951 0.936905 0.040493 -0.011386 -365283.000000 0 0 1
20.271260 -29.785618 28.098374 45.690542 -0.973229 0.908447 0.046982 -0.013238 -732259.000000 0 0 1
19.297760 -28.891818 28.494644 44.934235 -0.981918 0.883899 0.046331 -0.014843 -564019.000000 0 0 1
19.640760 -28.200118 29.651294 45.389485 -0.962438 0.858910 0.057433 -0.010491 -912313.000000 0 0 1
18.425460 -27.715918 30.397224 45.073950 -0.984089 0.830664 0.031750 -0.008720 -547035.000000 0 0 1
17.632660 -26.923218 29.534714 43.681457 -0.990967 0.828288 0.046164 -0.006993 793182.000000 0 0 1
16.325460 -26.666618 30.084054 43.389855 -1.021450 0.804678 0.035855 -0.005454 733429.000000 0 0 1
15.374460 -25.867818 29.172754 41.911426 -1.034544 0.800905 0.019757 0.011685 -555654.000000 0 0 1
14.948460 -26.542918 27.994354 41.372295 -1.057890 0.827600 0.018575 0.006494 270728.000000 0 0 1
14.240660 -25.825918 27.010774 39.991954 -1.066872 0.829282 0.019508 -0.012574 -122105.000000 0 0 1
12.759960 -25.448118 27.329684 39.463083 -1.106021 0.805795 -0.000487 -0.000316 -87663.800000 0 0 1
11.767760 -26.413218 27.327984 39.786392 -1.151670 0.813626 -0.001456 0.007434 -224973.000000 0 0 1
11.480660 -26.984518 26.149544 39.290819 -1.168542 0.842582 -0.001124 0.004213 -793472.000000 0 0 1
10.559060 -28.228418 26.279804 39.987066 -1.212852 0.853688 0.003054 0.013280 -450418.000000 0 0 1
9.211960 -28.011418 26.566394 39.689710 -1.253073 0.837460 -0.022639 0.008643 -433689.000000 0 0 1
8.527360 -29.231818 26.368154 40.280201 -1.286958 0.857119 -0.025073 0.009675 819597.000000 0 0 1
6.988660 -29.146618 26.731294 40.161285 -1.335463 0.842501 -0.016050 0.005720 894828.000000 0 0 1
6.015960 -28.752018 25.809924 39.102717 -1.364536 0.849905 0.009063 0.000802 -42920.600000 0 0 1
6.182560 -27.483518 25.133624 37.752707 -1.349525 0.842306 0.005754 -0.000742 -824416.000000 0 0 1
5.032760 -27.149018 24.143774 36.678600 -1.387502 0.852301 0.026900 -0.004981 -377774.000000 0 0 1
4.806760 -28.056218 23.088064 36.651262 -1.401118 0.889322 0.016063 -0.007846 135383.000000 0 0 1
4.256560 -29.371918 23.369564 37.775182 -1.426879 0.903775 0.010928 -0.002806 -235670.000000 0 0 1
2.821760 -29.383718 23.944564 38.009306 -1.475058 0.889287 0.002016 -0.005004 -128562.000000 0 0 1
1.814460 -29.078818 22.950264 37.088874 -1.508479 0.903594 -0.005027 0.002881 1506610.000000 0 0 1
0.550660 -28.604118 23.481464 37.011862 -1.551548 0.883524 -0.016064 -0.004888 989643.000000 0 0 1
0.468660 -27.164818 23.982164 36.239360 -1.553546 0.847618 -0.005870 -0.010548 -514584.000000 0 0 1
1.367960 -26.885818 25.016764 36.749925 -1.519960 0.822038 0.000302 -0.014548 -149666.000000 0 0 1
1.181060 -25.574418 25.459354 36.105740 -1.524648 0.788185 0.007752 -0.009589 327493.000000 0 0 1
2.460460 -24.867018 26.039804 36.090080 -1.472173 0.764798 0.012313 -0.006480 -36154.100000 0 0 1
3.382360 -24.467318 25.028774 35.164322 -1.433427 0.778787 0.014431 -0.009770 105943.000000 0 0 1
4.459260 -23.777618 25.645414 35.255459 -1.385410 0.756246 0.016271 -0.009422 219912.000000 0 0 1
4.088860 -22.316718 26.029714 34.529708 -1.389587 0.716917 0.022490 -0.002878 -465594.000000 0 0 1
4.059160 -21.490818 24.889424 33.133299 -1.384117 0.720932 0.027556 -0.004686 186939.000000 0 0 1
3.312660 -20.307918 25.035754 32.406392 -1.409099 0.687939 0.027795 -0.002442 25006.700000 0 0 1
3.677360 -19.382218 23.838664 30.943097 -1.383296 0.691323 0.023336 -0.005101 -952629.000000 0 0 1
4.934160 -18.835918 23.835264 30.777550 -1.314598 0.684972 0.022606 0.003611 -1167240.000000 0 0 1
5.090260 -17.920518 22.777764 29.425877 -1.294039 0.685547 0.015124 0.003997 257288.000000 0 0 1
6.545560 -17.425118 22.569864 29.255390 -1.211465 0.689637 0.022727 0.001778 -222094.000000 0 0 1
7.303560 -18.413318 21.916864 29.542194 -1.193185 0.734921 0.031939 0.000328 633543.000000 0 0 1
8.612360 -18.008518 21.472064 29.317725 -1.124709 0.748968 0.019689 0.002483 999818.000000 0 0 1
9.776760 -18.089918 22.485964 30.470457 -1.075312 0.740755 0.002771 0.010574 -194113.000000 0 0 1
9.569060 -17.289518 23.615464 30.792604 -1.065300 0.696768 -0.006175 0.017197 -530933.000000 0 0 1
10.600160 -17.578418 24.475224 31.943712 -1.028158 0.697892 -0.015294 0.029840 -770969.000000 0 0 1
10.594560 -16.657718 25.778464 32.469270 -1.004315 0.653544 -0.018409 0.014537 -263489.000000 0 0 1
10.914460 -15.278718 25.626494 31.769197 -0.950500 0.632341 -0.008613 0.014786 288683.000000 0 0 1
10.671160 -14.559818 26.857574 32.360334 -0.938317 0.591772 -0.018041 0.009572 -155104.000000 0 0 1
10.854760 -12.988118 26.858544 31.747416 -0.874636 0.562345 -0.007250 0.013215 -342543.000000 0 0 1
9.841860 -12.325118 26.164224 30.550571 -0.896958 0.542495 -0.003381 0.013851 -80565.100000 0 0 1
10.229960 -10.976118 26.001414 30.020006 -0.820570 0.523377 0.000339 0.021601 -227409.000000 0 0 1
9.270560 -10.103218 25.183154 28.674196 -0.828350 0.498603 -0.011741 0.025616 24341.400000 0 0 1
8.102960 -9.748618 25.930514 28.863213 -0.877324 0.454699 -0.027431 0.021095 -475873.000000 0 0 1
7.229060 -9.188418 25.030084 27.625920 -0.904182 0.436974 -0.024532 0.025693 424433.000000 0 0 1
5.710860 -9.352618 25.434184 27.694460 -1.022607 0.406816 -0.012058 0.019408 106378.000000 0 0 1
5.376460 -8.468418 26.477684 28.314098 -1.005121 0.362139 -0.011311 0.016143 773842.000000 0 0 1
4.006860 -8.388918 26.915324 28.475666 -1.125198 0.332576 -0.014152 0.011630 1578060.000000 0 0 1
2.881060 -8.148118 25.858694 27.264710 -1.230931 0.322548 -0.005929 0.009701 -292702.000000 0 0 1
2.881060 -6.803718 25.369104 26.423144 -1.170236 0.283404 -0.003325 0.013984 -708969.000000 0 0 1
1.793260 -6.751118 24.527744 25.503012 -1.311168 0.277444 0.004086 0.003593 -500378.000000 0 0 1
1.901560 -5.468518 23.612664 24.312106 -1.236147 0.240451 0.000263 0.003263 -116277.000000 0 1 0
1.741660 -4.212918 24.278354 24.702642 -1.178784 0.185608 0.005398 0.010235 -42799.900000 0 1 0
2.090860 -3.116518 23.480264 23.778292 -0.979871 0.158492 0.000373 0.007004 -390806.000000 0 1 0
0.995460 -2.638518 22.456664 22.633039 -1.210028 0.124924 -0.001634 -0.000447 728348.000000 0 1 0
-0.028640 -1.848518 23.057064 23.131062 1.555304 0.080010 0.005290 -0.000024 595441.000000 0 1 0
-1.113140 -2.596518 23.639464 23.807672 1.165792 0.118942 0.008017 -0.002030 708302.000000 0 1 0
-2.127740 -1.634518 24.383114 24.530291 0.655044 0.109598 0.015789 -0.003184 391621.000000 0 1 0
-1.503340 -0.925518 25.443104 25.504277 0.551841 0.069275 0.006242 -0.006341 222486.000000 0 0 1
-1.910940 0.440482 25.544624 25.619788 -0.226548 0.076619 0.016301 -0.009892 -318848.000000 0 0 1
-1.212040 1.227482 26.683194 26.738896 -0.791728 0.064559 0.009826 -0.009898 -415180.000000 0 0 1
-1.543540 0.911482 28.037304 28.094550 -0.533415 0.063848 0.013490 -0.006382 31548.800000 0 0 1
-1.068540 -0.323518 28.522104 28.543946 0.293993 0.039123 0.014556 -0.009207 -799360.000000 0 0 1
0.268760 -0.219518 29.319954 29.322007 -0.684891 0.011835 0.018130 -0.006744 7115.960000 0 0 1
1.419360 0.231482 28.663194 28.699248 0.161665 0.050131 0.008888 -0.001901 -345889.000000 0 0 1
1.877760 -0.557518 27.644174 27.713483 -0.288616 0.070739 0.005221 -0.000605 -997985.000000 0 0 1
2.992560 -1.536518 28.113684 28.314228 -0.474347 0.119090 0.004057 -0.003476 -184926.000000 0 0 1
2.477460 -2.552518 29.002154 29.219481 -0.800319 0.122041 0.000195 0.000784 551042.000000 0 0 1
3.506060 -3.426518 29.493724 29.898382 -0.773925 0.164712 -0.003181 0.013254 464267.000000 0 0 1
4.076260 -4.484318 28.507594 29.144603 -0.833029 0.209461 -0.003609 0.016603 -297881.000000 0 0 1
4.922760 -3.934518 27.548374 28.259988 -0.674284 0.224888 -0.001142 0.010988 -402465.000000 0 0 1
5.099760 -4.857418 26.456604 27.377983 -0.761065 0.260171 -0.006034 0.015039 -408448.000000 0 0 1
6.088360 -4.229918 25.432484 26.490971 -0.607197 0.283639 -0.003989 0.017053 658125.000000 0 0 1
7.457860 -4.047518 25.762824 27.124254 -0.497236 0.318176 -0.011486 0.018464 692910.000000 0 0 1
8.254160 -5.229418 26.035424 27.808655 -0.564724 0.359040 -0.009969 0.019215 -83822.700000 0 0 1
9.048560 -5.619218 24.755354 26.949575 -0.555723 0.406323 -0.010653 0.013959 -680206.000000 0 0 1
8.267060 -6.104518 23.682564 25.816143 -0.636045 0.409413 -0.001914 0.014702 -18138.300000 0 0 1
9.014860 -6.147718 22.482964 24.990914 -0.598512 0.451839 0.001139 0.007898 57644.400000 0 1 0
9.313360 -4.855018 21.655264 24.067828 -0.480539 0.451578 0.006303 0.004300 1095750.000000 0 1 0
8.091160 -4.183918 21.270764 23.139089 -0.477232 0.404608 0.010525 -0.003802 625845.000000 0 1 0
8.367460 -3.100518 20.452264 22.314181 -0.354859 0.411407 0.016034 -0.004267 377867.000000 0 1 0
7.057760 -2.286518 20.364164 21.673470 -0.313302 0.349367 0.016470 0.004623 431493.000000 0 1 0
6.630460 -1.583518 21.519464 22.573388 -0.234434 0.306779 0.014650 0.009059 205516.000000 0 1 0
5.307360 -1.092518 21.377064 22.053130 -0.203014 0.248250 0.009436 0.012262 229988.000000 0 1 0
4.713260 -0.374518 22.596264 23.085628 -0.079294 0.206267 0.001503 0.008202 -461944.000000 0 1 0
3.450760 0.190482 22.390764 22.655912 0.055144 0.153141 0.000307 0.007228 -363705.000000 0 1 0
2.960860 0.684482 23.610764 23.805532 0.227186 0.128007 0.004407 0.007439 -442042.000000 0 1 0
1.548960 1.260482 23.634864 23.719083 0.683075 0.084294 0.003584 0.002697 -471126.000000 0 1 0
1.429860 2.557482 23.079464 23.264713 1.061002 0.126279 0.001586 -0.000356 958725.000000 0 1 0
0.010960 2.770482 23.083264 23.248930 1.566840 0.119451 -0.003470 -0.002033 905194.000000 0 1 0
-0.507740 4.165482 22.563964 22.950850 -1.449502 0.183873 0.002084 -0.001779 91164.200000 0 1 0
-0.401240 5.244482 23.504464 24.085792 -1.494438 0.220152 -0.001618 0.000490 -169168.000000 0 1 0
-1.373040 6.166482 23.084864 23.933693 -1.351708 0.267124 0.000778 -0.006099 -90327.300000 0 1 0
-1.234340 7.553482 23.850064 25.048038 -1.408815 0.310526 0.003055 -0.006847 -236800.000000 0 0 1
-0.334140 8.483482 23.350464 24.846031 -1.531430 0.348732 -0.004984 -0.002820 -229117.000000 0 1 0
-0.349940 9.572482 24.214844 26.040613 -1.534256 0.376689 0.016640 -0.002742 -573393.000000 0 0 1
0.431260 10.769482 23.664764 26.003630 1.530773 0.427377 0.016742 -0.006236 1105410.000000 0 0 1
1.879760 10.753482 23.711164 26.103451 1.397740 0.431466 0.007113 -0.004011 841525.000000 0 0 1
2.387560 11.066482 25.030684 27.471851 1.358306 0.424756 0.019378 -0.004881 -523857.000000 0 0 1
3.722860 11.848482 24.899394 27.824917 1.266358 0.462680 0.015218 -0.010125 312610.000000 0 0 1
4.909260 11.210482 24.465594 27.355822 1.158036 0.463827 0.010054 -0.008348 156327.000000 0 0 1
4.787460 10.612482 23.174764 25.934807 1.147015 0.465544 0.009546 -0.013407 -1328190.000000 0 0 1
6.110060 10.019482 22.613764 25.477542 1.023189 0.478697 0.024458 -0.011219 267939.000000 0 0 1
6.913860 11.064482 22.083664 25.649803 1.012291 0.533626 0.024232 -0.013688 -549964.000000 0 0 1
8.000460 10.500482 21.429464 25.169215 0.919714 0.552118 0.027579 -0.014055 -350509.000000 0 0 1
8.954360 11.538482 20.770064 25.391193 0.910835 0.612866 0.029384 -0.017644 -621851.000000 0 0 1
8.489560 12.173482 19.601264 24.586090 0.961830 0.648070 0.022107 -0.015960 187266.000000 0 1 0
9.376560 13.173482 19.141464 25.057057 0.952211 0.701438 0.034425 -0.013122 -510870.000000 0 0 1
10.802660 12.863482 18.760564 25.181846 0.872258 0.730256 0.025192 -0.008033 -959572.000000 0 0 1
11.743760 12.618482 19.790464 26.245084 0.821288 0.716569 0.028560 -0.009726 465068.000000 0 0 1
12.992960 12.260482 19.202764 26.227515 0.756401 0.749307 0.030682 -0.011305 724541.000000 0 0 1
14.248360 12.156482 20.118064 27.486948 0.706340 0.749671 0.036544 -0.005001 387591.000000 0 0 1
14.654560 13.418482 20.618464 28.634469 0.741396 0.766911 0.028118 -0.003299 -463716.000000 0 0 1
15.787060 13.219482 21.403164 29.699855 0.697111 0.766059 0.024983 -0.002425 -588456.000000 0 0 1
16.375760 14.531482 21.885664 30.956611 0.725797 0.785579 0.020227 0.002309 -532621.000000 0 0 1
15.717460 15.185482 22.966564 31.703319 0.768185 0.760602 0.021534 -0.004164 -167920.000000 0 0 1
16.411860 16.273482 23.405164 32.893419 0.781165 0.779101 0.009294 0.001493 -595749.000000 0 0 1
-20.625940 13.016012 -25.129903 35.019395 -0.562938 2.371146 -0.009869 0.013947 -44082.500000 0 0 1
-20.546740 12.652312 -26.521413 35.855751 -0.551943 2.403376 -0.002358 -0.002417 -407558.000000 0 0 1
-21.211340 13.479712 -27.380733 37.166223 -0.566111 2.398989 -0.020689 0.002302 -685545.000000 0 0 1
-20.894140 13.449412 -28.902893 38.115994 -0.571929 2.431479 -0.008885 0.001014 -458583.000000 0 0 1
-19.550640 13.794812 -29.104243 37.677332 -0.614470 2.453503 -0.017061 0.008032 -416372.000000 0 0 1
-19.392640 14.342612 -30.370873 38.783694 -0.636806 2.470405 -0.005404 -0.000260 -337488.000000 0 0 1
-17.943940 14.749912 -30.624403 38.436948 -0.688012 2.492684 -0.014779 -0.000366 8595.350000 0 0 1
-17.017740 13.668412 -30.819333 37.765861 -0.676681 2.525363 -0.020018 -0.003206 964057.000000 0 0 1
-15.639340 14.068112 -30.701193 37.216448 -0.732557 2.540886 -0.018900 0.007809 1027940.000000 0 0 1
-15.003440 13.539212 -29.417743 35.690574 -0.734143 2.539662 0.000774 0.013110 -580229.000000 0 0 1
-15.501340 14.092312 -28.222833 35.148444 -0.737822 2.503043 -0.010895 0.012759 -27772.400000 0 0 1
-16.233940 13.150612 -27.461243 34.505061 -0.680851 2.491225 0.002548 0.016458 -199398.000000 0 0 1
-17.052340 13.768012 -26.299403 34.234472 -0.679235 2.446843 0.000782 0.009935 19923.000000 0 0 1
-16.298040 14.282212 -25.156513 33.203280 -0.719574 2.430503 0.032412 0.009601 565707.000000 0 0 1
-17.111840 14.724112 -24.091433 33.015325 -0.710537 2.388686 0.012847 0.006261 183831.000000 0 0 1
-16.216640 15.427912 -23.003433 32.096072 -0.760479 2.369863 0.019992 0.009158 526900.000000 0 0 1
-15.761040 16.720612 -23.441233 32.825000 -0.814932 2.366173 0.000419 0.006224 -88471.700000 0 0 1
-15.054340 17.427112 -22.465433 32.171930 -0.858319 2.343806 -0.006729 0.009049 -640858.000000 0 0 1
-14.890840 18.907312 -22.751333 33.118676 -0.903680 2.328099 -0.007093 -0.000581 -382572.000000 0 0 1
-15.996240 19.765712 -22.783433 34.141586 -0.890415 2.301404 -0.021277 0.001690 -177203.000000 0 0 1
-16.776340 19.694612 -23.961433 35.262921 -0.865244 2.317888 -0.030989 0.008745 -508162.000000 0 0 1
-17.983040 20.605912 -23.988433 36.379091 -0.853263 2.290819 -0.039634 0.005225 -705399.000000 0 0 1
-17.645040 21.950112 -24.222333 37.146686 -0.893700 2.281111 -0.029860 0.000069 398787.000000 0 0 1
-18.779940 22.790012 -24.418433 38.318803 -0.881566 2.261713 -0.026271 -0.008181 506771.000000 0 0 1
-18.224440 24.197412 -24.733633 39.107513 -0.925278 2.255511 -0.019072 -0.017565 104940.000000 0 0 1
-17.739640 24.857512 -23.625033 38.610011 -0.950966 2.229243 -0.012438 -0.009253 -323438.000000 0 0 1
-16.791540 25.865412 -23.971033 39.058748 -0.994991 2.231557 -0.007098 -0.007843 112767.000000 0 0 1
-15.772840 26.075812 -22.789933 38.054060 -1.026793 2.212902 -0.004765 -0.015661 360837.000000 0 0 1
-14.830540 25.010112 -22.569133 36.807831 -1.035553 2.230852 0.002470 -0.026488 312984.000000 0 0 1
-15.375840 23.758212 -22.217333 35.978869 -0.996406 2.236370 -0.013350 -0.006592 -701223.000000 0 0 1
-14.222540 22.767812 -21.924633 34.660402 -1.012429 2.255645 0.006514 -0.008659 931184.000000 0 0 1
-13.451140 22.990312 -20.710733 33.740511 -1.041421 2.231692 0.013035 -0.013909 1021910.000000 0 0 1
-12.293440 22.142912 -20.594533 32.643101 -1.063980 2.253509 0.018163 -0.011173 742133.000000 0 0 1
-11.488140 22.242412 -19.260233 31.585738 -1.094038 2.226575 0.016277 -0.010073 61379.300000 0 0 1
-12.197240 21.891612 -18.080233 30.901621 -1.062469 2.195787 0.017451 -0.006821 209678.000000 0 0 1
-13.112040 22.912212 -17.669333 31.766340 -1.051014 2.160636 0.012337 -0.013708 45939.300000 0 0 1
-13.791540 22.633612 -16.309233 31.120380 -1.023538 2.122418 0.017616 -0.010557 77700.600000 0 0 1
-13.001440 23.063512 -15.220633 30.539003 -1.057478 2.092548 0.024695 -0.009631 80623.300000 0 0 1
-13.710840 23.040612 -13.994133 30.243887 -1.034008 2.051845 0.026783 -0.005929 13996.200000 0 0 1
-12.806840 23.584012 -12.874733 29.765408 -1.073320 2.018104 0.044538 -0.001364 9487.370000 0 0 1
-12.516140 24.981212 -13.013333 30.823069 -1.106331 2.006661 0.037486 -0.007190 36507.300000 0 0 1
-11.667640 25.381212 -11.975233 30.393189 -1.139909 1.975787 0.036172 -0.002622 -74094.200000 0 0 1
-11.419440 26.898612 -11.882033 31.545549 -1.169318 1.956987 0.042611 -0.003639 32222.600000 0 0 1
-10.660840 27.439512 -12.959233 32.163987 -1.200224 1.985492 0.039140 -0.004389 158302.000000 0 0 1
-10.717340 28.820412 -12.973633 33.373533 -1.214776 1.970060 0.024214 0.011746 -481743.000000 0 0 1
-10.118940 29.360412 -14.321533 34.198436 -1.238899 2.002895 0.035374 0.000833 612075.000000 0 0 1
-8.711140 29.287312 -14.497333 33.820161 -1.281692 2.013805 0.026035 0.001141 202322.000000 0 0 1
-8.166140 28.006412 -14.760733 32.694406 -1.287081 2.039215 0.028007 -0.002890 31537.200000 0 0 1
-6.746240 28.079912 -15.385933 32.721861 -1.335014 2.060318 0.033917 -0.007080 624551.000000 0 0 1
-5.834140 28.817412 -14.613933 32.833633 -1.371044 2.032071 0.029542 -0.003994 -215292.000000 0 0 1
-4.487240 28.792312 -15.062033 32.802399 -1.416191 2.047862 0.038183 -0.011047 885053.000000 0 0 1
-3.561840 29.751812 -14.198833 33.158165 -1.451645 2.013313 0.021324 -0.005168 326503.000000 0 0 1
-3.718440 31.113312 -14.445033 34.503970 -1.451848 2.002753 0.012942 -0.001924 -284795.000000 0 0 1
-4.858440 31.692212 -13.866133 34.932369 -1.418680 1.978979 0.007481 0.003021 -123542.000000 0 0 1
-5.015240 33.244612 -14.115733 36.463828 -1.421067 1.968298 0.006656 -0.000193 -448828.000000 0 0 1
-4.103340 33.976712 -13.373933 36.743931 -1.450609 1.943330 0.001793 -0.001557 -452910.000000 0 0 1
-4.236540 -33.748118 -13.649533 36.649605 1.445915 1.952426 0.018622 -0.002914 942419.000000 0 0 1
-3.201740 -32.909918 -12.759333 35.441705 1.473814 1.939074 0.008358 -0.004049 841627.000000 0 0 1
-3.392340 -33.070318 -11.382633 35.138558 1.468574 1.900683 -0.007280 -0.002250 300432.000000 0 0 1
-2.342240 -32.438918 -10.644133 34.220857 1.498717 1.887086 -0.020678 -0.003140 262174.000000 0 0 1
-2.716640 -32.326118 -9.168033 33.710694 1.486955 1.846228 -0.030600 -0.004565 -52603.100000 0 0 1
-1.776940 -31.635018 -8.351733 32.767108 1.514685 1.828522 -0.030838 -0.012187 -120629.000000 0 0 1
-2.102840 -31.728918 -6.997433 32.559335 1.504618 1.787399 -0.032761 -0.014489 18642.600000 0 0 1
-1.085040 -30.972118 -6.098433 31.585445 1.535778 1.765094 -0.015730 -0.012259 213555.000000 0 0 1
-1.430040 -30.889118 -4.745433 31.284210 1.524533 1.723072 -0.016208 -0.006163 -288976.000000 0 0 1
-0.353340 -30.309818 -4.079733 30.585195 1.559139 1.704584 -0.012891 -0.007132 -421117.000000 0 0 1
-0.387140 -30.559118 -2.569333 30.669383 1.558128 1.654670 -0.005915 -0.002581 -267054.000000 0 0 1
-0.192840 -31.908218 -2.190633 31.983909 1.564753 1.639342 -0.004648 -0.003995 713770.000000 0 0 1
1.055260 -32.556818 -2.467733 32.667257 -1.538395 1.646410 -0.001592 -0.006999 -493288.000000 0 0 1
2.281360 -32.230718 -1.688333 32.355437 -1.500132 1.623001 0.007527 -0.005813 -1491230.000000 0 0 1
2.187660 -32.428918 -0.313233 32.504134 -1.503438 1.580433 0.010206 -0.005376 290971.000000 0 0 1
3.399360 -32.131318 0.378867 32.312858 -1.465393 1.559071 0.010751 -0.006868 493029.000000 0 0 1
3.896560 -30.639218 0.546567 30.890834 -1.444300 1.553102 0.003384 -0.008066 -242184.000000 0 0 1
4.389060 -30.080618 -0.701833 30.407236 -1.425909 1.593879 -0.004960 -0.013895 280565.000000 0 0 1
4.246360 -28.678518 -0.673533 28.999011 -1.423797 1.594024 0.003748 -0.006824 -270185.000000 0 0 1
3.824260 -28.056418 -2.036633 28.389002 -1.435325 1.642598 -0.002472 -0.006764 -306508.000000 0 0 1
2.504960 -28.374818 -2.411333 28.587054 -1.482744 1.655247 -0.000296 -0.001200 -27834.500000 0 0 1
1.969260 -27.457718 -3.349933 27.731324 -1.499199 1.691892 -0.004345 0.002370 -195393.000000 0 0 1
2.542560 -27.483818 -4.801133 28.015634 -1.478548 1.743020 -0.012450 0.004233 -286146.000000 0 0 1
1.979360 -28.492518 -5.624233 29.109680 -1.501438 1.765227 -0.015239 -0.000604 178656.000000 0 0 1
2.417660 -28.309418 -6.972633 29.255527 -1.485602 1.811448 -0.000416 -0.011553 6709.630000 0 0 1
1.685060 -29.313918 -7.913433 30.409993 -1.513376 1.834051 -0.007487 -0.007268 -132213.000000 0 0 1
0.384760 -28.837418 -8.172033 29.975438 -1.557455 1.846916 -0.013779 -0.003309 -607173.000000 0 0 1
0.051260 -29.109618 -9.525033 30.628398 -1.569035 1.887028 0.001961 0.005980 31787.100000 0 0 1
-1.288940 -28.515718 -9.983633 30.240378 1.525626 1.907251 -0.023593 0.002925 -821713.000000 0 0 1
-1.183640 -27.138918 -9.982333 28.940782 1.527210 1.922953 -0.017103 0.007438 6565.260000 0 0 1
-2.402340 -26.408318 -9.909133 28.308328 1.480077 1.928413 -0.005345 -0.001051 798881.000000 0 0 1
-3.284540 -26.716218 -8.594033 28.256007 1.448468 1.879841 0.000714 -0.005848 -159677.000000 0 0 1
-2.866440 -26.338218 -7.273633 27.474060 1.462391 1.838736 -0.000175 -0.007148 252469.000000 0 0 1
-1.840940 -27.168118 -6.670933 28.035639 1.503139 1.811046 -0.011094 -0.006540 784641.000000 0 0 1
-1.354840 -26.837418 -5.256833 27.380959 1.520356 1.763984 0.001122 -0.000726 -282557.000000 0 0 1
-2.374240 -27.040818 -4.317433 27.486053 1.483219 1.728527 0.007999 -0.002094 -196303.000000 0 0 1
-1.963340 -26.904618 -2.994933 27.141902 1.497951 1.681365 0.010603 0.005006 -470883.000000 0 0 1
-3.119340 -27.268118 -2.070233 27.523925 1.456896 1.646083 -0.000513 0.004249 1698.120000 0 0 1
-4.213940 -26.381118 -2.234833 26.808864 1.412401 1.654255 0.004958 0.007420 201550.000000 0 0 1
-5.046840 -26.303818 -1.075633 26.805194 1.381233 1.610935 0.017230 0.000153 -12962.500000 0 0 1
-6.084840 -25.205518 -1.129033 25.954155 1.333919 1.614311 0.025821 -0.000298 -406434.000000 0 0 1
-5.553240 -23.942718 -0.880133 24.594042 1.342888 1.606590 0.004420 0.004599 -322815.000000 0 1 0
-6.383540 -23.163118 -0.034633 24.026669 1.301881 1.572238 0.020172 -0.000121 -170472.000000 0 1 0
-5.839340 -21.825218 0.461467 22.597589 1.309369 1.550374 0.001937 0.002320 733685.000000 0 1 0
-4.761940 -21.935118 1.444367 22.492481 1.357021 1.506537 -0.004457 0.004352 736443.000000 0 1 0
-4.219340 -20.642118 1.653467 21.133713 1.369169 1.492478 -0.015539 0.008019 789549.000000 0 1 0
-3.191040 -20.648418 2.873567 21.090218 1.417468 1.434120 -0.011016 0.012931 1108080.000000 0 1 0
-3.932940 -20.446818 4.108967 21.223195 1.380767 1.375959 -0.009839 0.015397 439989.000000 0 1 0
-3.068740 -20.326118 5.226467 21.210474 1.420953 1.321822 0.002771 0.010493 385996.000000 0 1 0
-2.185040 -21.557818 5.637567 22.389643 1.469784 1.316263 -0.003504 0.000823 -252632.000000 0 1 0
-1.061940 -21.753618 4.871367 22.317658 1.522018 1.350751 0.009482 -0.003325 -1307200.000000 0 1 0
-0.329640 -22.887618 5.087467 23.448541 1.556395 1.352094 0.010706 -0.010788 -1488780.000000 0 1 0
0.454260 -23.268018 3.820567 23.583973 -1.551276 1.408081 0.013750 -0.015175 -234554.000000 0 1 0
1.570060 -22.521118 3.454067 22.838486 -1.501194 1.418975 0.011382 -0.019308 -162403.000000 0 1 0
2.639460 -22.771518 4.352267 23.333475 -1.455401 1.383173 0.027467 -0.024167 -1813110.000000 0 1 0
3.761660 -21.808218 4.552067 22.593579 -1.399989 1.367932 0.033833 -0.026565 -716986.000000 0 1 0
4.591360 -21.831918 3.405667 22.567938 -1.363512 1.419310 0.017127 -0.013678 -828280.000000 0 1 0
5.714960 -21.051918 3.704167 22.126113 -1.305715 1.402593 0.028146 -0.010522 -447191.000000 0 1 0
6.388360 -20.656318 2.432567 21.758033 -1.270858 1.458761 0.030115 -0.002461 -260462.000000 0 1 0
7.000160 -21.731318 1.701967 22.894304 -1.259169 1.496387 0.026289 0.002035 -145087.000000 0 1 0
6.656460 -21.698418 0.343367 22.699069 -1.273139 1.555669 0.019168 -0.002889 111973.000000 0 1 0
7.493460 -22.705418 -0.505933 23.915349 -1.252022 1.591953 0.014650 0.005125 260760.000000 0 1 0
8.826460 -22.267018 -0.618533 23.960574 -1.193404 1.596614 0.010608 0.013651 -891715.000000 0 1 0
9.535860 -23.022718 -1.561833 24.968330 -1.178114 1.633390 0.007776 0.009146 437036.000000 0 1 0
10.933460 -22.408018 -1.876033 25.003586 -1.116854 1.645897 0.006491 0.010502 376484.000000 0 0 1
10.932460 -21.289918 -2.744333 24.089638 -1.096404 1.684966 0.008172 0.012804 -409419.000000 0 1 0
12.086860 -21.320718 -3.540933 24.762945 -1.055066 1.714281 0.003973 0.020182 -75582.900000 0 1 0
12.064360 -20.176018 -4.546733 23.943544 -1.031882 1.761850 -0.002906 0.014683 -382782.000000 0 1 0
12.176960 -18.885018 -3.966033 22.817793 -0.998089 1.745497 0.008261 0.017332 -39875.200000 0 1 0
12.415060 -17.870118 -4.923733 22.309594 -0.963610 1.793329 0.005194 0.008691 -286781.000000 0 1 0
12.875360 -16.458518 -4.420633 21.358832 -0.906947 1.779273 0.018133 0.010493 -261442.000000 0 1 0
14.128460 -16.421818 -3.828633 21.998817 -0.860326 1.745725 0.011670 0.013458 266853.000000 0 1 0
15.261460 -16.232918 -4.711133 22.773111 -0.816234 1.779174 0.011715 0.012026 451971.000000 0 1 0
16.528560 -15.726318 -4.026733 23.167325 -0.760531 1.745494 0.007784 0.006148 -461386.000000 0 1 0
17.154160 -16.598918 -3.147733 24.076908 -0.768950 1.701908 0.009120 0.006160 430947.000000 0 1 0
18.536360 -16.288218 -2.985633 24.855919 -0.720931 1.691205 0.003103 0.011288 -17108.400000 0 1 0
19.201160 -17.416518 -2.229433 26.019032 -0.736700 1.656586 -0.002165 0.012030 -1059870.000000 0 0 1
20.553760 -17.105218 -2.180633 26.829102 -0.694080 1.652165 -0.005305 0.010071 -552447.000000 0 0 1
21.318760 -18.089718 -1.468333 27.997919 -0.703643 1.623265 -0.004577 0.016131 1304190.000000 0 0 1
22.878960 -17.896418 -1.609333 29.091555 -0.663806 1.626144 -0.001061 0.010023 848331.000000 0 0 1
23.349060 -16.688218 -1.094533 28.720607 -0.620542 1.608915 0.002968 -0.002902 185783.000000 0 0 1
24.667260 -16.841518 -0.590833 29.874061 -0.599053 1.590575 0.014280 -0.007347 356891.000000 0 0 1
25.408460 -15.574918 -0.112733 29.802359 -0.549910 1.574579 0.015703 -0.013306 -56697.300000 0 0 1
24.732660 -14.985418 0.954667 28.934039 -0.544743 1.537796 0.005955 -0.009395 -350031.000000 0 0 1
25.450660 -13.982618 1.572167 29.081290 -0.502383 1.516709 0.003407 -0.017797 -243101.000000 0 0 1
24.682860 -13.350218 2.749267 28.196283 -0.495807 1.473137 0.005740 -0.015535 70237.700000 0 0 1
24.262160 -14.186118 3.813167 28.362627 -0.529095 1.435945 0.017202 -0.008262 234774.000000 0 0 1
25.374860 -14.694618 4.539967 29.671984 -0.524911 1.417188 0.049042 -0.008351 480770.000000 0 0 1
24.973760 -15.222118 5.953767 29.847092 -0.547393 1.369974 0.032246 0.001157 79712.100000 0 0 1
24.352760 -16.464718 5.965767 29.995571 -0.594500 1.370573 0.029971 -0.005969 14730.800000 0 0 1
23.413560 -16.624718 7.025167 29.562291 -0.617437 1.330861 0.014312 0.005539 437145.000000 0 0 1
22.758560 -18.070818 7.084867 29.911568 -0.671086 1.331663 0.012095 0.006854 454186.000000 0 0 1
23.780060 -19.077318 7.151667 31.314241 -0.676105 1.340379 0.010629 0.002280 341851.000000 0 0 1
23.270460 -20.328218 6.715467 31.620377 -0.718016 1.356789 -0.002282 0.009477 -313479.000000 0 0 1
1.937860 23.063712 -2.861133 23.321154 1.486971 1.693790 0.004571 -0.002673 -73606.500000 0 1 0
2.464160 24.276512 -2.360333 24.515144 1.469639 1.667226 0.004532 0.000154 -102524.000000 0 1 0
3.093360 25.050812 -3.344133 25.461644 1.447935 1.702517 0.004189 0.007555 -371271.000000 0 0 1
4.017460 26.124412 -2.777033 26.576998 1.418210 1.675477 -0.002418 0.004544 -396500.000000 0 0 1
5.243960 25.577612 -2.357533 26.215860 1.368577 1.660846 -0.001942 0.008863 -820354.000000 0 0 1
5.917060 26.562112 -1.647833 27.263029 1.351612 1.631275 0.003163 0.005760 -147825.000000 0 0 1
7.159060 25.906212 -0.977733 26.894980 1.301180 1.607158 0.005241 -0.003717 24836.600000 0 0 1
8.145460 25.534112 -1.904933 26.869465 1.261998 1.641752 0.006279 -0.006389 -833781.000000 0 0 1
9.145560 24.741912 -1.330133 26.411602 1.216735 1.621179 0.014796 0.002329 126733.000000 0 0 1
10.222560 24.516212 -2.454333 26.675253 1.175746 1.662934 0.021182 -0.001934 -849944.000000 0 0 1
11.046560 25.657612 -2.638433 28.058882 1.164245 1.664967 0.034543 -0.003956 504521.000000 0 0 1
12.127460 25.498112 -3.568033 28.459794 1.126841 1.696498 0.046772 -0.003143 1019240.000000 0 0 1
13.213360 24.389012 -3.287433 27.932490 1.074290 1.688762 0.052843 -0.003266 -510852.000000 0 0 1
12.741460 23.029012 -3.522033 26.553435 1.065439 1.703828 0.047432 -0.006702 53499.400000 0 0 1
12.423360 22.674012 -4.841133 26.303750 1.069558 1.755899 0.047953 -0.011750 -280248.000000 0 0 1
11.553260 21.385612 -4.951933 24.806126 1.075481 1.771772 0.041081 -0.012252 697546.000000 0 1 0
10.189360 21.671512 -4.631633 24.391177 1.131294 1.761846 0.020309 -0.005379 338344.000000 0 1 0
9.371260 20.529412 -4.694633 23.050311 1.142567 1.775900 0.005912 0.000739 -573706.000000 0 1 0
7.897460 20.853912 -4.523033 22.753315 1.208782 1.770915 -0.009554 0.001982 -653928.000000 0 1 0
7.426760 21.058712 -3.176533 22.554744 1.231746 1.712103 -0.014064 -0.001312 192741.000000 0 1 0
6.166460 21.700612 -3.321233 22.802903 1.293934 1.716966 -0.007369 0.014913 381568.000000 0 1 0
5.637760 22.382512 -2.008633 23.168854 1.324047 1.657601 0.002139 0.010363 -5731.300000 0 1 0
5.020260 21.485512 -1.133433 22.093323 1.341257 1.622121 -0.001623 0.004809 -249462.000000 0 1 0
4.460160 22.173612 -0.043533 22.617781 1.372298 1.572721 0.006405 0.005149 249357.000000 0 1 0
3.774860 21.283512 1.094267 21.643357 1.395261 1.520216 0.011171 -0.000384 530593.000000 0 1 0
3.124160 21.965712 2.172367 22.292870 1.429515 1.473195 0.011800 0.004689 389690.000000 0 1 0
2.744660 21.082512 3.181967 21.497218 1.441338 1.422233 0.011988 0.004783 -16708.000000 0 1 0
1.793160 21.733712 4.243567 22.216605 1.488477 1.378607 0.014145 -0.000998 -81508.700000 0 1 0
0.482060 21.873512 3.748967 22.197695 1.548761 1.401093 0.020485 0.000136 -364161.000000 0 1 0
-0.326240 22.461912 4.753667 22.961735 -1.556273 1.362263 0.017767 -0.003193 -441590.000000 0 1 0
-1.787240 22.527112 4.358267 23.014333 -1.491625 1.380274 0.001436 -0.000756 -931376.000000 0 1 0
-2.699740 22.988212 5.308467 23.747133 -1.453892 1.345350 0.012674 -0.008116 195227.000000 0 1 0
-3.982040 22.977012 4.657067 23.779992 -1.399195 1.373683 0.010350 -0.011551 627960.000000 0 1 0
-5.164340 23.292412 5.611067 24.508997 -1.352608 1.339809 0.028538 -0.020020 -148786.000000 0 1 0
-5.363940 24.676112 5.958867 25.945914 -1.356752 1.339063 0.026320 -0.017576 -536478.000000 0 0 1
-6.272740 24.827312 6.969367 26.538930 -1.323321 1.305071 0.036375 -0.022354 -619218.000000 0 0 1
-6.450240 26.280212 7.397167 28.053043 -1.330113 1.303956 0.033739 -0.022780 -243514.000000 0 0 1
-5.263340 26.796512 7.958267 28.444504 -1.376847 1.287229 0.038491 -0.022994 -97115.000000 0 0 1
-5.348040 28.083512 8.494567 29.823529 -1.382616 1.281970 0.049580 -0.031635 -200371.000000 0 0 1
-5.596840 29.246012 7.499067 30.706512 -1.381711 1.324084 0.052769 -0.027778 132712.000000 0 0 1
-6.942540 29.238112 7.047167 30.866303 -1.337665 1.340452 0.051512 -0.026593 -226031.000000 0 0 1
-7.077840 30.261212 6.123667 31.675481 -1.341035 1.376246 0.049163 -0.027928 -928597.000000 0 0 1
-8.515440 30.484612 5.639967 32.150172 -1.298404 1.394458 0.042542 -0.024450 -238801.000000 0 0 1
-9.289440 30.979312 6.716967 33.032244 -1.279468 1.366022 0.032742 -0.019606 -410425.000000 0 0 1
-10.001940 29.929512 7.334167 32.397600 -1.248281 1.342437 0.015117 -0.014316 -1007680.000000 0 0 1
-10.898340 30.459112 8.459567 33.437937 -1.227188 1.315024 0.002299 -0.008220 -668842.000000 0 0 1
-10.309940 31.021312 9.560067 34.058942 -1.249931 1.286281 0.006204 -0.009508 -801032.000000 0 0 1
-11.242640 31.289512 10.570667 34.887957 -1.225852 1.262969 0.008416 -0.003386 -326383.000000 0 0 1
-10.644440 31.835912 11.853267 35.599570 -1.248128 1.231354 0.010479 -0.005372 -344029.000000 0 0 1
-10.385840 33.225312 11.889367 36.785107 -1.267831 1.241675 0.005829 -0.006627 -421291.000000 0 0 1
-9.407840 33.536412 12.803567 37.109699 -1.297300 1.218537 0.002329 -0.004525 -517365.000000 0 0 1
-9.080440 -34.041018 12.804567 37.486028 1.310116 1.222196 -0.015747 -0.003421 -1387.900000 0 0 1
-10.013440 -33.340918 13.566867 37.362357 1.279032 1.199186 -0.018856 0.003642 -59103.200000 0 0 1
-9.510140 -32.048118 13.516667 36.058632 1.282328 1.186559 -0.018311 0.003449 -95988.800000 0 0 1
-10.288540 -30.944818 14.230967 35.580279 1.249814 1.159315 -0.006930 -0.005564 -384929.000000 0 0 1
-10.205440 -30.985218 15.644967 36.180102 1.252622 1.123622 -0.002378 -0.010115 -730139.000000 0 0 1
-8.978540 -30.767418 16.246267 35.933124 1.286861 1.101650 0.003814 -0.010150 -1135150.000000 0 0 1
-8.969440 -31.122018 17.784867 36.950404 1.290198 1.068639 -0.014245 -0.018242 -544527.000000 0 0 1
-9.762640 -30.250818 18.524667 36.791092 1.258625 1.043140 0.026334 -0.016769 -173649.000000 0 0 1
-10.729440 -30.881218 19.314767 37.971447 1.236402 1.037162 0.019450 -0.018952 -269063.000000 0 0 1
-11.260940 -30.071318 20.519767 38.107136 1.212487 1.002169 0.042529 -0.028449 -468857.000000 0 0 1
-10.249140 -29.735118 21.415967 38.050832 1.238868 0.972997 0.050122 -0.027610 -176829.000000 0 0 1
-10.700840 -29.199918 22.628667 38.460367 1.219527 0.941763 0.053372 -0.024009 156665.000000 0 0 1
-9.482640 -28.906718 23.542367 38.467673 1.253815 0.912204 0.040320 -0.021214 416112.000000 0 0 1
-9.151440 -30.030918 24.374367 39.745625 1.275002 0.910616 0.042512 -0.007205 529797.000000 0 0 1
-7.910540 -29.896618 25.078167 39.815812 1.312128 0.889431 0.031391 -0.001679 601102.000000 0 0 1
-7.576640 -31.098218 26.050867 41.269266 1.331816 0.887644 0.039725 -0.000490 -167567.000000 0 0 1
-7.428640 -32.360018 25.427167 41.819808 1.345144 0.917235 0.044870 0.007796 347514.000000 0 0 1
-7.220640 -33.306818 26.466467 43.150385 1.357308 0.910496 0.044033 0.004121 -434398.000000 0 0 1
-7.024140 34.342912 26.083367 43.693434 -1.369049 0.931086 0.038997 0.000935 -79497.200000 0 0 1
-5.722740 33.892112 25.725067 42.932553 -1.403522 0.928298 0.043965 0.003637 272690.000000 0 0 1
-5.527840 32.651312 24.986467 41.484801 -1.403087 0.924412 0.036492 0.006838 -280696.000000 0 0 1
-6.331340 32.353212 23.671467 40.585152 -1.377544 0.948067 0.034836 0.009842 902913.000000 0 0 1
-7.501140 31.553812 23.963067 40.325411 -1.337403 0.934473 0.023629 0.006964 803083.000000 0 0 1
-8.477140 31.473612 22.956067 39.867671 -1.307699 0.957206 0.019038 0.021226 -36161.900000 0 0 1
-9.462340 30.334812 23.176467 39.330463 -1.268431 0.940635 0.017398 0.007225 -47427.100000 0 0 1
-8.800140 29.068312 23.115467 38.167186 -1.276828 0.920230 0.006893 0.014709 -47266.500000 0 0 1
-9.653540 28.040012 23.476967 37.823288 -1.239229 0.901159 0.002550 0.013602 -554443.000000 0 0 1
-9.295940 26.604112 23.032267 36.396135 -1.234641 0.885604 -0.011071 0.007785 420533.000000 0 0 1
-8.100140 26.109712 23.657567 36.152591 -1.269977 0.857433 -0.005397 0.006347 593381.000000 0 0 1
-7.651240 24.859512 23.217767 34.865478 -1.272218 0.842064 -0.009853 0.004497 -172553.000000 0 0 1
-6.229940 24.587012 23.728767 34.733093 -1.322636 0.818695 -0.013373 0.006474 -55168.300000 0 0 1
-5.257840 25.441212 23.159267 34.803043 -1.366999 0.842716 -0.017397 0.006728 573301.000000 0 0 1
-3.982540 25.350912 23.836367 35.024303 -1.414973 0.822261 -0.014366 0.007494 1080380.000000 0 0 1
-2.867340 25.933312 22.920267 34.728907 -1.460678 0.850009 -0.019472 0.016123 -154415.000000 0 0 1
-2.631940 25.087112 21.783767 33.329009 -1.466267 0.858468 -0.011683 0.010202 -188354.000000 0 0 1
-1.895340 25.777012 20.818267 33.188054 -1.497400 0.892738 -0.009624 0.009858 -296938.000000 0 0 1
-1.395640 24.859812 19.681267 31.738153 -1.514715 0.901909 -0.011106 0.007047 -424514.000000 0 0 1
-0.453940 23.941912 20.201967 31.329550 -1.551839 0.870007 0.002538 0.006893 -204241.000000 0 0 1
-0.275040 22.785112 19.376667 29.911406 -1.558726 0.866101 -0.016070 0.004108 -195453.000000 0 0 1
0.940560 21.914012 19.727267 29.500401 1.527902 0.838321 -0.012187 0.011810 -225702.000000 0 0 1
2.207660 22.522112 19.685467 29.993948 1.473087 0.854873 -0.010252 0.000458 -87100.700000 0 0 1
3.168260 21.469412 19.680567 29.296728 1.424283 0.834205 0.003939 0.006743 -800180.000000 0 0 1
4.581160 21.903212 19.385867 29.606580 1.364614 0.856902 0.000041 0.000052 -1274340.000000 0 0 1
5.419960 20.817712 19.239967 28.860517 1.316097 0.841086 0.018359 -0.000243 -704278.000000 0 0 1
6.681860 21.290512 18.841667 29.205164 1.266689 0.869579 0.040553 -0.003370 491211.000000 0 0 1
7.843160 20.245312 18.574567 28.572756 1.201194 0.863107 0.035642 0.002272 716527.000000 0 0 1
8.333960 19.653312 19.763367 29.091206 1.169732 0.823908 0.030630 0.000076 -22056.300000 0 0 1
9.383560 18.756512 19.479167 28.623345 1.106923 0.822305 0.031349 -0.000596 129921.000000 0 0 1
9.922160 17.985312 20.699167 29.161211 1.066663 0.781556 0.046207 -0.004747 -99092.500000 0 0 1
9.165160 16.826412 20.977367 28.410882 1.072040 0.740166 0.044414 -0.005639 32619.500000 0 0 1
9.708860 16.112912 22.065067 28.995777 1.028503 0.705981 0.055479 -0.012624 130680.000000 0 0 1
8.775460 15.002912 22.694167 28.585334 1.041541 0.653584 0.036009 -0.007486 222013.000000 0 0 1
7.651160 15.602612 23.322167 29.084450 1.114877 0.640365 0.028916 0.006136 -137345.000000 0 0 1
6.562460 14.787212 23.627567 28.635458 1.153116 0.600389 0.017340 0.002619 -68500.400000 0 0 1
6.793560 13.731412 24.713667 29.076958 1.111361 0.554925 0.021504 -0.002956 -845512.000000 0 0 1
6.945460 14.307412 26.023867 30.498904 1.118860 0.548568 0.024552 -0.006418 -820.291000 0 0 1
7.066460 13.270912 26.962067 30.870780 1.081506 0.508687 0.020031 -0.011271 -511315.000000 0 0 1
8.067860 13.674512 28.090667 32.267139 1.037768 0.514445 0.008546 -0.009875 400842.000000 0 0 1
9.416260 13.794512 27.646467 32.299871 0.971838 0.543447 0.035747 -0.009695 468468.000000 0 0 1
9.793260 15.037512 27.055067 32.465541 0.993539 0.585661 0.030128 -0.005131 -370862.000000 0 0 1
11.154760 14.971112 26.316267 32.266217 0.930448 0.617034 0.052828 -0.010307 142245.000000 0 0 1
11.071960 14.115812 25.170367 30.909413 0.905661 0.619228 0.048692 -0.013465 161830.000000 0 0 1
12.313260 14.007112 24.500767 30.791284 0.849665 0.650626 0.053938 -0.013106 -48347.000000 0 0 1
12.342460 12.698912 23.647867 29.543533 0.799632 0.642765 0.053514 -0.023232 93524.600000 0 0 1
12.093960 11.493912 24.312467 29.486776 0.759965 0.601441 0.048160 -0.015360 1345910.000000 0 0 1
10.671860 11.257012 24.515067 29.010299 0.812076 0.564143 0.041619 -0.011481 1083110.000000 0 0 1
10.211860 9.875812 25.030167 28.780601 0.768671 0.516225 0.034418 -0.009273 -126883.000000 0 0 1
10.405160 8.838012 24.122767 27.717967 0.704138 0.514998 0.038136 -0.006027 214837.000000 0 0 1
10.056960 7.637612 24.709467 27.749474 0.649513 0.472467 0.042336 -0.011629 -145100.000000 0 0 1
10.197860 6.480812 23.731567 26.630519 0.566119 0.470941 0.041938 -0.015760 928701.000000 0 0 1
11.580460 6.157212 23.463067 26.879990 0.488677 0.509718 0.046375 -0.012248 1155610.000000 0 0 1
11.714460 4.992512 22.654167 25.987786 0.402873 0.512087 0.042614 -0.015123 -40119.400000 0 0 1
11.589660 3.575112 23.360567 26.321431 0.299213 0.478881 0.023415 -0.013099 530555.000000 0 0 1
12.797460 3.249712 24.070767 27.454279 0.248678 0.501717 0.026443 -0.010969 904162.000000 0 0 1
12.625460 1.985212 24.606267 27.727454 0.155962 0.479050 0.018448 -0.009190 70720.600000 0 0 1
13.906860 1.579712 25.387667 28.990169 0.113107 0.503843 0.024841 -0.009097 652380.000000 0 0 1
14.837060 0.963612 24.460367 28.624753 0.064855 0.546174 0.017558 -0.008494 142261.000000 0 0 1
16.155760 1.072312 24.924467 29.721835 0.066276 0.576105 0.028355 -0.010973 -847243.000000 0 0 1
17.078260 0.188812 24.134367 29.566371 0.011055 0.615859 0.039623 -0.015484 -611851.000000 0 0 1
16.879160 -1.144788 24.424567 29.711548 -0.067719 0.605783 0.036118 -0.018325 449482.000000 0 0 1
17.893160 -1.998288 23.876467 29.903913 -0.111218 0.646097 0.031682 -0.010015 375241.000000 0 0 1
17.625660 -3.460888 24.286567 30.207267 -0.193888 0.636809 0.039468 0.000428 -91206.600000 0 0 1
16.874760 -4.124588 23.312667 29.073187 -0.239723 0.640392 0.027698 0.004458 -131763.000000 0 0 1
16.866460 -5.503388 23.616567 29.538229 -0.315400 0.644292 0.043225 0.003940 66839.900000 0 0 1
15.900360 -6.399588 22.782667 28.510105 -0.382643 0.644985 0.041931 0.001267 -149339.000000 0 0 1
16.123460 -6.389988 21.397467 27.543593 -0.377327 0.681135 0.021950 0.000914 126460.000000 0 0 1
15.387160 -7.426488 20.759267 26.886141 -0.449665 0.688629 0.017296 0.000272 -248315.000000 0 0 1
15.950760 -8.869888 20.969567 27.799719 -0.507499 0.716196 0.028748 -0.010171 -114723.000000 0 0 1
15.693460 -9.462088 22.290967 28.856594 -0.542573 0.688069 0.024561 -0.004137 -396932.000000 0 0 1
16.518660 -10.521788 22.545867 29.864532 -0.567156 0.715237 0.027225 -0.005386 -517455.000000 0 0 1
16.103360 -11.278388 23.858167 30.914922 -0.610977 0.689229 0.030654 0.002794 -300805.000000 0 0 1
14.990560 -12.084688 23.645267 30.493528 -0.678482 0.683418 0.026161 0.002085 -499871.000000 0 0 1
14.830560 -13.059688 24.647267 31.590960 -0.721989 0.675811 0.021469 0.014241 552933.000000 0 0 1
13.695560 -14.063788 24.206567 31.165949 -0.798662 0.681388 0.007911 0.015114 531068.000000 0 0 1
14.092860 -14.850288 23.120367 30.881890 -0.811562 0.724742 0.017192 0.010224 -286205.000000 0 0 1
13.003260 -15.551888 22.641467 30.390492 -0.874415 0.730234 0.004533 0.013663 -631421.000000 0 0 1
13.396360 -16.454388 21.443667 30.166873 -0.887486 0.780112 0.009762 -0.004454 -7395.800000 0 0 1
14.132660 -17.642488 21.707867 31.340404 -0.895410 0.805642 0.023553 0.001535 130387.000000 0 0 1
14.507160 -18.115588 20.479767 30.952432 -0.895561 0.847775 0.022189 0.004309 -276344.000000 0 0 1
-22.964340 -32.500818 26.993684 48.086621 0.955670 0.974774 0.008409 -0.005535 -456993.000000 0 0 1
-23.530040 -33.517118 27.755134 49.471279 0.958709 0.975160 0.005520 -0.011427 -904519.000000 0 0 1
-24.767240 -33.854118 27.245734 50.018472 0.939184 0.994749 0.007533 -0.015142 -710131.000000 0 0 1
-25.561100 34.332612 28.172634 51.242516 -0.930816 0.988683 0.008807 -0.011249 -892212.000000 0 0 1
-26.194750 -34.326818 29.311524 52.188704 0.918965 0.974424 0.027201 -0.018427 -296884.000000 0 0 1
-25.494810 -33.906718 30.474444 52.233539 0.926074 0.947855 0.021950 -0.021391 -251436.000000 0 0 1
-26.429760 -33.141618 31.455354 52.785778 0.897594 0.932403 0.018904 -0.023213 173197.000000 0 0 1
-26.618610 -31.798818 31.075044 51.820591 0.873843 0.927713 0.033067 -0.016320 109301.000000 0 0 1
-27.533330 -31.228618 31.991594 52.504980 0.848201 0.915611 0.018573 -0.006208 -49895.600000 0 0 1
-27.999700 -29.780418 31.660154 51.703209 0.816207 0.911774 0.018678 -0.013862 -209600.000000 0 0 1
-28.713510 -29.745318 30.457754 51.350992 0.803047 0.935857 0.007724 0.008756 148115.000000 0 0 1
-29.201250 -28.393818 30.279334 50.751946 0.771380 0.931521 0.022609 0.009598 67005.100000 0 0 1
-29.606920 -28.136418 28.770384 49.959611 0.759937 0.957125 0.013978 0.001077 -50393.000000 0 0 1
-28.607220 -27.819918 27.802704 48.634466 0.771447 0.962261 0.012299 0.007669 272395.000000 0 0 1
-28.334120 -26.415618 27.640204 47.587689 0.750371 0.951052 0.012005 0.011540 -517505.000000 0 0 1
-27.351090 -26.140818 26.554284 46.222879 0.762777 0.958823 0.000884 0.017734 -340466.000000 0 0 1
-27.948530 -26.279218 25.292124 45.950073 0.754625 0.987922 -0.013874 0.014239 -205577.000000 0 0 1
-26.888430 -26.306818 24.405764 44.840581 0.774465 0.995268 -0.001443 0.024876 -408403.000000 0 0 1
-27.257040 -26.670418 22.927264 44.496257 0.774521 1.029482 -0.013895 0.025850 -141446.000000 0 0 1
-27.851850 -25.603118 22.215464 43.872224 0.743355 1.039829 -0.019890 0.019316 180463.000000 0 0 1
-28.385280 -26.070918 21.006064 43.893868 0.742924 1.071777 -0.025746 0.025828 -157789.000000 0 0 1
-29.030770 -25.007118 20.097064 43.267003 0.711075 1.087738 -0.028744 0.018266 -77691.600000 0 0 1
-30.345010 -24.654718 20.479564 44.137142 0.682305 1.088293 -0.020830 0.016133 -43218.700000 0 0 1
-30.788750 -23.600418 19.652764 43.487447 0.653995 1.101882 -0.013288 0.014762 -1259940.000000 0 0 1
-32.188270 -23.173018 20.010864 44.424185 0.623971 1.103527 -0.001653 0.022971 -1076170.000000 0 0 1
-33.123930 -24.032918 19.397564 45.288425 0.627666 1.128173 -0.016838 0.017270 36028.800000 0 0 1
-34.411982 -23.436518 19.415764 45.939382 0.597899 1.134441 -0.007039 0.015250 611183.000000 0 0 1
34.809759 -24.269218 18.745464 46.390804 -0.608841 1.154827 0.005942 0.005980 511182.000000 0 0 1
34.553709 -25.583718 19.265964 47.113298 -0.637332 1.149517 0.004768 0.005064 -70667.700000 0 0 1
34.001097 -26.536818 18.349364 46.871916 -0.662718 1.168558 0.015968 0.011242 117857.000000 0 0 1
33.759347 -27.928418 19.032464 47.769496 -0.691155 1.161000 0.013669 0.018841 379607.000000 0 0 1
32.639007 -27.964918 19.913564 47.369732 -0.708425 1.136926 0.011244 0.017087 225381.000000 0 0 1
32.907387 -27.336118 21.144264 47.720430 -0.693181 1.111758 0.014125 0.019140 121711.000000 0 0 1
31.650927 -27.402018 22.083264 47.332044 -0.713571 1.085398 0.008396 0.018376 257192.000000 0 0 1
30.621387 -26.622618 21.578464 45.957189 -0.715657 1.082033 0.008853 0.025676 -700487.000000 0 0 1
29.601197 -26.297218 22.509464 45.546136 -0.726360 1.053868 0.016391 0.025814 197466.000000 0 0 1
28.701557 -25.176018 21.867964 43.997945 -0.720055 1.050632 0.016226 0.026508 -65870.300000 0 0 1
29.327837 -24.011118 21.331964 43.493776 -0.686048 1.058179 0.012081 0.025430 -139146.000000 0 0 1
29.817837 -23.150418 22.376364 43.883333 -0.660181 1.035721 0.019448 0.018993 -180342.000000 0 0 1
30.797767 -22.072618 21.888064 43.758317 -0.621843 1.046963 0.009125 0.022574 -583716.000000 0 0 1
30.205787 -21.107218 21.073664 42.450012 -0.609907 1.051309 0.003362 0.016089 -514010.000000 0 0 1
30.995927 -20.051318 20.604964 42.277268 -0.574194 1.061713 -0.008177 0.012273 -926446.000000 0 0 1
30.251787 -18.703618 20.608264 41.105918 -0.553741 1.045643 -0.012756 0.019298 -1139.250000 0 0 1
29.936167 -18.197318 21.860564 41.294076 -0.546187 1.012918 -0.012807 0.019114 1028300.000000 0 0 1
28.642937 -18.604618 22.394264 40.841801 -0.576049 0.990446 0.004511 0.008078 681795.000000 0 0 1
28.476717 -18.526618 23.942564 41.562067 -0.576789 0.956887 0.000676 0.010626 -45691.100000 0 0 1
28.364937 -17.194318 24.384154 41.167963 -0.544953 0.936875 -0.002425 0.016283 123934.000000 0 0 1
28.165667 -17.188918 25.801664 41.886628 -0.547943 0.907157 0.001834 0.013981 -349202.000000 0 0 1
28.060387 -15.804118 26.406414 41.646779 -0.512935 0.884008 -0.007484 0.018062 715531.000000 0 0 1
26.717817 -15.296118 26.302984 40.492715 -0.519958 0.863773 0.009410 0.009187 780564.000000 0 0 1
26.450957 -14.141018 27.095944 40.420437 -0.490953 0.836113 0.007893 0.004861 -168768.000000 0 0 1
27.155147 -12.809618 26.764934 40.222506 -0.440769 0.842738 0.012502 0.006355 -398449.000000 0 0 1
26.605477 -12.100618 25.657054 38.891655 -0.426852 0.850369 0.013050 0.007371 -102395.000000 0 0 1
27.487607 -11.337318 24.885554 38.773627 -0.391195 0.873932 0.007347 0.000584 -159065.000000 0 0 1
28.457617 -12.156818 23.957964 39.135767 -0.403724 0.911987 0.001756 0.003714 237204.000000 0 0 1
27.871227 -12.805518 22.829364 38.235670 -0.430687 0.930953 0.007880 0.000352 226639.000000 0 0 1
28.614637 -14.004118 22.653664 39.090936 -0.455135 0.952667 -0.002859 -0.003296 51086.600000 0 0 1
27.931717 -14.959018 21.678064 38.391295 -0.491687 0.970774 0.004987 -0.003029 -482471.000000 0 0 1
28.370217 -14.751718 20.350264 37.902713 -0.479497 1.004029 -0.001268 0.001109 -107640.000000 0 0 1
27.803757 -15.819518 19.607564 37.520163 -0.517291 1.020913 -0.006315 -0.004589 -348842.000000 0 0 1
28.298377 -15.839218 18.144364 37.160422 -0.510277 1.060689 -0.000909 -0.006550 -82846.400000 0 0 1
27.758327 -16.853618 17.290164 36.790202 -0.545664 1.081543 0.004037 -0.010553 -379412.000000 0 0 1
26.397827 -16.701118 16.994864 35.561187 -0.564096 1.072528 0.010728 -0.012589 -611421.000000 0 0 1
26.001267 -15.708318 15.867764 34.272483 -0.543456 1.089433 0.013683 -0.007076 -515248.000000 0 0 1
26.341197 -16.135418 14.551864 34.146261 -0.549600 1.130550 0.011732 -0.012580 247575.000000 0 0 1
25.556437 -17.226518 14.053864 33.873227 -0.593102 1.142968 0.012112 -0.017174 -82350.600000 0 0 1
25.900687 -17.668518 12.656964 33.811549 -0.598655 1.187113 -0.009030 0.002250 -79871.200000 0 0 1
25.402487 -16.830518 11.593364 32.603049 -0.585150 1.207250 -0.003039 -0.001772 56566.800000 0 0 1
24.997087 -17.557918 10.439864 32.281971 -0.612334 1.241480 0.012658 -0.009233 695557.000000 0 0 1
26.185257 -17.894618 9.426464 33.086905 -0.599488 1.281894 0.010153 -0.002802 1175550.000000 0 0 1
27.026637 -18.929818 9.915564 34.454253 -0.611003 1.278879 -0.003363 0.004590 -307992.000000 0 0 1
28.326617 -18.900918 9.365164 35.317818 -0.588406 1.302418 0.005220 0.006686 989572.000000 0 0 1
29.370947 -19.781018 10.209364 36.853390 -0.592711 1.290098 0.028291 -0.022068 379668.000000 0 0 1
29.513597 -19.285618 11.554064 37.100996 -0.578796 1.254107 0.023886 -0.024677 -126286.000000 0 0 1
29.503417 -20.297618 12.508764 37.933021 -0.602610 1.234748 0.010504 -0.025011 -338556.000000 0 0 1
29.402577 -19.667618 13.908864 38.010305 -0.589553 1.196171 0.017168 -0.014013 14907.800000 0 0 1
29.295167 -20.533118 14.995564 38.790240 -0.611333 1.173875 0.022384 -0.008249 -76981.200000 0 0 1
28.963177 -19.709818 16.102864 38.557033 -0.597527 1.139953 0.019157 -0.008874 122686.000000 0 0 1
28.846307 -20.562118 17.402264 39.468328 -0.619276 1.114176 0.009606 0.004016 -775623.000000 0 0 1
27.721717 -21.317118 17.213864 38.977304 -0.655531 1.113373 -0.004710 0.007549 -1123380.000000 0 0 1
27.577707 -22.153618 18.332564 39.842134 -0.676760 1.092655 0.006584 0.013132 153850.000000 0 0 1
26.318577 -23.062018 18.307964 39.493110 -0.719545 1.088772 0.008302 0.024005 81555.800000 0 0 1
25.173587 -22.450418 18.832264 38.631398 -0.728280 1.061588 0.013202 0.014195 -191338.000000 0 0 1
24.076087 -23.353518 18.895464 38.497836 -0.770165 1.057767 0.021491 0.012974 -444673.000000 0 0 1
22.885087 -22.816618 19.627364 37.809505 -0.783900 1.024985 0.023322 0.010263 -878317.000000 0 0 1
22.229387 -21.715018 18.984964 36.415883 -0.773694 1.022379 0.016742 0.005572 984022.000000 0 0 1
21.106487 -21.168218 19.748564 35.827127 -0.786858 0.986973 0.015803 0.004971 1044150.000000 0 0 1
21.322787 -20.632818 21.209564 36.472182 -0.768954 0.950192 0.009556 0.009199 -526525.000000 0 0 1
21.540787 -21.617418 22.215764 37.747297 -0.787174 0.941546 0.017551 0.010846 -18610.100000 0 0 1
21.739187 -21.107518 23.537564 38.368431 -0.770657 0.910360 0.010195 0.004873 84310.900000 0 0 1
22.032687 -22.236318 24.569584 39.793939 -0.789998 0.905337 0.004803 0.005737 195622.000000 0 0 1
20.900987 -23.025618 24.982644 39.889383 -0.833728 0.894001 0.006148 0.005875 403240.000000 0 0 1
21.341487 -24.029918 25.849874 41.244539 -0.844583 0.893425 0.009661 0.010200 -579352.000000 0 0 1
20.338687 -24.923518 26.574444 41.725832 -0.886349 0.880349 0.007149 0.009050 -763669.000000 0 0 1
19.645387 -25.815818 25.742874 41.413685 -0.920303 0.900009 0.017175 0.005336 189624.000000 0 0 1
18.561487 -26.391018 26.455834 41.724403 -0.957842 0.884002 0.036627 -0.014299 -32438.900000 0 0 1
17.820187 -27.456918 25.647944 41.584354 -0.995108 0.906165 0.046372 -0.013236 -467080.000000 0 0 1
17.345287 -26.872518 24.499644 40.289251 -0.997615 0.917139 0.036683 -0.010523 117582.000000 0 0 1
16.673187 -27.841818 23.708964 40.190509 -1.031220 0.939843 0.039406 -0.008914 -407872.000000 0 0 1
15.903887 -27.274618 22.510564 38.775816 -1.042894 0.951416 0.025933 -0.006651 673015.000000 0 0 1
14.568587 -26.914618 22.900264 38.223847 -1.074666 0.928408 0.017765 -0.008365 1027250.000000 0 0 1
13.856987 -26.060118 21.977464 36.798842 -1.082087 0.930750 0.015424 -0.010086 561244.000000 0 0 1
12.512187 -25.442518 22.405164 36.136795 -1.113744 0.902041 0.009836 -0.008536 358149.000000 0 0 1
11.400887 -26.320018 22.327264 36.348732 -1.162031 0.909359 0.011933 -0.012890 227126.000000 0 0 1
10.190187 -25.582318 22.548164 35.590935 -1.191731 0.884681 0.018541 -0.013947 580948.000000 0 0 1
8.977887 -26.535818 22.516964 35.941143 -1.244555 0.893748 0.023009 -0.014937 -211307.000000 0 0 1
8.730887 -27.136118 21.223564 35.539232 -1.259512 0.930807 0.025703 -0.019846 773300.000000 0 0 1
7.556687 -27.967218 21.397264 36.015437 -1.306900 0.934633 0.017889 -0.013015 564409.000000 0 0 1
7.086787 -28.694618 20.152564 35.773307 -1.328669 0.972373 0.018963 -0.007758 -193504.000000 0 0 1
7.775687 -29.921918 19.939864 36.788323 -1.316554 0.997962 0.019993 -0.017282 131884.000000 0 0 1
7.372987 -30.711218 18.836264 36.774240 -1.335181 1.033036 0.016359 -0.011446 -170638.000000 0 0 1
8.047987 -32.083418 18.863864 38.078356 -1.325022 1.052506 0.014976 -0.001299 -122848.000000 0 0 1
7.632387 -32.938418 19.877264 39.221147 -1.343098 1.039328 0.020354 -0.005882 -248871.000000 0 0 1
8.432987 -34.063218 19.948164 40.365175 -1.328107 1.053891 0.013914 -0.001240 -528135.000000 0 0 1
7.953987 34.006712 20.959164 40.730933 1.341032 1.030283 0.017933 -0.008157 313622.000000 0 0 1
7.042187 33.037212 20.390664 39.456672 1.360780 1.027704 0.018922 -0.008799 332021.000000 0 0 1
6.888287 31.963712 21.308564 39.027968 1.358539 0.993236 0.009986 -0.014271 341756.000000 0 0 1
5.989487 30.728312 20.877564 37.629454 1.378292 0.982650 0.013088 -0.012360 -383620.000000 0 0 1
4.634387 30.891412 21.058364 37.672425 1.421885 0.977634 0.010911 -0.013804 -1297800.000000 0 0 1
3.917687 29.814112 20.503064 36.395126 1.440141 0.972366 0.008897 -0.006614 572775.000000 0 0 1
2.492087 29.671212 21.127264 36.509624 1.487003 0.953691 -0.000971 -0.006363 258972.000000 0 0 1
2.519987 29.415212 22.518264 37.130543 1.485335 0.919193 -0.008194 -0.008248 -143229.000000 0 0 1
1.214887 29.091012 22.939364 37.067201 1.529059 0.903507 -0.018245 -0.002413 -163651.000000 0 0 1
1.059187 28.458712 24.378564 37.487792 1.533595 0.862808 -0.009833 0.004672 -321176.000000 0 0 1
1.199587 29.393712 25.391244 38.860579 1.530008 0.858738 -0.009505 0.002119 160030.000000 0 0 1
0.880087 28.857712 26.668434 39.303276 1.540308 0.825037 -0.015678 0.007898 -149388.000000 0 0 1
2.038187 28.138312 27.440514 39.356075 1.498488 0.799260 -0.018260 0.008443 184002.000000 0 0 1
2.429087 26.864512 26.907744 38.100251 1.480622 0.786630 -0.012975 0.006223 252871.000000 0 0 1
3.209487 26.162612 27.874384 38.363581 1.448732 0.757459 -0.023381 0.017879 -113229.000000 0 0 1
3.824987 24.873512 27.344284 37.162239 1.418214 0.743937 -0.016150 0.027141 -3591.130000 0 0 1
2.844987 23.905612 26.983734 36.162054 1.452344 0.728477 -0.001335 0.020246 323168.000000 0 0 1
3.463287 22.631912 26.793314 35.243148 1.418948 0.707111 -0.002107 0.021750 435005.000000 0 0 1
2.371787 21.573812 26.474204 34.233583 1.461298 0.686704 -0.005591 0.025465 145403.000000 0 0 1
2.708187 20.223012 26.754214 33.646582 1.437672 0.651535 0.001513 0.025180 89359.400000 0 0 1
3.511787 19.701512 25.707254 32.578292 1.394399 0.661468 0.011838 0.023519 -498462.000000 0 0 1
3.920087 18.230912 26.072764 32.054988 1.358997 0.620864 0.010639 0.015636 -13636.100000 0 0 1
5.140187 18.145212 26.790514 32.762812 1.294748 0.613373 0.005204 0.015664 -436468.000000 0 0 1
6.231187 17.942712 25.944264 32.153902 1.236545 0.631949 0.015555 0.016573 -1481350.000000 0 0 1
7.472287 17.888512 26.864434 33.129017 1.175113 0.625102 0.007667 0.008926 -366180.000000 0 0 1
7.862887 19.108712 27.500334 34.398201 1.180431 0.644384 -0.002276 0.010229 162346.000000 0 0 1
8.324487 20.084912 26.598684 34.353905 1.177883 0.685259 -0.008401 0.005740 -709357.000000 0 0 1
8.648887 21.398812 27.254924 35.714749 1.186695 0.702657 -0.014973 0.009007 -352136.000000 0 0 1
9.706487 21.293312 28.156344 36.611484 1.143091 0.693431 0.003489 -0.005961 -341063.000000 0 0 1
9.854787 22.483212 28.878864 37.902512 1.157700 0.704516 0.016676 -0.008060 -343613.000000 0 0 1
10.856387 22.348612 30.037004 38.981319 1.118594 0.691095 0.031598 -0.013200 -1080310.000000 0 0 1
12.131087 22.226712 29.541154 38.908480 1.071192 0.708641 0.020988 -0.018496 -1235800.000000 0 0 1
13.074187 22.047612 30.615164 39.928935 1.035541 0.697047 0.023936 -0.017983 988720.000000 0 0 1
14.529587 21.934512 30.049864 39.940281 0.985748 0.719144 0.019663 -0.015612 506877.000000 0 0 1
15.053287 23.114512 29.510894 40.395235 0.993544 0.751664 0.012406 -0.028354 -274747.000000 0 0 1
16.339087 22.821012 28.998314 40.356741 0.949435 0.769082 0.056228 -0.018322 13400.900000 0 0 1
-8.538440 16.853712 4.444767 19.408981 -1.101866 1.339740 -0.001908 -0.013238 -206705.000000 0 1 0
-8.397840 17.993112 5.214567 20.529674 -1.134121 1.313981 -0.005287 -0.014660 -302264.000000 0 1 0
-7.066540 18.332312 5.492967 20.400548 -1.202879 1.298176 -0.007525 -0.007450 -550366.000000 0 1 0
-6.868140 19.804112 6.011267 21.806181 -1.236972 1.291512 -0.009896 -0.004096 -371645.000000 0 1 0
-7.071240 20.922312 5.185367 22.685538 -1.244873 1.340182 -0.009069 -0.008136 -288272.000000 0 1 0
-8.401840 21.204512 4.847767 23.317871 -1.193545 1.361370 -0.013569 -0.010186 -380611.000000 0 1 0
-8.584740 22.285412 3.766867 24.176986 -1.203098 1.414355 0.009505 -0.007681 130329.000000 0 1 0
-7.965440 22.072312 2.464667 23.594698 -1.224463 1.466147 0.004090 -0.005040 60345.000000 0 1 0
-8.440040 20.976612 1.710667 22.675514 -1.188262 1.495283 0.018470 -0.006393 -793270.000000 0 1 0
-8.018940 20.943912 0.203667 22.427491 -1.205138 1.561715 0.011801 0.006595 988705.000000 0 1 0
-6.649940 20.620212 -0.051633 21.666045 -1.258831 1.573179 0.005293 0.009933 1223670.000000 0 1 0
-5.598240 21.508012 0.378367 22.227866 -1.316160 1.553773 0.005065 0.006312 934095.000000 0 1 0
-4.177640 21.233512 -0.215933 21.641658 -1.376530 1.580774 0.004507 0.007912 458108.000000 0 1 0
-3.984740 21.616212 -1.558233 22.035582 -1.388502 1.641570 0.006391 0.005209 -674294.000000 0 1 0
-2.651040 21.619812 -1.957533 21.869527 -1.448785 1.660426 0.001185 0.012290 -553692.000000 0 1 0
-2.350140 21.625812 -3.468933 22.027991 -1.462548 1.728933 0.019450 0.002502 139687.000000 0 1 0
-1.147040 22.238212 -3.896933 22.606191 -1.519262 1.744045 0.009349 0.010168 35375.800000 0 1 0
-1.247840 22.646412 -5.236833 23.277489 -1.515751 1.797713 0.012266 0.003042 128526.000000 0 1 0
0.029260 23.243912 -5.910433 23.983610 1.569538 1.819798 0.008522 0.001471 -251660.000000 0 1 0
1.092860 22.358112 -5.878933 23.143927 1.521955 1.827627 -0.001306 0.010342 -215430.000000 0 1 0
2.218260 22.913412 -6.581133 23.942774 1.474287 1.849250 -0.003222 0.009472 762517.000000 0 1 0
3.417660 21.933912 -6.688733 23.184392 1.416223 1.863458 0.000051 0.013347 59351.000000 0 1 0
3.227460 21.019412 -7.743233 22.631612 1.418440 1.919992 0.001676 0.004463 12557.200000 0 1 0
3.998060 19.840312 -7.649133 21.636351 1.371947 1.932140 -0.002101 0.000575 136750.000000 0 1 0
3.648760 18.851112 -8.823833 21.131444 1.379604 2.001564 -0.004957 -0.002183 -74193.200000 0 1 0
4.065660 19.245412 -10.092033 22.108021 1.362604 2.044840 -0.001556 -0.006735 -48567.200000 0 1 0
2.987760 19.103412 -11.036233 22.263547 1.415654 2.089447 0.000946 -0.007753 185610.000000 0 1 0
3.373760 19.466912 -12.474633 23.365774 1.399193 2.133985 0.006954 -0.011605 51914.100000 0 1 0
3.511560 20.867612 -12.750433 24.705502 1.404080 2.113084 0.025857 -0.009100 -67397.800000 0 1 0
3.877860 21.033012 -14.129833 25.633524 1.388474 2.154628 0.036313 -0.011326 48980.800000 0 0 1
4.145760 22.483012 -14.613233 27.133369 1.388449 2.139536 0.039129 -0.010436 455985.000000 0 0 1
2.976360 23.295112 -14.792233 27.754840 1.443717 2.132892 0.045686 -0.008378 297518.000000 0 0 1
3.285560 24.552812 -15.430033 29.184266 1.437771 2.127877 0.044507 -0.003977 1079390.000000 0 0 1
1.997960 25.407512 -15.822533 29.998101 1.492321 2.126394 0.048497 -0.007953 802648.000000 0 0 1
1.108160 25.741412 -14.820933 29.723869 1.527773 2.092803 0.051100 -0.014847 -415149.000000 0 0 1
1.216360 27.095112 -14.413633 30.714450 1.525934 2.059270 0.041119 -0.013210 -526455.000000 0 0 1
0.403160 27.457412 -13.168533 30.454594 1.556114 2.017948 0.037818 -0.013562 577124.000000 0 0 1
-1.016740 27.613512 -13.138033 30.596531 -1.533993 2.014620 0.030140 -0.015534 825993.000000 0 0 1
-1.822440 26.460512 -13.385233 29.709333 -1.502031 2.038166 0.027581 -0.015860 -67607.000000 0 0 1
-1.678640 25.190812 -12.383333 28.120131 -1.504258 2.026810 0.034705 -0.013622 -304703.000000 0 0 1
-2.324940 25.372512 -11.105933 27.794091 -1.479419 1.981854 0.026747 -0.007728 149450.000000 0 0 1
-2.400840 24.115912 -10.517533 26.418928 -1.471569 1.980248 0.045006 -0.009138 119663.000000 0 0 1
-3.152140 24.079212 -9.162033 25.955487 -1.440629 1.931561 0.027165 -0.006873 -34020.700000 0 0 1
-2.405840 24.569112 -8.093133 25.979379 -1.473186 1.887590 0.022462 -0.009412 -144286.000000 0 0 1
-2.261740 25.997212 -8.077333 27.316914 -1.484016 1.870974 0.019220 -0.007715 -304659.000000 0 0 1
-2.179640 26.502412 -6.654933 27.411983 -1.488738 1.816021 0.019138 -0.007624 9896.130000 0 0 1
-0.996940 26.236412 -5.927333 26.916101 -1.532816 1.792831 0.008405 -0.003928 -254158.000000 0 0 1
-0.999240 26.682812 -4.595133 27.094025 -1.533365 1.741220 0.007456 -0.006266 -649712.000000 0 0 1
-1.672740 25.908912 -3.483633 26.195524 -1.506323 1.704177 0.021201 -0.001967 -182316.000000 0 0 1
-3.051740 25.841712 -3.774233 26.293574 -1.453247 1.714836 0.015213 -0.001029 -468265.000000 0 0 1
-3.772940 25.360112 -2.700933 25.781106 -1.423105 1.675753 0.014866 0.005013 -486765.000000 0 0 1
-5.126540 24.747112 -3.065533 25.457778 -1.366529 1.691506 0.014374 0.009676 -423854.000000 0 0 1
-6.070840 25.697412 -3.449633 26.629158 -1.338807 1.700705 0.017912 0.002464 -153867.000000 0 0 1
-7.201740 25.109912 -4.106833 26.443124 -1.291485 1.726736 0.021259 0.005378 1347040.000000 0 0 1
-8.438640 26.093412 -4.175733 27.740107 -1.258011 1.721901 0.024871 -0.001423 780437.000000 0 0 1
-9.160440 26.178612 -2.942133 27.890671 -1.234192 1.676481 0.019019 0.001782 373644.000000 0 0 1
-10.522640 26.535312 -3.163233 28.720285 -1.193266 1.681160 0.024358 -0.001063 116632.000000 0 0 1
-11.422840 26.477012 -1.976433 28.903628 -1.163496 1.639230 0.015985 0.006021 -620500.000000 0 0 1
-11.766340 25.199112 -1.412333 27.846664 -1.133949 1.621536 0.015203 0.014022 458102.000000 0 0 1
-10.662740 24.546712 -0.789833 26.774222 -1.161003 1.600300 0.016489 0.007706 163370.000000 0 0 1
-11.057840 23.219312 -0.175333 25.718535 -1.126341 1.577614 0.021384 0.005091 141989.000000 0 0 1
-11.935440 23.302612 0.953267 26.198763 -1.097442 1.534402 0.026017 0.000229 234660.000000 0 0 1
-12.329440 21.983712 1.338167 25.240630 -1.059665 1.517755 0.028593 -0.007027 -289758.000000 0 0 1
-13.367740 21.957512 2.469267 25.824912 -1.023931 1.475034 0.026490 -0.012509 -365916.000000 0 0 1
-12.925640 22.103112 3.835767 25.890787 -1.041637 1.422097 0.021907 -0.018884 -154635.000000 0 0 1
-12.402740 23.344812 4.183267 26.763930 -1.082435 1.413850 0.007739 -0.012159 -105207.000000 0 0 1
-12.196940 23.486512 5.702567 27.072142 -1.091815 1.358563 -0.001567 -0.012952 -461487.000000 0 0 1
-11.113440 22.706012 6.129067 26.012247 -1.115625 1.332937 -0.008552 -0.011114 -288037.000000 0 0 1
-11.218440 22.567012 7.534567 26.303862 -1.109458 1.280284 -0.014278 -0.013501 -1200250.000000 0 0 1
-10.005040 22.033112 8.244867 25.564364 -1.144545 1.242412 -0.010267 -0.020844 -1698800.000000 0 0 1
-9.045540 23.011312 8.384467 26.108266 -1.196260 1.243861 -0.000918 -0.021368 -692438.000000 0 0 1
-7.949040 22.639912 9.195967 25.696667 -1.233135 1.204815 0.008949 -0.021956 -251547.000000 0 0 1
-8.156240 22.450512 10.703067 26.174518 -1.222324 1.149535 0.007041 -0.025863 -685880.000000 0 0 1
-8.905940 21.330212 11.121167 25.651005 -1.175272 1.122360 0.003937 -0.024055 -7030.430000 0 0 1
-8.457640 20.804812 12.386367 25.647495 -1.184679 1.066780 0.004815 -0.023711 -567068.000000 0 0 1
-9.402940 19.791012 12.971467 25.462883 -1.127257 1.036278 0.004587 -0.023649 -575756.000000 0 0 1
-9.430340 18.552912 12.281367 24.165551 -1.100535 1.037682 0.009571 -0.032940 -198758.000000 0 1 0
-10.355740 17.650612 12.829367 24.153222 -1.040208 1.010820 0.010991 -0.029855 -281043.000000 0 1 0
-10.673840 16.518712 11.747667 22.908653 -0.997121 1.032348 0.015286 -0.029188 -199295.000000 0 1 0
-11.254540 15.345212 12.243867 22.628577 -0.937989 0.999076 0.012421 -0.024503 -159105.000000 0 1 0
-11.390840 14.294512 11.333367 21.506500 -0.897968 1.015760 0.011031 -0.019742 -185115.000000 0 1 0
-11.793240 12.982412 11.943767 21.219734 -0.833359 0.972953 0.014539 -0.020277 174381.000000 0 1 0
-13.120740 12.846312 12.415167 22.165693 -0.774830 0.976281 0.038624 -0.028180 -27130.500000 0 1 0
-13.253540 11.649912 13.179467 22.024421 -0.721093 0.929291 0.023821 -0.012857 7657.620000 0 1 0
-13.946640 11.955112 14.497667 23.401193 -0.708661 0.902657 0.019293 0.002399 1540300.000000 0 1 0
-15.334940 12.390912 14.339067 24.378350 -0.679611 0.941979 0.024004 -0.001779 1286370.000000 0 1 0
-15.948740 12.541012 15.588067 25.585682 -0.666351 0.915682 0.016756 0.001377 -43116.700000 0 0 1
-17.077940 13.593812 15.563967 26.808298 -0.672289 0.951374 0.029953 -0.003473 -251550.000000 0 0 1
-18.246140 13.190212 14.900667 26.998763 -0.625933 0.986153 0.034154 -0.004271 -395826.000000 0 0 1
-18.983940 14.380612 14.656067 27.964125 -0.648293 1.019135 0.052387 -0.002931 -18050.700000 0 0 1
-20.298940 14.045712 13.918667 28.338283 -0.605298 1.057374 0.043586 -0.010604 -421168.000000 0 0 1
-21.222340 13.287312 14.607067 28.988046 -0.559390 1.042689 0.039720 -0.003008 232426.000000 0 0 1
-22.410040 13.088212 13.821967 29.403367 -0.528597 1.081414 0.031791 -0.008591 539374.000000 0 0 1
-23.388040 12.047712 14.451067 30.016348 -0.475673 1.068500 0.019468 -0.008764 84351.500000 0 0 1
-23.703540 12.395812 15.718867 31.025743 -0.481840 1.039514 0.025520 -0.004913 -359459.000000 0 0 1
-24.614140 11.512112 16.267767 31.670568 -0.437478 1.031356 0.015982 -0.010890 -557508.000000 0 0 1
-25.318430 11.996712 17.540967 33.054947 -0.442496 1.011416 0.010453 -0.002781 -340639.000000 0 0 1
-26.387910 12.867312 17.304267 34.078251 -0.453696 1.038190 0.007479 0.006641 -155617.000000 0 0 1
-26.942520 13.405412 18.489167 35.319312 -0.461690 1.019859 -0.006402 0.016304 -209508.000000 0 0 1
-28.013520 14.429412 18.131867 36.355603 -0.475645 1.048656 -0.010260 0.013412 -168959.000000 0 0 1
-27.530050 15.668012 17.602767 36.238759 -0.517407 1.063582 -0.004795 0.014883 -41811.000000 0 0 1
-28.601650 16.604712 17.639867 37.482473 -0.525996 1.080807 -0.002765 0.009996 -85470.700000 0 0 1
-28.266090 18.141212 17.398767 37.825818 -0.570590 1.092834 0.014743 0.006945 -155242.000000 0 0 1
-27.562020 18.882312 18.375367 38.129526 -0.600645 1.067952 0.011300 0.007427 -800307.000000 0 0 1
-28.303740 19.180512 19.452367 39.336857 -0.595580 1.053528 0.013793 -0.004025 -1289850.000000 0 0 1
-27.503120 19.448112 20.810667 39.594628 -0.615491 1.017384 0.017529 -0.014537 599716.000000 0 0 1
-27.004980 18.309512 21.548967 39.100706 -0.595811 0.987097 0.013249 -0.010828 -157848.000000 0 0 1
-26.161330 17.514212 20.763567 37.713241 -0.589941 0.987756 0.027878 -0.000557 -965512.000000 0 0 1
-25.727550 16.228412 21.515867 37.258566 -0.562745 0.955165 0.024049 0.001220 191572.000000 0 0 1
-26.833110 15.356912 21.740967 37.795770 -0.519812 0.957921 -0.015821 0.006123 193385.000000 0 0 1
-26.505090 13.974612 22.004167 37.175166 -0.485203 0.937376 -0.019009 0.015949 73188.500000 0 0 1
-27.708710 13.089912 22.465167 37.997397 -0.441334 0.938214 -0.011870 0.010888 896302.000000 0 0 1
-28.707010 12.969612 21.428367 38.098270 -0.424344 0.973451 -0.006081 0.001334 598811.000000 0 0 1
-29.612470 11.898912 21.668867 38.574892 -0.382075 0.974315 0.000521 -0.001197 33738.200000 0 0 1
-30.288990 11.426712 20.353467 38.239460 -0.360747 1.009524 0.014561 0.002183 219953.000000 0 0 1
-29.409700 10.927412 19.294367 36.832206 -0.355750 1.019438 0.011351 -0.002011 724484.000000 0 0 1
-29.014410 9.585512 19.470067 36.232603 -0.319082 1.003489 0.015190 -0.003571 -278299.000000 0 0 1
-28.193700 9.042812 18.278767 34.796128 -0.310373 1.017716 0.022682 -0.008918 -105055.000000 0 0 1
-28.880280 8.766512 17.038367 34.658740 -0.294707 1.056866 0.018995 0.000071 672835.000000 0 0 1
-29.593450 9.865212 16.420767 35.252465 -0.321773 1.086252 0.009535 0.003699 194318.000000 0 0 1
-28.701770 10.933412 15.707367 34.497137 -0.363961 1.098060 0.004805 -0.002205 63191.000000 0 0 1
-28.289350 10.618512 14.370767 33.459813 -0.359081 1.126865 -0.000785 -0.008990 194780.000000 0 0 1
-27.407450 11.602612 13.877167 32.838464 -0.400462 1.134497 0.004682 -0.002628 -201601.000000 0 0 1
-27.202720 11.617912 12.356567 32.056959 -0.403637 1.175094 0.006526 -0.004007 -388477.000000 0 0 1
-26.543320 10.525112 11.769467 30.884400 -0.377508 1.179831 0.023876 -0.002895 648905.000000 0 0 1
-27.446920 9.420912 11.576767 31.242736 -0.330641 1.191203 0.008383 0.003946 60554.100000 0 0 1
-26.855610 8.213712 10.784067 30.082968 -0.296812 1.204160 0.010851 0.007098 -120648.000000 0 0 1
-26.493420 8.494912 9.448867 29.382749 -0.310286 1.243400 0.013993 0.007449 -17840.500000 0 0 1
-25.890500 7.374912 8.948567 28.368718 -0.277501 1.249878 0.019553 0.009025 -633053.000000 0 0 1
-25.299970 7.617112 7.576467 27.486574 -0.292440 1.291538 0.018759 0.018357 -371703.000000 0 0 1
-26.209890 7.955612 6.569067 28.167406 -0.294697 1.335414 0.009122 0.014166 -629977.000000 0 0 1
-25.502950 8.260612 5.441567 27.354137 -0.313244 1.370530 0.011569 0.015398 -405510.000000 0 0 1
-26.298410 8.446612 4.144367 27.930761 -0.310776 1.421866 -0.007462 0.006764 -88181.900000 0 0 1
-26.979230 7.317312 3.554867 28.179052 -0.264849 1.444306 0.001767 0.003893 213375.000000 0 0 1
-26.212150 6.233212 3.015367 27.111293 -0.233462 1.459344 0.007657 0.000381 -350671.000000 0 0 1
-25.369420 6.515812 1.753267 26.251423 -0.251403 1.503959 0.038219 -0.006598 742676.000000 0 0 1
-24.099340 7.118812 2.066267 25.213590 -0.287226 1.488754 0.033237 -0.001874 609451.000000 0 0 1
-23.292840 7.293312 0.975367 24.427447 -0.303444 1.530857 0.051332 -0.005212 -492665.000000 0 1 0
-22.061340 8.187712 1.294067 23.567265 -0.355377 1.515859 0.049288 -0.002693 -83449.700000 0 1 0
-22.407240 9.524712 1.693767 24.406421 -0.401932 1.501342 0.035844 -0.008790 483280.000000 0 1 0
-21.282340 10.351912 1.849267 23.738574 -0.452715 1.492816 0.052859 -0.009209 -265541.000000 0 1 0
-21.693940 11.674612 2.482267 24.760558 -0.493700 1.470377 0.046920 -0.010614 -624759.000000 0 1 0
-20.628740 12.519412 2.697667 24.280816 -0.545472 1.459464 0.044397 -0.014052 85200.000000 0 1 0
-21.090640 13.747812 3.157967 25.373021 -0.577671 1.446011 0.032314 -0.014709 -593750.000000 0 0 1
-19.965340 14.437412 3.906567 24.946241 -0.626077 1.413550 0.019744 -0.013377 -301212.000000 0 1 0
-19.502240 13.638012 4.999967 24.317328 -0.610259 1.363706 0.019448 -0.019329 100323.000000 0 1 0
-18.767140 14.407112 5.911667 24.386846 -0.654719 1.325945 0.023554 -0.015883 -400215.000000 0 1 0
-18.165340 13.561512 7.053667 23.741281 -0.641296 1.269136 0.016554 -0.014229 187432.000000 0 1 0
-17.079640 12.742212 6.621067 22.314045 -0.640966 1.269538 0.025233 -0.010415 467325.000000 0 1 0
-16.637240 11.973912 7.743067 21.911810 -0.623829 1.209621 0.011564 -0.006087 -100989.000000 0 1 0
9.856060 -33.283918 -14.386033 37.575512 -1.282902 1.963683 -0.014715 0.015075 53026.900000 0 0 1
11.015260 -33.054218 -13.579133 37.393986 -1.249122 1.942429 -0.019983 0.010592 537726.000000 0 0 1
11.561560 -31.793218 -13.952833 36.594534 -1.222015 1.961979 -0.012615 -0.005611 -291335.000000 0 0 1
12.959160 -31.536118 -13.356933 36.617950 -1.180903 1.944176 -0.008786 -0.008232 -53540.800000 0 0 1
13.922960 -32.367818 -13.979633 37.907184 -1.164573 1.948499 -0.007821 -0.006183 -868135.000000 0 0 1
15.194560 -32.212218 -13.464133 38.076036 -1.130043 1.932226 -0.004420 -0.016021 -369129.000000 0 0 1
16.203260 -33.249818 -14.043933 39.564228 -1.117345 1.933673 0.009142 -0.018446 365144.000000 0 0 1
16.152460 -34.548918 -13.511633 40.461018 -1.133465 1.911279 0.011134 -0.013896 37169.900000 0 0 1
17.296660 33.882712 -14.023633 40.544727 1.098795 1.923973 0.013411 -0.008802 259116.000000 0 0 1
17.431360 32.443612 -13.556233 39.245531 1.077770 1.923484 0.010557 -0.005862 -876064.000000 0 0 1
18.069360 32.370512 -12.343233 39.073101 1.061676 1.892202 0.018488 -0.011945 -610611.000000 0 0 1
17.832760 31.229212 -11.622233 37.793483 1.051952 1.883381 0.014610 -0.007644 -318732.000000 0 0 1
18.797760 31.035112 -10.479533 37.767110 1.026201 1.851964 0.015097 -0.003920 -433234.000000 0 0 1
20.058460 30.523912 -10.812133 38.091380 0.989419 1.858600 0.016537 -0.002488 -70026.900000 0 0 1
20.882560 30.468812 -9.646833 38.177103 0.969953 1.826252 0.015745 -0.001377 1056820.000000 0 0 1
22.233460 29.663712 -9.746833 38.330971 0.927604 1.827900 -0.002798 0.011652 867312.000000 0 0 1
23.231960 30.232512 -10.548833 39.560165 0.915596 1.840715 -0.002246 -0.002411 819088.000000 0 0 1
24.503460 29.539912 -10.387433 39.760844 0.878323 1.835111 -0.009307 0.007945 2047070.000000 0 0 1
25.661460 30.107712 -11.334733 41.151683 0.864956 1.849842 -0.007796 0.002085 629248.000000 0 0 1
26.180760 31.291912 -10.790433 42.202481 0.874097 1.829350 -0.004596 -0.012366 361100.000000 0 0 1
27.264560 31.798612 -11.574533 43.456620 0.862014 1.840397 -0.005194 -0.005084 365970.000000 0 0 1
27.519160 33.326112 -11.342933 44.683286 0.880548 1.827457 -0.006422 -0.009116 -242640.000000 0 0 1
26.592960 34.228712 -11.914733 44.952765 0.910288 1.839052 -0.003922 -0.008904 133357.000000 0 0 1
27.176160 -33.575018 -11.773033 44.770859 -0.890340 1.836887 0.015492 -0.013903 -2659.230000 0 0 1
26.257960 -32.357918 -11.996133 43.363839 -0.889092 1.851091 0.018613 -0.019463 -419824.000000 0 0 1
25.207660 -32.356918 -11.036633 42.475917 -0.908961 1.833645 0.024082 -0.011666 -243205.000000 0 0 1
24.053760 -31.757018 -11.582633 41.487938 -0.922556 1.853737 0.029956 -0.017092 42590.400000 0 0 1
24.030060 -30.199918 -11.402833 40.243055 -0.898683 1.858081 0.033755 -0.019579 -942442.000000 0 0 1
24.955960 -29.602618 -12.242833 40.607905 -0.870361 1.877050 0.027060 -0.013664 -243706.000000 0 0 1
25.560560 -28.486018 -11.547933 39.976871 -0.839474 1.863838 0.019694 -0.007861 205662.000000 0 0 1
26.604460 -27.669918 -12.359033 40.325766 -0.805027 1.882289 0.034187 -0.007921 477631.000000 0 0 1
27.813260 -28.297218 -12.723033 41.667560 -0.794023 1.881098 0.021794 -0.005848 151845.000000 0 0 1
27.638060 -29.148218 -13.861933 42.492754 -0.811986 1.903097 0.028109 -0.010288 -623635.000000 0 0 1
28.893260 -29.945818 -14.199233 43.968065 -0.803285 1.899635 0.023153 0.001056 -221460.000000 0 0 1
29.254560 -30.894018 -13.193433 44.545890 -0.812648 1.871483 0.017356 -0.006136 -65269.900000 0 0 1
30.494560 -31.466318 -13.542833 45.863446 -0.801080 1.870551 0.001932 -0.003899 -89295.200000 0 0 1
30.945360 -32.646918 -12.666733 46.732031 -0.812149 1.845280 -0.011690 0.006800 -58752.200000 0 0 1
31.807260 -33.545818 -13.343033 48.115073 -0.811994 1.851795 -0.007774 0.000390 451858.000000 0 0 1
32.658560 -34.308318 -12.460833 48.978716 -0.810029 1.828037 -0.004354 0.006145 -159543.000000 0 0 1
31.977460 33.610312 -11.775533 47.863078 0.810289 1.819374 -0.009053 -0.003638 -173520.000000 0 0 1
31.231360 33.993812 -10.640033 47.372855 0.827725 1.797331 -0.014719 -0.006756 -192848.000000 0 0 1
30.822460 32.943312 -9.843133 46.175460 0.818646 1.785613 -0.009347 -0.006276 -521892.000000 0 0 1
30.153860 33.329012 -8.558833 45.752945 0.835372 1.758971 -0.021295 -0.008122 -293636.000000 0 0 1
28.967660 34.057512 -8.719833 45.552991 0.865982 1.763407 -0.026549 -0.013481 -631835.000000 0 0 1
28.353460 34.498212 -7.522133 45.283858 0.882854 1.737681 -0.012485 -0.005993 262809.000000 0 0 1
27.421160 -33.414918 -7.742733 43.913855 -0.883604 1.748039 -0.012799 -0.007096 -141885.000000 0 0 1
28.102360 -32.166118 -7.843433 43.427195 -0.852724 1.752404 -0.022656 -0.009851 446685.000000 0 0 1
27.278260 -31.140718 -8.428033 42.247835 -0.851419 1.771634 -0.003215 -0.005039 358167.000000 0 0 1
26.136960 -30.546418 -7.568933 40.908594 -0.863033 1.756889 -0.002180 -0.006961 -86217.400000 0 0 1
25.434960 -29.593418 -8.308033 39.896504 -0.860824 1.780571 0.009161 -0.011754 472906.000000 0 0 1
24.430660 -29.029218 -7.411733 38.658588 -0.871206 1.763714 0.009073 -0.010319 1129460.000000 0 0 1
23.309160 -28.142318 -8.083433 37.425244 -0.879060 1.788501 0.036102 -0.011873 267902.000000 0 0 1
22.244560 -28.884818 -8.633333 37.465819 -0.914547 1.803318 0.046085 -0.016060 62308.700000 0 0 1
21.532360 -28.115218 -9.581533 36.686698 -0.917221 1.835032 0.058859 -0.023506 -218714.000000 0 0 1
20.275460 -28.827818 -10.085633 36.658660 -0.957839 1.849514 0.054816 -0.021270 -472911.000000 0 0 1
20.612460 -29.752518 -11.117233 37.863950 -0.964921 1.868797 0.062095 -0.025685 -134069.000000 0 0 1
19.528360 -30.399818 -11.729533 37.987995 -0.999794 1.884695 0.056908 -0.023601 -52579.500000 0 0 1
19.092460 -31.753118 -11.127733 38.686031 -1.029437 1.862560 0.051684 -0.023912 206072.000000 0 0 1
20.064360 -32.754218 -11.408133 40.069475 -1.021183 1.859499 0.047484 -0.023677 -9030.360000 0 0 1
19.916160 -34.019018 -10.754833 40.860904 -1.041150 1.837140 0.037028 -0.018324 -629205.000000 0 0 1
21.029660 34.078912 -11.010533 41.531322 1.017907 1.839118 0.027439 -0.010451 -680211.000000 0 0 1
22.044860 34.368612 -10.114333 42.065153 1.000473 1.813620 0.027903 -0.014086 -1000920.000000 0 0 1
23.200560 33.574712 -10.285533 42.087046 0.966127 1.817684 0.018671 -0.014056 689857.000000 0 0 1
24.410060 34.190112 -9.450433 43.059557 0.950769 1.792071 0.012912 -0.014662 285370.000000 0 0 1
24.588560 33.828012 -8.053533 42.588626 0.942264 1.761042 0.013169 -0.015006 91011.600000 0 0 1
24.942160 32.492112 -7.869933 41.710725 0.916103 1.760613 -0.003517 -0.003572 -449312.000000 0 0 1
24.895260 32.069912 -6.451533 41.108095 0.910687 1.728389 -0.009039 -0.010290 -821696.000000 0 0 1
25.945260 32.524512 -5.654733 41.987813 0.897451 1.705882 -0.005827 -0.012349 378282.000000 0 0 1
26.953660 31.537712 -5.279633 41.821066 0.863610 1.697377 0.005283 -0.012612 778821.000000 0 0 1
26.507160 30.367512 -4.333633 40.541284 0.853169 1.677895 0.003717 -0.009091 -442452.000000 0 0 1
26.119460 30.868912 -3.045133 40.551064 0.868547 1.645961 0.006369 -0.006402 -3920.190000 0 0 1
25.809460 29.813612 -2.145033 39.491529 0.857261 1.625139 -0.007626 -0.005983 25517.200000 0 0 1
24.443360 29.087212 -2.205533 38.057958 0.871933 1.628781 -0.022979 0.003670 255210.000000 0 0 1
23.415360 29.908412 -1.638933 38.019446 0.906568 1.613917 -0.030194 0.010623 -112466.000000 0 0 1
22.168260 29.255912 -1.634733 36.742516 0.922362 1.615303 -0.009153 0.013754 -224551.000000 0 0 1
21.077560 29.972012 -0.874933 36.651747 0.957898 1.594670 0.014226 0.005279 -370298.000000 0 0 1
21.158060 29.712712 0.547367 36.480246 0.952004 1.555791 0.023197 -0.008923 284834.000000 0 0 1
20.104960 30.336912 1.281967 36.416769 0.985529 1.535586 0.019718 -0.007167 175287.000000 0 0 1
19.525460 29.367212 2.368467 35.345245 0.984037 1.503737 0.017472 -0.014787 -364303.000000 0 0 1
18.750860 28.317912 1.827967 34.012356 0.985923 1.517026 0.033374 -0.009580 387075.000000 0 0 1
18.333060 27.408112 2.915467 33.102955 0.981255 1.482609 0.043158 -0.018350 6842.560000 0 0 1
17.941760 25.977212 2.471667 31.667514 0.966358 1.492666 0.030300 -0.000834 535461.000000 0 0 1
19.025060 25.175312 1.977867 31.617419 0.923655 1.508199 0.020844 -0.002379 746229.000000 0 0 1
19.809160 24.542212 3.021167 31.683599 0.891713 1.475297 0.022387 -0.003591 243961.000000 0 0 1
21.003560 23.760212 2.415767 31.804609 0.846903 1.494767 0.011069 0.004008 -235162.000000 0 0 1
20.670560 22.564012 1.711567 30.648591 0.829165 1.514922 0.027552 -0.000889 554870.000000 0 0 1
21.865060 21.854812 1.382367 30.945510 0.785164 1.526110 0.011938 -0.004291 313010.000000 0 0 1
21.619860 20.885912 0.166467 30.061061 0.768133 1.565259 0.031780 -0.010523 -284032.000000 0 0 1
21.517560 21.549212 -1.044833 30.470734 0.786133 1.605093 0.014334 -0.002266 273482.000000 0 0 1
21.753660 20.689912 -2.134333 30.097335 0.760341 1.641770 0.042357 -0.014577 113797.000000 0 0 1
21.334060 21.284512 -3.504433 30.338979 0.784236 1.686564 0.025988 -0.005091 254728.000000 0 0 1
22.163960 22.414912 -3.787133 31.749201 0.791028 1.690364 0.005336 0.003331 547514.000000 0 0 1
21.777860 23.029712 -4.994933 32.087259 0.813329 1.727099 0.018836 -0.000769 -190449.000000 0 0 1
22.669460 24.248712 -5.397133 33.630842 0.819045 1.731975 0.003976 0.016623 -172642.000000 0 0 1
22.708460 25.442912 -4.594133 34.411074 0.842126 1.704704 -0.018607 0.019883 59945.100000 0 0 1
23.146160 25.325512 -3.259333 34.463742 0.830329 1.665511 -0.007132 0.017586 -93784.100000 0 0 1
22.043360 24.993612 -2.196733 33.397844 0.848038 1.636619 -0.004087 0.009103 -826388.000000 0 0 1
21.134160 26.069612 -1.901633 33.613890 0.889576 1.627399 0.004262 0.015504 972983.000000 0 0 1
20.117160 25.713212 -0.953133 32.661566 0.906900 1.599983 0.027802 0.009225 342284.000000 0 0 1
19.187060 24.529312 -1.322333 31.170162 0.906998 1.613232 0.052465 0.003955 -676882.000000 0 0 1
18.109160 24.968812 -2.193633 30.922407 0.943310 1.641796 0.047272 0.006939 651197.000000 0 0 1
17.401460 23.944612 -2.786033 29.730746 0.942350 1.664643 0.061429 0.004917 -103515.000000 0 0 1
17.244960 24.083312 -4.325133 29.934952 0.949377 1.715788 0.068236 -0.015250 331673.000000 0 0 1
16.431760 23.081412 -4.976333 28.766616 0.952125 1.744661 0.064737 -0.022550 522584.000000 0 0 1
16.070160 23.496812 -6.276833 29.150452 0.970938 1.787821 0.052913 -0.019986 15889.600000 0 0 1
15.249160 22.507112 -7.134233 28.107014 0.975313 1.827428 0.048050 -0.014952 -498037.000000 0 0 1
15.942960 21.336212 -7.507633 27.672667 0.929073 1.845541 0.031802 -0.012418 380498.000000 0 0 1
15.167260 20.382212 -8.258133 26.714736 0.931055 1.885067 0.041915 -0.006230 -128459.000000 0 0 1
15.907060 19.047012 -8.519733 26.237551 0.874988 1.901507 0.020180 -0.001392 259643.000000 0 0 1
16.983160 19.284112 -9.433933 27.373414 0.848758 1.922650 0.013826 -0.005400 398409.000000 0 0 1
17.437460 18.064812 -9.968633 27.014368 0.803067 1.948742 -0.002062 -0.006481 -347547.000000 0 0 1
18.691260 18.244612 -10.854133 28.285001 0.773306 1.964641 -0.017988 -0.000348 -186214.000000 0 0 1
18.661060 18.876112 -12.110533 29.175465 0.791127 1.998841 -0.021270 0.001824 164534.000000 0 0 1
20.021660 19.176312 -12.370133 30.358162 0.763835 1.990482 -0.015289 -0.000952 238971.000000 0 0 1
20.333260 19.525112 -13.873933 31.419062 0.765125 2.028152 -0.011362 -0.002169 -231686.000000 0 0 1
20.226760 18.471812 -14.759433 31.115439 0.740080 2.065015 -0.020935 0.003954 266011.000000 0 0 1
20.647160 18.988412 -16.006733 32.296757 0.743573 2.089338 -0.015366 0.000370 35756.500000 0 0 1
20.406860 18.076512 -17.217733 32.243613 0.724917 2.134108 -0.016727 -0.005504 -226164.000000 0 0 1
21.092460 16.821912 -17.084533 31.933522 0.673234 2.135308 0.005631 -0.007434 228354.000000 0 0 1
21.260260 16.126012 -18.269533 32.339183 0.648922 2.171151 0.013545 -0.013705 -76957.700000 0 0 1
22.232560 16.771512 -19.334233 33.902550 0.646290 2.177653 0.016306 -0.012624 -228905.000000 0 0 1
23.594060 16.831012 -18.963733 34.635037 0.619635 2.150206 0.047552 -0.014991 73141.100000 0 0 1
24.300560 17.312912 -20.099833 35.975789 0.619032 2.163619 0.063996 -0.017876 -717163.000000 0 0 1
25.778860 17.473112 -19.776533 36.891334 0.595676 2.136577 0.063048 -0.020640 -609946.000000 0 0 1
26.037960 18.624212 -18.982133 37.217711 0.620902 2.106015 0.049506 -0.021195 335753.000000 0 0 1
27.331360 18.600612 -18.385333 37.828646 0.597559 2.078322 0.045908 -0.032495 130108.000000 0 0 1
27.506960 19.710812 -17.324633 38.016994 0.621764 2.043963 0.038675 -0.023936 -91348.700000 0 0 1
26.865260 19.583312 -16.071233 36.926045 0.629890 2.021087 0.024071 -0.023777 841344.000000 0 0 1
25.494160 20.023812 -16.145733 36.215880 0.665792 2.032886 0.029450 -0.018794 623198.000000 0 0 1
24.548560 19.510212 -15.042933 34.778873 0.671538 2.018094 0.023967 -0.012971 -178046.000000 0 0 1
24.917260 19.958212 -13.743833 34.757633 0.675338 1.977320 0.017878 -0.014908 93487.500000 0 0 1
24.175560 19.395412 -12.684233 33.489244 0.676126 1.959247 0.012402 -0.012164 -310308.000000 0 0 1
24.687460 19.825812 -11.294933 33.617094 0.676611 1.913450 0.019795 -0.011933 -323549.000000 0 0 1
24.569360 21.240012 -11.136633 34.333892 0.712847 1.901134 0.015545 -0.007604 -224231.000000 0 0 1
25.178260 21.699512 -9.985033 34.706116 0.711325 1.862623 0.013655 -0.006013 -121193.000000 0 0 1
24.480160 21.437112 -8.618233 33.661580 0.719223 1.829705 0.015776 -0.003561 -448074.000000 0 0 1
24.552560 20.075212 -8.173233 32.751245 0.685406 1.823017 0.028529 -0.007967 400280.000000 0 0 1
23.831960 19.840812 -6.950633 31.779419 0.694264 1.791294 0.029709 -0.011142 -144409.000000 0 0 1
22.311960 19.656712 -7.017233 30.552438 0.722215 1.802543 0.023830 -0.005841 -257305.000000 0 0 1
21.586460 20.850912 -7.381633 30.906703 0.768067 1.811963 0.022647 -0.000464 194878.000000 0 0 1
20.271760 20.490112 -7.783333 29.855807 0.790755 1.834541 0.027104 -0.004923 90764.700000 0 0 1
19.545860 21.831312 -8.020933 30.380622 0.840577 1.837979 0.023211 -0.006338 -887648.000000 0 0 1
19.894160 22.487912 -9.225033 31.409951 0.846521 1.868889 0.008622 0.004382 45081.800000 0 0 1
19.169160 22.251312 -10.450333 31.173499 0.859673 1.912647 -0.001411 0.003076 1249710.000000 0 0 1
17.624760 22.602612 -10.349933 30.473453 0.908515 1.917328 0.009058 0.004738 752733.000000 0 0 1
17.309560 24.006112 -10.297633 31.336170 0.946083 1.905636 0.015297 0.004100 -987474.000000 0 0 1
15.969660 24.246212 -10.481533 30.866995 0.988367 1.917257 0.016267 0.007159 -936856.000000 0 0 1
15.664460 25.735312 -10.193133 31.805370 1.024022 1.897037 0.027716 0.002704 -306980.000000 0 0 1
16.359460 26.605612 -10.998433 33.112778 1.019502 1.909379 0.034574 0.003292 -226664.000000 0 0 1
16.456560 27.917112 -10.473133 34.056865 1.038149 1.883381 0.050254 -0.005422 -16850.300000 0 0 1
19.156160 29.093212 33.477326 48.312574 0.988510 0.805249 0.001987 0.013198 -88330.100000 0 0 1
17.826660 29.524412 33.298854 47.940530 1.027592 0.802951 0.006916 -0.005246 658266.000000 0 0 1
16.825360 28.534912 33.648135 47.217909 1.038028 0.777579 0.007390 -0.005589 613014.000000 0 0 1
15.372760 29.021512 33.571925 46.964285 1.083670 0.774402 0.027833 -0.016437 -99043.400000 0 0 1
14.902660 29.289112 32.241964 46.037871 1.100124 0.794929 0.039188 -0.020699 -429168.000000 0 0 1
13.618760 29.828012 32.379774 46.082868 1.142487 0.791692 0.028722 -0.013874 -403715.000000 0 0 1
12.823860 29.879512 31.029954 44.945463 1.165386 0.808767 0.027962 -0.016140 -34754.900000 0 0 1
12.382860 28.691112 30.354234 43.564833 1.163355 0.799926 0.025463 -0.015600 443071.000000 0 0 1
11.176060 28.187712 30.915454 43.303773 1.193322 0.775715 0.018390 -0.007831 -61361.700000 0 0 1
11.139860 26.637412 31.039124 42.391926 1.174696 0.749258 0.000196 -0.005982 -43401.900000 0 0 1
11.243860 25.876112 29.841124 41.066900 1.160884 0.757368 -0.003448 0.001064 1031240.000000 0 0 1
12.575360 25.686412 29.300304 40.944343 1.115525 0.773295 -0.001855 -0.003258 753365.000000 0 0 1
12.636260 25.009712 27.893274 39.537267 1.102954 0.787677 0.012270 -0.012143 -545558.000000 0 0 1
12.097460 25.747912 26.866904 39.129708 1.131565 0.813979 0.002674 -0.006460 -100541.000000 0 0 1
12.081160 25.128412 25.610534 37.858829 1.122645 0.827831 0.017941 -0.009411 116146.000000 0 0 1
11.113260 23.936512 25.389364 36.620772 1.136130 0.804731 0.011616 -0.001499 -263676.000000 0 0 1
11.321760 23.344712 24.099124 35.410812 1.119235 0.822272 0.025759 -0.011216 294919.000000 0 0 1
10.274360 22.427112 23.848264 34.311478 1.141208 0.802304 0.030987 -0.008208 144642.000000 0 0 1
10.225560 22.087212 22.303564 33.012967 1.137215 0.829018 0.040290 -0.013223 -241403.000000 0 0 1
9.987860 23.241512 21.572564 33.246064 1.164916 0.864690 0.046435 -0.014333 19523.300000 0 0 1
10.122460 22.877312 20.239864 32.178995 1.154224 0.890559 0.046517 -0.006133 -1040120.000000 0 0 1
9.778760 23.885412 19.169964 32.150032 1.182210 0.931955 0.037499 -0.008539 -230704.000000 0 0 1
8.460160 24.317612 18.989564 31.992563 1.235991 0.935319 0.035383 -0.007691 -845892.000000 0 0 1
7.798660 24.893412 20.030964 32.889825 1.267199 0.915956 0.023448 -0.006792 -649962.000000 0 0 1
6.569160 25.715712 19.529564 32.952323 1.320692 0.936437 0.025328 -0.003490 324896.000000 0 0 1
6.832060 26.876412 18.798064 33.502027 1.321866 0.975079 0.022683 -0.007754 -1305420.000000 0 0 1
5.658460 27.417912 18.377764 33.488838 1.367275 0.989901 0.022000 -0.009422 -1107870.000000 0 0 1
5.840360 28.408012 17.236764 33.737679 1.368033 1.034559 0.021898 -0.008844 35811.300000 0 0 1
6.159260 27.836212 15.982564 32.683842 1.353037 1.059848 0.026516 -0.005861 54495.500000 0 0 1
6.845260 28.721512 15.123964 33.174043 1.336829 1.097416 0.017766 -0.004107 182014.000000 0 0 1
7.567160 28.117212 13.902964 32.266576 1.307896 1.125331 0.018247 -0.006586 -318044.000000 0 0 1
6.642460 28.048212 12.896264 31.577494 1.338258 1.150095 0.018861 -0.014797 -304111.000000 0 0 1
6.908460 26.937312 12.069464 30.315303 1.319743 1.161318 0.014978 -0.013550 71817.300000 0 0 1
6.213560 27.114012 10.677564 29.795777 1.345522 1.204288 0.004403 -0.017675 -159002.000000 0 0 1
6.590560 28.149012 9.773664 30.517649 1.340808 1.244790 -0.000524 -0.015265 -22524.300000 0 0 1
6.378860 29.486512 10.209964 31.849452 1.357748 1.244466 0.004445 -0.013205 -116271.000000 0 0 1
6.555060 30.443812 9.053164 32.430761 1.358718 1.287884 0.012860 -0.008251 -886540.000000 0 0 1
5.652060 30.202312 8.064964 31.767422 1.385796 1.314112 0.000104 -0.008743 -650031.000000 0 0 1
6.075560 29.229812 7.129364 30.694009 1.365860 1.336383 0.007164 -0.010068 -383226.000000 0 0 1
4.850560 28.537612 6.510064 29.669920 1.402435 1.349580 0.007101 -0.008485 -259946.000000 0 0 1
4.201660 29.598212 5.786164 30.449759 1.429782 1.379610 -0.016362 -0.009148 -757428.000000 0 0 1
2.881360 29.195812 5.611664 29.869524 1.472424 1.381801 0.006539 -0.014884 -46517.500000 0 0 1
1.854660 30.183112 4.929164 30.639136 1.509427 1.409216 0.014519 -0.017074 -11917.100000 0 0 1
2.021860 30.385212 3.550864 30.658729 1.504353 1.454717 -0.001708 -0.014377 123645.000000 0 0 1
0.915360 30.979312 2.906064 31.128779 1.541257 1.477304 0.003364 -0.015157 -182707.000000 0 0 1
-0.267240 30.058612 2.624064 30.174116 -1.561906 1.483722 0.017404 -0.009934 -564822.000000 0 0 1
-0.155940 29.315412 1.436864 29.351019 -1.565477 1.521822 0.017398 -0.005679 -399989.000000 0 0 1
-1.292440 28.523212 1.363664 28.585024 -1.525515 1.523073 0.018827 -0.003838 -325652.000000 0 0 1
-1.586040 27.895012 -0.036836 27.940089 -1.514000 1.572115 0.015451 -0.010642 -94085.100000 0 0 1
-2.126640 28.798212 -0.998236 28.893877 -1.497084 1.605352 0.015567 -0.013333 -242913.000000 0 0 1
-1.279040 29.743312 -1.508436 29.808991 -1.527820 1.621421 0.000094 -0.006265 -1028600.000000 0 0 1
-2.149740 30.885512 -2.049536 31.028001 -1.501305 1.636899 -0.005689 -0.007705 593986.000000 0 0 1
-3.256840 30.557612 -2.918936 30.868995 -1.464617 1.665497 0.011463 -0.008089 385557.000000 0 0 1
-3.044040 29.738412 -4.044636 30.166180 -1.468791 1.705280 0.008747 -0.005162 -295972.000000 0 0 1
-4.360640 29.202612 -4.706636 29.899167 -1.422568 1.728871 0.006413 -0.004657 498005.000000 0 0 1
-5.116340 30.271012 -5.244736 31.145118 -1.403361 1.739999 -0.009022 -0.005587 94820.700000 0 0 1
-6.233340 29.718712 -5.954236 30.943647 -1.364049 1.764426 -0.000431 -0.012183 210829.000000 0 0 1
-6.912540 30.796112 -6.777836 32.281927 -1.349995 1.782328 0.001928 0.002150 -380677.000000 0 0 1
-7.738540 31.694912 -6.066536 33.185167 -1.331324 1.754639 0.009579 -0.005255 113997.000000 0 0 1
-8.057540 32.887212 -6.832736 34.542423 -1.330524 1.769917 -0.001960 0.004529 -111498.000000 0 0 1
-8.964140 33.915612 -6.108136 35.608059 -1.312398 1.743187 0.004417 -0.003945 -813335.000000 0 0 1
-10.290540 33.596412 -6.317736 35.700531 -1.273571 1.748698 0.015935 -0.004954 -1168780.000000 0 0 1
-11.119640 -34.492418 -5.778136 36.698231 1.258937 1.728904 0.017257 -0.006303 787378.000000 0 0 1
-12.663740 34.489412 -5.918936 37.214563 -1.218901 1.730524 0.040262 -0.012836 626652.000000 0 0 1
-13.140340 -34.488518 -7.214736 37.605570 1.206770 1.763846 0.044970 -0.008673 -493185.000000 0 0 1
-14.539840 34.540812 -7.304936 38.181628 -1.172364 1.763304 0.039935 -0.016932 -754856.000000 0 0 1
-15.019640 34.314312 -8.779936 38.472703 -1.158212 1.801037 0.053988 -0.006517 696025.000000 0 0 1
-16.408340 34.119712 -9.037636 38.923865 -1.122541 1.805122 0.063598 -0.005553 210247.000000 0 0 1
-17.281240 -33.945618 -8.772536 39.088408 1.099906 1.797152 0.061531 -0.016859 -2033670.000000 0 0 1
-18.702440 -34.402918 -8.915436 40.160018 1.072857 1.794659 0.048176 -0.009429 -1094560.000000 0 0 1
-19.355340 33.723312 -8.102436 39.718263 -1.049755 1.776236 0.032435 -0.010073 227951.000000 0 0 1
-19.339540 34.009212 -6.699036 39.692838 -1.053743 1.740380 0.018135 -0.019237 -532159.000000 0 0 1
-20.236940 33.069612 -5.836736 39.207148 -1.021637 1.720221 0.012775 -0.018406 -644625.000000 0 0 1
-19.831740 32.990812 -4.456536 38.749869 -1.029547 1.686059 0.007715 -0.025482 295082.000000 0 0 1
-20.913440 33.176212 -3.557436 39.378781 -1.008341 1.661259 0.005058 -0.021756 21268.000000 0 0 1
-21.596240 34.538912 -3.489236 40.884090 -1.012001 1.656245 0.008031 -0.015804 -125100.000000 0 0 1
-22.210340 -34.247618 -4.733136 41.092592 0.995461 1.686235 0.009305 -0.030899 -109420.000000 0 0 1
-22.675440 -32.917218 -4.876636 40.267859 0.967584 1.692199 0.010436 -0.027262 -139259.000000 0 0 1
-23.224140 -32.529918 -6.226236 40.451481 0.950781 1.725329 0.013759 -0.012074 -217681.000000 0 0 1
-22.234840 -32.483818 -7.247036 40.026318 0.970556 1.752857 0.018455 -0.011094 -76042.700000 0 0 1
-22.293040 -33.173918 -8.457636 40.853643 0.979107 1.779327 0.021140 -0.005145 168239.000000 0 0 1
-23.493840 -32.734118 -9.370836 41.367809 0.948278 1.799305 0.007176 0.001267 -181959.000000 0 0 1
-24.730940 -33.323118 -9.082036 42.479795 0.932335 1.786256 -0.005801 0.009076 250683.000000 0 0 1
-25.843320 -32.836218 -9.841836 42.929665 0.904010 1.802108 0.000789 0.006337 794051.000000 0 0 1
-26.297890 -31.331918 -9.562636 42.008477 0.872528 1.800445 0.003059 0.014919 -438937.000000 0 0 1
-25.566890 -30.273618 -10.185136 40.913260 0.869488 1.822387 -0.012474 0.017629 16388.000000 0 0 1
-26.133720 -29.944018 -11.440036 41.358070 0.853241 1.851060 -0.023844 0.025734 -113440.000000 0 0 1
-25.172480 -29.200218 -12.378936 40.491290 0.859340 1.881489 -0.015802 0.031258 -658334.000000 0 0 1
-24.048440 -29.943118 -12.719236 40.456109 0.894145 1.890617 -0.009247 0.023214 -664255.000000 0 0 1
-23.179040 -29.209718 -13.555036 39.676373 0.900008 1.919458 -0.010597 0.020692 -80297.700000 0 0 1
-21.877140 -29.971218 -13.854736 39.608546 0.940259 1.928145 0.020463 0.001179 -241929.000000 0 0 1
-22.043140 -31.146518 -14.666136 40.879105 0.954905 1.937745 0.032049 0.002634 -237847.000000 0 0 1
-22.555740 -32.226118 -13.968336 41.742048 0.960123 1.912014 0.015885 0.008516 -261901.000000 0 0 1
-22.822440 -33.505718 -14.772336 43.147640 0.972833 1.920232 0.023895 0.005638 -100191.000000 0 0 1
-23.420440 -34.414218 -13.912536 43.890934 0.973247 1.893340 0.013271 -0.002558 -227402.000000 0 0 1
-23.592440 33.535912 -14.662836 43.546061 -0.957727 1.914228 0.022102 -0.007701 68922.100000 0 0 1
-23.974640 32.344112 -13.759236 42.546933 -0.932927 1.900106 0.009806 -0.007331 291159.000000 0 0 1
-22.952940 31.919612 -12.838636 41.358550 -0.947376 1.886434 0.002478 -0.002482 571942.000000 0 0 1
-22.944740 32.738712 -11.680036 41.649821 -0.959504 1.855043 0.018078 -0.001557 77758.100000 0 0 1
-21.934040 32.243312 -10.612936 40.414944 -0.973438 1.836511 0.012041 0.004133 260106.000000 0 0 1
-22.517540 31.269512 -9.711336 39.738295 -0.946700 1.817679 0.006963 0.008114 391266.000000 0 0 1
-21.742540 31.040512 -8.531236 38.846280 -0.959764 1.792216 0.006812 0.007238 -56341.600000 0 0 1
-22.335840 29.972912 -7.588436 38.142491 -0.930374 1.771082 0.003078 0.003769 78398.000000 0 0 1
-22.371640 28.746212 -8.268936 37.352514 -0.909461 1.794021 0.010560 0.019923 129109.000000 0 0 1
-23.063640 27.690412 -7.621636 36.834491 -0.876308 1.779218 0.001783 0.009404 28224.000000 0 0 1
-22.182940 26.903312 -6.621736 35.492512 -0.881268 1.758463 -0.006082 0.008751 -7160.830000 0 0 1
-22.071940 27.660712 -5.394136 35.796400 -0.897305 1.722062 0.000159 0.003101 -285305.000000 0 0 1
-21.176440 27.190812 -4.437636 34.748734 -0.909111 1.698852 0.001083 0.011757 -1477790.000000 0 0 1
-19.872840 27.921812 -4.400836 34.553216 -0.952240 1.698507 -0.002285 0.003426 -1271110.000000 0 0 1
-19.132540 27.638812 -5.562936 34.072046 -0.965301 1.734800 0.001199 0.008147 32649.100000 0 0 1
-18.086440 28.633412 -5.623936 34.331039 -1.007426 1.735353 0.004310 0.002507 519950.000000 0 0 1
-17.310140 28.574112 -6.995836 34.133013 -1.026124 1.777217 0.016133 0.006450 -44375.300000 0 0 1
-17.958540 29.066112 -8.152636 35.125682 -1.017354 1.805031 0.029806 0.005612 -57600.200000 0 0 1
-17.871840 30.444512 -8.320036 36.269739 -1.039968 1.802251 0.047166 -0.003558 -95554.800000 0 0 1
-17.838840 30.835312 -9.779036 36.941443 -1.046321 1.838707 0.034500 -0.000556 295588.000000 0 0 1
-16.549540 30.736312 -10.374336 36.417510 -1.076875 1.859669 0.042663 -0.002198 334378.000000 0 0 1
-16.433940 31.554612 -11.534836 37.400807 -1.090640 1.884319 0.049326 0.000685 75316.800000 0 0 1
-15.088440 31.369112 -12.277236 36.910876 -1.122467 1.909875 0.039384 -0.001209 172951.000000 0 0 1
-14.969240 32.067212 -13.550136 37.894465 -1.134053 1.936467 0.040738 0.003249 -205564.000000 0 0 1
-15.388240 31.328312 -14.678036 37.864308 -1.114219 1.968875 0.041486 0.004908 -118869.000000 0 0 1
-14.979740 31.964312 -16.006836 38.759885 -1.132550 1.996514 0.055684 0.001932 1345460.000000 0 0 1
-13.551340 31.892212 -16.227936 38.263533 -1.169001 2.008775 0.052536 -0.006081 891773.000000 0 0 1
-13.125240 32.685112 -17.353036 39.264696 -1.188940 2.028568 0.030107 -0.010431 -573890.000000 0 0 1
-11.644540 32.592012 -17.663736 38.856687 -1.227649 2.042705 0.042072 -0.012851 -599700.000000 0 0 1
-11.208140 31.258412 -17.874736 37.712292 -1.226513 2.064598 0.041352 -0.017720 -390170.000000 0 0 1
-9.846640 31.077512 -18.157836 37.315883 -1.263961 2.078988 0.037390 -0.016011 -97220.900000 0 0 1
-9.481040 31.016612 -19.689436 37.941985 -1.274140 2.116401 0.043822 -0.020208 -334638.000000 0 0 1
-9.879840 29.842712 -20.310636 37.426203 -1.251090 2.144427 0.042098 -0.030721 -2312.820000 0 0 1
-9.546140 29.718312 -21.682336 38.005665 -1.259986 2.177914 0.031405 -0.028603 365661.000000 0 0 1
-10.819440 29.545912 -22.621036 38.752193 -1.219771 2.194118 0.038909 -0.029701 786068.000000 0 0 1
-11.529540 30.711512 -22.915136 40.015381 -1.211663 2.180541 0.051220 -0.029636 182008.000000 0 0 1
-12.522840 31.016012 -21.933636 39.998737 -1.187058 2.151196 0.046698 -0.027277 -55907.500000 0 0 1
-13.336940 32.343312 -22.075736 41.367885 -1.179684 2.133700 0.054298 -0.026771 -18287.600000 0 0 1
-14.172440 32.283112 -23.169036 42.188406 -1.157124 2.152179 0.049169 -0.030609 -858181.000000 0 0 1
-14.977140 33.388312 -23.294836 43.379068 -1.149129 2.137681 0.051350 -0.022972 -270662.000000 0 0 1
-15.451740 33.567112 -24.799336 44.502970 -1.139390 2.161868 0.055421 -0.014110 129308.000000 0 0 1
-14.426040 33.806412 -25.759936 44.883833 -1.167466 2.182087 0.053424 -0.013014 87556.000000 0 0 1
-14.876340 33.841212 -27.083136 45.826078 -1.156631 2.203092 0.058498 -0.004570 22243.200000 0 0 1
-15.462940 -33.951918 -27.639736 46.430489 1.143431 2.208426 0.055505 0.001533 334634.000000 0 0 1
-16.700040 -33.564318 -27.062136 46.236501 1.109108 2.196044 0.041137 0.002032 -12921.600000 0 0 1
-17.240140 -32.532518 -27.885636 46.186534 1.083488 2.219007 0.021449 0.010176 778638.000000 0 0 1
-18.748640 -32.288318 -27.535236 46.392200 1.044716 2.206236 0.006383 0.002856 699319.000000 0 0 1
-19.684740 -33.228418 -27.976236 47.689481 1.035979 2.197692 0.007886 0.007356 -1165620.000000 0 0 1
-20.953840 -32.947918 -27.495236 47.755803 1.004348 2.184313 0.011160 0.006851 -854295.000000 0 0 1
-21.987140 -33.957218 -27.899236 49.141575 0.996184 2.174544 0.002448 0.009448 -778256.000000 0 0 1
-21.789840 33.944612 -27.171636 48.634675 -1.000120 2.163600 0.033051 0.004963 -569680.000000 0 0 1
-22.979340 33.219812 -27.067636 48.623687 -0.965638 2.161175 0.019165 0.004659 -551964.000000 0 0 1
-22.931340 31.683312 -26.814336 47.420325 -0.944297 2.171788 0.027789 0.001827 -147027.000000 0 0 1
-22.504840 31.290912 -25.544836 46.239893 -0.947292 2.156087 0.041431 -0.002154 -292287.000000 0 0 1
-22.691940 29.910112 -25.333336 45.291466 -0.921769 2.164386 0.020477 -0.010075 -92263.700000 0 0 1
30.275857 10.219212 -26.737933 41.665056 0.325529 2.267555 0.015327 0.005540 -230936.000000 0 0 1
29.862997 8.870412 -26.623243 40.979017 0.288736 2.277960 0.009043 0.010520 603278.000000 0 0 1
28.463457 8.762112 -26.352853 39.767020 0.298631 2.295190 0.017322 0.005122 792396.000000 0 0 1
27.985757 7.322812 -25.932623 38.850059 0.255924 2.301650 0.008861 0.016124 4770.890000 0 0 1
28.426977 6.966312 -24.660633 38.272305 0.240324 2.270965 -0.002005 0.022008 -142609.000000 0 0 1
27.926647 5.724812 -24.319233 37.471271 0.202193 2.277079 -0.003580 0.024133 -120108.000000 0 0 1
28.065067 5.496812 -22.759833 36.549595 0.193411 2.242999 -0.006350 0.024882 382635.000000 0 0 1
29.420797 5.263712 -22.363433 37.328449 0.177038 2.213172 0.005818 0.017214 894415.000000 0 0 1
29.390527 4.984912 -20.974133 36.449509 0.168011 2.183926 -0.001189 0.009317 -617774.000000 0 0 1
30.772307 4.669512 -20.427633 37.229389 0.150595 2.151601 0.005802 0.007793 -552602.000000 0 0 1
31.215837 3.319112 -20.677033 37.589688 0.105930 2.153247 0.015360 0.005550 169758.000000 0 0 1
32.238897 3.016112 -19.759733 37.932710 0.093284 2.118719 0.025595 -0.002768 -254981.000000 0 0 1
32.561097 1.527012 -19.686933 38.080601 0.046862 2.114116 0.033782 -0.002216 438331.000000 0 0 1
31.521537 0.749512 -19.069033 36.848298 0.023773 2.114724 0.024701 -0.000369 572685.000000 0 0 1
32.047417 -0.578588 -18.923833 37.222079 -0.018052 2.104126 0.033369 -0.000199 46200.700000 0 0 1
31.062127 -1.669288 -18.476733 36.180546 -0.053689 2.106773 0.005529 0.005793 -97251.800000 0 0 1
30.910497 -1.681088 -17.096133 35.363295 -0.054332 2.075380 0.016594 0.005507 -429901.000000 0 0 1
29.596767 -1.494988 -16.647433 33.990302 -0.050469 2.082622 -0.004586 0.004213 -564139.000000 0 0 1
29.310447 -1.930988 -15.196033 33.071898 -0.065785 2.048211 -0.001794 0.002435 -399945.000000 0 0 1
29.380197 -3.341088 -14.983833 33.149270 -0.113233 2.039815 -0.006658 0.006492 177126.000000 0 0 1
28.548747 -3.750088 -13.937133 31.989651 -0.130610 2.021586 0.004178 0.006086 -340875.000000 0 0 1
28.502977 -5.236388 -13.537033 31.985789 -0.181688 2.007793 -0.000087 0.009566 -149703.000000 0 0 1
27.836647 -6.050788 -14.478733 31.955041 -0.214038 2.041033 -0.011849 0.010169 388301.000000 0 0 1
27.607037 -7.397488 -14.008433 31.829350 -0.261806 2.026518 -0.004052 0.003546 -455724.000000 0 0 1
26.961707 -8.284188 -15.046433 31.968055 -0.298102 2.060847 0.000288 0.001762 184910.000000 0 0 1
25.639957 -7.803188 -15.310733 30.866093 -0.295431 2.089825 0.013703 -0.005090 356928.000000 0 0 1
25.079587 -8.555388 -16.346133 31.134810 -0.328751 2.123525 0.009145 -0.005917 300572.000000 0 0 1
23.655487 -8.153288 -16.834633 30.157305 -0.331917 2.163044 0.009769 -0.004523 177180.000000 0 0 1
23.547687 -6.919488 -17.506633 30.147223 -0.285805 2.190390 0.000744 -0.003490 335696.000000 0 0 1
22.242587 -6.707388 -18.041233 29.414415 -0.292884 2.231087 0.027009 -0.008290 333940.000000 0 0 1
22.062387 -7.345088 -19.486033 30.338173 -0.321382 2.268284 0.014815 0.000240 95559.000000 0 0 1
22.881287 -6.814488 -20.536633 31.491965 -0.289455 2.281178 0.013441 -0.004051 833544.000000 0 0 1
22.237887 -7.026888 -21.807633 31.929197 -0.306059 2.322658 0.018252 -0.005438 158226.000000 0 0 1
22.878687 -6.098388 -22.841433 32.899175 -0.260496 2.338224 0.013756 -0.011183 -267149.000000 0 0 1
22.547387 -6.391488 -24.113533 33.625857 -0.276223 2.370447 0.016324 -0.016794 -20999.500000 0 0 1
22.765487 -5.291088 -24.971833 34.203150 -0.228363 2.389269 0.022144 -0.020642 -417143.000000 0 0 1
22.860387 -5.694288 -26.424653 35.401758 -0.244122 2.413466 0.033051 -0.026632 -1049240.000000 0 0 1
21.671087 -6.097488 -26.978713 35.137819 -0.274274 2.446192 0.036625 -0.022938 -871732.000000 0 0 1
21.854587 -6.378288 -28.342183 36.353609 -0.283964 2.464863 0.037504 -0.021412 114539.000000 0 0 1
20.629287 -7.116388 -28.925143 36.233608 -0.332183 2.495257 0.026156 -0.026981 54029.100000 0 0 1
20.436287 -8.443888 -28.555333 36.115760 -0.391818 2.482685 0.024190 -0.021395 220374.000000 0 0 1
19.390287 -8.960288 -29.347923 36.298355 -0.432872 2.512428 0.028743 -0.023115 -247926.000000 0 0 1
19.332687 -10.479388 -29.139613 36.505991 -0.496723 2.495122 0.038836 -0.021643 -564747.000000 0 0 1
18.468987 -10.953788 -28.135453 35.393398 -0.535324 2.489697 0.047451 -0.017863 -45505.400000 0 0 1
18.651387 -12.317688 -27.724923 35.612793 -0.583663 2.463085 0.058235 -0.018358 -465631.000000 0 0 1
18.506987 -13.415788 -28.790433 36.761134 -0.627245 2.470553 0.044271 -0.017450 -178864.000000 0 0 1
17.163987 -13.521088 -29.189603 36.461695 -0.667232 2.499018 0.036786 -0.020293 -36184.600000 0 0 1
17.111887 -14.390088 -30.341293 37.689327 -0.699211 2.506534 0.025490 -0.015813 -251235.000000 0 0 1
15.816187 -14.628188 -31.163923 37.885693 -0.746396 2.536725 0.019557 -0.019362 -526287.000000 0 0 1
14.899787 -15.372988 -30.430343 37.206695 -0.801028 2.528501 0.019502 -0.022251 -520701.000000 0 0 1
13.816687 -15.657688 -31.276743 37.607162 -0.847778 2.552905 0.001532 -0.026094 -630266.000000 0 0 1
12.709587 -16.427888 -30.555283 36.946372 -0.912324 2.544577 0.005391 -0.028410 -293100.000000 0 0 1
13.112287 -17.713088 -30.235853 37.415135 -0.933558 2.511747 0.006147 -0.024669 198835.000000 0 0 1
12.162587 -18.258688 -29.316293 36.616297 -0.983168 2.499151 0.009733 -0.023687 -45538.300000 0 0 1
12.555787 -19.414988 -28.456243 36.665342 -0.996740 2.459266 0.016941 -0.021359 -180177.000000 0 0 1
13.626087 -19.139788 -27.562573 36.217360 -0.952112 2.435699 0.008402 -0.010044 101599.000000 0 0 1
13.498087 -19.930988 -26.401553 35.727925 -0.975509 2.402324 0.008080 -0.007487 114724.000000 0 0 1
14.687687 -19.809688 -25.390153 35.395081 -0.932796 2.370767 0.007684 0.002060 498045.000000 0 0 1
15.863687 -20.484588 -25.846063 36.596364 -0.911848 2.354979 0.011071 0.003005 714602.000000 0 0 1
16.771587 -20.578188 -24.749833 36.294658 -0.886965 2.321172 0.013787 0.007683 227225.000000 0 0 1
18.186087 -21.172588 -25.021633 37.484588 -0.861132 2.301667 -0.006149 0.017253 131547.000000 0 0 1
18.351387 -22.525288 -25.426033 38.608874 -0.887155 2.289692 -0.004576 0.013874 207415.000000 0 0 1
17.966687 -23.380588 -24.362133 38.248755 -0.915595 2.261318 -0.001704 0.011482 -619364.000000 0 0 1
18.449787 -24.822088 -24.505333 39.459372 -0.931609 2.240849 -0.002623 0.013241 -606170.000000 0 0 1
19.846187 -24.933888 -24.409933 40.142430 -0.898528 2.224440 -0.000981 0.014444 -139117.000000 0 0 1
20.252887 -26.261218 -24.007833 40.941507 -0.913859 2.197396 0.005572 -0.002191 9965.950000 0 0 1
20.202887 -26.561588 -22.461033 40.226516 -0.920542 2.163209 0.014550 0.000502 -775843.000000 0 0 1
18.918987 -26.627758 -21.896133 39.324371 -0.953059 2.161335 0.010486 0.006582 -175883.000000 0 0 1
19.004887 -26.677668 -20.483233 38.632195 -0.951804 2.129646 0.008426 0.002366 89580.600000 0 0 1
17.813187 -27.315738 -19.725533 38.112410 -0.992931 2.114795 0.002664 -0.001062 -446206.000000 0 0 1
17.706187 -28.734498 -19.898533 39.180761 -1.018550 2.103501 0.004135 -0.001229 566566.000000 0 0 1
16.479187 -29.325828 -19.471833 38.867982 -1.058837 2.095520 0.000421 0.001446 1423360.000000 0 0 1
15.096987 -28.886958 -20.087933 38.287079 -1.089215 2.123119 0.000322 0.000933 361923.000000 0 0 1
14.550887 -27.714108 -19.561133 36.911218 -1.087322 2.129339 0.002608 0.002616 -645929.000000 0 0 1
13.206887 -27.565278 -19.921433 36.484653 -1.123997 2.148405 -0.010016 0.009582 160345.000000 0 0 1
12.329487 -26.420708 -19.294133 34.961888 -1.134175 2.155392 -0.012702 0.004709 -152019.000000 0 0 1
11.867887 -26.781388 -18.024333 34.394273 -1.153662 2.122396 -0.010769 0.003772 -522631.000000 0 0 1
11.001087 -25.874898 -17.434633 33.083239 -1.168786 2.125855 0.001152 -0.012122 -637616.000000 0 0 1
9.511087 -25.948348 -17.767033 32.854908 -1.219464 2.142152 0.005002 -0.004706 -1062570.000000 0 0 1
8.904487 -26.898348 -16.928133 33.005646 -1.251109 2.109340 0.003081 0.005179 573364.000000 0 0 1
7.469987 -26.917608 -17.026733 32.714950 -1.300095 2.118183 0.000769 0.010639 1062490.000000 0 0 1
6.872587 -27.853768 -18.070133 33.905671 -1.328890 2.132883 0.008642 0.014057 -324888.000000 0 0 1
6.868087 -27.320898 -19.333833 34.167224 -1.324514 2.172271 0.015400 0.012591 -72811.900000 0 0 1
6.397587 -28.297198 -20.261333 35.386186 -1.348449 2.180443 0.014208 0.012109 47535.700000 0 0 1
6.433187 -27.717438 -21.685433 35.775694 -1.342735 2.222007 0.012278 0.003407 -615870.000000 0 0 1
5.584087 -26.643468 -21.866933 34.917319 -1.364201 2.247529 0.020302 -0.004651 -415152.000000 0 0 1
5.596187 -26.124068 -23.133633 35.340475 -1.359770 2.284441 0.017717 0.005179 -255021.000000 0 0 1
4.341187 -25.296988 -23.478833 34.785616 -1.400843 2.311704 -0.003162 0.005432 -280225.000000 0 0 1
3.175687 -26.086708 -23.498633 35.253185 -1.449657 2.300391 -0.010760 0.013856 -732413.000000 0 0 1
2.161687 -25.408478 -24.152933 35.123038 -1.485923 2.329066 -0.007427 0.013420 -236149.000000 0 0 1
1.017287 -26.294208 -24.672433 36.071445 -1.532127 2.324012 -0.028615 0.018122 -275156.000000 0 0 1
1.533987 -27.156678 -25.657733 37.391945 -1.514370 2.327026 -0.048495 0.026385 227399.000000 0 0 1
0.563387 -27.935578 -26.341033 38.400051 -1.550632 2.326723 -0.041489 0.020905 -187543.000000 0 0 1
1.193587 -28.706458 -27.558973 39.811837 -1.529241 2.335372 -0.055097 0.030271 -656493.000000 0 0 1
1.461487 -27.917108 -28.689433 40.057264 -1.518493 2.369153 -0.045381 0.027636 148340.000000 0 0 1
1.870087 -28.684338 -29.813183 41.413939 -1.505693 2.374430 -0.035251 0.019584 400757.000000 0 0 1
3.280987 -29.377268 -29.815403 41.985080 -1.459573 2.360497 -0.016632 0.017146 221400.000000 0 0 1
3.410787 -30.517198 -28.938863 42.194675 -1.459492 2.326556 -0.032744 0.019564 532832.000000 0 0 1
4.662587 -31.197608 -29.101253 42.917518 -1.422441 2.315935 0.002565 0.007127 676820.000000 0 0 1
5.115887 -32.207958 -27.972303 42.964806 -1.413273 2.279765 0.019028 -0.000598 -170813.000000 0 0 1
4.266387 -33.333018 -27.913173 43.685665 -1.443496 2.263935 -0.004276 -0.000216 69048.600000 0 0 1
4.729887 -34.388751 -27.124503 44.053339 -1.434112 2.234095 0.013173 -0.011969 -349584.000000 0 0 1
3.622087 33.706643 -26.838203 43.238252 1.463748 2.240438 0.025401 -0.006862 3917.540000 0 0 1
3.076587 33.136411 -28.039933 43.516950 1.478216 2.270963 0.000295 -0.001985 -689303.000000 0 0 1
1.824887 32.605133 -27.838313 42.911497 1.514885 2.276721 -0.028133 0.010615 -1141450.000000 0 0 1
0.869487 32.885023 -28.995443 43.851071 1.544362 2.293247 -0.039230 0.024167 -542859.000000 0 0 1
0.983287 31.953203 -30.037223 43.865804 1.540033 2.325060 -0.029000 0.012272 9301.670000 0 0 1
0.225587 32.394293 -31.122433 44.922677 1.563833 2.336161 -0.030739 0.018241 -24073.400000 0 0 1
-0.074413 31.282273 -32.057013 44.791051 -1.568418 2.368424 -0.021488 0.014096 27288.900000 0 0 1
1.098687 30.937853 -32.760093 45.073069 1.535299 2.384480 -0.020295 0.015528 294082.000000 0 0 1
0.783087 29.998883 -33.770603 45.177426 1.544698 2.415103 -0.013284 0.008467 -435817.000000 0 0 1
1.931187 29.702223 34.386392 45.479396 1.505869 0.713483 -0.014214 0.009365 -307679.000000 0 0 1
2.165187 30.749533 33.424705 45.469030 1.500499 0.744969 -0.014940 0.006053 148651.000000 0 0 1
3.152587 30.397073 32.451314 44.575875 1.467452 0.755394 -0.014577 0.006200 105758.000000 0 0 1
2.762687 29.305123 31.350494 43.003211 1.476801 0.753897 -0.020901 0.014222 -50436.600000 0 0 1
2.524487 27.974513 31.795304 42.425084 1.480798 0.723572 -0.018095 0.007691 -182190.000000 0 0 1
3.719687 27.253543 31.874514 42.101975 1.435150 0.711966 -0.003496 0.010424 -502621.000000 0 0 1
3.518687 25.767443 32.260654 41.437810 1.435080 0.678473 0.009658 0.001106 306765.000000 0 0 1
2.618187 25.141393 31.324984 40.251698 1.467032 0.678958 0.002219 0.009271 697286.000000 0 0 1
2.751787 23.713743 31.430854 39.469134 1.455271 0.649576 0.003388 0.010997 -632279.000000 0 0 1
2.069187 22.960343 30.341584 38.106044 1.480919 0.649741 0.001613 0.023450 -372036.000000 0 0 1
0.721187 22.717743 30.647624 38.156163 1.539061 0.638123 -0.006421 0.015371 -292684.000000 0 0 1
0.030787 21.960243 29.659224 36.904238 1.569394 0.637341 -0.001667 0.016191 306382.000000 0 0 1
-1.368113 21.513743 30.142354 37.057717 -1.507289 0.620841 -0.004068 0.017351 -372278.000000 0 0 1
-2.248413 22.566543 30.283434 37.833723 -1.471489 0.642776 -0.003074 0.012221 -299848.000000 0 0 1
-3.557513 22.096743 30.536394 37.860181 -1.411169 0.632492 -0.017071 0.012323 480846.000000 0 0 1
-4.689413 23.151543 30.708294 38.742533 -1.370947 0.655694 -0.031023 0.002179 119755.000000 0 0 1
-4.842813 23.719143 32.013304 40.136046 -1.369391 0.647458 -0.028486 -0.000816 114739.000000 0 0 1
-4.295113 24.999603 32.189524 40.982845 -1.400650 0.667391 -0.014383 -0.001905 -864739.000000 0 0 1
-4.530813 25.462993 33.635051 42.428869 -1.394702 0.655506 -0.014323 0.000252 212579.000000 0 0 1
-5.828213 25.879483 34.071909 43.181138 -1.349286 0.661542 -0.028692 -0.001411 355720.000000 0 0 1
-5.968513 26.118693 -33.634853 43.001309 -1.346139 2.468957 -0.017209 0.000810 -743684.000000 0 0 1
-7.394213 26.486743 -33.273723 43.166684 -1.298561 2.450923 -0.010909 0.008312 -862170.000000 0 0 1
-7.815413 27.743293 -33.754723 44.386398 -1.296208 2.434840 -0.002253 0.006745 351520.000000 0 0 1
-9.133513 28.078833 -33.307063 44.510699 -1.256310 2.416282 0.009406 0.010933 473532.000000 0 0 1
-9.341113 28.462983 -31.777373 43.671492 -1.253687 2.385680 0.014562 0.004888 -511141.000000 0 0 1
-8.794813 29.794083 -31.451013 44.206361 -1.283761 2.362369 0.014800 0.007845 498090.000000 0 0 1
-8.820113 30.089313 -30.076263 43.448161 -1.285653 2.335375 0.016427 0.001634 -136436.000000 0 0 1
-8.316113 31.512823 -29.692193 44.089024 -1.312782 2.309676 0.010144 0.004728 316261.000000 0 0 1
-6.912613 31.723283 -29.779293 44.056296 -1.356247 2.313032 -0.004419 0.007262 215921.000000 0 0 1
-6.677613 33.020373 -29.303973 44.650402 -1.371260 2.286698 0.005165 0.013538 511898.000000 0 0 1
-5.150813 33.359643 -29.366893 44.741603 -1.417604 2.286789 -0.005526 0.014229 403238.000000 0 0 1
-4.770213 -34.414086 -28.974603 45.239494 1.433062 2.265908 -0.015889 0.021114 60084.100000 0 0 1
-4.657113 -33.471728 -30.066193 45.232966 1.432548 2.297884 -0.005531 0.011525 492291.000000 0 0 1
-3.361013 -33.658708 -30.946863 45.846628 1.471271 2.311773 -0.005732 0.006357 163954.000000 0 0 1
-3.358013 34.320648 -31.815163 46.918948 -1.473264 2.315954 -0.002838 0.011388 238226.000000 0 0 1
-3.946213 -34.485794 -33.115873 47.973989 1.456862 2.332683 0.006566 0.002398 469898.000000 0 0 1
-3.199913 -33.402568 -34.019353 47.783756 1.475289 2.363059 0.004648 -0.001769 200568.000000 0 0 1
-3.560413 -32.069628 -33.708183 46.662395 1.460228 2.378041 -0.015744 0.004584 352415.000000 0 0 1
-2.614313 -31.169108 -34.308695 46.426657 1.487117 2.402362 -0.011931 -0.004694 516858.000000 0 0 1
31.765157 19.929312 12.212964 39.438042 0.560320 1.255945 0.012484 0.003127 162395.000000 0 0 1
32.351207 19.129512 13.230664 39.844564 0.534003 1.232313 0.011648 0.003991 404980.000000 0 0 1
31.783397 17.832312 13.058764 38.713137 0.511293 1.226726 0.019795 0.005532 -100267.000000 0 0 1
32.707537 16.743012 13.570164 39.169641 0.473123 1.217017 0.035287 -0.004712 38189.000000 0 0 1
33.954797 16.630812 12.900964 39.949306 0.455448 1.241969 0.019231 0.004159 34922.300000 0 0 1
34.756570 15.672512 13.567864 40.468923 0.423621 1.228909 0.015922 -0.000839 222854.000000 0 0 1
-34.357783 15.337812 12.668864 39.701459 -0.419868 1.246013 0.008863 -0.004114 508434.000000 0 0 1
-33.573210 14.244612 13.187264 38.781095 -0.401265 1.223833 0.012004 -0.004860 -8444.960000 0 0 1
-34.154693 12.944312 13.259164 38.857479 -0.362265 1.222576 0.011641 -0.010474 -349038.000000 0 0 1
-33.498170 12.008212 14.309364 38.354693 -0.344204 1.188470 -0.003280 -0.007794 29436.100000 0 0 1
-33.674530 12.554612 15.635064 39.192442 -0.356860 1.160446 -0.000191 -0.005636 144706.000000 0 0 1
-33.071360 11.718312 16.587164 38.809376 -0.340531 1.129180 -0.005127 -0.008723 -358703.000000 0 0 1
-32.726530 12.418812 17.922364 39.325104 -0.362686 1.097583 0.003691 -0.005540 -1006910.000000 0 0 1
-33.762580 12.959612 18.647664 40.689049 -0.366503 1.094718 0.013820 -0.003931 -679672.000000 0 0 1
-33.332380 13.646812 19.802764 41.102707 -0.388597 1.068103 0.003255 -0.010850 575835.000000 0 0 1
-34.541413 13.950512 20.778864 42.655447 -0.383845 1.061993 0.019143 -0.008872 808246.000000 0 0 1
-34.993214 12.766912 21.404264 42.961163 -0.349833 1.049248 0.021156 0.010663 303810.000000 0 0 1
34.178207 12.853912 22.165264 42.716178 0.359722 1.025237 0.019571 0.002644 129406.000000 0 0 1
33.878237 11.400212 22.702664 42.345138 0.324603 1.004946 0.010392 0.007870 -713699.000000 0 0 1
34.645243 11.017912 23.775864 43.439371 0.307907 0.991620 0.016019 0.008730 -354358.000000 0 0 1
34.226997 11.480712 25.077714 43.956636 0.323635 0.963669 0.013530 0.014984 -391052.000000 0 0 1
-34.933589 11.641012 26.055354 45.108206 -0.321660 0.954988 0.014919 0.014669 666851.000000 0 0 1
-34.000320 12.666112 25.794204 44.517335 -0.356603 0.952780 0.018599 0.007085 261175.000000 0 0 1
-33.099750 12.503812 24.706804 43.155126 -0.361190 0.961231 0.018779 0.003070 -168308.000000 0 0 1
-32.235540 13.819012 24.408174 42.730014 -0.404991 0.962807 0.018392 0.004764 948354.000000 0 0 1
-31.225830 14.160512 25.337034 42.632591 -0.425750 0.934387 0.009758 0.000250 186850.000000 0 0 1
-31.859330 14.637012 26.482094 43.938142 -0.430665 0.923900 0.006038 -0.003983 -602258.000000 0 0 1
-30.932280 15.188012 27.572784 44.133208 -0.456429 0.895969 0.007683 -0.002855 -279402.000000 0 0 1
-30.236350 16.355912 27.203454 43.838118 -0.495857 0.901361 0.028211 -0.017712 220022.000000 0 0 1
-29.623300 17.087512 28.289744 44.382796 -0.523206 0.879673 0.038195 -0.022723 307513.000000 0 0 1
-28.999120 18.423712 27.824464 44.210665 -0.565986 0.890066 0.043126 -0.019556 -33443.200000 0 0 1
-29.984200 19.333712 27.365734 44.963631 -0.572709 0.916477 0.039316 -0.034147 748551.000000 0 0 1
-29.313950 20.522912 26.901384 44.768092 -0.610798 0.926163 0.046022 -0.047695 133321.000000 0 0 1
-30.227430 21.509912 26.143304 45.385528 -0.618470 0.956936 0.049046 -0.036306 -749026.000000 0 0 1
-31.376050 21.876912 26.836574 46.725341 -0.608877 0.958990 0.041583 -0.035349 412776.000000 0 0 1
-32.246980 22.704412 26.017714 47.247005 -0.613458 0.987624 0.035364 -0.024718 355447.000000 0 0 1
-31.959550 24.229912 26.224964 47.919205 -0.648692 0.991692 0.031580 -0.025080 -550893.000000 0 0 1
-32.840160 24.877912 25.386384 48.392718 -0.648313 1.018562 0.033306 -0.023211 -270704.000000 0 0 1
-32.993510 26.236212 25.626564 49.331849 -0.671803 1.024562 0.032246 -0.017494 368745.000000 0 0 1
-33.879020 26.992712 24.559974 49.795450 -0.672749 1.055012 0.036320 -0.012176 88982.300000 0 0 1
-33.498660 26.820112 23.211464 48.787813 -0.675126 1.074964 0.041598 -0.018300 -423975.000000 0 0 1
-34.405719 27.278912 22.245064 49.221290 -0.670372 1.101858 0.050806 -0.023123 -244328.000000 0 0 1
-33.975830 26.948012 20.762064 48.079265 -0.670552 1.124276 0.057712 -0.034197 127461.000000 0 0 1
-34.056760 25.580512 20.380064 47.218349 -0.644214 1.124516 0.052435 -0.034005 47389.700000 0 0 1
-33.582480 25.400912 19.038664 46.211038 -0.647568 1.146155 0.050895 -0.031477 -122689.000000 0 0 1
-33.820290 24.039312 18.329964 45.361747 -0.617935 1.154819 0.038115 -0.022367 634094.000000 0 0 1
-35.161810 23.912112 17.848564 46.116301 -0.597217 1.173384 0.035088 -0.026703 243065.000000 0 0 1
-35.155773 23.230012 16.599464 45.289116 -0.583912 1.195528 0.024826 -0.020076 -250896.000000 0 0 1
33.817497 22.991612 15.995364 43.910010 0.597090 1.197941 0.023673 -0.015836 -261416.000000 0 0 1
33.106097 21.861912 16.486564 42.962352 0.583623 1.176949 0.016737 -0.017892 499017.000000 0 0 1
31.923997 21.826812 15.656864 41.721562 0.599710 1.186108 0.013773 -0.012730 76744.600000 0 0 1
30.779387 20.933812 16.191664 40.592674 0.597262 1.160500 -0.002802 -0.010118 682519.000000 0 0 1
29.939437 21.510312 17.215264 40.686960 0.623009 1.133916 -0.009270 -0.010907 682827.000000 0 0 1
28.916777 22.419712 16.783864 40.255702 0.659509 1.140730 -0.008389 -0.002230 337477.000000 0 0 1
28.247127 23.125512 18.069164 40.733085 0.686031 1.111186 -0.008900 0.001489 28298.300000 0 0 1
29.054777 23.936112 18.861264 42.105401 0.689102 1.106321 -0.022721 0.001953 -570788.000000 0 0 1
28.284427 24.545712 19.883064 42.400908 0.714747 1.082717 -0.021338 0.000269 -139979.000000 0 0 1
29.087517 25.161812 21.052164 43.845114 0.713160 1.069972 -0.018933 -0.005057 194151.000000 0 0 1
29.992507 26.149212 20.592564 44.803856 0.717048 1.093234 -0.007514 -0.002445 -78349.800000 0 0 1
30.736767 26.741712 21.618664 46.121954 0.716005 1.082946 -0.000384 -0.010437 -564739.000000 0 0 1
31.854397 27.621212 21.077664 47.137054 0.714343 1.107212 0.023282 -0.012690 -393812.000000 0 0 1
32.830507 28.167612 21.906164 48.488520 0.709103 1.102036 0.028559 -0.011018 -102523.000000 0 0 1
32.283807 29.102112 22.828064 49.094782 0.733613 1.087185 0.004303 -0.002563 -499867.000000 0 0 1
33.130867 29.496812 24.056774 50.462309 0.727437 1.073868 0.006409 -0.010945 317504.000000 0 0 1
34.380035 30.091812 23.708064 51.474035 0.718983 1.092144 0.033020 -0.013404 -90132.100000 0 0 1
35.016760 30.424212 24.887954 52.642344 0.715335 1.078360 0.032623 -0.009287 204418.000000 0 0 1
-33.988960 31.174512 24.714534 52.325021 -0.742234 1.078867 0.043711 -0.010952 245173.000000 0 0 1
-32.856540 30.388412 24.420134 50.983828 -0.746393 1.071306 0.039829 -0.016022 -202658.000000 0 0 1
-31.772350 31.296112 24.447514 50.858724 -0.777847 1.069350 0.039605 -0.013394 -57254.700000 0 0 1
-30.386970 30.717812 24.072774 49.461605 -0.790812 1.062493 0.051421 -0.018036 -150585.000000 0 0 1
-30.210800 30.395112 22.736264 48.512813 -0.788439 1.083017 0.031840 -0.017854 14462.500000 0 0 1
-30.638680 29.108112 22.296064 47.782061 -0.759786 1.085331 0.041177 -0.014708 -313288.000000 0 0 1
-30.175770 27.776812 22.936564 46.991641 -0.744027 1.060886 0.034425 -0.013443 -1461800.000000 0 0 1
-28.850660 27.438312 22.778164 45.870103 -0.760312 1.051142 -0.000638 -0.014504 -945044.000000 0 0 1
-28.400560 26.445212 23.670264 45.455720 -0.749762 1.023088 0.005415 -0.007342 -142320.000000 0 0 1
-28.181120 26.792712 25.143854 46.305921 -0.760148 0.996797 0.028515 -0.009395 -806672.000000 0 0 1
-29.330240 27.121112 25.866914 47.591123 -0.746285 0.996167 0.030155 -0.007947 -301636.000000 0 0 1
-28.959880 27.654312 27.105664 48.354448 -0.762341 0.975732 0.042801 -0.014834 -486350.000000 0 0 1
-30.173940 28.078412 27.935504 49.792131 -0.749440 0.975152 0.049915 -0.014081 -570929.000000 0 0 1
-30.899580 27.016812 28.419284 49.923420 -0.718457 0.965194 0.042414 -0.013249 -150076.000000 0 0 1
-31.846990 27.441012 29.372424 51.283323 -0.711220 0.960942 0.036514 -0.003617 -404899.000000 0 0 1
-32.623420 26.356412 30.050694 51.594498 -0.679539 0.949069 0.030827 -0.004570 -411703.000000 0 0 1
-31.805190 25.557712 30.879674 51.169532 -0.676914 0.922941 0.033657 -0.007596 175837.000000 0 0 1
-32.478930 24.384012 31.226774 51.230580 -0.643990 0.915324 0.021854 -0.014799 306925.000000 0 0 1
-31.560210 23.496112 32.122054 50.793115 -0.639962 0.886136 0.049044 -0.023987 -202275.000000 0 0 1
-30.600730 22.679512 31.468194 49.406601 -0.637808 0.880296 0.044306 -0.022584 -71068.000000 0 0 1
-29.827160 21.812612 32.233984 49.035490 -0.631426 0.853486 0.045587 -0.023355 432187.000000 0 0 1
-28.885670 22.457112 33.330142 49.493456 -0.660838 0.831964 0.043833 -0.025713 -127398.000000 0 0 1
-29.634220 23.094312 34.405761 50.943995 -0.661999 0.829338 0.056735 -0.026386 309449.000000 0 0 1
-29.473040 22.580312 -33.375283 49.924344 -0.653747 2.303010 0.048376 -0.020576 -598528.000000 0 0 1
-28.198480 22.913012 -32.614873 48.825099 -0.682354 2.302306 0.054276 -0.022577 -494796.000000 0 0 1
-28.211370 24.248912 -32.124083 49.151275 -0.710009 2.283096 0.045667 -0.023679 51930.900000 0 0 1
-27.130150 24.476712 -31.241333 48.074685 -0.734027 2.278183 0.057530 -0.020274 -135442.000000 0 0 1
-27.212590 25.720712 -30.350353 48.199834 -0.757222 2.251934 0.036491 -0.014256 -229859.000000 0 0 1
-27.058370 27.012012 -30.914893 49.168433 -0.784541 2.250747 0.036096 -0.013198 827314.000000 0 0 1
-28.108540 27.394912 -31.857823 50.551875 -0.772542 2.252608 0.039458 -0.007335 528175.000000 0 0 1
-28.143750 28.903712 -32.273883 51.663321 -0.798719 2.245539 0.043558 -0.010283 -44620.600000 0 0 1
-28.449040 29.858112 -31.294053 51.770382 -0.809560 2.219907 0.037884 -0.014716 46168.400000 0 0 1
-28.329780 31.150712 -31.831143 52.784136 -0.832789 2.218108 0.054660 -0.027220 -78589.400000 0 0 1
-28.769320 32.263012 -30.881643 53.124868 -0.842579 2.191125 0.045657 -0.008330 115445.000000 0 0 1
-27.806600 32.475112 -29.843923 52.139233 -0.862689 2.180213 0.028772 -0.002176 183569.000000 0 0 1
-28.084560 33.450212 -28.845873 52.342560 -0.872375 2.154476 0.015186 0.003603 194086.000000 0 0 1
-26.935600 33.469312 -27.737963 51.138205 -0.893145 2.144102 0.015796 -0.005761 419673.000000 0 0 1
-25.748760 34.078612 -28.158283 51.158962 -0.923740 2.153649 0.005051 -0.000613 -662295.000000 0 0 1
-25.639360 -33.583418 -28.202603 50.799701 0.918741 2.159367 0.013466 0.008665 -922474.000000 0 0 1
-26.046820 -32.657818 -27.035443 49.758267 0.897540 2.145202 0.006761 0.013445 123675.000000 0 0 1
-27.420370 -32.336418 -26.944053 50.234477 0.867481 2.136921 -0.019792 0.007073 -175001.000000 0 0 1
-27.639760 -31.365118 -25.891973 49.174396 0.848451 2.125314 -0.020448 0.012741 -280641.000000 0 0 1
-29.079860 -30.883018 -25.731363 49.613528 0.815460 2.116051 -0.034682 0.009416 -380601.000000 0 0 1
-29.491860 -30.079718 -26.825743 49.941764 0.795266 2.137840 -0.027090 0.004149 -510082.000000 0 0 1
-30.880420 -29.973218 -26.837723 50.717428 0.770491 2.128409 -0.027196 -0.003684 -797830.000000 0 0 1
-31.411990 -28.856218 -27.732203 50.877004 0.743017 2.147285 -0.014923 -0.010729 -609950.000000 0 0 1
-32.801400 -28.767718 -27.637593 51.646394 0.719977 2.135459 -0.007021 -0.009403 -604633.000000 0 0 1
-33.342960 -27.916718 -28.584023 52.039817 0.697051 2.152289 0.010898 -0.017461 329871.000000 0 0 1
-34.864420 -28.115818 -28.867803 53.285806 0.678651 2.143319 0.006951 -0.021497 741934.000000 0 0 1
34.711938 -27.901218 -27.720713 52.457931 -0.677050 2.127555 -0.000833 -0.005371 -1254180.000000 0 0 1
33.355377 -27.924618 -27.949093 51.706066 -0.697007 2.141873 0.013301 -0.012487 -1052440.000000 0 0 1
32.492157 -27.286618 -26.854543 50.214204 -0.698537 2.135067 0.013909 -0.013580 -195053.000000 0 0 1
32.478587 -28.045618 -25.670443 50.003870 -0.712286 2.109902 0.011352 -0.005297 484700.000000 0 0 1
31.316627 -27.832618 -24.858633 48.716911 -0.726564 2.106292 0.016967 -0.003483 470169.000000 0 0 1
31.217287 -28.665018 -23.534133 48.477394 -0.742803 2.077693 0.021258 0.001656 -93115.800000 0 0 1
30.845577 -30.019918 -23.572533 49.074529 -0.771834 2.071840 0.030409 -0.007667 -46263.300000 0 0 1
30.512637 -30.672918 -22.303233 48.675283 -0.788018 2.046770 0.044569 -0.019633 -542862.000000 0 0 1
31.456137 -30.496018 -21.102033 48.629122 -0.769902 2.019656 0.025189 -0.008973 -1360660.000000 0 0 1
32.625007 -31.229018 -21.404433 49.977919 -0.763539 2.013382 0.012897 -0.009344 440287.000000 0 0 1
33.679697 -31.045618 -20.432033 50.155961 -0.744724 1.990369 0.007955 -0.000564 473272.000000 0 0 1
34.450758 -29.760818 -20.553533 49.950063 -0.712489 1.994875 -0.013310 0.000155 -1149280.000000 0 0 1
33.707897 -28.610518 -20.179033 48.600180 -0.703784 1.998964 -0.011228 0.006701 -148441.000000 0 0 1
34.182707 -27.542718 -20.926133 48.630873 -0.678237 2.015628 -0.018157 0.006874 -331628.000000 0 0 1
33.416827 -26.204218 -20.857533 47.311543 -0.665009 2.027347 -0.014039 0.009999 -15921.900000 0 0 1
32.210627 -26.285418 -21.581533 46.842398 -0.684450 2.049610 0.001324 0.007432 -196412.000000 0 0 1
31.160047 -25.624018 -20.926533 45.447317 -0.688213 2.049306 0.023542 0.007376 181254.000000 0 0 1
29.854287 -25.442918 -21.746333 44.850012 -0.705791 2.077008 0.032484 -0.001395 14377.900000 0 0 1
29.271687 -26.596218 -22.148133 45.329133 -0.737546 2.081289 0.043215 -0.004380 -521665.000000 0 0 1
27.976577 -26.390318 -22.668333 44.642929 -0.756230 2.103390 0.036241 0.001048 47051.000000 0 0 1
27.396317 -27.758118 -23.067133 45.311852 -0.791958 2.104906 0.036004 -0.004949 -161677.000000 0 0 1
26.943887 -28.625018 -22.057733 45.076694 -0.815642 2.082127 0.042100 -0.008207 -58757.400000 0 0 1
26.482117 -29.877318 -22.505933 45.830925 -0.845567 2.084107 0.038741 -0.018510 393527.000000 0 0 1
25.714827 -30.766018 -21.407433 45.454135 -0.874593 2.061184 0.039307 -0.014203 455437.000000 0 0 1
26.464547 -31.103118 -20.226233 45.572763 -0.865800 2.030657 0.050541 -0.016174 -207698.000000 0 0 1
27.544867 -31.979518 -20.379533 46.869336 -0.859762 2.020630 0.052505 -0.015661 -590235.000000 0 0 1
28.356657 -32.098318 -19.110433 46.900007 -0.847211 1.990480 0.041214 -0.011629 -462571.000000 0 0 1
27.743157 -32.717618 -18.004733 46.521992 -0.867489 1.968189 0.035417 -0.015965 -14856.900000 0 0 1
26.894277 -31.911518 -17.184233 45.132527 -0.870511 1.961404 0.022439 -0.019481 30332.300000 0 0 1
26.483187 -32.761018 -15.987833 45.058344 -0.890970 1.933523 0.017186 -0.018349 -612533.000000 0 0 1
25.397907 -33.599218 -16.232433 45.138155 -0.923525 1.938653 0.029838 -0.021538 -514749.000000 0 0 1
24.978987 -34.031518 -14.950733 44.784132 -0.937617 1.911171 0.035333 -0.019641 181582.000000 0 0 1
23.448487 -34.249518 -14.777033 44.059298 -0.970456 1.912815 0.040133 -0.019817 313304.000000 0 0 1
22.706487 -33.067018 -14.547633 42.669027 -0.969065 1.918714 0.040332 -0.018510 302623.000000 0 0 1
21.344987 -33.412418 -14.306533 42.150624 -1.002311 1.917091 0.033456 -0.023719 335421.000000 0 0 1
-0.757840 -7.085988 -29.096963 29.956949 1.464252 2.901402 0.010585 0.004551 281422.000000 0 0 1
-0.315540 -8.431888 -29.116983 30.314930 1.533392 2.859530 0.020444 0.006635 -51791.900000 0 0 1
-0.306040 -8.964088 -30.428813 31.723196 1.536669 2.854947 0.014010 0.004291 -239404.000000 0 0 1
-0.049140 -10.488388 -30.476343 32.230671 1.566111 2.810137 0.024106 0.007450 -90392.300000 0 0 1
1.294360 -10.719488 -30.133403 32.009448 -1.450630 2.797527 -0.006905 0.007268 -298570.000000 0 0 1
1.517960 -12.077588 -30.112813 32.480053 -1.445768 2.757442 0.007163 0.001187 9440.760000 0 0 1
2.924360 -12.520988 -29.658323 32.325580 -1.341353 2.732514 0.003807 0.000629 -1281880.000000 0 0 1
3.918560 -12.353988 -30.623243 33.252957 -1.263645 2.741225 0.018364 -0.007243 703198.000000 0 0 1
5.229660 -12.757088 -30.143003 33.146542 -1.181749 2.712602 0.018570 -0.003104 1080220.000000 0 0 1
5.478960 -14.199288 -29.649363 33.327518 -1.202537 2.667344 0.021495 -0.005982 -2088340.000000 0 0 1
4.971460 -14.492588 -28.375623 32.247891 -1.240340 2.646494 0.028624 -0.005534 -305377.000000 0 0 1
5.571160 -15.486888 -27.596873 32.132054 -1.225476 2.603832 0.036666 -0.003655 -417391.000000 0 0 1
5.196460 -16.921188 -28.023333 33.145693 -1.272841 2.578221 0.028563 -0.009903 -94991.300000 0 0 1
5.584660 -17.309688 -29.332663 34.514038 -1.258708 2.586547 0.036102 -0.027038 119518.000000 0 0 1
4.982760 -18.534688 -29.689583 35.352990 -1.308171 2.567718 0.027590 -0.025351 -410690.000000 0 0 1
5.321860 -18.931288 -31.140713 36.830149 -1.296754 2.578339 0.033215 -0.040569 218906.000000 0 0 1
6.692360 -19.293888 -31.405313 37.461119 -1.236918 2.565035 0.022668 -0.032794 902769.000000 0 0 1
6.841160 -20.141788 -32.527283 38.865373 -1.243372 2.562431 0.035044 -0.029491 150354.000000 0 0 1
8.300960 -20.278188 -33.028083 39.635402 -1.182252 2.555842 0.025210 -0.022800 314098.000000 0 0 1
8.776560 -19.045288 -33.576683 39.587177 -1.138976 2.583319 0.014528 -0.027808 1235420.000000 0 0 1
10.109260 -19.042488 -34.156006 40.391165 -1.082752 2.578542 0.002733 -0.020436 541072.000000 0 0 1
10.534760 -17.572888 -34.538606 40.158472 -1.030752 2.606179 -0.014636 -0.009583 -74975.800000 0 0 1
9.571260 -17.133888 33.616393 38.926097 -1.061362 0.528439 0.001266 -0.015117 662996.000000 0 0 1
9.891760 -15.797088 33.215949 38.087979 -1.011352 0.511350 -0.022336 -0.003313 -10441.000000 0 0 1
8.916260 -15.321588 32.132714 36.698257 -1.043761 0.504136 -0.002701 -0.014769 -175346.000000 0 0 1
9.047560 -15.991688 30.869714 35.923970 -1.055929 0.536883 -0.015470 -0.009343 366434.000000 0 0 1
7.940660 -15.695888 30.031514 34.803833 -1.102434 0.529857 -0.010783 -0.009076 -80821.800000 0 0 1
8.058560 -16.542488 28.745724 34.130791 -1.117487 0.569404 -0.016357 0.006738 -290895.000000 0 0 1
7.686760 -17.904188 28.941064 34.888843 -1.165266 0.592545 -0.014999 -0.006090 225175.000000 0 0 1
7.588660 -18.537888 27.634054 34.130367 -1.182248 0.627221 -0.014876 0.003642 59921.900000 0 0 1
7.044660 -20.012188 27.675224 34.871663 -1.232324 0.654043 0.002732 -0.001276 -131787.000000 0 0 1
7.866660 -20.817688 28.498894 36.158642 -1.209500 0.662978 -0.005036 0.003033 302945.000000 0 0 1
7.166260 -21.854488 29.180694 37.154903 -1.253937 0.667488 -0.006085 0.007838 -89946.400000 0 0 1
7.736660 -22.117788 30.627414 38.562818 -1.234305 0.653071 -0.004124 0.003706 -218237.000000 0 0 1
7.405060 -21.291588 31.752884 38.941138 -1.236089 0.617364 0.022465 -0.006982 154611.000000 0 0 1
7.604060 -19.875788 31.592724 38.091585 -1.205398 0.592784 0.008137 -0.018666 -228343.000000 0 0 1
7.030160 -18.983988 32.726934 38.482037 -1.216135 0.553962 0.017926 -0.024492 -394308.000000 0 0 1
5.628560 -18.929088 32.711564 38.210436 -1.281773 0.543141 0.043211 -0.028883 -403043.000000 0 0 1
5.106460 -18.104788 33.736495 38.626550 -1.295887 0.508652 0.045186 -0.030707 -128329.000000 0 0 1
3.610360 -18.176788 34.062675 38.777521 -1.374723 0.498265 0.047535 -0.033981 -169012.000000 0 0 1
3.306960 -19.200088 -34.114531 39.285883 -1.400233 2.622695 0.040241 -0.030745 -101333.000000 0 0 1
2.460660 -18.675588 -33.116343 38.098879 -1.439793 2.624421 0.028909 -0.043333 -593343.000000 0 0 1
1.929760 -19.737988 -32.160083 37.783370 -1.473337 2.589007 0.014171 -0.016386 -511813.000000 0 0 1
0.874760 -20.561888 -32.687513 38.626803 -1.528279 2.579683 -0.010039 -0.010568 1177270.000000 0 0 1
0.110760 -21.287188 -31.660843 38.151875 -1.565593 2.549659 -0.015775 -0.011751 588874.000000 0 0 1
-0.625140 -20.480888 -30.551773 36.786796 1.540283 2.550818 -0.009502 -0.009636 -708652.000000 0 0 1
-1.561940 -19.614288 -31.150593 36.844530 1.491331 2.578223 -0.004959 -0.013825 -64771.600000 0 0 1
-2.105040 -18.696688 -30.226653 35.604043 1.458680 2.584824 0.015467 -0.007765 172651.000000 0 0 1
-2.485340 -17.294488 -30.813183 35.422146 1.428066 2.625765 0.022476 -0.005661 -100425.000000 0 0 1
-2.982640 -16.387388 -29.861043 34.192463 1.390759 2.632778 0.026762 -0.007899 -426030.000000 0 0 1
-2.629840 -15.069588 -30.198853 33.852315 1.398023 2.672716 0.039066 -0.007771 -292626.000000 0 0 1
-3.482040 -13.987488 -29.540893 32.870028 1.326816 2.687634 0.037813 0.001577 -175541.000000 0 0 1
-3.388240 -13.842988 -28.119563 31.524884 1.330753 2.672502 0.029439 0.001781 90307.800000 0 0 1
-4.112740 -12.684588 -27.710743 30.752214 1.257260 2.693090 0.018589 0.005459 4270.720000 0 0 1
-3.999640 -12.515888 -26.201973 29.311908 1.261488 2.676772 0.005425 -0.002861 226337.000000 0 0 1
-4.815640 -13.551188 -25.570253 29.337057 1.229349 2.629258 0.008814 -0.001052 823857.000000 0 0 1
-4.844340 -13.529088 -24.129033 28.084054 1.226952 2.604446 0.007410 0.002121 -47645.800000 0 0 1
-5.999340 -12.647388 -23.610533 27.448238 1.127875 2.606427 0.008721 -0.000741 214445.000000 0 0 1
-7.309440 -13.189588 -23.574933 27.985185 1.064748 2.572532 0.003829 -0.007182 -67686.200000 0 0 1
-8.234440 -12.248588 -23.078233 27.394137 0.978920 2.572614 0.001064 -0.008505 170791.000000 0 0 1
-9.654140 -12.884288 -23.195533 28.235439 0.927746 2.534840 0.011416 -0.011997 199324.000000 0 0 1
-9.934640 -13.992388 -22.305133 28.142547 0.953388 2.485820 0.010417 -0.011353 144672.000000 0 0 1
-11.116140 -14.659388 -22.760633 29.266237 0.922008 2.461810 0.014174 -0.011768 426532.000000 0 0 1
-11.651840 -15.655988 -21.695433 29.181623 0.930991 2.409029 0.023293 -0.012433 270757.000000 0 0 1
-10.767140 -16.765188 -21.598933 29.385655 0.999901 2.396487 0.023304 -0.007878 -286736.000000 0 0 1
-11.362040 -18.023288 -21.648333 30.374087 1.008317 2.364170 0.017056 -0.000499 114797.000000 0 0 1
-11.817840 -18.477988 -23.125533 31.872992 1.001793 2.382633 0.011119 0.000847 1132020.000000 0 0 1
-13.038940 -17.824688 -23.529933 32.270593 0.939234 2.387868 0.009670 -0.002482 366571.000000 0 0 1
-13.374240 -18.208888 -24.818033 33.561416 0.937296 2.403096 0.011392 -0.003146 -72250.300000 0 0 1
-14.598440 -17.537588 -25.486253 34.208632 0.876604 2.411367 0.012057 -0.007767 -523135.000000 0 0 1
-15.753140 -17.826888 -24.746833 34.327323 0.847075 2.375908 0.015044 -0.009215 -715435.000000 0 0 1
-16.885540 -17.438988 -25.477403 35.190024 0.801521 2.380373 0.012619 -0.009714 -66995.400000 0 0 1
-17.550840 -16.073388 -25.041133 34.546260 0.741486 2.381625 0.009137 -0.002240 -377674.000000 0 0 1
-18.293740 -16.265588 -23.860433 34.184068 0.726779 2.343395 0.017556 -0.007137 65597.900000 0 0 1
-19.167440 -15.152188 -23.728333 34.058968 0.668932 2.341561 0.014747 -0.007118 29588.500000 0 0 1
-19.876240 -15.120688 -22.354133 33.517270 0.650341 2.300896 0.009778 -0.018340 40380.100000 0 0 1
-18.985940 -14.688488 -21.368633 32.137767 0.658467 2.298166 0.006090 -0.011818 345539.000000 0 0 1
-19.582240 -14.863488 -20.043933 31.719815 0.649255 2.254806 0.004116 -0.011505 156722.000000 0 0 1
-20.085340 -13.533288 -19.398633 31.030271 0.592917 2.246122 0.006080 -0.016484 405059.000000 0 0 1
-21.342840 -13.030788 -19.852533 31.928691 0.548138 2.241806 0.010425 -0.023030 371092.000000 0 0 1
-21.624740 -11.829688 -19.182933 31.233889 0.500571 2.232131 0.019470 -0.015794 -63779.800000 0 0 1
-23.078240 -11.326088 -19.236233 32.107913 0.456236 2.213188 0.028679 -0.015504 -47527.300000 0 0 1
-23.485340 -10.763988 -20.505933 32.983601 0.429758 2.241709 0.042828 -0.024240 -65145.600000 0 0 1
-24.872240 -10.533188 -20.339333 33.812199 0.400592 2.216222 0.028690 -0.023762 -107737.000000 0 0 1
-25.280680 -9.526888 -21.450733 34.496497 0.360387 2.241865 0.045233 -0.022657 -286660.000000 0 0 1
-25.412910 -10.094888 -22.729233 35.557570 0.378120 2.264284 0.025275 -0.019610 184725.000000 0 0 1
-25.828770 -9.051488 -23.585833 36.129577 0.337069 2.282087 0.024782 -0.021291 -268314.000000 0 0 1
-26.034350 -9.276588 -25.145523 37.364954 0.342295 2.309014 0.015431 -0.001250 274479.000000 0 0 1
-24.813540 -9.334188 -25.862173 37.036344 0.359799 2.343805 0.000787 -0.008460 138972.000000 0 0 1
-24.210040 -10.625888 -25.887023 37.002344 0.413588 2.345641 -0.000828 0.002316 -417618.000000 0 0 1
-23.095140 -10.729488 -26.916083 37.053784 0.434910 2.383874 -0.014325 0.021156 -562159.000000 0 0 1
-23.519740 -10.819988 -28.259883 38.325857 0.431171 2.399947 -0.016171 0.020746 -333957.000000 0 0 1
-22.519240 -10.997288 -29.218473 38.493839 0.454285 2.432638 -0.024975 0.020286 173338.000000 0 0 1
-23.262340 -11.361288 -30.560243 40.051764 0.454323 2.438767 -0.036637 0.012831 605541.000000 0 0 1
-23.836540 -10.335988 -31.362513 40.726165 0.409149 2.449767 -0.028655 0.014260 -87979.000000 0 0 1
-22.931240 -9.508588 -32.066393 40.552541 0.393077 2.482808 -0.026603 0.006515 -697064.000000 0 0 1
-23.607640 -8.278988 -32.687203 41.162064 0.337290 2.488338 -0.033700 0.009015 -1359630.000000 0 0 1
-24.375340 -8.555488 -33.821343 42.558628 0.337556 2.489310 -0.005706 0.008081 1470050.000000 0 0 1
-25.703250 -9.131988 -33.721813 43.372928 0.341376 2.461454 -0.006572 0.005515 775513.000000 0 0 1
-26.663210 -8.432988 -32.720473 43.042669 0.306323 2.434397 -0.005960 0.008639 -1781340.000000 0 0 1
-27.958150 -8.944188 -32.827503 44.037502 0.309624 2.411997 -0.007144 0.003800 76675.600000 0 0 1
-28.785320 -8.485588 -31.727633 43.671988 0.286669 2.384009 -0.004107 0.007567 276967.000000 0 0 1
-30.265430 -8.884088 -31.704873 44.722726 0.285519 2.358763 0.002314 -0.007035 -68451.500000 0 0 1
-30.357740 -10.260688 -31.630813 45.026463 0.325938 2.349692 -0.008780 -0.013536 304918.000000 0 0 1
-31.714170 -10.676088 -31.577053 46.009539 0.324719 2.327207 -0.007377 -0.015553 103768.000000 0 0 1
-31.834400 -12.203388 -31.692093 46.548259 0.366062 2.319710 -0.002533 -0.021054 91696.500000 0 0 1
-33.152890 -12.697688 -31.908153 47.733380 0.365769 2.302941 0.015560 -0.025743 573065.000000 0 0 1
-32.966950 -14.093088 -31.919213 48.002823 0.403979 2.298216 0.018933 -0.028040 919005.000000 0 0 1
-34.328392 -14.838788 -31.670823 49.006827 0.408004 2.273461 0.005115 -0.035515 618390.000000 0 0 1
-34.756432 -14.760488 -30.324563 48.429956 0.401603 2.247406 0.010499 -0.031819 202900.000000 0 0 1
34.811191 -15.894488 -29.912663 48.571815 -0.428322 2.234253 0.007927 -0.021129 311130.000000 0 0 1
34.687523 -15.802688 -28.376733 47.520397 -0.427478 2.210738 0.005052 0.000636 175010.000000 0 0 1
-34.432047 -15.823388 -27.692543 46.934235 0.430771 2.201891 0.004263 -0.017200 160188.000000 0 0 1
-34.626255 -15.960088 -26.299773 46.318247 0.431901 2.174634 -0.002433 -0.014710 -258302.000000 0 0 1
-33.377610 -15.662588 -25.477613 44.816183 0.438750 2.175467 0.010790 -0.015518 701202.000000 0 0 1
-32.243820 -16.534288 -25.687243 44.417126 0.473827 2.187462 0.004747 -0.016239 2459860.000000 0 0 1
-30.995150 -16.106988 -25.042933 42.980029 0.479253 2.192800 0.007854 -0.001195 2782120.000000 0 0 1
-29.633840 -16.839888 -25.398983 42.507113 0.516758 2.211205 -0.004736 -0.003280 1087070.000000 0 0 1
-29.284600 -18.031388 -24.685833 42.333309 0.551905 2.193373 -0.005500 -0.009389 108395.000000 0 0 1
-30.111580 -19.140088 -25.083003 43.614301 0.566213 2.183534 -0.007416 -0.008709 -8457.440000 0 0 1
-29.835240 -20.384788 -24.177433 43.476768 0.599392 2.160482 -0.011513 -0.007338 63153.000000 0 0 1
-28.639480 -21.128988 -24.366733 43.132257 0.635620 2.171145 -0.007039 -0.006283 57387.500000 0 0 1
-28.659690 -22.316588 -23.620733 43.328362 0.661602 2.147372 -0.011778 0.005466 -827881.000000 0 0 1
-27.439010 -23.247788 -23.726633 43.084940 0.702897 2.153992 -0.002114 -0.002026 1227410.000000 0 0 1
-26.195360 -22.672388 -23.194233 41.691804 0.713431 2.160754 0.002378 -0.009184 1034980.000000 0 0 1
-26.103750 -22.434588 -21.778533 40.731081 0.709949 2.134938 -0.005426 -0.011083 -563840.000000 0 0 1
-26.088730 -23.599788 -20.753233 40.844443 0.735349 2.103779 0.001747 -0.006370 -36142.600000 0 0 1
-25.936360 -23.135988 -19.396033 39.801693 0.728394 2.079811 -0.009615 -0.003142 -171048.000000 0 0 1
-25.815120 -24.256988 -18.510233 39.968120 0.754290 2.052314 -0.011646 0.021483 -88933.700000 0 0 1
-25.684440 -23.835388 -17.006533 38.949176 0.748076 2.022650 -0.021288 0.025497 395339.000000 0 0 1
-26.862500 -23.150988 -16.562333 39.139149 0.711324 2.007732 -0.020993 0.015335 339700.000000 0 0 1
-26.594170 -22.287888 -15.468133 37.990301 0.697530 1.990139 -0.031062 0.013526 183487.000000 0 0 1
-27.904400 -21.686288 -14.876333 38.343916 0.660660 1.969226 -0.031422 0.006685 822815.000000 0 0 1
-28.739610 -20.957088 -15.773633 38.909796 0.630059 1.988201 -0.026368 0.008245 -462367.000000 0 0 1
-29.902430 -20.482088 -15.189733 39.298845 0.600563 1.967650 -0.015130 0.004557 -629399.000000 0 0 1
-30.862050 -19.786088 -16.158633 40.063160 0.570103 1.985948 0.003526 -0.010246 -37919.300000 0 0 1
-31.578390 -20.782388 -16.927533 41.420330 0.582063 1.991800 0.003977 -0.005320 62269.800000 0 0 1
-32.356840 -20.112688 -17.916433 42.100877 0.556143 2.010377 0.007439 -0.006045 -235950.000000 0 0 1
-33.000110 -21.109488 -18.913033 43.500811 0.569086 2.020584 -0.001556 -0.007256 379511.000000 0 0 1
-34.139517 -21.841388 -18.464833 44.536534 0.569149 1.998299 -0.001548 -0.003742 180592.000000 0 0 1
-34.013450 -22.696588 -17.373833 44.428594 0.588429 1.972569 0.002390 -0.000842 -94819.500000 0 0 1
-35.114172 -23.798088 -17.479833 45.879174 0.595626 1.961671 -0.004843 0.009689 444169.000000 0 0 1
33.902097 -23.448888 -17.208733 44.669262 -0.605110 1.966273 -0.003531 0.001808 -11669.100000 0 0 1
33.183247 -24.670588 -17.230233 44.795610 -0.639306 1.965615 -0.008223 0.005049 458778.000000 0 0 1
31.802677 -24.604088 -16.507033 43.465544 -0.658465 1.960347 -0.000501 0.002801 619105.000000 0 0 1
30.675357 -24.335788 -17.304033 42.809317 -0.670663 1.986913 0.001068 0.006096 65283.700000 0 0 1
29.436257 -24.683688 -16.720233 41.896824 -0.697807 1.981311 0.023322 0.005453 330661.000000 0 0 1
28.218907 -24.468188 -17.625533 41.299617 -0.714329 2.011717 0.043452 0.002501 -261933.000000 0 0 1
28.046187 -23.185988 -18.247133 40.707941 -0.690815 2.035597 0.033880 0.004513 -652148.000000 0 0 1
26.809567 -23.176088 -18.861033 40.145018 -0.712835 2.059886 0.042378 -0.001169 -741448.000000 0 0 1
33.213057 30.353412 -18.766033 48.750393 0.740442 1.965940 0.014698 0.007356 -242092.000000 0 0 1
32.478817 30.617812 -19.893433 48.867910 0.755912 1.990058 0.001151 -0.000457 -364216.000000 0 0 1
32.871777 29.732112 -20.930933 49.016897 0.735289 2.011985 0.008420 0.007423 -563079.000000 0 0 1
32.028767 29.800712 -22.142433 49.032762 0.749378 2.039337 0.008028 0.002931 135118.000000 0 0 1
30.661257 29.381812 -21.945133 47.801594 0.764093 2.047765 0.002275 -0.000347 663534.000000 0 0 1
30.001637 29.427512 -23.181333 47.994280 0.775738 2.074876 0.010260 0.005971 -28884.000000 0 0 1
28.813247 30.408112 -23.122033 47.848562 0.812322 2.075141 0.004985 0.010751 -492225.000000 0 0 1
29.297397 31.751412 -23.131333 49.005594 0.825574 2.062370 0.029294 -0.005560 -244892.000000 0 0 1
28.255167 32.645612 -22.898233 48.871459 0.857365 2.058434 0.026710 0.002650 -761938.000000 0 0 1
28.663837 34.134712 -22.756133 50.046336 0.872297 2.042833 0.037809 -0.003896 226186.000000 0 0 1
29.345017 34.525012 -21.568133 50.182575 0.866323 2.015060 0.035881 -0.010859 -71158.500000 0 0 1
30.711877 34.177312 -21.574233 50.761753 0.838753 2.009769 0.027796 -0.011902 -370971.000000 0 0 1
31.354197 34.031812 -20.179333 50.482228 0.826326 1.982020 0.023532 -0.012005 -184135.000000 0 0 1
31.377537 -33.940118 -19.318233 50.096663 -0.824611 1.966675 0.025271 -0.011413 148730.000000 0 0 1
31.436927 -34.295818 -17.935533 49.861477 -0.828863 1.938750 0.003359 -0.016396 -533685.000000 0 0 1
31.329627 -33.104618 -17.015933 48.651858 -0.812939 1.928099 0.003979 -0.008881 585822.000000 0 0 1
32.470447 -32.257118 -17.123733 48.867923 -0.782102 1.928803 0.005271 -0.003750 720401.000000 0 0 1
33.691967 -32.648818 -16.515733 49.737948 -0.769675 1.909278 0.000029 -0.008591 305114.000000 0 0 1
34.856519 -31.641518 -16.678233 49.943228 -0.737088 1.911281 -0.004568 0.006760 -121882.000000 0 0 1
-34.680775 -31.920118 -17.749433 50.365588 0.743971 1.930943 -0.008309 0.003984 -269528.000000 0 0 1
-33.503280 -31.097318 -17.800633 49.054822 0.748172 1.942145 -0.029179 0.018378 100461.000000 0 0 1
-32.501660 -31.765818 -18.719233 49.151142 0.773949 1.961512 -0.050886 0.009743 -1499080.000000 0 0 1
-32.033690 -32.952218 -18.117533 49.398897 0.799531 1.946320 -0.029839 0.003923 346329.000000 0 0 1
-31.212260 -33.807818 -18.946333 49.760801 0.825296 1.961402 -0.038123 0.013629 671184.000000 0 0 1
-29.878140 -33.227318 -19.499933 48.754542 0.838421 1.982271 -0.040854 0.012836 -1184670.000000 0 0 1
-29.991050 -32.330518 -20.590133 48.669077 0.822919 2.007620 -0.044440 0.015054 235731.000000 0 0 1
-28.801700 -31.794818 -21.202733 47.853989 0.834752 2.029818 -0.021942 0.004269 357966.000000 0 0 1
-28.200780 -32.901918 -22.147433 48.665481 0.862185 2.043276 -0.015057 0.016106 -167710.000000 0 0 1
-28.951400 -33.278918 -23.292533 49.881981 0.854827 2.056638 -0.023330 0.021464 -401425.000000 0 0 1
-28.388700 -34.445618 -23.729733 50.552143 0.881496 2.059420 -0.021303 0.011877 -177885.000000 0 0 1
-29.031820 33.936212 -24.929233 51.146649 -0.863128 2.079914 -0.032460 -0.000378 -750794.000000 0 0 1
-30.075610 33.040612 -24.661133 51.033282 -0.832341 2.075144 -0.031235 0.000996 -309463.000000 0 0 1
-30.643650 32.334412 -25.732193 51.446023 -0.812239 2.094601 -0.014862 -0.001272 106762.000000 0 0 1
-31.510780 33.149212 -26.724043 52.971445 -0.810732 2.099598 -0.012353 -0.017596 -656645.000000 0 0 1
-30.851200 34.079212 -27.587963 53.612358 -0.835072 2.111317 -0.021786 -0.013250 -335861.000000 0 0 1
-31.806060 -34.125518 -28.083743 54.450648 0.820563 2.112697 -0.022298 -0.017955 409378.000000 0 0 1
-31.181710 -33.148718 -29.174133 54.057993 0.815965 2.140856 -0.003555 -0.018749 269901.000000 0 0 1
-31.036980 -33.733518 -30.445933 55.029076 0.827006 2.157081 0.006721 -0.012279 563800.000000 0 0 1
-32.247080 -33.950618 -31.165733 56.247858 0.811127 2.158052 0.009383 -0.008656 140236.000000 0 0 1
-31.855620 34.299712 -32.390293 56.924352 -0.822326 2.176093 0.026795 -0.003968 -81427.200000 0 0 1
-30.948430 -34.208818 -33.249863 56.864769 0.835395 2.195329 0.042767 -0.028274 -355564.000000 0 0 1
-30.911550 34.262712 -34.497086 57.615157 -0.836771 2.212736 0.033037 -0.031997 -651431.000000 0 0 1
-29.888780 -34.265918 33.602549 56.538691 0.853520 0.934366 0.044764 -0.034745 817293.000000 0 0 1
-28.599950 34.219612 33.726294 55.914237 -0.874618 0.923316 0.048194 -0.029675 466809.000000 0 0 1
-28.496470 32.982412 33.110376 54.737421 -0.858236 0.921163 0.055505 -0.028823 245131.000000 0 0 1
-27.100230 32.255412 33.311043 53.707166 -0.872033 0.901755 0.038940 -0.019330 790114.000000 0 0 1
-26.822510 31.768412 -34.497664 54.025622 -0.869613 2.263399 0.037657 -0.022953 772336.000000 0 0 1
-25.418170 31.490512 -34.371028 53.095228 -0.891699 2.274895 0.032123 -0.019280 688274.000000 0 0 1
-24.905440 30.134412 34.256400 51.979464 -0.880117 0.851258 0.039776 -0.017895 -629451.000000 0 0 1
-25.101570 29.101212 -33.918733 51.258656 -0.859055 2.293903 0.038687 -0.016267 190977.000000 0 0 1
-24.816840 27.853912 -34.463435 50.788230 -0.842996 2.316612 0.033350 -0.016099 -403343.000000 0 0 1
-24.727440 26.702212 -33.391533 49.390777 -0.823777 2.313210 0.039711 -0.024735 -20854.600000 0 0 1
-23.629740 26.668812 -32.471213 48.207570 -0.845745 2.309826 0.034753 -0.014051 294100.000000 0 0 1
-23.626140 27.759212 -31.494033 48.173047 -0.865658 2.283351 0.021760 -0.009188 -630130.000000 0 0 1
-22.408640 27.729812 -30.603573 46.985831 -0.891132 2.280140 0.039326 0.000235 -1156520.000000 0 0 1
-21.226040 28.191912 -31.182323 47.092101 -0.925434 2.294489 0.031696 -0.003677 -1010530.000000 0 0 1
-20.186240 28.147912 -30.264673 45.997170 -0.948654 2.288914 0.010788 -0.000403 -393261.000000 0 0 1
-19.996140 29.399612 -29.325473 46.088677 -0.973517 2.260468 0.007982 0.007472 -495471.000000 0 0 1
-19.706940 30.625712 -29.978833 47.170204 -0.999020 2.259512 0.002209 0.015666 159229.000000 0 0 1
-19.405140 31.657212 -29.069333 47.156809 -1.020890 2.235009 0.009866 0.006550 -138326.000000 0 0 1
-19.076040 32.969012 -29.790443 48.356195 -1.046257 2.234531 0.005708 0.011646 547957.000000 0 0 1
-17.766540 33.068112 -30.368143 48.284305 -1.077778 2.250991 0.011037 0.010934 442329.000000 0 0 1
-17.595040 34.195512 -31.220913 49.534472 -1.095583 2.252719 0.006302 0.019295 -547069.000000 0 0 1
-16.160240 34.354412 -31.705183 49.463093 -1.131110 2.266579 0.024663 0.015241 -293805.000000 0 0 1
-15.204440 -34.395418 -30.739303 48.570820 1.154575 2.256058 0.043686 0.008154 574512.000000 0 0 1
-13.822040 -34.299318 -31.084543 48.308807 1.187721 2.269800 0.053491 0.017265 1169630.000000 0 0 1
-13.045940 33.453612 -30.975213 47.421562 -1.198965 2.282584 0.055299 0.007984 -203380.000000 0 0 1
-12.966140 32.862012 -29.673303 46.136076 -1.194986 2.269426 0.063340 -0.006949 43344.900000 0 0 1
-12.632940 31.476012 -29.769233 45.128015 -1.189126 2.291165 0.053317 -0.009275 -206828.000000 0 0 1
-12.414440 30.764712 -28.460963 43.710551 -1.187252 2.279860 0.047989 -0.024856 758982.000000 0 0 1
-11.163140 31.128712 -27.835083 43.225042 -1.226470 2.270456 0.033197 -0.012711 740447.000000 0 0 1
-10.970240 30.596812 -26.543293 41.964955 -1.226532 2.255587 0.020576 -0.019654 244201.000000 0 0 1
-9.660340 31.123212 -25.869753 41.607939 -1.269835 2.241772 0.015322 -0.006760 578727.000000 0 0 1
-8.535740 30.416512 -26.361813 41.145695 -1.297205 2.266199 0.015725 -0.000999 -489013.000000 0 0 1
-7.346540 30.876412 -25.775533 40.886460 -1.337206 2.252887 0.014201 -0.001324 -223624.000000 0 0 1
-6.145940 30.071612 -26.311273 40.427188 -1.369196 2.279475 0.000517 0.001382 -277043.000000 0 0 1
-5.967240 28.792012 -25.704583 39.055262 -1.366436 2.289168 0.006475 -0.007653 695458.000000 0 0 1
-4.666340 28.217612 -25.935073 38.608760 -1.406910 2.307352 0.016603 -0.008147 800206.000000 0 0 1
-4.409340 26.942812 -25.080763 37.072929 -1.408579 2.313830 0.018361 -0.013676 -376507.000000 0 0 1
-5.272540 25.847312 -25.269113 36.529595 -1.369569 2.334697 0.022325 -0.014771 -135457.000000 0 0 1
-5.087340 24.767112 -24.345633 35.099868 -1.368207 2.337285 0.024428 -0.026203 -1091050.000000 0 0 1
-5.956240 23.581412 -24.568733 34.571411 -1.323389 2.361241 0.029563 -0.028264 -690938.000000 0 0 1
-5.864040 22.949012 -25.815303 35.035325 -1.320625 2.399175 0.024939 -0.028905 -128391.000000 0 0 1
-6.523940 21.744312 -25.774293 34.346631 -1.279312 2.419489 0.025797 -0.031116 -507503.000000 0 0 1
-6.488240 20.899812 -27.109853 34.840257 -1.269785 2.462461 0.015549 -0.026606 1144220.000000 0 0 1
-5.266740 20.113412 -27.338323 34.346351 -1.314694 2.491388 0.024415 -0.026439 1131020.000000 0 0 1
-5.205040 18.944112 -26.462303 32.957932 -1.302655 2.502960 0.028258 -0.021501 -788204.000000 0 0 1
-4.060540 18.023212 -26.795813 32.547500 -1.349201 2.537968 0.030456 -0.021603 -638359.000000 0 0 1
-4.083740 17.371012 -28.001263 33.203911 -1.339900 2.574213 0.020186 -0.018186 -883212.000000 0 0 1
-2.955640 16.623212 -28.205613 32.872840 -1.394833 2.602202 0.017396 -0.016997 -1246500.000000 0 0 1
-2.689240 16.437112 -29.727663 34.075572 -1.408625 2.630895 0.010372 -0.018939 -174564.000000 0 0 1
-2.142540 17.575712 -30.330333 35.120154 -1.449491 2.613195 0.014026 -0.020372 63263.900000 0 0 1
-1.968240 17.481912 -31.733153 36.283388 -1.458681 2.635390 0.008242 -0.019854 16560.200000 0 0 1
-1.249040 18.733212 -32.323593 37.380583 -1.504220 2.615381 0.012893 -0.014153 792529.000000 0 0 1
0.125160 18.798512 -31.899523 37.026737 1.564138 2.609065 0.018975 -0.019923 641331.000000 0 0 1
0.755460 20.010812 -32.280803 37.987545 1.533062 2.586351 0.022489 -0.011194 133864.000000 0 0 1
0.411160 21.312312 -31.451923 37.994831 1.551507 2.545962 0.015031 -0.012046 -368203.000000 0 0 1
1.053960 21.423912 -30.212643 37.052647 1.521640 2.524212 0.023657 -0.029652 -382767.000000 0 0 1
0.718760 22.564112 -29.470303 37.123504 1.538953 2.487902 0.024085 -0.025566 -669042.000000 0 0 1
1.625960 22.656512 -28.250503 36.249858 1.499153 2.464388 0.025801 -0.016929 582543.000000 0 0 1
2.955460 22.778112 -28.785113 36.826076 1.441767 2.468104 0.023293 -0.020640 985631.000000 0 0 1
4.041760 22.925812 -27.838513 36.289275 1.396292 2.445148 0.019640 -0.020242 858141.000000 0 0 1
4.383260 24.384112 -27.461713 36.985721 1.392937 2.407584 0.026052 -0.024319 -381789.000000 0 0 1
5.063960 25.020012 -28.523333 38.278260 1.371098 2.411567 0.018106 -0.029705 102737.000000 0 0 1
5.383260 26.360012 -28.275013 39.029554 1.369346 2.381034 0.022710 -0.024700 -303114.000000 0 0 1
6.110460 26.949312 -29.486853 40.411355 1.347827 2.388632 0.034112 -0.018276 -463222.000000 0 0 1
7.478060 26.594712 -29.499743 40.415776 1.296688 2.388982 0.048422 -0.017016 -328100.000000 0 0 1
8.181960 27.488812 -30.305553 41.725362 1.281500 2.383735 0.066136 -0.024109 -690683.000000 0 0 1
9.676760 27.242212 -30.197463 41.805078 1.229486 2.377976 0.060009 -0.023456 -355768.000000 0 0 1
10.543760 28.143112 -30.877953 43.088904 1.212334 2.369726 0.059221 -0.017418 474376.000000 0 0 1
11.887060 28.007512 -30.416693 43.022066 1.169414 2.356047 0.052389 -0.029111 629226.000000 0 0 1
12.911360 28.973012 -31.038843 44.379595 1.151579 2.345346 0.057040 -0.023135 -610402.000000 0 0 1
12.523960 30.321212 -30.822633 45.014000 1.179097 2.325035 0.046593 -0.015878 -171750.000000 0 0 1
13.306560 31.224612 -31.519483 46.319745 1.167947 2.319209 0.082220 -0.023695 -417163.000000 0 0 1
12.847860 32.705212 -31.342923 47.085849 1.196479 2.299167 0.079977 -0.029059 773480.000000 0 0 1
11.603860 33.082912 -31.959253 47.439672 1.233453 2.309976 0.065812 -0.031405 682193.000000 0 0 1
11.335960 34.444412 -31.677623 48.149697 1.252853 2.288821 0.053708 -0.026159 368376.000000 0 0 1
10.013960 -34.140918 -32.319993 48.067282 -1.285486 2.308230 0.006402 -0.015312 277805.000000 0 0 1
10.093260 -33.998118 -33.721623 48.937652 -1.282207 2.331006 0.005628 -0.002427 613058.000000 0 0 1
8.752960 -33.889818 -34.203870 48.939134 -1.318043 2.344664 0.004425 -0.007259 621457.000000 0 0 1
8.673160 -33.419718 33.421970 48.053401 -1.316876 0.801657 0.007201 0.006674 -3556.750000 0 0 1
8.913460 -32.042518 33.274666 47.046532 -1.299480 0.785165 -0.021261 -0.000673 114700.000000 0 0 1
9.142860 -31.728818 31.904364 45.915120 -1.290240 0.802578 -0.009708 0.013763 -203393.000000 0 0 1
9.178360 -30.182718 31.669744 44.701359 -1.275589 0.783463 -0.034159 -0.001403 1017130.000000 0 0 1
7.882060 -29.522418 31.615954 43.968950 -1.309896 0.768359 -0.035426 0.007672 463660.000000 0 0 1
7.419760 -29.149918 32.897024 44.575607 -1.321551 0.740687 -0.024180 0.002256 -621600.000000 0 0 1
5.962560 -28.657718 32.831924 43.985818 -1.365662 0.728129 -0.031798 0.001041 934502.000000 0 0 1
4.886560 -29.560918 32.428434 44.151214 -1.406973 0.745888 -0.004118 -0.011089 506527.000000 0 0 1
5.060460 -30.265418 31.182184 43.748513 -1.405126 0.777371 -0.019491 -0.010178 -1593450.000000 0 0 1
4.730960 -29.535918 29.887004 42.284577 -1.411969 0.785823 -0.010022 0.000425 -293233.000000 0 0 1
3.399260 -29.739118 29.483194 42.014627 -1.456988 0.792964 0.006771 -0.008983 -43544.100000 0 0 1
3.154660 -28.961318 28.291794 40.609549 -1.462297 0.800040 0.016455 -0.008806 -194894.000000 0 0 1
1.718260 -29.112118 27.735964 40.246137 -1.511843 0.810469 0.015635 -0.020214 42869.900000 0 0 1
1.363960 -30.340118 27.132474 40.725352 -1.525871 0.841654 0.013145 -0.022174 101236.000000 0 0 1
1.032360 -31.384718 28.019134 42.084893 -1.537914 0.842262 0.020988 -0.020403 -720920.000000 0 0 1
0.870160 -32.814318 27.387914 42.750842 -1.544285 0.875464 0.007120 -0.018154 -781649.000000 0 0 1
2.031160 -33.498318 27.061224 43.111168 -1.510236 0.892191 0.004934 -0.015902 -373710.000000 0 0 1
2.560060 -33.004018 25.805984 41.973419 -1.493383 0.908642 0.008488 -0.020588 57942.600000 0 0 1
4.103560 -32.894118 25.923094 42.081695 -1.446687 0.907118 0.006192 -0.011111 -61014.600000 0 0 1
4.732460 -32.495318 24.739644 41.114376 -1.426178 0.925134 0.012463 -0.015788 1404900.000000 0 0 1
6.142760 -32.208418 24.920504 41.184308 -1.382340 0.920909 0.001848 -0.012321 1349880.000000 0 0 1
7.095160 -32.397518 23.691764 40.758314 -1.355197 0.950502 0.005959 -0.013018 160442.000000 0 0 1
8.270260 -31.640518 23.765464 40.426685 -1.315134 0.942378 0.002420 -0.002844 247772.000000 0 0 1
9.065660 -31.564718 22.573364 39.850651 -1.291116 0.968606 0.012614 -0.008661 779781.000000 0 0 1
10.216260 -30.496118 22.608864 39.313432 -1.247545 0.958079 0.009218 -0.008223 751553.000000 0 0 1
11.352760 -30.803418 23.413464 40.322773 -1.217688 0.951268 0.019019 -0.008484 553335.000000 0 0 1
12.208060 -29.653718 23.530264 39.775031 -1.180255 0.937774 0.023292 -0.004550 860453.000000 0 0 1
13.612260 -29.911018 24.181004 40.800534 -1.143716 0.936434 0.042034 -0.007918 401532.000000 0 0 1
13.519660 -30.270718 25.553204 41.857662 -1.150753 0.914132 0.034057 -0.000543 104143.000000 0 0 1
14.712960 -29.954418 26.220964 42.441458 -1.114231 0.904836 0.025270 0.002636 -213712.000000 0 0 1
-10.498140 -13.985888 25.710534 31.094172 0.926896 0.597295 0.018762 -0.009388 496541.000000 0 0 1
-9.072240 -13.898388 25.718704 30.609189 0.992487 0.573092 0.011183 -0.009835 694117.000000 0 0 1
-8.525440 -14.560788 26.877804 31.735091 1.041102 0.560588 0.018399 -0.015138 162229.000000 0 0 1
-6.979540 -14.695888 26.948494 31.478634 1.127404 0.543143 0.032117 -0.014786 244032.000000 0 0 1
-6.484840 -15.704188 26.127094 31.165681 1.179187 0.576586 0.027441 -0.009013 205.709000 0 0 1
-6.212940 -15.300988 24.786314 29.783925 1.185087 0.587725 0.016772 -0.006307 -636039.000000 0 0 1
-5.774740 -16.437688 23.856464 29.541091 1.232954 0.630778 0.023438 -0.002742 442166.000000 0 0 1
-6.776140 -17.452988 23.693164 30.197498 1.200459 0.668735 0.024115 -0.002042 259627.000000 0 0 1
-6.641540 -18.396288 24.675694 31.486875 1.224333 0.670225 0.032998 -0.009096 -201621.000000 0 0 1
-7.229740 -19.809788 24.276484 32.156562 1.220859 0.715224 0.045871 -0.012178 -1223970.000000 0 0 1
-8.573340 -19.787988 24.034464 32.291207 1.161950 0.731305 0.035697 -0.014540 -1588360.000000 0 0 1
-9.055140 -21.033488 23.576364 32.867128 1.164267 0.770843 0.027036 -0.021546 -37809.100000 0 0 1
-10.586040 -21.098688 23.680264 33.436115 1.105758 0.783817 0.030331 -0.021097 -38001.600000 0 0 1
-11.159340 -21.094188 24.988594 34.553226 1.084200 0.762384 0.033162 -0.014099 -418450.000000 0 0 1
-12.543740 -21.168288 25.109814 35.156003 1.035856 0.775259 0.030768 -0.009014 -555606.000000 0 0 1
-12.988440 -21.032788 26.589704 36.305510 1.017585 0.748974 0.031216 -0.014096 -339890.000000 0 0 1
-12.682940 -22.172388 27.365814 37.434737 1.051208 0.750970 0.033669 -0.011145 253508.000000 0 0 1
-11.531240 -21.988588 28.184284 37.560902 1.087805 0.722186 0.036612 -0.006802 247964.000000 0 0 1
-11.117540 -23.258988 28.941404 38.758032 1.124912 0.727679 0.036547 0.001378 -97297.700000 0 0 1
-12.064340 -23.681388 29.928924 40.026203 1.099622 0.726155 0.041244 -0.000556 110188.000000 0 0 1
-11.781140 -24.925688 30.466614 41.088925 1.129267 0.735523 0.026587 0.005246 -356470.000000 0 0 1
-12.762440 -25.443958 31.562444 42.502503 1.105877 0.733849 0.034609 -0.006837 117973.000000 0 0 1
-12.696340 -24.797488 32.856384 43.077307 1.097594 0.703271 0.034018 -0.009515 133190.000000 0 0 1
-13.761640 -25.183338 33.736025 44.291112 1.070676 0.704881 0.030664 -0.012269 185080.000000 0 0 1
-13.608640 -24.513888 -33.994003 44.064929 1.064015 2.451917 0.037962 -0.022358 65121.200000 0 0 1
-13.881040 -23.092988 -33.838393 43.255129 1.029573 2.469143 0.045909 -0.021050 734462.000000 0 0 1
-15.199340 -22.654788 -34.213917 43.759016 0.979861 2.468458 0.036985 -0.021287 264352.000000 0 0 1
-15.520040 -21.177488 -33.968073 42.932361 0.938358 2.483565 0.036717 -0.022095 -239506.000000 0 0 1
-15.732740 -20.800488 -32.635433 41.776200 0.923235 2.467377 0.038257 -0.025444 184556.000000 0 0 1
-15.708140 -19.391388 -32.433273 40.922961 0.889953 2.485767 0.023647 -0.024221 -453119.000000 0 0 1
-15.802440 -18.904688 -30.955983 39.564848 0.874545 2.469325 0.021064 -0.015315 478649.000000 0 0 1
-17.080640 -19.121288 -30.324243 39.710598 0.841707 2.439715 0.020806 -0.020604 620922.000000 0 0 1
-17.105740 -19.312288 -28.897803 38.738273 0.845914 2.412795 0.022233 -0.016996 -305933.000000 0 0 1
-16.280340 -20.473988 -28.347073 38.571883 0.899006 2.396338 0.020757 -0.014828 -1110600.000000 0 0 1
-14.932540 -20.187188 -28.387503 37.899256 0.933917 2.417386 0.015630 -0.009313 -1350140.000000 0 0 1
-14.206440 -21.151988 -27.701583 37.637843 0.979361 2.397944 0.020481 -0.010698 -112277.000000 0 0 1
-12.677340 -21.062088 -27.849553 37.147329 1.028979 2.418413 0.025065 -0.014951 -346180.000000 0 0 1
-12.049740 -19.867788 -27.318843 35.864250 1.025614 2.436774 0.011113 -0.013432 655421.000000 0 0 1
-10.626640 -19.881088 -27.329063 35.426837 1.079923 2.451870 -0.007163 -0.021240 500544.000000 0 0 1
-9.869440 -20.811188 -26.407923 35.041258 1.127971 2.424354 0.006136 -0.011225 -1038340.000000 0 0 1
-9.811140 -22.132188 -26.922553 36.206575 1.153530 2.409208 0.005803 -0.012479 261431.000000 0 0 1
-9.288440 -23.019488 -25.948743 35.909737 1.187273 2.378367 0.017888 -0.013427 -395696.000000 0 0 1
-9.455140 -24.501588 -26.338793 37.194885 1.202505 2.357642 0.025335 -0.013404 -695718.000000 0 0 1
-8.561940 -24.929288 -27.369713 37.998387 1.239969 2.375011 0.009894 -0.002520 411731.000000 0 0 1
-8.699940 -26.255138 -27.906113 39.290868 1.250822 2.360641 0.008179 -0.006477 -569377.000000 0 0 1
-8.412640 -27.420568 -26.957863 39.362246 1.273112 2.325216 0.014674 -0.000238 435791.000000 0 0 1
-9.547340 -27.673728 -26.115163 39.229946 1.238586 2.299221 0.020067 -0.001558 574417.000000 0 0 1
-9.294340 -28.831858 -25.373413 39.515451 1.258951 2.268049 0.043949 0.007025 -512508.000000 0 0 1
-10.295040 -29.149698 -24.259033 39.296226 1.231293 2.236150 0.047777 0.001317 -360564.000000 0 0 1
-10.365140 -28.194848 -23.220933 37.968372 1.218507 2.228860 0.040588 -0.003109 -75357.500000 0 0 1
-11.174340 -27.062408 -23.496533 37.541002 1.179210 2.247068 0.029192 -0.004315 -284346.000000 0 0 1
-11.152140 -25.977118 -22.411333 36.075597 1.165284 2.241111 0.032617 -0.010655 -143526.000000 0 0 1
-11.656540 -26.417328 -21.188233 35.814681 1.155246 2.203848 0.039486 -0.013331 99293.000000 0 0 1
-11.864240 -25.377928 -20.236233 34.558711 1.133483 2.196368 0.027742 -0.006959 -195725.000000 0 0 1
-12.278940 -25.937658 -18.869033 34.344939 1.128653 2.152440 0.041740 -0.011078 845223.000000 0 0 1
-13.659340 -26.341988 -18.857833 35.158153 1.092428 2.136928 0.050120 -0.011380 622672.000000 0 0 1
-14.053040 -26.604298 -17.521133 34.817620 1.084825 2.098124 0.055027 -0.011206 -428647.000000 0 0 1
-15.539540 -26.873228 -17.260933 35.518833 1.046520 2.078264 0.055403 -0.013639 -981897.000000 0 0 1
-16.224840 -25.639098 -17.361733 34.957668 1.006596 2.090531 0.057252 -0.014144 473240.000000 0 0 1
-17.617240 -25.660698 -17.027133 35.479033 0.969157 2.071361 0.055488 -0.006622 1243780.000000 0 0 1
-18.631840 -26.268298 -18.067333 36.926920 0.953863 2.082052 0.039292 -0.003223 -512300.000000 0 0 1
-18.446040 -27.669648 -18.408633 38.009782 0.982804 2.076374 0.041072 -0.004903 -114368.000000 0 0 1
-18.694940 -28.624538 -17.350133 38.339171 0.992239 2.040412 0.047448 -0.007872 -429238.000000 0 0 1
-20.184240 -29.002538 -17.191033 39.294813 0.962795 2.023600 0.041137 -0.002815 129435.000000 0 0 1
-20.707340 -29.756498 -18.255133 40.589321 0.962832 2.037284 0.043138 -0.008837 -570995.000000 0 0 1
-21.893640 -30.411628 -17.934033 41.543087 0.946832 2.017170 0.037141 0.002014 -379729.000000 0 0 1
-22.352140 -31.494638 -18.903333 42.998446 0.953582 2.025981 0.025253 -0.001346 -77482.900000 0 0 1
-21.539440 -32.636438 -19.019733 43.483730 0.987436 2.023500 0.027983 -0.002219 18191.300000 0 0 1
-22.059140 -33.450398 -20.040833 44.801448 0.987801 2.034569 0.026488 0.004476 12448.100000 0 0 1
-21.355540 34.312277 -20.057833 45.118822 -1.014078 2.031475 0.031382 0.007306 -66959.900000 0 0 1
-21.953840 33.443530 -19.130233 44.344183 -0.989904 2.016844 0.027053 0.005509 185299.000000 0 0 1
-21.272140 32.174263 -19.121833 43.050338 -0.986620 2.031048 0.022093 -0.004292 184045.000000 0 0 1
-22.162840 30.964453 -18.778633 42.457342 -0.949577 2.028951 0.020621 -0.009229 -9829.120000 0 0 1
-22.749940 30.889503 -17.513833 42.171738 -0.935995 1.999067 0.011456 -0.010314 231813.000000 0 0 1
-23.546040 29.677283 -17.337033 41.662091 -0.900091 1.999986 0.014839 -0.003922 140386.000000 0 0 1
-22.754540 28.389613 -16.912033 40.121766 -0.895136 2.005915 0.006294 -0.003014 -136252.000000 0 0 1
-21.826240 27.989403 -17.878833 39.742221 -0.908492 2.037416 0.001306 -0.007941 -148733.000000 0 0 1
-21.342740 26.681713 -17.534733 38.404338 -0.896115 2.044946 -0.001034 -0.012740 -148557.000000 0 0 1
-20.561240 26.041073 -18.667333 38.070611 -0.902448 2.083270 0.012761 -0.015416 -740713.000000 0 0 1
-20.145040 24.682003 -18.397733 36.789951 -0.886265 2.094482 0.014528 -0.024054 35300.300000 0 0 1
-19.477740 23.977643 -19.402633 36.479746 -0.888583 2.131608 0.005154 -0.009965 -1643780.000000 0 0 1
-18.160840 24.449103 -19.880833 36.370624 -0.931918 2.149116 0.000631 -0.016980 -2177600.000000 0 0 1
-17.157840 24.101743 -18.944033 35.130640 -0.952134 2.140337 0.012242 -0.017964 -374148.000000 0 0 1
-16.003040 24.880723 -19.000433 35.159126 -0.999223 2.141724 0.030204 -0.023653 -520148.000000 0 0 1
-15.997640 26.197923 -18.170433 35.671001 -1.022586 2.105272 0.015147 -0.021009 -722105.000000 0 0 1
-16.975340 27.150783 -18.525733 36.993648 -1.012035 2.095298 0.011626 -0.016682 -149406.000000 0 0 1
-16.940540 28.266883 -17.632733 37.375284 -1.030887 2.062099 0.024448 -0.018118 301697.000000 0 0 1
-18.094240 29.323433 -17.854733 38.807947 -1.017929 2.048881 0.024161 -0.014415 599711.000000 0 0 1
-18.074640 30.033743 -19.084933 39.911815 -1.029046 2.069375 0.021047 -0.019714 169094.000000 0 0 1
-18.484040 29.282693 -20.278333 40.129124 -1.007731 2.100557 0.015087 -0.018295 -51427.500000 0 0 1
-18.314440 30.062583 -21.647233 41.325299 -1.023632 2.122132 0.028713 -0.020287 567395.000000 0 0 1
-19.357540 31.034913 -21.794733 42.578053 -1.013108 2.108165 0.033302 -0.016184 401344.000000 0 0 1
-19.659340 31.270783 -23.150833 43.592575 -1.009555 2.130663 0.027869 -0.014961 168210.000000 0 0 1
-20.397440 32.607263 -23.450033 45.046567 -1.011802 2.118318 0.024975 -0.011637 -111776.000000 0 0 1
-19.674440 33.765824 -23.104533 45.398611 -1.043215 2.104733 0.012061 -0.009236 -208335.000000 0 0 1
-19.715240 -34.414333 -24.154733 46.438003 1.050558 2.117823 0.013924 -0.001868 804734.000000 0 0 1
-18.488140 -33.380988 -24.185433 45.177836 1.065000 2.135705 0.033342 0.001575 889482.000000 0 0 1
-18.525540 -32.426018 -23.177633 43.952758 1.051734 2.126252 0.025494 -0.002779 111488.000000 0 0 1
-18.164540 -32.946348 -21.905433 43.534588 1.066927 2.098063 0.031762 -0.007329 -472783.000000 0 0 1
-18.110940 -31.860328 -20.870133 42.174033 1.053900 2.088467 0.040394 -0.015236 -156488.000000 0 0 1
-16.995840 -31.006348 -21.011633 41.130778 1.069382 2.106969 0.032902 -0.010365 8471.260000 0 0 1
-16.799740 -30.107228 -19.965033 39.840670 1.061834 2.095691 0.036575 -0.010285 -359941.000000 0 0 1
-15.523540 -29.293118 -20.215733 38.829665 1.083486 2.118380 0.047133 -0.014793 429404.000000 0 0 1
-14.329240 -30.095918 -20.240033 38.996799 1.126435 2.116498 0.055981 -0.015159 280826.000000 0 0 1
-13.264540 -29.245468 -20.642633 38.175433 1.144987 2.142102 0.044946 -0.012211 45358.300000 0 0 1
-11.889340 -29.987478 -20.646133 38.299713 1.193331 2.140126 0.054415 -0.009168 397766.000000 0 0 1
-11.270340 -30.501298 -19.482633 37.906763 1.216853 2.110593 0.053415 -0.009118 83334.600000 0 0 1
-10.898340 -29.534218 -18.534233 36.531652 1.217290 2.102900 0.039734 -0.012678 -289577.000000 0 0 1
-10.061240 -30.138958 -17.363733 36.208901 1.248600 2.070930 0.034237 -0.002433 136627.000000 0 0 1
-10.822740 -30.863348 -16.397133 36.586116 1.233528 2.035524 0.043842 -0.008115 -77597.700000 0 0 1
-11.231440 -32.132788 -16.756933 37.940165 1.234538 2.028253 0.044027 -0.006741 -98662.300000 0 0 1
-12.297540 -32.778368 -15.849033 38.429711 1.211874 1.995901 0.056125 -0.007299 -386906.000000 0 0 1
-11.849740 -33.075048 -14.575833 38.037219 1.226775 1.964054 0.040229 0.003433 -707560.000000 0 0 1
-12.864640 -33.600758 -13.733833 38.511402 1.205146 1.935441 0.046680 0.008940 -348974.000000 0 0 1
-12.377940 -34.253430 -12.408833 38.477136 1.224034 1.899165 0.033551 0.010472 228296.000000 0 0 1
-11.712240 -33.283238 -11.539233 37.122828 1.232433 1.886872 0.036012 0.016588 279592.000000 0 0 1
-11.612840 -33.810908 -10.245033 37.188657 1.239956 1.849894 0.037608 0.008604 -792706.000000 0 0 1
-10.654840 -32.982188 -9.415133 35.916501 1.258331 1.836035 0.017120 0.009234 -587006.000000 0 0 1
-9.365340 -33.353418 -9.854033 36.017524 1.297054 1.847920 -0.010024 0.018064 -907899.000000 0 0 1
-8.371240 -32.718068 -9.069733 34.968696 1.320310 1.833163 -0.028462 0.016333 413142.000000 0 0 1
-6.989040 -33.272328 -9.527333 35.308137 1.363751 1.844017 -0.028244 0.017579 146106.000000 0 0 1
-6.763740 34.474932 -9.332133 36.350486 -1.377064 1.830430 -0.028943 0.017487 -15938.900000 0 0 1
-5.666340 33.995877 -10.112333 35.917772 -1.405637 1.856196 -0.029689 0.013230 165504.000000 0 0 1
-4.753440 33.039793 -9.370933 34.670412 -1.427907 1.844487 -0.023869 0.008520 -428480.000000 0 0 1
-4.175840 33.653601 -8.253833 34.901694 -1.447344 1.809546 -0.021575 0.006901 47845.300000 0 0 1
-3.667640 32.667153 -7.333833 33.680552 -1.458992 1.790302 -0.018408 -0.009382 27398.500000 0 0 1
-3.215740 33.133873 -5.905433 33.809298 -1.474046 1.746366 -0.015262 -0.003297 -468976.000000 0 0 1
-2.256440 34.163470 -5.890533 34.740935 -1.504844 1.741175 -0.027079 -0.002654 -122971.000000 0 0 1
-1.898140 -34.493982 -4.599633 34.851031 1.515824 1.703162 -0.019762 -0.002092 327258.000000 0 0 1
-0.830340 33.750797 -3.832333 33.977824 -1.546199 1.683826 -0.017234 0.000331 -710085.000000 0 0 1
0.409460 33.717410 -4.436233 34.010462 1.558653 1.701606 -0.015483 -0.007318 -1645070.000000 0 0 1
1.323260 32.980673 -3.752433 33.219822 1.530696 1.683996 -0.011150 -0.007340 -873306.000000 0 0 1
2.734960 33.130140 -4.332033 33.523912 1.488431 1.700381 0.000080 -0.003120 -351108.000000 0 0 1
3.325760 34.338720 -3.930033 34.722522 1.474246 1.684223 0.008519 -0.005231 -15879.000000 0 0 1
4.733260 34.284385 -4.126833 34.854749 1.433605 1.689476 0.021167 -0.002713 588321.000000 0 0 1
5.469860 -33.542928 -3.714333 34.188355 -1.409149 1.679654 0.023074 -0.003594 -62174.400000 0 0 1
5.170060 -32.434978 -4.594433 33.164229 -1.412728 1.709779 0.027066 -0.005433 6890.820000 0 0 1
5.427660 -31.176638 -3.950633 31.891217 -1.398430 1.694994 0.030849 -0.009726 102879.000000 0 0 1
5.302260 -29.956668 -4.941433 30.820994 -1.395613 1.731818 0.014227 -0.007514 42363.900000 0 0 1
6.468960 -29.866908 -5.750433 31.095773 -1.357498 1.756793 0.031654 -0.010589 241137.000000 0 0 1
6.369460 -28.750988 -6.648133 30.189187 -1.352779 1.792832 0.015113 -0.006500 -145352.000000 0 0 1
6.881760 -27.492538 -6.036533 28.976507 -1.325522 1.780658 0.018845 -0.009631 -614800.000000 0 0 1
5.999760 -26.816888 -5.169233 27.961823 -1.350690 1.756733 0.017354 -0.010143 -593251.000000 0 0 1
6.583360 -25.803948 -4.375433 26.987567 -1.320995 1.733643 0.011111 -0.011833 -1021820.000000 0 0 1
5.751360 -25.312378 -3.214533 26.155837 -1.347374 1.694007 0.002303 -0.007890 227046.000000 0 0 1
4.647360 -24.509388 -3.644433 25.210909 -1.383406 1.715862 0.003487 -0.011934 282409.000000 0 0 1
3.793060 -24.000988 -2.634533 24.441266 -1.414055 1.678797 0.003675 -0.007927 43049.500000 0 1 0
2.595860 -23.237588 -3.208833 23.601283 -1.459548 1.707179 0.010229 -0.010861 27793.800000 0 1 0
1.778860 -24.164088 -3.909233 24.542811 -1.497313 1.730760 0.003964 -0.006558 -737434.000000 0 1 0
0.640560 -23.522788 -4.411533 23.941459 -1.543572 1.756119 0.003344 -0.002964 -224073.000000 0 1 0
-14.842540 23.914812 18.275864 33.559297 -1.015337 0.994903 -0.018872 0.005806 -528385.000000 0 0 1
-15.084940 23.066912 19.410564 33.710649 -0.991639 0.957215 -0.000744 0.002358 317329.000000 0 0 1
-14.846340 23.850012 20.587764 34.829483 -1.014006 0.938372 -0.003450 0.005037 -1187100.000000 0 0 1
-14.937240 23.005012 21.900264 35.099477 -0.994911 0.897011 0.002484 -0.001601 -758338.000000 0 0 1
-13.966840 22.005612 22.108164 34.177339 -1.005256 0.867328 -0.008468 -0.008589 1634090.000000 0 0 1
-12.560040 22.396412 22.097964 33.877336 -1.059695 0.860190 -0.015678 -0.011360 962784.000000 0 0 1
-12.043040 23.536612 23.035964 35.066545 -1.097854 0.854068 -0.010204 0.014204 -867593.000000 0 0 1
-11.872940 23.129512 24.369904 35.634720 -1.096546 0.817728 -0.016450 0.012774 -26876.900000 0 0 1
-11.689840 24.237812 25.222924 36.882513 -1.121411 0.817740 -0.003778 0.017255 8212.940000 0 0 1
-11.239040 23.853612 26.684834 37.515213 -1.130480 0.779440 -0.013977 0.008182 161018.000000 0 0 1
-9.843840 23.687712 26.818074 37.110888 -1.176942 0.763172 -0.033097 0.004470 -290736.000000 0 0 1
-9.526940 23.057612 28.046324 37.536813 -1.178980 0.727005 -0.041136 0.010231 -900309.000000 0 0 1
-8.037440 22.682912 28.033774 36.946007 -1.230261 0.709363 -0.039810 -0.003893 -141480.000000 0 0 1
-7.104240 23.656912 28.440654 37.669490 -1.279062 0.715135 -0.034301 0.001702 61929.600000 0 0 1
-6.981940 24.769312 27.563244 37.709398 -1.296046 0.751100 -0.028595 0.007078 -598074.000000 0 0 1
-5.768240 25.639412 28.013394 38.410966 -1.349505 0.753488 -0.030192 0.004208 677294.000000 0 0 1
-4.478340 25.083112 27.831544 37.733445 -1.394118 0.741313 -0.032848 0.003890 186541.000000 0 0 1
-3.471640 25.816312 28.506964 38.615816 -1.437124 0.740369 -0.029026 0.009755 -777573.000000 0 0 1
-2.049840 25.397812 28.304454 38.084023 -1.490262 0.732940 -0.014929 0.009316 -1016480.000000 0 0 1
-1.619340 25.534112 26.991604 37.190857 -1.507462 0.758659 -0.021739 0.007639 -23117.400000 0 0 1
-0.345140 24.924012 26.811334 36.608375 -1.556950 0.748982 -0.009983 0.012714 341810.000000 0 0 1
0.084060 24.803712 25.375534 35.484488 1.567407 0.774006 -0.011237 0.010693 151050.000000 0 0 1
-0.628440 23.705412 24.795914 34.310040 -1.544292 0.763093 -0.012470 0.014655 335656.000000 0 0 1
-0.157540 23.452512 23.482864 33.188704 -1.564079 0.784763 -0.016442 0.010401 62632.100000 0 0 1
-0.620140 22.044112 23.001964 31.865621 -1.542672 0.764335 -0.013540 0.011725 -87836.900000 0 0 1
0.269660 20.985712 23.290964 31.351903 1.557947 0.733421 -0.009841 0.011275 -328347.000000 0 0 1
-0.175940 19.713312 22.961464 30.263418 -1.561872 0.709450 -0.010761 0.013007 -352115.000000 0 0 1
0.785660 18.543712 23.363764 29.838766 1.528454 0.671322 0.000463 0.012990 -329801.000000 0 0 1
1.745960 18.551512 22.358064 29.104811 1.476959 0.694785 0.011255 0.012351 -837946.000000 0 0 1
2.650760 17.490612 22.489864 28.613668 1.420388 0.666511 0.002308 0.004521 136970.000000 0 0 1
4.054460 17.734012 21.867064 28.444724 1.346033 0.693902 0.009575 0.008984 -55929.700000 0 0 1
4.875560 18.532612 22.623664 29.648929 1.313545 0.702775 0.007742 0.013806 -920761.000000 0 0 1
6.055960 18.878612 21.951664 29.579591 1.260382 0.734566 0.027523 0.002671 242821.000000 0 0 1
7.135360 19.548712 22.883764 30.931087 1.220818 0.737978 0.025834 -0.003264 20374.600000 0 0 1
6.770960 20.737612 23.484364 32.053234 1.255203 0.748563 0.012122 0.007287 -23948.000000 0 0 1
6.614060 21.854112 22.687164 32.187815 1.276914 0.788603 0.016001 0.001562 -316000.000000 0 0 1
5.491860 22.759912 23.248064 32.994645 1.334027 0.788935 -0.002340 0.009316 84342.700000 0 0 1
5.136160 23.933912 22.562764 33.290999 1.359405 0.826107 -0.009563 0.005014 519803.000000 0 0 1
3.963560 24.523612 23.128864 33.942035 1.410560 0.821092 -0.016610 0.011449 232526.000000 0 0 1
3.695460 25.972012 22.609664 34.632337 1.429459 0.859458 -0.012719 0.007131 -9493.910000 0 0 1
3.563760 26.055412 21.199164 33.778535 1.434864 0.892339 -0.010025 0.000899 459738.000000 0 0 1
2.243160 25.732912 20.774464 33.148045 1.483845 0.893463 -0.008994 0.005636 -67150.000000 0 0 1
2.047760 25.848012 19.266564 32.303460 1.491738 0.931758 0.004472 -0.002644 -585307.000000 0 0 1
2.074260 27.197912 18.900264 33.185071 1.494678 0.964849 0.008138 -0.005342 324249.000000 0 0 1
1.697860 27.424612 17.519564 32.587225 1.508965 1.003184 0.009634 -0.002763 10790.500000 0 0 1
0.372660 28.195712 17.456664 33.164321 1.557580 1.016472 -0.005405 0.009041 -133167.000000 0 0 1
0.627560 29.458412 18.012964 34.534892 1.549496 1.022086 -0.003197 0.002584 212504.000000 0 0 1
-0.556140 30.138712 18.368064 35.299250 -1.552346 1.023532 -0.012634 0.002595 -103986.000000 0 0 1
-0.296240 31.579912 18.845564 36.776812 -1.561416 1.032783 -0.014776 -0.001218 -52294.400000 0 0 1
0.239660 31.626512 20.180364 37.517207 1.563219 1.002857 -0.021900 -0.001971 -140192.000000 0 0 1
0.543960 32.949412 20.467164 38.792582 1.554289 1.015017 -0.021401 -0.005974 -77204.100000 0 0 1
1.275560 32.957812 21.859564 39.568737 1.532113 0.985501 -0.018472 -0.006204 -414766.000000 0 0 1
0.502760 32.540312 22.923164 39.806986 1.555347 0.957143 -0.026049 -0.002224 -169274.000000 0 0 1
1.164460 32.722712 24.169354 40.697537 1.535226 0.934927 -0.019893 -0.006336 232695.000000 0 0 1
0.160960 32.505012 25.390144 41.246347 1.565845 0.907683 -0.021011 0.006636 440858.000000 0 0 1
-0.901940 33.425912 25.445304 42.018670 -1.543820 0.920313 -0.018824 0.009815 942937.000000 0 0 1
-1.943840 33.203812 26.453294 42.497628 -1.512320 0.898908 -0.008566 0.005800 945451.000000 0 0 1
-1.631040 33.432912 27.955394 43.611053 -1.522050 0.874975 0.004095 -0.003432 -772692.000000 0 0 1
-0.699040 32.575912 28.533994 43.311286 -1.549341 0.851558 -0.004123 -0.011417 -136058.000000 0 0 1
-0.314340 32.999312 29.816734 44.475735 -1.561271 0.836043 0.005411 -0.009233 -1044440.000000 0 0 1
0.922860 32.370112 30.439034 44.443342 1.542294 0.816336 -0.009205 -0.001622 248101.000000 0 0 1
2.203360 32.644512 29.850454 44.289599 1.503403 0.831209 -0.017240 -0.005214 854863.000000 0 0 1
2.392860 31.949012 28.640604 42.973822 1.496040 0.841337 -0.024567 -0.002381 -730208.000000 0 0 1
3.899460 31.839812 28.254214 42.746696 1.448932 0.848688 -0.030006 -0.000500 311921.000000 0 0 1
4.542060 30.922512 29.101504 42.705147 1.424954 0.821052 -0.028403 -0.003098 -62017.900000 0 0 1
5.934060 30.806012 28.925554 42.672135 1.380500 0.825954 -0.022317 -0.011002 -258395.000000 0 0 1
6.507960 29.728112 29.754774 42.561259 1.355280 0.796652 -0.017781 -0.000510 -435487.000000 0 0 1
6.559760 30.007912 31.116174 43.723238 1.355581 0.778935 -0.014385 -0.001641 151014.000000 0 0 1
7.121360 28.943412 31.824554 43.603178 1.329544 0.752668 -0.014718 0.008506 -249355.000000 0 0 1
7.158360 29.102012 33.332416 44.824315 1.329610 0.732323 0.004764 -0.007690 443660.000000 0 0 1
5.831460 28.911412 33.874122 44.914717 1.371766 0.716380 0.002051 -0.007376 789923.000000 0 0 1
5.737860 28.611712 -33.827513 44.674979 1.372879 2.429799 0.019937 -0.009931 -214679.000000 0 0 1
5.717960 27.086012 -33.554603 43.500098 1.362747 2.451785 0.018736 -0.012189 391493.000000 0 0 1
6.834260 26.374612 -34.121797 43.664909 1.317250 2.467777 0.002205 -0.006850 582521.000000 0 0 1
6.920660 25.003812 -33.665823 42.502633 1.300772 2.485018 0.013149 -0.016254 -809266.000000 0 0 1
8.274960 24.419912 -33.993493 42.665731 1.244079 2.492678 0.008528 -0.012114 -988606.000000 0 0 1
8.442260 24.107512 33.749830 42.326055 1.233950 0.647860 -0.009359 -0.006666 -23573.600000 0 0 1
9.735360 23.625712 33.482553 42.119269 1.179931 0.651877 -0.002870 -0.012652 -346066.000000 0 0 1
9.974660 22.102812 33.842269 41.633248 1.146875 0.621740 0.003863 -0.012383 -1128760.000000 0 0 1
9.336460 21.203512 32.917614 40.253294 1.156016 0.613285 -0.000848 -0.013550 313798.000000 0 0 1
9.104760 19.931912 33.457637 39.994890 1.142308 0.579845 0.000847 -0.011908 -427650.000000 0 0 1
7.898260 19.927812 34.382114 40.517033 1.193446 0.557493 0.012520 -0.019772 -1282370.000000 0 0 1
8.004060 20.652512 -33.516723 40.174145 1.201061 2.557633 0.018676 -0.015651 -257002.000000 0 0 1
6.797360 20.732412 -32.785363 39.381684 1.253978 2.554406 0.023880 -0.018117 -253392.000000 0 0 1
6.843360 21.454212 -31.422213 38.658379 1.262023 2.519769 0.032645 -0.025588 -584257.000000 0 0 1
7.049060 22.858312 -31.432063 39.498940 1.271669 2.491074 0.039174 -0.025191 103890.000000 0 0 1
7.133960 23.367812 -30.127853 38.789632 1.274493 2.460204 0.022693 -0.026266 -1233040.000000 0 0 1
8.531060 23.394212 -29.591953 38.674951 1.221117 2.442063 0.028658 -0.025691 -1075830.000000 0 0 1
9.165260 22.155412 -29.512383 38.024269 1.178552 2.459327 0.027398 -0.023904 -480748.000000 0 0 1
10.530960 22.162912 -29.169013 38.117281 1.127216 2.442216 0.040948 -0.019265 354929.000000 0 0 1
11.295560 20.825512 -29.312203 37.689480 1.073814 2.461841 0.035743 -0.026120 -124484.000000 0 0 1
11.481160 20.202412 -30.582483 38.408889 1.054007 2.491842 0.029552 -0.027508 -161169.000000 0 0 1
10.360860 19.832612 -31.367863 38.530803 1.089378 2.521971 0.036193 -0.031020 -372657.000000 0 0 1
10.617960 18.683512 -32.331213 38.821670 1.054007 2.554967 0.033817 -0.030307 -519439.000000 0 0 1
10.824160 17.444212 -31.719303 37.783292 1.015438 2.567170 0.033534 -0.024935 120644.000000 0 0 1
10.758460 16.294912 -32.588043 37.990119 0.987260 2.601776 0.026274 -0.021423 -177506.000000 0 0 1
11.973560 16.032312 -33.521973 39.040029 0.929321 2.603439 0.022060 -0.011693 -37990.000000 0 0 1
11.903760 16.823912 34.454045 40.147537 0.955021 0.539071 0.031466 -0.013869 531686.000000 0 0 1
12.766260 16.293912 33.418157 39.309568 0.906198 0.554568 0.036867 -0.013762 426236.000000 0 0 1
12.347860 16.625412 31.959894 38.082920 0.931977 0.574952 0.043591 -0.015412 -461283.000000 0 0 1
12.388160 17.980912 31.617554 38.424594 0.967517 0.604394 0.035631 -0.015378 104511.000000 0 0 1
11.860160 18.225912 30.301744 37.296688 0.993908 0.622452 0.030435 -0.012033 686395.000000 0 0 1
10.311860 18.347112 30.174434 36.789230 1.058754 0.609040 0.014483 -0.001772 558148.000000 0 0 1
9.536860 17.214112 30.586524 36.370493 1.064877 0.571721 0.012522 -0.006505 395649.000000 0 0 1
8.159460 17.537212 30.672964 36.262395 1.135320 0.562618 0.001852 -0.008273 198979.000000 0 0 1
7.393860 16.628612 31.644034 36.503764 1.152403 0.521906 0.006811 -0.006527 -226414.000000 0 0 1
7.665160 16.896312 33.031034 37.885211 1.144904 0.511786 0.013391 -0.007560 109097.000000 0 0 1
7.149960 15.865812 33.849412 38.060854 1.147400 0.474875 0.026989 -0.015314 -348573.000000 0 0 1
7.182260 16.285912 -33.768343 38.172199 1.155443 2.656500 0.027556 -0.018633 -399287.000000 0 0 1
6.238260 17.173012 -33.221713 37.914515 1.222358 2.638772 0.025153 -0.020956 -309486.000000 0 0 1
6.181260 17.118312 -31.807383 36.646339 1.224276 2.621867 0.027128 -0.024043 -204055.000000 0 0 1
5.218160 18.117912 -31.147733 36.409740 1.290374 2.597270 0.023240 -0.023422 -1108330.000000 0 0 1
5.305060 18.363812 -29.734853 35.348759 1.289566 2.570268 0.018093 -0.026858 -39989.200000 0 0 1
4.343760 19.293912 -29.261433 35.317910 1.349352 2.547248 0.017160 -0.026496 1494340.000000 0 0 1
2.817260 18.885412 -29.420333 35.073519 1.422712 2.565907 0.020551 -0.026405 -376010.000000 0 0 1
2.414760 17.837912 -28.530163 33.734142 1.436242 2.578738 0.025733 -0.022332 297407.000000 0 0 1
1.007760 17.715412 -28.436683 33.518597 1.513972 2.583724 0.029455 -0.021346 550444.000000 0 0 1
0.151160 18.899112 -27.848803 33.656427 1.562798 2.545337 0.030469 -0.027340 -714538.000000 0 0 1
-0.030740 19.064412 -26.446793 32.601926 -1.569184 2.517003 0.041552 -0.034108 136812.000000 0 0 1
-0.724740 20.263712 -26.128953 33.073637 -1.535046 2.481644 0.051661 -0.032641 -356726.000000 0 0 1
-1.156740 20.315812 -24.671933 31.980846 -1.513920 2.451928 0.044472 -0.035555 39159.000000 0 0 1
-2.290540 19.502412 -24.397633 31.318288 -1.453883 2.463901 0.046067 -0.027629 70559.600000 0 0 1
-2.679140 19.813712 -23.100133 30.551221 -1.436395 2.428147 0.057961 -0.032057 -246952.000000 0 0 1
-3.905240 19.007512 -22.659433 29.832638 -1.368159 2.433420 0.061664 -0.029360 130984.000000 0 0 1
-5.161640 19.621612 -22.865533 30.569311 -1.313565 2.415824 0.048662 -0.026212 330245.000000 0 0 1
-6.267640 18.730212 -22.710233 30.097489 -1.247882 2.425773 0.039659 -0.026093 -413213.000000 0 0 1
-7.608840 19.402412 -22.666333 30.791406 -1.197067 2.398124 0.047809 -0.024632 -1178400.000000 0 0 1
-7.825540 20.236312 -21.575833 30.598431 -1.201801 2.353401 0.027574 -0.016403 59789.000000 0 0 1
-7.477140 21.544112 -21.790833 31.541985 -1.236741 2.333463 0.018422 -0.012622 -247931.000000 0 0 1
-7.790140 22.357612 -20.522133 31.332205 -1.235518 2.284959 0.026581 -0.022759 95793.500000 0 0 1
-6.838340 22.200212 -19.461633 30.304578 -1.271989 2.268163 0.029650 -0.018296 340687.000000 0 0 1
-7.088940 23.029612 -18.313533 30.265518 -1.272182 2.220682 0.032697 -0.010669 -317275.000000 0 0 1
-6.005340 22.973012 -17.214133 29.328310 -1.315109 2.198078 0.030327 -0.017392 260065.000000 0 0 1
-4.872740 23.744212 -17.613933 29.963008 -1.368389 2.199202 0.042671 -0.020045 -560764.000000 0 0 1
-3.952240 23.778612 -16.556333 29.243029 -1.406092 2.172640 0.048468 -0.014738 165249.000000 0 0 1
-2.610740 24.417412 -17.006233 29.870352 -1.464280 2.176493 0.055555 -0.019192 36015.800000 0 0 1
-2.640840 25.815312 -16.968733 31.005520 -1.468854 2.149908 0.037066 -0.018387 -225631.000000 0 0 1
-1.414640 26.408112 -17.344033 31.626019 -1.517279 2.151258 0.042634 -0.021734 -16499.500000 0 0 1
-1.382740 27.917312 -17.066833 32.750039 -1.521307 2.118964 0.036177 -0.023191 -253682.000000 0 0 1
-2.338840 28.723012 -17.716333 33.828243 -1.489548 2.122001 0.034981 -0.024468 -148471.000000 0 0 1
-2.086240 28.849812 -19.112833 34.669359 -1.498608 2.154705 0.035299 -0.028232 -858743.000000 0 0 1
-3.291240 29.379712 -19.862833 35.616455 -1.459237 2.162393 0.044188 -0.022043 -491740.000000 0 0 1
-3.791240 30.573812 -19.397533 36.405985 -1.447423 2.132716 0.035144 -0.012028 -410289.000000 0 0 1
-4.796840 30.502112 -18.423833 35.955892 -1.414811 2.108775 0.025009 -0.012456 -576243.000000 0 0 1
-5.064240 31.878912 -17.883033 36.901415 -1.413254 2.076721 0.031322 -0.005146 -262006.000000 0 0 1
-5.767340 32.694612 -18.774633 38.140356 -1.396192 2.085470 0.040671 -0.006797 -27038.500000 0 0 1
-6.056240 33.955012 -18.133133 38.967055 -1.394292 2.054821 0.032020 -0.021139 95953.700000 0 0 1
-7.008740 -34.206318 -18.884233 39.696460 1.368697 2.066574 0.026781 -0.002729 1173860.000000 0 0 1
-8.401240 34.513212 -18.834933 40.205688 -1.332019 2.058348 0.036443 -0.011806 1093540.000000 0 0 1
-9.220240 -33.540818 -19.338133 39.799029 1.302527 2.078183 0.062643 -0.009097 224497.000000 0 0 1
27.775960 -20.859688 -26.676003 43.797713 -0.644139 2.225688 0.014972 0.007959 358721.000000 0 0 1
27.313560 -22.208088 -26.759093 44.218534 -0.682665 2.220758 0.022861 -0.008704 872053.000000 0 0 1
26.122060 -22.497788 -25.971593 43.162902 -0.710993 2.216438 -0.000301 -0.003439 1168190.000000 0 0 1
26.256460 -23.991588 -25.418193 43.715930 -0.740355 2.191294 0.005999 0.008454 246019.000000 0 0 1
26.434760 -24.983088 -26.398603 44.942602 -0.757173 2.198620 0.007550 0.020544 167551.000000 0 0 1
27.795460 -25.231628 -26.766153 46.104767 -0.737086 2.190201 0.017371 0.019109 461637.000000 0 0 1
28.050360 -26.685398 -27.239273 47.338263 -0.760466 2.183911 0.027611 0.008509 -182895.000000 0 0 1
28.105760 -27.714968 -26.263943 47.411474 -0.778397 2.157907 0.035701 -0.009105 -341013.000000 0 0 1
28.187560 -29.033158 -26.728903 48.496361 -0.800175 2.154541 0.031235 -0.003756 -109799.000000 0 0 1
26.976160 -29.638498 -27.464523 48.584501 -0.832389 2.171586 0.020727 0.001668 -330935.000000 0 0 1
26.512660 -29.163328 -28.791023 48.809260 -0.832971 2.201692 0.003190 -0.004629 -155460.000000 0 0 1
27.421560 -29.194398 -29.862853 49.960432 -0.816701 2.211463 -0.009875 -0.007033 -664767.000000 0 0 1
27.698760 -30.608378 -30.509943 51.331771 -0.835258 2.207275 0.008436 -0.001948 -64413.500000 0 0 1
28.388860 -31.492668 -29.560723 51.687057 -0.837184 2.179638 0.021133 -0.004255 2017310.000000 0 0 1
29.772260 -31.220778 -29.149923 52.065751 -0.809143 2.165022 0.021571 0.002097 1802470.000000 0 0 1
30.840360 -30.833498 -30.225953 53.060726 -0.785287 2.176874 0.021034 -0.000445 -392112.000000 0 0 1
30.706660 -29.491248 -30.569843 52.413242 -0.765211 2.193516 0.019171 -0.013028 93787.600000 0 0 1
31.875560 -29.044508 -31.245723 53.253450 -0.738960 2.197819 0.011174 -0.010572 73457.400000 0 0 1
31.848260 -27.602938 -31.816423 52.806426 -0.714111 2.217439 0.006492 -0.007166 53356.400000 0 0 1
31.710860 -26.532168 -30.874823 51.602221 -0.696716 2.212203 0.011340 -0.006447 -292971.000000 0 0 1
30.372760 -26.286938 -30.554233 50.468493 -0.713411 2.221080 0.007373 0.001498 -457225.000000 0 0 1
30.330560 -24.834188 -29.956873 49.336538 -0.686090 2.223321 0.016879 0.003617 -481672.000000 0 0 1
30.957660 -24.786488 -28.672463 48.937274 -0.675142 2.196789 0.017952 -0.000906 184696.000000 0 0 1
30.844760 -23.432988 -28.183603 47.904275 -0.649685 2.199790 0.014978 0.004036 798144.000000 0 0 1
32.105960 -23.152388 -27.270123 48.067508 -0.624763 2.174056 0.012435 0.004138 597716.000000 0 0 1
32.312160 -23.978188 -26.142063 47.983712 -0.638413 2.146960 0.022128 -0.005056 -158492.000000 0 0 1
31.455360 -23.795888 -25.031233 46.714522 -0.647646 2.136292 0.040832 0.006995 -168603.000000 0 0 1
31.709460 -22.522988 -24.091533 45.751249 -0.617600 2.125365 0.029200 0.011514 -124544.000000 0 0 1
31.565360 -21.274388 -24.770433 45.415260 -0.593048 2.147688 0.010137 0.006524 248027.000000 0 0 1
31.703360 -20.187188 -23.889533 44.534653 -0.567006 2.136992 -0.010718 0.005309 -347133.000000 0 0 1
31.937760 -18.822388 -24.593833 44.487744 -0.532549 2.156544 -0.013030 0.011034 -576762.000000 0 0 1
30.862660 -18.240488 -25.255903 43.852934 -0.533791 2.184529 -0.010348 0.009973 -355343.000000 0 0 1
31.209960 -17.052488 -25.972333 44.038744 -0.500059 2.201559 -0.015538 0.003099 -256539.000000 0 0 1
30.472260 -16.841288 -27.311333 44.250384 -0.504895 2.235975 -0.015757 0.010718 -312828.000000 0 0 1
29.089260 -16.934388 -27.110373 43.219566 -0.527193 2.248840 -0.014208 0.016252 -383646.000000 0 0 1
28.326560 -16.832688 -28.290813 43.429293 -0.536171 2.280254 -0.008765 0.002793 23509.500000 0 0 1
26.930960 -16.225188 -28.014603 42.111178 -0.542236 2.298629 -0.021567 0.011105 353105.000000 0 0 1
25.923660 -17.061188 -27.466933 41.443367 -0.582071 2.295292 -0.019621 0.019671 299370.000000 0 0 1
25.983760 -16.999588 -26.004113 40.501304 -0.579349 2.267974 -0.015385 0.021582 -319988.000000 0 0 1
25.212660 -18.102588 -25.280293 40.030927 -0.622702 2.254307 0.004858 0.014103 -334517.000000 0 0 1
25.073160 -17.635888 -23.919833 38.882468 -0.612989 2.233414 0.005307 0.024037 -279844.000000 0 0 1
24.322960 -18.509088 -23.174633 38.356959 -0.650486 2.219537 0.018710 0.016066 -613302.000000 0 0 1
24.338160 -18.265488 -21.666333 37.355107 -0.643813 2.189537 0.010144 0.015954 -1389.560000 0 0 1
23.533460 -17.261288 -21.053433 35.986426 -0.632843 2.195723 0.010188 0.012129 68249.300000 0 0 1
23.727160 -15.920988 -21.497233 35.757335 -0.590998 2.215796 0.012327 0.013930 813783.000000 0 0 1
25.064960 -15.206988 -21.033933 36.082281 -0.545334 2.193143 0.008560 0.006808 867800.000000 0 0 1
25.027060 -14.578988 -19.780233 35.073611 -0.527474 2.169974 0.010969 0.003374 466153.000000 0 0 1
26.247560 -13.888688 -19.528633 35.541491 -0.486689 2.152514 -0.007312 0.012961 122156.000000 0 0 1
26.231260 -13.086788 -18.220433 34.515608 -0.462768 2.126910 0.010984 0.009006 -242290.000000 0 0 1
26.159560 -13.814988 -16.983633 34.111878 -0.485878 2.091949 0.011674 0.012317 305793.000000 0 0 1
25.966560 -12.799388 -16.018233 33.085803 -0.457966 2.076179 0.008353 0.014956 -87854.200000 0 0 1
26.513060 -13.213688 -14.648633 33.047335 -0.462354 2.030031 0.025480 0.000605 -350938.000000 0 0 1
25.988460 -14.381888 -14.062433 32.863213 -0.505446 2.012973 0.052972 -0.011292 -281702.000000 0 0 1
26.590460 -14.728188 -12.891333 33.017549 -0.505825 1.971905 0.059960 -0.017249 -319329.000000 0 0 1
25.830060 -15.902988 -12.222333 32.702942 -0.551867 1.953832 0.066086 -0.037923 121926.000000 0 0 1
24.512160 -15.636388 -11.810833 31.382135 -0.567824 1.956656 0.053402 -0.035054 -57975.600000 0 0 1
23.894460 -16.737188 -11.245733 31.265719 -0.611037 1.938724 0.033386 -0.027726 -823295.000000 0 0 1
22.430260 -16.586888 -10.896533 29.949555 -0.636739 1.943172 0.030280 -0.030960 -986130.000000 0 0 1
22.260860 -16.203988 -9.551433 29.143524 -0.629215 1.904704 0.017743 -0.023281 769306.000000 0 0 1
20.901560 -15.950788 -9.190833 27.852724 -0.651857 1.907078 0.009480 -0.020353 228333.000000 0 0 1
20.695960 -15.610988 -7.706233 27.044625 -0.646248 1.859745 0.011526 -0.020519 -128229.000000 0 0 1
21.340860 -14.401888 -7.209433 26.736166 -0.593647 1.843827 0.021914 -0.011427 645122.000000 0 0 1
21.077960 -14.146588 -5.843733 26.049099 -0.591104 1.797057 0.004419 -0.009059 -37310.300000 0 0 1
22.015160 -14.924388 -4.838833 27.033663 -0.595749 1.750759 0.008817 -0.001545 156056.000000 0 0 1
23.352360 -14.468288 -4.853633 27.896627 -0.554681 1.745673 0.026278 -0.010096 -257211.000000 0 0 1
24.105460 -15.065388 -3.870833 28.688368 -0.558584 1.706136 0.018526 -0.017482 -906443.000000 0 0 1
25.587360 -14.800888 -4.133133 29.847312 -0.524420 1.709719 0.039347 -0.023046 -758414.000000 0 0 1
25.996360 -13.488588 -3.780333 29.530385 -0.478625 1.699164 0.032144 -0.020924 -560834.000000 0 0 1
27.330660 -13.261488 -4.103833 30.654094 -0.451757 1.705075 0.045082 -0.031262 -710358.000000 0 0 1
27.999260 -12.113788 -3.346133 30.690373 -0.408330 1.680042 0.051968 -0.033273 -1260600.000000 0 0 1
28.263460 -12.296388 -1.958133 30.884601 -0.410363 1.634240 0.058794 -0.042339 580982.000000 0 0 1
29.004160 -11.206788 -1.376633 31.124404 -0.368715 1.615041 0.060194 -0.031467 -239925.000000 0 0 1
30.452360 -10.966688 -1.764233 32.414919 -0.345667 1.625250 0.063986 -0.032424 -1231570.000000 0 0 1
30.560260 -10.435388 -3.054033 32.436922 -0.329055 1.665089 0.062334 -0.025205 908008.000000 0 0 1
31.789760 -10.776388 -3.745633 33.774978 -0.326832 1.681925 0.067549 -0.034091 859615.000000 0 0 1
31.618160 -10.470288 -5.283933 33.723210 -0.319782 1.728130 0.062720 -0.033933 -339824.000000 0 0 1
30.689460 -11.317888 -5.908633 33.239276 -0.353313 1.749507 0.053234 -0.039276 -64040.600000 0 0 1
30.553960 -11.003188 -7.232033 33.270361 -0.345665 1.789917 0.050421 -0.025929 -517727.000000 0 0 1
29.403960 -11.684088 -7.940033 32.621387 -0.378232 1.816666 0.068299 -0.026494 -540381.000000 0 0 1
29.479260 -13.133288 -7.943633 33.235693 -0.419113 1.812142 0.064101 -0.032362 -506299.000000 0 0 1
28.358860 -13.766988 -8.478733 32.644200 -0.451945 1.833541 0.064996 -0.032304 -308016.000000 0 0 1
28.305960 -15.314188 -8.360133 33.251219 -0.495925 1.824947 0.068366 -0.039508 -385596.000000 0 0 1
29.044760 -15.985888 -9.299033 34.432814 -0.503141 1.844255 0.076012 -0.039884 -357598.000000 0 0 1
28.912560 -17.392688 -9.216733 34.976991 -0.541567 1.837454 0.064130 -0.035711 -48687.500000 0 0 1
28.991160 -18.107488 -10.580333 35.781446 -0.558302 1.870977 0.063613 -0.036675 -264704.000000 0 0 1
30.247960 -17.824388 -11.136233 36.832914 -0.532497 1.877948 0.060680 -0.027857 -195048.000000 0 0 1
30.356960 -18.152588 -12.514433 37.518962 -0.538926 1.910863 0.053125 -0.021046 3488.530000 0 0 1
29.608760 -17.350288 -13.617833 36.920950 -0.530051 1.948554 0.050927 -0.024097 -109570.000000 0 0 1
30.281260 -16.155988 -13.891033 37.026091 -0.490111 1.955375 0.045285 -0.020503 126736.000000 0 0 1
29.676960 -15.440688 -14.976833 36.652999 -0.479749 1.991728 0.043443 -0.015851 -585301.000000 0 0 1
30.530160 -14.396188 -15.744433 37.245510 -0.440621 2.007241 0.023922 -0.006610 376602.000000 0 0 1
31.504760 -14.870288 -16.671533 38.621437 -0.440999 2.017134 0.001644 -0.004519 1043320.000000 0 0 1
32.777060 -15.231488 -16.126433 39.577717 -0.435011 1.990470 0.010780 -0.006538 143966.000000 0 0 1
33.787360 -15.741588 -17.176533 41.041644 -0.435999 2.002606 0.015509 -0.000273 -677486.000000 0 0 1
35.095860 -15.739588 -16.705833 41.934936 -0.421584 1.980541 0.007942 -0.000649 -804089.000000 0 0 1
-34.346167 -16.202988 -17.672133 41.886756 0.440798 2.006339 0.020156 -0.003184 -751309.000000 0 0 1
-32.951167 -16.021788 -17.097033 40.432482 0.452570 2.007389 0.006780 0.002296 -980456.000000 0 0 1
-32.577267 -16.993888 -16.122733 40.124968 0.480816 1.984292 0.003960 -0.004719 33469.900000 0 0 1
-33.068367 -16.760588 -14.820233 39.925850 0.469110 1.951091 0.005985 -0.007442 -517969.000000 0 0 1
-32.503567 -17.651188 -13.706733 39.445162 0.497495 1.925687 0.004815 -0.007889 -416394.000000 0 0 1
-31.188767 -17.341688 -13.321633 38.091196 0.507456 1.928079 -0.009792 -0.004180 -257486.000000 0 0 1
-30.795067 -18.008588 -12.126233 37.678786 0.529159 1.898460 -0.003082 -0.001933 337879.000000 0 0 1
-29.320467 -17.697088 -11.752633 36.207749 0.543044 1.901373 0.007617 -0.007096 113647.000000 0 0 1
-29.077667 -16.346788 -11.481633 35.278267 0.512144 1.902294 0.002520 -0.013829 -473729.000000 0 0 1
-27.764567 -16.177488 -11.036433 33.976244 0.527577 1.901626 -0.001521 -0.008564 -211982.000000 0 0 1
-27.597567 -16.121188 -9.478933 33.337195 0.528685 1.859109 0.009572 -0.010841 33962.700000 0 0 1
-27.996667 -17.355488 -8.894733 34.119534 0.554933 1.834537 0.003085 -0.008930 -155551.000000 0 0 1
-28.258767 -17.260788 -7.523633 33.957293 0.548331 1.794212 0.015264 -0.014122 -214914.000000 0 0 1
-28.600967 -18.699988 -7.106833 34.902893 0.579058 1.775848 0.010852 -0.016003 248525.000000 0 0 1
-29.808667 -19.261088 -7.613333 36.297507 0.573669 1.782114 0.004177 -0.014222 83319.100000 0 0 1
-29.647467 -19.879688 -8.889633 36.785865 0.590676 1.814871 0.003863 -0.009425 -797620.000000 0 0 1
-30.827967 -20.719388 -9.333533 38.298452 0.591753 1.816981 0.001424 -0.009667 -490965.000000 0 0 1
-31.922967 -19.901188 -9.687533 38.845610 0.557457 1.822842 -0.000440 -0.009551 -493932.000000 0 0 1
-33.032067 -20.672188 -10.021033 40.235282 0.559190 1.822507 0.002336 -0.014670 -90991.400000 0 0 1
-34.353867 -19.910188 -10.304933 41.021889 0.525256 1.824722 0.016088 -0.019234 61323.200000 0 0 1
-34.515367 -19.398288 -11.615233 41.261577 0.512024 1.856156 0.012042 -0.022309 -2608150.000000 0 0 1
34.576460 -19.241888 -11.921433 41.326776 -0.507822 1.863422 0.019991 -0.026025 -2626170.000000 0 0 1
34.254260 -18.920888 -13.402133 41.363891 -0.504658 1.900757 0.012135 -0.019123 -213023.000000 0 0 1
34.547860 -20.003788 -14.293733 42.403030 -0.524848 1.914623 0.011191 -0.016773 9244.960000 0 0 1
33.949460 -19.906788 -15.558633 42.319228 -0.530334 1.947276 0.006158 -0.011822 218376.000000 0 0 1
32.679660 -20.802588 -15.688633 41.795227 -0.566869 1.955591 0.017648 -0.012441 30046.000000 0 0 1
31.569860 -20.218188 -15.028333 40.389132 -0.569616 1.952054 0.032306 -0.016017 197706.000000 0 0 1
30.376460 -20.991288 -14.979733 39.846654 -0.604686 1.956201 0.040212 -0.015699 664568.000000 0 0 1
29.510460 -20.870488 -16.257533 39.632712 -0.615557 1.993475 0.035201 -0.011817 -632436.000000 0 0 1
28.917560 -19.615888 -16.459733 38.625524 -0.596039 2.011014 0.035635 -0.009791 76836.600000 0 0 1
28.160860 -19.524788 -17.646833 38.544287 -0.606236 2.046352 0.027252 -0.007724 214628.000000 0 0 1
27.244960 -18.236988 -17.709133 37.262433 -0.589873 2.066049 0.033315 -0.004387 691328.000000 0 0 1
26.087060 -18.386488 -16.866733 36.098259 -0.613949 2.056969 0.047736 -0.015335 356850.000000 0 0 1
25.505560 -17.117088 -16.768233 34.995741 -0.591074 2.070483 0.031747 0.005666 -234697.000000 0 0 1
24.158160 -17.085088 -15.984333 33.630578 -0.615554 2.066092 0.025785 0.006407 1217620.000000 0 0 1
22.940160 -17.616988 -16.516733 33.307832 -0.654893 2.089646 0.016519 -0.002806 1073410.000000 0 0 1
22.440760 -16.906588 -17.708133 33.211419 -0.645666 2.133168 0.015081 0.005634 -561614.000000 0 0 1
21.252760 -17.582888 -18.390033 33.151637 -0.691180 2.158828 0.016092 0.013657 253739.000000 0 0 1
20.029160 -17.504888 -17.662433 31.930391 -0.718246 2.156942 0.018274 0.014128 418246.000000 0 0 1
18.982760 -18.054788 -18.465633 32.051523 -0.760349 2.184774 0.014289 0.005289 -332905.000000 0 0 1
17.554660 -17.906588 -18.006133 30.871229 -0.795322 2.193540 0.027384 0.006561 -703909.000000 0 0 1
17.009760 -16.602588 -18.064333 29.854614 -0.773285 2.220659 0.027014 0.004045 558279.000000 0 0 1
15.602760 -16.688888 -17.849133 28.992355 -0.819020 2.234006 0.028637 0.004200 348703.000000 0 0 1
14.831260 -15.329388 -17.780433 27.768691 -0.801912 2.265692 0.034870 -0.000218 88207.900000 0 0 1
14.379360 -14.877888 -19.058033 28.130520 -0.802436 2.315136 0.041560 0.004655 1144050.000000 0 0 1
12.980460 -14.525988 -19.011933 27.220401 -0.841527 2.344018 0.038250 0.010567 1101390.000000 0 0 1
12.375260 -13.982088 -20.323033 27.598397 -0.846286 2.398507 0.045388 0.010520 80363.900000 0 0 1
12.939160 -12.776288 -20.764233 27.600883 -0.779065 2.422347 0.052418 0.004883 100495.000000 0 0 1
12.333460 -12.343988 -21.985833 28.068935 -0.785825 2.470721 0.062508 0.002543 123039.000000 0 0 1
12.719360 -10.897588 -22.393033 27.964039 -0.708412 2.499392 0.061239 -0.004374 177676.000000 0 0 1
14.026160 -10.705288 -22.940933 28.941713 -0.651919 2.485956 0.055386 -0.001470 518489.000000 0 0 1
14.356460 -9.339888 -23.234433 28.864863 -0.576776 2.506368 0.066745 -0.005247 -231247.000000 0 0 1
15.535160 -9.239188 -24.193333 30.199688 -0.536534 2.499947 0.048083 -0.003442 -283663.000000 0 0 1
15.286660 -9.724288 -25.512273 31.290890 -0.566562 2.524088 0.059472 -0.004900 -352738.000000 0 0 1
16.453960 -9.784088 -26.262203 32.498684 -0.536465 2.511717 0.045588 -0.002627 -1013130.000000 0 0 1
21.846060 4.808712 -7.130833 23.478135 0.216663 1.879393 0.013859 0.023947 -392698.000000 0 1 0
21.699760 6.211612 -7.331633 23.732184 0.278797 1.884866 -0.004078 0.012341 620015.000000 0 1 0
21.526860 6.996912 -6.121233 23.448496 0.314261 1.834906 0.006283 0.005308 -350634.000000 0 1 0
21.418760 8.552312 -6.323833 23.914351 0.379895 1.838416 0.005309 0.004625 -1614890.000000 0 1 0
20.300360 8.912112 -6.986433 23.245227 0.413679 1.876069 0.008238 0.004801 -830753.000000 0 1 0
20.042560 10.307612 -7.178533 23.653381 0.475011 1.879148 0.018399 0.003418 95711.600000 0 1 0
19.625560 11.228212 -5.955833 23.381773 0.519669 1.828356 0.037364 0.000708 338346.000000 0 1 0
20.724660 11.477612 -5.093433 24.232007 0.505767 1.782570 0.039047 0.003485 610188.000000 0 1 0
20.263460 12.447612 -4.130133 24.137292 0.550860 1.742753 0.057427 0.002881 787105.000000 0 1 0
21.293360 12.780212 -2.977833 25.012167 0.540564 1.690135 0.049986 -0.004210 36132.500000 0 0 1
22.521960 13.311012 -3.440033 26.386655 0.533793 1.701539 0.057522 -0.015112 668074.000000 0 0 1
23.490060 13.507812 -2.417633 27.204574 0.521867 1.659782 0.070725 -0.014885 -87520.500000 0 0 1
24.249260 12.281212 -1.924933 27.249957 0.468800 1.641495 0.044248 -0.012283 -1780660.000000 0 0 1
25.239260 11.899412 -2.813433 28.045172 0.440560 1.671283 0.020068 -0.016210 -591975.000000 0 0 1
26.049860 10.975112 -2.114833 28.346443 0.398743 1.645472 0.043122 -0.016754 -1286840.000000 0 0 1
27.423760 10.932712 -2.715533 29.647275 0.379349 1.662520 0.025365 -0.015762 -642616.000000 0 0 1
28.316360 11.989312 -2.244933 30.831795 0.400520 1.643673 0.021225 -0.017025 1390070.000000 0 0 1
29.681760 11.593112 -2.418733 31.957118 0.372360 1.646556 0.025412 -0.014674 281909.000000 0 0 1
30.709460 12.650812 -2.068233 33.277493 0.390767 1.632988 0.001755 -0.006754 -763808.000000 0 0 1
30.789760 12.973412 -0.672833 33.418131 0.398779 1.590931 -0.002454 -0.001674 200622.000000 0 0 1
31.482260 14.176912 -0.500533 34.530683 0.423115 1.585292 -0.014601 -0.000918 14722.800000 0 0 1
33.025660 14.048512 -0.344333 35.891134 0.402194 1.580390 -0.009274 -0.004929 112874.000000 0 0 1
33.708260 15.267112 -0.106233 37.004632 0.425279 1.573667 -0.008265 0.010212 496.301000 0 0 1
34.357060 15.778112 -1.275833 37.828351 0.430511 1.604530 -0.001414 -0.001269 -636345.000000 0 0 1
33.573060 16.561412 -2.365833 37.510370 0.458269 1.633910 -0.025315 0.015793 136870.000000 0 0 1
32.681060 15.704612 -3.109133 36.391664 0.447960 1.656336 -0.015719 0.005256 -469576.000000 0 0 1
31.737260 16.502912 -3.707133 35.963073 0.479508 1.674061 -0.017573 0.013653 -509312.000000 0 0 1
30.447560 15.759712 -4.136533 34.533076 0.477630 1.690869 -0.006290 -0.002737 -752741.000000 0 0 1
30.544460 14.919012 -5.249833 34.396245 0.454354 1.724023 -0.004650 -0.009843 520626.000000 0 0 1
29.347660 14.769312 -6.026233 33.402593 0.466247 1.752202 0.004773 -0.024589 1014420.000000 0 0 1
28.134060 14.070012 -5.293933 31.898531 0.463732 1.737529 0.006919 -0.026218 -389300.000000 0 0 1
27.124360 13.730012 -6.179833 31.023128 0.468585 1.771339 0.011281 -0.026157 25456.400000 0 0 1
25.891260 13.450412 -5.542033 29.698233 0.479123 1.758508 0.019579 -0.025310 518772.000000 0 0 1
24.697560 13.062612 -6.472433 28.679151 0.486502 1.798442 0.013297 -0.024679 906.462000 0 0 1
24.802160 11.906212 -7.251833 28.451610 0.447558 1.828523 0.015091 -0.019014 932874.000000 0 0 1
23.688260 11.803012 -8.183233 27.702167 0.462258 1.870671 0.014852 -0.013040 689018.000000 0 0 1
23.427460 12.856612 -9.326533 28.304109 0.501909 1.906583 0.008094 -0.007765 -260498.000000 0 0 1
23.007960 14.108312 -8.825233 28.395342 0.550064 1.886829 0.014899 -0.020600 201272.000000 0 0 1
22.802860 15.033112 -9.814033 29.022063 0.582860 1.915755 0.005051 -0.013655 -834375.000000 0 0 1
22.047760 16.306912 -9.312433 28.961017 0.636823 1.898163 0.016267 -0.021409 6963.380000 0 0 1
20.681760 16.054612 -9.091933 27.715501 0.660102 1.905030 0.012972 -0.011759 -148260.000000 0 0 1
20.380560 15.657012 -7.789333 26.854850 0.655068 1.865079 0.023425 -0.018323 -717931.000000 0 0 1
18.994960 15.047812 -7.584333 25.392268 0.669967 1.874113 0.042179 -0.006543 5715.150000 0 0 1
17.901160 15.947012 -7.635533 25.160685 0.727729 1.879129 0.040047 -0.009826 -309361.000000 0 0 1
16.622760 15.496312 -7.398433 23.899553 0.750342 1.885530 0.049706 -0.005354 -575674.000000 0 1 0
16.091360 15.477612 -5.954733 23.107297 0.765959 1.831437 0.072423 -0.009556 -486897.000000 0 1 0
16.607160 14.526012 -5.054933 22.635263 0.718651 1.796017 0.079521 -0.015693 418941.000000 0 1 0
16.022660 14.744612 -3.784733 22.100982 0.743883 1.742892 0.075501 -0.015928 -182615.000000 0 1 0
16.003460 13.472012 -2.929633 21.123177 0.699725 1.709938 0.071060 -0.013037 1233100.000000 0 1 0
17.255860 13.022212 -2.303633 21.740502 0.646473 1.676956 0.084413 -0.009425 1986480.000000 0 1 0
16.941160 12.230612 -1.124833 20.925010 0.625304 1.624578 0.068046 -0.008208 127024.000000 0 1 0
16.884660 13.044012 0.215767 21.337398 0.657769 1.560684 0.069523 -0.012365 161720.000000 0 1 0
15.803060 13.981612 0.138967 21.100746 0.724320 1.564210 0.062515 -0.017143 796129.000000 0 1 0
15.927460 14.955112 1.177167 21.879787 0.753923 1.516969 0.064407 -0.012309 -55417.100000 0 1 0
14.630260 15.772012 1.462467 21.562460 0.822935 1.502920 0.055585 -0.012227 177754.000000 0 1 0
14.308360 16.715012 0.413667 22.006634 0.862819 1.551998 0.053033 -0.015083 94921.800000 0 1 0
13.308960 17.567112 0.897467 22.057590 0.922445 1.530098 0.037220 -0.015902 -393203.000000 0 1 0
13.241860 18.946212 0.195667 23.115884 0.960797 1.562332 0.031560 -0.017849 1490.860000 0 1 0
12.652660 19.008812 -1.128133 22.862577 0.983518 1.620160 0.035484 -0.023316 100265.000000 0 1 0
12.296260 20.273112 -1.460033 23.755605 1.025589 1.632296 0.030810 -0.014465 2201660.000000 0 1 0
10.698960 20.506512 -1.283133 23.165302 1.089912 1.626215 0.025772 -0.010573 2254920.000000 0 1 0
10.350660 20.911412 0.068367 23.332981 1.111175 1.567866 0.027143 0.002016 566556.000000 0 1 0
8.932660 20.915212 0.221267 22.743955 1.167157 1.561068 0.021497 0.006050 721929.000000 0 1 0
8.322160 20.716512 1.628667 22.384923 1.188811 1.497975 0.025497 -0.005685 148065.000000 0 1 0
8.361860 21.849212 2.406667 23.518096 1.205285 1.468284 0.035161 0.003264 765764.000000 0 1 0
7.199860 21.753212 3.244467 23.142316 1.251166 1.430137 0.025320 -0.003740 647837.000000 0 1 0
6.781760 23.137012 3.828767 24.412560 1.285670 1.413310 0.029164 -0.001334 -86147.400000 0 1 0
7.681860 23.655412 4.775967 25.325864 1.256800 1.381080 0.024968 0.001256 201609.000000 0 0 1
7.237860 24.891012 5.370767 26.472519 1.287818 1.366497 0.013760 -0.001649 78150.800000 0 0 1
7.786860 25.105712 6.817567 27.155316 1.270042 1.317023 0.008293 -0.002069 51881.400000 0 0 1
7.312960 24.108412 7.689667 26.340575 1.276281 1.274550 0.020470 -0.021375 384138.000000 0 0 1
8.003160 24.190112 8.951567 27.006345 1.251288 1.232944 0.007081 -0.024241 -90379.300000 0 0 1
7.489860 23.297812 10.121867 26.482792 1.259748 1.178615 0.012775 -0.021037 -698640.000000 0 0 1
6.278860 23.843012 10.538967 26.813861 1.313301 1.166859 0.009131 -0.014727 -331363.000000 0 0 1
5.682660 22.889512 11.438367 26.211803 1.327451 1.119222 0.004098 -0.008893 -322921.000000 0 0 1
4.373260 23.298812 12.108867 26.619255 1.385252 1.098546 0.011770 -0.013363 106405.000000 0 0 1
3.283160 23.220412 11.188467 25.983620 1.430336 1.125642 0.014489 -0.020005 1787480.000000 0 0 1
1.998160 23.620912 11.800467 26.480014 1.486404 1.108911 0.014771 -0.021444 1895510.000000 0 0 1
0.894560 23.776412 10.709667 26.092432 1.533190 1.147848 0.028299 -0.020007 -238682.000000 0 0 1
1.029060 24.963512 9.982367 26.905084 1.529597 1.190687 0.026418 -0.017441 -64526.100000 0 0 1
0.118760 25.101212 8.916967 26.638267 1.566065 1.229464 0.023429 -0.019185 199023.000000 0 0 1
-1.269740 25.676712 9.285967 27.333770 -1.521386 1.224172 0.029723 -0.028771 540859.000000 0 0 1
-2.195640 24.864012 10.025767 26.898995 -1.482719 1.188859 0.023670 -0.025039 197528.000000 0 0 1
-3.456440 25.457112 10.108667 27.607910 -1.435847 1.195927 0.028978 -0.026227 -467745.000000 0 0 1
-4.657640 24.509512 10.407267 27.031852 -1.383002 1.175588 0.033524 -0.026982 206397.000000 0 0 1
-5.032040 24.298112 11.797867 27.475614 -1.366587 1.126975 0.026194 -0.013913 354070.000000 0 0 1
-5.707940 25.413212 12.348067 28.825105 -1.349858 1.128098 0.025088 -0.014446 -483719.000000 0 0 1
-5.967440 25.198512 13.843867 29.363719 -1.338263 1.079849 0.008648 -0.007786 -192270.000000 0 0 1
-7.129440 24.436712 14.093467 29.096523 -1.286924 1.065154 0.004768 -0.018284 48102.400000 0 0 1
-7.464240 24.426712 15.454967 29.853562 -1.274231 1.026645 -0.008740 0.010243 -376418.000000 0 0 1
-8.768140 23.715512 15.795867 29.813004 -1.216661 1.012395 -0.007469 0.002653 751774.000000 0 0 1
-9.948340 24.394612 15.292267 30.461780 -1.183576 1.044869 -0.019145 0.016839 771769.000000 0 0 1
-11.155840 23.679612 15.483067 30.412204 -1.130522 1.036649 -0.021991 0.001090 465643.000000 0 0 1
-12.365240 24.634412 15.245267 31.498756 -1.105590 1.065581 -0.020611 0.001668 -86534.100000 0 0 1
-12.626140 25.552112 16.326467 32.846360 -1.111853 1.050594 -0.020045 0.003345 166381.000000 0 0 1
-13.387740 26.676512 15.901367 33.818950 -1.105666 1.081289 -0.018355 0.004440 -728693.000000 0 0 1
-13.959640 27.649212 16.988867 35.326649 -1.103249 1.069106 -0.004385 0.015299 -321351.000000 0 0 1
-15.090240 27.102512 17.610567 35.670626 -1.062760 1.054458 0.000539 0.005510 -260219.000000 0 0 1
-15.398340 27.789112 18.830467 36.931425 -1.064800 1.035755 0.006946 0.005280 -624277.000000 0 0 1
-16.650340 27.272412 19.523967 37.446009 -1.022678 1.022317 0.010340 -0.006561 -478469.000000 0 0 1
-17.793740 27.495012 18.760967 37.743434 -0.996418 1.050582 0.014575 -0.005760 -721578.000000 0 0 1
-18.959740 26.867712 19.205067 38.081233 -0.956275 1.042204 0.011767 -0.000477 653395.000000 0 0 1
-20.165040 26.958912 18.186967 38.264573 -0.928582 1.075497 0.015304 -0.005516 272934.000000 0 0 1
-20.812340 28.199312 18.174367 39.479898 -0.934991 1.092413 0.010396 -0.008166 50263.100000 0 0 1
-21.347140 28.502212 16.898667 39.416259 -0.927958 1.127717 0.008397 -0.008789 -471478.000000 0 0 1
-22.191540 29.790512 16.944367 40.829532 -0.930555 1.142851 -0.000352 -0.016408 -871867.000000 0 0 1
-23.296940 29.597712 17.741767 41.635829 -0.903959 1.130599 -0.005906 -0.013769 -920090.000000 0 0 1
-24.173640 30.682012 17.684567 42.877671 -0.903492 1.145663 -0.003704 -0.013270 -588012.000000 0 0 1
-25.485740 30.441012 18.423167 43.767468 -0.873770 1.136323 -0.011454 -0.012496 -487447.000000 0 0 1
-26.459160 29.665212 17.747467 43.532569 -0.842460 1.150882 0.008283 -0.016279 1290100.000000 0 0 1
-27.733100 29.525712 18.440567 44.507831 -0.816695 1.143599 0.028384 -0.021077 1157620.000000 0 0 1
-27.900330 28.326112 19.344567 44.215487 -0.792971 1.117972 0.017843 -0.021919 -742527.000000 0 0 1
-28.052710 27.081412 18.753367 43.267149 -0.767783 1.122499 0.022998 -0.020122 133978.000000 0 0 1
-28.371720 26.159212 19.737367 43.345387 -0.744847 1.098030 0.021852 -0.014876 -125911.000000 0 0 1
-28.497120 24.728412 19.099367 42.289077 -0.714710 1.102196 0.014381 -0.011422 1139450.000000 0 0 1
-29.731330 24.447112 18.358467 42.645593 -0.688172 1.125762 0.031616 -0.016441 1272280.000000 0 0 1
-29.575260 23.562212 17.211167 41.546337 -0.672717 1.143662 0.021653 -0.009651 -613026.000000 0 0 1
-30.058600 22.025912 17.405367 41.129151 -0.632380 1.133835 0.013524 -0.008054 56298.300000 0 0 1
-31.406860 21.839712 17.054367 41.883354 -0.607619 1.151424 0.014982 -0.003582 -382232.000000 0 0 1
-31.780210 20.520112 17.064867 41.500198 -0.573338 1.147027 0.004838 -0.002020 421385.000000 0 0 1
-33.163470 20.210012 16.421067 42.165291 -0.547307 1.170767 0.004976 -0.009934 314648.000000 0 0 1
-33.149470 20.451412 15.028467 41.749281 -0.552786 1.202561 0.003289 -0.008199 208614.000000 0 0 1
-34.424632 20.127612 14.489367 42.427795 -0.529083 1.222277 0.016925 -0.008983 453410.000000 0 0 1
-34.447259 20.282112 12.959067 42.022793 -0.532134 1.257305 0.018694 -0.003661 -43760.500000 0 0 1
-34.467487 21.639612 12.632567 42.612935 -0.560629 1.269824 0.011357 -0.006339 -60779.700000 0 0 1
-34.411527 21.967512 11.241367 42.344930 -0.568161 1.302104 0.006491 -0.007518 -163188.000000 0 0 1
-33.191160 21.608812 10.350467 40.935633 -0.577107 1.315174 0.006832 -0.003617 -298813.000000 0 0 1
-33.356740 20.418012 9.560067 40.261175 -0.549277 1.331055 0.016202 0.005173 711728.000000 0 0 1
-32.110330 19.813112 9.166167 38.828486 -0.552849 1.332479 0.030302 0.002637 633776.000000 0 0 1
-31.653470 18.768312 10.192867 38.184896 -0.535205 1.300586 0.009081 0.000322 -209169.000000 0 0 1
-31.201880 19.386712 11.381467 38.456985 -0.555957 1.270343 0.003022 0.007490 286107.000000 0 0 1
-30.741520 18.470512 12.393667 37.944748 -0.541032 1.238067 0.001707 -0.000608 21694.100000 0 0 1
-30.306740 19.102212 13.735467 38.367383 -0.562399 1.204673 -0.005966 0.011728 -712302.000000 0 0 1
-29.149930 19.839312 13.732967 37.840601 -0.597584 1.199401 0.002851 0.009431 -992086.000000 0 0 1
-29.431750 21.231212 13.482067 38.713801 -0.624925 1.215093 0.004085 0.016355 107788.000000 0 0 1
-28.268970 22.232012 13.665167 38.472507 -0.666421 1.207676 0.005027 0.004092 174758.000000 0 0 1
-27.751840 22.197712 14.984967 38.567503 -0.674658 1.171751 0.006559 0.011482 -888025.000000 0 0 1
-26.689620 23.049612 15.185467 38.395558 -0.712347 1.164183 0.033187 -0.005089 -922334.000000 0 0 1
-26.061050 22.780712 16.591267 38.385014 -0.718336 1.123829 0.030657 -0.007928 -159159.000000 0 0 1
-25.322840 21.546412 16.746267 37.228102 -0.704998 1.104223 0.053598 -0.002381 387850.000000 0 0 1
-25.081460 21.198012 18.068867 37.482253 -0.701681 1.067787 0.041239 0.005554 -348951.000000 0 0 1
-24.088240 20.045512 18.210867 36.245021 -0.694051 1.044380 0.046277 0.000572 -249766.000000 0 0 1
-23.614640 20.007312 19.529667 36.597154 -0.702891 1.007899 0.038354 0.000871 -207624.000000 0 0 1
-22.543740 19.100112 19.569467 35.440070 -0.702894 0.985814 0.040197 0.004379 -57761.000000 0 0 1
-21.893440 19.021412 20.972767 35.790974 -0.715318 0.944708 0.032265 -0.008504 -183147.000000 0 0 1
-22.586840 18.172612 21.816167 36.281598 -0.677519 0.925668 0.041717 -0.002446 -112577.000000 0 0 1
-22.279440 18.509912 23.153267 37.081857 -0.693245 0.896455 0.045243 -0.009610 119738.000000 0 0 1
-23.095440 17.801112 24.303967 37.960002 -0.656658 0.875970 0.031210 -0.015897 -14410.700000 0 0 1
-22.615840 16.514412 24.625967 37.291290 -0.630718 0.849488 0.036750 -0.014838 -52067.900000 0 0 1
-23.412440 15.857212 25.577267 38.128600 -0.595327 0.835488 0.040561 -0.017365 -221686.000000 0 0 1
20.509860 25.442412 34.369307 47.425942 0.892329 0.760206 0.008542 -0.009211 205905.000000 0 0 1
20.472160 24.456212 33.351077 46.146614 0.873842 0.763067 0.023639 -0.019501 -99446.000000 0 0 1
20.019460 23.199612 33.810642 45.630695 0.858848 0.736294 0.017505 -0.018214 -584969.000000 0 0 1
19.044660 22.568512 32.852634 44.173888 0.869878 0.732191 0.027653 -0.023346 -792909.000000 0 0 1
19.578260 21.951212 31.699634 43.243852 0.842475 0.748010 0.030745 -0.007725 507939.000000 0 0 1
18.738860 20.842412 31.284074 42.002908 0.838493 0.730550 0.032104 -0.013882 255312.000000 0 0 1
19.225460 20.177912 29.953254 40.914104 0.809565 0.749395 0.026377 -0.000346 374660.000000 0 0 1
20.453160 19.421712 30.096064 41.246912 0.759537 0.752977 0.025434 -0.003477 623141.000000 0 0 1
20.679860 18.687712 28.873334 40.131741 0.734838 0.767766 0.022309 0.003884 -474579.000000 0 0 1
21.814360 17.662212 28.939724 40.315353 0.680603 0.770110 0.019241 0.011233 -1170940.000000 0 0 1
23.046160 18.292912 28.923234 41.259055 0.670919 0.793976 0.024575 0.007349 -1334460.000000 0 0 1
23.999760 17.322912 29.249614 41.612638 0.625204 0.791327 0.023348 0.020150 -467691.000000 0 0 1
25.371760 17.956212 29.520874 42.867631 0.615891 0.811168 0.023806 0.005208 195311.000000 0 0 1
26.227060 18.247312 28.379674 42.734400 0.607864 0.844514 0.021565 0.017490 215676.000000 0 0 1
27.414060 18.845912 28.854854 44.037503 0.602256 0.856304 0.024234 0.011279 326974.000000 0 0 1
28.528560 18.835912 27.755894 44.034759 0.583545 0.888834 0.029067 0.019574 249662.000000 0 0 1
28.285660 19.758512 26.686844 43.619548 0.609742 0.912450 0.029608 0.006050 322260.000000 0 0 1
29.458960 19.946812 25.908784 44.011030 0.595194 0.941361 0.025724 0.001019 164422.000000 0 0 1
29.369960 21.184212 25.017024 44.013826 0.624871 0.966248 0.014561 -0.001623 -206944.000000 0 0 1
28.700760 20.846212 23.821664 42.729028 0.628179 0.979418 0.021875 -0.003428 77461.000000 0 0 1
28.973960 21.799512 22.781364 42.821719 0.645024 1.009830 0.001350 -0.011439 -224851.000000 0 0 1
29.812360 21.156412 21.655464 42.489172 0.617175 1.035995 0.010566 -0.002733 -439949.000000 0 0 1
29.112660 20.120412 21.056664 41.179619 0.604743 1.034056 0.015787 -0.002576 -352082.000000 0 0 1
29.639060 19.613612 19.850664 40.708924 0.584590 1.061430 0.004516 0.001786 222936.000000 0 0 1
30.802360 18.583912 20.070664 41.194402 0.542863 1.061895 0.019535 -0.007340 181051.000000 0 0 1
30.285860 17.326912 20.352364 40.393984 0.519661 1.042750 0.030401 0.001753 -320184.000000 0 0 1
31.307160 16.423712 20.650164 40.942714 0.483133 1.042147 0.022699 0.004865 -730456.000000 0 0 1
30.936260 14.990012 21.033864 40.301068 0.451207 1.021698 0.028532 -0.000815 112772.000000 0 0 1
30.330560 14.681812 22.300664 40.408144 0.450815 0.986173 0.021546 0.001950 -295984.000000 0 0 1
29.037960 15.128112 22.525264 39.742300 0.480288 0.968200 0.021290 0.005675 -827724.000000 0 0 1
28.401660 14.613212 23.882364 39.881920 0.475196 0.928761 0.022544 -0.000001 207483.000000 0 0 1
27.898660 13.312312 23.621464 38.904067 0.445215 0.918300 0.020801 0.005878 268257.000000 0 0 1
27.140160 12.828312 24.757124 38.911040 0.441545 0.881169 0.010254 0.014256 234009.000000 0 0 1
26.709860 11.383112 24.498354 37.988962 0.402867 0.869929 0.010108 0.011133 945347.000000 0 0 1
25.458560 11.333112 23.751464 36.615703 0.418821 0.864962 0.009398 0.015973 1272470.000000 0 0 1
25.395360 10.152412 22.995964 35.732480 0.380312 0.871657 0.007449 0.016447 841506.000000 0 0 1
24.039360 10.066512 22.172464 34.217593 0.396566 0.865861 -0.007475 0.015737 323718.000000 0 0 1
22.878360 9.946312 22.925664 33.881183 0.410098 0.827595 -0.001898 0.009672 -798775.000000 0 0 1
21.932260 9.347912 22.114664 32.518700 0.402901 0.822952 -0.007058 0.027464 334539.000000 0 0 1
20.465660 9.418912 22.710864 31.989725 0.431329 0.781380 0.007473 0.011040 866679.000000 0 0 1
20.189160 8.479612 23.775164 32.322816 0.397635 0.744313 0.017245 0.011713 388221.000000 0 0 1
18.815160 8.581612 24.121964 31.772999 0.427916 0.708718 0.028668 0.007533 202793.000000 0 0 1
18.439060 7.895412 25.443554 32.399242 0.404569 0.667594 0.032133 0.001281 -555487.000000 0 0 1
18.227260 6.495812 25.272334 31.829537 0.342346 0.653452 0.028111 0.002635 102046.000000 0 0 1
17.915760 5.792512 26.449554 32.467007 0.312711 0.618655 0.023197 -0.009225 -22985.600000 0 0 1
18.004060 4.290012 26.219604 32.093894 0.233918 0.614667 0.031640 -0.011359 -612005.000000 0 0 1
19.309460 3.903012 25.962144 32.590208 0.199442 0.649107 0.034754 -0.006840 -758915.000000 0 0 1
19.463260 2.502012 26.252944 32.776449 0.127849 0.641883 0.038598 -0.002972 -1310650.000000 0 0 1
20.854560 2.020912 26.030844 33.415589 0.096603 0.677722 0.042859 -0.011214 -1192480.000000 0 0 1
21.846660 2.624212 26.829824 34.698739 0.119547 0.686890 0.047747 -0.016642 248653.000000 0 0 1
23.148060 2.368212 26.320554 35.131363 0.101952 0.723937 0.046935 -0.016314 601430.000000 0 0 1
24.258260 2.805512 27.333264 36.652986 0.115140 0.729165 0.037764 -0.019477 -116659.000000 0 0 1
24.406860 1.848312 28.395624 37.488965 0.075585 0.711414 0.045720 -0.023450 193218.000000 0 0 1
25.036060 2.292912 29.602594 38.837808 0.091330 0.704075 0.047033 -0.007104 289005.000000 0 0 1
26.575560 2.439012 29.551114 39.818055 0.091520 0.734518 0.037066 -0.009347 -426437.000000 0 0 1
26.946860 3.733512 28.982914 39.750241 0.137674 0.753753 0.024289 0.014102 759893.000000 0 0 1
28.318760 3.970912 28.643104 40.474037 0.139314 0.784572 0.003462 0.021717 780750.000000 0 0 1
28.947260 3.069812 27.552604 40.081337 0.105654 0.812869 0.003569 0.011724 -257877.000000 0 0 1
28.364060 3.224612 26.264434 38.790959 0.113201 0.827014 0.004697 0.026588 45492.600000 0 0 1
29.023760 2.274912 25.484414 38.691203 0.078221 0.851758 0.010447 0.033250 -433112.000000 0 0 1
28.810060 2.216212 23.944464 37.526904 0.076774 0.878819 0.012337 0.014643 128818.000000 0 0 1
29.408760 3.225312 23.163964 37.574553 0.109235 0.906532 0.005605 0.022142 112408.000000 0 0 1
30.827160 3.368012 23.228464 38.745565 0.108823 0.927904 0.005134 0.024678 280259.000000 0 0 1
31.226660 4.631512 22.449064 38.736490 0.147246 0.952641 -0.012896 0.026884 -430199.000000 0 0 1
31.040860 4.514912 21.035364 37.767790 0.144438 0.980068 -0.009235 0.004802 -57585.200000 0 0 1
31.186260 5.760212 20.340964 37.676487 0.182645 1.000496 -0.002112 0.004357 -241855.000000 0 0 1
32.626360 6.188312 19.960064 38.745048 0.187446 1.029597 -0.011644 0.005202 -224323.000000 0 0 1
33.535460 6.387312 21.000064 40.080263 0.188210 1.019314 -0.006804 0.016322 160355.000000 0 0 1
33.320860 7.590512 21.787064 40.528653 0.223978 1.003241 0.001604 0.017390 -640289.000000 0 0 1
33.903460 7.325912 23.208464 41.734235 0.212810 0.981109 0.010640 0.017946 -196939.000000 0 0 1
33.213760 6.427212 24.070894 41.519524 0.191148 0.952376 0.010135 0.025056 397756.000000 0 0 1
33.916860 6.196512 25.317664 42.775393 0.180704 0.937414 0.008930 0.019334 113836.000000 0 0 1
33.238460 5.148212 26.180844 42.623185 0.153666 0.909374 0.013038 0.021672 -80253.200000 0 0 1
33.337260 3.884012 25.528674 42.168372 0.115984 0.920530 0.012793 0.010479 -158006.000000 0 0 1
32.907160 2.945612 26.456254 42.326011 0.089275 0.895589 0.008494 0.017719 -185960.000000 0 0 1
33.087660 1.478212 26.038844 42.130746 0.044646 0.904538 0.005748 0.012016 -40157.200000 0 0 1
32.083360 0.993912 25.186144 40.800388 0.030969 0.905488 0.011884 0.009686 -40026.000000 0 0 1
32.447160 -0.384588 24.925404 40.917501 -0.011852 0.915792 0.018052 0.001626 155254.000000 0 0 1
31.458960 -1.177988 23.990764 39.580432 -0.037428 0.919614 0.026664 0.003601 116934.000000 0 0 1
30.162960 -1.312288 24.494634 38.878186 -0.043479 0.889198 0.024347 0.007078 -792182.000000 0 0 1
29.455260 -2.313688 23.829564 37.958051 -0.078388 0.892090 0.024696 0.002967 427441.000000 0 0 1
27.909460 -2.202488 23.963364 36.851482 -0.078752 0.862858 0.036880 0.002858 400911.000000 0 0 1
27.371160 -0.969888 23.525864 36.105226 -0.035420 0.861116 0.024983 0.005839 -1489820.000000 0 0 1
26.005660 -1.057588 23.574364 35.116427 -0.040645 0.834808 0.036293 0.005085 -1397880.000000 0 0 1
25.250660 0.278812 23.618264 34.575945 0.011041 0.818820 0.039073 0.002014 -385953.000000 0 0 1
25.230260 0.984612 22.426664 33.771152 0.039005 0.844537 0.027721 -0.001487 381238.000000 0 0 1
24.304160 2.074412 22.459464 33.157547 0.085146 0.826634 0.025874 0.003699 264657.000000 0 0 1
24.357260 2.958512 21.151164 32.394454 0.120871 0.859356 0.018783 0.004084 -114276.000000 0 0 1
23.985360 2.308612 19.959264 31.288966 0.095955 0.879027 0.025014 0.007361 33281.200000 0 0 1
23.519260 3.318612 19.105064 30.482327 0.140176 0.893410 0.020709 0.010124 911.076000 0 0 1
23.040660 2.727412 17.763764 29.220919 0.117826 0.917367 0.014828 0.006347 13395.300000 0 0 1
24.109260 2.455112 16.877464 29.531894 0.101483 0.962464 0.007594 -0.012599 160438.000000 0 0 1
23.936360 3.202712 15.676464 28.791634 0.133011 0.995028 -0.010589 -0.000999 -105633.000000 0 0 1
23.447260 2.265112 14.549164 27.687234 0.096306 1.017514 -0.000075 0.011335 377301.000000 0 0 1
22.078360 1.884112 14.679264 26.579779 0.085131 0.985709 0.010430 0.015773 568698.000000 0 0 1
21.783460 0.729112 13.919164 25.861049 0.033458 1.002462 0.009311 0.012947 28775.000000 0 0 1
20.275960 0.300512 13.896564 24.582908 0.014820 0.970007 0.014632 0.001217 1001900.000000 0 1 0
19.393760 1.170012 13.138764 23.454508 0.060256 0.976192 0.039493 0.002450 724414.000000 0 1 0
19.648160 1.293612 11.705564 22.907288 0.065744 1.034452 0.049238 -0.004846 -1034160.000000 0 1 0
19.408560 0.019112 10.859064 22.239870 0.000985 1.060690 0.044402 -0.010884 -288933.000000 0 1 0
20.264260 -1.071388 11.059564 23.110648 -0.052822 1.071796 0.031927 -0.014935 75680.000000 0 1 0
21.523960 -0.942288 10.417864 23.931165 -0.043751 1.120396 0.040800 -0.013237 -26319.900000 0 1 0
22.423260 -2.102988 10.984364 25.057562 -0.093512 1.117017 0.028441 -0.016640 2884.790000 0 0 1
22.829260 -1.895388 12.306164 26.004024 -0.082835 1.077830 0.018849 -0.017485 -49279.500000 0 0 1
23.794360 -2.822288 12.722664 27.129376 -0.118060 1.082680 0.010397 -0.014111 -85689.900000 0 0 1
23.951360 -2.551788 14.238964 27.980839 -0.106140 1.036910 0.038018 -0.009128 177567.000000 0 0 1
24.821960 -1.450388 14.526064 28.796525 -0.058365 1.042065 0.026406 -0.006318 252787.000000 0 0 1
24.956160 -1.204988 15.917464 29.624780 -0.048247 1.003561 0.016743 -0.012016 175561.000000 0 0 1
26.119460 -0.251988 16.357264 30.819633 -0.009647 1.011321 0.038532 -0.008910 366118.000000 0 0 1
27.334460 -0.957788 16.316364 31.848293 -0.035025 1.032918 0.033054 -0.010344 -869404.000000 0 0 1
28.438260 -0.204388 16.659564 32.959331 -0.007187 1.040883 0.014521 -0.000746 -75385.700000 0 0 1
29.766460 -1.005888 16.746364 34.168621 -0.033780 1.058581 0.020820 0.004491 346271.000000 0 0 1
30.348460 -1.438088 15.526264 34.119818 -0.047350 1.098367 0.024092 0.013534 223111.000000 0 0 1
31.755860 -1.547488 15.667564 35.444350 -0.048692 1.112933 0.012960 0.013061 207509.000000 0 0 1
32.328060 -2.096288 14.318564 35.419192 -0.064754 1.154627 0.011148 0.002656 -124156.000000 0 0 1
32.150460 -1.248588 13.231464 34.789117 -0.038816 1.180640 0.017950 0.007265 63395.700000 0 0 1
32.485760 -1.919688 12.037264 34.697342 -0.059025 1.216509 0.013176 0.006858 -75122.900000 0 0 1
31.951960 -1.179888 10.791864 33.745877 -0.036910 1.245280 0.013914 0.019180 -356845.000000 0 0 1
32.505360 0.092612 10.536064 34.170391 0.002849 1.257350 0.017435 0.017222 22083.300000 0 0 1
31.654060 0.996612 9.907564 33.183318 0.031474 1.267602 0.000818 0.015636 -395533.000000 0 0 1
32.489460 2.178912 9.402264 33.892702 0.066965 1.289696 0.004018 0.011340 100418.000000 0 0 1
32.952160 1.940212 8.075964 33.982797 0.058812 1.330852 0.002360 0.012744 332658.000000 0 0 1
33.379660 3.202512 7.526564 34.367237 0.095649 1.350003 -0.001729 0.010297 -150621.000000 0 0 1
33.896060 3.229912 6.104764 34.592533 0.095002 1.393391 -0.003608 0.004143 -437226.000000 0 0 1
34.480160 4.448212 5.848864 35.254464 0.128299 1.404121 -0.000381 0.007542 -16984.500000 0 0 1
34.916160 4.475612 4.522464 35.491154 0.127486 1.443024 0.005155 -0.005470 -527900.000000 0 0 1
-34.867967 5.821812 4.073364 35.584560 -0.165441 1.456075 0.002963 -0.013480 -251061.000000 0 0 1
34.547960 6.872212 4.171264 35.470950 0.196355 1.452927 0.018782 -0.018674 1465.640000 0 0 1
34.988760 8.102112 3.633164 36.097887 0.227553 1.469978 0.010204 -0.015198 -753955.000000 0 0 1
33.820960 9.079712 3.376764 35.180976 0.262280 1.474666 0.030243 -0.014862 104664.000000 0 0 1
32.917760 8.909312 2.316764 34.180728 0.264321 1.502964 0.035016 -0.021013 8869.720000 0 0 1
32.143160 7.750312 2.358064 33.148311 0.236602 1.499599 0.038593 -0.020088 -783001.000000 0 0 1
30.869060 7.685812 1.476264 31.845721 0.244019 1.524423 0.060915 -0.022331 -13201.300000 0 0 1
31.054060 7.612312 0.070264 31.973534 0.240391 1.568599 0.054938 -0.025470 182398.000000 0 0 1
29.824660 7.515812 -0.631236 30.763554 0.246860 1.591317 0.067240 -0.027107 -253541.000000 0 0 1
29.932660 7.775212 -2.097036 30.997026 0.254140 1.638501 0.029653 -0.016909 -1045530.000000 0 0 1
28.951560 7.289912 -2.978736 30.003475 0.246669 1.670240 0.040839 -0.017097 398206.000000 0 0 1
29.374160 7.163312 -4.349236 30.546197 0.239196 1.713664 0.036396 -0.017936 -593882.000000 0 0 1
28.260060 6.573812 -5.205636 29.477867 0.228554 1.748322 0.035374 -0.006048 -647365.000000 0 0 1
28.118760 5.177312 -4.904736 29.009062 0.182084 1.740688 0.039972 -0.007513 1098980.000000 0 0 1
26.910460 4.680612 -5.490936 27.860929 0.172210 1.769179 0.024635 -0.005502 172059.000000 0 0 1
26.820660 3.140112 -5.395336 27.537570 0.116548 1.767998 0.029027 0.005485 -366274.000000 0 0 1
26.439360 2.539012 -4.182136 26.888224 0.095738 1.726968 0.032012 0.002068 418192.000000 0 0 1
26.360060 1.120712 -4.229836 26.720783 0.042490 1.729763 0.019770 0.002878 -113665.000000 0 0 1
26.251260 0.485212 -2.848336 26.409792 0.018481 1.678858 0.020111 0.001418 563456.000000 0 0 1
27.529560 0.660412 -2.218736 27.626719 0.023985 1.651194 0.048228 -0.003920 873579.000000 0 0 1
27.634960 0.383612 -0.851936 27.650750 0.013881 1.601612 0.053563 0.003240 505199.000000 0 0 1
29.006860 0.748012 -0.166236 29.016979 0.025782 1.576525 0.073851 -0.001417 349924.000000 0 0 1
30.066560 -0.058788 -0.590236 30.072410 -0.001955 1.590425 0.065442 -0.004232 -284297.000000 0 0 1
31.252360 0.428112 0.003464 31.255292 0.013698 1.570686 0.038058 -0.008403 -173856.000000 0 0 1
-2.857640 -21.303688 -8.525833 23.123647 1.437454 1.948413 0.001134 0.012926 89465.300000 0 1 0
-3.262240 -21.993688 -7.354133 23.418962 1.423544 1.890226 -0.000736 0.013197 -357810.000000 0 1 0
-2.553740 -23.156888 -6.967833 24.316943 1.460960 1.861412 -0.004074 0.012422 -177730.000000 0 1 0
-3.122740 -23.734488 -5.652533 24.597328 1.439978 1.802671 -0.012860 0.012934 -476467.000000 0 1 0
-2.774140 -22.884888 -4.592033 23.505334 1.450163 1.767422 -0.009265 0.009312 -201690.000000 0 1 0
-3.186340 -23.394688 -3.356333 23.848043 1.435430 1.712003 -0.004198 0.007308 -419433.000000 0 1 0
-2.628940 -22.747188 -2.105033 22.995153 1.455735 1.662467 -0.004826 -0.000812 -137171.000000 0 1 0
-1.298740 -23.013888 -1.738633 23.115981 1.514423 1.646081 0.003262 0.001992 -646008.000000 0 1 0
-1.173340 -22.656188 -0.360633 22.689417 1.519054 1.586691 -0.003745 -0.004732 607945.000000 0 1 0
0.299160 -22.398988 0.057467 22.401059 -1.557441 1.568231 0.007602 -0.012912 1134200.000000 0 1 0
1.025960 -21.246888 -0.563433 21.279105 -1.522546 1.597278 0.001188 -0.012242 40327.700000 0 1 0
2.272360 -21.043888 0.020967 21.166229 -1.463231 1.569806 0.007584 -0.011010 -716938.000000 0 1 0
3.050460 -19.961388 -0.674033 20.204371 -1.419152 1.604163 0.014943 -0.015282 231738.000000 0 1 0
3.861560 -20.538788 -1.708933 20.968402 -1.384953 1.652387 0.008769 -0.009221 165779.000000 0 1 0
4.672460 -19.580388 -2.408733 20.273763 -1.336548 1.689888 0.023219 -0.007645 32109.300000 0 1 0
5.396460 -20.219388 -3.595233 21.233726 -1.309980 1.740933 0.011766 0.004592 202914.000000 0 1 0
6.414160 -21.183088 -3.263533 22.372199 -1.276776 1.717193 0.018454 -0.001881 488292.000000 0 1 0
7.185460 -21.910988 -4.197633 23.438053 -1.253909 1.750863 0.012070 0.000435 -425845.000000 0 1 0
8.275360 -21.136888 -4.880533 23.217864 -1.197628 1.782582 0.006657 0.008028 -1202870.000000 0 1 0
7.962960 -20.142988 -5.835933 22.432271 -1.194329 1.833982 0.005300 0.012564 338631.000000 0 1 0
9.178360 -19.680688 -6.434333 22.648894 -1.134418 1.858854 0.009868 0.019592 68079.100000 0 1 0
8.852160 -18.341488 -7.097533 21.567241 -1.121141 1.906135 0.003968 0.015682 -499944.000000 0 1 0
9.927460 -17.767188 -7.738633 21.774156 -1.061258 1.934143 0.012387 0.009862 -303450.000000 0 1 0
9.495660 -16.611588 -8.429433 20.908557 -1.051499 1.985760 0.001889 0.011329 -62561.200000 0 1 0
9.926360 -16.698788 -9.913433 21.809592 -1.034478 2.042657 -0.000774 0.014982 -523476.000000 0 1 0
9.160860 -17.406688 -10.830133 22.454530 -1.086343 2.074091 -0.002111 0.013065 -280259.000000 0 1 0
8.691460 -16.562688 -11.871433 22.153894 -1.087536 2.136325 -0.006240 0.010755 -238505.000000 0 1 0
8.276760 -17.303288 -13.145733 23.253361 -1.124631 2.171625 0.001751 0.012515 -499326.000000 0 1 0
7.048160 -17.927788 -12.979333 23.228113 -1.196216 2.163707 -0.003082 0.015207 -556386.000000 0 1 0
6.604260 -18.439688 -14.208133 24.197301 -1.226875 2.198365 -0.002355 0.020866 -69269.400000 0 1 0
5.395760 -19.383788 -14.100633 24.569764 -1.299305 2.182059 -0.001862 0.033306 -169627.000000 0 1 0
5.686060 -20.635288 -13.471733 25.290986 -1.301919 2.132548 0.009792 0.021682 425552.000000 0 0 1
4.497360 -21.416988 -13.279933 25.598247 -1.363813 2.116223 0.021819 0.008321 430345.000000 0 0 1
4.711760 -22.875688 -12.722833 26.596395 -1.367665 2.069590 0.007470 0.011659 -350821.000000 0 0 1
5.286660 -23.719588 -13.676533 27.885752 -1.351499 2.083401 0.015450 0.003091 -209351.000000 0 0 1
4.743760 -25.053318 -13.849133 29.016727 -1.383665 2.068354 0.007251 0.003985 52750.600000 0 0 1
3.308760 -25.225518 -14.392333 29.230359 -1.440374 2.085614 0.012408 0.001022 -317212.000000 0 0 1
2.339560 -24.795688 -13.478833 28.319227 -1.476721 2.066852 0.021924 0.000924 -1528250.000000 0 0 1
1.038460 -25.155918 -13.738533 28.681804 -1.529539 2.070309 0.011183 -0.004401 -828796.000000 0 0 1
0.623160 -26.547668 -13.226833 29.666751 -1.547327 2.032917 0.002936 0.002135 -684684.000000 0 0 1
1.168560 -27.701828 -13.935333 31.031440 -1.528638 2.036522 0.005372 0.002198 290711.000000 0 0 1
0.815760 -28.979558 -13.347433 31.916049 -1.542654 2.002264 0.004641 0.006730 563547.000000 0 0 1
-0.625840 -29.550768 -13.609933 32.540280 1.549621 2.002313 -0.002718 0.001872 1123560.000000 0 0 1
-1.690240 -28.780508 -13.060933 31.650632 1.512135 1.996168 -0.017274 -0.001545 1354150.000000 0 0 1
-2.982940 -29.200698 -13.587833 32.345137 1.468996 2.004340 -0.014248 0.005177 937502.000000 0 0 1
-4.206040 -28.365898 -13.166733 31.554362 1.423591 2.001237 -0.013965 0.004746 39247.000000 0 0 1
-4.518740 -28.402128 -11.755833 31.069269 1.413020 1.958836 -0.012801 -0.003898 29685.900000 0 0 1
-4.983240 -29.658748 -11.250533 32.109944 1.404332 1.928768 -0.026386 -0.001503 -495514.000000 0 0 1
-5.417240 -29.722298 -9.733433 31.741159 1.390513 1.882468 -0.019057 -0.005608 -214215.000000 0 0 1
-6.686240 -29.298338 -9.319533 31.463504 1.346427 1.871509 -0.012921 -0.001688 -587925.000000 0 0 1
-6.958140 -27.851448 -9.382433 30.201803 1.325977 1.886682 -0.004359 -0.005666 -582514.000000 0 0 1
-8.433040 -27.497948 -8.992733 30.135072 1.273223 1.873827 0.001868 -0.001861 1146170.000000 0 0 1
-9.429740 -27.764488 -9.986833 30.976178 1.243387 1.899064 0.010620 -0.010274 115855.000000 0 0 1
-9.490340 -29.136598 -10.444233 32.374216 1.255914 1.899282 0.011758 -0.010943 -1201920.000000 0 0 1
-10.639440 -29.408548 -11.461633 33.308098 1.223665 1.922087 0.027952 -0.016476 -80212.500000 0 0 1
-10.841540 -28.502098 -12.495033 32.955036 1.207320 1.959678 0.034455 -0.015908 -340282.000000 0 0 1
-11.467040 -29.143648 -13.555333 34.126123 1.195935 1.979274 0.040235 -0.016994 -243473.000000 0 0 1
-11.906940 -28.216908 -14.744933 33.990913 1.171487 2.019492 0.039912 -0.016193 357201.000000 0 0 1
-13.063940 -27.396428 -14.590333 33.676529 1.125841 2.018891 0.037260 -0.022578 246836.000000 0 0 1
-12.879840 -26.297988 -13.733433 32.343185 1.115370 2.009334 0.045284 -0.018142 211858.000000 0 0 1
-13.936740 -25.186188 -14.024733 32.019836 1.065386 2.024171 0.064164 -0.017302 130515.000000 0 0 1
-13.605840 -24.403988 -15.137333 31.777545 1.062194 2.067299 0.059311 -0.014390 -386198.000000 0 0 1
-14.473640 -23.346188 -15.332433 31.458135 1.015831 2.079896 0.071888 -0.013205 -648185.000000 0 0 1
-14.168040 -22.499888 -16.611833 31.351735 1.008829 2.129224 0.067073 -0.009144 490651.000000 0 0 1
-13.201140 -21.437688 -16.446033 30.071856 1.018846 2.149443 0.060646 -0.008574 664211.000000 0 0 1
-12.955040 -20.771888 -17.670333 30.191804 1.013146 2.196008 0.040470 -0.003095 -367241.000000 0 0 1
-13.100440 -19.208488 -17.764333 29.260196 0.972244 2.223222 0.046338 -0.004930 -200142.000000 0 0 1
-11.983040 -18.431588 -17.420333 28.049682 0.994325 2.240882 0.055691 -0.005776 -56045.100000 0 0 1
-12.195640 -17.048288 -17.734733 27.457212 0.949837 2.273004 0.047744 -0.002525 168185.000000 0 0 1
-10.851340 -16.306488 -17.912933 26.542914 0.983629 2.311581 0.049487 -0.010758 20069.800000 0 0 1
-10.234840 -15.917688 -16.770733 25.286008 0.999368 2.295938 0.046703 -0.003093 -414822.000000 0 0 1
-8.974440 -15.329088 -16.944233 24.548493 1.041143 2.332610 0.037751 -0.005353 -795691.000000 0 1 0
-8.423240 -14.613088 -15.710233 23.050048 1.047897 2.320703 0.032577 -0.010415 -179338.000000 0 1 0
-7.889840 -15.471188 -14.680933 22.740647 1.099205 2.272580 0.028903 -0.003144 633944.000000 0 1 0
-6.715540 -16.218488 -14.995033 23.086551 1.178222 2.277741 0.023792 -0.004572 -282238.000000 0 1 0
-6.258140 -17.180288 -13.871733 22.951069 1.221472 2.219815 0.020075 0.003124 -761794.000000 0 1 0
-5.820040 -16.431688 -12.765333 21.606179 1.230388 2.202869 0.021971 -0.004238 151570.000000 0 1 0
-5.614340 -17.274888 -11.640733 21.574272 1.256564 2.140717 0.013625 -0.006145 765833.000000 0 1 0
-4.460640 -18.381388 -11.732433 22.258093 1.332727 2.125991 0.016495 -0.006310 1129050.000000 0 1 0
-3.127740 -17.852788 -11.656633 21.549521 1.397360 2.142331 0.015291 -0.005643 289478.000000 0 1 0
-2.225040 -18.933988 -11.549433 22.289820 1.453817 2.115481 0.003887 0.007298 1027840.000000 0 1 0
-0.744640 -18.640088 -11.987333 22.174389 1.530869 2.141939 0.011316 0.017825 108390.000000 0 1 0
-0.636140 -18.449288 -13.385533 22.802486 1.536330 2.198170 0.016880 0.010615 -901169.000000 0 1 0
0.528260 -17.766388 -13.689033 22.434643 -1.541071 2.227076 0.013953 0.007231 -401757.000000 0 1 0
1.754860 -18.683888 -13.904633 23.356070 -1.477147 2.208476 0.012348 0.008453 -726287.000000 0 1 0
1.656260 -19.600788 -15.004233 24.739868 -1.486497 2.222422 0.016113 0.007141 -59547.200000 0 1 0
1.072260 -20.828188 -14.679633 25.504015 -1.519361 2.184111 0.013775 0.006825 -1126420.000000 0 0 1
0.880360 -21.869088 -15.814133 27.002200 -1.530562 2.196492 0.011049 0.005030 108994.000000 0 0 1
1.925060 -22.598388 -16.478233 28.034356 -1.485816 2.199117 0.023964 0.002144 452239.000000 0 0 1
3.061160 -21.789388 -16.831633 27.702924 -1.431221 2.223802 0.026807 -0.004543 -54770.000000 0 0 1
4.315860 -22.614188 -17.131133 28.696757 -1.382217 2.210517 0.020083 -0.005289 -233116.000000 0 0 1
4.296160 -23.419688 -18.294933 30.027376 -1.389371 2.225942 0.015363 -0.006007 -420756.000000 0 0 1
5.544960 -24.008688 -18.557133 30.846894 -1.343820 2.216284 0.018641 -0.007033 9850.630000 0 0 1
5.878960 -24.050888 -20.044733 31.855905 -1.331059 2.251360 0.018055 -0.008907 17973.100000 0 0 1
6.106360 -22.711788 -20.487933 31.190837 -1.308145 2.287440 0.030499 -0.012944 -2245.600000 0 0 1
6.221460 -22.623188 -21.905833 32.099544 -1.302427 2.321884 0.055318 -0.009289 -178164.000000 0 0 1
6.435160 -21.197788 -22.302633 31.435091 -1.276061 2.359559 0.039056 -0.009752 457974.000000 0 0 1
5.320860 -20.293288 -22.296033 30.614411 -1.314371 2.386613 0.030093 -0.002674 698954.000000 0 0 1
5.785860 -18.978188 -22.602333 30.075126 -1.274879 2.421173 0.037673 -0.005422 -275979.000000 0 0 1
4.563460 -18.177388 -22.966733 29.643100 -1.324828 2.457155 0.037658 -0.002296 -1624730.000000 0 0 1
4.095760 -18.374288 -24.277833 30.721375 -1.351475 2.482027 0.034678 -0.001967 -32772.600000 0 0 1
3.306960 -17.299588 -24.756633 30.382603 -1.381917 2.523231 0.036330 -0.000229 954821.000000 0 0 1
1.894760 -17.094688 -24.089233 29.599149 -1.460408 2.521542 0.034843 0.005623 35466.600000 0 0 1
2.034660 -16.666188 -22.740133 28.266859 -1.449314 2.505596 0.031662 0.008288 203778.000000 0 0 1
0.781860 -16.138488 -22.283233 27.524617 -1.522387 2.514224 0.022196 0.006975 787110.000000 0 0 1
1.008760 -15.355988 -21.004233 26.038467 -1.505199 2.509278 0.010551 0.008529 -76872.600000 0 0 1
1.711460 -14.160588 -21.184233 25.538658 -1.450519 2.549002 0.015161 0.012726 -196945.000000 0 0 1
1.750060 -13.564388 -19.987933 24.219265 -1.442486 2.541513 0.013773 0.008646 -86848.100000 0 1 0
2.867160 -12.526688 -19.898833 23.687593 -1.345788 2.568177 0.013277 0.006348 162910.000000 0 1 0
4.100060 -12.933288 -19.313533 23.602817 -1.263802 2.529195 0.011358 -0.005398 325196.000000 0 1 0
5.165060 -12.034488 -19.573333 23.550416 -1.165384 2.551924 0.014443 -0.004553 524695.000000 0 1 0
5.612060 -11.018288 -18.478733 22.234240 -1.099704 2.551867 0.009062 -0.000555 -307073.000000 0 1 0
4.720860 -9.936688 -18.275433 21.331098 -1.127271 2.599732 -0.000781 0.001057 -260621.000000 0 1 0
4.820760 -8.792188 -19.090833 21.563909 -1.069259 2.657965 0.011140 -0.007823 -310785.000000 0 1 0
4.438160 -8.891188 -20.632333 22.900734 -1.107818 2.692742 0.019882 -0.009151 -120948.000000 0 1 0
3.026860 -8.942688 -20.671333 22.725262 -1.244427 2.713163 0.018296 -0.011699 -276368.000000 0 1 0
2.584360 -8.761388 -22.002633 23.823448 -1.283959 2.748087 0.022329 -0.017555 -907096.000000 0 1 0
1.090460 -8.601288 -22.096533 23.736639 -1.444690 2.767676 0.016495 -0.019366 -1104860.000000 0 1 0
0.603660 -7.386888 -21.569533 22.807351 -1.489257 2.810622 0.016134 -0.024058 -550108.000000 0 1 0
-0.780340 -7.327588 -21.810533 23.021768 1.464703 2.815769 0.008510 -0.015684 -163620.000000 0 1 0
-1.203440 -6.410588 -22.957933 23.866516 1.385229 2.864777 0.020787 -0.012246 -312061.000000 0 1 0
-0.964340 -7.071188 -24.190833 25.221579 1.435257 2.854716 0.026401 -0.013389 -5042.770000 0 0 1
-1.606140 -6.413188 -25.319193 26.168114 1.325400 2.886179 0.026571 -0.011521 381330.000000 0 0 1
-0.918740 -5.022888 -25.725573 26.227439 1.389885 2.945651 0.025200 -0.011451 41640.400000 0 0 1
-1.363840 -4.437188 -26.948993 27.345876 1.272596 2.971013 0.018298 -0.008215 -273848.000000 0 0 1
-0.683540 -3.295788 -27.430813 27.636551 1.366297 3.019497 0.006095 -0.010044 -730621.000000 0 0 1
-0.860240 -1.956888 -26.682663 26.768151 1.156628 3.061651 0.007967 -0.010762 -65179.400000 0 0 1
-2.191640 -1.570788 -26.439803 26.576942 0.621858 3.039961 -0.000858 -0.006428 -270145.000000 0 0 1
-2.764440 -0.811788 -27.489073 27.639650 0.285624 3.037163 0.002884 -0.004993 -668428.000000 0 0 1
-4.285140 -0.869288 -27.585823 27.930193 0.200145 2.984398 0.014558 0.007600 -393443.000000 0 0 1
-4.862540 -0.017788 -26.607203 27.047881 0.003658 2.960833 0.014660 -0.004312 549277.000000 0 0 1
-6.275840 -0.295488 -26.555873 27.288970 0.047049 2.909277 0.016277 -0.013992 763127.000000 0 0 1
-7.073440 0.849612 -25.820903 26.785713 -0.119540 2.872379 0.029084 -0.011249 -644808.000000 0 0 1
-7.348440 2.010612 -26.505133 27.578328 -0.267074 2.861702 0.035510 -0.016516 -54929.900000 0 0 1
-8.318740 1.969812 -27.513863 28.811356 -0.232510 2.840341 0.035525 -0.017055 137435.000000 0 0 1
-9.799640 1.769412 -27.051133 28.825814 -0.178634 2.788866 0.038828 -0.016543 -641065.000000 0 0 1
-10.707440 2.003012 -28.080253 30.119129 -0.184930 2.771534 0.029708 -0.021138 -506818.000000 0 0 1
-12.008340 1.722912 -27.652203 30.196241 -0.142504 2.728167 0.008594 -0.015262 -867027.000000 0 0 1
-13.085840 2.140312 -28.625833 31.547717 -0.162124 2.707809 -0.001416 -0.009358 -43757.200000 0 0 1
-14.387840 1.729512 -28.164833 31.674263 -0.119633 2.666395 -0.000226 -0.008677 1395800.000000 0 0 1
-15.548740 2.250812 -28.813553 32.818444 -0.143760 2.642398 -0.002859 -0.003509 666947.000000 0 0 1
-15.907740 3.712812 -28.436753 32.794665 -0.229292 2.620178 -0.014100 -0.001637 -394785.000000 0 0 1
-14.972940 4.733712 -28.854003 32.850425 -0.306208 2.643185 -0.009745 -0.003444 370017.000000 0 0 1
-15.002440 5.017812 -30.278473 34.161931 -0.322770 2.660138 -0.010365 -0.011391 -590053.000000 0 0 1
-16.315340 5.588712 -30.829183 35.325098 -0.330017 2.631558 -0.003960 -0.003605 -434371.000000 0 0 1
-16.546840 6.825712 -30.186303 35.094175 -0.391243 2.606363 0.001662 0.004754 -148504.000000 0 0 1
-17.750440 7.327612 -30.697303 36.209065 -0.391503 2.582581 -0.011569 0.004346 -161223.000000 0 0 1
-18.474440 8.371412 -29.792543 36.041380 -0.425458 2.543872 -0.007869 -0.000257 -60928.100000 0 0 1
-17.664140 9.488612 -29.676813 35.815762 -0.492938 2.547392 -0.009737 0.003763 234461.000000 0 0 1
-18.265140 10.395012 -28.752703 35.614457 -0.517402 2.510414 -0.004980 0.015744 176500.000000 0 0 1
-8.288940 24.583312 31.315924 40.666114 -1.245590 0.691839 -0.032420 0.008506 -1262880.000000 0 0 1
-9.026240 25.739412 31.283934 41.505119 -1.233518 0.717067 -0.016539 0.002084 -284272.000000 0 0 1
-8.569840 26.738212 32.180144 42.707561 -1.260632 0.717427 -0.009276 0.003443 -222801.000000 0 0 1
-7.330140 27.512312 31.692304 42.603526 -1.310414 0.731925 -0.007182 -0.002808 -238214.000000 0 0 1
-7.466740 28.613212 30.829774 42.719352 -1.315535 0.764568 0.014360 0.008479 -619255.000000 0 0 1
-6.204240 28.795412 30.304114 42.261184 -1.358581 0.771211 0.008282 0.003218 -791715.000000 0 0 1
-5.982240 30.009912 29.398004 42.433768 -1.374033 0.805435 0.027938 -0.001362 -288015.000000 0 0 1
-6.111340 31.259412 30.008184 43.760604 -1.377728 0.815183 0.031442 -0.000242 373832.000000 0 0 1
-5.487340 32.289612 29.284354 43.935218 -1.402463 0.841246 0.050375 0.003517 6391.920000 0 0 1
-5.948140 33.559912 29.970674 45.386004 -1.395379 0.849511 0.038650 0.008649 -215083.000000 0 0 1
-5.239340 33.803912 31.159124 46.271440 -1.417028 0.832000 0.023559 0.002827 -365314.000000 0 0 1
-5.891740 -34.422418 32.033284 47.389311 1.401279 0.828530 0.021040 0.000372 1678820.000000 0 0 1
-7.241040 34.159012 32.758554 47.878948 -1.361908 0.817297 0.002261 0.000726 1514400.000000 0 0 1
-7.009640 33.152412 33.762451 47.834303 -1.362428 0.787215 0.011090 0.002105 49656.100000 0 0 1
-6.712640 31.841512 33.326868 46.579197 -1.363025 0.773474 0.020383 0.007907 -307432.000000 0 0 1
-6.574840 30.930412 -34.533640 46.824045 -1.361345 2.400186 0.010918 0.014292 -88242.100000 0 0 1
-5.386840 31.101012 -33.790283 46.239315 -1.399293 2.390245 -0.002127 0.015474 -87851.100000 0 0 1
-5.454540 30.432912 -32.556313 44.897969 -1.393448 2.382002 0.003741 0.012599 -793971.000000 0 0 1
-4.104340 30.318112 -31.812383 44.136847 -1.436238 2.375705 -0.011900 0.011822 399576.000000 0 0 1
-3.353640 29.142012 -32.092523 43.479119 -1.456221 2.401066 -0.009925 0.012497 147019.000000 0 0 1
-2.925940 28.944312 -33.446213 44.328134 -1.470050 2.425710 -0.002313 0.012780 -1006300.000000 0 0 1
-2.353740 27.524512 -33.571873 43.476540 -1.485490 2.453067 -0.005769 0.001275 -933274.000000 0 0 1
-1.094040 27.361412 -32.959683 42.850723 -1.530833 2.448345 0.009058 0.004412 78023.800000 0 0 1
-0.594540 26.011112 -32.964513 41.995125 -1.547943 2.473429 0.011586 -0.002667 102304.000000 0 0 1
-0.092040 25.571112 -34.354275 42.826469 -1.567197 2.501723 -0.000626 0.006498 -466562.000000 0 0 1
-1.166540 25.293012 33.840926 42.264708 -1.524708 0.642350 0.000995 0.002050 276646.000000 0 0 1
-0.888040 25.135112 32.457344 41.061438 -1.535480 0.659240 0.015857 0.008210 -1053150.000000 0 0 1
-0.655940 26.443212 31.591884 41.203408 -1.545996 0.697065 0.002827 0.008082 657073.000000 0 0 1
-1.799540 27.325812 31.519314 41.754108 -1.505036 0.715326 -0.015607 0.005020 688030.000000 0 0 1
-1.524840 28.524812 30.791024 42.000919 -1.517391 0.747922 -0.014955 0.005848 -118448.000000 0 0 1
-2.467740 29.652012 31.184584 43.102318 -1.487764 0.761935 -0.001452 -0.008050 -266897.000000 0 0 1
-2.109840 30.382012 32.345754 44.427085 -1.501464 0.755303 0.008041 0.008629 305339.000000 0 0 1
-3.034940 31.431912 32.649634 45.422181 -1.474539 0.768716 0.005947 0.015945 468509.000000 0 0 1
-2.300940 32.392512 33.643997 46.759894 -1.499882 0.767706 0.026890 0.008957 -46132.000000 0 0 1
-1.231540 33.071612 33.095603 46.803495 -1.533575 0.785382 -0.001075 0.000797 -586389.000000 0 0 1
-0.412640 33.600612 34.129384 47.895577 -1.558516 0.777629 -0.012140 0.007771 730108.000000 0 0 1
0.990860 34.188512 33.726451 48.034463 1.541822 0.792411 0.003176 -0.006634 570072.000000 0 0 1
0.880860 -33.721018 33.036754 47.215571 -1.544680 0.795818 0.017631 -0.020455 143815.000000 0 0 1
2.073360 -33.228318 32.472494 46.506804 -1.508480 0.797873 -0.002416 -0.029915 -108227.000000 0 0 1
1.821960 -31.775318 32.011664 45.141301 -1.513520 0.782514 -0.001258 -0.016714 -133955.000000 0 0 1
1.329160 -30.971818 33.070390 45.328478 -1.527908 0.753100 -0.016968 -0.001812 -69107.400000 0 0 1
2.024760 -29.791918 33.243247 44.685249 -1.502937 0.731846 -0.002498 -0.007056 -863795.000000 0 0 1
1.726260 -29.118018 -34.503780 45.181299 -1.511581 2.439781 -0.005309 0.003394 785601.000000 0 0 1
0.407660 -28.546118 -34.428617 44.725571 -1.556517 2.449285 -0.011304 0.000110 756822.000000 0 0 1
0.134060 -28.023418 -33.142083 43.401931 -1.566013 2.439680 -0.025277 0.016208 -1352610.000000 0 0 1
-1.239840 -27.450618 -33.094913 43.015659 1.525661 2.448649 -0.025179 0.020863 -1243840.000000 0 0 1
-1.608840 -27.222318 -31.724113 41.833746 1.511765 2.431556 -0.019821 0.020248 36653.800000 0 0 1
-2.637940 -26.265718 -31.650773 41.214295 1.470699 2.446440 -0.004483 0.003650 -233768.000000 0 0 1
-3.018640 -25.890318 -30.172743 39.872487 1.454727 2.429094 -0.006028 0.002621 -77246.600000 0 0 1
-3.849540 -26.734118 -29.403613 39.926238 1.427786 2.398602 -0.019607 0.006162 294078.000000 0 0 1
-4.498440 -26.039018 -28.332153 38.742449 1.399727 2.391015 -0.004935 0.002827 861512.000000 0 0 1
-3.534440 -25.552318 -27.114003 37.424356 1.433347 2.381107 -0.001645 0.002488 824401.000000 0 0 1
-2.916140 -24.336918 -27.521713 36.854228 1.451541 2.413992 0.000401 0.005753 1132330.000000 0 0 1
-1.853040 -23.785818 -26.700753 35.806831 1.493048 2.412364 -0.000275 0.005944 557886.000000 0 0 1
-0.952940 -22.726218 -27.395413 35.607552 1.528890 2.448652 0.002447 0.008245 540222.000000 0 0 1
-0.310740 -23.118618 -28.634273 36.803378 1.557356 2.462326 -0.023442 0.007249 905387.000000 0 0 1
0.620960 -24.215318 -28.700093 37.556126 -1.545159 2.440584 -0.025563 0.020825 145753.000000 0 0 1
1.257460 -24.526018 -30.052063 38.810221 -1.519571 2.456458 -0.038532 0.021789 -182850.000000 0 0 1
2.160160 -23.561618 -30.514743 38.613025 -1.479371 2.482047 -0.013964 0.010936 -94295.900000 0 0 1
2.857760 -24.058618 -31.629013 39.841917 -1.452567 2.487931 -0.010608 0.014496 -149360.000000 0 0 1
4.046260 -23.107718 -32.054163 39.721634 -1.397450 2.509800 0.007859 -0.003322 14138.100000 0 0 1
5.101660 -22.987918 -31.097023 39.006360 -1.352408 2.493488 0.025789 -0.006275 750514.000000 0 0 1
6.033760 -24.054018 -30.989813 39.690938 -1.325025 2.466706 0.018500 -0.001270 32163.100000 0 0 1
6.975560 -24.231518 -32.215523 40.910449 -1.290504 2.477481 0.024247 -0.003949 -594604.000000 0 0 1
6.324860 -24.992818 -33.253353 42.076482 -1.322933 2.482107 -0.011412 0.000647 298439.000000 0 0 1
6.679160 -24.726618 34.460364 42.936389 -1.306972 0.639170 0.002385 -0.001336 -130937.000000 0 0 1
6.260560 -23.381218 33.896844 41.651795 -1.309173 0.620110 -0.002832 0.003155 923339.000000 0 0 1
4.818560 -23.318118 33.811410 41.354136 -1.367020 0.613555 0.010150 0.002304 673202.000000 0 0 1
4.434860 -22.134818 33.222894 40.166887 -1.373058 0.596830 0.029294 -0.012855 90184.500000 0 0 1
2.940560 -21.715818 33.440132 39.980821 -1.436204 0.580106 0.010005 -0.023435 1034680.000000 0 0 1
1.940960 -22.640418 32.942354 40.019427 -1.485276 0.603844 0.007053 -0.011637 404964.000000 0 0 1
1.756560 -23.740218 33.788323 41.332000 -1.496940 0.613764 -0.002334 -0.008417 -692161.000000 0 0 1
0.476660 -24.535818 33.448743 41.485564 -1.551372 0.632970 -0.000085 -0.007976 141348.000000 0 0 1
0.528360 -25.248218 32.225344 40.941721 -1.549873 0.664698 0.011036 -0.012179 -782442.000000 0 0 1
-0.693340 -25.846218 32.012474 41.149802 1.543977 0.679400 0.017987 -0.017384 -720049.000000 0 0 1
-0.629040 -26.972318 30.965874 41.070512 1.547479 0.716714 0.027104 -0.028746 -21150.700000 0 0 1
-1.909640 -27.222318 30.417494 40.864719 1.500761 0.731241 0.033703 -0.026257 246800.000000 0 0 1
-1.929840 -28.375318 29.579114 41.034217 1.502890 0.765783 0.031844 -0.019671 621702.000000 0 0 1
-3.370440 -28.509018 28.972114 40.786117 1.453119 0.780812 0.041251 -0.013400 559183.000000 0 0 1
-4.324340 -29.042218 29.858384 41.876885 1.422984 0.777023 0.039484 -0.008496 -761193.000000 0 0 1
-5.468740 -29.382318 29.150044 41.748686 1.386778 0.797879 0.027345 -0.000475 -821859.000000 0 0 1
-6.565540 -29.872318 30.124794 42.929767 1.354449 0.792984 0.021556 0.006602 874352.000000 0 0 1
-7.795140 -30.178818 29.391354 42.841300 1.318023 0.814748 0.033686 0.011520 1674080.000000 0 0 1
-8.984540 -30.457018 30.132154 43.775548 1.283941 0.811608 0.026569 0.010157 509580.000000 0 0 1
-9.001540 -31.723418 30.986344 45.249934 1.294313 0.816492 0.025421 0.011880 -681099.000000 0 0 1
-8.878240 -32.987718 30.330834 45.683391 1.307888 0.844727 0.035445 0.007421 -121912.000000 0 0 1
-9.927340 -33.404218 29.507554 45.662782 1.281921 0.868194 0.035035 0.006279 -525988.000000 0 0 1
-9.749440 34.249512 29.072364 45.970458 -1.293472 0.886131 0.043647 0.006723 -265036.000000 0 0 1
-9.965740 33.311412 30.064264 45.965488 -1.280102 0.857855 0.043248 0.009783 262219.000000 0 0 1
-9.650440 31.982012 29.730284 44.719905 -1.277739 0.843556 0.038516 -0.002386 -175254.000000 0 0 1
-10.071040 30.930312 30.782794 44.784936 -1.256018 0.812966 0.037842 0.017468 1007580.000000 0 0 1
-11.493540 30.848212 31.020374 45.232480 -1.214146 0.815096 0.031179 0.026459 982928.000000 0 0 1
-11.903640 29.662312 31.674714 44.998188 -1.189165 0.789908 0.020771 0.023584 216782.000000 0 0 1
-11.703540 29.632512 33.231548 46.036881 -1.194646 0.764330 0.025516 0.007785 62110.200000 0 0 1
-12.742940 30.381112 33.848123 47.234415 -1.173648 0.771883 0.020304 0.021065 366555.000000 0 0 1
-13.025340 30.006712 -33.944733 47.141353 -1.161259 2.374689 0.032322 0.012329 543307.000000 0 0 1
-14.349140 30.610512 -33.349383 47.487710 -1.132447 2.349383 0.033584 0.010468 681148.000000 0 0 1
-14.730140 29.820312 -32.200063 46.293327 -1.111990 2.340004 0.023982 0.005950 -604838.000000 0 0 1
-15.884140 30.323612 -31.627663 46.606184 -1.088274 2.316672 0.029589 -0.000308 -521475.000000 0 0 1
-16.087040 29.949612 -30.201983 45.474519 -1.077882 2.297155 0.038468 -0.007227 -193660.000000 0 0 1
-16.102240 28.560812 -29.989163 44.433681 -1.057429 2.311652 0.025542 -0.011534 179000.000000 0 0 1
-16.203340 28.292712 -28.598933 43.369629 -1.050690 2.290847 0.024546 -0.016796 -242316.000000 0 0 1
-16.531740 26.867712 -28.244483 42.342924 -1.019202 2.301027 0.005984 -0.018805 509496.000000 0 0 1
-17.839140 26.437412 -28.639253 42.864653 -0.977206 2.302492 0.008257 -0.011913 307630.000000 0 0 1
-18.079040 25.090112 -28.369323 41.966462 -0.946402 2.313117 -0.003026 -0.006765 224779.000000 0 0 1
-19.558140 24.776612 -28.745483 42.693139 -0.902565 2.309465 -0.012741 0.002391 113536.000000 0 0 1
-20.497440 25.340212 -27.856893 42.875143 -0.890658 2.278014 -0.013020 -0.002692 -669889.000000 0 0 1
-21.731240 24.792412 -28.230103 43.403332 -0.851102 2.278925 -0.000781 -0.008436 -664162.000000 0 0 1
-22.819340 24.999012 -27.174203 43.406338 -0.830949 2.247264 0.026718 -0.022316 -200593.000000 0 0 1
-23.350140 26.332912 -27.206833 44.484414 -0.845362 2.228882 0.012889 -0.006802 386279.000000 0 0 1
-24.439840 26.618412 -26.313113 44.701516 -0.828041 2.200172 0.012577 -0.012954 461537.000000 0 0 1
-24.282440 26.515912 -24.801933 43.679130 -0.829337 2.174653 0.007475 0.003836 -505033.000000 0 0 1
-24.077340 25.187112 -24.378433 42.525485 -0.807921 2.181283 0.008743 -0.002921 829097.000000 0 0 1
-25.276270 24.371112 -24.208833 42.648664 -0.767168 2.174425 0.012036 0.000322 771903.000000 0 0 1
-26.010580 24.479312 -22.848433 42.400918 -0.755079 2.139887 -0.002736 0.002468 64350.000000 0 0 1
-25.359650 23.840212 -21.733133 41.034091 -0.754525 2.128968 -0.008236 0.002098 1166980.000000 0 0 1
-24.199140 24.605912 -21.291333 40.550834 -0.793733 2.123574 0.001688 0.003847 613890.000000 0 0 1
-23.439140 23.955512 -20.160033 39.111210 -0.796293 2.112334 0.008914 -0.005789 -277975.000000 0 0 1
-24.129840 24.045512 -18.932133 38.972574 -0.783648 2.078053 0.010217 -0.004502 806601.000000 0 0 1
-23.219440 23.697912 -17.878033 37.687631 -0.795596 2.065049 0.012849 -0.013258 97707.100000 0 0 1
-23.811840 23.957712 -16.493633 37.590100 -0.788452 2.025032 0.002230 -0.013373 16168.900000 0 0 1
-24.248540 25.302512 -16.173833 38.597949 -0.806665 2.003177 0.007463 -0.016387 -14924.000000 0 0 1
-24.957640 25.335412 -14.980133 38.589782 -0.792909 1.969462 -0.027666 -0.003271 -357801.000000 0 0 1
-24.951640 26.675212 -14.227233 39.199049 -0.818771 1.942226 -0.026876 0.004565 -236214.000000 0 0 1
-23.747140 27.055312 -13.587233 38.477649 -0.850425 1.931700 -0.010124 -0.001694 -141640.000000 0 0 1
-23.920640 27.864612 -12.423333 38.768194 -0.861412 1.897003 -0.004689 -0.000281 460134.000000 0 0 1
-22.548240 28.349012 -11.858633 38.114522 -0.898879 1.887180 0.005166 0.005046 -270456.000000 0 0 1
-21.855140 27.416912 -11.194833 36.805686 -0.897801 1.879853 -0.000999 -0.000531 -755527.000000 0 0 1
-20.640740 28.011912 -10.790333 36.429914 -0.935761 1.871502 -0.007325 0.008928 -261876.000000 0 0 1
-19.658740 26.914812 -10.302033 34.885600 -0.939954 1.870575 0.018142 0.000285 -162313.000000 0 0 1
-19.121540 26.201312 -11.387833 34.377679 -0.940353 1.908431 0.016419 -0.009012 52662.500000 0 0 1
-18.259140 25.183212 -10.915233 32.965629 -0.943454 1.908275 0.013532 0.009141 -84924.900000 0 0 1
-17.974440 23.977612 -11.818833 32.213215 -0.927529 1.946464 0.022004 -0.000090 -47425.400000 0 0 1
-17.315640 22.937712 -11.131233 30.820032 -0.924168 1.940317 0.007997 -0.003171 -6358.460000 0 0 1
-16.802140 21.950712 -11.959233 30.119245 -0.917481 1.979111 0.034176 -0.005030 -96415.300000 0 0 1
-16.502140 20.642612 -11.224633 28.712897 -0.896408 1.972434 0.018641 -0.003413 -1046020.000000 0 0 1
-17.586240 19.869712 -10.882533 28.679450 -0.846287 1.960002 0.015746 0.000308 -1050780.000000 0 0 1
-17.297440 18.541712 -10.484533 27.439423 -0.820102 1.962861 0.021688 -0.010768 -722229.000000 0 0 1
-18.410540 17.468612 -10.669233 27.530582 -0.759151 1.968759 0.025378 -0.001998 -43792.400000 0 0 1
-18.870840 17.172712 -12.003333 28.197352 -0.738320 2.010521 0.029158 -0.002282 -25058.900000 0 0 1
-19.746640 18.153112 -12.469733 29.579715 -0.743377 2.005965 0.028510 0.005158 -1022230.000000 0 0 1
-20.533440 17.606812 -13.707033 30.323337 -0.708815 2.039835 0.032021 0.001976 216436.000000 0 0 1
-19.760640 17.672412 -14.905333 30.413254 -0.729670 2.082993 0.043928 0.000370 256512.000000 0 0 1
-20.521940 17.210212 -15.977533 31.186904 -0.697853 2.108675 0.021308 0.006678 -24598.800000 0 0 1
-19.649240 16.852412 -17.217133 31.089003 -0.708926 2.157719 0.035590 0.004940 -245578.000000 0 0 1
-18.967840 18.023612 -17.617733 31.543844 -0.759878 2.163392 0.011336 -0.005104 320675.000000 0 0 1
-18.223040 17.708812 -18.801333 31.609672 -0.771088 2.207809 0.005539 0.004038 -476266.000000 0 0 1
-17.308440 18.819212 -19.382133 32.084450 -0.827191 2.219429 -0.009587 0.009781 -113485.000000 0 0 1
-16.306640 19.072512 -18.410633 31.122639 -0.863417 2.203778 -0.010808 0.003042 57858.500000 0 0 1
-15.464640 20.137812 -18.783833 31.583523 -0.915912 2.207733 0.003797 -0.000668 -70658.100000 0 0 1
31.976487 31.296712 2.092067 44.792373 0.774655 1.524073 0.030807 -0.004996 -464093.000000 0 0 1
33.223647 31.012612 1.540667 45.474900 0.750991 1.536910 0.039672 -0.011656 -472491.000000 0 0 1
33.450437 31.710212 0.350067 46.093295 0.758698 1.563202 0.035796 -0.001867 -8052.390000 0 0 1
34.842819 31.519212 -0.276833 46.984672 0.735357 1.576688 0.023292 0.000038 -92690.000000 0 0 1
-34.469018 32.255312 0.298767 47.208131 -0.752233 1.564468 -0.001763 0.007754 71782.900000 0 0 1
-33.345110 32.279512 -0.575033 46.413295 -0.769162 1.583186 0.010785 0.006861 689490.000000 0 0 1
-32.322680 33.421912 -0.150233 46.495187 -0.802116 1.574027 -0.005610 0.008672 312492.000000 0 0 1
-31.666280 33.194112 1.051867 45.888003 -0.808950 1.547872 -0.002899 0.012788 33613.000000 0 0 1
-31.197950 34.406012 1.672567 46.474544 -0.834260 1.534800 -0.010061 0.011634 -150942.000000 0 0 1
-30.535950 34.117212 3.030967 45.886983 -0.840734 1.504695 0.001425 0.015536 -162439.000000 0 0 1
-30.261350 -33.752818 3.649267 45.478778 0.839886 1.490469 -0.001458 0.017015 25300.300000 0 0 1
-29.562460 -34.000318 4.846167 45.314965 0.855104 1.463647 0.008967 0.008621 -316730.000000 0 0 1
-29.419460 -32.700918 5.713467 44.356492 0.838173 1.441630 0.012363 0.009654 33373.300000 0 0 1
-30.546310 -32.157318 6.388067 44.810463 0.811085 1.427752 0.011468 0.007622 145809.000000 0 0 1
-30.932890 -32.844418 7.581667 45.750204 0.815361 1.404310 0.008905 -0.006989 -678117.000000 0 0 1
-32.138790 -32.163518 8.286867 46.217593 0.785783 1.390520 0.010371 -0.005479 437263.000000 0 0 1
-33.374160 -32.072718 7.612967 46.908966 0.765515 1.407783 0.003716 0.008538 176237.000000 0 0 1
-34.072752 -33.289918 7.364067 48.201666 0.773778 1.417419 0.001979 0.005405 -460844.000000 0 0 1
34.763252 -33.100818 7.194167 48.537655 -0.760907 1.422030 0.001340 0.015129 322296.000000 0 0 1
34.087447 -32.721818 8.418667 47.995265 -0.764960 1.394478 -0.003824 0.019410 935298.000000 0 0 1
32.677547 -32.564218 8.214167 46.858542 -0.783661 1.394589 -0.001034 0.024266 756239.000000 0 0 1
31.916817 -32.637818 9.584267 46.645135 -0.796567 1.363850 0.002140 0.017493 -96433.600000 0 0 1
30.515567 -32.557918 9.393367 45.601022 -0.817767 1.363321 0.005742 0.008926 349941.000000 0 0 1
29.747557 -32.477518 10.588167 45.296972 -0.829242 1.334864 0.008307 0.018709 140477.000000 0 0 1
29.753937 -31.117018 11.298567 44.510934 -0.807787 1.314150 0.020190 0.012808 -493438.000000 0 0 1
29.149417 -29.940618 10.711767 43.137815 -0.798787 1.319856 0.024817 0.000249 349851.000000 0 0 1
29.603297 -29.542518 9.403467 42.866546 -0.784371 1.349632 0.025168 -0.007052 118971.000000 0 0 1
29.015017 -28.125918 9.057167 41.412206 -0.769840 1.350306 0.027748 -0.014899 340797.000000 0 0 1
29.435737 -27.640318 7.764167 41.118513 -0.753952 1.380832 0.034397 -0.020987 -170645.000000 0 0 1
29.033097 -26.318318 7.595067 39.915657 -0.736391 1.379351 0.038470 -0.015862 19598.700000 0 0 1
29.374737 -25.761518 6.210367 39.561341 -0.719959 1.413164 0.020608 -0.002504 799944.000000 0 0 1
30.766237 -25.560718 5.945167 40.438307 -0.693244 1.423243 0.019335 -0.007840 141175.000000 0 0 1
30.861007 -24.828818 4.732267 39.890680 -0.677501 1.451885 0.009716 -0.003980 -282415.000000 0 0 1
32.283917 -24.452718 4.316967 40.728650 -0.648238 1.464603 0.018620 -0.017867 -286175.000000 0 0 1
32.996177 -25.674318 4.097167 42.008393 -0.661244 1.473109 0.018176 -0.006904 -491603.000000 0 0 1
34.375315 -25.395318 4.021967 42.927389 -0.636273 1.476966 0.031994 -0.013284 195916.000000 0 0 1
-35.055211 -26.628518 4.044467 44.207505 0.649627 1.479180 0.024569 -0.007408 -125559.000000 0 0 1
35.071550 -27.308918 5.280167 44.762382 -0.661594 1.452561 0.018142 0.003195 -221854.000000 0 0 1
-35.024015 -28.718318 5.287167 45.600193 0.686794 1.454589 0.013151 0.002962 -476681.000000 0 0 1
34.398193 -29.524418 6.289967 45.765606 -0.709300 1.432921 0.014688 0.005909 2050720.000000 0 0 1
33.071827 -29.931718 5.832567 44.985246 -0.735599 1.440775 0.012673 0.011893 1392400.000000 0 0 1
32.205537 -28.785218 5.662967 43.564373 -0.729378 1.440437 0.020240 0.000517 -533993.000000 0 0 1
30.749517 -29.237918 5.424467 42.776320 -0.760205 1.443644 0.009427 -0.000904 -343613.000000 0 0 1
30.513807 -29.546418 4.061767 42.668270 -0.769293 1.475458 0.000303 0.006404 371542.000000 0 0 1
29.163757 -29.328318 3.649967 41.521046 -0.788212 1.482776 0.006052 0.008823 509991.000000 0 0 1
28.203337 -30.498118 3.824567 41.715594 -0.824471 1.478985 0.021232 0.007112 -258180.000000 0 0 1
28.425137 -31.651018 3.026567 42.648980 -0.839043 1.499772 0.018904 0.017631 -710696.000000 0 0 1
27.378457 -32.554718 3.207267 42.657663 -0.871552 1.495539 0.024664 0.010135 -515157.000000 0 0 1
27.468277 -33.958618 2.510567 43.749251 -0.890667 1.513379 0.020550 0.009564 -408878.000000 0 0 1
27.193597 -33.924718 1.128467 43.493122 -0.895089 1.544848 0.028720 -0.000916 363916.000000 0 0 1
27.450277 33.879212 0.608167 43.608355 0.889843 1.556850 0.020851 0.008704 -143595.000000 0 0 1
26.969647 33.773212 -0.840933 43.228450 0.896939 1.590251 0.018941 -0.000128 -369918.000000 0 0 1
27.863577 34.488212 -1.662533 44.368680 0.891247 1.608276 0.017124 0.005749 283694.000000 0 0 1
27.401917 -34.517518 -2.982033 44.172578 -0.899813 1.638356 0.016602 0.002087 -345804.000000 0 0 1
28.416617 -33.807818 -3.915433 44.337381 -0.871824 1.659221 0.011162 0.009647 163163.000000 0 0 1
28.530737 -32.432618 -3.657733 43.350395 -0.849315 1.655273 0.001777 0.010192 112788.000000 0 0 1
29.602537 -32.021718 -4.472533 43.837247 -0.824635 1.673000 -0.003084 0.006634 -100488.000000 0 0 1
29.828437 -30.468618 -4.528433 42.878655 -0.796015 1.676604 -0.000501 0.009981 109214.000000 0 0 1
28.690447 -29.769818 -5.056033 41.652699 -0.803859 1.692482 -0.009597 0.007734 429334.000000 0 0 1
28.793707 -28.325318 -5.170033 40.720148 -0.777198 1.698105 -0.000290 -0.000043 -74373.000000 0 0 1
29.862797 -27.718418 -6.127333 41.202446 -0.748174 1.720063 0.015827 -0.006071 1221070.000000 0 0 1
31.230807 -28.033618 -5.741533 42.358143 -0.731503 1.706762 0.016848 0.002185 808094.000000 0 0 1
32.244317 -27.647418 -6.623633 42.987769 -0.708795 1.725494 0.019904 -0.004677 46632.900000 0 0 1
32.460237 -28.518318 -7.841033 43.914044 -0.720844 1.750313 0.011560 -0.004285 -498464.000000 0 0 1
31.322007 -28.435118 -8.687933 43.186853 -0.737125 1.773349 0.009449 0.001921 -2138.350000 0 0 1
31.162057 -29.495418 -9.668133 43.983250 -0.757929 1.792420 -0.002263 0.007136 220436.000000 0 0 1
30.987527 -30.991518 -9.206033 44.782274 -0.785463 1.777846 -0.005817 0.012025 -402930.000000 0 0 1
32.161697 -31.435718 -8.608633 45.789603 -0.773983 1.759926 0.004190 0.009980 -784017.000000 0 0 1
31.864037 -32.621318 -7.858733 46.273394 -0.797141 1.741456 0.010756 0.002280 512868.000000 0 0 1
33.147907 -33.282418 -7.281533 47.534449 -0.787423 1.724586 0.016251 0.001472 237913.000000 0 0 1
33.077677 34.472412 -6.787933 48.255113 0.806043 1.711932 0.010145 -0.003786 -310930.000000 0 0 1
32.521777 34.364812 -5.517633 47.634552 0.812946 1.686890 0.020051 -0.000314 -118633.000000 0 0 1
32.495797 32.903812 -4.993533 46.514224 0.791637 1.678359 0.004339 0.000065 4431.360000 0 0 1
31.699847 32.023912 -5.774233 45.428549 0.790484 1.698247 0.010252 -0.019514 18337.300000 0 0 1
31.632547 30.680112 -5.337733 44.388948 0.770115 1.691337 0.014223 0.000298 426142.000000 0 0 1
30.361417 29.969412 -5.908833 43.068499 0.778901 1.708427 0.021866 -0.012788 329619.000000 0 0 1
30.362107 29.750412 -7.279633 43.126994 0.775223 1.740404 0.006315 -0.005737 471874.000000 0 0 1
29.098317 29.287812 -7.788933 42.013753 0.788644 1.757265 -0.001050 -0.018036 601146.000000 0 0 1
29.032697 28.917512 -9.249233 42.007955 0.783411 1.792793 -0.005026 -0.008094 -210889.000000 0 0 1
29.816867 27.732612 -9.525533 41.819602 0.749197 1.800590 -0.002873 -0.002075 378423.000000 0 0 1
30.258507 27.740112 -10.886933 42.469005 0.742004 1.830041 -0.010844 0.003678 423842.000000 0 0 1
31.492387 28.650812 -11.200133 44.023658 0.738186 1.828036 -0.005114 0.000524 -380735.000000 0 0 1
32.695527 28.160912 -10.607033 44.435837 0.711022 1.811828 0.002258 -0.006609 201806.000000 0 0 1
33.761027 29.030112 -10.912433 45.843599 0.710197 1.811140 0.006043 -0.007339 -281019.000000 0 0 1
33.925957 30.396312 -10.193533 46.677773 0.730579 1.790951 0.000153 -0.008356 -840488.000000 0 0 1
34.682420 30.369412 -9.009333 46.971689 0.719194 1.763796 0.009521 -0.005857 -61992.100000 0 0 1
34.328575 31.421912 -8.140033 47.244553 0.741219 1.743956 0.007333 -0.012749 -254789.000000 0 0 1
-34.971688 31.531712 -6.990633 47.603958 -0.733718 1.718179 0.003100 -0.003301 949479.000000 0 0 1
-33.641300 31.880512 -7.347933 46.926498 -0.758531 1.728027 0.020737 -0.003861 707370.000000 0 0 1
-32.838300 30.864312 -8.011733 45.772782 -0.754421 1.746735 0.025991 -0.007138 336449.000000 0 0 1
-31.518540 31.456512 -8.650333 45.362526 -0.784413 1.762665 0.047390 -0.012627 185374.000000 0 0 1
-30.563180 31.729012 -7.666933 44.717111 -0.804112 1.743102 0.052823 -0.012068 763022.000000 0 0 1
-29.303680 32.236712 -8.207433 44.331402 -0.833022 1.757009 0.042170 -0.022541 847054.000000 0 0 1
-29.203900 33.623412 -8.874133 45.410922 -0.855626 1.767480 0.030931 -0.015633 -722056.000000 0 0 1
-29.270410 -34.343618 -8.086233 45.843519 0.864980 1.748112 0.028937 -0.017679 37851.300000 0 0 1
-28.307170 -34.148018 -7.066533 44.914574 0.878648 1.728785 0.029290 -0.020927 11635.700000 0 0 1
-28.428190 -32.759718 -6.315933 43.832090 0.856071 1.715393 0.029419 -0.021094 365416.000000 0 0 1
-29.582800 -32.717118 -5.494333 44.449292 0.835666 1.694722 0.026760 -0.021297 164964.000000 0 0 1
-29.219780 -32.916418 -4.160133 44.210778 0.844821 1.665033 0.025025 -0.022013 -266787.000000 0 0 1
-30.387120 -33.112918 -3.186333 45.055468 0.828298 1.641576 0.017217 -0.010051 -384792.000000 0 0 1
-31.091640 -31.888718 -3.015133 44.639349 0.798053 1.638392 -0.005197 -0.000732 203716.000000 0 0 1
-31.856020 -31.956518 -1.781433 45.157487 0.786973 1.610256 0.007415 0.005862 120146.000000 0 0 1
-32.587510 -30.643718 -1.572033 44.759966 0.754667 1.605925 0.016740 0.012422 -564605.000000 0 0 1
-33.431160 -30.505918 -0.480733 45.260188 0.739678 1.581418 0.006891 0.017509 -446111.000000 0 0 1
-34.186152 -29.310218 -0.687933 45.036154 0.708758 1.586072 0.028850 0.014401 -364267.000000 0 0 1
-35.074504 -29.004818 0.517567 45.516680 0.690959 1.559425 0.027512 0.013047 -1292560.000000 0 0 1
34.261077 -29.905618 0.693867 45.482402 -0.717625 1.555540 0.009057 0.024467 -247529.000000 0 0 1
33.309987 -29.589718 1.723567 44.587861 -0.726321 1.532131 0.006404 0.022228 990721.000000 0 0 1
32.451637 -28.272618 1.618367 43.070510 -0.716687 1.533213 0.006882 0.020988 -121803.000000 0 0 1
31.449827 -28.319818 0.591067 42.325561 -0.733078 1.556831 0.004118 0.019831 235596.000000 0 0 1
30.619287 -27.188418 0.659567 40.953460 -0.726118 1.554690 0.004876 0.018795 -400551.000000 0 0 1
29.425217 -27.323118 -0.301033 40.155782 -0.748373 1.578293 -0.006084 0.010694 -496851.000000 0 0 1
28.343977 -28.009718 0.279467 39.849761 -0.779467 1.563783 -0.004057 0.016250 -265194.000000 0 0 1
28.296257 -29.373318 -0.102333 40.785788 -0.804072 1.573305 0.005017 0.016601 -179844.000000 0 0 1
27.729217 -29.745118 -1.510833 40.693540 -0.820459 1.607932 0.000678 0.006448 375571.000000 0 0 1
26.303267 -29.697818 -1.597633 39.703586 -0.845940 1.611046 0.003083 0.015953 491493.000000 0 0 1
25.917007 -30.342718 -2.824133 40.004344 -0.863902 1.641451 0.002784 0.012333 -349697.000000 0 0 1
24.409187 -30.581518 -2.958633 39.240173 -0.897174 1.646266 -0.011182 0.005800 -336915.000000 0 0 1
23.775587 -29.330118 -3.169733 37.889070 -0.889613 1.654552 0.002922 0.011904 -1194750.000000 0 0 1
22.427487 -29.623518 -3.296333 37.301620 -0.922777 1.659281 0.003558 0.007770 -881586.000000 0 0 1
21.585387 -28.336618 -3.427733 35.786062 -0.919818 1.666727 0.000271 0.009750 -126313.000000 0 0 1
21.419887 -27.898518 -4.765333 35.494328 -0.916014 1.705459 0.003626 0.014886 71131.600000 0 0 1
21.035687 -26.514618 -4.770233 34.180115 -0.900116 1.710815 0.008192 0.005875 -186063.000000 0 0 1
20.440787 -26.069018 -6.128733 33.689477 -0.905824 1.753733 0.008741 -0.007840 486615.000000 0 0 1
19.179487 -26.703418 -6.367233 33.488310 -0.947933 1.762094 0.018853 -0.008262 -15633.100000 0 0 1
18.677287 -26.262518 -7.579133 33.105954 -0.952609 1.801780 0.030385 -0.009294 -3702.310000 0 0 1
17.140487 -26.360118 -7.671433 32.365151 -0.994250 1.810101 0.031877 -0.008715 -124626.000000 0 0 1
16.455287 -25.459818 -6.868733 31.083087 -0.997010 1.793615 0.027434 -0.007810 176646.000000 0 0 1
15.052787 -25.748418 -6.903733 30.614196 -1.041770 1.798260 0.028289 -0.012153 373536.000000 0 0 1
14.405687 -24.976718 -5.769033 29.404796 -1.047637 1.768271 0.014667 -0.000521 -271038.000000 0 0 1
14.831887 -25.358318 -4.451733 29.712743 -1.041559 1.721188 0.011134 -0.001486 340932.000000 0 0 1
14.189587 -24.490718 -3.509233 28.521122 -1.045672 1.694149 0.005392 0.011210 140997.000000 0 0 1
14.113787 -25.092218 -2.082333 28.864416 -1.058425 1.643001 0.007602 0.001816 391898.000000 0 0 1
13.314387 -26.298918 -2.088433 29.551101 -1.102144 1.641527 0.013938 -0.002596 444394.000000 0 0 1
14.103087 -27.438718 -1.878033 30.908047 -1.096023 1.631596 0.023109 -0.005127 -539465.000000 0 0 1
13.308487 -28.737918 -2.153433 31.743047 -1.137103 1.638688 0.030674 -0.002434 10959.000000 0 0 1
12.299587 -28.972318 -1.191533 31.497537 -1.169325 1.608635 0.036866 -0.018115 -252613.000000 0 0 1
11.679087 -30.225618 -1.269333 32.428387 -1.202071 1.609949 0.040892 -0.024121 88847.400000 0 0 1
12.553787 -31.506718 -0.949833 33.928941 -1.191629 1.598795 0.035025 -0.019885 44894.300000 0 0 1
13.569687 -31.811618 -1.866833 34.635250 -1.167602 1.624722 0.039240 -0.016404 -336623.000000 0 0 1
14.223687 -33.037418 -1.523133 36.001448 -1.164249 1.613117 0.039008 -0.016056 -1169420.000000 0 0 1
15.597487 -33.096618 -2.120333 36.649196 -1.130395 1.628683 0.029009 -0.007156 -1150100.000000 0 0 1
16.304287 -31.999618 -1.579133 35.948561 -1.099566 1.614738 0.023896 0.002421 -663013.000000 0 0 1
17.680387 -32.120418 -1.838733 36.711011 -1.067615 1.620904 0.015265 0.003083 -711444.000000 0 0 1
18.421587 -31.068918 -0.991533 36.133305 -1.035594 1.598241 0.006953 0.005730 -378754.000000 0 0 1
18.171787 -29.756418 -1.455833 34.896672 -1.022558 1.612527 -0.003110 0.003198 146670.000000 0 0 1
18.674787 -28.823318 -0.541733 34.348578 -0.995895 1.586569 0.000199 0.007404 -505568.000000 0 0 1
18.111487 -27.425818 -0.732133 32.874572 -0.987158 1.593069 0.003215 0.007669 -484290.000000 0 0 1
18.499187 -26.773418 -1.945533 32.600935 -0.966168 1.630509 0.004247 0.004360 281264.000000 0 0 1
17.607587 -26.948918 -3.036933 32.334104 -0.992056 1.664858 0.013754 0.006623 -220311.000000 0 0 1
31.572447 -29.037718 14.158967 45.171726 -0.743602 1.251975 0.015636 -0.005316 -300766.000000 0 0 1
32.280377 -29.878318 15.000767 46.473215 -0.746773 1.242128 0.027470 0.010583 -44400.600000 0 0 1
31.463117 -30.286518 16.068967 46.533995 -0.766346 1.218220 0.027982 0.017111 -135518.000000 0 0 1
32.309577 -30.902418 17.207267 47.905723 -0.763141 1.203396 0.017949 0.019608 -289240.000000 0 0 1
31.609777 -31.495018 18.240967 48.206297 -0.783580 1.182736 0.000167 0.015698 -330079.000000 0 0 1
32.444957 -31.749418 19.334667 49.340958 -0.774564 1.168146 -0.006628 0.016706 -389289.000000 0 0 1
33.027897 -33.135118 19.353567 50.629425 -0.787019 1.178556 -0.004249 0.014231 214494.000000 0 0 1
34.138287 -33.297618 18.449467 51.132542 -0.772933 1.201653 -0.001494 0.023955 603300.000000 0 0 1
34.680840 34.509612 18.583167 52.335534 0.782923 1.207799 0.010925 0.009674 -207418.000000 0 0 1
-34.428725 34.288212 17.719567 51.720418 -0.783353 1.221110 0.010291 0.012119 430982.000000 0 0 1
-33.333260 -33.976618 18.103567 50.924022 0.794956 1.207346 0.009299 0.006886 571740.000000 0 0 1
-32.282320 -33.891318 17.163967 49.853500 0.809708 1.219316 0.017382 0.001694 -916828.000000 0 0 1
-31.142270 -32.995618 17.633867 48.677563 0.814286 1.200106 0.011135 -0.008924 -1411130.000000 0 0 1
-30.094940 -33.007318 16.758167 47.707700 0.831519 1.211872 0.014734 -0.010192 -963199.000000 0 0 1
-30.216340 -32.141018 15.656667 46.810293 0.816254 1.229753 0.013902 -0.004504 -1476040.000000 0 0 1
-29.062930 -32.145318 14.691667 45.758283 0.835715 1.243936 0.001499 -0.011193 -817531.000000 0 0 1
-27.914830 -31.719118 15.370467 44.962112 0.849106 1.221908 0.001241 -0.006990 -690929.000000 0 0 1
-26.768180 -31.816518 14.562467 44.055553 0.871357 1.233912 0.008068 -0.012526 1156390.000000 0 0 1
-25.435030 -31.180018 15.201267 43.014100 0.886527 1.209591 0.026219 -0.013721 1556130.000000 0 0 1
-24.438240 -31.259918 14.179867 42.136430 0.907267 1.227574 0.033485 -0.008226 -704197.000000 0 0 1
-23.226140 -30.844418 14.713667 41.319774 0.925372 1.206713 0.029743 -0.005060 -606119.000000 0 0 1
-22.040840 -30.660618 13.747467 40.185383 0.947521 1.221644 0.021344 0.002517 247344.000000 0 0 1
-21.625540 -31.855118 13.117367 40.675274 0.974392 1.242438 0.019338 -0.005789 737503.000000 0 0 1
-20.298740 -31.790618 12.563367 39.755760 1.002538 1.249271 0.002479 -0.003510 878837.000000 0 0 1
-19.977440 -33.209418 12.017367 40.575617 1.029231 1.270114 0.009435 -0.003882 65411.800000 0 0 1
-20.844440 -33.682218 11.002967 41.110191 1.016627 1.299848 0.006576 -0.007996 286581.000000 0 0 1
-20.517640 34.037512 10.755167 41.172799 -1.028324 1.306510 0.011418 -0.007766 -15627.000000 0 0 1
-21.524440 33.407612 9.793567 40.930234 -0.998440 1.329178 0.002585 -0.006050 -547090.000000 0 0 1
-21.422940 33.954312 8.482767 41.034071 -1.007941 1.362570 -0.003865 -0.012529 -16627.800000 0 0 1
-22.546040 33.636212 7.676767 41.214699 -0.980289 1.383439 0.008923 -0.010803 -729263.000000 0 0 1
-22.392240 33.973912 6.170667 41.154784 -0.988050 1.420291 0.008069 -0.011024 -705408.000000 0 0 1
-21.629040 32.978712 5.474567 39.816852 -0.990321 1.432866 0.005548 -0.016230 893913.000000 0 0 1
-20.232340 32.837312 5.790467 39.002130 -1.018595 1.421780 -0.004809 -0.011583 175551.000000 0 0 1
-19.318440 34.015112 5.369267 39.484921 -1.054286 1.434391 -0.000881 -0.011797 -1016630.000000 0 0 1
-19.327340 -33.969018 6.207367 39.572360 1.053506 1.413285 -0.002986 -0.006708 141410.000000 0 0 1
-18.658540 -34.192918 7.463667 39.661103 1.071273 1.381481 0.000448 -0.009324 -521151.000000 0 0 1
-18.589140 -32.972318 8.371867 38.766198 1.057435 1.353124 -0.002792 -0.007260 -854401.000000 0 0 1
-17.805740 -31.952118 7.794967 37.399783 1.062394 1.360834 -0.003642 -0.005397 -191751.000000 0 0 1
-17.781540 -30.731918 8.558967 36.522457 1.046259 1.334248 0.005131 -0.010588 -47924.400000 0 0 1
-17.227040 -30.830718 9.961167 36.695081 1.061251 1.295889 0.002139 -0.007350 -483019.000000 0 0 1
-15.907140 -31.306918 9.920867 36.490874 1.100687 1.295458 -0.000412 -0.008970 -550767.000000 0 0 1
-15.332340 -31.254218 11.220567 36.576057 1.114722 1.258995 -0.002447 -0.003725 639082.000000 0 0 1
-13.849440 -31.724418 11.187367 36.378605 1.159180 1.258204 0.007210 -0.001309 703958.000000 0 0 1
-12.855240 -30.894518 10.648567 35.115815 1.176487 1.262704 -0.009137 0.004623 269513.000000 0 0 1
-11.612140 -31.511818 10.344267 35.140295 1.217735 1.272000 -0.020651 0.011238 194867.000000 0 0 1
-10.596240 -30.616018 9.648967 33.804193 1.237599 1.281334 -0.019895 0.021102 -250414.000000 0 0 1
-9.953340 -29.846918 10.617367 33.205963 1.248914 1.245338 -0.019697 0.016029 -596744.000000 0 0 1
-9.025840 -28.921018 10.099967 31.935880 1.268289 1.249014 -0.007361 0.019756 339885.000000 0 0 1
-8.398540 -28.128718 11.288167 31.451280 1.280647 1.203697 -0.006992 0.024363 -342243.000000 0 0 1
-9.364440 -27.383718 11.937967 31.306163 1.241292 1.179562 0.004639 0.003748 -416099.000000 0 0 1
-9.008740 -27.190318 13.293967 31.578480 1.250857 1.136269 0.007270 0.008119 153493.000000 0 0 1
-9.580940 -25.808218 13.775767 30.783605 1.215330 1.106825 -0.002704 -0.001900 128679.000000 0 0 1
-9.026940 -24.703918 13.125067 29.394500 1.220464 1.107930 0.004145 -0.002665 -36617.800000 0 0 1
-9.646840 -24.355018 11.882067 28.764770 1.193663 1.144966 0.008271 0.000801 -9730.800000 0 0 1
-9.090640 -23.084218 11.280367 27.253762 1.195643 1.144061 0.007409 -0.004059 -75391.000000 0 0 1
-7.774940 -23.218818 10.790267 26.758047 1.247677 1.155727 0.002713 0.003797 -181559.000000 0 0 1
-7.351240 -22.008418 10.153067 25.327771 1.248428 1.158333 0.004027 0.005717 -270886.000000 0 0 1
-6.119640 -22.169418 9.281067 24.800631 1.301464 1.187233 0.009624 0.002272 195859.000000 0 1 0
-4.952540 -22.703218 9.901367 25.258679 1.356018 1.167993 -0.001424 -0.005069 -186210.000000 0 0 1
-3.880040 -22.679418 8.997267 24.705496 1.401355 1.198043 -0.001397 0.000729 -177704.000000 0 1 0
-2.636440 -23.454918 9.456467 25.426537 1.458862 1.189727 0.008962 -0.007853 -113683.000000 0 0 1
-2.044040 -22.872818 10.595467 25.290470 1.481668 1.138507 0.009065 -0.001921 -689563.000000 0 0 1
-1.067340 -23.745218 11.091667 26.229748 1.525877 1.134191 0.016903 -0.007490 -92624.500000 0 0 1
-0.219840 -23.013718 12.145567 26.022959 1.561244 1.085212 0.014197 -0.003929 -201733.000000 0 0 1
-0.926740 -22.786718 13.370167 26.435861 1.530149 1.040535 0.005957 -0.000329 -187541.000000 0 0 1
-0.148340 -22.258618 14.426567 26.525345 1.564132 0.995744 0.003415 -0.002077 132227.000000 0 0 1
0.610160 -20.897718 14.280567 25.318403 -1.541607 0.971527 -0.003186 -0.009556 37999.900000 0 0 1
1.738560 -20.883818 13.461867 24.907395 -1.487739 0.999793 0.009412 -0.012228 -431776.000000 0 1 0
2.335160 -19.602518 13.311767 23.809974 -1.452230 0.977516 0.009081 -0.010030 527793.000000 0 1 0
3.781060 -19.558918 12.739267 23.646070 -1.379835 1.001846 0.024179 -0.009332 458823.000000 0 1 0
3.849260 -20.103118 11.440567 23.448641 -1.381610 1.061115 0.025240 -0.008701 -556757.000000 0 1 0
5.218860 -20.246918 11.160967 23.701084 -1.318527 1.080480 0.042382 -0.009979 51425.200000 0 1 0
5.502360 -20.985618 9.841567 23.822859 -1.314372 1.144925 0.044448 -0.020107 -412658.000000 0 1 0
5.823660 -20.158018 8.777467 22.744332 -1.289553 1.174593 0.040631 -0.020945 -233250.000000 0 1 0
6.086760 -20.942818 7.594867 23.093988 -1.287951 1.235692 0.038777 -0.026015 -443404.000000 0 1 0
7.430560 -21.710518 7.520667 24.147883 -1.241037 1.254086 0.037300 -0.008848 -436925.000000 0 1 0
8.548160 -21.010018 7.020667 23.744087 -1.184389 1.270628 0.048341 -0.012999 105503.000000 0 1 0
9.130760 -19.971218 7.855067 23.322145 -1.141974 1.227272 0.062694 -0.007434 98170.700000 0 1 0
9.783060 -20.418918 9.215467 24.445149 -1.123994 1.184257 0.056227 0.000434 72348.800000 0 1 0
8.891260 -20.237318 10.296967 24.385059 -1.156834 1.134853 0.062314 -0.009079 196363.000000 0 1 0
9.632160 -19.859418 11.457667 24.868718 -1.119207 1.091983 0.071547 -0.006802 704518.000000 0 1 0
8.715160 -20.051418 12.730967 25.300018 -1.160788 1.043499 0.061921 -0.014563 594158.000000 0 0 1
8.400060 -21.428018 12.974267 26.420685 -1.197194 1.057485 0.052962 -0.012719 159793.000000 0 0 1
7.477860 -21.652618 14.028267 26.861619 -1.238265 1.021318 0.054123 -0.015383 244079.000000 0 0 1
7.694060 -23.053918 14.685367 28.396157 -1.248678 1.027266 0.050481 -0.016692 299959.000000 0 0 1
7.580260 -24.139818 13.773067 28.807786 -1.266532 1.072304 0.047536 -0.011510 -272754.000000 0 0 1
7.492060 -25.336218 14.516467 30.146024 -1.283284 1.068387 0.047448 -0.009933 129786.000000 0 0 1
7.427760 -26.641618 13.647767 30.841676 -1.298898 1.112400 0.039705 -0.014348 232365.000000 0 0 1
8.635360 -27.170918 13.119767 31.384017 -1.263076 1.139510 0.040531 -0.005599 -1168.310000 0 0 1
8.479660 -28.260018 12.295767 31.964342 -1.279286 1.175945 0.036916 -0.013133 432666.000000 0 0 1
9.796760 -28.637918 11.527167 32.387999 -1.241185 1.206910 0.033886 -0.011594 1352270.000000 0 0 1
10.865360 -29.158018 12.355167 33.479789 -1.214099 1.192827 0.023628 -0.015011 1315960.000000 0 0 1
12.049060 -29.468618 11.599267 33.883954 -1.182660 1.221408 0.031334 -0.008871 648711.000000 0 0 1
12.991960 -30.414318 12.366867 35.309506 -1.167093 1.212967 0.016226 -0.009127 -523446.000000 0 0 1
13.483560 -29.856018 13.592667 35.467574 -1.146596 1.177492 0.018307 -0.011934 327887.000000 0 0 1
14.447060 -30.536118 14.366867 36.709385 -1.128888 1.168679 0.024239 -0.014244 -439545.000000 0 0 1
15.856160 -30.544018 13.818567 37.085141 -1.091966 1.188968 0.022927 -0.006527 -1278400.000000 0 0 1
16.485960 -29.289618 13.785367 36.327744 -1.058133 1.181571 0.019610 -0.013301 183598.000000 0 0 1
17.733560 -29.374518 13.112867 36.732666 -1.027657 1.205762 0.006351 -0.006321 -145308.000000 0 0 1
18.444560 -28.026918 13.131067 36.029639 -0.988747 1.197752 0.007611 -0.015369 174453.000000 0 0 1
19.776260 -28.160418 12.613767 36.649922 -0.958547 1.219443 -0.005650 -0.015299 478095.000000 0 0 1
20.364260 -26.857818 12.579767 35.976326 -0.922052 1.213580 -0.008918 -0.013953 541539.000000 0 0 1
21.842360 -27.091718 12.095267 36.842169 -0.892264 1.236294 0.000677 -0.010326 319201.000000 0 0 1
22.716460 -27.795618 12.916267 38.150543 -0.885615 1.225410 0.012944 -0.015417 -478387.000000 0 0 1
23.781760 -28.265418 12.150967 38.886399 -0.871332 1.253001 0.005228 -0.024706 -796104.000000 0 0 1
24.845360 -29.067718 12.960567 40.375741 -0.863557 1.244012 0.014808 -0.018489 -247825.000000 0 0 1
25.822560 -28.377818 13.647767 40.723049 -0.832508 1.229047 0.013617 -0.012687 359534.000000 0 0 1
26.941460 -27.955418 12.865367 40.900677 -0.803866 1.250812 0.006683 -0.013671 117073.000000 0 0 1
28.180260 -27.307518 13.520167 41.504488 -0.769671 1.238989 0.034723 -0.014748 -123131.000000 0 0 1
28.138760 -25.941918 13.835267 40.696284 -0.744799 1.223918 0.044871 -0.017108 21410.400000 0 0 1
27.354960 -25.514218 14.908667 40.268319 -0.750595 1.191536 0.041105 -0.009857 -538103.000000 0 0 1
28.191560 -25.439018 16.214567 41.289465 -0.734119 1.167226 0.014527 -0.000376 82651.600000 0 0 1
28.512760 -26.717318 16.749067 42.512632 -0.752901 1.165840 0.017015 0.002728 141323.000000 0 0 1
29.074560 -26.448218 18.042567 43.247804 -0.738131 1.140445 0.017379 0.019886 158430.000000 0 0 1
29.562960 -27.731418 18.743067 44.657617 -0.753442 1.137675 0.014944 0.028405 711411.000000 0 0 1
28.438760 -28.513418 19.156767 44.595514 -0.786709 1.126783 0.009199 0.027850 870284.000000 0 0 1
29.041160 -29.596618 19.868867 45.979568 -0.794871 1.123950 0.006405 0.020919 570545.000000 0 0 1
28.033960 -30.676518 20.366767 46.279120 -0.830378 1.115102 0.017983 0.022886 -1113940.000000 0 0 1
27.135860 -30.160018 21.305567 45.824762 -0.838131 1.087234 0.013579 0.025668 426215.000000 0 0 1
26.079460 -31.046918 21.676667 45.977465 -0.872136 1.079847 0.002007 0.017059 251998.000000 0 0 1
24.989860 -31.393118 20.662667 45.132769 -0.898481 1.095255 0.037565 0.008543 -1372070.000000 0 0 1
25.340560 -32.281318 19.632667 45.493616 -0.905274 1.124589 0.028267 0.010545 -243869.000000 0 0 1
24.552160 -32.324918 18.468867 44.596053 -0.921216 1.143802 0.041793 0.008716 -365084.000000 0 0 1
24.920860 -31.231918 17.437567 43.595306 -0.897319 1.159293 0.037268 0.012701 -176594.000000 0 0 1
26.195760 -31.582618 16.949167 44.395427 -0.878363 1.179078 0.026216 0.006785 -11065.600000 0 0 1
26.607360 -30.628918 15.985867 43.607685 -0.855545 1.195462 0.034415 -0.005815 216474.000000 0 0 1
27.924360 -30.989118 15.230967 44.408082 -0.837373 1.220712 0.032225 -0.009228 15207.100000 0 0 1
27.784260 -31.971718 14.204367 44.675720 -0.855360 1.247236 0.041505 0.000492 214864.000000 0 0 1
27.706060 -33.287818 14.666967 45.725535 -0.876657 1.244264 0.018463 -0.001765 -95348.000000 0 0 1
26.921360 -34.273518 13.732967 45.694946 -0.904968 1.265542 0.033457 -0.000728 -33815.800000 0 0 1
27.428060 -34.381518 12.443467 45.708065 -0.897425 1.295078 0.044466 0.000743 -173843.000000 0 0 1
26.775560 33.718512 11.765367 44.635104 0.899669 1.304054 0.039627 -0.003905 -576030.000000 0 0 1
27.416060 33.362612 10.417867 44.421123 0.882927 1.334066 0.044835 -0.010865 -209454.000000 0 0 1
28.686960 32.780112 10.580767 44.826667 0.851891 1.332510 0.022276 -0.007170 35453.000000 0 0 1
29.036360 32.035312 9.400767 44.246422 0.834464 1.356701 0.023671 -0.013707 548060.000000 0 0 1
30.423460 31.322012 9.582667 44.704394 0.799950 1.354764 0.002544 -0.010173 508962.000000 0 0 1
30.410260 30.326212 10.558567 44.226083 0.784014 1.329727 -0.004026 -0.003984 655362.000000 0 0 1
31.755760 29.883212 10.744167 44.909596 0.755028 1.329213 0.003749 -0.001596 553552.000000 0 0 1
32.092260 29.006112 11.966067 44.882674 0.734930 1.300925 -0.004215 0.016577 -37333.500000 0 0 1
31.577660 27.690112 11.965867 43.670046 0.719899 1.293240 -0.000767 0.014047 433373.000000 0 0 1
32.128060 27.060412 13.132567 44.010709 0.699988 1.267786 0.002421 0.000202 55633.800000 0 0 1
31.938360 25.567812 13.131767 42.967606 0.675068 1.260207 -0.008049 -0.000406 343433.000000 0 0 1
32.771460 25.071812 12.044467 42.984108 0.653064 1.286786 0.004889 0.000230 372655.000000 0 0 1
32.778160 23.712912 11.716567 42.118736 0.626283 1.288898 0.005408 -0.006571 299551.000000 0 0 1
31.536460 23.333812 10.806167 40.691379 0.637005 1.302007 0.002032 -0.011591 567153.000000 0 0 1
30.418560 23.115512 11.620767 39.933168 0.649816 1.275519 -0.004932 -0.007387 -747755.000000 0 0 1
29.264760 22.956712 10.831167 38.739528 0.665186 1.287430 -0.003760 -0.005220 262011.000000 0 0 1
28.018860 22.506012 11.660367 37.782817 0.676717 1.257059 -0.016784 0.003163 324910.000000 0 0 1
27.671660 23.372012 12.707467 38.385563 0.701362 1.233382 -0.017130 0.004295 193183.000000 0 0 1
26.720460 22.806512 13.615167 37.676156 0.706535 1.201056 0.010934 -0.003303 89708.300000 0 0 1
23.224860 9.772012 25.934924 36.159461 0.398271 0.770966 0.001151 0.003805 -309214.000000 0 0 1
23.085160 8.414912 26.382354 36.052239 0.349548 0.749864 0.016230 0.002298 105408.000000 0 0 1
21.729060 8.162212 26.661864 35.350088 0.359328 0.716326 0.022351 -0.002564 -773406.000000 0 0 1
21.583660 6.751712 27.283684 35.437824 0.303173 0.692107 0.042841 -0.008457 -211459.000000 0 0 1
21.860460 6.663112 28.721244 36.704041 0.295856 0.672111 0.037058 -0.008254 -794325.000000 0 0 1
23.206360 6.577312 28.991064 37.713101 0.276184 0.693949 0.030770 -0.006534 -1321250.000000 0 0 1
23.385760 6.317812 30.485204 38.937850 0.263858 0.671451 0.037992 -0.006426 -421051.000000 0 0 1
23.070160 7.476112 31.253034 39.558522 0.313381 0.659913 0.030347 -0.003204 354431.000000 0 0 1
23.051060 7.176612 32.631824 40.591761 0.301824 0.636968 0.020705 0.002667 -287891.000000 0 0 1
22.764360 8.418812 33.481547 41.353433 0.354225 0.627252 0.021747 0.001637 391463.000000 0 0 1
23.935860 9.238212 33.454235 42.159884 0.368342 0.654243 0.023090 0.000757 467422.000000 0 0 1
24.179160 9.789212 -34.371730 43.149464 0.384690 2.492403 0.037012 -0.000916 38233.400000 0 0 1
25.324460 10.813412 -34.328498 44.007998 0.403559 2.465544 0.021955 -0.003818 108390.000000 0 0 1
24.849660 12.131312 34.398533 44.135398 0.454154 0.677110 0.010266 -0.006716 149473.000000 0 0 1
25.420960 13.130212 -33.913793 44.370858 0.476769 2.440792 0.009963 -0.005108 -613141.000000 0 0 1
24.828360 14.540012 -34.051283 44.579696 0.529780 2.440022 0.009559 -0.004388 -690813.000000 0 0 1
25.259560 15.166112 33.823673 44.856406 0.540721 0.716600 0.007380 -0.010714 343303.000000 0 0 1
25.169560 16.557112 33.759570 45.247688 0.581855 0.728602 0.010940 -0.003718 -112362.000000 0 0 1
26.026960 17.473412 -34.407765 46.546934 0.591244 2.402687 0.005427 -0.014342 129340.000000 0 0 1
25.533160 17.630512 -33.035223 45.322215 0.604318 2.387506 0.001663 -0.021080 196767.000000 0 0 1
26.473060 17.098512 -32.150783 45.020605 0.573476 2.366184 -0.000969 -0.018396 -613169.000000 0 0 1
25.790560 16.686012 -30.857533 43.540364 0.574250 2.358466 0.003118 -0.015345 95361.700000 0 0 1
24.950160 15.520012 -31.041733 42.743075 0.556468 2.383633 0.004562 -0.008218 396050.000000 0 0 1
24.027660 15.516412 -29.959213 41.420308 0.573398 2.379362 0.019688 -0.016982 472533.000000 0 0 1
23.025060 14.298612 -29.990223 40.422978 0.555719 2.406711 0.014240 -0.010238 356673.000000 0 0 1
22.116160 14.235312 -31.102033 40.732114 0.571906 2.439628 0.019601 -0.011943 496638.000000 0 0 1
21.824960 12.920812 -31.561323 40.489423 0.534531 2.464656 0.014869 0.003399 122610.000000 0 0 1
20.932860 12.089812 -30.560083 38.964944 0.523750 2.472358 0.013699 0.010730 64404.600000 0 0 1
19.687960 12.754812 -30.354253 38.362503 0.574861 2.483643 0.023239 0.004751 303458.000000 0 0 1
18.851860 11.975212 -29.530813 37.025224 0.565920 2.494079 0.026751 0.010366 118737.000000 0 0 1
17.518960 12.696212 -29.156843 36.307427 0.627120 2.503200 0.028137 0.001438 655052.000000 0 0 1
16.617260 12.698012 -30.296563 36.813782 0.652493 2.537412 0.011377 -0.000311 401606.000000 0 0 1
15.334560 13.051712 -29.827343 35.988419 0.705150 2.547763 0.025305 -0.017135 -806009.000000 0 0 1
14.371460 13.596812 -30.876543 36.671147 0.757708 2.571748 0.021855 -0.015503 182544.000000 0 0 1
13.684860 12.622512 -31.685843 36.750454 0.745038 2.610372 0.018336 -0.011456 26241.600000 0 0 1
12.658960 11.866012 -31.069763 35.586257 0.753077 2.632287 0.017121 -0.013144 -96307.800000 0 0 1
11.660260 11.486312 -32.211793 36.131657 0.777883 2.671468 0.017961 -0.008085 312919.000000 0 0 1
11.073460 12.571312 -32.980663 36.991668 0.848662 2.671596 0.020968 -0.012144 -10582.800000 0 0 1
10.135660 12.051412 -33.866733 37.348678 0.871530 2.706360 0.025927 -0.011530 -407861.000000 0 0 1
9.692260 12.951912 34.148327 37.786243 0.928367 0.442407 0.035278 -0.009868 -25356.200000 0 0 1
10.655660 13.101212 33.128309 37.184267 0.887978 0.471423 0.031602 0.000679 605710.000000 0 0 1
10.014860 13.699912 32.024984 36.243408 0.939556 0.487283 0.028741 -0.010334 -462655.000000 0 0 1
10.711260 13.306812 30.689664 35.123465 0.893047 0.507905 0.040310 -0.012107 -216276.000000 0 0 1
10.682160 11.981212 30.286764 34.277486 0.842655 0.487352 0.046713 -0.012683 277186.000000 0 0 1
11.255460 11.770612 29.011024 33.269689 0.807767 0.511532 0.044761 -0.007787 -312855.000000 0 0 1
11.833760 10.359112 28.664374 32.695495 0.719049 0.501823 0.050740 -0.006920 -492452.000000 0 0 1
10.976060 9.282212 28.477634 31.899984 0.701980 0.467459 0.035531 -0.010116 -114966.000000 0 0 1
11.712760 8.077512 28.311414 31.685503 0.603735 0.465687 0.026356 -0.011250 -32047.600000 0 0 1
10.800160 6.855712 28.565994 31.299525 0.565600 0.421037 0.017562 -0.010686 697851.000000 0 0 1
9.658060 6.831712 27.673534 30.096094 0.615648 0.403975 0.012659 -0.014729 453292.000000 0 0 1
8.858660 5.679412 27.873364 29.793556 0.570103 0.360983 0.012408 -0.017737 -217413.000000 0 0 1
9.348360 4.315012 27.308264 29.184798 0.432442 0.360554 0.012696 -0.010839 -514447.000000 0 0 1
10.233460 3.627812 28.133574 30.155973 0.340682 0.368315 0.008231 -0.009574 -121601.000000 0 0 1
10.606860 2.418512 27.590634 29.658013 0.224181 0.375586 0.000684 -0.008076 -319542.000000 0 0 1
11.238360 1.565112 28.718154 30.878515 0.138375 0.376283 -0.006674 -0.008306 279599.000000 0 0 1
10.275860 1.351012 29.753844 31.507297 0.130725 0.335190 -0.010067 0.000425 481459.000000 0 0 1
10.629360 0.233812 30.518914 32.317829 0.021993 0.335224 -0.012406 0.003547 65335.800000 0 0 1
9.561460 -0.002388 31.590874 33.006133 -0.000250 0.293900 0.002981 0.003841 9204.280000 0 0 1
9.699460 0.947512 32.640644 34.064482 0.097378 0.290148 -0.009689 -0.003102 -623361.000000 0 0 1
8.464660 1.164112 33.235314 34.316056 0.136669 0.251637 0.008119 -0.006437 -629302.000000 0 0 1
8.406360 2.503012 34.048524 35.160118 0.289393 0.252124 0.009670 -0.009431 -158743.000000 0 0 1
8.382360 3.772712 33.383144 34.625592 0.422918 0.268697 0.010759 -0.012641 -69459.300000 0 0 1
9.557260 4.098612 32.697024 34.310861 0.405125 0.307926 -0.002988 -0.007501 -350336.000000 0 0 1
9.379560 5.479312 32.027314 33.819341 0.528703 0.326995 0.004036 -0.011261 96453.300000 0 0 1
9.612560 6.556412 32.883834 34.881720 0.598589 0.340092 0.001072 -0.008915 63139.400000 0 0 1
9.727960 7.713912 32.065304 34.384900 0.670435 0.369411 0.000875 -0.008037 -222333.000000 0 0 1
9.891160 8.982512 32.918414 35.526645 0.737292 0.385571 0.031324 -0.016377 -286137.000000 0 0 1
8.785760 9.489112 33.614200 36.015931 0.823867 0.367260 0.029277 -0.020218 -153477.000000 0 0 1
8.376560 8.720312 -34.331819 36.398961 0.805502 2.802957 0.023461 -0.009939 -267602.000000 0 0 1
7.186160 9.353612 -33.594283 35.604870 0.915701 2.803927 0.019527 -0.008459 -167921.000000 0 0 1
6.579760 8.459212 -32.692903 34.404613 0.909726 2.824826 0.021634 -0.002722 -594669.000000 0 0 1
5.316260 8.928312 -32.341253 33.969604 1.033738 2.830712 0.013994 -0.000852 -433374.000000 0 0 1
4.835960 8.114212 -31.103533 32.506256 1.033333 2.846749 0.011044 0.004978 -527612.000000 0 0 1
5.308160 8.630312 -29.886723 31.557488 1.019377 2.814737 0.010367 0.001407 410210.000000 0 0 1
4.768960 7.976812 -28.685863 30.153793 1.031957 2.828282 0.010290 0.004889 1839650.000000 0 0 1
3.202960 8.155012 -28.403973 29.724550 1.196547 2.842394 0.004924 0.004721 1643820.000000 0 0 1
2.312860 7.433812 -29.264573 30.282439 1.269163 2.881583 0.005609 0.004386 -428579.000000 0 0 1
1.002960 7.567412 -28.822983 29.816707 1.439028 2.882693 0.023603 0.016167 -1012460.000000 0 0 1
0.042460 7.022212 -29.875273 30.689496 1.564750 2.910728 0.031286 0.012181 -417618.000000 0 0 1
0.132760 7.729812 -31.093103 32.039798 1.553623 2.897896 0.023874 0.013873 259256.000000 0 0 1
-0.329140 6.924712 -32.162393 32.901056 -1.523301 2.929293 0.029468 0.014406 -541966.000000 0 0 1
-0.289840 7.636012 -33.541983 34.401414 -1.532858 2.917596 0.034874 0.001715 177415.000000 0 0 1
0.983660 7.964212 -34.091069 35.022810 1.447909 2.910410 0.027263 0.000291 299450.000000 0 0 1
1.783960 6.916012 34.552558 35.283041 1.318353 0.203840 0.036309 -0.003028 -437336.000000 0 0 1
1.612960 6.624512 33.070225 33.765746 1.331960 0.203320 0.035561 -0.012353 -173586.000000 0 0 1
0.436960 5.865912 32.806194 33.329360 1.496442 0.177415 0.037540 -0.015169 70068.000000 0 0 1
0.193460 5.679512 31.386314 31.896630 1.536747 0.179119 0.050596 -0.019568 -48593.300000 0 0 1
1.038660 4.637512 30.646334 31.012628 1.350463 0.153847 0.042708 -0.015853 -319263.000000 0 0 1
0.828360 4.695712 29.238774 29.625020 1.396185 0.161656 0.032991 -0.017073 -9584.650000 0 0 1
1.477760 3.642812 28.572064 28.841232 1.185416 0.136728 0.018891 -0.005010 -41184.200000 0 0 1
1.455760 3.886212 27.068784 27.385050 1.212380 0.152126 0.012017 -0.002304 -333447.000000 0 0 1
2.104160 5.038712 26.777614 27.328679 1.175211 0.201159 0.009266 -0.001737 -242747.000000 0 0 1
1.998860 5.320712 25.379454 26.008116 1.211434 0.220317 0.000006 -0.000333 -907198.000000 0 0 1
2.410660 6.807112 25.054594 26.074523 1.230439 0.280619 -0.000456 0.003745 439237.000000 0 0 1
3.790560 7.151412 25.188794 26.457256 1.083404 0.310908 0.002538 0.003098 404018.000000 0 0 1
4.493760 6.669412 24.063484 25.371760 0.977881 0.322532 0.007483 0.000923 243912.000000 0 0 1
6.065060 6.502012 24.153404 25.738066 0.820154 0.352736 0.011659 -0.000930 1149860.000000 0 0 1
6.532760 5.396712 24.948614 26.348336 0.690454 0.327417 0.009038 -0.002309 80053.700000 0 0 1
6.133660 4.080012 24.649304 25.726571 0.586975 0.290411 0.000755 0.003872 -536489.000000 0 0 1
6.583260 3.598912 23.226764 24.408483 0.500288 0.312442 0.008347 -0.000499 293290.000000 0 1 0
5.816460 4.068312 22.123264 23.234052 0.610356 0.310466 -0.003690 0.000960 568680.000000 0 1 0
4.568460 3.440112 21.799164 22.536831 0.645427 0.256561 0.002966 -0.006511 876327.000000 0 1 0
3.789460 4.163212 20.626164 21.380622 0.832361 0.266445 0.004058 -0.018030 216187.000000 0 1 0
3.301060 5.414812 21.081664 22.014853 1.023322 0.292205 -0.002762 -0.010912 47641.900000 0 1 0
2.122360 5.745112 20.376764 21.277294 1.216927 0.291978 -0.005487 -0.008063 -199144.000000 0 1 0
1.610960 7.140712 20.536264 21.801906 1.348909 0.342410 -0.008398 -0.000936 500677.000000 0 1 0
2.480860 8.084112 19.815364 21.544284 1.273039 0.403352 -0.012033 -0.001820 504617.000000 0 1 0
2.213460 9.364912 20.287564 22.454092 1.338699 0.442899 -0.007932 0.005939 118721.000000 0 1 0
3.129060 10.429712 19.674164 22.486499 1.279327 0.505500 0.005129 -0.006555 -834073.000000 0 1 0
3.060960 10.675012 18.246464 21.360215 1.291548 0.546735 -0.014938 -0.006467 -144576.000000 0 1 0
4.054460 11.469612 17.637264 21.425772 1.231011 0.603807 -0.007825 -0.013049 -240655.000000 0 1 0
5.524960 11.056012 17.823864 21.689876 1.107369 0.606304 0.009535 -0.016240 -552810.000000 0 1 0
5.691560 9.803812 17.239164 20.632435 1.044804 0.581687 0.003544 -0.012919 -315310.000000 0 1 0
6.987060 9.362512 17.545664 21.079041 0.929680 0.587417 0.006241 -0.007108 -165459.000000 0 1 0
7.013560 7.906512 17.967464 20.845448 0.845176 0.531719 0.011702 -0.007542 -102750.000000 0 1 0
6.715460 7.748512 19.350264 21.899077 0.856700 0.487277 0.017891 -0.007886 -155544.000000 0 1 0
6.774160 6.409312 19.776664 21.865154 0.757731 0.440630 0.014510 -0.015141 -126049.000000 0 1 0
8.129960 5.788812 20.169064 22.503283 0.618757 0.459505 0.028822 -0.008197 905271.000000 0 1 0
9.168260 5.907212 19.130764 22.021314 0.572366 0.518147 0.027180 -0.008473 1190460.000000 0 1 0
10.450160 5.349012 19.399264 22.674859 0.473090 0.544202 0.039477 -0.012867 381753.000000 0 1 0
10.504960 3.781212 19.334764 22.326774 0.345507 0.523670 0.036473 -0.007808 -240712.000000 0 1 0
9.820460 3.139912 20.444264 22.896908 0.309460 0.467088 0.030374 -0.012315 400718.000000 0 1 0
10.086560 1.739112 20.442864 22.862062 0.170740 0.464194 0.025534 -0.012263 -283179.000000 0 1 0
9.108260 0.924112 21.257564 23.145159 0.101113 0.406664 0.022796 -0.010484 -196773.000000 0 1 0
9.433460 1.148212 22.585464 24.503300 0.121121 0.398275 0.015285 -0.011773 -2432.690000 0 1 0
8.527760 0.428112 23.344764 24.857272 0.050160 0.350642 0.010183 -0.009717 -866768.000000 0 1 0
8.753260 0.542912 24.869824 26.370864 0.061945 0.339024 0.005203 -0.001205 -263684.000000 0 0 1
9.987560 0.039912 25.331924 27.229750 0.003996 0.375558 0.012797 -0.004199 191539.000000 0 0 1
10.065060 -1.375088 25.342994 27.303180 -0.135779 0.381233 0.011961 -0.004768 -219878.000000 0 0 1
11.492260 -1.963288 25.423254 27.969061 -0.169202 0.429971 0.009130 0.000147 37035.600000 0 0 1
11.501560 -3.360688 25.212944 27.915455 -0.284280 0.443654 0.010198 0.008934 -145906.000000 0 0 1
12.699660 -3.982588 25.617944 28.869039 -0.303885 0.479155 0.010537 0.006617 -184570.000000 0 0 1
12.627360 -5.567088 25.479814 28.976949 -0.415240 0.496378 0.015908 0.006036 -285800.000000 0 0 1
12.597660 -6.070988 24.154174 27.910250 -0.449074 0.524802 0.014398 0.004387 205236.000000 0 0 1
12.326660 -7.452188 24.237444 28.194598 -0.543765 0.536215 0.011266 0.003053 -138444.000000 0 0 1
12.502660 -8.416388 23.025064 27.519187 -0.592490 0.579583 0.025727 0.005186 -115337.000000 0 0 1
12.023860 -9.705388 23.285164 27.945780 -0.679102 0.585879 0.018038 0.011560 -406694.000000 0 0 1
12.126360 -10.488688 22.110064 27.311465 -0.713109 0.627407 0.022838 0.003015 70527.400000 0 0 1
11.401160 -11.847088 22.226364 27.646902 -0.804577 0.636911 0.018460 0.005178 -591284.000000 0 0 1
10.062760 -11.676388 22.541864 27.308109 -0.859489 0.599772 0.009931 0.007502 -813737.000000 0 0 1
9.385560 -12.946488 22.591064 27.677725 -0.943521 0.615962 0.007497 0.014704 -591180.000000 0 0 1
7.909560 -12.995088 22.917664 27.507322 -1.024035 0.586021 -0.002970 0.020624 -629041.000000 0 0 1
7.186660 -12.320988 21.924164 26.155760 -1.042757 0.576794 0.004692 0.004461 -1310560.000000 0 0 1
5.839660 -12.170888 22.157764 25.946072 -1.123434 0.547184 0.000975 0.003462 -695528.000000 0 0 1
5.174660 -10.992088 21.415264 24.621467 -1.130811 0.516040 -0.001287 0.001124 167534.000000 0 1 0
5.397660 -9.795288 22.090364 24.760181 -1.067150 0.468663 -0.010263 0.009648 19046.400000 0 1 0
4.746360 -8.713988 21.414664 23.601893 -1.072045 0.433911 -0.004720 0.009917 493781.000000 0 1 0
5.312660 -7.326988 21.886664 23.684070 -0.943435 0.392099 -0.002500 0.010043 19460.300000 0 1 0
4.535060 -6.289688 21.384464 22.746917 -0.946095 0.347862 -0.009250 0.009143 -222213.000000 0 1 0
5.100660 -5.080388 21.798264 22.956293 -0.783407 0.318982 0.008163 0.001969 -129964.000000 0 1 0
-7.506940 -16.033388 -20.881433 27.376229 1.132905 2.438363 -0.002958 0.005584 115669.000000 0 0 1
-7.266240 -15.213488 -19.797233 26.003440 1.125214 2.436160 -0.004161 -0.000418 3366.990000 0 0 1
-6.525840 -14.031088 -20.120133 25.382627 1.135458 2.485978 0.002861 -0.009855 53144.500000 0 0 1
-5.934740 -13.386088 -18.816933 23.842933 1.153485 2.480308 0.006825 -0.015866 -310454.000000 0 1 0
-5.117840 -14.311488 -18.184533 23.699962 1.227364 2.445387 0.007658 -0.007270 -504609.000000 0 1 0
-4.644040 -13.761788 -16.973733 22.339685 1.245337 2.433805 0.019591 -0.014227 -496333.000000 0 1 0
-3.540240 -14.582188 -16.336233 22.182110 1.332626 2.398618 0.011052 -0.006125 -731341.000000 0 1 0
-2.345240 -14.643588 -17.057333 22.602819 1.411990 2.425925 0.000296 -0.012314 -1013580.000000 0 1 0
-1.486940 -15.548088 -16.499533 22.719784 1.475451 2.383602 0.001488 0.000214 307534.000000 0 1 0
-0.097640 -15.766388 -17.217333 23.345772 1.564603 2.400146 0.001825 0.004830 962091.000000 0 1 0
-0.176240 -16.570288 -18.442233 24.793577 1.560161 2.409581 0.004261 0.005365 -43141.900000 0 1 0
-0.192840 -17.991988 -18.394433 25.731381 1.560079 2.367226 0.007581 0.010474 -321089.000000 0 0 1
-0.612040 -18.685888 -19.731733 27.182315 1.538054 2.383143 0.004705 0.004480 986424.000000 0 0 1
-2.024640 -18.404588 -19.872233 27.161253 1.461230 2.391520 0.012326 0.003811 874004.000000 0 0 1
-2.377840 -18.743488 -21.228433 28.418635 1.444608 2.414319 0.006773 0.000889 690973.000000 0 0 1
-3.510540 -17.851588 -21.856033 28.437462 1.376623 2.447391 0.010470 0.004008 995179.000000 0 0 1
-2.942540 -16.542288 -21.971633 27.659690 1.394758 2.488743 0.013189 0.009267 428529.000000 0 0 1
-3.415740 -15.832088 -20.815233 26.374158 1.358305 2.480348 0.008912 0.003410 -261636.000000 0 0 1
-2.748940 -14.497588 -20.518133 25.273118 1.383407 2.518120 0.010198 -0.001321 -362336.000000 0 0 1
-3.093040 -13.466288 -21.430333 25.498372 1.345025 2.568926 0.005958 -0.012601 -214074.000000 0 0 1
-2.231440 -12.421188 -21.170833 24.646894 1.393044 2.604042 0.008286 -0.005536 -253199.000000 0 1 0
-2.043740 -11.336588 -22.278533 25.080433 1.392434 2.664390 0.010912 -0.008935 -241904.000000 0 0 1
-3.221040 -10.614688 -22.506733 25.091826 1.276176 2.683674 0.017156 -0.009640 -313791.000000 0 0 1
-3.131840 -9.812888 -23.701433 25.842970 1.261859 2.731622 0.019720 -0.002462 335746.000000 0 0 1
-4.207740 -8.680388 -23.936833 25.807483 1.119430 2.758506 0.026542 -0.004582 -1072430.000000 0 0 1
-5.479540 -9.138888 -24.091233 26.342591 1.030682 2.725154 0.011757 -0.001325 -1006620.000000 0 0 1
-6.384040 -8.041688 -24.043333 26.143958 0.899805 2.737989 0.028321 -0.008498 206772.000000 0 0 1
-7.877140 -8.465188 -23.817133 26.475735 0.821366 2.689611 -0.001531 -0.007762 1135520.000000 0 0 1
-8.645340 -8.714988 -25.027733 27.876161 0.789410 2.685587 -0.003973 -0.009259 469682.000000 0 0 1
-9.065540 -7.530788 -25.730923 28.301540 0.693185 2.712084 -0.004986 -0.003657 -229816.000000 0 0 1
-9.554640 -7.879988 -27.133783 29.826624 0.689639 2.713398 -0.001964 -0.001804 264192.000000 0 0 1
-10.104040 -6.822988 -27.940073 30.484298 0.593937 2.730137 0.003118 -0.004548 63829.700000 0 0 1
-10.648440 -7.314988 -29.112643 31.850342 0.601916 2.723943 0.020954 -0.002289 -206369.000000 0 0 1
-11.380240 -6.256888 -29.927313 32.623650 0.502692 2.732169 0.030944 -0.007839 -295737.000000 0 0 1
-10.512440 -5.423788 -30.658723 32.861621 0.476318 2.773358 -0.001360 0.005320 -199508.000000 0 0 1
-11.166940 -4.619288 -31.622113 33.852568 0.392224 2.776562 0.008916 -0.012843 -513370.000000 0 0 1
-10.290540 -3.590588 -32.303073 34.092170 0.335713 2.816189 0.000438 -0.010320 -217972.000000 0 0 1
-9.309540 -4.120888 -33.191593 34.717878 0.416727 2.843974 -0.000207 0.006383 702356.000000 0 0 1
-8.496240 -3.051488 -33.707263 34.895232 0.344809 2.879910 -0.004466 0.015597 240160.000000 0 0 1
-7.482040 -3.354288 34.267083 35.234431 0.421449 0.234867 -0.004723 0.006318 435012.000000 0 0 1
-6.407440 -4.105388 -34.284198 35.118595 0.569825 2.923171 -0.007059 0.006299 341876.000000 0 0 1
-5.414640 -4.511888 33.867651 34.593254 0.694704 0.205178 -0.009346 0.008560 1000080.000000 0 0 1
-3.953340 -4.055388 34.152438 34.618840 0.798140 0.164334 -0.006956 0.005863 499736.000000 0 0 1
-3.918040 -2.651988 34.056141 34.383205 0.595030 0.138039 -0.000643 0.002507 651569.000000 0 0 1
-2.557840 -2.262088 34.288860 34.458460 0.724115 0.099257 0.000371 0.000915 712243.000000 0 0 1
-2.511040 -0.849388 -34.218148 34.320670 0.326179 3.064279 0.002496 0.003301 -46926.800000 0 0 1
-2.969840 -0.795088 -32.882903 33.026314 0.261586 3.048367 -0.003211 -0.001482 350451.000000 0 0 1
-3.555940 0.463512 -32.602833 32.799455 -0.129618 3.032042 0.013007 -0.001137 -605264.000000 0 0 1
-3.930940 0.674812 -31.081983 31.336836 -0.170010 3.013970 0.025661 -0.003875 597352.000000 0 0 1
-4.974240 -0.143688 -30.562213 30.964699 0.028878 2.980183 0.015933 -0.003298 27501.800000 0 0 1
-6.285040 0.186212 -30.910983 31.544021 -0.029619 2.940914 0.025144 -0.006012 -214061.000000 0 0 1
-7.346340 -0.938388 -30.686963 31.568005 0.127047 2.904780 0.023954 -0.005520 282707.000000 0 0 1
-7.599440 -1.225188 -29.329363 30.322666 0.159845 2.884929 0.013117 -0.003781 136363.000000 0 0 1
-8.680340 -2.146588 -29.285183 30.619897 0.242429 2.845248 0.003544 0.002243 130664.000000 0 0 1
-8.947540 -2.727888 -27.857643 29.386189 0.295924 2.817639 0.000050 -0.001507 -152003.000000 0 0 1
-9.492940 -1.755188 -26.994063 28.668380 0.182829 2.798138 0.006323 -0.003922 140637.000000 0 0 1
-9.852040 -2.316888 -25.741013 27.659183 0.230971 2.766981 0.005669 -0.005881 285726.000000 0 0 1
-11.032040 -1.527088 -25.113613 27.472376 0.137549 2.724179 0.005269 -0.005894 169902.000000 0 0 1
-10.601340 -0.324888 -24.563933 26.755948 0.030636 2.733990 0.024890 -0.011017 -281378.000000 0 0 1
-11.594240 0.354812 -23.859633 26.529877 -0.030593 2.689076 0.016876 -0.013731 -254463.000000 0 0 1
-11.033840 1.571512 -23.101733 25.649665 -0.141475 2.692092 0.023006 -0.018853 149004.000000 0 0 1
-10.533040 2.515112 -23.989133 26.320129 -0.234394 2.717559 0.007831 -0.021298 51933.500000 0 0 1
-9.881640 3.617012 -23.324333 25.588163 -0.350887 2.717781 0.026692 -0.025728 -137059.000000 0 0 1
-9.763540 4.859712 -24.260733 26.599374 -0.461839 2.719123 0.023935 -0.027038 413381.000000 0 0 1
-11.036140 5.352412 -24.701633 27.579256 -0.451567 2.680709 0.002761 -0.017951 385133.000000 0 0 1
-11.589340 4.699612 -25.839923 28.707155 -0.385249 2.690844 -0.005039 -0.021368 -19758.600000 0 0 1
-12.949740 5.345912 -26.197243 29.708081 -0.391509 2.650509 -0.014537 -0.010759 23272.700000 0 0 1
-12.865540 6.733612 -26.483453 30.203260 -0.482179 2.640048 -0.007003 -0.008471 926895.000000 0 0 1
-14.128840 7.212912 -27.013683 31.327133 -0.472020 2.610609 -0.000769 -0.010924 941641.000000 0 0 1
-14.170940 8.756612 -26.939463 31.673782 -0.553497 2.587786 0.009506 -0.001356 -179871.000000 0 0 1
-14.022840 9.360812 -25.663463 30.706321 -0.588607 2.560332 0.014851 -0.002812 192675.000000 0 0 1
-14.255840 10.750412 -25.732473 31.320289 -0.646124 2.534993 0.015037 0.003767 -317816.000000 0 0 1
-14.052740 11.508912 -24.408833 30.425740 -0.686207 2.501839 0.006580 -0.000460 172703.000000 0 0 1
-14.992640 11.232912 -23.380933 29.960400 -0.643007 2.466093 0.023455 -0.000473 323190.000000 0 0 1
-14.552940 12.016012 -22.299733 29.213879 -0.690202 2.439243 0.017952 0.000124 -254148.000000 0 0 1
-15.407040 11.960112 -21.066733 28.709378 -0.660107 2.394684 0.026764 -0.000102 -324772.000000 0 0 1
-16.686940 12.540112 -21.147733 29.714222 -0.644456 2.362717 0.022442 0.003404 20947.000000 0 0 1
-17.034640 13.211812 -19.957033 29.377102 -0.659675 2.317659 0.020365 0.006112 1025350.000000 0 0 1
-18.515140 13.787712 -20.030333 30.563469 -0.640083 2.285467 0.020465 0.001457 1168990.000000 0 0 1
-18.612940 14.911012 -20.870733 31.691755 -0.675417 2.289692 0.004926 0.007269 255277.000000 0 0 1
-19.969740 15.290512 -21.025333 32.781930 -0.653464 2.267078 -0.013205 0.009621 151866.000000 0 0 1
-20.273640 16.540112 -21.872133 34.102580 -0.684327 2.267070 -0.027365 0.014543 -308382.000000 0 0 1
-20.233940 16.303012 -23.250533 34.868149 -0.678223 2.300720 -0.018272 0.014321 37654.300000 0 0 1
-20.450040 17.527512 -23.941733 36.036431 -0.708595 2.297455 -0.036039 0.025826 2960.810000 0 0 1
-20.338440 17.322612 -25.485523 36.922038 -0.705491 2.332634 -0.040964 0.023358 57076.800000 0 0 1
-19.003740 17.171212 -25.924643 36.442829 -0.734784 2.362254 -0.031950 0.009956 43745.500000 0 0 1
-18.913440 16.658412 -27.273883 37.136042 -0.722089 2.395625 -0.032785 0.008792 -127519.000000 0 0 1
-18.255840 17.758112 -28.198583 37.997188 -0.771579 2.407028 -0.052013 0.019732 -314419.000000 0 0 1
-18.983040 18.957012 -28.446383 39.101417 -0.784712 2.385471 -0.058312 0.007477 167711.000000 0 0 1
-18.265240 20.084012 -28.028373 39.020203 -0.832789 2.372158 -0.067995 0.004238 -1631790.000000 0 0 1
-19.112440 21.356512 -28.173913 40.188995 -0.840793 2.347645 -0.033531 0.000352 -468121.000000 0 0 1
-20.027040 21.584012 -27.183473 40.073596 -0.822798 2.316296 -0.026009 0.005961 -972187.000000 0 0 1
-21.236440 20.896612 -27.302493 40.411396 -0.777333 2.312593 -0.001280 -0.006371 -1381110.000000 0 0 1
-22.143240 21.392512 -26.169073 40.407710 -0.768156 2.275261 0.002759 0.005771 -574209.000000 0 0 1
-21.895240 20.929112 -24.877833 39.196120 -0.762842 2.258418 -0.030447 0.008997 473220.000000 0 0 1
-22.886940 21.508912 -24.003833 39.530107 -0.754369 2.223365 -0.026423 -0.001372 390279.000000 0 0 1
-22.641940 21.209612 -22.488833 38.317786 -0.752747 2.198025 -0.015750 0.010408 -636875.000000 0 0 1
-21.585940 21.917512 -21.940033 37.784854 -0.793020 2.190332 -0.012620 0.007008 -214699.000000 0 0 1
-20.444340 21.181712 -21.523633 36.467832 -0.803111 2.202114 -0.015340 0.008884 -23781.200000 0 0 1
-20.637340 20.457912 -20.176833 35.376978 -0.781032 2.177714 -0.003963 -0.002653 -1260640.000000 0 0 1
-21.476440 19.343912 -20.274033 35.305252 -0.733204 2.182484 0.001447 0.003006 94412.000000 0 0 1
-22.074240 18.930612 -19.060333 34.769763 -0.708883 2.150991 0.004254 0.001044 220912.000000 0 0 1
-23.269940 19.803812 -18.570833 35.756914 -0.705102 2.116902 -0.007372 -0.000067 -461665.000000 0 0 1
-24.433440 19.745112 -19.360533 36.901120 -0.679672 2.123112 -0.017412 0.007752 49594.500000 0 0 1
-25.461070 20.430912 -18.693233 37.618150 -0.676225 2.090843 -0.020959 -0.003995 -1258180.000000 0 0 1
-26.879450 20.331712 -19.233233 38.804647 -0.647587 2.089371 -0.032009 0.016013 -332276.000000 0 0 1
-27.584750 19.114512 -18.883533 38.508062 -0.605970 2.083321 -0.023858 0.014283 385747.000000 0 0 1
-28.102460 19.129712 -17.571133 38.267987 -0.597664 2.047846 -0.044209 0.016549 -1168670.000000 0 0 1
-29.038380 17.958412 -17.296333 38.273950 -0.553866 2.039700 -0.046896 0.020460 -622906.000000 0 0 1
-28.349330 16.752312 -17.269133 37.182623 -0.533720 2.053800 -0.040568 0.016470 132718.000000 0 0 1
-29.148940 15.675412 -16.796833 37.114860 -0.493405 2.040434 -0.043102 0.015567 247661.000000 0 0 1
-28.300080 14.756212 -15.880433 35.648681 -0.480636 2.032496 -0.020665 0.009876 168785.000000 0 0 1
-27.735790 15.307412 -14.688833 34.919232 -0.504302 2.004960 -0.022953 0.008869 312121.000000 0 0 1
-28.628040 15.430212 -13.599733 35.250658 -0.494351 1.966872 -0.052797 0.021553 425626.000000 0 0 1
-27.815980 16.017712 -12.358033 34.395012 -0.522470 1.938311 -0.043269 0.009625 466121.000000 0 0 1
-27.309750 17.336912 -12.488433 34.674947 -0.565633 1.939233 -0.039395 0.017696 -123704.000000 0 0 1
-28.309890 18.322912 -12.617133 36.005153 -0.574423 1.928822 -0.049650 0.026697 -294535.000000 0 0 1
-27.874510 19.781412 -12.826033 36.507529 -0.617180 1.929783 -0.020313 0.017372 -243934.000000 0 0 1
-27.245080 20.462912 -11.750833 36.043130 -0.644184 1.902888 -0.049448 0.001703 154375.000000 0 0 1
-26.478420 21.539412 -12.290633 36.278267 -0.682901 1.916424 -0.040916 0.001810 152057.000000 0 0 1
-25.738260 22.370412 -11.240433 35.905998 -0.715507 1.889201 -0.012831 0.007124 26703.300000 0 0 1
-26.551770 23.400312 -10.743133 36.986295 -0.722392 1.865506 -0.028720 -0.000234 -24476.400000 0 0 1
-25.715590 24.458112 -10.343333 36.965868 -0.760341 1.854390 -0.003885 0.005381 -181052.000000 0 0 1
-26.158880 25.230212 -9.091833 37.463476 -0.767329 1.815929 0.021072 0.010871 -76003.200000 0 0 1
-26.077480 24.421312 -7.939933 36.598880 -0.752614 1.789480 0.030809 0.001771 334352.000000 0 0 1
-26.767020 25.083812 -6.864033 37.320048 -0.752947 1.755773 0.038292 -0.004540 200238.000000 0 0 1
-26.409430 24.434912 -5.536433 36.402953 -0.746583 1.723476 0.048830 -0.010463 -161820.000000 0 0 1
-26.829970 23.124212 -5.499333 35.844374 -0.711351 1.724827 0.050370 -0.009322 -236975.000000 0 0 1
-26.420970 22.354612 -4.399033 34.887646 -0.702222 1.697224 0.047628 -0.006969 13420.500000 0 0 1
-26.511130 20.842712 -4.670133 34.045100 -0.666262 1.708405 0.038257 -0.002432 172277.000000 0 0 1
-25.535690 20.355412 -5.583733 33.129931 -0.672992 1.740145 0.021229 -0.006069 97756.400000 0 0 1
-25.537080 20.760212 -6.946233 33.635978 -0.682584 1.778805 0.003277 -0.001972 -309215.000000 0 0 1
-26.702210 20.067712 -7.694633 34.277230 -0.644484 1.797208 -0.006682 -0.005179 127630.000000 0 0 1
-26.488790 18.671912 -7.677233 33.305198 -0.614006 1.803400 -0.015986 0.003439 499669.000000 0 0 1
-27.027000 18.103212 -8.897533 33.724637 -0.590182 1.837786 -0.030542 0.009871 -38235.800000 0 0 1
-26.383490 16.724812 -9.165833 32.554883 -0.564982 1.856206 -0.020411 0.013645 -130955.000000 0 0 1
-26.830870 15.674712 -8.380633 32.184269 -0.528724 1.834228 -0.033364 0.011352 129777.000000 0 0 1
-26.231300 14.445912 -8.793533 31.210442 -0.503390 1.856414 -0.014309 -0.002450 44177.900000 0 0 1
-26.772310 13.278912 -7.906933 30.912872 -0.460438 1.829452 0.017892 -0.016620 179301.000000 0 0 1
-28.144850 13.019412 -8.124833 32.056990 -0.433271 1.827041 -0.006878 -0.007508 -244952.000000 0 0 1
-28.569560 12.139212 -7.129633 31.849834 -0.401786 1.796561 -0.008733 -0.003631 -627282.000000 0 0 1
-29.631500 11.235312 -7.667633 32.604457 -0.362420 1.808191 -0.009493 -0.005742 -793965.000000 0 0 1
-29.013660 10.250412 -8.480933 31.918484 -0.339608 1.839732 0.005653 -0.004296 382290.000000 0 0 1
-29.843780 9.093212 -8.692333 32.386639 -0.295757 1.842520 -0.003121 0.001399 71875.900000 0 0 1
-29.003210 7.854112 -9.076033 31.388655 -0.264459 1.864135 0.022499 -0.004148 -363721.000000 0 0 1
-28.393320 7.983912 -10.311733 31.245085 -0.274112 1.907129 0.024707 -0.021978 -120803.000000 0 0 1
-27.661470 6.843112 -10.663933 30.425394 -0.242519 1.928895 0.050414 -0.025261 -496890.000000 0 0 1
-26.896140 7.038912 -11.971233 30.269771 -0.255966 1.977392 0.052945 -0.030037 -766287.000000 0 0 1
-25.985060 8.080512 -11.926633 29.711321 -0.301488 1.983860 0.053167 -0.026677 -183601.000000 0 0 1
-25.417160 8.154912 -13.220433 29.787824 -0.310467 2.030653 0.050257 -0.013234 -340239.000000 0 0 1
-31.179940 26.287812 -34.158428 53.198082 -0.700475 2.268029 0.030147 -0.004298 -41265.300000 0 0 1
-31.165460 27.686512 -34.485148 54.102258 -0.726353 2.261924 0.022793 -0.006835 261816.000000 0 0 1
-30.935630 27.990412 33.311560 53.386669 -0.735458 0.896986 0.035293 -0.006487 -91767.800000 0 0 1
-30.973300 29.497512 33.076776 54.069600 -0.760998 0.912532 0.047356 -0.010528 4317.120000 0 0 1
-31.223000 29.920112 31.766614 53.658239 -0.764093 0.937237 0.055270 -0.014139 316366.000000 0 0 1
-31.407120 31.329512 31.663164 54.502307 -0.784161 0.950900 0.052329 -0.017583 -88668.800000 0 0 1
-31.530460 31.844112 30.184204 54.030580 -0.790347 0.978039 0.070325 -0.021289 -427576.000000 0 0 1
-30.238520 31.883612 29.675014 53.023950 -0.811874 0.976829 0.059374 -0.017361 -283325.000000 0 0 1
-30.208310 32.749512 28.562394 52.923368 -0.825740 1.000723 0.057585 -0.005677 -407208.000000 0 0 1
-28.871430 32.667812 27.843604 51.730182 -0.847011 1.002441 0.045744 -0.005793 -1027570.000000 0 0 1
-28.665550 31.434412 27.124694 50.453791 -0.831437 1.003191 0.046029 -0.014377 689027.000000 0 0 1
-27.349660 31.287912 26.592114 49.336375 -0.852460 1.001552 0.024416 -0.006022 508584.000000 0 0 1
-27.034680 32.142012 25.289864 49.026116 -0.871491 1.028803 0.028211 -0.012888 -348359.000000 0 0 1
-27.063560 33.576112 25.485954 50.093168 -0.892386 1.037040 0.017164 -0.008069 77488.900000 0 0 1
-27.989750 34.246812 24.660484 50.640001 -0.885598 1.062172 0.022064 -0.002845 -136323.000000 0 0 1
-28.330980 -33.459418 25.209494 50.573666 0.868206 1.048962 0.028601 -0.008206 26530.600000 0 0 1
-29.052270 -33.580518 26.442004 51.680414 0.857571 1.033699 0.044343 -0.013804 458282.000000 0 0 1
-29.037870 -32.364718 27.103084 51.237194 0.839526 1.013407 0.035796 -0.013071 -449926.000000 0 0 1
-29.454600 -32.392518 28.532744 52.258647 0.832865 0.993225 0.050161 -0.022407 -423551.000000 0 0 1
-30.786570 -32.810218 28.674684 53.353171 0.817207 1.003385 0.033804 -0.024117 -361644.000000 0 0 1
-31.076560 -33.109018 30.033574 54.442403 0.817053 0.986446 0.032701 -0.022927 444261.000000 0 0 1
-32.589710 -33.238118 30.363864 55.577207 0.795248 0.992812 0.033825 -0.025393 448802.000000 0 0 1
-32.793970 -33.390418 31.783154 56.573257 0.794410 0.974230 0.032094 -0.029406 36337.100000 0 0 1
-34.189507 -33.478518 31.996514 57.563100 0.774892 0.981410 0.017151 -0.029200 -69570.300000 0 0 1
-34.524677 -34.043718 33.386948 58.869486 0.778384 0.967773 0.011229 -0.014391 -110493.000000 0 0 1
-34.151284 33.675512 33.510314 58.508901 -0.778384 0.960953 0.003003 -0.005667 -34429.900000 0 0 1
-34.999362 33.026812 34.410426 59.159134 -0.756409 0.950030 0.006639 -0.004607 -21619.200000 0 0 1
-34.507664 31.588812 -34.261096 57.986676 -0.741266 2.202901 0.001669 0.002241 476829.000000 0 0 1
-33.425780 31.613312 -33.342693 56.819182 -0.757538 2.197924 0.008325 -0.002727 -79782.600000 0 0 1
-33.174180 30.303212 -32.862823 55.666651 -0.740201 2.202289 0.008258 -0.007154 221946.000000 0 0 1
-32.615300 30.290812 -31.411713 54.479233 -0.748463 2.185335 0.008419 -0.008999 -223209.000000 0 0 1
-33.544210 30.424112 -30.393713 54.540062 -0.736661 2.161894 -0.000018 -0.017164 -656852.000000 0 0 1
-33.758730 31.742712 -29.970573 55.185930 -0.754630 2.144901 -0.007409 -0.008905 -210895.000000 0 0 1
-34.668994 31.800212 -28.761053 55.139739 -0.742265 2.119525 -0.014085 -0.008602 -505739.000000 0 0 1
-34.105264 31.597612 -27.518163 54.026173 -0.747250 2.105224 -0.017972 -0.012326 -326002.000000 0 0 1
-35.090351 31.528712 -26.484963 54.100330 -0.731986 2.082373 0.002626 -0.009443 -207665.000000 0 0 1
-34.583441 31.349712 -25.055133 52.977151 -0.736392 2.063423 0.009389 -0.003872 -426508.000000 0 0 1
-34.043050 32.538912 -24.594033 53.127926 -0.762811 2.052084 0.008962 -0.011675 -292389.000000 0 0 1
-33.562820 32.429012 -23.232233 52.132911 -0.768219 2.032679 0.007239 -0.013233 180116.000000 0 0 1
-34.592346 32.126512 -22.080033 52.117857 -0.748456 2.008274 0.006944 -0.009818 380961.000000 0 0 1
34.860120 33.200712 -21.815733 52.853018 0.761022 1.996281 0.005780 -0.018596 301740.000000 0 0 1
-34.972931 34.329312 -21.048833 53.335363 -0.776111 1.976484 0.011176 -0.018886 65741.700000 0 0 1
-34.999716 34.117012 -19.478633 52.615281 -0.772628 1.950030 0.009075 -0.011260 181427.000000 0 0 1
-34.095878 33.080112 -19.123833 51.210777 -0.770278 1.953504 0.012826 -0.014938 17749.800000 0 0 1
-33.935670 32.870412 -17.783433 50.481127 -0.769454 1.930801 0.027951 -0.006051 65363.700000 0 0 1
-32.827740 31.840912 -17.476333 48.958415 -0.770140 1.935811 0.017789 0.007369 115967.000000 0 0 1
-32.670940 31.616412 -16.096633 48.229549 -0.768996 1.911076 0.029470 0.002769 81206.700000 0 0 1
-31.480300 30.881612 -15.801233 46.844020 -0.775798 1.914861 0.024485 0.009003 407459.000000 0 0 1
-31.256040 30.584612 -14.336633 46.020621 -0.774541 1.887595 0.023726 0.003225 131020.000000 0 0 1
-32.155130 29.612912 -13.803133 45.841067 -0.744264 1.876651 0.026808 0.002830 492578.000000 0 0 1
-31.717930 29.344112 -12.468533 44.972973 -0.746542 1.851722 0.028105 -0.000513 -80363.500000 0 0 1
-32.742310 28.511412 -11.738633 44.975049 -0.716436 1.834858 0.029061 -0.000086 31795.900000 0 0 1
-32.135900 28.019612 -10.499833 43.909694 -0.717077 1.812259 0.030743 0.003316 646017.000000 0 0 1
-33.037440 27.164612 -9.854333 43.891873 -0.688154 1.797240 0.032730 0.002652 -76120.400000 0 0 1
-32.301580 26.265412 -8.793433 42.551010 -0.682696 1.778953 0.015302 0.004284 606500.000000 0 0 1
-31.770920 27.031912 -7.669233 42.413828 -0.704980 1.752616 0.024726 -0.005991 450371.000000 0 0 1
-30.547170 27.733812 -7.745933 41.979679 -0.737163 1.756376 0.030931 -0.011283 -351689.000000 0 0 1
-30.123690 28.383012 -6.428233 41.885012 -0.755655 1.724879 0.041583 -0.009545 -457928.000000 0 0 1
-29.546630 27.416012 -5.621333 40.696934 -0.748012 1.709366 0.053710 -0.016609 16805.300000 0 0 1
-29.459000 27.881612 -4.293733 40.787904 -0.757896 1.676261 0.042341 -0.020356 -248586.000000 0 0 1
-28.597940 27.032012 -3.354633 39.494625 -0.757257 1.655838 0.046786 -0.017233 -434864.000000 0 0 1
-29.183060 25.816912 -3.024033 39.080797 -0.724272 1.648253 0.037085 -0.012469 -156115.000000 0 0 1
-28.384430 24.948212 -2.261333 37.857665 -0.721057 1.630564 0.028467 -0.012184 -66905.500000 0 0 1
-29.238890 23.748112 -1.808233 37.711473 -0.682142 1.618764 0.029532 -0.014807 136222.000000 0 0 1
-29.565420 22.754112 -2.796533 37.412355 -0.655940 1.645615 0.016421 -0.010810 -174494.000000 0 0 1
-30.537940 21.858912 -2.372733 37.629878 -0.621248 1.633893 0.025673 -0.006565 -412788.000000 0 0 1
-30.949140 20.828912 -3.456833 37.465218 -0.592378 1.663196 0.007401 -0.004041 294845.000000 0 0 1
-29.948560 19.863712 -3.837833 36.141559 -0.585641 1.677186 0.012551 -0.008077 615247.000000 0 0 1
-30.358070 19.073612 -5.001433 36.199854 -0.560960 1.709401 0.003042 -0.005174 -182205.000000 0 0 1
-29.251180 18.133812 -5.489533 34.851136 -0.554948 1.728969 0.010153 0.002821 -267608.000000 0 0 1
-28.976850 17.125112 -4.587733 33.970202 -0.533770 1.706262 0.008999 -0.001478 -80679.400000 0 0 1
-28.244570 16.158512 -5.288833 32.967029 -0.519647 1.731921 -0.011662 -0.003013 -426369.000000 0 0 1
-27.981050 14.910312 -4.408733 32.010834 -0.489598 1.708962 -0.013834 0.003834 339957.000000 0 0 1
-29.169610 14.273012 -3.931133 32.711448 -0.455060 1.691264 -0.003475 0.009776 555503.000000 0 0 1
-28.846530 13.052912 -3.277233 31.831448 -0.424927 1.673935 -0.003362 0.000923 119961.000000 0 0 1
-30.037010 12.256812 -2.655833 32.550036 -0.387433 1.652479 0.009775 -0.006438 83247.500000 0 0 1
-30.835220 11.608412 -3.658333 33.150406 -0.360055 1.681377 0.004121 0.005648 214040.000000 0 0 1
-31.655260 10.617812 -3.113633 33.533388 -0.323628 1.663782 -0.015508 0.017469 -375075.000000 0 0 1
-32.880850 10.401512 -4.046233 34.723389 -0.306379 1.687589 -0.006834 0.010173 67786.400000 0 0 1
-32.547680 9.920012 -5.346633 34.443354 -0.295840 1.726656 -0.007133 0.003212 178133.000000 0 0 1
-33.737890 9.437212 -5.902433 35.526679 -0.272750 1.737711 0.005520 0.009553 -146007.000000 0 0 1
-33.510650 8.454012 -7.087733 35.279880 -0.247122 1.773073 0.005389 -0.003601 -172509.000000 0 0 1
-32.847840 7.279712 -6.656933 34.297078 -0.218094 1.766132 -0.009743 0.003819 398438.000000 0 0 1
-32.434130 6.551012 -7.732633 33.980615 -0.199298 1.800368 0.010257 0.002219 -350585.000000 0 0 1
-31.548090 5.283812 -7.458933 32.845644 -0.165944 1.799885 0.016049 0.003255 825122.000000 0 0 1
-30.164100 5.512112 -7.148233 31.485767 -0.180743 1.799824 0.010435 -0.002069 759455.000000 0 0 1
-29.545510 4.283912 -6.909833 30.643676 -0.143990 1.798242 0.007273 -0.005033 73416.100000 0 0 1
-28.058070 4.360712 -6.469533 29.122602 -0.154184 1.794813 0.060194 -0.005665 569803.000000 0 0 1
-27.179290 4.665212 -7.549433 28.591466 -0.169989 1.838010 0.058155 -0.009940 51886.500000 0 0 1
-25.832690 4.795412 -7.128233 27.223805 -0.183544 1.835723 0.077396 -0.022458 -326623.000000 0 0 1
-25.059240 5.188012 -8.406033 26.935894 -0.204146 1.888173 0.080707 -0.021596 -457101.000000 0 0 1
-25.037740 4.126312 -9.338033 27.039115 -0.163336 1.923411 0.074485 -0.032274 956129.000000 0 0 1
-24.043140 4.493212 -10.316033 26.545849 -0.184750 1.969921 0.075115 -0.032588 376486.000000 0 0 1
-24.274540 3.771212 -11.649733 27.188078 -0.154125 2.013614 0.077552 -0.042116 19547.700000 0 0 1
-25.226670 4.403712 -12.482433 28.488396 -0.172824 2.024345 0.073675 -0.029743 360860.000000 0 0 1
-25.646640 3.531612 -13.587133 29.237521 -0.136842 2.054110 0.070202 -0.031354 833023.000000 0 0 1
-26.607550 4.254812 -14.610633 30.651847 -0.158567 2.067652 0.053941 -0.025085 192000.000000 0 0 1
-25.833280 5.117512 -15.391333 30.503121 -0.195566 2.099694 0.044067 -0.025698 371760.000000 0 0 1
-26.528570 6.067712 -16.226233 31.683952 -0.224856 2.108457 0.066840 -0.025698 -748.678000 0 0 1
-27.396400 5.575712 -17.406633 32.933906 -0.200778 2.127667 0.017586 -0.010405 660631.000000 0 0 1
-28.575070 4.867812 -16.982633 33.595238 -0.168732 2.100766 0.011723 -0.019776 479909.000000 0 0 1
-29.263350 4.234812 -18.087033 34.661478 -0.143716 2.119779 0.014603 -0.010544 -129659.000000 0 0 1
-30.523210 3.569012 -17.480133 35.354763 -0.116399 2.087965 -0.004590 -0.005288 -457930.000000 0 0 1
-30.419020 2.531112 -16.489333 34.693247 -0.083017 2.066089 0.003863 -0.018578 82992.700000 0 0 1
-30.003760 1.326712 -17.127833 34.573811 -0.044189 2.089090 0.026662 -0.031083 -216990.000000 0 0 1
-30.346170 0.100812 -16.288633 34.441541 -0.003322 2.063416 0.029155 -0.027038 -527259.000000 0 0 1
-29.853590 -1.065188 -16.910533 34.326922 0.035665 2.085908 0.026717 -0.018669 247670.000000 0 0 1
-30.161000 -2.151388 -16.031733 34.224711 0.071210 2.058304 0.029292 -0.026779 -45617.400000 0 0 1
-30.066320 -3.497088 -16.715533 34.577771 0.115792 2.075352 0.013662 -0.020894 10325.200000 0 0 1
-30.891640 -3.566688 -17.855733 35.858637 0.114949 2.092027 0.008578 -0.021414 49128.100000 0 0 1
-30.712510 -4.823988 -18.525333 36.190014 0.155796 2.108181 -0.002450 -0.011534 361441.000000 0 0 1
-31.758910 -4.916388 -19.677533 37.682948 0.153584 2.120209 -0.002006 -0.001179 180363.000000 0 0 1
-31.682010 -6.185188 -20.286833 38.125607 0.192802 2.131881 0.001626 0.004158 67931.100000 0 0 1
-32.738030 -6.463488 -21.174433 39.521031 0.194924 2.136223 0.014670 0.009877 -431418.000000 0 0 1
-32.437510 -7.708488 -21.966033 39.926425 0.233313 2.153355 0.009159 0.007899 -509534.000000 0 0 1
-31.314290 -7.576088 -22.781033 39.458299 0.237376 2.186269 0.003610 0.003407 -295796.000000 0 0 1
-31.343090 -8.401788 -23.933833 40.321306 0.261902 2.206294 -0.000675 0.010404 -59637.300000 0 0 1
-29.980010 -8.219188 -24.633933 39.663418 0.267581 2.240909 -0.001928 0.004188 -133981.000000 0 0 1
-29.869150 -6.946888 -25.332523 39.776401 0.228515 2.261232 0.010315 0.000107 229488.000000 0 0 1
-29.472250 -7.091288 -26.680143 40.382297 0.236121 2.292533 0.009632 0.006958 -377708.000000 0 0 1
-30.607960 -7.184988 -27.717163 41.913153 0.230568 2.293347 0.006336 0.008512 -281557.000000 0 0 1
-31.335750 -8.359688 -27.499213 42.520822 0.260706 2.274077 -0.002275 -0.000047 81485.300000 0 0 1
-32.640870 -8.283188 -28.071583 43.841206 0.248521 2.265687 0.021537 0.001281 300794.000000 0 0 1
-33.471700 -9.530388 -27.798613 44.541507 0.277389 2.244783 0.029166 -0.006452 -908881.000000 0 0 1
-33.061990 -10.738788 -28.450443 44.920423 0.314058 2.256673 0.024594 -0.002725 -195617.000000 0 0 1
-33.886160 -11.889688 -28.335123 45.744024 0.337451 2.238810 0.003205 0.000063 -108309.000000 0 0 1
35.132084 -11.810788 -29.092903 47.118521 -0.324313 2.236282 0.007823 -0.012049 400469.000000 0 0 1
34.091127 -11.005788 -28.517323 45.788317 -0.312272 2.243123 -0.002909 -0.005615 577018.000000 0 0 1
33.474047 -10.161988 -29.526913 45.777903 -0.294736 2.271824 0.011475 -0.016478 -35004.600000 0 0 1
32.531947 -9.219888 -28.773703 44.398873 -0.276168 2.275848 0.007330 -0.010315 -114187.000000 0 0 1
31.555517 -9.782188 -27.920673 43.255125 -0.300605 2.272459 -0.021801 -0.001922 -267413.000000 0 0 1
30.751007 -8.814288 -27.368933 42.099579 -0.279150 2.278512 -0.035089 0.004550 -480468.000000 0 0 1
29.618077 -9.329788 -26.484993 40.813359 -0.305164 2.276973 -0.046667 0.008224 -426210.000000 0 0 1
29.987497 -9.705588 -25.190393 40.348535 -0.313014 2.245057 -0.053515 0.024258 -586111.000000 0 0 1
28.916767 -10.078388 -24.404433 39.157754 -0.335365 2.243667 -0.055798 0.022931 -692777.000000 0 0 1
29.295297 -10.194688 -22.902233 38.557209 -0.334890 2.206794 -0.062349 0.027644 129587.000000 0 0 1
30.108517 -11.306188 -22.555533 39.282372 -0.359222 2.182410 -0.076011 0.032827 295066.000000 0 0 1
30.466857 -11.297888 -21.156333 38.774503 -0.355106 2.147931 -0.050183 0.030104 -106786.000000 0 0 1
31.403817 -12.417088 -20.664833 39.590644 -0.376535 2.119946 -0.020856 0.020352 -431908.000000 0 0 1
32.688867 -12.256788 -21.187233 40.837357 -0.358729 2.116266 -0.022627 0.025293 20096.500000 0 0 1
33.650547 -13.128488 -20.563533 41.564112 -0.371979 2.088335 -0.013178 0.023456 725282.000000 0 0 1
34.993780 -13.172988 -21.334833 43.049592 -0.360031 2.089307 -0.009403 0.014898 357007.000000 0 0 1
-34.503474 -12.008788 -21.431933 42.355973 0.334933 2.101332 -0.008172 0.023744 758211.000000 0 0 1
-34.810598 -11.025988 -22.404733 42.840661 0.306745 2.121138 -0.013070 0.025357 -437099.000000 0 0 1
-34.341646 -11.428888 -23.842833 43.341075 0.321270 2.153305 -0.012200 0.026173 77339.700000 0 0 1
-35.134835 -12.348288 -24.550233 44.605502 0.337970 2.153623 -0.010763 0.026572 1248910.000000 0 0 1
33.885487 -11.945488 -24.948233 43.741688 -0.338923 2.177733 -0.011397 0.028715 1085500.000000 0 0 1
33.150247 -13.074488 -25.783943 43.985143 -0.375670 2.197153 -0.017915 0.009240 76665.600000 0 0 1
32.751787 -14.303588 -25.115393 43.681290 -0.411761 2.183363 -0.003596 0.005224 856360.000000 0 0 1
31.825067 -14.119988 -24.022833 42.300183 -0.417582 2.174765 -0.026284 0.015912 -116805.000000 0 0 1
-29.215250 8.184912 -19.590233 36.115106 -0.273156 2.144134 -0.016980 0.015756 794584.000000 0 0 1
-28.047650 7.672412 -20.253233 35.436281 -0.267017 2.179177 -0.017360 0.003676 559591.000000 0 0 1
-26.995550 8.572812 -20.466733 34.944813 -0.307492 2.196524 0.001223 0.000518 296886.000000 0 0 1
-25.657540 7.930812 -20.903333 34.031698 -0.299787 2.232208 0.014384 0.000453 152712.000000 0 0 1
-25.084850 7.015612 -19.985433 32.831175 -0.272708 2.225259 0.028473 -0.007799 72827.600000 0 0 1
-23.969340 6.301012 -20.461633 32.138924 -0.257062 2.260958 0.058725 -0.021675 -676784.000000 0 0 1
-22.641440 6.593512 -19.784533 30.782088 -0.283377 2.268851 0.040020 -0.011095 -564442.000000 0 0 1
-22.219840 7.874912 -20.208133 31.050027 -0.340597 2.279467 0.030193 -0.006735 171310.000000 0 0 1
-20.969040 8.158612 -19.566933 29.818257 -0.371056 2.286577 0.012920 0.000449 509460.000000 0 0 1
-20.333140 9.384712 -20.290733 30.219584 -0.432415 2.306951 0.010681 0.002882 -335152.000000 0 0 1
-19.938940 9.094212 -21.641333 30.799567 -0.427918 2.349912 0.022271 -0.012125 10226.400000 0 0 1
-19.524740 10.259712 -22.293033 31.360110 -0.483817 2.361534 0.002039 -0.009212 8913.950000 0 0 1
-18.357740 10.038812 -23.284233 31.303991 -0.500417 2.409550 0.028456 -0.001368 103754.000000 0 0 1
-18.729440 9.060812 -24.254633 31.955867 -0.450583 2.432578 0.033734 -0.011291 82349.100000 0 0 1
-17.628040 8.678512 -25.053633 31.839423 -0.457479 2.476524 0.016640 -0.008669 107439.000000 0 0 1
-18.104540 7.671912 -26.182713 32.743962 -0.400817 2.497458 0.012805 -0.006443 6659.250000 0 0 1
-18.445640 6.383312 -25.684843 32.259874 -0.333161 2.491761 0.031895 -0.004699 255258.000000 0 0 1
-19.104240 5.590312 -26.676793 33.284754 -0.284674 2.500549 0.031429 -0.013998 -289608.000000 0 0 1
-19.322740 4.142312 -26.226403 32.838259 -0.211179 2.495851 0.032222 0.003205 196274.000000 0 0 1
-18.199140 3.295412 -26.164523 32.041390 -0.179134 2.526266 0.026112 0.001659 60312.100000 0 0 1
-17.148140 3.530312 -25.249253 30.725341 -0.203035 2.535312 0.017248 -0.004694 -185392.000000 0 0 1
-16.504440 2.214712 -24.727233 29.811701 -0.133392 2.548914 0.010652 -0.002011 -81806.900000 0 0 1
-17.143440 1.459712 -23.706733 29.292277 -0.084942 2.513784 -0.002028 -0.006740 153088.000000 0 0 1
-18.276540 0.686512 -24.104133 30.257436 -0.037545 2.492504 0.009136 -0.002465 387043.000000 0 0 1
-19.023440 0.070412 -22.895633 29.767537 -0.003701 2.448303 0.013502 -0.002474 275841.000000 0 0 1
-18.281840 -1.037288 -22.395233 28.928327 0.056678 2.456188 0.015232 -0.002787 171142.000000 0 0 1
-18.939440 -1.549188 -21.279733 28.529448 0.081615 2.412661 0.016935 -0.007277 -348617.000000 0 0 1
-18.329740 -2.843388 -20.794733 27.865483 0.153898 2.413213 0.013954 -0.018360 -195081.000000 0 0 1
-18.584840 -3.876888 -21.745033 28.866468 0.205656 2.423858 0.030600 -0.023780 297138.000000 0 0 1
-18.642240 -5.213188 -21.175933 28.690252 0.272678 2.401029 0.038201 -0.024886 -261935.000000 0 0 1
-18.765440 -6.313188 -22.244333 29.779329 0.324532 2.414293 0.021505 -0.022731 -177081.000000 0 0 1
-17.599940 -6.606288 -22.985833 29.694266 0.359085 2.456062 0.007348 -0.011472 -56787.200000 0 0 1
-17.755240 -7.620588 -23.906833 30.738552 0.405425 2.461871 0.016561 -0.021443 531920.000000 0 0 1
-16.407940 -7.790788 -24.687533 30.649489 0.443300 2.507280 0.021341 -0.017197 -25384.600000 0 0 1
-16.482940 -8.611488 -25.835163 31.832384 0.481445 2.517682 0.020423 -0.022304 680071.000000 0 0 1
-15.265840 -8.760888 -26.622683 31.914985 0.520998 2.557432 0.024852 -0.023079 1561590.000000 0 0 1
-14.136740 -9.592588 -25.892503 31.020749 0.596189 2.558354 0.031069 -0.026857 -347781.000000 0 0 1
-13.466640 -9.019688 -24.802333 29.628717 0.590155 2.562765 0.021655 -0.010033 41075.900000 0 0 1
-12.730740 -9.976688 -24.069733 28.999277 0.664703 2.549925 -0.002515 -0.009456 -104424.000000 0 0 1
-11.807140 -9.337488 -23.029133 27.512510 0.669127 2.562651 0.024847 -0.003740 -105391.000000 0 0 1
-12.479040 -8.842188 -21.885133 26.699621 0.616450 2.531648 0.015391 -0.002049 133011.000000 0 0 1
-11.550240 -8.386888 -20.946333 25.347520 0.628043 2.543420 0.018986 -0.000088 -762126.000000 0 0 1
-12.200140 -7.833488 -19.677133 24.441696 0.570789 2.506580 0.004839 0.006829 -153051.000000 0 1 0
-13.002240 -6.692288 -19.868833 24.670133 0.475340 2.507113 -0.000252 0.015530 208727.000000 0 1 0
-14.381740 -7.005588 -19.991533 25.604181 0.453288 2.466728 -0.009025 -0.000560 -234293.000000 0 0 1
-15.191940 -5.732488 -19.611933 25.461429 0.360818 2.450046 -0.012615 -0.001287 -409596.000000 0 0 1
-15.135040 -5.452988 -18.192033 24.284863 0.345811 2.417514 -0.015404 0.002813 309787.000000 0 1 0
-15.106740 -4.052288 -17.927133 23.791106 0.262074 2.424200 -0.012036 -0.000325 -523321.000000 0 1 0
-14.701240 -3.720088 -16.476833 22.393113 0.247843 2.397642 -0.005571 0.000588 563600.000000 0 1 0
-15.788540 -3.658288 -15.531933 22.447762 0.227687 2.334934 -0.006612 -0.006298 671576.000000 0 1 0
-16.522840 -2.451788 -15.582233 22.843412 0.147313 2.321471 -0.027595 -0.007753 510529.000000 0 1 0
-17.837040 -2.344188 -14.722533 23.246681 0.130674 2.256629 -0.009855 -0.007521 387677.000000 0 1 0
-17.684540 -2.331188 -13.311933 22.257245 0.131065 2.211918 0.005649 -0.021847 569331.000000 0 1 0
-18.684540 -1.660188 -12.546433 22.567260 0.088621 2.160311 0.007526 -0.022793 170129.000000 0 1 0
-18.040040 -0.440388 -11.785533 21.553092 0.024407 2.149351 0.005316 -0.018692 54794.200000 0 1 0
-17.634540 0.577612 -12.662133 21.717280 -0.032743 2.193267 0.014410 -0.023194 301599.000000 0 1 0
-16.515340 1.231912 -12.104633 20.513318 -0.074454 2.201962 0.006086 -0.017888 -588707.000000 0 1 0
-15.987740 2.264812 -13.144733 20.821172 -0.140723 2.254045 0.007674 -0.018389 149255.000000 0 1 0
-15.373740 1.773812 -14.331433 21.092374 -0.114871 2.317823 0.004029 -0.014420 -312615.000000 0 1 0
-14.104940 1.235512 -14.182033 20.040107 -0.087371 2.357009 0.006099 -0.014586 -1494300.000000 0 1 0
-13.683040 0.333712 -15.372433 20.582727 -0.024384 2.414125 0.010081 -0.011073 -243673.000000 0 1 0
-13.492940 1.030412 -16.582833 21.403540 -0.076219 2.457148 0.008059 -0.013250 118302.000000 0 1 0
-13.051540 0.166712 -17.575833 21.892473 -0.012773 2.502815 0.005736 -0.006340 -549926.000000 0 1 0
-12.414840 0.860812 -18.745733 22.500483 -0.069227 2.555532 0.011611 -0.009235 -605332.000000 0 1 0
-11.180240 1.416512 -18.405833 21.581913 -0.126026 2.592189 0.009719 -0.009781 -536911.000000 0 1 0
-10.677140 2.247212 -19.452333 22.303465 -0.207442 2.630410 0.002844 -0.011790 668602.000000 0 1 0
-9.249440 2.819912 -19.174833 21.475061 -0.295922 2.674516 0.011455 -0.014479 304924.000000 0 1 0
-8.232240 1.928112 -19.655133 21.396533 -0.230068 2.735352 0.024681 -0.001607 1080370.000000 0 1 0
-6.867240 2.375512 -19.542633 20.849857 -0.333035 2.785606 0.021165 0.005347 1131990.000000 0 1 0
-6.490840 3.593712 -20.369533 21.678645 -0.505648 2.792294 0.022330 0.004183 -1028580.000000 0 1 0
-6.380440 3.205312 -21.724933 22.868248 -0.465538 2.824046 0.020368 0.009531 237262.000000 0 1 0
-6.001440 4.216012 -22.652533 23.810277 -0.612402 2.828470 0.025995 0.000959 -142968.000000 0 1 0
-5.361440 3.577912 -23.907933 24.761578 -0.588470 2.878251 0.031123 -0.009158 -282566.000000 0 1 0
-4.079640 3.040512 -23.757733 24.296462 -0.640479 2.930616 0.037980 -0.013710 -442412.000000 0 1 0
-3.646040 2.369412 -24.931933 25.308279 -0.576276 2.968923 0.041738 -0.008782 858356.000000 0 0 1
-2.210340 1.723412 -24.850833 25.008391 -0.662243 3.029282 0.025686 -0.010666 1899130.000000 0 0 1
-1.093640 2.699912 -24.769133 24.939838 -1.185931 3.024524 0.017952 -0.013402 3094640.000000 0 1 0
0.261760 2.149512 -24.621733 24.716769 1.449617 3.053872 0.009674 -0.017200 1868040.000000 0 1 0
0.616060 1.145212 -23.480033 23.516015 1.077256 3.086266 0.003568 -0.028348 -998920.000000 0 1 0
0.195260 -0.163388 -23.747833 23.749198 -0.696763 3.130872 0.007546 -0.026216 183931.000000 0 1 0
0.664460 -0.999788 -22.679033 22.710782 -0.984225 3.088710 0.009580 -0.024356 -574894.000000 0 1 0
0.191060 -2.488988 -22.821933 22.958053 -1.494184 3.032644 0.014619 -0.027454 243493.000000 0 1 0
-1.083240 -2.904588 -22.318533 22.532797 1.213832 3.003577 0.012930 -0.016110 625718.000000 0 1 0
-2.231540 -2.654588 -23.107733 23.366513 0.871764 2.992627 0.020930 -0.016728 -168104.000000 0 1 0
-2.931540 -1.290488 -22.979633 23.201785 0.414681 3.003100 0.019128 -0.015547 -1419410.000000 0 1 0
-3.376240 -1.004088 -21.672433 21.956811 0.289068 2.980473 0.013721 -0.008761 140280.000000 0 1 0
-4.266940 0.064612 -21.462333 21.882474 -0.015141 2.945319 0.016272 -0.013493 659101.000000 0 1 0
-5.591740 0.090212 -22.298833 22.989425 -0.016132 2.895865 0.019179 -0.005050 -154911.000000 0 1 0
-6.367340 -1.064388 -21.954733 22.884192 0.165632 2.855608 0.026651 0.005160 607999.000000 0 1 0
-7.764340 -0.804688 -22.166933 23.501179 0.103270 2.803010 0.020475 0.005206 800899.000000 0 1 0
-8.684040 -1.854388 -21.530033 23.289346 0.210380 2.750409 0.026358 0.002567 -164650.000000 0 1 0
-8.698040 -3.007688 -22.360833 24.180755 0.332919 2.751140 0.044863 -0.004780 -129288.000000 0 1 0
-9.134540 -4.185888 -21.777533 23.983795 0.429692 2.709306 0.021783 -0.008113 -686656.000000 0 1 0
-9.813340 -5.185188 -22.698433 25.266711 0.486094 2.686803 0.016279 -0.006549 547083.000000 0 0 1
-11.171440 -4.770988 -22.876833 25.901986 0.403623 2.653455 0.011343 -0.005177 308583.000000 0 0 1
-11.893040 -5.462288 -23.887433 27.237666 0.430548 2.640379 -0.001603 -0.007778 23526.700000 0 0 1
-13.412040 -5.339088 -23.659433 27.715653 0.378852 2.593747 0.021626 -0.010468 -149539.000000 0 0 1
-13.943540 -4.038588 -23.928733 27.987797 0.281924 2.596290 0.009646 -0.014121 778231.000000 0 0 1
-15.354840 -4.176488 -24.175633 28.942622 0.265573 2.559466 0.016694 -0.009499 1038310.000000 0 0 1
-15.994940 -2.826188 -24.588033 29.468573 0.174888 2.557806 0.014689 -0.010747 -224863.000000 0 0 1
-15.314940 -2.312388 -25.712103 30.016775 0.149857 2.599423 0.020582 -0.014206 168812.000000 0 0 1
-15.746940 -1.079688 -26.283403 30.658589 0.068458 2.600785 0.008773 -0.012414 -42845.400000 0 0 1
-17.112340 -1.012788 -27.029753 32.007272 0.059116 2.576405 0.022155 -0.006844 19833.800000 0 0 1
-17.297140 -1.672288 -28.221953 33.143117 0.096380 2.589670 0.027873 -0.020423 -109739.000000 0 0 1
-17.025140 -0.911888 -29.320113 33.916898 0.053510 2.614890 0.019744 -0.013484 -66605.300000 0 0 1
-16.901740 -1.723488 -30.655523 35.048542 0.101620 2.635528 0.016468 -0.018421 -970407.000000 0 0 1
-18.157740 -2.083088 -31.059943 36.038352 0.114222 2.609718 0.012282 -0.017623 -979008.000000 0 0 1
-18.122840 -2.748888 -32.286223 37.126728 0.150533 2.625233 0.008829 -0.015670 471156.000000 0 0 1
-19.589340 -3.154688 -32.720173 38.266225 0.159670 2.596476 -0.018309 -0.010829 767965.000000 0 0 1
-20.462740 -2.132288 -33.081643 38.957226 0.103829 2.585224 -0.010170 -0.021591 -28019.000000 0 0 1
-21.124140 -1.562588 -31.969353 38.349843 0.073837 2.556433 -0.006561 -0.008917 -694430.000000 0 0 1
-22.264840 -0.592788 -32.305143 39.238970 0.026618 2.537983 -0.001394 -0.004243 -310141.000000 0 0 1
-21.913940 0.707312 -32.730443 39.395469 -0.032266 2.551371 -0.001613 -0.010920 -199141.000000 0 0 1
-23.055040 1.446412 -33.056403 40.328064 -0.062655 2.531661 0.002237 -0.012618 -260636.000000 0 0 1
-22.663940 2.851412 -33.630783 40.654819 -0.125155 2.544951 0.001810 -0.009643 -1238600.000000 0 0 1
-22.326640 3.798212 -32.616423 39.708139 -0.168507 2.534665 0.005442 -0.015682 25530.700000 0 0 1
-23.352240 4.237712 -31.754663 39.643965 -0.179516 2.499754 0.000354 -0.012190 -887084.000000 0 0 1
-24.479940 4.990212 -32.459783 40.961045 -0.201094 2.485620 0.004482 -0.013853 -938642.000000 0 0 1
-25.325660 4.089012 -33.164803 41.928668 -0.160076 2.483208 0.008426 -0.017030 -339479.000000 0 0 1
-25.768750 4.703712 -34.373024 43.216411 -0.180548 2.490414 0.014915 -0.019873 422895.000000 0 0 1
-27.117940 4.067012 34.217314 43.849149 -0.148865 0.675584 0.015968 -0.012243 633596.000000 0 0 1
-27.062530 2.669112 34.042397 43.570512 -0.098310 0.674023 0.025007 -0.012180 431495.000000 0 0 1
-28.260320 2.319012 33.361602 43.783787 -0.081876 0.704458 0.029449 -0.010889 305093.000000 0 0 1
-28.380650 0.829012 33.082345 43.595758 -0.029202 0.709261 0.028483 -0.000899 -73813.300000 0 0 1
-28.347870 0.085912 34.268277 44.473857 -0.003031 0.691130 0.018022 0.008773 138883.000000 0 0 1
-28.465570 -1.284688 34.046253 44.396920 0.045101 0.696861 0.015492 0.005860 -779907.000000 0 0 1
-28.114090 -2.117188 -33.799493 44.014660 0.075165 2.446375 -0.013422 0.013382 1219000.000000 0 0 1
-26.704410 -2.114688 -33.449533 42.854039 0.079024 2.466335 -0.007169 0.004350 1834430.000000 0 0 1
-26.131610 -0.852488 -32.950823 42.063577 0.032611 2.470846 -0.022495 0.014300 -471723.000000 0 0 1
-26.434530 -0.560288 -31.473163 41.105453 0.021192 2.442877 0.000065 0.012129 -343104.000000 0 0 1
-25.585260 -1.220488 -30.565283 39.878962 0.047667 2.444094 -0.004944 0.004043 464429.000000 0 0 1
-25.858830 -0.712988 -29.262773 39.057615 0.027565 2.417681 -0.003676 0.003767 -126513.000000 0 0 1
-24.838040 -1.339088 -28.294513 37.673609 0.053861 2.420437 0.011648 0.006124 -100906.000000 0 0 1
-25.055740 -2.679988 -27.984063 37.657406 0.106556 2.408521 -0.000588 0.003440 -56420.100000 0 0 1
-24.312340 -2.994088 -26.833953 36.333393 0.122534 2.401710 0.023267 -0.003800 -127907.000000 0 0 1
-24.757140 -4.279788 -26.035183 36.180980 0.171179 2.373997 0.019557 -0.009651 236531.000000 0 0 1
-25.987940 -4.218388 -25.337063 36.539493 0.160917 2.337015 0.010022 -0.007624 5002.180000 0 0 1
-26.285520 -5.385788 -24.614033 36.411343 0.202098 2.313116 0.003847 -0.010888 574383.000000 0 0 1
-27.425140 -5.205088 -23.554133 36.524354 0.187562 2.271674 0.023808 -0.015048 455143.000000 0 0 1
-27.533280 -6.338788 -22.772333 36.288302 0.226280 2.249185 0.008646 -0.013329 -513375.000000 0 0 1
-28.502210 -6.162188 -21.802533 36.410149 0.212923 2.212803 0.001581 -0.009873 -698552.000000 0 0 1
-28.711250 -7.334888 -20.878933 36.250052 0.250121 2.184586 0.001355 -0.012244 -488916.000000 0 0 1
-27.651980 -7.616588 -19.982333 34.956230 0.268779 2.179298 0.002983 -0.011735 165939.000000 0 0 1
-27.977980 -8.536188 -18.897333 34.824461 0.296133 2.144380 0.015651 -0.008005 -36680.000000 0 0 1
-28.654240 -7.938588 -17.613433 34.558930 0.270269 2.105590 0.006432 -0.008298 47350.400000 0 0 1
-27.772870 -7.137888 -16.827533 33.248272 0.251565 2.101474 0.028270 -0.022945 414300.000000 0 0 1
-28.299130 -6.822788 -15.570233 33.012473 0.236580 2.061954 0.014547 -0.016485 198823.000000 0 0 1
-27.275070 -5.903688 -14.833133 31.603873 0.213162 2.059346 0.036333 -0.023209 338050.000000 0 0 1
-26.967850 -4.703888 -15.472233 31.444896 0.172688 2.085231 0.036423 -0.023750 -31561.300000 0 0 1
-26.240960 -3.860888 -14.633333 30.292390 0.146084 2.074953 0.047549 -0.026731 -277784.000000 0 0 1
-14.343640 21.266712 -4.608533 26.062456 -0.977415 1.748558 0.021597 0.006327 267506.000000 0 0 1
-14.101040 20.965912 -5.941333 25.955890 -0.978718 1.801745 0.045584 -0.005242 26130.600000 0 0 1
-14.864540 19.793812 -6.201133 25.518691 -0.926675 1.816257 0.018490 -0.008848 -196773.000000 0 0 1
-14.865140 19.176812 -7.585833 25.421789 -0.911385 1.873811 0.025475 -0.018905 -1162990.000000 0 0 1
-13.666840 18.650912 -8.025233 24.475363 -0.938414 1.904866 0.035726 -0.021853 -1097840.000000 0 1 0
-13.762740 17.714912 -9.125333 24.217820 -0.910299 1.957138 0.019972 -0.028291 -450826.000000 0 1 0
-14.100540 16.217312 -8.756033 23.205485 -0.855104 1.957703 0.019506 -0.028580 -279904.000000 0 1 0
-15.501640 16.176912 -8.491433 23.960337 -0.806711 1.933064 0.014516 -0.024503 653328.000000 0 1 0
-15.822740 15.319212 -7.341733 23.215047 -0.769231 1.892569 0.023111 -0.014833 -285372.000000 0 1 0
-17.275140 15.503112 -6.901833 24.215950 -0.731390 1.859815 0.035756 -0.009813 436839.000000 0 1 0
-18.227940 14.954712 -7.853533 24.851141 -0.687074 1.892331 0.034553 -0.011870 397833.000000 0 1 0
-19.530640 15.472312 -7.725533 26.086821 -0.669971 1.871452 0.027681 -0.004908 151940.000000 0 0 1
-20.557540 14.746312 -8.630833 26.731207 -0.622255 1.899562 0.020371 0.001818 -102389.000000 0 0 1
-20.768840 13.482112 -8.149133 26.067613 -0.575778 1.888741 0.026690 -0.005147 -286936.000000 0 0 1
-21.790940 12.915212 -8.938333 26.861526 -0.535025 1.910021 0.033698 -0.009184 -130234.000000 0 0 1
-22.271240 11.601912 -8.337233 26.459818 -0.480257 1.891348 0.034787 -0.011625 63628.900000 0 0 1
-21.349240 10.491412 -8.348133 25.210139 -0.456759 1.908310 0.043582 -0.005032 470940.000000 0 0 1
-21.860040 9.458912 -7.461133 24.959985 -0.408377 1.874361 0.049614 -0.007566 625022.000000 0 1 0
-20.766840 8.380412 -7.053933 23.478733 -0.383561 1.875949 0.048170 -0.007521 369900.000000 0 1 0
-20.490940 7.361512 -8.014533 23.201363 -0.344898 1.923497 0.036601 -0.008501 322407.000000 0 1 0
-19.519540 6.459212 -7.540633 21.899658 -0.319568 1.922318 0.028403 -0.006662 -106980.000000 0 1 0
-19.065740 5.344612 -8.511033 21.552378 -0.273310 1.976755 0.004227 -0.015166 -723673.000000 0 1 0
-20.067440 4.345512 -8.505633 22.224568 -0.213253 1.963527 0.015882 -0.016317 787556.000000 0 1 0
-19.904940 3.484112 -9.609833 22.376205 -0.173282 2.014698 0.006984 -0.013094 -419855.000000 0 1 0
-20.796640 2.241012 -9.493233 22.970499 -0.107344 1.996849 0.003038 -0.016698 -11927.200000 0 1 0
-20.254240 1.337112 -8.555333 22.027615 -0.065921 1.969681 -0.006319 -0.021423 198858.000000 0 1 0
-21.196840 0.477612 -8.019033 22.668018 -0.022528 1.932384 0.011803 -0.022559 -509953.000000 0 1 0
-21.491540 -0.836588 -8.752633 23.220567 0.038907 1.957281 0.008590 -0.019190 471968.000000 0 1 0
-20.362240 -1.734188 -8.675333 22.201118 0.084962 1.972255 -0.006918 -0.012722 585618.000000 0 1 0
-20.447940 -3.025588 -9.231533 22.638322 0.146900 1.990821 -0.012750 -0.005700 -220015.000000 0 1 0
-21.423840 -3.995788 -8.475933 23.383513 0.184393 1.941718 -0.002436 0.001394 379773.000000 0 1 0
-20.953440 -4.543488 -7.205433 22.618758 0.213532 1.895006 -0.024939 0.002422 -209304.000000 0 1 0
-21.906740 -5.360988 -6.582233 23.494068 0.240002 1.854763 0.000309 0.003945 -674485.000000 0 1 0
-21.980740 -6.850588 -7.075933 24.086351 0.302122 1.868969 -0.001389 0.000433 -3859.720000 0 1 0
-20.940740 -7.642188 -6.527833 23.227790 0.349925 1.855669 -0.020646 0.004881 625876.000000 0 1 0
-20.974740 -8.916088 -7.073133 23.863477 0.401944 1.871717 -0.023874 0.005527 -96812.900000 0 1 0
-20.047040 -9.891688 -6.289233 23.222484 0.458373 1.845046 -0.014845 0.011590 383295.000000 0 1 0
-18.641540 -9.747088 -6.352033 21.974100 0.481775 1.864051 -0.026024 0.005476 627883.000000 0 1 0
-17.879240 -10.717688 -5.653433 21.598550 0.540014 1.835632 -0.003561 0.007302 183653.000000 0 1 0
-17.237340 -11.832688 -6.464733 21.884496 0.601579 1.870673 -0.009062 0.010873 8962.160000 0 1 0
-16.180440 -11.575388 -7.415733 21.231800 0.620983 1.927593 -0.009321 0.003263 774771.000000 0 1 0
-16.522440 -10.923888 -8.600933 21.593943 0.584177 1.980462 -0.010653 -0.003621 -816015.000000 0 1 0
-15.512440 -11.258988 -9.658933 21.463820 0.627835 2.037573 -0.004916 -0.002380 -381124.000000 0 1 0
-15.606640 -12.563288 -10.214233 22.488530 0.677780 2.042268 -0.007084 -0.003376 1313720.000000 0 1 0
-14.561940 -12.798988 -11.223333 22.401504 0.721054 2.095559 0.002043 0.005961 981466.000000 0 1 0
-14.873240 -14.181388 -11.871733 23.733164 0.761591 2.094646 0.022922 0.000161 -21783.900000 0 1 0
-15.752840 -14.088888 -12.972233 24.797733 0.729697 2.121306 0.017473 -0.003231 150485.000000 0 1 0
-15.917840 -15.331788 -13.605033 25.952616 0.766646 2.122602 0.016645 0.002123 -63972.500000 0 0 1
-16.634340 -15.140488 -14.963633 27.015661 0.738419 2.157822 0.038700 0.004201 -40205.100000 0 0 1
-17.098340 -16.321388 -15.549033 28.293345 0.762154 2.152640 0.053412 0.005018 191697.000000 0 0 1
-17.177940 -16.263988 -16.947733 29.100250 0.758075 2.192464 0.033021 0.007182 -353950.000000 0 0 1
-17.113740 -17.619088 -17.669533 30.257639 0.799947 2.194406 0.020445 0.004504 565304.000000 0 0 1
-18.261740 -18.463588 -17.486033 31.307452 0.790894 2.163404 -0.005473 0.010366 180535.000000 0 0 1
-19.214040 -18.361788 -18.498533 32.381018 0.762721 2.178857 -0.000877 0.009159 544510.000000 0 0 1
-20.680340 -18.174088 -17.962133 32.872666 0.720984 2.148875 -0.010900 0.003126 528225.000000 0 0 1
-20.896640 -16.885788 -17.460233 32.041522 0.679638 2.147096 -0.019535 0.016057 193893.000000 0 0 1
-21.047940 -16.964588 -16.089133 31.459072 0.678387 2.107645 -0.030693 0.013659 -298815.000000 0 0 1
-20.982840 -15.552388 -15.428033 30.334478 0.637842 2.104351 -0.021984 0.003665 -466637.000000 0 0 1
-22.037240 -14.689188 -15.729733 30.803193 0.587930 2.106740 -0.027893 0.006017 -94634.900000 0 0 1
-21.764740 -13.365188 -15.271933 29.758429 0.550705 2.109702 -0.012694 0.002813 -165994.000000 0 0 1
-23.080340 -12.676788 -14.868433 30.240260 0.502264 2.084811 0.005013 -0.007657 -60817.800000 0 0 1
-23.649740 -13.309888 -13.723633 30.410548 0.512611 2.038994 -0.001535 0.000134 523335.000000 0 0 1
-24.630840 -12.437888 -13.153933 30.568043 0.467617 2.015640 0.023717 -0.011071 -217138.000000 0 0 1
-25.357820 -12.944088 -11.942433 30.873778 0.471979 1.967971 0.015944 -0.008802 -424061.000000 0 0 1
-26.331500 -12.013688 -11.470433 31.132739 0.428037 1.948123 0.017582 -0.016259 176548.000000 0 0 1
-26.872460 -12.540088 -10.283533 31.386844 0.436615 1.904599 0.007578 -0.009207 -61670.900000 0 0 1
-27.834570 -11.608888 -9.489433 31.616118 0.395132 1.875641 0.018171 -0.010376 -273880.000000 0 0 1
-27.184910 -10.488888 -8.994533 30.494880 0.368236 1.870202 0.030650 -0.016976 117639.000000 0 0 1
-28.065220 -9.540288 -8.398333 30.809181 0.327678 1.846882 0.045442 -0.018248 139483.000000 0 0 1
-27.244200 -8.326788 -7.849633 29.549933 0.296619 1.839664 0.043952 -0.010335 535796.000000 0 0 1
-26.429290 -8.721588 -6.749333 28.637859 0.318745 1.808713 0.023254 -0.012762 544325.000000 0 0 1
-25.522730 -7.749388 -6.171433 27.377899 0.294781 1.798167 0.015185 -0.008119 679564.000000 0 0 1
-26.184770 -6.550388 -5.347033 27.516187 0.245129 1.766364 0.022423 -0.013929 65058.500000 0 0 1
-26.849660 -6.883088 -4.112433 28.021300 0.250952 1.718089 0.015604 -0.010713 572594.000000 0 0 1
-26.026680 -7.098588 -2.926633 27.135645 0.266266 1.678858 0.020872 -0.002723 59235.200000 0 0 1
-25.535210 -5.867988 -2.197133 26.292730 0.225878 1.654458 0.028620 -0.004757 -408147.000000 0 0 1
-26.565660 -5.005688 -1.821333 27.094436 0.186243 1.638069 0.025108 -0.009015 -47314.200000 0 0 1
-26.054210 -3.964488 -1.014433 26.373625 0.151005 1.609270 0.006378 -0.010813 71246.100000 0 0 1
-27.206820 -3.038788 -0.455333 27.379785 0.111231 1.587427 0.015896 -0.016383 122023.000000 0 0 1
-28.056590 -3.511788 0.546567 28.280800 0.124520 1.551469 0.015975 -0.010028 -106721.000000 0 0 1
-27.484650 -3.832688 1.809767 27.809544 0.138555 1.505673 0.009829 -0.008105 -962129.000000 0 0 1
-28.571910 -4.191888 2.762367 29.009596 0.145674 1.475429 -0.000022 -0.006788 -477191.000000 0 0 1
-29.036990 -5.539488 2.647367 29.678970 0.188508 1.481478 0.017195 0.001175 51247.700000 0 0 1
-30.103160 -5.775688 3.541867 30.856177 0.189560 1.455756 0.030328 -0.003852 -92533.300000 0 0 1
-30.618270 -7.267088 3.598267 31.673910 0.233033 1.456947 0.037551 0.006285 -44323.800000 0 0 1
-29.823160 -8.279788 4.219367 31.237459 0.270809 1.435308 0.039802 0.020519 -101943.000000 0 0 1
-30.513550 -9.465488 4.090367 32.208746 0.300794 1.443457 0.049856 0.020314 -198390.000000 0 0 1
-29.831110 -10.745488 4.608267 32.040549 0.345742 1.426470 0.033254 0.013339 -141747.000000 0 0 1
-29.766080 -10.824988 6.020167 32.240383 0.348799 1.382966 0.018988 0.021241 -160116.000000 0 0 1
-28.766180 -11.642188 6.524067 31.711151 0.384567 1.363582 0.008489 0.024731 -449763.000000 0 0 1
-28.992790 -11.937788 8.021067 32.364026 0.390595 1.320347 0.015112 0.011211 -19296.400000 0 0 1
-28.865650 -10.753988 8.788867 32.033080 0.356624 1.292863 0.040291 0.010625 342629.000000 0 0 1
-28.822690 -11.034488 10.175067 32.496759 0.365627 1.252330 0.038001 0.006524 -223545.000000 0 0 1
-28.894810 -9.775388 11.025967 32.435169 0.326222 1.223945 0.026837 0.006662 254698.000000 0 0 1
-27.720970 -8.957788 11.041667 31.154655 0.312550 1.208508 0.041147 0.007471 420261.000000 0 0 1
-27.853470 -7.801888 11.856667 31.261251 0.273106 1.181782 0.044952 -0.000850 -16614.700000 0 0 1
-26.776130 -6.745988 11.606967 29.953150 0.246804 1.172874 0.055219 -0.004867 -298196.000000 0 0 1
-27.176150 -5.935588 10.593467 29.765683 0.215035 1.206924 0.052526 -0.006311 -181677.000000 0 0 1
-26.309320 -4.870988 10.415967 28.712353 0.183070 1.199558 0.053046 -0.009704 -608882.000000 0 0 1
-26.520300 -3.971088 9.144867 28.332392 0.148633 1.242141 0.057736 -0.008126 -75313.400000 0 0 1
-26.024630 -4.567288 7.942767 27.590379 0.173729 1.278782 0.035663 -0.002166 235549.000000 0 0 1
-26.091410 -3.716088 6.805167 27.219135 0.141474 1.318102 0.027509 -0.008319 -379440.000000 0 0 1
-25.223860 -4.217288 5.668167 26.194594 0.165662 1.352684 0.009093 0.004276 -282562.000000 0 0 1
-23.840740 -4.134188 5.925267 24.911467 0.171701 1.330642 0.020738 -0.013939 548639.000000 0 1 0
-23.034640 -4.545488 4.814967 23.967478 0.194830 1.368524 0.007199 0.000273 221135.000000 0 1 0
-21.673640 -3.830088 4.742067 22.514516 0.174911 1.358584 0.007574 -0.005509 -298372.000000 0 1 0
-21.784340 -2.473088 4.433067 22.367962 0.113042 1.371287 0.000661 -0.005134 605138.000000 0 1 0
-20.524240 -1.872188 4.699367 21.138438 0.090967 1.346609 -0.002139 -0.001335 -541504.000000 0 1 0
-20.517640 -0.295388 5.022867 21.125577 0.014396 1.330735 -0.000418 -0.000119 -738201.000000 0 1 0
-20.645440 0.541312 3.877667 21.013413 -0.026213 1.385200 0.008873 -0.004391 368526.000000 0 1 0
-21.949040 0.839012 3.439167 22.232683 -0.038207 1.415483 0.002347 -0.009036 -602200.000000 0 1 0
-21.869640 1.979312 2.392567 22.088984 -0.090259 1.462268 0.017453 -0.007244 -318729.000000 0 1 0
-21.357240 3.181012 2.932767 21.791091 -0.147856 1.435801 0.004352 -0.001947 109121.000000 0 1 0
-21.605940 4.238812 2.007067 22.109104 -0.193727 1.479891 0.032311 -0.006834 388943.000000 0 1 0
-20.431340 4.548612 1.019967 20.956380 -0.219057 1.522106 0.028641 -0.005537 -166865.000000 0 1 0
-20.751440 5.422312 -0.057633 21.448241 -0.255584 1.573483 0.046720 -0.000158 430914.000000 0 1 0
-21.571640 4.923212 -1.122833 22.154783 -0.224383 1.621499 0.055523 -0.014680 38141.900000 0 1 0
-21.062040 3.668112 -1.942633 21.467147 -0.172428 1.661414 0.050093 -0.015750 -339486.000000 0 1 0
-21.289540 2.492112 -1.187433 21.467770 -0.116528 1.626137 0.045791 -0.006673 633224.000000 0 1 0
-20.827440 1.318912 -1.841233 20.950225 -0.063241 1.658796 0.036624 -0.005654 1154630.000000 0 1 0
-19.741140 0.426112 -1.032133 19.772695 -0.021582 1.623020 0.014746 -0.001488 1423500.000000 0 1 0
-20.496940 -0.274788 0.006367 20.498783 0.013405 1.570486 0.010821 -0.007008 1144800.000000 0 1 0
-19.752940 -1.119488 0.863267 19.803462 0.056614 1.527191 0.005126 -0.005820 -803929.000000 0 1 0
-19.094140 -2.371688 0.280067 19.242908 0.123577 1.556242 0.006371 -0.003476 -165930.000000 0 1 0
-18.389940 -3.031888 1.329467 18.685548 0.163397 1.499587 0.010178 -0.003030 223057.000000 0 1 0
-17.735540 -4.220588 0.943367 18.255210 0.233628 1.519097 0.007720 -0.000190 -137910.000000 0 1 0
-18.575540 -5.492788 0.639567 19.381188 0.287507 1.537791 -0.002928 0.001596 -87865.600000 0 1 0
-19.392340 -5.893788 1.720667 20.341098 0.295052 1.486104 0.036900 -0.001182 337592.000000 0 1 0
-19.899140 -7.198388 1.562867 21.218744 0.347098 1.497075 -0.022287 0.003663 -233005.000000 0 1 0
-20.754640 -7.612788 2.781167 22.281035 0.351562 1.445648 -0.006627 0.005288 -20249.800000 0 1 0
-20.012040 -8.151088 3.874767 21.953036 0.386791 1.393364 -0.003640 0.003417 -394101.000000 0 1 0
-20.789440 -8.571388 4.879467 23.010404 0.391061 1.357119 0.007977 0.002361 -826687.000000 0 1 0
-20.026440 -9.473288 5.816067 22.904762 0.441847 1.314061 0.008907 0.003871 -184835.000000 0 1 0
-19.626540 -10.659488 5.148967 22.920245 0.497543 1.344215 0.011212 0.001685 -52017.100000 0 1 0
-18.608640 -11.291088 5.880067 22.546515 0.545380 1.306948 0.022466 -0.001129 -238263.000000 0 1 0
-18.155140 -12.623388 5.345667 22.749400 0.607569 1.333598 0.018508 -0.002031 -286060.000000 0 1 0
-19.000440 -13.720588 5.556067 24.086119 0.625418 1.338025 0.030412 0.003963 195742.000000 0 1 0
-18.485940 -14.811888 4.742367 24.158064 0.675504 1.373207 0.019658 0.003976 258637.000000 0 1 0
-18.712640 -16.163788 5.403567 25.310659 0.712445 1.355651 0.014767 0.001826 -134050.000000 0 0 1
-18.232040 -17.212688 4.582467 25.488878 0.756647 1.390030 0.014890 -0.005455 -28253.600000 0 0 1
-18.532440 -18.467988 5.085367 26.652934 0.783656 1.378820 0.014225 0.000480 -305067.000000 0 0 1
-17.428040 -19.508388 4.878867 26.610470 0.841661 1.386409 0.016544 -0.005461 -833553.000000 0 0 1
-17.093240 -19.862088 3.554267 26.444550 0.860183 1.435984 0.019887 -0.007192 23954.900000 0 0 1
-16.343040 -21.076688 3.536767 26.904097 0.911231 1.438956 0.024096 -0.007492 153362.000000 0 0 1
-14.826340 -20.951288 3.800067 25.946432 0.954949 1.423809 0.021806 -0.008963 -306466.000000 0 0 1
-14.311340 -22.260688 4.021467 26.767982 0.999430 1.419991 0.027128 -0.009378 1117840.000000 0 0 1
-12.918440 -22.264388 4.442567 26.121360 1.045041 1.399891 0.034147 -0.002581 1185890.000000 0 0 1
-12.376140 -23.681988 4.520067 27.100487 1.089235 1.403224 0.029668 0.001243 -440387.000000 0 0 1
-12.433940 -24.416688 3.279067 27.595829 1.099785 1.451690 0.035801 -0.002677 158109.000000 0 0 1
-12.154640 -25.761238 3.499267 28.698807 1.129947 1.448561 0.030280 -0.001270 -209896.000000 0 0 1
17.468660 19.224012 -24.808933 35.919352 0.833201 2.333231 0.021453 0.001005 -172096.000000 0 0 1
16.648360 19.513812 -25.886213 36.442458 0.864472 2.360765 0.013765 -0.007951 -336845.000000 0 0 1
17.394260 19.476912 -27.085153 37.623342 0.841823 2.374459 0.019812 -0.012376 -463685.000000 0 0 1
16.625360 19.638512 -28.341093 38.279124 0.868297 2.404432 0.017457 -0.006274 -551979.000000 0 0 1
16.284460 20.990712 -28.651133 39.072766 0.910991 2.393924 0.012486 0.006473 448609.000000 0 0 1
15.342260 21.063512 -29.729363 39.533423 0.941276 2.421896 0.008951 0.004285 186176.000000 0 0 1
14.972160 22.482912 -30.090793 40.436403 0.983300 2.410059 0.016842 -0.000095 203096.000000 0 0 1
14.173560 23.117912 -29.051743 39.740803 1.020801 2.390627 0.019855 -0.001623 713720.000000 0 0 1
14.072060 24.463812 -29.254033 40.648486 1.048797 2.374142 0.024493 0.000329 -448407.000000 0 0 1
13.435060 25.238612 -28.123953 40.105425 1.081627 2.347947 0.021058 -0.003040 -124032.000000 0 0 1
12.035760 25.039612 -28.152573 39.552611 1.122733 2.362819 0.028281 -0.014217 -132245.000000 0 0 1
11.444560 25.658212 -27.039473 38.993011 1.151241 2.337055 0.027819 -0.007171 -225099.000000 0 0 1
9.916960 25.484612 -26.860123 38.331159 1.199691 2.347229 0.031210 -0.006016 181591.000000 0 0 1
9.288960 26.358712 -25.993703 38.167251 1.231980 2.319988 0.027426 -0.008265 -166798.000000 0 0 1
9.127260 27.723712 -26.400713 39.356178 1.252750 2.306103 0.042679 -0.020494 -336657.000000 0 0 1
8.541960 28.716612 -25.398863 39.277362 1.281674 2.273986 0.045685 -0.015717 187883.000000 0 0 1
9.521760 29.125312 -24.433633 39.191200 1.254825 2.243940 0.040998 -0.013404 312378.000000 0 0 1
9.072560 30.082112 -23.523533 39.250496 1.277879 2.213445 0.042036 -0.012461 -346952.000000 0 0 1
10.024460 30.279012 -22.325233 38.932305 1.251085 2.181492 0.014232 -0.007233 -434433.000000 0 0 1
11.179960 30.984512 -22.646833 39.973873 1.224511 2.173098 0.012248 -0.017635 6505.360000 0 0 1
11.975260 31.307012 -21.475133 39.808507 1.205457 2.140593 -0.015710 -0.004322 423765.000000 0 0 1
13.159660 32.250212 -21.832533 41.108543 1.183371 2.130688 -0.025105 0.009042 326063.000000 0 0 1
14.200860 31.584812 -22.499833 41.297788 1.148266 2.146970 -0.021280 0.010936 -643670.000000 0 0 1
15.106960 32.338612 -23.244133 42.594551 1.133773 2.148029 -0.018381 0.019532 469927.000000 0 0 1
16.386260 31.491212 -23.580033 42.617179 1.091006 2.157116 -0.025625 0.021723 784883.000000 0 0 1
17.167960 31.100812 -22.437433 42.017113 1.066411 2.134129 -0.020523 0.020245 -583230.000000 0 0 1
18.366260 30.590312 -22.898833 42.396265 1.030087 2.141369 -0.024400 0.023229 -469068.000000 0 0 1
19.315760 29.982712 -21.798733 41.800076 0.998488 2.119404 -0.016821 0.029961 74389.700000 0 0 1
19.830560 30.948212 -20.937133 42.301377 1.000940 2.088575 -0.017055 0.030098 137952.000000 0 0 1
20.684960 30.299812 -19.992633 41.780995 0.971792 2.069754 -0.008016 0.017314 -198525.000000 0 0 1
21.306960 31.210112 -18.959833 42.279225 0.971780 2.035819 0.000759 0.003884 -633598.000000 0 0 1
22.262560 32.103512 -19.452933 43.642567 0.964472 2.032789 -0.009224 0.007336 -221361.000000 0 0 1
22.873160 32.711912 -18.338833 43.926796 0.960587 2.001474 0.001339 0.006701 -515585.000000 0 0 1
24.118360 33.534012 -18.695833 45.340483 0.947287 1.995821 0.005747 -0.000795 225183.000000 0 0 1
25.239460 32.734812 -19.077533 45.525274 0.913973 2.003199 0.006452 0.000787 36415.900000 0 0 1
26.416760 33.493812 -18.820233 46.624906 0.902980 1.986301 0.012796 -0.006970 623585.000000 0 0 1
27.688960 32.732512 -19.308233 47.020248 0.868678 1.993948 0.004918 -0.000206 307421.000000 0 0 1
28.022960 31.499212 -18.677733 46.112302 0.843735 1.987829 0.006312 0.009045 44630.300000 0 0 1
29.216060 30.898812 -19.153733 46.638828 0.813383 1.993998 -0.001459 0.012192 102472.000000 0 0 1
29.404060 29.513612 -18.569433 45.612234 0.787258 1.990090 -0.011010 0.010779 -242966.000000 0 0 1
29.800660 29.635412 -17.202733 45.412234 0.782618 1.959309 -0.011369 0.011693 238316.000000 0 0 1
30.213260 28.402012 -16.581633 44.659444 0.754507 1.951195 -0.017239 0.004400 -47420.800000 0 0 1
30.436360 28.451312 -15.015033 44.286571 0.751702 1.916695 -0.013251 0.010060 -64174.700000 0 0 1
31.510460 29.252012 -14.530333 45.384137 0.748247 1.896698 -0.005613 0.012559 85104.900000 0 0 1
31.349660 30.644012 -14.699733 46.237850 0.774016 1.894327 -0.006955 0.010894 -160469.000000 0 0 1
32.687560 31.345612 -14.997433 47.706886 0.764444 1.890585 0.006981 0.007503 46001.000000 0 0 1
33.572060 31.449112 -13.934633 48.065620 0.752760 1.864928 -0.000128 0.005602 88446.900000 0 0 1
34.788360 32.117212 -14.288833 49.456203 0.745495 1.863894 0.022412 -0.003345 774997.000000 0 0 1
-34.554167 32.330212 -13.161833 49.116870 -0.752160 1.842081 0.021387 -0.000330 246611.000000 0 0 1
-35.100967 33.318712 -12.223633 49.916247 -0.759355 1.818195 0.007262 -0.004001 63695.400000 0 0 1
-34.197267 33.529412 -11.172133 49.178157 -0.775537 1.799974 0.018628 -0.000428 -327438.000000 0 0 1
-34.634067 -34.431318 -10.192633 49.889118 0.782463 1.776551 0.022889 0.004097 19905.600000 0 0 1
-33.654767 -33.680818 -9.477233 48.547491 0.785785 1.767274 0.022052 -0.002097 -7666.750000 0 0 1
-33.445267 -34.267918 -8.207333 48.582265 0.797547 1.740547 0.015169 -0.009610 192205.000000 0 0 1
-32.882267 -33.237818 -7.191233 47.304439 0.790775 1.723408 0.018023 -0.004799 -82007.000000 0 0 1
-33.809967 -32.247418 -6.865633 47.224430 0.761748 1.716696 0.018639 -0.003279 -406069.000000 0 0 1
-33.516467 -31.568318 -5.679633 46.391492 0.755475 1.693533 0.032142 -0.006294 -281047.000000 0 0 1
-34.789167 -30.885218 -5.184433 46.808773 0.726024 1.681782 0.025368 0.006182 -676724.000000 0 0 1
34.712560 -31.779118 -4.574833 47.284282 -0.741309 1.667700 0.011763 0.005779 394963.000000 0 0 1
33.488060 -31.228518 -4.026033 45.966069 -0.750498 1.658496 0.005818 0.005339 679409.000000 0 0 1
33.576460 -30.208518 -2.849033 45.255389 -0.732646 1.633793 0.009257 0.009300 -804316.000000 0 0 1
34.127660 -28.920418 -3.084633 44.839745 -0.702994 1.639643 0.022535 0.002122 -64055.200000 0 0 1
33.271460 -27.946218 -2.538633 43.525002 -0.698628 1.629155 0.024310 0.000286 -336553.000000 0 0 1
33.676960 -26.470418 -2.551033 42.910703 -0.666152 1.630281 0.032891 -0.007469 -312472.000000 0 0 1
33.485360 -25.967518 -3.869833 42.550640 -0.659615 1.661869 0.027952 -0.015768 181105.000000 0 0 1
33.095160 -24.604118 -3.794033 41.413125 -0.639287 1.662539 0.035665 -0.019609 -37346.100000 0 0 1
32.691060 -24.063018 -5.148533 40.917498 -0.634528 1.696958 0.037580 -0.019719 -238229.000000 0 0 1
33.790260 -23.987718 -6.032333 41.875785 -0.617340 1.715352 0.047402 -0.020330 252654.000000 0 0 1
33.385260 -23.430718 -7.308533 41.436564 -0.611952 1.748103 0.026403 -0.015286 -12999.700000 0 0 1
34.586560 -23.273818 -8.267633 42.500053 -0.592316 1.766577 0.020102 -0.018068 -74448.600000 0 0 1
35.002860 -24.516718 -8.789833 43.629472 -0.611008 1.773650 0.021632 -0.012919 78623.100000 0 0 1
-34.272667 -24.337918 -9.691733 43.137915 0.617490 1.797399 0.030624 -0.007695 316774.000000 0 0 1
-33.776267 -25.648718 -10.332633 43.651533 0.649472 1.809772 0.028999 -0.011655 -117377.000000 0 0 1
-33.080567 -26.484718 -9.438233 43.414796 0.675114 1.789943 0.028871 -0.009297 351297.000000 0 0 1
-33.937267 -27.495418 -8.860533 44.567311 0.680920 1.770942 0.030357 -0.006384 251476.000000 0 0 1
-33.189267 -28.729218 -8.309433 44.675968 0.713491 1.757879 0.032936 -0.006158 -319062.000000 0 0 1
-32.421767 -29.272918 -9.324233 44.665603 0.734403 1.781100 0.029668 -0.010628 283147.000000 0 0 1
-31.624667 -30.425118 -8.940333 44.785455 0.766069 1.771772 0.022776 -0.015376 477377.000000 0 0 1
-31.052367 -31.399518 -10.020833 45.283511 0.790957 1.793934 0.019425 -0.008880 294132.000000 0 0 1
-29.931167 -30.852018 -10.701633 44.297255 0.800547 1.814797 0.004391 0.006091 253862.000000 0 0 1
-29.556267 -31.636218 -11.814433 44.877657 0.819375 1.837195 -0.022341 0.009272 -283670.000000 0 0 1
-29.972267 -31.054018 -13.201633 45.132826 0.803122 1.867643 -0.030990 0.015065 -821922.000000 0 0 1
-29.264467 -29.883318 -13.376533 43.913021 0.795861 1.880330 -0.027454 0.022338 -246637.000000 0 0 1
-29.598367 -29.424118 -14.662733 44.236160 0.782446 1.908652 -0.035873 0.032542 -205202.000000 0 0 1
-28.739267 -28.293018 -15.238833 43.112207 0.777574 1.932073 -0.036408 0.023121 408083.000000 0 0 1
-27.430767 -28.722918 -15.613433 42.675899 0.808405 1.945354 -0.026477 0.020458 -76070.000000 0 0 1
-26.756667 -27.720818 -16.293433 41.831077 0.803094 1.970891 -0.017231 0.029598 -338196.000000 0 0 1
-25.446867 -28.174218 -16.935833 41.571048 0.836218 1.990396 0.011370 0.014381 -547335.000000 0 0 1
-25.580767 -29.174318 -17.983833 42.766047 0.850934 2.004811 0.008090 0.007343 -99890.600000 0 0 1
-25.729767 -28.668318 -19.301133 43.086275 0.839365 2.035284 0.002613 0.010563 711694.000000 0 0 1
-24.427667 -27.994618 -19.901233 42.148175 0.853336 2.062551 0.019134 0.010669 906061.000000 0 0 1
-23.979567 -26.853818 -19.180833 40.792788 0.841881 2.060315 0.008626 0.013027 -1403740.000000 0 0 1
-22.629667 -26.642718 -19.341433 39.950311 0.866665 2.076173 0.021674 -0.000784 -1103600.000000 0 0 1
-22.166067 -25.394918 -18.598633 38.498644 0.853183 2.074986 0.009955 0.001075 -315210.000000 0 0 1
-22.415567 -25.587818 -17.216633 38.126193 0.851386 2.039320 0.012218 0.011593 332719.000000 0 0 1
-21.821467 -24.507518 -16.515833 36.736462 0.843311 2.037087 0.003680 0.007158 -160617.000000 0 0 1
-22.012167 -24.562318 -14.990733 36.229340 0.840098 1.997391 -0.011757 0.017144 486568.000000 0 0 1
-23.373567 -24.442318 -14.563233 36.821710 0.807746 1.977416 -0.038441 0.031938 620517.000000 0 0 1
-23.394367 -24.571318 -13.131933 36.379854 0.809931 1.940101 -0.048792 0.038452 -408449.000000 0 0 1
-24.810167 -24.611218 -12.580633 37.142009 0.781373 1.916349 -0.052886 0.035615 -1079160.000000 0 0 1
-25.513467 -25.824618 -12.842633 38.506897 0.791459 1.910826 -0.035668 0.030851 1752370.000000 0 0 1
-26.925467 -25.902018 -12.479033 39.390628 0.766027 1.893152 -0.030619 0.027879 1803350.000000 0 0 1
-27.893867 -24.810118 -13.068533 39.552451 0.726954 1.907534 -0.029225 0.017765 -1458420.000000 0 0 1
-28.112967 -23.592718 -12.382233 38.733383 0.698197 1.896187 -0.030729 0.018365 170254.000000 0 0 1
-28.778767 -23.664718 -11.137633 38.888086 0.688190 1.861266 -0.001499 0.005559 90856.200000 0 0 1
-30.224067 -24.265318 -11.162433 40.334846 0.676475 1.851201 -0.011365 0.000987 -44442.200000 0 0 1
-31.295467 -23.391418 -11.515433 40.732910 0.641859 1.857410 0.008830 -0.007331 455290.000000 0 0 1
-31.428267 -23.148718 -12.926333 41.117992 0.634842 1.890591 0.008072 -0.002789 -103070.000000 0 0 1
-32.845567 -22.589718 -13.315233 42.028825 0.602461 1.893163 -0.001712 -0.008928 978323.000000 0 0 1
-33.763467 -23.690818 -13.305433 43.338910 0.611846 1.882845 0.000003 -0.002607 660677.000000 0 0 1
-35.100067 -23.348718 -13.683333 44.321676 0.586990 1.884652 0.019247 -0.011504 580004.000000 0 0 1
34.235260 -24.451318 -13.358333 44.140288 -0.620202 1.878251 0.014612 0.000501 -173971.000000 0 0 1
34.401260 -25.622818 -14.135733 45.164084 -0.640179 1.889132 0.002813 0.009228 -265680.000000 0 0 1
33.586860 -26.636318 -13.652733 44.988529 -0.670493 1.879130 -0.000264 0.006866 -99650.600000 0 0 1
33.521360 -27.901418 -14.513933 45.965476 -0.694156 1.892051 -0.003097 0.002913 576664.000000 0 0 1
32.668160 -27.694918 -15.655033 45.599312 -0.703195 1.921243 0.007185 -0.008089 159289.000000 0 0 1
32.394360 -28.944618 -16.285433 46.393974 -0.729217 1.929462 -0.002076 0.003262 -71593.200000 0 0 1
31.558860 -28.759618 -17.574033 46.172762 -0.739024 1.961257 -0.000389 0.000138 1368470.000000 0 0 1
30.130960 -28.586618 -17.398833 45.030977 -0.759103 1.967494 0.038528 -0.006157 1130180.000000 0 0 1
29.506860 -28.136518 -18.572333 44.802344 -0.761630 1.998233 0.042708 -0.006147 814352.000000 0 0 1
27.946460 -28.208018 -18.623333 43.858015 -0.790056 2.009347 0.052308 -0.004538 1104660.000000 0 0 1
27.248760 -27.540818 -17.566233 42.538972 -0.790729 1.996481 0.051379 -0.007337 -116557.000000 0 0 1
25.850260 -27.699118 -17.515833 41.740646 -0.819911 2.003839 0.053760 -0.008577 108766.000000 0 0 1
25.311260 -26.980618 -16.253033 40.407607 -0.817311 1.984744 0.050096 -0.015414 -201777.000000 0 0 1
25.430260 -25.527818 -16.369033 39.576671 -0.787313 1.997204 0.051996 -0.010316 -200526.000000 0 0 1
25.267460 -24.860618 -15.119233 38.536815 -0.777282 1.973962 0.046911 -0.006871 -169049.000000 0 0 1
25.108760 -23.368618 -15.209233 37.521499 -0.749518 1.988155 0.043981 -0.019445 1237270.000000 0 0 1
23.831360 -23.040018 -15.828833 36.733202 -0.768517 2.016301 0.052976 -0.014263 1199210.000000 0 0 1
23.943460 -21.799718 -16.468233 36.327946 -0.738568 2.041284 0.045541 -0.016933 432103.000000 0 0 1
22.565360 -21.095218 -16.650133 35.091746 -0.751739 2.065163 0.040259 -0.006750 651650.000000 0 0 1
21.996460 -20.679818 -15.364733 33.875864 -0.754556 2.041552 0.043976 -0.016033 512833.000000 0 0 1
20.703460 -20.130918 -15.598333 32.820651 -0.771378 2.066056 0.026374 -0.014230 406860.000000 0 0 1
20.301160 -18.955918 -14.680233 31.416129 -0.751144 2.057012 0.018313 -0.007340 86709.000000 0 0 1
19.908560 -19.273218 -13.319333 30.744306 -0.769184 2.018869 0.011451 -0.016411 167310.000000 0 0 1
19.647360 -18.137018 -12.555633 29.540042 -0.745447 2.009800 0.004640 -0.018165 -454258.000000 0 0 1
18.785560 -18.493318 -11.307333 28.683721 -0.777559 1.976001 0.002562 -0.003123 -223281.000000 0 0 1
19.492760 -18.957618 -10.209333 29.044612 -0.771481 1.929975 0.005107 -0.013286 -380778.000000 0 0 1
18.524760 -19.185118 -9.246933 28.226606 -0.802908 1.904555 0.004101 -0.009945 -335899.000000 0 0 1
19.059160 -19.776718 -7.955633 28.594794 -0.803873 1.852736 0.010353 -0.010571 -494529.000000 0 0 1
19.904860 -18.892918 -7.285433 28.394072 -0.759322 1.830281 0.008551 -0.010506 -145444.000000 0 0 1
20.580060 -19.540518 -6.201933 29.048833 -0.759494 1.785953 0.013563 0.002757 -653478.000000 0 0 1
21.794260 -18.735318 -5.790733 29.317819 -0.710067 1.769619 0.010518 -0.000305 -717612.000000 0 0 1
22.777960 -18.755918 -6.811633 30.282310 -0.688862 1.797675 0.015442 -0.016574 154320.000000 0 0 1
23.705060 -17.707918 -6.593033 30.314490 -0.641585 1.790036 0.026874 -0.023014 -232810.000000 0 0 1
24.842460 -17.643318 -7.636833 31.412668 -0.617544 1.816370 0.036437 -0.035532 385414.000000 0 0 1
25.802860 -18.702818 -7.581333 32.757589 -0.627200 1.804351 0.044695 -0.039517 271980.000000 0 0 1
25.522960 -19.789718 -8.432133 33.378965 -0.659541 1.826182 0.052351 -0.041788 -661728.000000 0 0 1
26.502560 -20.954718 -8.401733 34.814868 -0.669025 1.814528 0.054852 -0.047293 -30135.300000 0 0 1
27.798160 -20.635318 -8.894933 35.744565 -0.638572 1.822286 0.050407 -0.043044 -110777.000000 0 0 1
28.605760 -21.726218 -8.507433 36.914692 -0.649557 1.803349 0.037124 -0.036031 -493029.000000 0 0 1
-29.377440 30.798612 4.295067 42.778921 -0.809011 1.470225 -0.010579 0.007092 286525.000000 0 0 1
-28.486300 31.418412 3.395067 42.545416 -0.834305 1.490913 -0.019864 0.011965 440461.000000 0 0 1
-27.274640 31.863312 4.026367 42.135357 -0.862836 1.475092 -0.008545 0.004767 692814.000000 0 0 1
-26.564580 33.001712 3.248067 42.489291 -0.893047 1.494277 -0.003467 0.001850 -266879.000000 0 0 1
-25.744490 32.579612 2.161867 41.579846 -0.902058 1.518780 -0.010584 0.004661 253250.000000 0 0 1
-25.193740 33.677312 1.395167 42.081259 -0.928517 1.537636 -0.001614 -0.006093 197849.000000 0 0 1
-23.888140 34.244412 2.028067 41.802345 -0.961698 1.522262 0.000595 -0.010327 -59273.000000 0 0 1
-22.733840 33.557512 1.546867 40.562629 -0.975359 1.532652 0.003855 -0.005923 -43846.200000 0 0 1
-21.609940 34.099812 2.227367 40.432015 -1.005947 1.515679 0.007476 -0.013568 -426882.000000 0 0 1
-20.282540 33.842012 1.556367 39.485257 -1.030869 1.531370 0.011035 -0.012246 -730289.000000 0 0 1
-20.021640 34.384512 0.299067 39.790077 -1.043503 1.563280 0.008219 -0.018350 394027.000000 0 0 1
-18.614040 34.283512 0.092667 39.010900 -1.073386 1.568421 0.006212 -0.015490 439308.000000 0 0 1
-18.030540 -33.997018 -1.085933 38.497752 1.083159 1.599008 0.008426 -0.015845 -248495.000000 0 0 1
-18.123740 -32.552718 -1.056033 37.272841 1.062785 1.599133 0.000557 -0.014465 222039.000000 0 0 1
-17.588140 -31.914718 0.105567 36.440404 1.067110 1.567899 -0.003726 -0.007204 -527002.000000 0 0 1
-17.584240 -30.337018 0.038467 35.064821 1.045490 1.569699 -0.001936 -0.004887 -261758.000000 0 0 1
-16.678540 -29.884618 -0.952433 34.236987 1.061757 1.598619 0.021053 -0.003657 189107.000000 0 0 1
-16.376740 -28.471718 -0.917233 32.858449 1.048817 1.598715 0.006845 -0.000605 549410.000000 0 0 1
-15.394740 -28.008318 -2.077933 32.027827 1.068223 1.635721 0.014610 0.003684 316158.000000 0 0 1
-15.894840 -28.425018 -3.318033 32.735867 1.060929 1.672328 0.011209 -0.004581 44056.000000 0 0 1
-15.165240 -27.833618 -4.410133 32.002251 1.071913 1.709043 0.017558 -0.000930 -116257.000000 0 0 1
-15.811840 -28.072918 -5.764933 32.731292 1.057844 1.747849 0.031067 -0.011137 106894.000000 0 0 1
-16.878840 -27.155018 -5.975033 32.526778 1.014665 1.755541 0.020204 -0.002882 -194436.000000 0 0 1
-17.297640 -26.920118 -7.299133 32.820397 0.999673 1.795068 0.034198 -0.014660 115200.000000 0 0 1
-17.910640 -25.526218 -7.521333 32.077240 0.958959 1.807476 0.015864 -0.003599 148807.000000 0 0 1
-16.980240 -24.463818 -7.325733 30.667138 0.964044 1.812008 0.013944 0.001858 -8781.280000 0 0 1
-17.542940 -23.222218 -7.548533 30.066701 0.923824 1.824571 -0.008213 0.009499 173078.000000 0 0 1
-16.479940 -22.110318 -7.176733 28.494914 0.930277 1.825398 -0.000811 0.013241 576509.000000 0 0 1
-15.428040 -22.193018 -8.100333 28.216482 0.963316 1.861971 0.022900 0.006938 -713670.000000 0 0 1
-14.382440 -21.303818 -7.741133 26.844597 0.976970 1.863319 0.032616 -0.002260 233144.000000 0 0 1
-13.424440 -21.156618 -8.941833 26.604031 1.005376 1.913578 0.046399 -0.001421 102662.000000 0 0 1
-13.895340 -20.285718 -9.965433 26.531127 0.970221 1.955854 0.053998 -0.001632 425775.000000 0 0 1
-12.891440 -20.114218 -10.974433 26.290857 1.000837 2.001405 0.052791 0.000930 852621.000000 0 0 1
-13.595940 -19.287318 -12.125233 26.530577 0.956779 2.045448 0.066351 0.000714 -246356.000000 0 0 1
-14.596340 -19.948118 -12.810533 27.840444 0.939101 2.048950 0.051912 0.017507 -413561.000000 0 0 1
-15.129240 -19.121618 -13.882133 28.057865 0.901437 2.088364 0.058414 0.000795 -6676.410000 0 0 1
-16.353540 -19.634118 -14.616733 29.437829 0.876305 2.090392 0.066018 0.001081 121899.000000 0 0 1
-17.546040 -19.830418 -13.856933 29.885174 0.846440 2.052932 0.048342 0.003522 175471.000000 0 0 1
-18.545640 -20.296218 -14.711033 31.181593 0.830437 2.062111 0.020394 0.001506 96303.800000 0 0 1
-20.011340 -20.259618 -14.179233 31.811264 0.791563 2.032786 -0.009019 0.013333 765946.000000 0 0 1
-20.887640 -20.917318 -15.089633 33.189226 0.786108 2.042781 -0.015812 0.006899 933326.000000 0 0 1
-22.274940 -20.607618 -14.869133 33.792573 0.746537 2.026408 -0.045435 0.018066 1120380.000000 0 0 1
-23.287940 -21.018318 -15.985333 35.208362 0.734217 2.042069 -0.047669 0.013372 -292946.000000 0 0 1
-23.287040 -20.225518 -17.164033 35.298185 0.715154 2.078599 -0.040159 -0.005140 -63899.600000 0 0 1
-24.064640 -20.772218 -18.188833 36.625477 0.712099 2.090493 -0.029840 -0.008898 -328482.000000 0 0 1
-24.012040 -19.981618 -19.499033 36.824658 0.694039 2.128819 -0.018003 -0.013105 334445.000000 0 0 1
-22.751240 -19.787718 -20.147833 36.264416 0.715844 2.159858 -0.010121 -0.019335 415143.000000 0 0 1
-22.883740 -19.256618 -21.428133 36.791953 0.699537 2.192491 -0.009373 -0.025919 -459717.000000 0 0 1
-21.600340 -18.753918 -22.091233 36.142865 0.714979 2.228397 -0.012059 -0.008476 -29512.400000 0 0 1
-20.624140 -19.748718 -22.310133 36.236847 0.763718 2.234039 -0.000574 -0.017720 -220263.000000 0 0 1
-19.472340 -19.258518 -22.938133 35.724228 0.779878 2.268016 0.001995 -0.021880 -515245.000000 0 0 1
-18.274340 -20.182618 -23.018633 35.653149 0.834979 2.272640 0.031310 -0.019897 -966113.000000 0 0 1
-18.324140 -21.256318 -23.808133 36.802614 0.859345 2.274327 0.017600 -0.021186 247029.000000 0 0 1
-17.120840 -22.025718 -23.807933 36.675238 0.910044 2.277270 0.018672 -0.012900 117220.000000 0 0 1
-17.174640 -23.278418 -24.691333 38.033077 0.935154 2.277337 0.017784 -0.014894 -385720.000000 0 0 1
-17.096340 -23.053318 -26.074213 38.776345 0.932693 2.308278 0.022819 -0.019433 150349.000000 0 0 1
-17.203940 -24.295918 -26.716753 40.000651 0.954655 2.302191 0.019899 -0.020347 -77203.400000 0 0 1
-17.062540 -24.310518 -28.254513 40.993281 0.958824 2.331246 0.033959 -0.008895 -698482.000000 0 0 1
-15.784340 -23.915818 -28.604613 40.488710 0.987426 2.355314 0.015293 -0.008282 -761582.000000 0 0 1
-15.593540 -23.786618 -29.999683 41.339360 0.990523 2.382837 0.039930 -0.016291 -965555.000000 0 0 1
-14.183340 -23.534718 -30.510313 41.060069 1.028426 2.408436 0.007123 -0.014696 -357766.000000 0 0 1
-13.421440 -24.726918 -30.355113 41.388264 1.073508 2.394140 0.020919 -0.016939 674514.000000 0 0 1
-12.023840 -24.612418 -30.648923 41.105965 1.116369 2.412243 0.052337 -0.021295 712572.000000 0 0 1
-11.266840 -25.859218 -30.127423 41.271085 1.159898 2.389102 0.036029 -0.018208 -1379270.000000 0 0 1
-11.520040 -26.987818 -30.880093 42.598519 1.167351 2.381700 0.035825 -0.003812 169852.000000 0 0 1
-10.629240 -28.069318 -30.764573 42.980534 1.208805 2.368536 0.030851 0.001718 162127.000000 0 0 1
-9.247740 -27.936518 -31.464223 43.080936 1.251123 2.389633 0.035766 -0.005026 -127508.000000 0 0 1
-8.504640 -26.868718 -30.930973 41.844737 1.264248 2.402655 0.020060 -0.010450 518540.000000 0 0 1
-7.428240 -26.532618 -31.869193 42.128423 1.297819 2.428706 0.021191 -0.008395 382884.000000 0 0 1
-6.614140 -25.309018 -31.492323 40.939708 1.315178 2.448442 0.026346 -0.010082 -299488.000000 0 0 1
-7.249740 -24.007218 -31.479943 40.247883 1.277522 2.468908 0.037292 -0.017277 -43962.600000 0 0 1
-8.122140 -23.805318 -30.402893 39.458817 1.241991 2.450416 0.032446 -0.021248 -342498.000000 0 0 1
-8.697640 -22.349718 -30.260413 38.611545 1.199669 2.471419 0.031218 -0.024366 497936.000000 0 0 1
-9.598940 -21.987118 -31.351243 39.477506 1.159166 2.488412 0.033882 -0.028668 604155.000000 0 0 1
-9.994640 -20.646418 -31.226413 38.746049 1.119961 2.508033 0.031182 -0.023523 -19205.100000 0 0 1
-10.791640 -20.212318 -32.455243 39.728329 1.080387 2.526863 0.031045 -0.023302 -310009.000000 0 0 1
-11.349940 -18.980318 -32.341643 39.179784 1.031860 2.541826 0.036540 -0.020668 -406839.000000 0 0 1
-11.994940 -18.629018 -33.493353 40.158730 0.998732 2.557158 0.041614 -0.019938 -642972.000000 0 0 1
-12.807240 -17.302518 -33.415673 39.749336 0.933600 2.569297 0.049803 -0.015163 20355.700000 0 0 1
-12.181040 -15.989718 -33.508873 39.075483 0.919783 2.601269 0.063740 -0.016510 -52777.000000 0 0 1
-11.329540 -15.650718 -32.435313 37.753847 0.944210 2.604356 0.049294 -0.011886 -3167.170000 0 0 1
-11.032440 -14.161718 -32.455843 37.089766 0.908972 2.636360 0.050677 -0.016236 379955.000000 0 0 1
-10.107640 -13.690318 -33.472133 37.549606 0.934822 2.671246 0.044853 -0.017196 332851.000000 0 0 1
-10.696440 -13.629118 34.327698 38.452016 0.905379 0.467404 0.050951 -0.015408 32622.100000 0 0 1
-11.307840 -12.254018 33.859463 37.742436 0.825534 0.457591 0.045363 -0.013675 -207018.000000 0 0 1
-12.575440 -11.935618 34.319639 38.450465 0.759301 0.467789 0.040297 -0.007239 -522417.000000 0 0 1
-13.296940 -10.960718 33.536264 37.704469 0.689386 0.474655 0.028355 -0.013032 1405900.000000 0 0 1
-14.557540 -10.435718 34.292586 38.688598 0.621952 0.481342 0.038664 -0.009604 902152.000000 0 0 1
-13.995640 -9.459518 -33.913853 37.888123 0.594361 2.679463 0.045031 -0.006535 414829.000000 0 0 1
-14.925240 -9.022218 -32.956713 37.286836 0.543717 2.654869 0.035445 -0.012025 145146.000000 0 0 1
-14.210240 -8.065218 -31.969733 35.903238 0.516228 2.669111 0.033803 -0.020963 43171.100000 0 0 1
-13.812640 -6.834318 -32.556953 36.020163 0.459469 2.699489 0.025422 -0.025101 -103223.000000 0 0 1
-14.816540 -5.851518 -32.617223 36.299495 0.376129 2.687270 0.017608 -0.019867 -176789.000000 0 0 1
-15.122540 -5.096718 -31.263823 35.101202 0.325072 2.669628 0.023849 -0.023632 157152.000000 0 0 1
-15.824140 -5.831918 -30.233063 34.618677 0.353100 2.632766 0.026879 -0.022038 219112.000000 0 0 1
-16.106140 -5.175018 -28.992843 33.567447 0.310888 2.613399 0.037207 -0.020967 -432885.000000 0 0 1
-14.902240 -4.632218 -28.254123 32.277386 0.301372 2.636963 0.027439 -0.021653 -334996.000000 0 0 1
-14.426440 -3.430518 -28.861773 32.448306 0.233458 2.666979 0.025611 -0.019291 45090.000000 0 0 1
-13.124340 -3.047518 -28.453053 31.481929 0.228160 2.699340 0.021303 -0.018513 270210.000000 0 0 1
-12.663940 -1.729518 -29.092823 31.776705 0.135731 2.727643 -0.003053 -0.011681 -84545.400000 0 0 1
-12.612740 -1.934518 -30.526393 33.086013 0.152192 2.745660 0.001705 -0.011053 188460.000000 0 0 1
-12.467440 -0.758518 -31.220293 33.626167 0.060765 2.761021 0.002304 -0.011515 -181573.000000 0 0 1
-12.788840 -0.953518 -32.715613 35.139365 0.074421 2.768007 -0.002955 -0.008789 -111249.000000 0 0 1
-14.115740 -1.279518 -33.085153 35.993314 0.090398 2.736847 -0.002570 -0.020711 288368.000000 0 0 1
-14.152540 -1.481518 -34.457764 37.280381 0.104302 2.749959 -0.012465 -0.014199 1108920.000000 0 0 1
-15.616240 -1.683518 34.062049 37.508990 0.107391 0.432064 -0.010288 -0.019438 1148410.000000 0 0 1
-15.474140 -1.876518 32.690144 36.216237 0.120679 0.444937 -0.002465 -0.020802 249643.000000 0 0 1
-16.698240 -1.885518 31.992864 36.137650 0.112441 0.483646 -0.005502 -0.012423 -35501.200000 0 0 1
-16.381940 -1.984518 30.491634 34.670535 0.120553 0.496053 -0.004853 -0.005552 40509.300000 0 0 1
-15.915040 -0.748518 30.032194 33.996786 0.046998 0.487763 -0.007378 0.006953 -70168.800000 0 0 1
-16.090740 -0.660518 28.648764 32.864873 0.041027 0.512107 -0.009359 0.004299 -115037.000000 0 0 1
-15.580040 0.723482 28.120834 32.156529 -0.046403 0.506396 -0.004116 0.008504 -12561.000000 0 0 1
-16.289640 1.884482 28.560944 32.933739 -0.115174 0.521196 -0.006266 0.009771 718627.000000 0 0 1
-17.628040 2.034482 28.048124 33.190121 -0.114903 0.564092 -0.011541 0.006272 760364.000000 0 0 1
-17.736740 2.712482 26.645094 32.123364 -0.151754 0.592653 -0.001208 0.001492 -566506.000000 0 0 1
-17.434940 4.050482 26.709994 32.152874 -0.228271 0.590399 -0.007082 0.007367 -38579.000000 0 0 1
-17.882140 4.673482 25.565384 31.546810 -0.255631 0.625970 -0.008819 0.014173 -717427.000000 0 0 1
-17.795740 6.216482 25.678474 31.854623 -0.336073 0.633240 -0.018140 0.009221 -242656.000000 0 0 1
-16.530740 6.800482 25.538244 31.172324 -0.390281 0.610677 -0.023272 0.007947 -554584.000000 0 0 1
-15.981040 6.691482 24.271704 29.820885 -0.396534 0.619935 -0.009621 0.006205 -170308.000000 0 0 1
-14.866640 7.746482 23.979164 29.257909 -0.480357 0.610121 0.003710 0.007850 821802.000000 0 0 1
-13.759940 7.718482 24.907454 29.483761 -0.511203 0.564632 -0.004415 0.007100 738332.000000 0 0 1
-12.688640 8.341482 24.196444 28.566585 -0.581558 0.560444 0.012670 0.003242 327843.000000 0 0 1
-11.345340 8.533482 24.939054 28.696576 -0.644880 0.517497 0.023020 0.020330 -49645.900000 0 0 1
-10.361640 9.105482 24.093494 27.762742 -0.720960 0.519967 0.025502 0.005191 825475.000000 0 0 1
-9.115340 9.261482 24.817744 28.014012 -0.793350 0.482356 0.015818 -0.001299 779253.000000 0 0 1
-8.894740 10.565482 25.601314 29.089054 -0.871042 0.494721 0.009398 -0.014611 -792878.000000 0 0 1
-9.780740 10.612482 26.686724 30.339230 -0.826161 0.495752 -0.008475 -0.010144 73639.700000 0 0 1
-9.957940 11.905482 27.260044 31.368950 -0.874241 0.517591 -0.015240 -0.012068 196877.000000 0 0 1
-10.890940 12.938482 26.516904 31.450963 -0.871113 0.567739 -0.024262 -0.018224 1378370.000000 0 0 1
-12.298340 12.668482 26.351344 31.719598 -0.800222 0.590326 -0.014572 -0.021150 1024380.000000 0 0 1
-12.627240 12.057482 25.118474 30.590322 -0.762321 0.607417 -0.006603 -0.009703 -141883.000000 0 0 1
-14.117940 11.771482 24.846374 30.906736 -0.695011 0.636948 -0.014344 -0.011381 -516867.000000 0 0 1
-14.815640 12.942482 24.544104 31.455112 -0.718019 0.675667 0.010690 -0.014719 -368533.000000 0 0 1
-16.067240 12.750482 23.930964 31.518598 -0.670808 0.708614 0.016371 -0.006720 -111324.000000 0 0 1
-16.045240 12.177482 22.464464 30.172718 -0.649202 0.730967 0.014511 0.002291 -524417.000000 0 0 1
-15.718940 10.794482 22.350364 29.379324 -0.601756 0.706326 0.004802 0.007932 103307.000000 0 0 1
-15.807040 10.415482 20.992964 28.267460 -0.582616 0.733770 -0.000855 0.011850 -515289.000000 0 0 1
-16.202740 8.985482 20.683164 27.767984 -0.506342 0.730477 -0.004457 0.006523 -56404.900000 0 0 1
-17.575640 8.804482 20.924464 28.709845 -0.464406 0.754191 -0.009530 0.012530 -503568.000000 0 0 1
-17.861040 7.431482 20.891464 28.472740 -0.394284 0.746992 -0.016756 0.016527 -601802.000000 0 0 1
-19.329940 7.310482 21.258464 29.648137 -0.361569 0.771271 -0.007567 0.019069 -659107.000000 0 0 1
-19.569940 7.668482 22.617464 30.876169 -0.373461 0.748777 -0.016051 0.013427 -256421.000000 0 0 1
-20.924440 7.564482 22.971764 31.980549 -0.346895 0.769434 -0.016778 0.019199 -280908.000000 0 0 1
-21.174040 8.209482 24.350224 33.296681 -0.369871 0.750554 -0.002255 0.014326 -714359.000000 0 0 1
-21.128740 9.647482 24.396984 33.685462 -0.428333 0.760838 -0.002413 0.002238 888808.000000 0 0 1
-19.899240 10.352482 24.026664 32.869959 -0.479712 0.751067 -0.010825 0.004849 1789840.000000 0 0 1
-18.713640 10.042482 25.043014 32.836021 -0.492528 0.703367 -0.013930 -0.003851 70083.300000 0 0 1
-18.774440 10.727482 26.268344 34.023291 -0.519115 0.688705 -0.003749 -0.004243 61533.600000 0 0 1
-18.239240 9.901482 27.295474 34.289242 -0.497350 0.650079 -0.006337 -0.005144 -103746.000000 0 0 1
-30.357130 -14.457188 21.412664 39.863113 0.444457 1.003736 0.019166 -0.002269 -493797.000000 0 0 1
-29.469410 -15.524688 21.442864 39.613867 0.484862 0.998818 0.020176 0.004808 -217035.000000 0 0 1
-29.877500 -16.642688 20.683664 39.968213 0.508225 1.026866 0.011598 0.013457 -108885.000000 0 0 1
-29.615710 -16.563488 19.149764 38.963481 0.509940 1.057008 0.001267 0.014102 -205242.000000 0 0 1
-30.315860 -15.645188 18.373264 38.747904 0.476423 1.076770 0.008137 0.004591 -403438.000000 0 0 1
-29.662650 -15.517288 17.149264 37.613246 0.481976 1.097372 0.020059 0.004247 -1044770.000000 0 0 1
-30.101550 -14.297988 16.352664 37.120687 0.443442 1.114611 0.005239 0.006463 145006.000000 0 0 1
-31.373920 -14.377888 15.723764 37.924705 0.429714 1.143288 0.009720 0.010471 628283.000000 0 0 1
-32.556200 -14.326988 16.510664 39.214420 0.414565 1.136210 0.010346 0.010952 -333353.000000 0 0 1
-32.883760 -12.951488 17.207464 39.308772 0.375199 1.117700 0.002601 0.011870 93495.700000 0 0 1
-34.151454 -12.951788 17.900664 40.675599 0.362488 1.115105 -0.017517 0.013960 906155.000000 0 0 1
-34.469709 -11.708488 18.465664 40.819484 0.327447 1.101371 -0.008983 0.015507 267854.000000 0 0 1
34.723516 -11.781688 19.468364 41.515635 -0.327111 1.082705 -0.007931 0.018026 54952.000000 0 0 1
-35.151042 -12.319688 20.676564 42.601534 0.337101 1.064035 -0.021957 0.018547 248093.000000 0 0 1
34.322714 -11.964288 21.705264 42.335698 -0.335411 1.032477 -0.025472 0.017681 -946739.000000 0 0 1
34.882679 -12.442088 23.055364 43.625184 -0.342617 1.013978 -0.031847 0.017722 452028.000000 0 0 1
-34.264081 -11.833688 23.471264 43.185225 0.332542 0.996193 -0.027514 0.011569 516001.000000 0 0 1
-33.074230 -12.296588 22.867264 42.047860 0.355951 0.995791 -0.015107 0.005243 -510851.000000 0 0 1
-31.859370 -11.368088 23.023564 40.918668 0.342738 0.973189 -0.000217 -0.001275 -325315.000000 0 0 1
-31.994190 -10.212688 22.256464 40.289916 0.308981 0.985546 0.002338 0.002915 832121.000000 0 0 1
-30.874040 -9.294688 22.408764 39.265128 0.292422 0.963433 0.016610 0.003760 683180.000000 0 0 1
-31.010180 -7.918388 21.652464 38.641446 0.250006 0.975996 0.009074 -0.002939 -164913.000000 0 0 1
-31.019600 -7.981488 20.254564 37.896795 0.251842 1.006920 0.007882 0.004464 468026.000000 0 0 1
-32.281680 -8.290488 19.657964 38.694633 0.251384 1.037902 0.000212 0.005676 160619.000000 0 0 1
-32.317870 -8.227488 18.129664 37.958148 0.249285 1.072850 0.005597 0.006981 189169.000000 0 0 1
-33.650450 -8.286088 17.622864 38.879009 0.241437 1.100361 -0.004258 0.013280 423891.000000 0 0 1
-33.715600 -8.238388 16.200264 38.302236 0.239653 1.134088 -0.000485 0.010189 772511.000000 0 0 1
35.163046 -8.208788 15.675864 39.364409 -0.229342 1.161216 -0.019160 0.013932 784256.000000 0 0 1
34.468727 -9.419488 15.891164 39.106892 -0.266763 1.152338 -0.027065 0.025300 64600.000000 0 0 1
33.088737 -9.095888 15.972664 37.851363 -0.268267 1.135164 -0.019352 0.016302 172740.000000 0 0 1
32.094267 -10.229588 15.776064 37.196379 -0.308556 1.132796 -0.018079 0.018753 -439729.000000 0 0 1
32.144747 -11.145188 16.835164 37.959488 -0.333749 1.111293 -0.015689 0.021693 -19931.900000 0 0 1
31.061307 -12.045188 16.849164 37.333439 -0.369934 1.102557 -0.012113 0.017004 -246561.000000 0 0 1
30.537697 -12.485288 18.182864 37.670279 -0.388111 1.067079 -0.009746 0.007023 -197359.000000 0 0 1
31.312627 -13.469188 18.852264 38.952631 -0.406226 1.065600 -0.007916 0.014353 -29774.400000 0 0 1
31.278127 -13.417988 20.236564 39.596492 -0.405245 1.034368 -0.015521 0.011483 -298354.000000 0 0 1
31.976347 -14.687988 20.809664 40.881119 -0.430593 1.036740 -0.022642 0.023305 18200.400000 0 0 1
32.101387 -14.692988 22.213464 41.711161 -0.429243 1.009181 -0.028349 0.019071 -64924.700000 0 0 1
32.354747 -16.054888 22.669864 42.644013 -0.460614 1.010299 -0.026833 0.040747 115773.000000 0 0 1
32.605107 -16.116688 24.196074 43.683986 -0.459077 0.983768 -0.018843 0.026237 -437828.000000 0 0 1
33.838137 -15.626188 24.594484 44.655189 -0.432617 0.987517 -0.014340 0.025725 -664607.000000 0 0 1
34.012357 -15.392588 25.967984 45.476460 -0.424980 0.963048 -0.014058 0.020666 -652645.000000 0 0 1
35.115855 -14.391688 26.229254 46.132610 -0.388956 0.966039 -0.008268 0.009154 -595450.000000 0 0 1
-33.943090 -14.916988 26.057994 45.317424 0.414063 0.958179 -0.022763 0.010263 -642374.000000 0 0 1
-33.038320 -13.955488 26.434714 44.554240 0.399669 0.935625 -0.027857 -0.003003 599270.000000 0 0 1
-31.554800 -14.530588 26.359414 43.608051 0.431541 0.921706 0.004390 -0.005784 745940.000000 0 0 1
-31.256810 -14.948588 25.050354 42.754750 0.446097 0.944796 0.001594 -0.002215 366335.000000 0 0 1
-29.882730 -15.320388 24.924584 41.820171 0.473743 0.932293 0.031659 -0.014070 387768.000000 0 0 1
-29.435520 -16.722388 25.449764 42.353023 0.516635 0.926175 0.037457 -0.015929 -651328.000000 0 0 1
-29.579740 -16.944488 26.814474 43.371565 0.520210 0.904282 0.038674 -0.017614 25977.700000 0 0 1
-29.321430 -18.305888 27.104044 43.925858 0.558109 0.905820 0.048745 -0.021531 -313712.000000 0 0 1
-28.920950 -18.430788 28.591704 44.649757 0.567382 0.875836 0.045108 -0.025913 -392270.000000 0 0 1
-27.681350 -17.769488 28.684394 43.644086 0.570681 0.853653 0.043448 -0.023255 -100529.000000 0 0 1
-27.042390 -18.023788 29.932874 44.182855 0.587888 0.826469 0.051985 -0.026909 352217.000000 0 0 1
-25.818350 -17.111388 30.211104 43.267743 0.585294 0.797866 0.041020 -0.023205 314510.000000 0 0 1
-26.137650 -15.822088 30.722414 43.328766 0.544335 0.782641 0.047146 -0.033051 47980.300000 0 0 1
-24.945440 -15.080888 30.630354 42.283883 0.543762 0.760636 0.032233 -0.028747 -443017.000000 0 0 1
-25.035040 -13.707388 31.360654 42.404437 0.500943 0.738379 0.026667 -0.015554 -149775.000000 0 0 1
-24.865440 -13.901488 32.752694 43.408299 0.509779 0.715865 0.017399 -0.011127 229415.000000 0 0 1
-24.560840 -12.609488 33.330347 43.279857 0.474309 0.691779 0.010908 0.002083 -666899.000000 0 0 1
-23.814040 -12.567888 -34.399604 43.685158 0.485601 2.477447 0.004178 0.005634 475657.000000 0 0 1
-22.402540 -12.755488 -34.370602 42.964108 0.517598 2.498065 -0.017311 0.005294 567196.000000 0 0 1
-21.968540 -14.099388 -34.376958 43.164623 0.570588 2.492140 -0.012429 0.003040 -260335.000000 0 0 1
-21.841140 -14.818888 -32.970283 42.233569 0.596140 2.466526 -0.012075 0.000453 -981982.000000 0 0 1
-20.755440 -14.461388 -32.154953 40.912847 0.608543 2.475008 -0.022098 0.007646 -260116.000000 0 0 1
-20.598540 -15.426088 -31.159893 40.412906 0.642792 2.451266 -0.001426 0.000771 77166.600000 0 0 1
-19.297840 -15.440688 -30.320723 39.117358 0.674817 2.457704 0.017333 0.002554 16973.500000 0 0 1
-19.136440 -14.354088 -29.382843 37.889242 0.643560 2.458292 0.003433 0.003856 569312.000000 0 0 1
-20.051640 -14.338288 -28.251353 37.493915 0.620767 2.424153 0.010218 0.004950 461087.000000 0 0 1
-19.830440 -13.118888 -27.313623 36.213058 0.584454 2.425304 0.008370 0.004303 812256.000000 0 0 1
-18.563740 -13.162888 -26.618193 35.020026 0.616784 2.434240 0.019019 -0.005629 782613.000000 0 0 1
-18.206340 -11.969288 -25.993403 33.917424 0.581577 2.443972 0.016517 -0.005616 197444.000000 0 0 1
-16.896240 -12.064688 -25.176613 32.632828 0.620091 2.452010 0.027297 -0.015010 -437497.000000 0 0 1
-16.963140 -12.888288 -23.985733 32.080702 0.649732 2.415341 0.027835 -0.009713 184617.000000 0 0 1
-15.723340 -13.025188 -23.313833 30.990543 0.691819 2.422325 0.028382 -0.013716 669904.000000 0 0 1
-14.555840 -13.856688 -23.953533 31.267427 0.760796 2.443525 0.012673 -0.011220 -100633.000000 0 0 1
-13.842940 -13.096288 -24.897333 31.353101 0.757689 2.488313 0.022710 -0.013221 -198494.000000 0 0 1
-13.094340 -13.900588 -25.797123 32.096411 0.815256 2.504349 0.025022 -0.014673 -162026.000000 0 0 1
-12.148240 -13.085188 -26.693123 32.114244 0.822512 2.552046 0.028664 -0.002911 -584185.000000 0 0 1
-12.774040 -12.005988 -27.341663 32.479014 0.754413 2.571453 0.049899 -0.003039 -416982.000000 0 0 1
-11.963340 -11.151788 -28.111673 32.523069 0.750303 2.614675 0.050720 -0.007079 -484839.000000 0 0 1
-11.853940 -11.558188 -29.608683 33.923173 0.772766 2.631739 0.039211 -0.007336 -110159.000000 0 0 1
-11.226640 -10.499188 -30.238603 33.921136 0.751927 2.671306 0.052479 -0.012016 -93814.400000 0 0 1
-11.129740 -10.592388 -31.613533 35.149470 0.760666 2.689198 0.056038 -0.010013 -134988.000000 0 0 1
-10.637540 -9.353688 -32.390703 35.352600 0.721265 2.729335 0.040072 0.001603 1046380.000000 0 0 1
-9.223240 -9.112288 -32.236263 34.745915 0.779347 2.759191 0.009584 0.003719 851899.000000 0 0 1
-8.866640 -7.802388 -32.704573 34.771880 0.721639 2.795032 0.003295 0.007984 449519.000000 0 0 1
-7.363840 -7.439988 -32.505403 34.149389 0.790542 2.830041 0.017021 0.010726 414110.000000 0 0 1
-6.814640 -7.344288 -31.192513 32.762032 0.822788 2.830806 0.001635 0.010571 13526.900000 0 0 1
-7.145940 -6.199088 -30.425673 31.862434 0.714565 2.840144 -0.005988 0.017008 -589635.000000 0 0 1
-6.487440 -4.889688 -30.862193 31.913490 0.645875 2.884204 -0.006358 0.015637 -911584.000000 0 0 1
-5.124340 -4.889088 -30.615263 31.423818 0.761909 2.914253 0.013015 0.011222 -934430.000000 0 0 1
-4.557640 -3.668788 -30.980623 31.528258 0.677767 2.954937 0.007583 0.000916 -729962.000000 0 0 1
-3.092340 -3.566488 -30.603803 30.965709 0.856484 2.988556 -0.013347 0.005036 -1022590.000000 0 0 1
-2.226340 -4.456588 -31.299633 31.693608 1.107500 2.983754 -0.013143 0.002046 674234.000000 0 0 1
-0.826340 -4.200388 -31.294233 31.585679 1.376547 3.005641 -0.003460 -0.002538 806177.000000 0 0 1
-0.251040 -2.785088 -31.641663 31.764990 1.480902 3.053445 -0.004592 0.002379 -1422540.000000 0 0 1
0.243260 -2.118088 -30.593373 30.667571 -1.456448 3.072016 -0.002491 -0.004581 -106329.000000 0 0 1
0.725560 -0.836388 -30.906283 30.926110 -0.856234 3.105782 -0.002743 0.009813 -143599.000000 0 0 1
0.912760 0.087912 -29.712933 29.727079 0.096019 3.110741 0.001675 -0.001518 -995856.000000 0 0 1
-0.236340 0.551312 -29.126113 29.132289 -1.165807 3.121001 -0.000817 0.001619 -1144290.000000 0 0 1
0.005660 1.750812 -28.448563 28.502388 1.567564 3.080127 0.016550 -0.004981 167034.000000 0 0 1
-1.265440 2.580112 -28.145993 28.292317 -1.114810 3.039844 0.017522 0.003690 -113781.000000 0 0 1
-1.862140 3.180312 -29.237343 29.468698 -1.041091 3.016204 0.005279 0.005939 -58671.200000 0 0 1
-2.899740 4.076812 -28.841113 29.271807 -0.952542 2.969838 0.042384 -0.003218 855224.000000 0 0 1
-3.987740 4.223612 -29.985243 30.542687 -0.814115 2.950244 0.045202 -0.005246 490792.000000 0 0 1
-3.507040 4.971812 -31.071533 31.661623 -0.956466 2.948225 0.037652 -0.004657 462352.000000 0 0 1
-4.577440 5.135912 -31.991193 32.722576 -0.842830 2.929768 0.048379 0.001629 -3790.150000 0 0 1
-4.130940 5.883712 -33.261933 34.029971 -0.958664 2.928732 0.043248 0.005530 42674.800000 0 0 1
-3.794640 5.144012 -34.434307 35.022588 -0.935226 2.958047 0.051084 0.004612 278853.000000 0 0 1
-2.571140 4.434312 -34.303845 34.684689 -1.045341 2.993266 0.037408 0.009276 -323745.000000 0 0 1
-2.111340 3.715712 33.551521 33.822608 -1.054073 0.126694 0.022715 0.002328 -404631.000000 0 0 1
-2.989140 2.705612 33.073298 33.318138 -0.735652 0.121306 0.016614 0.001307 -180909.000000 0 0 1
-2.632840 1.986412 31.905384 32.075399 -0.646359 0.103006 0.021297 -0.007194 -344686.000000 0 0 1
-2.481940 2.828912 30.594284 30.824876 -0.850638 0.122393 0.028437 -0.012788 30528.900000 0 0 1
-3.646340 3.582312 30.327344 30.755106 -0.776541 0.166979 0.014240 -0.009589 49486.500000 0 0 1
-3.366940 4.477012 29.293784 29.824582 -0.925984 0.188946 0.020575 -0.016687 650368.000000 0 0 1
-4.514340 5.540012 29.055884 29.921821 -0.887059 0.241167 0.015119 -0.011326 636973.000000 0 0 1
-4.591640 6.136512 27.801014 28.838105 -0.928417 0.268999 0.019583 -0.005433 628924.000000 0 0 1
-5.933940 6.592612 27.532354 28.925848 -0.837932 0.311662 0.016349 -0.003098 488823.000000 0 0 1
-6.049540 7.311112 26.164504 27.832186 -0.879543 0.347929 0.015767 -0.004777 710756.000000 0 0 1
-5.048240 8.397712 26.105284 27.883546 -1.029536 0.359066 0.017724 -0.003423 983386.000000 0 0 1
-5.080040 9.158412 24.916324 27.027884 -1.064363 0.397905 0.018222 -0.004691 48732.900000 0 0 1
-4.329140 10.510412 25.071974 27.528423 -1.180082 0.425659 0.012118 -0.011661 -439164.000000 0 0 1
-4.523040 11.312812 23.911464 26.836462 -1.190449 0.471239 0.017581 -0.011443 194430.000000 0 0 1
-4.060440 12.640512 24.081634 27.498997 -1.259983 0.503855 0.002217 0.000520 636687.000000 0 0 1
-2.490940 12.884312 24.146814 27.482338 -1.379821 0.497810 0.000014 -0.001180 819303.000000 0 0 1
-1.749040 12.324012 25.263034 28.163119 -1.429817 0.457804 0.010700 -0.002581 175538.000000 0 0 1
-2.030240 13.006612 26.493174 29.583477 -1.415953 0.461154 0.018587 -0.003936 -886646.000000 0 0 1
-1.239340 12.540112 27.706624 30.437598 -1.472286 0.426845 0.027272 -0.002500 -203012.000000 0 0 1
0.113260 12.892412 27.580844 30.445526 1.562012 0.437277 0.024050 0.001345 -676563.000000 0 0 1
0.860560 12.438812 28.668914 31.262937 1.501723 0.410239 0.025702 -0.010635 803406.000000 0 0 1
2.396460 12.783412 28.575524 31.396166 1.385481 0.427127 0.023155 -0.010732 965362.000000 0 0 1
2.698960 14.135012 28.820984 32.213849 1.382126 0.463089 0.022558 -0.010082 -115270.000000 0 0 1
4.098760 14.273312 28.768494 32.375199 1.291158 0.476520 0.010777 -0.009844 -399244.000000 0 0 1
4.571660 15.744412 28.838084 33.172604 1.288200 0.516942 0.006971 -0.007661 -362005.000000 0 0 1
4.559960 16.459312 30.105304 34.612592 1.300530 0.516042 0.013066 -0.000478 262405.000000 0 0 1
3.326060 17.038612 30.496394 35.091409 1.378013 0.517506 -0.001210 0.002755 20061.100000 0 0 1
3.030360 18.489912 29.896724 35.282772 1.408348 0.559828 0.013023 0.007369 120696.000000 0 0 1
3.847360 19.536612 30.433904 36.368996 1.376354 0.579368 0.016619 0.008698 455639.000000 0 0 1
4.857860 19.962612 29.519744 35.965539 1.332088 0.608024 0.008260 0.011981 584218.000000 0 0 1
6.004860 20.785412 30.173084 37.128247 1.289556 0.622074 0.011938 0.008696 208223.000000 0 0 1
5.525260 22.032212 30.589494 38.100709 1.325083 0.638721 0.004866 0.005187 262695.000000 0 0 1
6.458860 22.658212 31.463804 39.307536 1.293105 0.642747 -0.010440 -0.005215 -24323.100000 0 0 1
6.635460 24.140212 31.076414 39.906424 1.302549 0.678154 -0.016023 0.006074 -307493.000000 0 0 1
7.258160 24.222612 29.811834 39.091703 1.279666 0.703454 -0.032316 0.011152 36347.100000 0 0 1
7.475060 25.540712 29.387934 39.646629 1.286076 0.735870 -0.035327 0.014551 -42825.300000 0 0 1
7.923660 25.695012 27.910354 38.755721 1.271675 0.766762 -0.030958 0.016648 -128245.000000 0 0 1
7.019060 25.204712 26.943344 37.556471 1.299196 0.770721 -0.026886 0.015442 109262.000000 0 0 1
7.579060 25.166212 25.637944 36.716271 1.278276 0.797816 -0.008722 0.009459 -259957.000000 0 0 1
28.365687 2.277512 7.017867 29.309550 0.080119 1.329008 0.017388 0.014873 20546.700000 0 0 1
28.638517 3.115712 8.153667 29.939182 0.108368 1.294971 0.009572 0.009278 -223709.000000 0 0 1
27.636857 3.138212 9.124567 29.272888 0.113067 1.253807 0.005932 0.014034 -519280.000000 0 0 1
27.897147 4.172612 10.286567 30.024573 0.148471 1.221108 -0.003522 0.012838 33157.600000 0 0 1
27.703877 5.536512 9.971767 29.959872 0.197248 1.231485 -0.001300 0.005172 -160410.000000 0 0 1
28.738557 6.116012 9.212567 30.792559 0.209687 1.266961 0.013317 -0.006701 -215358.000000 0 0 1
28.644967 7.579812 9.010267 30.970512 0.258683 1.275597 0.026874 -0.011082 128591.000000 0 0 1
27.543307 7.888712 8.156467 29.789151 0.278944 1.293448 0.036471 -0.001756 218332.000000 0 0 1
27.759517 9.084212 7.422867 30.136567 0.316263 1.321928 0.050120 -0.017305 -178484.000000 0 0 1
26.839127 9.235912 6.196367 29.052294 0.331428 1.355862 0.054633 -0.014496 -280941.000000 0 0 1
25.615607 9.827012 6.537667 28.204088 0.366318 1.336870 0.055146 -0.006599 -799829.000000 0 0 1
24.824987 9.876912 5.395267 27.256968 0.378662 1.371540 0.071723 -0.010725 948806.000000 0 0 1
23.372887 10.454712 5.720767 26.235854 0.420607 1.350979 0.033682 -0.007280 1154350.000000 0 0 1
23.349487 11.811312 6.000867 26.846155 0.468316 1.345364 0.031133 -0.005969 31588.900000 0 0 1
22.130887 12.168412 6.614267 26.107374 0.502719 1.314656 0.039604 0.009950 -27743.300000 0 0 1
22.133687 13.655412 6.850167 26.894148 0.552791 1.313250 0.024401 0.024603 -205839.000000 0 0 1
22.112587 14.397912 5.692667 26.993941 0.577161 1.358314 0.022731 0.021638 285889.000000 0 0 1
21.966287 15.766012 6.013267 27.699175 0.622531 1.351962 0.035540 0.006808 -167072.000000 0 0 1
21.600487 16.637712 4.811567 27.686562 0.656334 1.396122 0.037285 -0.007920 279818.000000 0 0 1
20.282287 16.522612 4.275367 26.507483 0.683600 1.408800 0.051234 -0.009724 610072.000000 0 0 1
20.145687 17.454912 3.225967 26.850131 0.713958 1.450358 0.046556 -0.013972 451074.000000 0 0 1
18.689587 17.821612 2.778667 25.973670 0.761630 1.463611 0.053133 -0.005900 157406.000000 0 0 1
17.936887 18.485012 3.752567 26.029010 0.800446 1.426124 0.051255 -0.016574 -239265.000000 0 0 1
16.573587 18.279512 3.509367 24.922681 0.834305 1.429517 0.046472 -0.020953 -604094.000000 0 1 0
15.657787 19.184612 4.339767 25.140589 0.886277 1.397307 0.052299 -0.028813 -627220.000000 0 0 1
14.297887 18.934212 4.166067 24.089211 0.924017 1.396979 0.049829 -0.028111 -436641.000000 0 1 0
13.509287 20.100112 4.343767 24.604546 0.979042 1.393323 0.038185 -0.025541 286979.000000 0 1 0
12.014687 19.800712 4.064567 23.514711 1.025406 1.397072 0.031950 -0.017709 416006.000000 0 1 0
11.327887 19.215312 5.177767 22.898876 1.038115 1.342709 0.013986 -0.027927 -522169.000000 0 1 0
9.979087 19.013112 4.902867 22.025411 1.087465 1.346315 0.025310 -0.020659 -397911.000000 0 1 0
9.158587 18.543412 6.121767 21.568818 1.112041 1.283016 0.015953 -0.016122 -880904.000000 0 1 0
9.102587 19.588612 7.090067 22.734113 1.135795 1.253637 0.021020 -0.018708 -120424.000000 0 1 0
8.589187 19.112712 8.290367 22.534420 1.148444 1.194049 0.021842 -0.006861 -691944.000000 0 1 0
7.414987 19.922612 8.838467 23.021968 1.214492 1.176764 0.021090 -0.013487 -370224.000000 0 1 0
6.225487 20.078012 8.132467 22.539305 1.270131 1.201657 0.025162 -0.017757 -338508.000000 0 1 0
6.264787 21.163012 7.199767 23.215454 1.282990 1.255468 0.026362 -0.017315 299346.000000 0 1 0
4.887187 21.328612 6.427667 22.805903 1.345547 1.285083 0.020119 -0.008856 2817860.000000 0 1 0
3.653187 21.697412 7.176967 23.143732 1.403991 1.255494 0.007660 -0.008008 1681930.000000 0 1 0
3.712087 22.831712 8.036367 24.487749 1.409622 1.236421 0.017126 -0.013728 -756181.000000 0 1 0
3.691287 24.219412 7.344667 25.576350 1.419550 1.279529 0.024542 -0.016684 9635.730000 0 0 1
2.638587 24.373412 6.404067 25.338458 1.462960 1.315284 0.030452 -0.018409 217752.000000 0 0 1
2.882987 25.512912 5.576367 26.273869 1.458273 1.356930 0.028872 -0.014514 -625728.000000 0 0 1
1.717587 25.758112 4.650267 26.230811 1.504213 1.392572 0.027818 -0.012187 -517446.000000 0 0 1
0.528787 26.037012 5.365967 26.589457 1.550490 1.367593 0.036072 -0.017258 388389.000000 0 0 1
-0.567513 26.162012 4.439667 26.542110 -1.549107 1.402738 0.028861 -0.013002 750090.000000 0 0 1
-1.848913 26.764612 5.081567 27.305407 -1.501825 1.383604 0.027893 -0.018371 292011.000000 0 0 1
-2.767913 27.275212 4.139567 27.726063 -1.469662 1.420934 0.040995 -0.011859 -559965.000000 0 0 1
-3.862713 27.863412 4.757867 28.529416 -1.433044 1.403243 0.028909 -0.016298 -447937.000000 0 0 1
-4.791413 28.476212 3.656667 29.107104 -1.404098 1.444836 0.029249 -0.016605 -6716.390000 0 0 1
-4.311113 29.675912 3.107067 30.147957 -1.426532 1.467552 0.038595 -0.015049 255388.000000 0 0 1
-5.178313 30.109312 2.074367 30.621702 -1.400479 1.503003 0.039539 -0.016221 -93149.900000 0 0 1
-4.501213 31.060812 1.029167 31.402136 -1.426882 1.538017 0.030363 -0.009896 64054.700000 0 0 1
-4.197613 32.446912 1.282967 32.742451 -1.442142 1.531603 0.024951 -0.001138 370363.000000 0 0 1
-3.189213 32.576112 2.276867 32.810948 -1.473207 1.501347 0.026184 -0.010785 -75679.300000 0 0 1
-2.210713 33.771812 2.043167 33.905709 -1.505429 1.510500 0.027603 -0.011209 -196629.000000 0 0 1
-1.262913 33.607612 0.994567 33.646036 -1.533236 1.541232 0.012332 -0.003770 683488.000000 0 0 1
-0.307813 -34.442918 0.857567 34.454968 1.561860 1.545904 0.004971 -0.008757 644873.000000 0 0 1
0.885487 -34.437018 1.853967 34.498254 -1.545089 1.517030 0.001134 -0.007631 -545981.000000 0 0 1
0.546487 -34.174718 3.198467 34.328417 -1.554807 1.477488 0.011593 -0.003579 741609.000000 0 0 1
1.576387 34.391312 4.053967 34.665285 1.524992 1.453582 0.010819 -0.005343 630335.000000 0 0 1
1.203787 -34.348418 5.494867 34.805984 -1.535764 1.412262 0.014209 -0.009932 571233.000000 0 0 1
0.100587 33.992612 6.003767 34.518879 1.567837 1.395980 0.015694 -0.014764 467325.000000 0 0 1
-0.179213 34.266312 7.423067 35.061577 -1.565566 1.357467 0.027194 -0.019068 407426.000000 0 0 1
0.932787 33.835912 8.434967 34.883918 1.543235 1.326575 0.023598 -0.012474 172725.000000 0 0 1
1.110187 32.414612 8.471767 33.521791 1.536560 1.315302 0.026090 -0.022834 443464.000000 0 0 1
2.152287 31.941512 9.352367 33.352051 1.503516 1.286571 0.032297 -0.012117 352228.000000 0 0 1
2.607487 30.470012 9.171967 31.927192 1.485429 1.279413 0.026416 -0.013725 -660593.000000 0 0 1
1.745087 29.471912 9.593267 31.043030 1.511654 1.256622 0.026732 -0.026342 -271559.000000 0 0 1
2.344487 28.158512 9.490467 29.807170 1.487728 1.246760 0.023179 -0.017764 86432.600000 0 0 1
2.288287 27.458512 10.826067 29.604221 1.487652 1.196419 0.014320 -0.030361 -187147.000000 0 0 1
2.996487 28.118212 11.890467 30.675658 1.464630 1.172749 0.010740 -0.014546 141041.000000 0 0 1
2.947387 27.471712 13.153767 30.600713 1.463917 1.126468 0.011879 -0.015523 -434079.000000 0 0 1
1.567187 27.265412 13.824167 30.609907 1.513381 1.102212 0.012333 -0.012478 79064.500000 0 0 1
0.954087 28.350212 14.517467 31.865368 1.537155 1.097764 0.013300 -0.015182 225781.000000 0 0 1
0.278787 29.193612 13.604967 32.209313 1.561247 1.134713 0.013637 -0.020594 -614052.000000 0 0 1
-0.576513 30.300712 14.201367 33.468558 -1.551772 1.132586 0.001952 -0.013503 475549.000000 0 0 1
-1.802113 30.024012 14.891267 33.562461 -1.510846 1.111086 -0.011666 -0.001483 854490.000000 0 0 1
-2.478313 31.195112 15.343767 34.852665 -1.491517 1.114923 -0.012415 0.002804 -434044.000000 0 0 1
-3.769213 30.926212 16.121467 35.079043 -1.449517 1.093279 -0.014955 0.015229 -331828.000000 0 0 1
-4.675013 30.298012 15.203067 34.219272 -1.417703 1.110422 -0.011392 0.008295 -285356.000000 0 0 1
-5.794013 29.918112 15.951867 34.396600 -1.379502 1.088559 -0.009502 0.021201 -1003050.000000 0 0 1
-6.792413 29.150812 15.082567 33.517019 -1.341872 1.104034 0.000593 0.010834 -121203.000000 0 0 1
-7.994313 28.939412 15.812667 33.932861 -1.301275 1.086033 -0.004879 0.019713 319751.000000 0 0 1
-8.988413 28.237112 15.045567 33.233946 -1.262619 1.100986 -0.005937 0.015673 326141.000000 0 0 1
-10.171613 27.757512 15.896567 33.565489 -1.219547 1.077424 -0.009967 0.018099 -633817.000000 0 0 1
-10.961713 28.829412 16.498967 34.978709 -1.207451 1.079594 -0.011274 0.011643 678265.000000 0 0 1
-10.341313 29.433012 17.615167 35.826514 -1.232919 1.056779 -0.007128 0.011276 -653361.000000 0 0 1
-11.129613 30.689812 18.045367 37.301047 -1.222898 1.065832 -0.005259 0.009119 230027.000000 0 0 1
-12.273813 30.366412 18.834867 37.782505 -1.186683 1.048920 -0.009337 0.014049 537718.000000 0 0 1
-12.946213 31.542412 19.241267 39.150409 -1.181324 1.057019 0.006153 0.003511 -152185.000000 0 0 1
-14.074913 31.307212 20.241767 39.849390 -1.148297 1.037985 0.006635 0.004744 -36944.900000 0 0 1
-13.644513 31.277412 21.613267 40.392853 -1.159442 1.006198 0.010415 0.004932 110821.000000 0 0 1
-14.679213 30.795012 22.445967 40.836669 -1.125982 0.988848 0.002015 0.004787 -125996.000000 0 0 1
-14.259113 30.724212 23.940467 41.478253 -1.136279 0.955524 0.003361 0.006779 -258195.000000 0 0 1
-13.240113 29.760212 24.206567 40.582370 -1.152197 0.931688 0.002417 0.004066 504875.000000 0 0 1
-13.037513 29.464912 25.579067 41.139354 -1.154217 0.899800 0.013634 0.008953 3563.360000 0 0 1
-12.491313 30.669212 26.464167 42.390867 -1.184020 0.896575 0.016554 0.007758 116018.000000 0 0 1
-13.526813 31.635212 26.738167 43.573971 -1.166736 0.910150 0.017976 0.006115 499072.000000 0 0 1
-13.015813 32.762812 27.346867 44.616862 -1.192642 0.911037 0.022235 0.005384 246853.000000 0 0 1
-14.160613 33.736212 27.849367 45.980890 -1.173385 0.920185 0.035551 0.003102 1035270.000000 0 0 1
-14.896013 33.274912 29.018767 46.596135 -1.149886 0.898516 0.000149 0.004387 408028.000000 0 0 1
-14.093613 33.287912 30.188867 47.096526 -1.170294 0.874996 0.028375 0.014966 -275350.000000 0 0 1
-14.698013 32.705312 31.450067 47.694609 -1.148435 0.850769 0.014355 0.013088 -224334.000000 0 0 1
-15.829313 33.419612 31.897267 48.835164 -1.128447 0.859044 0.008512 0.014742 -315840.000000 0 0 1
-16.389213 32.747612 32.998567 49.294197 -1.106772 0.837367 -0.001139 0.017370 90092.500000 0 0 1
-17.878313 32.954112 33.330467 50.165004 -1.073713 0.844083 -0.006886 0.012644 -31651.100000 0 0 1
-18.194013 34.283012 33.710967 51.407940 -1.082891 0.855615 0.007781 0.008741 38911.100000 0 0 1
-19.562013 34.444212 34.059167 52.240817 -1.054289 0.860624 -0.017255 0.000761 -227311.000000 0 0 1
-19.985513 -33.176818 34.149667 51.636438 1.028618 0.848182 -0.008277 0.002294 -374819.000000 0 0 1
-19.536213 -32.426718 -33.847529 50.781994 1.028561 2.300336 0.000697 0.006295 100851.000000 0 0 1
-20.158313 -32.776218 -32.583929 50.421727 1.019400 2.273428 -0.008163 0.009662 10088.700000 0 0 1
-19.562413 -31.900118 -31.470429 48.894718 1.020699 2.270037 0.004455 0.006042 -36280.300000 0 0 1
-19.828213 -30.516118 -31.669729 48.242754 0.994588 2.286921 0.012349 0.002262 11386.700000 0 0 1
-19.139413 -29.787918 -30.688729 46.855473 0.999696 2.284934 0.023647 -0.000235 -226491.000000 0 0 1
-19.392313 -28.252718 -30.662429 45.983285 0.969265 2.300726 0.033850 -0.007071 -72264.700000 0 0 1
-20.631813 -28.008718 -30.024229 45.952305 0.935913 2.282834 0.031228 -0.005932 -18808.800000 0 0 1
-20.885713 -26.621118 -30.155329 45.323734 0.905545 2.298735 0.028580 -0.008913 767690.000000 0 0 1
-22.203113 -26.239718 -29.367629 45.210162 0.868533 2.277829 0.036259 -0.010202 690359.000000 0 0 1
-22.139713 -26.334518 -27.926729 44.312255 0.871720 2.252640 0.035941 -0.008571 94620.500000 0 0 1
-21.436013 -25.283518 -27.293529 42.938278 0.867566 2.259641 0.038853 -0.025020 -42071.100000 0 0 1
-21.328813 -25.433718 -25.772329 42.023865 0.872956 2.231001 0.045059 -0.018652 1309640.000000 0 0 1
-22.626313 -25.247818 -25.131429 42.201790 0.840102 2.208692 0.032840 -0.022802 1225600.000000 0 0 1
-22.598713 -25.761218 -23.827529 41.738392 0.850700 2.178371 0.034410 -0.013009 -64697.100000 0 0 1
-23.957313 -25.872518 -23.086729 42.146615 0.823814 2.150495 0.019126 -0.009620 966374.000000 0 0 1
-25.031613 -26.709818 -23.543329 43.523378 0.817821 2.142345 0.008823 0.001448 319236.000000 0 0 1
-24.750313 -28.126218 -23.508229 44.230069 0.849157 2.131165 0.018342 0.002547 -1512250.000000 0 0 1
-25.907213 -29.112518 -23.599929 45.559621 0.843590 2.115309 0.006223 0.009934 80656.700000 0 0 1
-26.916013 -28.986118 -22.608429 45.561035 0.822412 2.090039 -0.002566 0.015827 361552.000000 0 0 1
-27.940213 -28.027218 -22.910329 45.728150 0.786953 2.095563 -0.008446 0.014446 253148.000000 0 0 1
-28.571913 -27.374618 -21.581629 45.072061 0.764001 2.070112 -0.014562 0.012080 216933.000000 0 0 1
-29.391913 -28.234518 -20.823829 45.767941 0.765316 2.043154 -0.031836 0.026639 219639.000000 0 0 1
-29.817113 -27.571518 -19.632729 45.107570 0.746289 2.021104 -0.032494 0.019215 -259755.000000 0 0 1
-30.654713 -28.410318 -18.599429 45.747092 0.747418 1.989494 -0.037671 0.021859 1059990.000000 0 0 1
-32.053413 -28.615318 -18.905629 46.943376 0.728789 1.985297 -0.044751 0.021417 1481170.000000 0 0 1
-32.984713 -27.533318 -18.781929 46.891745 0.695562 1.982900 -0.033818 0.022227 45946.700000 0 0 1
-33.252713 -27.135618 -17.279029 46.267154 0.684447 1.953535 -0.015127 0.018067 -555106.000000 0 0 1
-32.210613 -26.361118 -16.692829 44.845097 0.685859 1.952210 -0.022500 0.022409 262984.000000 0 0 1
-32.512413 -25.716318 -15.464229 44.243965 0.669210 1.927857 -0.013563 0.015982 -245940.000000 0 0 1
-32.276813 -26.565918 -14.160629 44.136879 0.688648 1.897407 -0.001902 0.018598 -183830.000000 0 0 1
-33.179013 -27.639118 -13.930729 45.374365 0.694559 1.882854 0.006253 0.024019 269606.000000 0 0 1
-32.796813 -28.412318 -12.785229 45.236632 0.713889 1.857331 0.005557 0.014769 -198433.000000 0 0 1
-33.650313 -29.650518 -12.500929 46.559317 0.722295 1.842626 0.013697 0.005931 -93361.600000 0 0 1
-33.271713 -30.721018 -13.414829 47.230769 0.745560 1.858788 0.000642 0.007904 298866.000000 0 0 1
-33.727513 -31.951218 -12.943629 48.228239 0.758360 1.842510 -0.004353 0.005946 -265048.000000 0 0 1
-33.316713 -33.058418 -13.915629 48.954133 0.781507 1.859029 -0.017610 0.011441 -3587.120000 0 0 1
-31.940013 -33.375518 -13.969429 48.262145 0.807373 1.864447 -0.013870 0.008846 16124.500000 0 0 1
-31.734713 -34.219718 -15.105629 49.053656 0.823058 1.883824 -0.003095 -0.003673 -109878.000000 0 0 1
-30.243713 -34.540618 -15.270229 48.383018 0.851627 1.891897 -0.010080 0.000055 -94167.900000 0 0 1
-29.973613 33.679412 -16.334929 47.953625 -0.843551 1.918394 -0.007144 0.005547 1661500.000000 0 0 1
-28.494613 33.665112 -16.392729 47.053207 -0.868388 1.926646 -0.007713 0.005397 2117490.000000 0 0 1
8.999160 20.194512 -9.065833 23.895450 1.151587 1.959939 0.014840 -0.007140 119637.000000 0 1 0
7.576160 20.030312 -9.089833 23.264494 1.209193 1.972207 0.018199 -0.010712 718072.000000 0 1 0
6.964660 20.097212 -10.368033 23.662217 1.237200 2.024356 0.029144 -0.010532 -277117.000000 0 1 0
7.170860 18.840812 -11.285833 23.103408 1.207123 2.081157 0.029417 -0.009469 250455.000000 0 1 0
8.468060 18.540812 -11.833933 23.569296 1.142364 2.096811 0.044422 -0.008107 354079.000000 0 1 0
8.524960 17.339512 -12.503433 23.014549 1.113852 2.145140 0.039175 -0.023364 32140.500000 0 1 0
9.846960 16.927512 -13.203033 23.618285 1.043931 2.163997 0.053073 -0.015243 166597.000000 0 1 0
9.679760 15.751912 -13.948533 23.159924 1.019774 2.217138 0.055142 -0.024273 -257960.000000 0 1 0
10.725560 15.500612 -14.844133 23.992809 0.965497 2.237872 0.065218 -0.018214 -602466.000000 0 1 0
10.501260 14.250212 -15.754033 23.696720 0.935719 2.298048 0.054271 -0.017845 -475704.000000 0 1 0
10.544060 13.049112 -14.988033 22.496614 0.891179 2.299945 0.055764 -0.020916 1192900.000000 0 1 0
11.866660 12.623212 -14.582933 22.645641 0.816281 2.270462 0.063222 -0.014843 620132.000000 0 1 0
12.639960 11.927312 -15.736033 23.444660 0.756398 2.306621 0.057379 -0.008725 -657242.000000 0 1 0
13.307660 12.838112 -16.552833 24.817478 0.767441 2.300948 0.051976 -0.005407 -82703.200000 0 1 0
14.077760 12.114512 -17.468233 25.496743 0.710583 2.325560 0.045796 -0.007117 -521307.000000 0 0 1
14.890960 12.932312 -18.495233 27.038103 0.715118 2.324088 0.032512 -0.006869 -49482.700000 0 0 1
15.863560 13.684312 -17.793733 27.486903 0.711778 2.274903 -0.001073 0.005909 -645594.000000 0 0 1
16.849760 14.094212 -18.674033 28.831939 0.696583 2.275339 0.002798 -0.000434 -671696.000000 0 0 1
17.760060 15.193712 -18.059233 29.536495 0.707678 2.228651 -0.020865 0.010029 -430785.000000 0 0 1
17.275660 16.539812 -17.719733 29.765798 0.763641 2.208442 -0.033055 0.005741 -76009.600000 0 0 1
16.708660 17.259312 -18.787533 30.496468 0.801608 2.234522 -0.009342 0.013162 -79330.800000 0 0 1
16.275260 18.728212 -18.401433 30.890820 0.855361 2.208924 -0.017683 0.012431 12751.000000 0 0 1
17.380460 19.613612 -18.281133 31.952684 0.845690 2.179899 -0.022223 0.012137 223006.000000 0 0 1
17.015960 20.829112 -17.715233 32.205967 0.885816 2.153233 -0.031819 0.014524 -186958.000000 0 0 1
18.104460 21.935112 -17.764833 33.533713 0.880780 2.129114 -0.016467 0.005984 -823640.000000 0 0 1
19.190760 21.829012 -16.944033 33.643592 0.849626 2.098596 -0.011015 0.002665 -994591.000000 0 0 1
19.404660 23.081612 -16.334533 34.294586 0.871728 2.067239 -0.005955 -0.000871 -1394940.000000 0 0 1
20.730460 23.338912 -15.697233 34.940806 0.844519 2.036724 -0.000091 -0.001275 -1503420.000000 0 0 1
21.048460 22.593512 -14.504233 34.115645 0.820786 2.009923 0.004607 0.001000 -306142.000000 0 0 1
22.076660 23.197412 -13.767433 34.857439 0.810148 1.976825 -0.000310 -0.004270 1573750.000000 0 0 1
23.587960 23.088212 -14.268233 35.958864 0.774692 1.978817 0.011187 -0.001310 1074100.000000 0 0 1
23.995960 23.682212 -15.481633 37.098979 0.778818 2.001275 0.014656 -0.002266 224558.000000 0 0 1
25.067960 24.601812 -15.271933 38.299918 0.776014 1.980945 0.004673 -0.003696 31269.500000 0 0 1
25.449660 25.204012 -16.640933 39.494912 0.780549 2.005723 0.005897 -0.001090 -337940.000000 0 0 1
26.147760 24.302812 -17.484433 39.749685 0.748845 2.026243 0.010535 -0.007536 -180192.000000 0 0 1
26.373960 24.731912 -18.827233 40.764175 0.753279 2.050884 0.002669 -0.000681 -1202170.000000 0 0 1
26.734760 23.650412 -19.915833 40.874562 0.724259 2.079726 0.000324 -0.007272 161008.000000 0 0 1
28.099060 23.257812 -19.826833 41.516097 0.691409 2.068683 -0.000352 -0.002998 13063.200000 0 0 1
28.384560 22.418812 -20.877033 41.762865 0.668505 2.094273 0.018563 -0.009264 -135631.000000 0 0 1
29.867960 22.433612 -21.273433 42.987451 0.644200 2.088488 0.033741 -0.003101 -339610.000000 0 0 1
30.160960 23.620712 -21.976833 44.165628 0.664385 2.091626 0.011662 0.002407 329591.000000 0 0 1
31.571060 23.841712 -21.925333 45.231397 0.646806 2.076859 0.029826 -0.001997 591430.000000 0 0 1
32.063660 25.115112 -22.760833 46.657289 0.664468 2.080399 0.015990 0.000227 -72036.200000 0 0 1
31.859160 25.071412 -24.202233 47.215780 0.666730 2.108992 0.017362 -0.002946 444495.000000 0 0 1
30.515360 25.082612 -24.664633 46.568968 0.687993 2.128968 0.016253 -0.009810 -176332.000000 0 0 1
30.436860 25.504812 -26.157053 47.550913 0.697461 2.153263 0.016162 -0.010101 -303833.000000 0 0 1
30.535260 26.864212 -26.378683 48.476003 0.721529 2.146183 0.010891 -0.007309 -293957.000000 0 0 1
29.282060 27.488212 -26.496513 48.115549 0.753810 2.153981 0.010179 0.002352 273428.000000 0 0 1
28.500560 27.384312 -27.863123 48.358413 0.765427 2.184843 0.017049 0.001833 -128827.000000 0 0 1
28.146060 26.041412 -28.220513 47.610431 0.746578 2.205251 0.016879 -0.004794 -262030.000000 0 0 1
28.152660 25.812312 -29.594133 48.318324 0.742057 2.229994 0.014047 -0.008456 -308536.000000 0 0 1
27.545960 24.440012 -29.956573 47.470942 0.725723 2.253703 0.010299 -0.014911 -1993610.000000 0 0 1
26.260960 24.443412 -29.551093 46.479947 0.749568 2.259817 0.006947 -0.014504 -2060310.000000 0 0 1
25.777160 23.141712 -29.796723 45.692948 0.731576 2.281158 0.011693 -0.020740 -672350.000000 0 0 1
24.331960 22.979812 -29.357413 44.519364 0.756826 2.290857 -0.005535 -0.014205 -681042.000000 0 0 1
24.228560 23.016512 -27.928873 43.552324 0.759749 2.266951 -0.001122 -0.002551 1088400.000000 0 0 1
22.865960 23.176112 -27.474593 42.600910 0.792134 2.271728 -0.002239 -0.002278 597962.000000 0 0 1
22.699260 23.501412 -25.992793 41.751623 0.802759 2.242803 0.009170 -0.002743 -456855.000000 0 0 1
23.005460 22.449912 -25.113813 40.791584 0.773177 2.234022 0.013717 -0.009834 201348.000000 0 0 1
23.295060 22.878112 -23.838633 40.427073 0.776368 2.201447 0.020909 -0.000300 -469075.000000 0 0 1
23.837160 21.811912 -22.927433 39.618643 0.741062 2.187934 0.025878 -0.005013 -482299.000000 0 0 1
25.122560 21.333912 -23.186733 40.297685 0.704026 2.183873 0.024313 -0.007529 -229900.000000 0 0 1
25.311760 20.124412 -22.528433 39.410753 0.671723 2.179289 0.050080 -0.018232 8476.890000 0 0 1
26.335460 19.181112 -23.193133 39.992411 0.629493 2.189449 0.051640 -0.017428 866712.000000 0 0 1
27.630360 19.167412 -22.571433 40.500569 0.606491 2.161941 0.065896 -0.020815 751675.000000 0 0 1
28.634360 18.544712 -23.356333 41.344301 0.574713 2.171136 0.060201 -0.016029 1281260.000000 0 0 1
30.015660 18.208912 -22.669933 41.790312 0.545293 2.144169 0.071490 -0.019002 636216.000000 0 0 1
30.700160 19.361312 -22.316233 42.607212 0.562658 2.122063 0.061257 -0.019807 -746624.000000 0 0 1
31.950060 18.943112 -21.839733 43.088534 0.535181 2.102331 0.059090 -0.015806 -13894.500000 0 0 1
32.566260 19.964812 -20.808633 43.498899 0.549961 2.069596 0.035320 -0.025416 96336.300000 0 0 1
31.859960 19.938612 -19.592933 42.385001 0.559189 2.051340 0.039046 -0.020451 163425.000000 0 0 1
32.250860 21.054612 -18.828333 42.870978 0.578368 2.025489 0.020989 -0.006896 -11163.700000 0 0 1
31.567360 21.145612 -17.435533 41.804700 0.590208 2.001017 0.027774 -0.013381 97163.100000 0 0 1
32.015660 20.070812 -16.579933 41.264199 0.559969 1.984277 0.035074 -0.029883 482317.000000 0 0 1
31.804360 20.340012 -15.220533 40.705012 0.568983 1.954031 0.038046 -0.028722 -352773.000000 0 0 1
32.134660 19.058712 -14.452733 40.059361 0.535322 1.939904 0.034687 -0.022625 748243.000000 0 0 1
33.576460 18.872712 -14.547033 41.172492 0.512072 1.931913 0.037817 -0.026230 1634090.000000 0 0 1
34.081960 17.755412 -13.836333 40.844568 0.480276 1.916390 0.038541 -0.007908 -42775.200000 0 0 1
33.959060 17.800912 -12.251733 40.251648 0.482810 1.880082 0.028242 -0.020297 235573.000000 0 0 1
34.895960 18.790412 -11.723033 41.330825 0.493948 1.858383 0.022134 -0.019514 721332.000000 0 0 1
34.721560 19.082112 -10.338333 40.946244 0.502517 1.826044 0.008678 -0.019675 -607931.000000 0 0 1
33.634960 20.125412 -10.128433 40.483674 0.539204 1.823668 0.016918 -0.022163 279843.000000 0 0 1
32.332460 19.625412 -10.430033 39.234301 0.545542 1.839871 0.042263 -0.035551 203273.000000 0 0 1
31.293960 20.491312 -9.981733 38.714865 0.579743 1.831569 0.025304 -0.024641 176536.000000 0 0 1
29.881860 19.937012 -10.218833 37.347484 0.588368 1.847946 0.020259 -0.018066 -116507.000000 0 0 1
29.498060 19.921712 -11.588633 37.434030 0.593995 1.885542 0.026939 -0.026480 -496255.000000 0 0 1
28.237060 19.382212 -11.830633 36.234867 0.601547 1.903393 0.025052 -0.024999 -654529.000000 0 0 1
28.164560 18.839512 -13.300433 36.401527 0.589553 1.944839 0.054416 -0.017527 36033.400000 0 0 1
28.823560 17.559412 -13.479033 36.343017 0.547159 1.950757 0.065364 -0.025997 452184.000000 0 0 1
28.654960 17.064712 -14.809333 36.491471 0.537122 1.988683 0.059209 -0.015601 -852684.000000 0 0 1
29.995060 16.607812 -15.318133 37.552207 0.505668 1.990966 0.063043 -0.023221 -1157380.000000 0 0 1
30.582060 15.543812 -14.629133 37.294557 0.470238 1.973883 0.047563 -0.023974 -296966.000000 0 0 1
31.674860 15.048112 -15.342933 38.277252 0.443514 1.983226 0.049759 -0.021764 -494329.000000 0 0 1
32.573560 14.127712 -14.520933 38.359960 0.409231 1.959019 0.033047 -0.026413 -218541.000000 0 0 1
33.422060 14.688212 -13.529833 38.933713 0.414068 1.925710 0.035422 -0.015654 188847.000000 0 0 1
33.975960 13.676112 -12.748233 38.780399 0.382680 1.905754 0.024354 -0.008347 212052.000000 0 0 1
34.971860 14.165612 -11.622533 39.481373 0.384859 1.869603 0.038699 -0.006447 166157.000000 0 0 1
-34.199967 14.615612 -12.214033 39.146347 -0.403866 1.888104 0.017517 -0.007673 -222347.000000 0 0 1
-33.254967 14.938912 -11.190733 38.135239 -0.422208 1.868629 0.008143 -0.011509 -179325.000000 0 0 1
-31.794667 15.173012 -11.666533 37.111038 -0.445257 1.890587 0.014598 -0.011884 122542.000000 0 0 1
-31.091367 13.985112 -12.024933 36.150456 -0.422693 1.909893 -0.008351 -0.012934 113001.000000 0 0 1
-30.978267 12.911112 -11.095833 35.347806 -0.394887 1.890099 0.007019 -0.010137 -1068340.000000 0 0 1
-29.940867 11.865412 -11.555233 34.216472 -0.377308 1.915279 0.021431 -0.013737 -245459.000000 0 0 1
-30.126467 11.202712 -12.785133 34.591392 -0.356012 1.949380 0.005410 -0.003764 387463.000000 0 0 1
-29.311967 10.020612 -12.764933 33.504442 -0.329406 1.961666 0.013596 -0.012571 90421.800000 0 0 1
-29.181567 9.229112 -14.077933 33.688701 -0.306311 2.001910 0.013387 -0.013090 -363391.000000 0 0 1
-30.396767 8.614012 -14.394333 34.718316 -0.276146 1.998303 0.003653 -0.011916 154885.000000 0 0 1
-30.090067 7.708512 -15.447933 34.691093 -0.250788 2.032305 0.002551 -0.017996 -350937.000000 0 0 1
-31.237667 7.192212 -16.315133 35.968088 -0.226298 2.041597 -0.005272 -0.018327 -315055.000000 0 0 1
-32.187967 6.435012 -15.609633 36.347424 -0.197318 2.014687 0.019465 -0.021411 139864.000000 0 0 1
-33.307767 5.952812 -16.302433 37.558124 -0.176854 2.019790 0.006627 -0.019975 -267970.000000 0 0 1
-34.403367 5.364312 -15.405033 38.074697 -0.154679 1.987338 0.003916 -0.016361 -95225.600000 0 0 1
34.963460 4.635612 -16.133133 38.784151 0.131816 1.999808 0.015218 -0.011750 276372.000000 0 0 1
34.001260 4.206512 -15.174133 37.470451 0.123091 1.987734 0.025404 -0.015383 -528003.000000 0 0 1
33.177260 3.079812 -15.690733 36.829539 0.092564 2.010904 0.030100 -0.014686 -1095900.000000 0 0 1
33.755360 1.802712 -15.780633 37.305529 0.053355 2.007562 0.030229 -0.012282 -376258.000000 0 0 1
32.927660 0.675712 -15.582433 36.434868 0.020518 2.012720 0.020764 -0.006150 33162.100000 0 0 1
32.301560 0.516512 -14.189033 35.284362 0.015989 1.984642 0.018052 -0.002022 8934.670000 0 0 1
33.352560 0.130812 -13.322633 35.915218 0.003922 1.950825 0.029346 -0.004844 410993.000000 0 0 1
33.007460 0.168012 -11.946033 35.103110 0.005090 1.918046 0.029835 0.004146 -191550.000000 0 0 1
32.954660 1.634412 -11.373433 34.900371 0.049555 1.902742 0.029450 -0.010698 -93718.100000 0 0 1
31.856160 2.427512 -11.767733 34.046839 0.076055 1.923710 0.030481 -0.009125 431232.000000 0 0 1
31.962360 3.687212 -11.088633 34.031541 0.114853 1.902690 0.031348 -0.008895 -294183.000000 0 0 1
30.925660 4.628712 -11.706133 33.389444 0.148569 1.929001 0.024796 -0.002694 -350529.000000 0 0 1
31.262960 5.137512 -12.938333 34.222319 0.162876 1.958504 0.029871 -0.007300 202866.000000 0 0 1
30.419160 6.191612 -13.309633 33.775845 0.200800 1.975839 0.030824 -0.013293 -472802.000000 0 0 1
30.669660 6.736512 -14.739733 34.688159 0.216214 2.009671 0.013513 -0.003898 -312156.000000 0 0 1
30.243460 5.882212 -15.820833 34.634752 0.192097 2.045180 0.003414 0.004917 275012.000000 0 0 1
30.652060 6.334712 -17.124933 35.678294 0.203796 2.071430 0.013370 -0.001178 -685105.000000 0 0 1
29.734360 7.402012 -17.865433 35.469644 0.243979 2.098652 0.018355 0.000283 590760.000000 0 0 1
28.567260 6.873012 -18.455833 34.697902 0.236103 2.131640 -0.000940 0.004491 883963.000000 0 0 1
27.543460 6.353512 -17.575133 33.285051 0.226707 2.127062 -0.016855 0.008732 345409.000000 0 0 1
26.179260 6.052212 -18.293033 32.505661 0.227192 2.168523 -0.021135 0.009635 362214.000000 0 0 1
26.278360 4.971012 -19.214533 32.931162 0.186958 2.193798 -0.011189 0.013295 -508824.000000 0 0 1
25.358860 5.092512 -20.208633 32.823685 0.198182 2.234035 -0.019691 0.023044 -913637.000000 0 0 1
25.026360 3.810312 -20.946033 32.856863 0.151092 2.262037 -0.010972 0.014152 -598158.000000 0 0 1
24.298060 2.957612 -20.146533 31.702145 0.121126 2.259445 -0.003782 0.013358 -19716.500000 0 0 1
23.982260 1.714012 -20.693033 31.722047 0.071349 2.281442 0.000388 0.009546 -481010.000000 0 0 1
23.047360 0.832512 -19.833533 30.417806 0.036106 2.281064 -0.004026 0.006408 -124987.000000 0 0 1
21.747960 1.358312 -19.739833 29.402037 0.062376 2.306861 -0.005474 0.005080 -631036.000000 0 0 1
20.946460 0.521112 -18.994833 28.281256 0.024873 2.307217 -0.003583 0.007013 -172911.000000 0 0 1
19.620260 1.251612 -18.621233 27.078985 0.063706 2.329062 -0.000845 0.005266 -52975.700000 0 0 1
18.752760 1.386212 -19.768133 27.283084 0.073786 2.381187 0.010418 -0.001627 332886.000000 0 0 1
17.650460 2.261112 -19.700133 26.547064 0.127411 2.406969 -0.001825 -0.001708 848768.000000 0 0 1
16.450160 1.781612 -18.799333 25.043898 0.107883 2.419850 0.000017 -0.004116 -364182.000000 0 0 1
16.778660 1.672412 -17.407833 24.235367 0.099347 2.372126 0.000151 -0.007370 84579.400000 0 1 0
15.705060 2.063612 -16.585933 22.934702 0.130649 2.379193 -0.006874 0.001346 7682.580000 0 1 0
15.260260 3.538412 -16.418033 22.692459 0.227845 2.379658 0.016444 0.000807 -6794.340000 0 1 0
14.702560 4.143412 -17.575033 23.285509 0.274692 2.426089 0.017267 0.010843 177876.000000 0 1 0
13.626760 4.997812 -17.325333 22.601634 0.351531 2.444251 0.036469 -0.003383 -446810.000000 0 1 0
-19.756240 -21.840688 -18.143633 34.590693 0.835467 2.122952 0.002879 0.000269 124572.000000 0 0 1
-19.320940 -22.438388 -19.335933 35.364647 0.859913 2.149285 0.018345 -0.007764 -101353.000000 0 0 1
-20.276640 -22.248988 -20.326533 36.322548 0.831745 2.164714 0.016313 -0.009484 -222819.000000 0 0 1
-19.988140 -23.107288 -21.527033 37.374933 0.857650 2.184593 0.024427 -0.014697 -80232.100000 0 0 1
-19.931840 -24.469988 -21.091033 37.959060 0.887251 2.159912 0.021994 -0.017819 -37702.800000 0 0 1
-19.408440 -25.185878 -22.123333 38.735744 0.914236 2.178684 0.024590 -0.021942 -518348.000000 0 0 1
-19.174040 -26.714128 -21.838033 39.473891 0.948257 2.157030 0.021714 -0.006317 -637741.000000 0 0 1
-20.347840 -27.407938 -21.588133 40.389072 0.932173 2.134717 0.026092 0.003120 -438625.000000 0 0 1
-20.001040 -28.780548 -21.633433 41.186975 0.963468 2.123804 0.036763 -0.012408 -40424.800000 0 0 1
-21.224640 -29.708568 -21.829533 42.539544 0.950452 2.109657 0.037579 -0.004766 -84706.900000 0 0 1
-21.855140 -29.433478 -23.031933 43.294881 0.932095 2.131731 0.030040 0.002866 -241958.000000 0 0 1
-21.347040 -30.240928 -24.083033 44.161095 0.956122 2.147597 0.028682 -0.004280 -341022.000000 0 0 1
-21.727340 -29.660178 -25.447603 44.714471 0.938562 2.176223 0.020953 0.003239 -269818.000000 0 0 1
-23.041940 -30.028768 -25.793903 45.803748 0.916297 2.168976 0.020588 0.005585 120782.000000 0 0 1
-23.548740 -29.279448 -26.922023 46.223636 0.893454 2.192511 0.018668 0.010108 34099.500000 0 0 1
-22.999340 -29.555098 -28.353083 46.972021 0.909499 2.218826 0.015936 0.003101 -260963.000000 0 0 1
-23.414940 -30.803728 -28.903833 48.296590 0.920841 2.212380 0.020697 0.008207 141239.000000 0 0 1
-23.090140 -30.751678 -30.283603 48.948104 0.926746 2.237868 0.022397 0.004939 113310.000000 0 0 1
-23.647740 -31.944728 -31.096793 50.464758 0.933551 2.234715 0.010530 0.006402 -85390.300000 0 0 1
-23.128640 -33.177968 -30.646403 50.743606 0.962014 2.219239 0.007026 0.009067 51876.000000 0 0 1
-23.948740 -34.241024 -31.104373 52.090996 0.960462 2.210697 0.017860 0.002878 -202893.000000 0 0 1
-23.221540 33.518646 -31.190483 51.337956 -0.964923 2.223771 0.026054 -0.000771 154317.000000 0 0 1
-22.267540 33.298476 -32.216773 51.405761 -0.981370 2.248127 0.000064 -0.005455 276881.000000 0 0 1
-21.787840 31.939043 -32.033373 50.209057 -0.972138 2.262694 0.012544 0.000348 153163.000000 0 0 1
-20.631540 31.501473 -32.988813 50.062611 -0.990957 2.290220 0.013820 0.009184 199954.000000 0 0 1
-20.981840 31.299703 -34.331251 50.975914 -0.980246 2.309703 0.001815 0.009845 254769.000000 0 0 1
-20.402540 30.059993 34.310544 49.970794 -0.974490 0.813978 -0.008243 0.011019 160289.000000 0 0 1
-20.453740 29.829203 32.751614 48.793494 -0.969736 0.834931 -0.011280 0.006194 122218.000000 0 0 1
-19.611140 30.696443 32.006104 48.489784 -1.002283 0.849899 -0.009050 0.010949 428976.000000 0 0 1
-19.980840 30.631103 30.650664 47.717519 -0.992802 0.873254 -0.006756 0.010382 -382854.000000 0 0 1
-19.447240 31.813293 29.871454 47.776401 -1.022115 0.895364 -0.015354 0.001826 -227899.000000 0 0 1
-20.269240 32.954193 30.011084 48.964131 -1.019367 0.911046 -0.012697 -0.001583 -163866.000000 0 0 1
-19.653540 34.157110 29.639554 49.309968 -1.048672 0.925936 -0.021938 -0.005646 -318190.000000 0 0 1
-20.582940 -33.723308 29.621694 49.379790 1.022803 0.927452 -0.012426 -0.010401 -141618.000000 0 0 1
-20.969740 -33.391778 30.970504 50.138936 1.010049 0.904990 -0.020220 -0.004818 -91734.800000 0 0 1
-21.998040 -32.419538 31.076354 50.006799 0.974617 0.900214 0.000629 -0.008629 -166236.000000 0 0 1
-21.663440 -30.946858 30.798784 48.739899 0.960056 0.886793 -0.003280 -0.000179 -817743.000000 0 0 1
-21.443740 -30.745768 29.385844 47.630495 0.961782 0.905929 -0.011940 0.004185 -122424.000000 0 0 1
-21.314840 -29.358338 29.110344 46.515014 0.942818 0.894605 0.005998 0.001002 -882852.000000 0 0 1
-22.576840 -28.640918 28.659224 46.382831 0.903247 0.904747 0.007925 0.005478 -494036.000000 0 0 1
-23.690240 -28.667448 29.550094 47.500085 0.880175 0.899366 0.011671 0.007625 928605.000000 0 0 1
-24.558640 -29.831658 29.401454 48.554094 0.882044 0.920352 0.000866 -0.000049 -168110.000000 0 0 1
-25.577780 -29.807568 28.216834 48.362213 0.861620 0.947829 -0.004559 0.012771 8913.860000 0 0 1
-24.931340 -29.855618 26.953834 47.322709 0.875038 0.964808 -0.004255 0.006826 -358644.000000 0 0 1
-25.944100 -29.927778 26.018054 47.388895 0.856578 0.989590 -0.003791 0.012184 -426223.000000 0 0 1
-25.541620 -30.227308 24.553534 46.571885 0.869221 1.015473 0.000286 0.005455 -737811.000000 0 0 1
-25.058840 -29.117348 23.874964 45.230292 0.860172 1.014725 -0.018552 0.009593 362843.000000 0 0 1
-24.527540 -29.365218 22.560264 44.417133 0.874923 1.038030 0.002911 0.007973 185289.000000 0 0 1
-23.333740 -30.339018 22.335364 44.314647 0.915183 1.042552 -0.005820 0.002927 -519495.000000 0 0 1
-23.641740 -31.743408 22.339764 45.449322 0.930647 1.056949 0.009830 -0.009802 1166390.000000 0 0 1
-22.475040 -32.444688 21.852164 45.114324 0.964974 1.065150 0.007584 -0.001012 1016420.000000 0 0 1
-21.485940 -33.049058 22.870664 45.573601 0.994335 1.045071 0.004979 -0.003437 -90617.600000 0 0 1
-20.878440 -32.182208 23.806164 45.147948 0.995295 1.015386 0.008964 -0.007885 82545.600000 0 0 1
-20.044340 -32.974288 24.605014 45.765554 1.024604 1.003170 0.008943 -0.012791 -695209.000000 0 0 1
-19.390140 -32.193198 25.705914 45.532115 1.028683 0.970888 0.013367 -0.007951 -916293.000000 0 0 1
-18.377340 -31.265118 25.286444 44.211293 1.039403 0.961921 0.018277 -0.010568 352629.000000 0 0 1
-17.767340 -30.623488 26.344274 44.130456 1.045073 0.931085 0.024438 -0.002178 -140908.000000 0 0 1
-16.817240 -31.453568 27.223274 44.869289 1.079800 0.918863 0.015075 -0.011616 -1151720.000000 0 0 1
-17.530840 -32.236698 28.152934 46.250651 1.072713 0.916371 0.004031 -0.009435 -44228.000000 0 0 1
-16.767540 -32.751498 29.212094 46.980394 1.097625 0.899766 0.007207 -0.009729 -522836.000000 0 0 1
-17.116740 -32.004958 30.495994 47.405757 1.079686 0.871999 0.010328 -0.007717 -6201.570000 0 0 1
-16.626140 -30.665938 30.568624 46.381775 1.073985 0.851221 0.019850 -0.003992 161383.000000 0 0 1
-16.863340 -30.120148 31.858764 46.974210 1.060408 0.825461 0.023355 0.003520 20252.600000 0 0 1
-16.485340 -28.542478 31.889354 45.862516 1.047031 0.801924 0.034643 -0.000141 80274.600000 0 0 1
-17.302440 -27.635368 31.136754 45.084204 1.011408 0.808429 0.033190 0.001053 128084.000000 0 0 1
-17.332240 -27.812128 29.746984 44.258378 1.013500 0.833727 0.030701 0.001900 -590940.000000 0 0 1
-16.095640 -27.511998 28.908454 43.031132 1.041449 0.834156 0.026349 0.004251 -431826.000000 0 0 1
-15.860940 -26.110058 28.825954 42.002859 1.024906 0.814427 0.024736 0.004623 -40041.000000 0 0 1
-14.659540 -25.890088 28.129704 40.944829 1.055584 0.813423 0.026891 0.003829 -156642.000000 0 0 1
-14.730040 -24.590588 27.347534 39.617656 1.031104 0.808911 0.031746 0.006446 -547604.000000 0 0 1
-15.645340 -24.661588 26.288484 39.294465 1.005465 0.837917 0.036458 0.000154 -112339.000000 0 0 1
-15.755340 -23.492988 25.499854 38.084035 0.980048 0.837169 0.018726 -0.002434 -83434.600000 0 0 1
-16.445940 -22.271588 26.159284 38.089378 0.934743 0.813737 0.013247 0.001641 -735261.000000 0 0 1
-16.326040 -21.125488 25.308604 36.787923 0.912854 0.812122 0.013551 0.000970 -29782.900000 0 0 1
-16.792340 -19.985788 25.915164 36.783286 0.872011 0.789027 0.005099 0.002490 -367211.000000 0 0 1
-16.417040 -18.764188 25.012034 35.315942 0.852015 0.783799 0.006343 0.000711 -485531.000000 0 0 1
-15.050740 -18.510388 24.972194 34.536498 0.888120 0.762565 0.015144 -0.006358 -942465.000000 0 0 1
-14.741240 -17.587088 23.969464 33.183505 0.873201 0.763630 0.013272 -0.005692 -160964.000000 0 0 1
-13.334840 -16.973588 24.065444 32.327484 0.904884 0.731120 0.020884 -0.000611 -288146.000000 0 0 1
-12.283040 -17.896688 23.692064 32.132202 0.969304 0.741686 0.008404 -0.008062 703715.000000 0 0 1
-11.039240 -17.191088 23.738664 31.319682 0.999960 0.710636 0.002664 -0.002392 128963.000000 0 0 1
-10.704340 -16.310988 22.552264 29.820057 0.990029 0.713190 -0.006509 0.007997 -796922.000000 0 0 1
-10.243140 -16.902088 21.341064 29.086827 1.025956 0.747042 0.008562 0.001405 879262.000000 0 0 1
-8.824940 -17.135688 21.314364 28.736970 1.095218 0.735187 0.011510 -0.002532 540020.000000 0 0 1
-8.395440 -18.407788 20.568964 28.851557 1.142897 0.777137 0.019926 -0.005280 -1040.940000 0 0 1
-8.344340 -18.259688 19.180864 27.765982 1.142152 0.808195 0.017418 -0.003014 -261789.000000 0 0 1
-7.797340 -19.366388 18.579164 27.947107 1.188031 0.843574 0.025447 -0.002749 -138441.000000 0 0 1
-7.465440 -19.127688 17.132964 26.742096 1.198684 0.875421 0.016196 -0.008529 -62494.500000 0 0 1
-6.584940 -18.070488 16.826964 25.554856 1.221348 0.852020 0.005330 -0.007397 -261747.000000 0 0 1
-6.339640 -18.007788 15.429264 24.546561 1.232296 0.891081 0.012998 -0.011054 368352.000000 0 1 0
-5.425240 -16.752988 15.087064 23.188690 1.257617 0.862394 0.003896 -0.013671 723550.000000 0 1 0
-5.996840 -15.451888 15.409464 22.631273 1.200593 0.821816 0.006674 -0.017409 -583609.000000 0 1 0
-4.978240 -14.577988 15.587664 21.915197 1.241723 0.779490 0.000008 -0.009619 -1226910.000000 0 1 0
-5.490740 -13.357588 16.450064 21.890134 1.180794 0.720489 -0.006875 -0.006256 38023.400000 0 1 0
-5.273040 -13.569388 17.873864 23.052294 1.200158 0.683509 -0.002982 -0.003664 66826.800000 0 1 0
-6.129940 -14.476988 18.551464 24.316993 1.170259 0.703008 0.012591 -0.003964 -191450.000000 0 1 0
-7.305140 -13.982488 19.389364 24.996449 1.089351 0.682997 0.005620 -0.004315 -48975.500000 0 1 0
-6.891240 -13.167388 20.498864 25.319414 1.088638 0.627308 -0.000977 -0.000602 -111483.000000 0 0 1
-7.968540 -12.637888 21.238064 25.966694 1.008232 0.613051 0.005178 0.003284 -41498.000000 0 0 1
-7.489840 -11.689188 22.328064 26.292152 1.000952 0.556272 0.000463 0.002707 -660093.000000 0 0 1
-6.950440 -10.501188 21.744764 25.128038 0.986121 0.524931 -0.009998 0.007416 266355.000000 0 0 1
-6.506840 -9.465088 22.626564 25.374953 0.968538 0.469734 -0.008587 -0.003514 551029.000000 0 0 1
-5.105440 -9.655888 23.302564 25.735407 1.084423 0.438317 0.001786 -0.002161 451224.000000 0 0 1
-5.227340 -10.669388 24.220834 26.977949 1.115231 0.456045 0.017367 -0.002574 -1006340.000000 0 0 1
-3.999240 -11.145988 24.622944 27.322451 1.226299 0.448270 0.023663 -0.006295 -1097250.000000 0 0 1
-3.998640 -12.500188 25.309254 28.509685 1.261196 0.478379 0.028216 -0.010696 -401404.000000 0 0 1
-2.768440 -12.812988 25.918264 29.044678 1.358002 0.468252 0.031698 -0.013475 -69065.100000 0 0 1
-2.753740 -14.109888 26.551104 30.193263 1.378055 0.496255 0.032710 -0.016602 -51855.000000 0 0 1
-2.541840 -15.346588 25.592414 29.949129 1.406657 0.546152 0.034698 -0.028411 600510.000000 0 0 1
-1.170640 -15.673688 25.255664 29.746990 1.496247 0.556677 0.028860 -0.018444 1141160.000000 0 0 1
-0.991840 -16.849588 24.488304 29.741711 1.512000 0.603480 0.018352 -0.003862 490673.000000 0 0 1
0.494760 -17.342088 24.609334 30.110000 -1.542275 0.614062 0.026908 -0.006212 672876.000000 0 0 1
0.801260 -17.912588 25.854544 31.463634 -1.526094 0.606360 0.040118 -0.014438 117084.000000 0 0 1
1.338560 -16.984388 26.820794 31.774458 -1.492148 0.565913 0.038528 -0.015091 -107037.000000 0 0 1
1.568760 -17.595088 28.234634 33.305295 -1.481872 0.559064 0.040876 -0.015362 -453124.000000 0 0 1
2.612260 -18.565488 28.159934 33.830210 -1.431009 0.587390 0.036020 -0.014554 292629.000000 0 0 1
3.215860 -18.787488 29.427084 35.060872 -1.401269 0.574776 0.031973 -0.016390 567665.000000 0 0 1
4.178460 -17.650688 29.949344 35.013847 -1.338345 0.544556 0.044372 -0.022164 -524725.000000 0 0 1
3.537960 -16.464388 30.299914 34.665228 -1.359130 0.507274 0.038297 -0.022477 -80000.500000 0 0 1
4.433060 -15.541688 30.882574 34.855838 -1.292938 0.482131 0.037789 -0.022116 -11577.600000 0 0 1
3.620560 -14.548888 31.743194 35.105682 -1.326896 0.441251 0.048521 -0.029666 96122.200000 0 0 1
3.025760 -15.113888 32.876174 36.310159 -1.373211 0.438413 0.037554 -0.042127 -116151.000000 0 0 1
2.070560 -14.216788 33.419752 36.376972 -1.426171 0.406004 0.044668 -0.033330 -198685.000000 0 0 1
1.137160 -14.913588 34.379403 37.492020 -1.494694 0.410355 0.029919 -0.028002 -134233.000000 0 0 1
1.778960 -15.176388 -33.499473 36.819860 -1.454110 2.713648 0.052548 -0.027901 -427112.000000 0 0 1
0.848860 -15.608588 -32.570263 36.127145 -1.516466 2.694124 0.041944 -0.022346 -269799.000000 0 0 1
1.486260 -15.957388 -31.211823 35.085967 -1.477925 2.667224 0.043884 -0.014964 -672018.000000 0 0 1
0.594560 -16.144988 -30.191493 34.242377 -1.533987 2.650249 0.048830 -0.020024 -1083740.000000 0 0 1
1.081360 -15.883188 -28.912793 33.005978 -1.502819 2.638274 0.032129 -0.007100 -144420.000000 0 0 1
1.156660 -17.162988 -28.005253 32.866399 -1.503505 2.590769 0.043922 -0.013572 -42353.900000 0 0 1
2.044060 -18.186888 -28.388293 33.776267 -1.458874 2.568966 0.050786 -0.020417 -147191.000000 0 0 1
1.581960 -19.354488 -27.789903 33.902470 -1.489242 2.531686 0.053552 -0.011758 -530974.000000 0 0 1
2.438160 -20.593188 -28.016133 34.855813 -1.452949 2.504405 0.043711 -0.009598 -348084.000000 0 0 1
3.680060 -20.717688 -27.351763 34.509192 -1.395001 2.485847 0.035244 -0.013691 54892.400000 0 0 1
3.750660 -20.924188 -25.951143 33.546250 -1.393430 2.455288 0.033613 -0.001738 -1019270.000000 0 0 1
5.215260 -21.240288 -25.585903 33.659875 -1.330023 2.434310 0.033013 -0.005869 74663.500000 0 0 1
5.783060 -22.516688 -25.943993 34.835840 -1.319396 2.410957 0.033811 -0.004391 117193.000000 0 0 1
5.776960 -22.943888 -27.328833 36.147757 -1.324137 2.428025 0.027003 -0.002139 -831418.000000 0 0 1
4.791760 -24.120488 -27.519403 36.906320 -1.374690 2.412314 0.008182 0.001694 -151776.000000 0 0 1
5.157160 -25.263808 -26.873313 37.242868 -1.369431 2.376863 0.018417 0.013580 165403.000000 0 0 1
4.402160 -26.384108 -27.327523 38.239948 -1.405470 2.366895 0.024047 0.010894 -12543.300000 0 0 1
4.662660 -27.619438 -26.425173 38.507967 -1.403555 2.327084 0.034370 0.000882 651397.000000 0 0 1
6.034460 -28.021338 -26.590253 39.097975 -1.358683 2.318686 0.040031 0.002971 696198.000000 0 0 1
6.211760 -29.207048 -25.926203 39.544982 -1.361239 2.285790 0.023061 0.000296 -5493.710000 0 0 1
7.624860 -29.839128 -25.939423 40.266185 -1.320618 2.270771 0.012849 -0.006288 -112153.000000 0 0 1
8.021860 -30.130778 -27.250193 41.409987 -1.310597 2.289034 0.020321 -0.006067 -1047390.000000 0 0 1
9.255860 -30.748828 -27.201503 42.084238 -1.278409 2.273599 0.082489 -0.009422 -689648.000000 0 0 1
10.084460 -30.499748 -28.494583 42.940333 -1.251471 2.296398 0.089508 -0.024473 -50666.600000 0 0 1
9.711760 -31.228478 -29.625543 44.127190 -1.269287 2.306848 0.096898 -0.026798 -222395.000000 0 0 1
10.198960 -30.710508 -30.811793 44.682442 -1.250156 2.331695 0.084040 -0.025728 -245584.000000 0 0 1
-33.863110 -4.762788 -5.762633 34.678557 0.139732 1.737744 0.070983 -0.024004 -342913.000000 0 0 1
-33.388350 -3.996888 -4.671833 33.949714 0.119142 1.708845 0.061532 -0.030831 112437.000000 0 0 1
-32.896090 -2.727788 -5.094633 33.399833 0.082732 1.723929 0.052866 -0.022118 -667007.000000 0 0 1
-33.885460 -1.620988 -5.421933 34.354757 0.047801 1.729281 0.037472 -0.012159 -449394.000000 0 0 1
-34.428684 -0.839088 -4.363133 34.714194 0.024367 1.696817 0.021373 -0.003910 109958.000000 0 0 1
35.064287 0.090312 -4.958433 35.413252 0.002576 1.711274 0.034112 -0.006130 130296.000000 0 0 1
34.421152 1.066312 -3.891333 34.656820 0.030968 1.683315 0.035884 0.001680 233042.000000 0 0 1
-34.978047 2.014612 -3.421933 35.202728 -0.057533 1.668157 0.015234 0.009570 602481.000000 0 0 1
34.821565 2.829612 -2.417033 35.019854 0.081082 1.639870 0.024349 -0.001054 -79663.100000 0 0 1
-34.740535 4.110012 -2.288733 35.057599 -0.117759 1.636128 0.007362 -0.007679 -272487.000000 0 0 1
-35.100017 5.056712 -3.316633 35.617153 -0.143081 1.664050 0.007271 -0.004639 853859.000000 0 0 1
-33.992150 5.791112 -3.880233 34.699560 -0.168746 1.682854 0.003611 0.012926 566627.000000 0 0 1
-33.361540 6.894312 -2.971333 34.195800 -0.203786 1.657798 -0.007030 0.010608 71769.300000 0 0 1
-32.540450 6.388812 -1.921033 33.217287 -0.193869 1.628661 -0.010084 0.000197 595702.000000 0 0 1
-32.260310 7.403212 -0.948933 33.112469 -0.225578 1.599458 -0.009868 -0.015253 -127292.000000 0 0 1
-31.573600 6.918612 0.338067 32.324506 -0.215717 1.560338 -0.007417 -0.014322 -1808440.000000 0 0 1
-30.260260 6.538512 0.251067 30.959627 -0.212804 1.562687 -0.001365 -0.010655 -472863.000000 0 0 1
-29.443200 7.013312 1.348267 30.296970 -0.233840 1.526280 -0.004815 -0.005031 215479.000000 0 0 1
-29.032680 8.504712 1.263167 30.279073 -0.284963 1.529067 -0.008096 -0.005034 -892384.000000 0 0 1
-30.145230 9.366912 1.471267 31.601243 -0.301268 1.524222 -0.003808 -0.010477 315730.000000 0 0 1
-29.777260 10.735712 1.521767 31.690006 -0.346028 1.522757 -0.001806 0.002140 -1185940.000000 0 0 1
-30.887690 11.726112 1.531967 33.074129 -0.362830 1.524461 -0.004608 0.004618 -1348070.000000 0 0 1
-31.457300 11.859712 0.245267 33.619558 -0.360532 1.563501 0.002171 0.007453 460358.000000 0 0 1
-32.642340 12.632712 0.165867 35.001933 -0.369253 1.566058 -0.005808 0.013087 615715.000000 0 0 1
-33.981480 11.928812 0.567667 36.018881 -0.337600 1.555035 0.001035 -0.000679 -66226.300000 0 0 1
-34.418650 11.013612 -0.384433 36.139880 -0.309694 1.581434 -0.000130 -0.000631 -150427.000000 0 0 1
34.619771 10.610212 -0.121933 36.209391 0.297390 1.574164 0.005858 -0.012679 -125773.000000 0 0 1
34.096037 9.541612 -1.020733 35.420672 0.272865 1.599618 -0.001711 -0.021455 -127369.000000 0 0 1
33.754777 9.920112 -2.350633 35.260730 0.285840 1.637510 0.005498 -0.016559 415694.000000 0 0 1
33.274777 8.707912 -2.989433 34.524994 0.255957 1.657492 -0.009037 -0.015995 -297636.000000 0 0 1
32.861137 9.025512 -4.450133 34.367396 0.268046 1.700648 -0.004579 -0.009508 -486103.000000 0 0 1
31.654937 9.721512 -4.558933 33.426437 0.297966 1.707610 0.019075 -0.022558 -163769.000000 0 0 1
31.264877 10.008812 -5.885033 33.351199 0.309820 1.748182 0.012499 -0.015354 266641.000000 0 0 1
29.832347 10.580712 -6.088933 32.233453 0.340831 1.760839 0.027352 -0.014220 405243.000000 0 0 1
28.772117 9.653712 -5.902633 30.917147 0.323720 1.762893 0.019094 -0.012002 1294360.000000 0 0 1
27.608777 10.136112 -6.611733 30.144657 0.351856 1.791928 0.005124 -0.011400 -46567.100000 0 0 1
26.324717 9.352212 -6.611133 28.708216 0.341356 1.803169 0.013670 -0.003492 -900319.000000 0 0 1
26.363387 8.241512 -7.455733 28.610115 0.302987 1.834438 0.007434 -0.006403 717547.000000 0 0 1
25.168687 7.459512 -7.412633 27.277358 0.288133 1.846008 0.002246 -0.008803 71232.500000 0 0 1
25.092587 6.400912 -8.543133 27.268933 0.249765 1.889454 -0.005503 -0.008555 -397143.000000 0 0 1
26.092717 5.409712 -8.380833 27.934445 0.204430 1.875508 0.011002 -0.008910 604424.000000 0 0 1
26.072737 4.439512 -9.470533 28.092488 0.168657 1.914652 -0.003816 -0.004785 -754076.000000 0 0 1
26.929387 3.192812 -9.328333 28.677582 0.118011 1.902107 0.010493 -0.002143 -143730.000000 0 0 1
28.314267 3.429512 -9.649233 30.109251 0.120536 1.897026 0.046510 0.002919 1248280.000000 0 0 1
29.240097 3.171512 -8.603433 30.644099 0.108042 1.855375 0.026058 -0.009542 4237.240000 0 0 1
29.443797 1.661612 -8.332133 30.645107 0.056374 1.846154 0.034681 -0.009456 -1041690.000000 0 0 1
28.354927 1.076112 -7.643033 29.386661 0.037933 1.833907 0.040397 -0.008610 199118.000000 0 0 1
28.641917 -0.185688 -7.058733 29.499485 -0.006483 1.812424 0.037112 -0.007907 -429662.000000 0 0 1
28.425537 -1.396088 -7.936233 29.545626 -0.049074 1.842745 0.024371 -0.005294 -527081.000000 0 0 1
29.323167 -1.468088 -9.032933 30.718029 -0.050024 1.869268 0.046499 -0.007963 226507.000000 0 0 1
29.389867 -2.765388 -9.520233 31.016874 -0.093817 1.882770 0.015463 0.000869 250473.000000 0 0 1
30.384067 -3.140788 -10.699533 32.365662 -0.103004 1.907717 0.016745 0.007789 554050.000000 0 0 1
31.736477 -3.240288 -10.296233 33.521871 -0.101747 1.882993 0.039386 -0.004455 225201.000000 0 0 1
32.583827 -3.540788 -11.388933 34.697994 -0.108242 1.905226 0.010068 0.002995 193642.000000 0 0 1
34.001787 -4.013288 -11.008633 35.964121 -0.117488 1.881890 0.024789 -0.003845 57410.500000 0 0 1
33.926077 -5.257088 -10.371233 35.863326 -0.153734 1.864174 0.015891 -0.006584 200616.000000 0 0 1
-35.169004 -5.514788 -9.810133 36.925742 0.155542 1.839697 0.026924 -0.012344 -115036.000000 0 0 1
-35.040256 -6.840888 -9.031533 36.826429 0.192804 1.818570 0.027168 -0.016204 -487676.000000 0 0 1
34.581546 -6.937288 -7.866733 36.137166 -0.197979 1.790244 0.029302 -0.015529 194819.000000 0 0 1
34.562775 -8.269788 -7.374233 36.295373 -0.234853 1.775394 0.032107 -0.015731 -287439.000000 0 0 1
34.416040 -8.416688 -5.889033 35.916363 -0.239849 1.735505 0.044886 -0.017003 -491951.000000 0 0 1
-34.717900 -8.284088 -5.196133 36.068802 0.234232 1.715361 0.040712 -0.014153 349034.000000 0 0 1
-34.705024 -8.973388 -3.954833 36.063847 0.253020 1.680679 0.068041 -0.025416 -238294.000000 0 0 1
-34.270813 -10.460788 -3.978033 36.051927 0.296256 1.681363 0.067265 -0.031313 -392641.000000 0 0 1
-35.093866 -11.192888 -4.819733 37.149562 0.308742 1.700902 0.055760 -0.030788 278377.000000 0 0 1
-34.256465 -11.942388 -5.711533 36.725300 0.335442 1.726951 0.038829 -0.022125 12695.000000 0 0 1
-34.985090 -12.539188 -6.934933 37.805834 0.344152 1.755276 0.031596 -0.021038 -152835.000000 0 0 1
-35.173249 -11.574388 -7.930633 37.868441 0.317907 1.781784 0.029888 -0.015011 269998.000000 0 0 1
34.553720 -12.149788 -9.074033 37.734798 -0.338118 1.813645 0.026233 -0.011834 122982.000000 0 0 1
34.980078 -11.386688 -10.329833 38.209527 -0.314701 1.844550 0.010988 -0.016951 -393690.000000 0 0 1
34.228597 -10.231388 -10.499033 37.235841 -0.290460 1.856633 0.006910 -0.012088 137972.000000 0 0 1
34.179647 -9.802588 -11.813833 37.468729 -0.279299 1.891567 0.005378 -0.016151 -537961.000000 0 0 1
33.385767 -8.539688 -12.090133 36.519954 -0.250419 1.908218 0.000977 -0.002768 -391315.000000 0 0 1
33.370257 -8.293088 -13.468633 36.929032 -0.243583 1.944125 0.005719 0.004256 467004.000000 0 0 1
32.547557 -7.206488 -13.862533 36.103279 -0.217899 1.964887 0.008189 0.004302 76342.800000 0 0 1
32.864447 -6.660088 -15.321633 36.867073 -0.199945 1.999389 0.003109 0.005996 457956.000000 0 0 1
33.842437 -5.608988 -15.391833 37.598934 -0.164245 1.992559 -0.001941 0.004950 433400.000000 0 0 1
33.220827 -4.389988 -15.685733 36.999156 -0.131384 2.008597 0.009992 0.003325 399.056000 0 0 1
34.150607 -3.131988 -15.825633 37.769352 -0.091455 2.003148 0.003929 -0.005323 -322696.000000 0 0 1
34.871471 -3.214188 -17.058933 38.953276 -0.091913 2.024095 0.006723 -0.006856 865173.000000 0 0 1
-34.131752 -2.766288 -16.851233 38.165336 0.080871 2.028102 0.014379 -0.010163 796345.000000 0 0 1
-33.896000 -1.257988 -16.616933 37.770939 0.037096 2.026328 0.011698 -0.006090 -1018240.000000 0 0 1
-34.087684 -0.467288 -17.728233 38.424976 0.013708 2.050338 0.005835 -0.008024 113282.000000 0 0 1
-33.862520 0.828412 -17.332933 38.049798 -0.024459 2.043767 0.014153 -0.008717 -427542.000000 0 0 1
-34.128119 1.839812 -18.406833 38.819131 -0.053857 2.064816 0.010435 -0.012443 -226526.000000 0 0 1
-33.183590 1.911212 -19.445033 38.508605 -0.057532 2.100124 0.000747 -0.013074 146674.000000 0 0 1
-33.368700 3.118412 -20.115233 39.087303 -0.093183 2.111364 0.000334 -0.004680 45456.900000 0 0 1
-32.390940 3.364112 -21.306633 38.916100 -0.103489 2.150172 -0.006207 0.002034 267841.000000 0 0 1
-31.083560 3.781812 -20.941833 37.670282 -0.121071 2.160271 -0.000890 0.005054 101933.000000 0 0 1
-30.498970 4.362712 -22.076433 37.902366 -0.142081 2.192542 -0.006853 0.006809 -611923.000000 0 0 1
-29.121210 4.993012 -21.815733 36.727391 -0.169805 2.206807 0.006796 0.001409 7847.690000 0 0 1
-28.254000 3.921012 -21.441533 35.684761 -0.137896 2.215372 0.014814 0.003383 1700500.000000 0 0 1
-26.934850 4.378312 -20.973133 34.416974 -0.161143 2.226079 0.006969 0.017011 1962480.000000 0 0 1
-26.030910 3.271412 -20.262033 33.149063 -0.125019 2.228423 0.023807 0.008722 367022.000000 0 0 1
-26.603230 2.780512 -19.066633 32.848129 -0.104140 2.190075 0.028203 -0.005003 374208.000000 0 0 1
-25.754440 1.832512 -18.403333 31.706970 -0.071034 2.190040 0.034468 -0.008441 583259.000000 0 0 1
-24.679040 2.371412 -17.409133 30.294497 -0.095796 2.182989 0.052703 -0.014945 72133.700000 0 0 1
-23.595540 3.085312 -17.929833 29.795093 -0.130021 2.216513 0.054171 -0.012873 -409559.000000 0 0 1
-22.677540 3.290712 -16.905533 28.476247 -0.144103 2.206410 0.066232 -0.014970 -33966.500000 0 0 1
-21.567640 4.363812 -17.085533 27.858955 -0.199636 2.231012 0.054192 -0.014523 -110960.000000 0 0 1
-20.397740 3.881112 -17.669033 27.263997 -0.188024 2.275846 0.056333 -0.019727 -489341.000000 0 0 1
-19.406040 4.913512 -17.724233 26.737341 -0.247983 2.295484 0.040578 -0.017800 -393904.000000 0 0 1
-18.146540 4.227112 -18.252133 26.082671 -0.228862 2.345886 0.030733 -0.018873 -821075.000000 0 0 1
-17.705240 3.331012 -17.257033 24.947472 -0.185963 2.334685 0.026390 -0.016409 199118.000000 0 1 0
-16.762040 2.369212 -17.761733 24.536876 -0.140414 2.380205 0.014977 -0.011875 -797445.000000 0 1 0
-16.747340 0.885212 -17.198333 24.021650 -0.052808 2.368782 0.002612 -0.015313 187276.000000 0 1 0
-17.748640 -0.007288 -17.754533 25.104536 0.000411 2.356360 0.001083 -0.013850 256971.000000 0 0 1
-19.056940 0.458312 -17.538733 25.903362 -0.024045 2.314588 0.023112 -0.020871 -1136730.000000 0 0 1
-20.063540 -0.643888 -17.977733 26.947340 0.032081 2.301163 0.018765 -0.021189 -222821.000000 0 0 1
-20.027740 -1.852688 -17.255033 26.500547 0.092244 2.279855 0.005437 -0.017818 1173730.000000 0 0 1
-21.231040 -2.605788 -17.548333 27.667511 0.122124 2.257844 0.034929 -0.013282 856188.000000 0 0 1
-21.323240 -3.857088 -16.670833 27.339977 0.178952 2.226554 0.036965 -0.017074 14520.400000 0 0 1
-21.572640 -3.556388 -15.320133 26.697063 0.163387 2.181997 0.034422 -0.018344 260255.000000 0 0 1
-22.251340 -4.582588 -14.614333 27.012978 0.203107 2.142436 0.041811 -0.018475 124741.000000 0 0 1
-22.356140 -4.234688 -13.087433 26.249009 0.187202 2.092765 0.031586 -0.016470 -135012.000000 0 0 1
-23.233140 -3.153388 -12.933233 26.776691 0.134904 2.074878 0.032108 -0.021649 206376.000000 0 0 1
-23.464240 -2.797488 -11.623033 26.334225 0.118663 2.027917 0.033014 -0.028734 -170391.000000 0 0 1
-24.309040 -1.496488 -11.455233 26.914518 0.061483 2.010438 0.066142 -0.039283 28971.500000 0 0 1
-24.716840 -1.129788 -10.126133 26.734569 0.045677 1.959258 0.063579 -0.040257 785892.000000 0 0 1
-25.557090 0.017312 -10.116733 27.486605 -0.000677 1.947719 0.074053 -0.040198 -387381.000000 0 0 1
-25.939780 0.381112 -8.691233 27.359733 -0.014691 1.894062 0.087785 -0.026988 -510604.000000 0 0 1
-24.907040 0.769112 -7.827233 26.119298 -0.030870 1.875146 0.064810 -0.021588 377488.000000 0 0 1
-25.420650 0.980712 -6.557433 26.271109 -0.038560 1.823070 0.060127 -0.023079 156495.000000 0 0 1
-24.276440 1.468612 -5.627833 24.963471 -0.060422 1.798194 0.037244 -0.017995 173511.000000 0 1 0
-23.972340 2.801112 -5.926233 24.852355 -0.116320 1.811574 0.054905 -0.017143 912228.000000 0 1 0
-22.635640 3.192412 -5.556433 23.525255 -0.140111 1.809239 0.045468 -0.010398 632798.000000 0 1 0
-22.311240 4.697712 -5.599433 23.477938 -0.207522 1.811615 0.066482 -0.024279 -161783.000000 0 1 0
-22.845740 5.384312 -4.435533 23.887080 -0.231457 1.757568 0.070136 -0.024418 815092.000000 0 1 0
-22.539140 6.734812 -4.567533 23.963157 -0.290360 1.762576 0.078874 -0.021664 -497197.000000 0 1 0
-22.976840 7.761712 -3.451733 24.496812 -0.325770 1.712172 0.066550 -0.012960 -362899.000000 0 1 0
-22.286940 7.754512 -2.207733 23.700511 -0.334838 1.664083 0.052259 -0.019113 1289380.000000 0 1 0
-20.897240 8.116312 -2.155433 22.521436 -0.370459 1.666649 0.060901 -0.019664 611935.000000 0 1 0
-20.448740 9.562912 -2.461033 22.708081 -0.437437 1.679387 0.048498 -0.015832 -603324.000000 0 1 0
-20.371940 9.921812 -3.835233 22.981891 -0.453221 1.738461 0.044165 -0.010450 505017.000000 0 1 0
-19.853740 11.234312 -3.987633 23.157763 -0.514933 1.743853 0.047589 -0.003718 -299472.000000 0 1 0
-19.650140 11.599012 -5.486033 23.468312 -0.533239 1.806743 0.046857 -0.004633 -899992.000000 0 1 0
-18.396640 11.322612 -6.001433 22.419971 -0.551718 1.841783 0.021704 0.003604 -484191.000000 0 1 0
-18.405640 11.778612 -7.349533 23.054694 -0.569275 1.895246 0.031024 0.003432 -193614.000000 0 1 0
-17.134740 11.344912 -8.122633 22.097138 -0.584834 1.947210 0.023164 0.005107 -114341.000000 0 1 0
-16.973540 9.969312 -8.513033 21.446678 -0.531062 1.978976 0.023679 0.003840 233527.000000 0 1 0
-17.955740 9.450712 -9.390333 22.358509 -0.484492 2.004230 0.037772 0.004764 -67139.800000 0 1 0
-17.988740 10.011512 -10.804533 23.250012 -0.507853 2.054104 0.041899 0.007609 290633.000000 0 1 0
-16.999940 9.436312 -11.669533 22.676418 -0.506734 2.111350 0.036369 0.005301 306363.000000 0 1 0
-16.930140 10.178112 -12.864733 23.573819 -0.541289 2.148046 0.031958 0.005850 -504037.000000 0 1 0
-15.781740 9.870212 -13.818133 23.182433 -0.558901 2.209382 0.020840 0.007888 -719407.000000 0 1 0
-15.750040 8.653512 -14.547433 23.120874 -0.502404 2.251308 0.016324 -0.001243 -13350.600000 0 1 0
-15.664840 7.514112 -13.745933 22.154001 -0.447260 2.240140 0.011921 0.003750 -454345.000000 0 1 0
-15.373240 6.290612 -14.597933 22.113524 -0.388406 2.291796 0.004093 0.004278 -763511.000000 0 1 0
-14.170740 6.178612 -15.288433 21.742155 -0.411161 2.350643 -0.001151 -0.005936 -44337.900000 0 1 0
-14.357140 5.068812 -16.135233 22.184816 -0.339391 2.385190 -0.006189 -0.003693 120340.000000 0 1 0
31.388397 -16.075888 28.537384 45.365713 -0.473328 0.890463 0.003444 0.017723 -19020.100000 0 0 1
30.822657 -14.832088 28.926884 44.797228 -0.448501 0.868818 0.000556 0.014891 122942.000000 0 0 1
29.695417 -14.920488 29.797534 44.635544 -0.465606 0.839851 0.017521 0.003689 388739.000000 0 0 1
29.928447 -14.974588 31.332754 45.844211 -0.463925 0.818302 0.026920 -0.006786 -26865.500000 0 0 1
30.474847 -13.749888 31.799064 46.140613 -0.423841 0.810443 0.031575 -0.008036 14503.400000 0 0 1
30.415017 -13.655388 33.201022 47.051575 -0.421996 0.787484 0.028179 -0.018844 -137471.000000 0 0 1
30.835527 -12.267788 33.726733 47.316180 -0.378648 0.777321 0.038443 -0.024561 77395.700000 0 0 1
30.671047 -12.101188 -33.935703 47.315788 -0.375797 2.370597 0.027007 -0.029552 -7788.690000 0 0 1
31.088587 -10.853388 -33.530533 46.995669 -0.335883 2.365251 0.027242 -0.027676 -337912.000000 0 0 1
30.619367 -10.487488 -32.098043 45.583082 -0.329988 2.352044 0.021971 -0.028296 -465599.000000 0 0 1
29.246327 -10.359188 -31.892513 44.494863 -0.340416 2.369953 0.046076 -0.033073 -356153.000000 0 0 1
29.019457 -9.952288 -30.562423 43.304025 -0.330382 2.354297 0.023698 -0.025605 448016.000000 0 0 1
27.526747 -9.514988 -30.286993 42.018552 -0.332806 2.375753 0.004415 -0.007502 878774.000000 0 0 1
27.241087 -9.555588 -28.924843 40.866033 -0.337368 2.357171 -0.003518 -0.015926 149505.000000 0 0 1
26.442617 -10.708888 -28.687923 40.458487 -0.384797 2.358976 0.014417 -0.011024 -690162.000000 0 0 1
25.971377 -10.876788 -27.184583 39.138453 -0.396607 2.338625 0.012026 -0.006569 -259662.000000 0 0 1
25.171787 -9.777388 -26.595283 37.901520 -0.370490 2.348569 -0.001811 -0.013229 1118530.000000 0 0 1
23.948487 -9.421288 -27.221483 37.460644 -0.374802 2.384257 0.003816 -0.014117 -186867.000000 0 0 1
22.840887 -10.474288 -27.271983 37.083391 -0.429963 2.397087 0.012584 -0.003784 -1476960.000000 0 0 1
23.138987 -11.561488 -28.046693 38.153607 -0.463371 2.396610 0.015810 -0.011036 -224653.000000 0 0 1
22.451987 -12.752688 -27.663773 37.841870 -0.516556 2.390635 0.017430 -0.022137 -283359.000000 0 0 1
23.096987 -13.955688 -28.286913 39.094520 -0.543517 2.379730 0.009329 0.002082 -27535.900000 0 0 1
22.949787 -14.040088 -29.656143 40.041274 -0.549032 2.404818 0.012345 -0.014640 1224000.000000 0 0 1
24.107987 -14.745688 -30.217973 41.373376 -0.548943 2.389663 0.001724 -0.009378 1096150.000000 0 0 1
24.209687 -14.745988 -31.758883 42.569705 -0.547080 2.412898 0.016229 -0.022647 -196931.000000 0 0 1
23.122687 -15.459588 -32.326673 42.645882 -0.589333 2.431077 0.017992 -0.013479 156838.000000 0 0 1
23.178087 -15.801688 -33.734713 43.874228 -0.598373 2.447909 0.024067 -0.012902 -290441.000000 0 0 1
23.359887 -14.659288 34.339682 44.043079 -0.560424 0.676635 0.012000 -0.011768 -251730.000000 0 0 1
22.349287 -13.637988 34.193432 43.065951 -0.547901 0.653471 0.018175 -0.016392 227648.000000 0 0 1
22.473987 -12.906488 32.965994 41.933451 -0.521297 0.666241 0.013216 -0.014280 -225897.000000 0 0 1
21.477887 -11.702288 32.899464 40.995340 -0.498883 0.639294 0.021295 -0.021525 843226.000000 0 0 1
20.096487 -12.036788 32.807314 40.312193 -0.539647 0.620082 0.020588 -0.010757 565702.000000 0 0 1
19.617087 -12.396688 31.498054 39.123335 -0.563569 0.634958 0.015281 -0.002863 435071.000000 0 0 1
18.059387 -12.580688 31.658784 38.557668 -0.608460 0.607502 0.013833 0.001470 1036040.000000 0 0 1
17.346187 -11.347188 31.726884 37.897810 -0.579294 0.578709 0.024707 -0.006344 47902.700000 0 0 1
16.341187 -11.376888 32.724074 38.305783 -0.608177 0.546622 0.015190 -0.004740 -109790.000000 0 0 1
15.653087 -10.033188 32.883974 37.776179 -0.570002 0.514589 0.019034 -0.007993 -825399.000000 0 0 1
14.736287 -9.788188 31.829464 36.415403 -0.586309 0.507287 0.011946 -0.010750 221164.000000 0 0 1
13.983287 -8.571688 31.918854 35.886200 -0.549920 0.474664 0.019368 -0.004725 880007.000000 0 0 1
12.855887 -8.585288 33.015384 36.455405 -0.588794 0.437916 0.014218 -0.004795 -400116.000000 0 0 1
11.846287 -9.572688 32.850104 36.209118 -0.679645 0.434138 0.002230 -0.000722 776768.000000 0 0 1
10.726287 -9.551488 33.743368 36.672865 -0.727528 0.402414 -0.017380 0.007996 1011090.000000 0 0 1
9.622787 -8.556888 33.218860 35.627391 -0.726834 0.369808 -0.040281 0.010212 -269782.000000 0 0 1
9.992587 -7.213288 33.439634 35.638356 -0.625249 0.353102 -0.000700 0.004062 693085.000000 0 0 1
8.998287 -6.389388 32.828614 34.633962 -0.617451 0.324302 -0.012394 0.012218 -59537.800000 0 0 1
9.517787 -4.966988 32.662004 34.381183 -0.480985 0.317572 0.007225 0.007783 -340903.000000 0 0 1
9.727087 -4.352188 33.889543 35.525468 -0.420714 0.304655 0.014356 -0.004638 316112.000000 0 0 1
10.159887 -2.997788 33.840796 35.459970 -0.286920 0.303361 0.004219 -0.006625 -328939.000000 0 0 1
10.131687 -2.226288 -33.929223 35.479566 -0.216298 2.844881 0.004772 -0.009387 -108613.000000 0 0 1
8.840187 -1.702788 -33.699653 34.881442 -0.190288 2.880544 0.011482 0.000312 120488.000000 0 0 1
8.773587 -0.937188 -32.484893 33.661884 -0.106416 2.876373 0.016349 -0.003325 491354.000000 0 0 1
7.264587 -0.638688 -32.226593 33.041420 -0.087692 2.919049 0.020901 -0.003275 411393.000000 0 0 1
6.724287 0.465812 -32.907313 33.590538 0.069163 2.939557 0.023568 -0.001735 483572.000000 0 0 1
5.307987 0.526912 -32.728653 33.160475 0.098944 2.980034 0.033061 -0.000902 704128.000000 0 0 1
4.603987 1.523312 -33.679383 34.026725 0.319530 2.998587 0.028559 -0.000780 -291405.000000 0 0 1
5.072987 2.820212 -33.483623 33.982963 0.507383 2.969954 0.029534 -0.004545 -82354.600000 0 0 1
4.631187 3.647112 34.549953 35.049231 0.667079 0.168991 0.022743 -0.000262 145.888000 0 0 1
5.254487 5.045112 34.447559 35.209333 0.765073 0.208394 0.022263 -0.002540 -182069.000000 0 0 1
4.979287 5.696612 33.214659 34.065499 0.852488 0.223970 0.022164 -0.016447 252030.000000 0 0 1
5.745387 6.915512 33.066936 34.267419 0.877557 0.265478 0.020554 -0.014576 -204835.000000 0 0 1
5.266087 7.931912 32.046444 33.430846 0.984704 0.288790 0.029135 -0.011813 -52124.300000 0 0 1
3.998987 8.486112 32.408174 33.738639 1.130421 0.281767 0.033764 -0.011080 225522.000000 0 0 1
3.731087 9.660012 31.610284 33.263296 1.202208 0.316582 0.033543 -0.025696 63682.600000 0 0 1
3.430287 9.454812 30.013164 31.653599 1.222757 0.323353 0.031583 -0.029438 -922659.000000 0 0 1
2.267087 8.739212 29.784884 31.123188 1.316976 0.294319 0.044813 -0.028522 -797337.000000 0 0 1
1.988487 8.544412 28.400954 29.724994 1.342143 0.299592 0.021036 -0.014680 163895.000000 0 0 1
0.566487 7.973512 28.128054 29.241840 1.499869 0.276887 0.024214 -0.014019 -132241.000000 0 0 1
-0.456613 8.810412 28.549834 29.881849 -1.519016 0.299704 0.037930 -0.013614 -760712.000000 0 0 1
-1.630013 8.441012 27.846174 29.143044 -1.380038 0.299447 0.040524 -0.013568 166196.000000 0 0 1
-2.948013 8.659912 28.599634 30.027053 -1.242681 0.309578 0.024185 -0.010591 -392968.000000 0 0 1
-3.220013 10.021912 28.918094 30.774395 -1.259917 0.349102 0.037616 -0.006547 -97690.900000 0 0 1
-4.576013 10.014212 29.318044 31.317280 -1.142176 0.359247 0.022978 0.001743 -185351.000000 0 0 1
-4.952113 11.335212 30.025524 32.473721 -1.158907 0.390786 0.009231 0.004970 -96175.800000 0 0 1
-5.095913 12.505512 29.165094 32.139677 -1.183847 0.433626 0.013476 -0.006581 865600.000000 0 0 1
-6.214513 12.509012 28.240054 31.505495 -1.109710 0.459322 0.011355 -0.009111 551508.000000 0 0 1
-6.372013 13.946112 27.602824 31.575504 -1.142217 0.507042 -0.004392 -0.003254 337424.000000 0 0 1
-5.279313 14.353712 26.781934 30.841079 -1.218352 0.518860 -0.009484 0.003629 284621.000000 0 0 1
-5.565213 15.662112 26.327864 31.135667 -1.229381 0.563136 -0.031436 0.010822 611615.000000 0 0 1
-4.345913 16.472012 25.726644 30.855702 -1.312838 0.584890 0.001816 0.010062 524844.000000 0 0 1
-4.035913 16.023612 24.417854 29.483492 -1.324056 0.594931 -0.009525 0.009372 -120074.000000 0 0 1
-3.177613 16.949412 23.799064 29.390053 -1.385471 0.627043 0.003967 0.012224 -77952.500000 0 0 1
-2.982013 16.676112 22.222364 27.943131 -1.393847 0.651342 0.002511 0.006052 -481984.000000 0 0 1
-2.232813 15.586112 21.848664 26.930957 -1.428508 0.624451 -0.011764 0.002422 -361541.000000 0 0 1
-2.077113 15.529612 20.427764 25.744452 -1.437834 0.654287 -0.014561 0.003943 106169.000000 0 0 1
-1.207513 14.275712 20.054564 24.646289 -1.486412 0.620316 -0.006790 -0.006751 -45214.500000 0 1 0
-1.739513 12.981212 20.209364 24.082279 -1.437588 0.575023 -0.002168 -0.002195 -291240.000000 0 1 0
-0.971513 12.037612 19.502864 22.939260 -1.490264 0.554439 0.000759 -0.005166 -270338.000000 0 1 0
-1.759213 10.773012 19.089164 21.989743 -1.408927 0.519447 -0.002287 -0.011418 -465608.000000 0 1 0
-1.821713 9.700812 20.058164 22.355186 -1.385169 0.457298 0.000482 -0.021923 733843.000000 0 1 0
-2.731413 9.888612 21.188064 23.541014 -1.301298 0.450915 0.007020 -0.011554 105244.000000 0 1 0
-4.244313 9.941912 20.989064 23.609248 -1.167308 0.475599 0.013351 -0.007137 -514521.000000 0 1 0
-4.905413 8.687312 20.815464 23.082808 -1.056764 0.446941 0.021632 -0.015083 -1161690.000000 0 1 0
-6.264413 8.825912 20.909764 23.544804 -0.953540 0.477636 0.027114 -0.005066 -1388990.000000 0 1 0
-7.058213 7.563512 21.132964 23.529285 -0.819943 0.455239 0.026456 -0.002583 -331991.000000 0 1 0
-6.861213 6.980912 22.420564 24.464077 -0.794045 0.411633 0.027741 -0.003221 270731.000000 0 1 0
-7.520813 5.707312 22.448964 24.353481 -0.649153 0.398106 0.028886 -0.000352 227549.000000 0 1 0
-7.433213 4.870312 23.714364 25.324763 -0.580029 0.358540 0.021235 -0.005452 139298.000000 0 0 1
-8.246913 5.458112 24.770064 26.671307 -0.584652 0.379862 0.024068 0.003155 462861.000000 0 0 1
-8.458613 4.600912 25.890074 27.622680 -0.498173 0.356064 0.027728 0.003298 -790867.000000 0 0 1
-9.388513 5.249612 26.887194 28.959002 -0.509843 0.380559 0.012851 0.001856 -656861.000000 0 0 1
-9.102313 6.573312 27.295274 29.514276 -0.625443 0.390245 -0.000962 0.004620 11370.700000 0 0 1
-10.040513 6.992412 28.302244 30.833792 -0.608319 0.408049 -0.010418 0.009621 357738.000000 0 0 1
-9.705113 8.290612 29.028794 31.711107 -0.706957 0.414261 0.011754 -0.002856 421394.000000 0 0 1
-8.663913 8.031912 29.986604 32.229977 -0.747562 0.375308 0.012684 -0.002335 526472.000000 0 0 1
-8.369013 9.187012 30.748494 33.164913 -0.831958 0.384091 0.015177 -0.008215 121571.000000 0 0 1
-7.512013 8.821912 32.003414 34.036377 -0.865422 0.347371 0.018265 -0.006431 -195397.000000 0 0 1
-6.191913 8.505912 31.699024 33.399378 -0.941555 0.320461 0.015119 -0.007175 -949589.000000 0 0 1
-5.385313 8.162212 32.789834 34.216904 -0.987572 0.289827 0.034156 -0.007146 617588.000000 0 0 1
-3.887213 7.951912 32.422234 33.608698 -1.116117 0.266503 0.014491 -0.001278 636561.000000 0 0 1
-3.189613 9.119212 32.058524 33.482572 -1.234328 0.292698 0.007138 -0.001084 -582441.000000 0 0 1
-1.795513 8.953212 32.100594 33.374122 -1.372878 0.277144 0.025579 -0.008319 35845.700000 0 0 1
-1.049713 10.211812 31.557874 33.185575 -1.468362 0.314499 0.028982 -0.010114 49107.600000 0 0 1
-1.221413 11.288112 32.469324 34.397243 -1.463012 0.336393 0.030256 -0.017142 79741.000000 0 0 1
-1.385613 12.458512 31.657984 34.049411 -1.460033 0.377020 0.031492 -0.015744 -102656.000000 0 0 1
-1.515313 13.673412 32.642564 35.423091 -1.460425 0.398858 0.020387 -0.026562 461814.000000 0 0 1
-0.326313 14.018312 33.370432 36.196758 -1.547523 0.397794 0.025541 -0.016969 546232.000000 0 0 1
-0.701013 14.837712 34.518131 37.578591 -1.523586 0.406378 0.025516 -0.016565 465639.000000 0 0 1
0.583987 15.245812 -33.822893 37.104769 1.532510 2.717837 0.007469 -0.016461 115478.000000 0 0 1
1.329987 16.178712 34.548138 38.171893 1.488775 0.439258 0.015220 -0.016330 185583.000000 0 0 1
2.610187 16.372812 -33.967663 37.797939 1.412705 2.687511 0.022887 -0.018377 592961.000000 0 0 1
3.557587 17.329512 34.328541 38.618870 1.368319 0.475845 0.027494 -0.014695 -214017.000000 0 0 1
3.171587 18.672912 34.290903 39.174005 1.402552 0.504640 0.020243 -0.012719 28305.100000 0 0 1
4.042487 19.510512 33.539726 39.011729 1.366492 0.536047 0.008100 0.001114 -46473.900000 0 0 1
3.570787 20.963112 33.546162 39.718353 1.402079 0.564977 0.011336 -0.008752 -178143.000000 0 0 1
3.710987 21.506412 -34.275826 40.634092 1.399926 2.574607 0.015170 -0.016847 270388.000000 0 0 1
3.366187 22.901812 -34.207602 41.303562 1.424858 2.546684 0.006707 -0.012169 55952.700000 0 0 1
3.485887 23.465812 -32.778353 40.462528 1.423323 2.515105 0.012703 -0.016394 -185665.000000 0 0 1
2.860487 24.688512 -32.535003 40.941805 1.455448 2.489251 0.006345 -0.017045 95380.900000 0 0 1
2.972587 24.970312 -31.166353 40.046152 1.452309 2.462688 0.019385 -0.010768 -63252.800000 0 0 1
2.332787 26.336412 -30.760483 40.561753 1.482450 2.431592 0.010103 -0.012670 -227997.000000 0 0 1
3.114887 27.467412 -31.056833 41.577495 1.457876 2.414278 0.005076 -0.006082 -6325.590000 0 0 1
2.592587 28.605012 -30.489943 41.888004 1.480409 2.386039 -0.005786 -0.003936 285625.000000 0 0 1
3.708887 29.714712 -30.476063 42.725992 1.446622 2.364979 0.001225 -0.006663 1519700.000000 0 0 1
4.716587 29.630712 -29.408013 42.012576 1.412942 2.346167 0.028414 -0.020747 766501.000000 0 0 1
5.216987 30.904212 -29.055893 42.737948 1.403561 2.318370 0.057101 -0.022789 -882484.000000 0 0 1
6.359087 30.725512 -28.042733 42.081943 1.366713 2.300145 0.072727 -0.037781 209885.000000 0 0 1
7.593887 30.328912 -28.614303 42.382642 1.325456 2.311954 0.079376 -0.033904 518255.000000 0 0 1
8.598687 31.253812 -29.046853 43.525370 1.302314 2.301447 0.088533 -0.038788 372312.000000 0 0 1
8.248087 32.414112 -30.072763 44.978625 1.321625 2.303122 0.086710 -0.041493 -609590.000000 0 0 1
7.436687 33.425612 -29.443093 45.160509 1.351877 2.280970 0.070341 -0.038169 489880.000000 0 0 1
6.987687 34.541112 -30.242343 46.438298 1.371190 2.280010 0.080822 -0.037061 363264.000000 0 0 1
5.774187 34.294412 -31.184273 46.710885 1.403990 2.301779 0.027385 -0.017611 -8979.950000 0 0 1
6.157287 33.601712 -32.341523 47.042123 1.389564 2.328839 0.027266 -0.024353 95966.900000 0 0 1
5.029187 33.226412 -33.091643 47.162952 1.420575 2.348500 0.014680 -0.012943 -144499.000000 0 0 1
5.417587 32.758312 -34.465607 47.857448 1.406899 2.374847 0.006742 -0.004638 -106770.000000 0 0 1
5.695487 33.778112 33.751405 48.089050 1.403753 0.792802 0.010435 -0.018904 16103.200000 0 0 1
5.908087 33.168512 32.483394 46.799857 1.394522 0.803639 0.007629 -0.017978 192589.000000 0 0 1
5.090887 33.826712 31.283364 46.355285 1.421418 0.830020 -0.010530 -0.028952 324696.000000 0 0 1
5.604287 -34.062218 30.819654 46.276277 -1.407726 0.841973 -0.011524 -0.020436 113395.000000 0 0 1
4.940887 -33.713418 29.632054 45.156014 -1.425277 0.855005 -0.023032 -0.015837 103351.000000 0 0 1
18.001060 -22.852888 28.905354 41.009903 -0.903605 0.788601 0.029480 0.015422 -533369.000000 0 0 1
17.193360 -21.941788 29.592154 40.654019 -0.906142 0.755539 -0.000190 0.015142 461051.000000 0 0 1
15.812660 -22.144888 29.267024 39.962419 -0.950700 0.749010 -0.020212 0.015554 1073280.000000 0 0 1
14.923460 -22.170388 30.565964 40.601895 -0.978335 0.718459 -0.009757 0.017933 51418.200000 0 0 1
15.245760 -23.366288 31.261774 41.901254 -0.992688 0.728638 0.033089 0.008536 271004.000000 0 0 1
14.878560 -23.265388 32.634954 42.751491 -1.001827 0.702291 0.020117 0.012413 -185994.000000 0 0 1
15.576160 -24.368288 33.465923 44.231190 -1.002052 0.712678 0.048443 -0.001822 -10974.300000 0 0 1
15.130160 -25.763788 33.232846 44.689110 -1.039794 0.732290 0.057762 -0.010737 338663.000000 0 0 1
15.805360 -26.585748 34.207002 46.116487 -1.034427 0.735117 0.051221 -0.012496 402690.000000 0 0 1
15.488160 -28.084298 33.980288 46.725484 -1.066811 0.756515 0.043917 -0.006441 -13687.000000 0 0 1
16.086460 -28.661488 32.851284 46.470011 -1.059352 0.785641 0.038033 -0.006459 -2711.260000 0 0 1
15.711760 -30.021328 32.705284 47.093260 -1.088641 0.803101 0.041194 -0.003736 -304538.000000 0 0 1
16.274960 -30.693258 31.464604 46.871865 -1.083246 0.834849 0.060028 -0.013296 283381.000000 0 0 1
17.637360 -30.992358 31.767404 47.757415 -1.053417 0.843058 0.054070 -0.024870 351208.000000 0 0 1
18.216460 -31.532268 30.581934 47.553948 -1.046929 0.872257 0.041222 -0.015450 182521.000000 0 0 1
19.541960 -32.330458 30.816464 48.752448 -1.027115 0.886535 0.025174 -0.013878 283693.000000 0 0 1
20.640160 -31.498368 31.114124 48.849279 -0.990720 0.880272 0.010222 -0.015712 -385779.000000 0 0 1
21.827560 -32.219358 31.011274 49.761717 -0.975354 0.897974 0.011395 -0.011104 -757526.000000 0 0 1
23.104160 -31.401658 31.178094 49.919333 -0.936470 0.896216 0.005867 -0.014196 -334402.000000 0 0 1
23.344260 -30.539748 30.078694 48.809410 -0.918149 0.906827 -0.002879 -0.013264 -17028.700000 0 0 1
24.407260 -29.648528 30.299264 48.916203 -0.882056 0.902803 -0.018288 -0.009255 574345.000000 0 0 1
25.639860 -29.771688 29.333964 49.033022 -0.859827 0.929482 -0.006356 -0.007304 783121.000000 0 0 1
26.529760 -30.855128 29.635884 50.340368 -0.860631 0.941334 -0.004231 -0.008572 -162917.000000 0 0 1
27.706960 -30.717008 28.902154 50.463300 -0.836873 0.960957 -0.006202 -0.017746 -796173.000000 0 0 1
28.814160 -31.633348 29.394844 51.913210 -0.832003 0.968871 -0.006588 -0.014063 -420920.000000 0 0 1
28.602360 -33.046858 29.127504 52.522388 -0.857367 0.982946 -0.024418 -0.010226 578953.000000 0 0 1
29.762760 -33.833828 29.446684 53.829889 -0.849325 0.991981 -0.014937 -0.015559 -14726.100000 0 0 1
29.331260 33.884764 29.968444 53.912964 0.857305 0.981391 -0.024829 -0.009713 -739235.000000 0 0 1
28.842160 33.762991 31.319374 54.338871 0.863838 0.956515 0.004506 -0.011838 -222408.000000 0 0 1
27.740560 34.495180 31.685054 54.437108 0.893508 0.949550 0.015890 -0.010487 -316048.000000 0 0 1
26.381760 34.430588 30.910204 53.262589 0.916988 0.951655 0.003913 -0.010205 -168050.000000 0 0 1
25.649060 33.231985 31.102334 52.245519 0.913477 0.933144 -0.006275 -0.005323 -191994.000000 0 0 1
24.392660 33.343751 30.477534 51.338949 0.939207 0.935205 0.002028 -0.004801 -141907.000000 0 0 1
23.640560 32.009823 30.463724 50.115300 0.934670 0.917418 0.020673 -0.015746 -196446.000000 0 0 1
23.979360 31.005193 29.492394 49.052349 0.912488 0.925740 0.016410 -0.015465 269800.000000 0 0 1
23.183560 29.847273 29.724664 48.082146 0.910400 0.904338 0.046811 -0.031190 -50927.200000 0 0 1
22.553660 29.247563 28.427164 46.606772 0.913909 0.914816 0.049120 -0.031937 -40732.900000 0 0 1
21.365160 29.895893 28.029494 46.215658 0.950304 0.919153 0.060180 -0.033215 10110.500000 0 0 1
20.827460 29.326663 26.870724 44.898464 0.953265 0.929197 0.064650 -0.027538 -237226.000000 0 0 1
19.514860 29.982873 26.416854 44.470806 0.993812 0.934741 0.084953 -0.025308 -55522.000000 0 0 1
19.629860 31.184253 25.696054 44.923003 1.008982 0.961852 0.077957 -0.027504 -456274.000000 0 0 1
18.313560 31.547843 25.444154 44.475362 1.044838 0.961738 0.081901 -0.028559 -883104.000000 0 0 1
18.161760 32.878893 24.660734 44.933539 1.066125 0.989836 0.084464 -0.033231 -940482.000000 0 0 1
18.861860 33.057323 23.482664 44.721269 1.052290 1.017976 0.080540 -0.026087 -169601.000000 0 0 1
20.112860 33.656849 23.763464 45.847713 1.032154 1.025919 0.077104 -0.023795 24275.200000 0 0 1
20.907260 34.012502 22.476264 45.816441 1.019643 1.058050 0.078091 -0.024835 200314.000000 0 0 1
20.266060 -34.007552 21.814864 45.200830 -1.033376 1.067152 0.070225 -0.009493 494010.000000 0 0 1
20.760860 -33.922448 20.507764 44.747225 -1.021593 1.094712 0.081594 -0.016549 -55110.000000 0 0 1
20.252060 -32.617748 19.845464 43.219276 -1.015157 1.093723 0.069259 -0.010635 -131614.000000 0 0 1
20.574560 -31.415658 20.569564 42.817789 -0.990974 1.069688 0.067911 -0.005812 168339.000000 0 0 1
20.343660 -30.200668 19.841864 41.468595 -0.977998 1.071874 0.063003 -0.012397 -454904.000000 0 0 1
21.320460 -29.841908 18.720064 41.176963 -0.950440 1.098846 0.048034 -0.009950 -521727.000000 0 0 1
21.023360 -30.352228 17.431964 40.830292 -0.965023 1.129693 0.043212 -0.010471 15325.700000 0 0 1
21.727760 -29.666198 16.451964 40.284562 -0.938650 1.150103 0.028716 -0.008724 -638095.000000 0 0 1
21.510960 -30.098938 15.032164 39.932861 -0.950289 1.184850 0.007664 -0.014470 -339014.000000 0 0 1
22.065860 -31.354698 14.780864 41.091279 -0.957558 1.202841 0.028489 -0.008837 67085.800000 0 0 1
22.172760 -31.609068 13.338264 40.849403 -0.959086 1.238174 0.014112 -0.010421 -508796.000000 0 0 1
20.844060 -31.746108 12.574664 40.005154 -0.989805 1.251050 0.006812 -0.012840 -657880.000000 0 0 1
20.217760 -32.894518 12.985864 40.736222 -1.019693 1.246355 0.009386 -0.011130 -323159.000000 0 0 1
19.015860 -33.091288 12.285164 40.094407 -1.049226 1.259381 0.000896 0.007531 -332739.000000 0 0 1
17.959660 -34.080455 12.811664 40.597605 -1.085800 1.249732 0.010752 0.002057 53651.600000 0 0 1
17.275060 -33.610898 13.980564 40.293626 -1.096034 1.216461 0.012107 -0.000459 404185.000000 0 0 1
18.036460 -33.786298 15.173464 41.195410 -1.080445 1.193585 0.015081 -0.005215 -663157.000000 0 0 1
17.796460 -32.687248 16.219464 40.598536 -1.072227 1.159816 0.024204 -0.007219 839503.000000 0 0 1
16.487560 -32.423478 16.766964 40.053122 -1.100366 1.138873 0.025439 -0.010738 543291.000000 0 0 1
15.802660 -33.423458 17.474564 40.892688 -1.129143 1.129262 0.024177 0.001079 -869154.000000 0 0 1
16.414560 -34.107786 18.682264 42.211442 -1.122256 1.112314 0.021055 -0.010471 -396408.000000 0 0 1
17.054060 33.785475 18.374364 42.070376 1.103336 1.118810 0.026450 -0.009798 -38865.500000 0 0 1
17.630460 33.204146 19.557264 42.377293 1.082679 1.091107 0.032409 -0.015953 134788.000000 0 0 1
18.306960 31.808643 19.354164 41.491182 1.048561 1.085507 0.049254 -0.020144 146727.000000 0 0 1
17.477060 30.749933 18.872764 40.089740 1.053966 1.080641 0.038621 -0.019771 170243.000000 0 0 1
18.295660 29.623313 18.604964 39.476785 1.017529 1.080045 0.037164 -0.023498 715841.000000 0 0 1
17.416360 28.320223 18.444264 38.020461 1.019435 1.064303 0.043431 -0.018809 507764.000000 0 0 1
17.088360 27.689693 19.643564 38.007904 1.017871 1.027654 0.053332 -0.027820 -262849.000000 0 0 1
16.641260 26.406913 19.426964 36.764977 1.008477 1.014070 0.049677 -0.020883 -658828.000000 0 0 1
16.278260 25.570223 20.665264 36.686117 1.003892 0.972423 0.051763 -0.018427 -1014740.000000 0 0 1
15.092560 25.887593 21.282664 36.754654 1.042968 0.953237 0.056192 -0.017931 -1284030.000000 0 0 1
14.210360 24.816053 20.984864 35.470203 1.050747 0.937730 0.045807 -0.013231 862883.000000 0 0 1
12.831560 25.075693 21.758464 35.593118 1.097822 0.913080 0.032894 -0.019900 1007810.000000 0 0 1
12.072660 26.103463 21.189664 35.723126 1.137602 0.935813 0.043862 -0.021052 422870.000000 0 0 1
10.812460 26.373883 21.834764 35.906098 1.181726 0.917122 0.017329 -0.016846 725928.000000 0 0 1
10.057860 27.588303 21.307564 36.280674 1.221201 0.943080 0.001747 -0.007820 -240641.000000 0 0 1
10.596460 28.841543 21.645864 37.585409 1.218703 0.957078 0.011169 -0.009531 -309869.000000 0 0 1
10.360260 29.765803 20.626764 37.666980 1.235852 0.991293 0.006619 -0.007465 -99365.400000 0 0 1
10.913760 31.164883 20.870264 39.063128 1.233949 1.007152 0.007231 -0.008251 -129543.000000 0 0 1
10.212160 31.921993 21.873964 40.022146 1.261175 0.992562 0.006618 -0.007641 23747.700000 0 0 1
10.761560 31.851513 23.220164 40.859590 1.244971 0.966368 0.019086 -0.007477 160578.000000 0 0 1
10.149960 32.960573 24.151784 42.103797 1.272069 0.959872 0.000922 -0.010536 1217220.000000 0 0 1
8.756460 32.682293 24.404944 41.718211 1.309018 0.945922 -0.011906 -0.007603 791946.000000 0 0 1
8.396760 33.262183 25.668824 42.845851 1.323521 0.928423 -0.005411 -0.005732 -229050.000000 0 0 1
7.004460 32.889923 26.228424 42.646685 1.360964 0.908389 0.010513 -0.012182 -240641.000000 0 0 1
5.868260 33.568878 25.712434 42.689991 1.397733 0.924410 0.000026 -0.012689 504711.000000 0 0 1
5.260960 33.098163 24.534824 41.534608 1.413165 0.938860 0.003280 -0.022583 -198517.000000 0 0 1
4.571160 31.696723 24.579224 40.369741 1.427568 0.916183 -0.005662 -0.020169 -680588.000000 0 0 1
5.456860 30.692583 25.045994 39.988921 1.394844 0.893968 -0.011191 -0.016355 -198265.000000 0 0 1
4.937860 29.393663 24.802024 38.775124 1.404360 0.876770 -0.023098 -0.006556 -683940.000000 0 0 1
6.009560 28.281403 25.027614 38.240476 1.361419 0.857302 -0.029969 0.005588 -187337.000000 0 0 1
7.078160 28.195643 24.108344 37.766478 1.324842 0.878440 -0.031321 0.006897 -171019.000000 0 0 1
8.011660 29.221613 24.209304 38.783756 1.303203 0.896673 -0.005965 0.003385 -1573150.000000 0 0 1
9.158660 28.909483 25.188814 39.422273 1.263995 0.877665 -0.002621 -0.006104 -1337760.000000 0 0 1
8.934160 28.742483 26.559384 40.141629 1.269429 0.847790 -0.006921 -0.004194 222168.000000 0 0 1
10.142860 28.677703 27.315634 40.883152 1.230843 0.839091 0.002571 -0.003975 330541.000000 0 0 1
10.860360 30.030833 27.527164 42.160919 1.223789 0.859380 0.008042 -0.016044 -241859.000000 0 0 1
10.209560 30.831803 28.556174 43.246853 1.251024 0.849570 0.009907 -0.011468 591532.000000 0 0 1
10.557060 32.217023 28.372854 44.208675 1.254137 0.873961 -0.007929 0.000511 -365988.000000 0 0 1
9.775260 33.120538 29.324804 45.304193 1.283802 0.866777 0.005937 0.002681 -260870.000000 0 0 1
10.077960 33.116069 30.737554 46.292942 1.275379 0.844668 0.024896 -0.020220 48529.200000 0 0 1
9.640360 31.929093 31.342344 45.768396 1.277570 0.816463 0.019815 -0.010669 -366409.000000 0 0 1
10.015560 31.948883 32.837124 46.896900 1.267013 0.795121 0.032378 -0.022278 -167103.000000 0 0 1
9.824860 30.722453 33.502806 46.506290 1.261280 0.766428 0.029688 -0.019246 18144.000000 0 0 1
10.344060 30.652323 -34.291604 47.143171 1.245333 2.385311 0.052451 -0.021436 -152616.000000 0 0 1
10.411360 29.250303 -33.796093 45.892837 1.228839 2.398550 0.045060 -0.014475 58838.500000 0 0 1
11.486160 28.546163 -34.412297 46.162988 1.188247 2.412009 0.045159 -0.007233 124751.000000 0 0 1
11.414460 27.179513 -34.085077 45.064490 1.173198 2.428530 0.045341 -0.012203 -28299.400000 0 0 1
12.579060 26.303833 34.513656 45.180934 1.124723 0.701463 0.050362 -0.019241 -128184.000000 0 0 1
12.468060 24.883253 -34.344196 44.205798 1.106299 2.460549 0.034108 -0.016327 -220940.000000 0 0 1
12.450760 24.436083 -32.972843 42.887666 1.099559 2.447788 0.035681 -0.012269 -218045.000000 0 0 1
12.583460 22.960843 -32.954323 42.089561 1.069459 2.470202 0.027103 -0.024132 432977.000000 0 0 1
13.901360 22.525743 -33.305403 42.542999 1.017875 2.470053 0.014189 -0.010272 548244.000000 0 0 1
13.849660 21.105343 -33.547023 41.983941 0.990064 2.496500 0.010631 -0.012180 1271110.000000 0 0 1
15.212660 20.477243 -34.122397 42.603761 0.931851 2.499634 0.028716 -0.021121 1179400.000000 0 0 1
16.218560 20.492643 -33.149373 42.212214 0.901301 2.473981 0.021804 -0.021476 -1607180.000000 0 0 1
17.405360 20.126543 -33.693713 42.933560 0.857775 2.473149 0.031671 -0.022438 -845034.000000 0 0 1
18.644060 20.304243 -32.750203 42.806998 0.827998 2.441941 0.026599 -0.021339 386970.000000 0 0 1
19.095560 21.659443 -32.681483 43.610219 0.848225 2.417951 0.017985 -0.022267 600627.000000 0 0 1
20.038760 21.891243 -31.603593 43.353956 0.829550 2.387608 0.011543 -0.014907 753373.000000 0 0 1
19.285960 22.252143 -30.296293 42.248923 0.856686 2.370415 -0.000023 -0.016926 303657.000000 0 0 1
18.758360 23.595243 -30.372263 42.791190 0.899108 2.359980 0.002397 -0.003289 -4089.730000 0 0 1
18.307360 24.097743 -29.121353 41.998974 0.921108 2.336969 0.005840 0.008086 -401436.000000 0 0 1
19.339760 24.412143 -28.002943 41.882500 0.900818 2.303131 -0.004818 0.010637 -359941.000000 0 0 1
20.282860 25.391033 -28.383043 43.147376 0.896775 2.288712 -0.005162 0.019073 -420294.000000 0 0 1
19.850660 26.727843 -28.380333 43.747795 0.931986 2.276706 -0.012471 0.021813 -705104.000000 0 0 1
20.616960 27.729793 -29.273513 45.287294 0.931471 2.273647 -0.018937 0.027526 -646685.000000 0 0 1
20.476260 27.508423 -30.652333 45.995174 0.930912 2.300200 -0.006640 0.023860 -202824.000000 0 0 1
21.011160 26.355283 -31.258523 45.969175 0.897748 2.318544 -0.003570 0.010827 1060150.000000 0 0 1
22.577960 26.122503 -31.188983 46.528508 0.858053 2.305436 0.000969 0.013801 1012180.000000 0 0 1
23.383260 27.094123 -31.821383 47.890174 0.858782 2.297575 0.005068 0.017050 60105.700000 0 0 1
24.733760 26.736403 -31.554833 48.190265 0.824287 2.284710 0.016906 0.003766 760362.000000 0 0 1
25.786560 27.864613 -31.938983 49.613324 0.824111 2.270196 0.006959 0.009423 440357.000000 0 0 1
25.789260 28.939403 -30.995333 49.631498 0.842894 2.245299 -0.000903 0.008569 188214.000000 0 0 1
26.839760 29.885363 -31.147253 50.829706 0.839037 2.230366 0.007894 0.001414 362342.000000 0 0 1
26.730460 30.954583 -30.026353 50.737418 0.858495 2.204085 -0.000703 0.011102 -204585.000000 0 0 1
27.105760 30.506533 -28.795513 49.945494 0.844358 2.185282 0.005396 0.001078 328625.000000 0 0 1
26.417960 31.266493 -27.799653 49.480530 0.869254 2.167393 -0.008770 0.005715 -240864.000000 0 0 1
27.143560 31.165813 -26.434973 49.060050 0.854270 2.139843 0.008005 0.003334 -369043.000000 0 0 1
27.150960 29.872223 -25.802783 47.909372 0.833084 2.139541 -0.005442 0.022194 129592.000000 0 0 1
25.947260 29.316303 -25.306133 46.616588 0.846286 2.144631 -0.014801 0.024174 -180333.000000 0 0 1
25.284660 29.859483 -24.026933 45.915098 0.868170 2.121504 -0.020646 0.027436 -220289.000000 0 0 1
24.990260 31.242253 -24.042933 46.676055 0.896125 2.111923 0.001027 0.018900 10277.400000 0 0 1
24.327560 31.571943 -22.856133 45.945844 0.914276 2.091462 -0.017828 0.030769 47365.400000 0 0 1
2.862560 -26.745398 -19.927733 33.475739 -1.464172 2.208421 0.006682 0.000674 -218950.000000 0 0 1
2.334560 -27.562128 -18.949033 33.528896 -1.486296 2.171418 -0.002184 0.005085 -190902.000000 0 0 1
2.769960 -27.141828 -17.674533 32.507547 -1.469093 2.145642 0.023750 0.001217 -16965.600000 0 0 1
2.705660 -28.307738 -16.672733 32.964051 -1.475506 2.101088 0.024632 -0.001533 285385.000000 0 0 1
3.959460 -28.946958 -16.490633 33.549138 -1.434857 2.084650 0.020828 -0.000693 -91771.900000 0 0 1
3.922660 -29.802588 -15.334533 33.745065 -1.439927 2.042521 0.020089 -0.003257 -372342.000000 0 0 1
5.195460 -30.466588 -14.808233 34.270826 -1.401891 2.017610 0.039176 -0.002522 -96862.600000 0 0 1
6.136960 -29.532728 -14.295933 33.379904 -1.365910 2.013384 0.018583 0.007370 506469.000000 0 0 1
7.458260 -30.035098 -14.063233 33.992753 -1.327401 1.997325 0.020201 0.009526 715653.000000 0 0 1
7.728760 -30.807388 -12.716833 34.213253 -1.324996 1.951629 0.016927 0.009245 -828811.000000 0 0 1
7.835160 -29.965678 -11.517333 33.045129 -1.315051 1.926802 0.017662 -0.001860 -154971.000000 0 0 1
8.027460 -30.787538 -10.351833 33.458527 -1.315738 1.885351 0.025500 0.002518 232933.000000 0 0 1
9.301460 -31.661548 -10.245533 34.553462 -1.285058 1.871835 0.023582 0.000352 -476619.000000 0 0 1
10.493160 -31.010898 -9.925033 34.209479 -1.244520 1.865154 0.023091 0.000555 -641778.000000 0 0 1
11.487760 -31.975508 -9.767933 35.352712 -1.225889 1.850738 0.016778 -0.005496 -208338.000000 0 0 1
12.675160 -31.518898 -8.885833 35.114934 -1.188442 1.826628 0.024737 -0.006649 437528.000000 0 0 1
13.634060 -30.631818 -9.472533 34.841423 -1.152029 1.846138 0.013914 -0.009206 701635.000000 0 0 1
14.791560 -30.410648 -8.678533 34.912959 -1.118093 1.822006 0.023738 -0.017649 857905.000000 0 0 1
15.976160 -29.778088 -9.507533 35.105062 -1.078371 1.845052 0.034658 -0.018513 414780.000000 0 0 1
15.781560 -28.460528 -9.915433 34.020216 -1.064499 1.866546 0.028259 -0.022135 -122654.000000 0 0 1
14.822760 -28.287888 -10.923633 33.752697 -1.088136 1.900368 0.013146 -0.021066 -350985.000000 0 0 1
14.469860 -26.863238 -11.321233 32.545056 -1.076710 1.926087 0.005227 -0.013821 -680310.000000 0 0 1
13.743460 -26.209938 -10.269633 31.325850 -1.087851 1.904805 0.007951 -0.016015 284021.000000 0 0 1
13.448860 -24.841088 -10.518733 30.142913 -1.074583 1.927260 -0.003418 -0.010244 207733.000000 0 0 1
12.562160 -24.465788 -11.720233 29.895593 -1.096440 1.973643 -0.002258 -0.009568 -15652.800000 0 0 1
13.380560 -24.088788 -12.805233 30.385573 -1.063764 2.005812 -0.002521 -0.006634 123913.000000 0 0 1
12.649760 -24.210988 -14.010133 30.699710 -1.089327 2.044697 0.000597 -0.010755 -60786.100000 0 0 1
13.366060 -23.510488 -15.161533 31.004301 -1.053850 2.081755 0.007608 -0.005275 -478520.000000 0 0 1
14.415060 -24.217088 -15.718733 32.269798 -1.033882 2.079566 0.005875 -0.012321 -371138.000000 0 0 1
14.971960 -23.446988 -16.803733 32.500558 -1.002516 2.114173 0.010304 -0.017336 -274084.000000 0 0 1
15.780760 -24.401088 -17.747933 34.050471 -0.996728 2.119081 0.006873 -0.013279 829539.000000 0 0 1
16.995660 -24.943788 -17.226333 34.753295 -0.972691 2.089408 0.010847 -0.011417 509728.000000 0 0 1
18.138160 -24.111588 -17.404133 34.831959 -0.925851 2.094002 0.011272 -0.014933 -481907.000000 0 0 1
19.412360 -24.694388 -16.842533 35.641597 -0.904586 2.062981 0.010998 -0.013481 -556611.000000 0 0 1
20.065260 -25.620398 -17.642733 37.017367 -0.906399 2.067587 0.025661 -0.009229 -652492.000000 0 0 1
21.274860 -26.056878 -17.083033 37.728114 -0.886088 2.040692 0.050066 -0.011195 -196959.000000 0 0 1
22.016860 -26.946408 -18.071233 39.209954 -0.885739 2.049787 0.045076 -0.004832 -535153.000000 0 0 1
22.451260 -26.268098 -19.246233 39.553628 -0.863582 2.078974 0.052378 0.006138 4282.540000 0 0 1
22.895060 -27.117768 -20.291333 40.881478 -0.869631 2.090180 0.041965 -0.004532 442553.000000 0 0 1
23.988060 -26.423458 -21.230033 41.525178 -0.833671 2.107443 0.037448 -0.002830 723269.000000 0 0 1
23.523360 -25.220508 -21.829333 40.815956 -0.820202 2.135095 0.033668 0.010539 2895.940000 0 0 1
24.225360 -24.095888 -21.350833 40.290668 -0.782719 2.129303 0.033416 0.015388 -219372.000000 0 0 1
23.497960 -22.774788 -21.681533 39.254731 -0.769771 2.155952 0.047840 0.013204 -238513.000000 0 0 1
23.569560 -22.294588 -23.053733 39.800093 -0.757606 2.188590 0.030425 0.027174 665410.000000 0 0 1
22.727760 -23.040188 -23.988933 40.284863 -0.792224 2.208662 0.004106 0.019134 231502.000000 0 0 1
22.015460 -22.167188 -25.044733 40.041270 -0.788832 2.246534 -0.011110 0.013867 -242408.000000 0 0 1
22.928560 -21.460988 -25.853383 40.677884 -0.752349 2.259535 -0.010275 0.015518 -187875.000000 0 0 1
22.397260 -20.321588 -26.483233 40.199077 -0.736847 2.290022 -0.013207 0.020697 -410964.000000 0 0 1
23.018360 -19.940188 -27.819273 41.247641 -0.713866 2.311009 -0.008439 0.016633 -15484.700000 0 0 1
22.360960 -18.825888 -28.453703 40.792644 -0.699778 2.342728 -0.001737 0.011953 296213.000000 0 0 1
22.767460 -18.682288 -29.801313 41.898727 -0.687158 2.362100 0.001987 0.002393 -293709.000000 0 0 1
21.877160 -17.700988 -30.530163 41.521391 -0.680270 2.396887 0.020953 0.000849 -444251.000000 0 0 1
20.639260 -18.174588 -31.017783 41.453559 -0.721983 2.416222 0.018378 -0.009790 2611.500000 0 0 1
19.864460 -17.075588 -31.411343 40.900427 -0.710044 2.446502 0.019722 -0.007583 -435148.000000 0 0 1
18.514560 -17.518288 -31.987433 40.900797 -0.757756 2.468783 0.005765 -0.000810 -439534.000000 0 0 1
18.595360 -18.143988 -33.229483 42.180448 -0.773113 2.478015 0.012135 0.000118 -666467.000000 0 0 1
17.524860 -18.940488 -33.521033 42.302747 -0.824200 2.485543 -0.003123 -0.005279 -1181320.000000 0 0 1
17.642960 -19.639588 34.209831 43.212266 -0.838901 0.657260 0.027959 0.007636 -538968.000000 0 0 1
18.577260 -20.670788 34.165527 44.041790 -0.838689 0.682890 0.031725 0.006881 -57686.300000 0 0 1
18.397760 -21.459988 32.992724 43.445696 -0.862076 0.708404 0.021543 0.000180 -260397.000000 0 0 1
19.154060 -22.775488 33.064795 44.484621 -0.871554 0.732827 0.014874 0.008118 -332713.000000 0 0 1
18.745560 -23.741288 34.040965 45.539346 -0.902444 0.726496 0.025399 0.003387 93188.500000 0 0 1
18.847260 -23.365988 -33.724343 45.149971 -0.892037 2.414245 0.029766 -0.001239 -104780.000000 0 0 1
17.905660 -24.211388 -32.822203 44.543248 -0.934013 2.399212 0.036970 -0.005977 -247512.000000 0 0 1
18.377060 -25.508208 -32.617403 45.302097 -0.946485 2.374595 0.035088 -0.012068 675857.000000 0 0 1
19.458160 -25.729848 -31.690893 45.221209 -0.923308 2.347311 0.024866 -0.014277 647487.000000 0 0 1
19.948760 -27.197708 -31.646833 46.251382 -0.937957 2.324351 0.016884 -0.012188 469543.000000 0 0 1
18.951360 -28.039668 -31.026753 45.913358 -0.976445 2.312802 0.020351 -0.016412 580755.000000 0 0 1
19.199360 -29.387028 -31.221653 46.978766 -0.992085 2.297742 0.014332 -0.008037 -368828.000000 0 0 1
18.037660 -30.263158 -30.729803 46.749724 -1.033303 2.288061 0.026364 -0.008613 1371320.000000 0 0 1
16.793260 -30.343208 -31.482543 46.838812 -1.065313 2.307900 0.027823 -0.011393 1146940.000000 0 0 1
16.915760 -31.065368 -32.704833 48.174745 -1.072169 2.317031 0.026898 -0.006626 -554785.000000 0 0 1
15.656060 -31.857668 -33.076263 48.518681 -1.114022 2.320910 0.040347 -0.012947 -136822.000000 0 0 1
14.614260 -31.128918 -33.631413 48.100499 -1.131865 2.345061 0.053736 -0.007927 -645748.000000 0 0 1
13.376860 -31.789258 -33.683583 48.208724 -1.172490 2.344379 0.036480 -0.007980 210743.000000 0 0 1
12.276960 -30.976948 -34.420893 47.907128 -1.193461 2.372428 0.032838 -0.003677 27619.100000 0 0 1
11.869460 -29.919218 -33.568273 46.506694 -1.193123 2.377188 0.038028 -0.007892 -242651.000000 0 0 1
11.018260 -29.129938 -34.383719 46.391761 -1.209184 2.405593 0.011818 0.001578 405614.000000 0 0 1
10.071460 -28.165098 -33.550813 44.948460 -1.227379 2.413475 0.021002 -0.001449 1009450.000000 0 0 1
9.016260 -28.841498 -32.852233 44.636242 -1.267807 2.397938 0.043204 -0.007629 395134.000000 0 0 1
8.052360 -27.967658 -32.322233 43.494334 -1.290462 2.408542 0.028516 -0.006112 -22263.300000 0 0 1
6.916360 -28.492418 -31.437223 42.987822 -1.332659 2.391030 0.016691 -0.002063 848251.000000 0 0 1
5.897360 -29.291228 -32.110333 43.861468 -1.372117 2.392174 -0.007510 0.006849 892831.000000 0 0 1
6.340560 -30.648908 -32.388323 45.039557 -1.366797 2.373315 0.002669 0.001283 -109716.000000 0 0 1
5.340260 -31.600098 -33.124773 46.090510 -1.403383 2.372712 0.013624 -0.012798 416729.000000 0 0 1
4.229860 -31.916988 -32.292473 45.600325 -1.439037 2.357690 0.007195 -0.018456 279788.000000 0 0 1
3.216660 -32.505648 -33.088533 46.495323 -1.472160 2.362645 0.004358 -0.025586 -174605.000000 0 0 1
1.915860 -32.918678 -32.394433 46.224551 -1.512662 2.347323 -0.009760 -0.003024 102053.000000 0 0 1
1.075960 -31.828388 -31.979973 45.132279 -1.537004 2.358285 -0.048299 0.017311 184074.000000 0 0 1
0.031960 -32.173228 -31.116333 44.758728 -1.569803 2.339496 -0.047324 0.022381 -505845.000000 0 0 1
-0.686640 -30.890488 -30.718143 43.569462 1.548572 2.353274 -0.049419 0.024792 -611180.000000 0 0 1
-1.268840 -31.010528 -29.443833 42.780861 1.529903 2.329867 -0.053410 0.024686 61521.400000 0 0 1
-2.088940 -29.908768 -29.106503 41.786201 1.501066 2.341385 -0.045042 0.027734 -40707.900000 0 0 1
-2.796240 -29.876748 -27.747783 40.870264 1.477476 2.317092 -0.030573 0.023978 -651614.000000 0 0 1
-1.893240 -29.894708 -26.699623 40.126647 1.507551 2.298804 -0.036331 0.030619 -391553.000000 0 0 1
-2.531040 -30.222778 -25.527333 39.641735 1.487245 2.270448 -0.009617 0.019447 -14696.500000 0 0 1
-1.462740 -30.366458 -24.416033 38.992359 1.522664 2.247434 -0.025200 0.020678 -16021.500000 0 0 1
-1.961540 -30.772468 -23.200433 38.588243 1.507139 2.215837 0.011923 -0.004411 -565894.000000 0 0 1
-0.941040 -31.242848 -22.389833 38.448741 1.540685 2.192387 0.012137 -0.006694 -265052.000000 0 0 1
-1.465840 -31.254058 -20.969233 37.665283 1.523930 2.161235 -0.014888 0.004465 235515.000000 0 0 1
-1.783340 -30.017018 -20.434333 36.356067 1.511455 2.167672 -0.011545 0.001489 531114.000000 0 0 1
-0.586640 -29.485618 -19.861933 35.556183 1.550903 2.163502 0.007405 -0.005361 401789.000000 0 0 1
-0.716240 -28.106388 -19.249533 34.073840 1.545319 2.171152 0.005025 -0.006646 -446181.000000 0 0 1
-1.395740 -27.961618 -18.025233 33.297285 1.520921 2.142829 0.002938 -0.007459 -89512.100000 0 0 1
-1.417440 -26.618358 -17.545033 31.911977 1.517596 2.152915 0.003939 -0.006803 88251.400000 0 0 1
-2.172440 -26.515978 -16.197533 31.147659 1.489049 2.117675 0.002757 -0.005204 -216459.000000 0 0 1
-2.194340 -25.201728 -15.657733 29.750745 1.483944 2.125036 0.002148 0.004227 210104.000000 0 0 1
-3.124940 -24.991488 -14.590733 29.107202 1.446402 2.095869 -0.004820 0.003390 112323.000000 0 0 1
-2.962240 -23.728688 -13.668933 27.543878 1.446601 2.090082 0.002877 0.001482 -990946.000000 0 0 1
-1.913940 -23.882688 -12.812933 27.170153 1.490828 2.061879 0.005651 0.001444 -999710.000000 0 0 1
-1.627540 -22.710788 -12.061433 25.766391 1.499255 2.057944 0.008416 0.006811 453296.000000 0 0 1
-0.373240 -22.844688 -11.151233 25.423789 1.554460 2.024852 0.000730 0.006711 582786.000000 0 0 1
0.123860 -21.562588 -10.661733 24.054793 -1.565052 2.029992 0.003964 0.011807 -247852.000000 0 1 0
1.222760 -21.709788 -9.803433 23.851988 -1.514533 1.994359 -0.005709 0.012839 6878.600000 0 1 0
1.888760 -20.353088 -9.535233 22.555183 -1.478262 2.007275 0.005140 0.016173 -1021680.000000 0 1 0
2.467560 -19.764688 -10.672233 22.597086 -1.446592 2.062676 0.005592 0.024958 615248.000000 0 1 0
3.391160 -18.651188 -10.476333 21.659186 -1.390941 2.075662 0.007118 0.021656 1482100.000000 0 1 0
4.725660 -18.934688 -9.696033 21.791450 -1.326216 2.031911 0.015031 0.002256 197914.000000 0 1 0
4.453060 -19.422688 -8.435333 21.638516 -1.345420 1.971243 0.007293 0.007308 -89916.100000 0 1 0
5.538460 -20.270788 -8.032833 22.496795 -1.304082 1.935921 0.008667 0.009434 191610.000000 0 1 0
5.176760 -21.365388 -7.029933 23.080264 -1.333081 1.880300 0.012410 0.009878 -674373.000000 0 1 0
4.333660 -22.341988 -7.527733 23.971061 -1.379206 1.890236 0.009701 0.011886 -245533.000000 0 1 0
4.275260 -23.472988 -6.690133 24.779364 -1.390636 1.844177 0.013040 0.003543 -461598.000000 0 1 0
3.304860 -24.466988 -7.291133 25.743275 -1.436535 1.857951 0.009985 0.003153 -395689.000000 0 0 1
3.690960 -25.130678 -8.498033 26.784150 -1.424968 1.893655 0.009548 0.001405 -234494.000000 0 0 1
2.619560 -25.551698 -9.312133 27.321551 -1.468633 1.918601 0.000701 0.005442 105127.000000 0 0 1
3.146260 -26.319318 -10.574133 28.538005 -1.451819 1.950374 -0.003282 0.006077 95597.600000 0 0 1
3.553260 -27.620228 -10.271133 29.681624 -1.442852 1.924147 -0.004614 0.006693 -233109.000000 0 0 1
4.170860 -28.121868 -11.445333 30.646878 -1.423556 1.953531 0.015174 0.011383 166992.000000 0 0 1
4.395060 -29.596038 -11.280233 31.976330 -1.423372 1.931324 0.016251 0.003216 934077.000000 0 0 1
3.181760 -30.380718 -11.455533 32.624237 -1.466447 1.929580 0.020485 0.005771 918724.000000 0 0 1
3.497560 -31.796078 -11.457233 33.977811 -1.461237 1.914735 0.030367 0.006512 262171.000000 0 0 1
2.326660 -32.782998 -11.742933 34.900355 -1.499944 1.913962 0.029275 -0.002449 221480.000000 0 0 1
1.726760 -32.570968 -13.001033 35.112341 -1.517831 1.950096 0.029370 -0.004282 421457.000000 0 0 1
0.845260 -33.620498 -13.387333 36.197693 -1.545660 1.949632 0.030272 -0.004642 24952.000000 0 0 1
0.373560 -33.579868 -14.855433 36.720988 -1.559672 1.987282 0.051052 -0.003144 135856.000000 0 0 1
-0.551040 -32.518628 -15.086733 35.852117 1.553853 2.005128 0.033093 -0.001748 197617.000000 0 0 1
-0.835940 -32.522008 -16.471433 36.464886 1.545098 2.039474 0.010588 -0.004503 226336.000000 0 0 1
-2.030240 -31.628498 -16.932533 35.933194 1.506694 2.061473 0.008038 -0.000759 -182667.000000 0 0 1
-3.281240 -32.105248 -16.550433 36.268861 1.468947 2.044658 0.010343 -0.001173 -802406.000000 0 0 1
-4.252640 -31.304678 -17.181833 35.962247 1.435776 2.068916 0.007403 0.002783 93099.300000 0 0 1
-5.622740 -31.206958 -16.483633 35.737929 1.392533 2.050184 0.001758 0.005577 -102450.000000 0 0 1
-5.662240 -30.379578 -15.302433 34.483970 1.386528 2.030581 -0.006675 0.002314 -387120.000000 0 0 1
-6.936440 -30.197078 -14.738933 34.310550 1.345007 2.014818 0.002167 -0.002369 -165564.000000 0 0 1
-7.566640 -31.320138 -13.900533 35.091735 1.333748 1.978083 -0.007159 -0.002801 71288.500000 0 0 1
-8.127140 -32.418868 -14.613833 36.477356 1.325167 1.982998 0.004120 0.001624 -210573.000000 0 0 1
-8.777540 -33.301178 -13.745733 37.080437 1.313077 1.950559 -0.004123 0.010878 48089.000000 0 0 1
-9.250940 34.515648 -14.483533 38.557523 -1.308929 1.955878 0.028205 0.009569 -760547.000000 0 0 1
-8.113840 33.801890 -14.851933 37.801879 -1.335213 1.974567 0.020796 0.011316 -287367.000000 0 0 1
-8.447140 32.490323 -15.207033 36.854160 -1.316438 1.996133 0.035202 0.010289 -275933.000000 0 0 1
-7.321540 -21.975788 -3.342733 23.403292 1.249198 1.714118 0.028265 -0.005926 278688.000000 0 1 0
-7.053140 -20.850988 -4.133533 22.396352 1.244615 1.756423 0.015403 -0.011398 -537814.000000 0 1 0
-5.877640 -20.956088 -4.870533 22.303057 1.297348 1.790950 0.006097 -0.008089 -250811.000000 0 1 0
-5.850440 -19.946188 -6.032233 21.644073 1.285487 1.853238 0.004374 -0.007830 583079.000000 0 1 0
-6.799940 -20.287388 -7.062033 22.531968 1.247384 1.889592 0.009183 -0.008967 72100.800000 0 1 0
-6.825040 -19.270288 -8.003433 21.954045 1.230408 1.943950 0.004949 -0.007665 133179.000000 0 1 0
-7.716940 -19.426488 -9.271933 22.867189 1.192673 1.988288 0.009575 -0.011403 341685.000000 0 1 0
-7.281940 -20.420988 -10.141033 23.934994 1.228262 2.008312 0.010652 -0.000296 512300.000000 0 1 0
-8.327740 -20.635088 -11.116033 24.874169 1.187215 2.034083 0.031398 0.002954 749508.000000 0 1 0
-7.756140 -21.446488 -12.257633 25.891294 1.223780 2.063973 0.026437 0.002137 -106304.000000 0 0 1
-6.869640 -20.720088 -13.073733 25.444773 1.250656 2.110414 0.025460 0.002265 -147018.000000 0 0 1
-6.542240 -21.410588 -14.342533 26.588013 1.274246 2.140564 0.012827 0.003368 88131.700000 0 0 1
-5.418840 -20.768988 -15.170233 26.284038 1.315576 2.186049 0.000913 0.010999 -723047.000000 0 0 1
-4.105140 -20.981488 -14.741833 25.969148 1.377582 2.174466 0.006274 0.010315 -367347.000000 0 0 1
-3.144140 -20.255388 -15.488433 25.691592 1.416800 2.217877 0.009877 0.011942 99019.800000 0 0 1
-3.068740 -18.649288 -15.435233 24.402039 1.407708 2.255623 0.022751 0.011602 -1153360.000000 0 1 0
-4.162340 -18.033988 -16.041933 24.492721 1.343963 2.284936 0.010422 0.006368 -582554.000000 0 1 0
-4.140040 -17.938588 -17.460133 25.372999 1.343978 2.329716 0.012869 0.003750 -907834.000000 0 0 1
-5.508440 -17.764488 -18.101633 25.953594 1.270116 2.342645 0.009007 0.002398 -553620.000000 0 0 1
-6.278840 -18.920888 -17.939633 26.818916 1.250384 2.303547 -0.002627 0.014912 32787.200000 0 0 1
-7.582740 -18.830688 -18.511433 27.473003 1.187982 2.310142 -0.007295 0.006528 636670.000000 0 0 1
-8.602240 -19.755788 -17.803033 27.950629 1.160126 2.261326 0.025831 -0.003513 -7768.350000 0 0 1
-8.247040 -21.131988 -17.893933 28.892342 1.198712 2.238687 0.019936 0.003197 -98873.100000 0 0 1
-9.229540 -21.949088 -17.368133 29.472002 1.172745 2.201000 0.034846 -0.005909 -220470.000000 0 0 1
-8.841940 -23.404288 -17.769533 30.687080 1.209581 2.188366 0.020478 -0.005539 -201360.000000 0 0 1
-8.774240 -23.497888 -19.159133 31.562801 1.213424 2.223097 0.013585 -0.010504 274915.000000 0 0 1
-8.079640 -24.600288 -19.748333 32.564573 1.253459 2.222367 0.015479 -0.010061 -7048.040000 0 0 1
-6.544040 -24.529788 -19.692533 32.129905 1.310089 2.230526 0.020313 -0.005784 -1003590.000000 0 0 1
-5.835040 -23.636888 -20.439733 31.788879 1.328774 2.269184 0.016587 -0.001676 -211981.000000 0 0 1
-5.607140 -22.328388 -19.918633 30.442550 1.324762 2.284056 0.016120 -0.001401 -70585.200000 0 0 1
-4.586540 -22.291988 -18.734933 29.478242 1.367880 2.259519 0.013615 0.009207 272494.000000 0 0 1
-3.286140 -22.627088 -19.196633 29.854556 1.426574 2.269212 0.010198 -0.000776 75623.600000 0 0 1
-2.315440 -22.597988 -18.166833 29.087181 1.468690 2.245371 0.003574 0.005451 784579.000000 0 0 1
-0.905940 -23.113388 -18.602733 29.683515 1.531621 2.248111 0.010807 -0.000308 709604.000000 0 0 1
-0.167240 -22.252488 -19.463933 29.564267 1.563281 2.289434 0.011268 -0.002362 857181.000000 0 0 1
1.094460 -22.868788 -19.836433 30.292959 -1.522975 2.284741 0.011639 -0.005465 1400450.000000 0 0 1
1.910660 -22.035788 -20.894233 30.426888 -1.484306 2.327740 0.023970 -0.002436 475890.000000 0 0 1
1.280460 -22.122388 -22.167833 31.344097 -1.512980 2.356384 0.013180 -0.006285 70812.600000 0 0 1
1.361560 -21.016388 -23.009433 31.192570 -1.506101 2.400391 0.018188 -0.004719 -198649.000000 0 0 1
0.580060 -21.343788 -24.309633 32.355092 -1.543626 2.420885 0.020839 -0.003430 -107023.000000 0 0 1
0.118560 -20.215588 -25.027033 32.171982 -1.564932 2.462135 0.020309 -0.001045 -108706.000000 0 0 1
-1.240140 -19.964088 -24.740533 31.815039 1.508757 2.461694 0.025371 -0.004802 17575.300000 0 0 1
-1.877740 -18.820688 -25.618353 31.844061 1.471355 2.505619 0.021947 -0.004274 319696.000000 0 0 1
-1.314040 -17.540388 -25.270513 30.789458 1.496021 2.533523 0.034557 -0.005209 373131.000000 0 0 1
-1.947840 -16.450588 -25.938473 30.776944 1.452940 2.573241 0.025544 -0.004341 157223.000000 0 0 1
-1.250140 -15.122188 -25.516423 29.687224 1.488315 2.605104 0.028817 0.001182 356514.000000 0 0 1
0.098960 -14.925988 -25.902573 29.895454 -1.564166 2.618821 0.039663 -0.004753 -31239.100000 0 0 1
0.680360 -13.685688 -25.515383 28.961970 -1.521124 2.648760 0.032439 0.000691 173418.000000 0 0 1
0.242360 -12.422588 -26.253513 29.045247 -1.551289 2.699558 0.023868 0.007413 -143556.000000 0 0 1
0.905160 -11.256288 -25.772893 28.138325 -1.490555 2.728629 0.016712 0.004324 157601.000000 0 0 1
0.533160 -10.088488 -26.482023 28.343595 -1.517997 2.777146 0.010231 0.008833 -541984.000000 0 0 1
1.374460 -8.812988 -26.177833 27.655683 -1.416084 2.813202 0.019760 -0.001433 1252390.000000 0 0 1
2.756460 -8.670988 -26.572983 28.087497 -1.263004 2.811705 0.031034 -0.004492 823286.000000 0 0 1
3.117160 -9.098888 -27.913923 29.524456 -1.240741 2.809772 0.026218 0.002171 -419093.000000 0 0 1
4.545260 -8.635188 -28.273943 29.910562 -1.086280 2.809257 0.016107 -0.002999 -533192.000000 0 0 1
4.620160 -7.215888 -28.589273 29.845627 -1.001287 2.850410 0.017234 -0.003677 -280016.000000 0 0 1
5.833860 -6.710688 -29.092103 30.420679 -0.855182 2.844961 0.018095 -0.002862 -638756.000000 0 0 1
6.969860 -6.608088 -28.034773 29.634343 -0.758760 2.811533 0.025608 -0.003365 -35703.200000 0 0 1
7.584360 -7.871788 -27.719433 29.796888 -0.803992 2.765970 0.013400 -0.002512 622832.000000 0 0 1
8.403960 -8.524088 -28.704383 31.100293 -0.792494 2.746502 0.010332 -0.003757 -380184.000000 0 0 1
8.730760 -9.966688 -28.275353 31.225896 -0.851404 2.703376 0.017400 -0.002299 578878.000000 0 0 1
7.533960 -10.770688 -28.202483 31.115082 -0.960414 2.705461 0.013106 -0.009433 667610.000000 0 0 1
7.538660 -11.920588 -27.330133 30.754966 -1.006889 2.665170 0.025650 -0.013314 -173020.000000 0 0 1
8.545360 -13.076288 -27.597943 31.712126 -0.991964 2.626536 0.026673 -0.017516 -141060.000000 0 0 1
8.308360 -13.698388 -28.851853 33.001577 -1.025596 2.634699 0.030076 -0.023645 198639.000000 0 0 1
9.278860 -14.756188 -29.062063 33.888727 -1.009461 2.601329 0.016211 -0.027653 549739.000000 0 0 1
8.766460 -15.843088 -30.084313 35.112962 -1.065400 2.599802 0.016009 -0.026351 -152324.000000 0 0 1
8.575860 -15.293888 -31.403193 35.966775 -1.059747 2.632356 0.009080 -0.024120 475524.000000 0 0 1
7.984660 -16.221488 -32.334153 37.045768 -1.113386 2.631740 0.027580 -0.026193 -460160.000000 0 0 1
6.792560 -15.661588 -33.100933 37.243737 -1.161573 2.665440 0.023975 -0.021172 -279225.000000 0 0 1
7.224960 -14.676288 -33.979183 37.711780 -1.113337 2.692919 0.013482 -0.016180 953074.000000 0 0 1
6.096260 -13.969388 -34.539868 37.753287 -1.159308 2.726016 -0.012312 -0.019581 740820.000000 0 0 1
6.596560 -12.716488 33.894337 36.797415 -1.092269 0.399883 -0.001127 -0.010790 -69447.700000 0 0 1
6.968760 -12.952188 32.532724 35.702954 -1.077184 0.424596 -0.006233 -0.001937 95048.500000 0 0 1
7.213160 -11.772988 31.792014 34.660713 -1.021100 0.409714 -0.009160 -0.004067 -350320.000000 0 0 1
7.756660 -12.038688 30.380654 33.586901 -0.998431 0.440500 -0.024532 0.002350 131729.000000 0 0 1
6.769760 -12.541188 29.499364 32.761616 -1.075816 0.450052 -0.012999 -0.001450 388326.000000 0 0 1
7.294260 -12.446088 28.181224 31.659007 -1.040684 0.473125 -0.029972 0.006864 -414377.000000 0 0 1
6.462160 -13.035288 27.049814 30.714340 -1.110560 0.493479 -0.010893 -0.007023 -507387.000000 0 0 1
6.496960 -14.493688 27.067134 31.383231 -1.149389 0.530664 -0.005565 -0.002085 36093.800000 0 0 1
6.178060 -15.010788 25.768274 30.454821 -1.180352 0.562143 0.000505 -0.003203 666071.000000 0 0 1
4.644560 -15.120488 25.474404 29.985769 -1.272775 0.555665 0.004620 -0.009014 668313.000000 0 0 1
3.931960 -13.916488 25.152474 29.013374 -1.295434 0.521793 -0.007013 -0.012305 -614801.000000 0 0 1
2.592260 -14.170688 24.930774 28.793605 -1.389866 0.523961 -0.001125 -0.012000 -688493.000000 0 0 1
1.719860 -12.902888 24.683374 27.905400 -1.438285 0.485295 0.008200 -0.013105 -428408.000000 0 0 1
1.720960 -12.375188 23.413464 26.538599 -1.432617 0.490193 -0.001832 -0.010984 646842.000000 0 0 1
0.654060 -11.404688 23.269064 25.921883 -1.513509 0.456363 -0.000881 0.004431 1303590.000000 0 0 1
-0.762540 -11.988288 23.005264 25.952701 1.507275 0.481221 0.006777 0.008760 -561488.000000 0 0 1
-0.900840 -12.488988 21.705164 25.057942 1.498790 0.523252 0.000990 0.002206 438129.000000 0 0 1
-2.197840 -13.081088 21.520064 25.279606 1.404334 0.552373 0.018808 0.000492 834399.000000 0 0 1
-2.413240 -13.791188 20.133364 24.522906 1.397566 0.607632 0.022064 -0.002121 -495212.000000 0 1 0
-1.661740 -14.905888 19.999764 24.998748 1.459773 0.643450 0.019257 -0.008522 -942546.000000 0 1 0
-1.845240 -15.675088 18.828964 24.569151 1.453618 0.697631 0.017586 -0.005163 92314.800000 0 1 0
-2.903340 -16.805588 18.882464 25.444147 1.399725 0.734577 0.004204 -0.008091 191825.000000 0 0 1
-2.728940 -17.606688 17.766064 25.160993 1.417025 0.786827 -0.001123 -0.009908 -128043.000000 0 0 1
-3.532240 -18.785488 17.755364 26.088776 1.384936 0.822249 -0.005074 0.001304 44678.900000 0 0 1
-2.982340 -19.898188 16.727064 26.165376 1.422024 0.877232 -0.003468 -0.005682 854450.000000 0 0 1
-1.743040 -20.489488 17.147264 26.774726 1.485931 0.875742 -0.013024 -0.006023 251262.000000 0 0 1
-1.866640 -21.561088 18.106364 28.217109 1.484437 0.874109 -0.022351 -0.000335 -553827.000000 0 0 1
-0.579140 -22.278388 18.518464 28.975774 1.544807 0.877467 -0.002886 -0.001120 -8138.650000 0 0 1
-0.077940 -23.263588 17.598564 29.170362 1.567446 0.923160 -0.009302 0.001501 -437911.000000 0 0 1
1.110060 -23.874088 18.023664 29.934207 -1.524333 0.924656 0.005219 -0.001018 267676.000000 0 0 1
2.327060 -23.561088 17.094764 29.202243 -1.472349 0.945433 0.005187 -0.004579 251326.000000 0 0 1
2.929160 -22.320988 17.410664 28.459404 -1.440313 0.912498 0.018010 -0.010937 -495171.000000 0 0 1
3.950460 -22.005988 16.517264 27.797295 -1.393171 0.934521 0.028200 -0.016875 -297679.000000 0 0 1
4.591260 -20.660488 16.862464 27.060638 -1.352126 0.898050 0.039194 -0.016829 -279261.000000 0 0 1
5.401060 -20.756888 18.044564 28.029023 -1.316236 0.871367 0.038992 -0.015069 298111.000000 0 0 1
6.000260 -19.548188 18.538964 27.601231 -1.272978 0.834333 0.042372 -0.007000 751343.000000 0 0 1
7.099460 -18.811388 17.700164 26.787431 -1.209921 0.848960 0.044822 -0.010673 -245635.000000 0 0 1
6.587260 -18.255488 16.543864 25.502044 -1.224500 0.864886 0.032871 -0.012117 -471629.000000 0 0 1
7.581260 -17.791088 15.699064 24.909013 -1.167972 0.888913 0.041945 -0.007885 -412667.000000 0 1 0
7.014760 -16.808688 14.648664 23.373536 -1.175441 0.893459 0.023432 -0.015315 205963.000000 0 1 0
5.943460 -17.379688 13.905764 23.037980 -1.241286 0.922785 0.021091 -0.006411 331425.000000 0 1 0
5.426060 -16.406288 12.985464 21.615519 -1.251390 0.926361 0.009518 -0.013239 -306900.000000 0 1 0
5.953260 -16.621788 11.510764 21.076594 -1.226871 0.993047 0.009661 -0.013360 -166634.000000 0 1 0
7.309960 -16.270288 11.416964 21.177933 -1.148539 1.001432 0.024572 -0.006984 -478875.000000 0 1 0
7.826160 -16.804288 10.228964 21.172259 -1.134944 1.066570 0.026107 -0.001673 273471.000000 0 1 0
9.216560 -16.162488 9.964564 21.106007 -1.052544 1.079102 0.034290 -0.002891 233054.000000 0 1 0
9.881360 -16.711388 8.855564 21.338528 -1.036802 1.142850 0.036661 0.000858 658052.000000 0 1 0
11.173360 -16.085388 8.661564 21.415097 -0.963685 1.154407 0.024999 -0.004063 1154510.000000 0 1 0
12.181460 -16.976388 7.906064 22.340357 -0.948387 1.209068 0.031318 -0.007052 -119537.000000 0 1 0
12.594160 -18.155488 8.555564 23.694562 -0.964322 1.201374 0.041405 -0.010137 562884.000000 0 1 0
13.469160 -18.985488 7.759564 24.537275 -0.953760 1.249037 0.043468 -0.004479 342064.000000 0 1 0
13.989460 -20.296688 8.408064 26.045269 -0.967323 1.242084 0.035924 -0.005983 -80322.500000 0 0 1
13.098060 -21.397588 8.577264 26.513872 -1.021507 1.241369 0.040405 -0.005691 154958.000000 0 0 1
13.762660 -22.509288 9.095864 27.907232 -1.022021 1.238799 0.044840 -0.004682 -506672.000000 0 0 1
12.760660 -23.403288 9.770664 28.390389 -1.071607 1.219459 0.049248 -0.005732 -221648.000000 0 0 1
12.448760 -22.897588 11.078164 28.319549 -1.072825 1.168878 0.050965 -0.013919 881777.000000 0 0 1
11.313160 -23.536288 11.759464 28.639648 -1.122733 1.147683 0.049722 -0.007473 1041470.000000 0 0 1
11.482660 -24.999108 12.307364 30.137652 -1.140217 1.150127 0.026656 -0.012031 -72841.000000 0 0 1
12.271360 -25.133668 13.472664 31.045132 -1.116598 1.121901 0.031084 -0.013221 10506.200000 0 0 1
11.959860 -26.364098 14.087664 32.195748 -1.144918 1.117910 0.026932 -0.012969 512361.000000 0 0 1
13.067560 -26.899368 15.080564 33.492693 -1.118578 1.103735 0.023450 -0.013886 418422.000000 0 0 1
13.184860 -26.141278 16.213464 33.467646 -1.103659 1.065060 0.023270 -0.014841 291557.000000 0 0 1
14.125360 -26.698958 17.116264 34.717814 -1.084172 1.055249 0.017075 -0.013948 -218175.000000 0 0 1
13.981960 -26.016868 18.522564 34.863419 -1.077663 1.010675 0.021922 -0.016425 177569.000000 0 0 1
14.639160 -24.750688 18.634764 34.265959 -1.036676 0.995805 0.025843 -0.010799 181004.000000 0 0 1
15.993560 -24.692088 19.027664 35.036340 -0.996026 0.996691 0.027824 -0.009460 64233.500000 0 0 1
16.419160 -23.272488 19.591464 34.569104 -0.956377 0.968261 0.018861 -0.005291 -140803.000000 0 0 1
16.424060 -22.267888 18.610264 33.345922 -0.935300 0.978706 0.017359 -0.008813 578216.000000 0 0 1
15.186360 -21.586988 18.345864 32.143340 -0.957728 0.963375 0.020755 -0.005644 537.559000 0 0 1
15.238560 -20.414788 17.303764 30.796063 -0.929573 0.974137 0.026545 -0.005706 -178334.000000 0 0 1
16.046360 -19.333288 17.742664 30.758150 -0.878037 0.955936 0.027340 -0.013258 729822.000000 0 0 1
17.404460 -19.511188 17.330564 31.367979 -0.842405 0.985445 0.017574 -0.008065 70810.600000 0 0 1
18.334360 -18.333188 17.605964 31.340461 -0.785366 0.974279 0.018632 -0.010508 -370027.000000 0 0 1
18.451960 -17.940188 18.973164 31.973522 -0.771336 0.935517 0.014655 -0.004975 146308.000000 0 0 1
19.065160 -16.688488 19.082564 31.719555 -0.719022 0.925291 0.023311 -0.007859 -400537.000000 0 0 1
19.472660 -16.421788 20.547364 32.726958 -0.700606 0.892019 0.025672 -0.007516 -874.471000 0 0 1
20.642660 -17.168088 20.869664 34.005963 -0.693762 0.910050 0.026771 -0.007407 206189.000000 0 0 1
21.172560 -16.736788 22.100564 34.883123 -0.668918 0.884650 0.032160 -0.000191 -92100.100000 0 0 1
32.213117 -0.619088 -7.761233 33.140684 -0.019216 1.807182 0.061974 -0.011586 -687012.000000 0 0 1
33.372357 -0.307988 -8.504533 34.440327 -0.009229 1.820313 0.033755 -0.014598 90713.600000 0 0 1
34.200387 -1.436388 -8.591533 35.292267 -0.041974 1.816707 0.036369 -0.013743 -1107500.000000 0 0 1
-34.758646 -1.208188 -9.076533 35.944494 0.034745 1.826075 0.014723 -0.014787 -1181450.000000 0 0 1
-33.951850 -2.353188 -8.915533 35.181705 0.069199 1.827004 0.039066 -0.008244 92256.900000 0 0 1
-32.628440 -2.020388 -9.308233 33.990297 0.061842 1.848190 0.092604 -0.019921 41791.000000 0 0 1
-31.606880 -3.159488 -9.157633 33.058123 0.099631 1.851484 0.088340 -0.014223 -337970.000000 0 0 1
-31.412130 -3.499188 -7.803733 32.555560 0.110939 1.812858 0.070697 -0.015183 19001.600000 0 0 1
-30.399030 -4.463888 -7.705433 31.676506 0.145801 1.816515 0.067627 -0.021363 -220527.000000 0 0 1
-30.048720 -4.644388 -6.185533 31.028321 0.153348 1.771492 0.037671 -0.028989 -37494.700000 0 0 1
-29.368750 -3.493688 -5.643733 30.109484 0.118403 1.759352 0.035865 -0.020602 542274.000000 0 0 1
-28.797570 -3.705388 -4.371733 29.362254 0.127967 1.720242 0.034891 -0.027064 -69304.500000 0 0 1
-28.822210 -2.405888 -3.539133 29.138180 0.083280 1.692557 0.031584 -0.015450 249759.000000 0 0 1
-27.762760 -1.513188 -3.902333 28.076481 0.054450 1.710237 0.029056 -0.014261 769390.000000 0 0 1
-27.956020 -0.280788 -3.250833 28.145796 0.010044 1.686554 0.039286 -0.021160 -598087.000000 0 0 1
-26.631500 0.420412 -2.928833 26.795365 -0.015785 1.680319 0.065469 -0.009478 -208074.000000 0 0 1
-25.977740 -0.313188 -1.883633 26.047824 0.012055 1.643174 0.037467 -0.010108 -489334.000000 0 0 1
-24.708140 0.161812 -1.631833 24.762497 -0.006549 1.636743 0.043084 -0.012151 -908810.000000 0 1 0
-24.142740 -0.330788 -0.263133 24.146440 0.013700 1.581694 0.029584 -0.007743 -142214.000000 0 1 0
-23.978940 -1.710188 -0.223733 24.040889 0.071200 1.580103 0.012464 -0.011540 699486.000000 0 1 0
-23.270240 -2.086988 1.003967 23.385199 0.089446 1.527851 -0.001381 -0.014094 8612.430000 0 1 0
-22.887640 -3.606388 1.307267 23.206875 0.156284 1.514435 -0.015097 0.005787 -531216.000000 0 1 0
-23.997140 -4.434688 1.478467 24.448212 0.182739 1.510286 -0.021356 0.000087 -248992.000000 0 1 0
-23.779840 -5.822588 1.160167 24.509780 0.240129 1.523444 -0.040900 0.016793 -64561.600000 0 1 0
-24.958840 -6.715088 1.631467 25.897834 0.262823 1.507758 -0.024623 0.018086 167463.000000 0 0 1
-25.076710 -6.859588 3.042367 26.175396 0.267012 1.454303 -0.018010 0.020014 322255.000000 0 0 1
-26.239160 -7.612488 3.355367 27.526387 0.282367 1.448596 0.004223 0.029233 255394.000000 0 0 1
-26.577550 -7.828388 4.842667 28.126522 0.286448 1.397760 0.005090 0.011608 84739.600000 0 0 1
-25.690850 -8.748588 5.483467 27.688011 0.328216 1.371433 0.002946 0.031888 124014.000000 0 0 1
-25.952780 -8.915588 6.892267 28.293778 0.330900 1.324724 0.001097 0.018257 -10505.800000 0 0 1
-25.367040 -7.748188 7.728967 27.627126 0.296443 1.287252 0.023410 0.019175 -1159090.000000 0 0 1
-23.994040 -7.831388 7.735267 26.398465 0.315488 1.273413 0.023639 -0.000648 -1214400.000000 0 0 1
-23.462040 -6.663788 8.314067 25.768141 0.276736 1.242269 0.019798 -0.001934 199251.000000 0 0 1
-22.006740 -6.354188 7.857067 24.215817 0.281093 1.240355 0.005912 -0.009577 890665.000000 0 1 0
-20.996740 -7.027988 8.630967 23.764455 0.322996 1.199109 0.008557 -0.011632 -218641.000000 0 1 0
-19.726340 -6.796488 8.124767 22.390457 0.331801 1.199453 0.002971 -0.010371 -900369.000000 0 1 0
-18.605840 -7.015588 9.112367 21.873065 0.360579 1.141092 0.011307 -0.010120 -523362.000000 0 1 0
-18.507740 -6.055988 10.081067 21.928049 0.316233 1.093101 0.002271 -0.008711 -93988.100000 0 1 0
-17.488540 -6.324088 11.002167 21.607656 0.346983 1.036566 -0.000982 -0.007017 -550797.000000 0 1 0
-17.448640 -5.138088 12.004667 21.793738 0.286375 0.987437 -0.001524 0.001220 207803.000000 0 1 0
-18.559740 -5.020488 12.879767 23.142119 0.264182 0.980568 0.007181 -0.001996 266185.000000 0 1 0
-18.646440 -3.697488 13.254267 23.174053 0.195755 0.961922 0.007500 0.002873 131933.000000 0 1 0
-19.690240 -3.577388 14.393867 24.651302 0.179723 0.947273 0.004920 0.002079 -158845.000000 0 1 0
-19.352740 -4.249888 15.601967 25.219268 0.216170 0.903770 0.006896 0.002008 -52098.400000 0 0 1
-20.387040 -4.168488 16.544167 26.584152 0.201688 0.899078 0.002797 0.010399 -308113.000000 0 0 1
-20.155040 -5.096988 17.720967 27.317350 0.247696 0.864912 0.004202 0.017898 -212181.000000 0 0 1
-21.155740 -4.966188 18.713767 28.678100 0.230570 0.859857 0.000773 0.015368 353849.000000 0 0 1
-20.865940 -5.669988 19.922467 29.401376 0.265327 0.826298 0.009163 0.017007 -405583.000000 0 0 1
-21.887340 -5.433388 21.050967 30.849969 0.243325 0.819802 0.015976 0.013966 -407637.000000 0 0 1
-21.944940 -4.110288 21.482167 30.983195 0.185155 0.804670 0.009006 0.011305 205363.000000 0 0 1
-22.452440 -3.919988 22.808067 32.244167 0.172849 0.785047 0.012047 0.006583 -832.004000 0 0 1
-22.422940 -2.452388 23.217867 32.370848 0.108937 0.770954 0.006703 0.018949 444923.000000 0 0 1
-23.462240 -1.706288 22.580767 32.607962 0.072597 0.805858 0.006138 0.015952 344917.000000 0 0 1
-23.178540 -0.366288 22.836667 32.540625 0.015802 0.792890 0.006054 0.005254 150041.000000 0 0 1
-24.254940 0.646112 22.278267 32.939957 -0.026632 0.828028 -0.007989 0.012759 456733.000000 0 0 1
-25.437130 0.458012 23.031967 34.318055 -0.018004 0.835061 -0.010319 0.014273 -68293.500000 0 0 1
-26.471780 1.339412 22.614167 34.841781 -0.050555 0.864457 -0.011878 0.012498 188146.000000 0 0 1
-27.531840 1.499112 23.709967 36.364985 -0.054396 0.860577 -0.004447 0.005766 -341713.000000 0 0 1
-27.020130 2.138812 24.862467 36.780487 -0.078992 0.828518 0.002074 0.005288 219112.000000 0 0 1
-27.940930 2.043912 25.928767 38.172950 -0.073021 0.824064 0.008253 -0.001046 -496508.000000 0 0 1
-27.530860 2.926212 27.151067 38.777460 -0.105891 0.795152 0.023178 -0.005662 -846969.000000 0 0 1
-26.323610 2.507312 27.654567 38.262176 -0.094963 0.763001 0.022194 -0.009503 -690721.000000 0 0 1
-26.034380 3.331412 28.783167 38.953279 -0.127270 0.739337 0.021292 -0.009645 32758.800000 0 0 1
-24.879240 2.843912 29.693667 38.842995 -0.113815 0.700603 0.021755 -0.008269 223760.000000 0 0 1
-25.253650 1.825912 30.581867 39.703040 -0.072177 0.691540 0.021043 -0.008971 299518.000000 0 0 1
-24.123540 1.540112 31.387367 39.616713 -0.063756 0.656266 0.017584 -0.014320 383392.000000 0 0 1
-24.359940 0.375112 32.348167 40.496312 -0.015398 0.645510 0.013546 -0.021132 -24512.500000 0 0 1
-24.302040 -0.821788 31.600867 39.873290 0.033803 0.655846 0.024866 -0.017190 116953.000000 0 0 1
-24.937540 -1.846588 32.391167 40.920392 0.073914 0.657430 0.012177 -0.011612 -507907.000000 0 0 1
-25.678300 -2.924588 31.624467 40.841587 0.113405 0.685156 0.013543 -0.009152 441681.000000 0 0 1
-26.993880 -2.664188 31.121667 41.283479 0.098377 0.716890 0.009260 -0.008108 734970.000000 0 0 1
-26.943970 -1.783288 30.009467 40.369862 0.066089 0.732712 0.007623 -0.008893 -469371.000000 0 0 1
-28.324220 -1.411288 29.391567 40.842593 0.049785 0.767527 0.019791 -0.014220 265627.000000 0 0 1
-29.094890 -0.626088 30.287467 42.002801 0.021516 0.765433 0.024077 -0.008465 689018.000000 0 0 1
-30.470500 -0.717988 29.829367 42.646899 0.023559 0.796169 0.013858 -0.002838 1520440.000000 0 0 1
-31.532730 -0.384188 30.929467 44.171174 0.012183 0.795093 0.018133 -0.005191 226779.000000 0 0 1
-31.463300 -1.302088 31.982467 44.883325 0.041361 0.777643 0.018537 0.003880 -241297.000000 0 0 1
-32.338400 -0.964888 33.010767 46.221357 0.029828 0.775332 0.030612 -0.000738 -378043.000000 0 0 1
-32.628450 -2.061388 34.050767 47.205083 0.063094 0.765066 0.031564 -0.001473 -278721.000000 0 0 1
-33.547880 -2.979888 33.552167 47.540382 0.088592 0.787299 0.018868 -0.004920 -359167.000000 0 0 1
-33.530410 -4.193988 34.298367 48.148270 0.124434 0.777957 0.019220 -0.000197 -418021.000000 0 0 1
-34.646954 -5.167688 33.946267 48.779765 0.148061 0.801112 0.018188 -0.003352 -573674.000000 0 0 1
34.524223 -4.877188 -34.484629 49.039766 -0.140340 2.350681 0.028148 -0.014859 -1211680.000000 0 0 1
33.436497 -5.334588 33.898267 47.911895 -0.158210 0.784824 0.022972 -0.021635 -1392190.000000 0 0 1
32.142397 -4.930188 -34.510829 47.417695 -0.152200 2.385912 0.042630 -0.025889 -827611.000000 0 0 1
31.750127 -5.584788 -33.272529 46.328411 -0.174117 2.371992 0.046337 -0.031892 234028.000000 0 0 1
31.308127 -6.964288 -33.283529 46.222218 -0.218880 2.374709 0.052409 -0.034523 -641296.000000 0 0 1
29.882087 -7.164288 -33.780029 45.665704 -0.235310 2.403457 0.051901 -0.041659 -527838.000000 0 0 1
28.907807 -6.705588 -32.846729 44.266622 -0.227933 2.406875 0.055504 -0.041192 -217847.000000 0 0 1
27.647947 -7.031588 -33.351629 43.888306 -0.249046 2.433987 0.052200 -0.031407 201214.000000 0 0 1
26.401847 -6.750088 -32.423029 42.354150 -0.250305 2.442648 0.049796 -0.036678 961688.000000 0 0 1
25.148087 -7.151988 -32.973529 42.081241 -0.277079 2.471185 0.040230 -0.033763 -165424.000000 0 0 1
24.142687 -6.673988 -32.133529 40.742793 -0.269704 2.479475 0.044279 -0.031396 -1115620.000000 0 0 1
22.801187 -7.252888 -32.565529 40.410546 -0.307972 2.507935 0.040822 -0.033286 -795015.000000 0 0 1
22.660587 -8.702688 -32.551529 40.605924 -0.366677 2.500838 0.040131 -0.041319 88512.000000 0 0 1
22.775587 -9.314488 -31.249629 39.774695 -0.388213 2.474568 0.034627 -0.032933 -597217.000000 0 0 1
22.473887 -10.819488 -31.261829 39.992986 -0.448677 2.468156 0.032639 -0.026780 233720.000000 0 0 1
21.193687 -11.161088 -31.800129 39.811939 -0.484719 2.496025 0.035739 -0.030423 650372.000000 0 0 1
21.068187 -12.579088 -31.926129 40.266359 -0.538259 2.486306 0.027923 -0.020073 -627256.000000 0 0 1
19.938487 -13.017988 -32.871929 40.590332 -0.578416 2.514686 0.020332 -0.015060 -827654.000000 0 0 1
18.618987 -12.785288 -32.562529 39.628886 -0.601730 2.535161 0.024230 -0.014530 -855155.000000 0 0 1
18.241387 -11.500588 -33.002529 39.423073 -0.562521 2.562825 0.025809 -0.021272 154620.000000 0 0 1
16.853187 -11.001288 -32.418129 38.157481 -0.578321 2.586000 0.023789 -0.020133 1376300.000000 0 0 1
15.771787 -11.521588 -33.209429 38.527425 -0.630916 2.609936 0.019093 -0.011668 -310595.000000 0 0 1
14.532887 -11.131688 -32.695629 37.471635 -0.653641 2.631181 0.019397 -0.014212 -603436.000000 0 0 1
13.351587 -11.740488 -33.425129 37.859519 -0.721279 2.652741 -0.006841 -0.008658 -927472.000000 0 0 1
13.364987 -13.138488 -33.163229 38.092552 -0.776852 2.627209 -0.004623 -0.001286 216142.000000 0 0 1
12.272187 -13.771888 -33.798529 38.504702 -0.842918 2.641998 -0.025122 -0.001461 377063.000000 0 0 1
10.879087 -13.695488 -33.116329 37.451465 -0.899507 2.655675 -0.035229 0.001276 -20281.200000 0 0 1
10.118587 -12.510488 -33.249929 36.938542 -0.890707 2.690891 -0.008266 -0.006763 425178.000000 0 0 1
9.319687 -12.268188 -32.079229 35.587104 -0.921140 2.693854 -0.003406 -0.007715 -229937.000000 0 0 1
8.256987 -11.202388 -32.176129 35.056734 -0.935619 2.733376 -0.010720 0.000495 -605313.000000 0 0 1
8.745087 -9.903888 -32.132129 34.742442 -0.847456 2.751481 -0.012252 0.003130 -601942.000000 0 0 1
7.737387 -9.028788 -32.436029 34.546811 -0.862271 2.790219 -0.016012 0.007790 -877879.000000 0 0 1
8.080087 -7.540888 -32.616629 34.438312 -0.750894 2.814882 0.002727 0.012299 -250410.000000 0 0 1
8.360387 -6.794588 -31.421929 33.217467 -0.682444 2.811295 0.012007 -0.000441 313442.000000 0 0 1
8.917487 -5.557788 -31.801129 33.492125 -0.557337 2.822469 0.016438 -0.000871 -233215.000000 0 0 1
9.040187 -4.461988 -30.679629 32.293559 -0.458492 2.824106 0.021222 -0.001396 234991.000000 0 0 1
7.776787 -3.948088 -30.273529 31.504800 -0.469769 2.861096 0.042827 -0.005030 279962.000000 0 0 1
7.937887 -2.958188 -29.268829 30.470072 -0.356724 2.859864 0.037912 -0.011936 15306.100000 0 0 1
6.626787 -2.327688 -28.781329 29.625958 -0.337792 2.902234 0.033256 -0.014386 -483518.000000 0 0 1
5.873487 -1.628988 -29.782329 30.399648 -0.270546 2.939722 0.037744 -0.010612 1616640.000000 0 0 1
4.488787 -1.314188 -29.453329 29.822389 -0.284812 2.984107 0.031161 -0.011198 1857050.000000 0 0 1
3.508887 -2.532188 -29.240229 29.558675 -0.625109 2.994673 0.026535 -0.014279 -632430.000000 0 0 1
3.626887 -3.281488 -28.004829 28.428734 -0.735443 2.968686 0.031514 -0.022326 335225.000000 0 0 1
2.728487 -4.417188 -27.968829 28.446645 -1.017465 2.958049 0.034486 -0.018233 263875.000000 0 0 1
2.911987 -5.278488 -26.701829 27.373889 -1.066671 2.919547 0.024259 -0.024029 -124662.000000 0 0 1
2.415087 -4.743288 -25.496129 26.045807 -1.099848 2.935783 0.020403 -0.029068 -31783.700000 0 0 1
2.594787 -5.695888 -24.467329 25.255223 -1.143333 2.891150 0.024751 -0.031627 -163606.000000 0 0 1
2.639287 -5.057688 -23.042529 23.738243 -1.089832 2.898891 0.028656 -0.036847 -264270.000000 0 1 0
3.752787 -4.229188 -22.864429 23.553165 -0.845012 2.899166 0.025014 -0.033822 -204346.000000 0 1 0
3.545587 -3.416588 -21.748329 22.298746 -0.766872 2.918945 0.026686 -0.028096 -472600.000000 0 1 0
4.586087 -2.320688 -21.599929 22.203034 -0.468458 2.907982 0.039648 -0.025912 211499.000000 0 1 0
5.828887 -2.695188 -20.998729 21.958748 -0.433105 2.844805 0.032142 -0.030263 177068.000000 0 1 0
6.655187 -1.591188 -20.690629 21.792786 -0.234684 2.822198 0.041396 -0.019979 -1010030.000000 0 1 0
8.020487 -2.128388 -20.388629 22.012598 -0.259390 2.755070 0.031394 -0.016103 -2014010.000000 0 1 0
8.791987 -2.426288 -21.543329 23.394464 -0.269264 2.741110 0.040413 -0.021426 913832.000000 0 1 0
10.084987 -3.001388 -21.322129 23.777058 -0.289262 2.683171 0.030388 -0.018003 1470470.000000 0 1 0
11.177087 -2.247288 -20.464929 23.426287 -0.198417 2.633324 0.018151 -0.014916 -237594.000000 0 1 0
10.861887 -2.043688 -19.089429 22.058186 -0.185978 2.616769 0.013334 -0.014808 -122848.000000 0 1 0
11.969587 -1.585588 -18.347329 21.963825 -0.131701 2.559553 0.013356 -0.014940 100724.000000 0 1 0
12.399687 -0.061088 -18.365329 22.159452 -0.004927 2.547722 0.014003 -0.012513 -140022.000000 0 1 0
12.948087 0.406512 -19.598229 23.492739 0.031385 2.557522 0.016751 -0.011655 211580.000000 0 1 0
12.705987 1.737512 -19.890029 23.665890 0.135905 2.568912 0.015196 -0.010753 -222905.000000 0 1 0
13.184187 2.184712 -21.287329 25.134561 0.164215 2.580990 0.009876 -0.004900 807433.000000 0 0 1
14.596387 2.377912 -21.490129 26.087059 0.161492 2.538852 0.002123 0.000001 845219.000000 0 0 1
14.689087 3.379112 -22.461429 27.050018 0.226109 2.550561 0.010460 -0.008908 -126072.000000 0 0 1
16.031587 3.641412 -23.209329 28.441952 0.223350 2.525296 0.006595 -0.004631 392020.000000 0 0 1
16.375487 2.661912 -24.259029 29.389503 0.161145 2.541763 -0.004933 0.000379 325281.000000 0 0 1
16.869687 1.430812 -23.719429 29.141807 0.084613 2.521684 -0.007881 0.004346 -766671.000000 0 0 1
8.494260 27.203912 2.974867 28.654060 1.268145 1.466789 -0.012996 0.005196 76843.900000 0 0 1
8.857560 27.623612 4.303067 29.326382 1.260502 1.423534 -0.013840 0.010147 -86377.400000 0 0 1
10.230960 27.706812 4.558867 29.885168 1.217069 1.417652 -0.003880 0.007673 -482732.000000 0 0 1
10.604060 28.415012 5.848267 30.887882 1.213618 1.380308 -0.013265 0.005476 -317722.000000 0 0 1
10.287960 27.557312 6.886467 30.210445 1.213491 1.340825 -0.014815 0.005303 218571.000000 0 0 1
10.210260 28.249512 8.096867 31.110185 1.223974 1.307501 -0.010376 0.001726 -447518.000000 0 0 1
10.028960 27.405612 9.334667 30.639576 1.219987 1.261214 -0.006576 -0.008805 488881.000000 0 0 1
11.181460 26.662212 9.736467 30.507334 1.173700 1.245962 0.000220 -0.001196 406731.000000 0 0 1
11.837060 25.779212 8.862267 29.719077 1.140342 1.267989 0.001542 -0.000047 -744806.000000 0 0 1
12.957060 25.083612 9.615567 29.825025 1.093993 1.242533 0.005914 -0.003070 -270761.000000 0 0 1
13.931660 25.962012 10.190767 31.176417 1.078286 1.237802 0.006897 -0.003138 -160206.000000 0 0 1
15.053360 25.190812 10.490767 31.164673 1.032163 1.227467 0.011556 0.002002 504565.000000 0 0 1
16.368860 25.995812 10.855967 32.581802 1.008844 1.231110 0.004786 0.001589 -166155.000000 0 0 1
16.839260 26.731312 9.755767 33.065068 1.008649 1.271291 0.004038 0.000090 -307716.000000 0 0 1
18.233360 26.815212 9.633367 33.827693 0.973645 1.282022 0.029169 -0.013968 -48342.100000 0 0 1
19.002760 27.517512 10.771267 35.133155 0.966428 1.259194 0.028268 -0.012580 -1103350.000000 0 0 1
19.054760 28.965712 10.862367 36.333007 0.988930 1.267186 0.025773 -0.022975 706423.000000 0 0 1
17.773260 29.539012 11.150967 36.232390 1.029137 1.257956 0.010416 -0.010458 628434.000000 0 0 1
17.988860 31.027612 11.412167 37.637074 1.045385 1.262730 0.008889 -0.002234 -518540.000000 0 0 1
18.339060 31.833812 10.259867 38.144169 1.048145 1.298467 0.021280 -0.016810 761886.000000 0 0 1
17.323860 31.972012 9.224767 37.515624 1.074236 1.322357 0.013835 -0.015096 752571.000000 0 0 1
16.116060 32.856912 9.596467 37.833798 1.114784 1.314347 0.009415 -0.010949 -51008.800000 0 0 1
16.519860 34.194212 9.857467 39.234163 1.120745 1.316828 0.007166 -0.011479 1465010.000000 0 0 1
15.319060 -34.086518 10.022367 38.691242 -1.148427 1.308774 0.014630 -0.006229 1302590.000000 0 0 1
15.662160 -32.596518 10.190367 37.572328 -1.122882 1.296136 0.030656 0.002579 -188416.000000 0 0 1
16.168560 -32.109918 8.994067 37.058905 -1.104322 1.325652 0.018813 -0.003457 -223275.000000 0 0 1
16.294660 -30.745618 9.028667 35.948934 -1.083451 1.316926 -0.001021 -0.007392 -173453.000000 0 0 1
16.878460 -30.134318 7.791167 35.407088 -1.060226 1.348935 0.011064 -0.002734 476962.000000 0 0 1
15.960660 -30.265418 6.670167 34.860140 -1.085504 1.378268 0.011668 -0.000446 723433.000000 0 0 1
16.438160 -29.594818 5.491867 34.296166 -1.063786 1.409973 0.015223 -0.000211 -36102.700000 0 0 1
15.766160 -30.049918 4.186567 34.192057 -1.087611 1.448046 0.024686 -0.007231 -147246.000000 0 0 1
16.273060 -31.265618 3.710867 35.441810 -1.090901 1.465901 0.025475 -0.009385 -127219.000000 0 0 1
16.116360 -31.431718 2.243167 35.393810 -1.097007 1.507376 0.023916 -0.007615 -182667.000000 0 0 1
16.293160 -32.889918 1.778367 36.747468 -1.110848 1.522383 0.028889 -0.012701 -863526.000000 0 0 1
17.583060 -33.381118 1.908967 37.777073 -1.085989 1.520242 0.020557 -0.000469 -617610.000000 0 0 1
17.722660 34.371512 1.492367 38.700397 1.094730 1.532225 0.041369 -0.007532 -287555.000000 0 0 1
19.168060 33.870012 1.593767 38.950383 1.055805 1.529867 0.051459 -0.011444 -129064.000000 0 0 1
19.569160 33.605812 2.943067 38.999542 1.043482 1.495260 0.042171 -0.026616 -822866.000000 0 0 1
20.931160 33.399812 3.082867 39.536881 1.010986 1.492743 0.026318 -0.018870 -806940.000000 0 0 1
21.348460 33.026412 4.532167 39.585871 0.996952 1.456055 0.031230 -0.011674 -391941.000000 0 0 1
20.986860 31.731712 4.793067 38.344796 0.986460 1.445469 0.039584 -0.021292 193242.000000 0 0 1
21.571560 31.261812 6.021967 38.456432 0.966794 1.413557 0.022004 -0.021915 33581.000000 0 0 1
20.498260 30.670412 6.926367 37.534350 0.981636 1.385199 0.016978 -0.024450 -247995.000000 0 0 1
19.953960 29.451512 6.404667 36.146533 0.975318 1.392670 0.035821 -0.022391 202933.000000 0 0 1
18.742060 29.026712 6.990167 35.251628 0.997462 1.371180 0.031712 -0.029616 429806.000000 0 0 1
17.457660 29.387012 6.192667 34.737811 1.034756 1.391570 0.035595 -0.029117 -212322.000000 0 0 1
17.123560 30.775112 6.166167 35.753957 1.063046 1.397469 0.032499 -0.026077 161984.000000 0 0 1
17.282860 31.297312 4.878567 36.083506 1.066254 1.435179 0.041109 -0.026458 -139190.000000 0 0 1
17.215160 32.822012 4.754167 37.366406 1.087741 1.443219 0.042245 -0.023383 406334.000000 0 0 1
15.898760 33.315512 5.014267 37.253682 1.125540 1.435789 0.032998 -0.014904 411478.000000 0 0 1
15.939260 -34.381418 5.297667 38.264961 -1.136690 1.431903 0.031136 -0.017500 -1332670.000000 0 0 1
14.584760 -33.788218 5.523367 37.213795 -1.163305 1.421823 0.030667 -0.012452 -747491.000000 0 0 1
13.754360 -33.862718 4.365567 36.809296 -1.184974 1.451917 0.030320 -0.014544 -544851.000000 0 0 1
12.520660 -33.251318 4.542467 35.819703 -1.210671 1.443639 0.023488 -0.014060 -491035.000000 0 0 1
11.685660 -33.122418 3.242467 35.272693 -1.231627 1.478741 0.023957 -0.012985 -393155.000000 0 0 1
10.525760 -32.377218 3.487267 34.223339 -1.256476 1.468722 0.021849 -0.022781 -312311.000000 0 0 1
9.997960 -31.988218 2.219367 33.587660 -1.267865 1.504671 0.025861 -0.017316 -555040.000000 0 0 1
9.174860 -30.673318 2.227367 32.093484 -1.280151 1.501338 0.030837 -0.018040 -53534.000000 0 0 1
8.658760 -30.149818 0.977467 31.383772 -1.291132 1.539646 0.033128 -0.010923 407550.000000 0 0 1
7.655860 -30.960318 0.350367 31.894769 -1.328380 1.559811 0.022452 -0.015332 -345422.000000 0 0 1
7.958460 -31.493118 -1.053233 32.500198 -1.323274 1.603209 0.033924 -0.019909 -712266.000000 0 0 1
9.026460 -32.368118 -1.011533 33.618377 -1.298837 1.600890 0.027113 -0.018128 -653235.000000 0 0 1
9.154760 -33.093918 -2.231433 34.409248 -1.300916 1.635692 0.030838 -0.006797 664556.000000 0 0 1
10.406960 -34.067418 -2.259333 35.693114 -1.274318 1.634138 0.031639 -0.002830 760735.000000 0 0 1
10.249860 33.990612 -1.272633 35.525216 1.277918 1.606627 0.030944 -0.005315 -415543.000000 0 0 1
11.371760 33.184712 -1.432833 35.108333 1.240657 1.611619 0.034668 -0.009175 -636966.000000 0 0 1
11.677360 32.396112 -0.156933 34.436804 1.224837 1.575353 0.030811 -0.014664 -969013.000000 0 0 1
12.029460 33.204012 0.950167 35.328702 1.223216 1.543898 0.023490 -0.014461 638849.000000 0 0 1
13.416760 33.499912 1.166067 36.105585 1.189858 1.538495 0.035289 -0.013679 1055310.000000 0 0 1
14.364660 32.248912 1.318967 35.328112 1.151749 1.533453 0.047309 -0.016427 -905055.000000 0 0 1
14.964160 31.732212 0.183467 35.084085 1.130145 1.565567 0.049825 -0.011953 -322680.000000 0 0 1
15.934960 30.806512 0.561067 34.688311 1.093437 1.554621 0.058654 -0.013864 -317879.000000 0 0 1
16.749760 30.183312 -0.614833 34.524843 1.064173 1.588606 0.058432 -0.010848 146534.000000 0 0 1
17.745360 30.932912 -1.265033 35.683934 1.049960 1.606255 0.056337 -0.004983 -2534.220000 0 0 1
17.267360 31.826612 -2.242033 36.278391 1.073695 1.632637 0.060354 -0.020737 -381201.000000 0 0 1
18.424960 32.645912 -2.789033 37.590071 1.056974 1.645061 0.042130 -0.008846 -275908.000000 0 0 1
19.004960 33.565612 -1.909333 38.619741 1.055598 1.620256 0.021600 -0.001601 -326330.000000 0 0 1
19.937060 34.347312 -2.600433 39.799327 1.044872 1.636182 0.017439 0.006887 -1498870.000000 0 0 1
20.893660 -34.032618 -1.640633 39.968185 -1.020197 1.611856 0.013400 0.006146 -723236.000000 0 0 1
21.740860 34.249312 -0.879933 40.576528 1.005193 1.592484 0.005649 0.001170 600608.000000 0 0 1
22.603960 33.288912 -1.500933 40.265910 0.974288 1.608080 0.000626 0.006102 13257.900000 0 0 1
23.721760 33.759412 -2.479933 41.334851 0.958280 1.630829 0.000493 0.003482 -355953.000000 0 0 1
23.122560 34.253612 -3.687133 41.491658 0.977019 1.659778 -0.000131 0.002454 288247.000000 0 0 1
24.058060 -34.075918 -4.392333 41.943427 -0.956046 1.675709 0.008359 0.007036 -289415.000000 0 0 1
23.468260 -33.430518 -5.682133 41.238882 -0.958729 1.709022 0.013796 -0.001866 94370.800000 0 0 1
22.473560 -32.467018 -5.439333 39.859184 -0.965327 1.707687 0.006632 0.001930 233397.000000 0 0 1
21.736760 -32.127418 -6.596533 39.346817 -0.975962 1.739243 0.011626 -0.008495 498589.000000 0 0 1
20.729060 -30.906018 -6.519133 37.780617 -0.979998 1.744217 0.017382 -0.007192 481347.000000 0 0 1
19.542760 -31.236918 -5.824133 37.303955 -1.011744 1.727564 0.029958 0.001070 -256504.000000 0 0 1
18.718760 -30.084818 -5.940533 35.927402 -1.014213 1.736907 0.034492 -0.007540 470035.000000 0 0 1
17.455460 -29.982618 -5.030433 35.056465 -1.043578 1.714789 0.019029 -0.000747 774089.000000 0 0 1
16.360160 -30.763818 -5.514733 35.277183 -1.082035 1.727766 0.024828 -0.010476 -398176.000000 0 0 1
15.276760 -30.509418 -4.662133 34.437472 -1.106571 1.706593 0.016746 -0.011942 -337701.000000 0 0 1
13.941960 -31.127518 -5.086333 34.484365 -1.149692 1.718833 0.024733 -0.012454 -425915.000000 0 0 1
13.997360 -32.563018 -5.161533 35.817840 -1.164821 1.715405 0.028649 0.002377 -917380.000000 0 0 1
12.813960 -33.286718 -5.259933 36.053711 -1.203325 1.717210 0.029425 0.008104 -1004630.000000 0 0 1
12.971760 34.272212 -5.339733 37.031930 1.208968 1.715493 0.031804 -0.000033 -305617.000000 0 0 1
12.942760 33.548612 -4.114433 36.193273 1.202599 1.684722 0.044528 -0.008598 58939.200000 0 0 1
13.521960 32.220212 -4.208633 35.195143 1.173446 1.690663 0.039303 -0.008435 -285411.000000 0 0 1
12.741260 31.097612 -4.893033 33.960903 1.181940 1.715378 0.039617 -0.009861 -84299.200000 0 0 1
11.691860 30.581212 -4.067733 32.991765 1.205622 1.694406 0.030135 -0.011988 268285.000000 0 0 1
12.095460 29.575712 -3.099133 32.103388 1.182585 1.667483 0.044617 -0.015320 -56278.300000 0 0 1
10.901260 28.887012 -2.385033 30.967488 1.209944 1.647890 0.033253 -0.005623 308510.000000 0 0 1
10.284860 29.673012 -1.369333 31.434711 1.237148 1.614371 0.005964 -0.004719 -201640.000000 0 0 1
9.296060 28.898712 -0.732633 30.365919 1.259573 1.594925 -0.001642 0.005864 -474875.000000 0 0 1
8.178960 29.764712 -0.148033 30.868356 1.302628 1.575592 -0.007523 0.008597 -423740.000000 0 0 1
7.255660 29.000412 0.578467 29.899885 1.325637 1.551448 -0.008024 0.008234 -271342.000000 0 0 1
6.114660 29.792812 0.841067 30.425452 1.368368 1.543149 -0.006795 0.007771 -71479.000000 0 0 1
5.002160 29.050712 1.613067 29.522322 1.400281 1.516130 0.000983 0.003474 92747.200000 0 0 1
4.406660 27.979112 0.879867 28.337670 1.414581 1.539742 0.000835 0.000034 -444855.000000 0 0 1
3.244660 27.573312 1.524267 27.805373 1.453661 1.515950 0.010384 -0.004229 -246258.000000 0 0 1
2.609660 26.330412 0.813267 26.471916 1.472007 1.540070 0.012439 -0.001814 -838118.000000 0 0 1
1.486560 25.832812 1.405467 25.913691 1.513314 1.516533 0.016371 0.000523 -978793.000000 0 0 1
1.042660 24.721412 0.691167 24.753042 1.528645 1.542870 0.012077 -0.000529 676944.000000 0 1 0
-0.325440 24.100512 1.182967 24.131722 -1.557294 1.521755 0.010424 0.002140 712471.000000 0 1 0
-1.392140 25.017712 1.104367 25.080742 -1.515207 1.526750 0.012102 0.002480 -554576.000000 0 0 1
-2.577140 24.277312 1.257067 24.446058 -1.465038 1.519352 0.008542 0.006019 -601424.000000 0 1 0
-3.870240 25.104512 1.385467 25.438845 -1.417835 1.516307 0.022657 -0.002292 -565467.000000 0 0 1
-4.902440 24.282812 1.914767 24.846634 -1.371585 1.493656 0.013669 -0.004130 166942.000000 0 1 0
-6.058840 24.945312 2.376267 25.780318 -1.332525 1.478492 0.007511 -0.003984 250721.000000 0 0 1
-7.058440 25.554312 1.357367 26.545939 -1.301303 1.519641 0.017713 -0.000298 -584198.000000 0 0 1
-6.622140 26.755012 0.752567 27.572627 -1.328162 1.543499 0.021399 -0.006726 92566.100000 0 0 1
-7.231540 26.855412 -0.505633 27.816614 -1.307759 1.588975 0.013987 -0.001960 -164406.000000 0 0 1
-6.722940 28.099912 -1.227933 28.919039 -1.335959 1.613270 0.015724 -0.002650 40234.600000 0 0 1
-7.195940 29.334012 -0.749233 30.213030 -1.330236 1.595597 0.024127 -0.018407 -45004.700000 0 0 1
-7.327840 30.162412 -1.860533 31.095497 -1.332468 1.630665 0.021440 -0.013915 -218446.000000 0 0 1
-7.521040 31.703512 -1.538133 32.619696 -1.337872 1.617967 0.020244 -0.016843 -812042.000000 0 0 1
-7.459140 32.550612 -2.668833 33.500803 -1.345531 1.650546 0.011637 -0.010366 1279360.000000 0 0 1
-6.189540 32.599412 -3.398533 33.355391 -1.383163 1.672862 0.000843 -0.007960 1450670.000000 0 0 1
-4.967940 33.169212 -2.616333 33.641080 -1.422126 1.648647 0.002750 -0.010082 -771571.000000 0 0 1
-4.979140 34.549212 -2.573433 35.000892 -1.427665 1.644388 0.003870 -0.004712 96122.300000 0 0 1
-4.039440 -33.935718 -1.709433 34.218010 1.452322 1.620774 -0.000524 -0.003311 -54246.100000 0 0 1
-4.137440 -32.367718 -1.717733 32.676264 1.443660 1.623389 0.007391 -0.003181 -169347.000000 0 0 1
-5.330640 -31.824418 -1.227633 32.291120 1.404835 1.608823 0.011302 -0.003579 -462438.000000 0 0 1
-5.570740 -30.532218 -1.668133 31.081058 1.390327 1.624493 0.021412 0.004050 96917.200000 0 0 1
-6.928840 -29.921618 -1.239533 30.738388 1.343241 1.611133 0.049376 -0.003419 132424.000000 0 0 1
-7.102540 -29.804918 0.145067 30.639848 1.336858 1.566062 0.034939 -0.000451 -599954.000000 0 0 1
-8.176140 -28.949418 0.337867 30.083754 1.295537 1.559565 0.020776 -0.000393 -399833.000000 0 0 1
-8.126240 -28.163918 1.633167 29.358292 1.289892 1.515139 0.021289 0.002198 42180.600000 0 0 1
-7.138440 -27.164918 1.555267 28.130215 1.313825 1.515480 0.044179 -0.003846 -246765.000000 0 0 1
-6.970040 -26.485818 2.801967 27.530548 1.313470 1.468843 0.038123 -0.000191 608854.000000 0 0 1
-8.142140 -25.457318 3.136867 26.911140 1.261243 1.453967 0.028190 0.002359 967403.000000 0 0 1
-8.041440 -24.254418 2.483667 25.673141 1.250656 1.473903 0.026260 -0.007845 -788203.000000 0 0 1
-8.908240 -23.431718 3.167867 25.267322 1.207493 1.445091 0.025071 -0.006065 -525393.000000 0 0 1
-8.238740 -22.127818 3.713867 23.902092 1.214373 1.414786 0.005646 0.020189 335545.000000 0 1 0
-7.494840 -22.306818 4.895067 24.035983 1.246658 1.365706 0.001515 0.016810 12052.500000 0 1 0
-6.654940 -21.187218 5.237367 22.817021 1.266453 1.339194 -0.010940 0.021557 -146194.000000 0 1 0
-7.385540 -19.879318 5.655967 21.948200 1.215081 1.310159 -0.002436 0.002753 85940.200000 0 1 0
-7.927440 -20.053918 6.952867 22.657147 1.194343 1.258891 0.002180 0.002846 326423.000000 0 1 0
-8.725040 -18.959118 7.407167 22.145894 1.139490 1.229752 -0.000264 -0.004671 -86000.800000 0 1 0
-26.087750 28.896512 -5.777233 39.356773 -0.836437 1.718120 0.048415 -0.008145 -136377.000000 0 0 1
-25.668090 29.954512 -4.915233 39.752776 -0.862309 1.694759 0.023466 -0.012840 146780.000000 0 0 1
-24.547840 29.424012 -4.207133 38.549564 -0.875500 1.680150 0.004990 -0.004855 57919.500000 0 0 1
-23.925840 30.366012 -3.235733 38.794465 -0.903468 1.654300 0.000487 -0.010752 -508064.000000 0 0 1
-24.664840 30.529112 -2.028833 39.300092 -0.891250 1.622443 0.004834 -0.019561 427951.000000 0 0 1
-24.013440 31.423712 -1.078833 39.563353 -0.918280 1.598068 0.010272 -0.027831 317887.000000 0 0 1
-22.681340 30.971412 -0.450033 38.391068 -0.938699 1.582519 0.005802 -0.023996 144941.000000 0 0 1
-21.596240 31.029812 -1.365433 37.830031 -0.962771 1.606898 0.002026 -0.019509 532644.000000 0 0 1
-20.361640 30.739612 -0.686333 36.878059 -0.985760 1.589408 0.003311 -0.020112 869060.000000 0 0 1
-19.126740 30.536612 -1.596333 36.067508 -1.011224 1.615070 0.001998 -0.013680 1115510.000000 0 0 1
-17.847640 30.553412 -0.935733 35.396679 -1.042116 1.597235 0.005061 -0.012536 1260520.000000 0 0 1
-16.748240 30.138812 -1.774733 34.525371 -1.063585 1.622223 0.009453 -0.012047 1102830.000000 0 0 1
-15.384740 30.405812 -1.062833 34.093009 -1.102376 1.601976 0.019117 -0.015634 110981.000000 0 0 1
-15.121440 29.537212 0.007267 33.182901 -1.097638 1.570577 0.011278 -0.007788 -116727.000000 0 0 1
-13.934140 29.976712 0.614767 33.062690 -1.135677 1.552201 0.017020 -0.009568 -204527.000000 0 0 1
-13.553440 29.193712 1.855567 32.239909 -1.136148 1.513210 0.006932 -0.010305 -691527.000000 0 0 1
-14.431440 29.473812 2.896667 32.944844 -1.115474 1.482758 -0.001334 -0.008385 -403211.000000 0 0 1
-14.220440 28.724612 4.061567 32.308212 -1.111108 1.444750 -0.007256 -0.016636 199883.000000 0 0 1
-13.018440 29.133812 4.975367 32.295713 -1.150565 1.416124 0.007179 -0.014734 364090.000000 0 0 1
-13.147740 30.336212 5.680067 33.547161 -1.161832 1.400661 0.000270 -0.016312 -331398.000000 0 0 1
-13.092040 31.489112 4.896167 34.451969 -1.176775 1.428198 0.003729 -0.008743 -275332.000000 0 0 1
-12.891240 32.802312 5.750967 35.710634 -1.196341 1.409048 0.008027 -0.006129 -653827.000000 0 0 1
-13.990640 33.250012 6.443467 36.644503 -1.172513 1.394040 0.004063 -0.003371 -720452.000000 0 0 1
-13.604240 34.326812 7.225467 37.624630 -1.193470 1.377555 0.013803 -0.006959 -765474.000000 0 0 1
-14.638740 -34.321818 8.184667 38.200376 1.167644 1.354866 0.006440 -0.006565 -690694.000000 0 0 1
-14.804640 33.893812 9.294067 38.135909 -1.158978 1.324608 -0.003791 -0.010390 -268207.000000 0 0 1
-16.017440 34.229512 9.899067 39.066730 -1.133122 1.314615 0.004987 -0.010060 -1166990.000000 0 0 1
-16.251740 33.544612 11.278367 38.943056 -1.119641 1.276975 0.000456 -0.003368 286432.000000 0 0 1
-15.499540 33.977012 12.428967 39.359272 -1.142817 1.249515 0.005169 -0.004183 -267397.000000 0 0 1
-14.114740 33.792612 12.352867 38.649190 -1.175136 1.245473 0.016777 -0.002039 -805744.000000 0 0 1
-13.467740 34.123212 13.711867 39.163618 -1.194885 1.213100 0.022378 -0.001715 -209938.000000 0 0 1
-13.727440 33.206612 14.826067 38.870734 -1.178796 1.179465 0.017825 0.000555 447649.000000 0 0 1
-12.860540 32.074812 14.787767 37.588098 -1.189467 1.166452 0.006866 0.006394 -191466.000000 0 0 1
-13.605340 30.784312 14.434867 36.621640 -1.154651 1.165640 0.001551 -0.000605 -59777.000000 0 0 1
-13.758040 30.662312 13.013267 36.038954 -1.149028 1.201361 0.005767 -0.000505 664829.000000 0 0 1
-14.972540 29.975512 12.708567 35.835959 -1.107555 1.208276 -0.001886 -0.002928 426764.000000 0 0 1
-15.226140 29.932412 11.192067 35.398404 -1.100226 1.249102 -0.005454 -0.002797 388598.000000 0 0 1
-14.494540 28.843912 10.560767 33.964581 -1.105138 1.254620 -0.004714 0.001246 500153.000000 0 0 1
-14.307440 28.971812 9.149767 33.582540 -1.112089 1.294852 -0.011641 0.000494 -290287.000000 0 0 1
-13.823340 27.635012 8.544767 32.059190 -1.106980 1.301004 -0.015863 -0.001262 -553394.000000 0 0 1
-12.435140 27.523412 8.520767 31.381115 -1.146445 1.295819 -0.004125 -0.006816 -590776.000000 0 0 1
-12.011240 26.248212 8.184067 30.003625 -1.141638 1.294526 -0.009567 -0.009969 764354.000000 0 0 1
-10.657240 26.311112 7.362367 29.326709 -1.185947 1.317035 0.003881 -0.014886 621712.000000 0 0 1
-10.833840 26.615412 6.017967 29.359295 -1.184226 1.364357 0.013078 -0.014633 -353007.000000 0 0 1
-9.765440 26.252712 5.213267 28.491172 -1.214677 1.386781 0.030269 -0.012188 -710182.000000 0 0 1
-9.996540 26.583812 3.744867 28.647058 -1.211115 1.439697 0.019734 -0.009320 -100555.000000 0 0 1
-9.714740 27.923312 3.457967 29.766509 -1.235987 1.454364 0.023915 -0.009789 29255.000000 0 0 1
-10.041140 28.287312 2.133267 30.092314 -1.229701 1.499846 0.027496 -0.010976 -315983.000000 0 0 1
-9.557640 29.643612 1.658867 31.190448 -1.258901 1.517586 0.037180 -0.014436 -280873.000000 0 0 1
-10.237240 30.723112 2.233667 32.460745 -1.249157 1.501931 0.016279 -0.024026 -371322.000000 0 0 1
-9.945440 31.987712 1.740367 33.543321 -1.269357 1.518889 0.024912 -0.018703 -2326.530000 0 0 1
-10.662340 33.206212 2.447667 34.961823 -1.260101 1.500729 0.019329 -0.009535 1069560.000000 0 0 1
-11.998140 33.612312 2.094067 35.750916 -1.227937 1.512189 0.015975 -0.007349 554310.000000 0 0 1
-12.042640 34.495312 0.960367 36.549611 -1.234915 1.544518 0.016187 -0.003779 -1360720.000000 0 0 1
-13.398940 -34.097018 0.611067 36.640301 1.196369 1.554118 0.020653 -0.004884 -546343.000000 0 0 1
-14.300040 33.963312 0.181967 36.851470 -1.172281 1.565858 0.013415 -0.009596 190336.000000 0 0 1
-14.515440 33.898712 -1.265033 36.897439 -1.166218 1.605088 0.019297 -0.010207 -211900.000000 0 0 1
-13.379940 33.513412 -2.264533 36.156600 -1.190944 1.633469 0.022699 -0.011613 -75443.800000 0 0 1
-13.025840 32.168412 -2.291733 34.781192 -1.186050 1.636734 0.021125 -0.014056 1143530.000000 0 0 1
-11.580640 32.023512 -2.335733 34.133154 -1.223799 1.639280 0.019246 -0.009700 1198170.000000 0 0 1
-11.156140 30.548012 -2.375733 32.608045 -1.220645 1.643718 0.019085 -0.018770 -219810.000000 0 0 1
-11.341840 30.008612 -3.651833 32.287614 -1.209439 1.684142 0.021993 -0.017470 -92046.800000 0 0 1
-10.158440 29.996812 -4.446333 31.980815 -1.244268 1.710279 0.014964 -0.012078 119981.000000 0 0 1
-10.418240 29.437212 -5.821633 31.764455 -1.230639 1.755113 0.026278 -0.012154 -225352.000000 0 0 1
-10.551440 28.062812 -5.827733 30.542050 -1.211155 1.762784 0.035753 -0.007363 -9708.300000 0 0 1
-10.485240 27.654912 -7.179133 30.434756 -1.208396 1.808927 0.034965 -0.003289 31134.500000 0 0 1
-11.012040 26.233912 -7.415133 29.401826 -1.173369 1.825749 0.049414 -0.003952 325589.000000 0 0 1
-10.221340 25.253612 -6.762033 28.070372 -1.186204 1.814085 0.030966 0.001297 -26989.400000 0 0 1
-10.852740 24.026412 -6.854933 27.240421 -1.146529 1.825177 0.045561 0.001813 -89342.500000 0 0 1
-10.355340 23.001612 -5.826633 25.889320 -1.147776 1.797800 0.035967 0.008403 447181.000000 0 0 1
-9.038640 22.501112 -6.086333 25.000810 -1.188827 1.816713 0.048926 0.000448 494895.000000 0 0 1
-8.604740 21.321812 -5.396433 23.617424 -1.187220 1.801327 0.049502 0.001426 23153.000000 0 1 0
-8.501540 21.248412 -3.830933 23.204466 -1.190202 1.736650 0.034668 0.001912 209040.000000 0 1 0
-9.685140 20.849212 -3.154033 23.204299 -1.135923 1.707143 0.039250 -0.004815 38995.000000 0 1 0
-10.140640 19.529612 -3.145733 22.229124 -1.091872 1.712787 0.039522 -0.007607 -540088.000000 0 1 0
-11.365940 19.318512 -2.287933 22.530516 -1.038991 1.672520 0.033128 -0.006215 -597211.000000 0 1 0
-11.103040 19.424012 -0.908533 22.391855 -1.051510 1.611382 0.023246 -0.009481 143582.000000 0 1 0
-11.173840 18.115312 -0.335333 21.286890 -1.018103 1.586550 0.032883 -0.018741 -192095.000000 0 1 0
-10.935740 18.105112 1.178867 21.184316 -1.027431 1.515119 0.025623 -0.018448 -83633.100000 0 1 0
-12.117240 18.090212 1.949967 21.860596 -0.980612 1.481478 0.033900 -0.020247 1550.440000 0 1 0
-11.855540 18.458012 3.281167 22.181481 -0.999855 1.422328 0.023290 -0.016978 261892.000000 0 1 0
-13.154040 18.408012 4.127067 22.998182 -0.950350 1.390367 0.025071 -0.022011 281140.000000 0 1 0
-13.649840 17.114012 4.388367 22.326337 -0.897531 1.372953 0.020758 -0.024084 707514.000000 0 1 0
-14.940640 17.143212 5.008567 23.285150 -0.853941 1.354005 0.032328 -0.028389 416312.000000 0 1 0
-15.299340 15.778212 5.623967 22.685916 -0.800806 1.320278 0.021448 -0.026444 -396005.000000 0 1 0
-14.617140 15.352512 6.811567 22.265621 -0.809930 1.259888 0.020391 -0.017108 -26680.500000 0 1 0
-14.925440 16.054112 8.023967 23.342822 -0.821815 1.219895 0.004370 -0.015739 -2093300.000000 0 1 0
-13.980440 15.888612 9.197967 23.076033 -0.849196 1.160813 -0.004117 -0.005174 -505245.000000 0 1 0
-12.719640 16.481012 9.119267 22.728265 -0.913504 1.157937 -0.001850 -0.016070 -227560.000000 0 1 0
-11.903040 16.012712 8.044267 21.512776 -0.931565 1.187554 0.003711 -0.021799 -1519260.000000 0 1 0
-10.725140 16.905312 7.624367 21.423099 -1.005449 1.206925 0.007978 -0.035028 292044.000000 0 1 0
-9.782940 17.069412 8.701767 21.512589 -1.050371 1.154368 0.017094 -0.030514 -63086.200000 0 1 0
-9.219240 18.365712 8.505567 22.240469 -1.105565 1.178364 0.020232 -0.030751 -856243.000000 0 1 0
-8.071240 18.501312 9.477567 22.299501 -1.159434 1.131821 0.034888 -0.024175 -330101.000000 0 1 0
-6.950140 17.673612 9.114367 21.064964 -1.196123 1.123334 0.012564 -0.019372 677849.000000 0 1 0
-5.763740 17.887012 9.878267 21.230781 -1.259071 1.086845 0.020281 -0.016912 902646.000000 0 1 0
-4.729940 18.877512 9.326067 21.580276 -1.325291 1.123913 0.009764 -0.018359 -712593.000000 0 1 0
-5.219840 20.181212 9.311267 22.830413 -1.317695 1.150704 0.014955 -0.025758 -223902.000000 0 1 0
-4.555140 21.059012 8.437667 23.139264 -1.357775 1.197542 0.018980 -0.030653 -502234.000000 0 1 0
-3.126140 21.572312 8.634167 23.445389 -1.426884 1.193652 0.015691 -0.024382 -668960.000000 0 1 0
-2.080340 20.681412 8.485067 22.450946 -1.470544 1.183228 0.010464 -0.010711 -643788.000000 0 1 0
-0.898440 21.423412 8.275767 22.983866 -1.528884 1.202455 0.014698 -0.015553 173422.000000 0 1 0
0.386260 20.618012 8.010367 22.122785 1.552064 1.200291 0.017370 -0.006246 413276.000000 0 1 0
0.908660 19.887612 9.144667 21.908166 1.525138 1.140204 0.012431 -0.011537 -26020.600000 0 1 0
2.273960 19.539612 8.951267 21.612323 1.454941 1.143761 0.008729 -0.008906 123087.000000 0 1 0
3.055360 19.554612 10.254167 22.290492 1.415802 1.092774 0.000638 -0.012697 -814796.000000 0 1 0
3.336160 18.270812 10.648067 21.408734 1.390191 1.050231 -0.005321 -0.010034 62569.500000 0 1 0
4.030060 18.118312 11.854967 22.023961 1.351929 1.002406 -0.018365 -0.006013 1595400.000000 0 1 0
5.590360 18.475312 11.866767 22.658540 1.276969 1.019583 0.009443 -0.005711 1751630.000000 0 1 0
6.524660 17.652212 11.137167 21.867974 1.216748 1.036435 -0.003610 -0.003414 324220.000000 0 1 0
7.389960 17.051512 12.062967 22.155829 1.161841 0.995051 -0.004167 0.006198 -143361.000000 0 1 0
8.696460 16.428412 11.501267 21.858643 1.083942 1.016711 -0.001492 0.003954 260193.000000 0 1 0
9.520160 17.403212 10.910467 22.639424 1.070233 1.067948 0.009457 -0.008502 -490657.000000 0 1 0
10.619560 16.801412 10.295167 22.384213 1.007134 1.092880 0.009739 -0.010244 -454715.000000 0 1 0
11.610560 17.756212 9.643367 23.304135 0.991693 1.144167 0.008285 -0.005258 934299.000000 0 1 0
12.796260 17.185612 9.011967 23.244464 0.930766 1.172657 0.020909 -0.004115 1280190.000000 0 1 0
13.604660 18.136012 8.318567 24.149540 0.927202 1.219132 0.026924 -0.008223 58180.800000 0 1 0
14.671760 17.526712 7.422767 24.032138 0.873834 1.256793 0.025229 -0.017593 -741274.000000 0 1 0
15.764560 16.974112 8.081167 24.534610 0.822327 1.235151 0.042173 -0.014011 -177148.000000 0 1 0
16.796360 16.747012 7.109967 24.761498 0.783927 1.279559 0.061775 -0.011429 -539357.000000 0 1 0
18.164160 16.629312 7.752467 25.818046 0.741314 1.265817 0.035523 -0.005625 -814194.000000 0 0 1
18.251060 15.418812 8.450367 25.342645 0.701478 1.230841 0.031361 0.000400 279661.000000 0 0 1
19.317660 15.623812 9.354167 26.547616 0.680074 1.210711 0.032753 0.003360 -147997.000000 0 0 1
19.471760 14.511412 10.415267 26.423632 0.640457 1.165637 0.022096 0.006347 -119772.000000 0 0 1
20.059260 13.317712 9.955567 26.054725 0.586098 1.178726 0.016927 0.012298 246724.000000 0 0 1
20.235360 12.247112 10.874967 26.033180 0.544259 1.139846 0.027047 0.001692 299550.000000 0 0 1
21.219860 11.117112 10.309767 26.079953 0.482585 1.164387 0.023949 0.002523 219967.000000 0 0 1
22.584960 11.481412 10.509067 27.428885 0.470318 1.177604 0.018587 0.000072 245078.000000 0 0 1
23.455860 10.683012 9.791767 27.571413 0.427378 1.207730 0.035114 0.000649 -481899.000000 0 0 1
23.740560 9.232012 10.309967 27.479805 0.370876 1.186202 0.041969 -0.005074 -401143.000000 0 0 1
22.658460 8.295712 10.136467 26.171982 0.350963 1.173093 0.041960 -0.004279 836494.000000 0 0 1
22.973760 6.917512 10.353567 26.131245 0.292470 1.163407 0.035380 -0.010772 -245032.000000 0 0 1
24.142960 6.375012 9.495867 26.715067 0.258160 1.207401 0.049929 -0.014028 146621.000000 0 0 1
23.748160 5.948512 8.194867 25.816966 0.245433 1.247787 0.065365 -0.011502 1265010.000000 0 0 1
24.839060 5.397912 7.370267 26.465774 0.213988 1.288582 0.064440 -0.011048 993131.000000 0 0 1
24.332960 5.231412 5.919067 25.583119 0.211769 1.337315 0.062944 -0.013195 -14581.300000 0 0 1
23.383760 4.184312 5.838967 24.462261 0.177067 1.329777 0.064409 -0.014063 481045.000000 0 1 0
23.155060 3.848612 4.488267 23.897974 0.164705 1.381865 0.062931 -0.012898 -664042.000000 0 1 0
22.119660 2.747212 4.394267 22.718629 0.123565 1.376148 0.056485 -0.009133 -594005.000000 0 1 0
22.637060 1.471812 4.717467 23.170179 0.064926 1.365762 0.054153 -0.012607 199807.000000 0 1 0
21.726260 0.487612 4.361467 22.165075 0.022440 1.372732 0.026494 -0.010193 -785945.000000 0 1 0
22.211760 -0.954688 4.619467 22.707118 -0.042955 1.365929 0.025038 -0.006962 -535798.000000 0 1 0
22.218360 -1.326188 5.953567 23.040383 -0.059618 1.309434 0.027584 -0.010204 660640.000000 0 1 0
22.376960 -2.726888 6.086567 23.349744 -0.121264 1.307081 0.017928 -0.008801 -565496.000000 0 1 0
21.788760 -3.221988 7.426567 23.244035 -0.146810 1.245590 0.014878 -0.005190 -219922.000000 0 1 0
21.970960 -4.601688 7.683067 23.726107 -0.206460 1.241029 0.016890 -0.008397 317622.000000 0 1 0
21.577560 -4.997888 8.964767 23.894289 -0.227611 1.186200 0.018680 -0.011882 -67032.200000 0 1 0
21.746060 -6.523288 9.219767 24.504051 -0.291434 1.185046 0.032963 -0.021642 -589431.000000 0 1 0
20.687660 -7.266488 8.752167 23.608929 -0.337786 1.191018 0.042884 -0.015811 -386206.000000 0 1 0
20.504560 -8.475888 9.487067 24.130522 -0.391975 1.166734 0.047164 -0.008380 -226979.000000 0 1 0
-25.453900 -33.196018 5.545667 42.197525 0.916645 1.438993 0.002410 -0.001533 -230311.000000 0 0 1
-25.575500 -34.423818 6.116867 43.318836 0.931816 1.429117 0.015221 -0.002905 -23332.000000 0 0 1
-26.196150 -34.287618 7.364167 43.773394 0.918388 1.401759 0.014574 -0.003573 -376253.000000 0 0 1
-26.884120 33.557212 7.933067 43.723860 -0.895359 1.388350 0.017636 -0.004069 -9348.020000 0 0 1
-28.099510 33.309912 7.237767 44.175989 -0.870042 1.406215 0.015765 -0.008645 -30948.600000 0 0 1
-28.743870 32.195212 7.832367 43.864424 -0.841974 1.391275 0.015031 -0.002412 -219234.000000 0 0 1
-30.258920 32.453112 7.944767 45.076891 -0.820372 1.393622 -0.000359 0.004240 -178253.000000 0 0 1
-30.934790 32.676912 6.728867 45.497467 -0.812778 1.422356 -0.012064 0.004803 1186740.000000 0 0 1
-32.365050 32.583612 6.961567 46.450529 -0.788763 1.420359 -0.011273 0.009513 1255370.000000 0 0 1
-33.243520 32.663312 5.696667 46.951844 -0.776595 1.449167 -0.000864 0.007589 -193700.000000 0 0 1
-33.064610 31.498112 4.916667 45.930090 -0.761140 1.463544 -0.000785 -0.000848 889819.000000 0 0 1
-33.844560 31.598012 3.672767 46.447582 -0.751083 1.491640 0.013343 -0.001107 404895.000000 0 0 1
-33.389990 30.517612 2.694867 45.315322 -0.740483 1.511292 0.019188 -0.002211 -52554.300000 0 0 1
-33.610100 29.218112 3.199067 44.649423 -0.715607 1.499086 0.028728 -0.004425 78812.000000 0 0 1
-33.150720 28.203712 2.354467 43.588567 -0.704942 1.516754 0.023814 0.000236 -404731.000000 0 0 1
-33.359430 26.807512 2.937067 42.896627 -0.676930 1.502274 0.034163 -0.006781 371235.000000 0 0 1
-34.745054 26.497712 3.091067 43.805276 -0.651537 1.500174 0.055092 -0.012157 302945.000000 0 0 1
-34.904909 25.281312 3.838267 43.269270 -0.626843 1.481973 0.058153 -0.010465 -81656.300000 0 0 1
33.967907 25.085512 4.214767 42.436610 0.636104 1.471313 0.049043 -0.019659 734530.000000 0 0 1
33.059627 24.403012 3.312267 41.223987 0.635875 1.490362 0.040752 -0.010191 344678.000000 0 0 1
33.476797 23.149612 2.977867 40.810148 0.605007 1.497763 0.027843 -0.007556 -884841.000000 0 0 1
32.455177 22.336912 2.114067 39.455614 0.602789 1.517190 0.025480 -0.014129 1234870.000000 0 0 1
31.205237 21.898612 2.716767 38.219064 0.611907 1.499652 0.024669 -0.019126 1195290.000000 0 0 1
31.253007 20.831412 3.702867 37.741349 0.587916 1.472527 0.000202 0.009363 -311176.000000 0 0 1
31.903787 19.448812 3.253367 37.505897 0.547454 1.483944 -0.008549 -0.000703 21059.000000 0 0 1
31.237387 18.847912 2.168967 36.547538 0.542899 1.511415 -0.017984 0.002176 261600.000000 0 0 1
31.715357 17.540712 1.844467 36.289703 0.505195 1.519948 -0.022152 0.004135 -354118.000000 0 0 1
31.254047 16.377112 2.773167 35.393724 0.482663 1.492364 -0.015950 0.001666 672742.000000 0 0 1
29.836237 16.230312 2.943167 34.092320 0.498209 1.484359 -0.003494 0.009737 923498.000000 0 0 1
29.535977 15.045412 3.684967 33.351422 0.471134 1.460081 0.024555 0.000211 -232327.000000 0 0 1
28.057907 14.957412 4.096967 32.058626 0.489768 1.442650 0.021951 0.009539 -37675.600000 0 0 1
27.212817 14.695612 2.994867 31.071976 0.495153 1.474262 0.027555 0.000207 -439078.000000 0 0 1
25.917967 15.203012 3.113767 30.208743 0.530495 1.467538 0.013084 0.006687 -88700.000000 0 0 1
25.030787 14.726412 1.895367 29.103263 0.531796 1.505625 0.028317 -0.007138 716.708000 0 0 1
25.390637 15.234812 0.573067 29.616083 0.540432 1.551445 0.030608 -0.009113 -143003.000000 0 0 1
26.538617 14.675712 0.017667 30.326145 0.505139 1.570214 0.036566 -0.004083 -1201380.000000 0 0 1
26.977157 15.219912 -1.373333 31.004819 0.513663 1.615105 0.038545 -0.006404 100306.000000 0 0 1
27.544107 16.520112 -1.479033 32.152441 0.540250 1.616813 0.020997 -0.005493 667860.000000 0 0 1
28.563727 16.842412 -0.536733 33.163857 0.532770 1.586981 0.005420 -0.000776 -651248.000000 0 0 1
29.088967 18.248212 -0.685733 34.345822 0.560269 1.590763 0.001770 0.004326 -597201.000000 0 0 1
30.175737 18.448812 -1.538733 35.401998 0.548744 1.614275 -0.019447 0.010246 25467.500000 0 0 1
30.650047 19.796612 -1.471133 36.517057 0.573482 1.611093 -0.025478 0.022522 37426.500000 0 0 1
30.319167 20.695712 -2.684533 36.807216 0.598949 1.643796 -0.021478 0.009379 -176515.000000 0 0 1
30.843247 22.012012 -2.613933 37.982459 0.619844 1.639670 -0.046123 0.018690 165511.000000 0 0 1
30.337977 22.855712 -3.621133 38.156114 0.645654 1.665842 -0.022995 0.010666 -111129.000000 0 0 1
31.267657 24.089012 -3.767533 39.650236 0.656438 1.665959 -0.025158 0.012232 -80940.300000 0 0 1
31.240327 25.009312 -2.655433 40.105798 0.675074 1.637055 -0.015940 0.013371 -47543.100000 0 0 1
31.957947 24.568512 -1.518833 40.338927 0.655410 1.608457 -0.008903 0.020914 -399298.000000 0 0 1
31.764297 25.390712 -0.259833 40.666034 0.674343 1.577186 0.005205 -0.002284 -29242.800000 0 0 1
32.350097 26.698312 -0.386533 41.946133 0.689974 1.580011 0.021925 -0.003207 520399.000000 0 0 1
33.565827 26.771112 0.387367 42.936083 0.673258 1.561774 0.042391 -0.006754 475389.000000 0 0 1
34.422020 27.967412 -0.000833 44.351456 0.682308 1.570815 0.033189 -0.010123 -148980.000000 0 0 1
35.129580 27.892612 -1.273833 44.874356 0.671067 1.599187 0.023369 -0.011307 452489.000000 0 0 1
34.282767 28.167512 -2.373033 44.433638 0.687787 1.624228 0.011426 -0.011459 -4686.200000 0 0 1
34.858200 27.485612 -3.630833 44.539151 0.667688 1.652407 0.011298 -0.011187 237765.000000 0 0 1
-34.658526 28.470312 -4.261633 45.054785 -0.687685 1.665526 0.017224 -0.010587 278549.000000 0 0 1
-34.190340 28.042312 -5.559933 44.567516 -0.686927 1.695875 0.016936 -0.010700 173016.000000 0 0 1
35.101833 27.957712 -6.687933 45.370704 0.672587 1.718742 -0.000479 -0.004679 111378.000000 0 0 1
34.034217 27.077012 -6.421333 43.962780 0.672041 1.717384 -0.008243 0.002051 -473335.000000 0 0 1
33.047207 27.236712 -7.430333 43.464540 0.689310 1.742592 -0.017420 0.001053 -431422.000000 0 0 1
31.932467 26.260012 -7.096533 41.947962 0.688228 1.740789 -0.019960 -0.005670 -910809.000000 0 0 1
32.028527 24.828012 -7.397933 41.194492 0.659425 1.751361 -0.025145 0.001022 -78974.400000 0 0 1
33.289437 24.217712 -7.171733 41.786576 0.628938 1.743278 -0.023253 0.005336 77565.000000 0 0 1
33.229117 22.718512 -7.384433 40.924746 0.599698 1.752229 -0.027392 0.014291 136594.000000 0 0 1
32.472897 21.882812 -6.485833 39.691467 0.592979 1.734939 -0.015138 0.009374 340070.000000 0 0 1
32.626617 20.481312 -6.690533 39.099150 0.560573 1.742760 -0.005882 -0.007761 -881301.000000 0 0 1
31.474867 19.710412 -6.094433 37.633891 0.559481 1.733453 0.006661 -0.003675 -370637.000000 0 0 1
30.279457 19.723412 -6.846133 36.779451 0.577344 1.758028 -0.005002 -0.009981 -139085.000000 0 0 1
29.185737 19.209212 -6.127133 35.473128 0.582098 1.744393 0.019339 -0.013447 -142149.000000 0 0 1
27.932557 19.016112 -6.990433 34.506614 0.597714 1.774791 0.017641 -0.024847 -216522.000000 0 0 1
27.864537 17.787212 -7.693133 33.941150 0.568139 1.799444 0.023485 -0.025684 477610.000000 0 0 1
26.702247 17.817712 -8.531033 33.215349 0.588423 1.830547 0.030237 -0.022955 262625.000000 0 0 1
26.579757 16.607012 -9.492033 32.747138 0.558455 1.864875 0.033571 -0.024645 -339760.000000 0 0 1
25.723507 16.767612 -10.594033 32.482075 0.577668 1.903024 0.028364 -0.018594 -44790.700000 0 0 1
25.934987 15.780512 -11.600233 32.499439 0.546620 1.935783 0.031793 -0.018059 -527967.000000 0 0 1
25.057887 15.889012 -12.847133 32.332758 0.565111 1.979414 0.021377 -0.006411 115284.000000 0 0 1
23.649987 15.873012 -12.581833 31.138030 0.591109 1.986754 0.008399 -0.003445 579328.000000 0 0 1
22.865587 15.967112 -13.740533 31.089966 0.609586 2.028579 0.008527 -0.004997 -378629.000000 0 0 1
22.583087 14.627612 -14.447433 30.539993 0.574774 2.063564 0.008124 -0.003499 -217019.000000 0 0 1
23.629487 14.019412 -15.232333 31.415292 0.535480 2.077011 0.016711 -0.005496 556387.000000 0 0 1
24.041287 14.825012 -16.334733 32.628024 0.552571 2.095129 0.038600 -0.014345 507827.000000 0 0 1
25.502827 14.480712 -16.824333 33.810404 0.516413 2.091635 0.042507 -0.010516 869209.000000 0 0 1
25.626837 13.218612 -17.432633 33.695151 0.476216 2.114563 0.047450 -0.005183 218993.000000 0 0 1
26.980857 12.880012 -17.700133 34.744152 0.445385 2.105333 0.049651 0.003942 530128.000000 0 0 1
27.203327 11.476612 -18.264233 34.717659 0.399227 2.124780 0.031529 0.006970 4881.800000 0 0 1
26.564017 11.356012 -19.551633 34.883698 0.403983 2.165762 0.021336 0.001183 124728.000000 0 0 1
26.735607 10.062212 -20.107933 34.933791 0.359962 2.184136 0.002161 0.021099 1626500.000000 0 0 1
28.242897 9.650612 -20.507533 36.212628 0.329262 2.172817 0.019844 0.009122 955963.000000 0 0 1
28.585407 10.263212 -21.759833 37.362406 0.344703 2.192473 0.024151 -0.001832 361306.000000 0 0 1
29.154877 9.396112 -22.775533 38.170914 0.311772 2.210144 0.017722 0.003250 383918.000000 0 0 1
30.588977 8.858212 -22.483833 38.983024 0.281878 2.185553 0.018871 0.001545 -669559.000000 0 0 1
31.531737 9.885312 -22.444233 39.946382 0.303799 2.167428 0.023466 -0.003153 -1799800.000000 0 0 1
32.728467 9.224012 -22.470133 40.757108 0.274709 2.154740 0.004659 0.001001 -1785270.000000 0 0 1
33.902787 10.190312 -22.427933 41.907680 0.291984 2.135511 0.016744 -0.002569 -704382.000000 0 0 1
33.988787 10.908212 -21.224133 41.529394 0.310551 2.107217 0.014425 -0.007078 -30167.200000 0 0 1
34.916478 11.944312 -21.338633 42.628210 0.329604 2.095060 -0.008214 0.008865 -302252.000000 0 0 1
34.924504 12.802512 -20.035333 42.249732 0.351366 2.064865 -0.005468 0.003385 -274223.000000 0 0 1
35.177768 11.959612 -18.916433 41.693394 0.327717 2.041713 -0.009553 0.004739 294952.000000 0 0 1
34.947781 12.688512 -17.721833 41.187487 0.348271 2.015591 -0.002889 0.005639 -168943.000000 0 0 1
-35.013050 11.922312 -16.442333 40.477222 -0.328196 1.989101 -0.020504 0.002637 -938168.000000 0 0 1
34.600315 10.782612 -16.237733 39.712851 0.302095 1.992021 -0.012655 0.002632 -46111.300000 0 0 1
35.158988 9.934612 -15.265833 39.596674 0.275383 1.966582 -0.007819 -0.008311 228199.000000 0 0 1
34.231687 8.695312 -15.009133 38.375655 0.248753 1.972635 0.029026 -0.002230 21016.300000 0 0 1
33.064787 8.893512 -14.265833 37.092974 0.262754 1.965567 0.043573 -0.012124 242281.000000 0 0 1
33.269127 8.667612 -12.876233 36.711847 0.254865 1.929155 0.029649 -0.010455 72824.300000 0 0 1
31.994877 9.099512 -12.084033 35.390636 0.277089 1.919253 0.032923 -0.002617 344687.000000 0 0 1
32.175337 10.502412 -11.961233 35.897410 0.315508 1.910498 0.036075 -0.012813 389862.000000 0 0 1
31.326497 11.062312 -10.963233 34.984520 0.339460 1.889540 0.015875 -0.004551 -567743.000000 0 0 1
31.781727 10.737812 -9.513133 34.869449 0.325820 1.847121 0.019782 -0.005333 -199972.000000 0 0 1
33.004007 11.296512 -9.104433 36.052273 0.329778 1.826095 0.012407 -0.006723 -85475.000000 0 0 1
33.051507 12.691512 -8.891433 36.503893 0.366631 1.816846 0.025347 -0.017359 -865284.000000 0 0 1
32.731907 13.100012 -7.463833 36.037437 0.380697 1.779420 0.015607 -0.021236 -473115.000000 0 0 1
33.791927 12.869312 -6.567833 36.751190 0.363881 1.750472 0.023504 -0.019695 -57339.700000 0 0 1
33.566677 13.229612 -5.186433 36.450563 0.375435 1.713568 0.012221 -0.012297 696885.000000 0 0 1
34.908935 13.239612 -4.354433 37.588325 0.362501 1.686902 0.010318 -0.008769 1523390.000000 0 0 1
-34.529669 14.338612 -4.536633 37.662646 -0.393588 1.691544 0.011741 -0.007706 168600.000000 0 0 1
-33.360830 14.195212 -3.788733 36.452758 -0.402299 1.674920 0.005277 -0.000061 -96107.300000 0 0 1
-32.626160 15.565912 -3.510133 36.319209 -0.445160 1.667594 0.017255 -0.005491 165548.000000 0 0 1
-33.229180 16.394012 -2.568333 37.142138 -0.458323 1.640000 0.008180 -0.002691 319606.000000 0 0 1
-32.363450 17.522012 -2.284833 36.873219 -0.496227 1.632801 0.031449 -0.004456 423375.000000 0 0 1
-32.777750 18.340812 -1.046533 37.574746 -0.510146 1.598652 0.021139 0.001266 -346145.000000 0 0 1
-33.951820 19.068912 -1.253533 38.960504 -0.511741 1.602976 0.003407 0.007172 -209387.000000 0 0 1
-34.245929 19.898112 -0.129133 39.607262 -0.526359 1.574057 -0.016814 0.012816 -604594.000000 0 0 1
34.800492 20.681412 -0.224433 40.482656 0.536207 1.576340 -0.016877 0.004472 -310999.000000 0 0 1
34.800947 21.801412 -1.113633 41.080989 0.559649 1.597908 0.007639 0.009176 21083.200000 0 0 1
34.729559 21.339812 -2.491633 40.837949 0.550982 1.631847 -0.014254 0.019057 -274387.000000 0 0 1
34.895215 22.504712 -3.546733 41.673942 0.572798 1.656006 0.021025 -0.015468 -436214.000000 0 0 1
-34.135340 22.890112 -3.690733 41.265000 -0.590700 1.660356 0.028330 -0.003940 -668011.000000 0 0 1
-33.961380 24.034812 -4.488233 41.847243 -0.615882 1.678256 0.030398 -0.008694 23320.900000 0 0 1
-32.509880 24.432612 -4.832833 40.953646 -0.644489 1.689079 0.012559 -0.014567 43041.200000 0 0 1
-31.906070 23.507612 -5.670833 40.034529 -0.634984 1.712923 -0.008736 -0.001635 -519098.000000 0 0 1
-30.679070 24.000212 -6.145433 39.433258 -0.663854 1.727278 0.005864 0.007772 -233929.000000 0 0 1
-29.889430 23.147512 -7.149633 38.474701 -0.658959 1.757710 0.007176 -0.007725 -130373.000000 0 0 1
-30.483880 22.967112 -8.438833 39.089245 -0.645685 1.788396 0.011291 -0.015825 -148856.000000 0 0 1
-29.475060 23.010412 -9.421533 38.561944 -0.662845 1.817617 -0.019656 -0.013997 185681.000000 0 0 1
-30.107230 22.780812 -10.839033 39.279706 -0.647747 1.850369 -0.020746 0.010667 400086.000000 0 0 1
-30.948250 23.837112 -11.355633 40.681107 -0.656320 1.853692 -0.016574 0.007067 446652.000000 0 0 1
-31.252060 23.545612 -12.707033 41.140683 -0.645680 1.884799 -0.044389 0.014881 94359.100000 0 0 1
-31.972040 24.710812 -13.468633 42.593892 -0.657989 1.892529 0.017042 0.013060 575867.000000 0 0 1
-31.091780 25.808912 -13.571033 42.625951 -0.692820 1.894811 0.011316 0.001724 235163.000000 0 0 1
-30.234970 25.988312 -14.696833 42.491678 -0.710009 1.923968 0.002491 0.003058 -332093.000000 0 0 1
-29.169790 27.027412 -14.387833 42.289093 -0.747294 1.917953 -0.003744 0.004626 428976.000000 0 0 1
-28.010690 26.547912 -13.631833 40.929418 -0.758593 1.910340 -0.010641 0.007956 824634.000000 0 0 1
-28.194440 26.148612 -12.265433 40.362324 -0.747769 1.879562 -0.001147 0.008207 -768340.000000 0 0 1
-28.376180 27.320112 -11.292133 40.976925 -0.766439 1.849982 0.006448 0.015274 782418.000000 0 0 1
-27.165740 28.080912 -11.086933 40.613239 -0.801962 1.847294 0.000807 0.016366 716569.000000 0 0 1
-27.426360 29.083412 -10.143033 41.242347 -0.814713 1.819283 0.006635 0.003220 826865.000000 0 0 1
-26.191360 30.029612 -9.973233 41.075909 -0.853563 1.816048 0.005893 0.008075 611179.000000 0 0 1
-26.621910 31.180712 -9.304533 42.042089 -0.864104 1.793959 0.018169 -0.010686 -254404.000000 0 0 1
-25.592250 32.131712 -9.147533 42.084291 -0.898206 1.789908 0.012845 0.004729 -454585.000000 0 0 1
33.476927 -25.362238 34.407007 54.293553 -0.648350 0.884441 0.008271 -0.009168 -329782.000000 0 0 1
33.044717 -24.038288 -34.375294 53.399002 -0.628910 2.270177 0.008080 -0.017468 -414438.000000 0 0 1
31.990707 -24.121188 -33.486373 52.216609 -0.646060 2.266984 0.008270 -0.008354 -635752.000000 0 0 1
31.447677 -22.724988 -33.131523 51.020381 -0.625752 2.277563 0.008063 -0.012946 5499.750000 0 0 1
30.889077 -21.984188 -34.220950 51.073604 -0.618545 2.305048 0.001598 -0.014784 137068.000000 0 0 1
30.696107 -20.629388 -33.822353 50.117603 -0.591722 2.311571 0.003242 -0.011666 164484.000000 0 0 1
30.424777 -19.695188 34.076998 49.747455 -0.574503 0.816193 -0.002137 0.002864 914658.000000 0 0 1
31.618667 -19.460488 33.307282 49.878109 -0.551720 0.839583 0.004198 -0.001488 504949.000000 0 0 1
31.272537 -18.859188 32.106394 48.625724 -0.542666 0.849610 0.003684 0.015050 47034.900000 0 0 1
32.406187 -18.637788 31.058184 48.601840 -0.521932 0.877556 0.004276 0.020034 -425972.000000 0 0 1
33.425477 -17.835788 31.536184 49.294104 -0.490164 0.876616 0.002456 0.006735 359563.000000 0 0 1
34.538993 -17.674188 30.640544 49.438466 -0.472977 0.902345 0.004520 0.003354 562128.000000 0 0 1
-34.873676 -16.492088 30.960174 49.464074 0.441741 0.894496 0.000115 -0.004737 -573410.000000 0 0 1
-33.923420 -16.289188 29.937174 48.087113 0.447662 0.898785 0.013378 -0.004419 -244191.000000 0 0 1
-32.883850 -15.430488 30.215914 47.248799 0.438740 0.876940 0.008115 -0.013593 -110639.000000 0 0 1
-31.724970 -16.006888 31.076254 47.206226 0.467282 0.852227 0.018141 -0.023607 -531068.000000 0 0 1
-30.702990 -15.087588 31.406784 46.440230 0.456748 0.828090 0.010560 -0.020659 118902.000000 0 0 1
-29.742800 -15.701888 32.249004 46.595941 0.485735 0.806403 0.015682 -0.021880 311198.000000 0 0 1
-28.597380 -14.732388 32.639654 45.827943 0.475706 0.778138 0.012509 -0.018396 79388.200000 0 0 1
-29.024150 -13.944388 33.721084 46.625730 0.447878 0.762330 0.005887 -0.017719 1047310.000000 0 0 1
-27.942600 -13.072588 34.101340 45.984593 0.437588 0.735371 -0.000693 -0.014668 41846.700000 0 0 1
-28.154820 -12.509588 -33.552013 45.551303 0.418116 2.398791 0.005869 -0.014830 -91696.100000 0 0 1
-28.186850 -13.497588 -32.540583 45.117324 0.446594 2.376392 0.005457 -0.013116 328191.000000 0 0 1
-28.346630 -12.950688 -31.238283 44.125753 0.428551 2.357370 0.018939 -0.008239 -596653.000000 0 0 1
-28.469450 -14.015088 -30.130103 43.757918 0.457457 2.330303 0.019639 -0.007712 647519.000000 0 0 1
-29.779530 -14.617188 -30.175623 44.844741 0.456298 2.308906 0.007050 -0.012185 673149.000000 0 0 1
-30.047130 -15.191388 -28.969303 44.416537 0.468106 2.281304 0.012871 -0.011467 -373410.000000 0 0 1
-31.283110 -16.060188 -28.901163 45.517467 0.474296 2.258736 0.009032 -0.019115 -547620.000000 0 0 1
-31.181210 -17.198688 -29.744103 46.398000 0.504049 2.266681 0.007841 -0.016002 -763982.000000 0 0 1
-32.109920 -18.161788 -29.484433 47.225303 0.514751 2.245077 0.002515 -0.009238 -752787.000000 0 0 1
-31.874950 -19.477588 -30.281493 48.086980 0.548514 2.251993 -0.006295 -0.009510 386161.000000 0 0 1
-33.035800 -20.295388 -30.257473 49.181109 0.550901 2.233468 0.000573 -0.007841 388687.000000 0 0 1
-32.630540 -21.498888 -30.873043 49.800593 0.582577 2.239454 0.000254 -0.008327 962533.000000 0 0 1
-33.872170 -22.350288 -31.369253 51.292195 0.583263 2.228852 0.003772 -0.007845 1170450.000000 0 0 1
-34.844281 -22.736788 -30.371673 51.512367 0.578149 2.201359 0.002486 -0.010807 -143091.000000 0 0 1
34.668562 -23.725088 -30.822933 52.104147 -0.600138 2.203793 0.015765 -0.016258 -629849.000000 0 0 1
35.163773 -25.191168 -31.056323 53.250174 -0.621645 2.193478 0.011427 -0.013525 -229631.000000 0 0 1
-34.592035 -25.416278 -32.320713 53.732900 0.633665 2.216182 0.020463 -0.015663 -321890.000000 0 0 1
-33.998310 -26.675558 -32.378143 53.998283 0.665289 2.213815 0.023109 -0.013550 -421382.000000 0 0 1
-34.259774 -27.567968 -33.624773 55.356574 0.677585 2.223607 0.026768 -0.022786 572349.000000 0 0 1
34.756416 -28.071518 -33.740633 55.986149 -0.679397 2.217627 0.020702 -0.012236 530041.000000 0 0 1
34.631644 -29.401308 -34.203127 56.865117 -0.703897 2.216146 0.015904 -0.011724 42154.700000 0 0 1
-35.067581 -30.526528 -33.346923 57.215569 0.716279 2.193003 0.008411 -0.023469 7094.890000 0 0 1
34.650732 -30.848748 -32.124023 56.429348 -0.727417 2.176425 0.013109 -0.019799 -588426.000000 0 0 1
-34.956737 -31.726728 -31.400253 56.696866 0.736998 2.157750 0.008543 -0.022094 -826568.000000 0 0 1
34.785379 -32.323518 -30.106903 56.225066 -0.748730 2.135862 0.002728 -0.017584 -277638.000000 0 0 1
33.876657 -33.372668 -30.343083 56.409800 -0.777904 2.138746 0.012305 -0.010944 -33316.500000 0 0 1
33.463627 -33.878398 -29.132773 55.823639 -0.791557 2.119840 0.027762 -0.013060 -294677.000000 0 0 1
32.349527 34.166383 -29.240313 55.397017 0.812706 2.126842 0.026982 -0.019546 140116.000000 0 0 1
31.200377 -34.406494 -29.876613 55.225740 -0.834228 2.142411 0.031606 -0.012996 -519918.000000 0 0 1
30.044377 34.073910 -29.401763 54.112472 0.848161 2.145213 0.024253 -0.015776 23484.300000 0 0 1
28.813757 34.371745 -30.301103 54.127685 0.873135 2.164950 0.007731 -0.002168 60734.200000 0 0 1
28.818237 33.900143 -31.627993 54.589746 0.866249 2.188759 0.012404 -0.000186 210609.000000 0 0 1
27.527447 34.160301 -32.182113 54.409327 0.892510 2.203691 0.010631 0.004982 564314.000000 0 0 1
27.399327 33.568042 -33.589503 54.825097 0.886236 2.230226 0.016347 -0.000480 -102611.000000 0 0 1
27.042967 32.248333 -33.580613 53.841755 0.872967 2.244252 0.002370 0.004237 -31213.500000 0 0 1
26.996487 31.736033 34.216791 53.914515 0.865921 0.883242 0.015843 -0.001787 49116.300000 0 0 1
26.961247 30.190733 34.104150 52.929030 0.841845 0.870640 0.017894 -0.010960 -669655.000000 0 0 1
28.209937 29.630353 34.312477 53.395734 0.809951 0.872900 0.011071 -0.002318 -1162090.000000 0 0 1
28.231497 28.233363 34.361911 52.677140 0.785431 0.860166 0.002196 -0.001734 -167013.000000 0 0 1
29.542897 27.608403 -34.272892 53.006017 0.751562 2.273895 0.025929 -0.010393 -193270.000000 0 0 1
29.904287 27.766463 -32.945973 52.446925 0.748346 2.250005 0.028259 -0.005904 304391.000000 0 0 1
31.148577 27.067403 -32.734753 52.672974 0.715409 2.241416 0.033551 -0.006187 1098770.000000 0 0 1
31.982787 27.369463 -31.447023 52.544281 0.707826 2.212406 0.024548 -0.010065 -326170.000000 0 0 1
32.559427 28.665023 -31.452953 53.582535 0.721875 2.198145 0.018410 -0.007042 -207961.000000 0 0 1
31.740487 29.804683 -31.445883 53.708670 0.753955 2.196281 0.017441 -0.005342 -246492.000000 0 0 1
30.883847 30.074623 -30.170733 52.617184 0.772124 2.181447 0.021700 -0.004003 412819.000000 0 0 1
31.550847 30.499473 -28.965873 52.580373 0.768456 2.154224 0.013805 -0.001366 -224746.000000 0 0 1
30.582547 30.737153 -27.982863 51.605284 0.787919 2.143907 0.018097 -0.004485 -215296.000000 0 0 1
31.086767 31.192833 -26.591843 51.444203 0.787101 2.114030 0.037374 -0.009983 -9858.040000 0 0 1
31.640577 32.511153 -26.577753 52.578305 0.798968 2.100745 0.033624 -0.015746 76926.600000 0 0 1
31.965417 32.920913 -25.304703 52.401359 0.800123 2.074762 0.026546 -0.020863 166987.000000 0 0 1
32.464947 34.370999 -25.200193 53.576003 0.813909 2.060499 0.028825 -0.016584 -5266.680000 0 0 1
31.335987 -33.933708 -25.419093 52.721636 -0.825177 2.073890 0.041184 -0.011996 62093.900000 0 0 1
31.507537 -32.511988 -25.292033 51.859822 -0.801087 2.080250 0.035610 -0.018916 -883474.000000 0 0 1
32.247967 -31.814338 -26.479973 52.471635 -0.778629 2.099776 0.028875 -0.022800 684332.000000 0 0 1
33.617507 -32.226838 -26.570893 53.616399 -0.764281 2.089292 0.030683 -0.026276 520567.000000 0 0 1
34.454649 -31.445978 -25.692463 53.254812 -0.739775 2.074239 0.026767 -0.020510 -136206.000000 0 0 1
-34.410974 -31.712298 -26.057683 53.561066 0.744608 2.078880 -0.003401 -0.016549 -212754.000000 0 0 1
-33.987750 -33.076818 -25.928153 54.051014 0.771816 2.071107 -0.003700 -0.010819 -133115.000000 0 0 1
-33.515700 -33.458218 -24.640633 53.384598 0.784540 2.050558 0.002282 -0.004679 808250.000000 0 0 1
-32.106980 -32.871338 -24.243133 51.952984 0.797161 2.056280 -0.011817 -0.003762 226311.000000 0 0 1
-32.138560 -31.470278 -23.985233 50.976042 0.774892 2.060676 -0.013532 0.001823 -216567.000000 0 0 1
-32.368580 -31.066398 -22.651633 50.258756 0.764873 2.038346 -0.032776 0.002227 -121924.000000 0 0 1
-32.355080 -29.519628 -22.459733 49.220923 0.739604 2.044634 -0.037248 0.015996 421386.000000 0 0 1
-33.475220 -28.746878 -22.893333 49.709939 0.709553 2.049398 -0.035469 0.013491 -61711.700000 0 0 1
-33.421660 -28.454528 -24.272433 50.157936 0.705295 2.075925 -0.033543 0.018490 -177355.000000 0 0 1
-34.490651 -27.481478 -24.766033 50.578583 0.672775 2.082490 -0.023209 0.010868 -159317.000000 0 0 1
-34.422627 -26.214988 -24.051933 49.503922 0.650860 2.078142 -0.021165 0.011087 213899.000000 0 0 1
35.114453 -25.165658 -24.647333 49.737573 -0.621830 2.089261 -0.009463 0.009562 318147.000000 0 0 1
-34.869993 -24.668688 -26.107693 50.060685 0.615707 2.119429 -0.002168 0.001844 -200590.000000 0 0 1
-33.692650 -23.901188 -26.099033 48.863288 0.616999 2.134267 -0.012276 -0.002926 -347033.000000 0 0 1
-33.545980 -23.086588 -27.245063 48.996089 0.602767 2.160441 -0.007261 -0.006450 -115433.000000 0 0 1
-32.459380 -22.021788 -27.132853 47.694467 0.596110 2.175951 -0.009515 -0.014489 -450328.000000 0 0 1
-32.691710 -21.066888 -26.115753 46.846496 0.572436 2.162138 -0.011919 -0.002918 54833.300000 0 0 1
-33.569320 -19.981688 -26.401373 47.150817 0.536910 2.165103 -0.001808 -0.002100 178174.000000 0 0 1
-34.678966 -19.792488 -25.302813 47.271615 0.518623 2.135617 0.013983 -0.000650 180904.000000 0 0 1
-34.277411 -19.460788 -23.946333 46.120386 0.516364 2.116727 0.014962 -0.004911 -35215.700000 0 0 1
-33.656370 -20.514288 -23.195833 45.734384 0.547391 2.102713 -0.007641 -0.002807 50467.300000 0 0 1
-34.581383 -21.717388 -22.826833 46.782275 0.560760 2.080522 0.003101 0.000967 544961.000000 0 0 1
34.814198 -21.412788 -21.818133 46.331056 -0.551419 2.061128 0.009916 0.004247 144757.000000 0 0 1
34.320889 -22.596788 -21.204833 46.240493 -0.582256 2.047190 0.007589 0.005076 -353326.000000 0 0 1
33.222547 -22.301288 -20.192133 44.819720 -0.591183 2.038143 0.010634 -0.000627 62997.400000 0 0 1
32.007597 -21.903688 -20.799533 44.009980 -0.600130 2.063046 0.032822 0.004320 -29068.900000 0 0 1
30.889907 -21.790188 -19.945833 42.741489 -0.614351 2.056309 0.031568 0.007592 -320140.000000 0 0 1
29.737847 -21.115188 -20.630733 41.902480 -0.617435 2.085585 0.024488 0.014728 -919235.000000 0 0 1
29.107657 -21.861988 -21.655933 42.357781 -0.644188 2.107449 0.026044 0.017774 1067590.000000 0 0 1
27.950917 -21.276588 -22.323033 41.620485 -0.650639 2.136900 0.024024 0.025284 977169.000000 0 0 1
28.053507 -19.937188 -23.102533 41.451390 -0.617861 2.161975 0.020036 0.012066 -712973.000000 0 0 1
28.069227 -18.838088 -22.224433 40.455908 -0.591086 2.152382 0.015045 0.018318 130277.000000 0 0 1
28.316157 -17.600888 -22.937233 40.468663 -0.556140 2.173401 -0.000259 0.014524 223993.000000 0 0 1
29.326187 -16.745988 -22.105633 40.362264 -0.518842 2.150386 -0.005138 0.010825 -340658.000000 0 0 1
28.686047 -16.176988 -20.981133 39.048587 -0.513477 2.138039 -0.014954 0.012371 201678.000000 0 0 1
29.592297 -15.561488 -20.094133 39.008180 -0.484123 2.111951 -0.018372 0.003418 -728.349000 0 0 1
30.525117 -16.534088 -19.293233 39.716340 -0.496414 2.078047 0.009504 -0.004743 -24034.000000 0 0 1
31.557637 -16.998688 -20.142833 41.116585 -0.494092 2.082766 0.003062 -0.000327 -232088.000000 0 0 1
32.371567 -17.945088 -19.434433 41.804805 -0.506175 2.054301 0.010876 -0.003287 -465798.000000 0 0 1
33.505967 -18.417788 -20.321133 43.299113 -0.502603 2.059317 -0.000845 -0.002510 -733470.000000 0 0 1
34.494721 -17.446088 -20.486433 43.748665 -0.468246 2.058135 0.002149 -0.001763 -192856.000000 0 0 1
-34.939462 -17.877288 -21.472933 44.737571 0.472936 2.071423 0.003014 0.001549 -224798.000000 0 0 1
-33.967970 -16.823388 -21.960433 43.807647 0.459858 2.095888 0.000104 0.004424 -125490.000000 0 0 1
-33.072090 -16.312388 -20.984333 42.428756 0.458223 2.088146 0.002406 0.001683 -231255.000000 0 0 1
-32.306450 -15.218188 -21.500233 41.684049 0.440227 2.112726 0.005596 -0.002512 -195832.000000 0 0 1
-31.167880 -14.967888 -20.480333 40.186048 0.447710 2.105560 0.000559 0.006358 -57121.000000 0 0 1
-30.081290 -15.868088 -20.385333 39.651507 0.485410 2.110769 -0.010833 -0.002897 334544.000000 0 0 1
-30.427080 -17.108388 -19.851133 40.156838 0.512219 2.087872 -0.006274 -0.002916 -687410.000000 0 0 1
-29.210120 -18.036088 -19.693833 39.577502 0.553159 2.091628 -0.016317 -0.013557 9969.800000 0 0 1
-29.653360 -19.355988 -19.486133 40.418874 0.578300 2.073852 -0.018454 -0.008211 142636.000000 0 0 1
-28.554310 -20.240588 -19.393233 40.014091 0.616638 2.076771 -0.019678 -0.008848 -75021.000000 0 0 1
-28.873820 -21.707788 -19.059533 40.843498 0.644662 2.056293 -0.017492 0.003555 -55208.200000 0 0 1
-29.697620 -22.340588 -20.062533 42.232165 0.644951 2.065821 -0.016214 0.003300 320240.000000 0 0 1
-30.078700 -23.604888 -19.647733 42.987816 0.665386 2.045476 -0.016601 0.017395 -36886.900000 0 0 1
-31.217920 -24.225288 -20.478233 44.505967 0.659938 2.048930 -0.021608 0.016474 -46773.600000 0 0 1
-30.738150 -24.365188 -21.783133 44.866481 0.670255 2.077743 -0.024697 0.008124 323170.000000 0 0 1
-31.574060 -25.194658 -22.588733 46.281129 0.673492 2.080681 -0.020529 0.009554 29550.600000 0 0 1
-31.140970 -25.227698 -24.082633 46.756496 0.680877 2.111880 -0.021033 0.007913 93853.700000 0 0 1
-29.866210 -25.814558 -24.250133 46.329805 0.712760 2.121661 -0.021357 0.006790 -312305.000000 0 0 1
-29.766800 -26.154248 -25.605313 47.177740 0.720887 2.144494 -0.011274 0.006653 1035040.000000 0 0 1
-28.322940 -26.464478 -26.193453 46.783058 0.751490 2.165052 -0.003481 -0.002787 948224.000000 0 0 1
-27.563290 -25.287918 -26.321493 45.738766 0.742372 2.183981 0.005637 -0.005935 -1411190.000000 0 0 1
-26.302350 -25.645728 -26.728173 45.430300 0.772759 2.199793 0.005185 -0.001184 -545762.000000 0 0 1
-25.352780 -24.425888 -27.014273 44.375200 0.766780 2.225305 0.018347 -0.003023 304390.000000 0 0 1
-25.566660 -23.884488 -28.288213 44.992731 0.751394 2.250713 0.013285 -0.005119 150098.000000 0 0 1
-24.763040 -22.722888 -28.412953 44.009472 0.742461 2.272618 0.024649 -0.012117 122475.000000 0 0 1
-24.590140 -22.335288 -29.903663 44.696411 0.737383 2.303712 0.012947 -0.004198 -48271.300000 0 0 1
-23.888540 -23.308988 -30.660373 45.321405 0.773119 2.313809 0.026787 -0.005355 304397.000000 0 0 1
-23.401840 -22.840488 -31.912933 45.692114 0.773259 2.344004 0.025491 -0.001130 -156653.000000 0 0 1
-22.924840 -23.872688 -32.955543 46.706759 0.805650 2.354043 0.020467 -0.001666 -1087540.000000 0 0 1
-23.992040 -24.499588 -33.507883 47.943988 0.795864 2.344650 0.006866 -0.003549 -1242440.000000 0 0 1
-23.673340 -25.673298 -34.189290 48.871799 0.825905 2.345593 0.014503 -0.002694 35079.100000 0 0 1
-19.476040 -14.694188 -12.349333 27.344859 0.646359 2.039370 -0.027630 0.023161 111302.000000 0 0 1
-19.863640 -14.005588 -11.148633 26.739721 0.614132 2.000863 -0.030383 0.022546 364940.000000 0 0 1
-18.946940 -14.442188 -10.168133 25.902785 0.651291 1.974199 -0.033159 0.007487 103995.000000 0 0 1
-19.387540 -13.942488 -8.788133 25.446040 0.623461 1.923422 -0.020270 -0.006993 -185109.000000 0 0 1
-20.532940 -14.485288 -8.181033 26.426398 0.614385 1.885546 -0.003422 -0.011200 70392.200000 0 0 1
-20.566440 -14.081788 -6.828833 25.843919 0.600382 1.838206 -0.010369 -0.014891 9064.980000 0 0 1
-21.764840 -14.624388 -6.030833 26.906355 0.591636 1.796858 -0.001544 -0.019310 -438518.000000 0 0 1
-21.522640 -15.983088 -5.686633 27.404761 0.638759 1.779820 -0.017980 -0.009450 484597.000000 0 0 1
-20.763440 -16.142588 -4.506133 26.683493 0.660840 1.740483 -0.005695 -0.005451 -318452.000000 0 0 1
-20.641140 -17.617288 -3.945633 27.422500 0.706525 1.715181 -0.018409 -0.002812 550401.000000 0 0 1
-21.874140 -18.226088 -3.518833 28.688856 0.694675 1.693761 -0.002435 -0.004694 857435.000000 0 0 1
-21.590240 -19.107388 -2.480633 28.937593 0.724466 1.656625 -0.007232 -0.002570 -70965.400000 0 0 1
-22.713040 -20.103888 -2.180433 30.410570 0.724536 1.642558 -0.003216 -0.005422 5205.530000 0 0 1
-22.734140 -21.084388 -3.180533 31.169028 0.747766 1.673016 -0.007603 -0.009617 859986.000000 0 0 1
-23.980540 -21.816888 -3.127333 32.570279 0.738189 1.666962 0.002584 -0.006228 984894.000000 0 0 1
-24.130840 -22.955288 -4.230333 33.572882 0.760437 1.697137 0.003214 -0.002405 -367715.000000 0 0 1
-23.068840 -23.863588 -4.032633 33.435076 0.802330 1.691702 -0.005497 -0.003328 -335661.000000 0 0 1
-22.844740 -24.740588 -5.114933 34.060848 0.825218 1.721537 -0.006588 -0.007373 -426408.000000 0 0 1
-21.431040 -24.670788 -5.687133 33.170480 0.855557 1.743099 -0.012234 -0.003184 -328598.000000 0 0 1
-20.973440 -23.511988 -6.347633 32.140180 0.842401 1.769602 -0.016323 0.000760 137269.000000 0 0 1
-20.574240 -22.464988 -5.405533 30.938565 0.829301 1.746416 -0.019574 0.005306 -673613.000000 0 0 1
-20.731140 -21.041088 -5.976233 30.136737 0.792818 1.770423 -0.019000 0.015813 -52882.300000 0 0 1
-19.703340 -20.643688 -6.859333 29.350194 0.808700 1.806684 -0.030163 0.015921 13571.100000 0 0 1
-19.986540 -19.348188 -7.392633 28.783071 0.769171 1.830547 -0.034244 0.017469 69314.100000 0 0 1
-18.945540 -18.916188 -8.443533 28.072209 0.784623 1.876306 -0.025518 0.015497 -186748.000000 0 0 1
-18.936640 -19.759088 -9.603433 29.004203 0.806649 1.908271 -0.040884 0.013154 -329200.000000 0 0 1
-17.791540 -19.645188 -10.402533 28.472530 0.834872 1.944809 0.011663 0.011693 -332509.000000 0 0 1
-17.553840 -18.288088 -11.117233 27.680035 0.805881 1.984096 0.011428 0.014341 -265603.000000 0 0 1
-17.242440 -17.198588 -10.262633 26.427539 0.784125 1.969616 0.002568 0.010231 436793.000000 0 0 1
-15.846940 -17.168488 -9.964133 25.400126 0.825405 1.973913 0.040650 0.014291 55344.100000 0 0 1
-15.477140 -16.106488 -8.909333 24.048639 0.805322 1.950313 0.015648 0.008804 -111914.000000 0 1 0
-15.963040 -16.389588 -7.609233 24.110945 0.798582 1.891877 -0.010911 0.011128 205265.000000 0 1 0
-16.167640 -15.157688 -6.893933 23.209360 0.753169 1.872380 -0.000119 0.008385 -49637.800000 0 1 0
-16.557640 -15.394688 -5.413733 23.247803 0.749018 1.805825 -0.014713 -0.001005 33951.200000 0 1 0
-17.029340 -14.227888 -4.765733 22.696771 0.696011 1.782345 -0.012443 0.003940 108345.000000 0 1 0
-17.396140 -14.648588 -3.458933 23.003718 0.699866 1.721733 -0.013197 0.005995 19812.200000 0 1 0
-18.233340 -13.547688 -2.737833 22.879910 0.639017 1.690745 -0.014407 0.004595 1010850.000000 0 1 0
-19.565740 -13.324288 -3.229033 23.891033 0.597861 1.706368 -0.008819 -0.004885 1005290.000000 0 1 0
-20.379040 -12.561488 -2.368333 24.056293 0.552386 1.669406 -0.008528 0.005102 -348191.000000 0 1 0
-21.881840 -12.651388 -2.638633 25.413282 0.524212 1.674813 -0.016416 0.004989 -436537.000000 0 0 1
-22.171340 -12.028688 -3.853733 25.516836 0.497092 1.722403 -0.009064 -0.004356 1001770.000000 0 0 1
-23.582340 -12.107588 -4.133133 26.829149 0.474324 1.725466 -0.009297 -0.003253 570157.000000 0 0 1
-23.980440 -11.261188 -5.361433 27.029998 0.439032 1.770472 0.000278 -0.011536 -224920.000000 0 0 1
-23.548640 -11.792388 -6.611233 27.153402 0.464261 1.816746 0.008289 -0.019629 196907.000000 0 0 1
-24.169540 -11.160088 -7.706733 27.714761 0.432575 1.852584 0.017336 -0.016762 -550221.000000 0 0 1
-23.569240 -11.412988 -9.053733 27.708039 0.450954 1.903664 0.036627 -0.023351 -30973.600000 0 0 1
-22.335840 -10.722088 -9.271033 26.453827 0.447552 1.928860 0.024501 -0.015124 476643.000000 0 0 1
-21.592040 -11.329888 -10.301133 26.470661 0.483232 1.970508 0.008110 -0.011394 -421683.000000 0 0 1
-20.196640 -10.677688 -10.365833 25.087203 0.486332 1.996753 0.004582 -0.000919 -495134.000000 0 0 1
-20.121140 -9.367988 -10.915233 24.733819 0.435734 2.027852 0.012493 -0.005363 658876.000000 0 1 0
-19.016740 -8.651188 -10.357033 23.318396 0.426942 2.031030 -0.001089 0.001782 181952.000000 0 1 0
-18.810040 -7.251088 -10.983533 22.957218 0.367936 2.069668 -0.029330 0.004200 -60999.200000 0 1 0
-18.387440 -7.378288 -12.316833 23.328983 0.381599 2.126996 -0.009597 -0.000368 271383.000000 0 1 0
-18.448040 -6.103188 -12.896133 23.321435 0.319497 2.156725 0.006394 -0.006773 -259645.000000 0 1 0
-17.997040 -5.997388 -14.342733 23.781844 0.321669 2.218173 0.014218 -0.002327 217296.000000 0 1 0
-18.806340 -6.669888 -15.374533 25.190119 0.340822 2.227286 0.024925 -0.007871 570632.000000 0 0 1
-18.277240 -6.645588 -16.688533 25.626714 0.348738 2.279982 0.022932 -0.011458 -488207.000000 0 0 1
-18.864640 -7.551388 -17.777133 26.998603 0.380759 2.289549 0.029753 -0.014411 -370742.000000 0 0 1
-20.071340 -6.997788 -18.273433 28.031163 0.335468 2.280880 0.043876 -0.026700 227958.000000 0 0 1
-20.710040 -7.925688 -19.106333 29.270706 0.365502 2.282000 0.056598 -0.025725 771598.000000 0 0 1
-22.103540 -7.405188 -19.686933 30.511942 0.323270 2.272108 0.054775 -0.029733 -301533.000000 0 0 1
-22.087440 -6.195088 -20.509633 30.771402 0.273454 2.300322 0.054425 -0.030732 806339.000000 0 0 1
-23.309640 -6.072088 -21.260833 32.128377 0.254833 2.293942 0.043596 -0.030200 1102980.000000 0 0 1
-24.643440 -6.019388 -20.466133 32.594398 0.239568 2.249653 0.058314 -0.034046 -907366.000000 0 0 1
-24.827740 -4.772788 -19.830533 32.131701 0.189919 2.235930 0.049801 -0.026482 224015.000000 0 0 1
-26.038570 -4.629488 -19.104533 32.625488 0.175955 2.196380 0.067081 -0.025187 -12935.800000 0 0 1
-26.087440 -3.266288 -18.377633 32.077415 0.124557 2.180854 0.052476 -0.020288 27765.400000 0 0 1
-26.155840 -2.081088 -19.121033 32.466487 0.079398 2.200551 0.047148 -0.017322 65072.200000 0 0 1
-27.463270 -1.719288 -19.499933 33.725873 0.062522 2.187304 0.036898 -0.014368 -71830.700000 0 0 1
-27.458960 -0.503288 -20.456133 34.244724 0.018327 2.210991 0.034617 -0.004551 -381709.000000 0 0 1
-26.681430 -0.592888 -21.624033 34.348930 0.022217 2.251758 0.031673 -0.005370 266605.000000 0 0 1
-27.242190 -1.450088 -22.664333 35.467050 0.053179 2.264026 0.031563 0.004594 146911.000000 0 0 1
-26.600770 -1.305488 -24.117733 35.930075 0.049038 2.306678 0.039183 0.005185 -198747.000000 0 0 1
-26.887830 -0.000988 -24.716933 36.522352 0.000037 2.314152 0.010103 0.012052 209599.000000 0 0 1
-26.403820 1.217912 -24.111133 35.776972 -0.046094 2.310310 0.018815 0.006262 116951.000000 0 0 1
-24.872340 1.336012 -23.874733 34.502480 -0.053663 2.335013 0.029735 -0.002409 238201.000000 0 0 1
-24.156340 1.112712 -25.080653 34.839719 -0.046030 2.374435 0.027620 0.007698 199013.000000 0 0 1
-22.786840 0.817412 -24.826833 33.708751 -0.035857 2.398693 0.034372 0.006665 156232.000000 0 0 1
-21.960140 0.339712 -25.980773 34.020049 -0.015468 2.439806 0.030705 0.004523 -437196.000000 0 0 1
-21.684340 1.309912 -26.924373 34.595496 -0.060335 2.462690 0.013184 0.005385 121796.000000 0 0 1
-20.975440 0.650712 -27.983003 34.977721 -0.031013 2.498131 0.005826 -0.000959 226138.000000 0 0 1
-20.967140 1.486812 -29.324283 36.079705 -0.070793 2.519677 0.011204 0.000040 39950.700000 0 0 1
-19.906540 2.433012 -29.264533 35.476792 -0.121619 2.540808 0.015498 -0.002952 432200.000000 0 0 1
-19.918040 3.227512 -30.461063 36.537946 -0.160643 2.556540 -0.002222 -0.005228 -50317.400000 0 0 1
-19.314040 2.520112 -31.744913 37.244095 -0.129748 2.591254 -0.002216 -0.001820 429720.000000 0 0 1
-17.903240 2.290312 -31.644823 36.430294 -0.127236 2.623248 -0.014819 0.004413 586197.000000 0 0 1
-17.421040 1.785312 -32.870603 37.244550 -0.102124 2.652079 -0.015070 0.009328 113605.000000 0 0 1
-15.881040 1.647412 -32.925143 36.592163 -0.103365 2.690077 -0.021357 -0.002903 75094.600000 0 0 1
-15.219540 2.881412 -32.819903 36.291638 -0.187109 2.700622 -0.015716 0.004961 -911128.000000 0 0 1
-13.863340 2.737512 -33.067703 35.960522 -0.194956 2.737745 -0.004338 0.001040 -643090.000000 0 0 1
-13.271140 4.122912 -33.563133 36.326374 -0.301215 2.749033 0.010751 0.011737 -512844.000000 0 0 1
-12.881940 4.984712 -32.554693 35.363820 -0.369209 2.740321 0.022395 -0.003714 245855.000000 0 0 1
-12.546740 6.300712 -33.098593 35.953254 -0.465389 2.740412 0.019540 0.004766 -111356.000000 0 0 1
-12.305240 7.286712 -31.999323 35.049562 -0.534637 2.721310 0.016219 0.000667 123854.000000 0 0 1
-11.086140 7.167412 -31.254663 33.928281 -0.573925 2.741944 0.035888 -0.011336 530082.000000 0 0 1
-11.158140 6.318612 -30.070573 32.690492 -0.515255 2.738512 0.041472 -0.015253 -153620.000000 0 0 1
-9.815840 5.629712 -29.731743 31.812276 -0.520731 2.777928 0.048743 -0.017660 -260643.000000 0 0 1
-9.277440 4.738312 -30.720953 32.439165 -0.472199 2.814663 0.043325 -0.014779 475458.000000 0 0 1
-9.963640 3.492212 -30.890093 32.644563 -0.337116 2.812251 0.045582 -0.014261 -254212.000000 0 0 1
-9.453240 2.790712 -32.137793 33.615317 -0.287059 2.844003 0.039089 -0.008201 -250845.000000 0 0 1
-9.940440 1.528912 -32.415173 33.939554 -0.152611 2.840744 0.040026 -0.006785 297132.000000 0 0 1
-9.350840 0.905912 -33.575133 34.864716 -0.096579 2.868761 0.029701 -0.000165 25053.500000 0 0 1
-9.948940 1.342012 34.103580 35.550479 -0.134081 0.286283 0.031169 -0.000250 -185835.000000 0 0 1
-11.278940 0.991412 33.850927 35.694294 -0.087674 0.322781 0.023089 -0.000237 -351331.000000 0 0 1
-11.588240 1.402312 32.493684 34.526704 -0.120426 0.344876 0.004962 0.008981 596175.000000 0 0 1
-13.021840 1.065112 31.949734 34.517941 -0.081613 0.388184 0.002059 0.008151 1227680.000000 0 0 1
-13.958540 2.153712 32.141114 35.107414 -0.153086 0.414028 -0.009821 0.018524 806352.000000 0 0 1
-15.293540 1.741912 31.850914 35.375236 -0.113410 0.450170 -0.019387 0.021691 814075.000000 0 0 1
-16.230840 2.944312 31.476254 35.536794 -0.179451 0.482717 -0.024674 0.026297 20479.200000 0 0 1
-16.782240 3.673612 32.575184 36.827729 -0.215500 0.485314 -0.028285 0.012684 -144292.000000 0 0 1
-15.976640 4.691912 33.025264 36.985607 -0.285642 0.467002 -0.018862 0.014082 -823092.000000 0 0 1
-16.516140 5.219512 34.349570 38.469717 -0.306093 0.467053 -0.020372 0.011492 -189610.000000 0 0 1
-17.841840 5.680312 34.149649 38.946062 -0.308224 0.501537 -0.027553 0.009862 -392441.000000 0 0 1
-18.530240 5.417912 -33.802743 38.927484 -0.284453 2.622665 -0.035826 0.014609 -490884.000000 0 0 1
-19.905040 6.103812 -33.605133 39.531912 -0.297543 2.586926 -0.031002 0.003388 -23276.900000 0 0 1
-19.942240 7.518012 -33.410203 39.628968 -0.360514 2.573772 -0.023975 -0.008049 -43096.400000 0 0 1
-19.736140 8.261912 34.544457 40.633655 -0.396453 0.554538 -0.020254 -0.007837 -369134.000000 0 0 1
-19.610340 9.730712 -34.240180 40.640400 -0.460606 2.572733 0.000182 -0.003987 -293818.000000 0 0 1
-18.577040 9.990512 -33.297153 39.415950 -0.493419 2.576919 -0.003395 0.001086 211392.000000 0 0 1
-18.499440 11.355512 -32.884353 39.402508 -0.550527 2.558157 -0.005325 0.004261 92596.000000 0 0 1
-17.855440 12.303512 -33.990553 40.318120 -0.603348 2.573742 -0.022584 -0.005687 -274614.000000 0 0 1
-18.704540 12.573312 34.040437 40.825230 -0.591828 0.584825 -0.011549 -0.008438 -203794.000000 0 0 1
-17.992240 13.059912 32.949944 39.748972 -0.627874 0.593567 -0.017426 -0.008175 -197327.000000 0 0 1
-18.592140 12.660012 31.574034 38.766780 -0.597815 0.618997 -0.009447 -0.017434 -256308.000000 0 0 1
-18.746140 11.268712 31.405444 38.271446 -0.541244 0.608341 -0.020896 -0.006633 224410.000000 0 0 1
-17.569140 10.542412 31.081384 37.227269 -0.540458 0.582829 -0.034072 -0.003556 306351.000000 0 0 1
-17.828240 9.063012 31.309314 37.151816 -0.470306 0.568444 -0.025499 0.011803 -189818.000000 0 0 1
-18.587440 8.365612 30.382724 36.586696 -0.422910 0.590916 -0.017521 -0.007249 -125878.000000 0 0 1
-18.523340 7.022112 30.723444 36.556179 -0.362356 0.572693 -0.015489 -0.001786 -294306.000000 0 0 1
-18.886140 6.148012 29.502834 35.565454 -0.314712 0.592520 -0.013275 0.007758 -11584.700000 0 0 1
-20.266340 6.220712 29.211914 36.093735 -0.297819 0.627778 0.002845 -0.002036 -48669.000000 0 0 1
-20.622440 5.243512 28.241204 35.360218 -0.248986 0.645712 0.000323 0.000123 -31530.500000 0 0 1
-22.113440 5.177012 27.852354 35.938271 -0.229970 0.684073 0.008262 -0.000071 -162084.000000 0 0 1
-22.539540 6.151312 26.942834 35.662106 -0.266424 0.714375 0.011454 0.002250 992633.000000 0 0 1
-23.947740 6.368012 27.140754 36.751413 -0.259899 0.739960 0.012586 0.000700 420934.000000 0 0 1
-24.622440 7.270312 26.084384 36.599414 -0.287113 0.777457 0.014621 0.002019 -127975.000000 0 0 1
-24.754140 6.754612 24.747414 35.648657 -0.266383 0.803484 0.012218 0.002678 518586.000000 0 0 1
-25.683710 5.681912 24.661824 36.057491 -0.217720 0.817621 0.005749 0.005794 -453843.000000 0 0 1
-25.835850 4.998712 23.253464 35.116974 -0.191118 0.847083 -0.004724 0.013540 -99436.700000 0 0 1
-26.470540 5.717612 22.225564 35.033645 -0.212731 0.883556 -0.001420 0.007383 -11816.300000 0 0 1
-26.494800 4.934912 21.094764 34.224507 -0.184149 0.906679 0.005401 0.018918 -52013.500000 0 0 1
-27.306810 5.499712 19.907764 34.237812 -0.198746 0.950280 0.015974 0.007759 222588.000000 0 0 1
-28.704880 5.562512 20.162964 35.516993 -0.191410 0.967088 0.014804 0.001069 -15517.400000 0 0 1
-29.330790 6.002112 18.983164 35.449698 -0.201848 1.005702 0.017943 0.001185 -618808.000000 0 0 1
-30.839740 6.131112 19.195564 36.839514 -0.196247 1.022705 0.018660 0.000372 -471315.000000 0 0 1
-31.196040 7.083512 20.192464 37.829944 -0.223279 1.007745 0.013321 -0.009711 41877.200000 0 0 1
-32.552070 6.938612 20.563164 39.123207 -0.210011 1.017376 0.012017 -0.006202 -118400.000000 0 0 1
-33.012350 7.854112 21.710164 40.284408 -0.233572 1.001639 0.016285 -0.009193 -301738.000000 0 0 1
-32.284080 7.761512 22.914164 40.343051 -0.235935 0.966743 0.017393 -0.011231 54198.100000 0 0 1
-32.657470 8.714512 23.905864 41.399800 -0.260770 0.955208 0.034378 -0.005465 -79556.000000 0 0 1
-0.385040 32.961612 11.877267 35.038345 -1.559115 1.224965 0.011321 -0.010348 -247180.000000 0 0 1
-0.316540 33.121712 13.305667 35.695781 -1.561240 1.188824 0.000196 -0.007821 70877.800000 0 0 1
-0.604940 34.467512 13.673767 37.085675 -1.553247 1.193178 0.003740 -0.005754 -247215.000000 0 0 1
-0.490240 -34.376318 15.185867 37.584334 1.556536 1.154859 -0.015063 -0.002442 -388987.000000 0 0 1
-1.633540 34.443012 15.948167 37.991230 -1.523405 1.137587 -0.019137 0.004851 -144446.000000 0 0 1
-1.310040 -34.496818 17.306367 38.616797 1.532839 1.106094 -0.024236 0.000376 -48582.100000 0 0 1
-2.519540 -34.319818 18.241367 38.947985 1.497514 1.083372 -0.026129 0.007508 -321326.000000 0 0 1
-3.219440 33.586412 18.382267 38.422905 -1.475233 1.071942 -0.023254 0.005781 -520633.000000 0 0 1
-4.161740 33.693712 19.410567 39.106987 -1.447902 1.051413 -0.019103 0.007486 -642525.000000 0 0 1
-5.278440 32.654812 19.330867 38.312937 -1.410539 1.041933 -0.027339 0.017122 -505819.000000 0 0 1
-6.188240 33.123812 18.380067 38.383696 -1.386104 1.071451 -0.021516 0.010462 -411676.000000 0 0 1
-7.351340 32.355612 18.206867 37.847297 -1.347385 1.068932 -0.012448 0.012642 132279.000000 0 0 1
-8.311640 32.947912 17.148267 38.061941 -1.323686 1.103431 -0.015390 0.002049 -554000.000000 0 0 1
-9.204240 33.939412 17.469167 39.265424 -1.305970 1.109734 0.001716 0.000386 -423588.000000 0 0 1
-10.050240 34.243912 16.380267 39.267875 -1.285323 1.140498 0.000214 -0.005190 221360.000000 0 0 1
-11.131840 -33.807418 16.762167 39.342466 1.252705 1.130665 0.012251 -0.000703 -295219.000000 0 0 1
-12.085740 -34.310018 17.644467 40.429812 1.232118 1.119178 0.011434 -0.006123 97600.700000 0 0 1
-13.332640 -33.639318 17.452967 40.174234 1.193448 1.121389 0.003608 -0.011938 322827.000000 0 0 1
-14.404940 -34.040118 18.458167 41.315081 1.170472 1.107649 0.024535 -0.006402 -185668.000000 0 0 1
-14.079940 -33.634918 19.745067 41.465891 1.174350 1.074495 0.017331 -0.009893 -170626.000000 0 0 1
-15.072940 -34.038718 20.642267 42.566784 1.153931 1.064504 0.021131 -0.009363 -330773.000000 0 0 1
-14.915940 -33.517618 22.039767 42.797983 1.152093 1.029821 0.016542 -0.012259 -306095.000000 0 0 1
-15.078840 -32.145718 22.213067 41.882442 1.132191 1.011763 0.017019 -0.005157 -156392.000000 0 0 1
-14.624940 -31.785618 23.457667 42.124536 1.139565 0.980190 0.016546 -0.014923 65634.400000 0 0 1
-14.645140 -30.254618 23.686167 41.120027 1.119979 0.956939 0.029267 -0.020435 -40367.500000 0 0 1
-14.567940 -29.798118 25.039867 41.558966 1.116078 0.924149 0.033110 -0.026914 -256078.000000 0 0 1
-14.567940 -28.378618 25.213867 40.660914 1.096532 0.901925 0.036132 -0.011727 -154488.000000 0 0 1
-15.774140 -27.510418 24.781667 40.246461 1.050174 0.907462 0.031343 -0.004132 207949.000000 0 0 1
-16.911940 -27.689118 25.621967 41.342305 1.022489 0.902370 0.034434 0.001004 679834.000000 0 0 1
-17.949040 -26.772518 25.221167 40.927290 0.980194 0.906833 0.030091 0.001521 -1522450.000000 0 0 1
-19.053840 -26.489718 26.214067 41.856079 0.947240 0.894010 0.023544 0.008396 -288249.000000 0 0 1
-19.936840 -27.569718 26.468367 43.106165 0.944707 0.909643 0.016665 0.010587 115302.000000 0 0 1
-20.504240 -28.224018 25.357167 43.127775 0.942517 0.942269 0.015071 0.011393 -1614360.000000 0 0 1
-21.837640 -27.674418 24.816267 43.111519 0.902743 0.957422 0.011910 0.019828 -392481.000000 0 0 1
-21.740440 -26.307818 24.315467 41.904534 0.880172 0.951750 0.013446 0.014321 -1008660.000000 0 0 1
-22.869140 -25.923618 23.665367 41.893689 0.847918 0.970495 0.003958 0.018006 -1251210.000000 0 0 1
-23.009840 -24.403618 23.437267 40.918148 0.814786 0.960898 0.010578 0.021586 -117978.000000 0 0 1
-23.353340 -23.768818 24.649167 41.447758 0.794215 0.933898 0.010726 0.021151 200817.000000 0 0 1
-24.027040 -22.565618 24.333067 40.970769 0.754043 0.934883 0.015884 0.021886 127068.000000 0 0 1
-24.461940 -21.824018 25.638467 41.617368 0.728468 0.907075 0.022464 0.016811 -144364.000000 0 0 1
-25.569350 -22.413118 26.266467 42.965880 0.719714 0.913052 0.014781 0.015064 67500.400000 0 0 1
-26.088380 -21.453718 27.214367 43.376115 0.688220 0.892581 0.026807 0.007206 -332493.000000 0 0 1
-27.199740 -22.047318 28.138467 44.918631 0.681153 0.893829 0.034942 0.005737 740873.000000 0 0 1
-28.569500 -21.930218 27.780867 45.485464 0.654676 0.913772 0.044357 0.004840 658178.000000 0 0 1
-28.956310 -22.565918 26.531567 45.294731 0.661997 0.944986 0.021185 0.010033 -291610.000000 0 0 1
-30.509390 -22.616718 26.326967 46.210908 0.637912 0.964639 0.019949 0.014988 688707.000000 0 0 1
-31.009790 -23.255318 25.167867 46.215132 0.643459 0.994907 0.004238 0.005415 128854.000000 0 0 1
-30.699300 -24.628218 25.054467 46.655359 0.676106 1.003906 0.000164 0.004444 -726066.000000 0 0 1
-31.070860 -25.360218 23.719667 46.595726 0.684545 1.036713 -0.012069 0.012149 -1056910.000000 0 0 1
-32.401330 -25.605418 23.502267 47.516736 0.668773 1.053410 -0.002457 0.011141 -1271160.000000 0 0 1
-32.448860 -26.309818 22.269067 47.339692 0.681297 1.081041 -0.005655 0.016161 1197830.000000 0 0 1
-33.814210 -27.048318 21.882067 48.516360 0.674686 1.102883 0.008851 0.012589 785636.000000 0 0 1
-34.170879 -28.232818 22.661567 49.782403 0.690528 1.098186 0.004830 0.013573 -105666.000000 0 0 1
-33.328540 -29.338018 22.667467 49.853034 0.721805 1.098777 -0.011284 0.011256 -688121.000000 0 0 1
-33.664050 -30.449918 21.572267 50.257621 0.735309 1.127152 0.000574 0.009614 -182016.000000 0 0 1
-33.359680 -30.056218 20.251367 49.258120 0.733353 1.147106 -0.008195 0.009960 483370.000000 0 0 1
-33.678140 -31.118618 19.324467 49.759628 0.745918 1.171949 0.000473 0.011061 -264254.000000 0 0 1
-34.122625 -30.536218 17.893067 49.162750 0.729988 1.198285 0.001726 0.016074 20205.500000 0 0 1
-33.091780 -29.933618 17.090067 47.782401 0.735331 1.205031 -0.002803 0.008166 438541.000000 0 0 1
-33.487690 -29.345018 15.812067 47.250153 0.719562 1.229567 0.002379 0.006684 36064.600000 0 0 1
-34.046810 -30.232918 14.638267 47.827748 0.726135 1.259742 -0.002828 0.013052 362159.000000 0 0 1
-33.087270 -31.207318 14.264667 47.667021 0.756167 1.266883 -0.004102 0.003489 49335.400000 0 0 1
-33.485620 -32.040218 13.154367 48.175717 0.763343 1.294235 0.013975 0.000983 174503.000000 0 0 1
-33.634740 -31.373118 11.711967 47.463022 0.750622 1.321461 0.005195 0.007630 -714593.000000 0 0 1
-34.757207 -30.584918 11.605867 47.730460 0.721632 1.325180 0.005429 0.007472 -631257.000000 0 0 1
-34.742557 -29.939318 10.317467 47.009129 0.711275 1.349517 0.009733 0.001024 -447512.000000 0 0 1
34.380564 -29.089418 10.017067 46.136310 -0.702226 1.351934 0.034338 0.000748 -344914.000000 0 0 1
34.636585 -27.856418 9.431467 45.438152 -0.677326 1.361709 0.047267 -0.036629 -517186.000000 0 0 1
33.468657 -27.224118 9.027667 44.077232 -0.682871 1.364522 0.061307 -0.033101 -443661.000000 0 0 1
33.719997 -26.048018 8.064767 43.365631 -0.657734 1.383736 0.051284 -0.032717 143326.000000 0 0 1
34.189757 -24.816518 8.594367 43.112205 -0.627863 1.370103 0.054280 -0.042934 89818.500000 0 0 1
34.317417 -23.846618 7.527667 42.461890 -0.607284 1.392574 0.050642 -0.041452 -193754.000000 0 0 1
34.810713 -22.466218 7.867967 42.171337 -0.573122 1.383125 0.051465 -0.048662 -645588.000000 0 0 1
33.782797 -21.713018 8.488267 41.046111 -0.571243 1.362495 0.035391 -0.047473 -82107.200000 0 0 1
33.887067 -20.328518 8.168467 40.352272 -0.540339 1.366959 0.039780 -0.032038 -157479.000000 0 0 1
33.044827 -19.370518 9.041767 39.356463 -0.530203 1.338985 0.051174 -0.019933 -406420.000000 0 0 1
33.461077 -19.325918 10.361267 40.006133 -0.523759 1.308818 0.043294 -0.036728 -550844.000000 0 0 1
32.618997 -18.694418 11.257767 39.245606 -0.520416 1.279855 0.025842 -0.018086 -876494.000000 0 0 1
33.187357 -18.955918 12.661667 40.262207 -0.518958 1.250887 0.021165 -0.027508 -142258.000000 0 0 1
34.398013 -18.326618 12.958467 41.073229 -0.489527 1.249816 -0.017397 -0.006766 -57711.300000 0 0 1
34.937153 -18.652318 14.242167 42.087444 -0.490384 1.225586 -0.007390 -0.004664 -466216.000000 0 0 1
-34.229358 -17.861718 14.700067 41.313217 0.480954 1.207005 -0.000419 -0.010138 43416.800000 0 0 1
-32.958370 -18.286418 14.223367 40.285871 0.506547 1.209956 0.001793 -0.010430 1284520.000000 0 0 1
-31.802380 -17.635118 14.820367 39.268716 0.506308 1.183800 -0.005843 -0.007857 644159.000000 0 0 1
-30.586150 -17.697918 13.913967 37.977985 0.524554 1.195692 0.019823 -0.007791 -753397.000000 0 0 1
-29.918950 -18.920718 13.855367 38.014581 0.563902 1.197727 0.011383 -0.003971 -742281.000000 0 0 1
-28.980690 -18.818318 12.855867 36.868453 0.575911 1.214617 -0.025234 0.006989 -865332.000000 0 0 1
-28.167200 -20.106518 12.727367 36.873420 0.619946 1.218383 -0.046328 0.003694 -12537.500000 0 0 1
-28.807980 -21.127118 11.932867 37.664946 0.632777 1.248425 -0.034206 0.004688 -112508.000000 0 0 1
-27.864800 -21.677618 11.032967 36.987736 0.661155 1.267899 -0.046158 0.011551 -321587.000000 0 0 1
-28.412200 -22.621018 9.906367 37.644385 0.672403 1.304504 -0.021122 0.004551 303786.000000 0 0 1
-28.967140 -23.835918 10.389767 38.925486 0.688526 1.300607 -0.016882 -0.000553 497309.000000 0 0 1
-30.271640 -23.781718 10.987367 40.033293 0.665905 1.292773 -0.005287 -0.007543 340543.000000 0 0 1
-30.999700 -25.163218 11.080567 41.436070 0.681849 1.300088 -0.004042 -0.013513 -14623.200000 0 0 1
-31.526250 -25.571718 9.798367 41.759133 0.681488 1.333948 0.005182 -0.011216 -80517.000000 0 0 1
-32.148420 -26.808218 9.897067 43.013410 0.695066 1.338623 0.011962 -0.007792 -55109.400000 0 0 1
-32.407550 -27.438518 8.523867 43.310252 0.702558 1.372694 0.010889 -0.009911 -240382.000000 0 0 1
-31.240550 -27.845118 7.876167 42.583525 0.727995 1.384767 0.001935 -0.004339 -443574.000000 0 0 1
-31.505840 -28.484118 6.658167 42.991792 0.735070 1.415300 0.007200 0.005152 -677194.000000 0 0 1
-30.217090 -28.794118 5.935767 42.159306 0.761289 1.429533 0.014817 0.008792 -273410.000000 0 0 1
-29.600470 -27.659118 5.278667 40.854363 0.751507 1.441227 0.019915 0.012599 -1160410.000000 0 0 1
-28.451350 -28.088318 4.697567 40.255436 0.778977 1.453836 0.019186 0.008334 -862810.000000 0 0 1
-27.580470 -27.113318 3.884967 38.870392 0.776857 1.470682 0.011694 0.008295 454303.000000 0 0 1
-28.329420 -26.579518 2.770967 38.944898 0.753540 1.499585 0.024851 0.009320 361303.000000 0 0 1
-27.740620 -25.357718 2.332467 37.656292 0.740551 1.508816 0.016271 0.008431 60572.100000 0 0 1
-28.263860 -24.908218 0.948767 37.685081 0.722373 1.545617 0.030313 0.005542 -162251.000000 0 0 1
-27.613770 -25.595818 -0.094633 37.652028 0.747492 1.573310 0.030233 0.001092 -188333.000000 0 0 1
-27.786640 -25.065118 -1.439633 37.449033 0.733950 1.609248 0.028679 -0.005769 -465819.000000 0 0 1
-29.178510 -25.083318 -2.080633 38.534236 0.710070 1.624817 0.046999 -0.006034 -413770.000000 0 0 1
-30.007220 -24.110918 -1.509233 38.523336 0.676874 1.609983 0.040026 -0.004114 -336112.000000 0 0 1
-31.276510 -24.085418 -2.126733 39.532903 0.656229 1.624619 0.050121 -0.012432 169802.000000 0 0 1
-32.098230 -22.792918 -1.965933 39.416727 0.617472 1.620693 0.047916 -0.009351 74693.400000 0 0 1
-32.239200 -22.390818 -0.587833 39.256341 0.607040 1.585771 0.051901 -0.019011 485187.000000 0 0 1
-33.098330 -21.249218 -0.506533 39.335548 0.570733 1.583674 0.049263 -0.014720 74506.000000 0 0 1
-33.144310 -20.656918 0.947367 39.065984 0.557334 1.546544 0.041484 -0.019086 -144106.000000 0 0 1
-33.940710 -21.443418 1.846467 40.189569 0.563467 1.524836 0.048998 -0.019555 414064.000000 0 0 1
-33.879670 -21.029418 3.203667 40.004149 0.555508 1.490627 0.045139 -0.029351 -774566.000000 0 0 1
-34.957516 -21.788018 4.045567 41.389761 0.557355 1.472897 0.059950 -0.017291 514139.000000 0 0 1
34.057657 -21.620818 3.675567 40.507945 -0.565637 1.479934 0.050075 -0.021313 -381952.000000 0 0 1
33.534197 -20.329018 3.871067 39.405539 -0.544979 1.472401 0.049283 -0.029270 -1696600.000000 0 0 1
32.365857 -20.217618 2.930667 38.273876 -0.558354 1.494150 0.038225 -0.014974 -456357.000000 0 0 1
31.352817 -21.195818 3.156267 37.976623 -0.594465 1.487590 0.030524 -0.012434 -644223.000000 0 0 1
30.210427 -20.840118 2.458967 36.783515 -0.603869 1.503897 0.022437 -0.011697 -243504.000000 0 0 1
28.871397 -21.518618 2.837167 36.120050 -0.640503 1.492167 0.001795 0.003119 224807.000000 0 0 1
28.456227 -22.569618 2.024367 36.376402 -0.670541 1.515117 -0.005136 -0.000205 874438.000000 0 0 1
27.217357 -23.139218 2.527767 35.813371 -0.704589 1.500156 -0.008822 0.013778 1025650.000000 0 0 1
26.790237 -24.407518 1.768167 36.284572 -0.738892 1.522046 -0.006625 0.011346 44117.100000 0 0 1
26.606017 -24.207718 0.353167 35.972469 -0.738235 1.560978 -0.010783 0.008487 121889.000000 0 0 1
26.234927 -25.423618 -0.302633 36.533866 -0.769694 1.579080 -0.014621 0.010924 -92897.600000 0 0 1
25.402247 -25.176918 -1.601133 35.801048 -0.780943 1.615534 -0.017338 0.007468 111663.000000 0 0 1
26.150117 -24.855418 -2.769533 36.184123 -0.760020 1.647411 -0.013253 -0.003617 188213.000000 0 0 1
26.508447 -25.865218 -3.688833 37.219817 -0.773117 1.670069 -0.004676 -0.005005 -404054.000000 0 0 1
25.340797 -26.333118 -4.592433 36.833131 -0.804599 1.695804 -0.006028 -0.009375 86873.500000 0 0 1
25.027887 -25.318618 -5.549633 36.030903 -0.791173 1.725436 0.002022 -0.019731 490373.000000 0 0 1
24.077687 -24.317218 -5.191133 34.612281 -0.790348 1.721344 0.003559 -0.014341 -264417.000000 0 0 1
23.682587 -23.278518 -6.320733 33.803935 -0.776794 1.758886 0.020372 -0.021130 -335420.000000 0 0 1
22.829687 -23.874518 -7.249633 33.819291 -0.807766 1.786837 0.036194 -0.018898 -64617.300000 0 0 1
21.862187 -22.995818 -7.821633 32.679364 -0.810664 1.812487 0.025006 -0.017393 -75232.300000 0 0 1
22.122187 -21.633318 -8.605533 32.116146 -0.774226 1.842061 0.026784 -0.015612 -975616.000000 0 0 1
22.746987 -21.818218 -9.835633 33.018173 -0.764561 1.873273 0.039649 -0.025234 85141.600000 0 0 1
22.382887 -20.720918 -10.649433 32.307283 -0.746860 1.906707 0.026001 -0.019438 -131579.000000 0 0 1
23.081187 -20.713518 -12.016833 33.259515 -0.731388 1.940464 0.032912 -0.020572 1936050.000000 0 0 1
24.522887 -20.419818 -11.922233 34.065828 -0.694355 1.928342 0.050820 -0.022845 1698210.000000 0 0 1
25.049787 -20.218318 -13.200233 34.792505 -0.679071 1.959943 0.046951 -0.025244 373137.000000 0 0 1
26.610277 -20.108018 -13.234633 35.883071 -0.647106 1.948543 0.042655 -0.027448 1021720.000000 0 0 1
27.275367 -21.404118 -13.340733 37.149120 -0.665368 1.938114 0.032537 -0.022541 392274.000000 0 0 1
27.541297 -22.012718 -12.082533 37.270235 -0.674291 1.900949 0.035149 -0.026505 -377612.000000 0 0 1
28.113517 -23.435218 -12.340433 38.624676 -0.694891 1.895994 0.028978 -0.013528 978915.000000 0 0 1
29.422047 -23.350318 -12.971733 39.738647 -0.670847 1.903316 0.013400 -0.018653 1129560.000000 0 0 1
29.894617 -24.653318 -13.196933 40.934500 -0.689606 1.899051 0.043461 -0.012633 -214267.000000 0 0 1
-4.270940 -8.658388 -27.859813 29.485213 1.112546 2.808006 0.027203 0.007504 90098.400000 0 0 1
-4.296340 -7.520188 -27.122803 28.472060 1.051741 2.832504 0.010351 0.003228 91999.900000 0 0 1
-4.897140 -6.406288 -27.714333 28.863589 0.918126 2.858454 0.002634 0.003999 -324957.000000 0 0 1
-4.657740 -5.122188 -26.917213 27.793303 0.832852 2.889844 -0.007352 -0.004856 -313738.000000 0 0 1
-5.380940 -5.121188 -25.713033 26.764550 0.760670 2.860354 -0.001849 0.001918 201638.000000 0 0 1
-5.049140 -4.057988 -24.825133 25.656350 0.676992 2.886349 0.001335 -0.012393 -241231.000000 0 0 1
-5.564240 -4.248188 -23.384233 24.409634 0.652073 2.850713 0.005210 -0.010197 -425891.000000 0 1 0
-4.862840 -5.183288 -22.649133 23.738090 0.817285 2.837524 0.000970 -0.013658 267823.000000 0 1 0
-5.375940 -5.191588 -21.321533 22.593386 0.767955 2.804460 0.006375 -0.012057 88947.400000 0 1 0
-4.746540 -6.365588 -20.560733 22.040737 0.930081 2.773045 0.009577 -0.016775 -267032.000000 0 1 0
-5.326240 -7.617688 -20.882133 22.857416 0.960612 2.722804 0.004718 -0.004705 521612.000000 0 1 0
-4.570840 -8.700288 -20.339433 22.589381 1.087062 2.691480 0.006445 -0.006577 -1012160.000000 0 1 0
-5.398640 -9.992488 -20.421233 23.367111 1.075454 2.634028 0.016772 -0.000465 -369282.000000 0 1 0
-6.399340 -10.101988 -19.469833 22.848985 1.006127 2.590799 0.019817 -0.007140 -441378.000000 0 1 0
-7.560040 -9.345488 -19.727833 23.101509 0.890621 2.594351 0.013895 -0.006218 -467009.000000 0 1 0
-8.691240 -9.430488 -18.619633 22.608903 0.826169 2.538443 0.007164 -0.001191 291900.000000 0 1 0
-9.352140 -10.660488 -18.665733 23.441802 0.850681 2.491881 0.032406 -0.004239 -305254.000000 0 1 0
-9.954540 -10.894788 -17.417833 22.829152 0.830465 2.438683 0.023533 -0.004128 -361507.000000 0 1 0
-10.664340 -12.265088 -17.468533 23.860221 0.855097 2.392225 0.022889 -0.003270 357286.000000 0 1 0
-11.883440 -12.413688 -18.219333 25.045157 0.807218 2.385408 0.024179 -0.011945 927716.000000 0 0 1
-11.677740 -12.279988 -19.595633 25.906689 0.810531 2.428577 0.026043 -0.010262 -633366.000000 0 0 1
-13.028440 -12.003888 -20.301433 26.944048 0.744492 2.424115 0.011823 -0.010019 533268.000000 0 0 1
-13.941540 -13.053688 -20.528333 28.038861 0.752521 2.392253 0.009546 -0.005868 143191.000000 0 0 1
-14.701240 -13.540888 -19.428633 27.873892 0.744335 2.342028 0.011073 0.005223 138457.000000 0 0 1
-15.796740 -14.562488 -19.885733 29.275338 0.744766 2.317558 0.002335 0.004481 55447.300000 0 0 1
-15.322740 -15.817288 -20.096733 29.813615 0.801278 2.310514 0.013344 0.006817 -487767.000000 0 0 1
-16.099540 -16.408888 -21.083133 31.192071 0.794914 2.312999 0.010187 -0.000308 -293287.000000 0 0 1
-15.671440 -17.805288 -21.580633 32.067835 0.849053 2.309011 0.019617 -0.005774 -197597.000000 0 0 1
-15.840040 -18.797588 -20.613433 32.080676 0.870577 2.268618 0.024511 0.001181 201737.000000 0 0 1
-15.320540 -20.085488 -20.978633 32.836699 0.919175 2.263835 0.021839 0.001154 -275052.000000 0 0 1
-15.943540 -21.229188 -20.203733 33.362639 0.926643 2.221290 0.022264 -0.000287 -160188.000000 0 0 1
-15.356340 -22.470588 -20.532933 34.093193 0.971300 2.217124 0.018540 0.001128 540746.000000 0 0 1
-16.142040 -23.601488 -20.077133 34.938331 0.970929 2.182966 0.030653 -0.002528 400737.000000 0 0 1
-15.655640 -24.875588 -20.754733 35.981285 1.009070 2.185627 0.024682 -0.006356 -160324.000000 0 0 1
-16.013540 -25.048838 -22.110033 37.050389 1.001985 2.210248 0.017395 -0.007600 323173.000000 0 0 1
-15.346440 -26.255028 -22.541133 37.854225 1.041841 2.208649 0.019646 -0.007584 166499.000000 0 0 1
-15.779040 -26.731318 -23.977333 39.223130 1.037552 2.228506 0.024982 -0.012486 98599.200000 0 0 1
-17.027440 -27.388128 -24.103533 40.261937 1.014567 2.212633 0.030579 -0.013749 28599.900000 0 0 1
-16.907740 -28.762248 -24.097333 41.156045 1.039362 2.196307 0.039052 -0.002848 -331058.000000 0 0 1
-17.834840 -29.429348 -25.121923 42.606092 1.025960 2.201400 0.036904 -0.004836 -439988.000000 0 0 1
-17.404940 -29.315068 -26.470843 43.162607 1.035007 2.231005 0.038235 -0.005709 263697.000000 0 0 1
-17.677740 -28.034748 -27.090353 42.805803 1.008205 2.256046 0.052557 -0.015477 444899.000000 0 0 1
-16.422240 -27.624068 -27.930383 42.577992 1.034438 2.286279 0.052990 -0.018382 142813.000000 0 0 1
-16.484140 -28.095618 -29.217803 43.758092 1.040202 2.301927 0.054756 -0.008498 -147605.000000 0 0 1
-15.330740 -27.773308 -29.944043 43.623777 1.066422 2.327345 0.039160 -0.005624 -232534.000000 0 0 1
-15.501940 -28.255708 -31.436623 45.021733 1.069005 2.343752 0.043271 -0.001728 -17011.800000 0 0 1
-15.660040 -29.642408 -31.688523 46.131027 1.084767 2.328045 0.031574 0.006310 373466.000000 0 0 1
-16.273240 -29.737888 -32.983373 47.297602 1.070088 2.342501 0.036666 0.010800 70209.500000 0 0 1
-16.403940 -31.197768 -33.520103 48.641415 1.086719 2.331080 0.023476 0.009246 209398.000000 0 0 1
-15.155440 -31.607558 -34.047483 48.866718 1.123693 2.341642 0.041855 0.015636 -72874.600000 0 0 1
-15.238840 -32.824438 34.312816 49.870184 1.136153 0.812008 0.029948 0.014000 742055.000000 0 0 1
-13.956240 -33.367878 33.560750 49.340813 1.174654 0.822785 0.025323 0.009077 978184.000000 0 0 1
-13.017640 -34.040025 34.401878 50.116578 1.205535 0.814218 0.036659 0.009242 417553.000000 0 0 1
-11.994940 34.425042 33.661381 49.619055 -1.235515 0.825219 0.034012 0.009381 324924.000000 0 0 1
-10.941640 33.563156 34.385104 49.280222 -1.255659 0.798549 0.040394 0.007355 184417.000000 0 0 1
-10.096340 34.273481 -33.841143 49.212097 -1.284318 2.329056 0.037964 0.008613 -191555.000000 0 0 1
-9.391540 33.407116 -32.984233 47.876884 -1.296746 2.330820 0.029207 0.004477 18516.400000 0 0 1
-8.450140 34.282773 -32.127823 47.737934 -1.329130 2.309059 0.023246 0.006319 -265844.000000 0 0 1
-9.177540 -34.170312 -31.107933 47.112004 1.308406 2.292011 0.035082 0.010041 335626.000000 0 0 1
-8.506940 -33.066208 -30.453993 45.751369 1.318987 2.299149 0.017364 0.009022 -38707.500000 0 0 1
-9.540740 -32.221028 -29.613423 44.790347 1.282919 2.293155 0.028663 0.010688 626525.000000 0 0 1
-9.890740 -32.726348 -28.309303 44.387579 1.277299 2.262403 0.036289 0.014827 207595.000000 0 0 1
-10.513240 -34.039848 -28.297863 45.497346 1.271239 2.242049 0.045058 0.004037 -374010.000000 0 0 1
-10.854940 -34.462890 -26.876113 45.031610 1.265658 2.210338 0.042159 0.003646 -63956.400000 0 0 1
-9.747040 -34.526059 -26.023173 44.319962 1.295647 2.198350 0.030250 0.012070 -441564.000000 0 0 1
-10.214840 34.397562 -24.722433 43.574464 -1.282127 2.174093 0.037016 -0.004611 389609.000000 0 0 1
-9.148240 34.413676 -23.589033 42.713392 -1.310974 2.155873 0.035876 -0.000932 539735.000000 0 0 1
-8.228940 33.320996 -23.493233 41.592502 -1.328681 2.171039 0.017006 -0.005154 268456.000000 0 0 1
-7.467040 33.412471 -22.307533 40.862892 -1.350929 2.148273 0.032579 0.001568 -110287.000000 0 0 1
-6.508740 32.253013 -22.075533 39.622591 -1.371668 2.161740 0.029688 -0.002953 -468105.000000 0 0 1
-5.407040 32.129163 -22.913133 39.831280 -1.404068 2.183712 0.011536 -0.010544 -276268.000000 0 0 1
-4.743740 30.862663 -22.852033 38.693959 -1.418285 2.202579 0.006269 -0.007295 -214813.000000 0 0 1
-3.270240 30.908003 -23.281533 38.833348 -1.465383 2.213703 0.011020 -0.011041 -241965.000000 0 0 1
-2.919140 31.043273 -24.668933 39.758803 -1.477037 2.240131 0.003297 -0.004762 -60697.400000 0 0 1
-3.275540 32.288993 -25.216463 41.099613 -1.469698 2.231338 0.008064 -0.006766 -458754.000000 0 0 1
-2.615040 32.662673 -26.591213 42.199304 -1.490905 2.252522 -0.011865 0.015154 624831.000000 0 0 1
-1.445440 33.483079 -26.584263 42.777668 -1.527654 2.241391 -0.007748 0.007117 877629.000000 0 0 1
-1.862840 -34.236116 -26.508263 43.339010 1.516438 2.228940 -0.010528 0.011051 -766901.000000 0 0 1
-0.734940 -33.415058 -26.986573 42.957902 1.548806 2.250046 -0.043019 0.023064 -822249.000000 0 0 1
0.337060 -33.238718 -26.090973 42.257128 -1.560656 2.236272 -0.026669 0.016979 -109542.000000 0 0 1
1.105560 -32.135198 -26.481903 41.655544 -1.536406 2.259757 -0.043502 0.023291 84801.000000 0 0 1
2.302160 -31.723448 -25.562453 40.805834 -1.498354 2.247775 -0.032916 0.019824 202636.000000 0 0 1
1.958160 -31.215858 -24.259233 39.582503 -1.508149 2.230494 -0.023475 0.016950 263590.000000 0 0 1
3.106060 -30.570378 -23.782133 38.855958 -1.469540 2.229458 -0.024646 0.022258 -204199.000000 0 0 1
2.912660 -30.026488 -22.377833 37.561163 -1.474096 2.209021 -0.014770 0.015419 -202831.000000 0 0 1
3.104560 -31.013078 -21.409933 37.813153 -1.471024 2.172689 -0.009195 0.010769 397369.000000 0 0 1
3.110860 -30.444738 -20.121333 36.625504 -1.468969 2.152419 0.006244 0.004373 -466348.000000 0 0 1
3.015960 -31.464218 -18.957233 36.857424 -1.475235 2.111034 0.014787 0.007252 -1211290.000000 0 0 1
1.781460 -32.021558 -18.734833 37.142263 -1.515220 2.099492 0.029506 -0.001851 -868762.000000 0 0 1
1.614960 -33.308758 -19.315833 38.538070 -1.522350 2.095798 0.032894 0.006237 -246451.000000 0 0 1
2.400660 -34.473503 -18.672633 39.279165 -1.501271 2.066195 0.031744 -0.004501 -441833.000000 0 0 1
3.706760 34.547324 -19.149333 39.673097 1.463910 2.074506 0.023504 -0.000869 -600159.000000 0 0 1
4.382460 33.536224 -18.369633 38.488020 1.440854 2.068355 0.036945 -0.020198 498162.000000 0 0 1
5.617560 32.913023 -19.038933 38.435726 1.401746 2.089028 0.033012 -0.007457 77066.000000 0 0 1
6.796860 33.643682 -19.138733 39.298673 1.371455 2.079456 0.072009 -0.003294 -1676260.000000 0 0 1
7.835760 32.990783 -19.710033 39.220865 1.337604 2.097330 0.033273 -0.003697 -714117.000000 0 0 1
9.054960 33.940279 -19.850833 40.348363 1.310078 2.085166 0.005111 -0.003455 -144350.000000 0 0 1
9.579060 34.279646 -18.620033 40.169119 1.298308 2.052784 -0.006405 0.006269 -1447630.000000 0 0 1
10.805760 -34.228418 -18.738033 40.490282 -1.265003 2.051923 -0.011218 0.011734 -1382050.000000 0 0 1
11.496360 -34.309650 -17.401533 40.151360 -1.247478 2.019057 -0.032109 0.013776 -704138.000000 0 0 1
11.976960 33.515176 -17.042233 39.460769 1.227580 2.017370 -0.027164 0.006011 -85799.700000 0 0 1
12.596460 33.616433 -15.794433 39.219886 1.212279 1.985277 -0.030400 0.001400 -515647.000000 0 0 1
13.800560 32.709333 -15.581933 38.770511 1.171542 1.984389 -0.027725 0.006462 -296502.000000 0 0 1
13.534360 31.373273 -15.175533 37.386601 1.163519 1.988769 -0.014105 -0.000389 -110922.000000 0 0 1
14.796460 30.752963 -15.128633 37.330356 1.122351 1.988063 -0.005072 -0.000508 63604.000000 0 0 1
14.633960 29.569483 -14.180933 35.911084 1.111236 1.976745 0.007417 -0.004851 -120128.000000 0 0 1
14.551160 29.913313 -12.786333 35.637520 1.118052 1.937766 0.012750 -0.006409 106621.000000 0 0 1
13.280960 29.697023 -12.182933 34.737889 1.150261 1.929126 0.021665 -0.007174 151797.000000 0 0 1
12.906460 28.198143 -11.880533 33.209322 1.141553 1.936650 0.013888 -0.003684 -842514.000000 0 0 1
12.298460 27.615033 -13.015833 32.912825 1.151813 1.977369 0.010135 -0.001890 -15598.500000 0 0 1
11.861260 26.278793 -12.842033 31.562355 1.146810 1.989830 0.035314 -0.006134 78387.300000 0 0 1
10.959060 25.916523 -11.643133 30.452089 1.170740 1.963127 0.046320 -0.009199 -844451.000000 0 0 1
9.705260 26.538623 -11.714933 30.589708 1.220201 1.963805 0.030914 -0.004268 -324882.000000 0 0 1
9.223260 26.672613 -10.394533 30.075623 1.237872 1.923689 0.019548 0.006337 -102679.000000 0 0 1
8.019560 27.616383 -10.274533 30.537583 1.288178 1.913947 0.014314 0.004811 98701.700000 0 0 1
8.398560 28.958173 -10.482333 31.921637 1.288517 1.905381 0.014957 -0.003465 -362918.000000 0 0 1
7.299760 29.778743 -10.293533 32.342184 1.330403 1.894700 0.010296 -0.008998 -300001.000000 0 0 1
7.681460 31.183433 -10.878333 33.907955 1.329273 1.897391 0.033582 -0.018335 459422.000000 0 0 1
8.591060 31.919903 -10.057733 34.552055 1.307882 1.866162 0.020287 -0.010784 -84639.900000 0 0 1
9.038460 33.144546 -10.598433 35.952489 1.304571 1.870032 0.030762 -0.013863 213811.000000 0 0 1
10.172360 33.212987 -11.639433 36.634080 1.273591 1.894122 0.013623 -0.014024 345638.000000 0 0 1
11.506460 33.081843 -11.146433 36.756631 1.236067 1.878897 0.000003 -0.003402 247358.000000 0 0 1
12.421760 33.450283 -12.161933 37.697933 1.215230 1.899288 0.005290 -0.004978 -279883.000000 0 0 1
13.873360 33.315137 -11.707233 37.939791 1.176208 1.884490 0.007815 -0.008604 -688310.000000 0 0 1
14.150760 34.169891 -10.641533 38.484642 1.178169 1.850961 0.012868 -0.007567 1615960.000000 0 0 1
15.585060 34.481049 -10.537333 39.279412 1.146289 1.842389 0.017726 -0.011239 1956500.000000 0 0 1
15.943460 -33.692628 -9.399033 38.441240 -1.128815 1.817804 0.030504 -0.016071 -110701.000000 0 0 1
15.994260 -34.357700 -8.187433 38.772438 -1.135110 1.783564 0.031666 -0.016135 7759.440000 0 0 1
16.378560 -33.489408 -7.153833 37.960176 -1.115933 1.760386 0.024280 -0.008124 -935597.000000 0 0 1
16.713560 -34.322490 -5.839133 38.619579 -1.117638 1.722575 0.027272 0.000905 647824.000000 0 0 1
17.792760 33.853622 -5.979033 38.709157 1.086895 1.725878 0.019871 -0.006815 851401.000000 0 0 1
19.091860 34.388664 -6.239333 39.824723 1.063986 1.728114 0.019185 -0.001085 -60659.000000 0 0 1
19.965460 33.482113 -7.189333 39.640358 1.033100 1.753170 0.015549 -0.001612 613531.000000 0 0 1
20.412160 32.221783 -6.675033 38.722805 1.006116 1.744042 0.028245 0.008330 409772.000000 0 0 1
21.372060 32.297863 -5.604933 39.132240 0.986228 1.714521 0.018897 0.005178 -483885.000000 0 0 1
21.623160 30.902123 -5.040633 38.051416 0.960251 1.703656 -0.005393 0.001872 -323186.000000 0 0 1
22.250160 30.098393 -5.990033 37.905981 0.934212 1.729485 -0.009956 0.002675 -222996.000000 0 0 1
22.684960 28.951833 -5.344033 37.166850 0.906172 1.715081 -0.015004 0.010245 -570355.000000 0 0 1
23.465160 28.006333 -6.297433 37.075950 0.873397 1.741476 -0.020070 0.020338 -957059.000000 0 0 1
24.710760 28.581733 -6.610433 38.356680 0.857907 1.744002 -0.006527 0.005385 -502696.000000 0 0 1
25.593960 27.722413 -7.274133 38.425200 0.825298 1.761252 -0.016971 0.004715 -276353.000000 0 0 1
26.253360 26.679873 -6.338133 37.963488 0.793456 1.738535 -0.014540 0.004578 -1598170.000000 0 0 1
27.191260 27.325803 -5.551933 38.947247 0.787866 1.713834 -0.006310 -0.003187 -755569.000000 0 0 1
27.658060 26.368073 -4.699933 38.501077 0.761526 1.693174 -0.005187 0.006332 274518.000000 0 0 1
28.966060 26.768713 -3.939033 39.637263 0.745994 1.670338 0.001074 0.004268 306514.000000 0 0 1
28.682860 27.715623 -3.002133 39.998438 0.768250 1.645923 0.004877 -0.005123 646259.000000 0 0 1
29.936960 28.109383 -2.429933 41.137131 0.753924 1.629900 0.017276 -0.017755 725254.000000 0 0 1
29.886260 29.468643 -1.717733 42.006429 0.778362 1.611700 0.034709 -0.012680 86910.300000 0 0 1
29.791960 30.547943 -2.641433 42.751782 0.797926 1.632621 0.034663 -0.022108 -107657.000000 0 0 1
29.989260 31.706633 -1.917033 43.684566 0.813227 1.614694 0.040149 -0.014852 71798.700000 0 0 1
32.459317 23.280112 19.415164 44.413055 0.622182 1.118369 0.015929 -0.002467 124209.000000 0 0 1
33.061207 22.929712 20.640064 45.219767 0.606386 1.096808 0.011359 -0.007123 -8856.750000 0 0 1
33.634347 24.036112 21.292864 46.501506 0.620477 1.095169 0.019888 -0.013534 -63474.100000 0 0 1
33.532307 23.956912 22.850064 47.121913 0.620353 1.064532 0.018431 -0.007719 184969.000000 0 0 1
32.237087 24.335812 23.266964 46.613444 0.646630 1.048182 -0.002016 -0.001876 54060.600000 0 0 1
32.192027 24.574712 24.622904 47.397579 0.652009 1.024534 -0.004697 -0.003785 58198.500000 0 0 1
30.809317 25.021012 25.178914 47.002583 0.682091 1.005469 0.000792 -0.005993 337881.000000 0 0 1
30.535857 26.400312 24.914594 47.435768 0.712891 1.017813 -0.006069 -0.003964 128816.000000 0 0 1
29.599917 26.916012 25.845844 47.630184 0.737944 0.997224 -0.011208 -0.014089 -114323.000000 0 0 1
29.500507 28.411412 26.124684 48.579701 0.766594 1.003007 -0.023413 -0.010371 -326493.000000 0 0 1
29.023427 29.122412 25.052354 48.146595 0.787101 1.023553 -0.014479 -0.010859 157448.000000 0 0 1
28.809637 30.495812 25.391724 49.038040 0.813823 1.026523 -0.025039 -0.011887 -174132.000000 0 0 1
28.863117 31.419712 24.119304 49.010393 0.827783 1.056266 -0.015032 -0.009189 993406.000000 0 0 1
30.223157 31.444312 23.624564 49.601452 0.805198 1.074368 -0.025035 -0.007161 1000760.000000 0 0 1
30.188397 32.273012 22.498264 49.588895 0.818760 1.099888 -0.020263 -0.005370 135894.000000 0 0 1
31.621807 32.620812 22.056064 50.502733 0.800947 1.118836 -0.016418 -0.011826 437508.000000 0 0 1
32.244607 33.680812 22.846164 51.923588 0.807180 1.115202 -0.014792 0.001170 206267.000000 0 0 1
33.611607 33.860012 22.563864 52.776591 0.789080 1.129032 -0.006061 0.006052 -86541.700000 0 0 1
34.239147 -34.031718 23.232764 53.574606 -0.782360 1.122254 0.000474 0.011004 -450146.000000 0 0 1
33.609447 -32.815018 22.885864 52.251154 -0.773439 1.117427 -0.009365 0.008493 160613.000000 0 0 1
34.043147 -31.763018 23.714664 52.251416 -0.750763 1.099707 0.001469 0.007216 -544754.000000 0 0 1
33.196537 -30.443918 23.567664 50.835785 -0.742172 1.088738 -0.003502 0.012267 1074760.000000 0 0 1
31.791787 -30.359518 23.853764 50.014199 -0.762357 1.073627 -0.009238 0.009549 1373350.000000 0 0 1
30.949157 -30.985818 22.851664 49.398075 -0.785990 1.089868 -0.007548 0.015208 42441.600000 0 0 1
30.356897 -32.415018 23.184864 50.098029 -0.818174 1.089656 -0.015674 0.011770 -256830.000000 0 0 1
29.403337 -32.352218 24.230564 49.983422 -0.833113 1.064694 -0.010237 0.004363 86313.800000 0 0 1
28.866977 -33.634018 24.427964 50.609041 -0.861522 1.067084 -0.011992 -0.003462 266780.000000 0 0 1
27.839597 -33.738518 25.619504 50.692108 -0.880902 1.040957 -0.015314 -0.010751 291684.000000 0 0 1
27.633687 34.030712 25.993164 50.964248 0.888768 1.035580 -0.013208 -0.017483 -38460.300000 0 0 1
26.957237 33.928312 27.223314 51.175500 0.899396 1.009883 -0.001052 -0.011630 -917141.000000 0 0 1
26.606327 32.403712 27.379454 50.075260 0.883328 0.992299 0.004431 -0.016853 716435.000000 0 0 1
25.669557 31.926312 26.395904 48.733554 0.893606 0.998413 -0.004875 -0.011932 1084570.000000 0 0 1
24.321487 32.401812 26.305284 48.305074 0.926898 0.994925 -0.001034 -0.016215 449611.000000 0 0 1
23.624187 31.834712 24.989974 46.862031 0.932378 1.008339 0.029798 -0.022693 237584.000000 0 0 1
23.924087 32.426512 23.698264 46.748779 0.935153 1.039179 0.028539 -0.023998 -262287.000000 0 0 1
25.264287 32.399312 23.275164 47.220048 0.908508 1.055367 0.008135 -0.017374 -423890.000000 0 0 1
25.551477 33.112112 21.895764 47.209262 0.913573 1.088514 0.021508 -0.002302 -1063630.000000 0 0 1
26.856307 33.520112 21.755664 48.147358 0.895324 1.101952 0.009253 0.003927 -825907.000000 0 0 1
26.988647 34.417812 20.626964 48.357466 0.905796 1.130119 0.007528 0.000679 -549344.000000 0 0 1
28.421767 -34.424518 20.159564 48.982163 -0.880624 1.146621 0.012181 -0.006195 -307013.000000 0 0 1
28.909167 33.647212 19.321164 48.385765 0.860994 1.160027 0.010500 -0.007879 39292.000000 0 0 1
29.863337 34.150412 18.391364 48.952138 0.852269 1.185643 0.010363 0.000127 277794.000000 0 0 1
30.858617 33.054512 17.900664 48.634235 0.819742 1.193867 0.001339 0.008718 82339.600000 0 0 1
31.627497 32.393312 18.880864 49.052138 0.797360 1.175681 0.004330 -0.002634 -44010.800000 0 0 1
32.477497 31.416512 18.358964 48.773319 0.768794 1.184874 0.019920 -0.005799 -377087.000000 0 0 1
33.347117 30.723512 19.390064 49.314694 0.744472 1.166697 0.027953 -0.025424 -469838.000000 0 0 1
34.485173 31.488412 19.665164 50.670168 0.740006 1.172226 0.030257 -0.018710 -578805.000000 0 0 1
-34.932965 30.807912 20.428464 50.860217 -0.722733 1.157469 0.042367 -0.022959 399324.000000 0 0 1
-33.869230 31.827112 20.998864 51.000413 -0.754324 1.146435 0.048046 -0.024538 571560.000000 0 0 1
-32.865970 32.368112 20.135564 50.331974 -0.777766 1.159219 0.043789 -0.026397 678175.000000 0 0 1
-31.723590 32.884212 20.814764 50.209680 -0.803360 1.143341 0.035056 -0.017959 334430.000000 0 0 1
-31.805290 34.209212 21.603764 51.464253 -0.821797 1.137591 0.024868 -0.013273 -473916.000000 0 0 1
-32.252550 34.098612 22.942064 52.242518 -0.813214 1.116149 0.021023 -0.013050 328343.000000 0 0 1
-32.340850 -33.802318 23.580764 52.388737 0.807490 1.103906 0.004233 -0.002423 -137114.000000 0 0 1
-32.304240 -33.947618 25.110824 53.165385 0.810198 1.078881 0.010907 -0.004998 -752953.000000 0 0 1
-33.514730 -34.378418 25.613684 54.416666 0.798119 1.080717 0.012355 0.003904 -752682.000000 0 0 1
-33.427240 34.421712 26.979774 55.046733 -0.800054 1.058563 0.018859 0.007731 1470920.000000 0 0 1
-34.854993 33.919612 27.476914 55.860464 -0.771798 1.056543 0.010735 -0.002864 1025200.000000 0 0 1
-34.818921 33.650912 28.831584 56.356023 -0.768341 1.033754 0.028092 -0.009557 216060.000000 0 0 1
34.215787 33.426112 29.296884 56.092178 0.773724 1.021252 0.020214 -0.011248 14576.400000 0 0 1
34.143737 32.383212 30.466794 56.059725 0.758941 0.996231 0.019717 -0.006573 -306957.000000 0 0 1
34.104327 31.029812 30.127684 55.078414 0.738230 0.992024 0.007183 -0.008948 298898.000000 0 0 1
-35.126554 30.513412 29.433834 55.057186 -0.715234 1.006756 0.016413 -0.009075 -172332.000000 0 0 1
35.057179 29.005012 29.023294 53.968955 0.691204 1.002997 0.019981 -0.004396 -806316.000000 0 0 1
34.001317 28.864112 28.121314 52.726036 0.703862 1.008243 0.014624 -0.003265 3095.030000 0 0 1
33.735467 27.582512 27.589684 51.575841 0.685388 1.006366 0.024841 -0.011760 -40889.100000 0 0 1
33.422157 26.365012 28.540814 51.251659 0.667904 0.980177 0.013962 -0.011849 -330112.000000 0 0 1
34.554902 25.857012 29.242944 52.132294 0.642404 0.975279 0.016447 -0.004860 291503.000000 0 0 1
34.261007 24.558612 29.714134 51.573945 0.621919 0.956790 0.015785 -0.004718 90031.900000 0 0 1
34.655111 23.473012 28.615264 50.702982 0.595350 0.971126 0.007070 -0.007444 -121279.000000 0 0 1
33.813607 23.473112 27.503904 49.505674 0.606817 0.981747 0.004035 -0.001041 -119975.000000 0 0 1
34.296727 22.573712 26.550004 48.895201 0.582110 0.996793 0.004722 -0.010091 -378908.000000 0 0 1
34.212967 21.017312 26.982114 48.376534 0.550874 0.979121 0.001258 -0.006723 -275397.000000 0 0 1
32.919117 20.424612 26.946504 47.190541 0.555320 0.963055 0.009554 0.002147 466058.000000 0 0 1
32.694307 19.269512 27.740694 47.008275 0.532577 0.939584 0.015908 -0.000528 -493339.000000 0 0 1
32.596417 19.539312 29.270414 47.969451 0.540001 0.914498 0.008649 -0.016544 745680.000000 0 0 1
31.399837 20.192012 29.773724 47.750830 0.571482 0.897556 0.013967 -0.014265 1024340.000000 0 0 1
31.287687 21.539612 29.387234 48.025866 0.602924 0.912330 0.011834 -0.017684 -1011800.000000 0 0 1
30.312387 22.390212 30.166654 48.272036 0.636197 0.895754 0.022499 -0.019999 801368.000000 0 0 1
28.909397 22.324512 29.809144 47.145754 0.657573 0.886308 0.027103 -0.028170 1291950.000000 0 0 1
28.380807 22.919112 28.616234 46.364262 0.679332 0.905612 0.020481 -0.028479 -56021.000000 0 0 1
28.414727 24.486412 28.696954 47.228130 0.711277 0.917731 0.018173 -0.021998 -38294.900000 0 0 1
29.745867 24.998212 28.654504 48.278440 0.698890 0.935364 0.008710 -0.014227 276185.000000 0 0 1
29.872707 26.261312 29.365944 49.440811 0.721151 0.934822 -0.003116 -0.010088 -176905.000000 0 0 1
30.216817 26.166112 30.869204 50.503754 0.713679 0.913188 0.001439 -0.011622 633497.000000 0 0 1
31.492117 25.576512 31.177984 51.166181 0.682109 0.915559 0.004324 -0.008651 421041.000000 0 0 1
31.795897 25.273912 32.572354 52.064460 0.671611 0.894876 0.025057 -0.007901 123266.000000 0 0 1
30.972537 24.139812 33.273553 51.469971 0.662049 0.867854 0.026745 -0.010908 291018.000000 0 0 1
31.440217 24.111912 -34.492302 52.531804 0.654238 2.287096 0.015395 -0.013589 185484.000000 0 0 1
30.704287 23.193112 -33.684633 51.140280 0.646929 2.289848 -0.000152 -0.022927 -144748.000000 0 0 1
31.249017 22.833712 -32.275643 50.394410 0.631035 2.265894 -0.005795 -0.027057 -344601.000000 0 0 1
30.962117 23.851612 -31.354503 50.106456 0.656397 2.246899 -0.013377 -0.024948 266858.000000 0 0 1
31.261987 23.485712 -30.005733 49.287265 0.644304 2.225334 0.022041 -0.034711 418671.000000 0 0 1
32.363707 24.418912 -29.311853 50.028767 0.646385 2.196786 0.014606 -0.010143 899436.000000 0 0 1
33.155697 23.635512 -28.445283 49.669627 0.619308 2.180579 0.018782 -0.018359 -609424.000000 0 0 1
34.014927 24.391312 -27.654803 50.167116 0.622095 2.154662 0.025819 -0.010149 -311817.000000 0 0 1
34.695134 23.359212 -26.720233 49.632408 0.592561 2.139289 0.031000 -0.005148 -652544.000000 0 0 1
-34.789126 22.457412 -27.328593 49.613210 -0.573226 2.154158 0.038066 -0.013768 -172787.000000 0 0 1
-34.641071 21.217012 -26.680883 48.600771 -0.549546 2.151941 0.020529 -0.009384 -230905.000000 0 0 1
-33.480370 20.255712 -27.106443 47.602398 -0.544090 2.176614 0.041455 -0.010039 1142330.000000 0 0 1
-32.256910 20.566312 -26.393273 46.476729 -0.567593 2.174726 0.047633 -0.015240 282933.000000 0 0 1
-31.255110 19.641612 -26.670533 45.541104 -0.561061 2.196461 0.023130 -0.022035 30757.400000 0 0 1
-29.885130 19.938212 -26.005233 44.350033 -0.588345 2.197358 0.015842 -0.020235 -91292.100000 0 0 1
-29.912820 20.108812 -24.660933 43.672677 -0.591856 2.170838 0.003912 -0.009110 -525021.000000 0 0 1
-28.650510 20.266012 -24.087033 42.564635 -0.615644 2.172312 -0.010101 -0.005719 -259274.000000 0 0 1
-28.718420 20.576012 -22.563633 41.919416 -0.621697 2.139170 -0.018902 -0.006185 -137219.000000 0 0 1
-29.441400 19.550212 -21.936133 41.595682 -0.586181 2.126293 -0.022820 0.008986 -45611.700000 0 0 1
-30.206490 20.088912 -20.881433 41.857265 -0.586885 2.093094 -0.009874 0.012459 -1016540.000000 0 0 1
-30.995840 19.054012 -20.083433 41.558895 -0.551179 2.075162 -0.018907 0.015244 113363.000000 0 0 1
-31.862460 19.439012 -19.021033 41.891422 -0.547807 2.042108 -0.011785 0.004860 531195.000000 0 0 1
-32.880780 20.390912 -19.341833 43.255537 -0.555102 2.034376 -0.020668 0.009071 -773331.000000 0 0 1
-33.925710 20.318712 -18.229433 43.544415 -0.539623 2.002744 -0.006388 0.003261 -524076.000000 0 0 1
-33.764930 21.213412 -17.110133 43.391658 -0.560946 1.976122 -0.005772 -0.007179 224208.000000 0 0 1
-34.845597 21.002412 -16.227933 43.802543 -0.542423 1.950321 0.005859 0.001530 -295425.000000 0 0 1
-34.845503 21.960112 -14.999933 43.834388 -0.562340 1.920049 0.010697 0.005482 -134604.000000 0 0 1
-35.112584 23.322612 -15.290933 44.840277 -0.586309 1.918786 0.018577 0.000426 73750.800000 0 0 1
33.886127 23.659812 -15.172933 44.025836 0.609527 1.922648 0.032142 0.000674 -52246.600000 0 0 1
33.701677 25.221712 -15.251533 44.772168 0.642464 1.918402 0.015115 0.006109 -145473.000000 0 0 1
34.064837 25.780912 -13.991033 44.953504 0.647851 1.887287 0.013912 0.002458 -31456.200000 0 0 1
34.159547 27.179812 -13.943533 45.826182 0.672097 1.879968 0.009463 0.007157 65099.500000 0 0 1
-35.075542 27.876712 -14.752533 47.170350 -0.671539 1.888883 0.026140 0.018973 -55900.700000 0 0 1
-35.060195 27.795412 -16.169833 47.573792 -0.670330 1.917596 0.032329 0.021616 365601.000000 0 0 1
-33.782960 28.196812 -16.670733 47.055945 -0.695512 1.932935 0.040138 0.011485 115750.000000 0 0 1
-33.603990 27.959412 -18.212633 47.356698 -0.693967 1.965554 0.037540 0.010701 18815.300000 0 0 1
-33.234160 26.663612 -18.725533 46.541414 -0.676139 1.984869 0.036543 0.005148 1840140.000000 0 0 1
-31.817790 26.385412 -18.469933 45.273614 -0.692333 1.991018 0.028218 0.017743 1516610.000000 0 0 1
-31.362990 25.048312 -19.039133 44.424584 -0.673922 2.013708 0.021958 0.015044 -356816.000000 0 0 1
-31.275430 25.069912 -20.500033 45.021155 -0.675707 2.043553 0.017457 0.013760 205458.000000 0 0 1
-30.950990 23.785812 -21.024733 44.336983 -0.655236 2.064855 0.013760 0.016677 -383326.000000 0 0 1
-30.704170 23.749112 -22.514733 44.874041 -0.658361 2.096396 0.019031 0.011512 -583369.000000 0 0 1
-31.746180 23.891412 -23.450833 46.136332 -0.645148 2.103999 0.025482 0.007528 -163876.000000 0 0 1
-31.389860 23.764412 -24.791033 46.525970 -0.648012 2.132753 0.033172 -0.005833 -2180.570000 0 0 1
-32.386030 24.619812 -25.634653 48.084566 -0.649996 2.133076 0.020464 0.002933 83023.200000 0 0 1
-32.234150 26.038812 -25.543653 48.677904 -0.679480 2.123216 0.019111 0.007916 -141775.000000 0 0 1
-33.046980 26.666412 -26.486603 50.047383 -0.678949 2.128490 0.014350 -0.001088 -530292.000000 0 0 1
-32.516140 28.050412 -26.772323 50.605160 -0.711799 2.128269 0.003875 0.006999 -242767.000000 0 0 1
-31.412360 28.007812 -27.619813 50.339130 -0.728165 2.151575 0.005172 0.004959 -751008.000000 0 0 1
-30.866070 29.297712 -27.927703 50.902130 -0.759336 2.151551 0.005121 -0.001813 1368550.000000 0 0 1
-29.443160 29.160712 -28.614203 50.358906 -0.780579 2.175120 0.015405 -0.003014 270673.000000 0 0 1
-28.500880 28.573112 -27.783983 48.996659 -0.786664 2.173727 -0.000424 0.003685 -224165.000000 0 0 1
-27.158720 28.625812 -28.254963 48.532217 -0.811691 2.192216 0.024543 0.001462 603718.000000 0 0 1
-26.375340 29.923612 -27.980703 48.723720 -0.848340 2.182512 0.022799 -0.006799 -504779.000000 0 0 1
-25.897400 30.085112 -26.630653 47.801475 -0.860063 2.161697 0.019414 -0.003493 194675.000000 0 0 1
-26.931710 30.470712 -25.754223 48.135863 -0.846973 2.135342 0.007335 0.001082 -26500.700000 0 0 1
-26.347220 30.976312 -24.393933 47.421218 -0.865977 2.111115 -0.009431 -0.004736 76742.100000 0 0 1
-25.781970 32.264712 -24.446833 47.993429 -0.896619 2.105259 0.007942 0.003567 283954.000000 0 0 1
-24.967940 32.421512 -23.250133 47.065074 -0.914552 2.087480 0.024070 0.012815 606501.000000 0 0 1
-24.117540 33.701212 -23.173533 47.480944 -0.949658 2.080662 0.012490 0.018131 -65738.300000 0 0 1
-24.871440 -34.346318 -22.623333 48.063222 0.944054 2.060880 -0.001547 0.008264 106201.000000 0 0 1
-24.374740 -33.043018 -22.850933 46.990788 0.935235 2.078630 0.010632 0.013086 -159669.000000 0 0 1
16.473760 9.078012 -25.671143 31.824560 0.503656 2.509251 0.018820 -0.010974 -123849.000000 0 0 1
15.248960 8.474512 -25.289073 30.722717 0.507242 2.537714 0.018463 -0.016750 112259.000000 0 0 1
15.034160 7.117412 -25.587623 30.519010 0.442155 2.565167 0.016605 -0.024163 215362.000000 0 0 1
13.589060 6.568212 -25.461353 29.598724 0.450236 2.606493 0.020984 -0.021214 25714.800000 0 0 1
12.981760 6.368212 -24.259333 28.241732 0.456060 2.604088 0.033842 -0.029285 53525.000000 0 0 1
11.693460 5.779712 -24.367133 27.638727 0.459052 2.650101 0.025674 -0.025367 283254.000000 0 0 1
10.961860 5.807012 -23.001933 26.133746 0.487161 2.647000 0.042072 -0.029242 16655.200000 0 0 1
11.746360 5.130512 -22.014833 25.474536 0.411801 2.614334 0.048612 -0.018491 446227.000000 0 0 1
11.315960 5.243912 -20.634133 24.110516 0.433948 2.597920 0.059407 -0.018714 -617.057000 0 1 0
11.387060 6.676212 -20.041633 23.998000 0.530284 2.559179 0.045956 -0.019413 -103148.000000 0 1 0
11.000860 6.878112 -18.712733 22.770457 0.558768 2.535357 0.035472 -0.004254 -402752.000000 0 1 0
11.117160 8.182712 -18.305733 22.927012 0.634509 2.495488 0.035153 -0.003546 587991.000000 0 1 0
12.549960 8.601312 -17.845833 23.451179 0.600837 2.435616 0.024605 -0.004521 377946.000000 0 1 0
12.987460 8.128912 -16.597833 22.588523 0.559250 2.396154 0.024392 -0.003581 759106.000000 0 1 0
14.402060 8.325112 -16.467533 23.407402 0.524123 2.351132 0.025145 0.004047 433367.000000 0 1 0
14.877860 8.020812 -15.006333 22.602526 0.494444 2.296849 0.024528 -0.001460 -867956.000000 0 1 0
16.256560 7.818212 -14.903933 23.399303 0.448273 2.261318 0.025433 -0.005230 104150.000000 0 1 0
16.841460 7.930712 -13.608033 23.058828 0.440101 2.202034 0.027183 -0.005937 39097.900000 0 1 0
17.201360 9.404812 -13.319533 23.701207 0.500343 2.167570 0.024969 -0.011483 -1091470.000000 0 1 0
16.127160 10.244312 -13.054733 23.139950 0.565916 2.170217 0.042211 -0.011421 -247929.000000 0 1 0
16.515160 11.591312 -12.984033 23.993627 0.611972 2.142595 0.036984 -0.012112 -400043.000000 0 1 0
15.280760 12.461412 -12.734533 23.472468 0.684119 2.144243 0.036686 -0.009422 -151832.000000 0 1 0
14.857660 12.536812 -11.385333 22.528815 0.700880 2.100604 0.060475 -0.012134 86294.600000 0 1 0
15.442060 13.579312 -10.647733 23.156622 0.721301 2.048582 0.055402 -0.003343 -410772.000000 0 1 0
14.951160 15.023712 -10.897633 23.832908 0.787819 2.045699 0.043553 -0.004818 -82081.000000 0 1 0
13.762660 15.314512 -10.183333 22.970532 0.838718 2.030097 0.068344 -0.015595 334707.000000 0 1 0
13.509760 16.705612 -10.301533 23.826722 0.890775 2.017896 0.053500 -0.016062 -712572.000000 0 1 0
12.207960 17.196312 -9.726433 23.223930 0.953445 2.002932 0.051172 -0.009279 -601395.000000 0 1 0
12.385260 17.078712 -8.349333 22.688950 0.943366 1.947644 0.053192 -0.009020 206876.000000 0 1 0
11.202060 17.280312 -7.625933 21.960196 0.995648 1.925446 0.046283 -0.009922 -408490.000000 0 1 0
11.463860 16.890712 -6.130133 21.314192 0.974504 1.862525 0.034926 -0.015726 -58655.200000 0 1 0
12.252060 17.872812 -5.544533 22.367213 0.969859 1.821294 0.025852 -0.013797 379986.000000 0 1 0
13.030160 17.288812 -4.446433 22.101105 0.924947 1.773365 0.045962 -0.018339 606810.000000 0 1 0
14.114860 18.304112 -3.977533 23.454010 0.913908 1.741209 0.051067 -0.017405 122360.000000 0 1 0
15.320360 18.465412 -4.698133 24.449076 0.878219 1.764159 0.052439 -0.022775 540386.000000 0 1 0
15.970060 19.648912 -4.210833 25.668145 0.888317 1.735590 0.056462 -0.019202 1410410.000000 0 0 1
17.469260 20.007412 -4.616833 26.958982 0.853021 1.742899 0.047238 -0.019567 1956450.000000 0 0 1
18.564160 19.238412 -4.116833 27.049822 0.803232 1.723585 0.050437 -0.034952 674794.000000 0 0 1
18.889560 18.142712 -4.906333 26.646681 0.765233 1.755978 0.050978 -0.023579 -154159.000000 0 0 1
19.987860 17.224412 -4.299233 26.733468 0.711272 1.732316 0.060790 -0.027163 653490.000000 0 0 1
21.306960 17.462512 -4.779233 27.960096 0.686560 1.742570 0.047437 -0.030259 742583.000000 0 0 1
22.240760 16.458212 -4.321833 28.003614 0.637072 1.725747 0.053102 -0.026804 397644.000000 0 0 1
23.659760 16.814512 -4.824233 29.424230 0.617858 1.735494 0.049679 -0.028284 119906.000000 0 0 1
24.254960 17.918512 -4.131033 30.437503 0.636266 1.706938 0.044690 -0.024028 608295.000000 0 0 1
25.674460 17.963012 -4.140533 31.606830 0.610488 1.702175 0.036890 -0.017506 311770.000000 0 0 1
26.183260 19.332712 -3.548733 32.740042 0.636011 1.679401 0.025708 -0.009729 -219452.000000 0 0 1
25.952360 20.535012 -4.223533 33.362403 0.669388 1.697733 0.021298 -0.010304 227320.000000 0 0 1
26.234960 21.677812 -3.369833 34.198778 0.690570 1.669493 0.020575 0.007591 45228.800000 0 0 1
26.016960 23.043812 -4.069533 34.992293 0.724871 1.687358 0.001744 0.004629 -241767.000000 0 0 1
27.030760 23.342912 -5.002833 36.063581 0.712319 1.709968 -0.002040 0.008703 118954.000000 0 0 1
27.002760 22.583312 -6.212533 35.745637 0.696506 1.745482 0.006860 0.000608 321552.000000 0 0 1
28.198460 22.963112 -7.154033 37.062621 0.683423 1.765041 0.000789 0.002922 321561.000000 0 0 1
27.793560 23.914712 -8.111533 37.552529 0.710524 1.788517 0.003357 -0.000180 462623.000000 0 0 1
28.814360 24.765912 -8.663533 38.970175 0.709983 1.794981 -0.005684 -0.001458 450499.000000 0 0 1
29.809960 24.129912 -9.710133 39.562268 0.680482 1.818769 0.001203 -0.006577 215635.000000 0 0 1
29.282860 23.859112 -10.993633 39.339587 0.683689 1.854022 0.003933 -0.006532 -19905.900000 0 0 1
30.283060 23.482612 -11.898833 40.125790 0.659583 1.871862 0.000911 -0.011117 -190897.000000 0 0 1
29.613160 22.869212 -13.088533 39.638993 0.657599 1.907305 -0.008927 -0.012709 47658.900000 0 0 1
29.235560 23.843512 -14.088133 40.270418 0.684160 1.928195 -0.005771 0.001340 33293.000000 0 0 1
28.851460 23.195412 -15.283833 40.050336 0.677151 1.962340 -0.002344 -0.001048 -111874.000000 0 0 1
28.920360 24.085512 -16.549833 41.114427 0.694436 1.985076 -0.011369 0.004682 -2043120.000000 0 0 1
30.163660 24.610912 -16.809333 42.403974 0.684369 1.978399 -0.014699 0.008950 -1044880.000000 0 0 1
30.242160 24.868212 -18.227333 43.188562 0.688193 2.006492 -0.014617 0.006954 -421123.000000 0 0 1
31.587960 25.426512 -18.707333 44.657262 0.677748 2.003040 -0.010188 0.001719 54909.200000 0 0 1
32.603160 24.455812 -18.811633 44.887975 0.643569 2.003228 0.001380 0.006703 -890690.000000 0 0 1
33.888460 24.997012 -18.868233 46.144215 0.635535 1.992041 0.028621 0.005080 -194091.000000 0 0 1
34.884860 23.821112 -19.119433 46.367570 0.599123 1.995823 0.027865 -0.007888 -193307.000000 0 0 1
34.719560 23.161112 -20.370133 46.441654 0.588296 2.024856 0.024830 0.003441 368702.000000 0 0 1
-34.752667 23.620512 -21.388633 47.150293 -0.596954 2.041627 0.022050 -0.002330 -65473.400000 0 0 1
-34.721067 22.665712 -22.605433 47.225974 -0.578337 2.069930 0.029157 -0.005930 -6609.620000 0 0 1
-34.234267 21.379712 -22.212533 46.070313 -0.558248 2.073897 0.012655 -0.012340 312323.000000 0 0 1
-33.844867 20.646212 -23.331733 46.001205 -0.547758 2.102727 0.018976 -0.008271 -148400.000000 0 0 1
-33.549767 19.163012 -23.070233 45.000484 -0.518960 2.109084 0.005530 -0.006657 179140.000000 0 0 1
-34.637767 18.283312 -22.796033 45.317916 -0.485673 2.097891 0.011041 -0.009062 623576.000000 0 0 1
-34.183867 16.908212 -22.739233 44.401544 -0.459339 2.108456 0.006985 -0.005769 77634.400000 0 0 1
34.944360 16.015512 -22.555033 44.568312 0.429747 2.101427 0.018477 -0.003134 350391.000000 0 0 1
34.113760 15.853012 -23.704533 44.463148 0.435019 2.133089 0.064265 -0.015738 432697.000000 0 0 1
32.951660 15.077512 -23.520133 43.201156 0.429127 2.146509 0.067306 -0.012301 -129080.000000 0 0 1
32.966160 13.632112 -24.111633 43.057787 0.392106 2.165162 0.032542 -0.013121 -539259.000000 0 0 1
32.970960 13.602112 -25.545563 43.871146 0.391277 2.192334 0.040048 0.000671 223874.000000 0 0 1
33.430460 12.341112 -26.021273 44.124883 0.353639 2.201507 0.019587 0.006142 -372408.000000 0 0 1
33.398660 12.254012 -27.564183 45.004616 0.351652 2.229984 0.031658 0.000785 -39058.900000 0 0 1
32.063160 12.415212 -28.012543 44.349592 0.369433 2.254451 0.029164 0.002168 283438.000000 0 0 1
31.620160 13.742012 -28.303123 44.606549 0.409971 2.258166 0.031507 0.000065 -239926.000000 0 0 1
31.886660 14.140812 -29.721923 45.827005 0.417411 2.276498 0.025197 -0.007206 698105.000000 0 0 1
33.309760 14.176712 -29.940293 46.978084 0.402381 2.261818 0.026210 -0.004442 732647.000000 0 0 1
33.507360 13.948412 -31.341123 47.953804 0.394461 2.283087 0.021932 -0.006893 358771.000000 0 0 1
34.990360 14.354712 -31.741573 49.375201 0.389309 2.269029 0.037768 -0.009778 1692750.000000 0 0 1
-34.317467 13.465212 -31.339243 48.385418 -0.373913 2.275358 0.025433 -0.003932 664428.000000 0 0 1
-34.163167 13.243112 -29.939303 47.316634 -0.369809 2.255888 0.022989 -0.003898 -1225630.000000 0 0 1
-33.061367 12.210012 -29.645893 46.054504 -0.353776 2.270137 0.020265 -0.002098 -63342.300000 0 0 1
-33.394567 10.910112 -30.096843 46.260649 -0.315772 2.279161 0.018022 -0.010656 607608.000000 0 0 1
-32.357567 9.960512 -29.831243 45.123464 -0.298621 2.293084 0.015785 -0.013456 234437.000000 0 0 1
-32.853767 8.599512 -30.262183 45.487595 -0.256008 2.298671 0.012964 -0.009026 -454485.000000 0 0 1
-33.025867 8.532712 -31.688563 46.558352 -0.252836 2.319405 0.008956 -0.007637 -50758.300000 0 0 1
-33.214967 7.276412 -32.307923 46.903967 -0.215663 2.330643 0.009505 -0.007547 -174395.000000 0 0 1
-34.384367 6.342512 -31.872353 47.311299 -0.182409 2.309964 0.006880 0.000935 -87553.300000 0 0 1
-34.307367 5.947012 -30.544123 46.317446 -0.171639 2.290886 0.009293 -0.005992 -1210110.000000 0 0 1
34.854660 5.489612 -30.113763 46.387734 0.156217 2.277296 0.013378 0.000183 -1445250.000000 0 0 1
34.851760 4.824112 -28.743173 45.432227 0.137544 2.255780 0.008981 -0.006382 -389446.000000 0 0 1
-34.860467 3.609112 -28.697373 45.296987 -0.103163 2.256914 0.014494 -0.003124 126674.000000 0 0 1
34.888760 2.663212 -27.835793 44.711851 0.076187 2.242806 0.025622 0.002232 -231423.000000 0 0 1
-34.631767 1.371612 -27.823753 44.445493 -0.039585 2.247235 0.052073 -0.000976 -233973.000000 0 0 1
-33.397667 1.634012 -27.207473 43.108245 -0.048887 2.253822 0.043586 0.000431 -252752.000000 0 0 1
-32.493967 0.557912 -27.459693 42.546491 -0.017168 2.272349 0.050801 0.000605 642389.000000 0 0 1
-31.214767 0.577412 -26.561733 40.990496 -0.018496 2.275748 0.024883 -0.002191 266219.000000 0 0 1
-31.484067 0.421212 -25.158713 40.303657 -0.013378 2.244941 0.025659 0.002486 7151.300000 0 0 1
-30.373067 0.658712 -24.321633 38.916564 -0.021684 2.245888 0.036862 0.004776 -97452.400000 0 0 1
-30.643067 0.310012 -22.820033 38.207952 -0.010117 2.210875 0.015801 0.005458 -331851.000000 0 0 1
-30.796267 -1.072388 -22.604633 38.216875 0.034808 2.203693 0.018433 -0.003644 180289.000000 0 0 1
-31.064267 -1.443288 -21.254633 37.667376 0.046428 2.170347 0.024169 -0.001918 -111286.000000 0 0 1
-32.462267 -1.189188 -20.607933 38.469467 0.036617 2.136128 0.014966 0.001415 -291649.000000 0 0 1
-33.320567 -2.247088 -20.958333 39.427926 0.067337 2.131238 0.012666 0.000394 761410.000000 0 0 1
-34.662467 -1.743888 -20.719633 40.420675 0.050268 2.109006 0.010228 0.001246 672065.000000 0 0 1
34.656860 -2.788588 -20.364033 40.293523 -0.080290 2.100633 0.007686 -0.002791 -755131.000000 0 0 1
34.157260 -3.521788 -21.484633 40.505689 -0.102742 2.129881 0.002359 -0.000996 -283623.000000 0 0 1
35.043960 -4.320688 -22.241333 41.730377 -0.122674 2.132911 -0.013746 0.010744 -665204.000000 0 0 1
34.348660 -5.338288 -23.177933 41.779712 -0.154181 2.158877 -0.009054 0.013606 -849242.000000 0 0 1
34.012560 -6.581788 -22.474933 41.295239 -0.191148 2.146291 -0.006213 0.020682 457629.000000 0 0 1
33.415260 -7.579488 -23.314433 41.443830 -0.223053 2.168269 -0.002002 0.025234 130994.000000 0 0 1
32.033460 -7.241888 -23.919233 40.629019 -0.222335 2.200274 -0.020209 0.020564 -724742.000000 0 0 1
31.971160 -6.214888 -24.895633 40.994785 -0.191996 2.223439 -0.011017 0.017230 115003.000000 0 0 1
30.621360 -5.903088 -25.211813 40.101741 -0.190441 2.250672 -0.027635 0.006620 225878.000000 0 0 1
30.475560 -4.912888 -26.318413 40.565442 -0.159832 2.276788 0.002854 -0.020892 -9899.010000 0 0 1
30.951560 -5.307088 -27.590503 41.801915 -0.169813 2.291655 0.022854 -0.024775 308457.000000 0 0 1
30.767660 -4.199788 -28.486013 42.139531 -0.135662 2.313107 0.025968 -0.031484 -53925.800000 0 0 1
30.335760 -4.563988 -29.920983 42.852696 -0.149329 2.343717 0.041655 -0.030286 -61745.800000 0 0 1
30.056360 -3.456488 -30.751193 43.138938 -0.114497 2.364337 0.043015 -0.035657 -128415.000000 0 0 1
29.467460 -3.849388 -31.928593 43.618620 -0.129896 2.392041 0.044405 -0.046321 -1191600.000000 0 0 1
29.040560 -2.699788 -32.872623 43.946016 -0.092700 2.415874 0.048962 -0.039487 -655240.000000 0 0 1
27.993360 -1.937488 -32.321853 42.802853 -0.069102 2.426654 0.045834 -0.038838 83685.300000 0 0 1
26.686360 -2.460988 -32.250693 41.932391 -0.091959 2.448246 0.053498 -0.038030 -161987.000000 0 0 1
25.883860 -2.536488 -33.568443 42.464672 -0.097683 2.482426 0.058743 -0.042061 -439361.000000 0 0 1
26.460660 -3.533388 -34.408076 43.549593 -0.132748 2.481751 0.062455 -0.048039 118247.000000 0 0 1
25.598960 -3.797488 33.619116 42.426084 -0.147271 0.656036 0.056145 -0.038646 -298954.000000 0 0 1
26.084360 -5.031788 32.763694 42.180237 -0.190564 0.681300 0.039621 -0.042514 1837780.000000 0 0 1
27.427360 -5.069888 32.140314 42.555418 -0.182785 0.714749 0.039960 -0.038035 1938240.000000 0 0 1
27.784060 -4.164588 31.114384 41.921387 -0.148784 0.734437 0.051145 -0.035066 -751247.000000 0 0 1
28.229260 -2.794588 31.713654 42.549462 -0.098675 0.729757 0.040302 -0.039869 -840963.000000 0 0 1
29.493460 -2.757688 32.329204 43.847992 -0.093231 0.741729 0.034908 -0.036013 -98563.600000 0 0 1
30.003360 -1.429788 32.497894 44.253350 -0.047618 0.746073 0.028288 -0.030694 1063080.000000 0 0 1
31.509160 -1.355488 32.987834 45.638380 -0.042992 0.762938 0.013366 -0.029473 1240170.000000 0 0 1
32.375660 -1.619788 31.882724 45.467737 -0.049989 0.793694 0.016202 -0.025816 -372427.000000 0 0 1
33.715060 -1.722688 32.291664 46.716426 -0.051051 0.807610 0.018470 -0.016051 -359433.000000 0 0 1
34.570260 -2.360188 31.210824 46.634632 -0.068166 0.837580 0.015648 -0.005436 -386872.000000 0 0 1
34.867560 -1.561488 30.080654 46.076357 -0.044753 0.859464 0.005761 0.001501 223119.000000 0 0 1
-34.554167 -2.237688 29.248004 45.325969 0.064669 0.869405 0.011971 0.008883 150120.000000 0 0 1
-34.269667 -1.389888 27.965964 44.254232 0.040535 0.886744 0.009536 0.017103 -90652.900000 0 0 1
35.056260 -1.268688 27.047804 44.295989 -0.036174 0.913959 0.014520 -0.000754 -510189.000000 0 0 1
-34.643667 -1.227688 25.843344 43.238517 0.035423 0.930176 0.012226 -0.002942 -291718.000000 0 0 1
-26.340890 15.168312 12.639667 32.919316 -0.522470 1.176716 0.034580 0.000093 -389427.000000 0 0 1
-27.568140 14.667712 13.083767 33.857482 -0.488960 1.174032 -0.009294 0.001243 -474579.000000 0 0 1
-28.241870 15.696812 13.724267 35.104824 -0.507285 1.169132 -0.004407 0.006426 -1147940.000000 0 0 1
-29.464730 15.130512 14.367667 36.104468 -0.474399 1.161518 -0.003837 0.003126 -1111370.000000 0 0 1
-30.369590 16.023812 14.936767 37.445715 -0.485504 1.160489 -0.005685 0.000337 -575224.000000 0 0 1
-31.400660 15.257012 15.511067 38.201716 -0.452289 1.152690 -0.007708 0.013245 327884.000000 0 0 1
-32.374710 16.059312 16.475067 39.717140 -0.460479 1.143062 0.003096 0.005997 222759.000000 0 0 1
-31.738950 16.567212 17.615667 39.901694 -0.481079 1.113553 -0.005130 0.008933 -15984.500000 0 0 1
-32.616110 16.994312 18.666467 41.243839 -0.480338 1.101131 -0.003492 -0.002109 202674.000000 0 0 1
-31.797510 17.361812 19.931767 41.349601 -0.499776 1.067826 0.001251 -0.002658 88947.500000 0 0 1
-31.057530 16.207512 20.281967 40.479771 -0.480978 1.045997 0.007477 0.002841 67791.500000 0 0 1
-29.972320 16.427812 21.184667 40.211977 -0.501383 1.015936 0.003229 -0.007285 204426.000000 0 0 1
-30.231510 16.910212 22.699367 41.414499 -0.509999 0.990703 0.022698 -0.015459 -929327.000000 0 0 1
-30.818560 18.148812 22.764467 42.395566 -0.532212 1.003974 0.014266 -0.014837 171380.000000 0 0 1
-31.321990 18.563012 24.071667 43.647424 -0.534998 0.986632 0.019557 -0.017829 274794.000000 0 0 1
-32.418530 17.642912 24.766367 44.447794 -0.498397 0.979785 0.004942 -0.016743 355546.000000 0 0 1
-33.669280 17.505412 24.136867 44.973862 -0.479458 1.004291 0.015796 -0.010271 -30394.500000 0 0 1
-34.556590 18.619112 24.154067 46.089567 -0.494204 1.019176 0.021445 -0.010204 175266.000000 0 0 1
34.372587 18.051512 23.872367 45.576548 0.483582 1.019507 0.010183 -0.012548 427899.000000 0 0 1
34.061847 17.059012 24.896267 45.508718 0.464307 0.991941 0.011771 -0.001436 -436334.000000 0 0 1
32.795427 16.468012 24.835467 44.311803 0.465361 0.975842 0.017155 0.002153 -70523.300000 0 0 1
32.461137 15.394212 25.960967 44.324700 0.442824 0.945053 0.012212 0.008387 -279070.000000 0 0 1
32.093527 16.008512 27.191967 45.007444 0.462694 0.922077 0.017426 0.003632 137794.000000 0 0 1
31.945087 15.211912 28.366567 45.349234 0.444418 0.895007 0.009224 0.006261 -880533.000000 0 0 1
30.824047 14.239612 28.310567 44.208332 0.432759 0.875791 0.015831 0.017685 -1035400.000000 0 0 1
31.181257 13.056212 27.500167 43.577456 0.396539 0.887872 0.012539 0.020308 936971.000000 0 0 1
30.123207 12.070912 27.492467 42.531756 0.381125 0.867941 0.017442 0.021730 502498.000000 0 0 1
30.714107 10.734412 27.079167 42.330430 0.336224 0.876676 0.018362 0.022801 752938.000000 0 0 1
31.753527 10.291812 27.996367 43.566093 0.313432 0.872886 0.012794 0.022601 806516.000000 0 0 1
32.411857 9.078012 27.684067 43.581491 0.273086 0.882496 0.003133 0.021568 -168544.000000 0 0 1
33.293127 8.517412 28.796067 44.835166 0.250459 0.873346 0.012566 0.021248 -144128.000000 0 0 1
34.573621 9.105312 28.766167 45.888281 0.257513 0.893262 0.023774 0.023709 -48134.400000 0 0 1
-34.811685 8.158012 29.174767 46.147304 -0.230193 0.886395 0.018728 0.020492 1219790.000000 0 0 1
-33.345110 8.684612 29.468367 45.339867 -0.254786 0.863286 0.024729 0.020940 1221640.000000 0 0 1
-32.712060 9.115812 28.267967 44.184328 -0.271773 0.876593 0.027386 0.020464 -681091.000000 0 0 1
-31.537590 9.777612 28.590267 43.676363 -0.300633 0.857151 0.030689 0.014759 -388708.000000 0 0 1
-30.855830 10.358812 27.277367 42.466952 -0.323894 0.873275 0.023189 0.007536 -44336.700000 0 0 1
-30.168580 9.468912 26.461567 41.231275 -0.304129 0.873974 0.025167 0.003394 -61993.500000 0 0 1
-29.514730 10.194412 25.451567 40.284334 -0.332572 0.886926 0.015583 0.007982 145641.000000 0 0 1
-28.589300 9.223012 24.613667 38.836126 -0.312063 0.884362 0.013947 0.003634 78255.300000 0 0 1
-27.754300 9.895312 23.734967 37.836055 -0.342483 0.892701 0.000877 -0.000740 -266763.000000 0 0 1
-26.993520 8.958212 23.008567 36.582699 -0.320429 0.890599 -0.008224 0.005717 -29767.600000 0 0 1
-25.882830 9.399012 22.052167 35.278328 -0.348330 0.895548 -0.006773 0.011612 -891211.000000 0 0 1
-24.713940 9.879612 22.684967 34.971321 -0.380298 0.864956 -0.002429 0.003861 531942.000000 0 0 1
-23.699840 10.436712 21.846067 33.880054 -0.414817 0.870027 0.001042 0.005381 788212.000000 0 0 1
-23.136540 9.631512 20.659267 32.478775 -0.394470 0.881382 0.006186 0.006129 -868370.000000 0 0 1
-24.155840 9.609112 19.662667 32.595400 -0.378605 0.923246 -0.000200 0.001239 398301.000000 0 0 1
-23.989640 8.663912 18.592667 31.563483 -0.346575 0.940906 0.000238 0.005026 -349595.000000 0 0 1
-23.959340 7.136212 18.926467 31.355807 -0.289480 0.922784 -0.010656 0.017055 -477247.000000 0 0 1
-22.696940 6.800412 19.461967 30.662108 -0.291106 0.883145 -0.007501 0.018200 483864.000000 0 0 1
-22.621740 5.488712 20.086467 30.746305 -0.238030 0.858865 -0.002453 0.018881 -253656.000000 0 0 1
-22.611740 4.301012 19.144067 29.938016 -0.187966 0.877005 -0.010215 0.020917 363165.000000 0 0 1
-23.908740 4.121712 18.530567 30.528647 -0.170716 0.918529 -0.004365 0.026405 1233190.000000 0 0 1
-23.977140 3.180712 17.424967 29.810227 -0.131886 0.946496 0.008626 0.021664 -117698.000000 0 0 1
-24.096440 1.651112 17.797067 30.001670 -0.068414 0.935765 0.009052 0.024091 -773689.000000 0 0 1
-22.870740 1.133412 18.235167 29.272456 -0.049517 0.898293 -0.003190 0.025602 130714.000000 0 0 1
-22.982740 -0.243588 18.627567 29.584657 0.010598 0.889712 0.008581 0.023009 49073.800000 0 0 1
-21.638540 -1.036988 18.745067 28.647501 0.047887 0.857493 -0.005821 0.026292 325564.000000 0 0 1
-20.880340 -0.570288 19.875967 28.833451 0.027305 0.810223 -0.005644 0.026438 429199.000000 0 0 1
-19.874540 -1.533388 20.164967 28.354445 0.077001 0.779628 0.002789 0.022491 38303.900000 0 0 1
-18.749540 -1.101588 21.100967 28.249063 0.058685 0.727316 0.000497 0.020881 348041.000000 0 0 1
-19.187040 -1.201388 22.490467 29.587277 0.062533 0.707268 0.005988 0.018247 -188929.000000 0 0 1
-18.100540 -0.855488 23.293567 29.511891 0.047228 0.661137 0.011879 0.005221 -875272.000000 0 0 1
-18.236740 -0.941088 24.842467 30.832005 0.051558 0.633879 0.018464 0.008815 -20738.100000 0 0 1
-18.947240 0.087812 25.512867 31.779113 -0.004635 0.638788 0.007841 0.003784 1555360.000000 0 0 1
-20.403340 -0.012388 25.381267 32.565398 0.000607 0.677099 0.024007 0.003923 1414580.000000 0 0 1
-21.143540 1.192612 26.001167 33.534047 -0.056346 0.683502 0.015075 -0.000810 -276002.000000 0 0 1
-20.865140 2.324312 25.239667 32.829823 -0.110940 0.693829 0.006514 0.004398 1102620.000000 0 0 1
-22.130540 2.830912 24.782367 33.345773 -0.127228 0.732965 0.002017 0.008482 343280.000000 0 0 1
-21.849040 4.059612 23.860667 32.606632 -0.183708 0.749876 -0.001251 0.012159 211551.000000 0 0 1
-21.319740 3.669812 22.576167 31.267909 -0.170462 0.764074 -0.004360 0.018570 1373770.000000 0 0 1
-19.941040 3.248612 22.552567 30.278984 -0.161492 0.730523 0.002977 0.014617 182861.000000 0 0 1
-19.629340 2.496012 21.254367 29.039442 -0.126478 0.749670 0.009860 0.016640 -235013.000000 0 0 1
-19.275740 3.289412 20.162567 28.087426 -0.169022 0.770087 0.007050 0.018654 252620.000000 0 0 1
-19.039940 2.518812 19.004667 27.019273 -0.131527 0.790663 0.016262 0.009114 -78526.300000 0 0 1
-18.607340 3.486212 17.872567 26.034889 -0.185210 0.814152 0.004457 0.011366 165945.000000 0 0 1
-17.239040 3.852612 17.876967 25.131914 -0.219869 0.779414 0.009774 0.003672 138950.000000 0 0 1
-16.959540 4.564612 16.664067 24.210593 -0.262917 0.811658 0.012924 0.000040 263574.000000 0 1 0
-15.493040 5.080012 16.629367 23.288982 -0.316844 0.775538 0.018717 0.001154 21597.700000 0 1 0
-15.023240 5.939512 17.589767 23.882535 -0.376496 0.742897 0.016574 -0.001536 73439.300000 0 1 0
-15.464540 7.335812 17.455867 24.447361 -0.442929 0.775575 0.005869 -0.005820 -313080.000000 0 1 0
-14.894640 8.180412 16.286567 23.537666 -0.502243 0.806629 0.007267 -0.005485 -134792.000000 0 1 0
-15.388740 7.886012 14.960667 22.865347 -0.473561 0.857547 0.007651 -0.003485 514461.000000 0 1 0
-16.747240 8.252612 14.740367 23.787688 -0.457850 0.902482 0.004583 -0.003287 477801.000000 0 1 0
-17.284240 7.503212 13.450967 23.151062 -0.409559 0.950829 0.008530 -0.001842 -95508.200000 0 1 0
-17.087940 6.166112 13.715667 22.762648 -0.346304 0.924102 0.007838 0.001040 87536.500000 0 1 0
-17.454840 5.478812 12.614267 22.221804 -0.304146 0.967144 -0.007209 0.001179 -480675.000000 0 1 0
-17.155940 3.950912 12.678767 21.695325 -0.226348 0.946655 -0.007982 0.008677 13571.600000 0 1 0
-18.042640 3.221712 13.542167 22.788299 -0.176699 0.934451 -0.001822 0.005141 740656.000000 0 1 0
-17.582240 1.879612 13.681467 22.357340 -0.106500 0.912279 -0.003063 0.002960 6862.550000 0 1 0
-18.477940 1.270612 14.810267 23.714821 -0.068656 0.896286 -0.000850 0.005815 474855.000000 0 1 0
-19.715140 0.851312 14.277367 24.356820 -0.043154 0.944466 0.000284 0.009381 81803.200000 0 1 0
-20.650940 0.529712 15.290767 25.701157 -0.025645 0.933599 -0.004609 0.013849 121785.000000 0 0 1
-22.021640 0.042512 14.783767 26.523842 -0.001930 0.979574 0.003221 0.013718 -49258.700000 0 0 1
-21.857740 -1.154588 14.056567 26.013092 0.052774 0.999925 0.009814 0.003766 416485.000000 0 0 1
-23.098040 -1.511188 13.481567 26.787232 0.065332 1.043402 0.033716 0.001658 -4746.740000 0 0 1
-23.024940 -2.717188 12.426467 26.304906 0.117467 1.078783 0.030522 -0.007891 -158588.000000 0 0 1
-22.712640 -4.007188 12.946667 26.448776 0.174633 1.059280 0.018032 -0.009354 236155.000000 0 0 1
-22.585340 -4.961288 11.952467 26.030241 0.216234 1.093729 0.029680 -0.019307 -179668.000000 0 0 1
-22.761640 -6.371488 12.600967 26.785677 0.272937 1.081011 0.038483 -0.014592 163997.000000 0 0 1
-23.940740 -6.825588 13.263667 28.207668 0.277735 1.081262 0.044394 -0.014998 110878.000000 0 0 1
-23.867440 -8.108288 13.847567 28.760288 0.327489 1.068451 0.054651 -0.018173 -273878.000000 0 0 1
-24.760340 -8.067288 15.095867 30.100511 0.314969 1.045447 0.056666 -0.011933 430121.000000 0 0 1
-26.124810 -7.763488 14.790367 31.008586 0.288858 1.073585 0.054920 -0.011526 186932.000000 0 0 1
-26.841840 -7.912488 15.965767 32.217970 0.286663 1.052323 0.049271 -0.010238 -1099000.000000 0 0 1
-28.329530 -7.519088 15.953367 33.370779 0.259434 1.072347 0.040020 -0.012050 254105.000000 0 0 1
-29.271790 -8.215188 15.114767 33.952661 0.273613 1.109430 0.032470 -0.006985 681110.000000 0 0 1
-29.271660 -9.652388 15.185167 34.359685 0.318524 1.113028 0.025432 -0.007757 -886801.000000 0 0 1
-29.727270 -10.219888 16.562967 35.531515 0.331130 1.085864 0.019848 -0.009266 -287922.000000 0 0 1
-28.691350 -10.182088 17.537567 35.134524 0.341019 1.048173 0.031789 0.002349 235539.000000 0 0 1
-28.961290 -10.984688 18.696767 36.179950 0.362525 1.027721 0.030910 0.009040 -20419.100000 0 0 1
-27.751730 -11.100488 19.647667 35.768844 0.380500 0.989275 0.040528 0.009551 355929.000000 0 0 1
-26.600900 -11.636388 19.021767 34.710820 0.412363 0.990817 0.050130 0.010892 -570883.000000 0 0 1
-25.517290 -11.773188 19.872067 34.418587 0.432278 0.955299 0.055516 -0.000001 -567336.000000 0 0 1
-24.509440 -12.791988 19.350567 33.745993 0.481030 0.960124 0.058004 -0.003441 -626060.000000 0 0 1
-24.012040 -12.510088 18.074167 32.553892 0.480300 0.982184 0.052884 -0.001586 -55394.900000 0 0 1
-23.027940 -13.477288 17.774267 32.060067 0.529509 0.983148 0.045421 -0.007660 -393199.000000 0 0 1
-22.500540 -13.306788 16.322367 30.818251 0.534071 1.012628 0.046307 -0.009318 -34965.700000 0 0 1
-21.640940 -12.189388 16.098867 29.598733 0.512964 0.995714 0.049317 -0.013104 13142.100000 0 0 1
-21.418540 -12.142688 14.686467 28.668642 0.515744 1.032955 0.066071 -0.009799 71299.600000 0 0 1
-20.315440 -11.221288 14.157167 27.185654 0.504648 1.023057 0.037619 -0.012311 -247349.000000 0 0 1
-20.754840 -9.908888 13.814167 26.828728 0.445425 1.029903 0.027112 -0.015746 544167.000000 0 0 1
-19.717040 -8.926788 13.538767 25.529344 0.425134 1.011816 0.018376 -0.010645 383214.000000 0 0 1
-19.226540 -9.091888 12.078267 24.458267 0.441719 1.054306 0.023472 -0.005142 -81046.800000 0 1 0
-18.462240 -10.259188 11.731467 24.160558 0.507197 1.063790 0.013691 -0.012770 293738.000000 0 1 0
-18.333540 -10.325288 10.360267 23.453473 0.512914 1.113262 0.027248 -0.009271 -665674.000000 0 1 0
-17.571240 -11.521588 9.788767 23.180065 0.580377 1.134823 0.004951 -0.010312 -240626.000000 0 1 0
-16.186840 -11.591588 9.934767 22.250355 0.621458 1.107947 0.008686 -0.012350 106338.000000 0 1 0
-15.611540 -11.679288 11.269167 22.519327 0.642296 1.046710 0.012096 -0.006751 356055.000000 0 1 0
-14.115840 -12.150888 11.218267 21.742827 0.710730 1.028677 0.012770 -0.003681 700254.000000 0 1 0
-13.797840 -13.466188 10.805867 22.101705 0.773234 1.059950 0.004318 -0.009567 -1011310.000000 0 1 0
-12.458540 -13.608988 10.517467 21.237629 0.829503 1.052699 0.013583 -0.021583 -936743.000000 0 1 0
-12.114340 -15.133888 10.449067 22.022143 0.895764 1.076423 0.022526 -0.016335 -238781.000000 0 1 0
-12.669140 -15.789688 9.385567 22.313902 0.894613 1.136673 0.016429 -0.013064 -155554.000000 0 1 0
-12.391340 -17.127388 9.561067 23.201438 0.944484 1.146050 0.009546 -0.001718 89972.200000 0 1 0
-12.734940 -18.059188 8.383267 23.634554 0.956604 1.208199 0.004697 0.004995 -130217.000000 0 1 0
-11.911140 -17.858288 7.254767 22.658891 0.982576 1.244884 0.009270 -0.005747 -229515.000000 0 1 0
-12.238240 -18.645488 6.194167 23.147277 0.989960 1.299897 0.003651 0.000199 20298.300000 0 1 0
-11.518340 -18.165688 4.880667 22.056411 1.005700 1.347668 0.011287 -0.009920 199123.000000 0 1 0
-11.816740 -19.027988 3.787967 22.716698 1.015065 1.403266 0.022250 -0.009605 431171.000000 0 1 0
-11.000740 -18.722288 2.664667 21.877861 1.039563 1.448696 0.022766 -0.023589 301993.000000 0 1 0
-11.334040 -19.666288 1.554867 22.751724 1.047972 1.502402 0.034060 -0.017155 -17214.800000 0 1 0
-11.019340 -20.993988 1.954567 23.790622 1.087443 1.488547 0.028108 -0.019110 18386.400000 0 1 0
-11.340940 -22.016088 0.961367 24.784053 1.095126 1.531997 0.031253 -0.018294 970837.000000 0 1 0
-10.285740 -22.076088 -0.280833 24.356292 1.134781 1.582327 0.032859 -0.014541 1004660.000000 0 1 0
-10.324740 -21.077788 -1.254433 23.504191 1.115310 1.624192 0.036458 -0.026367 141611.000000 0 1 0
-11.434840 -21.221588 -2.154533 24.202342 1.076569 1.659936 0.043893 -0.020328 685395.000000 0 1 0
-12.370440 -19.965788 -2.231133 23.593186 1.016103 1.665505 0.035547 -0.023336 297089.000000 0 1 0
-13.179540 -19.909188 -1.062633 23.899900 0.986043 1.615273 0.034125 -0.025915 -45202.000000 0 1 0
-14.207240 -18.953688 -1.214633 23.718417 0.927566 1.622029 0.039512 -0.018271 153678.000000 0 1 0
25.372860 -19.994088 -4.138533 32.567975 -0.667388 1.698215 0.018833 -0.012269 702021.000000 0 0 1
24.152160 -20.402088 -3.489733 31.808022 -0.701427 1.680730 0.008655 -0.001643 814932.000000 0 0 1
24.353660 -21.635688 -2.788533 32.695254 -0.726367 1.656189 0.004879 0.005721 595513.000000 0 0 1
23.080960 -22.032088 -1.935033 31.966982 -0.762152 1.631366 -0.002777 0.011562 313498.000000 0 0 1
21.954260 -22.210688 -2.757333 31.351349 -0.791204 1.658860 0.004975 0.003534 -498424.000000 0 0 1
21.014360 -22.800888 -1.853733 31.063164 -0.826150 1.630508 0.006183 0.002926 -295619.000000 0 0 1
19.895060 -23.534488 -2.600233 30.926473 -0.869004 1.654974 0.009581 -0.001477 224630.000000 0 0 1
19.014160 -22.624288 -3.293933 29.736285 -0.871884 1.681796 0.014833 -0.004769 -216106.000000 0 0 1
18.106360 -23.324588 -4.093533 29.809959 -0.910688 1.708553 0.018421 0.003266 -372105.000000 0 0 1
17.275560 -22.385088 -4.939433 28.704270 -0.913524 1.743737 0.012342 0.011282 -217960.000000 0 0 1
16.277360 -21.528888 -4.416533 27.348697 -0.923421 1.732996 0.005536 0.018949 319995.000000 0 0 1
16.752860 -20.529188 -3.500433 26.727493 -0.886345 1.702141 0.003816 0.011734 -716012.000000 0 0 1
15.695060 -20.019088 -2.549733 25.565600 -0.905885 1.670695 0.001490 0.010540 -400126.000000 0 0 1
15.397160 -21.047788 -1.623033 26.128837 -0.939219 1.632953 0.009748 0.011947 84726.900000 0 0 1
14.479760 -20.464388 -0.683733 25.078319 -0.955015 1.598064 0.012363 0.014717 -134143.000000 0 0 1
14.165860 -21.367188 0.525767 25.641855 -0.985356 1.550291 0.015020 0.012557 -163517.000000 0 0 1
13.364060 -22.503688 0.233667 26.173816 -1.034903 1.561869 0.013903 0.005327 -28906.800000 0 0 1
12.785860 -23.007888 1.434067 26.360912 -1.063575 1.516368 0.017774 0.011558 -54947.100000 0 0 1
11.827060 -24.183988 1.270267 26.951033 -1.115951 1.523646 0.012544 0.009315 -16328.400000 0 0 1
12.463960 -25.398758 1.051767 28.311719 -1.114591 1.533638 0.016436 0.003975 907064.000000 0 0 1
11.404660 -26.396718 0.922167 28.769834 -1.162971 1.538738 0.026442 -0.007142 1016510.000000 0 0 1
11.692060 -27.768128 1.537367 30.168472 -1.172267 1.519815 0.030003 -0.002856 -47169.100000 0 0 1
11.553160 -27.758038 2.937467 30.209483 -1.176395 1.473406 0.033441 -0.014710 127550.000000 0 0 1
12.068460 -28.918278 3.566167 31.537788 -1.175440 1.457478 0.036775 -0.020361 -304354.000000 0 0 1
11.671660 -29.113758 5.027967 31.766633 -1.189516 1.411850 0.034683 -0.011946 -259415.000000 0 0 1
12.245160 -30.219658 5.670667 33.095742 -1.185811 1.398605 0.028315 -0.015677 -235326.000000 0 0 1
11.990260 -30.286608 7.056167 33.329183 -1.193835 1.357471 0.024425 -0.011152 -139556.000000 0 0 1
12.734860 -31.394928 7.828467 34.772159 -1.185442 1.343714 0.019300 -0.000737 -94526.000000 0 0 1
12.271960 -31.599678 9.135467 35.108366 -1.200367 1.307559 0.011452 -0.002966 89611.300000 0 0 1
11.484060 -32.802518 9.196867 35.950955 -1.234035 1.312104 0.008048 -0.005658 254045.000000 0 0 1
11.033960 -33.209438 10.577767 36.558230 -1.250018 1.277259 0.012510 -0.003235 207570.000000 0 0 1
12.155960 -33.657708 11.351367 37.542805 -1.224210 1.263631 0.004076 -0.002031 367628.000000 0 0 1
11.942560 -34.055667 12.681367 38.252193 -1.233518 1.232882 0.009563 0.004898 49369.300000 0 0 1
10.903560 33.978946 13.119067 38.020604 1.260285 1.218503 0.013359 0.003305 464626.000000 0 0 1
11.238860 32.686983 12.650067 36.807269 1.239626 1.219959 0.004038 0.004824 696539.000000 0 0 1
10.070960 31.900943 12.938067 35.867645 1.265004 1.201760 0.013686 0.010384 651071.000000 0 0 1
10.008060 30.638693 11.997367 34.392261 1.255075 1.214464 0.009123 0.011143 -221068.000000 0 0 1
9.611960 30.916683 10.659867 34.086124 1.269371 1.252727 0.006995 0.004497 662869.000000 0 0 1
10.646460 31.580843 9.910967 34.769585 1.245644 1.281741 -0.002446 0.000901 420906.000000 0 0 1
10.195660 31.934063 8.449167 34.570570 1.261754 1.323892 -0.003598 -0.000564 144546.000000 0 0 1
9.126460 32.865643 8.408067 35.130305 1.299931 1.329111 0.013073 -0.003041 100717.000000 0 0 1
8.740660 33.025643 7.053767 34.883346 1.312066 1.367182 0.008380 -0.007870 5815.570000 0 0 1
9.162260 34.330454 6.308667 36.087759 1.309991 1.395079 0.011391 -0.003653 276964.000000 0 0 1
8.478060 -33.670718 6.935367 35.407542 -1.324131 1.373649 0.015836 -0.005600 510840.000000 0 0 1
8.840060 -32.474818 6.232267 34.228666 -1.305023 1.387698 0.031164 -0.016628 -29910.000000 0 0 1
8.061660 -31.194938 6.643567 32.897591 -1.317901 1.367451 0.015036 -0.009690 170099.000000 0 0 1
8.449860 -30.669738 7.917367 32.782887 -1.301955 1.326876 0.023074 -0.007304 46638.200000 0 0 1
7.745960 -29.469458 8.106467 31.530361 -1.313763 1.310776 0.026190 -0.004814 -290272.000000 0 0 1
8.416760 -28.171218 7.679567 30.388075 -1.280467 1.315309 0.034361 -0.006959 -239983.000000 0 0 1
9.248960 -27.535768 8.647967 30.307575 -1.246747 1.281435 0.035371 -0.003345 506672.000000 0 0 1
10.127760 -26.493568 8.276067 29.546132 -1.205665 1.286891 0.018388 -0.005255 -132160.000000 0 0 1
9.542860 -25.315188 7.440767 28.058687 -1.210307 1.302400 0.029314 -0.007066 -188653.000000 0 0 1
9.242160 -25.695808 6.100367 27.980467 -1.225528 1.351009 0.038369 -0.011941 78238.100000 0 0 1
8.369960 -24.764788 5.466967 26.706529 -1.244871 1.364634 0.033720 -0.007641 183491.000000 0 0 1
8.195460 -25.178288 3.976267 26.775407 -1.256115 1.421741 0.027894 -0.007425 -114126.000000 0 0 1
7.344860 -26.259128 3.686967 27.515132 -1.298059 1.436394 0.021583 -0.008240 -382832.000000 0 0 1
7.715260 -27.571338 4.078867 28.919562 -1.297946 1.429283 0.019334 -0.003443 -156643.000000 0 0 1
6.684960 -28.607588 3.550367 29.592024 -1.341238 1.450529 0.023417 -0.008807 -20482.300000 0 0 1
5.501560 -28.565458 4.330367 29.410961 -1.380531 1.423023 0.011262 -0.005348 313621.000000 0 0 1
4.470760 -29.496998 3.919767 30.090283 -1.420375 1.440158 0.014891 -0.001794 559597.000000 0 0 1
4.613460 -30.994338 4.126867 31.606392 -1.423033 1.439852 0.016268 -0.003785 -295232.000000 0 0 1
5.717360 -31.537368 3.424167 32.233813 -1.391456 1.464366 0.011543 -0.009465 56000.900000 0 0 1
5.780560 -32.873878 3.760267 33.589378 -1.396735 1.458613 0.002485 -0.004274 40007.200000 0 0 1
6.862860 -33.679878 3.004767 34.503067 -1.369781 1.483599 0.002262 -0.009039 -137119.000000 0 0 1
6.636660 -33.772538 1.663267 34.458613 -1.376758 1.522509 0.003082 -0.006665 334976.000000 0 0 1
7.612660 34.380657 1.246767 35.235445 1.352889 1.535405 -0.003345 -0.004003 3593.510000 0 0 1
7.300360 33.749266 -0.187233 34.530324 1.357767 1.576219 0.004919 -0.001982 -47806.600000 0 0 1
6.185560 32.897423 -0.318033 33.475405 1.384941 1.580297 -0.006284 -0.000470 -52287.600000 0 0 1
4.957560 33.603122 -0.481233 33.970263 1.424320 1.584963 -0.006036 -0.003673 163822.000000 0 0 1
3.722860 32.699423 -0.277933 32.911840 1.457434 1.579241 -0.000123 -0.005551 -55609.700000 0 0 1
3.565460 31.653983 -1.218033 31.877433 1.458631 1.609016 0.001055 -0.001340 -24226.100000 0 0 1
2.586760 30.713883 -0.817133 30.833450 1.486773 1.597301 0.005390 -0.005656 19863.900000 0 0 1
2.422760 29.572203 -1.823433 29.727258 1.489052 1.632174 -0.002723 -0.002609 -228570.000000 0 0 1
1.841860 29.979523 -3.031333 30.188627 1.509436 1.671379 -0.004850 -0.008551 -166267.000000 0 0 1
2.001560 28.997433 -4.014633 29.342369 1.501880 1.708047 -0.003315 -0.013922 -51172.600000 0 0 1
1.485060 29.524993 -5.419633 30.055000 1.520540 1.752112 -0.002583 -0.016649 237212.000000 0 0 1
0.088560 29.807553 -5.496833 30.310283 1.567825 1.753157 -0.005741 -0.015065 346370.000000 0 0 1
-0.282740 30.734213 -6.518633 31.419172 -1.561597 1.779787 -0.011102 -0.010391 -111232.000000 0 0 1
-0.063940 30.274213 -7.990533 31.311031 -1.568684 1.828849 -0.004361 -0.007941 -429750.000000 0 0 1
-0.917640 29.242733 -8.506633 30.468710 -1.539427 1.853749 0.009857 -0.004478 84675.200000 0 0 1
-0.861340 29.061223 -9.895833 30.711954 -1.541166 1.898864 0.017130 -0.005861 -77472.400000 0 0 1
-1.339040 30.176123 -10.886733 32.107824 -1.526451 1.916722 0.011848 -0.006896 -302706.000000 0 0 1
-0.304540 31.106553 -11.048933 33.011957 -1.561006 1.912078 0.008445 -0.008358 -282062.000000 0 0 1
-0.691140 32.356463 -11.523433 34.354154 -1.549439 1.912859 0.009738 -0.007603 -159067.000000 0 0 1
-1.054940 33.340588 -10.462833 34.959671 -1.539166 1.874737 -0.006529 -0.005405 419543.000000 0 0 1
0.078660 33.745616 -9.675133 35.105284 1.568465 1.850014 -0.002739 -0.017389 501536.000000 0 0 1
-0.286940 34.341705 -8.419033 35.359796 -1.562441 1.811202 -0.004882 -0.008279 150829.000000 0 0 1
0.963260 -34.477202 -7.509833 35.298766 -1.542865 1.785185 0.008779 -0.014186 1135660.000000 0 0 1
1.820360 -33.473048 -8.139133 34.496436 -1.516467 1.808983 0.016670 -0.009692 159240.000000 0 0 1
2.679560 -32.871468 -7.197733 33.756789 -1.489460 1.785669 0.023612 -0.010912 -721140.000000 0 0 1
3.909960 -32.171958 -7.849533 33.345732 -1.449856 1.808425 0.009259 -0.006774 894547.000000 0 0 1
4.831460 -33.078188 -8.513033 34.496105 -1.425760 1.820155 0.021091 -0.005965 762239.000000 0 0 1
5.558660 -33.929058 -7.601133 35.211601 -1.408407 1.788379 0.034117 -0.000948 -1007430.000000 0 0 1
5.914360 33.763576 -8.135433 35.229873 1.397386 1.803824 0.032119 -0.004387 504862.000000 0 0 1
4.806760 32.894453 -8.357333 34.278200 1.425697 1.817088 0.020673 -0.004287 -129426.000000 0 0 1
3.970060 33.227205 -9.433633 34.767829 1.451878 1.845573 0.025456 -0.010171 14139.100000 0 0 1
3.036560 32.061573 -9.895133 33.690931 1.476368 1.868895 0.028526 -0.018139 229241.000000 0 0 1
3.692660 30.851363 -10.181833 32.697279 1.451671 1.887459 0.030205 -0.018445 101085.000000 0 0 1
2.728960 29.822863 -10.303933 31.670513 1.479545 1.902176 0.023941 -0.015691 -32225.200000 0 0 1
3.434360 28.626883 -10.972533 30.849469 1.451397 1.934438 0.015063 -0.016609 165807.000000 0 0 1
3.558660 28.736523 -12.395133 31.497478 1.447586 1.975262 0.026727 -0.010495 815701.000000 0 0 1
4.902160 28.640263 -12.914233 31.797378 1.401276 1.989024 0.026660 -0.007196 699194.000000 0 0 1
5.058260 29.237693 -14.345533 32.957897 1.399487 2.021133 0.034961 -0.009320 -368996.000000 0 0 1
4.371460 28.515993 -15.331933 32.670165 1.418682 2.059288 0.042827 -0.006602 -40844.600000 0 0 1
4.502760 29.203853 -16.530933 33.858701 1.417817 2.080860 0.046850 -0.004187 54174.900000 0 0 1
3.481360 28.748833 -17.592933 33.884016 1.450287 2.116723 0.038127 -0.004256 155373.000000 0 0 1
3.724460 27.448733 -18.027333 33.049800 1.435932 2.147734 0.042710 -0.002312 319454.000000 0 0 1
2.783160 27.159183 -19.066133 33.299919 1.468677 2.180419 0.047060 -0.014928 546171.000000 0 0 1
3.140060 25.867973 -19.811633 32.733970 1.449999 2.220853 0.048481 -0.006599 241635.000000 0 0 1
3.315960 24.742413 -18.972033 31.354754 1.437571 2.220659 0.048359 -0.019489 -225295.000000 0 0 1
4.238860 23.872943 -19.557733 31.151087 1.395069 2.249564 0.039665 -0.010251 -288913.000000 0 0 1
4.569760 22.580543 -18.707733 29.677313 1.371117 2.252828 0.035211 -0.000987 426735.000000 0 0 1
3.539560 21.597243 -18.522033 28.671154 1.408351 2.273150 0.053252 -0.004680 554966.000000 0 0 1
4.210460 20.458643 -17.905633 27.511738 1.367827 2.279482 0.048217 0.000295 296080.000000 0 0 1
3.349160 19.250243 -17.594133 26.293388 1.398540 2.303856 0.040728 -0.009751 -162340.000000 0 0 1
2.523560 19.279843 -16.430433 25.456626 1.440645 2.272381 0.031420 -0.020015 94056.700000 0 0 1
1.680160 18.146143 -16.244633 24.412979 1.478469 2.298839 0.015216 -0.007479 320780.000000 0 1 0
2.273760 16.900843 -15.477733 23.029735 1.437064 2.307805 0.009743 -0.004976 549664.000000 0 1 0
3.333660 16.193643 -16.155633 23.116051 1.367770 2.344644 0.022457 -0.011120 71125.100000 0 1 0
2.862160 15.133043 -17.018333 22.952660 1.383871 2.406030 0.025918 -0.013405 113960.000000 0 1 0
2.652660 15.583443 -18.507333 24.339303 1.402189 2.434708 0.017310 -0.005989 653580.000000 0 1 0
3.931660 15.690443 -19.147533 25.065434 1.325275 2.440134 0.031802 -0.005051 426464.000000 0 0 1
3.749960 16.318543 -20.411433 26.400448 1.344920 2.454585 0.014517 -0.006646 -205524.000000 0 0 1
4.125160 15.306443 -21.533133 26.739109 1.307546 2.506986 0.008284 -0.009303 -159326.000000 0 0 1
3.297160 14.207443 -21.702233 26.147841 1.342760 2.549871 0.017570 -0.010052 -274629.000000 0 0 1
2.080060 14.464443 -22.375333 26.724563 1.427970 2.563044 0.029079 -0.013280 128000.000000 0 0 1
1.373360 13.167443 -22.924933 26.473009 1.466872 2.617891 0.034728 -0.015040 253078.000000 0 0 1
0.751960 12.424243 -21.875733 25.168928 1.510346 2.624290 0.031446 -0.009438 73571.900000 0 0 1
0.080160 11.300743 -22.384333 25.075318 1.563703 2.674062 0.038642 -0.008016 -285883.000000 0 0 1
-0.684440 10.572743 -21.264033 23.757324 -1.506150 2.679343 0.028731 -0.009548 -830499.000000 0 1 0
-1.851940 11.191443 -20.770233 23.666023 -1.406804 2.641711 0.029568 -0.001596 -19867.900000 0 1 0
-2.332240 10.567543 -19.584633 22.375660 -1.353580 2.636780 0.018945 0.004656 298702.000000 0 1 0
-3.296240 9.383043 -19.837233 22.190595 -1.232966 2.676874 0.024767 -0.007604 -867276.000000 0 1 0
-2.567240 8.406543 -20.406933 22.219442 -1.274406 2.734882 0.023171 -0.016040 -755607.000000 0 1 0
-3.442240 7.574143 -21.128133 22.707150 -1.144229 2.766467 0.018486 -0.003441 -12924.500000 0 1 0
-2.796540 6.460143 -21.920833 23.023401 -1.162261 2.830864 0.020269 -0.005973 226664.000000 0 1 0
-2.164640 5.427443 -21.090933 21.885389 -1.191297 2.871324 0.027738 -0.006921 382679.000000 0 1 0
-1.913940 4.249443 -21.834533 22.326391 -1.147612 2.931299 0.024821 -0.010145 -437376.000000 0 1 0
-1.219840 3.158243 -21.061533 21.331917 -1.202208 2.982207 0.019113 -0.008840 240842.000000 0 1 0
0.148260 3.409043 -20.736933 21.015802 1.527334 2.978504 0.009433 -0.015659 199410.000000 0 1 0
0.603360 2.377343 -19.910333 20.060836 1.322248 3.019022 0.011725 -0.017074 1623520.000000 0 1 0
2.198760 2.247043 -19.994333 20.239987 0.796258 2.985633 0.007174 -0.019814 1662780.000000 0 1 0
2.672760 1.763143 -21.242133 21.482098 0.583144 2.991984 0.016344 -0.021237 26056.600000 0 1 0
4.085960 1.893743 -21.253733 21.725618 0.434004 2.932790 0.033409 -0.015366 -48549.900000 0 1 0
4.630160 1.499943 -22.605933 23.123936 0.313282 2.929530 0.032438 -0.006841 -636325.000000 0 1 0
6.032360 1.420243 -22.557233 23.393059 0.231226 2.873471 0.028734 -0.009823 -267268.000000 0 1 0
6.502560 0.695243 -23.646933 24.534549 0.106514 2.871784 0.028905 -0.013808 -239445.000000 0 1 0
8.034860 0.846543 -23.756633 25.092892 0.104972 2.813776 0.017984 -0.016486 -74769.700000 0 0 1
8.491260 2.006743 -24.397533 25.910772 0.232072 2.798141 0.022174 -0.008076 -103495.000000 0 0 1
9.870160 2.133243 -24.153833 26.179733 0.212856 2.745604 0.010996 -0.007940 -377209.000000 0 0 1
13.325260 -21.286088 22.178864 33.504658 -1.011473 0.847361 -0.000766 0.020535 -744011.000000 0 0 1
12.337160 -22.205088 22.602764 34.002299 -1.063663 0.843648 0.001593 0.021389 876277.000000 0 0 1
11.031360 -21.925088 22.040764 32.987811 -1.104641 0.839078 0.005596 0.013087 1074260.000000 0 0 1
10.770260 -21.928088 20.520764 31.905192 -1.114243 0.872153 0.015941 0.001930 -747897.000000 0 0 1
11.314760 -20.760088 19.968864 30.947707 -1.071781 0.869452 0.006969 0.000808 -298813.000000 0 0 1
10.665660 -20.453488 18.787264 29.750004 -1.090129 0.887304 0.041730 -0.014496 -70500.400000 0 0 1
10.999060 -19.102388 18.222064 28.599373 -1.048365 0.880003 0.050539 -0.011074 -124770.000000 0 0 1
10.308560 -18.077688 18.874464 28.094743 -1.052549 0.834140 0.052463 -0.010853 -413343.000000 0 0 1
10.604460 -16.783188 18.384464 27.057688 -1.007286 0.823778 0.055485 -0.009594 -174654.000000 0 0 1
9.737060 -15.651788 18.956564 26.441258 -1.014281 0.771406 0.053480 -0.001686 690092.000000 0 0 1
8.369260 -15.766788 18.562664 25.752837 -1.082801 0.765839 0.044215 -0.003964 420483.000000 0 0 1
7.532660 -14.704788 19.001464 25.179900 -1.097390 0.715709 0.021964 -0.002079 -584824.000000 0 0 1
6.086960 -14.797888 18.598564 24.534366 -1.180553 0.710460 0.001610 0.001632 -1194610.000000 0 1 0
5.848560 -14.911288 17.176864 23.486098 -1.197012 0.750478 0.004474 -0.000563 1097600.000000 0 1 0
4.457660 -14.965888 16.755064 22.903727 -1.281309 0.750214 -0.014073 -0.004262 1099720.000000 0 1 0
3.705860 -16.279588 17.038264 23.854995 -1.346972 0.775254 -0.019402 0.001682 -334288.000000 0 1 0
2.378860 -16.326288 16.564064 23.378940 -1.426107 0.783421 -0.021542 0.004591 -262031.000000 0 1 0
1.832660 -17.593688 16.680964 24.313598 -1.467005 0.814715 -0.013615 -0.002427 -314373.000000 0 1 0
0.374860 -17.649388 16.237064 23.985071 -1.549560 0.827165 -0.009333 0.004695 -319285.000000 0 1 0
0.177360 -17.513588 14.843764 22.958540 -1.560670 0.867748 -0.005480 -0.000266 -118080.000000 0 1 0
-1.211540 -17.629988 14.598464 22.921593 1.502184 0.880343 -0.005764 0.001493 -165406.000000 0 1 0
-1.574040 -17.754588 13.107464 22.124841 1.482372 0.936722 -0.010871 -0.014142 -328445.000000 0 1 0
-2.930840 -18.012788 12.877364 22.335551 1.409501 0.956307 -0.008468 -0.015457 -435797.000000 0 1 0
-3.045440 -19.394088 12.606964 23.331114 1.415039 0.999944 -0.001589 -0.013038 -200391.000000 0 1 0
-4.483640 -19.864088 12.293564 23.786902 1.348801 1.027663 -0.003083 -0.009170 109478.000000 0 1 0
-5.169640 -20.114988 13.515164 24.778974 1.319236 0.993896 -0.003318 -0.012308 -290915.000000 0 1 0
-6.008340 -21.227088 13.269064 25.744076 1.294961 1.029296 -0.009781 -0.004404 -67727.500000 0 0 1
-6.531940 -21.965988 14.542564 27.141426 1.281758 1.005333 -0.008835 0.002076 -4332.400000 0 0 1
-7.789840 -21.506988 14.975964 27.340659 1.223294 0.991119 0.001631 -0.001720 -219364.000000 0 0 1
-8.335040 -22.467888 15.870164 28.742668 1.215558 0.985860 0.003948 -0.010749 518915.000000 0 0 1
-9.863740 -22.288088 16.132464 29.228558 1.154150 0.986105 0.019829 -0.005279 595261.000000 0 0 1
-10.074440 -21.124688 16.919364 28.879260 1.125796 0.944849 0.011446 -0.009194 119989.000000 0 0 1
-11.320940 -20.525488 16.570864 28.706321 1.066760 0.955433 0.024866 -0.010517 398141.000000 0 0 1
-11.761840 -19.315688 17.399264 28.533683 1.023839 0.915014 0.021862 -0.005154 -336468.000000 0 0 1
-12.063040 -19.734688 18.686164 29.734619 1.022138 0.891261 0.025019 -0.007333 -121954.000000 0 0 1
-12.524340 -18.642788 19.477164 29.728312 0.979244 0.856386 0.021738 -0.004763 -124911.000000 0 0 1
-12.964740 -19.170288 20.855364 31.153340 0.976159 0.837339 0.018302 -0.012044 -425357.000000 0 0 1
-14.114840 -19.966688 20.810364 32.108699 0.955442 0.865680 0.010078 -0.009128 -300753.000000 0 0 1
-14.250040 -20.744188 21.989164 33.420178 0.968888 0.852689 0.024998 -0.002153 -363496.000000 0 0 1
-15.618740 -21.427288 21.991864 34.448741 0.940925 0.878387 0.018021 0.003023 -919145.000000 0 0 1
-15.661440 -22.496488 21.047564 34.559696 0.962644 0.915971 0.029439 -0.005140 562634.000000 0 0 1
-16.956840 -22.785688 20.506464 35.031943 0.931025 0.945466 0.013485 0.001834 502570.000000 0 0 1
-18.036840 -23.355588 21.419564 36.463801 0.913194 0.942929 0.007445 0.004787 -676405.000000 0 0 1
-18.723840 -22.345188 22.164064 36.621515 0.873348 0.920754 0.025878 0.008704 178369.000000 0 0 1
-19.254940 -22.902188 23.380564 37.972539 0.871699 0.907493 0.007879 0.008561 -18500.400000 0 0 1
-19.583040 -21.832088 24.418694 38.162916 0.839650 0.876488 0.004569 0.014829 -788281.000000 0 0 1
-20.629040 -21.084188 23.902364 37.966080 0.796309 0.889795 0.005943 0.025610 -370842.000000 0 0 1
-20.813240 -19.854788 24.554514 37.819674 0.761835 0.864195 0.013159 0.011431 -14447.800000 0 0 1
-21.784240 -18.903588 23.834164 37.416121 0.714717 0.880193 0.027586 0.013334 118143.000000 0 0 1
-21.255940 -18.293588 22.687964 36.072345 0.710635 0.890585 0.021360 0.017756 28515.200000 0 0 1
-22.142940 -17.236488 22.346364 35.871525 0.661443 0.898281 0.038554 0.005662 59603.500000 0 0 1
-21.860540 -16.465088 21.025864 34.511872 0.645538 0.915700 0.038167 0.009814 109.761000 0 0 1
-20.769840 -15.551688 20.984964 33.370795 0.642709 0.890733 0.036127 0.008428 -148560.000000 0 0 1
-20.390740 -15.441988 19.629164 32.241919 0.648159 0.916238 0.028838 0.002973 -151863.000000 0 0 1
-19.382940 -14.314788 19.413764 30.943590 0.636117 0.892597 0.023587 -0.004995 -145302.000000 0 0 1
-18.959940 -14.294388 18.068264 29.837410 0.646009 0.920330 0.025477 -0.006663 -429010.000000 0 0 1
-18.243040 -13.123088 17.816164 28.678208 0.623593 0.900467 0.024533 -0.014432 -601595.000000 0 0 1
-17.597040 -13.377988 16.439064 27.547581 0.650023 0.931350 0.008424 -0.019820 -34125.200000 0 0 1
-17.259940 -12.213188 15.699664 26.335279 0.615811 0.932104 0.006065 -0.013026 48159.200000 0 0 1
-16.040040 -11.607088 16.071864 25.501219 0.626411 0.888935 -0.022794 -0.011598 -251943.000000 0 0 1
-15.819840 -10.322288 15.220964 24.258910 0.578124 0.892538 -0.011118 -0.015094 381351.000000 0 1 0
-16.562940 -9.145488 15.658064 24.559029 0.504504 0.879458 -0.006997 -0.006635 472620.000000 0 1 0
-16.317840 -8.028388 14.853564 23.480956 0.457228 0.885917 -0.010603 -0.002540 -693274.000000 0 1 0
-16.621040 -6.688188 15.540864 23.717278 0.382567 0.856276 -0.001716 0.006393 124049.000000 0 1 0
-15.958640 -6.380888 16.752164 24.000602 0.380368 0.798210 0.005585 0.011028 789349.000000 0 1 0
-14.544940 -6.171188 16.575764 22.899668 0.401264 0.761440 0.000033 0.004470 499183.000000 0 1 0
-13.666040 -6.253888 17.837964 23.325195 0.429175 0.700142 -0.001432 0.007744 -113319.000000 0 1 0
-13.543640 -7.461788 18.581964 24.174322 0.503568 0.694044 -0.007629 0.002751 180436.000000 0 1 0
-13.137740 -8.638088 17.841564 23.781047 0.581631 0.722367 -0.005658 0.006269 -449485.000000 0 1 0
-13.045640 -9.949188 18.602064 24.803464 0.651545 0.722767 -0.010519 0.001447 262992.000000 0 1 0
-14.274340 -10.574488 18.972864 25.991270 0.637590 0.752517 0.000844 -0.000173 120119.000000 0 0 1
-14.869640 -10.068488 20.128664 26.974873 0.595203 0.728460 -0.002972 -0.000040 -700931.000000 0 0 1
-16.219940 -10.740488 20.508564 28.267397 0.584889 0.759007 -0.000084 -0.005229 1072980.000000 0 0 1
-17.362440 -10.548688 19.663064 28.273048 0.545958 0.801722 0.017266 -0.016761 809948.000000 0 0 1
-17.739240 -9.210388 19.288764 27.777118 0.478897 0.803194 0.014236 -0.008061 -604095.000000 0 0 1
-18.797340 -9.029188 18.159764 27.652183 0.447799 0.854334 0.028321 -0.013945 600401.000000 0 0 1
-20.113640 -9.331888 18.606564 28.945585 0.434401 0.872633 0.030354 -0.010848 -187684.000000 0 0 1
-21.011240 -9.190588 17.539264 28.871524 0.412337 0.917895 0.050218 -0.017955 -865425.000000 0 0 1
-22.458540 -9.306688 17.975364 30.234321 0.392853 0.934109 0.048736 -0.012151 -856235.000000 0 0 1
-22.924340 -8.342088 18.900464 30.860060 0.349001 0.911631 0.049653 -0.003839 -1192720.000000 0 0 1
-24.245340 -8.623288 19.099764 32.046819 0.341715 0.932291 0.043026 -0.002242 -1213830.000000 0 0 1
-24.979140 -7.610388 20.081264 32.941351 0.295735 0.915232 0.041957 -0.002431 71401.900000 0 0 1
-24.768840 -7.769388 21.442664 33.669670 0.303956 0.880385 0.050889 -0.005664 190066.000000 0 0 1
-25.419300 -6.729288 22.134464 34.370898 0.258795 0.871096 0.038090 -0.010128 -767577.000000 0 0 1
-25.364180 -6.874788 23.682864 35.376297 0.264684 0.837320 0.036809 -0.005059 -117012.000000 0 0 1
-24.196640 -6.548488 24.373494 34.963228 0.264305 0.799427 0.025229 -0.001509 -156646.000000 0 0 1
-23.008340 -7.277588 24.086944 34.095863 0.306345 0.786330 0.034427 -0.001002 -53713.000000 0 0 1
-22.022240 -7.096488 25.291824 34.278500 0.311735 0.740941 0.035267 0.005569 -279979.000000 0 0 1
-21.431740 -5.870988 25.142424 33.554872 0.267379 0.723803 0.025918 0.004655 -227387.000000 0 0 1
-20.600240 -5.601888 26.257664 33.841039 0.265513 0.682637 0.036483 -0.003539 104758.000000 0 0 1
-20.246540 -4.067688 26.259924 33.407365 0.198268 0.666400 0.029695 -0.001715 294669.000000 0 0 1
-19.271740 -3.691588 27.237614 33.569560 0.189262 0.624290 0.022536 -0.001390 109333.000000 0 0 1
-19.734740 -3.484288 28.580564 34.906287 0.174755 0.611514 0.017056 -0.002847 28635.000000 0 0 1
-20.479040 -2.174788 28.968324 35.542715 0.105799 0.618018 0.023031 -0.012264 174767.000000 0 0 1
-21.774040 -2.205788 28.419844 35.870069 0.100959 0.656227 0.030591 -0.012083 -402615.000000 0 0 1
-22.571340 -1.160988 28.998634 36.765936 0.051391 0.662045 0.025829 -0.013295 83186.400000 0 0 1
-23.906140 -0.940688 28.297014 37.055491 0.039329 0.701866 0.018488 -0.009229 -1049900.000000 0 0 1
-23.716040 -0.396188 27.042864 35.971155 0.016704 0.720019 0.014258 -0.009338 -203233.000000 0 0 1
-24.869840 -0.029088 26.335824 36.222719 0.001170 0.756777 0.001985 -0.003038 -468694.000000 0 0 1
-25.778930 -1.159088 25.760724 36.462469 0.044932 0.786256 0.000204 0.001256 -339941.000000 0 0 1
-26.629200 -1.752388 26.701614 37.751309 0.065712 0.785121 0.001948 -0.004798 -120760.000000 0 0 1
-27.083760 -3.051288 26.331984 37.897411 0.112188 0.802623 0.001053 -0.007209 -201929.000000 0 0 1
-26.070310 -4.232688 26.423264 37.359946 0.160952 0.785179 0.005081 -0.013591 45685.700000 0 0 1
-25.666040 -4.470188 27.744854 38.059232 0.172438 0.753949 0.009896 -0.014180 -326318.000000 0 0 1
-24.690140 -5.486988 27.706204 37.514581 0.218680 0.739887 0.015184 -0.009270 -111569.000000 0 0 1
-24.310040 -5.859088 29.160744 38.414267 0.236505 0.708848 0.010993 -0.004461 459663.000000 0 0 1
-25.403760 -6.468388 29.874684 39.745286 0.249325 0.720231 0.016453 -0.004479 200522.000000 0 0 1
-24.984440 -7.174088 30.981604 40.441928 0.279619 0.698082 0.021375 -0.003327 -1241760.000000 0 0 1
-26.083270 -7.723588 31.832374 41.872316 0.287887 0.707137 -0.006361 0.000417 -812525.000000 0 0 1
-26.765960 -8.769088 31.149314 41.995158 0.316601 0.735142 -0.002661 -0.007177 214012.000000 0 0 1
-27.890870 -9.237488 31.882254 43.355622 0.319830 0.744590 -0.005203 0.001237 711851.000000 0 0 1
-28.946610 -10.000388 30.981054 43.563054 0.332640 0.779625 -0.008118 -0.010404 214859.000000 0 0 1
-28.450580 -11.233188 30.513134 43.204992 0.376043 0.786622 -0.002234 -0.016668 365207.000000 0 0 1
-29.539290 -12.007888 30.049154 43.814503 0.386102 0.815057 -0.011912 -0.012581 347634.000000 0 0 1
-28.985300 -13.345588 29.405884 43.393068 0.431490 0.826216 0.007043 -0.021282 -33238.400000 0 0 1
-28.503490 -13.036188 28.159454 42.134855 0.428953 0.838852 0.019574 -0.014744 -497379.000000 0 0 1
-27.575190 -14.007388 27.783174 41.575266 0.470004 0.838926 0.034920 -0.019420 833317.000000 0 0 1
-26.215070 -13.414688 27.190634 40.081346 0.472977 0.825232 0.046872 -0.012390 613031.000000 0 0 1
-25.386930 -12.668988 28.051974 39.898781 0.462876 0.791079 0.040604 -0.016282 -308831.000000 0 0 1
-25.744890 -11.410588 28.627434 40.156330 0.417199 0.777172 0.033674 -0.021707 -1176550.000000 0 0 1
-25.620250 -10.088588 27.766594 39.104482 0.375128 0.781211 0.035549 -0.014051 -1148470.000000 0 0 1
-24.346740 -9.770688 27.366034 37.909496 0.381639 0.764284 0.028303 -0.008190 -1061910.000000 0 0 1
-23.859540 -10.609888 26.306114 37.065604 0.418422 0.781699 0.030723 -0.018377 -631637.000000 0 0 1
-24.557540 -10.537288 24.948274 36.558495 0.405326 0.819727 0.037321 -0.012716 459578.000000 0 0 1
-25.756310 -11.333988 24.861534 37.549203 0.414546 0.847172 0.037807 -0.014114 1102590.000000 0 0 1
-26.488710 -11.242488 23.593364 37.211451 0.401384 0.884036 0.050507 -0.005847 321319.000000 0 0 1
-27.764440 -12.122588 23.490964 38.335971 0.411674 0.911241 0.054545 -0.017690 -39009.000000 0 0 1
-28.915140 -11.628288 24.107804 39.401632 0.382360 0.912402 0.044796 -0.013659 -634804.000000 0 0 1
-28.918090 -11.468988 25.536314 40.247943 0.377574 0.883467 0.049900 -0.018143 -1166530.000000 0 0 1
-30.215630 -11.036488 26.238904 41.512268 0.350202 0.886567 0.000128 -0.011081 -475739.000000 0 0 1
-30.596160 -9.729688 25.752324 41.157916 0.307891 0.894773 0.002730 -0.012517 -351129.000000 0 0 1
-31.895750 -9.311988 26.086134 42.243797 0.284056 0.905218 -0.010437 -0.008884 -170175.000000 0 0 1
-32.421340 -9.183288 27.560704 43.532384 0.276018 0.885234 -0.019926 -0.000457 -408471.000000 0 0 1
-32.688950 -10.453888 28.129194 44.374573 0.309520 0.884206 -0.016401 -0.013259 -160976.000000 0 0 1
-33.175200 -10.375288 29.438144 45.550464 0.303106 0.868103 -0.013873 -0.006772 -951143.000000 0 0 1
-33.651380 -11.757288 29.860674 46.500635 0.336127 0.873489 -0.001881 -0.008246 72475.800000 0 0 1
-34.718047 -12.349588 29.124014 46.968748 0.341753 0.901962 -0.020290 0.004480 947520.000000 0 0 1
34.374415 -11.824388 29.558094 46.851867 -0.331309 0.888104 -0.007394 0.006241 125653.000000 0 0 1
33.170107 -12.316388 28.742464 45.585948 -0.355532 0.888584 -0.000406 0.004618 -57272.500000 0 0 1
33.093777 -11.717688 27.481484 44.584013 -0.340301 0.906637 -0.006183 0.012306 230894.000000 0 0 1
32.066237 -12.330888 26.678734 43.497692 -0.367112 0.910518 -0.003988 0.018136 309202.000000 0 0 1
32.045127 -11.789088 25.276614 42.482702 -0.352523 0.933548 -0.005521 0.011900 -442406.000000 0 0 1
31.573627 -10.491588 25.279524 41.785424 -0.320811 0.921050 0.004111 0.002939 -155163.000000 0 0 1
31.698847 -9.928988 23.995664 40.977965 -0.303549 0.945207 0.000571 0.008496 -417796.000000 0 0 1
31.359247 -8.416788 23.902964 40.318685 -0.262219 0.936202 0.014739 0.009155 -523887.000000 0 0 1
29.989127 -8.231188 24.120274 39.355912 -0.267876 0.911102 0.021764 0.010281 -793667.000000 0 0 1
29.493517 -7.146688 23.407764 38.325789 -0.237732 0.913779 0.024393 0.009352 -704694.000000 0 0 1
27.974557 -7.230988 23.345564 37.146714 -0.252948 0.891213 0.025840 0.021773 -599509.000000 0 0 1
27.633127 -8.291188 22.477664 36.572926 -0.291498 0.908919 0.023144 0.029522 -367646.000000 0 0 1
26.295497 -8.708488 22.539464 35.711600 -0.319809 0.887758 0.025549 0.010585 -251784.000000 0 0 1
14.243960 -17.621688 25.827984 34.358391 -0.891003 0.720126 -0.020068 0.036394 370698.000000 0 0 1
13.244060 -18.624688 25.997624 34.614456 -0.952658 0.721126 -0.046259 0.036394 863966.000000 0 0 1
13.903460 -19.832088 25.596604 35.239240 -0.959360 0.757776 -0.015964 0.031796 -107581.000000 0 0 1
13.003560 -21.039088 25.800784 35.740960 -1.017198 0.764277 -0.053307 0.019151 -9678.380000 0 0 1
12.598360 -21.332288 27.168254 36.768182 -1.037334 0.739350 -0.038807 0.018973 541490.000000 0 0 1
11.426460 -20.614288 27.547784 36.254562 -1.064659 0.707724 -0.039721 0.018757 -80078.100000 0 0 1
11.079860 -21.034188 28.987454 37.489636 -1.085975 0.686905 -0.038676 0.012550 -340134.000000 0 0 1
12.019960 -20.573788 29.946314 38.269334 -1.042048 0.672102 -0.037606 0.018138 -168952.000000 0 0 1
11.767060 -19.491288 30.723464 38.240100 -1.027654 0.637753 -0.025857 0.021873 -353179.000000 0 0 1
11.629660 -18.130788 29.986714 36.921233 -1.000468 0.622916 -0.026989 0.017565 1024110.000000 0 0 1
12.892260 -17.424788 29.934154 36.957911 -0.933803 0.626725 -0.032091 0.027113 904494.000000 0 0 1
12.746160 -16.168388 29.368664 35.866416 -0.903207 0.611418 -0.040047 0.027371 -3774.360000 0 0 1
12.800160 -15.015788 30.412654 36.252551 -0.864883 0.575518 -0.039983 0.018609 91225.800000 0 0 1
12.305660 -13.794288 29.894104 35.147818 -0.842372 0.553813 -0.027179 0.013131 -200724.000000 0 0 1
12.637060 -12.630688 30.599724 35.434061 -0.785146 0.528493 -0.020360 0.017834 -577239.000000 0 0 1
12.031460 -11.331288 30.122004 34.358248 -0.755438 0.501830 -0.015360 0.016713 -199599.000000 0 0 1
12.378160 -10.778888 28.821404 33.167402 -0.716446 0.517684 -0.008926 0.018461 -870531.000000 0 0 1
13.743860 -10.697988 28.605254 33.490315 -0.661420 0.546911 0.016373 0.013092 -1169770.000000 0 0 1
13.986760 -9.746388 27.386024 32.258578 -0.608595 0.556795 0.022213 0.011802 120608.000000 0 0 1
14.151960 -8.342788 27.793824 32.285859 -0.532674 0.533826 0.025534 0.001234 742859.000000 0 0 1
15.521060 -8.080888 28.149844 33.145403 -0.480023 0.556170 0.033668 -0.003079 240616.000000 0 0 1
15.821760 -6.575788 28.193904 32.991897 -0.393896 0.546073 0.037658 -0.008973 410014.000000 0 0 1
17.240860 -6.478788 28.318814 33.781314 -0.359455 0.576642 0.041598 -0.015881 474616.000000 0 0 1
17.683360 -5.135688 28.088284 33.586131 -0.282649 0.580286 0.038920 -0.013646 -250213.000000 0 0 1
19.199560 -5.110388 27.848524 34.209347 -0.260141 0.619684 0.040408 -0.013895 -646884.000000 0 0 1
19.636760 -5.825388 26.661914 33.621349 -0.288387 0.655070 0.039978 -0.005792 586450.000000 0 0 1
20.997460 -5.706488 26.280214 34.119012 -0.265361 0.691561 0.044057 -0.004679 991907.000000 0 0 1
22.182860 -6.076088 27.251414 35.660029 -0.267352 0.700995 0.049014 -0.017510 -85733.400000 0 0 1
22.563260 -4.987288 28.056164 36.347243 -0.217538 0.688984 0.056901 -0.022353 536108.000000 0 0 1
23.532960 -5.310088 29.085064 37.788069 -0.221928 0.692442 0.062389 -0.034818 375416.000000 0 0 1
24.172060 -4.063788 29.679514 38.492550 -0.166562 0.690315 0.069499 -0.036688 -1046930.000000 0 0 1
24.916560 -3.377288 28.803094 38.234268 -0.134723 0.717682 0.055880 -0.025739 -565588.000000 0 0 1
25.204560 -2.068888 29.206674 38.633922 -0.081900 0.713638 0.044550 -0.032184 -139261.000000 0 0 1
26.157160 -1.317588 28.208004 38.491876 -0.050329 0.748324 0.044810 -0.029531 215992.000000 0 0 1
27.516660 -1.638988 28.342044 39.536367 -0.059493 0.771508 0.044257 -0.029083 -762558.000000 0 0 1
28.324860 -1.017488 27.417724 39.434307 -0.035907 0.801993 0.029649 -0.015765 459760.000000 0 0 1
29.804360 -0.882188 27.917864 40.847096 -0.029591 0.818287 0.009398 -0.009610 493584.000000 0 0 1
30.019360 0.032412 28.970144 41.718488 0.001080 0.803183 -0.002780 0.002423 -333023.000000 0 0 1
31.382660 0.186712 29.258264 42.906319 0.005949 0.820425 0.007114 -0.006431 -105168.000000 0 0 1
31.601660 1.210112 30.401414 43.867702 0.038274 0.805120 0.006264 -0.010582 -151580.000000 0 0 1
31.491560 2.560612 29.982344 43.557043 0.081133 0.811589 -0.003407 0.006264 40262.200000 0 0 1
31.918460 3.427612 31.012514 44.635329 0.106977 0.802658 -0.007652 0.007843 -116626.000000 0 0 1
32.419460 4.811912 30.579004 44.824674 0.147351 0.820041 -0.006978 0.014731 38889.100000 0 0 1
32.346060 5.824712 31.550064 45.558769 0.178165 0.805829 -0.005684 0.023323 -117777.000000 0 0 1
31.090360 6.442612 31.655004 44.834774 0.204330 0.786910 -0.004878 0.018781 -272032.000000 0 0 1
31.108260 7.302212 32.914484 45.873842 0.230561 0.770590 0.010657 0.003133 150953.000000 0 0 1
31.632260 6.573412 34.029277 46.923355 0.204891 0.759457 0.004852 0.006932 331479.000000 0 0 1
31.527060 7.359112 -33.921963 46.891488 0.229316 2.379531 0.007428 -0.002235 -181491.000000 0 0 1
32.272660 6.681912 -32.776303 46.480733 0.204161 2.353444 0.013994 0.003451 -359364.000000 0 0 1
31.583960 5.598312 -32.163003 45.424073 0.175430 2.357545 0.004811 0.005063 282623.000000 0 0 1
31.609360 4.366912 -32.899823 45.832520 0.137284 2.371473 0.024050 -0.005798 -263784.000000 0 0 1
31.435660 3.200112 -31.941253 44.929779 0.101449 2.361595 0.010641 -0.012405 -178520.000000 0 0 1
31.413960 1.907812 -32.566543 45.288589 0.060657 2.373287 0.013728 -0.017255 79429.100000 0 0 1
31.622460 0.822712 -31.673813 44.764799 0.026011 2.356837 0.016525 -0.020101 -61256.900000 0 0 1
31.868460 -0.561288 -32.409763 45.456644 -0.017611 2.364538 0.022421 -0.042507 -1317240.000000 0 0 1
33.006060 -0.705588 -33.241933 46.850015 -0.021374 2.359641 0.020235 -0.029585 63641.400000 0 0 1
33.736160 -1.905788 -33.014383 47.240978 -0.056431 2.344586 0.029906 -0.024155 343919.000000 0 0 1
34.514660 -1.846688 -31.650583 46.866101 -0.053453 2.312223 0.034972 -0.017011 -899312.000000 0 0 1
33.699760 -1.856188 -30.502443 45.491958 -0.055025 2.305681 0.035095 -0.018364 -634444.000000 0 0 1
34.509160 -1.744588 -29.414263 45.377578 -0.050511 2.276029 0.034675 -0.012456 -125547.000000 0 0 1
33.677660 -1.724588 -28.086213 43.886152 -0.051164 2.265267 0.038131 -0.013874 149031.000000 0 0 1
33.015660 -0.494088 -27.928523 43.246738 -0.014964 2.272860 0.017692 -0.007188 -142901.000000 0 0 1
32.119360 -0.517388 -26.854153 41.869637 -0.016107 2.267086 0.019524 -0.001392 -561017.000000 0 0 1
31.599060 0.926612 -26.665503 41.357082 0.029316 2.271509 0.003780 0.008128 -12748.100000 0 0 1
30.740860 1.271212 -27.750463 41.433135 0.041329 2.304689 0.006295 -0.006610 608189.000000 0 0 1
30.051260 2.528012 -27.539213 40.839654 0.083926 2.310847 -0.001116 0.003987 476605.000000 0 0 1
29.375560 3.083312 -28.844583 41.284868 0.104579 2.344336 0.018203 0.001053 800133.000000 0 0 1
28.312560 4.012912 -28.539043 40.400266 0.140798 2.355206 0.013250 0.011538 1075640.000000 0 0 1
27.583560 4.538412 -29.673093 40.766928 0.163072 2.386009 0.010332 0.008009 73712.500000 0 0 1
26.407460 5.443812 -29.274313 39.799176 0.203299 2.397276 0.011473 0.004659 -949598.000000 0 0 1
25.400460 4.670512 -28.730923 38.632408 0.181844 2.409384 0.020308 0.005386 -728861.000000 0 0 1
24.447460 5.549112 -28.172353 37.711436 0.223199 2.414411 0.017818 -0.001340 -365177.000000 0 0 1
23.057760 4.941512 -27.973393 36.586740 0.211117 2.441182 0.019838 0.008965 61274.400000 0 0 1
22.236260 4.795712 -29.133303 36.962135 0.212417 2.478664 0.023629 0.006914 203081.000000 0 0 1
20.851060 4.678012 -28.961433 35.991875 0.220699 2.505909 0.022450 0.000892 -365635.000000 0 0 1
20.145560 4.472012 -30.243073 36.612647 0.218443 2.542820 0.020471 0.000642 -435331.000000 0 0 1
20.476560 3.193812 -30.761303 37.091073 0.154727 2.548731 0.026933 -0.005413 -129109.000000 0 0 1
19.808060 2.763212 -31.907833 37.657727 0.138605 2.581699 0.006383 -0.006137 -516609.000000 0 0 1
20.163160 3.501012 -33.256383 39.048650 0.171920 2.589951 0.002402 -0.002757 -1521280.000000 0 0 1
21.436460 3.258012 -33.634343 40.017565 0.150830 2.568982 0.028126 -0.007748 -1789930.000000 0 0 1
21.809760 3.794112 34.235002 40.768815 0.172240 0.574001 0.023161 -0.017839 -309156.000000 0 0 1
23.203160 3.354612 33.776782 41.115825 0.143581 0.606754 0.036658 -0.011203 -221138.000000 0 0 1
23.311760 1.956312 33.528590 40.883146 0.083723 0.609197 0.055536 -0.019874 419626.000000 0 0 1
24.624460 1.499212 33.190571 41.354875 0.060808 0.639190 0.058080 -0.021717 -6667.300000 0 0 1
24.698560 -0.043988 33.065370 41.271534 -0.001781 0.641554 0.050145 -0.022365 -557074.000000 0 0 1
24.165260 -0.564788 31.824234 39.963241 -0.023368 0.649580 0.051325 -0.031697 1817530.000000 0 0 1
22.739960 -0.379988 31.568244 38.907637 -0.016709 0.624315 0.058290 -0.036580 1173790.000000 0 0 1
21.824960 -1.234488 32.492324 39.161256 -0.056503 0.592216 0.053153 -0.038272 -944505.000000 0 0 1
21.926460 -2.675588 32.327144 39.153195 -0.121425 0.599429 0.064177 -0.046002 341659.000000 0 0 1
21.270760 -3.449788 33.347531 39.703955 -0.160785 0.573689 0.053843 -0.034641 -74284.800000 0 0 1
21.239360 -4.914488 32.944144 39.504167 -0.227384 0.584585 0.054994 -0.031838 268216.000000 0 0 1
22.488460 -5.599288 32.964074 40.295323 -0.244023 0.612763 0.057334 -0.025275 223050.000000 0 0 1
22.364560 -6.972388 32.675734 40.205613 -0.302211 0.621998 0.051133 -0.024866 -766312.000000 0 0 1
23.650260 -7.801488 32.591734 41.017303 -0.318629 0.652473 0.051527 -0.027918 -373026.000000 0 0 1
24.281960 -7.588588 31.365174 40.385324 -0.302903 0.681470 0.052526 -0.026710 -355626.000000 0 0 1
25.398560 -8.406588 31.110714 41.032110 -0.319637 0.710242 0.037948 -0.024813 72794.600000 0 0 1
26.075960 -8.258888 29.738084 40.404437 -0.306729 0.743638 0.042077 -0.015441 393654.000000 0 0 1
25.242160 -8.773788 28.701074 39.216038 -0.334521 0.749733 0.038366 -0.010410 131448.000000 0 0 1
25.796960 -8.324788 27.464414 38.588590 -0.312154 0.778847 0.035049 0.000204 180633.000000 0 0 1
25.240260 -8.949588 26.153884 37.432492 -0.340746 0.797225 0.026602 0.001436 -196423.000000 0 0 1
23.926460 -8.539388 25.874114 36.261086 -0.342810 0.776243 0.021569 0.001301 -389990.000000 0 0 1
23.258260 -9.505788 25.079014 35.500191 -0.387989 0.786330 0.023913 -0.002059 -61653.900000 0 0 1
21.869860 -9.110488 24.570264 34.131944 -0.394715 0.767194 0.019637 0.007257 406707.000000 0 0 1
20.800960 -9.244588 25.538834 34.210735 -0.418213 0.727987 0.027030 0.006792 568649.000000 0 0 1
19.608060 -8.758388 24.947834 32.917773 -0.420084 0.710734 0.030906 0.010553 938416.000000 0 0 1
18.314960 -8.598488 25.848404 32.825474 -0.438934 0.664136 0.035416 0.005119 794054.000000 0 0 1
17.751560 -9.825588 26.309024 33.223859 -0.505531 0.656929 0.035364 0.006371 102049.000000 0 0 1
18.516060 -10.425788 27.339184 34.626182 -0.512820 0.660717 0.031949 0.003645 17038.700000 0 0 1
17.787960 -11.635588 28.021434 35.170999 -0.579271 0.648948 0.021450 0.005742 184383.000000 0 0 1
17.439160 -12.678788 27.179244 34.692755 -0.628637 0.670635 0.014650 0.012477 170019.000000 0 0 1
16.500460 -13.541388 27.809614 35.057224 -0.687217 0.654646 -0.004049 0.015816 -110386.000000 0 0 1
17.065160 -14.778588 28.495604 36.354171 -0.713715 0.669982 0.002964 0.026322 -39405.100000 0 0 1
16.156760 -15.338988 29.477154 36.948992 -0.759439 0.647193 -0.018292 0.026255 500141.000000 0 0 1
16.664760 -16.472988 30.147194 38.182808 -0.779611 0.660723 -0.009040 0.020439 -532498.000000 0 0 1
16.639060 -17.717888 29.283314 38.056462 -0.816788 0.692785 -0.008417 0.030214 455997.000000 0 0 1
17.765260 -17.603588 28.416934 37.855157 -0.780827 0.721713 -0.002656 0.023978 569248.000000 0 0 1
18.063560 -18.821188 27.741714 38.080599 -0.805936 0.754667 -0.002053 0.023638 75016.500000 0 0 1
19.128360 -18.662988 26.639314 37.733994 -0.773085 0.786995 0.022230 0.013888 -766351.000000 0 0 1
20.418760 -18.347888 27.009454 38.510795 -0.732030 0.793510 0.029648 0.002516 -81644.000000 0 0 1
21.266260 -18.160888 25.831334 38.070060 -0.706798 0.825049 0.010586 0.003556 -579104.000000 0 0 1
22.661360 -17.758988 26.168674 38.906534 -0.664703 0.833075 -0.002007 -0.000106 -1411200.000000 0 0 1
23.529660 -18.820088 26.372464 40.041821 -0.674647 0.851809 -0.002540 -0.004253 838048.000000 0 0 1
24.901960 -18.461788 26.648674 40.879054 -0.637961 0.860721 0.006077 -0.003159 852601.000000 0 0 1
25.703260 -19.709088 27.113434 42.240313 -0.654162 0.873842 -0.003850 0.005380 -15221.500000 0 0 1
25.260660 -20.278888 28.349254 43.046654 -0.676437 0.851879 -0.006329 0.006147 49173.900000 0 0 1
26.174660 -21.279588 28.720384 44.303432 -0.682608 0.865492 -0.002325 0.017203 -155382.000000 0 0 1
25.527660 -22.383488 29.603724 45.045115 -0.719867 0.853696 -0.000053 0.016776 -35876.600000 0 0 1
25.332660 -21.949788 30.914184 45.598504 -0.713974 0.825806 0.000362 0.004360 -179975.000000 0 0 1
24.781360 -23.012688 31.634314 46.307984 -0.748409 0.818758 -0.000745 0.007113 -645796.000000 0 0 1
24.770660 -22.861688 33.149695 47.277316 -0.745342 0.793752 0.005135 0.003185 25424.100000 0 0 1
24.373060 -24.080088 33.723327 48.074520 -0.779352 0.793324 -0.002660 0.004974 -48780.300000 0 0 1
24.248860 -24.094688 -33.982293 48.201218 -0.782209 2.353232 0.017086 0.004746 -319397.000000 0 0 1
23.889360 -25.500358 -33.380683 48.324318 -0.818005 2.333341 0.010854 0.008258 -174582.000000 0 0 1
22.695760 -26.127578 -33.779333 48.361050 -0.855573 2.344071 0.029139 0.000323 -327581.000000 0 0 1
22.691260 -26.753608 34.060170 48.895235 -0.867373 0.800156 0.013387 -0.005863 -368274.000000 0 0 1
21.322260 -27.342398 33.710430 48.359472 -0.908479 0.799479 0.031716 -0.012602 -141018.000000 0 0 1
21.188060 -28.612318 34.327392 49.456733 -0.933389 0.803642 0.034551 -0.011509 -586650.000000 0 0 1
19.970260 -29.252908 34.128816 49.186583 -0.971792 0.803955 0.053066 -0.005372 -511917.000000 0 0 1
20.025460 -30.809408 34.212445 50.206872 -0.994436 0.821082 0.035678 -0.009051 -209144.000000 0 0 1
20.217960 -31.407828 -33.635113 50.264683 -0.998846 2.303874 0.011393 -0.007378 176477.000000 0 0 1
21.172060 -32.412218 -33.838303 51.418272 -0.992166 2.289087 -0.006736 0.004653 -413206.000000 0 0 1
21.640160 -33.160808 -32.614823 51.299731 -0.992608 2.259802 -0.013761 0.006286 -294504.000000 0 0 1
22.941860 -33.682218 -32.906163 52.379732 -0.972850 2.250064 -0.017472 0.013356 1075840.000000 0 0 1
23.583060 -34.271088 -31.757733 52.337575 -0.968079 2.222808 -0.018710 0.024947 100963.000000 0 0 1
24.119960 -33.287568 -30.719613 51.317923 -0.943755 2.212566 -0.017287 0.007807 -881627.000000 0 0 1
24.659760 -34.019538 -29.629623 51.413493 -0.943573 2.184991 -0.007601 0.010402 -272263.000000 0 0 1
25.334760 -33.093938 -28.859213 50.694309 -0.917423 2.176425 0.003563 0.000802 -550224.000000 0 0 1
25.465160 -33.507438 -27.374463 50.205418 -0.920935 2.147483 0.002597 -0.000029 -121847.000000 0 0 1
26.401760 -34.514161 -27.087613 51.205654 -0.917793 2.128214 0.000683 0.016187 1133180.000000 0 0 1
27.571860 -33.919158 -26.399493 51.065154 -0.888257 2.114112 0.005983 -0.000416 1600090.000000 0 0 1
-26.224350 -30.977618 8.598467 41.488107 0.868304 1.362032 0.013819 -0.005099 43547.200000 0 0 1
-26.119440 -32.053318 9.493167 42.423585 0.887051 1.345114 0.019007 -0.010388 640687.000000 0 0 1
-24.936440 -32.026418 10.301967 41.876581 0.909228 1.322237 0.016873 -0.012183 455896.000000 0 0 1
-24.951140 -33.139618 11.344067 43.005599 0.925436 1.303856 0.004610 -0.011357 266663.000000 0 0 1
-25.172750 -34.404818 10.667367 43.944870 0.939134 1.325603 0.005183 -0.008135 221904.000000 0 0 1
-24.769840 33.622512 11.524167 43.322335 -0.935859 1.301545 0.003084 -0.005280 -64481.000000 0 0 1
-24.821940 32.198112 11.047467 42.129487 -0.914045 1.305468 0.007653 -0.007433 334675.000000 0 0 1
-26.154260 31.749712 10.790067 42.526640 -0.881732 1.314267 0.013904 -0.007748 504400.000000 0 0 1
-26.178180 30.419012 10.219667 41.413223 -0.860188 1.321447 0.016817 -0.009708 -180580.000000 0 0 1
-25.727780 30.245812 8.754667 40.661678 -0.865941 1.353792 0.015952 -0.012727 1078730.000000 0 0 1
-24.364440 29.725012 8.592767 39.383219 -0.884181 1.350844 0.018721 -0.005366 1458700.000000 0 0 1
-24.045140 29.822912 7.229167 38.985070 -0.892248 1.384283 0.031825 -0.005731 52266.000000 0 0 1
-22.564340 29.397412 7.015267 37.716989 -0.916150 1.383709 0.014007 -0.003460 348908.000000 0 0 1
-22.274740 27.981512 7.234267 36.489227 -0.898467 1.371216 0.046624 -0.002806 97900.400000 0 0 1
-22.769640 27.212312 6.187167 36.017322 -0.874051 1.398157 0.030785 -0.003957 -584807.000000 0 0 1
-23.073240 25.720712 6.475067 35.154743 -0.839603 1.385551 0.041713 -0.006831 -357542.000000 0 0 1
-24.106140 25.384012 7.378667 35.775673 -0.811213 1.363057 0.027414 -0.004172 158567.000000 0 0 1
-24.338140 23.992312 7.567267 35.003423 -0.778243 1.352889 0.023713 -0.017867 -96697.900000 0 0 1
-24.873840 23.150612 6.422267 34.581849 -0.749531 1.384000 0.002839 -0.017692 -283761.000000 0 0 1
-26.207760 23.455212 6.021667 35.682687 -0.730030 1.401229 -0.000967 -0.014081 342015.000000 0 0 1
-26.529790 22.809412 4.759667 35.309396 -0.710136 1.435586 -0.003810 -0.013333 8473.060000 0 0 1
-26.064460 23.528212 3.454367 35.282652 -0.734301 1.472734 -0.023722 -0.009639 -765843.000000 0 0 1
-24.759040 24.016312 3.432567 34.663754 -0.770172 1.471609 -0.008014 -0.013123 -501374.000000 0 0 1
-24.461640 24.698312 2.272167 34.835918 -0.790212 1.505525 -0.008437 -0.007215 318532.000000 0 0 1
-23.013440 25.265612 2.234067 34.248513 -0.832013 1.505519 0.020535 -0.005045 294207.000000 0 0 1
-22.785440 25.887512 1.007667 34.501521 -0.849045 1.541586 0.006317 -0.008095 -584675.000000 0 0 1
-21.744040 26.813712 0.970267 34.535777 -0.889426 1.542698 0.029592 -0.011735 -955712.000000 0 0 1
-21.359640 27.282312 -0.450633 34.652011 -0.906562 1.583801 0.023992 -0.010343 -39343.200000 0 0 1
-20.878340 26.271012 -1.358733 33.584480 -0.899278 1.611265 0.009653 -0.008710 1079770.000000 0 0 1
-19.594140 25.721812 -0.959033 32.349060 -0.919804 1.600447 0.011648 -0.010102 439199.000000 0 0 1
-19.028040 24.594412 -1.849633 31.150804 -0.912316 1.630208 0.002062 -0.008911 -322671.000000 0 0 1
-19.820840 23.458012 -2.053533 30.779231 -0.869242 1.637564 -0.006066 0.001405 -338174.000000 0 0 1
-19.312840 22.704612 -3.113633 29.969650 -0.865946 1.674877 -0.006640 0.002271 227356.000000 0 0 1
-20.374540 21.998412 -4.068733 30.258992 -0.823703 1.705668 -0.015417 0.007443 520046.000000 0 0 1
-21.046040 22.891412 -4.945133 31.486615 -0.827373 1.728504 -0.024425 0.011885 -1053890.000000 0 0 1
-22.172740 22.304212 -5.430933 31.915565 -0.788354 1.741794 -0.004677 0.006106 -882036.000000 0 0 1
-22.578440 22.955212 -6.740533 32.896238 -0.793673 1.777161 -0.009680 0.017841 -217407.000000 0 0 1
-21.884240 22.477312 -7.859733 32.340763 -0.798766 1.816283 -0.015716 0.012327 -268981.000000 0 0 1
-22.478340 22.932212 -9.077833 33.370184 -0.795393 1.846303 -0.012950 0.012916 -85185.200000 0 0 1
-21.674640 22.778812 -10.393233 33.116214 -0.810232 1.890032 -0.019876 0.012027 -207284.000000 0 0 1
-21.583640 21.501212 -10.927233 32.366033 -0.783485 1.915177 0.002772 0.003487 -348037.000000 0 0 1
-21.235940 21.597312 -12.276533 32.682140 -0.793835 1.955877 -0.009651 0.002801 -23331.600000 0 0 1
-22.251040 22.189612 -13.328733 34.134188 -0.784016 1.971950 -0.012418 0.002527 -25006.500000 0 0 1
-23.397440 21.396712 -13.475733 34.450760 -0.740763 1.972687 -0.020193 -0.000883 -478208.000000 0 0 1
-23.294840 20.418912 -14.533533 34.217030 -0.719703 2.009477 0.002656 0.001301 -51197.300000 0 0 1
-24.472540 19.412012 -14.573633 34.469149 -0.670591 2.007332 0.016534 -0.004436 -14949.300000 0 0 1
-24.399940 18.588012 -15.674433 34.446467 -0.651014 2.043211 0.023018 -0.003518 -308630.000000 0 0 1
-25.323810 17.545012 -15.715333 34.584599 -0.605895 2.042498 0.015357 0.004157 -675646.000000 0 0 1
-25.009840 16.507712 -16.801433 34.355273 -0.583407 2.081796 0.021564 0.003343 203315.000000 0 0 1
-23.856240 15.730112 -16.492033 32.993087 -0.582935 2.094237 0.044155 0.003230 344960.000000 0 0 1
-23.607040 14.744412 -17.493433 32.874157 -0.558295 2.131915 0.040650 -0.005874 95620.700000 0 0 1
-22.780040 13.529012 -17.051933 31.507663 -0.535920 2.142659 0.041020 -0.008250 1265030.000000 0 0 1
-21.379440 13.718112 -16.724633 30.413490 -0.570483 2.153051 0.038442 -0.008462 1293750.000000 0 0 1
-20.746040 12.447212 -16.928033 29.527776 -0.540405 2.181314 0.048837 -0.003355 207227.000000 0 0 1
-19.323540 12.375312 -16.296033 28.144418 -0.569616 2.188316 0.052892 -0.005329 150749.000000 0 0 1
-18.589340 13.516312 -16.687133 28.402723 -0.628683 2.198786 0.040244 0.001693 -78419.700000 0 0 1
-17.536540 13.803512 -15.786033 27.336167 -0.666843 2.186432 0.033745 0.007936 -245992.000000 0 0 1
-16.710940 15.002312 -16.240433 27.714194 -0.731573 2.196906 0.010550 0.018472 -222536.000000 0 0 1
-15.836540 14.742512 -17.341033 27.728128 -0.749636 2.246434 0.014519 0.012085 339986.000000 0 0 1
-15.256740 15.928512 -17.853533 28.376650 -0.806936 2.251272 0.004800 0.010665 353266.000000 0 0 1
-14.224340 15.657112 -19.022333 28.448658 -0.833310 2.303195 0.007749 0.008954 977322.000000 0 0 1
-13.150740 14.760012 -18.738533 27.238439 -0.842992 2.329449 0.007288 0.010837 246463.000000 0 0 1
-12.170040 14.792812 -19.743733 27.509129 -0.882367 2.371313 0.013955 0.007532 164056.000000 0 0 1
-11.230740 13.578512 -19.792133 26.499699 -0.879750 2.414156 0.011624 0.005507 110251.000000 0 0 1
-11.886140 12.390012 -20.199733 26.510789 -0.806151 2.437106 0.024643 0.006653 441517.000000 0 0 1
-10.981340 11.305112 -20.001433 25.464735 -0.799925 2.474229 -0.000800 0.016308 307621.000000 0 0 1
-11.324340 9.965912 -20.775333 25.674395 -0.721679 2.513560 0.006106 0.003056 -64077.100000 0 0 1
-11.291440 10.104212 -22.186533 26.866968 -0.729966 2.542402 0.010607 0.000774 31133.400000 0 0 1
-11.395340 8.792112 -22.697633 26.876338 -0.657153 2.576466 0.004840 0.000809 -379312.000000 0 0 1
-11.356240 8.653012 -24.233633 28.126638 -0.651112 2.609190 0.004665 0.000679 298990.000000 0 0 1
-10.076840 8.816912 -24.859433 28.236006 -0.718812 2.647535 0.005947 0.002729 270086.000000 0 0 1
-10.100840 8.379612 -26.245313 29.343846 -0.692528 2.677898 0.002827 -0.008685 -209078.000000 0 0 1
-9.689740 9.393612 -27.368663 30.515156 -0.769882 2.683477 0.015232 -0.006731 -475238.000000 0 0 1
-8.367440 9.826112 -27.360853 30.251988 -0.865402 2.700842 0.014842 -0.009691 -449219.000000 0 0 1
-8.144640 10.991112 -26.644093 29.950749 -0.933067 2.667258 0.005369 -0.006299 815490.000000 0 0 1
-6.610540 11.372112 -26.624733 29.696811 -1.044245 2.682719 0.019101 -0.012661 827038.000000 0 0 1
-6.176140 11.917212 -27.813953 30.883339 -1.092653 2.691975 0.016601 -0.014116 285370.000000 0 0 1
-4.788040 12.223512 -27.785923 30.731044 -1.197459 2.700216 0.029812 -0.022786 368960.000000 0 0 1
-4.280040 12.591312 -29.250513 32.131797 -1.243129 2.714875 0.024473 -0.015883 -82832.500000 0 0 1
-2.899740 12.895712 -29.328713 32.169571 -1.349614 2.718178 0.023328 -0.020854 116740.000000 0 0 1
-2.476540 12.939412 -30.682703 33.391464 -1.381688 2.736025 0.011246 -0.015126 -232629.000000 0 0 1
-0.946140 12.942312 -30.773863 33.398043 -1.497822 2.742534 0.025135 -0.020919 -512012.000000 0 0 1
-0.431940 11.733112 -30.234713 32.434401 -1.533999 2.771187 0.006357 -0.005054 66814.400000 0 0 1
0.979560 11.635912 -30.278633 32.452266 1.486810 2.773514 0.023758 -0.006615 321886.000000 0 0 1
1.558960 10.991012 -31.579733 33.474053 1.429897 2.803561 0.026857 -0.003830 -387383.000000 0 0 1
1.334560 11.772912 -32.744173 34.821881 1.457920 2.794405 0.034642 -0.015859 266371.000000 0 0 1
1.583460 11.047512 -33.924533 35.713146 1.428434 2.823767 0.037884 -0.019496 -101729.000000 0 0 1
1.843960 11.902012 33.978094 36.049534 1.417090 0.340646 0.044579 -0.023983 124795.000000 0 0 1
3.076360 12.619912 33.926526 36.328162 1.331689 0.365653 0.031826 -0.021290 23434.900000 0 0 1
3.201160 13.331612 32.721344 35.477678 1.335140 0.396786 0.028654 -0.018272 -1414280.000000 0 0 1
4.606660 13.637812 32.350644 35.408691 1.245044 0.418657 0.021623 -0.016125 -1306250.000000 0 0 1
5.287660 12.399012 32.099874 34.815180 1.167691 0.397561 0.023718 -0.025013 -48126.500000 0 0 1
6.601160 12.572312 31.613614 34.656297 1.087306 0.422165 0.028217 -0.017919 -10458.300000 0 0 1
7.262060 11.277712 31.019944 33.795876 0.998700 0.408137 0.022173 -0.014605 43919.900000 0 0 1
6.727360 10.945812 29.748794 32.404612 1.019706 0.407683 0.016185 -0.014438 -41978.400000 0 0 1
7.529660 10.011312 29.089144 31.671761 0.925943 0.406635 0.019633 -0.017951 -303084.000000 0 0 1
6.780360 9.187612 28.042904 30.278539 0.935026 0.386685 0.001370 -0.011468 35737.800000 0 0 1
6.018160 8.181412 28.693134 30.437636 0.936582 0.340206 -0.002599 -0.015287 -292145.000000 0 0 1
5.468760 7.211712 27.863964 29.297041 0.921994 0.314068 0.008346 -0.010340 -218023.000000 0 0 1
4.808360 6.099312 28.749194 29.779827 0.903203 0.263856 0.013369 -0.014253 295598.000000 0 0 1
5.772860 5.306312 29.407384 30.434801 0.743313 0.260575 0.006526 -0.015870 286276.000000 0 0 1
5.061160 4.491812 30.318274 31.064279 0.725870 0.219598 0.000909 -0.019172 92711.000000 0 0 1
5.844760 3.279212 30.896164 31.614670 0.511289 0.213605 0.015604 -0.016988 -62293.900000 0 0 1
5.835760 2.114012 30.106774 30.739925 0.347547 0.203313 0.008957 -0.006822 174335.000000 0 0 1
6.942560 1.945712 29.226814 30.103016 0.273249 0.241864 0.016590 -0.005360 29209.700000 0 0 1
6.886460 0.630612 28.525514 29.351762 0.091318 0.237836 0.005882 -0.009077 -35971.700000 0 0 1
7.168460 -0.453688 29.390604 30.255582 -0.063205 0.239693 -0.006750 0.001564 55830.600000 0 0 1
7.185860 -1.633188 28.597824 29.532007 -0.223482 0.252195 -0.002018 0.008259 -228058.000000 0 0 1
7.767660 -2.817888 29.435764 30.573538 -0.348007 0.273669 -0.012789 0.011980 913581.000000 0 0 1
9.175160 -2.688488 29.698604 31.199657 -0.285039 0.311455 -0.007479 0.004511 771045.000000 0 0 1
9.949460 -3.651188 29.030254 30.904345 -0.351715 0.350042 -0.005900 0.011079 -444536.000000 0 0 1
11.481460 -3.500088 29.127584 31.503820 -0.295898 0.390883 0.000056 0.006234 269026.000000 0 0 1
12.268760 -4.634588 28.777964 31.625513 -0.361184 0.427608 0.008055 0.001977 348456.000000 0 0 1
12.256060 -5.667488 29.780564 32.698829 -0.433137 0.425692 0.008538 0.004420 -809032.000000 0 0 1
11.732560 -7.016088 29.330894 32.360157 -0.538949 0.436140 0.006902 0.009323 -951854.000000 0 0 1
10.362760 -7.030788 29.130334 31.707966 -0.596127 0.406002 -0.010890 0.020460 -871500.000000 0 0 1
9.739560 -8.276588 29.046214 31.733948 -0.704373 0.414534 -0.020206 0.019276 -53726.700000 0 0 1
8.204160 -8.230488 28.977664 31.221053 -0.787000 0.381399 -0.024994 0.021529 -319927.000000 0 0 1
7.658660 -8.143488 30.261444 32.260292 -0.816070 0.353866 -0.019867 0.015900 459096.000000 0 0 1
6.252460 -7.933488 30.034424 31.687539 -0.903348 0.324436 -0.016802 0.023503 579936.000000 0 0 1
5.648660 -7.013188 31.138114 32.414106 -0.892751 0.281519 -0.017499 0.020267 -163562.000000 0 0 1
5.427460 -7.650588 32.370114 33.701826 -0.953778 0.282055 -0.027630 0.023666 -71801.400000 0 0 1
4.863960 -6.878188 33.405053 34.450909 -0.955283 0.247033 -0.021229 0.019134 20106.900000 0 0 1
5.663260 -5.661988 34.018430 34.948307 -0.785286 0.231197 0.000338 0.013138 -210186.000000 0 0 1
5.737660 -4.553288 33.098706 33.899521 -0.670814 0.217793 0.001285 0.012858 187465.000000 0 0 1
6.336760 -3.390188 33.730151 34.487258 -0.491257 0.209924 0.002906 0.010485 -184210.000000 0 0 1
6.180860 -2.088488 32.894384 33.535135 -0.325851 0.195796 0.008886 0.005824 -73062.800000 0 0 1
4.872460 -1.621688 32.650754 33.052117 -0.321295 0.156000 0.009841 0.004602 -163167.000000 0 0 1
4.888260 -0.490588 31.797414 32.174699 -0.100025 0.153292 0.010225 0.001812 70100.900000 0 0 1
3.504360 0.193012 31.657964 31.851915 0.055022 0.110411 0.008263 -0.003442 -40670.400000 0 0 1
3.064160 0.677112 32.915044 33.064296 0.217483 0.095052 0.010531 -0.006984 694099.000000 0 0 1
1.725260 1.176412 32.697424 32.764035 0.598458 0.063777 0.009775 -0.000475 1339320.000000 0 0 1
0.808460 1.235712 33.987123 34.019187 0.991442 0.043421 0.011674 -0.002573 164884.000000 0 0 1
1.242060 2.180012 -34.191108 34.283043 1.052917 3.068342 0.012096 -0.000755 -228661.000000 0 0 1
0.465460 2.201112 -33.043523 33.120023 1.362401 3.073612 -0.001407 0.011752 -209848.000000 0 0 1
0.973160 3.258312 -31.972733 32.153060 1.280560 3.035634 0.005412 0.024282 862465.000000 0 0 1
2.212460 2.871212 -31.362333 31.571106 0.914262 3.026527 -0.003465 0.017416 616805.000000 0 0 1
2.761960 3.924612 -30.572303 30.946675 0.957556 2.985889 -0.004220 0.029785 606624.000000 0 0 1
3.972960 3.457712 -29.683163 30.146813 0.716168 2.965983 0.010091 0.022908 352339.000000 0 0 1
3.590360 2.777412 -28.506383 28.865526 0.658419 2.983682 0.006634 -0.007035 612458.000000 0 0 1
4.689060 2.088012 -27.906553 28.374685 0.418934 2.959693 0.019876 -0.012759 47787.800000 0 0 1
4.274460 1.370212 -26.642203 27.017688 0.310209 2.974679 0.018426 -0.019074 42505.800000 0 0 1
3.411360 0.261612 -26.835093 27.052320 0.076539 3.014780 0.022700 -0.015800 1560.650000 0 0 1
3.113860 -0.427288 -25.649343 25.841197 -0.136370 3.019662 0.020502 -0.014670 -431682.000000 0 0 1
3.810460 -1.755888 -25.387743 25.732086 -0.431805 2.977814 0.033245 -0.027594 250394.000000 0 0 1
5.218160 -1.656388 -25.203063 25.790835 -0.307368 2.927690 0.028675 -0.031635 2770.820000 0 0 1
5.715460 -2.975988 -25.077163 25.891834 -0.480063 2.890074 0.030841 -0.037218 213461.000000 0 0 1
7.173460 -3.009688 -24.548133 25.751263 -0.397253 2.834706 0.036265 -0.035189 448710.000000 0 0 1
8.122960 -2.499188 -25.459763 26.840789 -0.298478 2.819413 0.028200 -0.023014 400503.000000 0 0 1
9.464760 -2.768688 -25.018533 26.891900 -0.284586 2.766127 0.033022 -0.016584 744116.000000 0 0 1
-28.510860 -3.938688 17.936664 33.913217 0.137278 1.013494 0.030401 -0.001763 377910.000000 0 0 1
-29.931130 -3.887488 18.038064 35.161866 0.129158 1.032119 0.018863 0.008129 180858.000000 0 0 1
-30.342560 -4.821488 18.970764 36.108276 0.157584 1.017628 0.015272 0.005719 -59173.400000 0 0 1
-31.786950 -4.620288 19.492064 37.572567 0.144341 1.025368 0.011257 0.005549 94405.800000 0 0 1
-32.719730 -5.032288 18.513764 37.929726 0.152604 1.060877 0.006794 0.006480 -961842.000000 0 0 1
-34.015240 -4.904288 18.992164 39.265645 0.143192 1.065937 0.010538 0.003051 -1347920.000000 0 0 1
-34.984247 -4.977788 17.837464 39.583469 0.141338 1.103326 0.001156 0.000764 -136076.000000 0 0 1
34.041437 -5.193188 18.295564 38.993798 -0.151388 1.082421 0.002620 0.006348 121022.000000 0 0 1
33.121937 -5.036488 17.220164 37.669125 -0.150903 1.096016 0.000477 0.007011 -734664.000000 0 0 1
31.763107 -5.501788 17.675864 36.764124 -0.171511 1.069240 0.008466 0.008763 -987054.000000 0 0 1
31.195977 -4.540588 18.569264 36.587204 -0.144535 1.038476 0.019546 0.002579 403082.000000 0 0 1
29.885857 -4.961388 18.917064 35.716035 -0.164511 1.012606 0.029892 -0.005879 578016.000000 0 0 1
29.171117 -4.431588 20.224364 35.771748 -0.150764 0.969911 0.036535 -0.001435 57206.700000 0 0 1
28.540967 -3.181188 20.248264 35.138283 -0.111002 0.956670 0.033868 -0.001579 -277140.000000 0 0 1
29.329847 -2.024488 20.244064 35.695386 -0.068916 0.967775 0.030971 0.004158 -162034.000000 0 0 1
28.480887 -0.699988 20.545464 35.125020 -0.024573 0.946010 0.041655 -0.000960 417074.000000 0 0 1
29.007787 0.504412 19.996664 35.235958 0.017387 0.967321 0.022555 0.001579 -545360.000000 0 0 1
28.218787 1.598712 20.261364 34.776122 0.056594 0.948844 0.025119 0.001684 -302035.000000 0 0 1
28.681307 2.872512 19.543864 34.825728 0.099820 0.974973 -0.002070 0.005991 -241785.000000 0 0 1
28.578747 2.797612 18.182464 33.987842 0.097580 1.006325 0.006842 0.000511 20663.400000 0 0 1
28.412107 4.049812 17.528264 33.628691 0.141585 1.022505 -0.000198 0.007747 -70671.600000 0 0 1
27.745237 3.913912 16.158664 32.345314 0.140141 1.047697 0.000899 0.010175 -232551.000000 0 0 1
27.599437 5.125412 15.426464 32.030838 0.183615 1.068302 -0.008068 0.005269 277650.000000 0 0 1
27.167147 4.782912 14.073864 30.967786 0.174269 1.099022 -0.008914 0.007371 331.700000 0 0 1
26.884567 6.109012 13.343364 30.629158 0.223437 1.120044 -0.003699 0.005998 268901.000000 0 0 1
25.821097 6.789312 13.994564 30.144181 0.257117 1.088004 -0.004411 0.008550 -55532.400000 0 0 1
25.283287 7.831812 13.239164 29.594887 0.300389 1.107000 0.006849 -0.003772 -293976.000000 0 0 1
24.193787 8.610712 14.071964 29.283167 0.341927 1.069517 0.008344 0.003054 2072800.000000 0 0 1
22.828187 8.091312 14.136364 28.043399 0.340628 1.042470 0.009713 0.006857 1667810.000000 0 0 1
22.694787 6.813612 14.725064 27.898139 0.291666 1.014770 0.020782 0.002393 -182409.000000 0 0 1
21.390187 6.045212 14.298164 26.429570 0.275433 0.999181 0.042984 0.001680 391765.000000 0 0 1
21.164887 5.837612 12.930964 25.480188 0.269125 1.038526 0.058174 -0.001267 428782.000000 0 0 1
20.104887 4.905412 12.770464 24.317777 0.239315 1.017906 0.070851 0.000280 62479.400000 0 1 0
19.736087 4.921012 11.242464 23.240535 0.244358 1.065869 0.071666 -0.004356 208870.000000 0 1 0
20.748487 4.237812 10.486364 23.630967 0.201476 1.111012 0.068449 -0.007320 950863.000000 0 1 0
20.393587 4.095012 9.139964 22.720177 0.198164 1.156786 0.078116 -0.014923 69333.300000 0 1 0
21.496987 3.321512 8.381064 23.310837 0.153298 1.203027 0.066603 -0.011349 -986682.000000 0 1 0
21.596787 1.961212 8.719664 23.373064 0.090562 1.188486 0.051633 -0.009005 186950.000000 0 1 0
22.403287 1.232812 7.818264 23.760310 0.054973 1.235502 0.045075 -0.009598 15767.000000 0 1 0
23.944887 1.498912 7.828964 25.236819 0.062517 1.255372 0.050854 -0.009985 176541.000000 0 0 1
24.657087 1.081812 9.031564 26.281389 0.043846 1.219997 0.015820 0.005374 748467.000000 0 0 1
24.216487 1.733912 10.227064 26.344592 0.071479 1.172115 0.011632 0.005746 -1101360.000000 0 0 1
24.832387 1.142412 11.536664 27.405240 0.045973 1.136287 0.000531 0.013223 -491738.000000 0 0 1
26.212627 1.353112 11.619864 28.704598 0.051575 1.154027 -0.010737 0.015469 -360082.000000 0 0 1
26.704507 0.698012 12.795864 29.620129 0.026132 1.124088 0.002589 0.004001 -264553.000000 0 0 1
28.236057 0.694912 12.824264 31.019664 0.024606 1.144585 0.013704 0.002982 -4012.980000 0 0 1
28.836877 1.944712 13.241864 31.791419 0.067336 1.141179 0.006192 0.009143 91060.400000 0 0 1
30.240127 1.843112 13.205164 33.049035 0.060874 1.159756 0.008212 0.011023 -89755.600000 0 0 1
30.989087 3.107312 13.655964 34.006827 0.099937 1.157571 0.003968 0.003487 -762595.000000 0 0 1
30.853887 4.135712 12.713864 33.626014 0.133248 1.183057 0.002496 0.003547 65888.300000 0 0 1
31.586157 5.244012 13.138864 34.609460 0.164522 1.181398 -0.001179 -0.004380 -255933.000000 0 0 1
33.037837 5.249112 12.633464 35.758304 0.157565 1.209698 -0.005514 0.003132 -670580.000000 0 0 1
33.814807 4.213912 13.213864 36.548658 0.123978 1.200875 -0.008136 0.004621 70918.900000 0 0 1
35.013385 4.110312 12.444564 37.385812 0.116858 1.231452 -0.005262 0.006653 476377.000000 0 0 1
-34.327059 3.055812 13.012264 36.837535 -0.088786 1.209771 0.014447 0.011846 -448842.000000 0 0 1
-34.553730 1.700412 12.711064 36.856788 -0.049171 1.218688 0.011783 0.021035 -28619.300000 0 0 1
34.673118 1.005012 13.175164 37.105527 0.028977 1.207804 0.015747 0.019956 -248285.000000 0 0 1
34.523434 0.907512 14.705364 37.535834 0.026281 1.168243 0.004320 0.026550 -225066.000000 0 0 1
-34.789126 0.196112 15.334164 38.019184 -0.005637 1.155647 0.012566 0.023414 413743.000000 0 0 1
-35.166042 0.102212 16.708064 38.933538 -0.002907 1.127252 0.013438 0.011614 -240744.000000 0 0 1
-34.214679 -0.718388 17.595264 38.480562 0.020993 1.095895 0.015155 0.011328 297005.000000 0 0 1
-32.894880 -0.173888 17.658364 37.335254 0.005286 1.078140 0.016774 0.009885 972656.000000 0 0 1
-31.883680 -0.951088 18.322164 36.785531 0.029821 1.049412 0.023248 0.002810 723156.000000 0 0 1
-31.999080 -0.836488 19.906864 37.695146 0.026135 1.014433 0.010653 -0.001937 -336624.000000 0 0 1
-33.038360 -1.549988 20.538664 38.932922 0.046880 1.015094 0.008359 -0.007354 21604.100000 0 0 1
-33.078490 -1.259488 21.890264 39.685721 0.038057 0.986527 0.004189 -0.004665 420322.000000 0 0 1
-33.775540 -2.411888 22.668164 40.748619 0.071288 0.980878 0.002471 -0.002001 956240.000000 0 0 1
-32.884500 -3.569988 22.572564 40.045671 0.108138 0.971974 0.008184 -0.005808 960988.000000 0 0 1
-33.427010 -4.762888 23.157564 40.942922 0.141534 0.969628 0.010061 -0.003695 26471.800000 0 0 1
-33.510000 -4.929488 24.676254 41.906294 0.146057 0.941169 0.008215 -0.015311 -724307.000000 0 0 1
-32.235640 -4.820788 25.182504 41.189015 0.148448 0.912982 0.009804 -0.016704 -1149400.000000 0 0 1
-32.248240 -4.839288 26.586044 42.073572 0.148952 0.886802 0.007380 -0.016742 -78382.900000 0 0 1
-31.143660 -3.964388 27.198384 41.537886 0.126613 0.856898 0.014011 -0.011284 -170127.000000 0 0 1
-31.252100 -2.540088 27.146544 41.473855 0.081099 0.857214 0.009314 -0.005289 -3905.110000 0 0 1
-30.607480 -2.048688 25.972304 40.194223 0.066835 0.868241 0.015322 -0.001525 -316885.000000 0 0 1
-30.532770 -0.475988 25.947004 40.071481 0.015588 0.866473 0.005734 -0.005404 -320434.000000 0 0 1
-31.707440 0.259912 25.689354 40.808972 -0.008197 0.889883 0.025141 -0.006777 -300925.000000 0 0 1
-31.517140 1.571612 25.228034 40.401161 -0.049824 0.896384 0.005185 -0.005660 45486.900000 0 0 1
-32.838130 2.364112 24.942884 41.304712 -0.071869 0.922443 0.021463 -0.002794 473594.000000 0 0 1
-33.590020 1.843912 23.840064 41.231518 -0.054840 0.954276 0.015234 0.003461 -146259.000000 0 0 1
-34.735807 2.624712 23.584564 42.067767 -0.075419 0.975647 0.006883 0.014226 -113356.000000 0 0 1
-34.564924 4.015012 22.869964 41.639999 -0.115640 0.989353 0.003920 0.016436 -358002.000000 0 0 1
-34.077991 3.990212 21.510564 40.496119 -0.116560 1.010808 0.008405 -0.001893 205411.000000 0 0 1
-34.930109 3.382012 20.516464 40.650656 -0.096521 1.041760 -0.006155 -0.006515 305920.000000 0 0 1
-34.151657 2.614812 19.392664 39.360492 -0.076416 1.055614 0.012190 -0.002963 103176.000000 0 0 1
-33.231790 3.473512 18.745664 38.312101 -0.104146 1.059523 0.013292 -0.003360 272254.000000 0 0 1
-32.666260 2.717012 17.617164 37.213320 -0.082984 1.077638 0.016445 0.006747 -189447.000000 0 0 1
-31.736310 3.519412 16.710364 36.039088 -0.110444 1.088660 0.014569 0.005273 18119.200000 0 0 1
-32.448970 4.596312 16.115564 36.520859 -0.140711 1.113783 0.014076 -0.002845 -125105.000000 0 0 1
-31.635180 5.249212 15.197064 35.486471 -0.164431 1.128242 0.023255 0.002420 -345244.000000 0 0 1
-32.256710 6.545512 14.637964 36.022341 -0.200201 1.152332 0.011663 -0.008255 156266.000000 0 0 1
-31.415590 7.295012 13.738364 35.055658 -0.228166 1.168099 0.023245 -0.001693 -17580.000000 0 0 1
-31.888460 8.585112 13.362664 35.624975 -0.262988 1.186300 -0.002500 -0.004791 -393976.000000 0 0 1
-31.063280 9.364812 12.295464 34.695900 -0.292810 1.208548 0.003409 -0.003888 -197114.000000 0 0 1
-31.397930 10.703412 12.327564 35.388725 -0.328541 1.214989 -0.002211 -0.005055 87353.100000 0 0 1
-30.753630 11.312612 11.221064 34.636299 -0.352484 1.240875 -0.012446 -0.004335 -373486.000000 0 0 1
-31.055140 12.850812 11.130164 35.404034 -0.392351 1.250998 -0.015092 0.001941 131872.000000 0 0 1
-30.289990 13.535412 10.124764 34.687198 -0.420240 1.274597 -0.017488 0.005359 340450.000000 0 0 1
-30.274170 14.906912 10.388064 35.307978 -0.457547 1.272164 -0.017666 0.006223 -281439.000000 0 0 1
-29.495400 15.655512 9.339364 34.674160 -0.487966 1.298082 -0.002646 0.002076 99916.000000 0 0 1
-28.078630 15.567212 9.445964 33.466010 -0.506226 1.284652 -0.002201 0.006898 251514.000000 0 0 1
-27.491440 16.530512 8.636164 33.220783 -0.541372 1.307813 -0.000842 -0.008256 877381.000000 0 0 1
-25.964420 16.772612 9.005864 32.195919 -0.573547 1.287293 0.015330 -0.007528 1011720.000000 0 0 1
-25.685650 17.353212 10.262264 32.652728 -0.594161 1.251093 0.016882 -0.003967 126847.000000 0 0 1
-26.079130 18.696712 10.363864 33.720880 -0.621993 1.258397 0.019293 -0.013988 -177257.000000 0 0 1
-26.205040 19.263912 11.817664 34.604329 -0.633911 1.222275 0.030290 -0.000639 632371.000000 0 0 1
-24.883040 19.368112 12.364464 33.869890 -0.661410 1.197102 0.038948 0.003360 692542.000000 0 0 1
-24.722640 19.735012 13.719264 34.480398 -0.673677 1.161585 0.042164 -0.003409 208099.000000 0 0 1
-25.357240 18.846912 14.865264 34.916641 -0.639171 1.131021 0.041717 -0.002108 108895.000000 0 0 1
-24.587640 17.683512 14.984664 33.790513 -0.623498 1.111344 0.046726 -0.003437 124813.000000 0 0 1
-24.952740 16.871212 16.074964 34.142078 -0.594523 1.080570 0.037863 -0.001366 121456.000000 0 0 1
-23.851540 15.789012 16.337964 32.941128 -0.584744 1.051839 0.053729 -0.000566 430279.000000 0 0 1
-22.646740 16.251312 16.932564 32.614287 -0.622441 1.024909 0.053931 0.001251 -225025.000000 0 0 1
-21.704040 15.249712 17.068664 31.542961 -0.612483 0.999023 0.039002 -0.008054 -591014.000000 0 0 1
-21.916740 14.321512 18.212064 31.892452 -0.578797 0.963017 0.039552 0.000494 -669235.000000 0 0 1
-21.872340 14.962812 19.454964 32.875228 -0.599973 0.937529 0.031647 0.006771 337962.000000 0 0 1
-22.444540 14.053412 20.407364 33.432264 -0.559418 0.914219 0.016815 0.011060 -400619.000000 0 0 1
-22.115440 14.344912 21.901364 34.271547 -0.575417 0.877529 0.019312 0.001287 -298508.000000 0 0 1
-20.792940 14.246512 22.369764 33.700383 -0.600697 0.844930 0.020588 -0.002967 -207113.000000 0 0 1
-20.146540 15.520212 22.262764 33.799271 -0.656409 0.851739 0.028965 0.011904 -225711.000000 0 0 1
-18.664640 15.432712 22.729064 33.213668 -0.690895 0.817114 0.051832 -0.003335 541051.000000 0 0 1
-17.674340 14.991512 21.833464 31.840664 -0.703453 0.815218 0.029178 0.001991 -162273.000000 0 0 1
-17.304340 15.875312 20.844264 31.399826 -0.742355 0.844863 0.035035 -0.002473 -1300650.000000 0 0 1
-16.125640 15.316312 19.942364 29.871785 -0.759663 0.839818 0.035983 0.003653 574713.000000 0 0 1
-15.039240 14.909312 20.724464 29.630554 -0.781060 0.796198 0.032874 0.005895 -92486.900000 0 0 1
-14.285540 15.972712 21.340464 30.242678 -0.841100 0.787469 0.029647 -0.002084 -448851.000000 0 0 1
-13.122640 15.436012 22.274764 30.110451 -0.866226 0.738070 -0.001888 -0.001253 650742.000000 0 0 1
-12.040140 14.923312 21.547064 28.843477 -0.891922 0.727207 0.009921 0.001657 -657675.000000 0 0 1
-10.988940 14.422812 22.334664 28.768238 -0.919714 0.681918 -0.007838 -0.001414 1146490.000000 0 0 1
-9.822140 13.594412 21.619864 27.362401 -0.945120 0.659775 -0.000073 -0.001630 -245990.000000 0 0 1
-9.085140 12.871812 22.520364 27.484361 -0.956177 0.610453 -0.002890 -0.000105 -776103.000000 0 0 1
-8.251040 11.955812 21.904564 26.283665 -0.966727 0.585582 0.014673 0.000936 -1330060.000000 0 0 1
-6.810740 12.373412 21.943564 26.096120 -1.067620 0.571899 0.016170 -0.001683 -1967310.000000 0 0 1
-6.591840 13.554512 21.165664 25.983889 -1.118152 0.618811 0.006958 0.001084 -266637.000000 0 0 1
-5.929840 14.636812 21.739664 26.870286 -1.185874 0.628246 -0.007784 0.007763 -312095.000000 0 0 1
-6.908940 15.617612 22.446464 28.204379 -1.154296 0.650386 -0.023523 -0.001841 169140.000000 0 0 1
-7.798940 16.291712 21.576964 28.139096 -1.124329 0.696961 -0.037033 -0.007694 -205896.000000 0 0 1
-7.267640 17.437712 20.988764 28.238637 -1.175911 0.732860 -0.034629 0.006397 -349842.000000 0 0 1
-8.162740 17.925812 19.793964 27.924292 -1.143492 0.782938 -0.019150 0.000668 608242.000000 0 0 1
-9.360440 18.608712 20.034364 28.901172 -1.104741 0.804873 -0.016255 -0.000628 363616.000000 0 0 1
-10.462740 17.770512 20.472564 29.058319 -1.038675 0.789031 -0.006109 -0.004324 78137.900000 0 0 1
-11.725740 18.547912 20.849364 30.269027 -1.007046 0.810961 -0.005328 -0.003891 -520942.000000 0 0 1
-12.434040 18.934712 19.726764 30.037874 -0.989740 0.854322 -0.006400 -0.002563 -1269250.000000 0 0 1
-13.656940 19.482512 20.050564 31.114392 -0.959410 0.870539 -0.010898 -0.003327 -778355.000000 0 0 1
-14.487140 19.747112 18.772064 30.857998 -0.937852 0.916833 0.003658 -0.001046 -191901.000000 0 0 1
-15.047240 18.523912 18.262064 30.050919 -0.888592 0.917630 0.024161 0.002190 266504.000000 0 0 1
-15.892340 18.776512 17.152764 29.989018 -0.868399 0.961893 0.033649 -0.002038 -201161.000000 0 0 1
-16.614940 17.484712 16.585464 29.271983 -0.810899 0.968424 0.038492 -0.001744 602026.000000 0 0 1
-17.544040 16.752912 17.366764 29.833838 -0.762335 0.949467 0.045428 -0.002762 -481672.000000 0 0 1
-18.738540 17.407512 17.627264 31.062434 -0.748591 0.967356 0.044893 -0.003297 -916924.000000 0 0 1
33.522347 -9.234188 11.857867 36.737270 -0.268797 1.242137 -0.026412 0.007648 -602068.000000 0 0 1
32.367177 -9.927788 11.467267 35.744837 -0.297614 1.244213 -0.026652 0.008577 -169825.000000 0 0 1
32.179387 -11.023288 12.337667 36.183475 -0.330029 1.222842 -0.029281 0.012972 -502020.000000 0 0 1
30.743717 -11.538488 12.432167 35.112272 -0.359044 1.208878 -0.011598 0.022561 -630747.000000 0 0 1
29.926797 -10.632188 13.145267 34.372295 -0.341365 1.178363 -0.009913 0.017449 -286988.000000 0 0 1
28.541737 -10.839988 13.088467 33.218129 -0.362967 1.165800 0.001197 0.009219 154742.000000 0 0 1
28.049967 -11.847888 14.231267 33.611041 -0.399654 1.133590 -0.004364 0.012676 -1138380.000000 0 0 1
28.053397 -11.293288 15.510967 33.987079 -0.382715 1.096876 0.002254 0.013176 -160781.000000 0 0 1
27.060587 -11.922288 16.275067 33.753431 -0.414991 1.067660 0.007457 0.006435 87513.200000 0 0 1
25.636607 -11.370888 16.028467 32.302391 -0.417470 1.051579 0.020985 -0.010015 -758002.000000 0 0 1
25.508787 -10.052088 16.473267 31.986110 -0.375378 1.029773 0.013625 0.015025 -296713.000000 0 0 1
24.441687 -9.364788 15.866567 30.607896 -0.365895 1.025839 0.038760 -0.005667 -190395.000000 0 0 1
24.323187 -7.934488 16.421667 30.401393 -0.315327 1.000167 0.038517 -0.021492 254226.000000 0 0 1
25.408457 -7.081188 16.049267 30.875749 -0.271797 1.024178 0.031481 -0.021746 259178.000000 0 0 1
25.245087 -5.789988 16.540667 30.731613 -0.225452 1.002461 0.022240 -0.005798 45369.200000 0 0 1
26.545357 -4.967188 16.403967 31.597770 -0.184982 1.024941 0.031859 -0.007725 26940.200000 0 0 1
26.968317 -4.825888 15.072967 31.269373 -0.177072 1.067819 0.036400 -0.007909 -520811.000000 0 0 1
28.078207 -4.002488 14.998767 32.083775 -0.141594 1.084350 0.035695 -0.002924 -558628.000000 0 0 1
28.266457 -3.439888 13.566267 31.541545 -0.121100 1.126184 0.028480 0.000800 -12792.600000 0 0 1
28.652807 -4.307188 12.524467 31.565765 -0.149206 1.162797 0.015408 -0.003869 38534.000000 0 0 1
28.690157 -3.549888 11.379167 31.067865 -0.123106 1.195801 0.015706 -0.002465 -48864.300000 0 0 1
29.146937 -4.352288 10.118067 31.158653 -0.148227 1.240073 0.020721 0.000230 1233460.000000 0 0 1
30.557727 -4.734688 10.161367 32.549122 -0.153720 1.253304 0.009828 0.003943 1512800.000000 0 0 1
30.955317 -5.459188 8.999467 32.695945 -0.174562 1.291950 0.004072 0.000815 272321.000000 0 0 1
32.375407 -6.069488 8.931767 34.128905 -0.185321 1.306006 -0.004471 0.000910 446272.000000 0 0 1
33.455077 -5.178988 8.645567 34.940091 -0.153585 1.320759 0.000274 0.002848 -735691.000000 0 0 1
34.559886 -5.970788 8.403967 36.064702 -0.171078 1.335609 -0.001633 -0.001873 -202906.000000 0 0 1
-34.587416 -5.111988 7.899367 35.844411 0.146737 1.348593 0.010033 -0.009798 329405.000000 0 0 1
-34.754708 -4.616088 6.611667 35.677894 0.132046 1.384403 0.016354 -0.008320 261963.000000 0 0 1
-33.619360 -3.833888 6.238167 34.407482 0.113548 1.388485 0.021810 0.003444 60177.100000 0 0 1
-33.799310 -3.035288 4.912567 34.289060 0.089563 1.427032 0.031039 -0.011437 -418225.000000 0 0 1
-33.379970 -3.794088 3.819467 33.811327 0.113178 1.457591 0.031746 -0.007463 -63899.700000 0 0 1
-33.233480 -3.042288 2.575767 33.471694 0.091288 1.493767 0.031569 0.002885 -52297.600000 0 0 1
-32.429500 -3.821988 1.482667 32.687587 0.117314 1.525422 0.048168 -0.008187 -193175.000000 0 0 1
-32.803410 -5.148588 1.097667 33.223133 0.155683 1.537751 0.056038 -0.003962 -618411.000000 0 0 1
-34.023500 -5.221288 0.415267 34.424306 0.152273 1.558733 0.048972 -0.006156 -582298.000000 0 0 1
-33.913550 -5.129688 -1.154533 34.318734 0.150120 1.604444 0.061072 -0.014311 -1381780.000000 0 0 1
-33.536690 -6.345788 -1.755333 34.176890 0.187008 1.622179 0.060283 -0.025502 376703.000000 0 0 1
-32.422690 -6.223088 -2.630133 33.119107 0.189630 1.650294 0.051092 -0.019672 474702.000000 0 0 1
-31.040700 -5.936288 -1.974733 31.664872 0.188960 1.633200 0.045739 -0.027362 -873716.000000 0 0 1
-30.543210 -7.013588 -1.294033 31.364831 0.225715 1.612065 0.054372 -0.024108 -281040.000000 0 0 1
-29.378920 -6.567388 -0.633033 30.110667 0.219925 1.591821 0.031116 -0.021691 -190421.000000 0 0 1
-28.673710 -7.572088 0.274667 29.657943 0.258184 1.561535 0.015348 -0.013986 -353839.000000 0 0 1
-27.991250 -8.540388 -0.469633 29.268906 0.296138 1.586842 0.001945 -0.008744 143350.000000 0 0 1
-27.539100 -9.558588 0.396567 29.153489 0.334081 1.557193 0.029715 0.001661 -125787.000000 0 0 1
-27.254220 -10.924388 -0.245133 29.363155 0.381224 1.579145 0.004993 -0.000651 -77389.300000 0 0 1
-26.054560 -11.092588 -0.980433 28.334552 0.402501 1.605405 -0.000215 -0.000842 289781.000000 0 0 1
-25.656990 -12.460488 -1.252633 28.550201 0.452107 1.614685 -0.014244 0.009477 -40892.800000 0 0 1
-26.495010 -13.431088 -2.189733 29.785476 0.469175 1.644380 -0.004805 0.002422 -273654.000000 0 0 1
-27.633260 -13.999588 -1.593033 31.018112 0.468930 1.622177 0.004899 -0.005697 6875.880000 0 0 1
-28.202900 -14.915188 -2.488633 32.000933 0.486463 1.648642 0.009625 -0.017583 106758.000000 0 0 1
-29.157420 -15.924688 -1.733733 33.267952 0.499892 1.622934 0.029338 -0.016380 606466.000000 0 0 1
-28.405510 -16.728588 -0.828733 32.975831 0.532233 1.595930 0.011768 -0.005860 484876.000000 0 0 1
-29.296450 -17.352188 0.068067 34.049744 0.534736 1.568797 0.017226 0.003136 -103242.000000 0 0 1
-29.634590 -18.771388 -0.261233 35.080510 0.564637 1.578243 0.025898 0.001070 -78818.200000 0 0 1
-28.527310 -19.641988 -0.041733 34.635485 0.602988 1.572001 0.035444 -0.006159 362268.000000 0 0 1
-28.823820 -21.029288 0.051167 35.679772 0.630304 1.569362 0.037544 -0.002357 360224.000000 0 0 1
-29.679470 -21.497588 1.306367 36.670476 0.626866 1.535164 0.032737 0.001807 237815.000000 0 0 1
-28.929690 -21.420788 2.508967 36.084235 0.637357 1.501209 0.022952 -0.004004 571770.000000 0 0 1
-29.812730 -21.757788 3.596967 37.082858 0.630457 1.473645 0.018286 -0.001217 501196.000000 0 0 1
-29.150280 -21.908788 5.008267 36.807833 0.644512 1.434308 0.001675 0.002089 -270816.000000 0 0 1
-28.681110 -20.698088 5.499267 35.794676 0.625117 1.416552 -0.007139 0.001343 5656.870000 0 0 1
-27.939280 -20.935888 6.684667 35.547145 0.643076 1.381619 -0.018505 0.000133 57142.600000 0 0 1
-27.503590 -19.569488 7.323667 34.540533 0.618419 1.357143 -0.017627 0.011233 21896.800000 0 0 1
-26.646030 -19.843688 8.407567 34.270542 0.640110 1.322937 -0.016040 0.000760 -394402.000000 0 0 1
-26.432250 -18.687988 9.130267 33.634306 0.615418 1.295890 -0.003360 -0.005290 180018.000000 0 0 1
-25.128170 -18.831788 9.938567 32.936853 0.643136 1.264273 0.003041 0.000435 -85240.200000 0 0 1
-25.368810 -19.673088 11.076367 33.960165 0.659612 1.238560 0.002600 0.000492 460802.000000 0 0 1
-24.210140 -19.972088 11.880767 33.558424 0.689769 1.208917 0.007984 0.011810 562230.000000 0 0 1
-23.774540 -18.859588 12.868667 32.962333 0.670623 1.169725 0.010714 0.004445 -261275.000000 0 0 1
-23.139940 -17.704788 12.348667 31.644998 0.653107 1.169920 0.012995 -0.003710 194170.000000 0 0 1
-22.734740 -16.675588 13.292467 31.171033 0.632847 1.130247 0.020132 -0.000422 955594.000000 0 0 1
-21.845140 -17.015288 14.557567 31.283429 0.661745 1.086773 0.025183 -0.001896 -12705.300000 0 0 1
-22.706540 -17.536488 15.566767 32.641072 0.657627 1.073664 0.025741 -0.005281 126930.000000 0 0 1
-22.122340 -18.286288 16.641167 33.177021 0.690750 1.045364 0.031654 0.004774 -946698.000000 0 0 1
-23.158240 -18.848188 17.596867 34.658448 0.683151 1.038257 0.018365 0.015673 -238557.000000 0 0 1
-23.813040 -17.843088 18.376167 34.973135 0.643052 1.017568 0.033912 0.012142 189332.000000 0 0 1
-24.747140 -18.489488 19.234767 36.390361 0.641666 1.013884 0.020941 0.015928 -70146.100000 0 0 1
-25.729200 -17.586688 19.993167 37.027153 0.599587 1.000407 0.032397 0.011931 -108041.000000 0 0 1
-25.119230 -16.891288 21.053967 36.872223 0.591992 0.963075 0.050737 0.003150 -280979.000000 0 0 1
-25.841330 -15.736588 21.343167 37.026279 0.546989 0.956440 0.050845 -0.001391 -272450.000000 0 0 1
-25.283210 -14.937988 22.551567 37.026442 0.533647 0.915913 0.054516 -0.001855 -497808.000000 0 0 1
-24.139940 -14.283588 22.089867 35.703219 0.534294 0.903699 0.057532 -0.003052 -386031.000000 0 0 1
-23.411240 -13.596388 23.102467 35.590335 0.526155 0.864367 0.057694 -0.009338 -237684.000000 0 0 1
-22.195340 -12.916588 22.486867 34.134009 0.527042 0.851598 0.050813 -0.009110 -546589.000000 0 0 1
-22.588040 -11.880188 21.570667 33.416345 0.484192 0.869102 0.065043 -0.007562 734904.000000 0 0 1
-21.453340 -11.220788 20.988467 32.041655 0.481903 0.856565 0.053416 -0.008171 30585.300000 0 0 1
-21.200340 -9.885688 21.744467 31.937487 0.436325 0.821881 0.056842 -0.011418 31818.000000 0 0 1
-20.730240 -10.008388 23.074167 32.593372 0.449786 0.784218 0.053987 -0.013321 -1240810.000000 0 0 1
-19.405240 -10.270688 23.230267 31.963975 0.486792 0.757197 0.033994 -0.010934 -1710550.000000 0 0 1
-18.845040 -10.285188 24.656667 32.693606 0.499595 0.716401 0.033926 -0.002958 284093.000000 0 0 1
-19.329640 -11.299588 25.534567 33.960710 0.528999 0.719879 0.037644 -0.001363 -105073.000000 0 0 1
-18.550540 -11.180688 26.679167 34.364346 0.542413 0.681923 0.038399 -0.001528 -724556.000000 0 0 1
-18.655840 -12.398688 27.665667 35.597148 0.586571 0.680612 0.029380 -0.010868 -137829.000000 0 0 1
-19.871740 -12.532888 28.352367 36.821408 0.562680 0.691960 0.034092 -0.004162 -1012440.000000 0 0 1
-20.832140 -13.125188 27.545467 36.945925 0.562219 0.729419 0.031626 -0.008584 -754477.000000 0 0 1
-22.125940 -13.484088 28.314167 38.380593 0.547320 0.741108 0.028296 -0.009916 16775.000000 0 0 1
-22.145740 -14.689188 29.130867 39.431123 0.585666 0.739540 0.027412 -0.009809 -17096.500000 0 0 1
-21.258240 -14.550288 30.255967 39.737227 0.600216 0.705325 0.018308 -0.009397 211481.000000 0 0 1
-21.371040 -15.649288 31.288367 40.994920 0.632054 0.702506 0.006263 -0.014115 -658149.000000 0 0 1
-21.027440 -16.947188 30.883567 41.026274 0.678362 0.718528 0.009359 -0.009993 -117844.000000 0 0 1
-21.336640 -17.826088 31.951467 42.354668 0.695997 0.716089 0.008347 -0.011521 -131020.000000 0 0 1
-22.764740 -18.191588 32.462767 43.623371 0.674200 0.731520 0.024472 -0.017094 90279.500000 0 0 1
-23.268040 -17.197688 33.301567 44.115264 0.636496 0.715331 0.025766 -0.007485 -1008450.000000 0 0 1
-24.568240 -17.525188 33.665267 45.211512 0.619614 0.730835 0.024361 -0.013154 -875448.000000 0 0 1
-25.269860 -16.474788 34.524667 45.846888 0.577748 0.718122 0.019354 -0.013208 -175682.000000 0 0 1
-24.757140 -16.375388 -33.279129 44.593382 0.584376 2.413251 0.016688 -0.009023 -202993.000000 0 0 1
-25.507700 -15.394888 -32.564429 44.137143 0.543018 2.400603 0.011399 0.002121 -236721.000000 0 0 1
-24.930240 -14.826488 -31.261929 42.645631 0.536527 2.393611 0.004615 0.008041 -556126.000000 0 0 1
-25.390310 -15.572788 -30.131329 42.368344 0.550168 2.361965 0.008515 0.008030 346866.000000 0 0 1
-24.788140 -15.141288 -28.891029 40.968306 0.548343 2.353508 0.026509 0.009091 374472.000000 0 0 1
-25.492610 -15.901388 -27.704629 40.868983 0.557710 2.315684 0.016498 0.004326 1351670.000000 0 0 1
-26.800230 -15.506988 -27.219229 41.226271 0.524546 2.291934 0.027904 -0.004890 1189630.000000 0 0 1
-26.859160 -14.296188 -26.416729 40.294405 0.489125 2.285764 0.014041 0.000600 -556674.000000 0 0 1
-26.029930 -14.278788 -25.114429 38.886702 0.501731 2.272914 0.025791 -0.008908 -380954.000000 0 0 1
-24.673840 -13.919488 -25.361529 38.023121 0.513634 2.300975 0.018314 -0.009463 47618.100000 0 0 1
-23.860240 -14.347088 -24.334929 36.977544 0.541373 2.289089 0.021705 -0.010190 -561715.000000 0 0 1
-23.373340 -15.783288 -24.373729 37.276050 0.593934 2.283486 0.029542 -0.003452 -1230130.000000 0 0 1
-22.557340 -16.111988 -25.451329 37.632432 0.620238 2.313543 0.031169 -0.000322 -71937.900000 0 0 1
-22.122040 -17.471688 -25.403229 37.946918 0.668482 2.304253 0.031366 -0.005573 213284.000000 0 0 1
-21.140840 -17.831988 -26.572329 38.353665 0.700700 2.336194 0.029505 -0.003215 104529.000000 0 0 1
-21.618240 -17.950388 -27.888129 39.589298 0.692966 2.352425 0.028647 -0.005101 356360.000000 0 0 1
-22.583240 -19.009488 -28.118729 40.767957 0.699686 2.331907 0.038603 -0.018318 347434.000000 0 0 1
-23.232840 -18.917988 -29.555129 42.085161 0.683387 2.349377 0.018729 -0.008001 -103476.000000 0 0 1
-22.393740 -19.176788 -30.658429 42.534316 0.708167 2.375742 0.024635 -0.011280 218999.000000 0 0 1
-23.019340 -18.776588 -31.880929 43.575726 0.684234 2.391494 0.006428 -0.003899 -96551.300000 0 0 1
-22.085740 -18.982988 -33.089329 44.079899 0.709991 2.419868 0.016154 -0.012877 -336831.000000 0 0 1
-21.006440 -18.029388 -33.163829 43.199177 0.709281 2.446034 0.011653 -0.002960 1606760.000000 0 0 1
-19.686640 -18.571688 -32.886529 42.591023 0.756264 2.453009 0.012677 -0.015046 981897.000000 0 0 1
-19.181240 -19.812088 -33.684629 43.532666 0.801575 2.455580 0.013839 -0.017702 -1446600.000000 0 0 1
-18.955040 -19.421988 34.109667 43.588720 0.797565 0.672070 0.009824 -0.018903 -150335.000000 0 0 1
-18.583840 -20.472488 33.282567 43.269055 0.833718 0.693208 0.014500 -0.018550 -74449.900000 0 0 1
-19.677240 -21.400488 32.639867 43.709674 0.827324 0.727646 0.014908 -0.016448 30862.500000 0 0 1
-20.542140 -22.001188 33.583767 45.098794 0.819680 0.730754 0.012276 -0.014653 526884.000000 0 0 1
-21.753040 -22.606588 33.120067 45.620077 0.804637 0.758312 0.008253 -0.002128 362146.000000 0 0 1
-21.608740 -23.693388 32.029267 45.323153 0.831382 0.785992 0.020674 0.011281 -1019580.000000 0 0 1
-20.976940 -24.815888 32.548767 45.992201 0.869036 0.784556 0.017022 0.014838 -349785.000000 0 0 1
-21.180140 -25.987118 31.758867 46.179587 0.886961 0.812445 0.020066 0.021687 -123212.000000 0 0 1
-20.424140 -27.216958 32.295367 46.913740 0.927027 0.811517 0.010968 0.010855 -270054.000000 0 0 1
-21.098340 -27.847018 33.369667 48.312846 0.922416 0.808340 0.010246 0.004854 186658.000000 0 0 1
-20.484640 -29.023528 33.903567 49.106390 0.956192 0.808740 0.016423 -0.002597 -98545.500000 0 0 1
-21.550240 -29.824308 -34.351429 50.338086 0.945081 2.321857 0.005307 -0.002248 920947.000000 0 0 1
-22.576140 -30.401128 33.937467 50.849409 0.932042 0.840069 0.008257 -0.005127 249720.000000 0 0 1
-23.706340 -29.631368 33.637367 50.709772 0.896030 0.845535 0.012634 -0.003747 -920655.000000 0 0 1
-24.968840 -29.943518 34.429267 52.013764 0.875745 0.847411 0.012428 -0.015275 -905110.000000 0 0 1
-26.002560 -29.031068 34.195967 51.848821 0.840373 0.850600 0.023970 0.001997 118562.000000 0 0 1
-26.831420 -28.951628 -33.718829 51.914173 0.823388 2.277738 0.020457 0.008154 58076.100000 0 0 1
-27.879420 -27.825358 -33.831429 51.923773 0.784428 2.280435 0.012757 -0.001694 -884645.000000 0 0 1
-28.809660 -28.191258 34.301667 52.927761 0.774550 0.865730 0.022176 -0.009957 -228229.000000 0 0 1
-29.719420 -27.101978 34.060567 52.705629 0.739366 0.868147 0.016929 -0.009495 434434.000000 0 0 1
