# x y z rho theta phi s1 s2 stress_xx np intf bulk
-0.772562 -10.879789 -14.393758 18.059539 1.499906 2.493136 0.004822 0.005385 1673350.000000 1 0 0
2.086038 -13.477389 -13.068258 18.888381 -1.417234 2.334869 0.010179 0.007609 386942.000000 1 0 0
2.104238 -11.205489 -14.779458 18.666098 -1.385172 2.484515 0.010708 0.007450 -466218.000000 1 0 0
-5.605662 -6.251689 -16.536158 18.545932 0.839828 2.671735 0.008759 -0.005493 -208597.000000 1 0 0
4.449838 -14.006889 -11.424258 18.614717 -1.263191 2.231562 0.001411 0.001647 -375116.000000 1 0 0
14.063238 -10.619789 -7.857958 19.295131 -0.646786 1.990238 0.023947 -0.007828 -310087.000000 1 0 0
7.032638 10.874911 -10.877558 16.912805 0.996755 2.269408 0.017258 -0.009460 853336.000000 1 0 0
5.707638 -4.293189 -12.668858 14.543334 -0.644897 2.628256 -0.001561 -0.002651 3055790.000000 1 0 0
13.628938 0.378311 -9.992758 16.904032 0.027751 2.203276 0.009904 -0.001754 1715370.000000 1 0 0
14.200638 5.041411 -10.503258 18.368244 0.341134 2.179514 0.013549 -0.006155 -519907.000000 1 0 0
4.055338 4.370311 -13.511858 14.768741 0.822763 2.726046 -0.001286 -0.000219 1565000.000000 1 0 0
10.246038 -5.140389 -13.713558 17.873628 -0.465003 2.445340 0.014879 -0.002769 -403041.000000 1 0 0
2.497138 -7.599289 -12.060758 14.472277 -1.253310 2.555973 -0.001633 0.003388 2155930.000000 1 0 0
-5.519662 -2.038389 -15.102258 16.208020 0.353761 2.770073 0.008303 -0.003041 -31916.700000 1 0 0
10.610438 -0.072989 -9.687958 14.368133 -0.006879 2.310768 0.004966 -0.001329 1959010.000000 1 0 0
-1.684862 -9.594089 -16.887958 19.495857 1.396954 2.618410 0.007360 0.000708 401707.000000 1 0 0
8.581638 1.795511 -17.969258 19.994065 0.206252 2.687660 0.013767 -0.008429 388996.000000 1 0 0
16.391238 -6.028689 -8.910258 19.606389 -0.352443 2.042559 0.023534 -0.002922 -1879980.000000 1 0 0
10.118238 7.555211 -9.903058 16.047757 0.641381 2.235847 0.013750 -0.005446 1237340.000000 1 0 0
13.828438 -2.383689 -10.632058 17.605350 -0.170698 2.219195 0.018942 -0.003097 -1640350.000000 1 0 0
7.244438 -1.941189 -13.770458 15.680422 -0.261806 2.642870 0.002128 -0.004165 744710.000000 1 0 0
-2.804962 6.649811 -13.741458 15.521452 -1.171630 2.657979 0.003527 0.004095 -378562.000000 1 0 0
11.184238 1.782311 -13.856958 17.896343 0.158030 2.456389 0.006937 -0.007407 -921557.000000 1 0 0
-2.328562 10.742511 -12.885758 16.937134 -1.357337 2.435340 0.000901 0.002988 -1405640.000000 1 0 0
2.885538 -1.058089 -15.272358 15.578537 -0.351463 2.943005 -0.002959 -0.000937 805733.000000 1 0 0
-8.922362 0.460111 -15.347858 17.758857 -0.051523 2.614428 0.005472 0.009818 -2010260.000000 1 0 0
2.358838 -1.780589 -18.066558 18.306697 -0.646603 2.979443 0.005080 -0.006336 1180090.000000 1 0 0
1.073838 7.978211 -13.194158 15.456092 1.437004 2.593758 0.001216 0.001461 -419974.000000 1 0 0
9.351538 -9.153589 -9.902458 16.410306 -0.774702 2.218591 0.014629 0.000513 986947.000000 1 0 0
3.963238 7.359011 -13.499258 15.877414 1.076782 2.587195 -0.002727 -0.001720 1615080.000000 1 0 0
-2.706662 9.096011 -15.471058 18.149851 -1.281574 2.591368 0.001254 0.002666 1142500.000000 1 0 0
5.416138 -7.646189 -15.303558 17.944293 -0.954492 2.592191 0.004652 0.001772 1078990.000000 1 0 0
4.207638 7.344311 -16.310958 18.376357 1.050533 2.662917 0.005741 -0.005934 337623.000000 1 0 0
-0.215362 5.148311 -13.429458 14.384083 -1.528989 2.775221 0.002874 -0.001268 2128310.000000 1 0 0
8.767238 4.473011 -16.678958 19.366464 0.471771 2.608479 0.014580 -0.003197 -731069.000000 1 0 0
5.379438 0.275311 -14.460458 15.431105 0.051134 2.785018 -0.001821 0.001847 -641535.000000 1 0 0
6.235038 7.960311 -11.594758 15.384429 0.906343 2.424422 0.001927 -0.002876 -1631550.000000 1 0 0
2.638438 -8.411089 -15.059658 17.449960 -1.266832 2.612013 0.002710 0.001167 -274109.000000 1 0 0
3.931338 11.499011 -13.826958 18.408353 1.241369 2.420560 0.008594 -0.013865 -1909030.000000 1 0 0
0.538238 -4.529989 -13.689458 14.429545 -1.452534 2.819928 0.003762 -0.001492 1143880.000000 1 0 0
8.415538 -0.132889 -11.714258 14.424382 -0.015790 2.518564 -0.001135 -0.001219 -152455.000000 1 0 0
-1.019362 -5.026389 -16.287558 17.075955 1.370708 2.836536 0.002052 -0.005606 955856.000000 1 0 0
4.520338 0.921511 -11.807258 12.676513 0.201103 2.769113 -0.005293 -0.001603 -999768.000000 1 0 0
-2.945762 -7.224089 -15.630158 17.469025 1.183610 2.678635 0.001151 -0.001988 2122830.000000 1 0 0
11.411638 -3.867789 -11.407058 16.592355 -0.326782 2.328822 0.016426 -0.003259 546704.000000 1 0 0
6.443238 -7.076189 -12.546658 15.779937 -0.832182 2.489972 0.003346 -0.000000 -157992.000000 1 0 0
3.347738 -4.045189 -14.657958 15.570056 -0.879460 2.797612 0.000858 -0.002848 3156590.000000 1 0 0
-0.558062 -1.582089 -18.226558 18.303603 1.231685 3.049808 0.017009 -0.011931 -308755.000000 1 0 0
14.867638 2.917411 -8.515758 17.380336 0.193764 2.082846 0.008690 -0.000068 -1358470.000000 1 0 0
6.852538 4.279811 -14.367258 16.483087 0.558282 2.629327 0.004416 -0.001222 2406520.000000 1 0 0
10.212438 -9.738089 -14.021658 19.892993 -0.761626 2.353014 0.028187 -0.005219 481626.000000 1 0 0
8.988338 -3.272589 -15.604258 18.302812 -0.349174 2.591662 0.013740 -0.005105 -796460.000000 1 0 0
-5.371762 -2.091389 -18.022158 18.921626 0.371275 2.832019 0.003561 0.002907 -686231.000000 1 0 0
4.982938 -9.020189 -11.102758 15.148093 -1.066097 2.393441 -0.001968 0.001731 884640.000000 1 0 0
-2.421762 3.974911 -17.138858 17.759654 -1.023594 2.876410 0.010464 0.003139 1607220.000000 1 0 0
9.363838 9.219211 -14.514858 19.579490 0.777616 2.405846 0.038293 -0.020304 -1324560.000000 1 0 0
9.754938 9.944611 -11.681358 18.179885 0.795026 2.268609 0.027582 -0.014777 685369.000000 1 0 0
12.008038 -6.014689 -9.651858 16.538677 -0.464358 2.193943 0.020171 -0.003113 -2269140.000000 1 0 0
8.084938 6.814211 -13.699258 17.305183 0.700315 2.484264 0.012847 -0.004576 -216876.000000 1 0 0
3.971138 -4.176089 -17.564558 18.485761 -0.810549 2.824567 0.007157 -0.004483 1637600.000000 1 0 0
9.275238 -7.567889 -12.375358 17.217795 -0.684376 2.372805 0.014933 -0.004363 1821950.000000 1 0 0
11.985338 -8.722989 -8.767458 17.222288 -0.629144 2.104908 0.020526 -0.006348 285066.000000 1 0 0
-2.898162 -2.604689 -13.823458 14.362164 0.732118 2.866836 -0.000922 -0.002261 -2654670.000000 1 0 0
-0.370362 6.113011 -17.636258 18.669325 -1.510284 2.807368 0.009319 0.001053 1455110.000000 1 0 0
1.030238 -8.494789 -17.524858 19.502397 -1.450107 2.687365 0.005708 0.002242 2330060.000000 1 0 0
0.048338 8.542911 -16.021658 18.157015 1.565138 2.651725 -0.000220 0.001397 203718.000000 1 0 0
1.700038 3.410611 -14.940758 15.419100 1.108385 2.891855 0.005376 -0.001343 2714180.000000 1 0 0
-1.995762 -0.544089 -15.769958 15.905052 0.266154 3.011164 0.008015 -0.002206 963609.000000 1 0 0
14.097138 -4.332989 -8.529158 17.036744 -0.298201 2.095126 0.018362 -0.004985 1870270.000000 1 0 0
0.548038 0.602311 -14.578258 14.600984 0.832543 3.085792 0.002934 -0.001713 1205260.000000 1 0 0
8.736238 2.737611 -12.569958 15.550570 0.303671 2.512103 0.001794 0.000041 1284480.000000 1 0 0
5.925238 0.965011 -17.173658 18.192697 0.161447 2.805306 0.008882 0.001294 -629698.000000 1 0 0
15.253138 1.469611 -12.306058 19.653423 0.096052 2.247406 0.023704 -0.013692 -1732810.000000 1 0 0
8.774738 -11.291689 -12.009358 18.674125 -0.910177 2.269338 0.015460 0.002402 2700100.000000 1 0 0
-4.560562 0.725811 -14.964858 15.661179 -0.157826 2.842277 0.008053 -0.002886 883069.000000 1 0 0
2.414638 5.145811 -17.295658 18.205759 1.132055 2.824065 0.006682 -0.001648 2601250.000000 1 0 0
5.864838 -11.679389 -12.332758 17.969457 -1.105428 2.327210 0.001482 0.000994 -686426.000000 1 0 0
12.875838 7.192111 -8.784158 17.166103 0.509402 2.107976 0.014445 -0.004497 431651.000000 1 0 0
-4.980662 3.564311 -15.649258 16.805077 -0.621139 2.768548 0.002932 0.002557 2857950.000000 1 0 0
-0.575662 -4.486989 -19.118758 19.646663 1.443198 2.909252 0.011157 -0.006152 -217845.000000 1 0 0
9.702338 4.440411 -10.229058 14.781280 0.429209 2.335091 -0.002496 0.002536 1372010.000000 1 0 0
13.263938 3.535711 -12.863458 18.812280 0.260508 2.323727 0.015262 -0.013582 385081.000000 1 0 0
-6.081762 5.830311 -17.149458 19.107179 -0.764292 2.684955 -0.005631 0.007704 -1710380.000000 1 0 0
-10.164262 3.071411 -15.514258 18.799947 -0.293453 2.541404 0.005070 0.010306 -334845.000000 1 0 0
10.737938 13.504111 -8.341258 19.163531 0.899013 2.021131 0.032741 -0.006568 -345175.000000 1 0 0
7.378638 13.394411 -12.392358 19.683117 1.067282 2.251826 0.032341 -0.017313 -88556.200000 1 0 0
5.254038 15.190011 -11.339358 19.670343 1.237790 2.185198 0.020936 -0.016374 -590076.000000 1 0 0
14.260538 9.500711 -9.885658 19.782636 0.587696 2.094065 0.031970 -0.009917 -1548060.000000 1 0 0
8.256038 -17.331689 -2.004558 19.302017 -1.126243 1.674836 0.015234 0.002170 157977.000000 1 0 0
0.691138 -15.962489 -0.025858 15.977465 -1.527526 1.572415 0.006942 -0.005223 3771920.000000 1 0 0
-9.191762 -11.665489 7.494742 16.635603 0.903449 1.103444 0.003399 -0.006879 -636645.000000 1 0 0
2.048038 -15.898289 -2.645058 16.246427 -1.442681 1.734333 0.004417 -0.003739 2212530.000000 1 0 0
-1.341362 -11.076089 -9.470158 14.634306 1.450279 2.274598 -0.001252 0.003050 810040.000000 1 0 0
-4.789962 -12.672189 -12.961258 18.748929 1.209407 2.334092 0.005912 -0.003814 982180.000000 1 0 0
-8.455162 -17.810589 -1.625358 19.782534 1.127571 1.653050 0.000492 -0.007435 -834751.000000 1 0 0
-11.419862 -7.113089 -8.869658 16.114594 0.557066 2.153653 0.012061 -0.007377 2733670.000000 1 0 0
-13.489062 -11.585489 -4.797058 18.417115 0.709627 1.834303 0.005416 -0.001963 -1057090.000000 1 0 0
-5.811062 -13.299989 9.834442 17.532096 1.158871 0.975276 0.002276 -0.009564 1157360.000000 1 0 0
0.144238 -13.940389 -3.734758 14.432729 -1.560450 1.832545 0.003557 -0.002310 -309932.000000 1 0 0
-14.901462 -11.595289 1.887842 18.975464 0.661263 1.471143 0.010645 0.000499 563856.000000 1 0 0
-3.944762 -16.502589 -7.410658 18.515249 1.336160 1.982582 -0.004008 -0.005258 332158.000000 1 0 0
0.501038 -15.330289 -9.246458 17.909936 -1.538125 2.113292 0.001353 0.004814 1669080.000000 1 0 0
4.574538 -14.191189 -2.586058 15.132876 -1.258963 1.742529 0.002416 0.004830 358633.000000 1 0 0
-3.690962 -18.008689 -2.399858 18.539024 1.368641 1.700610 -0.004922 -0.006950 1471550.000000 1 0 0
-0.904662 -13.391789 0.662942 13.438673 1.503345 1.521445 0.008621 -0.001317 2755540.000000 1 0 0
-8.518562 -11.334089 -10.578758 17.690043 0.926280 2.211808 0.010543 -0.008393 2531320.000000 1 0 0
-3.737062 -14.091789 -0.352158 14.583147 1.311569 1.594947 0.000827 0.000239 5211950.000000 1 0 0
-1.553162 -14.906689 -7.258658 16.652622 1.466979 2.021820 -0.007198 0.000503 -243443.000000 1 0 0
-14.291962 -7.944389 -1.853458 16.456270 0.507334 1.683665 0.017038 0.002158 1802510.000000 1 0 0
-10.763262 -7.299089 -11.636458 17.450836 0.595909 2.300721 0.013743 -0.006967 -1958350.000000 1 0 0
-9.414162 -14.705889 6.894142 18.772821 1.001368 1.194756 -0.006396 -0.001644 674616.000000 1 0 0
-2.413162 -14.341689 -12.348558 19.078635 1.404096 2.274762 0.012053 0.000279 -701122.000000 1 0 0
2.260638 -17.776689 -4.806458 18.553253 -1.444307 1.832848 0.012179 -0.004410 150051.000000 1 0 0
-6.644862 -9.697789 -9.198958 14.927228 0.970077 2.234773 0.005910 -0.006275 1219630.000000 1 0 0
-11.007062 -15.313389 0.445442 18.864086 0.947573 1.547181 -0.001585 -0.004109 -84129.300000 1 0 0
-12.659162 -11.060189 3.964642 17.271380 0.718088 1.339181 0.006445 -0.003547 2205390.000000 1 0 0
-17.114262 -8.918289 -1.591958 19.364095 0.480387 1.653101 0.020093 0.005336 1194610.000000 1 0 0
-1.551762 -19.246389 -4.093058 19.737897 1.490344 1.779683 -0.005683 -0.003906 625660.000000 1 0 0
3.214538 -14.230589 -8.733558 17.003469 -1.348636 2.110211 -0.003986 0.004989 803459.000000 1 0 0
-4.383862 -8.055689 -13.164658 16.044333 1.072421 2.533112 0.002800 -0.000562 902888.000000 1 0 0
5.458538 -16.675189 1.333442 17.596467 -1.254445 1.494945 0.009884 -0.000001 2377110.000000 1 0 0
-2.762362 -13.710389 -3.204858 14.348398 1.371979 1.796057 0.000148 -0.002674 -1004090.000000 1 0 0
-0.401562 -14.041189 3.666042 14.517441 1.542205 1.315506 0.007285 0.000138 -3606450.000000 1 0 0
1.186238 -16.268789 7.036542 17.764954 -1.498010 1.163540 0.016879 -0.005443 1518990.000000 1 0 0
-5.573662 -10.362989 -14.680558 18.814251 1.077335 2.465925 0.005400 -0.004403 1172940.000000 1 0 0
-0.406162 -17.262189 -5.856058 18.232980 1.547272 1.897771 0.002254 -0.004362 -633816.000000 1 0 0
-6.564862 -13.438989 -1.299158 15.013050 1.116396 1.657440 0.000569 -0.003699 2423360.000000 1 0 0
-1.747362 -17.682089 -0.298258 17.770721 1.472295 1.587581 0.002991 -0.006039 2589110.000000 1 0 0
-9.443562 -9.755289 -4.909258 14.437706 0.801633 1.917746 0.012570 -0.006472 1618280.000000 1 0 0
-0.822962 -16.680789 4.879842 17.399392 1.521500 1.286523 0.018401 -0.006902 1618190.000000 1 0 0
-6.756762 -9.792289 -6.307858 13.465951 0.966808 2.058309 0.008817 -0.005269 1881760.000000 1 0 0
-6.010662 -14.549889 -8.508358 17.894678 1.179042 2.066293 0.000749 -0.004912 -561218.000000 1 0 0
-5.794962 -12.191589 -10.266558 16.959324 1.127083 2.221019 0.007171 -0.004610 1489370.000000 1 0 0
-10.788962 -12.146089 -8.864158 18.506823 0.844502 2.070274 0.016740 -0.018541 -245226.000000 1 0 0
3.998938 -17.167189 6.537442 18.800054 -1.341937 1.215642 0.017354 -0.007689 1660740.000000 1 0 0
-6.661662 -14.388189 -4.114258 16.380624 1.137188 1.824681 -0.000653 -0.008133 -841933.000000 1 0 0
-2.847562 -12.191889 -7.115458 14.400713 1.341348 2.087601 -0.000275 -0.001301 3507480.000000 1 0 0
-7.075162 -12.794989 4.445642 15.281800 1.065681 1.275618 -0.000362 -0.001499 1724610.000000 1 0 0
2.508738 -16.526589 2.293942 16.872584 -1.420146 1.434417 0.005973 -0.002729 2372410.000000 1 0 0
-6.262962 -11.936189 7.246242 15.303768 1.087582 1.077543 -0.000706 -0.002425 2005850.000000 1 0 0
-11.186062 -12.814289 -0.963858 17.037107 0.853136 1.627401 0.001931 0.002196 434998.000000 1 0 0
-14.140662 -8.675289 4.528642 17.196731 0.550287 1.304310 0.006602 -0.006356 -446530.000000 1 0 0
-7.916862 -15.575089 4.453242 18.030293 1.100529 1.321227 -0.006971 0.000519 988418.000000 1 0 0
-16.534762 -9.138189 1.232742 18.932103 0.504887 1.505636 0.011956 0.004784 485037.000000 1 0 0
-6.597362 -16.986989 2.297542 18.367408 1.200349 1.445380 -0.008215 -0.001399 2262860.000000 1 0 0
-11.458862 -14.861989 -4.757958 19.360331 0.913979 1.819098 0.013092 -0.005218 -1818980.000000 1 0 0
-10.113262 -9.956489 -12.609158 18.984220 0.777587 2.297208 0.012645 -0.007745 -1419920.000000 1 0 0
-4.379762 -15.973889 -4.509258 17.166271 1.303190 1.836596 -0.007348 -0.004299 -1237770.000000 1 0 0
-11.761862 -8.201589 -0.088058 14.339289 0.608914 1.576937 0.004162 0.003312 3406660.000000 1 0 0
-9.652662 -11.161089 3.406642 15.144273 0.857744 1.343909 -0.001366 -0.000286 2598160.000000 1 0 0
-14.151762 -12.975889 -0.652258 19.211234 0.742079 1.604755 0.003354 0.006245 356253.000000 1 0 0
5.559438 -14.892689 -7.106558 17.412717 -1.213517 1.991195 0.000620 -0.000942 865745.000000 1 0 0
-7.415762 -10.593689 -1.291258 12.995658 0.960059 1.670321 0.004368 -0.001850 343980.000000 1 0 0
-11.654962 -8.207889 -6.060558 15.489931 0.613566 1.972794 0.015635 -0.008333 500904.000000 1 0 0
-14.408262 -6.619089 -9.257058 18.360378 0.430640 2.099236 0.015631 -0.012548 864037.000000 1 0 0
-3.843862 -16.413389 1.389042 16.914611 1.340752 1.488583 -0.000785 -0.005649 1133760.000000 1 0 0
-7.991562 -15.478989 0.158542 17.420945 1.094206 1.561696 -0.001388 -0.003806 848618.000000 1 0 0
1.019838 -18.710089 3.719542 19.103468 -1.516343 1.374840 0.014484 -0.004384 815209.000000 1 0 0
-14.132262 -8.735089 -4.647958 17.251844 0.553619 1.843585 0.015839 -0.006880 -163240.000000 1 0 0
-3.392662 -14.439389 11.231542 18.605205 1.340023 0.922691 0.002939 -0.010909 504398.000000 1 0 0
-10.724962 -12.148389 -3.870158 16.660921 0.847549 1.805227 0.007879 -0.008384 2289270.000000 1 0 0
-9.942062 -10.588389 0.444142 14.531203 0.816869 1.540227 0.002901 0.001955 2537580.000000 1 0 0
-0.073062 -13.221689 -11.144858 17.292376 1.565270 2.271160 0.008370 -0.001339 114176.000000 1 0 0
-5.864362 -12.609489 -6.316858 15.273921 1.135477 1.997170 0.000153 -0.006934 946432.000000 1 0 0
1.735238 -15.856589 9.886542 18.766624 -1.461797 1.015947 0.019268 -0.008368 47519.800000 1 0 0
-8.898062 -15.729989 -5.532558 18.900192 1.055998 1.867872 0.005248 -0.005397 -1159330.000000 1 0 0
-3.362662 -15.484489 5.895642 16.906670 1.356953 1.214595 0.000711 -0.000073 -2001780.000000 1 0 0
-17.379962 -5.436089 -6.534758 19.347279 0.303139 1.915334 0.009883 -0.005377 -1025610.000000 1 0 0
18.742638 5.440511 -2.865058 19.725471 0.282511 1.716559 -0.008749 0.006626 -654027.000000 1 0 0
12.798238 -12.503089 -5.849058 18.823751 -0.773733 1.886755 0.023161 0.000275 103625.000000 1 0 0
10.972038 -13.578589 -1.559158 17.526970 -0.891172 1.659872 0.014089 0.000763 1936350.000000 1 0 0
18.599238 -3.001589 4.659742 19.407586 -0.160003 1.328329 0.026895 -0.008670 -570208.000000 1 0 0
8.606538 -17.098089 5.006042 19.785793 -1.104462 1.315004 0.018076 -0.007332 256368.000000 1 0 0
18.053038 -1.096289 6.753142 19.305930 -0.060652 1.213443 0.045951 -0.006567 -1165710.000000 1 0 0
17.928938 -4.322989 -5.072858 19.127701 -0.236602 1.839218 0.025916 -0.008220 623697.000000 1 0 0
5.376438 -11.818389 14.814942 19.699312 -1.143857 0.719624 -0.005564 0.002468 -548863.000000 1 0 0
15.839738 -8.894789 -0.836558 18.185555 -0.511667 1.616814 0.010615 0.002192 149776.000000 1 0 0
13.770838 -12.578889 -1.263858 18.693897 -0.740193 1.638456 0.008437 0.003152 -318445.000000 1 0 0
11.008338 -1.944189 13.949742 17.876204 -0.174808 0.675567 -0.000147 -0.002086 956214.000000 1 0 0
16.926838 -6.099989 -1.410058 18.047603 -0.345886 1.649006 0.016127 -0.004477 -976374.000000 1 0 0
17.752638 3.609011 -0.896158 18.137922 0.200561 1.620224 0.006157 0.004844 531070.000000 1 0 0
9.659938 -11.209189 9.531742 17.601546 -0.859499 0.998542 0.009678 0.000803 244708.000000 1 0 0
8.927838 -11.065989 4.350242 14.868995 -0.891934 1.273882 -0.004712 0.000188 -720840.000000 1 0 0
14.034538 -10.151289 6.775742 18.599129 -0.626198 1.197911 0.023604 -0.009908 1045630.000000 1 0 0
16.156938 -0.563489 -4.751158 16.850450 -0.034862 1.856633 0.011193 -0.002754 -1562570.000000 1 0 0
15.759138 -0.490489 -1.813558 15.870728 -0.031114 1.685317 0.017251 0.001304 856832.000000 1 0 0
12.850438 -5.158689 -0.281758 13.850098 -0.381748 1.591141 0.010376 -0.002458 2076760.000000 1 0 0
14.240238 -7.532889 1.048442 16.143978 -0.486567 1.505807 0.013474 -0.001280 1188600.000000 1 0 0
15.547338 2.298911 3.670342 16.139272 0.146802 1.341372 0.016719 -0.003667 2256410.000000 1 0 0
15.845838 -7.135789 5.027842 18.091138 -0.423125 1.289171 0.027092 -0.014071 -2200980.000000 1 0 0
13.451338 -12.056389 3.264842 18.356312 -0.730765 1.391986 0.005452 -0.002218 884662.000000 1 0 0
13.935538 -1.076889 9.214142 16.740947 -0.077123 0.987958 0.025267 -0.009616 -1091970.000000 1 0 0
14.097138 -2.816989 -1.702858 14.476341 -0.197229 1.688700 0.009265 0.001910 955031.000000 1 0 0
14.992538 1.680011 9.250342 17.696538 0.111591 1.020757 0.036423 -0.006759 -2328120.000000 1 0 0
14.333338 -10.196389 -2.999958 17.844066 -0.618320 1.739719 0.010945 0.000250 -105856.000000 1 0 0
7.256438 -12.658789 6.173342 15.843326 -1.050291 1.170546 -0.007761 -0.000833 253682.000000 1 0 0
12.371938 -4.671189 6.958642 14.943478 -0.361016 1.086411 0.008585 -0.006191 1784960.000000 1 0 0
14.956738 -8.989689 -5.600358 18.327098 -0.541188 1.881342 0.021608 -0.002701 -327590.000000 1 0 0
14.231938 -4.619489 4.621242 15.660256 -0.313857 1.271243 0.014555 -0.007666 1119780.000000 1 0 0
17.133338 -4.244489 0.955042 17.677077 -0.242844 1.516743 0.021244 -0.008857 -854647.000000 1 0 0
10.102238 -14.528489 1.153642 17.733107 -0.963205 1.505695 0.016733 -0.000432 117872.000000 1 0 0
16.383338 -2.589289 8.653142 18.708154 -0.156748 1.089946 0.045477 -0.010887 850948.000000 1 0 0
16.082438 -2.664289 3.257442 16.623904 -0.164173 1.373571 0.027262 -0.007169 810163.000000 1 0 0
7.711238 -15.361989 2.751542 17.407610 -1.105575 1.412065 -0.001050 0.000874 2528730.000000 1 0 0
16.600838 -7.115589 7.885642 19.707937 -0.404940 1.159143 0.037013 -0.010903 651638.000000 1 0 0
10.234938 -8.609689 5.146242 14.330544 -0.699366 1.203482 0.001446 -0.000657 1588450.000000 1 0 0
10.673438 -11.895189 2.235142 16.137337 -0.839480 1.431842 0.005076 0.000103 -411546.000000 1 0 0
12.290038 -7.463689 11.973242 18.711232 -0.545767 0.876433 0.013711 -0.011493 -141466.000000 1 0 0
15.033938 -9.851389 4.216142 18.461988 -0.580076 1.340394 0.017285 -0.007319 -551109.000000 1 0 0
7.307738 -10.323289 7.855442 14.888966 -0.954796 1.015022 -0.006390 0.001545 866836.000000 1 0 0
15.211338 -3.352989 -4.393858 16.184354 -0.216958 1.845735 0.018564 -0.001808 1202580.000000 1 0 0
11.747838 -9.134289 9.701442 17.764147 -0.660888 0.993065 0.011730 -0.005403 -1938700.000000 1 0 0
16.898438 -6.725789 2.415842 18.347472 -0.378792 1.438741 0.029167 -0.007707 2368560.000000 1 0 0
17.552838 3.870411 2.083842 18.094878 0.217028 1.455378 0.008855 0.003781 997430.000000 1 0 0
14.700138 -4.969789 8.736042 17.807619 -0.326014 1.058042 0.029254 -0.011027 -94628.300000 1 0 0
12.712238 -12.683589 6.099042 18.965040 -0.784270 1.243384 0.016307 -0.002227 331456.000000 1 0 0
18.217838 0.691011 -0.941658 18.255241 0.037912 1.622402 0.021805 -0.000200 878356.000000 1 0 0
11.698338 -2.167789 10.998842 16.202621 -0.183229 0.824627 0.004490 -0.003490 1157410.000000 1 0 0
5.738638 -12.632689 10.709342 17.527316 -1.144398 0.913462 -0.007252 0.004535 -1970460.000000 1 0 0
10.740138 -5.078589 11.083042 16.247352 -0.441701 0.820105 0.001649 -0.001784 233022.000000 1 0 0
17.811638 1.165711 5.119342 18.569356 0.065353 1.291491 0.033209 0.000916 -983141.000000 1 0 0
12.311738 -7.729589 7.153142 16.201632 -0.560627 1.113518 0.013244 -0.009349 -1378460.000000 1 0 0
10.622138 -7.985589 14.304342 19.524693 -0.644644 0.748621 0.011550 -0.007649 100374.000000 1 0 0
14.177638 -0.374789 3.776142 14.676687 -0.026429 1.310581 0.011007 -0.001951 2102400.000000 1 0 0
11.588238 -7.716789 2.562742 14.156403 -0.587483 1.388762 0.007498 -0.001209 1856230.000000 1 0 0
9.325638 6.034111 3.479942 11.639932 0.574295 1.267188 0.002789 -0.000980 3056670.000000 1 0 0
-3.847862 14.822711 -9.792458 18.177212 -1.316810 2.139715 0.001069 -0.002915 792217.000000 1 0 0
8.805638 -6.490889 9.272442 14.340470 -0.635213 0.867687 -0.000535 -0.000609 1240190.000000 1 0 0
5.805838 -10.515889 -8.440758 14.681215 -1.066341 2.183322 -0.002766 -0.002544 178715.000000 1 0 0
5.374538 1.093711 0.516842 5.508991 0.200757 1.476840 -0.002117 -0.000744 2407610.000000 1 0 0
-0.443262 9.952311 11.062442 14.886994 -1.526287 0.733114 0.002931 -0.000212 -1552670.000000 1 0 0
-6.357562 -5.155289 0.990142 8.244755 0.681347 1.450412 0.005368 -0.003463 4434220.000000 1 0 0
-0.942262 4.010411 -10.838258 11.594788 -1.340028 2.778359 0.006773 -0.002467 887077.000000 1 0 0
10.981838 5.777711 1.287842 12.475626 0.484321 1.467383 0.004042 -0.000300 1403060.000000 1 0 0
-10.015262 -1.818189 -13.741458 17.100847 0.179586 2.504039 0.005407 0.003886 1782680.000000 1 0 0
7.438238 10.900211 -6.038358 14.512193 0.971984 1.999936 0.005447 -0.002726 435645.000000 1 0 0
-12.360062 -2.961389 -9.646758 15.956219 0.235160 2.220031 0.002298 -0.001099 1187390.000000 1 0 0
-3.936262 -8.671289 2.493242 9.843865 1.144669 1.314728 0.006862 0.000248 -2062650.000000 1 0 0
8.002838 -6.601189 -5.851358 11.910479 -0.689714 2.084353 0.000629 -0.001257 2304190.000000 1 0 0
14.291938 3.147711 -4.309858 15.255899 0.216783 1.857200 0.009472 0.002594 2464720.000000 1 0 0
-2.569762 -4.985989 9.734842 11.235253 1.094907 0.522739 0.002000 -0.001264 1450850.000000 1 0 0
3.487438 -1.903789 -4.538858 6.032236 -0.499689 2.422546 -0.006828 -0.001458 -2622000.000000 1 0 0
-3.995762 8.463411 -3.439758 9.971328 -1.129699 1.922998 0.002321 -0.001511 200368.000000 1 0 0
5.883038 0.017411 11.729042 13.121770 0.002959 0.464912 -0.001191 -0.003317 663442.000000 1 0 0
7.155238 4.709911 12.513042 15.164330 0.582151 0.600306 0.010134 -0.003344 533221.000000 1 0 0
1.069238 -14.545389 12.468342 19.187787 -1.497418 0.863467 0.000033 -0.001255 871882.000000 1 0 0
3.030438 8.767611 -9.144758 13.026172 1.238011 2.349040 0.000491 0.000070 1224570.000000 1 0 0
-4.402462 -8.782589 -4.527158 10.817149 1.106132 2.002608 0.004965 -0.002739 736681.000000 1 0 0
5.667938 -6.557789 -4.009958 9.550387 -0.858055 2.004103 -0.002233 -0.001100 2309470.000000 1 0 0
-3.082662 3.481611 8.673042 9.841040 -0.846099 0.492162 -0.006094 0.000317 1337910.000000 1 0 0
-3.708062 3.165411 -11.066658 12.092993 -0.706613 2.726626 0.003312 -0.003670 181201.000000 1 0 0
3.044038 -6.160489 8.599142 11.007408 -1.111862 0.674188 0.000793 0.001267 -147106.000000 1 0 0
-5.077962 -8.649389 10.494542 14.516647 1.039924 0.762760 0.007156 -0.007252 -73440.200000 1 0 0
-13.295662 -2.448889 6.552842 15.023695 0.182146 1.119461 0.008851 -0.000761 1547820.000000 1 0 0
3.932238 -5.869689 -8.357458 10.943622 -0.980543 2.439795 -0.001020 -0.001879 3150430.000000 1 0 0
2.992638 -0.517489 12.353442 12.721289 -0.171228 0.241066 0.004158 -0.003356 1815550.000000 1 0 0
1.488038 -1.392289 -7.475658 7.748432 -0.752168 2.875464 -0.001379 -0.002597 -414744.000000 1 0 0
3.587538 -3.525289 3.453842 6.101403 -0.776647 0.969062 -0.001632 0.000161 2998600.000000 1 0 0
1.608538 0.429711 -11.890858 12.006855 0.261048 3.002478 0.000746 -0.002954 359431.000000 1 0 0
4.125138 3.566811 -10.656358 11.970667 0.712939 2.668593 -0.007015 0.002337 814108.000000 1 0 0
2.846238 3.138211 3.427842 5.449728 0.834148 0.890539 -0.008929 0.003310 -1011010.000000 1 0 0
-5.269762 0.919011 2.585542 5.941380 -0.172657 1.120563 0.003717 -0.003066 872042.000000 1 0 0
-9.499662 -9.289089 5.682542 14.450676 0.774191 1.166647 0.001281 -0.002256 -1767180.000000 1 0 0
-3.057562 3.913211 -0.559458 4.997489 -0.907535 1.682979 -0.000360 -0.002550 633538.000000 1 0 0
-15.753462 -6.464589 4.971642 17.739214 0.389405 1.286728 0.008074 -0.007684 673095.000000 1 0 0
0.936438 6.726611 -8.095058 10.566654 1.432471 2.443539 0.001125 -0.000306 30548.000000 1 0 0
-1.699362 6.530511 -9.440658 11.604371 -1.316223 2.521016 0.002511 0.000028 1172940.000000 1 0 0
2.100338 -0.337889 5.267142 5.680525 -0.159507 0.383855 -0.003458 -0.000129 3020260.000000 1 0 0
-3.413162 -0.602489 -6.265258 7.160037 0.174720 2.636297 0.006772 -0.009420 428234.000000 1 0 0
1.811838 -1.103789 -2.500658 3.279390 -0.547164 2.438023 0.000166 -0.001711 1241290.000000 1 0 0
2.391638 -8.559089 -7.721558 11.772867 -1.298319 2.286141 -0.003841 0.001812 1839560.000000 1 0 0
-2.341062 14.031611 -5.478258 15.243949 -1.405477 1.938392 0.003122 0.000337 2993080.000000 1 0 0
6.883438 -5.121589 -8.223658 11.884484 -0.639679 2.335005 -0.000952 -0.002582 3564890.000000 1 0 0
-14.191662 -4.981089 -2.147558 15.192976 0.337554 1.712623 0.011489 0.000102 472795.000000 1 0 0
-2.741462 6.891211 -6.747358 10.026527 -1.192171 2.308987 0.002975 -0.001359 -3065170.000000 1 0 0
-5.709862 -1.115589 -8.107458 9.978875 0.192949 2.519159 0.007386 -0.009496 1570490.000000 1 0 0
-5.730862 -10.594389 3.537942 12.553919 1.074940 1.285106 0.002041 -0.001624 -2634790.000000 1 0 0
8.068238 -7.611289 6.693842 12.955142 -0.756263 1.027812 -0.004509 0.000454 1646690.000000 1 0 0
8.845738 -6.014489 13.163042 16.961333 -0.597129 0.682399 0.003449 -0.000787 72044.900000 1 0 0
-4.740862 9.601511 -0.758858 10.735020 -1.112151 1.641545 0.004613 -0.000298 2485470.000000 1 0 0
2.812538 6.604411 12.142642 14.105756 1.168200 0.533900 0.006371 -0.003983 635775.000000 1 0 0
6.054438 -2.878089 10.956742 12.844836 -0.443749 0.549075 -0.001059 -0.001893 -514360.000000 1 0 0
-9.633462 -6.477289 -1.181758 11.668566 0.591943 1.672247 0.008835 -0.003088 80333.700000 1 0 0
0.841138 -13.422289 6.309142 14.854987 -1.508211 1.132149 0.006811 -0.001216 305611.000000 1 0 0
-0.523962 -3.210489 8.789742 9.372371 1.409019 0.354456 0.000667 -0.001670 1922300.000000 1 0 0
4.208438 0.736811 3.339642 5.422826 0.173323 0.907333 -0.005128 0.001121 1398680.000000 1 0 0
-10.148062 5.567011 8.247042 14.212265 -0.501751 0.951728 0.006608 -0.005595 347128.000000 1 0 0
9.404438 7.957311 -0.049058 12.319280 0.702239 1.574779 0.000255 0.001941 299153.000000 1 0 0
4.232138 2.802611 8.263842 9.698283 0.584919 0.550825 -0.005258 0.002552 3991080.000000 1 0 0
1.398538 2.617211 -9.780658 10.220909 1.080039 2.847021 0.002291 -0.003195 2415380.000000 1 0 0
-1.448862 -10.093489 3.028742 10.637246 1.428226 1.282072 0.006737 -0.000484 -3109850.000000 1 0 0
-9.802762 9.542511 9.057542 16.407093 -0.771946 0.985975 0.010932 -0.008545 132719.000000 1 0 0
9.714438 -2.101789 -7.751358 12.604419 -0.213073 2.233146 0.005237 0.000198 1027410.000000 1 0 0
-5.061562 -1.768989 6.684442 8.569159 0.336225 0.676038 0.001064 -0.001784 1812160.000000 1 0 0
3.074538 -7.810489 -4.954558 9.747008 -1.195783 2.104024 -0.005783 -0.000350 3071090.000000 1 0 0
-5.073962 4.911711 -13.027058 14.818038 -0.769151 2.644841 -0.000539 -0.003395 2191340.000000 1 0 0
-5.570362 9.710311 5.546642 12.493370 -1.049974 1.110775 0.002387 0.000263 1987960.000000 1 0 0
-0.461662 -1.711489 -9.309558 9.476825 1.307324 2.953432 0.002654 -0.005486 342440.000000 1 0 0
-16.770462 0.087011 6.361642 17.936735 -0.005188 1.208234 0.013289 0.000420 -1332190.000000 1 0 0
-5.960762 -2.854889 4.073342 7.763581 0.446664 1.018465 0.000673 -0.002643 3064780.000000 1 0 0
0.970438 -5.648989 -5.126658 7.689958 -1.400667 2.300527 -0.002702 -0.002300 350310.000000 1 0 0
-7.009162 1.435111 -8.491158 11.103498 -0.201957 2.441416 0.004479 -0.005447 -430869.000000 1 0 0
8.056638 1.959011 4.711642 9.536598 0.238526 1.054044 -0.002546 -0.000524 809285.000000 1 0 0
0.441338 -8.013989 -0.540058 8.044282 -1.515781 1.637983 -0.001058 0.001411 1080590.000000 1 0 0
5.447438 5.592711 -3.368458 8.502912 0.798556 1.978120 -0.001821 0.000762 223958.000000 1 0 0
-0.781962 -0.326789 -1.195758 1.465638 0.395849 2.525015 0.001598 -0.004614 693654.000000 1 0 0
9.071738 6.421311 -6.331058 12.791089 0.615966 2.088583 0.000560 0.000122 1413520.000000 1 0 0
-14.980962 -7.074389 2.416342 16.742608 0.441182 1.425968 0.003536 -0.000974 940273.000000 1 0 0
-6.426462 6.883511 8.890642 12.950894 -0.819723 0.814147 -0.001229 -0.002559 40571.500000 1 0 0
-9.419962 -3.185889 -9.650458 13.857017 0.326130 2.341209 0.007633 -0.002769 607882.000000 1 0 0
14.888738 3.376111 -1.262558 15.318835 0.222985 1.653309 0.005466 0.002791 2451760.000000 1 0 0
11.941838 1.712711 -5.851658 13.408310 0.142450 2.022413 0.007166 0.002252 1374180.000000 1 0 0
1.733038 -9.433689 12.745242 15.951147 -1.389115 0.645137 -0.004611 -0.003524 547702.000000 1 0 0
-3.593762 6.442211 7.970642 10.860402 -1.061949 0.746724 -0.003567 -0.000780 1752700.000000 1 0 0
-4.086762 13.155011 -12.311858 18.475329 -1.269587 2.300159 -0.000374 0.002756 -184419.000000 1 0 0
-10.241562 7.830411 6.468442 14.423788 -0.652762 1.105759 0.006451 -0.003910 914119.000000 1 0 0
8.128238 -9.305989 -7.154058 14.277613 -0.852850 2.095629 0.006593 -0.002369 -605355.000000 1 0 0
5.780638 -3.780589 -0.326458 6.914854 -0.579188 1.618025 -0.001527 -0.000544 -2122550.000000 1 0 0
-1.612562 -4.521089 4.125642 6.329417 1.228187 0.860814 0.002199 -0.001891 1746480.000000 1 0 0
9.807138 -2.064089 -2.615058 10.357555 -0.207440 1.826037 0.003061 -0.000758 -2769810.000000 1 0 0
13.619738 6.935611 1.492442 15.356671 0.471006 1.473457 0.000941 0.001520 -999241.000000 1 0 0
5.373538 -3.702689 -3.297258 7.311411 -0.603346 2.038653 -0.001671 -0.002081 -2562080.000000 1 0 0
-12.247162 -5.930289 1.880142 13.736675 0.450942 1.433495 0.007167 -0.000456 1285480.000000 1 0 0
3.683738 -5.733289 -0.241258 6.818998 -0.999699 1.606184 -0.002486 0.000646 -808130.000000 1 0 0
-5.149062 3.692911 -8.693258 10.757471 -0.622177 2.511739 0.005817 -0.005298 455756.000000 1 0 0
-1.791762 -9.320389 7.145742 11.880307 1.380872 0.925447 0.006056 -0.003571 1916830.000000 1 0 0
-7.451362 -7.398689 2.576342 10.812074 0.781851 1.330198 0.007862 -0.003628 -4696720.000000 1 0 0
-5.658562 13.136211 -8.435058 16.605107 -1.164057 2.103634 0.002317 -0.005081 2460930.000000 1 0 0
9.228738 -13.973089 -4.157958 17.254143 -0.987099 1.814175 0.013570 0.005442 1904370.000000 1 0 0
-6.576862 -5.139489 -6.764558 10.743776 0.663327 2.251868 0.007580 -0.006702 1853430.000000 1 0 0
3.440638 0.459311 -6.187958 7.095054 0.132711 2.630378 -0.005562 -0.003526 129990.000000 1 0 0
-3.493362 5.799711 5.043942 8.442841 -1.028663 0.930513 -0.002295 0.003613 658811.000000 1 0 0
-2.651062 -10.749789 -2.876958 11.439536 1.329006 1.825018 0.003627 -0.000277 1256300.000000 1 0 0
-12.587062 -0.405989 1.689042 12.706369 0.032243 1.437473 0.006017 -0.002665 434770.000000 1 0 0
8.373638 -12.037889 -6.069458 15.870316 -0.963025 1.963233 0.006980 -0.001241 -335223.000000 1 0 0
6.011838 3.993411 0.926242 7.276500 0.586333 1.443158 -0.003037 0.000661 -288722.000000 1 0 0
3.409238 -4.808389 -10.966858 12.450522 -0.954043 2.648420 -0.001713 -0.002153 609981.000000 1 0 0
-7.562362 4.276811 8.601042 12.225316 -0.514695 0.790425 0.001787 -0.002662 1552910.000000 1 0 0
8.230038 8.722311 4.054742 12.659114 0.814429 1.244748 0.000673 0.000834 1823730.000000 1 0 0
0.262138 10.640811 -6.328158 12.383100 1.546166 2.107181 0.001350 -0.000917 2666760.000000 1 0 0
5.433138 8.046311 3.217142 10.228006 0.976886 1.250822 -0.001925 0.001451 2284680.000000 1 0 0
8.041738 6.787811 -3.756158 11.173748 0.701043 1.913632 -0.001247 -0.000625 -171211.000000 1 0 0
10.533738 2.553011 -8.325958 13.667446 0.237780 2.225825 0.001139 0.002330 678261.000000 1 0 0
3.322838 -12.558989 -0.272058 12.993979 -1.312145 1.591735 -0.008669 0.003441 -2193200.000000 1 0 0
0.597438 2.080411 5.290642 5.716286 1.291149 0.388342 -0.005925 0.002188 766589.000000 1 0 0
-4.748762 13.381011 1.479642 14.275557 -1.229773 1.466961 0.006407 -0.000176 1651970.000000 1 0 0
8.205538 4.157111 -8.011258 12.198061 0.468932 2.287317 -0.003191 0.004562 1461860.000000 1 0 0
-13.904362 -0.542589 -3.594358 14.371677 0.039003 1.823580 0.001046 -0.000725 234869.000000 1 0 0
-8.591662 0.064011 -0.519458 8.607589 -0.007450 1.631182 0.002036 -0.003437 206046.000000 1 0 0
1.776838 -3.758789 -1.207858 4.329500 -1.129214 1.853532 -0.000329 -0.000886 -1461920.000000 1 0 0
8.025938 -5.620589 -0.234858 9.801115 -0.610929 1.594761 -0.000429 0.000807 2984720.000000 1 0 0
-2.226062 -1.163489 7.437942 7.850607 0.481616 0.325674 -0.000148 -0.001479 306864.000000 1 0 0
-5.883762 8.950011 -11.659958 15.832750 -0.989235 2.398597 -0.004485 0.004015 -388722.000000 1 0 0
-6.189162 9.257311 -8.757158 14.166558 -0.981477 2.237192 0.000741 0.000176 1805150.000000 1 0 0
-1.407462 13.984311 -8.289058 16.317181 -1.470488 2.103653 0.010555 -0.000310 -963180.000000 1 0 0
-1.434062 7.265711 9.839242 12.314941 -1.375927 0.645219 -0.003026 -0.002500 1279390.000000 1 0 0
9.922038 2.337111 -3.988458 10.946083 0.231331 1.943756 -0.000118 0.001872 -1865340.000000 1 0 0
-3.000962 -7.455389 -6.969858 10.638023 1.188117 2.285222 0.003807 -0.002528 1012190.000000 1 0 0
-5.469662 -4.956989 -1.609658 7.555127 0.736268 1.785497 0.006895 -0.003958 533178.000000 1 0 0
5.686438 7.463111 -8.835658 12.888074 0.919698 2.326181 -0.004380 0.002082 456400.000000 1 0 0
-9.553262 5.271111 -7.506458 13.243728 -0.504194 2.173405 -0.002648 0.001291 1207120.000000 1 0 0
-0.426962 6.154711 -5.340958 8.160184 -1.501536 2.284337 0.001879 -0.000581 -1862200.000000 1 0 0
-8.217062 2.860811 -6.337258 10.764070 -0.335030 2.200298 0.004270 -0.001568 831170.000000 1 0 0
3.657538 1.494111 -2.115458 4.481642 0.387814 2.062386 -0.005712 -0.001643 3811170.000000 1 0 0
-6.791362 12.464311 -3.419258 14.600444 -1.071904 1.807180 0.007949 -0.000756 626835.000000 1 0 0
-6.541962 3.119611 -2.420858 7.641322 -0.444966 1.893162 0.003126 -0.001671 -1224110.000000 1 0 0
12.050038 3.998911 -0.800958 12.721487 0.320423 1.633799 0.003890 -0.000355 899624.000000 1 0 0
2.210838 12.405411 -5.487858 13.744039 1.394432 1.981539 0.001608 -0.000420 66750.100000 1 0 0
-9.173162 -1.437989 -4.217358 10.198080 0.155495 1.997140 0.003380 -0.004097 -490697.000000 1 0 0
-1.132762 5.661611 3.448342 6.725180 -1.373326 1.032411 -0.004974 0.002821 1336770.000000 1 0 0
11.544938 2.578711 12.076542 16.904975 0.219756 0.775062 0.025706 -0.003547 694861.000000 1 0 0
-7.090462 -2.312589 -5.763458 9.425507 0.315276 2.228719 0.008665 -0.007480 599324.000000 1 0 0
7.482238 -7.469989 10.919242 15.199160 -0.784579 0.769281 -0.002595 -0.000512 -1824490.000000 1 0 0
-5.431462 -1.949189 -10.919058 12.350140 0.344555 2.655413 0.005289 -0.004495 292219.000000 1 0 0
0.839138 -6.185589 4.484942 7.686375 -1.435959 0.947774 0.001859 -0.000197 409490.000000 1 0 0
-4.878562 -9.328889 7.421942 12.880751 1.088956 0.956720 0.001802 -0.003047 2832320.000000 1 0 0
-8.769562 9.352711 1.663342 12.928462 -0.817566 1.441781 0.003935 -0.001124 1135410.000000 1 0 0
-8.123362 7.282211 -9.073658 14.189816 -0.730852 2.264577 0.000405 -0.000179 1003970.000000 1 0 0
-1.245162 -10.574089 -0.061058 10.647325 1.453580 1.576531 0.002971 0.000485 -853373.000000 1 0 0
-3.921462 10.361211 7.818342 13.559462 -1.208982 0.956239 0.002268 0.002245 2676490.000000 1 0 0
-7.465962 12.163611 1.964342 14.406688 -1.020295 1.434021 0.002393 -0.001947 1700970.000000 1 0 0
-8.009862 -8.262089 -2.858058 11.857002 0.800898 1.814238 0.015019 -0.003648 845862.000000 1 0 0
5.396138 4.664311 -7.994158 10.713574 0.712783 2.413088 -0.004887 0.003072 1480020.000000 1 0 0
-8.890862 -0.115389 -10.231258 13.555050 0.012978 2.426135 0.004313 -0.004298 -2408570.000000 1 0 0
-15.258362 -2.207389 -1.538358 15.493764 0.143671 1.670249 0.008816 -0.000316 -369588.000000 1 0 0
-7.254662 -5.734189 8.708842 12.702558 0.668869 0.815372 0.005155 -0.005004 -1429300.000000 1 0 0
8.088938 3.459111 -0.932858 8.846841 0.404100 1.676438 -0.001386 0.001085 1857600.000000 1 0 0
11.920338 7.269011 -5.984358 15.190310 0.547594 1.975731 -0.000423 0.001672 971529.000000 1 0 0
3.785538 13.352211 -9.531958 16.836569 1.294532 2.172619 -0.003906 -0.005870 901358.000000 1 0 0
-9.740262 5.400711 -0.506158 11.148838 -0.506271 1.616212 0.001424 -0.000649 699648.000000 1 0 0
11.184938 -1.308789 -5.276058 12.435938 -0.116484 2.008940 0.010961 -0.001796 -937119.000000 1 0 0
10.551838 1.723411 -1.282058 10.768245 0.161899 1.690139 0.002976 -0.000069 351954.000000 1 0 0
14.619438 4.970011 4.830842 16.179184 0.327702 1.267588 0.008996 -0.005906 3311170.000000 1 0 0
0.834938 -0.827789 10.314542 10.381335 -0.781099 0.113498 0.001271 -0.001762 1971600.000000 1 0 0
-7.891262 1.395011 -12.612958 14.943386 -0.174971 2.575587 0.001019 0.000675 418709.000000 1 0 0
3.078638 -11.503089 -7.879858 14.279049 -1.309289 2.155374 -0.005349 0.001110 408153.000000 1 0 0
2.811638 5.043111 -6.791558 8.914232 1.062198 2.437004 -0.000850 0.002129 -1340100.000000 1 0 0
6.474038 8.114011 0.491742 10.391927 0.897347 1.523459 -0.001601 -0.000767 409618.000000 1 0 0
-9.076862 -5.373589 6.668442 12.479303 0.534523 1.007046 -0.000118 -0.002303 -2205110.000000 1 0 0
-0.392462 -6.925989 -11.822558 13.707525 1.514192 2.610959 0.002774 0.000618 2961560.000000 1 0 0
6.445238 -13.420789 -4.614358 15.586885 -1.123079 1.871342 0.001519 0.003467 2305100.000000 1 0 0
-3.178262 -0.342789 10.083742 10.578313 0.107439 0.306993 -0.000388 0.001104 18931.400000 1 0 0
8.651838 8.451511 6.935242 13.942020 0.773686 1.050157 -0.001222 0.002845 432995.000000 1 0 0
-8.004062 5.715011 -2.739658 10.209412 -0.620069 1.842472 0.004437 -0.001925 987888.000000 1 0 0
-5.378062 5.802511 -6.466258 10.217885 -0.823343 2.256008 0.004703 -0.001254 -1168380.000000 1 0 0
3.305238 -13.759289 2.559042 14.380241 -1.335045 1.391888 0.001911 -0.002068 -2132460.000000 1 0 0
-11.358362 -6.982789 6.480642 14.824657 0.551210 1.118366 0.006409 -0.006106 -850566.000000 1 0 0
-12.891762 -3.741189 -6.788558 15.042558 0.282442 2.039007 0.009374 -0.003592 -753641.000000 1 0 0
6.028038 0.381811 -7.294558 9.470671 0.063255 2.449992 -0.007346 0.003109 42899.600000 1 0 0
-1.433562 2.292611 -2.443858 3.644669 -1.011984 2.305719 0.001878 -0.005755 2414620.000000 1 0 0
7.532538 0.937111 -5.031858 9.106970 0.123772 2.156191 -0.003720 0.002306 166849.000000 1 0 0
3.755238 -4.506289 10.873942 12.355204 -0.876058 0.494702 0.001298 -0.000005 254524.000000 1 0 0
6.011938 -2.539289 2.016142 6.830535 -0.399645 1.271167 0.000343 -0.001261 -227871.000000 1 0 0
-6.251962 7.790811 1.248842 10.066944 -0.894546 1.446422 0.005553 -0.001492 1090710.000000 1 0 0
6.025138 -3.486989 7.950342 10.567370 -0.524641 0.719177 0.000632 -0.002005 1003830.000000 1 0 0
6.712338 -2.287689 -7.906158 10.620562 -0.328472 2.410462 -0.003427 -0.001485 749856.000000 1 0 0
12.054438 -8.171689 -5.815758 15.681487 -0.595738 1.950740 0.018742 -0.003470 99934.600000 1 0 0
5.590538 -9.751889 10.052742 15.080155 -1.050258 0.841131 -0.008472 0.004570 2407160.000000 1 0 0
-6.609262 7.534311 -4.445358 10.964005 -0.850709 1.988268 0.004686 -0.000930 -276121.000000 1 0 0
-1.436162 -7.606989 9.639142 12.362924 1.384198 0.676640 0.003302 -0.003346 -1268330.000000 1 0 0
9.925638 -9.296489 0.748042 13.619933 -0.752679 1.515846 -0.001007 0.001244 -129166.000000 1 0 0
11.090138 6.042311 9.827042 16.002232 0.498870 0.909546 0.003270 0.000283 1393810.000000 1 0 0
-15.302662 -4.209889 -4.952558 16.625958 0.268467 1.873269 0.008922 -0.003566 1307740.000000 1 0 0
-4.750262 -4.589689 7.805942 10.225603 0.768208 0.702279 0.003669 -0.002935 -1171270.000000 1 0 0
2.919738 10.950711 -11.071758 15.843824 1.310232 2.344523 -0.001362 -0.001880 -601850.000000 1 0 0
9.881038 -1.217289 1.494242 10.067247 -0.122577 1.421820 0.002383 -0.002482 -351081.000000 1 0 0
-1.630862 -2.554889 0.686542 3.107814 1.002669 1.348051 0.001722 -0.005148 -1198510.000000 1 0 0
1.568438 2.981111 0.844342 3.472741 1.086468 1.325201 -0.007148 -0.000133 -1431530.000000 1 0 0
-8.959862 -2.392689 4.281542 10.214484 0.260956 1.138272 0.000227 -0.002820 4104120.000000 1 0 0
9.822538 4.926711 -2.675458 11.309854 0.464904 1.809620 -0.002288 -0.000154 1388510.000000 1 0 0
2.571538 8.383811 2.575042 9.139580 1.273180 1.285183 -0.004749 0.000577 877485.000000 1 0 0
-8.102962 -0.070089 2.410042 8.454065 0.008650 1.281712 0.000261 -0.004150 1658210.000000 1 0 0
7.032038 1.998711 13.727942 15.553160 0.276926 0.489333 0.009386 -0.005170 -1786630.000000 1 0 0
6.791938 4.342711 3.720442 8.878696 0.568882 1.138419 -0.004250 0.000085 -597111.000000 1 0 0
-0.326762 3.351811 7.795842 8.492147 -1.473615 0.407774 -0.007653 0.002475 -1227230.000000 1 0 0
2.675138 -10.263189 9.267742 14.084759 -1.315816 0.852639 -0.004512 0.000598 1412710.000000 1 0 0
1.344538 -4.574489 6.912642 8.397520 -1.284926 0.603813 -0.000205 0.000676 -545375.000000 1 0 0
-0.087162 10.837711 -1.875558 10.999150 -1.562754 1.742152 0.001506 -0.001101 2869750.000000 1 0 0
8.763138 5.491911 7.996842 13.072993 0.559825 0.912580 -0.001909 0.000597 416883.000000 1 0 0
2.696438 11.435911 -2.907258 12.103842 1.339239 1.813361 0.004717 -0.004938 1309670.000000 1 0 0
1.534938 2.449011 -6.709758 7.305789 1.010934 2.734856 -0.002251 -0.002212 1524080.000000 1 0 0
-13.617862 -2.165489 3.574642 14.244774 0.157698 1.317141 0.005446 -0.001501 2000300.000000 1 0 0
-0.942262 -10.545089 -5.312758 11.845344 1.481677 2.035894 -0.001188 0.000054 793691.000000 1 0 0
-5.634462 2.879611 0.405142 6.340620 -0.472465 1.506857 0.006150 -0.003322 146757.000000 1 0 0
3.747738 7.336611 -5.099858 9.689167 1.098525 2.125094 0.000493 -0.001099 -1240440.000000 1 0 0
2.971338 9.845311 -6.529858 12.181874 1.277687 2.136525 0.000559 0.000398 186084.000000 1 0 0
-12.149762 1.664211 -2.623158 12.540625 -0.136128 1.781525 -0.000147 -0.001400 163386.000000 1 0 0
-2.542562 9.714011 -5.747358 11.569735 -1.314798 2.090656 -0.000308 -0.002088 682975.000000 1 0 0
-1.332362 3.212211 1.767742 3.901076 -1.177614 1.100509 -0.006351 -0.000658 1726510.000000 1 0 0
12.813738 3.666811 9.733942 16.504151 0.278714 0.940001 0.020423 -0.004929 973204.000000 1 0 0
-2.604362 -9.527089 11.649642 15.272926 1.303952 0.703219 0.001873 -0.009969 -83021.500000 1 0 0
-0.479462 -8.887589 -7.597958 11.702483 1.516901 2.277408 -0.001816 -0.000316 1135580.000000 1 0 0
2.314338 7.707111 -0.494758 8.062289 1.279077 1.632202 -0.001955 0.000826 125903.000000 1 0 0
-11.824562 -1.378689 -5.512458 13.119003 0.116071 2.004450 0.001537 -0.000348 -1127540.000000 1 0 0
-6.239962 -7.218789 -11.013958 14.572417 0.857998 2.427685 0.005212 -0.002424 785247.000000 1 0 0
-4.696362 -2.202589 -1.376358 5.366710 0.438541 1.830157 0.004118 -0.005098 -116697.000000 1 0 0
-10.458562 3.810911 4.504042 12.007954 -0.349429 1.186304 0.006170 -0.000712 3679150.000000 1 0 0
6.755238 9.470811 -3.535958 12.158639 0.951220 1.865879 0.001391 -0.001478 1086670.000000 1 0 0
1.256238 -2.646589 -11.484558 11.852327 -1.127623 2.891829 0.001824 -0.003415 -1455010.000000 1 0 0
1.310738 8.804511 7.589842 11.697997 1.423011 0.864770 -0.004496 0.006565 1039540.000000 1 0 0
10.356938 0.357911 10.425442 14.699799 0.034544 0.782400 0.002110 -0.002856 861664.000000 1 0 0
-5.281562 -0.802189 -3.946258 6.641638 0.150733 2.207029 0.006864 -0.008299 -469324.000000 1 0 0
11.704138 5.619211 5.485142 14.094295 0.447605 1.171061 0.002097 -0.000290 2274590.000000 1 0 0
9.953938 -3.332189 3.648242 11.112787 -0.323035 1.236301 0.006923 -0.001812 -534060.000000 1 0 0
7.278338 -1.672089 -3.511258 8.252213 -0.225817 2.010303 -0.002483 0.000788 -4056450.000000 1 0 0
2.389538 9.263211 10.518842 14.218403 1.318340 0.738016 -0.000149 0.002679 1613470.000000 1 0 0
2.417738 -10.968389 6.354742 12.904796 -1.353838 1.055914 -0.002796 0.000922 1379990.000000 1 0 0
5.867338 -7.496489 -1.163658 9.590470 -0.906707 1.692431 -0.004297 0.001797 546316.000000 1 0 0
-0.266362 -5.509889 -2.360758 6.000251 1.522491 1.975170 -0.000782 -0.000128 725469.000000 1 0 0
7.741238 -4.993889 2.677042 9.593344 -0.572924 1.287990 -0.000015 -0.000336 2281020.000000 1 0 0
-2.682162 -12.502089 4.644242 13.603867 1.359463 1.222400 0.005298 -0.000607 -714917.000000 1 0 0
4.805038 -10.266089 -1.031958 11.381824 -1.133034 1.661588 -0.005232 0.001698 1001160.000000 1 0 0
1.047438 0.147011 1.061642 1.498606 0.139442 0.783540 -0.008175 -0.000769 -2533750.000000 1 0 0
-1.552662 8.515411 2.451442 8.996252 -1.390442 1.294810 -0.003935 0.003531 116505.000000 1 0 0
-7.559162 0.687611 -3.107358 8.201794 -0.090714 1.959364 0.002982 -0.002115 -282675.000000 1 0 0
4.470338 -6.394689 12.879142 15.058163 -0.960695 0.544680 0.001179 -0.002227 1112500.000000 1 0 0
-5.048262 13.083111 8.495042 16.395684 -1.202538 1.026137 0.009961 -0.006419 2496360.000000 1 0 0
0.632438 6.072111 8.243842 10.258237 1.467016 0.637424 -0.005891 0.004891 1310090.000000 1 0 0
7.878538 -0.488389 -0.799858 7.934082 -0.061911 1.671781 -0.000820 -0.000468 4076380.000000 1 0 0
2.406338 -9.257489 -2.401558 9.862000 -1.316490 1.816786 -0.005380 0.001471 2005870.000000 1 0 0
-7.004962 12.202211 4.878242 14.891631 -1.049659 1.237052 0.001413 -0.004517 362993.000000 1 0 0
-14.893362 0.325111 0.089542 14.897179 -0.021826 1.564786 0.004103 -0.003820 226291.000000 1 0 0
6.819938 -0.469989 3.895342 7.868045 -0.068805 1.052865 -0.001259 0.000459 259086.000000 1 0 0
-4.254662 -5.019189 5.098242 8.323850 0.867651 0.911595 0.002775 -0.004400 883178.000000 1 0 0
2.897638 5.058711 6.853942 8.997965 1.050616 0.704831 -0.008813 0.004484 -871180.000000 1 0 0
2.088938 -7.186389 1.819742 7.701903 -1.287912 1.332269 -0.002583 -0.000076 2360650.000000 1 0 0
-2.431062 6.500211 -1.761958 7.160119 -1.212905 1.819430 0.000200 0.000456 713806.000000 1 0 0
2.709938 -3.812589 -6.542658 8.042759 -0.952868 2.520915 -0.002750 -0.004324 -987528.000000 1 0 0
-5.059562 0.910811 -12.067258 13.116687 -0.178110 2.738859 0.003164 -0.002004 439979.000000 1 0 0
-7.453062 6.413611 -11.860858 15.406573 -0.710578 2.449413 -0.003990 -0.000651 1798760.000000 1 0 0
-0.942162 11.248711 -9.009458 14.442697 -1.487234 2.244401 -0.000750 0.000725 141700.000000 1 0 0
4.578838 5.989711 -0.598458 7.563104 0.918111 1.650008 -0.003521 -0.000148 1061830.000000 1 0 0
-2.547062 13.383911 3.500542 14.066641 -1.382737 1.319299 0.002717 0.001887 468849.000000 1 0 0
1.343838 -7.935689 10.225942 13.013491 -1.403047 0.666815 -0.001723 0.000815 -219794.000000 1 0 0
12.954338 -0.226589 -1.160558 13.008194 -0.017490 1.660133 0.010398 -0.000805 585609.000000 1 0 0
-1.026562 3.125211 -5.418458 6.338806 -1.253422 2.595976 0.003554 -0.005827 1033440.000000 1 0 0
6.593638 1.088611 7.304142 9.900082 0.163624 0.741012 -0.001067 0.000482 1918860.000000 1 0 0
5.458538 -6.201389 6.884342 10.753931 -0.849022 0.876077 -0.002624 0.000750 1406070.000000 1 0 0
12.152438 -4.826289 2.622242 13.336078 -0.378043 1.372879 0.006741 -0.000960 -564400.000000 1 0 0
4.474738 -9.202089 13.881842 17.245499 -1.118190 0.635198 -0.005767 0.000469 784206.000000 1 0 0
-2.690762 -4.302089 -1.424458 5.270413 1.011870 1.844474 0.004003 -0.004969 1592610.000000 1 0 0
-9.344862 -5.180089 -7.604258 13.114287 0.506158 2.189335 0.008997 -0.005384 941567.000000 1 0 0
-10.604762 -3.174389 7.820342 13.553430 0.290848 0.955744 0.000589 -0.000609 579425.000000 1 0 0
12.051038 -0.602289 1.610642 12.173103 -0.049937 1.438096 0.007629 -0.002655 785978.000000 1 0 0
-7.508962 4.793011 4.403742 9.937324 -0.568110 1.111685 0.005198 -0.001057 2609590.000000 1 0 0
-1.020762 10.607311 7.021342 12.761514 -1.474860 0.988197 -0.000377 0.006156 2338440.000000 1 0 0
7.332438 -9.982989 1.931242 12.536124 -0.937294 1.416126 -0.007099 0.001621 1198330.000000 1 0 0
-4.302462 -1.712489 1.683542 4.927282 0.378803 1.222095 0.001291 -0.002291 1693190.000000 1 0 0
6.655338 -15.071189 -0.880558 16.498777 -1.154955 1.624193 0.004621 0.003214 -344430.000000 1 0 0
-10.489762 1.672011 2.374642 10.884377 -0.158065 1.350858 0.000763 -0.000101 1365930.000000 1 0 0
-3.050362 8.317011 -11.334258 14.385506 -1.219268 2.478178 -0.000842 0.003417 -1107660.000000 1 0 0
-1.282962 -5.125089 -6.862058 8.660276 1.325507 2.485465 -0.002304 -0.003234 428969.000000 1 0 0
12.856138 -0.546289 6.469442 14.402513 -0.042467 1.104940 0.011295 -0.005701 1548610.000000 1 0 0
5.872738 -13.377789 3.844842 15.107518 -1.157135 1.313467 -0.008571 0.002052 2198070.000000 1 0 0
-5.526562 3.461311 -4.977558 8.203636 -0.559537 2.222762 0.004913 -0.004303 1019890.000000 1 0 0
-4.328562 8.094711 3.429842 9.799215 -1.079745 1.213213 0.001507 0.002300 580394.000000 1 0 0
13.873938 6.082011 -3.958558 15.657177 0.413146 1.826397 0.006978 0.004166 -217806.000000 1 0 0
-6.781562 -8.428989 5.327142 12.058851 0.893286 1.113235 0.002268 -0.002740 30914.300000 1 0 0
1.798938 11.311911 2.793142 11.789705 1.413087 1.331609 0.000738 0.000110 431004.000000 1 0 0
-7.335462 7.347711 6.042942 12.013118 -0.786232 1.043697 0.002319 -0.003769 781763.000000 1 0 0
-17.297762 -4.072089 5.190442 18.513108 0.231202 1.286621 0.008201 -0.009076 -663801.000000 1 0 0
7.464038 -12.994489 -8.568558 17.262352 -1.049413 2.090212 0.007276 -0.000307 -814026.000000 1 0 0
-2.278162 12.873811 -2.700358 13.349793 -1.395649 1.774479 -0.001181 -0.000158 2807050.000000 1 0 0
-5.472562 13.899411 -5.667758 15.977047 -1.195710 1.933436 0.009891 -0.000827 3110490.000000 1 0 0
-5.563062 2.403111 7.397642 9.562829 -0.407765 0.686320 -0.001749 -0.000233 1086810.000000 1 0 0
-7.398262 5.129011 1.445642 9.117616 -0.606196 1.411570 0.004736 -0.000580 1337920.000000 1 0 0
10.721438 -5.674689 -5.067458 13.146500 -0.486800 1.966503 0.009937 -0.003009 2310480.000000 1 0 0
-9.504362 -0.744589 6.800842 11.710626 0.078182 0.951158 0.001450 -0.001620 560999.000000 1 0 0
-11.318062 -4.594189 -2.632458 12.495397 0.385596 1.783061 0.006155 -0.003162 1762430.000000 1 0 0
6.626738 -4.393389 13.554242 15.714102 -0.585445 0.530503 0.004398 -0.005641 -1363930.000000 1 0 0
0.226738 10.305211 -11.667658 15.568655 1.548798 2.418001 -0.000329 0.001859 -1024090.000000 1 0 0
-11.819562 -3.199089 1.385142 12.322939 0.264327 1.458155 0.006389 -0.003886 3307910.000000 1 0 0
5.207338 5.908511 5.366442 9.530245 0.848393 0.972669 -0.004018 0.003184 -5914150.000000 1 0 0
-7.102862 -0.031089 8.095142 10.769537 0.004377 0.720205 0.000189 0.001367 -92217.700000 1 0 0
1.663338 2.074911 9.644142 10.004070 0.895054 0.269058 -0.003034 -0.000477 1118810.000000 1 0 0
10.446338 -4.881989 -2.011858 11.705015 -0.437180 1.743534 0.004110 0.000150 1794170.000000 1 0 0
-9.636162 -2.383989 -1.641758 10.061530 0.242530 1.734701 0.004674 -0.004212 555567.000000 1 0 0
-2.048562 -5.188789 -9.882258 11.348091 1.194776 2.627685 0.003143 -0.003597 1983640.000000 1 0 0
7.613838 -1.614489 6.506342 10.144436 -0.208952 0.874513 -0.000121 -0.000720 1677140.000000 1 0 0
1.560238 -11.881089 -2.617658 12.265674 -1.440222 1.785864 -0.005178 0.002512 -4668810.000000 1 0 0
-0.694662 -1.608189 4.802542 5.112067 1.163051 0.349769 -0.002823 -0.000200 1387300.000000 1 0 0
7.652238 1.482311 9.909842 12.607892 0.191340 0.666479 -0.002308 0.000693 -116003.000000 1 0 0
-3.817262 10.802311 -8.000958 13.974146 -1.231118 2.180414 0.002757 0.000846 2371310.000000 1 0 0
-9.480762 12.646911 6.373542 17.042630 -0.927519 1.187503 0.014672 -0.006036 728301.000000 1 0 0
-2.492962 -2.398289 -11.014658 11.545101 0.766045 2.837285 0.007243 -0.006865 -2667850.000000 1 0 0
1.171138 -11.920989 11.141542 16.358958 -1.472869 0.821578 -0.005188 0.000190 2797630.000000 1 0 0
1.415638 3.569911 -1.906558 4.287570 1.193270 2.031603 -0.004732 -0.001640 3207410.000000 1 0 0
-1.952662 -9.418189 -12.088958 15.448563 1.366364 2.469515 0.000224 0.000892 1176750.000000 1 0 0
1.271238 -2.679189 1.549442 3.345874 -1.127767 1.089318 0.001696 -0.000880 3094650.000000 1 0 0
-1.064362 -2.215789 -6.584958 7.028817 1.122989 2.784313 0.000651 -0.008859 200699.000000 1 0 0
1.840438 5.778511 4.093842 7.316962 1.262457 0.977014 -0.010726 0.005163 -2159610.000000 1 0 0
-11.006262 8.597611 3.617242 14.427098 -0.663145 1.317367 0.001703 -0.001476 3312460.000000 1 0 0
-16.400962 -1.601389 3.878142 16.929146 0.097331 1.339663 0.013842 -0.000898 -1167550.000000 1 0 0
-12.233062 0.255911 6.831942 14.013876 -0.020917 1.061558 0.002241 0.001923 806294.000000 1 0 0
-5.051562 3.046411 4.690542 7.536583 -0.542669 0.899030 0.000818 0.001062 2278500.000000 1 0 0
5.202438 -6.136889 3.981742 8.976694 -0.867620 1.111225 -0.006391 0.001393 1931980.000000 1 0 0
9.911938 3.419111 6.310342 12.237534 0.332168 1.029025 0.000351 0.001271 2901110.000000 1 0 0
-12.158462 5.820811 3.160142 13.845452 -0.446500 1.340523 0.003192 -0.000468 1906590.000000 1 0 0
-4.905962 12.403111 -1.230558 13.394771 -1.194138 1.662795 0.003503 0.000094 935522.000000 1 0 0
-1.782562 -12.170989 10.300742 16.044182 1.425370 0.873662 0.010309 -0.006489 2228700.000000 1 0 0
5.213938 6.411611 13.915842 16.184701 0.888057 0.535890 0.008345 -0.004450 1442780.000000 1 0 0
12.887538 -3.682589 -6.012158 14.690002 -0.278331 1.992449 0.010075 -0.004064 1571900.000000 1 0 0
3.560238 -2.569189 6.379642 7.744408 -0.625098 0.602760 -0.001449 0.001331 435764.000000 1 0 0
7.193938 -11.932289 -0.530958 13.943249 -1.028250 1.608886 -0.003045 0.005591 -1496600.000000 1 0 0
-5.988062 -6.497989 -4.108958 9.744962 0.826215 2.006060 0.012566 -0.005583 -737374.000000 1 0 0
0.321638 -8.932189 5.129242 10.305172 -1.534803 1.049811 0.004348 -0.001683 1671830.000000 1 0 0
-10.310262 2.480711 -0.397958 10.611965 -0.236118 1.608306 -0.000178 -0.000841 -853648.000000 1 0 0
-1.848562 9.047011 -0.340058 9.240196 -1.369242 1.607607 0.001114 0.000501 446353.000000 1 0 0
-3.462062 2.266411 -6.652958 7.834816 -0.579631 2.585176 0.009273 -0.008593 1038650.000000 1 0 0
-12.661262 3.047311 6.368642 14.496664 -0.236188 1.115957 0.004630 -0.000390 503239.000000 1 0 0
11.343838 1.531011 7.957042 13.940630 0.134153 0.963340 0.006217 -0.005392 -972395.000000 1 0 0
6.032438 2.710511 -3.271558 7.378365 0.422290 2.030183 -0.005801 0.002286 420429.000000 1 0 0
10.510538 -2.333589 6.385642 12.517726 -0.218480 1.035463 0.006817 -0.001973 3193250.000000 1 0 0
-0.881262 11.002711 4.107342 11.777373 -1.490872 1.214561 0.001156 0.003408 1749400.000000 1 0 0
-1.599162 -12.261589 7.420442 14.421056 1.441108 1.030306 0.002958 0.001117 -563941.000000 1 0 0
8.099538 8.727611 -7.797358 14.232797 0.822706 2.150582 0.004053 -0.001096 2295370.000000 1 0 0
-4.730762 -5.968689 -8.759958 11.607852 0.900586 2.425929 0.007355 -0.004460 408963.000000 1 0 0
-8.498062 -5.353689 -11.620558 15.359571 0.562179 2.428845 0.005448 -0.000824 2014000.000000 1 0 0
5.991138 -0.678689 -9.957158 11.640419 -0.112801 2.597110 -0.004088 0.000373 531341.000000 1 0 0
-11.231762 -5.488889 -5.367058 13.604621 0.454562 1.976323 0.006807 -0.007920 6956.270000 1 0 0
3.871338 8.934711 -2.735158 10.114218 1.161923 1.844633 0.002723 -0.003985 1279440.000000 1 0 0
11.647638 -10.465789 -3.970858 16.154502 -0.732004 1.819146 0.011716 -0.001056 -137595.000000 1 0 0
3.943338 -11.390789 3.896542 12.668190 -1.237523 1.258143 -0.008832 0.001792 357281.000000 1 0 0
-0.984362 0.720611 3.222742 3.445912 -0.631919 0.361871 -0.003406 -0.000408 -481483.000000 1 0 0
-10.650862 -5.059789 4.458342 12.606314 0.443497 1.209316 0.004202 -0.004253 3320260.000000 1 0 0
4.585838 -8.718089 2.886042 10.264708 -1.086555 1.285792 -0.007994 0.002275 4676890.000000 1 0 0
-3.752862 -5.704789 2.590742 7.303461 0.988927 1.208173 0.003333 -0.002404 1813610.000000 1 0 0
10.026938 5.061011 12.366342 16.705679 0.467434 0.737358 0.015740 -0.001216 629338.000000 1 0 0
1.609438 -12.287089 -5.327658 13.488766 -1.440552 1.976832 -0.002401 0.000416 1070830.000000 1 0 0
9.785838 -10.822789 -1.712358 14.691071 -0.835672 1.687620 0.003246 -0.000632 1821610.000000 1 0 0
9.623338 -4.558289 -9.284158 14.127358 -0.442363 2.287862 0.010101 -0.003250 2141170.000000 1 0 0
-7.382862 -3.156689 -13.098458 15.363624 0.404045 2.591666 0.003489 0.000597 1161540.000000 1 0 0
0.389538 6.289811 -2.501358 6.780137 1.508944 1.948648 -0.001616 -0.000522 1924540.000000 1 0 0
-5.984962 -9.529589 0.999042 11.297386 1.010014 1.482249 0.004981 -0.002040 477466.000000 1 0 0
-8.985562 -4.085989 0.605042 9.889475 0.426779 1.509578 0.002123 -0.003094 2513330.000000 1 0 0
1.857438 3.844911 12.095542 12.827141 1.120768 0.339369 0.002073 -0.005280 654485.000000 1 0 0
6.574738 4.297811 9.617842 12.417779 0.578962 0.684837 -0.003666 0.002874 3164500.000000 1 0 0
-8.265462 9.823411 -3.553058 13.320716 -0.871314 1.840797 0.002648 0.001703 1934460.000000 1 0 0
16.309138 2.112811 -6.072258 17.530667 0.128830 1.924505 0.010301 -0.001170 482608.000000 1 0 0
-10.957362 2.619611 -5.201258 12.408837 -0.234668 2.003314 -0.002066 0.001178 1536330.000000 1 0 0
-13.782462 4.029211 1.457542 14.433130 -0.284418 1.469638 0.002201 0.002155 -251049.000000 1 0 0
-17.437362 10.536711 3.174842 20.619493 -0.543546 1.416209 0.023628 -0.003210 896560.000000 1 0 0
-14.270062 2.870611 -1.243458 14.608945 -0.198514 1.656016 -0.001166 0.001721 1578640.000000 1 0 0
-14.433962 5.064911 5.093042 16.122396 -0.337478 1.249393 0.003439 0.001539 1528100.000000 1 0 0
-17.455562 7.597911 3.034742 19.277825 -0.410539 1.412717 0.011384 0.000102 -2277570.000000 1 0 0
-14.852962 12.608611 -3.432558 19.783074 -0.703852 1.745189 0.015738 -0.009046 -689219.000000 1 0 0
-8.429262 12.591611 -9.519258 17.894619 -0.980880 2.131712 -0.002184 -0.009159 2014050.000000 1 0 0
-12.334562 8.802011 -9.991958 18.150924 -0.619799 2.153751 -0.004470 0.002815 -772734.000000 1 0 0
-13.824962 -3.502389 -12.264258 18.809794 0.248118 2.281035 0.006390 0.004051 -1435640.000000 1 0 0
-14.779062 5.785611 -7.738258 17.657141 -0.373134 2.024448 0.003950 0.009903 1600380.000000 1 0 0
-10.917462 13.696511 -8.365058 19.410296 -0.897827 2.016353 0.008378 -0.007650 1409520.000000 1 0 0
-10.916062 13.530411 3.912842 17.819729 -0.891935 1.349413 0.016593 -0.004514 -960267.000000 1 0 0
-15.233262 3.248311 2.999742 15.861975 -0.210091 1.380535 0.005138 0.002994 1447210.000000 1 0 0
-10.952962 9.453611 -12.524458 19.136358 -0.712056 2.284298 -0.006287 -0.004521 867865.000000 1 0 0
-12.974762 11.558711 -9.181458 19.653179 -0.727743 2.056888 -0.001435 -0.010491 -714753.000000 1 0 0
-8.798862 14.673911 -3.415658 17.447360 -1.030652 1.767838 0.011315 -0.005860 1606130.000000 1 0 0
-16.603762 8.300911 -4.047058 18.999177 -0.463601 1.785453 0.005672 0.003644 -1268670.000000 1 0 0
-16.784962 6.782111 0.236342 18.104912 -0.384000 1.557742 0.004634 -0.000815 -520240.000000 1 0 0
-10.460462 2.781611 -12.585358 16.599695 -0.259902 2.431295 0.005530 0.000279 56129.100000 1 0 0
-16.910062 0.828011 2.196042 17.072153 -0.048926 1.441806 0.004790 0.001966 257325.000000 1 0 0
-12.613462 1.133311 -6.983958 14.462348 -0.089609 2.074767 -0.001234 -0.000780 490062.000000 1 0 0
-12.247262 9.018011 -5.539658 16.186654 -0.634694 1.920092 0.002201 0.002394 -1895610.000000 1 0 0
-9.727462 14.002211 1.225542 17.093489 -0.963630 1.499038 0.013292 -0.005833 1170620.000000 1 0 0
-12.284062 11.088911 2.724742 16.771593 -0.734309 1.407611 0.014527 -0.000896 1062390.000000 1 0 0
-12.679362 6.846311 -3.672658 14.870327 -0.495100 1.820358 -0.000781 0.002979 348003.000000 1 0 0
-15.761062 3.642311 -9.515058 18.767361 -0.227109 2.102497 0.004936 0.006151 -1276610.000000 1 0 0
-15.176362 5.841511 -4.738658 16.938126 -0.367429 1.854343 0.001658 0.010410 1127530.000000 1 0 0
-17.926862 5.243011 7.521242 20.135308 -0.284531 1.187979 0.014145 0.001326 -901238.000000 1 0 0
-15.815462 10.223811 -1.994058 18.937566 -0.573871 1.676288 0.015880 -0.003510 -1943560.000000 1 0 0
-8.807162 10.001711 -8.291558 15.695549 -0.848823 2.127363 0.000069 -0.003028 -157303.000000 1 0 0
-16.950862 4.240611 -1.288158 17.520669 -0.245139 1.644385 -0.005484 0.004217 707182.000000 1 0 0
-10.334262 5.369111 -4.561258 12.507174 -0.479161 1.944098 0.000065 0.000471 1013110.000000 1 0 0
-18.233062 2.719911 6.068942 19.408105 -0.148083 1.252761 0.013949 -0.000838 198416.000000 1 0 0
-10.325962 10.039811 -5.722158 15.497303 -0.771348 1.948983 -0.001350 -0.003482 960566.000000 1 0 0
-15.314762 0.435611 -5.960558 16.439585 -0.028436 1.941824 -0.000912 0.004078 -840823.000000 1 0 0
-16.411062 -4.138789 -8.970958 19.155433 0.247044 2.058190 0.008555 -0.009864 -1296880.000000 1 0 0
-9.962662 9.608811 -1.078458 13.883334 -0.767320 1.648555 -0.000568 -0.000277 614712.000000 1 0 0
-17.345762 -3.006789 -3.314058 17.913660 0.171639 1.756870 0.009464 0.000789 -34891.900000 1 0 0
-11.959862 5.061911 -11.668558 17.458995 -0.400380 2.302772 0.003089 0.003623 154241.000000 1 0 0
-16.414962 7.083711 5.865042 18.815649 -0.407397 1.253803 0.013317 0.004914 488669.000000 1 0 0
-12.110562 5.983111 -8.971058 16.215524 -0.458869 2.157044 0.002491 0.004786 2857320.000000 1 0 0
-14.510962 8.509911 -0.020258 16.822218 -0.530394 1.572001 0.005863 -0.001322 1744400.000000 1 0 0
-14.909662 11.844811 3.827542 19.422864 -0.671341 1.372434 0.017115 -0.006777 525748.000000 1 0 0
-17.413362 4.129311 -4.058158 18.350614 -0.232834 1.793785 0.007138 0.009359 -962913.000000 1 0 0
-13.757262 13.442811 -0.850958 19.253456 -0.773838 1.615008 0.021354 -0.011028 -904344.000000 1 0 0
-9.986762 6.812311 -13.164058 17.872757 -0.598635 2.398742 -0.010065 -0.002892 -1181400.000000 1 0 0
-15.763262 -1.168489 -8.441458 17.919376 0.073992 2.061311 -0.000777 -0.001704 -303801.000000 1 0 0
-11.477462 11.884111 -0.121458 16.522075 -0.802803 1.578148 0.011381 -0.005448 -557119.000000 1 0 0
-12.008262 7.410611 -0.958858 14.143370 -0.552917 1.638644 -0.003912 0.003015 2376770.000000 1 0 0
-11.386762 0.162411 -11.762558 16.372004 -0.014262 2.372376 0.002912 -0.000172 -678340.000000 1 0 0
-18.910162 -1.166689 -4.884958 19.565741 0.061618 1.823135 -0.000157 0.005787 -993792.000000 1 0 0
-17.900462 1.527911 -5.275358 18.724061 -0.085150 1.856406 -0.001927 0.010806 -240052.000000 1 0 0
-13.212862 -0.163189 -9.545158 16.300810 0.012350 2.196371 -0.000090 -0.002990 -418556.000000 1 0 0
-6.069862 11.395311 -13.236558 18.490614 -1.081361 2.368641 -0.013614 0.005680 -1424780.000000 1 0 0
16.338538 5.666011 7.055442 18.677011 0.333811 1.183420 0.024063 -0.010084 450041.000000 1 0 0
14.959138 10.097111 -5.320858 18.815924 0.593736 1.857493 0.027501 0.000930 1285520.000000 1 0 0
2.545338 16.874811 4.473142 17.642193 1.421088 1.314450 0.017453 -0.005538 2340390.000000 1 0 0
-3.877062 18.281211 -5.823658 19.574199 -1.361814 1.872887 0.003249 -0.000839 605510.000000 1 0 0
5.604138 14.578911 5.637542 16.605206 1.203810 1.224406 0.006706 0.000735 669543.000000 1 0 0
10.035138 5.910411 15.172642 19.127101 0.532271 0.654662 0.033985 -0.006390 -1085760.000000 1 0 0
4.732038 12.731711 -1.132858 13.629821 1.214945 1.654008 0.002239 -0.004421 1466010.000000 1 0 0
3.683338 13.536411 13.117742 19.206159 1.305123 0.818939 0.006172 -0.005531 -1456990.000000 1 0 0
-0.724062 12.416611 9.262242 15.507598 -1.512548 0.930702 0.002836 0.003616 -151935.000000 1 0 0
-7.759862 14.041211 8.337242 18.079841 -1.065922 1.091523 0.019920 -0.012036 1246360.000000 1 0 0
11.416538 12.869911 -4.199058 17.708869 0.845170 1.810193 0.017517 0.001968 -363148.000000 1 0 0
-5.666662 16.119411 0.934942 17.112001 -1.232748 1.516133 0.008686 -0.004468 792032.000000 1 0 0
3.299238 10.595911 6.848442 13.040684 1.268942 1.017894 -0.001747 0.009871 1963080.000000 1 0 0
-1.173762 15.596811 2.354942 15.817205 -1.495681 1.421356 0.004680 -0.002340 -2422100.000000 1 0 0
9.910338 8.774311 9.518242 16.303382 0.724673 0.947370 0.007454 0.000511 1972970.000000 1 0 0
7.431138 12.244911 6.237942 15.622790 1.025337 1.160060 -0.004722 0.004659 1987080.000000 1 0 0
11.893538 13.954611 -1.502358 18.396861 0.864968 1.652551 0.003125 0.000509 450960.000000 1 0 0
9.708138 15.898611 -1.228558 18.668774 1.022599 1.636652 0.005875 -0.003477 1479670.000000 1 0 0
10.115138 13.755411 3.011042 17.337639 0.936733 1.396240 -0.004867 0.004233 3175880.000000 1 0 0
-5.942462 14.677211 6.239242 17.019445 -1.186093 1.195450 0.003385 -0.001582 1077840.000000 1 0 0
-0.925462 18.303811 -6.166258 19.336719 -1.520278 1.895353 0.014852 0.007223 1087250.000000 1 0 0
-3.455962 15.737011 5.343542 16.975000 -1.354621 1.250562 0.002537 -0.003135 2455720.000000 1 0 0
7.125138 12.311811 10.616742 17.750027 1.046168 0.929636 -0.004272 0.001045 3814260.000000 1 0 0
1.583138 14.630911 6.313142 16.013295 1.463011 1.165552 0.005837 0.004036 5324.380000 1 0 0
17.404638 7.601011 -1.328458 19.038424 0.411758 1.640631 -0.003635 0.009151 540254.000000 1 0 0
2.132638 16.237811 -3.255958 16.697782 1.440206 1.767047 -0.002455 -0.001354 899490.000000 1 0 0
6.742438 11.247911 0.642742 13.129702 1.030789 1.521824 0.001043 0.000498 1636160.000000 1 0 0
12.623438 9.125311 3.212842 15.904239 0.625921 1.367385 -0.003915 0.003451 -2827460.000000 1 0 0
6.058038 14.376511 -3.402358 15.967465 1.171992 1.785523 -0.002424 0.000709 644928.000000 1 0 0
3.206338 16.473811 1.607842 16.859781 1.378567 1.475286 0.008965 -0.009728 -290839.000000 1 0 0
2.941038 18.850011 -2.486458 19.239415 1.416021 1.700397 0.014605 -0.013993 44425.200000 1 0 0
4.008138 11.899111 10.647842 16.463005 1.245890 0.867449 0.002967 0.000273 2329120.000000 1 0 0
8.112338 11.509511 3.370642 14.478953 0.956831 1.335845 -0.006518 0.005349 1437670.000000 1 0 0
0.922838 12.436311 0.306242 12.474263 1.496727 1.546244 0.003400 -0.001544 -2765410.000000 1 0 0
11.959938 9.907811 -4.625558 16.204957 0.691830 1.860263 0.008949 0.003873 2838340.000000 1 0 0
-1.262062 16.468711 9.953642 19.284352 -1.494312 1.028445 0.008121 0.004985 -165050.000000 1 0 0
8.169338 14.761611 -7.966358 18.657602 1.065333 2.011943 0.021201 -0.007211 3371790.000000 1 0 0
14.458738 7.551611 -1.343958 16.367289 0.481318 1.653001 0.000267 0.004873 1906500.000000 1 0 0
12.455838 8.263611 5.991542 16.103842 0.585760 1.189573 -0.000364 -0.002220 -1635430.000000 1 0 0
-2.966862 14.226111 10.245242 17.780593 -1.365193 0.956720 0.009335 -0.005285 2692220.000000 1 0 0
-4.603762 17.202011 -3.099758 18.075185 -1.309295 1.743141 0.014144 -0.006321 772102.000000 1 0 0
-7.053762 16.415611 -1.643458 17.942374 -1.164953 1.662521 0.011184 -0.006451 462842.000000 1 0 0
8.379438 11.349111 -1.854258 14.228688 0.934803 1.701486 0.004050 -0.000358 -1017270.000000 1 0 0
8.561338 12.940311 -4.205858 16.075988 0.986308 1.835500 0.014283 -0.001400 2791380.000000 1 0 0
2.614938 14.814611 -7.313058 16.726967 1.396085 2.023281 -0.004423 -0.001126 -1427070.000000 1 0 0
11.450738 11.219811 9.761142 18.769215 0.775212 1.023874 0.006712 -0.002704 -25050.500000 1 0 0
8.709538 15.791611 1.537542 18.099587 1.066780 1.485745 0.000986 0.000439 2280170.000000 1 0 0
6.097838 9.857711 7.728642 13.931618 1.016823 0.982727 -0.000741 0.008069 1796110.000000 1 0 0
14.360538 11.285011 2.755442 18.470760 0.666044 1.421059 -0.004253 0.004330 468463.000000 1 0 0
12.107338 12.600011 1.163442 17.512895 0.805336 1.504314 0.000408 0.003061 4011370.000000 1 0 0
5.477338 15.831211 8.285942 18.689176 1.237704 1.111458 0.017169 0.000781 -667077.000000 1 0 0
11.510538 15.021211 5.197242 19.624999 0.916954 1.302771 0.000392 0.005152 239033.000000 1 0 0
6.069138 17.105811 1.859542 18.245577 1.229852 1.468702 0.003480 -0.005815 347189.000000 1 0 0
-0.618762 16.235811 -4.198058 16.781183 -1.532704 1.823647 0.006530 0.001126 508766.000000 1 0 0
16.065038 6.383211 2.605642 17.481996 0.378207 1.421192 -0.005159 0.001980 -1719840.000000 1 0 0
7.768338 16.771711 -3.178558 18.754748 1.137035 1.741099 0.004747 -0.003461 66782.900000 1 0 0
14.798638 8.047211 7.480542 18.431380 0.498056 1.152878 0.017069 -0.006373 -214258.000000 1 0 0
2.157938 12.942411 8.582842 15.678899 1.405582 0.991526 0.007747 0.008678 2064880.000000 1 0 0
15.902038 7.248711 -5.689258 18.378963 0.427696 1.885519 0.004449 0.004941 -1320530.000000 1 0 0
-2.945562 17.065911 0.706142 17.332636 -1.399881 1.530044 0.004417 -0.004679 -277239.000000 1 0 0
-2.688662 18.561311 4.665942 19.326722 -1.426944 1.326963 0.001507 -0.004540 -1058930.000000 1 0 0
-0.830162 19.151511 0.930842 19.192082 -1.527476 1.522276 0.002188 -0.005799 47697.500000 1 0 0
6.993638 16.829911 -6.083358 19.213644 1.176959 1.892957 0.007650 -0.002482 413625.000000 1 0 0
10.998038 10.059611 0.812542 14.926916 0.740863 1.516335 0.002118 0.002497 -2055410.000000 1 0 0
9.304438 8.563611 14.242942 19.046506 0.743961 0.726057 0.031392 -0.011638 256004.000000 1 0 0
6.386938 12.359711 -8.340458 16.220933 1.093835 2.110846 0.012612 -0.007849 518969.000000 1 0 0
6.469338 9.041311 13.312742 17.344357 0.949723 0.695779 0.012955 -0.008902 1575100.000000 1 0 0
16.655738 9.403911 2.999542 19.360899 0.513987 1.415242 0.003342 0.000754 -2667910.000000 1 0 0
2.673938 14.721011 -0.710658 14.978756 1.391114 1.618259 0.004085 -0.005288 -490525.000000 1 0 0
9.348038 12.868911 8.385542 17.980878 0.942568 1.085626 0.001745 0.000966 1804000.000000 1 0 0
7.230838 9.393011 10.520142 15.848882 0.914737 0.844937 0.002231 -0.000136 399214.000000 1 0 0
4.330438 15.826511 -5.264258 17.232050 1.303714 1.881252 0.000575 -0.000939 2101220.000000 1 0 0
0.328638 16.402611 -8.088058 18.291264 1.550763 2.028826 -0.000076 0.003316 -218862.000000 1 0 0
-2.402862 15.740211 -1.959858 16.042725 -1.419308 1.693267 0.002334 -0.002603 -1076990.000000 1 0 0
13.372238 10.443111 7.661842 18.616636 0.663020 1.146632 0.014121 -0.007747 961712.000000 1 0 0
-1.016362 15.849011 7.014742 17.361761 -1.506756 1.154874 0.006382 -0.001954 1090720.000000 1 0 0
13.251338 13.351211 6.812642 20.006621 0.789152 1.223327 0.007318 -0.000226 623489.000000 1 0 0
5.452538 17.464711 4.649242 18.877546 1.268182 1.321952 0.011757 -0.004204 -679731.000000 1 0 0
10.791138 9.549811 -1.905458 14.535416 0.724448 1.702265 0.004542 0.002168 339548.000000 1 0 0
3.383238 12.690411 4.802242 13.984075 1.310258 1.220253 0.004653 0.004558 2729240.000000 1 0 0
-0.077062 17.973311 3.565342 18.323687 -1.566509 1.374972 0.005796 -0.007719 1261370.000000 1 0 0
-7.608862 16.009511 -5.751858 18.635533 -1.127127 1.884570 0.020097 -0.009590 -1272490.000000 1 0 0
-12.504062 -9.072689 8.255642 17.516303 0.627688 1.080019 0.010859 -0.010085 19606.500000 1 0 0
-13.183062 -11.670089 6.771242 18.863558 0.724597 1.203644 0.005866 -0.010360 -1084340.000000 1 0 0
-6.594462 -12.018689 12.358042 18.456896 1.068964 0.837177 0.010691 -0.014264 -695451.000000 1 0 0
-1.681862 -10.603589 14.364942 17.933664 1.413494 0.641825 -0.006723 -0.008631 -445522.000000 1 0 0
-8.812762 2.911511 10.957942 14.360298 -0.319085 0.702743 0.002060 0.000940 1107820.000000 1 0 0
0.553238 9.997611 15.262542 18.253862 1.515516 0.580613 0.010219 -0.008609 566398.000000 1 0 0
1.072238 -6.778789 16.610142 17.972158 -1.413921 0.391821 -0.000405 -0.005629 2538860.000000 1 0 0
6.020238 2.519011 17.648042 18.816005 0.396287 0.354192 0.024874 -0.017960 2919610.000000 1 0 0
-5.147762 -3.042389 17.646042 18.631650 0.533784 0.326719 0.017631 -0.007991 726709.000000 1 0 0
-4.369762 8.096011 12.970542 15.902049 -1.075862 0.616941 0.002966 -0.002250 -729757.000000 1 0 0
0.049638 -4.981489 18.632242 19.286734 -1.560832 0.261261 0.008264 -0.011451 702431.000000 1 0 0
-11.532962 2.033811 11.135542 16.160009 -0.174553 0.810577 0.004016 0.001649 930280.000000 1 0 0
-3.320762 -6.036989 14.358042 15.925641 1.067900 0.447417 0.012678 -0.011483 1593130.000000 1 0 0
-7.462062 -2.335689 14.631142 16.589398 0.303348 0.490797 0.010595 -0.002024 298930.000000 1 0 0
-6.097362 -1.103989 10.509342 12.200118 0.179120 0.532751 0.003658 -0.000047 366270.000000 1 0 0
-3.937662 2.445611 11.176442 12.099547 -0.555777 0.393149 -0.003492 0.001223 -73593.100000 1 0 0
-6.435862 6.286811 13.441542 16.174651 -0.773683 0.589848 -0.006352 0.000873 -7700.500000 1 0 0
-9.069662 5.489211 12.542642 16.422791 -0.544255 0.701719 -0.001781 -0.000110 -1473810.000000 1 0 0
-12.251662 -2.314589 15.860242 20.174435 0.186720 0.666233 0.014113 0.001614 1380460.000000 1 0 0
-3.375462 -7.571589 16.956342 18.874327 1.151435 0.454726 0.011154 -0.014262 -1379980.000000 1 0 0
-0.454562 -5.302489 14.472642 15.420129 1.485279 0.352376 0.006163 -0.005809 1473330.000000 1 0 0
-14.292362 -2.245189 13.683042 19.913265 0.155817 0.813262 0.015453 0.003282 59881.800000 1 0 0
-6.413562 1.494011 12.161442 13.829914 -0.228864 0.496285 0.001232 0.000812 2742460.000000 1 0 0
2.232038 -2.173289 14.518342 14.848819 -0.772063 0.211373 0.005713 -0.004020 57530.600000 1 0 0
-12.502562 4.024611 9.171942 16.019865 -0.311428 0.961201 0.001229 0.000039 -829033.000000 1 0 0
-9.115162 -3.015389 12.549542 15.800941 0.319478 0.653061 0.005893 0.000284 1654530.000000 1 0 0
-7.043162 -7.231389 15.221342 18.264401 0.798584 0.585586 0.020584 -0.014399 1103960.000000 1 0 0
-3.294062 6.125011 19.466542 20.671547 -1.077364 0.343128 0.028909 -0.003128 31449.700000 1 0 0
0.597338 5.476011 16.169442 17.081989 1.462143 0.328342 0.014190 -0.008263 1687720.000000 1 0 0
3.445838 1.532711 16.702842 17.123315 0.418522 0.222067 0.011822 -0.008490 1875180.000000 1 0 0
-11.554062 11.525911 7.978642 18.165949 -0.784178 1.116079 0.013357 -0.004834 498958.000000 1 0 0
0.756938 -9.489589 15.479842 18.172803 -1.491200 0.551359 -0.013707 -0.002159 686476.000000 1 0 0
-2.484462 -3.600989 18.856842 19.357690 0.966855 0.227972 0.017618 -0.012568 1923550.000000 1 0 0
-12.896062 2.243511 13.722242 18.964221 -0.172245 0.761813 0.001250 -0.001868 -402343.000000 1 0 0
-5.414062 -0.636889 15.871142 16.781264 0.117098 0.330853 0.012094 0.001086 874376.000000 1 0 0
-4.530862 -5.977889 11.658742 13.863265 0.922235 0.571703 0.006773 -0.005677 1571780.000000 1 0 0
2.392238 1.800511 13.927942 14.246129 0.645193 0.211748 0.005839 -0.005540 1013600.000000 1 0 0
0.044938 3.314011 14.244642 14.625132 1.557237 0.228604 0.009094 -0.004753 136161.000000 1 0 0
-12.954362 7.166811 12.284742 19.237816 -0.505324 0.878154 0.005037 -0.000410 572617.000000 1 0 0
0.801338 1.483611 18.104542 18.182895 1.075565 0.092869 0.015457 -0.006819 302780.000000 1 0 0
-2.005962 6.493011 12.485342 14.215021 -1.271156 0.498459 -0.000968 -0.001267 683795.000000 1 0 0
-13.559162 -2.698489 10.902242 17.606578 0.196449 0.903055 0.014029 -0.000689 287143.000000 1 0 0
-2.603862 3.689811 13.528642 14.262501 -0.956262 0.322184 0.002108 0.000108 265916.000000 1 0 0
3.436238 6.213311 16.288842 17.769055 1.065619 0.411062 0.014643 -0.010379 -260721.000000 1 0 0
-3.573862 12.380111 12.371842 17.863429 -1.289759 0.805738 0.012671 -0.004511 -619877.000000 1 0 0
3.779538 -1.387689 17.011342 17.481314 -0.351878 0.232403 0.010831 -0.008158 -460167.000000 1 0 0
-15.793662 0.398211 9.145142 18.254642 -0.025208 1.046070 0.008537 0.003064 509495.000000 1 0 0
-4.753462 4.659311 15.225842 16.617185 -0.775396 0.412127 0.008778 0.001033 1436250.000000 1 0 0
-8.032762 -8.129789 10.432942 15.474657 0.791401 0.830922 0.007596 -0.010513 5533850.000000 1 0 0
-2.653362 -0.470889 14.757942 15.001963 0.175640 0.180612 0.007945 -0.001203 1519090.000000 1 0 0
-1.890462 1.048411 17.168542 17.304099 -0.506352 0.125252 0.005912 -0.002168 529940.000000 1 0 0
-0.690362 -2.429489 14.439942 14.659159 1.293935 0.173157 0.008986 -0.002371 -201585.000000 1 0 0
5.064338 -8.259389 16.576742 19.200349 -1.020756 0.528913 -0.006866 -0.001517 -1585.720000 1 0 0
-4.400162 9.978411 10.631842 15.230435 -1.155479 0.798104 0.001733 -0.004324 -1421750.000000 1 0 0
-6.169462 2.065711 15.184242 16.519401 -0.323095 0.404812 0.005106 0.002772 -1392610.000000 1 0 0
-5.144362 6.968711 17.269542 19.320053 -0.934885 0.464901 0.017864 0.007981 1121520.000000 1 0 0
-4.269562 9.283511 15.678742 18.714584 -1.139733 0.577588 0.018762 -0.001125 869422.000000 1 0 0
-4.523862 -10.049689 18.140942 21.226289 1.147818 0.545930 0.017798 -0.018884 -32147.700000 1 0 0
-6.858162 -4.015689 11.079142 13.634791 0.529715 0.622259 0.006634 -0.000756 1716170.000000 1 0 0
-2.371062 -0.775489 19.486942 19.645972 0.316098 0.127324 0.010809 -0.007873 -438027.000000 1 0 0
-5.645662 -4.551689 15.196042 16.837787 0.678527 0.445265 0.014068 -0.010471 1048070.000000 1 0 0
-12.900462 -0.080689 9.762542 16.178246 0.006255 0.922993 0.001953 0.004280 1286870.000000 1 0 0
-14.472062 8.770811 10.449442 19.888653 -0.544857 1.017615 0.009433 -0.002184 -529547.000000 1 0 0
-8.387562 10.557711 12.773242 18.573426 -0.899449 0.812458 0.000959 -0.014803 -1292430.000000 1 0 0
-10.478362 7.189111 10.707742 16.617314 -0.601330 0.870594 0.005890 -0.002867 -563960.000000 1 0 0
-9.795662 -6.588889 14.702242 18.855354 0.592122 0.676549 0.023656 -0.014060 -33151.600000 1 0 0
-0.781262 -13.450689 14.481342 19.779804 1.512778 0.749356 -0.006012 -0.009886 918827.000000 1 0 0
3.918138 -5.686089 16.915442 18.270621 -0.967441 0.387577 0.003417 -0.007783 797994.000000 1 0 0
-7.219262 9.313611 10.430042 15.736799 -0.911405 0.846271 0.000993 -0.007682 490657.000000 1 0 0
-10.331062 -6.751589 11.780042 17.061189 0.578848 0.808674 0.018835 -0.010417 1548330.000000 1 0 0
-10.963262 -3.948189 10.672042 15.801069 0.345670 0.829289 0.010651 0.000457 318268.000000 1 0 0
-10.155862 -10.185189 9.757142 17.380490 0.786840 0.974738 0.008706 -0.011369 1802110.000000 1 0 0
-9.830662 -3.703989 15.224542 18.497246 0.360330 0.604000 0.019161 -0.007315 1132830.000000 1 0 0
5.608038 -3.339589 16.072242 17.347043 -0.537104 0.385762 0.003984 -0.007608 1103840.000000 1 0 0
-11.398062 0.419211 15.400842 19.164485 -0.036763 0.637454 0.012671 0.004947 -595325.000000 1 0 0
-3.130962 3.299911 18.666242 19.212520 -0.811664 0.239036 0.010551 -0.000800 -367605.000000 1 0 0
0.476638 7.353711 13.973842 15.797864 1.506071 0.485289 0.008327 -0.008101 552092.000000 1 0 0
-13.170962 -7.466989 12.115842 19.391333 0.515747 0.895912 0.015027 -0.008135 -97596.500000 1 0 0
-1.566062 -1.151889 12.211642 12.365419 0.634177 0.157873 0.002787 -0.002666 1189630.000000 1 0 0
2.068538 -4.855089 13.143742 14.163639 -1.168032 0.381810 0.003148 -0.003878 -777979.000000 1 0 0
-14.743962 -4.039889 8.646042 17.563005 0.267439 1.056081 0.016343 -0.009130 -655673.000000 1 0 0
8.101438 1.103911 16.196642 18.143404 0.135427 0.467492 0.022949 -0.008729 -716073.000000 1 0 0
-1.226062 11.304311 13.503342 17.653071 -1.462759 0.699866 0.005707 -0.003642 -291646.000000 1 0 0
2.832338 -12.385289 -13.934558 18.857079 -1.345977 2.402316 0.013000 0.011362 -446323.000000 1 0 0
0.824938 -10.733989 -14.039158 17.691722 -1.494094 2.487407 0.001967 0.007038 -965178.000000 1 0 0
3.149438 -14.325089 -12.220958 19.091332 -1.354385 2.265465 0.006215 0.001990 -1579180.000000 1 0 0
-5.263662 -10.264789 -16.260658 19.936927 1.096971 2.524570 0.005095 -0.005663 -340443.000000 1 0 0
-1.036162 -12.364089 -15.048058 19.503548 1.487188 2.452078 0.013578 0.004866 -221826.000000 1 0 0
5.689838 -14.894689 -11.922958 19.909369 -1.205899 2.212875 0.007039 0.007925 242079.000000 1 0 0
1.887938 -11.945789 -16.190358 20.208758 -1.414051 2.500020 0.019079 0.009886 -593697.000000 1 0 0
1.273838 -14.510989 -13.980558 20.190282 -1.483236 2.335662 0.023924 0.013493 -710219.000000 1 0 0
-1.172962 -10.716289 -15.905658 19.214699 1.461774 2.545946 0.005035 0.001026 -372298.000000 1 0 0
-5.905562 -5.548389 -15.156758 17.186844 0.754225 2.650634 0.007324 -0.003927 -75216.200000 1 0 0
-6.470962 -7.601389 -16.537658 19.317055 0.865556 2.598505 0.005695 -0.004600 396931.000000 1 0 0
4.821438 -12.437689 -11.438858 17.572418 -1.200984 2.279639 -0.002741 0.003320 -436178.000000 1 0 0
-1.893062 -15.605189 -13.227458 20.544373 1.450076 2.270313 0.021999 0.008107 95081.100000 1 0 0
15.609738 -7.402589 -9.055158 19.505336 -0.442819 2.053573 0.006079 0.005969 117093.000000 1 0 0
19.253838 -3.642889 -4.445458 20.093358 -0.186993 1.793882 0.023667 -0.012095 516419.000000 1 0 0
14.982538 -11.541489 -8.767058 20.845712 -0.656385 2.004869 0.033130 -0.012843 417097.000000 1 0 0
17.768238 -3.682189 -6.571358 19.299004 -0.204342 1.918248 0.032647 -0.008111 480957.000000 1 0 0
9.600938 -9.154389 -15.411458 20.334549 -0.761593 2.430877 0.031895 -0.009276 400595.000000 1 0 0
1.209738 1.909111 -15.271858 15.438194 1.005990 2.994666 0.005391 -0.001612 178085.000000 1 0 0
4.752638 -4.475089 -13.973058 15.422722 -0.755330 2.704544 -0.001905 -0.000722 669905.000000 1 0 0
13.146538 -5.572389 -8.765658 16.754693 -0.400911 2.121370 0.020787 -0.002003 -2755750.000000 1 0 0
3.065738 0.876311 -12.376658 12.780780 0.278416 2.889452 -0.002381 -0.001746 -3106600.000000 1 0 0
0.643738 6.431311 -12.939958 14.464394 1.471034 2.678349 0.004132 0.001638 444420.000000 1 0 0
3.164438 -1.210489 -16.832558 17.170148 -0.365355 2.942966 0.002601 -0.002708 -255113.000000 1 0 0
13.212438 4.315011 -11.517858 18.051285 0.315667 2.262776 0.007288 -0.005442 718418.000000 1 0 0
-3.913462 9.404811 -16.517858 19.406321 -1.176477 2.588985 0.004645 0.002223 419548.000000 1 0 0
-0.210762 -5.092189 -17.670658 18.390948 1.529431 2.860794 0.007066 -0.006207 728122.000000 1 0 0
-0.568162 -8.741689 -17.638158 19.693770 1.505893 2.680622 0.006354 0.003188 -30794.200000 1 0 0
5.532838 -10.098689 -12.180658 16.761989 -1.069585 2.384278 0.004453 -0.000463 647711.000000 1 0 0
1.790838 -9.835689 -17.979958 20.572476 -1.390694 2.634132 0.016657 0.000010 -450856.000000 1 0 0
10.831838 8.600411 -14.540458 20.067902 0.671068 2.381196 0.042947 -0.026836 -962263.000000 1 0 0
10.998238 -3.892489 -12.979558 17.452268 -0.340162 2.409411 0.017707 -0.004573 710514.000000 1 0 0
4.866738 7.463011 -12.190558 15.099384 0.992936 2.510452 -0.002503 -0.001808 -1198250.000000 1 0 0
9.575538 -6.058389 -12.660358 16.990576 -0.564113 2.411541 0.013461 -0.005167 -1415450.000000 1 0 0
-3.329362 0.310511 -15.891058 16.239052 -0.092995 2.934197 0.011121 -0.000591 -1910970.000000 1 0 0
-0.755762 10.826211 -12.798958 16.780684 -1.501101 2.438304 -0.001674 0.003110 -2140010.000000 1 0 0
6.700038 -5.493689 -12.489158 15.200336 -0.686787 2.535073 -0.000521 -0.000554 -281953.000000 1 0 0
17.643138 -6.378289 -8.006358 20.397663 -0.346898 1.974159 0.002136 -0.009829 -515912.000000 1 0 0
13.132338 4.625711 -14.069958 19.794424 0.338667 2.361437 0.022836 -0.015401 380511.000000 1 0 0
14.163738 0.714111 -11.470258 18.239744 0.050376 2.250883 0.016364 -0.008177 -383397.000000 1 0 0
15.087438 6.095511 -11.258058 19.787115 0.383960 2.176036 0.019533 -0.012298 -677547.000000 1 0 0
8.202638 1.421011 -11.823058 14.459850 0.171536 2.528109 -0.003688 0.004496 380581.000000 1 0 0
9.952238 1.234911 -8.980558 13.461890 0.123453 2.301119 -0.001799 0.001992 522407.000000 1 0 0
-0.229462 -5.782289 -12.967458 14.200088 1.531134 2.721854 -0.000788 -0.001624 500149.000000 1 0 0
10.588138 -5.778189 -9.020558 15.062092 -0.499554 2.212913 0.014840 -0.004501 -1624300.000000 1 0 0
10.119638 8.446911 -11.225858 17.314077 0.695547 2.276233 0.022499 -0.016025 640865.000000 1 0 0
8.333338 8.033211 -14.666458 18.683736 0.767062 2.473469 0.028865 -0.009199 -97722.300000 1 0 0
8.622638 10.598611 -10.731458 17.373676 0.887840 2.236592 0.034904 -0.012707 246359.000000 1 0 0
6.982638 1.797711 -18.003858 19.394018 0.251982 2.760665 0.014343 0.001439 -1421680.000000 1 0 0
12.020538 2.550311 -12.788058 17.735046 0.209063 2.376129 0.006654 -0.009487 -1652510.000000 1 0 0
2.634438 -0.729689 -19.233058 19.426354 -0.270207 3.000407 0.011322 -0.009776 -400719.000000 1 0 0
10.252738 -2.295389 -15.500258 18.725530 -0.220249 2.545901 0.020464 -0.005244 -63821.500000 1 0 0
8.316138 -0.919389 -13.134158 15.572718 -0.110108 2.574392 0.003391 -0.002948 408307.000000 1 0 0
0.520438 4.456811 -14.675958 15.346588 1.454549 2.844874 0.003202 -0.001025 -165344.000000 1 0 0
3.854138 -7.644889 -15.708158 17.889800 -1.103838 2.642571 0.007187 -0.000748 -728638.000000 1 0 0
11.286638 -5.930089 -14.621558 19.399591 -0.483767 2.424477 0.024963 0.000602 -871242.000000 1 0 0
-5.688262 4.305611 -16.844858 18.293274 -0.647921 2.740981 -0.003931 0.003658 -492009.000000 1 0 0
11.459538 7.848811 -9.089258 16.599381 0.600530 2.150249 0.016454 -0.007705 -850305.000000 1 0 0
9.422538 6.039911 -13.375158 17.440172 0.570027 2.444819 0.011063 -0.005938 -1247530.000000 1 0 0
12.041138 0.427611 -10.184958 15.776731 0.035498 2.272564 0.004482 -0.001796 -1165310.000000 1 0 0
5.462838 -7.358689 -13.774258 16.544579 -0.932199 2.554499 0.004856 0.000852 -523432.000000 1 0 0
8.667538 -10.359989 -10.702858 17.233884 -0.874112 2.240860 0.013717 0.001415 48269.000000 1 0 0
10.147138 4.695811 -15.909858 19.445787 0.433424 2.529008 0.026973 -0.008081 -314961.000000 1 0 0
9.799738 -0.452389 -11.008858 14.745660 -0.046131 2.413707 0.000728 -0.000921 -1020530.000000 1 0 0
-1.693762 5.543211 -13.934358 15.091798 -1.274250 2.747399 0.003278 0.000150 -193499.000000 1 0 0
1.345438 -0.723789 -14.992458 15.070099 -0.493551 3.040041 0.002439 -0.001777 -375617.000000 1 0 0
11.643438 -10.469689 -14.262658 21.180356 -0.732369 2.309582 0.041702 -0.004480 996494.000000 1 0 0
9.315638 -7.877989 -10.822858 16.308835 -0.701977 2.296443 0.013851 -0.003349 -74040.500000 1 0 0
14.058538 -1.084389 -9.714858 17.122992 -0.076981 2.174090 0.014408 0.001754 519975.000000 1 0 0
3.977338 11.126511 -12.263158 17.029490 1.227487 2.374762 0.005331 -0.010847 -782141.000000 1 0 0
-1.245962 2.876411 -16.937858 17.225481 -1.162030 2.958594 0.010552 -0.002530 173371.000000 1 0 0
5.938338 -0.581289 -17.656258 18.637200 -0.097577 2.815704 -0.000361 0.002245 -117419.000000 1 0 0
6.238238 -6.518089 -16.039158 18.402600 -0.807333 2.629192 0.005574 0.000384 -49136.000000 1 0 0
-1.706862 -5.304889 -19.916258 20.681213 1.259504 2.868762 0.012529 -0.009084 -687266.000000 1 0 0
-0.115062 -4.313589 -15.157258 15.759530 1.544128 2.864240 0.003799 -0.004570 46768.200000 1 0 0
0.563538 0.694811 -13.006358 13.037089 0.889344 3.072918 0.002135 -0.004691 -209212.000000 1 0 0
15.687638 0.471211 -13.482858 20.690855 0.030028 2.280533 0.037941 -0.014690 697378.000000 1 0 0
0.045138 7.049411 -16.437358 17.885273 1.564393 2.736445 0.000339 0.003691 -436982.000000 1 0 0
-4.934962 -0.556289 -18.165058 18.831693 0.112250 2.874720 0.001660 -0.001541 -241494.000000 1 0 0
10.391838 -8.463989 -13.077158 18.725423 -0.683511 2.343905 0.019220 -0.010937 371185.000000 1 0 0
4.015838 8.748711 -17.041858 19.572732 1.140466 2.627408 0.010343 -0.016659 -435611.000000 1 0 0
9.259438 0.852911 -16.843458 19.239718 0.091853 2.637168 0.015528 -0.006589 135092.000000 1 0 0
3.431338 4.821011 -18.520858 19.443210 0.952230 2.832342 0.012273 -0.002626 -68323.500000 1 0 0
1.403838 -8.182689 -16.021758 18.045052 -1.400889 2.663503 0.001663 0.001050 -348284.000000 1 0 0
4.680538 7.782411 -14.858058 17.413651 1.029330 2.592967 0.002697 -0.004403 433101.000000 1 0 0
-5.668262 -0.457389 -15.047058 16.085782 0.080519 2.780259 0.008000 -0.001907 -88957.000000 1 0 0
2.838938 3.334111 -13.730858 14.412229 0.865442 2.832871 0.002029 0.000797 1130270.000000 1 0 0
-2.564462 -10.368089 -17.916258 20.858237 1.328321 2.604019 0.009459 -0.003051 -639948.000000 1 0 0
6.151338 -9.020689 -15.573958 19.019989 -0.972312 2.530150 0.002825 0.002273 -273134.000000 1 0 0
-1.789162 5.432811 -17.384658 18.301445 -1.252657 2.823732 0.009480 0.003726 158507.000000 1 0 0
10.030438 -12.283789 -11.762258 19.744667 -0.886040 2.208956 0.020329 0.003104 310137.000000 1 0 0
10.858738 3.657111 -9.430158 14.839627 0.324858 2.259415 -0.000069 -0.000437 -849619.000000 1 0 0
4.843438 -0.436689 -11.043958 12.067253 -0.089918 2.726802 -0.002693 -0.002855 -67469.500000 1 0 0
6.304238 9.565911 -11.459658 16.204130 0.988098 2.356335 0.009320 -0.009119 -151343.000000 1 0 0
10.845438 -9.609989 -9.447758 17.298426 -0.725074 2.148573 0.022018 -0.004086 71014.700000 1 0 0
3.216638 -2.437189 -14.501958 15.053021 -0.648400 2.870175 0.000158 -0.003075 -54462.300000 1 0 0
9.115538 -4.524089 -14.671658 17.855475 -0.460687 2.535166 0.012232 -0.006009 214579.000000 1 0 0
-4.041662 -6.543489 -16.552858 18.252381 1.017491 2.706634 -0.002977 -0.005634 -1265260.000000 1 0 0
5.876538 -7.712989 -11.173658 14.794409 -0.919722 2.426850 0.003937 -0.000275 30984.600000 1 0 0
5.543338 6.731811 -16.996158 19.102756 0.881917 2.667534 0.014611 -0.001744 -210099.000000 1 0 0
9.021938 1.175211 -19.370858 21.401090 0.129532 2.702492 0.026132 -0.012389 435859.000000 1 0 0
13.171438 5.792311 -9.521458 17.253864 0.414308 2.155371 0.010341 -0.006068 981351.000000 1 0 0
-1.637762 -0.925389 -17.281858 17.383936 0.514311 3.033170 0.010417 -0.003955 162973.000000 1 0 0
-0.439162 -0.573289 -19.510358 19.523719 0.917109 3.104595 0.016069 -0.009751 -377734.000000 1 0 0
2.912438 6.469911 -16.522658 17.981665 1.147817 2.735982 0.005453 -0.003021 -1125080.000000 1 0 0
7.610438 3.964511 -15.724558 17.913622 0.480252 2.642044 0.007626 0.000605 -476489.000000 1 0 0
3.054238 -9.954289 -14.940658 18.210972 -1.273089 2.532943 0.009814 0.003877 -37612.000000 1 0 0
8.998338 -10.580989 -13.429358 19.320328 -0.866056 2.339341 0.018913 0.000323 351143.000000 1 0 0
3.876738 0.098411 -14.861158 15.358802 0.025379 2.886337 -0.003219 0.000124 -2674970.000000 1 0 0
-1.117562 -2.975789 -18.862958 19.128917 1.211542 2.974645 0.013323 -0.004052 516673.000000 1 0 0
9.193438 10.005711 -13.164458 18.919210 0.827681 2.340364 0.038481 -0.021992 -60388.600000 1 0 0
4.622138 2.068011 -10.758558 11.890644 0.420702 2.701687 -0.006240 0.003441 -22480.300000 1 0 0
-0.452462 7.062011 -18.901258 20.182524 -1.506814 2.783355 0.013888 -0.001686 7671.320000 1 0 0
0.832038 -1.920189 -17.630758 17.754522 -1.161908 3.023449 0.015048 -0.009338 -2970290.000000 1 0 0
-4.430362 -2.434489 -14.058058 14.939339 0.502460 2.796397 0.007324 -0.002802 -4337010.000000 1 0 0
10.044738 6.014211 -10.414158 15.669148 0.539494 2.297793 0.008229 0.001218 84931.600000 1 0 0
8.463038 5.885111 -17.302058 20.139979 0.607625 2.604286 0.035951 -0.016119 -437464.000000 1 0 0
11.325238 0.191311 -13.558258 17.667031 0.016891 2.445624 0.003428 -0.000897 358004.000000 1 0 0
6.731338 12.073511 -11.847458 18.205572 1.062191 2.279381 0.022521 -0.018160 -696480.000000 1 0 0
-0.914162 0.430311 -15.122558 15.156274 -0.439947 3.074879 0.006219 -0.001803 -1483380.000000 1 0 0
-4.373162 -2.867889 -18.994558 19.701335 0.580437 2.872925 0.004018 0.000557 -66716.500000 1 0 0
5.645838 -11.985389 -13.847658 19.164621 -1.130568 2.378300 0.004131 0.003521 -308587.000000 1 0 0
2.097238 -4.807089 -14.009658 14.959179 -1.159410 2.783383 0.001705 0.000255 -35997.900000 1 0 0
11.795038 1.928911 -15.331658 19.439737 0.162101 2.479449 0.026711 -0.010104 267263.000000 1 0 0
9.687838 2.295511 -13.859158 17.064579 0.232657 2.518640 0.006040 -0.004983 -44275.800000 1 0 0
-2.386262 -4.194289 -16.394958 17.090377 1.053535 2.855342 0.002078 -0.008185 -777333.000000 1 0 0
-2.875362 10.193711 -14.301258 17.796220 -1.295867 2.504136 0.000832 0.002202 197101.000000 1 0 0
3.513438 5.845711 -13.679858 15.285781 1.029621 2.679093 -0.000810 -0.000731 -375384.000000 1 0 0
-5.068762 -2.625889 -16.526058 17.484229 0.477986 2.808997 0.005906 -0.000631 491297.000000 1 0 0
-4.288662 6.182611 -13.582858 15.527760 -0.964335 2.635709 -0.001835 0.003011 -1186950.000000 1 0 0
5.921338 -1.184289 -14.188558 15.420116 -0.197399 2.739216 0.001355 0.000232 -1622270.000000 1 0 0
6.780838 -3.077989 -12.757758 14.772074 -0.426113 2.613243 -0.000258 -0.005371 1447320.000000 1 0 0
2.996838 -3.202689 -18.391358 18.907150 -0.818590 2.907477 0.005789 -0.005624 290696.000000 1 0 0
7.356338 -12.068689 -12.052358 18.574938 -1.023392 2.276869 0.006425 0.004535 -1127090.000000 1 0 0
-6.162562 -5.370189 -17.757458 19.548489 0.716800 2.710190 0.025422 -0.004100 321513.000000 1 0 0
0.515538 8.750811 -11.946858 14.817891 1.511951 2.508574 -0.000316 0.000264 -8387.800000 1 0 0
0.365238 8.664711 -14.460558 16.861743 1.528669 2.601373 -0.001482 0.002415 116348.000000 1 0 0
7.693338 -2.481589 -15.191458 17.208316 -0.312027 2.652581 0.003826 -0.007623 -749760.000000 1 0 0
14.287838 1.478011 -8.982958 16.941676 0.103079 2.129666 0.005168 0.001909 528383.000000 1 0 0
2.708138 10.811111 -14.544658 18.323788 1.325351 2.487760 0.005877 -0.005293 -952683.000000 1 0 0
6.247938 0.942411 -15.617158 16.846973 0.149707 2.757132 0.005071 -0.000404 418763.000000 1 0 0
16.923538 -5.423889 -10.303158 20.542146 -0.310151 2.096200 0.051349 -0.010039 525980.000000 1 0 0
4.876738 -4.258389 -11.287258 13.012250 -0.717812 2.620816 -0.000826 -0.001153 -771514.000000 1 0 0
8.765138 -3.686389 -17.121558 19.584812 -0.398116 2.634636 0.010286 -0.002120 347971.000000 1 0 0
13.310738 -9.581389 -8.818958 18.621299 -0.623907 2.064165 0.024801 -0.008772 -531869.000000 1 0 0
2.218838 -7.826689 -13.628958 15.872266 -1.294548 2.603456 0.000273 0.001429 364475.000000 1 0 0
-6.881262 -2.359189 -18.497758 19.876735 0.330284 2.766909 0.012327 -0.000273 -319643.000000 1 0 0
-1.538062 -6.439989 -15.787758 17.119942 1.336358 2.744490 0.003152 -0.004805 827400.000000 1 0 0
1.544438 -7.369289 -18.567958 20.036487 -1.364209 2.756350 0.004934 0.002181 49621.600000 1 0 0
5.267938 10.976611 -14.549258 18.971507 1.123338 2.444794 0.016464 -0.020928 -219330.000000 1 0 0
5.426738 -3.489989 -17.300158 18.464154 -0.571516 2.784620 0.008816 -0.004721 302694.000000 1 0 0
3.876438 13.066711 -13.990458 19.531990 1.282402 2.369259 0.012161 -0.016042 -38341.800000 1 0 0
9.278138 10.253811 -15.758758 20.965757 0.835309 2.421345 0.047813 -0.027263 263796.000000 1 0 0
2.380838 3.882011 -16.321458 16.944864 1.020655 2.869497 0.005965 -0.003017 401690.000000 1 0 0
16.545638 1.841911 -11.500658 20.234029 0.110867 2.175334 0.021019 -0.007610 -751321.000000 1 0 0
10.033738 -3.867589 -10.622558 15.115320 -0.367908 2.350077 0.012511 -0.005070 -906802.000000 1 0 0
14.599838 -2.200989 -12.058058 19.062959 -0.149628 2.255623 0.031251 -0.005109 374394.000000 1 0 0
-2.787462 -8.697889 -16.171158 18.572280 1.260662 2.627450 0.002041 0.005471 171739.000000 1 0 0
14.116538 8.170111 -9.016458 18.636627 0.524657 2.075791 0.030389 -0.005279 794515.000000 1 0 0
-8.174662 0.174711 -16.738558 18.628874 -0.021369 2.687200 -0.003165 0.008304 -315561.000000 1 0 0
-3.399762 4.011311 -15.868258 16.716777 -0.867730 2.821612 0.006708 0.001176 1324510.000000 1 0 0
15.113938 3.946911 -9.742558 18.409961 0.255439 2.128454 0.014956 -0.004092 348935.000000 1 0 0
5.434138 1.096711 -13.091058 14.216485 0.199144 2.741017 -0.003644 0.001895 -269020.000000 1 0 0
7.772838 -7.886789 -12.900458 17.001185 -0.792675 2.432261 0.009199 -0.001762 -911290.000000 1 0 0
3.139038 -6.155689 -11.829658 13.699886 -1.099228 2.612937 0.000925 0.000892 -542807.000000 1 0 0
-3.227162 3.594411 -18.509558 19.129509 -0.839183 2.886310 0.007918 0.003917 -140180.000000 1 0 0
0.891138 5.154111 -17.829958 18.581346 1.399590 2.856239 0.007421 -0.002693 267401.000000 1 0 0
6.390138 7.163911 -10.206358 14.011611 0.842424 2.386812 -0.000645 -0.000453 235388.000000 1 0 0
9.560738 3.703411 -11.666458 15.531555 0.369559 2.420592 0.005190 -0.001090 -452564.000000 1 0 0
4.526838 1.627611 -17.572558 18.219116 0.345154 2.874386 0.008009 0.001636 -776210.000000 1 0 0
2.636938 8.213611 -13.251058 15.811622 1.260146 2.564510 -0.000199 -0.002551 -1288620.000000 1 0 0
14.429438 -3.598589 -9.890858 17.860224 -0.244407 2.157708 0.021124 -0.002465 -46183.900000 1 0 0
-1.353762 9.245711 -16.314658 18.801168 -1.425409 2.621448 0.006336 0.002826 -1255190.000000 1 0 0
-5.188462 1.985511 -15.728958 16.681203 -0.365485 2.802074 0.005469 0.000440 524187.000000 1 0 0
4.517738 4.323911 -11.992058 13.524630 0.763480 2.660917 -0.003827 0.001924 324828.000000 1 0 0
9.098638 3.347611 -17.753258 20.227948 0.352553 2.641754 0.017443 -0.003855 1075060.000000 1 0 0
-4.263962 14.466311 -13.234258 20.064923 -1.284162 2.291045 0.000618 -0.001107 -447595.000000 1 0 0
15.534638 -4.966089 -8.064458 18.194024 -0.309411 2.030015 0.023322 -0.003992 1330240.000000 1 0 0
1.178038 9.336411 -16.835758 19.287278 1.445283 2.631900 0.001790 0.003319 -539545.000000 1 0 0
0.462938 -3.211389 -12.734558 13.141397 -1.427628 2.892115 -0.001065 -0.000641 -180510.000000 1 0 0
7.475438 3.541511 -13.100858 15.493772 0.442430 2.578403 0.001049 0.000523 -602822.000000 1 0 0
-2.961662 7.612611 -15.025858 17.102623 -1.199768 2.643657 0.003948 0.005066 569153.000000 1 0 0
12.199938 -5.224589 -11.009758 17.243828 -0.404618 2.263312 0.024236 -0.004550 -607232.000000 1 0 0
0.790938 -4.603889 -19.964158 20.503390 -1.400659 2.911742 0.012560 -0.006572 -142099.000000 1 0 0
3.184138 -4.507389 -16.186658 17.101556 -0.955770 2.813014 0.000241 -0.004751 880181.000000 1 0 0
-5.600962 4.088211 -14.283558 15.877792 -0.630521 2.689634 -0.000672 0.002599 436923.000000 1 0 0
12.202538 -7.575889 -9.796858 17.386042 -0.555606 2.169400 0.018562 -0.004094 59875.600000 1 0 0
-2.061762 -1.857189 -14.922658 15.178463 0.733245 2.957741 0.004985 -0.002240 -54180.400000 1 0 0
6.918538 5.829311 -14.209658 16.845220 0.700161 2.574642 0.007029 -0.006881 34723.800000 1 0 0
4.143338 -5.553689 -18.339858 19.605130 -0.929827 2.780361 0.010367 -0.006994 -70251.000000 1 0 0
7.486338 7.460611 -12.366258 16.267462 0.783677 2.434392 0.008376 -0.005724 -1271740.000000 1 0 0
12.311538 -2.635489 -10.987958 16.710925 -0.210884 2.288334 0.020949 -0.006465 -1621230.000000 1 0 0
7.381438 -0.822889 -10.752558 13.068293 -0.111022 2.537112 -0.004985 -0.001827 -1216830.000000 1 0 0
5.278838 3.994311 -14.447458 15.891812 0.647753 2.711947 -0.001325 -0.000300 -619875.000000 1 0 0
14.633638 2.728111 -13.032758 19.784811 0.184312 2.289920 0.016032 -0.015817 -13022.700000 1 0 0
-6.422162 6.763211 -15.895458 18.429617 -0.811258 2.610976 -0.003801 0.011405 524126.000000 1 0 0
-11.294562 3.694811 -16.496558 20.331139 -0.316159 2.517329 0.018269 -0.002916 646162.000000 1 0 0
-4.962462 6.470511 -18.039158 19.796585 -0.916545 2.717047 0.000600 0.014794 -907306.000000 1 0 0
-10.043062 1.494211 -15.601758 18.614796 -0.147697 2.564656 0.012610 0.002039 -1187750.000000 1 0 0
-7.460262 5.835011 -17.957758 20.302314 -0.663759 2.656256 0.000413 0.004359 -332831.000000 1 0 0
-8.742362 3.789611 -15.530658 18.220631 -0.409029 2.591291 -0.001029 0.008260 -780787.000000 1 0 0
8.903438 13.372611 -11.908458 19.997733 0.983396 2.208672 0.050506 -0.026310 -1202010.000000 1 0 0
13.748338 9.149511 -11.393158 20.063260 0.587194 2.174702 0.015026 -0.013268 555669.000000 1 0 0
8.327438 15.968911 -9.095058 20.176036 1.090114 2.038441 0.030099 -0.014123 179300.000000 1 0 0
7.365038 13.459811 -13.959158 20.742912 1.070115 2.309000 0.026501 -0.019009 165397.000000 1 0 0
4.582338 15.977511 -12.572958 20.841256 1.291494 2.218394 0.034503 -0.022072 -63345.800000 1 0 0
11.068538 10.867511 -11.588258 19.362413 0.776234 2.212414 0.038189 -0.015190 129993.000000 1 0 0
15.785238 9.901711 -9.874258 21.088352 0.560235 2.058086 0.029032 0.001305 -844298.000000 1 0 0
13.305938 10.643011 -9.199358 19.363622 0.674661 2.065856 0.044425 -0.011149 636803.000000 1 0 0
10.248138 11.977211 -8.280058 17.805541 0.863039 2.054462 0.017128 0.001285 21618.100000 1 0 0
5.393838 16.311611 -10.177058 19.968341 1.251440 2.105586 0.018111 -0.014251 -62191.300000 1 0 0
6.667638 14.689311 -11.820258 19.998794 1.144695 2.203154 0.024061 -0.003137 -1248860.000000 1 0 0
10.837338 13.972411 -9.877158 20.254244 0.911096 2.080202 0.045800 -0.001616 -311791.000000 1 0 0
8.108138 -18.649089 -1.140458 20.367402 -1.160676 1.626820 0.029655 0.000871 -477409.000000 1 0 0
7.288338 -17.441489 -3.275058 19.184666 -1.174977 1.742349 0.020874 -0.000339 -456986.000000 1 0 0
4.640738 -18.388889 5.719342 19.809053 -1.323592 1.277903 0.017390 0.002944 197251.000000 1 0 0
9.775938 -17.243689 -2.556858 19.986278 -1.055049 1.699079 0.023021 0.002300 -100983.000000 1 0 0
-9.765562 -12.256489 -10.100458 18.644221 0.898030 2.143311 0.015417 -0.011226 453227.000000 1 0 0
-5.230962 -7.036589 -12.270458 15.081137 0.931536 2.521164 0.001729 -0.000345 688614.000000 1 0 0
-10.794962 -9.466089 -5.661258 15.433337 0.719904 1.946385 0.012600 -0.008586 -1227420.000000 1 0 0
-4.588662 -11.463989 -13.991458 18.661184 1.190059 2.418500 0.006495 -0.005957 751076.000000 1 0 0
-3.074362 -15.540489 7.445242 17.504003 1.375489 1.131453 0.003143 0.002234 249898.000000 1 0 0
-4.877062 -12.030289 -11.525858 17.359695 1.185645 2.296877 0.006071 -0.003765 244267.000000 1 0 0
-14.299762 -12.881789 -4.368158 19.735868 0.733279 1.793975 0.011053 -0.001707 -461482.000000 1 0 0
-3.231262 -12.187289 -3.209558 13.010470 1.311626 1.820060 0.002516 -0.002767 673961.000000 1 0 0
-2.532162 -17.279789 -1.619458 17.539259 1.425293 1.663261 -0.002702 -0.005798 -1219310.000000 1 0 0
-5.825162 -12.161589 3.755942 13.997995 1.124105 1.299148 -0.001037 -0.000528 -636164.000000 1 0 0
-8.840862 -10.558489 -11.911658 18.207969 0.873708 2.283921 0.008854 -0.007488 -501153.000000 1 0 0
-9.967362 -11.823589 -7.511158 17.191948 0.870376 2.022946 0.013852 -0.015281 162157.000000 1 0 0
-10.821462 -15.201289 6.320942 19.701207 0.952143 1.244180 0.005346 -0.005770 -795450.000000 1 0 0
-9.483062 -15.634289 0.692642 18.298612 1.025571 1.532935 0.002135 -0.000275 -2034160.000000 1 0 0
-14.786862 -7.562589 -8.045258 18.454545 0.472757 2.021890 0.004708 -0.013660 -243306.000000 1 0 0
-2.362962 -16.577689 5.268642 17.554542 1.429211 1.265968 0.008515 -0.001468 -519239.000000 1 0 0
4.385238 -15.817789 5.829642 17.418883 -1.300354 1.229537 0.013259 -0.002935 -389274.000000 1 0 0
4.174238 -14.452689 -9.941158 18.031393 -1.289627 2.154748 0.000661 0.000793 -781139.000000 1 0 0
-7.653062 -14.013589 -0.341658 15.970810 1.070939 1.592191 0.001749 -0.000956 -219910.000000 1 0 0
2.945738 -14.879289 9.601942 17.951822 -1.375348 1.006439 0.015097 -0.009861 -852596.000000 1 0 0
2.375838 -17.250889 10.422442 20.294459 -1.433935 1.031467 0.030730 -0.009074 -174832.000000 1 0 0
-8.201562 -17.162389 -5.826958 19.893885 1.125001 1.868057 0.004608 -0.001836 -132225.000000 1 0 0
-6.503962 -9.131589 -7.711758 13.607302 0.951897 2.173336 0.007044 -0.006981 279901.000000 1 0 0
-6.068462 -13.079689 -4.803058 15.197825 1.136394 1.892345 0.000475 -0.007937 146888.000000 1 0 0
2.013138 -19.402989 -4.883558 20.109149 -1.467412 1.816102 0.006407 -0.005595 -87954.200000 1 0 0
-5.587962 -12.875189 8.343542 16.328212 1.161319 1.034461 0.003582 -0.003087 1129510.000000 1 0 0
2.228938 -17.707089 3.289342 18.147422 -1.445577 1.388532 0.013031 -0.002835 1117940.000000 1 0 0
-17.776162 -10.090089 -2.502858 20.592866 0.516270 1.692638 0.037405 -0.000329 856246.000000 1 0 0
-3.507962 -15.435789 2.625942 16.045715 1.347330 1.406403 0.000645 0.000176 -17.235200 1 0 0
-10.198562 -10.415689 -14.094558 20.276928 0.795931 2.339360 0.013854 -0.010282 -329656.000000 1 0 0
5.911338 -14.584189 -5.574558 16.694855 -1.185708 1.911244 -0.004974 -0.000476 595039.000000 1 0 0
-7.342762 -12.387389 -10.677758 17.927021 1.035717 2.208838 0.007919 -0.008985 -1129730.000000 1 0 0
-7.077862 -14.303289 4.011842 16.455245 1.111284 1.324511 -0.004149 -0.000203 746546.000000 1 0 0
3.304038 -15.006989 -3.133458 15.682632 -1.354087 1.771955 0.004764 -0.001045 150619.000000 1 0 0
-7.652462 -11.342389 7.795842 15.747543 0.977268 1.052902 0.000695 -0.008729 -848557.000000 1 0 0
-12.702462 -12.323689 -0.940158 17.723142 0.770264 1.623868 0.001634 0.005931 -312726.000000 1 0 0
-1.879362 -13.720289 4.078142 14.436398 1.434667 1.284407 0.001787 0.000825 -3186700.000000 1 0 0
-3.182062 -13.957689 5.237342 15.243764 1.346648 1.220078 -0.001973 0.001296 199625.000000 1 0 0
-14.362662 -10.294389 -4.536658 18.243952 0.621877 1.822100 0.010371 -0.005247 456324.000000 1 0 0
-6.148562 -8.717189 -10.402858 14.900123 0.956497 2.343638 0.003986 -0.003506 378192.000000 1 0 0
0.687638 -19.654589 2.472642 19.821445 -1.535824 1.445725 0.014990 -0.002376 261683.000000 1 0 0
6.402838 -14.092089 -8.196958 17.514949 -1.144325 2.057820 0.001322 0.004074 -1928650.000000 1 0 0
-3.830362 -16.663789 -5.830058 18.064970 1.344860 1.899406 -0.007959 -0.007472 -730336.000000 1 0 0
-3.546462 -13.658289 -13.088858 19.246934 1.316750 2.318626 0.013149 -0.001168 -2129640.000000 1 0 0
-8.169562 -14.802289 -4.462158 17.486005 1.066486 1.828835 0.002858 -0.005599 -1271770.000000 1 0 0
-4.598962 -14.282989 10.206542 18.147389 1.259290 0.973481 0.004528 -0.005531 -632848.000000 1 0 0
-0.276762 -12.115089 -10.012258 15.719329 1.547956 2.261318 0.003314 0.001385 286306.000000 1 0 0
2.408338 -17.299689 6.742642 18.722782 -1.432473 1.202389 0.011249 -0.009185 273525.000000 1 0 0
-3.025862 -19.107989 -3.422658 19.646518 1.413745 1.745902 -0.006594 -0.008733 1106890.000000 1 0 0
0.658338 -15.299089 -3.084958 15.620900 -1.527792 1.769592 -0.000259 -0.004728 -659893.000000 1 0 0
5.708238 -18.053989 0.543742 18.942707 -1.264566 1.542088 0.013592 -0.000022 -393918.000000 1 0 0
-6.957562 -16.710189 3.830542 18.501652 1.176261 1.362250 -0.008642 0.000953 667348.000000 1 0 0
-5.253262 -13.518389 -9.464858 17.318405 1.200155 2.149000 0.003901 -0.004308 -29816.100000 1 0 0
5.660838 -15.265789 -2.132758 16.420660 -1.215697 1.701047 0.004640 0.003796 -671382.000000 1 0 0
-8.843162 -10.244489 -0.680858 13.550448 0.858682 1.621064 0.003056 -0.000746 -680644.000000 1 0 0
-7.681162 -18.136189 -2.942158 19.914264 1.170174 1.719080 0.002803 -0.014213 -240751.000000 1 0 0
7.894738 -16.085289 -1.139158 17.954417 -1.114532 1.634286 0.008341 0.005463 222551.000000 1 0 0
-8.150362 -10.155289 -9.527058 16.134533 0.894488 2.202445 0.009891 -0.008649 -363882.000000 1 0 0
-9.025962 -14.968489 -6.936158 18.805158 1.028176 1.948561 0.008754 -0.012179 -834691.000000 1 0 0
-11.454562 -10.485489 -11.879258 19.551707 0.741258 2.223809 0.017847 -0.006840 -58397.300000 1 0 0
6.465538 -16.422989 2.532442 17.830620 -1.195743 1.428287 0.006982 0.001466 624708.000000 1 0 0
-2.186362 -11.137989 -6.127758 12.899008 1.376963 2.065825 -0.000066 -0.001637 -329548.000000 1 0 0
-12.261562 -15.234489 -3.387158 19.847126 0.893102 1.742298 0.004744 -0.008010 67096.200000 1 0 0
-0.452762 -19.850189 -3.111958 20.097743 1.547991 1.726263 0.008255 -0.000710 -434775.000000 1 0 0
-5.848962 -15.582989 -4.832058 17.331725 1.211725 1.853339 -0.009338 -0.005017 -3702820.000000 1 0 0
2.000238 -15.903289 -1.014658 16.060669 -1.445678 1.634015 0.007938 -0.004648 1403730.000000 1 0 0
-13.259262 -11.902789 5.188642 18.558190 0.731541 1.287432 0.010671 -0.009849 532656.000000 1 0 0
2.040338 -15.293489 -8.789058 17.756727 -1.438167 2.088597 0.000649 0.006788 -574527.000000 1 0 0
-11.817862 -16.708589 0.047942 20.465608 0.955193 1.568454 0.012559 -0.009220 856181.000000 1 0 0
-7.726362 -16.551289 -0.943558 18.290220 1.134049 1.622407 -0.003370 -0.004548 655971.000000 1 0 0
-2.985962 -14.334489 -1.763458 14.747994 1.365427 1.690656 0.000992 -0.003536 741466.000000 1 0 0
-1.771562 -10.587389 -13.206258 17.018710 1.405005 2.459071 0.001903 -0.000378 -311111.000000 1 0 0
1.538138 -19.654689 4.915442 20.318323 -1.492697 1.326451 0.022475 -0.008444 121518.000000 1 0 0
-17.417762 -9.322589 2.574942 19.922837 0.491436 1.441188 0.014587 -0.004311 -120889.000000 1 0 0
-2.727362 -15.658689 -8.017758 17.802177 1.398351 2.037988 -0.006126 -0.001616 -647057.000000 1 0 0
-10.462762 -12.082789 0.247842 15.985137 0.857131 1.555291 0.002138 0.002650 400646.000000 1 0 0
-6.818362 -11.381389 -6.503758 14.775823 1.031054 2.026576 0.006372 -0.006393 -260606.000000 1 0 0
-2.238862 -13.619989 -6.655958 15.323785 1.407873 2.020118 -0.006855 -0.001849 741022.000000 1 0 0
-14.043962 -14.549089 -0.983958 20.245420 0.803062 1.619417 0.004902 0.002494 -299510.000000 1 0 0
-9.546162 -11.246089 -4.446458 15.406970 0.866974 1.863561 0.010517 -0.008403 553555.000000 1 0 0
9.541238 -15.150789 -5.168058 18.635731 -1.008787 1.851800 0.014225 0.003666 160617.000000 1 0 0
-5.607362 -10.923989 -9.331158 15.422275 1.096560 2.220618 0.005938 -0.004423 103531.000000 1 0 0
-10.356962 -15.929189 -4.957858 19.636346 0.994289 1.826043 0.009012 -0.006792 -2368110.000000 1 0 0
2.113538 -17.353289 -3.268858 17.784519 -1.449599 1.755651 0.011547 -0.004385 348509.000000 1 0 0
-0.402862 -14.514089 -8.223558 16.686761 1.543047 2.086123 0.000090 0.000970 -1116370.000000 1 0 0
-0.738962 -18.244389 -7.103958 19.592601 1.530315 1.941835 -0.005080 -0.003031 -108415.000000 1 0 0
-1.891162 -10.054789 -10.591758 14.726188 1.384883 2.373513 0.001675 0.001525 429093.000000 1 0 0
-5.018162 -17.294789 1.998142 18.118616 1.288396 1.460290 -0.003858 -0.003746 545015.000000 1 0 0
0.303138 -12.762789 -2.691758 13.047078 -1.547049 1.778600 0.000709 0.000293 -3039100.000000 1 0 0
2.563738 -15.090989 2.991842 15.596853 -1.402518 1.377777 0.007553 0.001251 -1138540.000000 1 0 0
-9.380862 -13.091389 6.774942 17.472403 0.949038 1.172606 -0.005117 -0.006280 -899701.000000 1 0 0
-1.137962 -17.767489 -4.515658 18.367629 1.506836 1.819192 -0.000475 -0.007760 -14621.900000 1 0 0
-9.961562 -17.495789 -2.129858 20.245287 1.053204 1.676194 0.013896 -0.015031 75945.800000 1 0 0
1.191138 -16.426089 1.370042 16.526108 -1.498408 1.487799 0.009528 -0.004503 590038.000000 1 0 0
-0.342062 -18.020589 4.188142 18.504031 1.551817 1.342481 0.014973 -0.008815 24712.300000 1 0 0
-17.445062 -9.255689 -0.078158 19.748521 0.487797 1.574754 0.015616 0.004707 671314.000000 1 0 0
-14.828362 -7.414589 -10.579058 19.666544 0.463670 2.138766 0.024848 -0.013924 468465.000000 1 0 0
2.677138 -12.705089 -8.848158 15.712297 -1.363121 2.168972 -0.005631 0.001817 576936.000000 1 0 0
-11.595162 -14.730689 1.811942 18.834121 0.903944 1.474442 0.000082 0.001744 -49809.200000 1 0 0
-2.411562 -15.573589 10.735242 19.068239 1.417167 0.972796 0.015151 0.002080 -451152.000000 1 0 0
-7.078262 -15.854789 1.378942 17.417739 1.150904 1.491545 -0.001659 -0.000933 -1354440.000000 1 0 0
-12.469562 -14.924089 -5.978758 20.346105 0.874762 1.869051 0.010628 -0.009792 -312659.000000 1 0 0
0.954838 -13.738789 -5.150258 14.703442 -1.501408 1.928662 0.001418 -0.000223 594174.000000 1 0 0
5.763238 -16.472289 -7.365958 18.942243 -1.234233 1.970195 0.005525 -0.000578 103112.000000 1 0 0
-6.636262 -12.815789 5.980642 15.622180 1.092995 1.177938 0.000366 -0.001966 -574047.000000 1 0 0
-2.540462 -13.482189 0.609842 13.733000 1.384549 1.526375 0.004493 -0.001180 3038490.000000 1 0 0
-4.278262 -15.551589 0.163342 16.130162 1.302336 1.560670 -0.002289 -0.002459 342740.000000 1 0 0
-17.720162 -7.514489 -2.130858 19.365233 0.401078 1.681055 0.009280 0.006035 567046.000000 1 0 0
1.189138 -12.732789 -11.966158 17.513621 -1.477675 2.322999 0.008331 0.003397 -765947.000000 1 0 0
1.157338 -17.085289 -5.706858 18.050340 -1.503161 1.892479 0.012097 -0.005039 -1776870.000000 1 0 0
-12.831862 -6.414189 -9.219958 17.053039 0.463539 2.142022 0.013265 -0.004957 -482330.000000 1 0 0
-11.396062 -13.601989 -8.834458 19.822512 0.873414 2.032728 0.011654 -0.014851 -55079.700000 1 0 0
-4.292162 -9.856789 3.582742 11.332034 1.160106 1.249117 0.006159 -0.002030 -3960910.000000 1 0 0
-7.181762 -14.167189 9.864442 18.697437 1.101621 1.015044 -0.001184 -0.008530 -486425.000000 1 0 0
-5.324062 -15.800089 -7.810958 18.411940 1.245782 2.008911 -0.002923 -0.013694 -1006320.000000 1 0 0
-0.264462 -13.459789 2.152642 13.633405 1.551151 1.412238 0.005380 -0.002984 872998.000000 1 0 0
-10.773862 -13.457589 -4.711658 17.871277 0.895702 1.837594 0.011523 -0.006965 -1072820.000000 1 0 0
-9.850162 -10.565889 6.557642 15.863996 0.820441 1.144648 0.005370 -0.004778 -597289.000000 1 0 0
-15.585962 -8.160089 -4.982358 18.284780 0.482313 1.846773 0.025482 -0.002784 -193192.000000 1 0 0
-14.431562 -7.329389 5.363542 17.051613 0.469926 1.250816 0.007671 -0.008510 -691461.000000 1 0 0
-1.668462 -19.295889 -0.152558 19.368489 1.484544 1.578673 0.010339 -0.005368 -330846.000000 1 0 0
-15.232062 -12.229689 -1.545158 19.595115 0.676501 1.649733 0.009707 0.005756 87798.000000 1 0 0
-4.432562 -12.082289 -6.782258 14.547452 1.219177 2.055805 -0.000668 -0.003276 -200410.000000 1 0 0
-7.337562 -18.351589 2.000742 19.865136 1.190434 1.469909 -0.003006 -0.000088 -284063.000000 1 0 0
-2.499362 -11.864289 -8.668458 14.904709 1.363170 2.191481 -0.000916 0.000570 398239.000000 1 0 0
-1.748862 -20.275489 -5.325158 21.035952 1.484754 1.826727 0.000034 -0.004649 37250.900000 1 0 0
-5.362162 -8.915689 -14.049458 17.482265 1.029326 2.504184 0.002403 -0.000896 10632.700000 1 0 0
-8.529262 -19.095389 -0.668458 20.924365 1.150718 1.602748 0.000814 0.001170 105758.000000 1 0 0
-16.906662 -7.304689 5.779242 19.302677 0.407835 1.266731 0.008813 -0.010793 12314.100000 1 0 0
-3.640262 -14.584189 -4.200758 15.607577 1.326191 1.843305 -0.004991 -0.003259 -3071480.000000 1 0 0
-2.965462 -14.848589 -10.927658 18.673197 1.373676 2.195930 0.003223 -0.000889 -151219.000000 1 0 0
-0.130862 -16.600189 6.295742 17.754430 1.562913 1.208309 0.026828 -0.011802 -2308840.000000 1 0 0
-11.177062 -11.620189 3.615342 16.523505 0.804833 1.350212 -0.000075 -0.004722 598415.000000 1 0 0
-0.169162 -14.586889 -0.079358 14.588086 1.559200 1.576236 0.000014 0.000308 988384.000000 1 0 0
-7.116762 -9.533189 -2.479058 12.152190 0.929523 1.776239 0.010894 -0.002600 189234.000000 1 0 0
-11.008962 -14.411589 -0.865158 18.155981 0.918461 1.618466 -0.001417 -0.004894 -54358.900000 1 0 0
0.356238 -14.645589 -10.661958 18.118983 -1.546477 2.199926 0.002700 0.002662 -239303.000000 1 0 0
-1.390862 -13.953689 -3.901558 14.555483 1.471447 1.842162 -0.002203 -0.002937 -4435240.000000 1 0 0
-11.447462 -8.092989 -7.616558 15.954712 0.615387 2.068474 0.014105 -0.009637 541609.000000 1 0 0
-0.227462 -17.202989 -0.518158 17.212294 1.557575 1.600905 0.006579 -0.005294 202020.000000 1 0 0
-12.769962 -9.510789 4.437642 16.529359 0.640151 1.298992 0.007130 -0.005760 -544522.000000 1 0 0
3.887438 -16.836489 1.559942 17.349725 -1.343879 1.480763 0.009527 -0.006763 -680008.000000 1 0 0
-3.864062 -17.929189 -8.085358 20.043947 1.358525 1.986006 0.000424 -0.005204 -289409.000000 1 0 0
-13.505162 -11.315689 2.626942 17.813900 0.697415 1.422791 0.003831 0.001831 193873.000000 1 0 0
-8.538362 -12.069889 4.167842 15.360884 0.955114 1.296024 0.000391 -0.004034 1618810.000000 1 0 0
-8.229762 -9.379989 -5.890858 13.799109 0.850623 2.011860 0.011527 -0.007951 -636168.000000 1 0 0
3.740638 -17.474189 -5.330658 18.648206 -1.359913 1.860693 0.003480 0.003153 -620989.000000 1 0 0
-2.596362 -13.045289 11.366642 17.496320 1.374337 0.863661 0.004347 -0.008559 534267.000000 1 0 0
-0.024362 -16.795289 -9.427558 19.260353 1.569346 2.082290 -0.001862 0.003015 -176451.000000 1 0 0
-7.127962 -10.823589 -14.503558 19.450222 0.988428 2.412345 0.008814 -0.004744 89117.100000 1 0 0
-4.778262 -18.729489 -1.435858 19.382653 1.321005 1.644944 0.003294 -0.008920 56943.300000 1 0 0
-2.449762 -17.150989 1.071542 17.358167 1.428921 1.509026 0.008095 -0.007014 746930.000000 1 0 0
4.004538 -14.578189 -7.331258 16.802002 -1.302715 2.022315 -0.002149 0.000658 97088.800000 1 0 0
-0.945562 -15.812589 -6.103958 16.976171 1.511069 1.938593 -0.002136 -0.002667 -539467.000000 1 0 0
-9.385962 -15.255489 8.374842 19.772815 1.019238 1.133432 -0.005204 -0.004032 -506635.000000 1 0 0
-7.176762 -12.065089 -1.879858 14.163550 1.034182 1.703914 0.001746 -0.002968 857539.000000 1 0 0
-7.226962 -15.243389 -9.331158 19.278496 1.128079 2.076038 0.006093 -0.002633 -73627.600000 1 0 0
-5.086362 -13.224589 -0.596058 14.181542 1.203624 1.612839 0.001186 -0.002537 2790560.000000 1 0 0
-6.458362 -13.730289 -7.245158 16.814387 1.131130 2.016276 0.002063 -0.006510 -387919.000000 1 0 0
5.676538 -15.470689 0.295642 16.481890 -1.219126 1.552858 0.003066 0.004231 1217.660000 1 0 0
-14.492862 -12.811689 0.896642 19.364566 0.723905 1.524477 0.005562 -0.002007 1161900.000000 1 0 0
0.753138 -15.330589 11.047642 18.911493 -1.521709 0.946932 0.015351 -0.005748 353344.000000 1 0 0
-9.300462 -10.724889 1.912842 14.324134 0.856410 1.436856 0.001670 0.001511 -193574.000000 1 0 0
-9.345862 -8.814689 -3.597658 13.341178 0.756158 1.843842 0.013106 -0.006044 629152.000000 1 0 0
-12.247462 -7.255089 -12.183058 18.736690 0.534794 2.278676 0.017135 -0.010089 -1142440.000000 1 0 0
-13.308362 -8.317289 -0.645358 15.706887 0.558576 1.611896 0.005608 0.002553 1546320.000000 1 0 0
-11.269062 -9.637989 0.411942 14.834160 0.707540 1.543023 0.000544 0.001849 1321840.000000 1 0 0
-15.943062 -12.229889 2.926042 20.305495 0.654354 1.426192 0.020776 0.001404 -159591.000000 1 0 0
-10.425162 -12.493689 -2.333958 16.438480 0.875409 1.713259 0.010554 -0.004893 638732.000000 1 0 0
-3.477662 -8.929689 -12.194958 15.509690 1.199418 2.475561 0.001414 0.001931 -221130.000000 1 0 0
-0.258562 -15.607789 3.843942 16.076250 1.554232 1.329350 0.014418 -0.004377 -587381.000000 1 0 0
-15.704262 -7.739589 1.193842 17.548514 0.457898 1.502713 0.001948 0.002449 421129.000000 1 0 0
-6.206462 -13.366989 -13.285158 19.841674 1.136104 2.304410 0.005679 -0.002558 -92089.600000 1 0 0
-15.424362 -10.365489 1.086742 18.615459 0.591700 1.512385 0.017257 0.001227 1078200.000000 1 0 0
-9.987862 -8.359989 -12.491758 18.046907 0.696907 2.335305 0.011882 -0.005289 212970.000000 1 0 0
-13.230162 -11.716089 -6.374958 18.786805 0.724779 1.917003 0.015733 -0.005880 -269122.000000 1 0 0
-12.181262 -11.413589 -3.917258 17.146372 0.752874 1.801292 0.007343 -0.002829 -449444.000000 1 0 0
-11.966162 -11.074189 -8.992758 18.619785 0.746704 2.074837 0.019512 -0.015072 204163.000000 1 0 0
-13.208762 -8.462189 -5.903258 16.760922 0.569774 1.930721 0.012193 -0.006728 -1810320.000000 1 0 0
-13.574262 -8.130189 -3.268658 16.156878 0.539641 1.774510 0.017933 -0.004343 252599.000000 1 0 0
-4.452162 -16.925989 -3.238858 17.798906 1.313586 1.753785 -0.007925 -0.006587 -13995.900000 1 0 0
-15.511962 -8.968889 -1.803558 18.008741 0.524230 1.671114 0.019936 0.004615 -478022.000000 1 0 0
-9.340362 -15.539389 3.694942 18.503177 1.029586 1.369752 -0.004207 -0.004389 -479323.000000 1 0 0
4.706638 -17.129289 8.032842 19.495936 -1.302643 1.146119 0.027049 -0.025272 603441.000000 1 0 0
-8.211562 -15.435789 6.039842 18.497920 1.081892 1.238183 -0.007057 0.002753 725669.000000 1 0 0
0.859438 -16.127589 8.582542 18.289281 -1.517557 1.082337 0.017655 -0.003845 274564.000000 1 0 0
-10.885462 -7.892689 -10.131958 16.835807 0.627352 2.216562 0.013918 -0.007050 814201.000000 1 0 0
-4.830462 -16.029489 5.797942 17.717054 1.278103 1.237402 -0.001491 -0.000556 -2071740.000000 1 0 0
-1.257962 -13.252789 -12.174258 18.039719 1.476159 2.311569 0.009250 0.000531 -1495830.000000 1 0 0
-6.438962 -14.473489 -2.521058 16.040507 1.152209 1.728619 -0.000110 -0.005350 35398.400000 1 0 0
-17.594462 -6.815089 -7.326558 20.240776 0.369548 1.941177 0.014656 -0.010668 30593.300000 1 0 0
-17.296962 -4.008489 -10.299758 20.526517 0.227725 2.096450 0.013388 -0.010503 330311.000000 1 0 0
-15.292762 -5.284089 -9.124158 18.575264 0.332686 2.084262 0.006775 -0.012563 186054.000000 1 0 0
-16.077462 -5.414089 -5.660358 17.883982 0.324823 1.892838 0.012725 -0.004684 -882041.000000 1 0 0
-15.129262 -4.367889 -12.431458 20.062756 0.281062 2.239066 0.012422 -0.004200 -1110590.000000 1 0 0
-18.695762 -5.246689 -5.643058 20.221359 0.273598 1.853616 0.018084 -0.000187 -646571.000000 1 0 0
-17.333362 -4.352189 -7.712558 19.464597 0.246002 1.978209 0.005361 -0.009636 194134.000000 1 0 0
12.105438 -7.954789 8.736742 16.915997 -0.581368 1.028063 0.015636 -0.005324 244769.000000 1 0 0
16.101738 -3.357089 1.791742 16.545282 -0.205548 1.462290 0.024290 -0.006422 23480.000000 1 0 0
11.878738 -2.148589 12.581842 17.436272 -0.178942 0.764700 0.006930 -0.003440 591127.000000 1 0 0
9.675938 -10.088189 5.283642 14.943634 -0.806254 1.209410 -0.002358 0.000502 -107382.000000 1 0 0
16.863838 -1.940289 7.309542 18.481968 -0.114552 1.164189 0.037783 -0.013239 -585296.000000 1 0 0
5.173038 -13.006389 9.301342 16.805994 -1.192248 0.984291 0.000057 0.007478 -540884.000000 1 0 0
14.981238 -9.002189 -2.170058 17.612100 -0.541079 1.694324 0.006218 0.000611 156807.000000 1 0 0
11.164538 -8.566389 6.443742 15.477459 -0.654472 1.141390 0.010249 -0.005713 -1508360.000000 1 0 0
19.867038 -3.495489 3.791642 20.525452 -0.174162 1.385000 0.032824 -0.010767 413470.000000 1 0 0
13.614138 -8.584989 6.862042 17.496697 -0.562612 1.167784 0.022915 -0.011258 -1690180.000000 1 0 0
8.240638 -11.171489 8.826142 16.450260 -0.935247 1.004471 -0.001441 0.001807 -1676720.000000 1 0 0
16.785338 -0.004189 -0.703858 16.800089 -0.000250 1.612705 0.020514 0.000210 -327465.000000 1 0 0
12.168838 -12.381389 2.406042 17.526222 -0.794056 1.433079 0.001449 -0.001312 -2080430.000000 1 0 0
10.159538 -11.767989 3.686342 15.977825 -0.858620 1.337983 0.002072 0.001386 -860952.000000 1 0 0
16.373638 2.824111 2.351242 16.780940 0.170799 1.430220 0.014937 0.000091 64237.900000 1 0 0
18.406438 -3.352889 0.503342 18.716094 -0.180183 1.543900 0.024769 -0.005770 402585.000000 1 0 0
13.326038 -11.538689 -0.164058 17.628147 -0.713639 1.580103 0.009268 0.002831 -457022.000000 1 0 0
16.855138 -7.635489 -0.886358 18.525172 -0.425351 1.618661 0.015928 -0.003179 325868.000000 1 0 0
10.182438 -5.748589 9.747742 15.223232 -0.513952 0.875881 0.002867 -0.004853 873568.000000 1 0 0
11.204338 -13.280189 6.303742 18.483446 -0.869978 1.222765 0.012603 0.003236 745020.000000 1 0 0
13.095938 -1.828689 10.305442 16.764541 -0.138741 0.908770 0.020056 -0.004945 -480766.000000 1 0 0
15.488338 -2.042589 -1.503858 15.694661 -0.131123 1.666763 0.013298 -0.000776 -273202.000000 1 0 0
10.401238 -12.595289 9.224542 18.759510 -0.880518 1.056725 0.018351 -0.006563 -36129.900000 1 0 0
14.449138 1.166311 3.313542 14.870018 0.080544 1.346076 0.012618 -0.003121 1323310.000000 1 0 0
14.801038 -5.954989 5.242342 16.793295 -0.382518 1.253321 0.021618 -0.012338 -549061.000000 1 0 0
14.284438 -3.474789 -3.128558 15.030210 -0.238622 1.780481 0.011479 -0.000263 738876.000000 1 0 0
14.000138 0.517411 9.589142 16.977138 0.036941 0.970573 0.028186 -0.007182 -502898.000000 1 0 0
15.409538 -3.605889 4.381242 16.421071 -0.229868 1.300719 0.022088 -0.009317 -1431140.000000 1 0 0
18.387738 4.636311 -4.220958 19.427320 0.246993 1.789812 -0.016584 -0.001457 426035.000000 1 0 0
18.220638 -5.907689 -5.138458 19.831697 -0.313536 1.832890 0.037901 -0.009419 403966.000000 1 0 0
17.241138 -0.080789 5.874642 18.214686 -0.004686 1.242403 0.036266 -0.003139 595846.000000 1 0 0
16.887738 -6.660889 3.987442 18.586630 -0.375688 1.354583 0.024092 -0.012513 -624056.000000 1 0 0
9.797138 -6.624789 14.297942 18.555400 -0.594571 0.691086 0.008375 -0.003547 -109535.000000 1 0 0
8.478738 -12.281889 5.217542 15.810014 -0.966580 1.234477 -0.003060 -0.000335 -1642660.000000 1 0 0
16.684038 -10.215189 -0.630258 19.573054 -0.549395 1.603002 0.013776 0.004804 -515385.000000 1 0 0
14.801138 -8.860289 0.367442 17.254374 -0.539406 1.549499 0.017814 -0.003424 2465.970000 1 0 0
9.821738 -12.996689 1.473942 16.357046 -0.923650 1.480563 0.006155 -0.000124 19656.600000 1 0 0
16.774838 -8.414589 8.814942 20.734119 -0.464943 1.131678 0.033566 -0.006858 675813.000000 1 0 0
19.145838 -0.144789 -1.941858 19.244607 -0.007562 1.671872 0.033186 0.000649 -157353.000000 1 0 0
13.387638 -1.343789 7.782742 15.543670 -0.100040 1.046387 0.016833 -0.008479 -556767.000000 1 0 0
12.774438 -9.863289 -3.036458 16.422266 -0.657503 1.756765 0.009201 0.001501 -1853350.000000 1 0 0
8.739138 -15.274389 1.522142 17.663420 -1.051112 1.484515 0.010662 0.003363 -515595.000000 1 0 0
11.388438 -8.415889 11.061542 17.968901 -0.636414 0.907657 0.016131 -0.008062 -39850.300000 1 0 0
13.865738 -3.923289 -0.550758 14.420618 -0.275741 1.608998 0.013054 -0.004148 -53725.100000 1 0 0
7.066738 -13.446789 10.999942 18.755096 -1.086931 0.944060 0.005486 0.007382 -757136.000000 1 0 0
15.380638 -6.760789 1.798342 16.896932 -0.414142 1.464164 0.013828 -0.003176 -310866.000000 1 0 0
15.860938 -6.088189 -2.624158 17.190742 -0.366505 1.724045 0.016742 -0.002746 111244.000000 1 0 0
11.114038 -8.581289 3.826542 14.553446 -0.657504 1.304738 0.009433 -0.004248 380694.000000 1 0 0
10.481938 -14.594989 -0.389458 17.973214 -0.947968 1.592467 0.017154 0.001072 590426.000000 1 0 0
13.218438 -12.936189 4.600542 19.058779 -0.774607 1.327001 0.008964 0.000285 628209.000000 1 0 0
12.740138 -11.111189 6.474742 18.102263 -0.717208 1.205018 0.015024 -0.008791 981356.000000 1 0 0
10.651938 -10.482689 1.490042 15.019014 -0.777390 1.471423 -0.002377 -0.001533 -156879.000000 1 0 0
13.875838 -7.628289 11.722842 19.701642 -0.502654 0.933508 0.027400 -0.017395 244498.000000 1 0 0
15.250538 -1.887789 -4.990358 16.156928 -0.123159 1.884799 0.014505 -0.000564 -493881.000000 1 0 0
12.985838 -11.402989 -6.987058 18.640792 -0.720588 1.955006 0.026089 -0.000923 -54147.300000 1 0 0
17.669038 -5.369689 1.974942 18.572260 -0.295034 1.464257 0.032922 -0.008735 673635.000000 1 0 0
10.511338 -9.936289 9.030242 17.051784 -0.757283 1.012694 0.002922 -0.001901 -194848.000000 1 0 0
16.265738 1.660911 10.189842 19.265662 0.101758 1.013478 0.045083 -0.000861 -301064.000000 1 0 0
18.144638 3.697011 0.638742 18.528458 0.201001 1.536316 0.001018 0.004539 722958.000000 1 0 0
13.186938 -4.063089 5.726742 14.939866 -0.298885 1.177409 0.014773 -0.009583 -1057890.000000 1 0 0
12.030338 -6.219089 6.646742 15.085930 -0.477116 1.114538 0.013275 -0.009281 -254637.000000 1 0 0
16.303038 -10.255989 3.355442 19.550789 -0.561531 1.398315 0.003740 -0.006969 -654564.000000 1 0 0
16.212438 -8.052389 -5.374758 18.883118 -0.460988 1.859420 0.017266 -0.005851 -412927.000000 1 0 0
14.012838 -0.336089 5.402342 15.021913 -0.023980 1.202924 0.013391 -0.004426 -166802.000000 1 0 0
18.104238 -4.316389 5.463842 19.397119 -0.234049 1.285248 0.032205 -0.008024 -81433.800000 1 0 0
13.624638 -13.482789 7.103042 20.441858 -0.780165 1.215919 0.027258 -0.003579 -573018.000000 1 0 0
14.910238 -13.487789 -0.614458 20.115000 -0.735350 1.601348 0.008871 0.003027 218858.000000 1 0 0
17.834238 -6.153589 8.280142 20.603093 -0.332252 1.157218 0.051335 -0.006260 245249.000000 1 0 0
14.274138 3.142411 9.316242 17.332574 0.216691 1.003328 0.023506 -0.009538 202663.000000 1 0 0
18.884538 3.578011 2.995342 19.452506 0.187248 1.416199 0.028001 -0.000325 1324360.000000 1 0 0
14.771438 -10.681189 8.096742 19.945937 -0.626060 1.152795 0.024010 -0.007379 -360077.000000 1 0 0
14.804438 -5.028589 10.312442 18.729777 -0.327441 0.987725 0.032820 -0.012379 297685.000000 1 0 0
17.755338 -8.025489 1.978542 19.585074 -0.424519 1.469601 0.035948 -0.009673 59567.800000 1 0 0
18.391838 -5.810689 -1.991458 19.390454 -0.306014 1.673681 0.019180 -0.005350 -140046.000000 1 0 0
14.250338 -13.105889 -5.407058 20.101561 -0.743588 1.843137 0.025490 -0.000089 598580.000000 1 0 0
15.386738 -1.591689 9.435942 18.119663 -0.103079 1.023059 0.043980 -0.009711 -1712820.000000 1 0 0
12.875038 -10.186789 10.086442 19.268461 -0.669355 1.019879 0.012903 -0.012141 -1759690.000000 1 0 0
16.574638 2.088511 4.849142 17.395249 0.125346 1.288291 0.023938 -0.002027 -1435740.000000 1 0 0
14.915838 2.285511 -0.046858 15.089996 0.152045 1.573902 0.011964 0.001029 -1208560.000000 1 0 0
15.099538 -9.872689 -6.906558 19.317520 -0.579070 1.936416 0.024571 -0.008008 1105690.000000 1 0 0
16.188238 -0.042689 -3.260958 16.513471 -0.002637 1.769575 0.014236 0.001904 -152441.000000 1 0 0
11.954738 2.537011 13.614742 18.295173 0.209116 0.731503 0.044791 -0.008119 -227925.000000 1 0 0
17.551838 -3.048489 9.645442 20.258204 -0.171969 1.074553 0.039810 -0.012190 21829.300000 1 0 0
7.728838 -18.414389 4.623442 20.498802 -1.173409 1.343292 0.026490 -0.005967 7797.990000 1 0 0
6.688538 -11.256189 6.710342 14.712818 -1.034645 1.097202 -0.005704 0.000897 346190.000000 1 0 0
17.983438 2.143611 -1.524858 18.174826 0.118639 1.654795 0.013872 0.004501 305675.000000 1 0 0
17.565638 -2.335089 3.647042 18.091578 -0.132160 1.367818 0.028418 -0.007334 -2223620.000000 1 0 0
12.567938 -13.536089 -1.728958 18.551767 -0.822469 1.664128 0.016025 0.004054 -116710.000000 1 0 0
14.982438 -8.271789 4.347042 17.657653 -0.504453 1.322055 0.021487 -0.007561 -367872.000000 1 0 0
11.448038 -3.052689 14.972842 19.093519 -0.260593 0.669416 0.005634 -0.004263 50017.200000 1 0 0
11.919638 -13.679789 -6.488658 19.269590 -0.854048 1.914239 0.014358 -0.000869 -586417.000000 1 0 0
10.592438 -12.093289 -1.170658 16.118866 -0.851460 1.643487 0.009681 -0.002801 -1327290.000000 1 0 0
13.101538 -7.924889 2.093542 15.454355 -0.544002 1.434912 0.010970 -0.002200 -704448.000000 1 0 0
8.745738 -7.918589 10.076442 15.515369 -0.735803 0.863937 0.002787 -0.001610 -1760390.000000 1 0 0
15.586238 -3.851989 8.105642 17.985273 -0.242285 1.103267 0.038348 -0.015003 -908975.000000 1 0 0
10.136238 -17.524389 5.294742 20.925626 -1.046405 1.314989 0.023914 -0.007776 3964.050000 1 0 0
15.170538 -6.394689 8.228442 18.405013 -0.398920 1.107302 0.030750 -0.007382 903223.000000 1 0 0
16.557138 -4.969789 -0.356858 17.290603 -0.291604 1.591437 0.016724 -0.005022 -555369.000000 1 0 0
13.724938 -10.445689 3.496442 17.598621 -0.650551 1.370788 0.011439 -0.005096 162060.000000 1 0 0
14.885738 -10.111289 -4.473258 18.542745 -0.596671 1.814440 0.021204 -0.004196 -7876.550000 1 0 0
13.688038 -6.564589 -0.104958 15.181147 -0.447183 1.577710 0.010559 -0.002125 375184.000000 1 0 0
17.608138 -1.036189 -5.141158 18.372581 -0.058779 1.854411 0.008385 -0.005084 -1536810.000000 1 0 0
14.384938 0.251411 -1.646658 14.481061 0.017476 1.684754 0.011585 0.000885 -2307180.000000 1 0 0
4.708938 -12.974189 11.878942 18.210243 -1.222635 0.860152 -0.011507 0.005376 -548816.000000 1 0 0
11.985638 -7.718589 13.498042 19.632352 -0.572136 0.812699 0.019638 -0.010250 444112.000000 1 0 0
11.968038 -5.972589 11.572842 17.687182 -0.462883 0.857531 0.008184 -0.005389 105955.000000 1 0 0
13.212138 -4.643489 8.305142 16.281829 -0.337972 1.035511 0.019176 -0.013213 -1588990.000000 1 0 0
15.441038 -1.228189 3.245842 15.826231 -0.079373 1.364238 0.022947 -0.003995 279685.000000 1 0 0
15.179438 -10.396989 5.706242 19.263279 -0.600546 1.270060 0.027398 -0.011644 209237.000000 1 0 0
13.630238 -8.090289 -5.700858 16.844464 -0.535667 1.916056 0.020646 -0.001558 -1425610.000000 1 0 0
9.411038 -2.013489 13.603442 16.663595 -0.210772 0.615722 -0.007337 -0.003609 671411.000000 1 0 0
9.691738 -9.122389 13.683842 19.089141 -0.755146 0.771538 0.011907 -0.004856 -326709.000000 1 0 0
20.208738 6.017311 -3.171358 21.322726 0.289399 1.720082 0.013705 0.002591 -143899.000000 1 0 0
11.246338 -3.617389 10.599642 15.871926 -0.311199 0.839516 0.005227 -0.003846 738322.000000 1 0 0
10.297838 -14.113489 -2.922158 17.713697 -0.940450 1.736520 0.015505 0.004074 1251010.000000 1 0 0
14.682138 -12.799789 2.502842 19.638330 -0.717011 1.443002 0.005500 0.003797 436145.000000 1 0 0
11.259138 -0.426589 14.411342 18.293084 -0.037870 0.663563 0.021029 -0.003389 287830.000000 1 0 0
18.985638 -1.925589 5.778542 19.938753 -0.101078 1.276763 0.041157 -0.009960 364278.000000 1 0 0
18.912938 -0.428789 7.941142 20.516940 -0.022668 1.173363 0.048100 -0.000514 258441.000000 1 0 0
19.056138 0.658311 0.441242 19.072610 0.034532 1.547659 0.028086 -0.002386 510243.000000 1 0 0
18.503038 0.697311 3.755042 18.893094 0.037668 1.370712 0.029987 -0.004972 141155.000000 1 0 0
16.671538 -3.934789 -4.155058 17.626323 -0.231777 1.808766 0.016889 -0.004569 -404474.000000 1 0 0
10.933738 -8.430289 15.809142 20.989172 -0.656828 0.717876 0.018965 -0.009986 316728.000000 1 0 0
16.625238 -7.554789 6.363442 19.338220 -0.426521 1.235488 0.033675 -0.012427 764980.000000 1 0 0
18.868338 2.095211 5.917642 19.885235 0.110591 1.268629 0.038072 0.002159 398053.000000 1 0 0
15.489938 1.467711 7.759342 17.386769 0.094470 1.108194 0.038331 -0.004209 165603.000000 1 0 0
8.596538 -15.893389 3.925242 18.490749 -1.074976 1.356887 0.007567 -0.003300 -5493.000000 1 0 0
11.270338 -15.213289 2.063842 19.045318 -0.933195 1.462218 0.017465 0.003226 581942.000000 1 0 0
8.010838 -16.324489 6.311342 19.248260 -1.114596 1.236725 0.014666 -0.001899 43385.000000 1 0 0
14.453838 -11.697889 -2.431358 18.752748 -0.680403 1.700816 0.007915 0.001861 707852.000000 1 0 0
13.646538 -4.886689 3.145242 14.832406 -0.343864 1.357122 0.010578 -0.002440 -1814180.000000 1 0 0
-1.069862 10.220911 -5.551558 11.680386 -1.466502 2.066089 -0.000187 0.000142 -1463750.000000 1 0 0
8.207538 -1.822589 -8.191858 11.738486 -0.218517 2.343206 -0.003449 -0.001267 -3096030.000000 1 0 0
2.871238 -10.213989 7.705242 13.112602 -1.296760 0.942681 -0.001358 -0.000753 694502.000000 1 0 0
-6.262162 1.284111 8.265442 10.448978 -0.202255 0.658308 -0.002412 0.001034 -151794.000000 1 0 0
7.199238 -6.242989 -7.162058 11.920529 -0.714380 2.215319 -0.000848 -0.000998 -186292.000000 1 0 0
-11.333862 -4.455989 -4.173558 12.873650 0.374594 1.900956 0.005990 -0.004765 -27801.200000 1 0 0
2.062138 -3.356689 2.843542 4.858550 -1.019902 0.945589 0.000072 0.000283 2567110.000000 1 0 0
-3.644162 -4.237189 8.865442 10.479969 0.860501 0.562468 0.000572 -0.002018 -2436150.000000 1 0 0
-4.855762 -1.018589 -2.414058 5.517574 0.206771 2.023637 0.002855 -0.005378 -169255.000000 1 0 0
4.965738 -5.208789 -3.641358 8.065329 -0.809282 2.039223 0.000173 -0.000985 -327320.000000 1 0 0
2.742938 14.275811 -8.827458 17.007249 1.380971 2.116525 -0.000040 -0.003937 -770790.000000 1 0 0
5.523738 -5.535989 13.658742 15.739126 -0.786506 0.519997 -0.002225 -0.004673 -1128760.000000 1 0 0
-4.695362 -0.783289 9.890542 10.976465 0.165300 0.448570 0.001583 0.000503 -3184170.000000 1 0 0
-0.958762 12.081511 -2.318958 12.339356 -1.491604 1.759852 -0.002568 -0.000322 -82871.000000 1 0 0
3.137738 9.472511 -10.578358 14.542198 1.250925 2.385358 0.001114 0.000199 -400756.000000 1 0 0
-10.610362 2.650811 1.142142 10.995957 -0.244821 1.466739 -0.001477 -0.000414 88470.300000 1 0 0
5.635538 -8.963389 -0.556558 10.602424 -1.009520 1.623314 -0.006297 0.002611 1063500.000000 1 0 0
-6.901262 5.458411 9.386042 12.865436 -0.669186 0.753125 -0.000552 -0.002512 -24766.700000 1 0 0
-5.401562 -1.872389 5.129842 7.681015 0.333677 0.839467 0.005113 -0.003853 597812.000000 1 0 0
6.549138 -3.791889 -7.395258 10.581091 -0.524828 2.344672 -0.001447 -0.002198 411307.000000 1 0 0
6.281138 4.791511 11.154942 13.669089 0.651669 0.616217 0.005120 -0.001442 544406.000000 1 0 0
3.776338 -10.015189 3.206242 11.173394 -1.210220 1.279752 -0.009595 0.001959 776120.000000 1 0 0
-6.613362 6.573711 -5.772558 10.966889 -0.782391 2.125113 0.002317 -0.001910 -129909.000000 1 0 0
-11.020062 8.491711 5.259142 14.873113 -0.656535 1.209379 0.006774 -0.002863 -163687.000000 1 0 0
-9.212562 -5.541189 5.081542 11.891095 0.541508 1.129248 0.002308 -0.003518 -557186.000000 1 0 0
3.239638 9.837511 -8.072958 13.131814 1.252667 2.232882 -0.001423 0.000444 713063.000000 1 0 0
-8.158762 -8.622289 6.054942 13.325599 0.813013 1.099116 0.000392 -0.001276 -3682280.000000 1 0 0
-7.831962 -5.743089 -7.549858 12.301344 0.632720 2.231589 0.007651 -0.004739 -133907.000000 1 0 0
9.186838 -1.462289 6.858442 11.557444 -0.157848 0.935493 0.000638 -0.002444 2200320.000000 1 0 0
-4.047162 -0.351289 -4.818358 6.302341 0.086582 2.441115 0.007465 -0.009622 -944793.000000 1 0 0
8.988338 1.098811 -4.433658 10.082407 0.121645 2.026108 -0.002143 0.002024 -2694520.000000 1 0 0
-2.023062 -10.644889 10.679342 15.213638 1.382986 0.792653 0.002014 -0.007125 600317.000000 1 0 0
-12.872062 0.271611 -2.724458 13.160032 -0.021098 1.779330 0.001093 -0.001536 -1149500.000000 1 0 0
-9.840562 -5.217689 -6.110158 12.704132 0.487532 2.072544 0.006903 -0.005611 -683422.000000 1 0 0
-5.460262 8.329511 -0.052158 9.959816 -0.990542 1.576033 0.005406 0.000110 690816.000000 1 0 0
6.258038 9.728511 0.357342 11.573014 0.999168 1.539914 0.002157 -0.001822 631675.000000 1 0 0
-0.472262 -11.970289 -0.013058 11.979609 1.531364 1.571886 0.004113 0.001560 -386624.000000 1 0 0
6.030038 4.701211 2.352342 7.999766 0.662197 1.272334 -0.003541 -0.000800 368659.000000 1 0 0
3.471638 -7.454689 -8.240458 11.641727 -1.134964 2.357229 -0.001939 -0.001128 780424.000000 1 0 0
-6.525662 -9.805189 4.647442 12.661940 0.983580 1.194971 0.002662 -0.000207 -1918620.000000 1 0 0
-0.125362 6.595711 -9.213758 11.331922 -1.551792 2.520220 0.002392 0.000027 -2032520.000000 1 0 0
-17.351362 -2.827689 4.199142 18.074800 0.161546 1.336334 0.019993 -0.003974 233743.000000 1 0 0
-8.324362 0.987311 -9.232458 12.470288 -0.118053 2.404397 0.003463 -0.003557 26508.700000 1 0 0
-10.005162 -5.912989 -11.772358 16.542525 0.533771 2.362629 0.005564 0.001606 -17635.700000 1 0 0
2.238138 9.441511 6.418542 11.633962 1.338040 0.986386 -0.005044 0.006915 599754.000000 1 0 0
-11.328062 1.593911 -1.253358 11.508104 -0.139787 1.679924 0.000952 -0.002509 -1997780.000000 1 0 0
-5.934162 -5.247389 -3.135658 8.519491 0.724055 1.947715 0.011441 -0.005027 717705.000000 1 0 0
-6.988162 -8.321789 1.385142 10.954689 0.872287 1.444014 0.006994 -0.001674 248854.000000 1 0 0
0.017538 11.083411 -7.832658 13.571766 1.569214 2.186005 -0.000228 0.001036 -689703.000000 1 0 0
-3.088662 9.469311 -4.262858 10.834189 -1.255501 1.975192 0.003026 -0.001122 -161916.000000 1 0 0
3.480738 -4.828589 9.349842 11.083788 -0.946207 0.566918 0.000145 -0.000970 -994021.000000 1 0 0
-8.982062 1.571311 -0.417958 9.128042 -0.173186 1.616601 0.001667 -0.001865 -1347130.000000 1 0 0
2.559438 3.577211 -10.418058 11.308541 0.949754 2.742093 -0.003817 0.000113 -594098.000000 1 0 0
-13.607462 0.542411 0.932742 13.650174 -0.039840 1.502411 0.006503 -0.002056 -1678920.000000 1 0 0
9.441538 -12.710589 -5.113058 16.638662 -0.931913 1.883151 0.013213 0.003614 -2185450.000000 1 0 0
-4.674662 9.496611 -8.237958 13.412757 -1.113372 2.232153 -0.000079 0.000960 -13023.800000 1 0 0
-2.306862 7.245311 8.471142 11.383162 -1.262551 0.731487 -0.004384 0.001042 -798524.000000 1 0 0
-10.715462 -1.305089 -4.446858 11.674714 0.121198 1.961562 0.002007 -0.003535 -3850060.000000 1 0 0
2.630038 -7.183089 9.724642 12.372652 -1.219813 0.666519 -0.001735 0.000922 -1121710.000000 1 0 0
-16.154762 -6.582289 3.387742 17.770190 0.386914 1.378980 0.009918 -0.002278 424.786000 1 0 0
-10.793162 -0.075589 6.170242 12.432616 0.007003 1.051471 0.001481 -0.001758 -544983.000000 1 0 0
-8.295462 9.876711 9.394442 15.956805 -0.872194 0.941295 0.003552 -0.009191 -1064190.000000 1 0 0
0.170538 -6.036289 -3.772558 7.120258 -1.542552 2.129202 -0.004440 -0.000421 468211.000000 1 0 0
4.874538 1.617911 -3.094558 5.996253 0.320470 2.113067 -0.007577 0.000766 -842014.000000 1 0 0
0.380738 5.276011 3.745542 6.481538 1.498757 0.954669 -0.008319 0.005075 -2062910.000000 1 0 0
6.013338 -11.260489 -1.343258 12.836012 -1.080304 1.675636 -0.006683 0.003675 -2158230.000000 1 0 0
6.143738 -13.551889 5.402442 15.829895 -1.145161 1.222517 -0.005555 -0.000171 316988.000000 1 0 0
8.263638 -8.182389 -6.009458 13.090179 -0.780458 2.047757 0.004254 -0.001785 612219.000000 1 0 0
-13.127462 -1.349089 -4.643958 13.989877 0.102409 1.909168 0.000341 0.000289 -3185770.000000 1 0 0
-6.872962 -1.496189 -7.132058 10.017108 0.214348 2.363121 0.005861 -0.006781 -760997.000000 1 0 0
-5.696362 12.821911 -4.493658 14.732376 -1.152720 1.880755 0.006511 -0.001549 331873.000000 1 0 0
-4.305662 6.888611 -6.680958 10.517932 -1.012168 2.259060 0.005188 -0.001143 -3523490.000000 1 0 0
-9.384262 -3.682989 -8.119358 12.944218 0.373993 2.248823 0.006843 -0.003805 230272.000000 1 0 0
-2.370462 -6.441889 9.146442 11.435664 1.218198 0.643806 0.001964 -0.003520 -1099720.000000 1 0 0
7.501738 -6.057389 10.157242 14.004913 -0.679276 0.759380 -0.001832 -0.000037 457764.000000 1 0 0
9.691838 -5.008389 12.255242 16.407517 -0.476968 0.727366 0.002348 0.001132 -1198970.000000 1 0 0
-6.463962 2.839911 -9.034258 11.465850 -0.413958 2.478232 0.002896 -0.004660 -268002.000000 1 0 0
7.387938 5.444511 8.821342 12.729509 0.635094 0.805177 -0.002114 0.002037 309860.000000 1 0 0
12.693438 3.310711 11.291542 17.308468 0.255137 0.860088 0.029385 -0.004296 -799363.000000 1 0 0
-7.313862 -7.297789 -3.872358 11.033833 0.784298 1.929385 0.014104 -0.006791 -1942050.000000 1 0 0
2.364338 1.472411 -5.768058 6.405356 0.556986 2.691727 -0.004655 -0.001858 -1321520.000000 1 0 0
12.878038 6.842711 -7.203658 16.265277 0.488410 2.029611 0.008432 -0.000052 352944.000000 1 0 0
0.834038 -7.810489 0.998042 7.918046 -1.464415 1.444414 -0.001807 0.000739 1369930.000000 1 0 0
-10.295862 -6.008289 -8.556458 14.673694 0.528246 2.193355 0.008686 -0.003999 -184682.000000 1 0 0
-6.693162 0.356311 3.054742 7.365923 -0.053185 1.143169 0.005101 -0.003692 -277219.000000 1 0 0
10.616038 -7.966489 1.281942 13.334489 -0.643770 1.474510 -0.000276 -0.000332 384954.000000 1 0 0
6.319038 0.919511 10.513842 12.301081 0.144500 0.545807 -0.000879 -0.000851 -1032290.000000 1 0 0
-12.931062 5.326811 1.854842 14.107718 -0.390756 1.438937 0.001883 0.001674 163390.000000 1 0 0
2.108338 7.292311 3.669542 8.431395 1.289353 1.120510 -0.009303 0.003758 -340273.000000 1 0 0
10.051138 -9.504989 -0.881758 13.861735 -0.757478 1.634450 -0.002568 -0.000039 526650.000000 1 0 0
6.694338 -11.700789 -9.040258 16.231109 -1.051124 2.161531 -0.000984 -0.000574 -623931.000000 1 0 0
10.207338 3.498411 12.001242 16.138724 0.330188 0.732313 0.007920 -0.000696 -256607.000000 1 0 0
-11.027162 -3.164589 -1.967558 11.639769 0.279471 1.740649 0.004443 -0.002996 652781.000000 1 0 0
12.403938 0.917411 6.909942 14.228373 0.073827 1.063695 0.009468 -0.003679 50771.500000 1 0 0
-9.532162 9.130111 3.068442 13.551250 -0.763858 1.342383 0.004530 -0.000373 2144460.000000 1 0 0
-6.594462 7.735211 -8.819158 13.457265 -0.864838 2.285436 -0.000059 -0.001885 56557.900000 1 0 0
8.497038 5.497511 12.284642 15.916491 0.574257 0.689100 0.012881 -0.000455 -2206910.000000 1 0 0
1.287838 4.967711 -2.659358 5.780040 1.317139 2.048897 -0.002244 -0.001137 308096.000000 1 0 0
1.194938 0.529011 9.501742 9.591185 0.416775 0.136675 0.000374 -0.001027 777484.000000 1 0 0
2.620538 12.631011 -3.951558 13.491644 1.366230 1.868044 0.003934 -0.002817 569517.000000 1 0 0
2.061038 0.616911 12.942242 13.119835 0.290833 0.164723 0.003554 -0.005445 13477.200000 1 0 0
-12.248662 -1.773089 0.844142 12.405085 0.143759 1.502696 0.001450 -0.003667 -172339.000000 1 0 0
3.249038 8.722211 -1.259858 9.392574 1.214218 1.705335 0.002117 -0.001200 -773516.000000 1 0 0
3.641438 -2.835189 -5.814758 7.423596 -0.661549 2.470722 -0.004268 -0.001816 -2101080.000000 1 0 0
-7.763362 -7.162289 9.241242 14.034555 0.745149 0.852021 0.003239 -0.006111 89205.900000 1 0 0
-7.078662 10.903011 -3.419558 13.441595 -0.994956 1.828025 0.007670 0.001131 649719.000000 1 0 0
0.426038 0.430511 2.500742 2.573044 0.790620 0.237624 -0.007216 0.000581 -1127710.000000 1 0 0
-7.126962 4.571911 -2.118858 8.728432 -0.570373 1.816000 0.005874 -0.002990 -448243.000000 1 0 0
-6.985662 -3.839689 -5.941358 9.941953 0.502577 2.211307 0.004265 -0.006907 -75457.700000 1 0 0
2.966438 -6.089889 13.469842 15.077239 -1.117515 0.465963 -0.002387 -0.003240 435450.000000 1 0 0
-5.413162 -0.570489 -11.672358 12.879120 0.105002 2.705244 0.006364 -0.004876 -1005360.000000 1 0 0
11.763238 2.436111 -0.533258 12.024673 0.204209 1.615158 0.003217 0.002029 -937967.000000 1 0 0
6.061538 -11.048889 10.849642 16.629339 -1.069020 0.859997 -0.004796 0.001896 438734.000000 1 0 0
-8.101362 6.401911 -10.401458 14.656291 -0.668753 2.359858 -0.002812 -0.000016 489630.000000 1 0 0
2.952738 7.888511 11.189442 14.005387 1.212632 0.645268 0.002506 -0.000454 965463.000000 1 0 0
-6.223562 -10.283389 -0.335658 12.024703 1.026558 1.598714 0.008950 -0.004148 -448112.000000 1 0 0
11.345738 4.256911 6.179942 13.602894 0.358945 1.099198 0.006154 -0.001998 2152190.000000 1 0 0
-7.896862 10.679211 1.458442 13.361625 -0.934074 1.461427 0.001636 -0.000415 836604.000000 1 0 0
4.292138 -2.622489 -3.449458 6.099070 -0.548467 2.171922 -0.003986 -0.003267 -5891220.000000 1 0 0
6.370538 6.467111 6.159342 10.970176 0.792921 0.974644 -0.000971 0.003682 -5056080.000000 1 0 0
-0.258662 10.392111 -10.132558 14.516598 -1.545911 2.343395 -0.003426 0.001583 -399534.000000 1 0 0
13.927838 6.473411 -2.410158 15.546658 0.435079 1.726452 0.003610 0.003429 509699.000000 1 0 0
1.421738 9.505211 -6.385658 11.538934 1.422322 2.157238 0.001208 -0.000752 -564707.000000 1 0 0
0.643838 7.390011 7.283342 10.395857 1.483893 0.794558 -0.008182 0.006995 273803.000000 1 0 0
12.356238 6.160211 1.974842 13.947215 0.462487 1.428725 0.003851 -0.000496 -1744540.000000 1 0 0
-6.860762 6.720811 -3.124658 10.099646 -0.775094 1.885340 0.003005 -0.001305 165354.000000 1 0 0
1.098338 9.865411 11.227842 14.986564 1.459921 0.723952 0.002961 -0.000894 -2583570.000000 1 0 0
-3.668362 13.724811 -10.928558 17.923747 -1.309622 2.226510 -0.001010 0.003809 -133274.000000 1 0 0
-10.011562 -5.504889 -2.393358 11.673189 0.502730 1.777291 0.006608 -0.002693 619969.000000 1 0 0
-3.959462 3.928911 -12.452858 13.645049 -0.781525 2.720464 0.001472 -0.003700 -227123.000000 1 0 0
-3.126762 8.427211 2.463342 9.320009 -1.215509 1.303311 -0.000957 0.003732 -2990080.000000 1 0 0
7.076638 8.873811 6.980642 13.324889 0.897597 1.019397 0.001010 0.004433 523301.000000 1 0 0
-1.342362 -2.162089 -8.109158 8.499119 1.015177 2.837495 0.002364 -0.007103 -2227490.000000 1 0 0
0.868038 -1.287889 4.821442 5.065417 -0.977734 0.311630 -0.001378 -0.001280 -973788.000000 1 0 0
2.669938 -8.768189 -6.168258 11.047947 -1.275214 2.163152 -0.005187 -0.000031 287344.000000 1 0 0
5.199038 3.959011 8.824442 10.980643 0.650814 0.637416 0.000133 0.002144 560259.000000 1 0 0
6.075438 -7.470989 -2.707858 10.002956 -0.888056 1.844922 -0.002625 0.000570 872947.000000 1 0 0
1.736438 2.147611 -8.283058 8.731352 0.890867 2.819759 -0.000868 -0.001235 34527.000000 1 0 0
-5.457762 11.037711 -0.653958 12.330689 -1.111586 1.623856 0.004952 -0.000354 620140.000000 1 0 0
-5.336262 3.331711 -3.417458 7.159261 -0.558134 2.068430 0.003386 -0.000965 -11825.300000 1 0 0
1.970338 13.724711 -6.372158 15.259565 1.428209 2.001582 -0.008062 0.000082 581317.000000 1 0 0
-5.363362 -2.565889 2.604242 6.490879 0.446227 1.157953 -0.001541 -0.003084 644494.000000 1 0 0
10.285738 -3.332789 -1.759558 10.954448 -0.313346 1.732120 0.001977 0.000875 -61994.400000 1 0 0
2.300138 -3.284689 6.999142 8.066461 -0.959896 0.520271 0.000345 0.000081 -1375410.000000 1 0 0
-2.847762 9.892611 -11.670258 15.561762 -1.290507 2.418755 -0.000876 0.003876 -2648580.000000 1 0 0
0.466338 -2.087689 9.394542 9.635005 -1.351029 0.223883 0.002081 -0.001336 312848.000000 1 0 0
9.462038 2.641711 4.966342 11.007877 0.272258 1.102729 0.000853 -0.002041 -811480.000000 1 0 0
13.312738 2.067011 -5.029258 14.380367 0.154036 1.928080 0.006779 0.000535 55349.600000 1 0 0
-6.418362 3.708111 7.621442 10.631643 -0.523887 0.771502 -0.000200 -0.000270 90766.200000 1 0 0
10.630838 0.161211 1.768242 10.778097 0.015163 1.405993 0.003253 -0.001670 1229020.000000 1 0 0
15.282438 6.405311 -4.529558 17.178411 0.396887 1.837629 0.005416 0.001685 -1754410.000000 1 0 0
8.061738 -4.967889 -9.296558 13.270175 -0.552268 2.346979 0.002464 -0.000143 474213.000000 1 0 0
4.423538 5.697111 -2.136358 7.522552 0.910579 1.858753 -0.002448 -0.001191 366478.000000 1 0 0
-1.702362 -10.425389 1.469842 10.665234 1.408935 1.432540 0.006476 0.001770 -1324170.000000 1 0 0
-2.877162 12.237711 -12.757558 17.910749 -1.339884 2.363545 0.000100 -0.000254 -533614.000000 1 0 0
8.223538 4.282711 -9.592858 13.341331 0.480139 2.373206 -0.002153 0.001938 -131502.000000 1 0 0
4.130738 7.666711 -9.056958 12.564631 1.076601 2.375795 -0.001710 0.000669 -2129070.000000 1 0 0
-1.743062 -4.938889 -2.542058 5.821765 1.231517 2.022665 0.002348 -0.003709 -662004.000000 1 0 0
-3.354662 -9.096289 6.957542 11.933299 1.217477 0.948336 0.004521 -0.001716 -472135.000000 1 0 0
1.053138 7.408211 -1.449158 7.621729 1.429584 1.762096 -0.002167 0.000599 296779.000000 1 0 0
0.255438 -0.840589 -2.280958 2.444302 -1.275784 2.773941 0.002320 -0.001035 -955414.000000 1 0 0
4.124738 -6.768389 7.598742 10.980229 -1.023485 0.806487 -0.000434 0.001741 -168223.000000 1 0 0
-13.919062 3.945611 6.088542 15.696448 -0.276222 1.172452 0.000247 0.004783 -1198610.000000 1 0 0
4.257138 6.297411 12.654042 14.761618 0.976350 0.540938 0.007557 -0.002084 -2394360.000000 1 0 0
8.294038 10.134211 -7.173058 14.931378 0.884924 2.071909 0.013233 -0.002876 -77616.000000 1 0 0
12.457938 5.258011 9.567542 16.564563 0.399379 0.955022 0.014371 -0.001700 -309902.000000 1 0 0
7.449638 4.216611 0.321542 8.566230 0.515056 1.533252 0.001042 -0.000451 -1623840.000000 1 0 0
-10.873862 -7.452189 -1.131658 13.230898 0.600813 1.656432 0.006871 -0.000912 -1639490.000000 1 0 0
10.499938 6.837611 0.219542 12.531952 0.577222 1.553277 0.002875 0.001017 -374748.000000 1 0 0
14.646638 3.530211 4.128042 15.621367 0.236514 1.303364 0.012985 -0.005887 475841.000000 1 0 0
2.184638 5.584211 8.152642 10.120357 1.197884 0.634162 -0.007017 0.004923 533730.000000 1 0 0
4.316138 0.166711 11.771642 12.539074 0.038606 0.351676 0.000773 -0.003243 -1588890.000000 1 0 0
-1.610462 -1.402589 -0.407058 2.174061 0.716516 1.759142 0.004856 -0.007843 -1277410.000000 1 0 0
3.066238 -5.178289 -9.462458 11.214036 -1.036181 2.575131 -0.005036 -0.000224 116431.000000 1 0 0
-3.923662 -5.291389 -1.335158 6.721352 0.932746 1.770771 0.003526 -0.004669 -877919.000000 1 0 0
-1.374162 -8.767689 8.549242 12.322752 1.415331 0.804076 0.005597 -0.001176 211272.000000 1 0 0
3.920138 8.649411 -6.072758 11.272009 1.145263 2.139745 0.001206 -0.000204 -141236.000000 1 0 0
-14.291562 -1.781389 -2.676158 14.648683 0.124007 1.754517 0.004058 -0.002195 -1128800.000000 1 0 0
8.835538 -10.589189 -6.511958 15.251336 -0.875433 2.011943 0.003040 -0.001314 89102.200000 1 0 0
14.901338 6.054111 1.643042 16.167922 0.385908 1.468997 -0.002445 0.000909 -2718140.000000 1 0 0
-5.800262 0.418611 -8.445858 10.254306 -0.072046 2.538596 0.008334 -0.007893 -681783.000000 1 0 0
-7.901962 -4.632389 -12.941858 15.855338 0.530235 2.525679 0.002355 -0.001919 380513.000000 1 0 0
0.912338 -10.683789 12.118042 16.180935 -1.485608 0.724383 -0.003151 -0.003208 -120389.000000 1 0 0
0.374938 11.683011 3.379342 12.167714 1.538715 1.289366 0.001856 0.003137 -1136830.000000 1 0 0
5.183438 -13.163789 -3.667558 14.615210 -1.195677 1.824449 -0.002267 0.004333 536282.000000 1 0 0
-7.484262 1.631311 -6.989958 10.369902 -0.214609 2.310491 0.002672 -0.003226 595776.000000 1 0 0
1.434838 2.708911 4.092642 5.113382 1.083693 0.642870 -0.009394 0.002549 -513220.000000 1 0 0
17.253938 5.380011 2.282342 18.216805 0.302259 1.445179 0.000004 -0.000864 -65451.500000 1 0 0
2.369138 -8.267689 -3.616158 9.329743 -1.291721 1.968817 -0.007225 0.001549 626177.000000 1 0 0
-0.445862 -9.333689 -0.652958 9.367118 1.523063 1.640560 0.002659 0.002695 -1091060.000000 1 0 0
0.743238 11.850811 -5.428558 13.056162 1.508162 1.999602 0.000349 -0.001578 -1748710.000000 1 0 0
5.990338 -5.074289 7.822842 11.082843 -0.702796 0.787172 -0.002389 -0.000243 -1185900.000000 1 0 0
-6.001462 -1.938689 -9.435358 11.349099 0.312455 2.552374 0.008410 -0.006693 -521708.000000 1 0 0
2.120038 -1.223389 11.223842 11.487639 -0.523381 0.214719 0.000802 -0.003472 434339.000000 1 0 0
17.911538 2.164511 -5.757258 18.938171 0.120261 1.879688 0.004708 0.000806 589086.000000 1 0 0
-8.831162 4.764911 7.765342 12.688354 -0.494790 0.912202 0.003359 -0.005806 -324299.000000 1 0 0
11.366438 -7.102689 -4.828458 14.246337 -0.558515 1.916572 0.014755 -0.003226 193440.000000 1 0 0
10.694638 0.420611 8.863142 13.896311 0.039309 0.879151 0.002156 -0.004480 -220129.000000 1 0 0
-8.367462 -7.391789 -1.563758 11.273789 0.723566 1.709952 0.011113 -0.003442 -220285.000000 1 0 0
10.258238 -10.542089 -3.185458 15.050390 -0.799044 1.784062 0.007046 0.000116 127989.000000 1 0 0
7.676938 -13.997089 -3.755358 16.399896 -1.069131 1.801833 0.006548 0.002855 -1172900.000000 1 0 0
1.775838 -1.148089 -11.615458 11.806379 -0.573915 2.961511 -0.000036 -0.004738 205147.000000 1 0 0
-11.800962 -2.690889 -6.396358 13.690033 0.224190 2.056949 0.005216 -0.003312 -722970.000000 1 0 0
2.652838 -12.112389 -6.489658 13.995113 -1.355182 2.052973 -0.003939 0.001096 -62885.500000 1 0 0
-5.436462 1.469911 1.126042 5.743146 -0.264066 1.373451 0.002238 -0.002817 515643.000000 1 0 0
0.114138 6.834311 -3.957858 7.898448 1.554097 2.095658 0.001640 -0.001334 766113.000000 1 0 0
5.433138 -11.880089 3.669042 13.568986 -1.141862 1.296989 -0.013214 0.001583 -2835220.000000 1 0 0
-4.415462 -9.277689 1.098642 10.333385 1.126595 1.464275 0.007685 0.000684 -715098.000000 1 0 0
7.106938 -6.192189 -4.577558 10.478827 -0.716724 2.022878 0.001443 -0.001883 -137748.000000 1 0 0
-6.978662 -6.005589 2.086242 9.440404 0.710595 1.347966 0.005339 -0.001351 -660157.000000 1 0 0
-6.176262 -0.688189 6.984942 9.349290 0.110967 0.727094 -0.000186 0.000591 -308473.000000 1 0 0
4.228638 -5.053889 3.297342 7.368557 -0.874069 1.106842 -0.004797 0.003022 -350672.000000 1 0 0
-2.404362 10.660711 -8.739658 13.993332 -1.348973 2.245363 -0.000937 0.001521 -306450.000000 1 0 0
-2.334262 -4.909289 2.722042 6.079425 1.126958 1.106553 0.002270 -0.000997 893197.000000 1 0 0
15.122138 4.893911 6.326442 17.107112 0.312988 1.191988 0.016659 -0.010240 254199.000000 1 0 0
6.766038 0.411811 0.003242 6.778559 0.060789 1.570318 -0.002812 -0.000391 2378920.000000 1 0 0
-9.702362 9.168411 0.410942 13.355316 -0.757111 1.540022 -0.001276 -0.001095 -1681950.000000 1 0 0
7.148838 10.612311 -2.537058 13.044680 0.977984 1.766534 -0.000228 -0.000239 -322408.000000 1 0 0
1.610638 -4.214089 -5.442558 7.069239 -1.205726 2.449470 -0.003604 -0.003271 -505345.000000 1 0 0
0.860538 -8.109789 -7.958658 11.395150 -1.465081 2.343991 -0.003713 0.000202 54682.400000 1 0 0
-10.328962 0.313111 -10.584158 14.792225 -0.030305 2.368167 0.001826 -0.002422 -4821810.000000 1 0 0
5.813538 -2.439489 0.471942 6.322267 -0.397307 1.496079 -0.001448 -0.000623 -133729.000000 1 0 0
-3.301162 5.406711 -1.044858 6.420430 -1.022643 1.734263 0.002607 -0.000865 409122.000000 1 0 0
-0.347262 4.547511 -5.121558 6.857901 -1.494581 2.414051 0.001548 -0.002586 -949367.000000 1 0 0
3.978238 -9.668189 9.987942 14.458881 -1.180435 0.808226 -0.007561 0.003553 -570594.000000 1 0 0
7.251938 -13.540489 -0.701258 15.376190 -1.079096 1.616419 0.001686 0.002679 395891.000000 1 0 0
13.013038 -0.108989 0.440842 13.020959 -0.008375 1.536934 0.007204 -0.002431 294395.000000 1 0 0
9.261438 2.388511 -0.592358 9.582803 0.252399 1.632651 0.001536 0.000392 155983.000000 1 0 0
-0.715462 -5.822889 4.344142 7.299965 1.448538 0.933418 0.000443 -0.000633 -207097.000000 1 0 0
11.469338 -3.560989 3.226142 12.435206 -0.301043 1.308358 0.008251 -0.001663 -1408620.000000 1 0 0
1.550538 -8.184389 11.773242 14.422122 -1.383565 0.615765 -0.003060 0.001100 604433.000000 1 0 0
9.405438 -5.853889 -5.924258 12.562926 -0.556723 2.061863 0.003646 -0.003517 -1470230.000000 1 0 0
3.078538 6.355411 -0.213858 7.065011 1.119709 1.601071 -0.006157 0.001278 -817607.000000 1 0 0
6.434238 -1.399389 11.378542 13.146441 -0.214156 0.524604 -0.001747 -0.002142 399585.000000 1 0 0
-4.741162 -7.408889 -3.807358 9.584688 1.001534 1.979297 0.010283 -0.003078 -661296.000000 1 0 0
-3.389062 -8.411389 -5.728758 10.726411 1.187781 2.134215 0.006135 -0.000511 -418468.000000 1 0 0
9.776338 5.316911 2.183442 11.340800 0.498113 1.377057 0.002328 -0.003146 -671104.000000 1 0 0
8.819838 -1.341289 0.266542 8.925225 -0.150920 1.540928 0.002074 -0.000887 1194540.000000 1 0 0
-3.814362 9.643011 9.224042 13.878759 -1.194126 0.843817 0.000057 -0.003384 -128912.000000 1 0 0
-14.280762 -3.546989 -6.005958 15.893169 0.243449 1.958319 0.001478 -0.002459 -294011.000000 1 0 0
10.623338 6.315511 -5.963558 13.722427 0.536361 2.020374 0.001648 -0.001243 -474372.000000 1 0 0
-1.783362 4.356111 2.769542 5.461359 -1.182219 1.038961 -0.003884 0.000995 338179.000000 1 0 0
6.961338 -3.590589 2.606642 8.255128 -0.476200 1.249538 -0.001415 -0.000784 -1865950.000000 1 0 0
8.252238 -11.260189 -1.521858 14.043053 -0.938350 1.679380 0.003020 0.000224 -1170820.000000 1 0 0
4.535038 0.523811 1.787942 4.902824 0.114993 1.197512 -0.003257 0.000435 -321512.000000 1 0 0
-10.800362 2.417211 3.788542 11.698024 -0.220180 1.240988 0.002084 -0.000114 107820.000000 1 0 0
-0.821462 -3.159089 4.368842 5.453570 1.316399 0.641670 0.000498 -0.002166 88137.200000 1 0 0
8.559538 -8.691389 -8.582658 14.915360 -0.793041 2.183919 0.010268 -0.002961 -703987.000000 1 0 0
12.051538 -4.790489 1.049342 13.011129 -0.378350 1.490059 0.004361 -0.001284 159945.000000 1 0 0
2.896538 4.775311 3.514342 6.598797 1.025563 1.009159 -0.009687 0.002142 -1442580.000000 1 0 0
6.168938 7.565511 1.942142 9.953123 0.886734 1.374407 -0.003580 -0.000241 -613236.000000 1 0 0
-1.651062 -1.260789 -10.293258 10.500798 0.652163 2.942446 0.005725 -0.005629 912269.000000 1 0 0
-0.944962 -8.571789 6.035642 10.526039 1.460999 0.960145 0.002604 -0.000855 -204481.000000 1 0 0
-4.228262 -0.244189 2.315342 4.826866 0.057688 1.070509 0.000988 -0.002809 73145.500000 1 0 0
-8.386462 6.234111 -7.944658 13.126861 -0.639234 2.220840 -0.000195 -0.000808 -830799.000000 1 0 0
6.483438 11.145811 -9.401258 15.957685 1.043947 2.200786 0.007440 -0.007007 15073.600000 1 0 0
-11.143762 -5.671189 3.060342 12.872898 0.470751 1.330763 0.003957 -0.001430 634322.000000 1 0 0
1.624938 -6.312289 3.081242 7.209679 -1.318842 1.129208 -0.004293 -0.000127 306758.000000 1 0 0
10.074938 2.108711 7.193142 12.557560 0.206324 0.960862 0.002092 0.000162 -1074330.000000 1 0 0
-3.994862 -2.488489 -10.558058 11.559589 0.557104 2.722256 0.003615 -0.005657 -2820290.000000 1 0 0
-8.191962 11.862811 5.898142 15.576347 -0.966435 1.182448 0.008045 -0.004465 -213334.000000 1 0 0
6.862938 6.156411 -2.944558 9.678416 0.731184 1.879937 0.000053 -0.000520 -3422010.000000 1 0 0
3.902538 -9.898189 -2.277458 10.880752 -1.195241 1.781666 -0.007377 0.001117 -351650.000000 1 0 0
8.537238 -12.927889 -7.373958 17.157797 -0.987163 2.015038 0.008874 0.000391 964769.000000 1 0 0
-1.161962 9.494011 3.609942 10.223408 -1.449013 1.209908 -0.003953 0.004404 -217944.000000 1 0 0
0.492538 -13.293589 4.754442 14.126812 -1.533762 1.227541 0.005802 -0.002010 -1304560.000000 1 0 0
-11.249762 -7.007989 -5.081258 14.194656 0.557121 1.936889 0.009896 -0.007524 73383.400000 1 0 0
3.581238 10.283611 -3.455258 11.424392 1.235684 1.878054 0.003384 -0.005383 -832090.000000 1 0 0
11.556438 -8.141589 -7.323958 15.920964 -0.613744 2.048814 0.022997 -0.003480 190360.000000 1 0 0
11.700638 -4.763889 -5.945458 13.962380 -0.386653 2.010664 0.011775 -0.004027 -192964.000000 1 0 0
1.284138 -10.331489 -2.608758 10.732861 -1.447137 1.816318 -0.005638 0.003282 -1262700.000000 1 0 0
2.385438 -11.995589 -3.956758 12.854587 -1.374498 1.883686 -0.003190 0.002782 -1863810.000000 1 0 0
-7.659962 -5.564789 7.186242 11.886293 0.628276 0.921555 0.003183 -0.001117 -4000120.000000 1 0 0
-7.221162 -0.937589 9.404042 11.893706 0.129117 0.658888 0.002348 0.001321 134002.000000 1 0 0
16.126338 2.513411 -7.606058 18.006336 0.154614 2.006899 0.010763 -0.000640 -274463.000000 1 0 0
-1.997062 6.337311 -5.483058 8.614737 -1.265519 2.260715 0.002490 0.000062 -1279120.000000 1 0 0
7.735738 1.215111 8.377442 11.467330 0.155804 0.751671 0.000146 -0.002203 -1077650.000000 1 0 0
7.895538 8.382611 -3.794958 12.124743 0.815311 1.889139 0.004230 0.000768 -137531.000000 1 0 0
8.059338 0.572211 3.952842 8.994738 0.070881 1.115797 0.000470 -0.001773 934913.000000 1 0 0
-6.901762 5.947511 5.362442 10.571801 -0.711269 1.038817 0.005449 -0.003684 122066.000000 1 0 0
-6.029562 -2.024189 -4.594858 7.846380 0.323889 2.196419 0.007710 -0.007844 -801261.000000 1 0 0
-15.174162 -2.214489 3.111042 15.647292 0.144915 1.370640 0.014101 -0.001920 -954766.000000 1 0 0
1.129238 1.329211 -10.660858 10.802587 0.866561 2.979428 0.000916 -0.005819 504798.000000 1 0 0
1.432538 -9.309289 9.414542 13.317230 -1.418111 0.785628 0.000193 -0.000813 -841694.000000 1 0 0
-0.213662 -6.678889 -1.237058 6.795846 1.538817 1.753848 -0.001071 0.000114 592845.000000 1 0 0
-0.437462 -10.259389 -8.434358 13.288523 1.528182 2.258430 -0.001780 0.001133 -233851.000000 1 0 0
-4.283062 6.550011 3.833042 8.714326 -0.991683 1.115359 0.001143 0.003264 129208.000000 1 0 0
10.719538 -1.294889 -8.677458 13.852203 -0.120215 2.247763 0.009837 0.000554 215263.000000 1 0 0
3.177038 -1.041389 6.225342 7.066324 -0.316750 0.492852 -0.004221 -0.000138 913800.000000 1 0 0
1.885238 -12.353889 6.821642 14.237538 -1.419362 1.071132 0.000570 -0.000466 -208778.000000 1 0 0
2.848738 -4.917289 -1.342858 5.839376 -1.045713 1.802839 0.002060 -0.000872 -1263460.000000 1 0 0
-1.023862 9.623811 -1.609458 9.811034 -1.464807 1.735587 0.000844 -0.000845 -137699.000000 1 0 0
4.536438 -2.556889 2.663042 5.848824 -0.513250 1.098073 -0.001833 0.001365 -409303.000000 1 0 0
17.736438 6.649811 -2.599058 19.119527 0.358704 1.707156 -0.003492 0.009065 233607.000000 1 0 0
-7.066062 3.481011 -5.417258 9.559987 -0.457741 2.173242 0.004262 -0.003318 -542067.000000 1 0 0
-13.807962 -6.017789 2.253842 15.230017 0.411000 1.422264 0.002596 -0.001638 433268.000000 1 0 0
6.712138 -6.006889 3.361642 9.614372 -0.730007 1.213601 -0.004101 0.000487 1379080.000000 1 0 0
-4.613762 2.046011 3.529142 6.158555 -0.417400 0.960577 0.002414 -0.001828 374533.000000 1 0 0
6.882638 -12.136989 -5.471258 14.987057 -1.054935 1.944500 0.002841 0.003156 -185794.000000 1 0 0
2.841738 -12.444289 3.339042 13.194128 -1.346289 1.314944 -0.002617 -0.001439 8808.460000 1 0 0
3.303538 11.361811 -6.108958 13.316286 1.287840 2.047394 -0.001098 0.001786 112110.000000 1 0 0
-5.702062 -8.268689 6.477442 11.951652 0.967087 0.998016 0.005255 -0.002765 -308119.000000 1 0 0
-3.880262 6.587911 6.385542 9.961533 -1.038506 0.874970 0.000743 0.000297 432091.000000 1 0 0
4.221538 4.326311 -7.001758 9.250025 0.797655 2.429421 -0.004263 0.002804 -1832630.000000 1 0 0
-0.334762 -2.589689 1.631342 3.078933 1.442242 1.012385 0.000739 -0.002082 -569214.000000 1 0 0
-13.252162 -0.888589 6.594042 14.828715 0.066952 1.109979 0.004061 0.000919 -935666.000000 1 0 0
-0.510362 -9.211189 -5.990258 10.999531 1.515446 2.146699 -0.003562 0.000690 67941.400000 1 0 0
2.019238 -1.700389 -3.968158 4.766018 -0.699887 2.554571 -0.002005 -0.002486 -1294110.000000 1 0 0
11.272338 -1.883289 0.979742 11.470496 -0.165543 1.485278 0.005621 -0.003614 820869.000000 1 0 0
0.548238 -4.172789 -2.129058 4.716527 -1.440161 2.039134 -0.000583 -0.001289 -1408090.000000 1 0 0
1.064938 -7.472489 -11.297858 13.587266 -1.429235 2.552605 -0.005263 0.000270 1851920.000000 1 0 0
-4.369662 4.141911 -9.981758 11.656967 -0.758647 2.598842 0.003343 -0.002849 -155127.000000 1 0 0
-1.062662 5.811611 -2.091558 6.267271 -1.389943 1.911051 -0.000039 -0.000544 -3238840.000000 1 0 0
-11.308962 1.672611 -3.946358 12.093965 -0.146837 1.903192 -0.000083 -0.000295 -560963.000000 1 0 0
-1.733362 -11.313389 4.091342 12.154686 1.418765 1.227486 0.010688 -0.000691 -81132.900000 1 0 0
-3.632162 -5.314589 -9.676458 11.622018 0.971276 2.554577 0.002125 -0.000562 -1182590.000000 1 0 0
-12.840362 -3.741789 -8.360058 15.772332 0.283556 2.129451 0.007660 -0.001975 -240066.000000 1 0 0
11.419238 4.462511 0.543342 12.272254 0.372541 1.526508 0.006177 0.000640 274212.000000 1 0 0
-8.855762 -2.355389 -2.989958 9.639099 0.259954 1.886190 0.006184 -0.005438 -478569.000000 1 0 0
-2.519062 -6.026989 -6.376558 9.128569 1.174901 2.344134 0.000230 -0.003051 92244.600000 1 0 0
0.001538 2.771011 -1.885958 3.351916 1.570241 2.168385 -0.001800 -0.003576 443646.000000 1 0 0
8.021138 6.098111 -5.195458 11.336595 0.650032 2.046868 0.000570 -0.000234 -504000.000000 1 0 0
-9.757362 -0.947789 -0.958058 9.849990 0.096832 1.668215 0.001699 -0.003938 -499174.000000 1 0 0
6.062338 0.533711 -8.885958 10.770192 0.087811 2.541089 -0.005759 0.002903 290942.000000 1 0 0
-4.068762 2.541311 7.880442 9.225749 -0.558305 0.546826 -0.005674 0.001789 -1793720.000000 1 0 0
-10.192462 -3.310589 1.417442 10.809969 0.314058 1.439294 0.001933 -0.003685 1749390.000000 1 0 0
-1.838862 -8.101089 -7.884858 11.453386 1.347589 2.330119 -0.001588 -0.002662 -251173.000000 1 0 0
-9.553662 -9.796289 4.199642 14.313516 0.797936 1.273011 -0.001065 -0.000287 103730.000000 1 0 0
-1.134562 -10.778489 7.196942 13.009959 1.465921 0.984611 0.007668 -0.001733 -152456.000000 1 0 0
9.365038 3.804311 -3.739358 10.777732 0.385861 1.925116 -0.001820 0.000999 -968879.000000 1 0 0
12.843038 -0.805989 3.010142 13.215680 -0.062675 1.341009 0.007540 -0.003333 -113829.000000 1 0 0
6.525538 11.964211 -6.823758 15.241019 1.071475 2.035014 0.006219 0.000241 388773.000000 1 0 0
-11.808562 -0.148189 -6.482358 13.471639 0.012549 2.072803 -0.001860 -0.000264 408043.000000 1 0 0
-7.687662 -6.700889 -11.338858 15.250304 0.716925 2.409111 0.007174 -0.005942 -2782840.000000 1 0 0
4.135638 5.983211 6.523442 9.770241 0.965996 0.839702 -0.006584 0.005604 -2601830.000000 1 0 0
-4.278662 -1.445189 -7.348558 8.625360 0.325735 2.590535 0.006757 -0.010100 1061640.000000 1 0 0
9.627138 9.269711 0.785342 13.387535 0.766486 1.512100 0.002603 0.000527 -1816310.000000 1 0 0
-8.886562 4.055711 4.847742 10.905062 -0.428153 1.110135 0.005717 -0.002491 1870300.000000 1 0 0
-6.997262 7.899411 -12.142558 16.087389 -0.845885 2.426126 -0.005372 -0.000102 -468410.000000 1 0 0
11.154138 -3.605889 7.186642 13.750093 -0.312674 1.020827 0.005322 -0.003600 506941.000000 1 0 0
11.849038 6.896911 6.395042 15.128240 0.527128 1.134349 0.003892 -0.003306 -362594.000000 1 0 0
-9.711662 -0.830489 -14.961758 17.856660 0.085307 2.564186 -0.005084 0.010141 46240.800000 1 0 0
1.690738 -13.095889 12.088542 17.902339 -1.442402 0.829494 -0.000919 -0.000515 15257.100000 1 0 0
2.901538 3.024211 13.013642 13.671856 0.806097 0.311561 0.003846 -0.004309 -796718.000000 1 0 0
-2.579962 -1.460889 11.033042 11.424465 0.515229 0.262524 0.003539 -0.001838 -653736.000000 1 0 0
2.469738 -10.065589 -8.276758 13.263500 -1.330185 2.244680 -0.007360 0.001691 -1282030.000000 1 0 0
13.892938 3.665311 -7.514958 16.214895 0.257948 2.052692 0.009358 -0.000030 -2978330.000000 1 0 0
7.228238 -1.535489 4.967042 8.903744 -0.209318 0.978991 -0.002074 -0.000049 471090.000000 1 0 0
-1.093062 8.792911 10.216442 13.523526 -1.447119 0.714445 0.004541 -0.002475 -169155.000000 1 0 0
-12.248162 -4.634789 0.861942 13.124088 0.361754 1.505073 0.005653 -0.002531 -135203.000000 1 0 0
-4.827162 4.809111 -5.355158 8.666416 -0.783525 2.236892 0.005125 -0.003205 -183109.000000 1 0 0
-11.197462 0.286411 1.946442 11.368985 -0.025573 1.398742 -0.001256 -0.000679 -2513670.000000 1 0 0
-1.454862 2.419311 -4.061458 4.946224 -1.029382 2.534172 0.002645 -0.006633 593478.000000 1 0 0
3.279038 -9.788489 13.003242 16.602738 -1.247556 0.671003 -0.007052 -0.002214 -1177900.000000 1 0 0
8.848538 4.715711 -1.458458 10.132209 0.489648 1.715241 -0.000239 -0.001415 -1398750.000000 1 0 0
4.087838 2.283011 3.744542 5.995344 0.509337 0.896209 -0.008072 0.002389 -1325290.000000 1 0 0
-5.372562 -3.169089 7.463542 9.726870 0.532934 0.696158 0.003464 -0.002421 -217004.000000 1 0 0
1.769238 -5.825589 7.745342 9.851802 -1.275947 0.666185 -0.000562 0.000812 -1106160.000000 1 0 0
-5.836862 -6.229289 -9.850458 13.034743 0.817910 2.427531 0.007838 -0.005636 -747421.000000 1 0 0
-11.735262 -5.799689 5.439042 14.175188 0.459005 1.176995 0.004410 -0.003821 -1515540.000000 1 0 0
10.448638 6.050811 4.597742 12.919968 0.524910 1.206959 0.002089 0.000376 -737443.000000 1 0 0
1.362938 -3.600889 0.270442 3.859682 -1.208960 1.500671 0.006495 -0.002230 -860177.000000 1 0 0
8.761938 4.306211 6.982642 12.003012 0.456799 0.949929 -0.000834 0.003086 56400.300000 1 0 0
-7.840062 12.098211 3.520842 14.840135 -0.995804 1.331261 0.002197 -0.001486 634758.000000 1 0 0
-6.161762 13.125111 -6.880158 16.049063 -1.131875 2.013845 0.009806 -0.006621 947860.000000 1 0 0
4.400338 -6.948689 -0.910258 8.275012 -1.006278 1.681020 -0.002400 0.000770 -972118.000000 1 0 0
-1.907262 -8.247089 10.999542 13.879555 1.343527 0.655900 0.002219 -0.007409 -640732.000000 1 0 0
11.568038 8.867711 -5.835858 15.700734 0.654022 1.951629 0.007285 0.000532 665007.000000 1 0 0
-3.326362 -2.919689 -1.922958 4.825665 0.720381 1.980662 0.004575 -0.005856 -1249020.000000 1 0 0
-1.922262 5.844911 4.788742 7.796802 -1.253061 0.909433 -0.007154 0.003195 -773941.000000 1 0 0
0.359538 -11.390889 -5.708758 12.746433 -1.539243 2.035179 -0.005232 -0.002458 -226748.000000 1 0 0
-8.948862 6.214211 -1.551458 11.004798 -0.606967 1.712248 0.002519 0.000547 -1011440.000000 1 0 0
2.939938 -0.069089 3.934342 4.911930 -0.023496 0.641871 -0.006210 0.001127 -174062.000000 1 0 0
-10.115662 3.942911 -1.016358 10.904410 -0.371668 1.664138 0.003497 -0.002340 62886.400000 1 0 0
6.434638 5.398911 13.762442 16.123201 0.698096 0.547977 0.014541 -0.000885 -449666.000000 1 0 0
-8.767962 -1.503489 5.603742 10.513779 0.169824 1.008666 0.001512 -0.002678 144861.000000 1 0 0
12.868338 -1.749989 -1.666558 13.093281 -0.135163 1.698426 0.009818 -0.001390 -953996.000000 1 0 0
5.230938 -5.551889 5.455542 9.378119 -0.815154 0.949941 -0.003663 0.000323 190191.000000 1 0 0
-8.964362 -1.280689 3.099442 9.571128 0.141904 1.241019 0.000341 -0.001927 800949.000000 1 0 0
1.956238 5.416311 5.643642 8.063125 1.224201 0.795494 -0.008099 0.004457 -1616410.000000 1 0 0
9.281538 3.096811 -7.511758 12.335465 0.322038 2.225540 -0.001984 0.002344 -1240080.000000 1 0 0
2.279738 -2.283089 -1.552558 3.580522 -0.786133 2.019294 -0.002114 -0.002367 -106210.000000 1 0 0
-6.262862 0.385911 -3.997358 7.439842 -0.061541 2.138018 0.002981 -0.003201 -2006100.000000 1 0 0
-3.949062 4.214511 5.067442 7.683499 -0.817903 0.850613 -0.001127 0.001061 1028730.000000 1 0 0
-6.369562 1.799611 -12.357758 14.018706 -0.275356 2.649867 0.000782 -0.001098 -1111940.000000 1 0 0
-0.100062 3.045211 6.261742 6.963672 -1.537949 0.452856 -0.007187 0.002113 561263.000000 1 0 0
-8.759462 9.318411 -2.082458 12.957530 -0.816307 1.732210 0.002825 0.000545 86400.500000 1 0 0
-1.349162 -3.692389 -6.162058 7.309237 1.220477 2.573727 -0.000430 -0.004923 254117.000000 1 0 0
-3.261362 7.105411 -3.021358 8.381644 -1.140486 1.939572 0.003027 -0.001429 579041.000000 1 0 0
6.954738 -0.389989 -4.409758 8.244176 -0.056017 2.135178 -0.004438 0.001977 -455017.000000 1 0 0
-5.130262 -10.830189 6.998842 13.877909 1.128409 1.042208 -0.000152 -0.001434 692557.000000 1 0 0
9.784338 8.353211 -1.524258 12.955028 0.706657 1.688727 0.004320 0.000059 271464.000000 1 0 0
13.516638 4.556711 -4.296058 14.896954 0.325153 1.863336 -0.000895 0.000145 780785.000000 1 0 0
4.752838 1.131811 -6.749458 8.332206 0.233780 2.515025 -0.010285 0.001775 -2025620.000000 1 0 0
9.009338 -4.638989 3.587242 10.749730 -0.475504 1.230565 0.000901 -0.001778 -19550.600000 1 0 0
-8.680562 -3.200589 -0.663258 9.275551 0.353243 1.642364 0.002731 -0.003022 591595.000000 1 0 0
-8.485062 -4.229389 -10.464158 14.120291 0.462408 2.405463 0.005105 -0.002681 -243522.000000 1 0 0
10.446438 -1.216589 10.659342 14.974302 -0.115937 0.778678 -0.000005 -0.002940 918824.000000 1 0 0
2.234338 -11.648789 9.933242 15.471129 -1.381289 0.873627 -0.002828 -0.002064 738977.000000 1 0 0
-6.461662 -10.461689 2.146742 12.482328 1.017500 1.397955 0.007188 -0.000397 -1178260.000000 1 0 0
-3.555662 -1.255189 6.671242 7.663139 0.339355 0.514452 0.003342 -0.002044 -2855510.000000 1 0 0
4.752338 -7.673789 4.078242 9.904737 -1.016310 1.146427 -0.007271 0.002889 293982.000000 1 0 0
11.486638 -9.547089 -5.266858 15.837600 -0.693447 1.909807 0.014896 -0.000965 389961.000000 1 0 0
11.320038 1.143511 11.409542 16.112992 0.100675 0.783999 0.009853 -0.004789 -501013.000000 1 0 0
-10.273362 -3.438689 4.384142 11.687055 0.322997 1.186261 0.004710 -0.002511 1790710.000000 1 0 0
2.069538 8.764311 9.027842 12.751394 1.338911 0.784150 -0.003204 0.002507 -407646.000000 1 0 0
6.597538 8.718411 4.131842 11.688041 0.922998 1.209475 -0.000337 0.003265 1820360.000000 1 0 0
-4.295062 3.654211 0.369542 5.651316 -0.704955 1.505359 0.003109 -0.002531 -2734230.000000 1 0 0
4.888638 6.824811 4.082642 9.335137 0.949212 1.118156 -0.003518 0.000649 -2063840.000000 1 0 0
-8.305062 13.257211 1.167642 15.687290 -1.011151 1.496295 0.002245 0.000090 590368.000000 1 0 0
8.890038 8.267811 -9.141558 15.197288 0.749149 2.216206 0.004436 -0.005470 -581906.000000 1 0 0
7.044738 1.914711 5.999342 9.449156 0.265382 0.882907 -0.003248 0.001194 112183.000000 1 0 0
11.524138 -6.196789 3.082142 13.442676 -0.493368 1.339458 0.005528 -0.000521 -203287.000000 1 0 0
11.319838 4.706311 -2.111758 12.439759 0.394016 1.741381 0.003944 0.001139 370388.000000 1 0 0
-3.901962 14.187611 -5.881158 15.846187 -1.302406 1.951033 0.004313 0.000223 657445.000000 1 0 0
7.221138 -3.043089 7.000042 10.507417 -0.398829 0.841695 -0.000195 -0.001946 -148232.000000 1 0 0
-7.917862 -0.403989 0.873842 7.976174 0.050978 1.461019 0.004161 -0.002570 503248.000000 1 0 0
-3.130162 1.116311 10.812242 11.311438 -0.342569 0.298196 0.001053 0.000222 42246.500000 1 0 0
7.055738 -1.168989 -2.036358 7.436177 -0.164188 1.848185 -0.001111 -0.000608 -2049090.000000 1 0 0
-7.720062 5.458611 2.987942 9.915825 -0.615454 1.264709 0.005418 -0.000888 792206.000000 1 0 0
9.462738 -1.973389 2.901542 10.092404 -0.205596 1.279183 0.001354 -0.002223 -1780910.000000 1 0 0
0.264238 3.361111 1.640242 3.749304 1.492341 1.118003 -0.006785 0.001003 -2692340.000000 1 0 0
-7.568662 -3.157289 4.052742 9.147559 0.395205 1.111809 0.001640 -0.002670 1294520.000000 1 0 0
-2.382262 8.403611 -6.640658 10.972429 -1.294563 2.220830 -0.002653 -0.000598 -369076.000000 1 0 0
4.527338 9.809911 7.521042 13.164240 1.138415 0.962679 -0.001628 0.007615 -612650.000000 1 0 0
-11.882162 -3.186389 6.883842 14.097025 0.262001 1.060634 0.003701 -0.002148 -329615.000000 1 0 0
-4.684262 2.303311 -5.593458 7.650773 -0.456996 2.390725 0.008250 -0.006419 -111516.000000 1 0 0
-2.726362 2.980711 -1.815758 4.428845 -0.829936 1.993234 0.001756 -0.002619 600232.000000 1 0 0
2.380638 5.228511 11.446142 12.806987 1.143528 0.465178 0.002493 -0.004165 232213.000000 1 0 0
-0.672862 1.450311 4.582142 4.853057 -1.136408 0.335711 -0.005759 -0.000590 -270062.000000 1 0 0
5.089738 1.588911 7.616642 9.297489 0.302593 0.610756 -0.005186 0.001525 1006870.000000 1 0 0
3.446238 -8.064389 1.885042 8.970190 -1.166945 1.359073 -0.005944 0.001719 2524230.000000 1 0 0
5.010738 6.489311 -4.624558 9.413033 0.913268 2.084370 0.001700 -0.000899 -2255490.000000 1 0 0
-4.064762 2.782611 -7.999958 9.394921 -0.600294 2.589673 0.009867 -0.007770 -588649.000000 1 0 0
-8.654462 -2.186289 -12.959758 15.736420 0.247443 2.538441 0.003533 0.000672 -201333.000000 1 0 0
-7.762962 8.206911 1.290842 11.370279 -0.813190 1.457023 0.004317 0.000076 -2106250.000000 1 0 0
7.402738 0.874411 -6.636458 9.980366 0.117575 2.298225 -0.006952 0.004106 259542.000000 1 0 0
9.003838 8.888511 5.436042 13.770449 0.778953 1.164988 -0.001615 0.003042 90021.400000 1 0 0
9.325438 -1.012989 -1.484558 9.497044 -0.108202 1.727758 0.001478 -0.001180 1062400.000000 1 0 0
5.404438 0.161211 4.234442 6.867637 0.029820 0.906406 -0.004965 0.002211 -1760890.000000 1 0 0
-4.179262 -7.254689 -8.018158 11.592567 1.048153 2.334587 0.010417 -0.005791 -700428.000000 1 0 0
-2.189562 7.523211 -0.584858 7.857159 -1.287579 1.645302 0.000154 0.000470 -146356.000000 1 0 0
13.240538 -3.429989 -7.526258 15.611574 -0.253480 2.073840 0.011302 -0.001699 896257.000000 1 0 0
-4.776762 -5.040089 1.521942 7.108886 0.812216 1.355036 0.005510 -0.002936 2787860.000000 1 0 0
-8.937762 1.299611 2.584242 9.394194 -0.144395 1.292114 0.003224 -0.001820 -261128.000000 1 0 0
-0.990962 11.236511 10.273042 15.257017 -1.482833 0.832090 0.003462 -0.001094 167251.000000 1 0 0
-8.514262 0.273411 7.483642 11.338973 -0.032101 0.849987 0.003422 -0.000744 -1321090.000000 1 0 0
-6.159862 12.916311 -2.033358 14.453703 -1.125794 1.711945 0.007341 -0.001721 -185047.000000 1 0 0
-13.084462 -0.705989 3.190342 13.486284 0.053904 1.331970 0.006004 -0.002585 279420.000000 1 0 0
-6.651862 12.854211 8.650942 16.861696 -1.093259 1.032059 0.013313 -0.008591 1874470.000000 1 0 0
-7.983362 0.871811 -14.123958 16.247471 -0.108772 2.624585 0.003289 0.004986 -608623.000000 1 0 0
7.333738 2.852811 3.591542 8.649937 0.370986 1.142623 -0.002133 -0.002055 -239497.000000 1 0 0
-1.638462 0.773811 -2.012558 2.708087 -0.441226 2.408586 0.001296 -0.005961 818777.000000 1 0 0
-6.230062 9.717011 -10.317458 15.481729 -1.000668 2.300204 -0.003682 -0.000089 -208039.000000 1 0 0
-10.098462 13.615611 5.253042 17.747063 -0.932640 1.270299 0.011361 -0.004615 112818.000000 1 0 0
-5.635362 8.331311 2.562742 10.379580 -0.976080 1.321314 0.003374 -0.000021 -1223180.000000 1 0 0
-2.347962 -10.753589 -1.244958 11.077117 1.355828 1.683424 0.003554 0.001098 155805.000000 1 0 0
-2.345962 -12.406589 8.839842 15.413299 1.383913 0.959999 0.001458 -0.001848 601545.000000 1 0 0
-14.794362 -6.387089 -1.694258 16.203042 0.407553 1.675552 0.022551 0.001065 429907.000000 1 0 0
-2.777262 -9.328189 3.292642 10.274716 1.281425 1.244581 0.005579 0.000351 -2341380.000000 1 0 0
4.633138 -2.758489 7.529142 9.260842 -0.537017 0.621496 -0.001645 0.000941 -604135.000000 1 0 0
-14.929562 -1.203089 -0.368558 14.982493 0.080411 1.595398 0.002837 -0.003371 -258889.000000 1 0 0
5.475438 8.800711 -2.807458 10.738471 1.014243 1.835309 0.000466 -0.001155 -62059.000000 1 0 0
-5.716362 -5.670989 8.484342 11.697049 0.781414 0.759268 0.006502 -0.003577 -3580730.000000 1 0 0
3.419938 3.518511 7.014542 8.560356 0.799604 0.610395 -0.006641 0.003405 593532.000000 1 0 0
3.210438 2.304911 9.426142 10.221138 0.622667 0.397012 -0.001150 -0.000230 -612337.000000 1 0 0
9.976938 -3.151189 5.171542 11.671081 -0.305931 1.111734 0.006787 -0.001994 -326056.000000 1 0 0
6.517038 10.009411 -5.035358 12.962057 0.993654 1.969766 0.004256 -0.002702 585344.000000 1 0 0
-4.429262 12.115411 -8.524658 15.461932 -1.220302 2.154756 0.001223 -0.000628 -909983.000000 1 0 0
-3.431562 -7.201989 2.139242 8.259578 1.126146 1.308808 0.004711 -0.002011 1018200.000000 1 0 0
-7.460962 -3.953789 1.115342 8.517182 0.487304 1.439467 0.004303 -0.002688 2043070.000000 1 0 0
-1.937862 -3.874389 -10.846158 11.679270 1.107011 2.761600 0.004237 -0.002984 -1567970.000000 1 0 0
-5.246062 8.256511 -4.388358 10.721419 -1.004764 1.992491 0.005266 -0.001923 -2703040.000000 1 0 0
-10.889662 -3.332889 -10.218258 15.300513 0.297007 2.302096 0.007204 0.001548 -720980.000000 1 0 0
4.652638 -11.313189 -7.790358 14.502585 -1.180623 2.137875 -0.005154 -0.000341 -2530470.000000 1 0 0
-9.334562 -3.859489 7.165542 12.384454 0.392058 0.953795 0.000217 -0.001549 -344481.000000 1 0 0
-5.684462 -9.531489 -5.131658 12.226869 1.033037 2.003915 0.008624 -0.005067 -76459.200000 1 0 0
5.021638 4.258711 -9.526258 11.580288 0.703374 2.536812 -0.007834 0.007987 550481.000000 1 0 0
-3.401962 -7.212389 -14.123558 16.219334 1.130058 2.627594 -0.002931 0.000133 135165.000000 1 0 0
0.662538 -0.766389 -8.696158 8.754969 -0.857948 3.025619 0.001428 -0.007021 -10202.300000 1 0 0
-7.744462 2.299611 -3.000458 8.617868 -0.288644 1.926412 0.003836 -0.003396 -846426.000000 1 0 0
-2.366662 7.534711 -12.518158 14.801258 -1.266453 2.578765 -0.000294 0.001407 -124778.000000 1 0 0
-9.808562 8.924611 7.544742 15.257119 -0.738247 1.053530 0.008473 -0.007367 -490440.000000 1 0 0
-10.445162 -3.197389 -14.416658 18.087696 0.297055 2.493178 0.009884 0.008888 -707350.000000 1 0 0
-3.202762 4.906911 8.030842 9.941322 -0.992522 0.630345 -0.003549 0.000082 -171061.000000 1 0 0
8.709138 -2.238989 -3.673758 9.713838 -0.251636 1.958646 0.000314 0.000281 -6413540.000000 1 0 0
1.849438 -8.333189 -1.253258 8.627463 -1.352400 1.716576 -0.002349 0.003157 -124235.000000 1 0 0
-13.594562 -2.837389 5.063342 14.781756 0.205761 1.221177 0.012994 -0.004541 243624.000000 1 0 0
7.067338 2.808911 -2.036758 7.873095 0.378306 1.832471 -0.003352 -0.000508 351700.000000 1 0 0
-11.038562 4.462611 8.878342 14.852262 -0.384186 0.930071 0.006403 -0.003446 -3462770.000000 1 0 0
-1.744062 -2.574689 7.916442 8.505341 0.975408 0.374307 0.000355 -0.002048 204971.000000 1 0 0
3.100638 11.970411 -9.876458 15.825584 1.317342 2.244752 -0.002974 -0.003898 534575.000000 1 0 0
3.652538 -5.035489 -7.057358 9.407630 -0.943253 2.419121 -0.002987 -0.003882 365290.000000 1 0 0
8.136238 -13.630589 -9.809258 18.660463 -1.032652 2.124300 0.006664 0.006324 -626578.000000 1 0 0
-6.366162 -5.716789 -0.496858 8.570681 0.731707 1.628801 0.006699 -0.003087 -376855.000000 1 0 0
-1.205662 -4.135889 9.871942 10.771000 1.287145 0.411480 -0.000044 -0.000896 578382.000000 1 0 0
2.732638 3.157711 1.838242 4.562629 0.857438 1.156123 -0.008613 0.001073 -1462820.000000 1 0 0
-9.078162 13.444411 7.693342 17.954184 -0.976884 1.127966 0.012902 -0.011643 -942135.000000 1 0 0
4.022938 -11.123289 0.034842 11.828474 -1.223765 1.567851 -0.009821 0.003169 -461573.000000 1 0 0
-12.387962 -1.469189 -9.176758 15.486543 0.118047 2.205034 0.001349 -0.001221 169353.000000 1 0 0
-4.212262 0.898411 -13.434358 14.107880 -0.210136 2.831349 0.006917 -0.003147 333833.000000 1 0 0
3.915338 -3.133989 4.938642 7.038604 -0.675009 0.793085 -0.002462 0.002860 -201471.000000 1 0 0
1.865038 -1.244789 1.114442 2.503966 -0.588533 1.109543 -0.005707 -0.001185 784660.000000 1 0 0
8.126238 -9.059789 7.354042 14.219615 -0.839665 1.027248 -0.001588 0.001539 -1235140.000000 1 0 0
0.011538 2.200211 -6.256858 6.632446 1.565552 2.803446 0.001039 -0.004943 71876.900000 1 0 0
-3.756062 -9.677389 -3.340058 10.904855 1.200566 1.882091 0.006838 -0.000628 538288.000000 1 0 0
-9.426862 2.320911 -5.521258 11.168556 -0.241401 2.087892 0.001049 -0.000526 -1471070.000000 1 0 0
8.909938 -7.669689 5.329742 12.908031 -0.710732 1.145159 -0.001035 -0.000338 1666640.000000 1 0 0
-5.525062 -4.201689 4.696242 8.380644 0.650173 0.975967 0.002407 -0.003371 -1139080.000000 1 0 0
-0.182762 -12.386289 10.386642 16.165886 1.556042 0.873035 0.008425 -0.003312 265818.000000 1 0 0
-14.182362 -8.285489 3.019942 16.700562 0.528729 1.388967 0.000832 -0.004216 -1343730.000000 1 0 0
10.753938 -1.280489 -3.713458 11.448869 -0.118514 1.901122 0.005410 -0.001863 -272053.000000 1 0 0
-13.665862 2.953911 2.682842 14.236538 -0.212878 1.381215 0.002149 0.000896 -401352.000000 1 0 0
-6.282062 6.172811 1.045142 8.869060 -0.776627 1.452681 0.006136 -0.000000 220372.000000 1 0 0
7.007838 -6.828289 -0.314158 9.789485 -0.772422 1.602893 -0.004038 0.002665 -1026750.000000 1 0 0
-6.924662 7.820311 10.126442 14.548300 -0.846066 0.800906 -0.000317 -0.004365 114680.000000 1 0 0
-12.625662 -5.129789 -1.925158 13.763296 0.385924 1.711133 0.005119 -0.002028 -2251650.000000 1 0 0
-9.418262 -5.545489 0.100642 10.930061 0.532145 1.561588 0.005425 -0.003664 -1362650.000000 1 0 0
-1.768062 1.676011 2.211242 3.290083 -0.758677 0.833765 -0.001865 0.000346 -327599.000000 1 0 0
-7.123962 7.460111 7.583142 12.802661 -0.808443 0.936874 0.001135 -0.005293 -392204.000000 1 0 0
5.575138 7.250611 -0.444258 9.157013 0.915296 1.619331 -0.001977 -0.000991 -1944790.000000 1 0 0
-0.011462 -4.119389 7.519342 8.573797 1.568014 0.501184 0.001243 -0.000965 -1883510.000000 1 0 0
6.567238 0.600211 13.058742 14.629409 0.091142 0.467636 0.004549 -0.005304 817200.000000 1 0 0
5.681338 6.205011 -7.927758 11.559806 0.829426 2.326504 -0.008412 0.003427 172523.000000 1 0 0
9.952138 5.253411 9.040242 14.435004 0.485692 0.894034 -0.000797 0.001962 -1443800.000000 1 0 0
-1.215162 -5.038489 -8.493258 9.949796 1.334140 2.593676 0.003099 -0.004290 885612.000000 1 0 0
9.981338 -3.626989 -8.058858 13.331442 -0.348542 2.219935 0.008009 -0.004862 435679.000000 1 0 0
8.431638 -5.418489 1.311242 10.108012 -0.571182 1.440707 0.000211 -0.000331 1235590.000000 1 0 0
15.634938 3.259111 -5.197058 16.795312 0.205508 1.885395 0.009282 0.004861 -332428.000000 1 0 0
-6.859962 3.632511 1.152942 7.847515 -0.486986 1.423345 0.005383 -0.002429 1028060.000000 1 0 0
-1.742462 3.766511 0.351942 4.164930 -1.137498 1.486194 -0.000469 -0.002317 -184223.000000 1 0 0
-2.558762 10.068311 7.008042 12.531193 -1.321925 0.977318 -0.000787 0.004236 1198920.000000 1 0 0
5.496838 -5.740189 -8.782958 11.845056 -0.807051 2.406081 -0.001076 -0.002469 710350.000000 1 0 0
-1.146762 -1.062489 6.254442 6.446859 0.747271 0.244934 -0.001112 -0.001671 185744.000000 1 0 0
-5.555162 5.017911 -7.868458 10.860566 -0.734629 2.381102 0.002469 -0.003174 -7465.000000 1 0 0
6.721338 -1.205489 2.496142 7.270510 -0.177466 1.220342 -0.002719 0.000790 -1344980.000000 1 0 0
8.761238 7.492311 3.196742 11.962992 0.707485 1.300290 0.002581 -0.000625 -52242.700000 1 0 0
-5.331462 -4.872189 -7.779958 10.615577 0.740418 2.393344 0.007139 -0.007831 1476670.000000 1 0 0
-2.282762 7.877111 -10.004158 12.936115 -1.288726 2.454906 -0.000012 0.001490 235427.000000 1 0 0
-2.835662 -2.330889 1.675242 4.034905 0.688007 1.142648 -0.001338 -0.000496 -1338950.000000 1 0 0
5.880438 -2.104689 -9.258358 11.168100 -0.343707 2.548114 -0.003465 -0.000216 802095.000000 1 0 0
1.151638 -7.556089 5.180042 9.233287 -1.419548 0.975181 -0.000856 0.001226 570331.000000 1 0 0
1.942538 11.759511 1.274842 11.986858 1.407086 1.464242 0.004785 0.000766 -237003.000000 1 0 0
-1.058862 6.974711 2.538542 7.497464 -1.420132 1.225382 -0.003106 0.003376 522115.000000 1 0 0
8.731238 7.905711 -6.606158 13.504670 0.735819 2.081941 0.003745 -0.002837 -93402.400000 1 0 0
3.690438 -11.136889 5.430142 12.928112 -1.250813 1.137322 -0.001881 0.001778 -36868.800000 1 0 0
7.987538 -7.113589 12.377442 16.358636 -0.727590 0.712652 0.000042 -0.000011 -95303.000000 1 0 0
-8.734162 0.018711 -3.880158 9.557278 -0.002142 1.988858 0.003161 -0.004551 -1577150.000000 1 0 0
-3.337462 -5.044089 11.137242 12.673580 0.986269 0.497504 0.006118 -0.004744 582958.000000 1 0 0
-8.144462 0.156911 -11.585758 14.162863 -0.019264 2.528788 0.002727 -0.002358 -2011970.000000 1 0 0
1.402938 -4.971689 5.328542 7.421542 -1.295762 0.769896 -0.000331 0.000398 -877325.000000 1 0 0
6.720338 3.922811 -7.469658 10.786435 0.528365 2.335752 -0.007975 0.001258 -271028.000000 1 0 0
16.269538 4.207811 -1.177458 16.846066 0.253086 1.640749 0.004166 0.006952 232207.000000 1 0 0
7.888138 7.533611 0.049942 10.907819 0.762413 1.566218 -0.000226 -0.003340 -1774100.000000 1 0 0
5.565038 -10.428789 13.973042 18.302327 -1.080614 0.702147 -0.004495 -0.000314 971558.000000 1 0 0
-4.966762 -9.241489 9.038342 13.847941 1.077646 0.859673 -0.001855 -0.006147 531405.000000 1 0 0
-12.644862 -3.135189 2.820042 13.329463 0.243041 1.357621 0.005479 -0.001738 -75108.600000 1 0 0
-2.088062 -1.329089 -5.828058 6.331883 0.566839 2.739977 0.004974 -0.009981 -1589140.000000 1 0 0
-2.171462 13.008511 -4.248358 13.855871 -1.405395 1.882427 0.000106 0.000457 738061.000000 1 0 0
3.898238 -0.424189 -4.945558 6.311477 -0.108389 2.471206 -0.004961 -0.000452 -450736.000000 1 0 0
-8.849962 3.823111 -7.415758 12.162709 -0.407778 2.226494 0.000345 -0.000309 430553.000000 1 0 0
-4.596262 8.087211 -11.306158 14.640964 -1.053984 2.453136 -0.002943 0.002828 -2919100.000000 1 0 0
-10.126762 -6.402589 7.343842 14.052632 0.563792 1.020904 -0.001839 -0.003718 -579153.000000 1 0 0
7.983538 5.323411 4.030842 10.407846 0.588094 1.173107 -0.001429 0.000040 -1352980.000000 1 0 0
-6.835662 -7.465589 4.039842 10.898698 0.829417 1.191064 0.005576 -0.001683 -718070.000000 1 0 0
-4.081962 11.885511 8.086642 14.943947 -1.239977 0.999014 0.003171 -0.000809 100444.000000 1 0 0
-7.284462 9.991111 -7.852258 14.647308 -0.940810 2.136593 0.004536 -0.003498 -1524170.000000 1 0 0
13.045738 5.369111 4.674242 14.861600 0.390432 1.250847 0.002633 -0.002919 848389.000000 1 0 0
5.489838 4.093311 -3.767758 7.815978 0.640689 2.073799 -0.004829 0.002336 217777.000000 1 0 0
-2.822162 -4.274189 5.158842 7.269590 0.987228 0.781799 0.003416 -0.001935 114055.000000 1 0 0
12.363538 -2.341789 -5.418858 13.700550 -0.187193 1.977432 0.011462 -0.005729 -1737980.000000 1 0 0
-5.281762 9.877411 7.091342 13.256975 -1.079751 1.006390 0.000967 0.001821 342940.000000 1 0 0
1.803138 3.874611 -0.434858 4.295697 1.135232 1.672201 -0.008787 -0.000535 140696.000000 1 0 0
-0.024262 9.637911 7.746842 12.365414 -1.568279 0.893751 -0.002706 0.005197 -976883.000000 1 0 0
-5.591962 2.107011 5.858542 8.368515 -0.360341 0.795302 0.000415 -0.000456 671015.000000 1 0 0
8.901038 0.955111 10.733442 13.976676 0.106894 0.695156 0.002020 -0.001063 -1386660.000000 1 0 0
0.408038 -2.791189 -10.129258 10.514709 -1.425637 2.869988 0.001831 -0.003137 -2576630.000000 1 0 0
1.252438 10.718811 -2.801858 11.149525 1.454479 1.824818 0.002257 -0.003331 1035790.000000 1 0 0
2.344738 -4.360489 11.631142 12.641009 -1.077427 0.402431 0.000979 -0.002480 78391.800000 1 0 0
6.544538 -3.125189 9.441442 11.905402 -0.445508 0.655016 0.000046 -0.002134 531010.000000 1 0 0
-10.690262 -8.186889 5.667242 14.609055 0.653554 1.172415 0.002858 -0.003611 -178852.000000 1 0 0
-2.971362 0.775111 -6.883658 7.537542 -0.255174 2.721987 0.008093 -0.009621 548532.000000 1 0 0
10.803538 2.614711 -5.202758 12.272809 0.237457 2.008572 0.003814 0.001053 -2232750.000000 1 0 0
-1.903162 -3.990989 -0.059558 4.421942 1.125828 1.584266 0.000716 -0.003208 822750.000000 1 0 0
-1.445462 -6.474389 -10.712458 12.600152 1.351140 2.587133 -0.001424 -0.000192 1044650.000000 1 0 0
0.245438 6.841011 -6.612558 9.517647 1.534934 2.338894 0.001977 0.000380 -3734250.000000 1 0 0
2.059738 3.833511 -6.223058 7.593733 1.077757 2.531333 -0.003221 0.000645 -2159840.000000 1 0 0
1.599138 -14.803789 6.559442 16.270700 -1.463191 1.155846 0.008591 -0.001579 44264.700000 1 0 0
-1.646562 5.402511 -10.515858 11.936564 -1.274963 2.648723 0.003452 -0.000328 -178069.000000 1 0 0
13.628538 4.255811 -0.830058 14.301677 0.302677 1.628868 0.005412 0.001137 -471724.000000 1 0 0
-2.292362 3.304811 -6.328558 7.498490 -0.964349 2.575453 0.007778 -0.007310 -1156990.000000 1 0 0
5.805138 7.844611 14.144142 17.184129 0.933716 0.603960 0.013639 -0.007986 520047.000000 1 0 0
15.764838 0.628611 -5.765758 16.797894 0.039853 1.921164 0.003978 -0.001680 31620.500000 1 0 0
6.237538 -8.435989 10.688242 14.977026 -0.934116 0.776112 -0.007114 0.002947 40155.900000 1 0 0
0.056738 -5.877389 -6.388258 8.680828 -1.561143 2.397798 -0.003032 -0.003160 -495917.000000 1 0 0
8.704738 5.581711 -7.575558 12.818621 0.570183 2.203070 -0.002627 0.003115 -357618.000000 1 0 0
-16.113762 -0.785289 5.205842 16.952014 0.048696 1.258660 0.016243 -0.003375 -516927.000000 1 0 0
-0.223462 4.123611 -12.245558 12.923150 -1.516658 2.816333 0.002170 -0.002410 444651.000000 1 0 0
-11.334562 3.791311 5.830842 13.298310 -0.322792 1.116906 0.007656 -0.001502 -389714.000000 1 0 0
5.112038 -9.555189 -9.563758 14.453375 -1.079541 2.293877 -0.005321 -0.000790 304808.000000 1 0 0
1.503038 11.234911 -11.708958 16.296688 1.437803 2.372421 0.000280 0.000940 -2803440.000000 1 0 0
5.934238 2.435911 1.144542 6.516043 0.389512 1.394231 -0.001838 0.000577 -466516.000000 1 0 0
5.762538 4.489311 4.892042 8.791634 0.661836 0.980698 -0.005095 0.002181 -511281.000000 1 0 0
0.412538 -1.615689 -6.302558 6.519423 -1.320805 2.882940 -0.000274 -0.006662 -326492.000000 1 0 0
12.653138 6.888311 -4.604158 15.124450 0.498530 1.880124 0.001146 0.000007 150066.000000 1 0 0
7.407638 3.142111 12.742742 15.070614 0.401169 0.563229 0.007254 -0.002670 -611095.000000 1 0 0
-2.378362 -0.205289 8.692742 9.014572 0.086102 0.268013 -0.003185 -0.000684 627348.000000 1 0 0
2.120938 -15.378689 13.302642 20.444137 -1.433747 0.862313 -0.003285 0.001858 -486109.000000 1 0 0
18.820638 4.486311 -1.572458 19.411750 0.234005 1.651891 0.000658 0.003067 -369990.000000 1 0 0
-0.441262 -13.324389 7.234942 15.168337 1.537692 1.073585 0.003851 -0.001649 -1739700.000000 1 0 0
4.389838 1.679411 -0.648758 4.744680 0.365389 1.707960 -0.004338 -0.002324 800833.000000 1 0 0
2.809638 -0.501689 -7.319358 7.856129 -0.176698 2.769793 -0.005398 -0.001190 172887.000000 1 0 0
7.161138 -11.305889 0.978742 13.418754 -1.006180 1.497793 -0.008899 0.004064 184131.000000 1 0 0
-11.715262 -7.244989 1.186942 13.825558 0.553856 1.484839 0.007302 0.000396 163784.000000 1 0 0
0.041038 -7.092389 9.899242 12.177793 -1.565010 0.621694 -0.000468 -0.000690 -1742360.000000 1 0 0
-4.681062 -7.118189 10.563642 13.570979 0.989083 0.678684 0.007046 -0.005038 -1696100.000000 1 0 0
11.844138 0.827911 -1.702958 11.994545 0.069787 1.713255 0.006259 0.000034 610739.000000 1 0 0
6.603338 -9.609589 -7.374258 13.795940 -0.968739 2.134741 -0.001893 -0.003692 -1641370.000000 1 0 0
-10.898762 4.944211 3.478442 12.463057 -0.425884 1.287939 0.004610 -0.002060 -269492.000000 1 0 0
5.997138 -9.071289 2.143142 11.083637 -0.986649 1.376210 -0.007918 0.002273 1690700.000000 1 0 0
11.568738 -1.285289 5.906642 13.052819 -0.110646 1.101209 0.007803 -0.004476 -1403610.000000 1 0 0
-6.379162 3.717311 4.118542 8.454259 -0.527622 1.061966 0.003537 0.000194 -858036.000000 1 0 0
9.468938 6.364611 -3.222058 11.855409 0.591794 1.846038 0.003914 0.000125 -601315.000000 1 0 0
-2.327762 6.632711 10.968642 13.027756 -1.233274 0.569920 -0.006002 -0.002925 -417332.000000 1 0 0
1.857638 9.730111 3.003242 10.351103 1.382150 1.276426 -0.003923 0.000765 -516920.000000 1 0 0
2.847138 6.143911 -5.645258 8.816052 1.136848 2.265735 -0.002946 0.001049 -1764780.000000 1 0 0
11.694038 0.090411 -5.842858 13.072784 0.007731 2.034147 0.005600 0.000106 377410.000000 1 0 0
-2.624862 -12.511189 6.235342 14.223194 1.363995 1.116987 0.002587 0.000904 -167735.000000 1 0 0
10.831638 1.880911 -2.828658 11.351807 0.171935 1.822631 0.003006 0.001412 -481817.000000 1 0 0
-8.838762 5.313511 0.784442 10.342749 -0.541272 1.494879 0.003140 -0.001009 -216303.000000 1 0 0
1.198638 -10.206289 5.585342 11.696201 -1.453891 1.072950 -0.000810 -0.001022 453765.000000 1 0 0
9.307538 -5.741589 -1.251258 11.007350 -0.552735 1.684717 0.003005 0.000087 1773850.000000 1 0 0
-7.734062 8.646411 -4.519058 12.449820 -0.841038 1.942262 0.003259 0.000165 -673665.000000 1 0 0
-7.458962 -0.007689 -1.668158 7.643228 0.001031 1.790820 0.002024 -0.003607 -1037520.000000 1 0 0
4.130938 8.785911 2.735942 10.086736 1.131290 1.296114 -0.002419 0.000751 -510191.000000 1 0 0
-1.316562 -10.524589 -3.758558 11.252870 1.446349 1.911350 0.001684 0.000121 -318351.000000 1 0 0
3.157538 7.898111 -3.714258 9.281482 1.190476 1.982509 0.002138 -0.003046 -90043.900000 1 0 0
-4.172262 1.622411 -10.992158 11.868763 -0.370863 2.754848 0.004030 -0.004968 -292218.000000 1 0 0
1.187038 2.758511 11.032342 11.433766 1.164430 0.265767 -0.000443 -0.000929 985554.000000 1 0 0
2.036838 5.601611 -8.079858 10.040461 1.222043 2.506016 -0.001253 0.001166 -203792.000000 1 0 0
15.553438 6.078511 4.084642 17.191336 0.372563 1.330903 0.004744 -0.004570 494081.000000 1 0 0
-4.375062 9.088711 4.686942 11.122646 -1.122161 1.135822 0.002348 0.001897 -249316.000000 1 0 0
-1.046162 -8.177389 -12.436658 14.920946 1.443554 2.556215 0.003205 0.000179 -918701.000000 1 0 0
14.217038 -4.254689 -5.293758 15.755965 -0.290784 1.913447 0.013579 -0.001723 1467640.000000 1 0 0
-5.916062 -6.081389 -5.630058 10.182369 0.799177 2.156664 0.011496 -0.005859 696377.000000 1 0 0
-8.934862 2.556111 -12.290458 15.408466 -0.278640 2.494174 0.002976 0.000091 -1357950.000000 1 0 0
10.647438 5.299211 13.816342 18.230218 0.461804 0.710737 0.031001 -0.007816 884187.000000 1 0 0
-0.419862 10.886911 5.606442 12.252889 -1.532250 1.095546 0.001529 0.005798 507553.000000 1 0 0
0.606938 11.115511 -0.495358 11.143085 1.516248 1.615265 0.001068 -0.000642 -75686.400000 1 0 0
-1.495662 -0.735489 3.703342 4.061119 0.457024 0.422902 -0.001191 -0.000840 403635.000000 1 0 0
-4.836762 6.921911 8.876242 12.251318 -0.960902 0.760468 -0.000050 -0.003946 -874437.000000 1 0 0
3.442838 -8.686089 -11.368358 14.715327 -1.193430 2.453647 -0.005156 0.002449 -117599.000000 1 0 0
6.814038 -3.774689 12.085842 14.378698 -0.505877 0.572521 0.004407 0.000468 96039.400000 1 0 0
-2.512162 -1.866089 -12.493758 12.879722 0.638891 2.896164 0.002366 -0.006435 730995.000000 1 0 0
-15.928762 -4.900589 5.371942 17.509968 0.298466 1.258974 0.001609 -0.008504 498828.000000 1 0 0
-8.909262 7.328111 5.735742 12.883124 -0.688327 1.109384 0.004579 -0.003263 -1616410.000000 1 0 0
-12.873662 1.498911 6.100942 14.324783 -0.115910 1.130839 0.004090 -0.001036 95734.200000 1 0 0
-3.509762 3.632011 10.204442 11.385981 -0.802514 0.459603 -0.002784 -0.000213 458998.000000 1 0 0
2.050438 -12.386989 -1.178458 12.610732 -1.406752 1.664382 -0.005618 0.002913 -2970330.000000 1 0 0
10.265338 -5.071189 -3.615758 12.006991 -0.458845 1.876682 0.008316 -0.001189 788042.000000 1 0 0
3.194938 -13.491189 1.001242 13.900442 -1.338264 1.498704 -0.003979 0.002911 409667.000000 1 0 0
9.945538 -1.791589 -6.172258 11.841465 -0.178229 2.119101 0.005235 0.001743 48045.900000 1 0 0
11.941338 -5.267489 -1.622158 13.151935 -0.415440 1.694451 0.009423 -0.000934 -718219.000000 1 0 0
1.470238 0.951811 6.019842 6.269453 0.574535 0.283129 -0.005455 0.000342 490162.000000 1 0 0
-10.608362 11.607411 6.693342 17.090060 -0.830338 1.168371 0.010943 -0.007419 -699879.000000 1 0 0
4.719238 -14.200989 3.109942 15.284340 -1.249960 1.365893 -0.007154 0.001580 -3240170.000000 1 0 0
5.373038 -3.410489 -1.754258 6.601393 -0.565574 1.839768 -0.002237 -0.000708 -1284440.000000 1 0 0
2.043938 -2.881789 -7.688958 8.461824 -0.953883 2.710870 -0.003405 -0.002897 -92201.600000 1 0 0
-2.685162 14.806111 -8.731058 17.397195 -1.391391 2.096551 0.007702 -0.005391 -2155070.000000 1 0 0
-2.298962 6.079111 -8.050058 10.346219 -1.209246 2.462380 0.005684 -0.002921 -818926.000000 1 0 0
2.568538 -3.501789 -11.367258 12.168586 -0.937944 2.776660 -0.003580 -0.001287 -1584330.000000 1 0 0
14.705638 2.745811 -2.763558 15.212906 0.184593 1.753469 0.012328 0.003382 749081.000000 1 0 0
-3.371962 13.031411 2.204742 13.639966 -1.317593 1.408446 0.004334 0.001015 -857561.000000 1 0 0
7.973438 -5.029489 14.021742 16.896174 -0.562745 0.591910 0.000036 -0.002677 -2126230.000000 1 0 0
-11.498062 7.264111 2.877642 13.901567 -0.563452 1.362288 0.001202 -0.000139 1194800.000000 1 0 0
-2.177662 11.968711 4.119842 12.843884 -1.390819 1.244261 0.000348 0.001706 362309.000000 1 0 0
1.846838 1.387211 0.614442 2.390126 0.644222 1.310802 -0.008809 -0.000851 -1657340.000000 1 0 0
-6.805662 8.683711 5.332842 12.254104 -0.906057 1.120549 0.001936 -0.000656 -409756.000000 1 0 0
-1.046762 9.096711 1.011742 9.212463 -1.456230 1.460751 -0.001656 0.002055 166922.000000 1 0 0
5.003738 13.079011 -8.507658 16.385303 1.205399 2.116740 0.001419 -0.009766 -1870130.000000 1 0 0
8.857438 6.902511 7.151342 13.313172 0.661985 1.003726 -0.005356 0.002535 -1269790.000000 1 0 0
7.251038 -13.894389 3.119342 15.980047 -1.089808 1.374333 -0.003703 -0.000571 818972.000000 1 0 0
4.183538 -13.387789 -1.295758 14.085946 -1.267921 1.662916 -0.006491 0.007474 -3174290.000000 1 0 0
12.084338 -11.892789 -4.570258 17.560095 -0.777410 1.834092 0.013160 0.000380 -1146380.000000 1 0 0
2.819438 0.043111 -2.011458 3.463676 0.015289 2.190421 -0.003653 -0.002967 1595980.000000 1 0 0
-13.486062 -3.147989 -10.778458 17.548757 0.229319 2.232169 0.003614 -0.003283 455286.000000 1 0 0
-6.494462 13.731711 5.038942 16.004026 -1.129019 1.250493 0.007809 -0.005311 473597.000000 1 0 0
7.213038 -4.308789 -0.625058 8.425217 -0.538477 1.645054 -0.002033 0.001599 -2206540.000000 1 0 0
11.745438 2.081811 -7.363858 14.018404 0.175422 2.123863 0.005885 0.000761 -878270.000000 1 0 0
-7.552862 -4.491689 9.678642 13.072762 0.536514 0.737180 0.005116 -0.002063 518773.000000 1 0 0
0.947138 2.915211 8.537842 9.071398 1.256659 0.344683 -0.002392 0.001725 -2967750.000000 1 0 0
1.613738 8.053911 -8.790558 12.030941 1.373048 2.390088 -0.000469 0.001506 829421.000000 1 0 0
-8.632162 -1.965189 -5.590358 10.470353 0.223844 2.134029 0.006621 -0.005450 -1088000.000000 1 0 0
6.645838 -0.496989 7.119842 9.752246 -0.074643 0.752369 -0.000995 0.000787 355092.000000 1 0 0
-10.841562 6.525211 7.184742 14.551232 -0.541793 1.054394 0.007151 -0.004513 95891.300000 1 0 0
-5.859162 11.145011 4.916242 13.517044 -1.086785 1.198552 0.002078 -0.000027 -772020.000000 1 0 0
6.049838 -1.203389 -6.941158 9.285923 -0.196350 2.415076 -0.005709 0.000827 -512062.000000 1 0 0
4.547538 -5.807089 11.421242 13.595850 -0.906445 0.573415 -0.000820 0.000418 -1072850.000000 1 0 0
-9.002062 -7.288889 2.637742 11.879508 0.680622 1.346889 0.004095 -0.001740 -3608920.000000 1 0 0
-1.138662 12.777911 -9.349558 15.874061 -1.481919 2.200597 0.005851 0.002156 665685.000000 1 0 0
-4.707962 9.147611 -2.268758 10.535224 -1.095485 1.787846 0.002842 -0.002056 35469.200000 1 0 0
-3.221162 9.833111 -0.219458 10.349595 -1.254230 1.592002 0.001807 -0.000104 -470263.000000 1 0 0
-3.444762 10.842611 -6.456858 13.081270 -1.263176 2.087016 0.001761 -0.000127 751586.000000 1 0 0
4.814938 -4.819389 0.345142 6.821236 -0.785860 1.520177 -0.002663 0.000666 -1874690.000000 1 0 0
-2.146262 3.020211 -10.933858 11.544582 -0.952970 2.814868 0.005675 -0.003995 -2066920.000000 1 0 0
-3.692462 12.145211 -2.285258 12.898171 -1.275650 1.748914 0.002623 -0.000179 1319160.000000 1 0 0
-0.064962 0.329111 0.012042 0.335677 -1.375915 1.534916 -0.008040 -0.002064 -2918250.000000 1 0 0
-4.745562 -1.629889 0.148742 5.019863 0.330833 1.541161 0.002467 -0.003842 -222428.000000 1 0 0
2.632438 2.726211 -2.530558 4.556938 0.802896 2.159544 -0.012023 -0.000486 1239910.000000 1 0 0
6.001038 -9.769189 8.544942 14.299145 -1.019941 0.930312 -0.006826 0.002971 -552867.000000 1 0 0
-4.344862 -5.478389 6.601942 9.616455 0.900282 0.814097 0.001581 -0.003198 -51238.400000 1 0 0
-6.306462 5.323511 -12.092658 14.640479 -0.701080 2.542725 -0.003781 0.000244 200533.000000 1 0 0
-12.763262 3.074711 7.942842 15.344166 -0.236399 1.026699 0.000794 0.001123 588010.000000 1 0 0
4.670538 -7.495789 -4.871058 10.086029 -1.013573 2.074818 -0.004068 -0.001312 1484230.000000 1 0 0
-6.055962 2.512811 -1.033458 6.637540 -0.393312 1.727131 0.006100 -0.002751 -447572.000000 1 0 0
-6.804562 -2.808989 -14.527758 16.286444 0.391500 2.672581 0.005354 -0.002124 -510685.000000 1 0 0
2.676038 -6.082589 0.873842 6.702438 -1.156331 1.440047 -0.002605 0.000818 -495229.000000 1 0 0
4.916638 -7.907189 13.079742 16.055423 -1.014506 0.618650 -0.006781 0.001391 -199041.000000 1 0 0
-10.008362 -1.709989 7.969242 12.907369 0.169222 0.905340 0.003891 -0.000318 83175.500000 1 0 0
-4.440462 13.341611 -0.062358 14.061300 -1.249501 1.575231 0.004961 0.000054 221857.000000 1 0 0
6.741538 2.223211 -4.546058 8.429570 0.318547 2.140401 -0.005117 0.003608 -1801880.000000 1 0 0
4.901238 4.548211 -0.044458 6.686578 0.748056 1.577445 -0.005462 -0.000334 -1008460.000000 1 0 0
-5.878662 12.329311 1.872042 13.786773 -1.125877 1.434590 0.007431 -0.001009 -625011.000000 1 0 0
6.485038 -7.376989 6.632042 11.851568 -0.849655 0.976903 -0.006340 0.001126 -936484.000000 1 0 0
-0.289362 4.939411 7.635242 9.098265 -1.512281 0.574990 -0.008594 0.003561 -1135720.000000 1 0 0
-5.808062 -3.359489 -1.544358 6.885114 0.524399 1.797025 0.003106 -0.004956 -122000.000000 1 0 0
2.279138 -6.466389 -5.048958 8.514731 -1.231932 2.205535 -0.004368 -0.000245 -1735090.000000 1 0 0
-14.432062 -4.798089 -3.738058 15.661391 0.320965 1.811803 0.011416 -0.003218 -101554.000000 1 0 0
-12.410462 -5.152089 -6.360358 14.866666 0.393490 2.012883 0.009145 -0.008501 -1600030.000000 1 0 0
-14.840962 -3.755389 -1.302758 15.364058 0.247840 1.655691 0.008910 -0.000987 405669.000000 1 0 0
11.815638 2.841911 8.816542 15.013899 0.236038 0.943170 0.006093 -0.002485 -1187300.000000 1 0 0
8.749438 -6.542989 7.693142 13.362178 -0.642103 0.957287 0.000771 -0.003380 234806.000000 1 0 0
-8.797362 -1.692289 -9.756258 13.245452 0.190042 2.398788 0.006100 -0.003625 -249461.000000 1 0 0
-8.887162 5.134211 -3.930758 10.990570 -0.523869 1.936545 0.003860 -0.001612 -561649.000000 1 0 0
-4.255362 -6.207089 4.026442 8.535121 0.969824 1.079522 0.002967 -0.001788 -1021120.000000 1 0 0
-0.170162 -9.254089 3.585442 9.925851 1.552411 1.201218 0.002554 -0.000784 1305010.000000 1 0 0
7.780938 -10.431989 3.393642 13.449394 -0.929942 1.315712 -0.006294 0.003327 96295.300000 1 0 0
-0.040462 6.440411 9.637242 11.591245 -1.564514 0.589130 -0.003901 -0.000541 802484.000000 1 0 0
0.076138 3.514911 -9.710058 10.326937 1.549138 2.794204 0.004766 -0.002519 -205615.000000 1 0 0
4.513738 -3.143389 11.120042 12.406049 -0.608309 0.459351 0.001859 -0.001749 -2576170.000000 1 0 0
8.476238 -9.063089 1.327542 12.479926 -0.818845 1.464221 -0.005381 0.003193 -1948350.000000 1 0 0
-0.281362 -0.518589 11.426942 11.442163 1.073689 0.051587 0.004581 -0.002209 -798321.000000 1 0 0
10.890638 5.946211 11.409442 16.856416 0.499762 0.827307 0.018499 -0.002880 -202850.000000 1 0 0
-6.370162 -2.912389 -11.856658 13.771032 0.428819 2.608000 0.003788 -0.003747 388774.000000 1 0 0
-1.666362 2.798311 8.446642 9.052793 -1.033701 0.368017 -0.003924 -0.000234 -1222730.000000 1 0 0
-1.536062 13.530711 -6.752558 15.199890 -1.457756 2.031134 0.009946 0.001473 376362.000000 1 0 0
7.598938 3.061211 9.804942 12.777001 0.382958 0.696036 -0.000993 -0.000283 728286.000000 1 0 0
6.510538 8.560711 -8.044458 13.430792 0.920600 2.212994 0.003241 -0.001334 418203.000000 1 0 0
6.546938 -2.978689 -4.028358 8.243947 -0.426983 2.081332 -0.000581 -0.000578 -2596090.000000 1 0 0
2.044038 8.215411 1.023642 8.527538 1.326942 1.450467 -0.002838 0.001724 696434.000000 1 0 0
-17.734662 6.208011 6.235742 19.797528 -0.336719 1.250365 0.015384 0.001256 885667.000000 1 0 0
-14.507262 2.810211 -10.081758 17.888538 -0.191341 2.169519 0.007071 0.000259 -927224.000000 1 0 0
-18.146062 0.148211 -4.526458 18.702683 -0.008167 1.815245 0.005140 0.005274 -687774.000000 1 0 0
-12.974462 8.067811 0.137742 15.278914 -0.556311 1.561781 -0.002443 0.002499 -410329.000000 1 0 0
-12.627862 -4.360289 -12.930758 18.592459 0.332474 2.339890 0.013208 0.008895 -160171.000000 1 0 0
-17.223462 -0.650589 -8.911158 19.403084 0.037755 2.047964 -0.006522 0.000853 207423.000000 1 0 0
-16.760362 -2.180089 -2.044958 17.024817 0.129348 1.691203 0.012599 -0.002373 -281233.000000 1 0 0
-15.358662 4.116011 1.667042 15.987779 -0.261840 1.466337 0.002653 0.002798 -1429630.000000 1 0 0
-13.290962 5.938911 4.337542 15.189951 -0.420222 1.281213 0.001959 0.002268 1282220.000000 1 0 0
-10.095062 14.275611 2.759942 17.700865 -0.955285 1.414236 0.018602 -0.004749 248446.000000 1 0 0
-11.919662 2.439811 -6.467958 13.779169 -0.201899 2.059409 -0.000603 0.004758 105448.000000 1 0 0
-15.995462 10.707311 3.864942 19.632603 -0.589890 1.372639 0.024813 -0.001966 -372918.000000 1 0 0
-12.706062 1.061211 -8.580058 15.368396 -0.083327 2.163122 0.000642 -0.000924 680257.000000 1 0 0
-12.272862 14.343711 4.152842 19.329027 -0.863045 1.354258 0.026735 -0.007393 -305622.000000 1 0 0
-10.426762 11.150711 -1.049458 15.302192 -0.818937 1.639432 0.003372 -0.001486 -193907.000000 1 0 0
-16.996962 5.678911 8.742542 19.939378 -0.322452 1.116916 0.007812 0.000743 -24835.300000 1 0 0
-11.758162 12.606511 -9.218258 19.548779 -0.820203 2.061846 0.003473 -0.009883 -105097.000000 1 0 0
-17.154762 -0.572789 2.938642 17.414062 0.033377 1.401234 0.006210 -0.000247 522969.000000 1 0 0
-12.999362 14.894711 -0.833658 19.787138 -0.853242 1.612940 0.018103 -0.007462 254912.000000 1 0 0
-16.093162 4.763011 -10.657358 19.881032 -0.287751 2.136555 0.005439 0.010760 567830.000000 1 0 0
-11.938662 7.539111 -9.073158 16.783684 -0.563251 2.141939 -0.000376 0.003425 159999.000000 1 0 0
-14.774762 13.462811 -2.084058 20.096870 -0.738970 1.674684 0.025345 -0.015399 505088.000000 1 0 0
-11.847962 10.596411 -5.528258 16.829135 -0.729693 1.905504 0.003497 -0.004828 1413300.000000 1 0 0
-17.571362 2.847711 -0.783858 17.817875 -0.160669 1.614803 -0.009644 0.002080 -369699.000000 1 0 0
-9.611762 15.358111 0.410742 18.122534 -1.011591 1.548130 0.023932 -0.011058 185086.000000 1 0 0
-8.191562 13.192111 -3.614858 15.943672 -1.015119 1.799512 0.008042 -0.002609 -309715.000000 1 0 0
-17.618162 11.571011 1.984942 21.171394 -0.581117 1.476903 0.027733 0.001030 861.074000 1 0 0
-8.027962 15.797511 -7.303558 19.166416 -1.100627 1.961739 0.023200 -0.017248 52413.700000 1 0 0
-6.248262 15.279511 -5.371058 17.359507 -1.182615 1.885360 0.007876 -0.003444 -775277.000000 1 0 0
-17.284262 5.346911 -0.217158 18.093710 -0.300014 1.582798 -0.000318 0.001991 502776.000000 1 0 0
-5.458362 12.387311 -12.172258 18.204479 -1.155752 2.303176 -0.010699 0.001870 -1107240.000000 1 0 0
-11.145962 3.732611 -11.508958 16.450562 -0.323146 2.345646 0.008974 -0.000033 -24679.500000 1 0 0
-11.878762 10.985611 1.194242 16.223897 -0.746355 1.497120 0.012269 -0.002191 250598.000000 1 0 0
-12.791362 0.128711 -11.024058 16.886840 -0.010062 2.282097 -0.002799 -0.002804 -161783.000000 1 0 0
-14.063062 -2.119389 -13.099258 19.335255 0.149580 2.315128 0.005500 0.000588 266456.000000 1 0 0
-18.696662 -2.368789 -3.880058 19.241393 0.126024 1.773840 0.005601 0.003335 783442.000000 1 0 0
-18.476962 4.749611 -5.037058 19.731419 -0.251608 1.828935 0.028488 0.011557 -118107.000000 1 0 0
-8.207362 15.423811 -2.131658 17.601099 -1.081782 1.692204 0.017574 -0.007741 102199.000000 1 0 0
-15.986662 9.273511 -5.156758 19.187588 -0.525642 1.842896 0.005990 0.003094 -152591.000000 1 0 0
-18.328962 1.565811 2.026642 18.507023 -0.085221 1.461070 0.010004 -0.001531 -204881.000000 1 0 0
-15.607562 -2.756089 -8.667258 18.064147 0.174785 2.071228 -0.000217 -0.005046 19202.200000 1 0 0
-9.629662 10.593911 -7.033658 15.950978 -0.833042 2.027458 0.000209 -0.005028 69476.400000 1 0 0
-13.932362 11.828711 -7.944358 19.928421 -0.703919 1.980835 0.007377 -0.011850 -420058.000000 1 0 0
-11.128262 6.519211 -3.844458 13.458016 -0.529931 1.860495 -0.003478 0.000688 -1009330.000000 1 0 0
-13.149262 4.930511 -12.760558 18.974849 -0.358740 2.308376 0.016837 -0.001571 893877.000000 1 0 0
-17.563262 9.104211 2.562242 19.947930 -0.478233 1.441994 0.011513 -0.007931 602633.000000 1 0 0
-13.288962 8.821811 -6.740458 17.316311 -0.586047 1.970619 -0.005943 0.005634 -847087.000000 1 0 0
-15.799362 6.935111 -3.796858 17.667250 -0.413626 1.787395 0.001089 0.005680 -1616750.000000 1 0 0
-14.776862 -0.370689 -9.351758 17.491382 0.025081 2.134889 0.003307 -0.003839 -1504080.000000 1 0 0
-10.114062 5.834511 -6.054458 13.152651 -0.523239 2.049155 -0.002898 0.002257 795816.000000 1 0 0
-12.740262 12.221411 -0.967058 17.680847 -0.764615 1.625519 0.014894 -0.009187 -1672220.000000 1 0 0
-10.686162 3.372111 -14.048758 17.970331 -0.305669 2.468304 0.003958 0.004465 400460.000000 1 0 0
-11.028562 6.285711 -12.092558 17.531951 -0.518030 2.331932 0.002039 -0.000314 -622869.000000 1 0 0
-5.655462 11.704311 -14.777658 19.681319 -1.120683 2.420140 -0.010273 -0.002052 -466258.000000 1 0 0
-15.519162 13.291111 3.449442 20.721889 -0.708216 1.403554 0.011144 -0.004270 242538.000000 1 0 0
-15.072062 11.056111 -3.112958 18.949806 -0.632890 1.735818 0.018480 -0.003654 500359.000000 1 0 0
-18.060862 7.791911 -4.494958 20.177048 -0.407300 1.795457 0.012169 0.003299 -243433.000000 1 0 0
-3.935962 16.311211 -10.374658 19.727669 -1.334019 2.124562 0.011274 -0.005367 -45135.100000 1 0 0
-15.900962 4.467411 -4.452558 17.106245 -0.273891 1.834117 -0.000398 0.010601 -288130.000000 1 0 0
-18.486462 -1.683689 -6.324958 19.610946 0.090826 1.899189 0.005109 0.002098 144563.000000 1 0 0
-10.765262 8.520111 -5.872758 14.932262 -0.669503 1.975007 -0.001043 0.003323 -267654.000000 1 0 0
-11.383562 13.751011 -6.834958 19.115241 -0.879312 1.936457 0.005312 -0.001642 515949.000000 1 0 0
-9.524062 10.372511 -4.333658 14.733545 -0.828015 1.869347 -0.004798 -0.001238 -699587.000000 1 0 0
-11.076762 6.219211 -0.304358 12.706922 -0.511603 1.594751 -0.001965 0.001465 -267757.000000 1 0 0
-14.656662 9.637611 -1.140258 17.578438 -0.581670 1.635709 0.011175 -0.000759 -406730.000000 1 0 0
-18.624662 3.442711 4.652942 19.503337 -0.182784 1.329902 0.005618 0.001132 378684.000000 1 0 0
-14.660662 13.248211 0.471442 19.765433 -0.734832 1.546942 0.015693 -0.007741 178411.000000 1 0 0
-17.018362 2.646111 -9.327258 19.586329 -0.154251 2.067139 0.015820 0.010618 282565.000000 1 0 0
-9.196762 8.493911 -8.814858 15.311064 -0.745689 2.184279 0.001136 0.001821 -992406.000000 1 0 0
-17.695162 4.682011 -2.603458 18.488320 -0.258665 1.712082 0.001063 0.010667 709825.000000 1 0 0
-13.615362 5.755011 -4.434558 15.432548 -0.399908 1.862256 -0.006240 0.009033 -999958.000000 1 0 0
-12.206462 9.617911 3.340242 15.895255 -0.667341 1.359077 0.005092 0.000899 609906.000000 1 0 0
-17.713962 2.557511 -4.060358 18.352434 -0.143387 1.793886 0.012251 0.009987 1091840.000000 1 0 0
-11.388062 1.480211 -12.636758 17.075323 -0.129255 2.403955 0.011187 0.001630 620842.000000 1 0 0
-11.195462 12.045311 3.445642 16.801795 -0.821949 1.364255 0.013261 -0.004193 584661.000000 1 0 0
-16.133862 13.083011 -4.272658 21.206657 -0.681354 1.773662 0.020307 -0.010400 242701.000000 1 0 0
-11.272362 4.071111 -4.625658 12.846665 -0.346581 1.939136 -0.006168 0.002311 216060.000000 1 0 0
-11.228362 15.146111 -8.971758 20.879972 -0.932863 2.014937 0.018489 -0.012292 -116523.000000 1 0 0
-15.398262 7.240011 -0.387158 17.019816 -0.439511 1.593546 0.002681 0.000579 -1228150.000000 1 0 0
-12.777962 8.381011 -4.164358 15.838546 -0.580509 1.836850 -0.001504 0.002509 599798.000000 1 0 0
-19.140462 2.004511 -6.183058 20.213994 -0.104346 1.881659 0.014873 0.014358 543033.000000 1 0 0
-12.421962 10.101911 -9.080058 18.406553 -0.682756 2.086682 -0.005623 -0.001499 567678.000000 1 0 0
-16.708762 11.159711 -1.089758 20.122362 -0.588853 1.624979 0.023163 -0.002309 -59491.500000 1 0 0
-10.518162 6.525411 -14.607158 19.146326 -0.555281 2.438618 -0.009855 -0.005293 -245315.000000 1 0 0
-13.497162 12.810011 -4.278858 19.093936 -0.759284 1.796811 0.005828 -0.012474 496340.000000 1 0 0
-17.947762 7.793411 -0.209858 19.567919 -0.409660 1.581521 0.014226 -0.004317 -58681.000000 1 0 0
-12.866162 6.781711 -2.114458 14.696961 -0.485089 1.715168 -0.003602 0.003769 -145581.000000 1 0 0
-13.756562 8.546511 -10.674358 19.396592 -0.555911 2.153545 -0.002749 0.001542 -650251.000000 1 0 0
-14.960062 1.428611 -1.055858 15.065166 -0.095206 1.640940 0.001789 0.001278 -775457.000000 1 0 0
-13.214962 2.827311 -2.458258 13.735791 -0.210770 1.750733 -0.003111 0.002925 -247452.000000 1 0 0
-11.111262 9.024011 -11.010858 18.059123 -0.682106 2.226493 -0.003736 -0.006863 349816.000000 1 0 0
-15.475262 4.443511 -8.168158 18.054012 -0.279614 2.040283 0.010806 0.005611 389289.000000 1 0 0
-18.660662 10.787811 4.229242 21.965511 -0.524164 1.377046 0.034927 -0.003563 1029470.000000 1 0 0
-15.343662 6.237711 -6.265458 17.708556 -0.386126 1.932437 0.000866 0.013661 1026250.000000 1 0 0
-7.652262 11.388311 -13.030558 18.922109 -0.979152 2.330411 -0.018162 0.005119 -1158680.000000 1 0 0
-16.754262 9.142611 -2.713158 19.278326 -0.499527 1.712001 0.012685 -0.006428 819751.000000 1 0 0
-20.514262 -0.932889 -4.951058 21.123878 0.045444 1.807379 0.002972 0.007023 1152590.000000 1 0 0
-15.485962 4.261511 4.204442 16.602796 -0.268539 1.314772 0.006878 0.002637 29745.400000 1 0 0
-6.847162 12.544111 -9.355958 17.081344 -1.071147 2.150445 0.001011 -0.008005 -219791.000000 1 0 0
-17.177962 1.515811 5.779142 18.187318 -0.088014 1.247434 0.009638 -0.002370 946697.000000 1 0 0
-10.413862 14.599711 -3.217158 18.219500 -0.951205 1.748305 0.019201 -0.008896 782388.000000 1 0 0
-9.878362 8.443811 -13.131958 18.475073 -0.707262 2.361422 -0.012137 -0.000714 -432857.000000 1 0 0
-13.790562 11.631311 2.720142 18.244620 -0.700665 1.421146 0.021980 -0.002828 -338372.000000 1 0 0
-16.804162 6.775011 1.862942 18.214038 -0.383240 1.468337 0.005813 0.000486 351144.000000 1 0 0
-9.342762 13.395611 -8.440358 18.383940 -0.961784 2.047796 0.011712 -0.012601 468170.000000 1 0 0
-5.528962 9.967811 -12.827658 17.160288 -1.064366 2.415117 -0.006500 0.005608 -911706.000000 1 0 0
-16.030562 1.839211 3.087342 16.428430 -0.114232 1.381745 0.006796 0.002181 85414.900000 1 0 0
-18.542162 -4.964989 4.720042 19.767187 0.261630 1.329685 0.016431 -0.003912 -208981.000000 1 0 0
-5.215062 14.563811 -8.988558 17.891217 -1.226938 2.097169 0.001779 -0.004472 159730.000000 1 0 0
-15.471462 -0.861789 -6.884358 16.955920 0.055644 1.988886 0.006801 0.002169 472230.000000 1 0 0
-8.927362 11.066211 -9.514258 17.107891 -0.891970 2.160522 -0.004603 -0.006870 386497.000000 1 0 0
-16.530662 1.505811 -6.092958 17.682036 -0.090841 1.922593 -0.007838 0.007275 -92269.900000 1 0 0
-11.113262 8.643411 -1.525558 14.161231 -0.661030 1.678734 -0.001464 -0.000815 -1235450.000000 1 0 0
-10.578462 10.981411 -12.751358 19.876931 -0.804086 2.267269 -0.006939 -0.007357 -431340.000000 1 0 0
-13.749262 11.800311 -10.536758 20.959791 -0.709264 2.097531 0.002321 -0.007534 -262252.000000 1 0 0
-13.150862 5.671011 -7.791558 16.303801 -0.407133 2.069057 0.000870 0.010313 1127380.000000 1 0 0
-8.725962 15.529011 -4.764458 18.438890 -1.058852 1.832153 0.011957 -0.008751 -368287.000000 1 0 0
-8.605462 6.164611 -12.932458 16.712417 -0.621622 2.455652 -0.007132 -0.000791 -2227170.000000 1 0 0
-16.522562 7.619911 4.345642 18.706755 -0.432114 1.336351 0.017552 0.005776 511780.000000 1 0 0
-12.724262 5.356011 -10.301658 17.225500 -0.398417 2.211858 0.005183 0.004017 543662.000000 1 0 0
-12.269362 9.098211 -13.439358 20.345295 -0.638064 2.292365 0.001329 -0.004143 -429569.000000 1 0 0
-10.702762 5.230511 -8.605458 14.695621 -0.454572 2.196391 -0.005842 0.004555 301508.000000 1 0 0
-17.735662 -4.464189 -2.739158 18.492855 0.246585 1.719463 0.009493 -0.000993 273269.000000 1 0 0
-8.841662 13.297311 -10.919158 19.344805 -0.984003 2.170562 0.007524 -0.008937 191279.000000 1 0 0
-15.141262 6.159711 6.041942 17.427132 -0.386369 1.216748 0.006396 0.001884 -774802.000000 1 0 0
-16.270862 -3.063489 -4.501258 17.157717 0.186102 1.836249 0.003806 0.000214 -1453220.000000 1 0 0
-11.083762 -1.161189 -12.687258 16.886819 0.104384 2.420843 0.005954 0.005786 606533.000000 1 0 0
-15.284362 6.976511 -8.653658 18.898921 -0.428203 2.046419 0.000943 0.011257 -44106.700000 1 0 0
-14.774862 9.093411 1.447242 17.409227 -0.551713 1.487570 0.010755 -0.002446 -789200.000000 1 0 0
-19.449062 5.327611 8.030642 21.705775 -0.267368 1.191812 0.024652 -0.002715 -188686.000000 1 0 0
-16.278862 0.674311 0.781442 16.311551 -0.041399 1.522871 0.002941 -0.000723 -360098.000000 1 0 0
-17.574762 3.774911 7.038042 19.304306 -0.211577 1.197610 0.013635 0.002469 473109.000000 1 0 0
-15.363362 4.034911 -1.527958 15.957696 -0.256832 1.666694 -0.003461 0.003664 79427.900000 1 0 0
-10.902962 13.261111 0.408142 17.172601 -0.882679 1.547027 0.012276 -0.008684 -977492.000000 1 0 0
-13.429462 3.458711 -0.010958 13.867705 -0.252069 1.571587 0.001197 0.000550 -197714.000000 1 0 0
-15.082062 0.182111 -4.393758 15.710088 -0.012074 1.854255 0.001080 0.003146 -406126.000000 1 0 0
-18.900962 7.020311 3.326442 20.435174 -0.355634 1.407289 0.014942 0.003835 -373070.000000 1 0 0
-14.115662 1.210911 -6.502658 15.588547 -0.085575 2.001096 -0.001569 0.004386 -3273320.000000 1 0 0
-14.245962 11.959611 5.314142 19.344762 -0.698372 1.292511 0.015028 -0.007870 280602.000000 1 0 0
17.642038 5.312211 6.149642 19.423676 0.292476 1.248648 0.018850 -0.010565 -10724.000000 1 0 0
18.495838 7.409611 -0.151458 19.925393 0.381032 1.578398 0.003137 0.005120 319583.000000 1 0 0
16.499538 5.050211 8.542442 19.253901 0.297027 1.111103 0.030853 -0.007506 332947.000000 1 0 0
11.720038 12.150611 11.003742 20.151401 0.803434 0.993150 0.011861 -0.006019 373559.000000 1 0 0
-2.299362 16.417311 -0.588058 16.587977 -1.431644 1.606255 0.002683 -0.001584 -72880.000000 1 0 0
14.842538 12.492811 3.656042 19.741780 0.699650 1.384528 -0.002498 -0.002257 -15794.600000 1 0 0
13.703838 11.808911 6.928742 19.371448 0.711261 1.205016 0.015386 0.003307 797591.000000 1 0 0
-0.687362 15.896811 8.576542 18.075899 -1.527584 1.076430 0.005849 0.005443 -10382.500000 1 0 0
0.722838 13.010711 9.322242 16.022025 1.515296 0.949808 0.003048 0.003968 -1235420.000000 1 0 0
0.782738 15.594211 -3.840158 16.079145 1.520644 1.811956 0.000690 0.000620 -593362.000000 1 0 0
5.526238 10.295211 13.743342 18.039127 1.078161 0.704612 0.011596 -0.005776 579030.000000 1 0 0
-1.295462 16.466111 -2.801958 16.752970 -1.492284 1.738838 0.001281 -0.002732 -1188390.000000 1 0 0
8.651738 10.016111 3.281042 13.635992 0.858355 1.327796 -0.002377 0.002134 425350.000000 1 0 0
12.675038 13.647311 -4.765458 19.225381 0.822319 1.821281 0.031081 -0.003703 -317773.000000 1 0 0
2.476338 11.623411 7.732842 14.178602 1.360887 0.993944 0.005974 0.007041 -163569.000000 1 0 0
-0.257862 15.018411 -8.517958 17.267738 -1.553628 2.086661 0.005508 0.000953 -2247650.000000 1 0 0
2.513438 15.923611 0.306642 16.123671 1.414244 1.551777 0.004995 -0.006030 -422009.000000 1 0 0
2.023738 13.410611 5.325442 14.570529 1.421021 1.196633 0.006830 0.006823 1134520.000000 1 0 0
17.397338 9.127611 -1.853658 19.733644 0.483177 1.664869 -0.018127 0.008358 -121916.000000 1 0 0
-7.172462 15.067611 7.201142 18.175080 -1.126517 1.163411 0.016078 -0.009338 86864.600000 1 0 0
8.572938 15.858411 -0.062758 18.027435 1.075204 1.574278 0.003161 -0.005328 626584.000000 1 0 0
15.575938 10.375711 2.265142 18.851952 0.587636 1.450351 -0.001732 0.001240 62052.200000 1 0 0
14.085738 7.425911 8.784142 18.185525 0.485165 1.066685 0.019109 -0.006329 -892270.000000 1 0 0
4.329638 18.460511 -1.776558 19.044484 1.340425 1.664217 0.017736 -0.013384 -179306.000000 1 0 0
-0.338962 17.695711 -4.846558 18.350537 -1.551644 1.838077 0.008894 0.006095 326818.000000 1 0 0
1.456338 13.699711 -0.580958 13.789145 1.464890 1.612940 0.006047 -0.004183 -75948.800000 1 0 0
10.262138 14.747011 4.216842 18.454472 0.962841 1.340260 -0.005604 0.002641 484554.000000 1 0 0
-1.590962 15.395011 -5.171758 16.318229 -1.467819 1.893289 0.005876 0.000224 614394.000000 1 0 0
15.145738 8.623411 -5.937958 18.412386 0.517587 1.899164 0.017975 0.001284 457591.000000 1 0 0
-2.267062 18.490511 0.941142 18.652729 -1.448798 1.520319 -0.001148 -0.006417 -888323.000000 1 0 0
-3.389862 19.507011 3.555042 20.115988 -1.398738 1.393136 -0.014487 -0.004167 -37476.600000 1 0 0
1.859438 17.653511 -2.633858 17.945505 1.465854 1.718098 -0.001558 -0.003188 476650.000000 1 0 0
2.977838 12.153111 3.384942 12.962386 1.330504 1.306598 0.004468 0.001825 -403323.000000 1 0 0
-2.566262 16.164811 1.930142 16.480663 -1.413354 1.453411 0.006696 -0.006120 -2485650.000000 1 0 0
11.810038 12.874911 -2.660458 17.672531 0.828510 1.721913 0.000785 0.005667 525455.000000 1 0 0
7.313538 11.633111 4.796042 14.554007 1.009553 1.234986 -0.007335 0.003247 296218.000000 1 0 0
7.278138 16.147011 2.175742 17.844638 1.147325 1.448565 0.004337 -0.002425 -904556.000000 1 0 0
5.543138 12.187411 10.255142 16.864972 1.143937 0.917165 0.000289 0.004624 887449.000000 1 0 0
-1.270462 14.204011 3.090142 14.591675 -1.481590 1.357406 0.002160 0.000214 -1052040.000000 1 0 0
4.783138 16.228611 1.603442 16.994624 1.284177 1.476306 0.009166 -0.009325 -1487420.000000 1 0 0
7.369938 13.076411 11.981842 19.206068 1.057567 0.897128 0.003400 -0.002042 197893.000000 1 0 0
0.821738 17.185911 -9.378658 19.595663 1.523018 2.069866 0.006764 -0.000604 404091.000000 1 0 0
9.812938 9.511311 15.394842 20.585430 0.769791 0.725977 0.032681 -0.013498 -223606.000000 1 0 0
13.537038 7.552711 0.005842 15.501447 0.508911 1.570419 -0.003281 0.003048 338546.000000 1 0 0
12.545638 13.402911 -0.148958 18.359010 0.818424 1.578910 0.005332 0.000685 605550.000000 1 0 0
9.444138 12.386911 3.453542 15.954756 0.919388 1.352611 -0.006522 0.005975 275434.000000 1 0 0
-0.504162 12.698811 0.891742 12.740062 -1.531116 1.500744 0.004395 -0.000177 -1857080.000000 1 0 0
15.954238 7.143311 -0.864958 17.501793 0.420971 1.620238 -0.003414 0.005109 -565903.000000 1 0 0
-4.200362 18.587911 -2.315758 19.196776 -1.348556 1.691724 0.010966 -0.001824 43957.800000 1 0 0
11.607238 9.222711 -3.214258 15.169635 0.671418 1.784302 0.008190 0.001364 -78680.800000 1 0 0
14.743238 9.611411 7.826342 19.261202 0.577724 1.152366 0.018081 -0.008651 133508.000000 1 0 0
4.584738 13.756011 4.673842 15.234581 1.249085 1.258976 0.007858 0.002966 442818.000000 1 0 0
2.301038 15.936611 5.735442 17.092853 1.427400 1.228611 0.014269 0.003153 311651.000000 1 0 0
6.197538 18.483611 5.578142 20.277303 1.247278 1.292110 0.012641 -0.008633 -730031.000000 1 0 0
10.712738 17.150011 -0.987258 20.245007 1.012449 1.619581 0.009118 -0.007823 -439184.000000 1 0 0
10.012638 13.648311 -4.393258 17.487997 0.937863 1.824732 0.019741 -0.002641 1262820.000000 1 0 0
16.683738 7.861911 2.444942 18.604690 0.440369 1.439000 0.001033 0.002805 450452.000000 1 0 0
4.097538 14.080311 -0.534158 14.674137 1.287606 1.607206 0.003888 -0.005229 -674037.000000 1 0 0
5.736138 13.230811 -2.292358 14.601799 1.161711 1.728440 0.002099 -0.003137 -410337.000000 1 0 0
-6.150962 16.876911 -2.882058 18.192601 -1.221298 1.729886 0.013895 -0.006769 -821872.000000 1 0 0
18.106538 9.936111 2.919642 20.858987 0.501889 1.430365 0.008528 -0.000930 -2387050.000000 1 0 0
8.088338 12.863411 9.423542 17.879924 1.009479 1.015676 0.000835 0.001166 1568770.000000 1 0 0
-2.550362 15.720811 6.702642 17.279284 -1.409969 1.172444 0.004705 -0.000293 -996566.000000 1 0 0
11.089338 16.048811 6.326842 20.507722 0.966153 1.257170 -0.002580 0.003011 -109120.000000 1 0 0
13.494938 11.828911 1.560342 18.013083 0.719704 1.484065 -0.001361 0.001029 419744.000000 1 0 0
17.475738 7.500811 -5.426658 19.776557 0.405434 1.848761 -0.006120 0.010640 515607.000000 1 0 0
9.476338 9.234911 8.064242 15.495695 0.772496 1.023456 -0.000432 0.001294 -325802.000000 1 0 0
-2.104462 14.174311 -1.831358 14.446236 -1.423403 1.697909 0.001669 -0.002078 525044.000000 1 0 0
10.859738 11.590311 0.831842 15.904753 0.817929 1.518471 -0.003185 0.005931 1026660.000000 1 0 0
11.716638 9.732011 -0.579158 15.242279 0.693132 1.608802 0.001493 0.004646 -1629250.000000 1 0 0
-0.152962 16.204211 11.111442 19.648511 -1.561357 0.969744 0.007152 -0.000618 319834.000000 1 0 0
2.250038 19.934511 -1.526958 20.119120 1.458401 1.646765 0.016841 -0.017786 -801435.000000 1 0 0
9.146138 14.321411 1.894042 17.098013 1.002453 1.459793 -0.004912 -0.001223 -243567.000000 1 0 0
8.505638 11.628311 -5.135358 15.294947 0.939267 1.913203 0.014525 -0.004781 -1257500.000000 1 0 0
10.569238 10.013111 10.271542 17.817849 0.758385 0.956388 0.002370 -0.001433 -112500.000000 1 0 0
-5.030562 15.869811 5.673742 17.588314 -1.263827 1.242336 -0.000257 -0.001328 322888.000000 1 0 0
14.463238 9.082211 -1.964658 17.191035 0.560719 1.685330 0.012745 0.007635 -752884.000000 1 0 0
12.258438 9.615911 6.828542 17.010703 0.665176 1.157723 0.002059 -0.005740 -814472.000000 1 0 0
3.206138 12.970111 9.778142 16.556423 1.328460 0.939000 0.002709 0.004483 -697452.000000 1 0 0
8.594638 12.689711 -2.683258 15.559448 0.975474 1.744115 0.007260 -0.002059 -864450.000000 1 0 0
9.818238 16.908111 1.999542 19.654012 1.044702 1.468883 0.009683 -0.003007 512768.000000 1 0 0
9.701838 14.361911 -7.536458 18.899427 0.976686 1.980968 0.030979 -0.009583 903581.000000 1 0 0
6.581738 11.358611 7.314842 15.028114 1.045625 1.062438 -0.003240 0.006244 39393.700000 1 0 0
5.482538 16.881211 -5.559458 18.599491 1.256771 1.874340 0.008435 -0.003412 -1130700.000000 1 0 0
-4.090462 17.205711 -4.643358 18.284670 -1.337391 1.827556 0.006073 -0.002772 97886.900000 1 0 0
-0.184762 18.790311 -0.499458 18.797856 -1.560964 1.597369 -0.000112 0.004808 -657037.000000 1 0 0
6.568938 15.753511 -2.744258 17.287423 1.175736 1.730214 0.003040 0.001790 510022.000000 1 0 0
-0.925662 20.776011 0.913042 20.816655 -1.526271 1.526921 0.005831 -0.001258 -165212.000000 1 0 0
-1.151862 18.781511 4.436842 19.332809 -1.509543 1.339234 0.003497 -0.005574 -2172180.000000 1 0 0
7.220538 13.804511 -4.353258 16.175647 1.088874 1.843280 0.008445 0.001278 -27271.700000 1 0 0
-0.836962 11.948411 7.740642 14.261226 -1.500863 0.997058 0.004209 0.007706 379402.000000 1 0 0
7.627838 10.844111 10.952142 17.196745 0.957787 0.880361 0.002188 -0.000864 235646.000000 1 0 0
1.587238 16.060311 -7.219258 17.679666 1.472286 1.991428 0.002246 -0.000297 -579353.000000 1 0 0
9.053238 7.113411 14.841942 18.784168 0.665980 0.659775 0.031641 -0.008722 64129.700000 1 0 0
11.349738 11.384311 -4.803258 16.777675 0.786919 1.861147 0.012967 0.001283 -458719.000000 1 0 0
-3.165062 17.056811 4.453842 17.910587 -1.387323 1.319489 0.000665 -0.005549 -732187.000000 1 0 0
3.969838 15.264611 -6.678358 17.128001 1.316365 1.971329 0.002578 -0.006960 -1413330.000000 1 0 0
-4.441462 13.973111 9.614942 17.533440 -1.263038 0.990374 0.014728 -0.007441 280864.000000 1 0 0
6.382938 18.087111 0.573242 19.188905 1.231541 1.540918 0.002124 -0.005449 59086.500000 1 0 0
9.812338 10.740311 -2.107658 14.699608 0.830519 1.714674 0.005475 0.001334 -1457180.000000 1 0 0
7.576238 18.215411 -2.438958 19.878357 1.176638 1.693800 0.014735 -0.001596 19867.700000 1 0 0
3.541838 10.370411 10.418442 15.120647 1.241684 0.810659 0.001206 0.002980 425794.000000 1 0 0
0.172738 18.650511 2.114842 18.770827 1.561535 1.457890 0.006150 -0.006065 782903.000000 1 0 0
-0.857062 17.202011 -7.349358 18.725832 -1.521014 1.974114 0.012969 0.005549 384455.000000 1 0 0
10.313038 8.598411 13.045642 18.721116 0.694979 0.799813 0.029736 -0.007554 -917920.000000 1 0 0
3.851638 11.393411 5.595542 13.264803 1.244799 1.135329 0.001174 0.005463 465894.000000 1 0 0
12.904738 14.047511 8.248142 20.782124 0.827773 1.162674 0.002886 -0.002842 -75648.300000 1 0 0
-0.543462 17.332511 6.683342 18.584357 -1.539452 1.202934 0.007017 -0.003297 -785548.000000 1 0 0
12.014438 13.623411 5.819442 19.073802 0.848074 1.260752 -0.002264 0.003426 157641.000000 1 0 0
4.854938 14.605811 -4.405458 16.009628 1.249888 1.849569 -0.002500 0.000867 -986771.000000 1 0 0
3.908338 17.673211 4.774842 18.719418 1.353154 1.312872 0.016203 -0.004229 -1885000.000000 1 0 0
7.096838 11.755111 2.115242 13.893235 1.027643 1.417952 0.000287 0.003646 975031.000000 1 0 0
6.423138 8.779011 11.733642 16.000190 0.939145 0.747569 0.005524 -0.003498 251538.000000 1 0 0
-5.160162 14.895611 1.810942 15.867766 -1.237313 1.456420 0.006749 -0.001546 -437319.000000 1 0 0
6.938338 13.764611 5.984142 16.535265 1.103897 1.200489 -0.003848 0.005635 -37940.400000 1 0 0
6.044938 15.937811 4.928242 17.743806 1.208276 1.289351 0.007723 -0.004688 972750.000000 1 0 0
1.311838 17.885611 4.317742 18.446108 1.497581 1.334531 0.017309 -0.008162 -862463.000000 1 0 0
7.216538 18.061711 -7.094458 20.703506 1.190679 1.920553 0.007788 -0.004125 211991.000000 1 0 0
-2.398262 18.856111 -5.807758 19.875478 -1.444288 1.867330 0.012682 0.006602 -1262650.000000 1 0 0
13.572238 10.182611 -4.512658 17.557201 0.643663 1.830740 0.012429 0.007488 1178360.000000 1 0 0
-1.540662 18.051611 9.843242 20.618528 -1.485655 1.073105 0.016952 -0.000470 -536081.000000 1 0 0
3.490938 11.814011 -1.565358 12.418045 1.283481 1.697188 0.005107 -0.004736 84523.700000 1 0 0
4.345838 13.985111 -10.857358 18.230520 1.269509 2.208758 0.003591 -0.018358 -386488.000000 1 0 0
11.597338 13.541211 2.353742 17.983402 0.862571 1.439536 0.000946 0.006615 1305830.000000 1 0 0
15.770738 6.307411 -6.993958 18.368861 0.380458 1.961404 -0.002440 -0.003246 -111649.000000 1 0 0
2.681438 16.079111 3.049542 16.583957 1.405552 1.385859 0.009178 -0.004020 -98847.500000 1 0 0
13.408238 10.415511 3.677542 17.372047 0.660433 1.357489 -0.006565 0.004881 -688479.000000 1 0 0
-4.921962 19.514411 -5.840458 20.955880 -1.323728 1.853239 0.010151 0.000027 110049.000000 1 0 0
5.513238 12.115011 0.135942 13.311189 1.143730 1.560584 0.004156 -0.001826 75415.600000 1 0 0
5.040438 15.193611 9.671342 18.702585 1.250474 1.027322 0.013195 0.000779 -194928.000000 1 0 0
7.966038 9.317911 13.773742 18.439012 0.863455 0.727275 0.018371 -0.012922 -991313.000000 1 0 0
-4.951062 13.784211 7.126942 16.288363 -1.225964 1.117926 0.003501 0.001201 -1336590.000000 1 0 0
-4.502362 17.198411 0.695442 17.791578 -1.314753 1.531698 0.009498 -0.003850 -1956450.000000 1 0 0
-0.484962 16.446411 3.467042 16.814874 -1.541317 1.363118 0.004861 -0.006589 -1302940.000000 1 0 0
7.845038 17.018811 -4.745858 19.331521 1.138863 1.818830 0.006945 -0.002269 326224.000000 1 0 0
3.030638 16.456011 -4.556858 17.342146 1.388671 1.836680 -0.004010 0.000998 4561.390000 1 0 0
9.785338 14.409711 8.323942 19.304937 0.974249 1.124994 0.012808 0.003482 -12452.400000 1 0 0
12.843638 10.733311 9.144742 19.073261 0.696128 1.070764 0.013448 -0.010846 56201.000000 1 0 0
3.766238 12.195811 12.225242 17.674243 1.271273 0.806959 0.005985 -0.000257 483132.000000 1 0 0
-3.193762 19.099611 6.067742 20.293170 -1.405113 1.267147 0.005253 -0.009409 -224843.000000 1 0 0
-2.664862 15.794311 10.231242 19.006316 -1.403648 1.002369 0.017436 -0.002953 -539366.000000 1 0 0
2.167238 14.302811 7.728442 16.401101 1.420415 1.080129 0.010054 0.004953 67136.800000 1 0 0
4.709138 17.222211 8.034442 19.578886 1.303887 1.147945 0.028663 -0.004732 2748.270000 1 0 0
-1.854762 13.507111 9.371042 16.543839 -1.434332 0.968620 0.011011 -0.002446 -1509090.000000 1 0 0
5.875138 17.940211 3.181942 19.144011 1.254319 1.403811 0.004844 -0.006635 605785.000000 1 0 0
7.304838 15.447311 -6.752058 18.373088 1.129073 1.947113 0.009958 -0.004215 364333.000000 1 0 0
11.000538 7.591311 9.462242 16.376014 0.604041 0.954752 0.006384 -0.000773 327813.000000 1 0 0
9.064738 16.004411 -2.691158 18.589055 1.055457 1.716078 0.008696 -0.018325 -838280.000000 1 0 0
14.904538 11.202111 -6.516458 19.750867 0.644518 1.907029 0.046996 -0.001284 655600.000000 1 0 0
11.277338 6.464411 15.992842 20.609171 0.520497 0.682488 0.061178 -0.018158 -464704.000000 1 0 0
8.559238 8.486311 10.355342 15.890599 0.781120 0.861019 0.002759 0.002900 245730.000000 1 0 0
16.329638 9.290511 4.569242 19.335166 0.517265 1.332222 0.010241 -0.005886 -31705.300000 1 0 0
-3.335362 14.325011 4.501042 15.381481 -1.342037 1.273823 0.003129 -0.000295 -1227440.000000 1 0 0
4.758138 14.614911 12.696142 19.935584 1.256051 0.880380 0.004583 -0.001241 -786178.000000 1 0 0
16.261638 10.485611 -4.453458 19.855029 0.572716 1.797020 0.020969 -0.002449 865907.000000 1 0 0
14.549138 14.196211 6.284542 21.276872 0.773121 1.270954 0.007435 0.005091 294716.000000 1 0 0
6.317338 9.381711 9.213742 14.588293 0.978169 0.887201 0.001376 0.002668 437729.000000 1 0 0
10.641438 11.989811 8.663042 18.222076 0.844908 1.075361 0.004360 -0.005044 -683264.000000 1 0 0
8.026038 11.542111 -0.312658 14.061841 0.963184 1.593033 -0.000244 0.001183 624108.000000 1 0 0
7.396238 13.557311 -8.707758 17.729356 1.071373 2.084205 0.021310 -0.006885 -552703.000000 1 0 0
2.757638 15.310111 -2.163958 15.706265 1.392588 1.709013 -0.000508 -0.002853 221104.000000 1 0 0
12.226938 13.462011 -7.758558 19.771671 0.833439 1.974044 0.031246 -0.017324 -79637.800000 1 0 0
-8.073262 14.831111 9.666942 19.457368 -1.072304 1.050858 0.025196 -0.013322 108783.000000 1 0 0
11.530038 9.502211 2.208742 15.103388 0.689280 1.424029 0.004126 0.004769 -2362360.000000 1 0 0
11.940638 8.612111 4.519742 15.400498 0.624842 1.272931 -0.002803 0.001056 119723.000000 1 0 0
14.008838 7.963211 6.068642 17.218847 0.516892 1.210617 0.004006 -0.005058 -2382320.000000 1 0 0
16.157838 7.249911 7.181042 19.110319 0.421767 1.185571 0.025988 -0.011056 -73020.500000 1 0 0
13.661138 8.159111 2.582442 16.120384 0.538395 1.409906 -0.005418 0.004300 -2907030.000000 1 0 0
-3.975962 17.493011 -7.212958 19.334955 -1.347305 1.953093 0.006854 -0.002514 -299258.000000 1 0 0
3.094738 19.588611 -3.911758 20.213682 1.414105 1.765545 0.007120 -0.005975 246913.000000 1 0 0
0.022938 14.851711 6.324042 16.142098 1.569252 1.168238 0.005946 0.004531 -927766.000000 1 0 0
7.063438 16.076411 8.337142 19.438392 1.156820 1.127521 0.010362 0.001337 -526007.000000 1 0 0
12.812638 15.192111 -2.061758 19.980360 0.870161 1.674170 0.010419 -0.004066 -178852.000000 1 0 0
12.690738 15.764211 4.413242 20.713326 0.892993 1.356088 0.001741 0.001891 -205313.000000 1 0 0
3.047638 18.022511 1.404242 18.332236 1.403279 1.494122 0.016477 -0.011321 -859930.000000 1 0 0
10.459838 14.525011 -1.072558 17.931384 0.946690 1.630647 0.003813 0.005923 -1077230.000000 1 0 0
-6.217562 15.716111 -0.483458 16.908221 -1.194074 1.599393 0.007016 -0.007023 -186774.000000 1 0 0
-3.825262 15.923611 -2.595558 16.581041 -1.335038 1.727981 0.006586 -0.006442 -1729510.000000 1 0 0
-6.851062 16.814511 1.777942 18.243517 -1.183885 1.473185 0.013808 -0.011803 299315.000000 1 0 0
-0.102162 19.614311 -6.512658 20.667519 -1.565588 1.891375 0.004414 0.007397 -179519.000000 1 0 0
5.054138 14.820411 7.134642 17.207324 1.242139 1.143262 0.014904 0.003737 -182007.000000 1 0 0
8.896738 12.393011 6.920242 16.751967 0.948169 1.144941 0.002472 0.004591 526560.000000 1 0 0
-7.421562 17.606211 -5.468858 19.873768 -1.171868 1.849573 0.015715 -0.009980 271137.000000 1 0 0
-7.768862 17.752811 -1.149458 19.412335 -1.158291 1.630044 0.030272 -0.012305 336743.000000 1 0 0
-13.874762 -9.097289 9.085042 18.915805 0.580352 1.069813 0.020580 -0.015719 61980.700000 1 0 0
-12.548462 -12.984489 7.480942 19.545469 0.802474 1.178030 0.005570 -0.008861 -150128.000000 1 0 0
-3.958462 -14.816689 12.685242 19.902740 1.309731 0.879727 0.004403 -0.010866 -162340.000000 1 0 0
-2.200362 -13.987989 14.983242 20.615600 1.414771 0.757157 0.015450 -0.013010 -804639.000000 1 0 0
-7.086562 -13.454789 12.924542 19.957317 1.086022 0.866354 0.010090 -0.018923 105424.000000 1 0 0
-9.931162 -11.544589 8.871542 17.624125 0.860385 1.043296 0.004151 -0.010685 394617.000000 1 0 0
-10.747162 -10.635689 11.186342 18.808339 0.780185 0.933836 0.024313 -0.013706 518370.000000 1 0 0
-6.030362 -12.079789 10.833942 17.310715 1.107780 0.894573 0.006444 -0.011102 728600.000000 1 0 0
-12.543862 -10.271989 7.186042 17.734188 0.686151 1.153590 0.006416 -0.010279 -793460.000000 1 0 0
-7.890562 -11.070989 12.459642 18.440999 0.951582 0.828952 0.019891 -0.016145 -254676.000000 1 0 0
-14.732262 -11.586989 7.225042 20.087287 0.666458 1.202869 0.017273 -0.010873 143825.000000 1 0 0
-11.164062 -9.106189 9.137242 17.060133 0.684223 1.005590 0.006032 -0.011125 172156.000000 1 0 0
-5.502162 -11.621489 13.449542 18.607068 1.128616 0.762923 0.018239 -0.016738 -650730.000000 1 0 0
3.954738 -12.532789 14.666942 19.693398 -1.265134 0.730615 -0.012749 0.002466 -894504.000000 1 0 0
6.451438 -12.909789 14.364642 20.362383 -1.107363 0.787739 0.005093 0.005453 -552355.000000 1 0 0
6.594338 -8.613489 16.266642 19.552011 -0.917397 0.588151 -0.008517 0.003779 -454494.000000 1 0 0
0.718138 -1.703889 14.460642 14.578378 -1.171920 0.127177 0.009976 -0.003325 -2083750.000000 1 0 0
-0.080962 -6.336989 15.597442 16.835800 1.558021 0.385940 0.005452 -0.005820 -317239.000000 1 0 0
-1.435462 -4.637289 18.206842 18.842879 1.270603 0.260562 0.011034 -0.018445 -1697000.000000 1 0 0
-5.007362 12.745611 12.991242 18.875821 -1.196452 0.811725 0.015828 -0.003069 -129554.000000 1 0 0
-4.045262 8.776211 11.583242 15.085009 -1.138886 0.695296 0.001073 -0.000791 -596407.000000 1 0 0
-0.596262 -3.882889 15.146942 15.648073 1.418425 0.253762 0.007411 -0.004285 112329.000000 1 0 0
-4.647262 9.172811 14.103442 17.454070 -1.101855 0.629993 0.014750 -0.007411 179133.000000 1 0 0
-13.425462 -2.801589 16.858742 21.732674 0.205725 0.682921 0.016665 0.003343 7128.720000 1 0 0
-0.311862 0.874711 17.169042 17.194138 -1.228315 0.054036 0.006559 -0.004459 -1581810.000000 1 0 0
-3.187062 -7.200589 15.428442 17.321739 1.154104 0.471918 0.011301 -0.013158 321081.000000 1 0 0
-7.510362 5.542211 12.523042 15.618841 -0.635739 0.640511 -0.003238 0.002127 -2175910.000000 1 0 0
-9.839762 10.120111 13.278542 19.379299 -0.799443 0.815929 0.000347 -0.011350 -375140.000000 1 0 0
-5.502962 2.244111 11.088842 12.580979 -0.387213 0.491984 -0.001352 0.001138 -1963340.000000 1 0 0
-7.102662 -7.378489 16.836942 19.707169 0.804443 0.546486 0.019503 -0.018357 -155519.000000 1 0 0
-4.726162 3.265711 18.558842 19.427611 -0.604650 0.300185 0.008964 0.003905 -1003880.000000 1 0 0
1.139538 -8.376389 16.581742 18.612270 -1.435585 0.471465 -0.002758 -0.006676 639874.000000 1 0 0
-15.082062 -3.632989 13.876742 20.814206 0.236378 0.841030 0.022772 -0.003327 422933.000000 1 0 0
-14.316762 2.038311 12.999542 19.445114 -0.141422 0.838573 -0.003525 0.002824 -428034.000000 1 0 0
-5.632762 0.899811 16.151042 17.128742 -0.158408 0.339502 0.009101 0.001197 596361.000000 1 0 0
4.593638 5.829811 15.261042 16.970197 0.903442 0.452665 0.015620 -0.004772 -244809.000000 1 0 0
-0.952962 -11.960189 13.951842 18.401308 1.491286 0.710251 -0.006361 -0.010535 -119821.000000 1 0 0
-5.862462 -4.143389 16.728042 18.203393 0.615253 0.405382 0.021836 -0.010975 -108548.000000 1 0 0
-12.963962 -1.608889 9.889342 16.384502 0.123473 0.922814 0.005238 0.003188 -881586.000000 1 0 0
-14.477362 10.378411 10.344342 20.598806 -0.621960 1.044677 0.001332 0.007423 517805.000000 1 0 0
-3.604362 -3.443289 17.730742 18.418112 0.762547 0.274061 0.016712 -0.008766 -1585020.000000 1 0 0
-7.843662 9.358711 11.893242 17.045753 -0.873244 0.798580 -0.001895 -0.006688 195669.000000 1 0 0
-4.509362 10.791611 16.114842 19.911839 -1.174990 0.627821 0.026604 -0.010152 172359.000000 1 0 0
-12.216962 12.938711 8.439942 19.695101 -0.814082 1.127931 0.009300 -0.003090 283976.000000 1 0 0
-12.463162 3.158611 10.502842 16.601714 -0.248210 0.885844 -0.000618 0.001393 276902.000000 1 0 0
-10.155262 -3.466689 13.686342 17.391470 0.328965 0.664935 0.015215 -0.002762 -1018240.000000 1 0 0
-4.144862 -6.474189 17.769542 19.361085 1.001332 0.408301 0.015460 -0.014679 -872997.000000 1 0 0
0.853338 -3.679789 18.070742 18.461331 -1.342926 0.206069 0.011080 -0.007519 -753949.000000 1 0 0
-5.809962 1.730111 13.649342 14.934975 -0.289422 0.417962 0.003054 0.003997 -1184800.000000 1 0 0
-10.494562 8.671111 10.202442 17.012167 -0.690542 0.927652 0.007595 -0.010494 34396.300000 1 0 0
4.462338 2.592111 17.176742 17.935215 0.526247 0.291860 0.015481 -0.013738 -523328.000000 1 0 0
0.597638 -5.306189 13.309142 14.340365 -1.458639 0.381548 0.004508 -0.004261 -3082630.000000 1 0 0
-4.036362 5.728111 20.844142 21.990491 -0.956951 0.324311 0.030789 -0.000205 -498721.000000 1 0 0
-10.622962 10.858811 9.078842 17.697075 -0.796377 1.032104 0.015081 -0.009963 -167231.000000 1 0 0
0.721638 4.224411 13.107042 13.789886 1.401604 0.316012 0.008299 -0.005923 -2530940.000000 1 0 0
-3.113262 7.195711 13.368142 15.497673 -1.162460 0.530429 0.002932 0.002500 -832343.000000 1 0 0
0.750638 8.880911 14.190342 16.757083 1.486474 0.560806 0.007570 -0.001229 95114.000000 1 0 0
-4.134962 -6.665689 13.092342 15.262330 1.015558 0.539782 0.011543 -0.011127 358572.000000 1 0 0
-5.311362 8.359111 16.485042 19.231274 -1.004755 0.540989 0.022921 0.005375 244014.000000 1 0 0
1.644838 -10.806789 15.664142 19.101244 -1.419751 0.609283 -0.013124 -0.002861 -229578.000000 1 0 0
-15.251862 -1.129889 14.360942 20.979337 0.073947 0.816840 0.016671 0.005839 1007570.000000 1 0 0
-13.567262 -5.121989 8.545242 16.832306 0.360983 1.038319 0.010686 -0.004200 -1105840.000000 1 0 0
-14.213562 -1.964589 12.127842 18.787483 0.137349 0.869082 0.012592 0.001010 398441.000000 1 0 0
9.396338 1.548011 17.036642 19.517547 0.163280 0.509705 0.028880 -0.007096 -390834.000000 1 0 0
5.069838 -6.700189 16.715642 18.708513 -0.923040 0.465766 -0.001321 -0.010455 -640838.000000 1 0 0
-6.048562 -2.609689 11.064542 12.877098 0.407326 0.537011 0.005742 -0.001492 583502.000000 1 0 0
0.705938 -6.351289 18.101142 19.196056 -1.460102 0.339379 0.009110 -0.007236 -65646.200000 1 0 0
-8.348262 11.996611 11.999742 18.910472 -0.962837 0.883363 0.007538 -0.013554 135143.000000 1 0 0
-6.539362 -5.789389 14.749642 17.141535 0.724642 0.534620 0.016632 -0.012452 -804854.000000 1 0 0
-4.241362 -8.932089 17.000942 19.667318 1.127474 0.526789 0.013411 -0.021176 187611.000000 1 0 0
2.522138 -6.115389 16.261942 17.555908 -1.179625 0.386340 0.001643 -0.007442 387694.000000 1 0 0
2.187338 5.325711 16.002142 17.006357 1.181089 0.345369 0.016030 -0.010154 -1913720.000000 1 0 0
1.143438 -8.866789 14.089742 16.686768 -1.442547 0.565415 -0.004461 -0.005254 -538513.000000 1 0 0
-10.029262 -2.770389 11.264042 15.334268 0.269510 0.745769 0.002937 -0.001072 337522.000000 1 0 0
-1.215662 10.091911 12.442142 16.066468 -1.450915 0.685004 0.004560 -0.006655 -435755.000000 1 0 0
-12.448862 -3.820389 11.260142 17.215119 0.297763 0.857825 0.015234 -0.001048 -357636.000000 1 0 0
-1.978162 6.870811 19.991242 21.231366 -1.290470 0.343475 0.033019 -0.004078 -378152.000000 1 0 0
0.259238 -13.549889 15.745942 20.775018 -1.551667 0.710667 -0.013338 -0.006605 217655.000000 1 0 0
4.116038 -8.697589 15.335142 18.104044 -1.128786 0.560374 -0.005339 -0.003145 -313832.000000 1 0 0
4.367338 -4.401089 16.135342 17.285615 -0.789247 0.366869 0.000633 -0.007432 278383.000000 1 0 0
8.178338 1.823211 14.800842 17.008063 0.219345 0.515138 0.014399 -0.004904 120055.000000 1 0 0
-6.451162 -0.054289 11.726342 13.383853 0.008415 0.502968 0.001343 0.002170 663935.000000 1 0 0
-3.288862 -11.094989 18.165942 21.538729 1.282620 0.567201 0.019114 -0.019063 61174.100000 1 0 0
3.261038 -1.514489 13.519942 13.989884 -0.434780 0.259928 0.004469 -0.004077 195176.000000 1 0 0
-2.746762 8.810211 16.014842 18.483497 -1.268576 0.522769 0.020236 0.001457 12029.300000 1 0 0
-3.263762 4.158511 14.901042 15.810958 -0.905368 0.340912 0.005252 0.001721 -366973.000000 1 0 0
-4.709262 -9.398489 19.568442 22.213344 1.106296 0.492969 0.030357 -0.014663 29835.500000 1 0 0
-5.679562 -3.183289 19.154142 20.230469 0.510855 0.327664 0.019903 -0.008717 -1403250.000000 1 0 0
-6.557562 -8.548689 11.029242 15.418362 0.916451 0.773698 0.013499 -0.013271 -202790.000000 1 0 0
-11.692462 2.267711 12.703442 17.413604 -0.191568 0.753187 0.003029 -0.003775 -514486.000000 1 0 0
-11.693862 -7.555589 11.499442 18.057422 0.573640 0.880421 0.017339 -0.009608 33781.500000 1 0 0
-10.907262 -7.318089 15.587242 20.383447 0.590953 0.700219 0.029899 -0.019208 -295090.000000 1 0 0
0.099938 5.625011 17.687242 18.560422 1.553031 0.307957 0.017849 -0.008338 -137560.000000 1 0 0
-2.307262 -0.187289 13.239142 13.439993 0.080996 0.173099 0.003329 -0.001279 -114108.000000 1 0 0
-5.818562 -10.973989 17.821642 21.723145 1.083271 0.608688 0.022718 -0.013621 317181.000000 1 0 0
0.324938 2.683111 19.106042 19.296256 1.450278 0.140526 0.019136 -0.008689 -444047.000000 1 0 0
-0.817162 10.782011 14.951042 18.451373 -1.495152 0.626142 0.010625 -0.006585 84778.900000 1 0 0
-12.841762 -2.364989 14.338542 19.393241 0.182123 0.738680 0.017558 0.001580 -293393.000000 1 0 0
-13.695662 8.475011 11.825242 19.980823 -0.554136 0.937470 0.009126 -0.002566 124251.000000 1 0 0
-18.126362 -0.568489 6.840142 19.382356 0.031352 1.210122 0.026478 -0.006374 -872844.000000 1 0 0
-1.974462 -7.879689 17.658142 19.437026 1.325275 0.431165 0.007135 -0.012607 -1505070.000000 1 0 0
5.718638 2.508211 14.369442 15.667635 0.413336 0.409948 0.012899 -0.007370 -3864580.000000 1 0 0
-14.062262 -6.636189 11.097742 19.103562 0.440928 0.950931 0.017050 -0.012146 224467.000000 1 0 0
3.095638 7.793911 16.197342 18.239569 1.192718 0.477747 0.015084 -0.020418 -708545.000000 1 0 0
0.938038 2.047311 14.524042 14.697591 1.141160 0.153827 0.008976 -0.004867 -1461330.000000 1 0 0
-14.341362 0.601511 9.779942 17.369045 -0.041918 0.972704 0.002889 0.005787 -1494770.000000 1 0 0
-9.527462 -5.256389 15.544542 18.974587 0.504155 0.610730 0.020944 -0.003446 -181540.000000 1 0 0
-2.629062 0.045511 18.126642 18.316364 -0.017309 0.144055 0.010756 -0.006458 41694.300000 1 0 0
6.714138 3.945911 17.314242 18.985068 0.531328 0.422681 0.028976 -0.016614 -479845.000000 1 0 0
-4.162462 -0.944889 14.914342 15.513107 0.223220 0.278741 0.010052 0.000925 -932331.000000 1 0 0
4.503838 -8.881189 17.931742 20.511154 -1.101468 0.506921 -0.009134 0.003084 -355009.000000 1 0 0
1.892338 6.876311 13.437342 15.212716 1.302247 0.487948 0.010364 -0.005118 -1035610.000000 1 0 0
-3.762762 -0.757189 20.289042 20.648896 0.198580 0.186966 0.020869 -0.006162 -672497.000000 1 0 0
-10.639362 1.448311 16.361842 19.570475 -0.135296 0.580758 0.008633 0.006018 37464.000000 1 0 0
-4.074662 7.132411 18.489042 20.231629 -1.051756 0.418085 0.026615 0.004858 374192.000000 1 0 0
-12.673462 1.113711 14.763742 19.489101 -0.087652 0.711262 0.009413 0.001080 -226907.000000 1 0 0
-16.067362 -4.935389 8.475242 18.824131 0.298020 1.103770 0.020588 -0.011623 -700822.000000 1 0 0
-2.414062 0.782011 15.670242 15.874373 -0.313273 0.160542 0.008129 -0.001897 177991.000000 1 0 0
-13.874462 -8.875189 12.373542 20.600345 0.569085 0.926486 0.029275 -0.016880 485810.000000 1 0 0
6.101738 -3.259189 14.555742 16.115928 -0.490586 0.443653 0.002807 -0.007231 1001500.000000 1 0 0
-15.746062 0.363811 7.562442 17.471730 -0.023101 1.123157 0.010069 0.000827 75922.100000 1 0 0
-14.045862 6.011511 12.560042 19.778249 -0.404402 0.882732 0.001113 -0.003852 152790.000000 1 0 0
0.584538 9.400611 16.734242 19.202812 1.508695 0.512651 0.018875 -0.014678 -465397.000000 1 0 0
-10.346762 -5.447789 10.843042 15.946957 0.484639 0.823110 0.010471 -0.006707 97414.900000 1 0 0
-3.095862 -10.935489 14.967742 18.793684 1.294913 0.649438 0.006065 -0.014170 -1965510.000000 1 0 0
-3.582762 2.809111 12.643042 13.437775 -0.664947 0.345642 0.003221 0.001150 -2325490.000000 1 0 0
-12.457962 -7.715389 7.421642 16.425858 0.554500 1.101984 0.010778 -0.007422 373278.000000 1 0 0
-8.213962 -1.898189 13.287842 15.736551 0.227106 0.565364 0.007744 -0.000025 -72776.200000 1 0 0
-9.780062 6.397211 9.519942 15.073261 -0.579257 0.887209 0.006709 -0.004577 -645533.000000 1 0 0
-17.840762 -3.505389 6.592142 19.340033 0.194011 1.222970 0.014568 -0.012109 535202.000000 1 0 0
-1.377562 0.025611 20.476642 20.522943 -0.018589 0.067185 0.013781 -0.004860 -612404.000000 1 0 0
-2.719062 2.735711 20.089442 20.456370 -0.788450 0.189689 0.018665 -0.004311 -569536.000000 1 0 0
-3.706262 11.253311 11.214342 16.313640 -1.252636 0.812864 0.005012 -0.008322 -1028620.000000 1 0 0
-4.094562 -4.712889 14.850642 16.109572 0.855488 0.397964 0.012306 -0.010274 25549.900000 1 0 0
-0.304862 -14.381389 13.310942 19.598430 1.549601 0.824146 0.003296 -0.007747 103936.000000 1 0 0
-12.147662 0.354011 8.431642 14.791335 -0.029134 0.964243 0.003746 0.001931 -501355.000000 1 0 0
-7.717362 2.296711 15.324642 17.311187 -0.289256 0.483776 0.003618 0.005199 -1750580.000000 1 0 0
3.562238 -2.170689 18.410642 18.877318 -0.547274 0.222819 0.010702 -0.005305 -401368.000000 1 0 0
-2.128662 4.916911 12.583142 13.676354 -1.162231 0.402549 0.000010 -0.001428 -145126.000000 1 0 0
-10.357662 -6.217989 13.291442 17.961263 0.540660 0.737717 0.016301 -0.012736 -740153.000000 1 0 0
2.388638 -3.728089 14.163442 14.839384 -1.000977 0.302987 0.004169 -0.005675 -544353.000000 1 0 0
6.742238 1.334311 16.904142 18.247963 0.195379 0.386172 0.018118 -0.012798 -2604640.000000 1 0 0
-1.859862 -5.691289 13.839042 15.078758 1.254945 0.408333 0.006662 -0.007890 -1310230.000000 1 0 0
-13.022962 3.623211 14.494242 19.819390 -0.271355 0.750547 0.001859 0.001754 251270.000000 1 0 0
-13.169262 -6.678089 13.513042 20.015710 0.469309 0.829667 0.010554 -0.008041 -719511.000000 1 0 0
-9.512462 6.886411 11.970842 16.769336 -0.626610 0.775811 -0.003176 -0.000488 -312382.000000 1 0 0
-1.163362 -2.502389 12.907842 13.199535 1.135620 0.210621 0.004362 -0.001897 297802.000000 1 0 0
0.023338 6.665811 15.340642 16.726293 1.567295 0.409908 0.011879 -0.008917 222410.000000 1 0 0
-16.407762 -0.974489 9.734942 19.103229 0.059322 1.036080 0.013919 0.003158 -66070.100000 1 0 0
-1.349162 2.761111 13.798142 14.136219 -1.116286 0.219142 0.004226 -0.000894 -2307410.000000 1 0 0
-11.059962 -3.331789 16.137842 19.845743 0.292601 0.621229 0.013803 -0.007555 -1195380.000000 1 0 0
-5.316362 -1.494889 17.230242 18.093635 0.274109 0.310169 0.025471 -0.000969 100802.000000 1 0 0
-11.897962 6.709311 11.177342 17.649627 -0.513456 0.884999 0.007229 -0.000701 -2115510.000000 1 0 0
-2.779062 4.831811 18.673142 19.487324 -1.048842 0.290084 0.022436 -0.000524 120137.000000 1 0 0
5.144838 -1.872989 16.410742 17.299997 -0.349138 0.322020 0.006779 -0.007192 -1273310.000000 1 0 0
-8.053762 -4.127489 12.136242 15.138944 0.473591 0.640734 0.011773 -0.004224 -1317610.000000 1 0 0
-11.813962 -0.856489 16.275442 20.129413 0.072371 0.629129 0.033340 0.002235 517074.000000 1 0 0
2.012438 2.034811 17.281542 17.516907 0.790926 0.164114 0.012062 -0.011699 -933878.000000 1 0 0
-8.946662 -7.475889 11.603042 16.448777 0.696078 0.787803 0.012718 -0.011693 -291556.000000 1 0 0
-7.157762 7.028711 14.647242 17.753254 -0.776302 0.600514 -0.010609 0.002199 -735465.000000 1 0 0
-5.541862 3.403211 15.776042 17.063926 -0.550717 0.391007 0.004475 0.005247 -412010.000000 1 0 0
-9.358462 4.314111 11.495842 15.438482 -0.431951 0.730827 -0.004635 -0.000635 -183872.000000 1 0 0
-10.330262 0.057511 14.231242 17.585388 -0.005567 0.627896 0.009608 0.004660 259519.000000 1 0 0
8.189738 -0.491789 16.029342 18.007039 -0.059977 0.473076 0.011114 -0.001172 181909.000000 1 0 0
-8.531362 -7.571189 14.629242 18.550519 0.725840 0.662241 0.029251 -0.012333 221171.000000 1 0 0
-0.105462 4.161111 15.610242 16.155668 -1.545457 0.260585 0.010964 -0.006709 58915.700000 1 0 0
-8.050962 3.113611 9.561042 12.881230 -0.369021 0.734381 -0.000110 0.000046 -322147.000000 1 0 0
-2.009862 -9.621989 13.141342 16.410883 1.364875 0.642217 -0.002899 -0.009291 787519.000000 1 0 0
-5.942962 10.230311 10.404442 15.755331 -1.044527 0.849477 0.008099 -0.010354 -2755540.000000 1 0 0
-8.539562 -2.845289 15.682942 18.082435 0.321621 0.521039 0.014832 -0.005863 -52083.100000 1 0 0
3.927338 5.939511 17.761742 19.135863 0.986572 0.381274 0.022265 -0.011791 -69747.200000 1 0 0
-6.752062 -1.051389 15.148342 16.618304 0.154473 0.423769 0.009338 -0.001008 -758628.000000 1 0 0
-0.817862 -9.879689 15.508542 18.406304 1.488202 0.568765 -0.010130 -0.006593 532488.000000 1 0 0
-4.573562 5.815811 16.307142 17.907093 -0.904402 0.425935 0.012460 0.004498 71924.900000 1 0 0
3.776538 0.128911 17.360042 17.766539 0.034121 0.214326 0.014695 -0.008160 -525777.000000 1 0 0
1.302838 0.304811 19.086242 19.133084 0.229825 0.069989 0.014005 -0.008670 -272388.000000 1 0 0
-6.626362 6.599711 17.777842 20.087720 -0.783383 0.484280 0.013694 0.007418 -275641.000000 1 0 0
-12.100962 0.534311 10.954942 16.331856 -0.044126 0.835548 0.006523 0.003385 -417499.000000 1 0 0
-5.428362 5.217111 13.899642 15.807764 -0.765557 0.496423 0.000682 0.003981 -1710940.000000 1 0 0
-8.711862 -9.500389 9.923542 16.267471 0.828668 0.914706 0.008584 -0.008670 299037.000000 1 0 0
6.910038 -3.709989 16.949442 18.676087 -0.492729 0.433389 0.005146 -0.004470 63113.300000 1 0 0
-16.685962 1.604711 9.645942 19.340130 -0.095876 1.048637 0.011975 0.002322 -268905.000000 1 0 0
-4.179862 -9.501989 11.529942 15.514464 1.156379 0.732995 0.003744 -0.012472 -802655.000000 1 0 0
-10.976762 -3.980289 9.107442 14.808021 0.347865 0.908367 0.004260 0.000506 -164464.000000 1 0 0
3.701538 -5.348589 18.478142 19.589551 -0.965420 0.338466 0.004293 -0.007278 -72913.900000 1 0 0
2.588238 -1.844789 16.041342 16.353191 -0.619238 0.195605 0.007010 -0.007705 -244894.000000 1 0 0
-3.025362 -4.169689 20.288942 20.932756 0.943121 0.248658 0.016368 -0.009452 -911117.000000 1 0 0
-6.270262 -3.351889 14.332842 15.999428 0.490919 0.460491 0.011132 -0.004327 263374.000000 1 0 0
-9.782262 5.081911 13.888842 17.731847 -0.479128 0.670886 -0.001890 0.001357 306544.000000 1 0 0
-5.976962 -5.235889 11.686042 14.131602 0.719403 0.597146 0.007920 -0.003483 814317.000000 1 0 0
6.129838 2.278411 19.221242 20.303256 0.355867 0.327942 0.035697 -0.020077 128316.000000 1 0 0
-2.705362 11.813811 13.553342 18.181809 -1.345678 0.729610 0.020306 -0.012688 -2127760.000000 1 0 0
3.409338 1.385511 15.109442 15.551156 0.386000 0.238912 0.007471 -0.008051 -786389.000000 1 0 0
-5.632462 7.269711 12.594742 15.594898 -0.911621 0.630692 -0.007438 -0.009630 -2280260.000000 1 0 0
-1.747862 -1.665389 15.299042 15.488357 0.761240 0.156513 0.010386 -0.001729 -800032.000000 1 0 0
-7.419062 10.549911 14.042742 19.066769 -0.957903 0.742910 0.020456 -0.013652 -83626.500000 1 0 0
-10.046362 2.020311 10.554742 14.711003 -0.198452 0.770629 -0.001369 0.001133 -1515020.000000 1 0 0
-13.602262 5.197211 9.186542 17.217000 -0.364967 1.007976 -0.004104 0.001100 167001.000000 1 0 0
0.371238 -4.958589 20.206142 20.808978 -1.496068 0.241292 0.008946 -0.009997 -159723.000000 1 0 0
-14.474362 -2.998689 7.471242 16.562571 0.204283 1.102808 0.011398 -0.005121 279559.000000 1 0 0
-2.397462 2.537011 17.430142 17.776222 -0.813671 0.197647 0.006203 -0.002851 299089.000000 1 0 0
-6.086362 -8.398189 14.685942 17.979162 0.943670 0.614900 0.011963 -0.012173 -293063.000000 1 0 0
-7.935662 2.101811 12.039042 14.571577 -0.258912 0.598467 -0.000947 0.003231 1624450.000000 1 0 0
-14.719662 -3.320589 10.059142 18.135079 0.221875 0.982820 0.018655 -0.009488 -538669.000000 1 0 0
-0.543462 7.008211 12.841142 14.639170 -1.493405 0.500845 0.007758 -0.004294 -1565410.000000 1 0 0
-1.810262 -2.192589 19.180342 19.389946 0.880623 0.147170 0.014131 -0.011582 -250863.000000 1 0 0
-12.747762 10.504111 7.575542 18.172248 -0.689203 1.140793 0.009182 -0.003716 316818.000000 1 0 0
-19.581362 2.179011 6.815942 20.847899 -0.110824 1.237736 0.024114 -0.006290 1247440.000000 1 0 0
-16.206462 8.376911 6.808042 19.472326 -0.477066 1.213624 0.016460 0.004302 382435.000000 1 0 0
-12.209862 7.617511 13.635442 19.825047 -0.557795 0.812358 -0.002166 0.003720 154889.000000 1 0 0
-15.980462 8.192211 10.532942 20.818990 -0.473708 1.040337 0.003725 0.001547 19882.600000 1 0 0
1.872338 10.883511 15.009442 18.634371 1.400430 0.634327 0.012529 -0.015349 -135586.000000 1 0 0
2.231938 14.160011 12.940842 19.311987 1.414460 0.836461 0.000196 -0.004936 -1185160.000000 1 0 0
-2.937662 13.682711 11.768142 18.284846 -1.359308 0.871603 -0.000128 -0.005558 -102947.000000 1 0 0
9.198638 4.747111 15.910942 18.981782 0.476418 0.576782 0.035022 -0.004101 47510.200000 1 0 0
-0.221962 12.479611 13.078342 18.078522 -1.553012 0.762055 0.003360 -0.005753 -621072.000000 1 0 0
3.934738 13.148811 14.635642 20.064281 1.280031 0.753297 0.009170 -0.007637 -43662.100000 1 0 0
-2.732662 -4.169989 -13.672058 14.552712 0.990693 2.791921 -0.004773 -0.002573 -1065960.000000 1 0 0
5.600038 -11.567089 16.363142 20.806498 -1.119921 0.665766 -0.015518 0.001625 157515.000000 1 0 0
7.712138 -13.557689 7.383642 17.257061 -1.053605 1.128670 -0.010029 -0.002475 -523195.000000 1 0 0
-0.146262 15.598511 1.166342 15.642739 -1.561420 1.496166 0.001877 -0.006054 -2199630.000000 1 0 0
-13.746362 8.222411 9.108142 18.426306 -0.539059 1.053766 0.008201 -0.000267 469797.000000 1 0 0
-15.342962 -9.695489 4.877942 18.793704 0.563558 1.308238 0.009220 -0.008796 -1160270.000000 1 0 0
9.400738 -11.069089 11.111142 18.285406 -0.866721 0.917697 0.010103 -0.002511 119792.000000 1 0 0
-6.071962 -10.311589 -16.757558 20.591585 1.038617 2.521468 0.009561 -0.004689 152560.000000 1 0 0
-1.907062 -12.682589 -14.841458 19.615143 1.421546 2.428944 0.012857 0.004307 -133415.000000 1 0 0
5.721138 -15.699389 -11.418958 20.238450 -1.221335 2.170286 0.024056 0.003780 240341.000000 1 0 0
2.686038 -11.741489 -16.663358 20.560761 -1.345902 2.515707 0.027794 0.000974 262571.000000 1 0 0
0.636138 -14.055789 -14.517858 20.217272 -1.525569 2.371853 0.037178 0.014125 200252.000000 1 0 0
-6.529762 -6.018789 -14.616858 17.103104 0.744701 2.595638 0.007998 -0.002689 -19903.800000 1 0 0
-6.154062 -8.168889 -17.230458 20.037264 0.925152 2.605911 0.000851 -0.007797 32533.800000 1 0 0
-2.607662 -16.225089 -13.314158 21.149947 1.411441 2.251722 0.024118 0.002205 320049.000000 1 0 0
16.197838 -8.103289 -9.311158 20.364943 -0.463863 2.045658 0.013888 0.001533 68340.900000 1 0 0
19.068338 -2.911389 -3.868458 19.673400 -0.151512 1.768720 0.020359 -0.009706 190175.000000 1 0 0
15.807438 -11.240389 -9.129558 21.437590 -0.618125 2.010716 0.028682 -0.015554 278228.000000 1 0 0
18.328238 -2.932189 -6.733558 19.744945 -0.158638 1.918805 0.115220 -0.006971 -224869.000000 1 0 0
9.214638 -9.799889 -15.991658 20.896902 -0.816168 2.442249 0.042170 0.009710 113552.000000 1 0 0
-4.759762 9.612511 -16.139558 19.378881 -1.111026 2.555020 -0.004134 -0.001052 511075.000000 1 0 0
2.561538 -9.578689 -18.472258 20.965140 -1.309490 2.648967 0.021430 0.009283 157276.000000 1 0 0
10.877338 7.728911 -14.915558 20.013156 0.617773 2.411763 0.044315 -0.050251 386654.000000 1 0 0
18.516838 -6.192689 -8.330058 21.227637 -0.322742 1.974053 0.019970 -0.008641 240370.000000 1 0 0
13.007438 5.501411 -13.723558 19.692512 0.400127 2.341851 0.043654 -0.018996 -172239.000000 1 0 0
15.722438 6.411011 -10.625658 20.029996 0.387180 2.129972 0.002883 -0.021109 -103511.000000 1 0 0
3.517738 -0.380889 -19.208458 19.531626 -0.107857 2.959429 0.017095 -0.005185 206770.000000 1 0 0
10.317138 -1.936989 -14.622758 18.000565 -0.185584 2.518967 0.017932 -0.008076 62165.200000 1 0 0
12.145438 -5.913089 -14.215758 19.610305 -0.453078 2.381704 0.022587 0.005409 137231.000000 1 0 0
10.160838 6.371611 -12.877758 17.597634 0.560090 2.391740 0.023101 -0.010822 590363.000000 1 0 0
10.721738 5.398011 -16.191358 20.155750 0.466415 2.503632 0.040099 -0.022005 552791.000000 1 0 0
11.689238 -10.815989 -15.146058 21.977875 -0.746616 2.331112 0.036131 0.005961 291599.000000 1 0 0
-1.230362 2.063511 -17.429158 17.593960 -1.033141 3.004614 0.007077 -0.003741 336184.000000 1 0 0
6.606038 -1.118489 -17.246258 18.502005 -0.167723 2.771045 0.011691 0.009420 162714.000000 1 0 0
6.040438 -5.618589 -15.806258 17.829561 -0.749232 2.660565 -0.026872 -0.000962 76932.700000 1 0 0
-1.947862 -4.798989 -20.683358 21.321955 1.185223 2.896232 0.014402 -0.010103 304765.000000 1 0 0
16.027138 -0.353889 -13.156658 20.738661 -0.022077 2.258032 0.031428 -0.008690 -21484.700000 1 0 0
-4.003462 -0.434089 -18.306258 18.743939 0.108007 2.925066 0.001505 -0.006943 122600.000000 1 0 0
4.390938 8.791311 -17.913558 20.431913 1.107578 2.639847 0.021905 -0.017014 244607.000000 1 0 0
8.882838 0.928711 -15.974658 18.301831 0.104173 2.631798 0.013808 -0.048008 -107502.000000 1 0 0
4.288838 4.460911 -18.326858 19.343412 0.805062 2.815955 0.015270 -0.008927 590969.000000 1 0 0
-3.179762 -10.919089 -17.446858 20.826192 1.287422 2.563921 0.014110 -0.026036 167253.000000 1 0 0
7.100738 -8.986289 -15.575958 19.333503 -0.902075 2.507561 0.045042 -0.019074 43729.400000 1 0 0
9.851538 -13.139689 -11.391058 19.986507 -0.927453 2.177226 -0.001265 0.035365 161968.000000 1 0 0
6.320438 7.236011 -16.785658 19.340789 0.852834 2.621733 0.025836 -0.020652 545748.000000 1 0 0
8.594938 1.589211 -20.111558 21.928824 0.182836 2.731613 0.034116 -0.012348 96966.200000 1 0 0
-0.638162 -1.049089 -20.308158 20.345249 1.024295 3.081201 0.017051 -0.004850 159682.000000 1 0 0
-0.885762 6.656411 -19.643058 20.759146 -1.438504 2.812192 0.015087 -0.004094 19415.200000 1 0 0
8.730338 5.950811 -18.211258 21.054237 0.598287 2.615885 0.039100 -0.021093 160451.000000 1 0 0
12.214038 -0.089589 -13.741558 18.385352 -0.007335 2.414965 0.010605 0.007837 80059.100000 1 0 0
-4.161762 -2.364289 -19.771858 20.342972 0.516632 2.904078 -0.006589 -0.005818 430456.000000 1 0 0
5.868638 -11.255789 -14.413858 19.206588 -1.090185 2.419561 0.000416 0.000803 134238.000000 1 0 0
11.422338 2.626811 -15.857458 19.718746 0.226041 2.505094 0.031309 -0.008320 -112570.000000 1 0 0
-2.905462 -4.380689 -17.168358 17.955074 0.985168 2.844475 -0.000308 -0.005853 308940.000000 1 0 0
-6.975662 -4.900089 -17.614858 19.569210 0.612372 2.690867 0.024478 -0.008435 109587.000000 1 0 0
2.780538 10.788311 -15.491558 19.081599 1.318550 2.518125 -0.000798 -0.007583 93437.300000 1 0 0
17.118638 -6.132489 -10.905058 21.203195 -0.343992 2.111002 0.040885 -0.004911 -218510.000000 1 0 0
9.458338 -3.339789 -17.670958 20.319378 -0.339439 2.625310 0.002362 -0.002726 -145025.000000 1 0 0
-7.261962 -1.556589 -18.834458 20.245886 0.211153 2.765987 0.006284 0.007391 538021.000000 1 0 0
1.531838 -7.721989 -19.449958 20.982767 -1.374965 2.756994 0.008158 0.000069 261995.000000 1 0 0
5.232538 10.275711 -15.189458 19.070641 1.099805 2.492254 0.011224 -0.006036 334013.000000 1 0 0
6.064838 -3.629889 -17.989958 19.328656 -0.539326 2.767228 0.013452 -0.005305 654332.000000 1 0 0
4.647338 13.365811 -14.458158 20.230694 1.236169 2.366941 0.015094 -0.022410 192636.000000 1 0 0
9.477338 11.149111 -15.511458 21.324351 0.866271 2.385330 0.060087 -0.029045 125895.000000 1 0 0
17.291538 1.253811 -11.513658 20.811863 0.072383 2.157028 0.042695 -0.001443 167561.000000 1 0 0
14.506338 -2.993989 -12.572758 19.428640 -0.203534 2.274604 0.022555 0.001163 74318.200000 1 0 0
-8.781662 0.220811 -17.467958 19.552389 -0.025139 2.675637 0.007401 0.006110 487932.000000 1 0 0
-3.294962 4.421811 -18.971358 19.756559 -0.930399 2.858715 0.013937 0.000194 51434.400000 1 0 0
3.899738 1.647611 -16.859258 17.382669 0.399745 2.895571 0.003814 -0.004719 513055.000000 1 0 0
-5.163462 14.727311 -13.393158 20.565304 -1.233583 2.280027 0.007320 -0.009214 108647.000000 1 0 0
0.873838 9.551111 -17.709758 20.140081 1.479560 2.645248 0.005302 -0.001518 418826.000000 1 0 0
0.802138 -5.445989 -20.403758 21.133281 -1.424558 2.878076 0.004373 0.019010 429656.000000 1 0 0
3.789038 -6.279989 -17.840358 19.289206 -1.027916 2.751538 0.013590 -0.019551 192942.000000 1 0 0
-6.771662 7.633911 -16.044958 19.015065 -0.845182 2.575126 -0.007504 0.009600 185628.000000 1 0 0
-11.644162 2.970911 -17.002858 20.820903 -0.249812 2.526334 0.016431 -0.006368 298129.000000 1 0 0
-4.386262 7.070611 -17.580558 19.450164 -1.015547 2.699544 -0.002079 0.024938 392088.000000 1 0 0
-8.058262 5.119111 -17.778058 20.179203 -0.565945 2.648787 0.003391 0.001407 480225.000000 1 0 0
-8.636762 4.556011 -14.979358 17.881053 -0.485416 2.563895 -0.009888 -0.010500 491164.000000 1 0 0
9.530438 13.978511 -12.285558 20.908442 0.972395 2.198872 0.048718 -0.030950 483712.000000 1 0 0
14.079738 9.808711 -11.991558 20.934357 0.608477 2.180735 0.032893 -0.018471 75965.800000 1 0 0
8.527838 15.580611 -9.938558 20.353240 1.070000 2.080941 0.018258 -0.016784 79407.700000 1 0 0
8.234738 13.638511 -14.297158 21.406275 1.027598 2.302174 0.031761 -0.030239 193754.000000 1 0 0
4.103438 15.483811 -13.228258 20.774345 1.311737 2.261084 0.024675 -0.017948 288684.000000 1 0 0
10.844938 11.728811 -11.255558 19.541373 0.824533 2.184606 0.037352 -0.019299 342485.000000 1 0 0
16.076038 9.885611 -10.778458 21.733372 0.551324 2.089714 0.041022 -0.000932 47059.600000 1 0 0
13.087438 11.324011 -9.824758 19.900757 0.713286 2.087121 0.033264 -0.012867 220899.000000 1 0 0
10.333638 11.484911 -7.471958 17.161510 0.838115 2.021268 0.008058 -0.006679 -61984.700000 1 0 0
5.405138 17.161611 -10.601058 20.883459 1.265676 2.103227 0.036293 -0.004603 -113075.000000 1 0 0
11.692238 13.975811 -10.291458 20.927155 0.874130 2.084924 0.056811 -0.020057 211728.000000 1 0 0
7.737938 -19.400589 -1.588458 20.947118 -1.191281 1.646701 0.020425 -0.002430 100518.000000 1 0 0
7.172238 -16.670989 -3.818558 18.545734 -1.164510 1.778179 0.014473 -0.013027 449075.000000 1 0 0
4.084838 -18.614989 4.982942 19.698564 -1.354782 1.315058 0.022882 -0.023008 263732.000000 1 0 0
10.268038 -18.051889 -2.640558 20.935039 -1.053629 1.697264 0.023791 0.005496 710401.000000 1 0 0
-3.548562 -14.864889 7.915542 17.210840 1.336461 1.092896 0.022917 -0.024288 101000.000000 1 0 0
-15.234562 -12.727189 -4.438258 20.341371 0.695966 1.790754 0.009601 -0.000484 110501.000000 1 0 0
-9.353962 -12.523789 -7.321258 17.261018 0.929285 2.008819 0.009987 -0.011219 198693.000000 1 0 0
-11.523262 -15.276489 6.956842 20.360607 0.924540 1.222091 0.003961 -0.005771 320234.000000 1 0 0
-14.477562 -8.458989 -8.101558 18.622286 0.528782 2.020886 0.016672 -0.012544 -58039.600000 1 0 0
4.859638 -15.290289 6.461342 17.296183 -1.263067 1.187941 0.011254 -0.010736 131126.000000 1 0 0
2.663038 -14.184789 9.018642 17.018693 -1.385218 1.012283 0.006869 -0.003547 500117.000000 1 0 0
3.202738 -17.463189 10.005742 20.379778 -1.389413 1.057600 0.024298 -0.008066 221282.000000 1 0 0
-7.572562 -17.398789 -5.155458 19.663172 1.160289 1.836086 -0.030512 -0.009858 3574.160000 1 0 0
1.861738 -19.772689 -4.021658 20.263244 -1.476916 1.770594 0.019328 -0.007933 46533.300000 1 0 0
-17.349462 -10.932589 -2.399558 20.646627 0.562287 1.687280 -0.050335 0.005730 -50412.100000 1 0 0
-4.235562 -14.975489 3.027442 15.854673 1.295163 1.378667 0.001358 0.002940 11135.400000 1 0 0
-10.787162 -9.880289 -14.613458 20.676947 0.741547 2.355692 0.015937 -0.005192 144916.000000 1 0 0
0.615938 -20.581489 2.668042 20.762840 -1.540878 1.441939 0.018368 -0.000700 298946.000000 1 0 0
5.129338 -18.755589 0.817842 19.461529 -1.303841 1.528760 0.001129 0.009017 32798.300000 1 0 0
-8.078462 -18.861489 -3.409558 20.800058 1.166130 1.735460 0.012419 -0.016100 162742.000000 1 0 0
-9.215262 -15.498989 -7.701158 19.607334 1.034378 1.974437 0.014214 -0.010050 33510.200000 1 0 0
-11.658162 -11.308589 -12.307558 20.378246 0.770179 2.219251 0.004111 -0.001187 226978.000000 1 0 0
-13.190762 -15.310389 -3.570058 20.521928 0.859631 1.745649 0.006442 0.004663 133129.000000 1 0 0
-0.643362 -20.723489 -2.790358 20.920397 1.539761 1.704575 0.008026 0.001453 347629.000000 1 0 0
-12.033862 -16.631089 -0.873958 20.546795 0.944422 1.613344 0.009720 -0.008652 3255.570000 1 0 0
0.841638 -19.767689 5.551542 20.549684 -1.528246 1.297245 0.024750 -0.022586 172438.000000 1 0 0
-18.147562 -9.918289 2.452142 20.825933 0.500180 1.452778 0.020801 0.005642 52830.300000 1 0 0
-14.623962 -14.964689 -0.356858 20.926766 0.796913 1.587850 0.005671 -0.008550 -48793.400000 1 0 0
10.460038 -15.187589 -5.406658 19.217368 -0.967679 1.855989 0.020387 0.001304 -243970.000000 1 0 0
-0.157262 -18.985489 -7.225758 20.314653 1.562513 1.934451 0.005554 -0.000857 164792.000000 1 0 0
-10.107562 -16.579289 -2.332758 19.557030 1.023312 1.690361 0.006294 -0.014213 496235.000000 1 0 0
-15.105962 -6.925189 -11.344558 20.120819 0.429851 2.169802 0.048124 -0.014528 130783.000000 1 0 0
-12.349062 -15.252189 2.061242 19.732646 0.890194 1.466147 0.008723 -0.008505 -14440.600000 1 0 0
-2.853662 -16.210089 10.185842 19.356181 1.396539 1.016633 0.013489 -0.008304 285982.000000 1 0 0
-12.367362 -14.188789 -6.571658 19.936401 0.853879 1.906709 0.008801 -0.012210 255289.000000 1 0 0
4.960938 -16.969089 -7.475858 19.195035 -1.286371 1.970851 0.006737 0.001449 -30630.500000 1 0 0
-17.591862 -7.487489 -3.071758 19.364189 0.402398 1.730100 -0.000996 0.004531 -84984.300000 1 0 0
-12.245562 -13.709789 -9.245758 20.576593 0.841752 2.036816 0.026433 -0.022377 63168.200000 1 0 0
-7.975362 -13.645889 9.894642 18.647269 1.041888 1.011463 0.013743 -0.009685 522668.000000 1 0 0
-15.879962 -8.119889 -5.884858 18.781303 0.472670 1.889500 0.031432 -0.002816 210776.000000 1 0 0
-1.028462 -19.577989 0.490242 19.611112 1.518313 1.545796 0.010399 -0.003703 184075.000000 1 0 0
-15.104362 -11.292289 -1.631058 18.929287 0.641975 1.657069 0.019480 -0.001337 3864.290000 1 0 0
-6.956362 -18.797789 1.253642 20.082815 1.216361 1.508332 -0.002872 -0.009737 204216.000000 1 0 0
-2.616562 -20.649989 -5.421458 21.509548 1.444758 1.825593 0.002734 -0.001573 122049.000000 1 0 0
-8.804362 -19.892789 -1.105358 21.782141 1.154121 1.621564 -0.011290 0.009851 93531.400000 1 0 0
-17.662862 -7.233189 5.208642 19.784481 0.388681 1.304387 0.013274 -0.007227 -51334.800000 1 0 0
-3.294262 -15.738589 -10.878658 19.413927 1.364464 2.165609 0.005881 0.002650 106644.000000 1 0 0
-2.983162 -18.214389 -8.297958 20.236584 1.408457 1.993302 -0.001037 -0.000274 75113.000000 1 0 0
4.103838 -18.092189 -5.954158 19.483860 -1.347741 1.881359 0.011680 0.034704 613319.000000 1 0 0
0.658338 -17.397989 -9.156958 19.671638 -1.532974 2.054985 0.009216 0.003426 131858.000000 1 0 0
-7.723262 -10.179789 -14.137858 19.056650 0.921759 2.406675 0.005332 -0.029188 -34005.900000 1 0 0
-5.526262 -19.139989 -1.853658 20.007869 1.289712 1.663576 0.001042 -0.013944 371766.000000 1 0 0
-9.820562 -16.092989 8.485242 20.674309 1.022882 1.147877 -0.009957 -0.001306 281347.000000 1 0 0
-7.222162 -15.253489 -10.281058 19.761800 1.128592 2.117939 0.004577 -0.003361 211837.000000 1 0 0
-12.572362 -8.143289 -12.272458 19.364676 0.574766 2.257194 0.017416 -0.011919 184216.000000 1 0 0
-15.693062 -13.124489 3.125142 20.695191 0.696501 1.419208 0.019043 -0.001930 220105.000000 1 0 0
-6.236362 -14.316489 -13.291258 20.506380 1.159976 2.275952 -0.007757 0.006658 437610.000000 1 0 0
-13.878062 -11.393289 -6.990258 19.268403 0.687389 1.942049 0.016700 -0.017661 163157.000000 1 0 0
-11.740462 -10.286089 -8.512658 17.779410 0.719466 2.070076 0.018607 -0.012243 309899.000000 1 0 0
-9.534062 -14.666489 3.373842 17.815360 0.994381 1.380267 -0.010842 -0.008744 433861.000000 1 0 0
5.278038 -17.870689 8.194742 20.356154 -1.283615 1.156476 0.040357 -0.031548 162102.000000 1 0 0
-4.868462 -16.801689 5.245842 18.262463 1.288760 1.279445 -0.003261 0.010893 358974.000000 1 0 0
-18.307862 -7.385189 -7.064758 20.967347 0.383424 1.914462 0.014765 -0.005445 81767.600000 1 0 0
-17.029662 -3.444189 -11.015658 20.572228 0.199555 2.135852 0.020062 -0.007796 -291306.000000 1 0 0
-15.472262 -4.368589 -13.317358 20.876482 0.275186 2.262580 0.001319 -0.002679 313811.000000 1 0 0
-19.463062 -5.470989 -6.156458 21.133965 0.274025 1.866388 0.034074 0.002089 -629325.000000 1 0 0
5.678138 -13.581789 8.739042 17.119495 -1.174810 1.035061 0.018245 0.000262 13852.700000 1 0 0
19.647738 -3.772789 2.909942 20.217203 -0.189712 1.426361 0.018570 -0.004807 -104285.000000 1 0 0
18.211538 -2.470789 0.209542 18.379576 -0.134848 1.559395 0.028064 -0.013427 361107.000000 1 0 0
14.086338 -11.273989 0.340242 18.045595 -0.674954 1.551941 0.009231 0.003281 110815.000000 1 0 0
10.901038 -13.774689 5.551442 18.422627 -0.901333 1.264701 0.006603 0.006411 482219.000000 1 0 0
9.815438 -13.300889 8.976542 18.810496 -0.935050 1.073320 0.011621 -0.005077 183557.000000 1 0 0
18.283938 5.209011 -4.971758 19.650816 0.277542 1.826582 0.016114 0.012222 -46325.400000 1 0 0
19.141338 -6.089689 -4.990758 20.697410 -0.308018 1.814326 0.047542 -0.008467 -5691.720000 1 0 0
17.564938 -10.137489 -0.283358 20.282407 -0.523444 1.584767 0.025292 0.002723 153310.000000 1 0 0
17.638938 -8.797489 8.911642 21.632043 -0.462650 1.146187 0.065761 -0.006477 -138508.000000 1 0 0
19.978638 0.310111 -1.986558 20.079556 0.015521 1.669893 0.044890 -0.002641 59252.400000 1 0 0
7.439938 -13.218589 11.843242 19.244380 -1.058149 0.907886 0.009289 -0.000748 391084.000000 1 0 0
16.234338 -6.519589 -3.383758 17.818771 -0.381879 1.761855 0.024047 -0.002305 385127.000000 1 0 0
14.074638 -7.464889 10.808342 19.252019 -0.487654 0.974704 0.028369 -0.051241 304113.000000 1 0 0
16.496338 0.800711 10.520442 19.581879 0.048501 1.003618 0.061639 -0.020392 300067.000000 1 0 0
16.024238 -10.316989 2.449342 19.214987 -0.572030 1.442978 -0.022259 -0.002925 206776.000000 1 0 0
16.340338 -7.290289 -5.927458 18.849131 -0.419650 1.890693 0.024879 -0.000010 201653.000000 1 0 0
18.724538 -5.032389 5.392442 20.124902 -0.262555 1.299533 0.142033 -0.022799 -110066.000000 1 0 0
13.379338 -13.457689 8.020442 20.602028 -0.788318 1.170921 0.030720 -0.004468 167987.000000 1 0 0
15.358238 -14.112889 -1.172258 20.890747 -0.743167 1.626940 0.017713 -0.000435 237479.000000 1 0 0
18.685038 -6.405089 7.940442 21.288645 -0.330239 1.188567 0.058597 -0.022296 374326.000000 1 0 0
19.705138 3.843811 2.597142 20.243826 0.192647 1.442149 0.030613 0.002092 295713.000000 1 0 0
15.718738 -10.614389 8.071842 20.613069 -0.593935 1.168439 0.041982 -0.025131 345382.000000 1 0 0
14.396138 -4.275789 10.723742 18.453449 -0.288711 0.950687 0.034713 -0.010542 -45604.100000 1 0 0
18.675338 -7.800589 2.052442 20.342811 -0.395667 1.469732 0.038348 -0.012145 -56151.700000 1 0 0
18.729738 -4.963589 -1.725358 19.452947 -0.259056 1.659607 0.008791 -0.004779 334139.000000 1 0 0
14.627038 -13.736589 -6.009358 20.946515 -0.754014 1.861776 0.030144 -0.003510 489278.000000 1 0 0
13.752138 -9.822989 10.114442 19.695541 -0.620251 1.031491 0.018870 -0.010811 372732.000000 1 0 0
14.254738 2.286511 0.635342 14.450929 0.159049 1.526817 0.003893 -0.001257 -12051.700000 1 0 0
12.898538 2.533011 13.723542 19.003263 0.193912 0.763865 0.035451 -0.009657 146924.000000 1 0 0
18.061238 -3.798389 9.361442 20.694750 -0.207285 1.101388 0.036765 -0.008115 94125.800000 1 0 0
7.733338 -18.974089 5.391142 21.186906 -1.183778 1.313511 0.040803 -0.014584 317361.000000 1 0 0
12.372138 -3.086089 15.190542 19.832960 -0.244450 0.698319 0.014675 0.008321 270121.000000 1 0 0
11.262038 -13.413789 -7.120658 18.906798 -0.872379 1.956940 0.012887 -0.002242 239995.000000 1 0 0
10.533338 -17.657489 4.442042 21.034968 -1.032927 1.358020 0.015466 -0.011705 464440.000000 1 0 0
18.283138 -0.383989 -4.994658 18.956983 -0.020999 1.837417 0.028580 -0.012064 157247.000000 1 0 0
4.335438 -13.836389 11.739042 18.656012 -1.267150 0.890226 -0.001288 -0.000694 310017.000000 1 0 0
9.053938 -2.848689 13.881442 16.816160 -0.304829 0.599740 -0.001728 -0.006339 156752.000000 1 0 0
8.910938 -9.219589 14.216242 19.144377 -0.802420 0.733881 0.003087 -0.002782 370769.000000 1 0 0
20.928838 5.425411 -3.354658 21.879330 0.253648 1.724729 0.030059 0.002387 526899.000000 1 0 0
14.435238 -13.681189 2.248642 20.015180 -0.758586 1.458212 0.001373 0.008631 312785.000000 1 0 0
10.536138 0.145711 14.182842 17.668742 0.013829 0.638974 0.002655 -0.022889 91971.600000 1 0 0
19.438838 0.325611 7.702942 20.911952 0.016749 1.193561 0.063377 -0.001735 -34677.400000 1 0 0
19.810638 1.234911 0.468642 19.854622 0.062255 1.547190 0.030759 -0.001730 291486.000000 1 0 0
17.993238 0.406711 3.007942 18.247458 0.022600 1.405199 0.026715 -0.002637 -99584.900000 1 0 0
10.391238 -7.985689 16.449842 21.032031 -0.655238 0.672715 0.027590 -0.008447 81751.400000 1 0 0
19.289938 2.709311 5.328142 20.194830 0.139539 1.303798 0.047400 -0.002703 152789.000000 1 0 0
15.172538 2.181311 7.218442 16.943138 0.142789 1.130686 0.025648 -0.007188 81361.900000 1 0 0
11.325438 -16.135289 1.841842 19.799128 -0.958793 1.477635 0.002398 0.006545 294595.000000 1 0 0
8.470038 -16.490089 7.126342 19.860748 -1.096293 1.203798 0.013243 0.007268 314722.000000 1 0 0
6.161838 6.743111 7.044042 11.535004 0.830410 0.913894 0.001992 0.002135 -964783.000000 1 0 0
18.365038 2.399011 -6.558358 19.647950 0.129894 1.911121 0.005527 0.000192 200093.000000 1 0 0
14.157538 4.524211 -7.207158 16.518096 0.309306 2.022300 0.014165 -0.003401 166369.000000 1 0 0
-10.413662 -3.925389 -13.807158 17.733885 0.360476 2.463188 0.007465 -0.000776 -230875.000000 1 0 0
7.607738 -13.922889 -10.542558 19.049149 -1.070706 2.157285 -0.003374 0.006456 -290291.000000 1 0 0
1.706038 -15.818189 14.035642 21.216147 -1.463359 0.847906 -0.009334 -0.000816 398924.000000 1 0 0
-9.501662 -8.018189 2.289942 12.641866 0.700926 1.388651 0.003478 0.000730 473515.000000 1 0 0
-13.762762 3.284311 -9.730558 17.172189 -0.234256 2.173226 0.010197 0.002796 54312.100000 1 0 0
-12.883162 -5.209889 -13.270658 19.215337 0.384290 2.333154 0.016017 0.005765 99084.800000 1 0 0
-17.985462 -1.217389 -8.889958 20.099509 0.067584 2.028955 0.030837 -0.011018 565526.000000 1 0 0
-12.189762 15.261611 3.922442 19.922164 -0.896836 1.372613 0.027235 -0.010651 444608.000000 1 0 0
-17.313362 6.471111 9.160742 20.628790 -0.357687 1.110654 0.011133 0.001988 171674.000000 1 0 0
-13.454262 15.606311 -0.398658 20.609052 -0.859317 1.590141 0.031472 -0.010280 109355.000000 1 0 0
-15.477262 4.922011 -11.363058 19.821476 -0.307902 2.181288 -0.008348 0.017555 -102279.000000 1 0 0
-17.893962 3.005011 0.095742 18.144783 -0.166382 1.565520 0.000053 -0.000382 -74332.700000 1 0 0
-10.048962 15.387111 -0.432158 18.382915 -0.992261 1.594307 0.021942 -0.011608 -21102.400000 1 0 0
-18.378062 12.133811 2.075542 22.119910 -0.583536 1.476827 0.046481 -0.012312 112958.000000 1 0 0
-8.831662 16.248911 -7.533458 19.969435 -1.072939 1.957621 0.042218 -0.031108 55714.700000 1 0 0
-14.899062 -1.668289 -13.088258 19.901451 0.111508 2.288496 0.002074 -0.010574 138541.000000 1 0 0
-18.953962 5.511611 -4.729958 20.297858 -0.282985 1.805986 0.024847 0.011166 -28105.000000 1 0 0
-16.524862 10.047711 -5.272358 20.045581 -0.546307 1.836946 0.009777 0.018482 33062.000000 1 0 0
-18.966462 1.159111 2.601642 19.179123 -0.061038 1.434727 0.004310 -0.007694 256699.000000 1 0 0
-14.391762 11.086211 -7.569958 19.680731 -0.656377 1.965612 0.016801 -0.014719 129479.000000 1 0 0
-12.894062 5.003811 -13.672658 19.448305 -0.370181 2.350440 0.015366 -0.005590 49408.700000 1 0 0
-14.102962 9.252411 -6.506858 18.078713 -0.580625 1.938977 0.002519 -0.000912 -191893.000000 1 0 0
-6.319462 11.448511 -15.407158 20.208526 -1.066427 2.437824 -0.012207 -0.019864 43363.500000 1 0 0
-14.853962 13.951911 3.296742 20.643752 -0.754094 1.410413 0.013887 -0.004479 -44691.400000 1 0 0
-18.458562 8.622711 -4.727658 20.914598 -0.437015 1.798813 0.020913 -0.003629 3643.500000 1 0 0
-3.734962 17.051211 -9.813758 20.025074 -1.355158 2.082970 0.008598 -0.001845 118911.000000 1 0 0
-18.851562 -2.516189 -6.601058 20.131731 0.132690 1.904869 -0.016120 -0.001416 -49720.900000 1 0 0
-10.860162 13.179011 -6.285858 18.197293 -0.881562 1.923491 0.009344 -0.029045 126472.000000 1 0 0
-19.420962 3.030711 4.338842 20.129196 -0.154805 1.353542 0.019097 0.002526 59366.900000 1 0 0
-15.263462 12.520511 0.373142 19.745270 -0.686993 1.551897 0.019180 -0.008405 53572.400000 1 0 0
-16.988962 2.091911 -8.556158 19.136582 -0.122517 2.034328 -0.021485 0.003659 336820.000000 1 0 0
-16.591762 13.804311 -3.857458 21.925454 -0.693950 1.747652 0.019709 0.029849 190905.000000 1 0 0
-10.524462 15.756111 -8.784958 20.885278 -0.981898 2.004935 0.015021 -0.012080 81954.400000 1 0 0
-19.082362 1.835211 -7.116058 20.448541 -0.095878 1.926231 0.017386 0.006930 72750.200000 1 0 0
-16.974862 10.771511 -0.264558 20.105755 -0.565442 1.583955 0.011979 0.002173 -130129.000000 1 0 0
-11.286762 7.043411 -14.815358 19.912194 -0.557910 2.409885 -0.004498 -0.002469 187345.000000 1 0 0
-13.588262 12.724911 -5.220658 19.334412 -0.752599 1.844209 0.020173 -0.009018 314803.000000 1 0 0
-18.783062 7.341211 -0.197358 20.167691 -0.372587 1.580582 0.013355 -0.004079 -54666.700000 1 0 0
-14.534962 8.732411 -10.162458 19.768553 -0.540998 2.110722 0.002639 -0.001461 630941.000000 1 0 0
-18.963162 11.685311 4.303242 22.686249 -0.552254 1.379955 0.036585 -0.001849 336848.000000 1 0 0
-8.186462 12.089911 -13.384058 19.806997 -0.975584 2.312742 -0.022534 -0.002351 555918.000000 1 0 0
-21.109262 -1.572389 -5.324758 21.827194 0.074351 1.817234 0.007552 0.001204 483680.000000 1 0 0
-10.696462 13.896811 -3.790358 17.941641 -0.914802 1.783661 0.016337 0.008282 419195.000000 1 0 0
-18.759462 -5.003589 3.796042 19.782903 0.260655 1.377714 0.022112 -0.002474 33288.500000 1 0 0
-11.126962 11.359811 -13.428458 20.812931 -0.795753 2.272079 -0.001122 -0.008067 178263.000000 1 0 0
-14.572262 11.342911 -10.663158 21.324057 -0.661425 2.094456 0.009125 -0.005739 259972.000000 1 0 0
-12.638662 9.850811 -13.886258 21.203830 -0.662065 2.284838 0.018544 -0.008726 148389.000000 1 0 0
-18.551462 -4.815089 -3.076458 19.411502 0.253949 1.729954 0.016300 -0.002761 -197689.000000 1 0 0
-9.335562 12.686311 -11.453358 19.474974 -0.936395 2.199512 0.004416 -0.008488 159903.000000 1 0 0
-15.585362 7.742011 -8.178358 19.228307 -0.461043 2.010122 -0.005013 0.010300 7413.160000 1 0 0
-14.214062 8.676511 2.090842 16.783713 -0.548044 1.445896 0.009791 -0.000046 -106922.000000 1 0 0
-19.686662 6.162611 8.416442 22.279563 -0.303372 1.183415 0.025105 0.003406 122288.000000 1 0 0
-18.820262 6.264811 3.896742 20.214715 -0.321339 1.376814 0.002275 0.007509 157963.000000 1 0 0
-14.071262 12.814611 5.689542 19.864178 -0.738692 1.280306 0.003726 -0.006896 128309.000000 1 0 0
17.848538 6.026411 5.558342 19.641362 0.325623 1.283884 0.007842 -0.011751 193076.000000 1 0 0
18.408738 7.922011 0.643742 20.051291 0.406385 1.538686 0.013974 0.009720 -83443.900000 1 0 0
17.105638 4.319811 8.501942 19.584346 0.247365 1.121736 0.045333 -0.004909 -59950.900000 1 0 0
12.236838 12.871511 10.663742 20.715486 0.810670 1.030055 0.020970 -0.010413 97748.000000 1 0 0
15.186638 12.055711 4.426042 19.888790 0.670972 1.346378 0.003416 -0.009622 161866.000000 1 0 0
5.414338 10.333911 14.685842 18.755765 1.088182 0.671315 0.012702 -0.005866 323385.000000 1 0 0
13.463538 13.125811 -4.671758 19.374702 0.772697 1.814323 0.040139 -0.001834 150548.000000 1 0 0
17.734638 9.239111 -2.734658 20.183085 0.480278 1.706707 -0.009277 0.008371 -58684.300000 1 0 0
14.573238 7.445011 9.599242 18.972424 0.472305 1.040305 0.029061 -0.005961 85378.600000 1 0 0
4.729738 19.178211 -1.299858 19.795551 1.329001 1.636508 0.008633 -0.012284 459653.000000 1 0 0
-4.243662 19.209811 3.262942 19.941722 -1.353377 1.406433 -0.005355 -0.011013 290946.000000 1 0 0
7.055438 13.969011 11.899642 19.659958 1.103095 0.920688 0.017573 0.014756 -47643.300000 1 0 0
0.803938 16.669811 -10.176058 19.546894 1.522606 2.118347 0.004564 -0.004151 12240.200000 1 0 0
10.726538 9.527611 15.654742 21.234522 0.726273 0.741834 0.048283 -0.008173 190808.000000 1 0 0
-1.261562 12.514711 0.348642 12.582968 -1.470329 1.543085 -0.001922 0.003284 540042.000000 1 0 0
-4.956162 19.155411 -2.219458 19.910281 -1.317614 1.682501 0.014046 0.001439 182068.000000 1 0 0
6.112238 18.358611 6.516042 20.417072 1.249404 1.245967 0.017122 -0.010276 40317.200000 1 0 0
11.326738 17.374211 -1.676658 20.807916 0.993067 1.651462 0.015232 -0.007508 379585.000000 1 0 0
18.330338 10.484411 3.662442 21.432164 0.519554 1.399068 0.008068 -0.004120 232572.000000 1 0 0
11.713238 16.221111 7.022342 21.204661 0.945393 1.233253 0.011182 0.007176 -153974.000000 1 0 0
17.927038 7.790811 -6.210758 20.509728 0.409961 1.878447 -0.013830 0.015163 433147.000000 1 0 0
0.320138 15.380411 11.106042 18.973763 1.549985 0.945501 0.001024 0.003144 467711.000000 1 0 0
1.342338 20.121011 -1.736458 20.240362 1.504182 1.656694 0.008556 -0.009082 213315.000000 1 0 0
14.158838 9.718811 -1.328558 17.224780 0.601549 1.648004 -0.004708 0.003294 -76322.000000 1 0 0
9.775438 17.700411 1.477042 20.274254 1.066211 1.497879 0.011559 -0.005442 357857.000000 1 0 0
0.305038 17.977311 -0.458758 17.985750 1.553830 1.596306 -0.001180 0.005209 61327.700000 1 0 0
-0.371262 21.192311 1.562542 21.253080 -1.553279 1.497209 0.010773 0.001708 303288.000000 1 0 0
6.352638 17.692611 -0.290458 18.800767 1.226077 1.586246 0.007039 -0.014323 28461.000000 1 0 0
6.743538 18.546911 -2.753858 19.926037 1.222063 1.709444 -0.007751 -0.013822 73257.600000 1 0 0
10.585038 9.448211 12.719542 19.055142 0.728712 0.839934 0.030531 -0.007159 137163.000000 1 0 0
12.867438 14.993011 8.163642 21.377707 0.861544 1.178971 0.003365 -0.001321 116101.000000 1 0 0
0.221238 17.710011 7.101942 19.082217 1.558305 1.189444 0.014015 0.002906 263888.000000 1 0 0
6.587238 18.134311 -7.802358 20.811577 1.222369 1.955090 -0.000003 -0.006613 12102.700000 1 0 0
-0.804662 18.650911 9.883642 21.123218 -1.527680 1.083878 0.025074 0.007245 40648.000000 1 0 0
15.783238 6.741011 -7.839158 18.868074 0.403647 1.999258 0.017931 -0.002370 -352561.000000 1 0 0
-5.193762 19.887511 -6.670758 21.609888 -1.315345 1.884612 0.007594 0.000695 348617.000000 1 0 0
4.136838 15.317811 9.937042 18.721473 1.307022 1.011272 0.010754 -0.001739 167402.000000 1 0 0
9.254438 15.022711 7.829042 19.303377 1.018673 1.153184 0.007224 0.012087 -74721.600000 1 0 0
-2.579262 19.655611 6.532342 20.872640 -1.440319 1.252486 0.011286 -0.003668 4738.550000 1 0 0
4.853238 17.889311 8.695342 20.474138 1.305880 1.132167 0.021278 -0.004675 45267.400000 1 0 0
14.039738 11.221011 -6.909358 19.255248 0.674273 1.937810 -0.040448 -0.018789 85245.700000 1 0 0
11.962138 6.858711 15.465642 20.720056 0.520607 0.728146 0.068149 -0.019107 256121.000000 1 0 0
17.065438 8.877511 5.005842 19.877068 0.479680 1.316215 0.017554 -0.010866 186773.000000 1 0 0
4.468338 15.511911 12.814242 20.610439 1.290331 0.899840 -0.013552 0.027005 365247.000000 1 0 0
16.273538 11.432211 -4.374258 20.363144 0.612404 1.787296 0.030910 0.028488 134208.000000 1 0 0
15.411338 13.928511 6.580342 21.790219 0.734901 1.264021 0.020852 0.005421 365275.000000 1 0 0
12.741138 14.200111 -8.063958 20.712488 0.839499 1.970699 0.051759 -0.021523 369009.000000 1 0 0
-8.833262 15.393211 9.572542 20.164598 -1.049833 1.076150 0.042563 -0.015754 37477.700000 1 0 0
-4.135162 16.563911 -7.095558 18.488095 -1.326148 1.964694 0.000474 -0.010380 164811.000000 1 0 0
2.422738 19.514311 -4.579158 20.190262 1.447277 1.799587 0.002898 -0.012564 8114.130000 1 0 0
7.310038 16.553811 9.120542 20.264491 1.154956 1.103947 0.005394 0.000879 569115.000000 1 0 0
13.320938 15.576211 -1.357058 20.540383 0.863285 1.636912 0.020194 -0.008121 133008.000000 1 0 0
12.382938 16.638511 4.205342 21.162752 0.930996 1.370750 0.001364 -0.007714 411508.000000 1 0 0
2.309738 18.223911 0.840942 18.388937 1.444726 1.525050 0.002957 -0.016781 -197900.000000 1 0 0
-6.902062 17.738611 1.563642 19.098213 -1.199723 1.488831 -0.009303 0.010217 276933.000000 1 0 0
0.235838 20.130411 -5.790158 20.947911 1.559081 1.850850 0.006389 0.012478 212934.000000 1 0 0
-7.592762 18.102911 -6.260358 20.604793 -1.173660 1.879507 0.033043 -0.015443 101169.000000 1 0 0
-7.674762 18.599211 -1.570458 20.181649 -1.179442 1.648691 0.032151 -0.007561 -3253.360000 1 0 0
-14.596762 -9.428489 8.563842 19.372694 0.573509 1.112905 0.026271 -0.014908 316528.000000 1 0 0
-13.184062 -13.416089 8.039642 20.455972 0.794121 1.166881 0.010837 -0.009609 69269.100000 1 0 0
-3.933362 -15.748389 12.868942 20.714554 1.326041 0.900458 0.026160 0.004954 198629.000000 1 0 0
-2.546762 -13.587689 15.772042 20.973044 1.385514 0.719683 0.020914 -0.025697 470934.000000 1 0 0
-7.464062 -13.345389 13.789442 20.590297 1.060842 0.836984 -0.007828 -0.010628 282271.000000 1 0 0
-10.090062 -11.135789 11.656142 19.017907 0.834625 0.911066 0.028420 -0.008439 -287392.000000 1 0 0
-7.822162 -10.296889 13.005942 18.340302 0.921140 0.782511 0.022539 -0.014799 447385.000000 1 0 0
-15.197462 -12.394489 7.040942 20.836532 0.684159 1.226097 0.014850 -0.013968 262954.000000 1 0 0
-4.678762 -12.095189 13.445142 18.680371 1.201696 0.767358 0.017244 -0.021689 344500.000000 1 0 0
3.362638 -12.440189 13.929742 18.976389 -1.306801 0.746520 -0.011784 0.000155 598329.000000 1 0 0
6.606438 -13.579289 15.020542 21.299267 -1.118000 0.788071 0.012495 0.009824 354106.000000 1 0 0
6.979238 -9.336989 16.747142 20.404800 -0.928908 0.608082 -0.002567 -0.000142 554070.000000 1 0 0
-5.040562 13.481711 13.590942 19.795896 -1.213007 0.814058 0.008436 0.001672 362829.000000 1 0 0
-13.946362 -2.171889 17.343242 22.360817 0.154491 0.683118 0.038618 -0.004490 304468.000000 1 0 0
-10.248962 9.361011 12.880042 18.935818 -0.740148 0.822768 -0.001386 -0.010592 467067.000000 1 0 0
-7.424862 -8.214489 17.152742 20.416242 0.835845 0.573233 0.028526 -0.011229 86630.300000 1 0 0
-5.111662 2.480311 18.188642 19.055385 -0.451759 0.302769 0.015059 0.002263 668813.000000 1 0 0
-15.512362 -3.703489 14.720742 21.703673 0.234357 0.825404 0.025487 -0.000406 108608.000000 1 0 0
-14.544262 2.739911 12.400842 19.308639 -0.186202 0.873375 -0.002157 0.002830 220453.000000 1 0 0
-14.352062 10.616311 9.433242 20.190933 -0.636881 1.084673 -0.024624 0.007412 -167701.000000 1 0 0
-4.986062 11.331611 15.495442 19.833682 -1.156278 0.674100 0.047094 -0.009425 211610.000000 1 0 0
-13.147662 12.944411 8.630342 20.369133 -0.777609 1.133273 0.014491 -0.008796 143975.000000 1 0 0
-4.449162 -6.878689 18.573442 20.299856 0.996671 0.415402 0.018681 -0.013160 290237.000000 1 0 0
0.327738 -3.090189 17.542942 17.816046 -1.465134 0.175319 0.004279 -0.019170 65283.400000 1 0 0
-4.709862 6.337211 21.123142 22.550613 -0.931657 0.357715 0.035151 0.001310 200455.000000 1 0 0
2.160138 -10.803889 16.462242 19.808978 -1.373458 0.589804 -0.013611 -0.003297 194992.000000 1 0 0
-14.821762 -0.286789 14.279642 20.583368 0.019347 0.804118 -0.015398 0.016466 76869.600000 1 0 0
-13.530362 -5.545889 7.695842 16.524332 0.388999 1.086339 0.004013 -0.007935 71838.200000 1 0 0
10.153438 1.199611 16.580742 19.479537 0.117603 0.552552 0.035961 -0.000993 474514.000000 1 0 0
-7.629562 12.606811 12.116442 19.077475 -1.026567 0.882635 0.018734 -0.002234 105554.000000 1 0 0
-2.185362 7.711811 20.381542 21.901029 -1.294657 0.374692 0.043124 -0.004171 498908.000000 1 0 0
0.958038 -14.188389 15.664342 21.156555 -1.503376 0.737129 -0.018052 0.006811 557551.000000 1 0 0
-3.442862 -11.833489 17.588542 21.476535 1.287670 0.611190 0.018714 -0.021146 360853.000000 1 0 0
-2.191662 9.328711 16.585242 19.154594 -1.340044 0.523925 0.027828 -0.006792 558176.000000 1 0 0
-5.046362 -9.998589 20.223242 23.117462 1.103390 0.505766 0.050632 -0.015301 226541.000000 1 0 0
-6.629162 -3.156789 19.161942 20.520505 0.444425 0.365920 0.017440 -0.007448 224945.000000 1 0 0
-10.609662 -8.047189 16.118642 20.907721 0.648905 0.690477 0.047083 -0.019646 87788.600000 1 0 0
-0.231462 6.496011 17.871642 19.017027 -1.535180 0.348838 0.021741 -0.010563 213208.000000 1 0 0
-5.795962 -11.626689 18.511442 22.615184 1.108345 0.611931 0.032893 -0.017961 287014.000000 1 0 0
0.738838 3.534611 19.028042 19.367646 1.364734 0.187543 0.021444 0.000785 38012.200000 1 0 0
-18.223962 -1.064189 7.644642 19.791055 0.058329 1.174215 0.005356 0.002265 188878.000000 1 0 0
-1.725462 -8.765889 17.423242 19.580280 1.376443 0.473810 0.002326 -0.013765 150833.000000 1 0 0
5.744938 3.369611 14.769342 16.201606 0.530460 0.423643 0.015927 -0.011518 393924.000000 1 0 0
-14.080562 -7.134289 10.289042 18.842099 0.468974 0.993135 0.029848 -0.002350 165860.000000 1 0 0
3.744138 8.361811 16.596542 18.957416 1.149801 0.504401 0.023449 -0.019532 200082.000000 1 0 0
6.067738 4.628311 17.176742 18.795722 0.651626 0.418094 0.029157 -0.037682 197387.000000 1 0 0
5.030238 -9.445789 18.485642 21.359896 -1.081459 0.524775 -0.008384 0.015580 311387.000000 1 0 0
-4.498562 -0.394489 19.809942 20.318131 0.087469 0.224128 0.016383 -0.007350 686750.000000 1 0 0
-11.165362 1.917411 16.998842 20.427981 -0.170070 0.587850 0.024953 0.001412 213500.000000 1 0 0
-16.825862 -4.377589 8.601742 19.397497 0.254528 1.111357 0.025307 -0.018419 262613.000000 1 0 0
-13.368862 -9.565889 11.961542 20.330056 0.621076 0.941758 0.036268 -0.020262 186654.000000 1 0 0
-14.617462 6.246211 13.281542 20.714360 -0.403827 0.874767 -0.003473 0.000268 161945.000000 1 0 0
1.450138 9.302611 17.113042 19.531965 1.416156 0.502968 0.026673 -0.021566 91926.900000 1 0 0
-3.662562 -10.177089 15.046042 18.530269 1.225344 0.623275 0.011552 -0.017682 653467.000000 1 0 0
-18.766162 -3.303389 6.664742 20.186629 0.174244 1.234327 0.094526 -0.010350 -161599.000000 1 0 0
-0.902862 -0.553689 21.061042 21.087655 0.550112 0.050246 0.018087 -0.006529 397327.000000 1 0 0
-1.826662 2.494811 20.308442 20.542482 -0.938795 0.151094 0.018238 -0.006923 840.186000 1 0 0
-8.053262 2.081811 16.186842 18.198978 -0.252967 0.474685 0.000494 0.013298 588367.000000 1 0 0
2.670438 -2.343489 18.688642 19.023367 -0.720282 0.187869 0.008887 -0.006218 -174504.000000 1 0 0
-12.433262 4.299111 14.181242 19.343629 -0.332906 0.747895 -0.012138 0.000711 214925.000000 1 0 0
-13.042162 -5.738789 13.448142 19.592963 0.414522 0.814302 -0.000006 -0.003284 30553.000000 1 0 0
-16.630062 -0.778389 10.637442 19.756518 0.046772 1.002227 -0.009726 0.010332 -21854.200000 1 0 0
-7.365162 7.931711 14.437142 18.044077 -0.822418 0.643327 -0.004554 -0.004490 9362.990000 1 0 0
-9.674162 0.730311 14.091942 17.108641 -0.075348 0.602937 0.014670 0.003072 269952.000000 1 0 0
8.027938 -0.855489 15.166742 17.181667 -0.106163 0.489159 0.018666 -0.004308 65609.700000 1 0 0
4.064738 6.673111 18.349442 19.943784 1.023697 0.402567 0.030115 -0.006064 206386.000000 1 0 0
1.541938 0.655611 19.936042 20.006328 0.402028 0.083848 0.016778 -0.005827 216543.000000 1 0 0
-7.216262 7.339611 17.693542 20.469630 -0.793872 0.526880 0.003719 0.011581 602932.000000 1 0 0
7.597338 -3.054789 16.918842 18.796236 -0.382304 0.450755 0.003271 0.008975 473347.000000 1 0 0
-16.259862 2.438111 9.483242 18.980500 -0.148838 1.047624 0.008156 0.002773 285920.000000 1 0 0
3.904838 -6.102389 19.019342 20.352451 -1.001563 0.363948 0.003952 -0.011054 168005.000000 1 0 0
-3.764762 -3.681089 20.631142 21.292437 0.774161 0.249879 0.015398 -0.007339 332173.000000 1 0 0
-9.741662 5.775111 14.537142 18.427707 -0.535128 0.661821 -0.005046 0.004559 68959.000000 1 0 0
6.681738 2.912611 19.663542 20.971023 0.411072 0.354981 0.044310 -0.029556 221366.000000 1 0 0
-7.091562 11.413211 14.266542 19.598108 -1.014828 0.755462 0.010077 -0.017146 243375.000000 1 0 0
-14.522762 4.968111 9.239842 17.915564 -0.329612 1.028921 -0.001506 -0.003188 384098.000000 1 0 0
1.292538 -4.900989 20.430642 21.049975 -1.312938 0.243177 0.015935 -0.013432 347327.000000 1 0 0
-6.085362 -8.390089 13.736042 17.207675 0.943289 0.646411 0.011736 -0.009472 295106.000000 1 0 0
-12.660662 10.347511 6.642642 17.649024 -0.685199 1.184916 -0.007131 -0.009624 234495.000000 1 0 0
-19.401462 1.821511 7.677542 20.944672 -0.093611 1.195484 -0.004281 -0.004121 55160.900000 1 0 0
-16.722462 9.110511 6.494942 20.120298 -0.498847 1.242104 0.047535 -0.001314 57001.000000 1 0 0
-12.854162 8.028511 14.199642 20.768156 -0.558300 0.817946 0.000592 0.003872 283169.000000 1 0 0
-16.623962 8.841711 10.791042 21.702040 -0.488814 1.050386 0.006530 -0.003646 458000.000000 1 0 0
2.388738 10.660011 14.244042 17.950895 1.350354 0.654257 0.009710 -0.055839 411384.000000 1 0 0
1.783238 14.288311 13.768342 19.922424 1.446634 0.807790 0.003641 -0.013886 541617.000000 1 0 0
9.045938 4.964811 16.822942 19.735493 0.501955 0.550199 0.045617 -0.008862 203499.000000 1 0 0
-0.124062 13.067011 13.818542 19.018787 -1.561302 0.757475 0.004595 0.011779 295608.000000 1 0 0
4.662938 12.547611 14.739142 19.910495 1.214993 0.737325 0.028252 -0.006513 123529.000000 1 0 0
-3.488162 -4.677189 -13.944758 15.116205 0.930000 2.745314 -0.006071 -0.005013 90139.000000 1 0 0
4.854038 -11.798789 16.903742 21.178045 -1.180500 0.646540 -0.057069 0.016885 230697.000000 1 0 0
8.455038 -14.094589 7.134042 17.917580 -1.030466 1.161288 -0.002498 0.002934 281784.000000 1 0 0
-0.518362 15.181311 0.398242 15.195377 -1.536665 1.544585 0.003250 -0.004802 -285592.000000 1 0 0
-14.220862 7.594511 8.576142 18.260879 -0.490507 1.081907 0.014152 -0.002573 14993.200000 1 0 0
-15.625262 -9.636989 5.783042 19.247440 0.552650 1.265624 0.001592 -0.005129 183054.000000 1 0 0
9.152638 -10.160689 11.235942 17.699061 -0.837545 0.883004 0.009321 -0.001322 -37592.900000 1 0 0
-25.168302 5.984911 31.360825 40.654199 -0.233460 0.689751 0.043317 -0.007625 14487.000000 0 0 1
-23.933162 5.427811 30.975485 39.518831 -0.223018 0.670009 0.031893 -0.007443 -596174.000000 0 0 1
-22.977862 5.591311 31.948805 39.748849 -0.238696 0.637197 0.033526 -0.011691 -832380.000000 0 0 1
-21.702962 4.819411 31.645455 38.674023 -0.218517 0.612417 0.028342 -0.013374 -410455.000000 0 0 1
-21.788762 3.468011 32.109205 38.958674 -0.157841 0.602032 0.005981 -0.010835 187975.000000 0 0 1
-20.516262 2.888011 31.919215 38.053829 -0.139848 0.575737 0.025143 -0.006466 -59795.500000 0 0 1
-20.205862 1.635211 32.779053 38.541109 -0.080752 0.553869 0.007781 -0.003812 -133527.000000 0 0 1
-20.741562 0.466711 32.178585 38.286963 -0.022497 0.572668 0.005607 0.004705 278098.000000 0 0 1
-21.097762 -0.517989 33.166425 39.311520 0.024547 0.566691 0.006989 0.002935 3959.670000 0 0 1
-21.925862 -1.652289 32.526365 39.261150 0.075216 0.594441 -0.003111 -0.015057 -587992.000000 0 0 1
-21.089762 -2.554589 31.832055 38.269880 0.120542 0.588493 0.009108 -0.018657 175855.000000 0 0 1
-21.080362 -3.880589 32.335405 38.794575 0.182047 0.585378 0.008906 -0.020549 -39116.800000 0 0 1
-22.380662 -4.705989 32.205175 39.499540 0.207251 0.617497 -0.002329 -0.009667 579685.000000 0 0 1
-23.573162 -4.399589 32.924598 40.731800 0.184513 0.629492 -0.013633 -0.002619 702629.000000 0 0 1
-23.710662 -4.975589 34.249616 41.952213 0.206845 0.615654 -0.020397 -0.005344 -263294.000000 0 0 1
-24.865562 -4.449289 -33.630948 42.061063 0.177060 2.497383 -0.009012 -0.000480 -40901.400000 0 0 1
-24.796462 -4.919489 -32.312328 41.026241 0.195852 2.477703 -0.004646 -0.009513 156071.000000 0 0 1
-25.940922 -4.551389 -31.596228 41.133542 0.173684 2.446724 0.010275 -0.011092 -541515.000000 0 0 1
-25.928802 -5.001989 -30.134698 40.067727 0.190571 2.422030 0.002818 -0.021656 -658674.000000 0 0 1
-26.227662 -6.365889 -30.025448 40.372545 0.238112 2.409399 -0.000443 -0.007137 589592.000000 0 0 1
-25.758972 -6.874189 -28.803398 39.248119 0.260788 2.394812 -0.012885 -0.016801 -299368.000000 0 0 1
-25.908332 -8.402889 -28.715038 39.577818 0.313627 2.382606 -0.002131 -0.018880 -716184.000000 0 0 1
-27.238432 -8.773989 -28.558588 40.429050 0.311623 2.355178 0.016855 -0.026546 -743107.000000 0 0 1
-27.360632 -10.123589 -28.902668 41.066476 0.354385 2.351532 0.017120 -0.012022 -162330.000000 0 0 1
-28.719392 -10.753289 -28.600418 41.933527 0.358267 2.321347 0.057221 -0.007290 11835.800000 0 0 1
-28.733692 -11.376789 -27.333618 41.257522 0.377001 2.294964 0.063953 -0.012056 2181.760000 0 0 1
-30.102422 -11.614989 -27.072618 42.118766 0.368248 2.268903 0.062233 -0.013435 38630.200000 0 0 1
-30.382902 -12.350189 -25.746788 41.695863 0.386084 2.236344 0.062157 -0.009298 -201125.000000 0 0 1
-30.240502 -11.545289 -24.583058 40.646137 0.364704 2.220320 0.080997 -0.006899 261148.000000 0 0 1
-30.248812 -12.255089 -23.362658 40.137161 0.384932 2.192069 0.081817 -0.011695 -430229.000000 0 0 1
-29.755462 -11.355989 -22.206458 38.826187 0.364583 2.179672 0.085783 -0.012939 -601.143000 0 0 1
-29.535842 -12.020489 -20.983358 38.172758 0.386509 2.152795 0.086158 -0.013470 1112710.000000 0 0 1
-28.305912 -12.787889 -20.922758 37.450188 0.424329 2.163593 0.070471 -0.023005 550516.000000 0 0 1
-27.859102 -13.104589 -19.491758 36.438832 0.439679 2.135206 0.075825 -0.031026 28279.800000 0 0 1
-27.545982 -12.050589 -18.597558 35.353458 0.412387 2.124741 0.068647 -0.028041 82924.200000 0 0 1
-27.238942 -12.527489 -17.313058 34.621380 0.431065 2.094474 0.062278 -0.016390 82943.400000 0 0 1
-27.031682 -11.319189 -16.329258 33.548183 0.396555 2.079151 0.065417 -0.020947 230270.000000 0 0 1
-25.752952 -10.711989 -16.512258 32.413206 0.394182 2.105319 0.058759 -0.019358 610306.000000 0 0 1
-25.623642 -9.360389 -16.047758 31.649936 0.350242 2.102543 0.056572 -0.020483 470232.000000 0 0 1
-24.161662 -8.808289 -16.324258 30.460684 0.349583 2.136384 0.043406 -0.019693 1516000.000000 0 0 1
-23.276862 -9.391789 -15.329958 29.411318 0.383504 2.119084 0.030487 -0.026081 285321.000000 0 0 1
-22.136962 -8.606089 -15.079258 28.133501 0.370784 2.136476 0.044557 -0.042120 -183806.000000 0 0 1
-21.206362 -9.209589 -14.034958 27.046375 0.409708 2.116386 0.042307 -0.016639 97227.200000 0 0 1
-20.297562 -10.226889 -14.457358 26.936880 0.466721 2.137332 0.031973 -0.010624 890201.000000 0 0 1
-19.125462 -10.272889 -13.650458 25.644699 0.492910 2.132102 0.045580 -0.008114 1104110.000000 0 0 1
-17.979062 -11.254789 -14.129258 25.486328 0.559314 2.158421 0.048925 -0.001439 827479.000000 0 0 1
-17.267762 -10.985289 -15.357658 25.587299 0.566594 2.214555 0.057122 -0.016062 297609.000000 0 0 1
-18.003962 -11.256789 -16.522158 26.904269 0.558772 2.232053 0.051500 -0.017908 -374595.000000 0 0 1
-17.309562 -10.882689 -17.845058 27.138533 0.561263 2.288364 0.051459 -0.012145 -341453.000000 0 0 1
-18.127362 -10.943589 -18.995858 28.446547 0.543140 2.302010 0.038678 -0.007302 46933.500000 0 0 1
-17.563262 -10.518889 -20.245958 28.792604 0.539621 2.350636 0.042788 -0.011807 -564141.000000 0 0 1
-18.397562 -10.900689 -21.435658 30.278421 0.534892 2.357390 0.054715 -0.011940 -515686.000000 0 0 1
-19.570162 -10.124789 -21.526558 30.804145 0.477438 2.344543 0.033381 -0.021862 143182.000000 0 0 1
-20.419862 -10.811289 -22.488258 32.242464 0.486929 2.342662 0.041300 -0.012914 171440.000000 0 0 1
-21.561662 -9.930389 -22.994558 33.049472 0.431599 2.340276 0.028167 -0.019805 -529862.000000 0 0 1
-21.134662 -8.809789 -23.737358 32.981033 0.394939 2.374206 0.019195 -0.026942 -249237.000000 0 0 1
-22.097862 -8.320789 -24.609058 34.105085 0.360123 2.376857 0.007434 -0.025763 -393398.000000 0 0 1
-21.438062 -7.597489 -25.839228 34.423511 0.340583 2.419807 0.008961 -0.027438 -109429.000000 0 0 1
-20.530762 -8.456589 -26.460118 34.542206 0.390721 2.443427 0.026200 -0.030701 -424393.000000 0 0 1
-19.813962 -7.729689 -27.376428 34.667132 0.371954 2.481107 0.020317 -0.037758 -408035.000000 0 0 1
-18.730162 -8.514189 -28.165888 34.880190 0.426649 2.510704 0.040153 -0.036607 -54154.700000 0 0 1
-19.183362 -9.438789 -29.123268 36.128339 0.457251 2.508338 0.045842 -0.033998 163748.000000 0 0 1
-18.101362 -10.229689 -29.565138 36.144201 0.514388 2.528682 0.017901 -0.027995 -103906.000000 0 0 1
-18.483562 -11.216589 -30.627348 37.489844 0.545435 2.526900 0.025057 -0.017852 -280368.000000 0 0 1
-18.817762 -10.716389 -31.953108 38.599874 0.517678 2.545977 0.017133 -0.015278 383216.000000 0 0 1
-18.998662 -11.810989 -32.760458 39.669841 0.556205 2.542465 0.002900 -0.010424 -220382.000000 0 0 1
-19.482962 -11.576789 -34.199009 41.026578 0.536144 2.556357 0.002838 -0.008912 23776.900000 0 0 1
-18.566562 -10.982189 33.614398 39.940624 0.534149 0.570540 -0.000088 -0.008506 348509.000000 0 0 1
-18.980462 -11.058889 32.247435 39.018637 0.527561 0.598002 0.009807 -0.012881 -279434.000000 0 0 1
-18.428162 -12.320389 31.492165 38.511629 0.589314 0.613338 0.013867 -0.006601 -48879.600000 0 0 1
-17.048462 -12.260489 31.163205 37.578118 0.623466 0.592958 0.021373 -0.011996 459391.000000 0 0 1
-16.489062 -13.262689 30.341225 36.991594 0.677377 0.609002 0.030666 -0.013366 14744.900000 0 0 1
-16.623662 -14.744389 30.882845 38.045936 0.725559 0.623696 0.029768 -0.002297 -920512.000000 0 0 1
-17.873262 -15.295889 30.539505 38.549696 0.707850 0.656372 0.021658 -0.005208 -129139.000000 0 0 1
-18.200362 -16.494389 31.226285 39.729069 0.736267 0.666515 0.034898 -0.011376 -188715.000000 0 0 1
-18.524462 -16.448689 32.743177 41.058869 0.726114 0.647708 0.006203 -0.020010 -1112400.000000 0 0 1
-17.406462 -16.253789 33.510735 41.111311 0.751167 0.617857 0.024862 -0.011743 -548262.000000 0 0 1
-17.861062 -15.972489 -33.927758 41.535897 0.729637 2.526690 0.007165 -0.009078 67271.800000 0 0 1
-16.758262 -15.450089 -33.001558 40.107948 0.744805 2.537149 0.020031 -0.009203 -161455.000000 0 0 1
-16.341762 -14.123989 -33.343778 39.728426 0.712731 2.566777 0.015323 -0.007140 682559.000000 0 0 1
-15.057962 -13.776589 -32.788288 38.621348 0.740989 2.584826 0.019027 -0.006543 675300.000000 0 0 1
-14.989362 -13.354089 -31.314128 37.196604 0.727767 2.571507 0.027064 -0.006497 -393503.000000 0 0 1
-15.169262 -14.437989 -30.450388 36.956572 0.760704 2.539144 0.019537 -0.008505 -103201.000000 0 0 1
-15.534762 -14.007889 -29.144878 35.874416 0.733760 2.519077 0.016430 -0.007730 -207592.000000 0 0 1
-15.644562 -15.205489 -28.236738 35.682946 0.771167 2.483766 0.024202 -0.008785 1217190.000000 0 0 1
-14.408062 -15.910989 -27.897908 35.200073 0.834928 2.485780 0.030121 -0.014038 1054380.000000 0 0 1
-13.829562 -16.679089 -28.946098 36.156955 0.878529 2.499039 0.026424 -0.016810 -768349.000000 0 0 1
-12.407562 -17.159489 -28.670018 35.642189 0.944752 2.505435 0.018029 -0.007097 -357413.000000 0 0 1
-11.494062 -16.084989 -28.773748 34.910871 0.950350 2.539595 0.018647 -0.012128 483321.000000 0 0 1
-10.135862 -16.533389 -28.591708 34.548147 1.020833 2.545597 0.028794 -0.020723 1164260.000000 0 0 1
-9.124962 -15.379689 -28.474838 33.624637 1.035309 2.580820 0.022993 -0.019061 -90261.100000 0 0 1
-9.145162 -14.710489 -27.183538 32.233170 1.014591 2.574266 0.019632 -0.015113 -68571.000000 0 0 1
-8.030462 -13.855389 -26.966958 31.363625 1.045518 2.605706 0.020575 -0.018473 72915.600000 0 0 1
-7.907562 -12.407789 -27.570698 31.251019 1.003396 2.651382 0.012530 -0.023015 -278928.000000 0 0 1
-7.555562 -12.282089 -28.931868 32.326293 1.019298 2.679216 0.029822 -0.018297 262518.000000 0 0 1
-7.497062 -10.958989 -29.412618 32.270846 0.970820 2.717543 0.018495 -0.016393 -277823.000000 0 0 1
-6.498362 -10.742989 -30.573058 33.050755 1.026787 2.751920 0.013620 -0.006019 -438287.000000 0 0 1
-5.158362 -10.924089 -30.122668 32.454885 1.129634 2.760180 0.027373 -0.003604 420668.000000 0 0 1
-4.185962 -10.618189 -31.095038 33.123551 1.195278 2.789808 0.027534 -0.007413 -308434.000000 0 0 1
-4.052862 -9.133889 -31.486288 33.033922 1.153180 2.834281 0.018392 -0.006746 -734997.000000 0 0 1
-2.997662 -8.764489 -32.398838 33.696988 1.241245 2.863118 0.016972 -0.009601 662781.000000 0 0 1
-3.180862 -7.394289 -32.766438 33.740671 1.164548 2.900702 0.009309 -0.010737 440573.000000 0 0 1
-1.845462 -6.795889 -33.313808 34.049959 1.305635 2.933275 0.022168 -0.014830 458123.000000 0 0 1
-1.396262 -7.361789 34.183582 34.995182 1.383359 0.215787 0.021469 -0.021865 -85590.500000 0 0 1
-0.327562 -6.545389 33.741854 34.372403 1.520793 0.191839 0.016214 -0.014113 -954.325000 0 0 1
0.369138 -7.273889 32.562855 33.367428 -1.520091 0.220046 0.009032 -0.018042 -190592.000000 0 0 1
-0.343162 -7.207289 31.343625 32.163420 1.523219 0.226263 0.006224 -0.013081 125884.000000 0 0 1
0.438738 -7.747289 30.293805 31.271834 -1.514226 0.250757 0.013055 -0.019199 53489.800000 0 0 1
0.073838 -7.271289 28.805955 29.709597 -1.560642 0.247270 0.010074 -0.016858 14420.100000 0 0 1
0.380138 -5.885789 28.697045 29.296884 -1.506300 0.202705 0.008991 -0.019580 14548.000000 0 0 1
0.141838 -5.433589 27.385365 27.919567 -1.544698 0.195933 0.010066 -0.010180 -496232.000000 0 0 1
-1.076862 -4.487889 27.158095 27.547466 1.335300 0.168333 -0.002080 -0.000277 452321.000000 0 0 1
-2.295062 -5.236489 27.176265 27.771163 1.157729 0.207356 -0.002143 -0.007505 -86329.800000 0 0 1
-3.308562 -4.255189 26.934715 27.468747 0.909904 0.197508 0.001851 -0.007417 132575.000000 0 0 1
-4.730662 -4.787389 27.229675 28.049126 0.791358 0.242315 0.004566 -0.006184 88711.300000 0 0 1
-5.087062 -5.908489 26.460775 27.585522 0.859965 0.286542 0.000619 -0.003780 -422739.000000 0 0 1
-6.416662 -6.311889 26.699535 28.175852 0.777167 0.325148 -0.006156 -0.003142 337457.000000 0 0 1
-6.601062 -7.819989 26.569355 28.472036 0.869722 0.367653 0.001747 -0.009258 279986.000000 0 0 1
-5.654862 -8.449989 27.419385 29.243844 0.981031 0.355099 0.000085 -0.016484 -56648.900000 0 0 1
-5.943262 -9.801489 27.719105 29.995672 1.025711 0.392113 -0.000159 -0.018448 -218104.000000 0 0 1
-5.077562 -10.411989 28.819225 31.060246 1.117065 0.382192 -0.000373 -0.023699 -366581.000000 0 0 1
-5.325862 -11.751089 28.981605 31.723592 1.145266 0.418828 0.008676 -0.026989 30030.100000 0 0 1
-4.896262 -12.236789 30.233375 32.981348 1.190181 0.411102 0.011956 -0.034254 -417489.000000 0 0 1
-4.676562 -13.822689 30.229955 33.567650 1.244560 0.449722 0.017486 -0.031825 -566197.000000 0 0 1
-5.885862 -14.515289 30.025555 33.865483 1.185563 0.480828 0.036347 -0.034965 -279986.000000 0 0 1
-5.777962 -15.910089 30.107355 34.539377 1.222443 0.512172 0.028449 -0.032406 -516641.000000 0 0 1
-5.996862 -16.433789 31.538675 36.065493 1.220900 0.506427 0.041066 -0.030188 -242430.000000 0 0 1
-7.315162 -16.347589 32.024235 36.692055 1.150043 0.509919 0.037228 -0.030080 -381820.000000 0 0 1
-7.372962 -16.597689 33.398657 38.017287 1.152763 0.498057 0.042535 -0.024980 -863513.000000 0 0 1
-8.762362 -16.923589 33.940613 38.924954 1.093042 0.511625 0.048179 -0.020394 -302240.000000 0 0 1
-9.263862 -18.151989 33.463795 39.180855 1.098903 0.547007 0.049327 -0.024437 198094.000000 0 0 1
-9.818962 -18.124889 32.144295 38.186114 1.074318 0.570225 0.054816 -0.026558 -588115.000000 0 0 1
-10.427862 -19.518089 31.734645 38.688290 1.080113 0.608922 0.069007 -0.027348 264277.000000 0 0 1
-11.649062 -19.973989 32.306295 39.728549 1.042813 0.621208 0.061256 -0.020106 363412.000000 0 0 1
-11.867562 -21.329889 32.092665 40.320495 1.063067 0.650239 0.056358 -0.012486 -243932.000000 0 0 1
-11.272262 -22.318089 33.120011 41.498146 1.103099 0.646648 0.049566 -0.015925 67291.700000 0 0 1
-9.863462 -22.472389 33.263292 41.336942 1.157199 0.635649 0.053242 -0.013433 196111.000000 0 0 1
-9.517162 -23.402289 34.275091 42.579635 1.184548 0.635181 0.038314 -0.017520 21687.500000 0 0 1
-10.150062 -24.829489 34.247130 43.501646 1.182735 0.664443 0.047586 -0.011352 -179764.000000 0 0 1
-9.584162 -25.704729 33.276737 43.126911 1.213907 0.689443 0.046709 -0.007326 -85019.500000 0 0 1
-9.613162 -27.099669 33.625835 44.243664 1.229911 0.707461 0.047404 -0.005700 -449486.000000 0 0 1
-8.933862 -28.003779 32.551255 43.858975 1.261979 0.734479 0.048655 -0.009903 228485.000000 0 0 1
-7.572162 -27.724819 32.370335 43.287894 1.304180 0.726066 0.043955 -0.015785 -160460.000000 0 0 1
-6.592362 -28.342049 33.185373 44.136152 1.342260 0.719878 0.047930 -0.019138 362429.000000 0 0 1
-5.166262 -27.773139 32.987907 43.430859 1.386882 0.708175 0.050768 -0.020499 230169.000000 0 0 1
-4.924562 -26.595049 33.695803 43.208276 1.387702 0.676376 0.045029 -0.016059 105749.000000 0 0 1
-4.626362 -25.395939 32.944828 41.853538 1.390603 0.664629 0.054714 -0.008196 110170.000000 0 0 1
-4.500362 -24.110989 33.803697 41.764614 1.386268 0.627690 0.049129 -0.014807 -688236.000000 0 0 1
-3.270962 -24.077789 -34.326750 42.056687 1.435773 2.525603 0.041428 -0.009416 -699970.000000 0 0 1
-2.983162 -22.809089 -33.760928 40.852835 1.440746 2.543487 0.044073 -0.015650 55487.300000 0 0 1
34.046808 -15.428889 1.913442 37.428559 -0.425484 1.519652 0.080946 -0.027137 30614.000000 0 0 1
34.980968 -16.034689 2.756642 38.579508 -0.429804 1.499282 0.071322 -0.032076 213502.000000 0 0 1
34.249858 -16.945789 3.508942 38.373496 -0.459455 1.479227 0.080373 -0.034861 85208.400000 0 0 1
34.836488 -17.059589 4.920242 39.100118 -0.455377 1.444625 0.067362 -0.023792 406054.000000 0 0 1
-35.527141 -18.014389 5.147142 40.164525 0.469280 1.442292 0.063919 -0.026004 663255.000000 0 0 1
-34.846687 -17.741489 6.391642 39.622028 0.470925 1.408773 0.046462 -0.014744 1600930.000000 0 0 1
-33.437302 -18.492489 6.458342 38.752232 0.505182 1.403358 0.029414 -0.017727 1242550.000000 0 0 1
-33.653522 -19.861289 6.512242 39.616154 0.533160 1.405663 0.044872 -0.021322 219158.000000 0 0 1
-32.423542 -20.511589 6.765942 38.958816 0.564056 1.396242 0.037115 -0.014843 26256.700000 0 0 1
-32.496232 -22.006689 7.080342 39.880204 0.595265 1.392310 0.037250 -0.014874 -352356.000000 0 0 1
-32.635672 -22.795289 5.916542 40.245717 0.609704 1.423251 0.054056 -0.019882 368346.000000 0 0 1
-33.121512 -24.095689 6.208442 41.426822 0.628941 1.420364 0.057539 -0.024932 -303477.000000 0 0 1
-32.567392 -25.104049 5.194942 41.446782 0.656702 1.445126 0.060019 -0.019954 -39184.400000 0 0 1
-33.070652 -24.984489 3.846642 41.625586 0.647004 1.478254 0.071837 -0.018608 -53813.200000 0 0 1
-32.278702 -25.588339 2.877842 41.291157 0.670293 1.501043 0.061969 -0.015332 -347972.000000 0 0 1
-32.763632 -25.279799 1.424042 41.407146 0.657171 1.536398 0.069641 -0.018025 191391.000000 0 0 1
-33.906312 -26.031539 0.952642 42.757298 0.654764 1.548514 0.068497 -0.019286 594184.000000 0 0 1
-34.573766 -25.359459 -0.053458 42.877154 0.632850 1.572043 0.061551 -0.015426 -668340.000000 0 0 1
-35.433005 -24.150989 0.194842 42.881302 0.598267 1.566253 0.075906 -0.021707 -1374710.000000 0 0 1
34.595588 -24.403789 0.189442 42.337165 -0.614342 1.566322 0.056743 -0.012470 -674701.000000 0 0 1
33.902428 -23.204089 0.526442 41.086269 -0.600205 1.557983 0.065952 -0.024569 540438.000000 0 0 1
32.358278 -23.432589 0.423842 39.954024 -0.626758 1.560188 0.038445 -0.016205 360036.000000 0 0 1
31.945458 -23.256189 -0.879658 39.523871 -0.629270 1.593055 0.040921 -0.019398 -1274570.000000 0 0 1
30.565748 -23.246189 -0.906658 38.411877 -0.650207 1.594402 0.038285 -0.015118 -852704.000000 0 0 1
30.169688 -23.209689 -2.426858 38.141701 -0.655742 1.634467 0.029312 -0.013559 -147863.000000 0 0 1
30.565718 -21.977789 -3.053358 37.770482 -0.623387 1.651724 0.055558 -0.025005 330754.000000 0 0 1
30.144398 -22.028389 -4.411758 37.595189 -0.631075 1.688416 0.043351 -0.037620 -307832.000000 0 0 1
30.165358 -20.659789 -5.124158 36.919273 -0.600509 1.710039 0.042453 -0.034019 -76400.000000 0 0 1
29.288738 -19.814289 -4.446958 35.640029 -0.594790 1.695897 0.042129 -0.027657 -164812.000000 0 0 1
29.258018 -18.417289 -4.816458 34.905965 -0.561813 1.709222 0.039478 -0.028338 -52101.800000 0 0 1
28.244408 -17.783889 -3.831858 33.596077 -0.561931 1.685102 0.061343 -0.021883 -273242.000000 0 0 1
28.609928 -17.542089 -2.490258 33.651957 -0.550030 1.644864 0.055898 -0.022900 -214637.000000 0 0 1
29.156208 -18.533789 -1.673558 34.588822 -0.566237 1.619200 0.043539 -0.010722 -524430.000000 0 0 1
28.331978 -19.758089 -1.254658 34.563814 -0.608964 1.607104 0.045719 -0.009322 -440635.000000 0 0 1
27.380208 -19.423489 -0.272858 33.571151 -0.617006 1.578924 0.042373 0.005156 158221.000000 0 0 1
26.645788 -20.547789 0.188642 33.648852 -0.656898 1.565190 0.024485 0.005037 422926.000000 0 0 1
25.412638 -20.273089 1.126442 32.527975 -0.673371 1.536159 0.020170 0.011570 -753946.000000 0 0 1
24.964838 -21.423189 1.799142 32.945911 -0.709198 1.516160 0.012133 0.018846 374068.000000 0 0 1
24.103938 -21.184689 2.959842 32.226566 -0.721028 1.478822 -0.000178 0.020025 641157.000000 0 0 1
22.725038 -20.575789 2.598942 30.765970 -0.735804 1.486221 -0.014576 0.018298 -1012110.000000 0 0 1
22.680938 -19.258989 2.109242 29.829222 -0.703987 1.500027 0.013680 0.000774 2485.710000 0 0 1
22.806238 -18.215489 3.038242 29.345518 -0.673952 1.467077 0.024713 0.001065 -334156.000000 0 0 1
22.580338 -16.898689 2.316142 28.298443 -0.642464 1.488858 0.034260 -0.000155 632347.000000 0 0 1
21.216638 -16.726689 1.924042 27.085601 -0.667613 1.499701 0.022727 -0.000825 392102.000000 0 0 1
21.182638 -15.508489 1.223442 26.281442 -0.631967 1.524228 0.035164 -0.010499 -281018.000000 0 0 1
19.768038 -15.094489 0.835742 24.886088 -0.652136 1.537207 0.020601 -0.000220 -243258.000000 0 1 0
18.883238 -14.951389 1.966442 24.165835 -0.669709 1.489333 0.017324 -0.002330 454250.000000 0 1 0
17.865038 -13.982289 1.806842 22.758046 -0.664079 1.491319 0.017514 -0.002456 -177082.000000 0 1 0
18.278838 -12.536589 2.100142 22.264154 -0.601168 1.476328 0.032381 -0.002935 -506425.000000 0 1 0
19.171538 -11.955889 1.179542 22.624820 -0.557611 1.518638 0.032346 -0.002365 332702.000000 0 1 0
19.543538 -10.650189 1.689042 22.321050 -0.498955 1.495054 0.030446 -0.010710 286812.000000 0 1 0
20.518138 -9.854889 0.706342 22.773048 -0.447765 1.539775 0.036387 -0.014417 503261.000000 0 1 0
19.887038 -9.350789 -0.489358 21.981151 -0.439521 1.593061 0.041902 -0.007968 796900.000000 0 1 0
20.833338 -8.733589 -1.373858 22.631638 -0.396958 1.631539 0.047657 -0.011334 -67755.500000 0 1 0
20.309538 -8.449189 -2.798258 22.174228 -0.394241 1.697328 0.048662 -0.009796 -206451.000000 0 1 0
21.194338 -7.943689 -3.799358 22.950758 -0.358597 1.737106 0.058262 -0.013053 683595.000000 0 1 0
22.174338 -8.878389 -4.291158 24.268108 -0.380843 1.748554 0.056451 -0.013159 127487.000000 0 1 0
21.575538 -9.944089 -5.276558 24.335793 -0.431878 1.789355 0.034929 -0.008146 -461109.000000 0 1 0
21.184938 -9.558189 -6.547958 24.146145 -0.423834 1.845415 0.028353 -0.013053 -531066.000000 0 1 0
19.826138 -9.277389 -6.598358 22.862284 -0.437670 1.863574 0.019239 -0.007914 -1097650.000000 0 1 0
19.217738 -9.354289 -7.975358 22.812946 -0.452994 1.927938 0.019912 0.001214 -414531.000000 0 1 0
19.220238 -10.603589 -8.497558 23.538525 -0.504139 1.940143 0.023033 0.000906 787565.000000 0 1 0
20.374238 -10.906589 -9.279858 24.903394 -0.491497 1.952642 0.024233 -0.002237 130876.000000 0 1 0
20.225838 -12.322689 -9.858958 25.654088 -0.547197 1.965250 0.020186 -0.004663 128714.000000 0 0 1
19.209238 -12.366889 -10.860658 25.296021 -0.572004 2.014561 0.031286 -0.002016 338766.000000 0 0 1
18.998438 -13.692089 -11.192358 25.955401 -0.624481 2.016635 0.033448 -0.002605 -681592.000000 0 0 1
17.807138 -13.952389 -12.089958 25.650154 -0.664616 2.061606 0.037489 -0.007510 -409564.000000 0 0 1
17.683238 -15.348989 -12.317358 26.457621 -0.714850 2.055053 0.035932 -0.009591 237743.000000 0 0 1
16.662038 -15.490889 -13.289358 26.347641 -0.748990 2.099466 0.049120 -0.010713 21019.200000 0 0 1
16.516238 -16.961189 -13.709358 27.357166 -0.798688 2.095695 0.040545 -0.008116 -205471.000000 0 0 1
16.140338 -17.793689 -12.618658 27.135888 -0.834082 2.054451 0.030294 -0.006262 287692.000000 0 0 1
16.107638 -19.177589 -12.921858 28.181738 -0.872184 2.047124 0.029069 -0.006457 -535827.000000 0 0 1
15.105438 -19.914889 -12.041258 27.744711 -0.921878 2.019726 0.027434 -0.006275 163525.000000 0 0 1
13.752938 -19.611689 -12.365458 26.956747 -0.959224 2.047345 0.020954 -0.004602 446309.000000 0 0 1
12.877938 -20.560589 -11.715458 26.941252 -1.011233 2.020670 0.018121 -0.001555 924455.000000 0 0 1
11.412238 -20.537489 -12.243258 26.493867 -1.063604 2.051177 0.020367 -0.002296 460480.000000 0 0 1
10.504438 -21.165689 -11.377558 26.225530 -1.110117 2.019541 0.022278 -0.003214 -175604.000000 0 0 1
9.175238 -21.082689 -11.864558 25.873394 -1.160316 2.047173 0.014399 -0.001975 366156.000000 0 0 1
8.127838 -21.585389 -10.845158 25.487413 -1.210673 2.010322 0.014463 -0.000291 -209718.000000 0 0 1
8.203038 -22.970989 -10.621858 26.604136 -1.227807 1.981501 0.026636 -0.009614 -12313.800000 0 0 1
7.271738 -23.518789 -9.705058 26.461288 -1.270931 1.946325 0.026279 -0.014199 84278.500000 0 0 1
7.291038 -25.012189 -9.764158 27.822790 -1.287156 1.929372 0.026447 -0.008862 116931.000000 0 0 1
8.541238 -25.560789 -9.434058 28.553601 -1.248307 1.907522 0.023893 0.002232 -487948.000000 0 0 1
8.620438 -26.963979 -9.596458 29.890804 -1.261364 1.897635 0.013668 0.000219 1306860.000000 0 0 1
10.103538 -27.511299 -9.428458 30.787155 -1.218837 1.882044 0.015872 0.005715 1508800.000000 0 0 1
10.600738 -27.489179 -8.069258 30.547398 -1.202736 1.838124 0.021960 0.003236 602391.000000 0 0 1
11.925038 -28.007159 -7.894058 31.447156 -1.168261 1.824537 0.021974 0.009394 474353.000000 0 0 1
12.376438 -28.250879 -6.438858 31.507892 -1.157890 1.776603 0.016528 0.001093 171389.000000 0 0 1
11.808038 -29.354109 -5.668758 32.143869 -1.188342 1.748079 0.019099 -0.001376 -615709.000000 0 0 1
10.456838 -29.382539 -5.384458 31.649194 -1.228887 1.741757 0.024140 -0.003520 -1025140.000000 0 0 1
10.005838 -30.487939 -4.385758 32.386202 -1.253682 1.706634 0.040331 -0.015090 102282.000000 0 0 1
10.128838 -31.882359 -4.699658 33.781133 -1.263186 1.710370 0.039369 -0.012783 -141054.000000 0 0 1
9.276838 -32.273649 -5.757158 34.070413 -1.290899 1.740589 0.036910 -0.012781 190735.000000 0 0 1
9.484838 -33.833639 -6.018458 35.649672 -1.297475 1.740431 0.036736 -0.015722 -304566.000000 0 0 1
9.075438 34.180292 -4.951758 35.709605 1.311268 1.709912 0.036042 -0.017690 -24279.400000 0 0 1
9.357938 32.786006 -5.212258 34.491461 1.292764 1.722495 0.040790 -0.015076 -46773.500000 0 0 1
8.917738 31.832584 -4.086758 33.309774 1.297653 1.693796 0.037192 -0.014815 1496220.000000 0 0 1
7.489238 31.567024 -4.194658 32.713313 1.337854 1.699375 0.026540 -0.012595 830993.000000 0 0 1
7.067138 30.539094 -3.281758 31.517466 1.343387 1.675110 0.011699 -0.012392 -164764.000000 0 0 1
5.598738 30.134374 -3.459858 30.844724 1.387098 1.683203 0.007303 -0.016957 -318947.000000 0 0 1
5.306438 29.455814 -4.700758 30.296871 1.392559 1.726582 0.021359 -0.020415 -13988.200000 0 0 1
5.205938 30.353514 -5.829558 31.343602 1.400939 1.757874 0.005513 -0.019970 -893636.000000 0 0 1
5.453538 29.607064 -7.137158 30.939592 1.388641 1.803573 0.026820 -0.027597 272984.000000 0 0 1
4.485938 28.613064 -7.509458 29.920278 1.415283 1.824491 0.017858 -0.030812 556360.000000 0 0 1
4.977738 27.355084 -7.073458 28.689934 1.390798 1.819913 0.017049 -0.024228 -22030.300000 0 0 1
4.219438 26.169064 -7.688858 27.599676 1.410935 1.853117 0.014556 -0.026612 68103.400000 0 0 1
2.888338 25.931144 -7.279858 27.088062 1.459869 1.842889 0.007457 -0.024199 -243637.000000 0 0 1
1.868038 26.485824 -8.097658 27.758972 1.500383 1.866814 0.014218 -0.025199 193873.000000 0 0 1
1.410738 25.744514 -9.333158 27.420395 1.516053 1.918110 0.031232 -0.028530 -82683.200000 0 0 1
2.493938 25.581324 -10.279758 27.682076 1.473613 1.951260 0.022451 -0.023434 539436.000000 0 0 1
2.242138 24.801724 -11.430258 27.400794 1.480639 2.001104 0.034660 -0.023065 -621524.000000 0 0 1
2.013538 23.265524 -11.215358 25.906046 1.484465 2.018531 0.048138 -0.018373 313632.000000 0 0 1
0.811238 23.005224 -10.494258 25.298773 1.535548 1.998534 0.056567 -0.016408 57170.000000 0 0 1
0.711638 21.608724 -10.283658 23.941534 1.537875 2.014771 0.026799 -0.011093 -610263.000000 0 1 0
-0.369162 21.286224 -9.255258 23.214208 -1.553455 1.980884 0.042334 -0.002679 278345.000000 0 1 0
-1.649362 21.391024 -9.899758 23.628405 -1.493843 2.003115 0.048927 -0.007821 83152.100000 0 1 0
-2.640962 20.782324 -9.087258 22.835454 -1.444396 1.980072 0.037495 -0.002317 774234.000000 0 1 0
-4.077862 20.922824 -9.723058 23.429285 -1.378309 1.998735 0.048848 -0.004643 321548.000000 0 1 0
-4.984462 20.147224 -9.046158 22.640417 -1.328264 1.981831 0.029981 -0.009159 -973899.000000 0 1 0
-5.807562 19.476424 -9.921958 22.616457 -1.281006 2.024954 0.024221 -0.017078 -1289970.000000 0 1 0
-6.571862 18.279524 -9.294158 21.533968 -1.225665 2.017067 0.022879 -0.019024 -219751.000000 0 1 0
-7.706062 18.635424 -8.551858 21.904263 -1.178692 1.971884 0.038821 -0.017416 -672104.000000 0 1 0
-8.838462 18.870024 -9.345058 22.836951 -1.132758 1.992382 0.033078 -0.024013 -1247730.000000 0 1 0
-9.986362 19.230424 -8.407858 23.242821 -1.091828 1.940930 0.039666 -0.025766 -365839.000000 0 1 0
-10.326362 18.088924 -7.634558 22.183990 -1.052074 1.922127 0.036405 -0.020785 -605248.000000 0 1 0
-11.204062 18.416224 -6.605158 22.545874 -1.024238 1.868123 0.038682 -0.016030 -443740.000000 0 1 0
-11.573362 17.182824 -5.729258 21.494571 -0.978049 1.840602 0.021160 -0.017150 -114104.000000 0 1 0
-12.469062 17.454224 -4.664458 21.951871 -0.950480 1.784914 0.031814 -0.018145 -73220.500000 0 1 0
-13.011062 16.270324 -4.228758 21.257789 -0.896250 1.771060 0.028920 -0.015867 139849.000000 0 1 0
-14.300562 16.603124 -3.388158 22.173169 -0.859768 1.724202 0.022555 -0.020096 490814.000000 0 1 0
-15.511962 16.667224 -4.097358 23.134513 -0.821284 1.748846 0.047905 -0.029182 57311.900000 0 1 0
-16.612562 17.026624 -3.269658 24.011952 -0.797706 1.707389 0.053760 -0.027621 -230470.000000 0 1 0
-17.842862 17.201524 -4.147658 25.128932 -0.767099 1.736610 0.061709 -0.033484 -807858.000000 0 0 1
-17.719762 18.350724 -5.043458 26.003375 -0.802889 1.765987 0.057691 -0.033092 25871.700000 0 0 1
-18.918662 18.605724 -5.744158 27.149293 -0.777059 1.783984 0.054830 -0.027308 38501.700000 0 0 1
-18.800762 19.692024 -6.886158 28.083156 -0.808548 1.818529 0.047794 -0.015613 56461.600000 0 0 1
-18.446262 21.021424 -6.428358 28.696492 -0.850553 1.796725 0.044508 -0.020487 270127.000000 0 0 1
-18.614262 21.901124 -7.553158 29.718685 -0.866347 1.827770 0.033876 -0.009602 -2994.710000 0 0 1
-18.621562 23.423024 -7.109358 30.756197 -0.899105 1.804058 0.040197 -0.016175 -562181.000000 0 0 1
-17.363862 23.935204 -6.832058 30.349213 -0.943191 1.797857 0.038726 -0.012138 -607888.000000 0 0 1
-17.303562 24.460234 -5.516258 30.465480 -0.955110 1.752866 0.040777 -0.021260 -953405.000000 0 0 1
-15.947162 24.908424 -5.060458 30.005830 -1.001319 1.740255 0.030579 -0.015750 -1404060.000000 0 0 1
-16.033762 25.667174 -3.878258 30.511084 -1.012427 1.698251 0.027314 -0.013818 229419.000000 0 0 1
-14.839962 26.336904 -3.489558 30.430807 -1.057673 1.685721 0.030897 -0.014726 353096.000000 0 0 1
-14.274362 27.381824 -4.448458 31.197925 -1.090248 1.713872 0.032704 -0.008589 -313947.000000 0 0 1
-15.094262 28.524884 -4.465358 32.579828 -1.084093 1.708288 0.032177 -0.009118 -565505.000000 0 0 1
-14.420762 29.588904 -4.945958 33.285495 -1.117303 1.719941 0.031323 -0.004315 -868441.000000 0 0 1
-14.985662 30.981814 -4.559458 34.716445 -1.120280 1.702511 0.024375 -0.003570 115909.000000 0 0 1
-16.169662 31.377394 -5.219058 35.682453 -1.094961 1.717587 0.035259 -0.000545 130255.000000 0 0 1
-16.929662 32.307734 -4.468858 36.747433 -1.088124 1.692708 0.040346 -0.004855 141295.000000 0 0 1
12.168038 -8.682789 18.790045 24.010784 -0.619778 0.672018 0.032187 -0.007871 -854913.000000 0 1 0
12.430238 -9.947589 19.249645 24.980276 -0.674908 0.691024 0.037666 -0.012202 13426.900000 0 1 0
12.990938 -10.788289 18.224745 24.845381 -0.693033 0.747300 0.042762 -0.013872 -81614.700000 0 1 0
13.339238 -12.154889 18.840045 26.088769 -0.738976 0.763889 0.058153 -0.027255 42801.900000 0 0 1
14.515838 -12.039189 19.655845 27.239748 -0.692402 0.764705 0.049160 -0.027673 697288.000000 0 0 1
14.738338 -13.298289 20.297445 28.391008 -0.734080 0.774279 0.047038 -0.027919 270949.000000 0 0 1
15.526638 -14.405889 19.467345 28.767753 -0.747973 0.827515 0.036193 -0.024504 136706.000000 0 0 1
14.740438 -14.772889 18.343645 27.785033 -0.786498 0.849713 0.042198 -0.028096 555124.000000 0 0 1
15.362438 -15.875689 17.735945 28.330297 -0.801827 0.894330 0.040766 -0.026658 -183300.000000 0 0 1
14.898338 -16.142789 16.260145 27.330247 -0.825467 0.933592 0.038248 -0.027266 835748.000000 0 0 1
13.524338 -16.579889 16.235145 26.858525 -0.886551 0.921697 0.073470 -0.034803 833652.000000 0 0 1
12.923838 -16.251889 15.004245 25.617901 -0.898976 0.945061 0.082934 -0.038790 -68297.800000 0 0 1
12.224738 -17.470989 14.417345 25.739843 -0.960261 0.976268 0.055974 -0.023797 434678.000000 0 0 1
13.245438 -18.372189 13.979445 26.615857 -0.946148 1.017811 0.046473 -0.018468 825757.000000 0 0 1
12.628938 -19.598389 13.622145 27.002773 -0.998377 1.042026 0.046083 -0.023045 -151997.000000 0 0 1
13.591038 -20.589589 12.953245 27.864566 -0.987359 1.087315 0.047562 -0.022220 -235901.000000 0 0 1
14.429338 -21.132389 13.946945 29.142768 -0.971703 1.071767 0.025410 -0.019458 -262942.000000 0 0 1
14.928638 -22.374889 13.406845 30.054008 -0.982421 1.108403 0.019190 -0.021079 -189091.000000 0 0 1
15.603638 -23.240989 14.487145 31.519747 -0.979535 1.093228 0.007304 -0.018989 -80936.900000 0 0 1
16.785538 -22.671989 15.021245 31.959524 -0.933490 1.081496 -0.010352 -0.015458 454.421000 0 0 1
17.355138 -23.412889 16.085445 33.288222 -0.932910 1.066471 -0.008193 -0.016790 -468113.000000 0 0 1
18.777438 -23.021189 16.443445 33.955179 -0.886580 1.065269 0.008665 -0.010574 -175345.000000 0 0 1
19.781438 -23.360189 15.512345 34.316710 -0.868162 1.101751 0.008079 -0.028695 -1009690.000000 0 0 1
21.011038 -22.803089 15.749545 34.777762 -0.826277 1.100823 0.015257 -0.020131 -463376.000000 0 0 1
22.193438 -23.499589 15.016845 35.641058 -0.813976 1.135879 0.008421 -0.025022 146291.000000 0 0 1
22.340638 -24.800389 15.540945 36.819619 -0.837529 1.135054 0.009395 -0.024139 165749.000000 0 0 1
23.442038 -25.406539 14.878145 37.634832 -0.825593 1.164370 0.010399 -0.025197 94390.400000 0 0 1
24.018438 -26.516049 15.793245 39.107708 -0.834782 1.155086 0.018794 -0.018895 -670557.000000 0 0 1
24.545338 -26.103929 17.021645 39.668944 -0.816161 1.127309 0.018440 -0.008880 -41960.200000 0 0 1
24.816638 -27.127689 17.933345 40.906991 -0.829860 1.116986 0.017512 0.000405 -33425.100000 0 0 1
25.444438 -26.659139 19.252845 41.578855 -0.808707 1.089370 0.010686 -0.000240 492894.000000 0 0 1
24.551038 -25.760169 19.956945 40.799748 -0.809427 1.059688 0.012727 -0.003614 628939.000000 0 0 1
24.894738 -25.773509 21.304945 41.688397 -0.802740 1.034388 0.007304 0.007460 -54910.700000 0 0 1
23.628438 -25.837499 22.182245 41.447936 -0.830027 1.006072 0.004963 0.003238 183256.000000 0 0 1
23.162038 -27.195509 22.222045 42.070120 -0.865324 1.014300 0.004970 0.002987 444892.000000 0 0 1
22.080238 -27.406599 23.146645 42.123933 -0.892617 0.989044 0.010592 0.000946 397192.000000 0 0 1
21.654938 -28.845139 23.212045 42.892627 -0.926828 0.998973 0.033930 -0.001981 168864.000000 0 0 1
22.682338 -29.701809 23.740435 44.275209 -0.918605 1.004866 0.026926 -0.008823 663565.000000 0 0 1
22.432438 -31.037429 23.435245 44.897071 -0.944962 1.021629 0.036166 -0.011215 -669743.000000 0 0 1
23.528338 -31.966269 23.905285 46.334519 -0.936292 1.028705 0.004241 0.001037 -617110.000000 0 0 1
23.496338 -32.207849 25.259235 47.195894 -0.940530 1.006052 0.005023 0.000683 896711.000000 0 0 1
24.731038 -32.716879 25.792585 48.448693 -0.923523 1.009400 0.032217 -0.004642 -89143.600000 0 0 1
24.426738 -33.108399 27.288425 49.370940 -0.935162 0.985169 0.026144 -0.012578 215326.000000 0 0 1
23.681938 -34.273724 27.627545 49.988034 -0.966160 0.985216 0.005325 0.002617 347112.000000 0 0 1
22.355038 -34.235909 27.119905 49.064594 -0.992336 0.985149 0.006751 0.004754 -277306.000000 0 0 1
21.448438 33.435823 27.671945 48.412047 1.000433 0.962351 0.040849 -0.013155 9357.300000 0 0 1
21.056038 33.675549 29.011405 49.183950 1.012009 0.939917 0.030248 -0.001885 289918.000000 0 0 1
20.344138 32.512894 29.476855 48.372071 1.011676 0.915521 0.031258 -0.012460 182327.000000 0 0 1
19.879238 32.524664 30.927055 49.086868 1.022179 0.889182 0.020512 -0.014746 -744379.000000 0 0 1
20.952338 32.476214 31.796915 50.047465 0.997831 0.882354 0.012013 0.001111 -582814.000000 0 0 1
20.622738 32.744774 33.120250 50.935925 1.008751 0.862904 0.004399 -0.000320 -741577.000000 0 0 1
21.770138 32.725984 34.123520 52.051355 0.983793 0.855854 0.005359 0.014017 -406942.000000 0 0 1
22.278938 31.404984 34.218489 51.512417 0.953784 0.844271 0.014145 0.009260 148956.000000 0 0 1
23.422338 31.408814 -33.695448 51.676908 0.930037 2.281069 0.020075 0.013816 107226.000000 0 0 1
23.833338 29.940194 -33.350168 50.760979 0.898480 2.287634 0.033266 -0.002267 -398423.000000 0 0 1
24.316838 29.170554 34.336537 51.197926 0.875895 0.835695 0.040285 -0.002262 -118435.000000 0 0 1
23.556438 28.082674 33.899901 49.927404 0.872826 0.824419 0.031968 -0.008546 -627113.000000 0 0 1
24.016738 27.465704 32.588195 48.919925 0.852291 0.841757 0.048363 -0.015191 -154117.000000 0 0 1
25.320538 26.940094 32.697010 49.355777 0.816378 0.846677 0.035380 -0.015174 189346.000000 0 0 1
25.440838 25.850234 31.785405 48.226370 0.793380 0.851191 0.049877 -0.021679 1175.810000 0 0 1
26.821138 25.129484 31.822895 48.616469 0.752847 0.857182 0.035588 -0.012685 200832.000000 0 0 1
27.054038 24.287244 32.961889 49.074202 0.731560 0.834330 0.052539 -0.016296 247878.000000 0 0 1
27.376038 24.992774 34.162571 50.409994 0.739920 0.826174 0.045183 -0.020234 -972808.000000 0 0 1
27.147238 24.145254 -33.301368 49.284348 0.726938 2.312708 0.036319 -0.019296 1040650.000000 0 0 1
25.865938 24.370194 -32.629318 48.245472 0.755633 2.313550 0.031057 -0.019775 1440140.000000 0 0 1
24.739538 23.769424 -33.231668 47.763732 0.765402 2.340261 0.040231 -0.021871 -355722.000000 0 0 1
24.648338 22.200324 -33.276708 46.986533 0.733192 2.357767 0.031924 -0.019959 -693893.000000 0 0 1
24.383538 21.702724 -32.005878 45.715877 0.727294 2.346340 0.015847 -0.025408 280702.000000 0 0 1
24.332738 20.298024 -32.039018 45.062075 0.695241 2.361712 0.018122 -0.019654 -302603.000000 0 0 1
24.199938 19.625124 -30.636188 43.696207 0.681387 2.347760 0.024641 -0.017166 506050.000000 0 0 1
22.938138 19.845824 -29.980358 42.647823 0.713246 2.350368 0.021896 -0.018504 705967.000000 0 0 1
22.917438 19.240424 -28.727718 41.481137 0.698398 2.335813 0.024186 -0.017453 -252537.000000 0 0 1
21.688738 19.613324 -27.898718 40.415620 0.735191 2.332694 0.037402 -0.024610 -327339.000000 0 0 1
21.614738 19.161124 -26.614688 39.277057 0.725297 2.315310 0.045288 -0.019856 131632.000000 0 0 1
22.533638 19.711924 -25.660898 39.431035 0.718704 2.279407 0.041615 -0.020406 103690.000000 0 0 1
22.626538 18.908224 -24.346358 38.239068 0.696113 2.260992 0.052387 -0.014919 -277733.000000 0 0 1
23.177738 17.642924 -24.567958 38.105969 0.650631 2.271463 0.052476 -0.022798 151765.000000 0 0 1
23.294138 16.945924 -23.335958 37.072202 0.628929 2.251671 0.053062 -0.019813 -251829.000000 0 0 1
24.089938 15.598124 -23.443758 37.057204 0.574613 2.255750 0.050820 -0.024585 -306532.000000 0 0 1
25.453038 15.824424 -23.750558 38.240797 0.556230 2.240915 0.053508 -0.026531 363930.000000 0 0 1
26.300238 14.675524 -23.730758 38.343480 0.508964 2.238137 0.051647 -0.025876 38451.800000 0 0 1
26.483138 13.963424 -22.349758 37.361016 0.485215 2.212063 0.046105 -0.022316 -1588880.000000 0 0 1
25.462238 13.072024 -22.162158 36.198959 0.474301 2.229677 0.041540 -0.017826 -693136.000000 0 0 1
25.273338 12.809624 -20.776058 35.135064 0.469107 2.203491 0.028541 -0.028104 139179.000000 0 0 1
23.852338 12.197224 -20.555958 33.767643 0.472697 2.225277 0.017348 -0.013278 301563.000000 0 0 1
22.882638 13.206624 -20.686258 33.555198 0.523446 2.235066 0.033014 -0.017448 810392.000000 0 0 1
21.619838 12.651924 -21.184958 32.806875 0.529466 2.272798 0.037059 -0.014469 1442380.000000 0 0 1
20.471738 13.678024 -21.159758 32.464069 0.589023 2.280739 0.050313 -0.016124 -715468.000000 0 0 1
20.820638 14.857124 -21.880858 33.660141 0.619780 2.278450 0.051830 -0.015096 310922.000000 0 0 1
19.849238 15.874324 -22.049658 33.647791 0.674585 2.285386 0.050561 -0.015100 608052.000000 0 0 1
18.483438 15.595024 -22.779558 33.222741 0.700843 2.326309 0.045488 -0.001935 138302.000000 0 0 1
17.536538 14.902524 -22.025458 31.854924 0.704377 2.334263 0.038021 -0.004820 480004.000000 0 0 1
16.315438 14.889224 -22.792858 31.739517 0.739725 2.371897 0.035916 -0.011355 240669.000000 0 0 1
15.173238 14.106524 -22.152258 30.330574 0.748983 2.389646 0.014271 -0.003271 481.480000 0 0 1
13.963138 14.377724 -22.841758 30.388059 0.800026 2.421385 0.020018 -0.003151 -136207.000000 0 0 1
12.842438 13.679824 -22.335858 29.171157 0.816961 2.442899 0.032460 -0.004558 58351.500000 0 0 1
11.588938 14.123524 -23.119558 29.466785 0.883655 2.472843 0.027606 0.000605 -263900.000000 0 0 1
11.323938 15.538024 -23.089258 30.046225 0.941009 2.447224 0.007930 -0.002430 -5177.170000 0 0 1
10.957438 16.005424 -24.358758 31.138211 0.970476 2.469112 0.008254 -0.007373 -721035.000000 0 0 1
11.017938 17.548724 -24.430658 32.034509 1.010151 2.438174 -0.001342 0.004442 588564.000000 0 0 1
12.302438 18.174024 -24.300958 32.744186 0.975726 2.407063 -0.001933 -0.000319 498450.000000 0 0 1
13.282238 17.839724 -25.286528 33.676136 0.930804 2.420180 0.006537 -0.009074 -209957.000000 0 0 1
13.122838 18.484124 -26.676368 35.007147 0.953422 2.437233 -0.000650 -0.023592 -531068.000000 0 0 1
14.079938 18.075524 -27.609078 35.877994 0.909023 2.448896 0.003700 -0.021495 -179730.000000 0 0 1
13.448038 17.659124 -28.810088 36.369157 0.919954 2.485132 0.004680 -0.021737 203013.000000 0 0 1
14.440138 17.813524 -30.005838 37.764925 0.889609 2.489050 0.011007 -0.021165 576633.000000 0 0 1
15.605738 17.000824 -29.930588 37.794275 0.828158 2.484767 0.000830 -0.021075 -100328.000000 0 0 1
16.122138 16.825824 -31.217368 38.955818 0.806752 2.500350 0.006789 -0.019876 -272338.000000 0 0 1
17.443038 16.048324 -31.203868 39.185325 0.743778 2.491975 0.009429 -0.014424 -613650.000000 0 0 1
18.527538 16.658724 -30.589738 39.452691 0.732336 2.458069 0.015916 -0.018567 -957183.000000 0 0 1
19.683138 15.891224 -30.617778 39.716562 0.679208 2.451060 0.020626 -0.011776 28443.800000 0 0 1
20.874638 16.687224 -31.251328 41.120062 0.674376 2.434112 0.025764 -0.013372 117993.000000 0 0 1
20.637338 17.089824 -32.609088 42.205621 0.691643 2.453761 0.018688 -0.016783 -66279.500000 0 0 1
21.723738 17.819824 -33.099798 43.417319 0.686993 2.437754 0.024361 -0.010996 -457417.000000 0 0 1
21.611538 18.275024 34.169061 44.368455 0.701942 0.691766 0.018571 -0.000156 531780.000000 0 0 1
22.685438 19.184124 33.820480 45.016492 0.701968 0.720780 0.023841 0.004036 763668.000000 0 0 1
22.765438 19.418524 32.453455 44.142621 0.706223 0.744841 0.025293 0.001959 -419370.000000 0 0 1
23.695138 20.587524 32.093775 44.892272 0.715336 0.774306 0.034500 -0.000140 1590750.000000 0 0 1
25.115538 20.281424 32.232855 45.618892 0.679313 0.786160 0.024149 -0.003807 1313930.000000 0 0 1
25.908338 21.464824 32.068845 46.480011 0.691874 0.809378 0.028541 -0.011039 446674.000000 0 0 1
27.409938 21.126924 31.887175 47.057874 0.656666 0.826280 0.044696 -0.005599 135017.000000 0 0 1
27.931738 20.482024 33.069942 47.888583 0.632720 0.808533 0.028333 -0.011288 675978.000000 0 0 1
29.353438 20.322924 32.930746 48.570357 0.605575 0.825757 0.019421 -0.007521 825921.000000 0 0 1
29.888338 19.494724 34.130273 49.378462 0.577957 0.807651 0.016433 -0.004173 -299016.000000 0 0 1
29.988938 20.196624 -33.360068 49.194859 0.592697 2.315999 0.012886 -0.013625 364964.000000 0 0 1
28.781938 20.440724 -32.647978 48.084443 0.617534 2.317157 0.013820 -0.015990 286985.000000 0 0 1
29.203438 20.794024 -31.161108 47.499968 0.618761 2.286335 0.020556 -0.024712 183354.000000 0 0 1
30.030338 19.800424 -30.593868 47.221423 0.582918 2.275596 0.019161 -0.026483 -203017.000000 0 0 1
30.547238 20.216124 -29.358808 46.944276 0.584625 2.246437 0.012021 -0.022626 934096.000000 0 0 1
32.031738 19.707924 -29.176788 47.599575 0.551566 2.230602 0.035678 -0.016228 1485470.000000 0 0 1
32.991138 20.304024 -30.068918 49.038846 0.551694 2.230858 0.021224 -0.019760 1172640.000000 0 0 1
34.320038 20.340224 -29.492468 49.612452 0.535007 2.207387 0.032333 -0.011738 1218780.000000 0 0 1
35.373938 21.087224 -30.338688 51.150978 0.537564 2.205725 0.035584 -0.013524 248240.000000 0 0 1
-35.480762 20.441824 -31.494508 51.659043 -0.522689 2.226429 0.030554 -0.019180 712851.000000 0 0 1
-34.304162 21.196724 -31.880018 51.404399 -0.553481 2.239769 0.028457 -0.018681 658787.000000 0 0 1
-33.461962 20.511824 -32.976108 51.262672 -0.549916 2.269567 0.028653 -0.020412 -205557.000000 0 0 1
-32.556762 19.578224 -32.433298 49.951661 -0.541416 2.277452 0.031996 -0.015654 -263021.000000 0 0 1
-31.817462 19.002224 -33.441938 49.917919 -0.538378 2.304922 0.032799 -0.010769 -590957.000000 0 0 1
-30.974162 17.817224 -32.977908 48.625041 -0.522006 2.316118 0.023543 -0.003663 -244261.000000 0 0 1
-31.723962 16.688624 -32.574078 48.435426 -0.484276 2.308413 0.024906 -0.003479 -1790.050000 0 0 1
-31.295362 15.490024 -33.241098 48.211110 -0.459609 2.331582 0.020286 -0.001040 -152780.000000 0 0 1
-32.415262 14.456224 -33.254968 48.637687 -0.419497 2.323656 0.021743 -0.001794 -86633.500000 0 0 1
-31.933262 13.210524 -33.764508 48.314524 -0.392254 2.344582 0.021919 -0.001024 351116.000000 0 0 1
-32.998762 12.281424 -33.869378 48.855772 -0.356295 2.336788 0.016741 -0.000024 122850.000000 0 0 1
-32.538962 10.792824 -33.815988 48.153818 -0.320270 2.349348 0.019888 -0.001434 202422.000000 0 0 1
-31.766262 10.360824 33.826218 47.546347 -0.315279 0.779256 0.009365 0.000676 327820.000000 0 0 1
-32.182562 9.024524 33.547108 47.355757 -0.273395 0.783559 0.029189 -0.006336 -437682.000000 0 0 1
-31.333862 8.345124 32.513735 45.919440 -0.260287 0.784049 0.038783 -0.005798 -340459.000000 0 0 1
-30.092462 8.003024 33.099570 45.444319 -0.259931 0.754879 0.023503 0.003658 164841.000000 0 0 1
-29.199462 7.543424 32.060875 44.016037 -0.252814 0.754826 0.033563 -0.000495 364444.000000 0 0 1
19.898638 -3.954689 -31.553098 37.512576 -0.196185 2.570173 0.030785 -0.027027 646464.000000 0 0 1
21.168438 -4.247589 -32.182408 38.753738 -0.198027 2.550682 0.039635 -0.029442 1579650.000000 0 0 1
22.273338 -3.362789 -31.882468 39.037184 -0.149847 2.526501 0.027582 -0.026997 850806.000000 0 0 1
22.248238 -1.903589 -32.427668 39.372089 -0.085353 2.538562 0.030552 -0.024958 -288810.000000 0 0 1
23.338838 -1.185689 -31.878448 39.526481 -0.050760 2.509019 0.029437 -0.029449 103251.000000 0 0 1
23.125838 0.118711 -32.203668 39.647128 0.005133 2.518808 0.027440 -0.024791 -134219.000000 0 0 1
24.168138 1.174211 -31.776738 39.940440 0.048547 2.490799 0.017332 -0.017262 50369.200000 0 0 1
25.422038 1.090411 -32.425968 41.217865 0.042866 2.476236 0.018000 -0.021210 -79972.300000 0 0 1
26.372038 1.867011 -31.722388 41.295037 0.070677 2.446804 0.015361 -0.014275 889278.000000 0 0 1
27.882738 1.773011 -32.137368 42.584047 0.063503 2.425964 0.010569 -0.018847 673327.000000 0 0 1
28.180738 2.417511 -33.351808 43.730327 0.085576 2.438228 0.010012 -0.017268 -103338.000000 0 0 1
28.230338 1.518511 34.304706 44.453017 0.053738 0.689275 0.005078 -0.019558 -580024.000000 0 0 1
28.771138 2.193711 33.035321 43.862548 0.076100 0.717951 -0.002883 -0.021038 -105717.000000 0 0 1
27.849638 3.143811 32.526515 42.935533 0.112409 0.711220 -0.006308 -0.011675 322409.000000 0 0 1
28.238338 4.515711 32.662645 43.412484 0.158572 0.719130 0.010859 -0.004369 -337564.000000 0 0 1
27.372138 5.394411 31.809095 42.310189 0.194583 0.719998 0.011607 -0.005153 -437788.000000 0 0 1
27.853438 6.667711 31.886875 42.860765 0.234964 0.731813 0.031959 -0.013390 -437006.000000 0 0 1
27.125238 7.544811 31.148025 41.986928 0.271290 0.734971 0.025515 -0.010516 -580654.000000 0 0 1
27.400338 9.025611 31.552725 42.752948 0.318204 0.740658 0.024669 -0.010759 -332168.000000 0 0 1
28.626838 9.502611 31.103485 43.326923 0.320503 0.770046 0.031207 -0.019116 -649914.000000 0 0 1
29.022838 10.637411 31.765795 44.323192 0.351314 0.771758 0.029787 -0.017421 -24667.400000 0 0 1
30.392438 11.183911 31.322255 45.054010 0.352605 0.802076 0.031469 -0.008825 -26903.000000 0 0 1
31.574238 10.613011 31.883545 46.109965 0.324264 0.807278 0.028018 -0.014966 764270.000000 0 0 1
32.784738 11.009811 31.272855 46.626671 0.323988 0.835634 0.031613 -0.008467 219829.000000 0 0 1
33.258438 12.482511 31.381765 47.399915 0.359050 0.847227 0.035228 -0.004523 -886612.000000 0 0 1
33.514338 12.811411 32.743257 48.574314 0.365126 0.831070 0.036760 -0.006391 249523.000000 0 0 1
33.941038 14.132911 32.990559 49.397471 0.394560 0.839467 0.041548 0.001810 29344.200000 0 0 1
32.829138 15.186211 32.792482 48.823357 0.433269 0.834355 0.040639 -0.004712 -734457.000000 0 0 1
32.430538 15.348811 31.410685 47.686024 0.442046 0.851709 0.039612 -0.005791 -48614.000000 0 0 1
31.400338 16.289311 31.368245 47.278850 0.478545 0.845345 0.039151 -0.004675 361389.000000 0 0 1
29.944138 15.846511 31.707385 46.401741 0.486736 0.818492 0.026991 -0.000854 -47831.000000 0 0 1
29.242838 15.126411 30.684415 45.005391 0.477367 0.820584 0.030736 0.006393 606507.000000 0 0 1
28.064838 14.538211 31.279605 44.468060 0.477961 0.790602 0.020505 0.011644 945243.000000 0 0 1
27.111838 13.818811 30.253425 42.910150 0.471375 0.788315 0.018095 0.009894 319253.000000 0 0 1
27.691438 12.725611 29.562885 42.458463 0.430768 0.800598 0.028140 0.001112 342267.000000 0 0 1
26.874038 12.393711 28.412695 41.025592 0.432110 0.805764 0.021825 -0.010987 64716.500000 0 0 1
26.696238 10.875911 28.149155 40.290811 0.386865 0.797288 0.021465 -0.004281 -83796.900000 0 0 1
27.787038 10.209811 27.536815 40.430630 0.352118 0.821549 0.029744 -0.008766 185176.000000 0 0 1
27.395538 8.843211 27.288035 39.665536 0.312239 0.812131 0.028298 -0.013580 66346.500000 0 0 1
28.542238 7.988311 26.737715 39.917137 0.272894 0.836816 0.030856 -0.016211 115689.000000 0 0 1
29.051738 8.353011 25.415995 39.493658 0.279970 0.871674 0.034272 -0.009574 235965.000000 0 0 1
30.201238 7.605111 25.110625 40.006199 0.246686 0.892242 0.038984 -0.003826 98512.400000 0 0 1
30.926338 7.989011 23.775715 39.818931 0.252797 0.930921 0.042851 -0.005627 -107490.000000 0 0 1
31.431338 9.309011 23.689145 40.444558 0.287939 0.945030 0.040165 -0.009929 503806.000000 0 0 1
30.595538 10.409011 23.181745 39.772198 0.327930 0.948549 0.047895 -0.013413 220918.000000 0 0 1
29.996838 10.441111 21.753745 38.497435 0.334958 0.970278 0.037365 0.003620 249719.000000 0 0 1
30.981938 10.287611 20.731945 38.672069 0.320597 1.004991 0.039735 -0.012158 293807.000000 0 0 1
30.390938 10.267111 19.451345 37.515030 0.325796 1.025707 0.039815 -0.010411 -819545.000000 0 0 1
31.268138 10.957911 18.311445 37.856060 0.337075 1.065905 0.045861 -0.034756 454087.000000 0 0 1
32.389238 10.290311 17.786445 38.357670 0.307622 1.088630 0.046245 -0.030779 -273780.000000 0 0 1
33.405738 10.200711 18.734045 39.635366 0.296365 1.078490 0.059060 -0.022118 -1516770.000000 0 0 1
34.724638 9.530411 18.317545 40.400020 0.267861 1.100215 0.073891 -0.030712 -420049.000000 0 0 1
34.743038 8.150711 18.026345 39.980769 0.230433 1.103050 0.072589 -0.025909 -3404.930000 0 0 1
-35.514562 7.633211 17.385145 40.271494 -0.211711 1.124421 0.073187 -0.016933 -479029.000000 0 0 1
-35.548562 6.083311 17.201245 39.957349 -0.169485 1.125761 0.067729 -0.014244 -598015.000000 0 0 1
34.688038 5.769011 16.507645 38.846413 0.164803 1.131894 0.047499 -0.007108 -161995.000000 0 0 1
34.746438 4.566011 15.777445 38.432944 0.130661 1.147773 0.044819 -0.005010 550317.000000 0 0 1
33.430138 3.748011 16.018145 37.258592 0.111648 1.126394 0.039527 -0.009556 404095.000000 0 0 1
33.536738 3.090611 17.263845 37.845806 0.091896 1.097118 0.051814 0.001712 468322.000000 0 0 1
32.327138 2.561711 17.808445 36.996580 0.079078 1.068598 0.039828 0.004811 254187.000000 0 0 1
32.529038 1.625411 19.003545 37.708288 0.049926 1.042617 0.035016 0.001991 7791.120000 0 0 1
33.190238 0.393511 18.785445 38.139739 0.011856 1.055787 0.041013 0.007437 80879.100000 0 0 1
33.253238 -0.256889 20.036145 38.823845 -0.007725 1.028530 0.043908 -0.002021 149901.000000 0 0 1
33.735738 -1.685389 19.977845 39.243532 -0.049917 1.036688 0.050497 -0.002742 62541.700000 0 0 1
33.481738 -2.367289 21.173245 39.685477 -0.070586 1.008032 0.075234 -0.002319 140649.000000 0 0 1
33.841038 -3.708689 20.925145 39.960379 -0.109156 1.019670 0.049334 -0.001854 -235376.000000 0 0 1
33.350438 -4.666889 22.014745 40.232829 -0.139032 0.991801 0.058246 -0.000515 -213569.000000 0 0 1
33.932438 -4.388389 23.280045 41.383919 -0.128613 0.973343 0.056900 -0.003093 306464.000000 0 0 1
33.314338 -4.961989 24.414485 41.599682 -0.147858 0.943583 0.056816 -0.016365 -162161.000000 0 0 1
33.577538 -4.082889 25.664325 42.459140 -0.121002 0.921724 0.035948 -0.014393 -281631.000000 0 0 1
32.712238 -4.293889 26.747215 42.472832 -0.130516 0.889567 0.050770 -0.012758 -137901.000000 0 0 1
32.965438 -3.519289 27.844335 43.294485 -0.106354 0.872207 0.041604 -0.016496 -8410.080000 0 0 1
32.112738 -3.908289 29.080865 43.499418 -0.121110 0.838560 0.044990 -0.023202 117904.000000 0 0 1
32.457538 -5.168989 29.614795 44.240776 -0.157928 0.837395 0.046012 -0.017121 175948.000000 0 0 1
31.365638 -5.774289 30.284145 43.980394 -0.182058 0.811263 0.052888 -0.024879 139633.000000 0 0 1
31.602438 -7.323889 30.567475 44.572682 -0.227731 0.815108 0.043678 -0.026078 314000.000000 0 0 1
32.633838 -7.602389 31.513375 45.998440 -0.228878 0.816060 0.040457 -0.021082 -23715.900000 0 0 1
33.310238 -8.757789 31.105335 46.409187 -0.257097 0.836263 0.029846 -0.014100 398534.000000 0 0 1
34.545038 -9.091989 32.006815 47.963112 -0.257356 0.840190 0.034093 -0.005225 549627.000000 0 0 1
34.170538 -9.511589 33.323998 48.668109 -0.271484 0.816578 0.021866 -0.014317 318942.000000 0 0 1
35.334038 -9.657489 34.121105 50.060075 -0.266803 0.820845 0.010259 -0.015317 101763.000000 0 0 1
35.011438 -9.863189 -33.143278 49.209351 -0.274597 2.309751 0.026398 -0.014486 -510711.000000 0 0 1
34.477638 -8.753489 -32.406818 48.119985 -0.248635 2.309674 0.027813 -0.020372 74572.100000 0 0 1
35.239238 -7.596289 -32.225698 48.352902 -0.212315 2.300258 0.011020 -0.012756 -742227.000000 0 0 1
34.628138 -6.650189 -31.248158 47.114545 -0.189736 2.295933 0.026064 -0.013193 -430989.000000 0 0 1
34.938938 -6.849889 -29.887348 46.485524 -0.193598 2.269125 0.019621 -0.006937 279544.000000 0 0 1
34.243038 -5.917089 -29.089768 45.319005 -0.171107 2.267755 0.029599 -0.011882 -94029.900000 0 0 1
34.874238 -5.861389 -27.681938 44.909443 -0.166516 2.234952 0.034379 -0.007441 -719010.000000 0 0 1
-35.261962 -5.324489 -27.646078 45.122741 0.149866 2.230251 0.044077 -0.011203 -1033110.000000 0 0 1
-34.718062 -5.289389 -26.340258 43.899097 0.151190 2.214320 0.045386 -0.008279 86825.900000 0 0 1
-33.360062 -4.565089 -26.271378 42.707366 0.135998 2.233371 0.049722 -0.007529 -836617.000000 0 0 1
-32.935362 -4.266789 -24.957858 41.543209 0.128833 2.215259 0.055330 -0.008718 1045450.000000 0 0 1
-31.534162 -4.271789 -24.615058 40.231240 0.134646 2.229180 0.062299 -0.009915 1204840.000000 0 0 1
-30.672762 -3.187389 -25.332268 39.908666 0.103544 2.258489 0.038131 -0.013607 -561651.000000 0 0 1
-30.473462 -3.579289 -26.671288 40.654653 0.116920 2.286363 0.040569 -0.010440 -129401.000000 0 0 1
-29.583762 -2.760189 -27.395948 40.414794 0.093031 2.315657 0.026014 -0.012654 -34032.900000 0 0 1
-29.194462 -3.381189 -28.799278 41.147873 0.115302 2.346050 0.024489 -0.017228 -160861.000000 0 0 1
-30.247162 -3.430389 -29.736718 42.555033 0.112929 2.344491 0.038042 -0.019345 -3847.310000 0 0 1
-29.840862 -4.275289 -30.784908 43.086723 0.142301 2.366687 0.029330 -0.010235 -764793.000000 0 0 1
-30.972362 -4.511389 -31.819838 44.633417 0.144641 2.364443 0.029267 -0.011667 32940.500000 0 0 1
-31.983562 -5.472589 -31.439978 45.181520 0.169465 2.340412 0.032593 -0.011062 830491.000000 0 0 1
-32.855962 -5.071389 -30.396108 45.046161 0.153144 2.311459 0.041402 -0.018004 -1040510.000000 0 0 1
-34.012362 -4.158489 -30.813408 46.082534 0.121660 2.303197 0.053970 -0.020575 -1129290.000000 0 0 1
-33.684562 -2.852089 -31.374788 46.121161 0.084469 2.318926 0.045064 -0.015778 -25693.800000 0 0 1
-33.079162 -1.914789 -30.479368 45.020987 0.057821 2.314480 0.041642 -0.011503 -21101.100000 0 0 1
-32.616162 -0.562789 -31.120308 45.084414 0.017253 2.332655 0.032925 -0.008572 104477.000000 0 0 1
-33.762562 0.187811 -31.390708 46.101219 -0.005563 2.319799 0.048248 -0.008286 16435.300000 0 0 1
-33.402562 1.240511 -32.263998 46.456814 -0.037121 2.338513 0.051815 -0.008496 622459.000000 0 0 1
-34.645262 2.056611 -32.731758 47.706308 -0.059292 2.326924 0.038792 -0.011280 529431.000000 0 0 1
-35.359862 1.575811 -33.849568 48.975466 -0.044535 2.333880 0.046053 -0.005862 787477.000000 0 0 1
34.838738 2.321211 -34.104137 48.807969 0.066529 2.344433 0.018091 -0.006516 599823.000000 0 0 1
33.953038 1.906111 33.464694 47.710877 0.056081 0.793428 0.020508 -0.005350 -70556.900000 0 0 1
34.410738 2.205811 32.126955 47.128608 0.064015 0.820731 0.022746 -0.001977 -167311.000000 0 0 1
35.597238 1.615411 31.689935 47.686737 0.045349 0.843913 0.024750 -0.005170 -669424.000000 0 0 1
-35.510462 1.844811 30.197495 46.650669 -0.051905 0.866745 0.033738 -0.008675 -219763.000000 0 0 1
-35.186262 3.154511 29.790515 46.211457 -0.089413 0.870222 0.034298 -0.011569 245443.000000 0 0 1
-34.723662 3.143611 28.425115 44.984465 -0.090286 0.886810 0.038659 -0.018649 39577.600000 0 0 1
-34.049762 4.468411 28.058535 44.346751 -0.130486 0.885751 0.044607 -0.012924 -314035.000000 0 0 1
-33.523362 4.586211 26.789445 43.156963 -0.135962 0.901104 0.044467 -0.006848 306021.000000 0 0 1
-32.794262 5.823311 26.727735 42.705343 -0.175739 0.894558 0.047732 -0.000547 60148.500000 0 0 1
-32.018362 6.178011 25.415215 41.343397 -0.190610 0.908747 0.043421 0.000974 32402.700000 0 0 1
-30.735462 5.571711 25.414295 40.269082 -0.179332 0.887811 0.039311 0.003134 463333.000000 0 0 1
-30.033062 5.721411 24.146655 38.958700 -0.188248 0.902307 0.037155 0.002267 230987.000000 0 0 1
-30.684962 5.136211 22.879345 38.618803 -0.165848 0.936711 0.042334 -0.004798 -242612.000000 0 0 1
-30.706862 3.744511 22.760145 38.405168 -0.121345 0.936473 0.036788 0.000973 -297294.000000 0 0 1
-31.292462 3.424211 21.558345 38.153710 -0.108992 0.970315 0.053796 -0.007152 -786011.000000 0 0 1
-31.112262 1.906711 21.196645 37.694909 -0.061208 0.973606 0.046901 -0.001301 -249363.000000 0 0 1
-29.874262 1.491611 20.700745 36.376053 -0.049888 0.965414 0.039219 0.004331 -413918.000000 0 0 1
-29.700462 1.939411 19.391345 35.523274 -0.065206 0.993361 0.043537 0.004426 -208607.000000 0 0 1
-28.464362 1.337711 18.687545 34.076879 -0.046961 0.990354 0.043671 0.007703 -141833.000000 0 0 1
-28.617862 -0.043389 18.503845 34.078970 0.001516 0.996827 0.043114 0.002195 285385.000000 0 0 1
-27.605462 -0.771289 17.792845 32.851815 0.027932 0.998446 0.038222 0.003758 103188.000000 0 0 1
-27.530962 -0.599789 16.277345 31.988522 0.021783 1.036948 0.051649 0.003670 -56863.100000 0 0 1
-26.940262 0.630511 15.958545 31.318531 -0.023400 1.036128 0.053908 0.002211 177459.000000 0 0 1
-26.788762 0.648211 14.548145 30.491088 -0.024192 1.073413 0.058240 -0.000962 -60213.900000 0 0 1
-26.494362 2.024711 13.947045 30.009511 -0.076272 1.087439 0.059419 -0.003253 -343993.000000 0 0 1
-25.210862 2.495211 14.239645 29.061678 -0.098652 1.058729 0.059960 -0.002774 -264280.000000 0 0 1
-24.926362 3.736111 13.596245 28.638085 -0.148778 1.076104 0.060093 -0.001405 -679167.000000 0 0 1
-23.439362 3.985711 13.490545 27.336503 -0.168432 1.054688 0.059076 -0.002212 -691928.000000 0 0 1
-22.694862 4.494211 14.594745 27.354365 -0.195498 1.008012 0.051336 0.001882 -6073.900000 0 0 1
-21.378762 4.727111 14.184845 26.088443 -0.217611 0.995931 0.046724 0.001132 -279137.000000 0 0 1
-20.412062 5.292211 15.251345 26.024283 -0.253683 0.944630 0.025900 0.005909 -268417.000000 0 0 1
-20.686362 6.620611 15.549845 26.712464 -0.309746 0.949463 0.033460 0.005565 610352.000000 0 0 1
-19.984862 7.211211 16.676845 27.009506 -0.346293 0.905308 0.029151 0.003817 -59587.600000 0 0 1
-20.296462 8.674511 16.948845 27.829065 -0.403894 0.915954 0.024895 0.003876 -202254.000000 0 0 1
-19.702562 9.637211 16.038245 27.171530 -0.454918 0.939416 0.026271 0.003537 651976.000000 0 0 1
-20.119262 10.982111 16.226045 28.083376 -0.499652 0.954789 0.028401 0.002364 -312508.000000 0 0 1
-19.439862 11.776611 17.356245 28.597832 -0.544671 0.918632 0.039299 0.000296 -418721.000000 0 0 1
-19.947662 11.420611 18.677345 29.617271 -0.519975 0.888440 0.038282 0.008520 641977.000000 0 0 1
-19.193762 11.889911 19.793545 30.025904 -0.554611 0.851021 0.037901 0.009974 -503511.000000 0 0 1
-12.128762 -33.971003 -20.869158 41.673225 1.227870 2.095297 0.052559 -0.023412 253990.000000 0 0 1
-13.021862 -34.025003 -19.740258 41.436065 1.205279 2.067355 0.071220 -0.018965 669937.000000 0 0 1
-14.148962 -33.147203 -19.884658 41.162238 1.167358 2.074965 0.057558 -0.044359 -136895.000000 0 0 1
-15.356862 -33.682903 -19.145258 41.676277 1.143026 2.048094 0.043381 -0.025749 -1581900.000000 0 0 1
-15.910362 34.026611 -19.838958 42.479809 -1.133415 2.056715 0.026018 -0.032287 -16455.300000 0 0 1
-16.620762 33.123111 -19.024958 41.657403 -1.105720 2.045079 0.031360 -0.025224 388205.000000 0 0 1
-18.005862 33.543111 -18.414658 42.290082 -1.078146 2.021320 0.047298 -0.025587 -163003.000000 0 0 1
-17.956362 -34.337003 -17.279158 42.426761 1.088962 1.990260 0.050201 -0.023171 -967793.000000 0 0 1
-19.223362 -34.191203 -16.786258 42.665612 1.058611 1.975164 0.026216 -0.011180 -1077010.000000 0 0 1
-19.487162 34.045211 -15.407058 42.145027 -1.050925 1.945044 0.036162 -0.020326 -449856.000000 0 0 1
-19.279062 32.654811 -15.242658 40.870008 -1.037473 1.952988 0.032350 -0.024728 257948.000000 0 0 1
-19.846762 32.187511 -14.033958 40.334623 -1.018262 1.926167 0.040234 -0.017696 -326409.000000 0 0 1
-19.838062 30.658511 -13.894258 39.071005 -0.996487 1.934369 0.032756 -0.018420 142073.000000 0 0 1
-18.605662 29.992211 -13.672458 37.850224 -1.015548 1.940378 0.036726 -0.031200 -28355.700000 0 0 1
-18.785762 28.616011 -13.540458 36.812022 -0.989881 1.947468 0.039917 -0.033705 -128922.000000 0 0 1
-17.525362 27.828211 -13.132858 35.412139 -1.008775 1.950729 0.047543 -0.028401 234809.000000 0 0 1
-16.545662 27.749611 -14.144058 35.268318 -1.033140 1.983450 0.055730 -0.026644 -247897.000000 0 0 1
-15.304062 27.209811 -13.792558 34.129500 -1.058448 1.986818 0.063849 -0.035251 704340.000000 0 0 1
-14.066962 27.828511 -14.544958 34.407285 -1.102768 2.007251 0.047553 -0.028109 580726.000000 0 0 1
-14.170262 27.762511 -15.964158 35.020104 -1.098855 2.044131 0.029634 -0.023894 -365961.000000 0 0 1
-13.005462 28.246911 -16.571058 35.236770 -1.139310 2.060401 0.044988 -0.018021 -238802.000000 0 0 1
-12.964262 28.370611 -18.060958 36.043888 -1.142169 2.095645 0.060854 -0.027230 -215163.000000 0 0 1
-12.608362 27.112111 -18.562758 35.193939 -1.135501 2.126383 0.038045 -0.015064 68034.600000 0 0 1
-13.026062 26.930311 -19.907358 35.933589 -1.120277 2.157963 0.030847 -0.019471 -178388.000000 0 0 1
-12.299062 25.699711 -20.534358 35.119823 -1.124441 2.195299 0.020717 -0.016659 329507.000000 0 0 1
-11.118362 26.229711 -21.153858 35.483819 -1.169871 2.209500 0.012735 -0.006342 -229527.000000 0 0 1
-10.269662 25.186311 -21.485758 34.661997 -1.183629 2.239367 0.031609 -0.008562 -196801.000000 0 0 1
-9.133562 25.577811 -22.473258 35.251861 -1.227820 2.262053 0.036837 -0.012576 -121229.000000 0 0 1
-9.410962 25.972011 -23.816658 36.473892 -1.223162 2.282306 0.034596 -0.008994 -287904.000000 0 0 1
-8.266462 26.308211 -24.577658 36.939378 -1.266349 2.298760 0.021844 -0.009458 -346250.000000 0 0 1
-8.599862 26.971111 -25.928388 38.388537 -1.262133 2.312331 0.010471 -0.004561 -739540.000000 0 0 1
-9.451662 26.241211 -26.712908 38.620131 -1.225078 2.334614 0.019612 0.000955 -604381.000000 0 0 1
-9.818962 26.880711 -27.931258 39.989246 -1.220575 2.344053 0.027767 0.005044 -360001.000000 0 0 1
-11.205362 26.541411 -28.476128 40.507981 -1.171313 2.350369 0.013223 0.003894 -174731.000000 0 0 1
-11.585762 27.392111 -29.598498 41.959847 -1.170655 2.353784 0.018264 0.006679 936235.000000 0 0 1
-12.939462 27.023111 -29.947308 42.361769 -1.124228 2.355961 0.015846 0.012922 725746.000000 0 0 1
-13.265662 27.279011 -31.421458 43.674137 -1.118172 2.373810 0.017765 0.004401 -303615.000000 0 0 1
-12.568062 26.622911 -32.469188 43.829029 -1.129736 2.405079 0.018840 0.000698 157188.000000 0 0 1
-12.970262 25.243411 -32.651098 43.261435 -1.096164 2.426053 -0.000089 -0.001695 -98388.700000 0 0 1
-12.069062 24.486411 -33.643628 43.325977 -1.112854 2.459925 0.016628 -0.004223 -158231.000000 0 0 1
-12.355362 24.651011 33.751436 43.583101 -1.106180 0.685005 0.022517 -0.004399 -86756.500000 0 0 1
-11.489062 23.953411 32.843298 42.242711 -1.123567 0.680131 0.026873 -0.011013 -96156.300000 0 0 1
-12.007262 23.974511 31.357115 41.257971 -1.106481 0.707444 0.041645 -0.006738 -199382.000000 0 0 1
-13.179162 23.197111 31.215125 41.063125 -1.054134 0.707215 0.057289 -0.012539 -303740.000000 0 0 1
-13.669462 23.247411 29.906715 40.270434 -1.039248 0.733782 0.070571 -0.009616 -1373960.000000 0 0 1
-15.060162 22.703911 29.895055 40.447377 -0.985108 0.739048 0.051134 -0.007260 -1172080.000000 0 0 1
-15.204762 21.349311 30.310525 40.071259 -0.951936 0.712981 0.057236 -0.020032 -403148.000000 0 0 1
-16.470662 20.809311 30.017475 40.066930 -0.901257 0.723968 0.046816 -0.020744 28321.300000 0 0 1
-16.436362 19.258911 30.298665 39.485044 -0.864307 0.696105 0.063444 -0.031013 122724.000000 0 0 1
-15.894662 18.559711 29.195275 38.071869 -0.862595 0.696883 0.056612 -0.029867 91060.500000 0 0 1
-15.567262 17.211011 29.382635 37.441925 -0.835504 0.668500 0.047734 -0.034669 -40815.000000 0 0 1
-15.268662 16.478111 28.010285 35.905936 -0.823476 0.675968 0.035175 -0.029466 399869.000000 0 0 1
-14.033662 17.029411 27.540975 35.290931 -0.881542 0.675494 0.055157 -0.031153 307906.000000 0 0 1
-13.450162 16.102411 26.578165 33.861384 -0.874905 0.668244 0.038599 -0.019593 42675.800000 0 0 1
-12.099462 16.600611 26.049955 33.174951 -0.940965 0.667729 0.038210 -0.013860 -325647.000000 0 0 1
-12.157662 17.498911 24.983425 32.835836 -0.963591 0.706161 0.040509 -0.011791 -114975.000000 0 0 1
-12.519562 18.848511 25.249665 33.905034 -0.984489 0.730685 0.042291 -0.014082 285771.000000 0 0 1
-11.492262 19.677611 26.115745 34.659956 -1.042204 0.717450 0.033482 -0.010983 291440.000000 0 0 1
-11.385062 19.283911 27.441215 35.419050 -1.037472 0.684463 0.047843 -0.019974 247374.000000 0 0 1
-12.486762 19.627011 28.290085 36.626052 -1.004181 0.688180 0.069432 -0.022146 311363.000000 0 0 1
-12.100662 19.482011 29.759985 37.571684 -1.014992 0.656578 0.067203 -0.024799 488395.000000 0 0 1
-11.059862 20.343211 30.242315 38.088901 -1.072831 0.653447 0.057135 -0.032663 288481.000000 0 0 1
-10.930062 20.168411 31.662605 39.099253 -1.074163 0.626984 0.043316 -0.027467 496575.000000 0 0 1
-9.673862 20.885311 32.278745 39.644636 -1.137028 0.619443 0.040800 -0.031877 524000.000000 0 0 1
-8.417762 20.304111 32.001895 38.823149 -1.177781 0.601833 0.048758 -0.033620 -151341.000000 0 0 1
-7.408462 21.260511 32.295845 39.368975 -1.235493 0.608795 0.041835 -0.027289 102344.000000 0 0 1
-6.135762 20.611211 32.873531 39.282803 -1.281460 0.579306 0.044137 -0.025890 -419984.000000 0 0 1
-6.410562 19.873611 34.074725 39.964266 -1.258767 0.549799 0.050593 -0.028922 686648.000000 0 0 1
-5.315762 19.088111 -34.151855 39.483700 -1.299193 2.615869 0.040305 -0.019784 643327.000000 0 0 1
-4.690162 17.942911 33.813427 38.565444 -1.315123 0.501671 0.025346 -0.016778 -49631.700000 0 0 1
-5.439362 16.772411 33.806539 38.128500 -1.257194 0.480752 0.023069 -0.020215 -174305.000000 0 0 1
-4.862662 15.925411 32.829640 36.810996 -1.274448 0.469392 0.033997 -0.011793 185235.000000 0 0 1
-5.498362 14.516011 32.690370 36.188490 -1.208717 0.443312 0.036537 -0.013567 -435597.000000 0 0 1
-5.234962 13.597011 33.666759 36.684250 -1.203280 0.408433 0.038882 -0.009228 -301249.000000 0 0 1
-5.581862 12.264811 33.353398 35.972655 -1.143699 0.383963 0.048348 -0.003619 -123071.000000 0 0 1
-4.681462 11.116111 33.866123 35.949941 -1.172198 0.342150 0.063227 -0.005021 -24537.400000 0 0 1
-4.627262 11.047911 -33.486988 35.564677 -1.174158 2.798088 0.060593 -0.013508 -384613.000000 0 0 1
-3.693562 10.041111 -33.229638 34.909528 -1.218314 2.830105 0.067794 -0.012399 31551.800000 0 0 1
-3.716462 9.836211 -31.733348 33.430054 -1.209543 2.821627 0.057041 -0.013680 -8746.030000 0 0 1
-4.919162 9.294911 -31.246778 32.968996 -1.084038 2.816943 0.060389 -0.017664 -189820.000000 0 0 1
-4.746162 8.688511 -29.941518 31.535865 -1.070831 2.822254 0.062202 -0.007592 533366.000000 0 0 1
-6.007662 7.865211 -29.547668 31.161166 -0.918504 2.818383 0.060001 -0.015507 417989.000000 0 0 1
-5.695262 7.132311 -28.362738 29.795147 -0.896961 2.830255 0.054867 -0.009948 74771.900000 0 0 1
-6.756062 6.297811 -27.966718 29.452405 -0.750308 2.822615 0.061120 -0.024552 -506467.000000 0 0 1
-6.504562 5.421511 -26.681278 27.992726 -0.694833 2.834282 0.048071 -0.024020 -405929.000000 0 0 1
-6.740262 6.084411 -25.478428 27.048133 -0.734303 2.799236 0.033127 -0.017258 207964.000000 0 0 1
-5.748262 7.002811 -25.039058 26.627736 -0.883470 2.794417 0.032146 -0.011058 -100642.000000 0 0 1
-6.340762 7.970711 -23.971758 26.045781 -0.898801 2.739822 0.018127 -0.010458 349692.000000 0 0 1
-6.626162 7.359011 -22.695658 24.761946 -0.837752 2.730173 0.010895 -0.006214 141255.000000 0 1 0
-7.855362 7.860711 -22.213858 24.838539 -0.785738 2.677729 0.021267 -0.001375 146968.000000 0 1 0
-7.755162 8.073111 -20.712758 23.544342 -0.805483 2.646099 0.009013 -0.001586 -329830.000000 0 1 0
-6.909062 9.108611 -20.260658 23.263624 -0.921865 2.627859 -0.008346 0.000304 -60015.600000 0 1 0
-6.810662 9.330511 -18.885658 22.138465 -0.940261 2.592637 -0.002940 0.001611 -616009.000000 0 1 0
-8.061862 9.826411 -18.187258 22.188473 -0.883723 2.531634 -0.008242 0.015004 -907880.000000 0 1 0
-8.060162 9.617211 -16.754258 20.932323 -0.873253 2.498761 -0.005025 0.005053 573239.000000 0 1 0
-9.188262 10.117411 -15.997658 21.040704 -0.833489 2.434601 -0.000955 0.003113 535010.000000 0 1 0
-9.463662 11.629911 -16.144458 22.033140 -0.887736 2.393129 -0.011370 0.001285 -701833.000000 0 1 0
-8.357662 12.407211 -15.726058 21.704799 -0.978000 2.381167 -0.032474 -0.002872 -31866.700000 0 1 0
-8.568662 13.768111 -16.021158 22.796060 -1.014101 2.350128 -0.015972 -0.010715 159384.000000 0 1 0
-7.416362 14.636111 -15.463758 22.546529 -1.101790 2.326581 -0.008882 -0.012383 -239639.000000 0 1 0
-7.315962 14.752411 -14.067158 21.657375 -1.110421 2.277765 -0.003958 -0.017264 -549769.000000 0 1 0
-8.321862 15.473811 -13.448158 22.125668 -1.077366 2.224094 -0.008583 -0.021111 -954434.000000 0 1 0
-7.743162 16.292611 -12.203858 21.779345 -1.127139 2.165594 0.007193 -0.024610 574328.000000 0 1 0
-7.202962 17.591011 -12.453958 22.725039 -1.182154 2.150801 0.005742 -0.023521 -552613.000000 0 1 0
-6.014862 17.623511 -13.166558 22.806248 -1.241895 2.186242 0.016992 -0.022137 -783038.000000 0 1 0
-5.713262 19.001911 -13.886958 24.219034 -1.278727 2.181434 0.024752 -0.011007 43956.900000 0 1 0
-5.335362 20.094411 -13.091258 24.568933 -1.311270 2.132747 0.036575 -0.019795 -171494.000000 0 1 0
-5.405862 21.324011 -13.804458 25.971135 -1.322516 2.131203 0.039711 -0.018324 -38973.100000 0 0 1
-4.830362 22.538711 -13.014158 26.470629 -1.359676 2.084774 0.051464 -0.021963 -443002.000000 0 0 1
-5.194162 23.832311 -13.514958 27.885703 -1.356206 2.076766 0.052451 -0.027112 156512.000000 0 0 1
-6.507662 24.343211 -13.329058 28.506234 -1.309575 2.057352 0.042464 -0.024981 352620.000000 0 0 1
-7.162062 24.286711 -11.915358 27.984196 -1.284028 2.010630 0.015711 -0.021952 -453308.000000 0 0 1
-7.642662 22.987511 -11.565958 26.844130 -1.249823 2.016238 0.029844 -0.020057 133305.000000 0 0 1
-8.463162 22.884811 -10.384158 26.517361 -1.216579 1.973165 0.040752 -0.017700 286889.000000 0 0 1
-7.839862 23.230411 -9.025258 26.126054 -1.245316 1.923515 0.042903 -0.017163 -112292.000000 0 0 1
-7.484662 24.613011 -8.960258 27.241635 -1.275588 1.905954 0.028692 -0.015071 -101588.000000 0 0 1
-6.818162 24.967211 -7.775658 27.024245 -1.304212 1.862651 0.030567 -0.012132 180764.000000 0 0 1
-6.694762 26.521311 -7.625958 28.396391 -1.323532 1.842688 0.021170 -0.015702 350493.000000 0 0 1
-5.777762 27.252811 -8.441758 29.109475 -1.361884 1.865024 0.018219 -0.019220 -33637.500000 0 0 1
-6.083962 27.361511 -9.817858 29.699448 -1.352001 1.907708 0.021428 -0.017199 131533.000000 0 0 1
-5.389462 28.577011 -10.433858 30.895910 -1.384391 1.915279 0.021499 -0.015085 482521.000000 0 0 1
-6.129262 29.788211 -10.102058 32.046169 -1.367867 1.891500 0.017142 -0.016520 -22422.300000 0 0 1
-6.847962 30.129211 -11.238958 32.878232 -1.347307 1.919666 0.022571 -0.019136 -876239.000000 0 0 1
-7.971962 31.116011 -10.949558 33.935986 -1.319990 1.899328 0.021853 -0.013716 -801795.000000 0 0 1
-8.973262 30.595611 -10.115758 33.450552 -1.285511 1.878016 0.022466 -0.011659 -794506.000000 0 0 1
-9.913062 31.594711 -9.907958 34.563886 -1.266767 1.861531 0.023729 -0.010804 -382713.000000 0 0 1
-11.063962 31.058711 -9.038458 34.186964 -1.228585 1.838361 0.028820 -0.012322 110095.000000 0 0 1
-11.882062 30.023111 -9.544758 33.670061 -1.193947 1.858216 0.030578 -0.020973 -112335.000000 0 0 1
-13.020362 29.807911 -8.737058 33.680522 -1.158966 1.833207 0.053033 -0.024053 558271.000000 0 0 1
-14.035462 28.772711 -9.367258 33.355788 -1.116953 1.855454 0.055038 -0.025406 367013.000000 0 0 1
-13.743062 27.418011 -9.101158 31.991408 -1.106156 1.859268 0.039419 -0.022740 120278.000000 0 0 1
-14.876962 26.660311 -9.496458 31.973096 -1.061817 1.872360 0.049112 -0.024220 130567.000000 0 0 1
-14.978462 25.165111 -9.004558 30.638525 -1.033908 1.869097 0.047574 -0.021687 20753.100000 0 0 1
-13.915562 24.318211 -9.463058 29.573091 -1.051048 1.896514 0.040616 -0.019803 276026.000000 0 0 1
-14.073562 22.977011 -9.065158 28.428600 -1.021232 1.895338 0.043727 -0.017393 -365399.000000 0 0 1
-13.076962 21.908411 -9.524458 27.234183 -1.032665 1.928073 0.042864 -0.016954 -387083.000000 0 0 1
-13.180962 21.583611 -10.910358 27.543165 -1.022551 1.978082 0.042466 -0.017946 99969.400000 0 0 1
-12.476262 20.413811 -11.278258 26.449573 -1.022206 2.011312 0.041133 -0.021717 -186641.000000 0 0 1
-12.711562 19.929611 -12.759658 26.862280 -1.003029 2.065764 0.042155 -0.015803 -577924.000000 0 0 1
-14.047562 19.584511 -13.030358 27.398491 -0.948567 2.066427 0.056368 -0.017887 -455106.000000 0 0 1
-14.190962 18.980611 -14.265558 27.661402 -0.928797 2.112645 0.065105 -0.019664 110763.000000 0 0 1
-15.679462 18.704711 -14.558858 28.419572 -0.873156 2.108637 0.064482 -0.012639 229370.000000 0 0 1
-16.321662 19.883411 -15.000758 29.778674 -0.883460 2.098721 0.044142 -0.013206 95076.100000 0 0 1
-17.736962 19.770111 -15.048458 30.527254 -0.839552 2.086275 0.035312 -0.008633 389156.000000 0 0 1
-18.460762 20.958211 -15.730858 32.054738 -0.848670 2.083746 0.016331 -0.006694 -113098.000000 0 0 1
-18.563962 22.112911 -14.905058 32.492496 -0.872425 2.047354 0.025220 -0.024056 323940.000000 0 0 1
-19.058962 23.227811 -15.591758 33.850822 -0.883666 2.049470 0.027633 -0.016635 -274040.000000 0 0 1
-19.416262 24.492311 -14.718158 34.546906 -0.900492 2.010901 0.024706 -0.001187 -496265.000000 0 0 1
-20.557962 24.183711 -13.985158 34.685247 -0.866259 1.985809 0.029025 -0.006720 -375262.000000 0 0 1
-21.031762 25.339411 -13.309958 35.518668 -0.878027 1.954903 0.041780 -0.022871 -226445.000000 0 0 1
-25.377962 -1.239189 3.748542 25.683226 0.048791 1.424320 0.049325 -0.021515 -145552.000000 0 0 1
-25.664132 -0.549889 4.943642 26.141722 0.021423 1.380541 0.052750 -0.018007 61164.700000 0 0 1
-26.939972 -0.954089 5.395842 27.491589 0.035401 1.373241 0.069650 -0.029935 -77096.100000 0 0 1
-27.369332 -0.145789 6.669742 28.170677 0.005327 1.331765 0.068117 -0.031891 -391258.000000 0 0 1
-27.778922 1.159911 6.158842 28.477100 -0.041731 1.352800 0.071848 -0.023643 284164.000000 0 0 1
-28.352972 2.001011 7.191942 29.319262 -0.070458 1.322970 0.076145 -0.003812 31914.200000 0 0 1
-27.387162 2.732511 8.171042 28.710437 -0.099444 1.282205 0.082809 -0.010091 27584.300000 0 0 1
-26.750342 1.790411 9.018742 28.286464 -0.066831 1.246295 0.072140 -0.017279 397034.000000 0 0 1
-25.657432 2.346011 9.725542 27.538950 -0.091182 1.209854 0.069561 -0.020564 488646.000000 0 0 1
-24.756062 1.373611 10.598842 26.964511 -0.055429 1.166832 0.069202 -0.020812 535151.000000 0 0 1
-23.928562 0.458311 9.871942 25.889020 -0.019151 1.179575 0.059217 -0.017235 661550.000000 0 0 1
-24.644662 -0.600189 9.239542 26.326578 0.024349 1.212202 0.056123 -0.020308 -365750.000000 0 0 1
-23.774162 -1.555089 8.384042 25.257103 0.065318 1.232429 0.063483 -0.020087 277863.000000 0 0 1
-22.816362 -2.310589 9.140442 24.687504 0.100925 1.191523 0.046942 -0.020688 158992.000000 0 1 0
-21.844662 -2.928389 8.330642 23.561925 0.133261 1.209418 0.055715 -0.020204 210916.000000 0 1 0
-20.483162 -3.022789 9.101642 22.617185 0.146517 1.156636 0.054086 -0.011861 207383.000000 0 1 0
-19.833762 -1.773189 9.237942 21.951353 0.089166 1.136429 0.041608 -0.013586 359310.000000 0 1 0
-20.375462 -1.012989 10.313942 22.859637 0.049675 1.102703 0.034077 -0.013045 -800210.000000 0 1 0
-19.571962 0.226311 10.681742 22.298263 -0.011562 1.071237 0.013452 -0.004473 -651232.000000 0 1 0
-19.884662 1.436111 9.977142 22.293621 -0.072097 1.106791 0.009157 -0.000657 443968.000000 0 1 0
-20.606862 2.377711 10.784842 23.379672 -0.114876 1.091346 0.030134 0.003584 -55335.900000 0 1 0
-21.219362 3.490811 9.923742 23.683913 -0.163050 1.138444 0.026341 -0.008327 -624868.000000 0 1 0
-21.657762 4.540411 10.696442 24.578199 -0.206651 1.120535 0.038770 -0.010376 278867.000000 0 1 0
-22.169062 5.511711 9.842642 24.874161 -0.243681 1.163969 0.029900 -0.015495 -581526.000000 0 1 0
-22.416462 6.813811 10.612442 25.720609 -0.295090 1.145485 0.051710 -0.018955 169299.000000 0 0 1
-23.495662 6.686211 11.531742 27.013564 -0.277243 1.129749 0.058064 -0.013340 428101.000000 0 0 1
-23.524862 7.719611 12.492942 27.732384 -0.317076 1.103491 0.059660 -0.009716 -683722.000000 0 0 1
-24.389362 7.437211 13.684642 28.938253 -0.295980 1.078227 0.059298 -0.006813 -88171.700000 0 0 1
-25.733362 7.276611 13.248142 29.844065 -0.275575 1.110837 0.061802 -0.000905 -36954.000000 0 0 1
-26.638052 7.037511 14.299142 31.041550 -0.258289 1.092074 0.058889 0.003331 -326660.000000 0 0 1
-28.006092 6.680911 13.713342 31.890931 -0.234175 1.126295 0.065383 0.015998 -525283.000000 0 0 1
-27.926142 5.464411 12.993242 31.281840 -0.193232 1.142457 0.065576 0.020863 21759.200000 0 0 1
-28.866882 5.500911 11.951042 31.723561 -0.188304 1.184539 0.062627 -0.000994 -212587.000000 0 0 1
-29.068732 4.122611 11.348842 31.476711 -0.140883 1.201942 0.066109 -0.002227 -161020.000000 0 0 1
-29.948762 3.268011 12.039442 32.443126 -0.108690 1.190610 0.061239 0.000585 252662.000000 0 0 1
-30.345642 2.132611 11.281242 32.444914 -0.070162 1.215675 0.054069 -0.003586 285095.000000 0 0 1
-31.533662 1.378211 11.974642 33.758900 -0.043678 1.208192 0.048118 0.002620 381815.000000 0 0 1
-31.071932 0.311511 12.819442 33.613986 -0.010025 1.179516 0.056573 -0.001383 -164396.000000 0 0 1
-32.192322 -0.297789 13.376542 34.862102 0.009250 1.176998 0.048693 0.005802 -493877.000000 0 0 1
-31.967052 -1.541289 14.267942 35.040579 0.048178 1.151428 0.041298 0.005981 -174285.000000 0 0 1
-31.706522 -2.792289 13.616742 34.619591 0.087840 1.166551 0.034745 0.005872 288044.000000 0 0 1
-31.680922 -3.880589 14.582342 35.091088 0.121883 1.142241 0.031648 0.006484 -266131.000000 0 0 1
-31.707332 -5.264889 13.895942 35.016727 0.164545 1.162728 0.032151 0.004834 354233.000000 0 0 1
-32.944752 -5.602189 13.274142 35.957531 0.168437 1.192690 0.023222 -0.005572 259151.000000 0 0 1
-32.831322 -6.948989 12.768742 35.905778 0.208579 1.207221 0.029374 -0.003671 -722710.000000 0 0 1
-34.010712 -7.434089 11.875642 36.783489 0.215196 1.242054 0.036236 0.012871 1747270.000000 0 0 1
-35.327563 -7.512089 12.497642 38.218572 0.209520 1.237664 0.010064 0.014504 1306900.000000 0 0 1
35.548490 -6.292889 12.987142 38.366149 -0.175208 1.225468 0.015293 0.008001 -608483.000000 0 0 1
34.016508 -6.088889 12.738842 36.830360 -0.177122 1.217621 0.018865 0.007064 645440.000000 0 0 1
33.209908 -6.962889 13.446742 36.499242 -0.206669 1.193497 0.014780 0.010974 812852.000000 0 0 1
31.806308 -6.865289 13.130042 35.088052 -0.212585 1.187260 0.028601 0.013246 1050020.000000 0 0 1
30.808898 -7.834789 13.761142 34.640166 -0.249024 1.162267 0.010702 0.000611 -180088.000000 0 0 1
30.354428 -7.515889 15.048542 34.703580 -0.242723 1.122278 0.034051 0.009470 -69438.400000 0 0 1
29.383368 -8.475189 15.371442 34.227070 -0.280813 1.105036 0.057284 0.011387 -195917.000000 0 0 1
29.006008 -8.450789 16.846042 34.591233 -0.283499 1.062141 0.047637 -0.009253 187605.000000 0 0 1
30.070738 -8.888689 17.696942 36.006108 -0.287408 1.056987 0.040461 -0.011321 356771.000000 0 0 1
29.721378 -9.028789 19.028742 36.427631 -0.294922 1.021167 0.032145 -0.018807 108510.000000 0 0 1
30.943238 -9.524189 19.864042 37.983869 -0.298593 1.020476 0.043191 -0.017086 439527.000000 0 0 1
31.909718 -8.530489 20.039842 38.634112 -0.261223 1.025457 0.049354 -0.017102 183946.000000 0 0 1
33.215838 -8.866189 19.566242 39.556782 -0.260845 1.053379 0.018336 -0.013703 529001.000000 0 0 1
34.313908 -8.033289 20.255642 40.648112 -0.229970 1.049140 0.026380 -0.011646 -62562.900000 0 0 1
34.561368 -8.527689 21.606242 41.641797 -0.241909 1.025280 0.017977 -0.013481 362748.000000 0 0 1
-35.667828 -7.952789 22.169442 42.742543 0.219380 1.025497 -0.001972 -0.005352 233726.000000 0 0 1
-35.266537 -8.536289 23.534442 43.248894 0.237483 0.995405 -0.001655 0.001126 -357533.000000 0 0 1
35.409779 -7.948589 24.564842 43.823098 -0.220814 0.975752 0.007939 -0.007966 -101075.000000 0 0 1
35.143098 -8.873489 25.557242 44.350296 -0.247326 0.956653 0.001891 -0.013698 -243052.000000 0 0 1
34.668838 -8.240789 26.894442 44.644707 -0.233369 0.924279 0.016670 -0.010673 1585190.000000 0 0 1
-35.618842 -7.513789 27.570742 45.665137 0.207902 0.922588 -0.005743 -0.020215 1596130.000000 0 0 1
35.272188 -6.518289 28.464242 45.791138 -0.182738 0.900000 0.002681 -0.024338 -129001.000000 0 0 1
-35.037527 -6.038789 29.401142 46.135912 0.170675 0.879843 0.000319 -0.013801 26397.100000 0 0 1
-34.568661 -7.009689 30.318242 46.511545 0.200063 0.860784 0.000153 -0.015327 417038.000000 0 0 1
-33.213812 -6.816289 30.733342 45.761965 0.202414 0.834442 0.001091 -0.024988 742194.000000 0 0 1
-32.838162 -7.533989 32.030042 46.486874 0.225525 0.810671 0.001244 -0.010825 -148131.000000 0 0 1
-32.803282 -8.921989 31.844342 46.580246 0.265561 0.818051 0.005404 -0.009263 206275.000000 0 0 1
-32.238052 -9.584289 32.926842 47.067266 0.288976 0.796001 0.007255 -0.005490 -250072.000000 0 0 1
-32.321062 -11.121189 32.735942 47.328361 0.331396 0.806988 0.017522 -0.009542 624028.000000 0 0 1
-33.665602 -11.569589 32.983642 48.529875 0.331017 0.823502 0.010861 -0.010265 842049.000000 0 0 1
-33.807132 -12.995989 33.002542 48.999854 0.367000 0.831831 0.020642 -0.008753 786863.000000 0 0 1
-35.337502 -13.297889 33.162142 50.252369 0.359920 0.850095 0.020439 -0.009670 763469.000000 0 0 1
-35.605466 -14.677889 33.491842 51.038153 0.391011 0.855009 0.024872 -0.019900 716711.000000 0 0 1
34.454688 -14.925889 33.928142 50.606585 -0.408798 0.836009 0.019357 -0.016116 332079.000000 0 0 1
34.113938 -16.389789 34.223142 51.025575 -0.447880 0.835637 0.016469 -0.010867 -310569.000000 0 0 1
34.710688 -16.868989 -33.376362 51.023290 -0.452376 2.283841 0.024612 -0.013739 91235.900000 0 0 1
34.533688 -18.284989 -33.296562 51.337875 -0.486955 2.276510 0.024134 -0.022272 -205081.000000 0 0 1
34.943128 -18.902789 -31.942762 50.977227 -0.495875 2.247990 0.026718 -0.029081 358104.000000 0 0 1
33.909648 -18.850789 -30.966462 49.640087 -0.507371 2.244417 0.021596 -0.024103 272001.000000 0 0 1
34.290858 -19.840089 -30.034462 49.714796 -0.524522 2.219477 0.020765 -0.021810 -436723.000000 0 0 1
33.171668 -19.982889 -28.942462 48.346060 -0.542188 2.212613 -0.001601 -0.021590 383627.000000 0 0 1
32.059288 -20.743189 -29.334862 48.151967 -0.574282 2.225866 0.007851 -0.019232 -97850.500000 0 0 1
31.205918 -20.062989 -30.217062 47.847713 -0.571384 2.254316 0.000487 -0.019196 -1442850.000000 0 0 1
29.842688 -20.718989 -30.510762 47.442271 -0.606872 2.269353 -0.009091 -0.008538 242245.000000 0 0 1
29.012818 -19.850989 -31.287162 47.060513 -0.600053 2.298060 -0.016462 -0.006323 -217921.000000 0 0 1
27.681248 -20.274389 -31.316562 46.454595 -0.632157 2.310586 -0.008836 -0.004862 -127122.000000 0 0 1
26.856178 -19.493889 -32.392462 46.373889 -0.627873 2.344105 -0.004675 0.005189 165044.000000 0 0 1
27.241568 -19.844689 -33.701762 47.662600 -0.629580 2.356171 -0.008076 -0.000716 -288899.000000 0 0 1
26.252538 -19.596789 34.096042 47.283929 -0.641239 0.765420 0.023029 -0.009719 -513972.000000 0 0 1
26.774778 -19.638689 32.673742 46.584764 -0.632842 0.793461 0.027401 -0.005218 -325563.000000 0 0 1
27.628208 -18.559389 32.359942 46.421273 -0.591517 0.799461 0.007966 -0.007376 96647.400000 0 0 1
27.913978 -18.453189 30.984042 45.603960 -0.584120 0.823830 0.015972 -0.005799 -28585.300000 0 0 1
26.890898 -17.555489 30.237442 44.109165 -0.578370 0.815487 0.021502 -0.008664 7037.980000 0 0 1
26.746518 -16.193489 30.600742 43.749408 -0.544412 0.796162 0.029432 -0.010739 737705.000000 0 0 1
25.723638 -15.573089 29.798442 42.334073 -0.544381 0.789940 0.042500 -0.015615 458849.000000 0 0 1
25.553338 -14.057489 30.155042 41.951312 -0.502938 0.768707 0.053513 -0.021160 -525947.000000 0 0 1
26.720418 -13.311489 30.014642 42.332673 -0.462188 0.782691 0.046911 -0.007757 -274679.000000 0 0 1
26.545878 -12.039089 30.591042 42.254409 -0.425777 0.761252 0.057843 -0.021052 -495285.000000 0 0 1
27.842478 -11.255089 30.720742 42.960965 -0.384158 0.774051 0.050047 -0.025506 -442931.000000 0 0 1
28.349558 -10.987189 29.415442 42.304656 -0.369738 0.801926 0.046403 -0.022155 680035.000000 0 0 1
29.760178 -10.720989 29.511442 43.261218 -0.345773 0.820072 0.037234 -0.016142 735094.000000 0 0 1
30.321008 -10.270189 28.172942 42.644518 -0.326586 0.849117 0.044555 -0.023434 -206300.000000 0 0 1
29.968848 -8.941789 27.976742 41.961715 -0.289960 0.840996 0.047173 -0.015748 -8066.160000 0 0 1
30.471908 -8.399089 26.813042 41.449018 -0.268955 0.867294 0.047618 -0.016770 -135694.000000 0 0 1
30.235758 -6.857789 26.830342 41.001190 -0.223037 0.857434 0.060036 -0.022350 -563428.000000 0 0 1
28.951948 -6.408489 26.557142 39.806605 -0.217837 0.840414 0.069542 -0.015884 -828068.000000 0 0 1
28.794488 -5.001989 26.762242 39.627768 -0.171997 0.829370 0.073998 -0.014312 -139011.000000 0 0 1
27.334668 -4.543289 26.682442 38.467886 -0.164704 0.804281 0.057457 -0.006255 -357553.000000 0 0 1
26.738198 -4.812889 25.432142 37.214096 -0.178093 0.818385 0.075267 -0.008612 -845201.000000 0 0 1
25.393438 -4.490389 25.472642 36.247010 -0.175023 0.791539 0.063091 -0.009556 -778432.000000 0 0 1
24.665738 -4.905389 24.110242 34.839133 -0.196313 0.806478 0.060998 -0.001032 -49599.900000 0 0 1
25.043038 -4.104189 23.039942 34.275895 -0.162441 0.833632 0.067126 0.003960 -54661.500000 0 0 1
24.443438 -4.452389 21.854842 33.089870 -0.180175 0.849353 0.062909 0.000047 -94100.600000 0 0 1
24.984438 -3.533289 20.704542 32.640225 -0.140488 0.883660 0.078907 -0.001670 70221.300000 0 0 1
24.336338 -2.282489 20.671542 32.012181 -0.093516 0.868804 0.066458 0.004568 204841.000000 0 0 1
24.914238 -1.480089 19.691642 31.791047 -0.059338 0.902807 0.066941 -0.005832 319247.000000 0 0 1
23.769638 -0.587989 19.048142 30.465933 -0.024732 0.895373 0.016454 -0.001385 446686.000000 0 0 1
22.878638 -1.381389 18.322942 29.344003 -0.060306 0.896409 0.037087 -0.008402 -107966.000000 0 0 1
21.785638 -0.568389 17.894242 28.198244 -0.026084 0.883322 0.041432 -0.007348 337304.000000 0 0 1
20.603138 -1.405889 17.359042 26.977808 -0.068131 0.871791 0.041020 -0.008249 -292369.000000 0 0 1
20.884238 -2.047489 16.143742 26.475724 -0.097728 0.915043 0.057792 -0.013821 488787.000000 0 0 1
19.813438 -2.865889 15.680742 25.429732 -0.143647 0.906341 0.066979 -0.017877 82833.200000 0 0 1
20.231938 -3.388289 14.300142 25.006116 -0.165932 0.962018 0.070947 -0.021486 -33158.400000 0 0 1
19.314738 -4.352589 13.831742 24.152043 -0.221648 0.961007 0.072661 -0.022616 389003.000000 0 1 0
19.532838 -4.706389 12.460442 23.642006 -0.236441 1.015675 0.073340 -0.019165 -243094.000000 0 1 0
18.485838 -5.636189 11.795442 22.641229 -0.295939 1.022807 0.061213 -0.022192 -169502.000000 0 1 0
18.525138 -6.973889 12.265142 23.286252 -0.360046 1.016069 0.074225 -0.026428 262122.000000 0 1 0
17.347538 -7.689489 12.006742 22.455003 -0.417236 1.006641 0.049847 -0.017046 -414284.000000 0 1 0
17.500438 -9.200289 12.155842 23.209376 -0.484009 1.019553 0.058847 -0.030759 -67091.400000 0 1 0
18.382438 -9.801589 11.223942 23.663517 -0.489857 1.076611 0.050147 -0.036508 591516.000000 0 1 0
18.105438 -11.170889 11.285042 24.082105 -0.552819 1.083083 0.062198 -0.034519 -65497.900000 0 1 0
18.813038 -11.879389 10.152042 24.456374 -0.563220 1.142735 0.069389 -0.029602 -57921.600000 0 1 0
18.123638 -11.749889 8.947042 23.378958 -0.575192 1.178083 0.052969 -0.019406 814692.000000 0 1 0
19.008938 -12.126689 7.860942 23.878666 -0.567855 1.235336 0.062140 -0.039538 657061.000000 0 1 0
18.583438 -11.349189 6.560042 22.741645 -0.548261 1.278179 0.051090 -0.027348 21410.600000 0 1 0
19.066538 -10.020889 6.530442 22.507726 -0.483897 1.276421 0.062748 -0.021703 471182.000000 0 1 0
19.119038 -9.414089 5.203742 21.937220 -0.457544 1.331303 0.019285 -0.029749 -573096.000000 0 1 0
19.943638 -8.115689 5.213442 22.153850 -0.386467 1.333239 0.064035 -0.021219 -338994.000000 0 1 0
20.161138 -7.568689 3.958842 21.895866 -0.359130 1.388993 0.037616 -0.023233 423240.000000 0 1 0
21.179138 -6.605189 3.964442 22.536663 -0.302313 1.393965 0.088217 -0.020024 -674276.000000 0 1 0
21.694238 -6.275089 2.528742 22.724683 -0.281567 1.459288 0.071937 -0.019389 517106.000000 0 1 0
20.690438 -5.590089 1.764042 21.504770 -0.263877 1.488674 0.046353 -0.033961 844294.000000 0 1 0
21.294938 -5.167089 0.601842 21.921118 -0.238043 1.543338 0.057763 -0.020229 13022.200000 0 1 0
-25.660092 -16.128489 -0.132358 30.308184 0.561144 1.575163 0.044342 -0.015355 -463935.000000 0 0 1
-24.678862 -15.617989 -0.988158 29.222325 0.564224 1.604618 0.041064 -0.011780 393941.000000 0 0 1
-23.342362 -15.974589 -0.617958 28.291964 0.600152 1.592640 0.044142 -0.016545 936432.000000 0 0 1
-22.620962 -15.268389 0.582242 27.297814 0.593727 1.549465 0.048969 -0.014519 -191883.000000 0 0 1
-23.059962 -15.665289 1.902342 27.942477 0.596717 1.502663 0.046542 -0.005142 -44711.800000 0 0 1
-22.109162 -15.273589 2.836442 27.021158 0.604543 1.465631 0.053728 -0.000721 -118861.000000 0 0 1
-22.377562 -15.977989 4.200042 27.815315 0.620072 1.419219 0.053121 -0.000429 -440728.000000 0 0 1
-22.327362 -17.369189 4.160242 28.592087 0.661140 1.424775 0.070006 -0.012255 299909.000000 0 0 1
-22.743962 -17.981989 5.385242 29.489669 0.668999 1.387151 0.067743 -0.015392 -80216.400000 0 0 1
-23.060062 -19.473589 5.348542 30.652798 0.701276 1.395411 0.056426 -0.009903 23665.300000 0 0 1
-23.459162 -20.068289 6.562242 31.561552 0.707653 1.361349 0.045984 -0.005220 -37704.000000 0 0 1
-23.751562 -21.392489 6.342642 32.588409 0.733189 1.374917 0.054688 -0.008710 -541603.000000 0 0 1
-24.261462 -22.180489 7.509042 33.719110 0.740620 1.346219 0.051159 -0.008918 -340784.000000 0 0 1
-23.430362 -22.447689 8.633742 33.577107 0.763982 1.310743 0.055005 -0.004053 -297727.000000 0 0 1
-23.757462 -23.646989 9.332542 34.795020 0.783068 1.299257 0.051428 -0.003839 61725.600000 0 0 1
-22.924462 -23.913489 10.611842 34.785013 0.806511 1.260785 0.051671 -0.006277 138303.000000 0 0 1
-23.141762 -22.943089 11.628842 34.599949 0.781087 1.228030 0.053709 -0.007188 95670.200000 0 0 1
-22.278462 -23.056789 12.753042 34.504862 0.802565 1.192216 0.061248 -0.009526 -221159.000000 0 0 1
-22.673062 -22.224389 13.956042 34.680864 0.775405 1.156645 0.050524 -0.006465 9148.340000 0 0 1
-23.820262 -22.787589 14.575642 36.043424 0.763245 1.154483 0.046814 -0.006194 -107767.000000 0 0 1
-24.156462 -22.122089 15.753142 36.346705 0.741467 1.122520 0.048262 -0.002228 95147.300000 0 0 1
-25.627812 -22.480389 16.154342 37.724202 0.720067 1.128272 0.022108 0.001071 -62365.500000 0 0 1
-26.680712 -21.912589 15.377242 37.795258 0.687588 1.151786 0.017675 -0.001756 176361.000000 0 0 1
-26.904192 -22.728089 14.260842 37.997016 0.701455 1.186060 0.014179 -0.005020 -105511.000000 0 0 1
-28.053512 -23.784289 14.540742 39.549022 0.703226 1.194301 0.016443 -0.005820 -6592.380000 0 0 1
-27.765072 -24.510189 15.667942 40.213592 0.723214 1.170579 0.021552 -0.003830 -396545.000000 0 0 1
-28.733642 -25.476399 15.984542 41.595368 0.725385 1.176361 0.007364 -0.008683 -432599.000000 0 0 1
-28.519622 -26.849769 15.328042 42.062190 0.755249 1.197793 0.012935 -0.009569 -42222.200000 0 0 1
-29.033822 -26.942209 13.996242 42.008811 0.748049 1.231128 0.017264 -0.022090 307490.000000 0 0 1
-30.324692 -27.536879 14.058642 43.307183 0.737255 1.240180 0.018692 -0.020156 26357.900000 0 0 1
-30.915022 -28.011309 12.701842 43.608586 0.736161 1.275243 0.027404 -0.023370 265082.000000 0 0 1
-30.223952 -29.186539 12.217342 43.756197 0.767938 1.287821 0.037109 -0.025089 622473.000000 0 0 1
-30.798642 -29.481789 10.974542 44.024684 0.763556 1.318858 0.035983 -0.015374 -85210.000000 0 0 1
-30.189682 -30.690279 10.268342 44.257756 0.793621 1.336650 0.038354 -0.022519 -257491.000000 0 0 1
-30.387672 -31.889399 11.004742 45.403180 0.809507 1.325980 0.023642 -0.005173 181268.000000 0 0 1
-29.736112 -32.987719 10.419942 45.617992 0.837192 1.340345 0.036571 -0.005390 -398250.000000 0 0 1
-29.968262 -34.337405 11.056442 46.897751 0.853237 1.332800 0.022321 0.000004 534565.000000 0 0 1
-31.325372 34.014062 11.072042 47.548139 -0.826525 1.335779 0.014217 0.001468 503790.000000 0 0 1
-31.442752 32.768584 11.734142 46.905403 -0.806043 1.317945 0.013682 0.002701 -45266.800000 0 0 1
-32.887002 32.360334 12.172942 47.717153 -0.777326 1.312839 0.026056 0.004401 248322.000000 0 0 1
-33.824142 32.123854 11.164042 47.965096 -0.759622 1.335888 0.009289 0.004634 -132120.000000 0 0 1
-34.396067 33.338569 10.653442 49.071840 -0.769787 1.351955 0.012396 0.007700 -120200.000000 0 0 1
35.579648 33.052038 10.082442 49.598429 0.748586 1.366088 0.002814 0.008813 427662.000000 0 0 1
35.562572 32.281304 8.856242 48.838634 0.737071 1.388451 -0.009762 0.011607 -763388.000000 0 0 1
34.289518 32.315094 8.315442 47.845406 0.755763 1.396111 -0.012613 0.013657 -658481.000000 0 0 1
34.248528 31.822694 6.868542 47.252750 0.748699 1.424922 -0.016346 0.013059 -256302.000000 0 0 1
34.342988 30.402844 6.903242 46.383494 0.724618 1.421412 -0.002203 0.009801 65976.600000 0 0 1
34.052708 29.770214 5.665542 45.584547 0.718399 1.446188 0.015240 0.001391 -78058.000000 0 0 1
34.340958 28.240314 5.720242 44.827870 0.688222 1.442843 0.015707 -0.000289 -115451.000000 0 0 1
33.416378 27.416604 6.415942 43.697698 0.687089 1.423438 0.021945 -0.001728 -74572.400000 0 0 1
33.867178 26.944834 7.646342 43.948565 0.672054 1.395923 0.007102 0.000758 -294796.000000 0 0 1
32.978218 25.824854 8.204442 42.682535 0.664343 1.377372 0.003270 -0.002910 7577.320000 0 0 1
33.118038 24.584264 7.514042 41.924352 0.638569 1.390594 0.016326 -0.008299 -526753.000000 0 0 1
31.952188 23.855914 7.667042 40.605794 0.641330 1.380840 0.010174 -0.006401 -1289580.000000 0 0 1
32.029578 22.441424 7.004342 39.731249 0.611160 1.393577 0.019144 -0.007480 662153.000000 0 0 1
33.058688 21.550224 7.508442 40.170458 0.577694 1.382776 0.031291 -0.009065 313961.000000 0 0 1
34.364708 21.965824 7.184742 41.413175 0.568743 1.396425 0.043174 -0.014544 -344528.000000 0 0 1
35.355844 20.727924 7.220442 41.615109 0.530260 1.396408 0.036835 -0.012464 123152.000000 0 0 1
35.153678 19.863524 6.118442 40.838413 0.514323 1.420409 0.050970 -0.023259 321406.000000 0 0 1
-35.594536 18.627924 6.423042 40.684469 -0.482142 1.412259 0.059299 -0.022650 58282.400000 0 0 1
35.568919 17.490824 5.345442 39.995633 0.457022 1.436745 0.047932 -0.021272 -259348.000000 0 0 1
-35.259623 17.682424 4.098742 39.657393 -0.464841 1.467258 0.051859 -0.021974 158457.000000 0 0 1
35.531515 16.747324 3.207542 39.411289 0.440456 1.489320 0.056432 -0.020924 -786887.000000 0 0 1
-34.987737 16.435024 2.030342 38.708837 -0.439145 1.518321 0.063517 -0.007948 86834.100000 0 0 1
-33.871752 15.584724 2.225842 37.351487 -0.431229 1.511169 0.066184 -0.025377 743513.000000 0 0 1
-32.692912 16.225424 2.715742 36.598718 -0.460682 1.496525 0.074290 -0.021857 -245651.000000 0 0 1
-31.456712 15.311924 2.758142 35.093975 -0.453001 1.492122 0.065009 -0.016917 -118341.000000 0 0 1
-31.440822 14.416124 3.863342 34.803381 -0.429913 1.459562 0.076805 -0.020145 462596.000000 0 0 1
-30.095952 14.002724 4.064542 33.441937 -0.435479 1.448955 0.064591 -0.016048 229655.000000 0 0 1
-29.788212 13.437424 5.438942 33.128297 -0.423767 1.405872 0.078087 -0.024722 -423943.000000 0 0 1
-30.278742 12.177024 5.629942 33.117645 -0.382371 1.399968 0.069446 -0.020625 191862.000000 0 0 1
-30.037682 11.690924 6.954542 32.974319 -0.371169 1.358293 0.060610 -0.013515 -116186.000000 0 0 1
-29.997532 10.184924 7.082242 32.461404 -0.327313 1.350853 0.060760 -0.013418 723441.000000 0 0 1
-31.299252 9.589024 7.160442 33.509170 -0.297287 1.355450 0.048581 -0.015282 601850.000000 0 0 1
-31.169682 8.198224 7.071942 32.996550 -0.257194 1.354797 0.052591 -0.010903 1016390.000000 0 0 1
-32.571222 7.467024 6.967942 34.134926 -0.225358 1.365222 0.041314 -0.009914 996439.000000 0 0 1
-33.299862 7.337724 8.184042 35.067101 -0.216887 1.335242 0.039171 -0.008924 473647.000000 0 0 1
-34.417395 6.464824 7.962242 35.913066 -0.185672 1.347230 0.041427 -0.013955 702340.000000 0 0 1
-35.208283 6.026624 9.237342 36.895418 -0.169528 1.317739 0.035908 -0.012414 554129.000000 0 0 1
35.434686 7.086824 9.871242 37.460398 0.197392 1.304136 0.040042 -0.000423 509333.000000 0 0 1
-35.156004 7.834324 10.767942 37.593481 -0.219262 1.280297 0.049811 -0.011043 45792.900000 0 0 1
35.493370 8.885424 11.675242 38.406267 0.245299 1.261915 0.048217 -0.022523 -233919.000000 0 0 1
34.590588 8.275524 12.575742 37.724559 0.234828 1.230934 0.049801 -0.023203 376474.000000 0 0 1
34.280688 9.162224 13.645042 38.017089 0.261166 1.203687 0.060904 -0.028626 -134506.000000 0 0 1
33.511088 8.559524 14.865742 37.646364 0.250077 1.164861 0.051310 -0.028894 417556.000000 0 0 1
32.120218 8.289524 14.700542 36.284026 0.252567 1.153651 0.030291 -0.019424 575010.000000 0 0 1
31.597558 7.705424 15.849942 36.180103 0.239193 1.117330 0.032697 -0.011625 178250.000000 0 0 1
30.116798 7.247524 15.881642 34.810554 0.236157 1.097042 -0.008271 0.001229 -8429.940000 0 0 1
29.225128 8.324324 16.051642 34.366519 0.277486 1.084820 -0.010225 -0.001183 -706409.000000 0 0 1
27.887318 7.999424 16.184242 33.220821 0.279348 1.061948 -0.008536 0.004534 -446888.000000 0 0 1
27.393918 7.463524 17.571642 33.390021 0.265996 1.016607 -0.009785 0.007843 -407340.000000 0 0 1
27.655868 8.391524 18.629042 34.384675 0.294597 0.998239 0.004880 -0.003850 129559.000000 0 0 1
26.903668 8.116424 19.774842 34.361723 0.293002 0.957593 0.011091 0.005117 -176507.000000 0 0 1
27.441398 6.939124 20.621042 35.020124 0.247679 0.941181 0.016721 0.007060 296555.000000 0 0 1
26.743598 6.796024 21.865742 35.206769 0.248850 0.900694 0.010330 0.003329 152291.000000 0 0 1
27.198798 5.639624 22.516142 35.756910 0.204451 0.889629 0.016739 0.002420 -580030.000000 0 0 1
26.671878 5.385624 23.966742 36.260153 0.199242 0.848691 0.028170 -0.001098 1204010.000000 0 0 1
25.274638 5.045824 24.107542 35.290809 0.197049 0.818782 0.013057 0.006673 620219.000000 0 0 1
24.409838 6.131624 24.155242 34.884276 0.246103 0.805932 0.015329 0.004636 -805666.000000 0 0 1
22.933138 5.770024 24.255142 33.875269 0.246486 0.772722 0.016349 -0.002548 -119250.000000 0 0 1
22.308738 5.287324 23.046342 32.507990 0.232713 0.782797 -0.004284 0.014197 1444750.000000 0 0 1
20.862838 5.196324 23.126242 31.576618 0.244104 0.748978 0.007142 -0.001489 104965.000000 0 0 1
20.407838 4.622724 21.798542 30.216317 0.222758 0.764951 0.014198 0.006923 759346.000000 0 0 1
19.014938 4.703724 21.464942 29.059191 0.242502 0.739712 0.032057 -0.002469 1270900.000000 0 0 1
18.070438 4.012024 22.267742 28.956681 0.218478 0.693518 0.039402 -0.006098 -856172.000000 0 0 1
16.646638 3.931324 21.770842 27.686376 0.231914 0.665938 0.062335 -0.005478 -995527.000000 0 0 1
16.499738 3.114624 20.614242 26.587388 0.186573 0.683544 0.054165 -0.003647 -378112.000000 0 0 1
15.184738 2.877824 20.201842 25.435655 0.187299 0.653052 0.067113 -0.017846 -90977.200000 0 0 1
14.296138 1.911624 21.079142 25.541419 0.132928 0.600076 0.080268 -0.016969 -63325.900000 0 0 1
14.662738 0.504124 20.932542 25.562107 0.034368 0.611323 0.052808 -0.007532 390133.000000 0 0 1
13.794438 -0.299476 21.725542 25.736654 -0.021706 0.565823 0.057340 -0.009168 120409.000000 0 0 1
14.061238 -1.848276 21.866342 26.062836 -0.130695 0.575380 0.039370 -0.004100 -459278.000000 0 0 1
13.562038 -2.585576 20.808742 24.972341 -0.188387 0.585797 0.029583 0.004423 12286.400000 0 1 0
13.932338 -3.945676 20.777842 25.325819 -0.275976 0.608649 0.037741 0.014872 -355885.000000 0 0 1
13.602738 -4.550176 19.396642 24.124019 -0.322804 0.636740 0.036198 0.004795 146976.000000 0 1 0
12.212838 -4.634476 19.151842 23.182424 -0.362689 0.598581 0.022256 0.005382 -47853.500000 0 1 0
11.987538 -5.082176 17.837842 22.084342 -0.400985 0.630531 0.028617 0.002526 299990.000000 0 1 0
10.501438 -5.241076 17.438842 21.020520 -0.462913 0.592387 0.025219 -0.002830 651355.000000 0 1 0
9.806238 -6.246576 18.214842 21.609314 -0.567182 0.568116 0.018156 0.000183 -361788.000000 0 1 0
8.411538 -6.123676 18.122542 20.896887 -0.629278 0.521172 0.008714 -0.006633 -464286.000000 0 1 0
7.666838 -6.896176 19.188942 21.784240 -0.732528 0.493113 0.006691 -0.003770 -483046.000000 0 1 0
7.629438 -8.273176 19.004442 22.086705 -0.825856 0.534650 -0.003842 -0.005668 264843.000000 0 1 0
8.806338 -8.967276 19.407742 23.121939 -0.794453 0.574683 0.019576 -0.016629 -299276.000000 0 1 0
8.816138 -10.491076 19.115842 23.520254 -0.871933 0.621957 0.031232 -0.016468 26875.300000 0 1 0
9.071538 -10.668876 17.730342 22.593865 -0.866139 0.668517 0.027465 -0.009840 149153.000000 0 1 0
9.404638 -11.964976 17.266742 23.016260 -0.904642 0.722436 0.028229 -0.013679 116983.000000 0 1 0
9.420438 -11.916776 15.741242 21.875577 -0.901863 0.767598 0.027384 -0.016604 98298.600000 0 1 0
10.063638 -13.047476 15.168842 22.396589 -0.913796 0.826732 0.023015 -0.016814 59378.900000 0 1 0
9.863838 -13.045976 13.776242 21.384050 -0.923414 0.870781 0.021685 -0.015792 -758995.000000 0 1 0
10.545238 -14.218076 13.139342 22.045363 -0.932642 0.932269 0.041458 -0.021830 664101.000000 0 1 0
11.942838 -14.044576 12.866742 22.481871 -0.866098 0.961469 0.028679 -0.020609 576582.000000 0 1 0
12.205638 -13.269276 11.712442 21.499594 -0.827126 0.994676 0.014139 -0.013932 -1156210.000000 0 1 0
13.667238 -13.295676 11.258142 22.143038 -0.771619 1.037438 0.024199 -0.015515 -266052.000000 0 1 0
14.069938 -14.466376 10.680542 22.832283 -0.799290 1.084016 0.024744 -0.010274 95463.900000 0 1 0
15.325938 -14.281076 10.036142 23.228380 -0.750122 1.124016 0.030765 -0.020419 422192.000000 0 1 0
16.119738 -15.566376 9.598542 24.378064 -0.767936 1.166103 0.022685 -0.022883 209954.000000 0 1 0
16.636038 -16.088876 10.800142 25.539239 -0.768680 1.134171 0.026521 -0.019033 -201987.000000 0 0 1
15.815638 -17.126176 11.304742 25.908251 -0.825161 1.119272 0.055010 -0.012345 5345.230000 0 0 1
16.168338 -17.809276 12.650242 27.177455 -0.833655 1.086633 0.032172 -0.011526 -55727.100000 0 0 1
17.410338 -18.491176 12.586642 28.345493 -0.815495 1.110689 0.058774 -0.020453 -172575.000000 0 0 1
17.726138 -18.932876 13.853042 29.403682 -0.818304 1.080222 0.034422 -0.022763 415330.000000 0 0 1
19.092738 -19.683076 13.775142 30.687304 -0.800621 1.105277 0.017332 -0.028302 798301.000000 0 0 1
20.134438 -18.829876 13.345242 30.627688 -0.751930 1.119953 0.023269 -0.026457 -199445.000000 0 0 1
21.396438 -19.435176 13.140242 31.752158 -0.737402 1.144131 0.023826 -0.033004 175059.000000 0 0 1
22.152438 -18.918376 11.946242 31.485681 -0.706817 1.181629 0.027284 -0.025646 -663355.000000 0 0 1
21.685138 -19.329676 10.658742 30.943341 -0.728032 1.219133 0.019526 -0.019583 -288330.000000 0 0 1
20.416938 -18.906776 10.233642 29.648692 -0.747014 1.218384 0.029870 -0.023677 -271221.000000 0 0 1
20.124438 -17.378276 10.105742 28.445096 -0.712303 1.207591 0.071450 -0.028687 -258318.000000 0 0 1
20.945738 -16.636276 9.227142 28.295401 -0.671229 1.238621 0.060894 -0.025414 168791.000000 0 0 1
20.290638 -15.407676 8.996142 27.019197 -0.649458 1.231362 0.055796 -0.034565 265536.000000 0 0 1
-34.146177 24.976111 8.274642 43.107276 -0.631521 1.377643 0.044821 -0.008383 -593043.000000 0 0 1
-33.341222 24.231311 9.063242 42.201136 -0.628466 1.354347 0.044171 -0.020505 -767532.000000 0 0 1
-32.233572 24.924711 9.558842 41.852310 -0.658218 1.340368 0.049190 -0.013553 71678.300000 0 0 1
-31.127092 23.967111 10.140242 40.572685 -0.656164 1.318191 0.056791 -0.036769 475560.000000 0 0 1
-30.443352 23.195311 9.139942 39.349189 -0.651085 1.336377 0.055877 -0.029362 57691.800000 0 0 1
-29.535732 22.332811 9.772842 38.296506 -0.647412 1.312753 0.055770 -0.028471 -195326.000000 0 0 1
-28.793702 21.514411 8.729442 36.988516 -0.641701 1.332545 0.045331 -0.032292 313065.000000 0 0 1
-29.754152 20.638411 8.117642 37.109967 -0.606439 1.350268 0.044682 -0.032717 1033630.000000 0 0 1
-29.162682 19.975211 6.997642 36.033846 -0.600559 1.375358 0.051350 -0.033104 -261111.000000 0 0 1
-30.171432 19.221911 6.134842 36.296466 -0.567246 1.400961 0.049952 -0.023395 -653757.000000 0 0 1
-30.561642 18.055111 6.802242 36.142378 -0.533610 1.381460 0.065445 -0.027105 125691.000000 0 0 1
-31.527322 17.482211 5.947642 36.537298 -0.506299 1.407286 0.051513 -0.024088 -327910.000000 0 0 1
-32.093942 16.212411 6.611642 36.559228 -0.467763 1.388948 0.066435 -0.026497 -562801.000000 0 0 1
-32.996252 16.490111 7.632242 37.668654 -0.463453 1.366769 0.048150 -0.020092 -96419.200000 0 0 1
-33.710562 15.353311 8.106242 37.918825 -0.427373 1.355355 0.050823 -0.016839 588455.000000 0 0 1
-34.754671 15.810811 9.200442 39.274891 -0.426943 1.334341 0.051420 -0.025828 939364.000000 0 0 1
35.579115 16.672711 8.769642 40.258655 0.438221 1.351203 0.059590 -0.022565 771126.000000 0 0 1
34.579038 16.766311 9.772942 39.652609 0.451470 1.321766 0.071235 -0.027644 434484.000000 0 0 1
33.780688 18.130011 9.735742 39.555237 0.492573 1.322111 0.058901 -0.024248 73617.600000 0 0 1
32.654908 18.078111 8.890642 38.369318 0.505611 1.336959 0.049046 -0.019993 -323544.000000 0 0 1
31.970238 19.284111 9.058942 38.419233 0.542761 1.332763 0.032723 -0.011650 -827192.000000 0 0 1
30.623618 19.247311 8.372742 37.126375 0.561121 1.343320 0.010687 -0.011534 -1118810.000000 0 0 1
29.757408 20.301411 8.606242 37.036711 0.598700 1.336282 -0.002503 -0.003121 265164.000000 0 0 1
28.440088 20.238311 8.056842 35.823742 0.618477 1.343954 -0.004413 -0.008470 568473.000000 0 0 1
28.337608 20.240411 6.460542 35.417973 0.620232 1.387361 -0.017151 0.000492 -990616.000000 0 0 1
28.454678 18.961511 5.754342 34.674487 0.587801 1.404072 -0.002265 0.000587 228711.000000 0 0 1
28.124888 19.037611 4.338642 34.238337 0.595051 1.443736 0.003827 -0.006113 1094950.000000 0 0 1
26.624768 19.441511 3.995042 33.208598 0.630711 1.450203 0.011232 -0.000567 61297.700000 0 0 1
25.710538 18.465911 4.546042 31.979495 0.622852 1.428158 0.020825 -0.005507 1156360.000000 0 0 1
24.323938 18.754011 4.308542 31.015003 0.656813 1.431428 0.029930 -0.012409 911920.000000 0 0 1
23.712738 20.090911 4.790742 31.446619 0.702903 1.417856 0.021196 -0.013601 -1403600.000000 0 0 1
24.133338 21.132211 3.924942 32.317077 0.719195 1.449045 0.018438 -0.012635 21165.700000 0 0 1
23.775038 22.450911 4.383842 32.992634 0.756761 1.437529 0.019749 -0.012208 -174706.000000 0 0 1
24.776338 23.577611 4.073842 34.443676 0.760613 1.452243 0.011624 -0.005751 313375.000000 0 0 1
26.033238 23.483311 4.738142 35.378600 0.733947 1.436466 -0.001478 -0.001259 644084.000000 0 0 1
26.908538 24.578911 4.545142 36.726701 0.740183 1.446722 0.001397 -0.002113 -86241.000000 0 0 1
28.259948 24.516411 5.302242 37.786146 0.714585 1.430009 -0.009600 -0.002903 471011.000000 0 0 1
29.165788 23.423511 4.998142 37.739706 0.676638 1.437969 -0.013678 -0.007325 858110.000000 0 0 1
29.693608 23.296211 3.672242 37.919772 0.665251 1.473802 -0.003891 -0.008101 -334929.000000 0 0 1
30.445478 24.523111 3.048942 39.212321 0.678071 1.492963 0.021683 -0.014456 -418621.000000 0 0 1
29.665288 25.661111 2.665942 39.314490 0.713150 1.502934 -0.005212 -0.014342 493506.000000 0 0 1
30.553868 26.683411 2.175642 40.623597 0.717880 1.517215 0.035258 -0.008777 59401.500000 0 0 1
30.135538 28.080911 2.702442 41.279430 0.750120 1.505282 0.031893 -0.003118 772630.000000 0 0 1
28.937368 28.670611 2.209242 40.795293 0.780768 1.516615 0.048897 -0.010454 1114090.000000 0 0 1
27.697168 28.217611 2.792542 39.637923 0.794706 1.500287 0.027632 0.002693 1565460.000000 0 0 1
26.371848 28.783611 2.141442 39.096757 0.829097 1.515996 0.005382 0.004929 858984.000000 0 0 1
26.088138 30.074911 2.683142 39.903514 0.856265 1.503505 0.011160 -0.003808 -45378.500000 0 0 1
24.793438 30.541611 2.394142 39.411121 0.888906 1.510011 0.009111 0.007505 -97712.300000 0 0 1
24.564838 31.906011 3.121142 40.387700 0.914673 1.493440 0.017676 0.001795 -492905.000000 0 0 1
24.577438 31.852311 4.542342 40.487690 0.913610 1.458369 0.008415 -0.021578 183718.000000 0 0 1
25.870738 31.809911 5.138642 41.322768 0.888003 1.446120 0.008628 -0.023186 -1795.460000 0 0 1
25.945338 31.635911 6.673842 41.455175 0.883905 1.409103 0.028770 -0.035245 104323.000000 0 0 1
25.390638 30.404811 7.172842 40.256511 0.875024 1.391661 0.017035 -0.035530 263474.000000 0 0 1
26.272538 29.323411 6.980442 39.985438 0.840219 1.395323 -0.001621 -0.027566 -135668.000000 0 0 1
25.603138 27.986111 7.324142 38.631413 0.829836 1.380051 0.009596 -0.023977 -536940.000000 0 0 1
24.478338 27.681111 6.574042 37.531999 0.846725 1.394730 0.016946 -0.032082 -310709.000000 0 0 1
23.942938 26.367411 6.914142 36.280986 0.833551 1.379051 0.031822 -0.028789 118159.000000 0 0 1
22.610138 26.176511 6.152942 35.132417 0.858370 1.394753 0.051646 -0.020940 -151522.000000 0 0 1
22.754338 25.844811 4.763842 34.762168 0.848904 1.433323 0.025561 -0.021565 125645.000000 0 0 1
22.952338 27.002211 3.917542 35.654962 0.866292 1.460700 0.024939 -0.018507 -55659.700000 0 0 1
22.849338 26.808011 2.455842 35.309954 0.864950 1.501189 0.030991 -0.005216 14930.100000 0 0 1
24.032638 26.210011 1.973842 35.615002 0.828708 1.515346 0.011666 0.007151 142059.000000 0 0 1
23.889538 25.924911 0.589342 35.258450 0.826235 1.554081 0.017054 0.004737 499394.000000 0 0 1
25.155338 25.357211 -0.145458 35.718347 0.789395 1.574869 0.030573 -0.003574 -735657.000000 0 0 1
26.279638 26.222511 -0.195158 37.125160 0.784310 1.576053 0.026626 0.004266 201161.000000 0 0 1
27.347418 25.625011 -0.891158 37.487553 0.752894 1.594571 0.029334 0.007818 79651.200000 0 0 1
28.079888 24.429511 -0.178158 37.219791 0.715991 1.575583 0.028686 -0.004002 -1387450.000000 0 0 1
27.342758 23.239911 -0.176958 35.885250 0.704464 1.575728 0.021232 -0.006111 -85650.900000 0 0 1
27.812188 22.238311 0.703642 35.616785 0.674490 1.551039 0.020654 -0.009037 -8341.650000 0 0 1
26.639448 21.314411 1.096442 34.134535 0.674806 1.538670 0.014909 -0.013492 199578.000000 0 0 1
26.232838 20.277411 0.184842 33.156739 0.658046 1.565222 0.035306 -0.026861 220622.000000 0 0 1
25.132638 19.600711 0.739542 31.880782 0.662358 1.547597 0.034200 -0.015053 -625272.000000 0 0 1
24.605238 18.532411 -0.167358 30.804155 0.645539 1.576229 0.034985 -0.017561 821658.000000 0 0 1
23.293138 18.128411 0.314642 29.517936 0.661351 1.560137 0.035423 -0.016757 1246070.000000 0 0 1
22.744438 16.999311 -0.356358 28.397412 0.641838 1.583346 0.040541 -0.032237 -77147.000000 0 0 1
21.213938 16.893411 -0.241058 27.119672 0.672502 1.579685 0.032647 -0.012960 -1113530.000000 0 0 1
20.619038 15.713811 -0.755658 25.935296 0.651202 1.599937 0.034806 -0.020709 553375.000000 0 0 1
19.279438 15.499611 -0.340858 24.739661 0.677142 1.584575 0.037434 -0.018602 73197.600000 0 1 0
18.141338 16.412711 -0.786658 24.476602 0.735413 1.602941 0.029015 -0.026295 -1155630.000000 0 1 0
18.333538 17.762711 -0.400358 25.530233 0.769585 1.586479 0.027414 -0.017541 33269.500000 0 0 1
17.402538 18.607311 -1.090258 25.500372 0.818842 1.613564 0.019591 -0.025389 401612.000000 0 0 1
17.517538 20.045211 -0.538458 26.626388 0.852589 1.591020 0.023846 -0.015024 50960.400000 0 0 1
17.004038 20.250811 0.774242 26.454340 0.872329 1.541525 0.021449 -0.015661 -187282.000000 0 0 1
17.139038 21.568411 1.322842 27.580661 0.899335 1.522815 0.033329 -0.015296 171725.000000 0 0 1
16.065138 22.584911 0.807842 27.727594 0.952512 1.541657 0.029941 -0.021580 -840520.000000 0 0 1
14.800338 22.371611 1.311442 26.856263 0.986332 1.521945 0.013951 -0.015732 -1260140.000000 0 0 1
13.932338 23.317311 0.690742 27.171385 1.032209 1.545372 0.004919 -0.017436 -235831.000000 0 0 1
12.554638 23.105411 1.335142 26.329860 1.073063 1.520066 -0.001515 -0.020889 -496465.000000 0 0 1
12.517138 23.453211 2.695542 26.720737 1.080548 1.469746 -0.004472 -0.000879 -278156.000000 0 0 1
11.244338 23.670011 3.255342 26.406472 1.127311 1.447204 -0.012651 -0.000257 5282.700000 0 0 1
11.302738 24.035411 4.788242 26.988518 1.131228 1.392434 -0.012009 -0.000704 101971.000000 0 0 1
11.840438 23.015911 5.621842 26.486472 1.095659 1.356916 0.004744 -0.012188 207752.000000 0 0 1
11.118338 22.896911 6.846542 26.358321 1.118749 1.308034 -0.003540 0.003981 -627096.000000 0 0 1
11.594138 21.741311 7.752242 25.830329 1.080883 1.265976 0.011921 -0.000817 -365843.000000 0 0 1
12.733338 21.931211 8.521342 26.753115 1.044761 1.246631 0.020915 0.002619 33559.600000 0 0 1
13.956938 21.884411 7.787742 27.099307 1.003076 1.279308 0.031062 -0.001352 89341.000000 0 0 1
15.229538 21.868011 8.685042 28.028176 0.962470 1.255742 0.049427 -0.005770 70695.300000 0 0 1
15.512438 20.605111 9.312942 27.421473 0.925477 1.224281 0.057721 -0.004156 1515310.000000 0 0 1
16.835738 20.411811 9.900142 28.250609 0.881113 1.212756 0.062643 -0.010050 1326660.000000 0 0 1
17.187938 21.219711 11.188342 29.510681 0.889988 1.181942 0.048373 -0.013339 -379676.000000 0 0 1
16.455238 20.846811 12.324642 29.279022 0.902589 1.136318 0.051805 -0.012916 -294581.000000 0 0 1
16.695638 21.609011 13.503842 30.463870 0.912972 1.111548 0.058609 -0.009192 441377.000000 0 0 1
17.918238 21.110811 14.370142 31.196643 0.867016 1.092090 0.037284 -0.002928 1216810.000000 0 0 1
19.196738 21.478511 13.852342 31.964489 0.841437 1.122571 0.039930 0.002836 -39754.100000 0 0 1
20.207638 21.100911 14.767542 32.736483 0.807019 1.102795 0.023871 -0.002511 1954.330000 0 0 1
21.598838 21.425711 14.181742 33.566243 0.781374 1.134594 0.023253 -0.001302 -153558.000000 0 0 1
22.012538 20.614211 13.122342 32.889107 0.752606 1.160384 0.033304 0.001085 215767.000000 0 0 1
23.371438 20.944611 12.850742 33.912275 0.730691 1.182145 0.017237 0.008819 622482.000000 0 0 1
24.052638 20.438311 11.531142 33.603886 0.704339 1.220529 0.018129 0.003204 199090.000000 0 0 1
23.695738 21.198511 10.398242 33.451282 0.729831 1.254712 0.020960 0.003663 671611.000000 0 0 1
24.623438 20.956711 9.335442 33.654834 0.705125 1.289722 0.037473 -0.006709 -138205.000000 0 0 1
24.371938 21.975511 8.199942 33.825338 0.733738 1.325937 0.019702 -0.008836 -37984.500000 0 0 1
24.855638 23.317111 8.479642 35.119720 0.753471 1.326937 0.017041 -0.008774 1617930.000000 0 0 1
26.291838 23.512511 8.432242 36.265708 0.729651 1.336136 0.003961 -0.011464 840242.000000 0 0 1
26.662728 24.754711 9.251542 37.540482 0.748307 1.321789 -0.004905 -0.015911 -482843.000000 0 0 1
27.842178 25.418411 8.870742 38.729479 0.739922 1.339701 -0.017123 -0.007657 -50505.400000 0 0 1
28.187618 26.452111 9.741942 39.864287 0.753646 1.323918 -0.009597 -0.002530 35265.800000 0 0 1
29.435208 27.188311 9.229942 41.119673 0.745738 1.344402 -0.013642 -0.001116 -51633.300000 0 0 1
29.111388 27.991111 8.093742 41.188394 0.765782 1.373004 -0.006813 -0.006164 -558023.000000 0 0 1
30.240098 28.280511 7.343242 42.049661 0.751925 1.395264 -0.003698 0.000450 -685618.000000 0 0 1
30.032828 29.262111 6.157842 42.381138 0.772401 1.424983 0.017678 -0.000224 -92620.900000 0 0 1
30.095918 30.648411 6.545242 43.450311 0.794493 1.419583 0.019286 -0.004139 71879.500000 0 0 1
29.794668 31.570411 5.497842 43.756592 0.814327 1.444817 0.039196 -0.012401 -22594.500000 0 0 1
30.073198 33.016611 5.895642 45.047224 0.832019 1.439543 0.011317 -0.004672 -386581.000000 0 0 1
29.094398 33.520311 6.735842 44.893950 0.855966 1.420189 0.003881 -0.016834 -393374.000000 0 0 1
28.905358 -33.912503 6.644442 45.052482 -0.864939 1.422774 0.016023 -0.009441 151391.000000 0 0 1
27.497778 -33.494803 7.130642 43.918967 -0.883407 1.407715 0.044124 -0.023322 379952.000000 0 0 1
26.441188 -33.753303 6.229942 43.327059 -0.906281 1.426507 0.041601 -0.024268 202247.000000 0 0 1
25.211338 -33.155303 6.658242 42.180776 -0.920672 1.412283 0.030522 -0.029063 366310.000000 0 0 1
24.153138 -33.293803 5.559242 41.506102 -0.943190 1.436455 0.037382 -0.016982 -529774.000000 0 0 1
24.506138 -32.660503 4.402242 41.068710 -0.927084 1.463398 0.021492 0.012251 -143067.000000 0 0 1
23.490338 -32.728603 3.407642 40.429809 -0.948269 1.486411 0.036971 -0.001771 -92555.000000 0 0 1
23.867538 -32.029403 2.106942 39.999765 -0.930390 1.518098 0.038502 0.016748 -185183.000000 0 0 1
24.255838 -30.697003 2.342442 39.193605 -0.902078 1.510995 0.045138 0.021981 -23209.500000 0 0 1
24.826938 -30.110003 1.231642 39.044923 -0.881269 1.539247 0.026588 0.023657 -472879.000000 0 0 1
25.057838 -28.583803 1.362242 38.036623 -0.851036 1.534975 0.024843 0.017399 -206994.000000 0 0 1
23.927638 -27.734603 1.356642 36.654884 -0.858955 1.533777 0.017864 0.019784 -221744.000000 0 0 1
23.509738 -27.539903 0.004542 36.209861 -0.864181 1.570671 0.031310 0.014112 180023.000000 0 0 1
22.316038 -26.533503 -0.150158 34.670663 -0.871520 1.575127 0.012954 0.018053 265143.000000 0 0 1
22.549738 -25.097103 0.026442 33.739531 -0.838811 1.570013 0.011293 0.009829 -226681.000000 0 0 1
22.683738 -24.573003 1.343042 33.469212 -0.825356 1.530658 -0.010492 0.016672 -272604.000000 0 0 1
21.418638 -24.474403 2.198142 32.597335 -0.851885 1.503312 -0.014128 0.020377 -221622.000000 0 0 1
21.617938 -23.895303 3.438442 32.405919 -0.835394 1.464491 -0.017834 0.017955 -816014.000000 0 0 1
20.412838 -23.729203 4.105042 31.569136 -0.860387 1.440394 -0.011120 0.018901 -614579.000000 0 0 1
20.548338 -23.027503 5.456042 31.341162 -0.842230 1.395819 -0.011275 0.009452 -143889.000000 0 0 1
20.613638 -21.557103 5.457042 30.321775 -0.807767 1.389839 0.008953 0.011745 111606.000000 0 0 1
19.437938 -20.905403 5.006142 28.981559 -0.821757 1.397190 0.001149 0.009444 -376424.000000 0 0 1
19.425338 -19.367803 5.290542 27.936452 -0.783915 1.380268 0.011085 0.002095 93213.000000 0 0 1
19.098338 -18.983303 6.637042 27.733781 -0.782377 1.329139 0.037214 -0.007878 207878.000000 0 0 1
17.715138 -18.762703 6.872742 26.703927 -0.814108 1.310499 0.016379 0.001080 420192.000000 0 0 1
18.318438 -26.625129 -12.049358 34.491299 -0.968161 1.927668 0.056423 -0.014318 -74110.000000 0 0 1
18.482538 -25.254499 -12.196958 33.588089 -0.939012 1.942425 0.061055 -0.015119 491758.000000 0 0 1
17.336938 -24.679689 -12.856858 32.786511 -0.958409 1.973752 0.036082 -0.014553 667721.000000 0 0 1
17.626438 -23.207889 -13.330258 32.046735 -0.921242 1.999798 0.037222 -0.022084 102503.000000 0 0 1
17.766538 -22.119389 -12.430158 30.974604 -0.894100 1.983734 0.044118 -0.014521 -396230.000000 0 0 1
18.924038 -22.023089 -11.643858 31.284423 -0.860938 1.952168 0.043750 -0.020013 -763191.000000 0 0 1
18.968838 -22.820789 -10.322958 31.419241 -0.877313 1.905570 0.043212 -0.012001 -71644.200000 0 0 1
18.080138 -22.438389 -9.286458 30.275584 -0.892548 1.882553 0.044808 -0.011194 469430.000000 0 0 1
16.727338 -22.855889 -9.474358 29.865682 -0.939005 1.893606 0.042786 -0.001498 407069.000000 0 0 1
15.787538 -22.225989 -8.399458 28.527037 -0.953179 1.869664 0.029840 -0.000215 -806727.000000 0 0 1
15.893338 -20.864389 -8.389058 27.537197 -0.919821 1.880362 0.029251 -0.005614 905669.000000 0 0 1
14.875538 -20.072689 -7.704958 26.144997 -0.933026 1.869939 0.018553 -0.007097 1076280.000000 0 0 1
13.393438 -20.195389 -8.133458 25.561515 -0.985203 1.894618 0.021694 0.005925 -328909.000000 0 0 1
12.780638 -21.388289 -7.950258 26.153589 -1.032178 1.879668 0.015878 0.007294 -1162990.000000 0 0 1
11.421238 -21.373689 -8.263958 25.604146 -1.080040 1.899439 0.021893 0.009355 -504547.000000 0 0 1
10.640638 -22.661489 -7.931858 26.261772 -1.131806 1.877618 0.019545 0.007193 -149247.000000 0 0 1
10.567838 -22.843889 -6.557458 26.010051 -1.137505 1.825659 0.023334 0.006909 -107261.000000 0 0 1
10.189338 -24.131389 -6.189658 26.915765 -1.171262 1.802837 0.021039 0.005969 -18541.800000 0 0 1
10.802338 -24.638489 -4.851158 27.336411 -1.157603 1.749203 0.030922 0.000767 -225940.000000 0 0 1
10.153538 -25.731729 -4.265258 27.989438 -1.194961 1.723781 0.053011 -0.002324 -466454.000000 0 0 1
10.654538 -26.126099 -3.017758 28.376030 -1.183574 1.677347 0.034838 -0.004339 -688423.000000 0 0 1
9.863938 -27.150629 -2.241758 28.973771 -1.222319 1.648246 0.056700 -0.008558 72418.300000 0 0 1
8.743238 -26.473349 -1.667458 27.929605 -1.251809 1.630534 0.040663 -0.006977 -316976.000000 0 0 1
7.946238 -27.368899 -0.960358 28.515288 -1.288227 1.604481 0.049774 -0.015089 -122121.000000 0 0 1
7.169438 -26.653429 0.161042 27.601305 -1.308028 1.564962 0.050512 -0.008960 -202744.000000 0 0 1
5.995138 -25.963169 -0.171858 26.646902 -1.343864 1.577246 0.055672 -0.018913 -408543.000000 0 0 1
5.289438 -25.689199 1.018542 26.247867 -1.367733 1.531982 0.058343 -0.010733 -895113.000000 0 0 1
3.868338 -25.196659 0.910842 25.508142 -1.418460 1.535081 0.036510 -0.015486 -983883.000000 0 0 1
2.918638 -26.140719 0.500542 26.307911 -1.459606 1.551769 0.026941 -0.014424 -849143.000000 0 0 1
1.705738 -25.587099 0.929842 25.660744 -1.504231 1.534552 0.014817 -0.007933 1041020.000000 0 0 1
0.352338 -26.319189 0.444942 26.325308 -1.557410 1.553894 0.016351 -0.007310 1504030.000000 0 0 1
0.030438 -27.543329 1.054942 27.563541 -1.569691 1.532514 0.016711 -0.004481 -295294.000000 0 0 1
0.848238 -28.659099 0.739642 28.681188 -1.541207 1.545005 0.010523 -0.005982 -139472.000000 0 0 1
0.455038 -29.869389 1.632642 29.917436 -1.555563 1.516198 0.018904 0.001570 74599.300000 0 0 1
0.746638 -29.681479 2.989242 29.840966 -1.545647 1.470456 0.011406 0.000467 -11952.100000 0 0 1
0.232538 -30.796689 3.672342 31.015742 -1.563246 1.452115 0.022133 -0.000444 -109434.000000 0 0 1
0.426438 -30.811369 5.192642 31.248774 -1.556957 1.403851 0.024932 -0.002193 -826355.000000 0 0 1
1.731638 -30.680959 5.630242 31.241310 -1.514416 1.389588 0.012571 0.006884 -897434.000000 0 0 1
1.769938 -30.707029 7.034642 31.552187 -1.513221 1.345954 0.022633 0.003270 -8555.960000 0 0 1
3.182238 -30.998459 7.560742 32.065494 -1.468497 1.332764 0.024542 0.007512 114752.000000 0 0 1
3.283438 -32.414549 7.395942 33.409339 -1.469845 1.347574 0.012733 0.004567 46023.200000 0 0 1
4.604338 -32.874009 7.644342 34.063710 -1.431641 1.344456 0.012283 0.004595 355381.000000 0 0 1
4.788938 34.381575 7.553142 35.525717 1.432399 1.356551 -0.000545 0.015021 -200841.000000 0 0 1
4.925438 33.973382 6.226742 34.888722 1.426820 1.391361 0.002413 0.012231 -108434.000000 0 0 1
4.932638 32.579494 6.183942 33.526042 1.420534 1.385282 -0.007972 0.004916 -292226.000000 0 0 1
5.308138 31.888474 4.903142 32.696971 1.405849 1.420271 0.006839 -0.001206 -356747.000000 0 0 1
6.644338 32.176294 4.618942 33.178242 1.367161 1.431127 0.014211 -0.000988 -765427.000000 0 0 1
7.326438 31.070694 4.097742 32.184720 1.339227 1.443130 0.009668 0.002448 1013340.000000 0 0 1
8.805338 31.366634 3.590942 32.776433 1.297117 1.461017 -0.003948 -0.000865 1122430.000000 0 0 1
9.634238 31.624194 4.689642 33.390132 1.275081 1.429880 0.010125 -0.006224 -1408000.000000 0 0 1
10.924538 31.875794 4.260742 33.964183 1.240620 1.445017 0.024279 -0.007716 -783735.000000 0 0 1
11.826838 32.358564 5.423742 34.876464 1.220386 1.414650 0.030876 -0.024398 -97547.800000 0 0 1
12.271838 31.265054 6.257342 34.165128 1.196764 1.386607 0.027924 -0.017282 -177493.000000 0 0 1
13.450738 31.613964 6.934942 35.049372 1.168529 1.371620 0.045805 -0.024214 -172263.000000 0 0 1
14.095838 30.445324 7.717542 34.426311 1.137194 1.344699 0.044711 -0.015371 -563551.000000 0 0 1
13.355238 29.916414 8.768742 33.915263 1.150925 1.309277 0.041978 -0.008399 -208090.000000 0 0 1
14.019938 28.910784 9.498842 33.505523 1.119271 1.283354 0.042602 -0.012542 -33739.300000 0 0 1
13.731838 28.994744 11.013842 33.919954 1.128493 1.240101 0.031883 -0.006981 -18290.500000 0 0 1
14.598938 29.920294 11.605242 35.256696 1.116853 1.235378 0.049633 -0.003450 86484.400000 0 0 1
14.295138 30.127914 12.999542 35.791483 1.127771 1.199094 0.049297 -0.004219 88126.400000 0 0 1
15.036438 31.378604 13.568342 37.347171 1.123932 1.198986 0.054708 -0.006671 698896.000000 0 0 1
16.395138 31.052704 13.863142 37.752585 1.085018 1.194788 0.059156 -0.009757 562884.000000 0 0 1
17.013738 32.207044 14.508042 39.207707 1.084796 1.191755 0.055837 0.000424 13142.000000 0 0 1
18.262638 31.869904 15.355042 39.811959 1.050438 1.174842 0.052004 0.001593 -296854.000000 0 0 1
19.307138 31.235514 14.711242 39.558104 1.017163 1.189753 0.027697 0.001593 -433823.000000 0 0 1
19.233138 29.816244 14.625442 38.377410 0.997905 1.179816 0.018967 0.006072 -814424.000000 0 0 1
20.467238 29.109244 14.019842 38.246724 0.957981 1.195484 0.016448 0.004192 445647.000000 0 0 1
21.576338 29.427784 14.884342 39.409091 0.938137 1.183498 0.013242 0.001754 823405.000000 0 0 1
22.828838 28.916524 14.445542 39.572653 0.902507 1.197122 0.007977 0.003546 528091.000000 0 0 1
24.057238 29.091084 15.352242 40.752094 0.879830 1.184540 0.017897 -0.000595 -39587.000000 0 0 1
24.186338 28.000794 16.245642 40.409705 0.858360 1.157071 0.002105 0.002763 -320653.000000 0 0 1
25.020138 28.249844 17.335342 41.528003 0.845953 1.140173 0.010448 -0.005748 -417954.000000 0 0 1
25.823038 26.945974 17.613942 41.269429 0.806675 1.129841 -0.003429 -0.002245 52006.600000 0 0 1
25.050638 25.951394 18.303642 40.447900 0.803058 1.101203 -0.012848 0.002206 298576.000000 0 0 1
24.960738 26.051174 19.736542 41.124606 0.806771 1.070232 0.007709 -0.000403 -155055.000000 0 0 1
24.412638 24.741874 20.274342 40.239112 0.792096 1.042750 0.013087 0.006860 -273236.000000 0 0 1
25.396738 23.739524 20.212742 40.213359 0.751684 1.044149 0.010039 -0.002172 -247193.000000 0 0 1
24.827938 22.515224 20.443842 39.259553 0.736587 1.023084 0.017900 -0.000864 247077.000000 0 0 1
25.802438 21.296824 20.227742 39.095806 0.690026 1.026999 0.003943 -0.006624 620936.000000 0 0 1
25.117738 20.061124 20.402642 38.073839 0.673938 1.005258 -0.005471 0.013456 247901.000000 0 0 1
26.051038 19.027024 20.242842 38.084864 0.630822 1.010403 -0.005598 0.000781 125217.000000 0 0 1
26.724438 18.602724 21.593442 39.070880 0.608100 0.985227 0.027255 0.015975 -157563.000000 0 0 1
25.912238 17.934624 22.502042 38.722561 0.605424 0.950705 0.011772 0.023589 -163275.000000 0 0 1
26.690338 17.660624 23.630642 39.782898 0.584547 0.934787 0.033566 0.027969 -6289.280000 0 0 1
25.807038 16.996624 24.687842 39.552218 0.582400 0.896710 0.004943 0.035911 30125.200000 0 0 1
25.372738 15.720224 24.271342 38.470759 0.554686 0.888079 0.009282 0.024174 958336.000000 0 0 1
24.293838 15.168324 25.060242 38.056331 0.558146 0.851967 -0.000791 0.027455 507760.000000 0 0 1
23.925338 13.721024 24.768242 37.069584 0.520701 0.839070 0.000533 0.017416 -451136.000000 0 0 1
22.649438 13.363424 25.246742 36.455125 0.533042 0.805788 -0.007233 0.012437 351874.000000 0 0 1
22.130238 12.318924 24.385942 35.159316 0.507939 0.804344 0.000465 0.006761 605323.000000 0 0 1
20.787938 11.692324 24.884842 34.468887 0.512357 0.764179 0.003784 0.000967 760648.000000 0 0 1
19.656338 12.543824 24.960142 34.157398 0.568004 0.751393 0.003288 0.002644 487728.000000 0 0 1
18.435338 11.819224 24.895442 33.156278 0.570106 0.721446 0.012955 0.001470 301307.000000 0 0 1
17.201838 12.662524 25.254642 33.076270 0.634555 0.702038 0.010866 -0.000183 -281708.000000 0 0 1
17.075238 13.003324 26.616742 34.192121 0.650840 0.678609 0.014712 0.005787 240818.000000 0 0 1
15.898938 13.747524 26.870342 34.114306 0.712956 0.663801 0.026032 0.003877 -5302.330000 0 0 1
15.735638 14.122824 28.342842 35.360729 0.731435 0.640939 0.009717 0.015502 -351217.000000 0 0 1
15.131638 13.103224 29.090442 35.311680 0.713681 0.602680 0.018365 0.013015 -45690.500000 0 0 1
15.146038 13.356824 30.517742 36.594259 0.722707 0.584571 0.009002 0.009395 -538402.000000 0 0 1
16.478738 13.294424 31.269842 37.763653 0.678851 0.595192 0.007496 0.010711 -278375.000000 0 0 1
17.454738 14.241724 30.901842 38.241579 0.684375 0.629929 0.012183 0.008291 712078.000000 0 0 1
18.710338 13.632924 30.543842 38.325705 0.629684 0.648560 0.012452 0.015731 599985.000000 0 0 1
19.822238 14.676724 30.175742 38.973103 0.637340 0.685234 0.004621 0.017367 -201659.000000 0 0 1
19.708538 15.433324 28.996742 38.306984 0.664337 0.712152 0.002493 0.019173 126238.000000 0 0 1
19.776638 14.644124 27.818842 37.140998 0.637378 0.724235 0.009840 0.016266 -469891.000000 0 0 1
19.647838 15.478924 26.523242 36.457057 0.667269 0.756096 0.000519 0.019310 -385228.000000 0 0 1
20.660838 16.419024 26.307542 37.263136 0.671497 0.786971 -0.003771 0.026222 -71902.600000 0 0 1
20.601838 16.927524 25.028742 36.570681 0.687804 0.817025 -0.011509 0.022990 -472344.000000 0 0 1
21.510438 18.074024 24.665542 37.386605 0.698803 0.850320 -0.015419 0.023162 -641893.000000 0 0 1
21.512338 18.300324 23.261542 36.589368 0.704894 0.881822 -0.012635 0.012148 289791.000000 0 0 1
22.626338 19.001824 22.711242 37.266889 0.698548 0.915466 0.000565 0.013055 191341.000000 0 0 1
22.815938 20.455924 23.197942 38.433792 0.730913 0.922810 0.010312 0.008855 -834303.000000 0 0 1
21.981338 21.314024 22.535642 38.017391 0.769986 0.936300 0.001841 0.016029 -341847.000000 0 0 1
21.859138 22.535424 23.213042 39.045007 0.800631 0.934128 0.002243 0.015410 -51576.500000 0 0 1
20.807838 23.513924 22.646642 38.713578 0.846378 0.945942 -0.012631 0.013888 -126800.000000 0 0 1
21.262838 24.202304 21.491042 38.726279 0.849961 0.982497 0.001219 0.007449 224306.000000 0 0 1
20.458138 25.321614 21.214142 38.855622 0.891238 0.993246 -0.005155 0.007029 -723446.000000 0 0 1
21.060138 26.235954 20.114842 39.197724 0.894399 1.031930 -0.006826 0.002900 -492460.000000 0 0 1
21.104738 25.572024 18.834642 38.132429 0.880814 1.054196 -0.009671 0.002179 344057.000000 0 0 1
21.634038 26.540094 17.864142 38.620406 0.886888 1.089919 0.002156 -0.005123 -95025.200000 0 0 1
21.603938 25.844234 16.482642 37.501094 0.874528 1.115727 0.002889 0.007946 -927227.000000 0 0 1
20.311138 25.597464 16.056542 36.408585 0.900042 1.114073 0.004646 0.008136 -916475.000000 0 0 1
20.403438 25.258884 14.676742 35.633106 0.891334 1.146275 0.013863 0.009425 -118422.000000 0 0 1
19.073038 24.911084 13.908342 34.318870 0.917358 1.153524 0.024170 0.000195 657532.000000 0 0 1
18.232638 26.013854 13.629542 34.567530 0.959479 1.165504 0.034273 -0.000403 -91878.400000 0 0 1
17.493438 26.461234 14.786542 34.997987 0.986660 1.134598 0.030839 -0.003270 -854873.000000 0 0 1
15.976538 26.307754 14.549142 34.044459 1.025031 1.129229 0.048348 -0.011879 -505484.000000 0 0 1
15.460338 24.984524 14.623642 32.819193 1.016670 1.108972 0.050214 -0.008234 -24636.800000 0 0 1
15.318738 24.372464 15.871842 32.872422 1.009665 1.066911 0.046161 -0.002493 -80129.600000 0 0 1
14.200238 24.981034 16.763142 33.267127 1.053905 1.042694 0.082421 -0.020249 -178863.000000 0 0 1
14.609338 26.223154 17.317442 34.655164 1.062506 1.047535 0.062516 -0.020240 46024.500000 0 0 1
13.685538 26.739204 18.245242 35.144955 1.097741 1.024949 0.075580 -0.022442 -361972.000000 0 0 1
14.189238 27.997364 18.817342 36.596164 1.101719 1.030735 0.075269 -0.023356 -425110.000000 0 0 1
14.089738 29.060114 17.934242 36.941142 1.119344 1.063882 0.076447 -0.023688 50797.000000 0 0 1
14.648038 30.186494 18.546642 38.337545 1.119017 1.065837 0.055395 -0.016744 -72090.300000 0 0 1
14.442938 31.391714 17.561042 38.761171 1.139585 1.100604 0.052445 -0.013589 -956887.000000 0 0 1
13.144538 31.843274 17.677342 38.720297 1.179314 1.096695 0.061097 -0.009908 -964515.000000 0 0 1
12.975438 33.070691 17.008142 39.386666 1.196898 1.124281 0.045451 -0.009476 40219.300000 0 0 1
11.596338 33.733798 17.276642 39.634915 1.239691 1.119764 0.042343 -0.010686 -49819.700000 0 0 1
11.344838 -33.820199 16.681842 39.380135 -1.247146 1.133369 0.039731 -0.003434 -646545.000000 0 0 1
12.036338 -32.712869 17.116742 38.832822 -1.218231 1.114329 0.034996 -0.014469 -516397.000000 0 0 1
11.911938 -32.228169 18.578242 39.060213 -1.216757 1.075115 0.038180 -0.023223 -510026.000000 0 0 1
12.582738 -33.063259 19.447542 40.369683 -1.207155 1.068161 0.049834 -0.023626 58130.400000 0 0 1
12.298238 -32.807499 20.834942 40.763629 -1.212148 1.034314 0.056373 -0.025649 -41543.700000 0 0 1
13.538138 -33.093399 21.704942 41.827727 -1.182479 1.025218 0.067532 -0.023099 -350723.000000 0 0 1
14.670738 -32.292249 21.562842 41.508747 -1.144363 1.024557 0.062858 -0.022327 -225048.000000 0 0 1
15.729938 -32.965959 22.257742 42.773736 -1.125590 1.023524 0.069121 -0.017856 442269.000000 0 0 1
17.100638 -32.347429 21.866542 42.625504 -1.084488 1.032130 0.087960 -0.026330 175412.000000 0 0 1
17.298438 -31.023559 22.375242 41.980336 -1.062144 1.008662 0.080485 -0.034921 -165738.000000 0 0 1
18.404738 -30.413079 21.773442 41.686599 -1.026592 1.021236 0.074484 -0.027539 -573708.000000 0 0 1
-4.890362 12.995911 18.840945 23.404925 -1.210886 0.635122 0.017040 0.003319 -443833.000000 0 1 0
-4.565762 14.187911 18.197945 23.522504 -1.259456 0.686231 0.020690 -0.009012 729304.000000 0 1 0
-5.729262 15.021911 18.004145 24.137760 -1.206432 0.728924 0.015245 -0.003245 620719.000000 0 1 0
-5.380562 16.506811 17.788945 24.857027 -1.255696 0.773241 0.019601 -0.004022 -254232.000000 0 1 0
-4.950362 17.075311 18.981945 26.007433 -1.288619 0.752670 0.024907 -0.004966 152229.000000 0 0 1
-4.504062 18.385811 18.664745 26.583779 -1.330553 0.792440 0.017930 0.001169 -241824.000000 0 0 1
-3.770262 19.191011 19.788045 27.822230 -1.376807 0.779548 0.014376 -0.007067 -655544.000000 0 0 1
-4.618662 19.427811 20.830145 28.855966 -1.337394 0.764301 0.013021 -0.004231 -478008.000000 0 0 1
-4.115562 20.331611 21.773045 30.072874 -1.371073 0.761199 0.018153 -0.005811 -221538.000000 0 0 1
-5.232362 20.757511 22.740945 31.231433 -1.323870 0.755188 0.015558 0.004231 27029.800000 0 0 1
-5.695462 19.742111 23.601545 31.292525 -1.289929 0.716326 0.014969 -0.005366 -245903.000000 0 0 1
-6.342662 20.195411 24.761005 32.575932 -1.266487 0.707327 0.024620 -0.010444 157707.000000 0 0 1
-5.391162 20.592111 25.956135 33.568148 -1.314736 0.686866 0.014438 -0.012358 261027.000000 0 0 1
-4.744162 21.802211 25.493685 33.878775 -1.356536 0.718951 0.032791 -0.007950 603334.000000 0 0 1
-3.696062 22.321011 26.339995 34.722957 -1.406699 0.709672 0.026717 -0.000279 677719.000000 0 0 1
-2.274562 21.820511 26.042235 34.051524 -1.466932 0.700082 0.022730 0.000333 -402691.000000 0 0 1
-1.926762 20.496811 26.380535 33.462879 -1.477069 0.662670 0.040105 0.001181 523031.000000 0 0 1
-0.554762 20.206511 26.093405 33.007221 -1.543349 0.659112 0.037673 0.000839 818207.000000 0 0 1
0.057438 18.868811 26.619925 32.629062 1.567752 0.616625 0.047744 0.010248 735.295000 0 0 1
-0.566162 17.707711 26.088245 31.535378 -1.538835 0.596567 0.053575 0.006452 -270453.000000 0 0 1
-0.026862 16.469211 26.533765 31.229414 -1.569165 0.555494 0.053916 0.008042 -162998.000000 0 0 1
1.339038 16.035511 25.970695 30.551720 1.487485 0.554703 0.067476 0.001285 -185079.000000 0 0 1
1.366238 15.849411 24.570395 29.270714 1.484808 0.574583 0.058858 -0.008457 -362984.000000 0 0 1
1.145238 14.508411 24.149775 28.196049 1.492024 0.542356 0.071016 -0.007763 48908.400000 0 0 1
1.290438 14.267711 22.628745 26.782324 1.480597 0.564393 0.082122 -0.019935 -698778.000000 0 0 1
2.652538 14.204311 22.338045 26.604260 1.386181 0.574173 0.065330 -0.018581 -738497.000000 0 0 1
2.990638 13.466211 21.196045 25.289426 1.352259 0.576935 0.058370 -0.020464 677242.000000 0 0 1
4.505938 13.542711 20.827345 25.248501 1.249597 0.600781 0.050919 -0.019962 541699.000000 0 0 1
4.843938 14.701311 20.116245 25.382190 1.252509 0.655843 0.037795 -0.024115 778536.000000 0 0 1
6.271738 14.884311 20.012845 25.717530 1.172008 0.679035 0.039582 -0.021109 989399.000000 0 0 1
6.817738 15.979111 19.128145 25.839881 1.167516 0.737344 0.039901 -0.022544 -111375.000000 0 0 1
6.436138 15.708911 17.810245 24.604848 1.181945 0.761429 0.034421 -0.030652 158839.000000 0 1 0
6.810738 16.781611 16.918045 24.783641 1.185261 0.819441 0.024684 -0.019168 84845.000000 0 1 0
6.596538 16.326911 15.461345 23.433641 1.186822 0.850253 0.015498 -0.012660 522604.000000 0 1 0
7.520138 15.336411 14.936145 22.690227 1.114902 0.852287 0.013786 -0.013628 441140.000000 0 1 0
7.501938 14.051111 15.555545 22.264046 1.080395 0.797239 0.017908 -0.020351 -19841.400000 0 1 0
8.584838 13.144211 14.930545 21.665431 0.992226 0.810493 0.015243 -0.021032 1849720.000000 0 1 0
9.940938 13.697511 14.829445 22.502366 0.942998 0.851285 0.014534 -0.024520 1163710.000000 0 1 0
10.802938 12.813911 14.182845 21.955702 0.870343 0.868496 0.011808 -0.015654 844202.000000 0 1 0
12.224738 13.483711 13.977845 22.948525 0.834330 0.915877 0.028853 -0.013314 125736.000000 0 1 0
12.870838 13.781511 15.186345 24.211848 0.819553 0.892808 0.035279 -0.009801 217396.000000 0 1 0
14.210838 14.241311 15.247945 25.244062 0.786469 0.922259 0.028575 -0.006835 547973.000000 0 0 1
15.256638 13.298011 14.593345 24.951309 0.716913 0.946073 0.015218 -0.009292 -1430740.000000 0 1 0
16.568738 13.765711 14.676645 26.065720 0.693256 0.972709 0.029331 -0.019177 -284444.000000 0 0 1
17.380738 12.974611 13.832345 25.724781 0.641253 1.003084 0.028822 -0.019806 -663343.000000 0 0 1
18.838538 13.378111 13.706645 26.865153 0.617503 1.035377 0.026715 -0.022152 -168260.000000 0 0 1
19.623438 13.229411 14.918345 27.975947 0.593175 1.008351 0.002263 -0.016970 -38760.200000 0 0 1
20.880738 13.800711 14.708945 29.031326 0.584021 1.039493 0.009601 -0.024925 -554894.000000 0 0 1
21.819038 13.762811 15.913445 30.310445 0.562738 1.018063 0.010562 -0.011065 -261078.000000 0 0 1
22.193738 12.418211 16.178645 30.141707 0.510136 1.004213 0.005325 -0.005380 72045.200000 0 0 1
23.091938 12.238811 17.230445 31.303583 0.487361 0.987917 -0.008230 -0.006891 -483727.000000 0 0 1
23.500638 10.770311 17.456945 31.193341 0.429734 0.976849 -0.004000 0.009329 -258462.000000 0 0 1
22.542438 10.066311 18.241845 30.696205 0.419981 0.934438 -0.020986 0.007595 360257.000000 0 0 1
22.533138 8.737511 17.901345 30.075647 0.369913 0.933269 -0.019490 0.020507 -108390.000000 0 0 1
21.286238 7.915811 18.302545 29.167570 0.356028 0.892463 0.005755 0.010249 -223601.000000 0 0 1
21.433438 6.536911 18.132045 28.825241 0.296025 0.890487 0.016335 0.010423 124140.000000 0 0 1
20.208638 5.879211 18.364645 27.932317 0.283111 0.853341 0.017902 0.008086 -250812.000000 0 0 1
20.146338 4.374211 18.038145 27.393125 0.213803 0.851984 0.053094 0.001369 -887589.000000 0 0 1
20.155038 4.213811 16.622345 26.462881 0.206101 0.891638 0.079375 -0.013035 260958.000000 0 0 1
20.173238 2.852111 16.168145 26.009671 0.140450 0.899987 0.069664 -0.013717 -116455.000000 0 0 1
18.923438 1.974211 16.459145 25.157453 0.103950 0.857612 0.093011 -0.014171 13217.300000 0 0 1
18.982238 1.470511 17.785545 26.054047 0.077313 0.819427 0.070389 -0.012996 604738.000000 0 0 1
17.691438 1.010911 18.204545 25.405007 0.057079 0.771920 0.070478 -0.010361 351239.000000 0 0 1
17.773938 0.254511 19.578245 26.444003 0.014318 0.737181 0.050466 -0.006711 -126879.000000 0 0 1
18.207438 -1.079089 19.575145 26.755589 -0.059197 0.750089 0.046679 -0.004312 700100.000000 0 0 1
17.117738 -1.966989 19.907345 26.328471 -0.114408 0.713441 0.037589 0.002587 383820.000000 0 0 1
17.403338 -3.356389 19.365545 26.251968 -0.190520 0.741169 0.025973 -0.001699 -155842.000000 0 0 1
17.102238 -3.484389 17.981245 25.058984 -0.200988 0.770508 0.039900 -0.004872 289141.000000 0 0 1
17.111338 -4.841989 17.463345 24.924108 -0.275760 0.794473 0.048771 -0.002866 -360849.000000 0 1 0
16.818038 -5.013489 15.971145 23.728863 -0.289715 0.832447 0.044592 -0.012466 460360.000000 0 1 0
15.432438 -4.782889 15.647345 22.491678 -0.300537 0.801410 0.034443 -0.007221 930540.000000 0 1 0
15.078838 -4.900289 14.299645 21.350972 -0.314212 0.836935 0.038221 -0.011955 167737.000000 0 1 0
15.501638 -3.695089 13.406445 20.825158 -0.234001 0.871392 0.038645 -0.010767 134654.000000 0 1 0
14.719538 -2.521589 13.594445 20.194854 -0.169662 0.832317 0.030741 -0.011821 502376.000000 0 1 0
15.462138 -1.418689 13.151545 20.348305 -0.091496 0.868043 0.043529 -0.009473 321746.000000 0 1 0
14.500038 -0.204389 13.248245 19.642018 -0.014095 0.830530 0.040810 -0.006583 -74260.900000 0 1 0
14.980838 1.090711 12.831145 19.754833 0.072679 0.863844 0.049127 -0.008338 -142213.000000 0 1 0
15.864438 1.771311 13.654945 21.006557 0.111192 0.863169 0.063645 -0.016653 -334285.000000 0 1 0
16.108438 3.200711 13.149045 21.038624 0.196143 0.895671 0.063341 -0.018070 -193014.000000 0 1 0
15.116838 4.134911 13.477745 20.670411 0.266999 0.860536 0.064934 -0.010337 109765.000000 0 1 0
15.140438 5.228311 12.570145 20.361155 0.332500 0.905415 0.062710 -0.019725 3992.900000 0 1 0
14.182238 6.388011 12.955645 20.243302 0.423206 0.876302 0.062422 -0.012676 70859.100000 0 1 0
14.463938 7.542511 12.152645 20.341626 0.480676 0.930507 0.045670 -0.017727 104618.000000 0 1 0
13.553738 8.616611 12.168945 20.150261 0.566283 0.922399 0.034998 -0.014924 -528818.000000 0 1 0
13.599938 9.638111 13.351845 21.357042 0.616533 0.895443 0.036748 -0.018544 -307064.000000 0 1 0
13.384138 9.050111 14.612145 21.784270 0.594561 0.835555 0.059427 -0.018878 594062.000000 0 1 0
14.042938 9.609311 15.765145 23.196611 0.600098 0.823536 0.074616 -0.023750 67511.900000 0 1 0
13.481838 8.926011 17.026845 23.480781 0.584818 0.759559 0.070975 -0.022678 203798.000000 0 1 0
12.293538 9.527311 17.527445 23.433140 0.659301 0.725788 0.070249 -0.016762 190270.000000 0 1 0
11.698838 8.751711 18.553845 23.615681 0.642274 0.667038 0.074410 -0.017197 13238.800000 0 1 0
12.265038 8.988011 20.004045 25.127222 0.632412 0.649956 0.075652 -0.015172 -223188.000000 0 0 1
13.561738 8.442411 20.074745 25.655222 0.556812 0.672155 0.069314 -0.012939 -265975.000000 0 0 1
14.066538 8.700111 21.381945 27.032332 0.553909 0.658393 0.060952 -0.007887 -37249.500000 0 0 1
15.593538 8.529411 21.536245 27.923451 0.500524 0.689978 0.047158 -0.008725 -227451.000000 0 0 1
16.311738 9.465411 20.830545 28.099437 0.525795 0.735768 0.058634 0.001739 -464538.000000 0 0 1
17.220238 8.776411 19.993345 27.808197 0.471343 0.768473 0.048347 -0.001728 53083.600000 0 0 1
17.994138 9.796111 19.058845 27.982000 0.498538 0.821518 0.041991 -0.003962 325713.000000 0 0 1
18.878738 10.622211 19.815645 29.358097 0.512507 0.829881 0.016371 -0.002316 115747.000000 0 0 1
19.624038 11.493111 18.987445 29.626298 0.529812 0.875128 0.012776 0.002089 387148.000000 0 0 1
20.591138 12.380211 19.857045 31.169966 0.541331 0.880122 -0.004193 0.004028 43184.900000 0 0 1
19.826938 13.339711 20.633145 31.571855 0.592242 0.858558 0.005152 -0.001394 627450.000000 0 0 1
20.543138 14.140811 21.566845 32.971379 0.602862 0.857794 -0.009013 0.009077 533222.000000 0 0 1
21.907038 14.865111 21.246745 33.945751 0.596187 0.894508 -0.020049 0.005858 1498680.000000 0 0 1
23.031638 13.999711 21.023645 34.182479 0.546169 0.908358 -0.029832 0.008507 1052290.000000 0 0 1
24.286338 14.679411 21.124545 35.377361 0.543671 0.930890 -0.013378 0.010198 393355.000000 0 0 1
25.542238 13.827011 20.990845 35.835844 0.496169 0.944991 -0.010209 0.003585 -503960.000000 0 0 1
25.694738 13.296711 19.712445 35.008607 0.477540 0.972695 -0.013204 -0.006250 845678.000000 0 0 1
26.849838 12.424011 19.737545 35.564596 0.433383 0.982461 0.008323 -0.016801 745089.000000 0 0 1
27.038238 11.855411 18.326945 34.749014 0.413223 1.015248 0.013693 -0.019074 -499861.000000 0 0 1
27.511238 12.675711 17.317545 34.891822 0.431755 1.051440 0.012389 -0.025939 185854.000000 0 0 1
27.731038 12.031311 16.048145 34.224346 0.409349 1.082740 0.017949 -0.026349 -332230.000000 0 0 1
26.446238 11.606711 15.327545 32.696374 0.413568 1.082882 0.008421 -0.029108 -354876.000000 0 0 1
25.946438 12.579811 14.445145 32.251069 0.451444 1.106385 0.023718 -0.033468 558706.000000 0 0 1
24.860638 12.291311 13.545245 30.864240 0.459164 1.116461 0.020728 -0.025396 656366.000000 0 0 1
24.531338 13.482911 12.581345 30.689830 0.502551 1.148395 0.017882 -0.024093 -95060.600000 0 0 1
24.099438 14.674411 13.169545 31.137729 0.546946 1.134104 0.009352 -0.030835 269876.000000 0 0 1
23.792038 15.618711 12.192245 30.962171 0.580909 1.166057 0.002887 -0.022146 -575234.000000 0 0 1
22.899038 16.745811 12.704445 31.083614 0.631418 1.149747 0.000528 -0.019424 104914.000000 0 0 1
21.548238 16.328911 12.999145 29.998961 0.648464 1.122623 0.015498 -0.023515 797416.000000 0 0 1
20.762938 17.456011 13.328745 30.223622 0.699087 1.114079 0.018114 -0.017739 -782600.000000 0 0 1
20.149238 18.247311 12.145745 29.773734 0.735905 1.150605 0.039113 -0.014965 303764.000000 0 0 1
18.983238 17.676211 11.520645 28.381984 0.749760 1.152818 0.048833 -0.013536 295711.000000 0 0 1
17.812938 17.629611 12.279945 27.908797 0.780226 1.115195 0.043617 -0.011848 -586176.000000 0 0 1
16.639538 17.021911 11.445345 26.412413 0.796757 1.122610 0.041324 -0.004914 62949.900000 0 0 1
16.643138 15.627711 11.424045 25.528967 0.753943 1.106836 0.040747 -0.009714 -509186.000000 0 0 1
15.590438 15.071711 10.725845 24.192188 0.768482 1.111453 0.036391 -0.017716 -617917.000000 0 1 0
15.830138 13.689511 10.164545 23.266154 0.713010 1.118668 0.043299 -0.020645 -240767.000000 0 1 0
15.931738 12.614211 11.047945 23.129973 0.669700 1.072823 0.048310 -0.013969 388455.000000 0 1 0
16.430238 11.510211 10.362745 22.579286 0.611095 1.093984 0.047405 -0.011102 -191114.000000 0 1 0
16.737838 10.204911 11.038845 22.497811 0.547515 1.057946 0.051768 -0.017698 -654109.000000 0 1 0
17.390138 9.259911 10.153245 22.164188 0.489293 1.094948 0.055452 -0.020139 745485.000000 0 1 0
18.077338 8.175811 10.763945 22.572030 0.424739 1.073705 0.072992 -0.016363 -36628.500000 0 1 0
19.355138 8.512811 11.516045 24.077138 0.414358 1.072081 0.057126 -0.014361 -1148450.000000 0 1 0
19.078638 9.160511 12.745045 24.705172 0.447638 1.028755 0.046161 -0.016244 654299.000000 0 1 0
20.221638 9.300811 13.613345 26.091050 0.431092 1.021880 0.043947 -0.016300 -83364.000000 0 0 1
19.784038 9.590011 15.050445 26.643805 0.451361 0.970513 0.031067 0.000677 118733.000000 0 0 1
19.043038 8.634511 15.775245 26.192564 0.425695 0.924443 0.040655 -0.001986 1437230.000000 0 0 1
17.693338 8.327711 15.358345 24.865312 0.439909 0.905031 0.053788 -0.014568 629589.000000 0 1 0
17.272738 6.877011 15.686745 24.325187 0.378904 0.869934 0.067400 -0.016990 -215560.000000 0 1 0
17.051438 6.589011 17.048845 24.996594 0.368745 0.820239 0.089726 -0.009838 226146.000000 0 1 0
16.355638 5.383211 17.305345 24.412308 0.317967 0.782890 0.104775 -0.007939 676240.000000 0 1 0
14.791638 5.500811 17.411945 23.499517 0.356038 0.736314 0.106909 -0.023757 956849.000000 0 1 0
14.084238 4.288811 17.654045 22.987495 0.295591 0.695108 0.099930 -0.016745 238695.000000 0 1 0
13.732238 3.616211 16.421445 21.709795 0.257492 0.712994 0.096937 -0.020399 -224316.000000 0 1 0
13.333638 2.166211 16.615645 21.413968 0.161055 0.682615 0.069457 -0.015125 -160481.000000 0 1 0
14.426538 1.325911 16.945245 22.294043 0.091650 0.707361 0.056713 -0.009063 -48174.200000 0 1 0
14.341838 -0.115289 16.884045 22.153387 -0.008038 0.704180 0.051043 -0.001789 -272416.000000 0 1 0
13.351638 -0.663689 17.956545 22.386251 -0.049668 0.639953 0.044440 -0.004710 1536590.000000 0 1 0
11.976138 -0.502489 17.513345 21.222573 -0.041933 0.600200 0.041799 -0.005464 1119100.000000 0 1 0
11.117938 -1.458689 18.123145 21.311609 -0.130456 0.554073 0.028750 -0.006643 237078.000000 0 1 0
-25.392282 14.652911 28.555525 40.925466 -0.523382 0.798552 0.007680 -0.002686 -272217.000000 0 0 1
-24.858162 14.438411 29.848135 41.440404 -0.526206 0.766610 0.003318 -0.003530 360162.000000 0 0 1
-24.158662 13.203511 29.895555 40.641332 -0.500178 0.744252 0.006175 -0.001407 563197.000000 0 0 1
-22.891362 13.088811 30.812415 40.555349 -0.519411 0.707849 0.002562 -0.003985 550720.000000 0 0 1
-23.297862 13.190911 32.153875 41.840915 -0.515185 0.694335 0.001544 -0.009553 289466.000000 0 0 1
-22.172062 13.086411 33.009119 41.862351 -0.533198 0.662405 0.003550 -0.004132 -415907.000000 0 0 1
-22.533962 13.222411 -34.264553 43.089108 -0.530640 2.490137 0.005520 -0.000030 221589.000000 0 0 1
-23.332562 12.155511 -33.719638 42.768901 -0.480281 2.479024 0.013010 -0.002572 131781.000000 0 0 1
-23.985362 12.578111 -32.562118 42.353253 -0.482983 2.447793 0.005501 0.003020 -314476.000000 0 0 1
-24.880362 11.543311 -31.898368 42.068829 -0.434396 2.431409 0.004832 -0.005020 -76128.300000 0 0 1
-24.210162 10.460511 -31.183038 40.840374 -0.407845 2.439565 0.018900 -0.007184 328760.000000 0 0 1
-23.888262 9.343011 -32.027138 41.032652 -0.372822 2.466307 0.023169 -0.009283 -490562.000000 0 0 1
-23.031562 8.365011 -31.272458 39.728993 -0.348384 2.476962 0.026079 -0.004423 -444620.000000 0 0 1
-23.653462 7.740111 -30.167538 39.108515 -0.316247 2.451804 0.030870 -0.004530 529411.000000 0 0 1
-22.725762 6.861411 -29.540308 37.896821 -0.293219 2.464652 0.029081 -0.003227 235565.000000 0 0 1
-23.436662 6.039611 -28.430048 37.336600 -0.252212 2.436347 0.028782 0.001940 -9986.670000 0 0 1
-24.248462 5.013211 -28.932228 38.081413 -0.203871 2.433720 0.032976 -0.011802 62038.700000 0 0 1
-24.528162 4.119811 -27.895928 37.373606 -0.166409 2.413443 0.043854 -0.005934 -354306.000000 0 0 1
-25.273072 2.850111 -28.393418 38.118729 -0.112298 2.411133 0.030765 -0.006621 412713.000000 0 0 1
-26.636172 2.861511 -28.766138 39.308582 -0.107019 2.391760 0.023903 -0.011929 293889.000000 0 0 1
-26.980962 3.624511 -29.905198 40.440454 -0.133536 2.403105 0.025320 -0.012848 -685192.000000 0 0 1
-28.310432 3.146911 -30.523038 41.749724 -0.110703 2.390723 0.030942 -0.019643 -1018190.000000 0 0 1
-29.366502 3.196811 -29.619348 41.832007 -0.108432 2.357536 0.026434 -0.027219 -674279.000000 0 0 1
-30.617962 3.543011 -30.137398 43.107718 -0.115204 2.344960 0.029539 -0.023464 -53416.600000 0 0 1
-30.801592 4.966311 -30.754658 43.809261 -0.159860 2.349016 0.026738 -0.023997 -936907.000000 0 0 1
-30.028642 5.212611 -31.930938 44.141539 -0.171875 2.379476 0.034633 -0.023620 55533.400000 0 0 1
-30.249772 6.465011 -32.535428 44.893198 -0.210553 2.381438 0.040212 -0.021097 -862373.000000 0 0 1
-29.930902 7.784511 -31.741388 44.316738 -0.254446 2.369195 0.020846 -0.013419 592134.000000 0 0 1
-28.546442 8.006711 -31.430818 43.207674 -0.273454 2.385374 0.033188 -0.021164 959210.000000 0 0 1
-28.023442 7.311711 -30.288468 41.906631 -0.255224 2.378585 0.016582 -0.016214 -498978.000000 0 0 1
-28.066002 8.143311 -28.971028 41.150146 -0.282394 2.351856 0.009887 -0.011556 -315088.000000 0 0 1
-29.370782 8.351711 -28.522058 41.783989 -0.277042 2.322121 0.012209 -0.007334 -262299.000000 0 0 1
-30.044782 7.381611 -27.769428 41.573047 -0.240915 2.302270 0.020846 0.000727 154577.000000 0 0 1
-31.289152 8.006811 -27.052118 42.130003 -0.250521 2.268044 -0.003630 0.002928 282061.000000 0 0 1
-30.962452 8.888711 -25.948778 41.364498 -0.279562 2.248903 -0.010016 0.007039 89763.100000 0 0 1
-30.749712 8.128311 -24.810058 40.337987 -0.258427 2.233251 -0.007618 0.006174 -312895.000000 0 0 1
-30.171902 8.941811 -23.631958 39.354404 -0.288116 2.214911 -0.002139 0.003268 -427629.000000 0 0 1
-31.007012 9.893211 -22.986158 39.845626 -0.308853 2.185701 -0.002216 0.002958 -222656.000000 0 0 1
-30.311582 10.890411 -22.315658 39.183947 -0.344920 2.176706 -0.003822 0.003728 -717896.000000 0 0 1
-31.183772 11.767411 -21.431358 39.625784 -0.360835 2.142236 -0.010142 0.003990 -316475.000000 0 0 1
-31.619342 11.043111 -20.318358 39.173572 -0.336008 2.116097 -0.014513 -0.003590 133315.000000 0 0 1
-32.219462 11.723111 -19.221358 39.306306 -0.348961 2.081756 -0.019954 0.004210 237275.000000 0 0 1
-31.265952 12.721511 -18.490558 38.487626 -0.386424 2.071940 -0.022808 0.005528 -82679.200000 0 0 1
-30.656282 12.227111 -17.324458 37.275283 -0.379510 2.054172 -0.002156 0.010294 -129487.000000 0 0 1
-31.445182 11.968411 -16.167258 37.328576 -0.363682 2.018733 -0.006472 0.007929 -186711.000000 0 0 1
-31.939342 13.207711 -15.348958 37.817400 -0.392111 1.988727 -0.011989 0.015501 50666.700000 0 0 1
-32.917922 13.951611 -16.049058 39.189403 -0.400879 1.992730 -0.020599 0.012200 38662.200000 0 0 1
-33.480492 14.948811 -15.256158 39.713482 -0.419934 1.965089 -0.021955 0.014976 96602.500000 0 0 1
-34.186004 15.999611 -16.194858 41.072422 -0.437735 1.976102 -0.021824 0.001551 1065110.000000 0 0 1
-35.508547 15.657211 -16.668058 42.235404 -0.415296 1.976480 -0.014865 -0.002809 1065920.000000 0 0 1
35.421661 16.728011 -17.404958 42.865522 0.441205 1.988909 -0.010324 -0.006365 -743630.000000 0 0 1
34.897118 16.363011 -18.797958 42.882633 0.438454 2.024568 -0.013419 -0.003563 -259160.000000 0 0 1
33.721138 15.604811 -18.889758 41.682709 0.433415 2.041125 0.010717 -0.013567 43762.700000 0 0 1
32.544638 16.395411 -18.831458 41.019346 0.466669 2.047764 0.035527 -0.020978 -832750.000000 0 0 1
31.335238 15.463311 -18.955358 39.753198 0.458418 2.067837 0.039068 -0.027106 -518130.000000 0 0 1
30.900448 15.134811 -20.328158 39.964161 0.455448 2.104424 0.027775 -0.024888 608946.000000 0 0 1
29.923388 14.097711 -20.292358 38.806370 0.440283 2.121061 0.029332 -0.021809 91512.000000 0 0 1
30.431838 12.641411 -20.053758 38.575319 0.393712 2.117483 0.017984 -0.004201 -177727.000000 0 0 1
31.071558 12.389911 -18.827458 38.385216 0.379432 2.083445 0.025074 -0.006481 47711.600000 0 0 1
31.628688 11.110411 -18.799858 38.435007 0.337811 2.081893 0.025307 -0.001400 -108422.000000 0 0 1
31.987298 10.639011 -17.376958 37.925380 0.321091 2.046752 0.025162 0.004684 -234723.000000 0 0 1
30.832618 10.457811 -16.605858 36.548196 0.327003 2.042444 0.026860 -0.004409 118421.000000 0 0 1
31.204998 10.093911 -15.282558 36.182807 0.312848 2.006856 0.008258 -0.007141 84468.700000 0 0 1
30.688548 11.200511 -14.346758 35.680077 0.349952 1.984599 0.025308 -0.013439 355812.000000 0 0 1
29.266578 11.178211 -14.192058 34.393306 0.364845 1.996147 0.037842 -0.006754 569383.000000 0 0 1
28.881478 12.157211 -13.275058 34.031819 0.398422 1.971512 0.043970 -0.008054 -429634.000000 0 0 1
27.414318 12.607911 -13.376358 33.006533 0.431058 1.988064 0.058152 -0.006598 -54390.500000 0 0 1
26.604478 11.651011 -12.674058 31.688737 0.412775 1.982264 0.048964 -0.003681 832175.000000 0 0 1
25.300338 11.389311 -13.236058 30.741124 0.422991 2.015915 0.045359 -0.003394 670157.000000 0 0 1
25.159438 10.528111 -14.548258 30.911005 0.396315 2.060823 0.033471 -0.013252 -476266.000000 0 0 1
25.452938 9.134011 -14.416358 30.644960 0.344545 2.060576 0.026829 -0.009011 1721530.000000 0 0 1
26.887968 8.886711 -14.483658 31.807433 0.319206 2.043567 0.030745 -0.016977 1053700.000000 0 0 1
27.426838 7.719211 -13.645858 31.591567 0.274350 2.017446 0.038769 -0.017523 -459984.000000 0 0 1
26.961108 6.443511 -13.868658 30.996126 0.234592 2.034688 0.035427 -0.023514 122521.000000 0 0 1
25.941338 6.008811 -13.005858 29.634628 0.227617 2.025141 0.043467 -0.019232 -272369.000000 0 0 1
25.785938 4.481811 -13.097558 29.266828 0.172089 2.034789 0.037080 -0.022274 -287976.000000 0 0 1
24.773538 4.081011 -12.216158 27.921629 0.163266 2.023631 0.051405 -0.025662 114341.000000 0 0 1
24.533338 2.678411 -12.379958 27.610178 0.108744 2.035753 0.042262 -0.029030 -112228.000000 0 0 1
23.603838 2.094411 -11.287258 26.247474 0.088500 2.015325 0.046281 -0.027097 -225797.000000 0 0 1
24.234438 1.872611 -10.034058 26.296330 0.077117 1.962297 0.042530 -0.025646 672352.000000 0 0 1
23.355638 1.526111 -8.950358 25.058407 0.065250 1.936043 0.042868 -0.017345 -522755.000000 0 0 1
24.105438 1.238711 -7.599458 25.305302 0.051342 1.875815 0.050315 -0.011624 56477.700000 0 0 1
24.417238 -0.094289 -7.216158 25.461409 -0.003862 1.858150 0.049332 -0.018843 377933.000000 0 0 1
25.309538 -0.743589 -8.083458 26.579464 -0.029371 1.879815 0.055488 -0.023677 -729939.000000 0 0 1
25.576338 -2.185489 -7.656958 26.787206 -0.085243 1.860683 0.065455 -0.026183 51808.700000 0 0 1
26.590738 -2.309889 -6.652858 27.507516 -0.086651 1.815075 0.072420 -0.024588 527700.000000 0 0 1
26.528768 -3.559389 -6.070858 27.446313 -0.133374 1.793831 0.076516 -0.033351 -380189.000000 0 0 1
27.824668 -4.072989 -5.436358 28.641846 -0.145348 1.761760 0.083368 -0.024746 159040.000000 0 0 1
28.981828 -4.203389 -6.242858 29.943081 -0.144031 1.780828 0.073228 -0.018304 -144169.000000 0 0 1
30.139578 -4.543589 -5.578458 30.986409 -0.149625 1.751812 0.070920 -0.015248 -705940.000000 0 0 1
31.264868 -4.853689 -6.582358 32.316833 -0.154015 1.775914 0.061935 -0.011138 -307932.000000 0 0 1
31.145768 -6.118289 -7.194558 32.546182 -0.193971 1.793694 0.056331 -0.015454 230983.000000 0 0 1
31.879598 -6.133289 -8.415858 33.537332 -0.190067 1.824448 0.050484 -0.016115 -529268.000000 0 0 1
31.173658 -6.965289 -9.553658 33.340435 -0.219824 1.861419 0.052404 -0.012805 1257360.000000 0 0 1
29.880218 -6.399389 -9.877358 32.114511 -0.210981 1.883431 0.054782 -0.014682 1078210.000000 0 0 1
28.831218 -6.917389 -9.065958 31.004532 -0.235476 1.867540 0.063171 -0.011670 -269513.000000 0 0 1
27.594008 -5.964589 -9.108258 29.664220 -0.212880 1.882883 0.064836 -0.013338 -136626.000000 0 0 1
26.870748 -5.970489 -10.333358 29.401737 -0.218641 1.929920 0.051160 -0.008358 765432.000000 0 0 1
25.663238 -5.215589 -10.258458 28.125435 -0.200501 1.944149 0.052117 -0.014609 1594310.000000 0 0 1
24.339938 -5.872589 -9.662858 26.838232 -0.236749 1.939108 0.054122 -0.015013 -147924.000000 0 0 1
24.413138 -6.270289 -8.271458 26.528001 -0.251407 1.887884 0.052713 -0.019514 586892.000000 0 0 1
23.234838 -6.875189 -7.729558 25.433678 -0.287691 1.879591 0.044707 -0.025508 495052.000000 0 0 1
22.139738 -5.777789 -7.402858 24.048974 -0.255276 1.883702 0.042265 -0.016127 -43148.300000 0 1 0
21.613138 -5.042589 -8.477858 23.757725 -0.229211 1.935686 0.040854 -0.017924 371160.000000 0 1 0
21.270638 -3.695689 -8.145158 23.074699 -0.172029 1.931562 0.024937 -0.016891 -56830.000000 0 1 0
21.242038 -2.878489 -9.442058 23.423542 -0.134689 1.985699 0.028934 -0.009823 272523.000000 0 1 0
22.562738 -2.615089 -9.907158 24.780388 -0.115388 1.982093 0.037602 -0.017679 969627.000000 0 1 0
22.506238 -1.840189 -11.058758 25.143849 -0.081582 2.026194 0.040846 -0.019836 69872.700000 0 0 1
23.817438 -2.092489 -11.859158 26.688733 -0.087630 2.031246 0.042676 -0.015876 245671.000000 0 0 1
24.890638 -1.389689 -11.249058 27.349888 -0.055774 1.994678 0.046811 -0.025086 246697.000000 0 0 1
26.050038 -1.454389 -12.046658 28.737461 -0.055773 2.003357 0.039391 -0.024753 -122880.000000 0 0 1
27.030768 -0.280789 -11.736658 29.470161 -0.010387 1.980411 0.038798 -0.016073 381239.000000 0 0 1
28.313418 -0.549189 -12.300758 30.874907 -0.019394 1.980575 0.038899 -0.013169 1436510.000000 0 0 1
29.362008 0.439711 -12.093758 31.758146 0.014974 1.961466 0.038911 -0.013136 747491.000000 0 0 1
29.327128 1.779611 -12.914358 32.094051 0.060607 1.984924 0.041368 -0.016292 -484572.000000 0 0 1
29.577478 1.503011 -14.258758 32.869415 0.050772 2.019503 0.042461 -0.018015 464666.000000 0 0 1
29.840768 2.722411 -15.009158 33.513546 0.090979 2.035159 0.047276 -0.014937 -174455.000000 0 0 1
30.001778 2.408811 -16.488658 34.318871 0.080117 2.071969 0.038479 -0.014817 1168180.000000 0 0 1
28.812908 1.863211 -17.178158 33.596790 0.064576 2.107497 0.027510 -0.004785 1279290.000000 0 0 1
29.045288 1.662711 -18.529158 34.492362 0.057183 2.137905 0.030153 -0.007350 -609122.000000 0 0 1
27.949048 0.955711 -19.315858 33.987719 0.034181 2.175257 0.006790 -0.000222 -353288.000000 0 0 1
27.674408 -0.415089 -19.012158 33.578376 -0.014998 2.172688 0.009258 0.002718 181058.000000 0 0 1
27.083658 -0.997989 -20.166658 33.781868 -0.036832 2.210511 -0.006975 0.003987 -70795.800000 0 0 1
26.831768 -2.578489 -20.077758 33.611140 -0.095804 2.210994 -0.005851 -0.000987 178128.000000 0 0 1
25.733438 -2.958789 -19.242258 32.268076 -0.114476 2.209711 0.006264 -0.000659 348561.000000 0 0 1
25.554438 -4.346389 -19.344258 32.343789 -0.168471 2.211903 0.006306 -0.002398 108739.000000 0 0 1
26.489698 -5.272089 -18.471758 32.721627 -0.196457 2.170639 0.001175 0.001259 1041560.000000 0 0 1
27.871138 -5.244689 -18.874658 34.066990 -0.186001 2.158012 -0.008125 0.003671 667278.000000 0 0 1
28.651938 -5.427289 -17.702458 34.114015 -0.187203 2.116384 0.005326 0.002363 369637.000000 0 0 1
30.184008 -5.315289 -17.956158 35.521124 -0.174309 2.100765 0.008127 0.003117 571493.000000 0 0 1
30.783068 -6.445589 -18.592758 36.535374 -0.206405 2.104700 -0.006422 0.009339 -553191.000000 0 0 1
32.097168 -6.264589 -18.992258 37.817709 -0.192753 2.096944 0.014570 0.007698 -617190.000000 0 0 1
32.737668 -7.467889 -19.714358 38.938158 -0.224276 2.101684 0.009248 0.020473 -73535.500000 0 0 1
32.930528 -8.439989 -18.767958 38.831551 -0.250896 2.075236 0.010706 0.009747 -81990.700000 0 0 1
33.369868 -9.640889 -19.340858 39.756303 -0.281252 2.078859 0.012725 0.018066 -188450.000000 0 0 1
34.030368 -10.537689 -18.251858 40.027980 -0.300291 2.044267 0.027470 0.004031 -563763.000000 0 0 1
33.169898 -10.913689 -17.213358 38.931355 -0.317867 2.028787 0.000392 0.004585 -149144.000000 0 0 1
33.855998 -11.442589 -16.083758 39.189906 -0.325925 1.993695 0.020171 -0.010133 -36124.500000 0 0 1
34.962178 -10.595089 -15.334758 39.620255 -0.294247 1.968219 0.038818 -0.017434 456679.000000 0 0 1
35.566620 -11.342689 -14.256758 39.961184 -0.308717 1.935599 0.025303 -0.015476 836908.000000 0 0 1
-35.166542 -12.621989 -14.373358 40.032408 0.344600 1.938039 0.012731 0.000457 17967.700000 0 0 1
-33.790592 -12.661889 -15.106558 39.119505 0.358522 1.967266 0.025467 0.000041 72690.400000 0 0 1
-33.815742 -12.352389 -16.491558 39.598705 0.350226 2.000352 0.033470 -0.002601 -527052.000000 0 0 1
-32.557662 -12.459489 -17.079558 38.819474 0.365495 2.026366 0.057282 -0.004425 -519820.000000 0 0 1
-32.404872 -11.705789 -18.442658 39.079827 0.346649 2.062267 0.081115 -0.004775 126476.000000 0 0 1
-32.397312 -10.301189 -18.337558 38.625981 0.307855 2.065473 0.067821 -0.006610 -404982.000000 0 0 1
-33.647632 -9.741789 -18.577858 39.651008 0.281818 2.058427 0.056875 -0.005483 -724289.000000 0 0 1
-33.696162 -8.264589 -18.191858 39.174973 0.240520 2.053725 0.073129 -0.012127 -1275730.000000 0 0 1
-34.930288 -7.724789 -18.374958 40.217366 0.217646 2.045293 0.072889 -0.008941 -1159850.000000 0 0 1
-34.992740 -6.354789 -18.058958 39.887356 0.179645 2.040642 0.060888 -0.010424 -156945.000000 0 0 1
23.597938 27.505011 -26.928908 45.150353 0.861705 2.209839 0.020953 0.004715 21881.800000 0 0 1
24.412238 26.665311 -26.114958 44.598063 0.829480 2.196370 0.023721 -0.006600 -30805.000000 0 0 1
25.570238 26.253911 -26.807988 45.406752 0.798590 2.202346 0.029219 -0.011102 -18666.100000 0 0 1
26.542538 25.402211 -25.946458 44.977743 0.763449 2.185692 0.020920 -0.007839 -455870.000000 0 0 1
27.037438 26.135511 -24.824758 45.059479 0.768438 2.154278 0.031003 -0.000735 203900.000000 0 0 1
27.333138 25.224411 -23.830858 44.173308 0.745297 2.140622 0.024427 0.005826 -277074.000000 0 0 1
27.900138 25.875811 -22.528258 44.221010 0.747772 2.105338 0.033745 0.008341 191308.000000 0 0 1
26.989338 26.510511 -21.632758 43.579901 0.776448 2.090235 0.035059 0.007977 329677.000000 0 0 1
27.655838 27.573911 -20.957058 44.321149 0.783915 2.063314 0.016864 0.013497 319378.000000 0 0 1
26.658538 28.542311 -20.258558 43.997163 0.819511 2.049300 0.027609 0.022053 33350.700000 0 0 1
26.060238 27.968811 -19.135158 42.749791 0.820708 2.034885 0.037836 0.012180 -282272.000000 0 0 1
25.156738 28.880711 -18.570858 42.565640 0.854204 2.022265 0.037853 0.007982 -140366.000000 0 0 1
24.237038 28.244511 -17.477658 41.117575 0.861610 2.009830 0.043234 0.000787 -280230.000000 0 0 1
23.200538 27.489511 -18.047958 40.245086 0.869809 2.035828 0.046324 0.003707 -762058.000000 0 0 1
22.215138 27.436011 -17.064158 39.210108 0.890164 2.021054 0.028543 0.003635 -445570.000000 0 0 1
21.075338 26.459211 -17.431658 38.054204 0.898180 2.046624 0.023973 0.008028 110323.000000 0 0 1
20.311938 26.813411 -18.579658 38.428343 0.922494 2.075432 0.020035 0.006124 242352.000000 0 0 1
19.399838 25.812211 -19.021458 37.475856 0.926287 2.103153 0.021231 0.002786 425840.000000 0 0 1
18.691738 26.041511 -20.386458 37.988801 0.948245 2.137251 0.013857 0.008950 -291507.000000 0 0 1
17.777638 27.084811 -20.305658 38.235470 0.989957 2.130658 0.003070 0.009280 -1018610.000000 0 0 1
16.840038 26.980511 -21.336658 38.298666 1.012804 2.161701 0.000248 0.011021 -389551.000000 0 0 1
15.750238 28.068711 -21.162058 38.519544 1.059447 2.152424 -0.000371 0.015098 -131007.000000 0 0 1
15.011538 27.721211 -20.011158 37.339768 1.074488 2.136394 0.001378 0.015807 -545226.000000 0 0 1
14.296038 28.795211 -19.504858 37.602930 1.109974 2.116133 -0.010237 0.014403 -402150.000000 0 0 1
13.946238 28.651511 -18.053758 36.624375 1.117802 2.086266 -0.002688 0.008774 -169882.000000 0 0 1
12.933238 27.702311 -17.813158 35.383545 1.134006 2.098361 -0.001608 0.010207 -321613.000000 0 0 1
12.701438 27.549711 -16.450358 34.509816 1.138802 2.067678 0.023587 0.005665 268517.000000 0 0 1
11.649938 26.454411 -16.130558 33.102142 1.155973 2.079787 0.028200 0.003552 161936.000000 0 0 1
12.250538 25.192211 -16.102358 32.311130 1.118183 2.092495 0.024495 0.003655 292187.000000 0 0 1
11.314938 24.129211 -15.844458 31.004733 1.132311 2.107183 0.042151 -0.000374 540337.000000 0 0 1
12.087238 22.815611 -15.847758 30.295294 1.083610 2.121292 0.035038 0.001289 262923.000000 0 0 1
12.749038 22.637211 -17.058358 31.080040 1.057883 2.151787 0.034825 0.002460 -384922.000000 0 0 1
13.523638 21.487811 -17.315258 30.731628 1.009066 2.169333 0.037840 0.004492 -40667.500000 0 0 1
12.681638 20.278611 -17.704458 29.757249 1.011931 2.208016 0.037648 -0.004991 7721.360000 0 0 1
12.098438 19.717511 -16.549858 28.443809 1.020445 2.191790 0.044738 -0.012617 -211932.000000 0 0 1
11.452738 18.474111 -16.801258 27.472536 1.015848 2.228834 0.049516 -0.016060 361233.000000 0 0 1
12.471938 17.289511 -16.977358 27.252653 0.945879 2.243319 0.029524 -0.017745 578794.000000 0 0 1
13.241238 17.010711 -15.824458 26.741506 0.909362 2.204032 0.040531 -0.025204 367804.000000 0 0 1
14.412538 16.239711 -16.134958 27.051550 0.844937 2.209870 0.036906 -0.021523 -23943.600000 0 0 1
14.968738 15.612211 -14.811258 26.214073 0.806437 2.171244 0.050883 -0.014210 -844693.000000 0 0 1
15.844438 16.373511 -14.000258 26.742201 0.801818 2.121781 0.033224 -0.006769 288623.000000 0 0 1
17.132738 16.699011 -14.472158 27.961242 0.772579 2.114816 0.018010 -0.003440 -491977.000000 0 0 1
18.063638 15.477111 -14.797458 28.014295 0.708435 2.127289 0.013680 -0.007771 -951113.000000 0 0 1
18.271438 14.607911 -13.659458 27.089062 0.674433 2.099301 0.012035 -0.012623 260715.000000 0 0 1
19.113938 15.116311 -12.643058 27.453459 0.669138 2.049385 0.014737 -0.005392 -201512.000000 0 0 1
19.950438 13.991911 -11.965258 27.147025 0.611620 2.027239 0.023807 -0.000387 -79460.400000 0 0 1
19.108738 13.122911 -11.232058 25.758761 0.601777 2.021999 0.043889 -0.006703 385665.000000 0 0 1
19.799438 12.082111 -10.554758 25.483290 0.547904 1.997842 0.051048 0.005001 -120964.000000 0 0 1
19.919938 10.806811 -11.345758 25.343980 0.497076 2.034955 0.041863 -0.005565 -215849.000000 0 0 1
20.956538 10.853911 -12.361058 26.641690 0.477884 2.053273 0.044016 -0.003922 1060350.000000 0 0 1
21.239838 9.665511 -13.111258 26.766731 0.427058 2.082696 0.036770 -0.013323 -127433.000000 0 0 1
22.029738 8.558611 -12.387458 26.683484 0.370556 2.053569 0.036166 -0.002196 118046.000000 0 0 1
21.223738 8.002411 -11.310858 25.346028 0.360567 2.033375 0.033294 -0.014874 1234640.000000 0 0 1
21.935738 6.986111 -10.592758 25.341446 0.308324 2.002040 0.030580 -0.006502 -650931.000000 0 0 1
22.141138 5.563211 -11.151058 25.407192 0.246165 2.025163 0.039365 -0.020442 46319.400000 0 0 1
20.954338 4.839611 -11.477258 24.376906 0.226980 2.061022 0.034312 -0.031009 385712.000000 0 1 0
20.257638 5.330111 -12.568458 24.428429 0.257285 2.111222 0.008324 -0.027389 -221277.000000 0 1 0
19.166638 4.353711 -13.086058 23.612703 0.223360 2.158193 0.008769 -0.032656 132474.000000 0 1 0
19.853038 3.302611 -13.715658 24.355074 0.164843 2.168994 0.020899 -0.028400 662061.000000 0 1 0
19.059138 2.142011 -14.001158 23.745976 0.111918 2.201388 0.030097 -0.022431 158053.000000 0 1 0
19.914738 1.040211 -14.693458 24.770477 0.052186 2.205805 0.049779 -0.015291 251706.000000 0 1 0
20.928538 0.457411 -13.886158 25.120476 0.021852 2.156496 0.058181 -0.016326 893897.000000 0 0 1
22.189638 0.300111 -14.539258 26.530362 0.013524 2.150796 0.039096 -0.022294 325988.000000 0 0 1
22.339638 -1.077689 -15.187058 27.034563 -0.048204 2.167313 0.034916 -0.012109 -853453.000000 0 0 1
21.619438 -1.423089 -16.368158 27.154040 -0.065730 2.217788 0.032000 -0.006540 46144.700000 0 0 1
22.116138 -2.581689 -16.955358 27.987012 -0.116207 2.221604 0.025481 -0.009547 -1160370.000000 0 0 1
21.202138 -3.218389 -17.946258 27.963492 -0.150645 2.267606 0.026537 -0.001615 -1145400.000000 0 0 1
20.124638 -3.821589 -17.295858 26.809556 -0.187662 2.272000 0.037117 -0.002611 -887807.000000 0 0 1
19.434238 -4.442289 -18.273358 27.043283 -0.224720 2.312721 0.041085 -0.006421 -513846.000000 0 0 1
18.508138 -5.565289 -17.703258 26.209330 -0.292094 2.312380 0.048097 -0.003371 552228.000000 0 0 1
19.283638 -6.693389 -17.162358 26.668459 -0.334091 2.269917 0.044173 0.004259 459379.000000 0 0 1
18.495738 -7.663789 -16.574858 25.991382 -0.392819 2.262313 0.051520 0.008949 -405693.000000 0 0 1
19.306438 -8.834689 -15.970858 26.567999 -0.429159 2.215712 0.054823 0.009362 102727.000000 0 0 1
20.045338 -9.696589 -16.817158 27.904412 -0.450549 2.217639 0.050968 0.005265 599331.000000 0 0 1
20.903138 -10.558589 -16.076858 28.405816 -0.467735 2.172406 0.046218 0.001639 -118124.000000 0 0 1
21.700538 -11.451089 -17.054458 29.881354 -0.485551 2.178202 0.037125 -0.002603 -188455.000000 0 0 1
22.674538 -10.779989 -17.828758 30.792978 -0.443793 2.188283 0.025572 0.003041 -20177.900000 0 0 1
23.142638 -11.608189 -18.896458 32.053204 -0.464921 2.201278 0.024336 0.000189 -412196.000000 0 0 1
22.240238 -11.792289 -20.181458 32.264183 -0.487533 2.246577 0.033662 -0.001987 520353.000000 0 0 1
21.035638 -12.513889 -19.955658 31.580434 -0.536654 2.254798 0.056254 -0.016141 347610.000000 0 0 1
21.146038 -13.901689 -19.989258 32.248757 -0.581569 2.239343 0.049269 -0.008587 -550979.000000 0 0 1
19.771538 -14.539389 -19.775458 31.517873 -0.634072 2.249053 0.059175 -0.014009 -242008.000000 0 0 1
18.833238 -14.165089 -20.733758 31.388363 -0.644864 2.292355 0.058142 -0.007267 -723161.000000 0 0 1
17.494438 -14.431589 -20.403458 30.506184 -0.689755 2.303431 0.061146 -0.008386 -370780.000000 0 0 1
16.620538 -13.646289 -21.372158 30.318850 -0.687445 2.353097 0.053313 -0.013083 -482262.000000 0 0 1
16.827438 -14.201689 -22.682958 31.612770 -0.700977 2.371039 0.043544 -0.011944 252502.000000 0 0 1
16.042338 -13.581289 -23.676458 31.660428 -0.702511 2.415576 0.056660 -0.016259 -313370.000000 0 0 1
16.131438 -14.313289 -25.044458 33.050241 -0.725749 2.430684 0.048027 -0.013975 -49233.900000 0 0 1
15.248538 -15.421189 -25.249468 33.284631 -0.791027 2.431946 0.057341 -0.017521 457084.000000 0 0 1
15.153438 -15.890689 -26.546848 34.451065 -0.809142 2.450526 0.051494 -0.017291 -484698.000000 0 0 1
16.134838 -16.998389 -26.901068 35.678365 -0.811455 2.424909 0.045166 -0.015452 386809.000000 0 0 1
17.531138 -16.710589 -26.774388 36.103358 -0.761439 2.406254 0.044525 -0.008063 470570.000000 0 0 1
18.325038 -17.708889 -27.357628 37.387854 -0.768301 2.391646 0.044367 -0.002867 275217.000000 0 0 1
19.830138 -17.415589 -27.118868 37.841381 -0.720661 2.369777 0.035767 -0.005018 164301.000000 0 0 1
20.305538 -17.387289 -25.808078 37.157632 -0.708130 2.338600 0.040179 -0.002527 -306220.000000 0 0 1
21.601138 -16.842989 -25.759888 37.601427 -0.662257 2.325506 0.032867 0.000247 -103304.000000 0 0 1
22.011738 -16.215289 -24.369158 36.623873 -0.634912 2.298812 0.020574 0.004036 16640.500000 0 0 1
21.630138 -14.890089 -24.076258 35.626449 -0.602895 2.312842 0.025233 0.005292 198084.000000 0 0 1
20.235738 -14.631989 -23.932958 34.588534 -0.626046 2.334960 0.055615 -0.005071 462547.000000 0 0 1
20.029138 -13.220289 -23.388558 33.510701 -0.583410 2.343317 0.057990 -0.010211 -250184.000000 0 0 1
20.606738 -12.266989 -24.245958 34.102539 -0.536949 2.361676 0.056260 -0.008714 226507.000000 0 0 1
20.477238 -10.965789 -23.689558 33.177718 -0.491651 2.366020 0.056296 -0.009118 -80618.200000 0 0 1
21.075138 -9.814889 -24.530958 33.797358 -0.435841 2.383029 0.052335 -0.007633 -194625.000000 0 0 1
20.752938 -8.536589 -24.053158 32.895474 -0.390247 2.390875 0.067004 -0.017903 131230.000000 0 0 1
20.372838 -7.669289 -25.135478 33.251508 -0.360038 2.427855 0.048253 -0.012697 -382190.000000 0 0 1
19.567038 -6.499589 -24.578758 32.081599 -0.320703 2.443598 0.060882 -0.018736 875889.000000 0 0 1
18.298738 -6.900989 -23.979458 30.943204 -0.360636 2.457433 0.071954 -0.018276 1030260.000000 0 0 1
17.785138 -5.912889 -23.107158 29.752549 -0.320966 2.460118 0.071166 -0.019784 290454.000000 0 0 1
18.501638 -5.870989 -21.680858 29.100494 -0.307272 2.411382 0.067000 -0.015021 65678.600000 0 0 1
18.161838 -6.905089 -20.756658 28.431874 -0.363320 2.389190 0.073880 -0.009944 181417.000000 0 0 1
18.284638 -8.271889 -21.190958 29.185765 -0.424844 2.383388 0.079214 -0.019333 -104641.000000 0 0 1
17.810638 -9.382889 -20.151258 28.483866 -0.484868 2.356697 0.066503 -0.014322 1022610.000000 0 0 1
16.424138 -9.412289 -19.764158 27.367233 -0.520388 2.377750 0.056052 -0.013611 666817.000000 0 0 1
16.117638 -10.580089 -18.969858 27.047589 -0.580882 2.348088 0.056473 -0.012814 543542.000000 0 0 1
14.565838 -10.786989 -18.773058 26.095028 -0.637437 2.373751 0.056004 -0.008916 1142040.000000 0 0 1
13.849838 -10.013089 -17.806458 24.680963 -0.625980 2.376712 0.063061 -0.005897 343049.000000 0 1 0
13.879138 -8.631789 -18.162158 24.433630 -0.556385 2.408826 0.067134 -0.013810 -671982.000000 0 1 0
12.751638 -7.739789 -17.571858 23.049486 -0.545525 2.437738 0.052021 0.005101 1235290.000000 0 1 0
11.450538 -7.883789 -18.200458 22.902525 -0.602972 2.489297 0.037279 -0.004520 942697.000000 0 1 0
10.589938 -6.904189 -17.649558 21.709941 -0.577750 2.520033 0.021466 -0.002757 510946.000000 0 1 0
9.113538 -6.907089 -18.148058 21.450326 -0.648534 2.579329 0.015360 0.003623 570966.000000 0 1 0
8.904338 -6.516389 -19.483858 22.391322 -0.631765 2.626307 0.019763 -0.000035 1262500.000000 0 1 0
7.488638 -6.252589 -19.693358 21.977328 -0.695688 2.681646 0.013669 -0.003058 1458180.000000 0 1 0
7.051138 -6.040589 -21.151858 23.099965 -0.708361 2.727959 0.019478 -0.006422 28955.400000 0 1 0
7.088838 -7.193689 -21.948658 24.160803 -0.792739 2.710335 0.020199 -0.006890 -3171.870000 0 1 0
6.515538 -6.916689 -23.195558 25.066447 -0.815254 2.752788 0.029108 -0.008761 -355040.000000 0 0 1
6.642238 -8.068589 -24.249158 26.405362 -0.882055 2.734668 0.031641 -0.003311 308136.000000 0 0 1
5.731438 -9.192789 -24.088458 26.412319 -1.013297 2.718969 0.034087 -0.001060 588107.000000 0 0 1
5.789538 -10.135889 -25.165428 27.740833 -1.051829 2.707286 0.040944 0.008872 -148903.000000 0 0 1
5.032938 -11.432489 -24.942958 27.895940 -1.156096 2.677310 0.039074 -0.001800 385050.000000 0 0 1
5.692238 -12.129189 -23.869558 27.372881 -1.132008 2.630100 0.040314 -0.015680 818009.000000 0 0 1
4.835338 -13.203189 -23.464758 27.355065 -1.219741 2.601741 0.056541 -0.022289 165418.000000 0 0 1
5.567138 -14.178189 -22.499358 27.170484 -1.196638 2.546472 0.067121 -0.026003 208905.000000 0 0 1
6.552138 -15.036489 -23.071258 28.307410 -1.159856 2.523569 0.055899 -0.023229 39992.000000 0 0 1
7.795438 -14.636289 -23.603658 28.846534 -1.081402 2.529155 0.061720 -0.017956 -332469.000000 0 0 1
8.778438 -14.370689 -22.492358 28.097756 -1.022432 2.498932 0.053368 -0.002656 -1323530.000000 0 0 1
9.242138 -15.410989 -21.685958 28.163744 -1.030589 2.449631 0.049036 -0.001677 232286.000000 0 0 1
8.297938 -15.811889 -20.691158 27.331221 -1.087513 2.429586 0.042843 -0.002138 -88748.600000 0 0 1
8.942938 -16.114689 -19.340158 26.715184 -1.064156 2.380291 0.043795 0.000901 -274573.000000 0 0 1
9.771638 -17.254189 -19.270758 27.650571 -1.055499 2.341916 0.056111 -0.002546 -556810.000000 0 0 1
10.280838 -17.458789 -17.959758 27.075041 -1.038606 2.296060 0.034507 -0.000608 -1030720.000000 0 0 1
9.412238 -18.160189 -16.943358 26.560499 -1.092624 2.262585 0.028458 -0.001367 -1118350.000000 0 0 1
8.998138 -19.513189 -17.263158 27.563521 -1.138724 2.247600 0.021467 -0.002243 568239.000000 0 0 1
8.196538 -19.669589 -18.472858 28.201462 -1.175967 2.285021 0.033630 -0.002355 -1313340.000000 0 0 1
6.773138 -19.220189 -18.381658 27.444060 -1.231988 2.304717 0.032481 -0.003991 -1574040.000000 0 0 1
6.689438 -17.791089 -18.232058 26.337794 -1.211150 2.335384 0.041289 -0.001216 -1347910.000000 0 0 1
5.339338 -17.471089 -18.241658 25.816770 -1.274201 2.355452 0.040136 0.004518 -590485.000000 0 0 1
5.144638 -16.037289 -17.782958 24.492765 -1.260375 2.383356 0.055609 0.008632 -3908.180000 0 1 0
5.432838 -15.933089 -16.400058 23.501936 -1.242181 2.343142 0.042925 0.011154 191341.000000 0 1 0
5.054238 -14.672089 -15.874658 22.199556 -1.239048 2.367548 0.028891 0.012503 95620.900000 0 1 0
10.564038 30.236611 -17.845958 36.665103 1.234675 2.079137 0.024671 -0.020664 -491065.000000 0 0 1
9.633938 29.751611 -18.752058 36.463829 1.257639 2.110946 0.042611 -0.012255 -740696.000000 0 0 1
8.615738 28.999611 -18.189458 35.299643 1.282004 2.112139 0.043820 -0.014302 145399.000000 0 0 1
7.528638 28.424011 -19.169858 35.101115 1.311873 2.148537 0.049341 -0.012672 715539.000000 0 0 1
6.690838 29.476511 -19.673358 36.064845 1.347590 2.147781 0.059418 -0.026592 -278357.000000 0 0 1
5.951038 29.053311 -20.769658 36.206193 1.368759 2.181751 0.047794 -0.025652 -190470.000000 0 0 1
4.937538 30.063011 -21.319358 37.184391 1.408010 2.181375 0.053000 -0.030393 -510873.000000 0 0 1
3.736838 30.074411 -20.632658 36.662525 1.447177 2.168532 0.049523 -0.027931 -591166.000000 0 0 1
2.686138 30.817911 -21.237958 37.523457 1.483854 2.172432 0.045900 -0.026316 -381717.000000 0 0 1
1.311038 30.438311 -20.709158 36.838551 1.527751 2.167792 0.047757 -0.022204 -502466.000000 0 0 1
0.873838 29.105711 -21.042158 35.926013 1.540782 2.196550 0.054071 -0.035315 126528.000000 0 0 1
0.313538 28.978011 -22.338258 36.589906 1.559977 2.227492 0.058397 -0.037348 -257872.000000 0 0 1
-0.143662 27.508111 -22.666658 35.643993 -1.565574 2.259994 0.065348 -0.035261 459960.000000 0 0 1
-1.245162 27.105111 -21.866258 34.847822 -1.524890 2.249107 0.064990 -0.038152 -6428.260000 0 0 1
-1.869862 25.932811 -22.291658 34.247994 -1.498817 2.279552 0.062485 -0.046691 716034.000000 0 0 1
-3.073862 25.432511 -21.400358 33.380182 -1.450516 2.266740 0.043408 -0.037941 896991.000000 0 0 1
-4.243762 26.221811 -21.353858 34.081962 -1.410347 2.247908 0.041342 -0.031808 241882.000000 0 0 1
-5.162362 25.773811 -20.386058 33.264556 -1.373117 2.230454 0.030724 -0.027019 52406.900000 0 0 1
-6.299662 26.782111 -20.094958 34.070142 -1.339777 2.201622 0.039645 -0.022871 -49939.500000 0 0 1
-7.302062 26.175511 -19.328958 33.347955 -1.298747 2.189052 0.040798 -0.021434 -546431.000000 0 0 1
-8.236462 27.123011 -18.825258 34.027744 -1.275975 2.157036 0.045997 -0.022203 895536.000000 0 0 1
-9.466862 26.481111 -18.099658 33.443510 -1.227460 2.142661 0.048269 -0.019808 204413.000000 0 0 1
-9.138862 25.782311 -16.926258 32.167446 -1.230152 2.124913 0.050764 -0.020256 -352654.000000 0 0 1
-10.264662 25.140811 -16.340658 31.692914 -1.183167 2.112496 0.022122 -0.019239 252439.000000 0 0 1
-10.066362 24.523611 -14.907258 30.413245 -1.181291 2.083066 0.023971 -0.013070 -440199.000000 0 0 1
-9.614862 23.237811 -14.970558 29.267030 -1.178485 2.107745 0.026100 -0.013676 -494009.000000 0 0 1
-9.885562 22.562211 -13.794758 28.232482 -1.157843 2.081296 0.043070 -0.015338 -480864.000000 0 0 1
-9.268762 21.121011 -13.804158 26.880510 -1.157261 2.110099 0.051886 -0.014640 201974.000000 0 0 1
-10.073562 20.046911 -14.328658 26.620776 -1.105151 2.139157 0.024580 -0.016221 -451875.000000 0 0 1
-10.414462 20.123311 -15.707058 27.570280 -1.093222 2.176949 0.042139 -0.011666 -62425.400000 0 0 1
-9.302062 19.967611 -16.755758 27.676511 -1.134834 2.221083 0.031546 -0.012303 265536.000000 0 0 1
-8.444662 18.841911 -16.633458 26.514182 -1.149453 2.248932 0.027699 -0.012800 483357.000000 0 0 1
-7.399162 18.792811 -17.621258 26.803472 -1.195713 2.288192 0.024535 -0.011988 678817.000000 0 0 1
-6.765462 17.389211 -17.837958 25.813735 -1.199756 2.333704 0.018091 -0.006564 -294329.000000 0 0 1
-7.617362 16.395011 -18.307158 25.728829 -1.135856 2.362488 0.021470 -0.011053 -696487.000000 0 0 1
-7.434662 15.975211 -19.652158 26.394865 -1.135220 2.410649 0.030962 -0.008112 580900.000000 0 0 1
-6.205062 15.013611 -19.895358 25.685338 -1.178881 2.456848 0.026183 -0.000740 411161.000000 0 0 1
-6.424762 13.682211 -19.465358 24.645094 -1.131787 2.481323 0.005964 -0.000318 1004500.000000 0 1 0
-5.195262 13.050611 -19.004158 23.631911 -1.191941 2.505080 0.012330 0.008718 1275120.000000 0 1 0
-4.706562 13.512811 -17.586858 22.672569 -1.235633 2.458602 0.024219 0.011552 -213378.000000 0 1 0
-4.150762 14.809411 -17.599458 23.372814 -1.297529 2.423388 0.015075 -0.001495 -479336.000000 0 1 0
-3.648662 15.166611 -16.344258 22.593663 -1.334711 2.379511 0.019119 0.005946 -170825.000000 0 1 0
-2.996062 16.520111 -16.196058 23.328154 -1.391388 2.338203 0.040736 -0.002703 -88556.900000 0 1 0
-3.791662 17.638111 -16.440558 24.408433 -1.359049 2.309812 0.023376 -0.008219 -339540.000000 0 1 0
-2.954962 18.787711 -16.411858 25.120887 -1.414793 2.282751 0.034694 -0.016649 241063.000000 0 0 1
-3.596462 19.993911 -17.080958 26.541480 -1.392822 2.269933 0.056156 -0.024147 34802.200000 0 0 1
-3.669162 19.763511 -18.461558 27.292641 -1.387233 2.313701 0.041733 -0.024930 28961.700000 0 0 1
-4.128262 20.884011 -19.281358 28.722034 -1.375637 2.306770 0.053689 -0.020601 235776.000000 0 0 1
-3.046162 21.991011 -19.496658 29.546630 -1.433154 2.291430 0.048403 -0.026050 197524.000000 0 0 1
-1.944762 21.586511 -20.343058 29.725403 -1.480947 2.324530 0.061984 -0.026427 674491.000000 0 0 1
-0.864562 22.524111 -20.290258 30.327836 -1.532431 2.303700 0.060968 -0.028041 723027.000000 0 0 1
0.093638 22.376911 -19.068958 29.400001 1.566612 2.276545 0.077729 -0.030383 215506.000000 0 0 1
-0.613862 22.603711 -17.813558 28.785889 -1.543645 2.238048 0.076899 -0.030030 -211991.000000 0 0 1
0.250638 22.227811 -16.771758 27.846549 1.559521 2.217166 0.078137 -0.029565 205332.000000 0 0 1
-0.326662 22.458811 -15.320258 27.188512 -1.556252 2.169392 0.074509 -0.030993 209455.000000 0 0 1
-1.174162 21.418911 -14.875058 26.103941 -1.516032 2.177107 0.066041 -0.020672 -110446.000000 0 0 1
-0.946462 21.246711 -13.491758 25.186227 -1.526279 2.136109 0.077283 -0.020330 -51231.200000 0 0 1
-1.709662 20.054611 -12.924258 23.919591 -1.485752 2.141615 0.049963 -0.013210 -168208.000000 0 1 0
-1.145462 18.787511 -13.097758 22.931069 -1.509902 2.178739 0.047525 -0.010356 -83242.200000 0 1 0
-1.901762 17.809711 -12.396658 21.782554 -1.464417 2.176219 0.028190 -0.010937 97533.100000 0 1 0
-1.429862 16.395011 -12.721658 20.800997 -1.483803 2.228864 0.011748 -0.000840 -150511.000000 0 1 0
-0.209662 15.944811 -12.152958 20.049323 -1.557648 2.222011 0.013981 0.000821 216954.000000 0 1 0
-0.040862 14.536811 -12.186058 18.968937 -1.567985 2.268451 0.009518 0.003050 30011.600000 0 1 0
0.695938 14.078111 -13.464458 19.492798 1.521402 2.333308 0.011815 -0.000352 -736671.000000 0 1 0
-0.014562 14.167611 -14.626258 20.362928 -1.569768 2.372122 0.012548 0.001189 -441862.000000 0 1 0
0.368138 13.027911 -15.339558 20.128687 1.542546 2.437307 0.019516 -0.007695 -37616.200000 0 1 0
-0.151262 12.816011 -16.774258 21.110395 -1.558994 2.489140 0.015212 -0.002891 15290.600000 0 1 0
0.305038 13.930311 -17.506758 22.374834 1.548902 2.469356 0.024072 -0.006096 128434.000000 0 1 0
-0.166662 13.949411 -18.831758 23.436061 -1.558849 2.504011 0.028671 -0.003015 229684.000000 0 1 0
-0.951162 15.287111 -19.191658 24.554434 -1.508657 2.468017 0.027349 -0.005929 403048.000000 0 1 0
-0.094962 16.393711 -19.182458 25.233499 -1.565004 2.434414 0.031390 -0.009202 117703.000000 0 0 1
-0.817462 17.505311 -19.685758 26.355896 -1.524132 2.414215 0.051933 -0.013428 265025.000000 0 0 1
0.138538 18.633011 -20.061758 27.380329 1.563361 2.393087 0.062096 -0.018899 58868.300000 0 0 1
0.905738 18.392711 -21.224458 28.099641 1.521592 2.426952 0.066457 -0.015007 -80406.100000 0 0 1
1.782138 19.492311 -21.384058 28.989725 1.479622 2.400369 0.070747 -0.016948 45568.900000 0 0 1
2.226938 19.590811 -22.860058 30.188431 1.457610 2.429882 0.069361 -0.022909 55752.200000 0 0 1
3.146638 18.621111 -23.296858 29.989843 1.403395 2.460404 0.052261 -0.021396 -236759.000000 0 0 1
3.531938 18.782311 -24.621958 31.168744 1.384921 2.481535 0.056297 -0.032198 914811.000000 0 0 1
4.502238 17.629311 -25.172538 31.059933 1.320757 2.515717 0.037484 -0.013671 1358680.000000 0 0 1
5.816338 17.570511 -24.579258 30.768370 1.251122 2.496174 0.029570 -0.003200 719881.000000 0 0 1
6.575938 16.423811 -24.881258 30.529683 1.189953 2.523501 0.023676 -0.009858 135402.000000 0 0 1
7.164538 16.334611 -26.287228 31.767412 1.157454 2.545420 0.020422 -0.017158 -1254740.000000 0 0 1
8.156538 17.335111 -26.492978 32.694236 1.131009 2.515504 0.003961 -0.008000 297791.000000 0 0 1
8.546438 17.528011 -27.871898 34.016400 1.117128 2.531101 0.015895 -0.015200 -156773.000000 0 0 1
9.184738 16.289011 -28.511798 34.097125 1.057374 2.561102 0.013960 -0.015607 -899450.000000 0 0 1
10.500938 16.077811 -28.049888 33.993557 0.992222 2.541269 0.015595 -0.011925 29696.600000 0 0 1
10.952838 14.704511 -28.281028 33.704656 0.930591 2.566393 0.012719 -0.004919 403663.000000 0 0 1
10.334738 13.658411 -27.244858 32.181381 0.923048 2.580366 0.016303 -0.005289 -408537.000000 0 0 1
8.987338 13.320211 -27.221268 31.610089 0.977243 2.608339 0.036417 -0.001755 -803850.000000 0 0 1
8.654938 12.686911 -26.047718 30.238209 0.972121 2.608850 0.035540 0.008337 27167.800000 0 0 1
7.223538 12.131311 -26.022198 29.605794 1.033732 2.644466 0.032428 -0.003917 458836.000000 0 0 1
6.145338 13.067111 -26.111858 29.838628 1.131198 2.636444 0.034425 -0.004182 -530822.000000 0 0 1
4.939938 12.423011 -25.879818 29.129009 1.192322 2.664765 0.046813 -0.013131 418456.000000 0 0 1
3.641038 13.299011 -26.097078 29.515731 1.303562 2.655522 0.058682 -0.014248 289007.000000 0 0 1
3.287138 13.418411 -27.483668 30.760544 1.330555 2.675813 0.061386 -0.015457 310822.000000 0 0 1
4.053038 14.471511 -28.109808 31.874960 1.297723 2.650626 0.061181 -0.011968 336062.000000 0 0 1
3.905038 14.411211 -29.689128 33.232163 1.306179 2.675621 0.080197 -0.018789 147557.000000 0 0 1
4.796838 13.450611 -30.241178 33.443347 1.228231 2.700419 0.076060 -0.017339 170335.000000 0 0 1
4.833338 13.511011 -31.663428 34.763217 1.227249 2.716090 0.072275 -0.013133 -271783.000000 0 0 1
5.953538 12.552911 -32.211558 35.079975 1.127939 2.734389 0.067677 -0.002168 1777790.000000 0 0 1
7.321538 13.019211 -31.992198 35.307301 1.058510 2.704786 0.061262 0.000724 1559080.000000 0 0 1
7.860838 13.040411 -30.670148 34.241832 1.028316 2.680782 0.055181 -0.001225 -531090.000000 0 0 1
7.962838 11.624211 -30.017968 33.160330 0.970194 2.702734 0.067161 0.002086 -214612.000000 0 0 1
8.972438 10.786111 -30.517168 33.587831 0.876933 2.710664 0.035935 0.010872 192068.000000 0 0 1
8.506038 9.509811 -30.156708 32.744713 0.841057 2.741344 0.036142 0.009415 590405.000000 0 0 1
9.593138 8.417611 -30.407588 32.977354 0.720223 2.744204 0.019327 0.010380 -127181.000000 0 0 1
10.779938 8.554611 -29.707198 32.739977 0.670806 2.707775 0.017817 0.010510 -856239.000000 0 0 1
11.439938 7.350011 -29.638978 32.609261 0.571075 2.711466 0.005302 0.008457 -798827.000000 0 0 1
12.709238 7.435811 -28.759478 32.309807 0.529370 2.668396 0.007298 0.016879 21190.400000 0 0 1
13.322738 6.236111 -28.421328 32.002443 0.437787 2.663988 0.023177 0.006858 -32206.600000 0 0 1
14.026138 5.563611 -29.444968 33.086137 0.377624 2.668029 0.017673 0.004247 -231877.000000 0 0 1
14.929738 4.371811 -28.948818 32.864021 0.284862 2.648486 0.014204 0.001458 156693.000000 0 0 1
15.869138 4.746811 -27.988258 32.522367 0.290651 2.607213 0.014881 -0.007614 115598.000000 0 0 1
16.883138 3.789811 -27.763888 32.714469 0.220813 2.584268 0.028331 -0.009116 -33452.500000 0 0 1
17.743038 3.897211 -26.495448 32.124950 0.216214 2.540578 0.022841 -0.009511 -338162.000000 0 0 1
18.627738 4.974511 -26.621208 32.869851 0.260959 2.514774 0.026330 -0.010899 -190716.000000 0 0 1
19.162938 5.219811 -25.334928 32.191974 0.265939 2.476720 0.024742 -0.004789 138725.000000 0 0 1
20.256938 6.327011 -25.325578 33.041784 0.302737 2.444125 0.024278 -0.001106 -253656.000000 0 0 1
19.709338 7.593411 -25.698118 33.264263 0.367744 2.453635 0.029017 -0.001345 440180.000000 0 0 1
20.563038 8.547011 -26.339258 34.491252 0.393924 2.439745 0.039504 -0.010763 -611521.000000 0 0 1
20.689538 8.331611 -27.922958 35.737436 0.382829 2.467601 0.044106 -0.011967 159691.000000 0 0 1
19.580638 8.575211 -28.779308 35.849466 0.412783 2.502743 0.040000 -0.009184 1397680.000000 0 0 1
18.397538 7.739611 -28.593888 34.870925 0.398212 2.532194 0.040457 -0.006643 784859.000000 0 0 1
17.100938 8.392011 -29.111908 34.790389 0.456207 2.562172 0.027024 0.000831 -123183.000000 0 0 1
17.038538 8.306511 -30.477048 35.890951 0.453608 2.585183 0.022717 0.005274 -395037.000000 0 0 1
15.823538 8.881211 -30.784608 35.734470 0.511451 2.608978 0.006038 0.008010 -894670.000000 0 0 1
15.474738 8.817911 -32.295818 36.881472 0.517937 2.637608 -0.004064 0.013854 68913.100000 0 0 1
14.819838 7.609211 -32.691248 36.691217 0.474348 2.670302 -0.000007 0.020329 1190900.000000 0 0 1
13.475038 7.813111 -33.182938 36.656906 0.525450 2.702717 -0.005707 0.015101 1107470.000000 0 0 1
12.737338 6.533111 -33.624628 36.544999 0.473922 2.739102 -0.005517 0.014046 57742.200000 0 0 1
12.450438 5.648511 -32.573048 35.325947 0.425910 2.744196 0.004373 0.010250 -37989.100000 0 0 1
12.108038 4.399111 -33.154148 35.569008 0.348493 2.770986 0.016415 -0.003982 17577.700000 0 0 1
11.774038 3.318811 -32.129558 34.379514 0.274747 2.777804 0.020111 -0.007196 -141509.000000 0 0 1
12.966838 2.679711 -31.729458 34.381365 0.203790 2.746258 0.021301 -0.010132 -8579.510000 0 0 1
12.826638 1.621811 -30.763928 33.370229 0.125773 2.743746 0.032418 -0.006851 -134702.000000 0 0 1
11.983838 0.336211 -30.968198 33.207751 0.028048 2.772235 0.030212 -0.004293 361257.000000 0 0 1
12.621438 -0.702489 -31.753098 34.176797 -0.055601 2.762724 0.033240 -0.006459 -146302.000000 0 0 1
13.571238 -1.436589 -31.068808 33.933953 -0.105463 2.727712 0.034940 -0.015342 -248409.000000 0 0 1
14.039538 -2.772889 -31.781618 34.854968 -0.194996 2.718503 0.031142 -0.016503 -289548.000000 0 0 1
13.074238 -3.767789 -31.809188 34.597058 -0.280582 2.737397 0.040725 -0.013019 -349532.000000 0 0 1
13.328338 -4.766189 -32.760098 35.687325 -0.343428 2.733743 0.040827 -0.013226 -174605.000000 0 0 1
12.722838 -6.128889 -32.414578 35.357302 -0.448920 2.730718 0.046984 -0.014482 -274101.000000 0 0 1
13.119938 -6.766489 -31.209368 34.524525 -0.476161 2.699777 0.049140 -0.009361 -75008.500000 0 0 1
12.783038 -8.100489 -31.223168 34.697410 -0.564824 2.690268 0.060665 -0.017918 -1485.250000 0 0 1
13.143638 -8.830589 -29.842468 33.783242 -0.591584 2.653761 0.043181 -0.013963 -358392.000000 0 0 1
14.534338 -8.965289 -29.711218 34.269227 -0.552706 2.619935 0.064572 -0.011386 -162334.000000 0 0 1
14.864338 -9.522689 -28.417458 33.454179 -0.569767 2.585727 0.082847 -0.010138 94968.200000 0 0 1
14.814438 -11.054989 -28.283028 33.787720 -0.641084 2.562720 0.069998 -0.008121 753951.000000 0 0 1
13.418838 -11.434989 -28.227848 33.281160 -0.705746 2.583304 0.060966 -0.013591 1208740.000000 0 0 1
13.244838 -12.832589 -28.447378 33.902130 -0.769591 2.566428 0.068716 -0.022230 176759.000000 0 0 1
-10.244162 -3.325889 -18.140858 21.097278 0.313926 2.605806 0.016302 0.015728 628770.000000 0 1 0
-11.017962 -2.710289 -19.200358 22.302352 0.241199 2.607856 0.020095 0.009143 936659.000000 0 1 0
-12.081762 -3.534489 -19.730058 23.403777 0.284606 2.573686 0.023238 0.011070 740029.000000 0 1 0
-12.992062 -2.752789 -20.753558 24.639028 0.208794 2.572340 0.018916 -0.012574 -259641.000000 0 1 0
-13.864262 -1.858189 -20.212158 24.580520 0.133233 2.536209 0.004462 -0.004786 -688829.000000 0 1 0
-14.618862 -1.242689 -21.239658 25.814308 0.084802 2.537092 0.015234 -0.010172 70531.100000 0 0 1
-15.130662 0.176911 -20.954058 25.846485 -0.011692 2.516164 0.022450 0.003274 -260566.000000 0 0 1
-14.313362 1.270211 -21.263158 25.663353 -0.088511 2.547295 0.019862 -0.000926 -421060.000000 0 0 1
-14.930862 2.473111 -20.946358 25.841766 -0.164147 2.515908 0.013998 0.013793 -375296.000000 0 0 1
-14.496062 3.668611 -21.750658 26.394804 -0.247872 2.539321 0.028357 -0.008273 -803549.000000 0 0 1
-13.173562 3.973611 -21.476358 25.506201 -0.292956 2.571786 0.020343 -0.008718 -741915.000000 0 0 1
-12.854562 5.170811 -22.095058 26.080043 -0.382449 2.581492 0.027447 -0.014059 508778.000000 0 0 1
-11.568262 5.795011 -21.406058 25.012520 -0.464400 2.597918 0.018322 -0.009160 666316.000000 0 0 1
-11.827462 6.326411 -20.086858 24.153555 -0.491170 2.552836 0.021762 -0.014032 -218398.000000 0 1 0
-10.646862 6.637011 -19.428158 23.127017 -0.557431 2.568196 0.014935 -0.005095 -912836.000000 0 1 0
-10.880762 7.054211 -17.933658 22.130725 -0.575193 2.515547 0.005208 -0.005888 91829.000000 0 1 0
-11.488762 8.300511 -17.770858 22.730894 -0.625661 2.468333 0.008481 -0.009971 194525.000000 0 1 0
-12.618562 8.368811 -16.905758 22.695149 -0.585609 2.411191 0.029220 -0.004321 140262.000000 0 1 0
-13.282462 9.755411 -16.923758 23.622139 -0.633480 2.369477 0.036201 -0.003514 -254062.000000 0 1 0
-12.668162 10.660711 -16.051458 23.060408 -0.699560 2.340693 0.011156 -0.006107 99357.100000 0 1 0
-13.301962 11.895111 -16.272958 24.150467 -0.729622 2.310157 0.032154 -0.015700 -278308.000000 0 1 0
-12.629862 13.125411 -15.642258 24.009791 -0.804636 2.280350 0.035818 -0.010684 -575016.000000 0 1 0
-12.605462 13.146711 -14.246458 23.123478 -0.806413 2.234583 0.046835 -0.013981 108244.000000 0 1 0
-12.090462 14.369911 -13.743958 23.271657 -0.871332 2.202583 0.038950 -0.020554 -1080770.000000 0 1 0
-12.594762 14.668611 -12.362158 22.948184 -0.861319 2.139688 0.024560 -0.016713 786196.000000 0 1 0
-13.931762 15.167511 -12.284358 23.980259 -0.827839 2.108622 0.024377 -0.015846 713568.000000 0 1 0
-14.982962 14.271611 -12.551658 24.201491 -0.761087 2.116046 0.027878 -0.010122 -579421.000000 0 1 0
-16.358762 14.623911 -11.928658 24.975203 -0.729462 2.068740 0.019379 -0.006383 316476.000000 0 1 0
-17.395462 13.815611 -12.472758 25.476321 -0.671199 2.082407 0.019984 -0.005256 -964688.000000 0 0 1
-18.592462 14.271611 -11.999058 26.331273 -0.654672 2.043950 0.063724 -0.006418 -1345720.000000 0 0 1
-19.850762 13.681011 -12.638658 27.220553 -0.603436 2.053647 0.065292 -0.010714 -300411.000000 0 0 1
-20.122662 12.275611 -12.434358 26.650055 -0.547769 2.056215 0.067299 -0.009666 669178.000000 0 0 1
-21.452062 11.860911 -12.743358 27.627258 -0.505069 2.050211 0.091714 -0.011460 430842.000000 0 0 1
-21.920162 10.510711 -12.061958 27.137785 -0.447113 2.031380 0.081632 -0.015154 362886.000000 0 0 1
-21.110762 9.359511 -12.350758 26.187897 -0.417312 2.061924 0.074566 -0.017331 1109140.000000 0 0 1
-21.710062 8.240011 -11.618658 25.965704 -0.362752 2.034721 0.071001 -0.010031 420821.000000 0 0 1
-20.696162 7.089711 -11.656958 24.788703 -0.330033 2.060374 0.064895 -0.006438 8034.130000 0 1 0
-20.444262 6.480311 -12.947658 25.052029 -0.306956 2.113941 0.062057 -0.011077 359433.000000 0 0 1
-19.361062 5.573311 -12.891758 23.918820 -0.280284 2.140022 0.057998 -0.009717 -90520.900000 0 1 0
-19.364562 4.475611 -13.970958 24.294136 -0.227135 2.183493 0.060875 -0.016759 452056.000000 0 1 0
-20.396662 3.482511 -13.784858 24.863106 -0.169109 2.158475 0.055598 -0.020327 868445.000000 0 1 0
-20.048062 2.399411 -14.590158 24.910935 -0.119116 2.196531 0.048471 -0.026059 -268624.000000 0 1 0
-20.783962 1.067311 -14.386758 25.300021 -0.051308 2.175655 0.042134 -0.021900 375006.000000 0 0 1
-22.074062 0.899211 -14.986058 26.695594 -0.040714 2.166835 0.051836 -0.024444 692540.000000 0 0 1
-22.418662 -0.453789 -14.778258 26.855153 0.020239 2.153514 0.046759 -0.032890 114666.000000 0 0 1
-23.833562 -0.669589 -15.399658 28.383737 0.028087 2.144269 0.060793 -0.025576 239342.000000 0 0 1
-24.891262 -0.259289 -14.560558 28.838378 0.010417 2.100065 0.083496 -0.034374 745227.000000 0 0 1
-26.159122 -0.519389 -15.212558 30.265349 0.019852 2.097446 0.081473 -0.026511 1358570.000000 0 0 1
-27.332252 0.177211 -14.434258 30.910051 -0.006483 2.056664 0.081981 -0.021249 362062.000000 0 0 1
-27.715232 -0.448189 -13.196058 30.699689 0.016170 2.015116 0.090833 -0.023921 2098080.000000 0 0 1
-29.129522 -0.134789 -12.899658 31.858255 0.004627 1.987674 0.092540 -0.025905 2180680.000000 0 0 1
-29.618312 -0.697189 -11.538758 31.794236 0.023535 1.942196 0.089969 -0.022359 -224546.000000 0 0 1
-29.734262 -2.128689 -11.339558 31.894251 0.071469 1.934284 0.093215 -0.025482 587116.000000 0 0 1
-28.631772 -2.967089 -11.679858 31.064467 0.103261 1.956259 0.098933 -0.028981 -29186.400000 0 0 1
-28.915902 -4.419389 -11.254858 31.342180 0.151662 1.938096 0.087152 -0.022664 287095.000000 0 0 1
-30.117972 -4.899489 -11.888058 32.747873 0.161264 1.942301 0.079990 -0.022077 797609.000000 0 0 1
-30.392472 -6.286489 -11.622258 33.140597 0.203967 1.929110 0.073556 -0.015694 -88095.200000 0 0 1
-29.489432 -7.393589 -12.257558 32.780169 0.245656 1.954041 0.074529 -0.015762 343801.000000 0 0 1
-28.222472 -7.518389 -11.630358 31.437229 0.260351 1.949757 0.052537 -0.004580 268873.000000 0 0 1
-27.478952 -8.679189 -11.988558 31.211323 0.305933 1.965039 0.058105 -0.010402 -358187.000000 0 0 1
-26.033912 -8.597189 -11.509358 29.734518 0.318955 1.968249 0.053187 -0.021446 -745185.000000 0 0 1
-25.317622 -7.475689 -12.103358 29.040647 0.287117 2.000689 0.045102 -0.016260 -269487.000000 0 0 1
-24.026562 -7.283689 -11.662158 27.682734 0.294346 2.005652 0.054872 -0.026171 -1141950.000000 0 0 1
-23.733562 -7.023789 -10.161358 26.755724 0.287731 1.960358 0.049339 -0.024191 -904157.000000 0 0 1
-24.035562 -5.742789 -9.623758 26.519891 0.234532 1.942162 0.043698 -0.011351 147032.000000 0 0 1
-25.373122 -5.335389 -9.710958 27.686900 0.207258 1.929160 0.050244 -0.004247 -835554.000000 0 0 1
-25.736112 -4.060089 -8.939758 27.545437 0.156469 1.901328 0.060278 -0.019030 -374093.000000 0 0 1
-25.662752 -4.207489 -7.545958 27.078059 0.162507 1.853210 0.053367 -0.007472 462988.000000 0 0 1
-25.823322 -2.946889 -6.924958 26.897642 0.113626 1.831185 0.069034 -0.014762 -39893.900000 0 0 1
-25.710762 -2.958389 -5.396358 26.437020 0.114560 1.776362 0.064016 -0.005905 852797.000000 0 0 1
-24.343162 -3.329289 -5.094858 25.092455 0.135922 1.775261 0.040750 -0.001707 1198340.000000 0 0 1
-24.122962 -3.034089 -3.712658 24.594854 0.125119 1.722328 0.018187 0.000007 523382.000000 0 1 0
-22.768862 -3.619189 -3.173258 23.272069 0.157635 1.707577 0.003269 0.005647 570969.000000 0 1 0
-22.809962 -5.038989 -2.996358 23.551305 0.217420 1.698369 0.023078 0.007486 160286.000000 0 1 0
-21.584662 -5.570789 -2.573158 22.439975 0.252578 1.685718 0.022296 0.001114 -283987.000000 0 1 0
-21.672562 -7.131289 -2.611258 22.964623 0.317888 1.684751 0.042292 -0.000783 27235.700000 0 1 0
-22.376062 -7.655889 -1.499758 23.697048 0.329661 1.634127 0.050685 0.010529 371267.000000 0 1 0
-22.857062 -8.919989 -1.748958 24.598178 0.372074 1.641958 0.043669 0.002020 -128774.000000 0 1 0
-23.197362 -9.773089 -0.543858 25.177900 0.398734 1.592399 0.033781 -0.005631 82836.300000 0 0 1
-22.040662 -10.063589 0.224042 24.230493 0.428322 1.561550 0.022296 0.001944 454220.000000 0 1 0
-22.283362 -10.953789 1.293642 24.863774 0.456879 1.518744 0.012013 0.002165 834933.000000 0 1 0
-20.918462 -11.491789 1.883742 23.941423 0.502353 1.492034 0.011326 -0.000464 700969.000000 0 1 0
-20.399762 -12.607889 1.232142 24.013066 0.553579 1.519462 0.027193 0.001051 -547752.000000 0 1 0
-19.188962 -12.895889 1.842142 23.192967 0.591718 1.491286 0.010271 0.002251 -858218.000000 0 1 0
-18.439362 -14.024289 1.107742 23.193056 0.650227 1.523016 0.017203 0.007575 -460029.000000 0 1 0
-19.116562 -15.274189 1.176342 24.497502 0.674133 1.522759 0.023557 0.005439 275176.000000 0 1 0
-18.476562 -16.455589 0.653942 24.750705 0.727608 1.544372 0.016208 -0.001077 -119174.000000 0 1 0
-17.263662 -17.051989 1.428242 24.307288 0.779230 1.512005 0.023808 -0.001979 -123096.000000 0 1 0
-16.146662 -16.200589 1.218542 22.905428 0.787065 1.517572 0.027136 -0.007699 862212.000000 0 1 0
-14.867462 -16.653889 1.697542 22.389174 0.842011 1.494904 0.027026 -0.014664 883051.000000 0 1 0
-14.779062 -16.549589 3.233642 22.422445 0.841853 1.426077 0.023814 -0.013657 -687251.000000 0 1 0
-14.608762 -15.192389 3.606842 21.383029 0.804980 1.401308 0.012174 -0.019229 65373.700000 0 1 0
-13.963162 -15.041789 4.891542 21.098637 0.822569 1.336826 0.000070 -0.014460 12996.300000 0 1 0
-14.609362 -15.579189 6.204442 22.240497 0.817513 1.288074 0.025319 -0.013680 -718525.000000 0 1 0
-15.497962 -14.667989 6.833442 22.406085 0.757892 1.260877 0.021411 -0.012659 10647.700000 0 1 0
-15.694162 -14.981889 8.244842 23.210798 0.762183 1.207651 0.023611 -0.009111 -362261.000000 0 1 0
-16.643462 -16.143189 8.555842 24.714567 0.770141 1.217293 0.024098 -0.009084 -418933.000000 0 1 0
-16.138262 -17.418889 8.116042 25.094448 0.823542 1.241455 0.025150 -0.006229 102509.000000 0 0 1
-16.873562 -18.542189 8.606342 26.506584 0.832479 1.240116 0.034617 -0.003112 91562.900000 0 0 1
-16.555662 -18.920889 10.112742 27.099032 0.851970 1.188365 0.036061 -0.004588 198140.000000 0 0 1
-15.203462 -19.277889 10.318542 26.631834 0.903016 1.172931 0.027540 -0.010888 2797.130000 0 0 1
-15.044262 -19.823889 11.645342 27.475997 0.921626 1.133119 0.029852 -0.015520 617440.000000 0 0 1
-13.627062 -20.493189 11.738442 27.266438 0.983979 1.125740 0.022436 -0.015594 541029.000000 0 0 1
-12.604362 -19.541289 11.884442 26.114591 0.997936 1.098325 0.008140 -0.010502 -797330.000000 0 0 1
-11.365262 -20.215889 11.973042 26.099906 1.058639 1.094221 -0.004877 -0.006371 372422.000000 0 0 1
-10.272562 -19.188889 12.397542 25.048713 1.079279 1.053034 0.005296 -0.014405 211585.000000 0 0 1
-9.634262 -18.435389 11.387742 23.714199 1.089236 1.069905 0.002264 -0.015546 -316019.000000 0 1 0
-8.501162 -17.828989 11.956342 23.088887 1.125867 1.026473 0.001855 -0.008266 -540903.000000 0 1 0
-7.529462 -17.214889 11.006142 21.775683 1.158486 1.040913 -0.004487 -0.005654 -89066.900000 0 1 0
-6.681862 -18.111089 10.243642 21.853856 1.217351 1.082939 0.000616 0.002749 222252.000000 0 1 0
-6.082562 -17.481389 9.130742 20.638967 1.235953 1.112520 0.007466 0.004060 -675627.000000 0 1 0
-4.974762 -18.282189 8.480442 20.758241 1.305119 1.149949 0.005633 -0.000173 -534829.000000 0 1 0
-3.751262 -18.246989 9.153542 20.756009 1.368039 1.114076 0.017026 0.000421 -523844.000000 0 1 0
-2.745162 -18.943289 8.456342 20.925913 1.426883 1.154792 0.028355 -0.004590 1078460.000000 0 1 0
-1.321162 -19.019089 9.123842 21.135650 1.501443 1.124442 0.024471 -0.012333 1180350.000000 0 1 0
-0.358062 -19.790189 8.432642 21.514861 1.552705 1.168052 0.036649 -0.004178 142277.000000 0 1 0
0.858538 -19.941189 9.149642 21.956868 -1.527769 1.140973 0.037654 -0.011297 812294.000000 0 1 0
2.062138 -20.542689 8.362642 22.275284 -1.470748 1.185944 0.038511 -0.023314 329058.000000 0 1 0
1.839438 -21.862389 7.889542 23.315069 -1.486857 1.225593 0.035474 -0.012214 -134750.000000 0 1 0
2.028838 -22.851389 8.887042 24.602473 -1.482245 1.201214 0.037906 -0.015639 46131.000000 0 1 0
1.679738 -24.286389 8.416242 25.758170 -1.501743 1.237943 0.015467 -0.012598 18478.300000 0 0 1
2.047538 -25.270629 9.346142 27.021241 -1.489949 1.217618 0.025654 -0.015570 -293571.000000 0 0 1
1.628538 -26.566859 9.015742 28.102202 -1.509573 1.244201 0.028750 -0.010557 -921671.000000 0 0 1
1.800738 -27.596589 10.205042 29.478081 -1.505637 1.217289 0.035702 -0.015943 540122.000000 0 0 1
0.882238 -27.465699 11.305742 29.714689 -1.538686 1.180485 0.026445 -0.020399 766142.000000 0 0 1
-0.499162 -27.684799 10.991242 29.791016 1.552768 1.192923 0.009019 -0.012057 648707.000000 0 0 1
-1.280362 -27.954689 12.325642 30.578185 1.525027 1.155910 0.002464 -0.014276 43718.300000 0 0 1
-0.856562 -29.139259 12.921042 31.887042 1.541409 1.153585 -0.008739 -0.013431 -144236.000000 0 0 1
-1.095362 -29.040839 14.300642 32.389481 1.533096 1.113503 -0.010045 -0.015700 -140287.000000 0 0 1
-0.466462 -30.165609 15.143242 33.756471 1.555334 1.105595 -0.027756 -0.000954 8862.950000 0 0 1
-0.813762 -30.019919 16.497842 34.264217 1.543696 1.068444 -0.025649 -0.001553 -207335.000000 0 0 1
-0.224162 -30.983479 17.313442 35.493401 1.563562 1.061236 -0.037769 0.004373 -87169.700000 0 0 1
-0.551562 -30.775169 18.813642 36.074484 1.552876 1.022162 -0.035190 0.003010 554132.000000 0 0 1
-1.950662 -30.903619 19.055642 36.358716 1.507759 1.019137 -0.033584 0.002534 336630.000000 0 0 1
-2.250262 -30.724359 20.418042 36.958711 1.497687 0.985489 -0.016316 -0.006897 -148597.000000 0 0 1
-3.758762 -30.700189 20.738942 37.238872 1.448968 0.980128 0.020326 -0.020431 -203369.000000 0 0 1
-4.452762 -29.587869 20.143642 36.069868 1.421424 0.978266 0.026748 -0.024025 -19983.300000 0 0 1
-5.681062 -29.399089 20.798942 36.457878 1.379910 0.963691 0.050605 -0.031048 -98612.000000 0 0 1
-5.593162 -28.182939 21.754342 36.039047 1.374883 0.922747 0.055855 -0.030780 -291749.000000 0 0 1
-4.728462 -28.406809 22.857542 36.766457 1.405853 0.899891 0.049552 -0.025524 263300.000000 0 0 1
-4.821162 -27.395669 23.847342 36.639623 1.396597 0.862077 0.048378 -0.025768 -183413.000000 0 0 1
-3.808162 -27.675809 24.981142 37.476792 1.434056 0.841190 0.048421 -0.022376 -53673.000000 0 0 1
-4.107662 -28.807499 25.747042 38.854280 1.429161 0.846436 0.055108 -0.024497 196160.000000 0 0 1
-3.460062 -30.009179 25.360542 39.442109 1.456003 0.872412 0.033240 -0.022128 -58506.600000 0 0 1
-3.804462 -31.150049 26.343242 40.972745 1.449265 0.872459 0.046639 -0.014852 265380.000000 0 0 1
-3.108462 -31.019209 27.587842 41.628631 1.470919 0.846360 0.044613 -0.020147 413604.000000 0 0 1
-3.547362 -32.075129 28.416642 42.998875 1.460649 0.848820 0.044429 -0.012849 66805.600000 0 0 1
-2.902962 -32.047439 29.824642 43.874535 1.480460 0.823346 0.067619 -0.017736 -960669.000000 0 0 1
-1.560662 -32.307059 29.947342 44.079757 1.522527 0.823865 0.059514 -0.014000 -937054.000000 0 0 1
-1.073262 -32.087579 31.263542 44.812651 1.537361 0.798684 0.057443 -0.020736 -319526.000000 0 0 1
-28.110372 2.921111 -10.264158 30.067904 -0.103544 1.919166 0.092875 -0.006908 -101254.000000 0 0 1
-29.036952 2.592611 -11.260158 31.251518 -0.089050 1.939394 0.076071 -0.018866 -247057.000000 0 0 1
-29.729012 3.717311 -11.710058 32.167655 -0.124394 1.943390 0.050252 -0.017808 -307542.000000 0 0 1
-30.602782 3.423511 -12.933058 33.399322 -0.111406 1.968416 0.050062 -0.019597 -647508.000000 0 0 1
-31.675772 2.586711 -12.689058 34.220722 -0.081481 1.950667 0.056705 -0.015654 -478172.000000 0 0 1
-32.401652 2.337311 -13.863758 35.320446 -0.072011 1.974159 0.056715 -0.013165 -144806.000000 0 0 1
-33.571012 1.371311 -13.586458 36.242036 -0.040825 1.955065 0.039455 -0.007956 103609.000000 0 0 1
-33.124572 0.057711 -13.349958 35.713611 -0.001742 1.953905 0.064219 -0.010632 309944.000000 0 0 1
-34.222566 -0.718289 -12.940358 36.594437 0.020986 1.932230 0.037676 -0.005994 -45591.100000 0 0 1
-33.730202 -2.164089 -12.731958 36.118037 0.064071 1.931048 0.045586 -0.013530 77033.700000 0 0 1
-33.574762 -2.826789 -13.983858 36.480182 0.083996 1.964193 0.039002 -0.013785 204713.000000 0 0 1
-32.888852 -4.033889 -13.698658 35.855294 0.122043 1.962814 0.056736 -0.017630 42094.700000 0 0 1
-33.542992 -5.278289 -14.357758 36.866487 0.156079 1.970834 0.053581 -0.020956 -138393.000000 0 0 1
-32.938742 -6.461589 -13.974158 36.359180 0.193710 1.965285 0.060791 -0.022776 -17424.000000 0 0 1
-33.690772 -7.627589 -14.289258 37.382230 0.222647 1.963023 0.059354 -0.015603 -779808.000000 0 0 1
-33.379292 -8.859889 -13.482958 37.073777 0.259448 1.943011 0.052982 -0.018105 -439326.000000 0 0 1
-32.002992 -9.140689 -13.449758 35.897628 0.278212 1.954837 0.052810 -0.019293 100588.000000 0 0 1
-31.356142 -9.650889 -14.618858 35.917382 0.298582 1.989978 0.053378 -0.015530 -344246.000000 0 0 1
-30.139232 -10.504289 -14.208758 34.937118 0.335361 1.989630 0.056926 -0.013508 -14336.600000 0 0 1
-30.594232 -11.823189 -13.857058 35.606361 0.368772 1.970531 0.045149 -0.009230 832202.000000 0 0 1
-29.494502 -12.732989 -13.833858 34.977569 0.407538 1.977416 0.053574 -0.009118 32857.000000 0 0 1
-29.844972 -14.184789 -14.200758 35.966542 0.443679 1.976682 0.060164 -0.010279 -371838.000000 0 0 1
-29.987872 -14.245789 -15.600858 36.682445 0.443491 2.010084 0.062842 -0.013092 90466.600000 0 0 1
-30.265992 -15.551289 -16.118658 37.652145 0.474643 2.013179 0.054675 -0.014768 -644264.000000 0 0 1
-29.112432 -16.609089 -16.016158 37.147179 0.518457 2.016568 0.057276 -0.012057 366838.000000 0 0 1
-28.005532 -16.075089 -16.732558 36.368899 0.521080 2.048880 0.065333 -0.021328 499117.000000 0 0 1
-26.827432 -16.889389 -16.535658 35.754588 0.561869 2.051583 0.066198 -0.024968 522805.000000 0 0 1
-25.492272 -16.225989 -16.814258 34.581179 0.566831 2.078562 0.077389 -0.034996 -278186.000000 0 0 1
-25.310322 -15.993989 -18.238358 35.057921 0.563557 2.117922 0.081373 -0.038798 -355134.000000 0 0 1
-23.966162 -15.791289 -18.570058 34.184628 0.582606 2.145074 0.046158 -0.030094 -746451.000000 0 0 1
-23.909662 -15.319889 -20.041658 34.756856 0.569838 2.185388 0.055511 -0.025488 -180477.000000 0 0 1
-24.488962 -16.117689 -20.995858 36.059884 0.582091 2.192289 0.050730 -0.027289 -2120460.000000 0 0 1
-25.810862 -16.116489 -21.181058 37.075316 0.558173 2.178883 0.056199 -0.033277 -2551500.000000 0 0 1
-26.313262 -17.423089 -21.774958 38.341891 0.584863 2.174768 0.061392 -0.034569 -576736.000000 0 0 1
-26.071742 -17.549489 -23.161558 39.040724 0.592459 2.205907 0.052558 -0.021898 94970.700000 0 0 1
-26.572552 -18.771789 -23.666958 40.231897 0.615032 2.199706 0.040283 -0.014476 -624914.000000 0 0 1
-26.019592 -19.117589 -25.066558 40.875833 0.633662 2.230948 0.030389 -0.013375 294016.000000 0 0 1
-24.647162 -19.463289 -25.123608 40.218129 0.668414 2.245523 0.038559 -0.014236 79575.200000 0 0 1
-24.428362 -20.866689 -24.863558 40.624625 0.706927 2.229423 0.029274 -0.013042 157915.000000 0 0 1
-22.908662 -21.167189 -24.770358 39.829981 0.745908 2.241966 0.025811 -0.011014 807867.000000 0 0 1
-22.204162 -21.090789 -26.029218 40.191621 0.759688 2.275264 0.030254 -0.011157 -341667.000000 0 0 1
-20.835162 -21.338789 -25.918308 39.512107 0.797339 2.286248 0.028061 -0.008569 -359593.000000 0 0 1
-20.108262 -21.187789 -27.265088 39.958099 0.811533 2.321758 0.027404 -0.009028 -104847.000000 0 0 1
-20.573462 -22.148089 -28.235458 41.364796 0.822239 2.322106 0.052789 0.002565 79461.400000 0 0 1
-20.425062 -21.605089 -29.524838 41.900825 0.813467 2.352707 0.038985 -0.003234 -80994.500000 0 0 1
-19.221762 -22.112289 -30.341748 42.178800 0.855215 2.373677 0.029864 -0.004241 -106136.000000 0 0 1
-19.404162 -23.331789 -31.062508 43.425492 0.877045 2.367858 0.036617 -0.001765 -105807.000000 0 0 1
-18.496162 -23.381089 -32.134798 43.834103 0.901522 2.393666 0.023513 -0.002248 14339.500000 0 0 1
-18.723162 -24.646989 -32.985538 45.233579 0.921146 2.387988 0.025344 -0.000245 329549.000000 0 0 1
-17.827962 -24.630189 -34.079605 45.671676 0.944258 2.413112 0.026695 -0.003399 -41398.100000 0 0 1
-18.542862 -24.941889 33.507501 45.702168 0.931505 0.747823 0.058313 -0.005286 -51442.800000 0 0 1
-17.746662 -24.807689 32.196745 44.350827 0.949830 0.758373 0.061477 -0.007242 -411423.000000 0 0 1
-17.404562 -23.448789 31.838225 43.202281 0.932282 0.742239 0.048627 -0.005555 -202215.000000 0 0 1
-16.866562 -23.409389 30.532725 42.008662 0.946441 0.757116 0.062564 -0.014650 -260245.000000 0 0 1
-16.080562 -22.133689 30.330625 40.846438 0.942493 0.733923 0.053574 -0.009946 -164056.000000 0 0 1
-16.896662 -21.017689 29.962705 40.311340 0.893666 0.732833 0.053419 -0.016257 509052.000000 0 0 1
-16.172262 -19.759689 29.853055 39.283486 0.884908 0.707577 0.046475 -0.017556 481155.000000 0 0 1
-15.353762 -19.235689 31.075435 39.641297 0.897159 0.669849 0.049924 -0.021257 559020.000000 0 0 1
-14.752662 -17.938089 30.923355 38.673892 0.882533 0.644180 0.055373 -0.022226 86349.900000 0 0 1
-13.861362 -17.622589 31.969125 39.047637 0.904300 0.611616 0.054351 -0.022562 148152.000000 0 0 1
-13.288762 -16.163789 31.853725 38.111928 0.882705 0.581219 0.055309 -0.024793 -70142.900000 0 0 1
-12.793662 -15.932889 30.555435 36.758255 0.894246 0.589437 0.067220 -0.033489 389760.000000 0 0 1
-12.189362 -14.632589 30.295975 35.784624 0.876238 0.561195 0.050066 -0.030902 1021990.000000 0 0 1
-10.631362 -14.521889 30.374165 35.305821 0.938855 0.534907 0.058534 -0.034976 677428.000000 0 0 1
-10.195062 -13.184989 30.268855 34.554114 0.912591 0.503324 0.063113 -0.038284 -815948.000000 0 0 1
-8.962662 -12.982489 30.878075 34.674628 0.966566 0.472333 0.036005 -0.034685 -542888.000000 0 0 1
-8.554162 -11.520689 30.824205 34.000464 0.932110 0.435683 0.041996 -0.036024 -672957.000000 0 0 1
-9.320262 -10.746389 31.666215 34.714569 0.856348 0.422204 0.043634 -0.032761 -270729.000000 0 0 1
-8.904362 -9.406589 31.730695 34.272563 0.812819 0.387561 0.038121 -0.026315 -310229.000000 0 0 1
-9.820662 -8.518089 32.610935 35.106642 0.714489 0.379336 0.027982 -0.020629 40777.300000 0 0 1
-11.096162 -8.309089 32.018335 34.890393 0.642749 0.408586 0.034904 -0.021307 522941.000000 0 0 1
-12.045462 -7.692389 32.910358 35.879767 0.568329 0.409701 0.032157 -0.023689 93966.900000 0 0 1
-11.816462 -6.233089 33.338313 35.915502 0.485399 0.381135 0.030592 -0.014942 -644333.000000 0 0 1
-12.111662 -5.320989 32.292655 34.897290 0.413944 0.388805 0.029798 -0.011441 260462.000000 0 0 1
-12.405162 -4.046389 32.776524 35.278348 0.315304 0.378870 0.032630 -0.011531 -329555.000000 0 0 1
-11.864362 -2.877489 31.980835 34.231810 0.237938 0.364665 0.023730 -0.002291 -307054.000000 0 0 1
-10.495462 -2.644789 32.181355 33.952750 0.246854 0.324446 0.027032 -0.004604 -231450.000000 0 0 1
-10.038562 -1.668689 31.263425 32.877941 0.164722 0.314686 0.018352 0.003931 567800.000000 0 0 1
-8.511362 -1.383689 31.476635 32.636428 0.161160 0.267392 0.021022 0.000680 648379.000000 0 0 1
-8.263762 -0.809989 32.752109 33.788259 0.097705 0.248290 0.024935 -0.010100 -1051670.000000 0 0 1
-6.930662 -0.591489 33.015163 33.739960 0.085138 0.207650 0.025058 -0.015922 -1015210.000000 0 0 1
-6.677362 0.024111 -34.327259 34.970680 -0.003611 2.949470 0.047278 -0.021999 -394242.000000 0 0 1
-7.136362 1.411111 -34.104759 34.871959 -0.195217 2.931442 0.040524 -0.019026 405779.000000 0 0 1
-6.508362 2.462211 33.910220 34.616820 -0.361674 0.202395 0.050164 -0.012884 -83582.400000 0 0 1
-7.299562 3.800211 34.086668 35.066025 -0.479998 0.236896 0.054316 -0.013706 446658.000000 0 0 1
-8.430662 3.902111 33.232725 34.506761 -0.433486 0.272583 0.026743 -0.003726 290724.000000 0 0 1
-9.182462 5.055711 33.554000 35.153218 -0.503291 0.302794 0.017511 0.009229 35804.700000 0 0 1
-10.326962 5.377211 32.573445 34.591760 -0.480067 0.343287 0.014125 0.014691 48400.800000 0 0 1
-11.189562 6.404211 33.015266 35.443307 -0.519831 0.372295 0.013319 0.013739 203808.000000 0 0 1
-12.105862 6.722611 31.974725 34.844345 -0.506917 0.408684 -0.009912 0.017579 86973.000000 0 0 1
-12.770262 8.121011 32.217775 35.595160 -0.566422 0.439142 0.018018 0.002791 -152311.000000 0 0 1
-13.611362 8.106911 33.327455 36.901361 -0.537177 0.443746 0.014100 0.001584 -92142.500000 0 0 1
-14.282262 9.282211 33.615424 37.684734 -0.576313 0.469008 0.014859 0.006770 55857.600000 0 0 1
-15.355662 9.355911 -34.051868 38.507910 -0.547216 2.655751 0.015958 0.002404 530683.000000 0 0 1
-14.634862 9.643111 -32.861668 37.243228 -0.582616 2.651635 0.014934 -0.001468 932766.000000 0 0 1
-15.554362 9.964411 -31.786628 36.764350 -0.569752 2.615159 0.025825 -0.006869 273505.000000 0 0 1
-14.783562 10.371311 -30.412498 35.370014 -0.611761 2.605750 0.041201 -0.020620 471107.000000 0 0 1
-13.958662 11.482911 -30.440798 35.402595 -0.688392 2.605765 0.047078 -0.022972 -278895.000000 0 0 1
-12.712862 11.184611 -31.061788 35.377211 -0.721535 2.642499 0.053430 -0.029621 -424621.000000 0 0 1
-11.938462 12.520211 -31.151018 35.632408 -0.809179 2.634650 0.053374 -0.029804 -123308.000000 0 0 1
-12.528762 13.383111 -32.080668 36.949247 -0.818358 2.622432 0.050845 -0.032552 328438.000000 0 0 1
-11.722362 14.550311 -32.283318 37.300643 -0.892624 2.616923 0.046818 -0.032424 306379.000000 0 0 1
-11.916062 15.612011 -31.126558 36.804756 -0.918861 2.578711 0.060143 -0.033616 -72500.000000 0 0 1
-13.233262 16.084311 -31.220318 37.530422 -0.882340 2.553260 0.057504 -0.034090 -156397.000000 0 0 1
-13.496862 16.985111 -30.183298 37.171101 -0.899339 2.518384 0.042518 -0.030989 -394582.000000 0 0 1
-14.872062 17.647211 -30.257238 38.053945 -0.870530 2.489992 0.030774 -0.036629 -477807.000000 0 0 1
-14.951962 18.560511 -31.320468 39.357661 -0.892663 2.491109 0.034206 -0.030221 -101566.000000 0 0 1
-16.260462 19.075011 -31.400728 40.177909 -0.864883 2.467930 0.024375 -0.030711 219309.000000 0 0 1
-16.575862 20.269511 -30.453228 40.162313 -0.885312 2.431427 -0.010358 -0.023336 -661833.000000 0 0 1
-15.970562 21.431811 -30.997298 40.929377 -0.930387 2.430021 -0.000099 -0.013884 91848.400000 0 0 1
-16.491262 22.729711 -30.675018 41.587958 -0.943136 2.400296 -0.012146 -0.014212 -957482.000000 0 0 1
-17.838662 23.036511 -31.301278 42.762936 -0.911883 2.392008 -0.001935 -0.013784 -651766.000000 0 0 1
-18.857462 22.337311 -30.569618 42.297292 -0.869671 2.378544 -0.004827 -0.024606 -504503.000000 0 0 1
-19.877262 22.153311 -31.488208 43.328766 -0.839498 2.384342 0.014584 -0.029154 -1025590.000000 0 0 1
-21.224562 21.528611 -31.007488 43.306206 -0.792510 2.368860 0.020998 -0.034471 -43192.900000 0 0 1
-22.049962 22.450411 -30.344648 43.715209 -0.794397 2.338026 0.049033 -0.033745 473207.000000 0 0 1
-22.834662 23.332411 -31.204318 45.161186 -0.796179 2.333605 0.057203 -0.033182 268188.000000 0 0 1
-24.106462 22.746611 -31.895068 45.998100 -0.756383 2.336993 0.053290 -0.037045 -318789.000000 0 0 1
-23.876862 21.795811 -32.915708 46.136816 -0.739865 2.365187 0.052468 -0.033512 -185969.000000 0 0 1
-25.001162 21.543811 -33.712898 47.177891 -0.711255 2.366836 0.055890 -0.030281 -371187.000000 0 0 1
-24.763062 20.497611 33.932632 46.741681 -0.691434 0.758366 0.043629 -0.019189 38293.200000 0 0 1
-24.256962 19.253411 -34.314547 46.223178 -0.670904 2.407392 0.045185 -0.020033 352529.000000 0 0 1
-23.987062 18.444011 33.280454 44.979432 -0.655497 0.737869 0.037886 -0.021467 -167818.000000 0 0 1
-23.710262 16.954411 33.567472 44.456762 -0.620766 0.715052 0.010482 -0.010072 -431067.000000 0 0 1
-24.836262 16.205511 33.904141 45.043859 -0.578126 0.718655 0.015070 -0.005914 -177575.000000 0 0 1
-25.307722 15.533811 32.765871 44.219706 -0.550503 0.736269 0.020205 -0.008125 -391666.000000 0 0 1
-26.248522 14.337411 33.067130 44.586784 -0.499935 0.735292 0.012132 -0.004730 1082700.000000 0 0 1
-27.592452 14.751011 33.450638 45.802630 -0.490945 0.752004 0.013481 -0.000969 1692650.000000 0 0 1
-28.629982 13.748011 33.393236 46.084616 -0.447679 0.760332 0.016828 -0.000449 563677.000000 0 0 1
-28.552182 12.530711 34.345995 46.388503 -0.413560 0.737133 0.022293 -0.001097 170994.000000 0 0 1
-27.443422 11.610811 34.222731 45.377832 -0.400245 0.716403 0.017591 -0.007756 325910.000000 0 0 1
-27.885362 10.274211 34.248223 45.344168 -0.353011 0.714692 0.023513 -0.002288 -363889.000000 0 0 1
-26.726972 9.246111 34.316790 44.468682 -0.333059 0.689276 0.024200 -0.010069 325554.000000 0 0 1
-25.825052 9.093011 33.236353 43.061251 -0.338545 0.689068 0.030505 -0.010459 625490.000000 0 0 1
-24.979662 10.225111 32.945764 42.590606 -0.388530 0.686380 0.023209 -0.016446 -869280.000000 0 0 1
-23.637262 9.912411 32.251725 41.196478 -0.397080 0.671522 0.017212 -0.013017 -301916.000000 0 0 1
-23.617462 9.558811 30.917675 40.063175 -0.384581 0.689250 0.013217 -0.004362 104676.000000 0 0 1
-22.302962 9.387211 30.403705 38.857780 -0.398389 0.672229 0.010077 -0.004273 448491.000000 0 0 1
-22.267062 9.427311 28.855435 37.647475 -0.400493 0.697479 0.020612 -0.006923 -4140.350000 0 0 1
-22.658262 10.681011 28.342315 37.825489 -0.440504 0.723805 0.012686 0.003741 109732.000000 0 0 1
-22.511262 10.680811 26.911245 36.674947 -0.443012 0.746931 0.009837 -0.003548 -1292900.000000 0 0 1
-22.962962 12.014311 26.271885 36.903295 -0.482038 0.778580 0.004827 -0.006114 -364581.000000 0 0 1
-24.301862 12.318011 26.495785 38.004480 -0.469133 0.799347 0.002544 -0.003767 -659862.000000 0 0 1
-25.209082 11.529511 25.744545 37.831323 -0.428954 0.822340 0.004831 0.003928 127295.000000 0 0 1
-26.680222 12.096411 25.871475 39.083124 -0.425665 0.847365 0.009287 0.006255 837479.000000 0 0 1
-26.845182 13.388711 25.296525 39.240738 -0.462637 0.870232 0.007673 0.003895 -441563.000000 0 0 1
-27.974342 14.000311 25.843275 40.576439 -0.464023 0.880321 0.008874 0.001448 -379578.000000 0 0 1
-28.143292 15.399411 25.114185 40.741981 -0.500675 0.906608 0.008607 0.000375 -98093.900000 0 0 1
-27.213142 16.401911 25.430755 40.697679 -0.542417 0.895831 0.014735 0.000412 -212767.000000 0 0 1
-27.435582 17.543811 24.637975 40.835356 -0.568926 0.923102 0.010789 -0.002251 -104627.000000 0 0 1
-22.219462 -9.530189 31.549575 39.748015 0.405179 0.653864 0.013920 -0.015328 -139008.000000 0 0 1
-21.564362 -8.606689 30.696585 38.488662 0.379744 0.647575 0.022327 -0.016297 -150598.000000 0 0 1
-22.058962 -8.805789 29.437425 37.824618 0.379811 0.678905 0.021376 -0.018833 -112168.000000 0 0 1
-21.081462 -8.506389 28.242655 36.255127 0.383521 0.677731 0.022773 -0.019283 345429.000000 0 0 1
-20.513662 -7.150789 28.254495 35.640715 0.335415 0.655474 0.020608 -0.021523 345784.000000 0 0 1
-19.358762 -6.892589 29.035715 35.571649 0.342050 0.615889 0.020272 -0.022361 733479.000000 0 0 1
-17.986062 -7.321589 28.363525 34.374316 0.386586 0.600351 0.025381 -0.018660 4724.660000 0 0 1
-17.727162 -8.711489 28.275525 34.491269 0.456760 0.609756 0.027976 -0.021319 152669.000000 0 0 1
-17.426962 -9.350789 29.551195 35.558534 0.492474 0.589790 0.037324 -0.023585 753532.000000 0 0 1
-16.022462 -9.006289 30.236605 35.384810 0.512089 0.546193 0.040681 -0.023909 661013.000000 0 0 1
-14.911962 -9.511889 29.560145 34.447711 0.567800 0.539207 0.030508 -0.023064 -377276.000000 0 0 1
-13.724362 -9.220089 30.294585 34.512752 0.591551 0.499589 0.029623 -0.023892 -298099.000000 0 0 1
-12.558462 -10.068289 29.874605 33.934900 0.675785 0.494196 0.034065 -0.031023 -713531.000000 0 0 1
-12.169262 -9.781189 28.552755 32.542624 0.677031 0.500390 0.044704 -0.025628 103698.000000 0 0 1
-11.009262 -10.544389 28.219225 32.073550 0.763833 0.495295 0.048546 -0.026893 275569.000000 0 0 1
-10.479062 -10.367589 26.789675 30.577513 0.780051 0.503035 0.046250 -0.028780 209585.000000 0 0 1
-11.369862 -10.891989 25.794055 30.219902 0.763935 0.548044 0.041849 -0.023941 -161398.000000 0 0 1
-10.947762 -10.613189 24.503485 28.860250 0.769882 0.556632 0.041235 -0.012031 -523538.000000 0 0 1
-11.904962 -10.865889 23.358545 28.379875 0.739798 0.604006 0.038494 -0.008839 -1218390.000000 0 0 1
-11.952962 -12.265289 23.149445 28.795962 0.798294 0.636951 0.045839 -0.006471 -218103.000000 0 0 1
-13.086662 -12.585289 22.401545 28.835385 0.765871 0.681106 0.037375 0.004011 -520732.000000 0 0 1
-14.343262 -12.697989 23.273445 30.143346 0.724630 0.688669 0.028838 0.001940 -1237360.000000 0 0 1
-15.481362 -13.146889 22.564445 30.358976 0.704034 0.732874 0.013596 0.012672 2724.370000 0 0 1
-16.579062 -13.180089 23.442245 31.593020 0.671675 0.734737 0.001431 0.013247 -335604.000000 0 0 1
-17.792162 -14.003589 23.010145 32.282012 0.666804 0.777335 0.009798 0.006609 -518015.000000 0 0 1
-17.540962 -15.364589 23.103845 32.825959 0.719354 0.790024 0.002586 0.009270 324251.000000 0 0 1
-18.790962 -16.018989 23.019445 33.758008 0.705934 0.820445 0.021114 0.009394 -114796.000000 0 0 1
-19.587562 -16.072489 24.332605 35.129377 0.687144 0.805630 0.016603 0.004237 -779990.000000 0 0 1
-19.181362 -17.010389 25.294285 36.014981 0.725485 0.792135 0.023253 -0.001634 363071.000000 0 0 1
-20.022062 -16.773089 26.447125 37.170821 0.697328 0.779162 0.022590 -0.002960 265850.000000 0 0 1
-19.710862 -17.784489 27.605085 38.299437 0.734067 0.765884 0.028737 -0.009201 -4977.560000 0 0 1
-19.999262 -19.107989 27.343425 38.894069 0.762612 0.791157 0.038295 -0.003968 38220.500000 0 0 1
-19.770462 -19.882689 28.502665 39.982426 0.788228 0.777200 0.028017 -0.004366 -242245.000000 0 0 1
-19.802762 -21.445089 28.315425 40.666995 0.825193 0.800601 0.043003 0.002665 -584341.000000 0 0 1
-21.090762 -21.888089 28.033005 41.349221 0.803948 0.825816 0.033712 0.004560 -522622.000000 0 0 1
-21.089962 -23.238189 27.631575 41.812724 0.833822 0.848857 0.042752 0.010306 -177777.000000 0 0 1
-22.476262 -23.772689 27.243605 42.573902 0.813422 0.876411 0.049071 0.015503 -324540.000000 0 0 1
-23.174462 -24.313789 28.363265 43.962380 0.809385 0.869549 0.048965 0.018053 -506245.000000 0 0 1
-24.319162 -24.992189 27.969245 44.702459 0.799046 0.894799 0.048236 0.017546 -574378.000000 0 0 1
-24.992262 -25.649979 29.189875 46.201552 0.798385 0.886931 0.028463 0.011587 -279975.000000 0 0 1
-25.721842 -24.818689 30.075325 46.713014 0.767530 0.871301 0.010058 0.026602 194586.000000 0 0 1
-26.203092 -25.593229 31.187735 48.107070 0.773624 0.865449 0.014685 0.033796 440395.000000 0 0 1
-27.441862 -24.836889 31.806885 48.801688 0.735611 0.860896 -0.001251 0.031549 902236.000000 0 0 1
-28.543102 -24.874089 30.885545 48.860473 0.716820 0.886514 0.012777 0.025440 653401.000000 0 0 1
-29.407112 -23.729989 30.988805 48.869179 0.678963 0.883930 0.007449 0.012111 305310.000000 0 0 1
-30.548572 -23.882389 29.943365 48.991722 0.663535 0.913230 0.001440 0.005899 1216030.000000 0 0 1
-31.672212 -24.751189 30.344715 50.364195 0.663346 0.924159 0.001534 0.005906 695326.000000 0 0 1
-32.716182 -24.677389 29.441625 50.459205 0.646239 0.947797 0.005446 0.001131 -596288.000000 0 0 1
-33.924642 -25.500689 29.939605 51.937909 0.644579 0.956419 0.004939 0.001751 -346188.000000 0 0 1
-33.657502 -26.889799 30.159075 52.587627 0.674085 0.960023 0.005319 -0.002608 25513.700000 0 0 1
-34.598177 -27.610549 30.932155 54.001616 0.673541 0.960878 0.006011 -0.008552 -10179.500000 0 0 1
-34.090189 -29.059419 31.203865 54.591868 0.705902 0.962361 0.004279 -0.010543 117123.000000 0 0 1
-33.210062 -29.210809 32.293795 54.763754 0.721416 0.940118 0.008150 0.000394 50548.800000 0 0 1
-32.778412 -30.576429 32.411675 55.315992 0.750656 0.944761 0.005438 -0.005980 -296494.000000 0 0 1
-31.757722 -30.773279 33.543596 55.504238 0.769656 0.921855 0.008758 -0.007344 -184426.000000 0 0 1
-32.280452 -30.540259 -33.936078 55.914152 0.757704 2.222991 0.011184 -0.000818 -113899.000000 0 0 1
-31.211422 -30.515429 -33.027828 54.737389 0.774123 2.218538 0.006686 -0.012848 -40230.200000 0 0 1
-31.656962 -30.118549 -31.551748 53.896225 0.760500 2.196190 0.015261 -0.021116 191046.000000 0 0 1
-31.990472 -28.760459 -31.339518 53.223301 0.732280 2.200408 0.018008 -0.009365 -144678.000000 0 0 1
-30.811602 -28.129709 -30.927588 51.934103 0.739928 2.208704 0.027098 -0.005140 -268373.000000 0 0 1
-30.824612 -26.598499 -30.985288 51.163708 0.711935 2.221329 0.018785 0.004065 -258711.000000 0 0 1
-31.492502 -26.027699 -29.893738 50.624642 0.690676 2.202472 0.020002 -0.004791 -117796.000000 0 0 1
-31.410362 -24.605589 -29.838888 49.823741 0.664511 2.212909 0.034838 -0.007901 455248.000000 0 0 1
-29.993832 -24.075389 -29.443058 48.437052 0.676372 2.224162 0.039534 -0.009427 -156618.000000 0 0 1
-29.800412 -22.681289 -29.561528 47.711523 0.650571 2.239015 0.046671 -0.007935 252870.000000 0 0 1
-28.736442 -22.171489 -28.766508 46.312742 0.657149 2.240988 0.036526 -0.008318 12326.000000 0 0 1
-28.468752 -20.697689 -28.841238 45.504738 0.628639 2.257262 0.044161 -0.016708 26622.600000 0 0 1
-28.115502 -20.150389 -30.150308 45.886390 0.621847 2.287714 0.044404 -0.004675 422910.000000 0 0 1
-27.827042 -18.759389 -30.141208 45.108219 0.593160 2.302580 0.031723 -0.008901 -451141.000000 0 0 1
-27.373582 -18.108889 -31.443128 45.452340 0.584449 2.334751 0.041139 -0.005637 20.527900 0 0 1
-28.247332 -17.949689 -32.554678 46.689508 0.566077 2.342363 0.037971 -0.013336 -370375.000000 0 0 1
-29.247162 -17.003189 -32.366638 46.819913 0.526602 2.334084 0.047049 -0.014951 -900609.000000 0 0 1
-29.994392 -16.522889 -33.600588 47.975712 0.503508 2.346707 0.037190 -0.017841 -536608.000000 0 0 1
-30.889072 -17.391689 -34.201006 49.257634 0.512797 2.338284 0.040576 -0.022112 1045270.000000 0 0 1
-32.265172 -17.035089 -33.902658 49.805882 0.485774 2.319508 0.051727 -0.021830 849613.000000 0 0 1
-33.255072 -17.415889 33.756236 50.484616 0.482432 0.838413 0.041462 -0.025123 -351856.000000 0 0 1
-33.518622 -18.824589 33.934439 51.277766 0.511718 0.847610 0.031803 -0.022841 537280.000000 0 0 1
-34.411791 -19.391289 32.941858 51.433058 0.513154 0.875673 0.028792 -0.019232 150321.000000 0 0 1
-34.778960 -20.857889 33.254252 52.444951 0.540219 0.883979 0.018853 -0.021666 -236833.000000 0 0 1
-33.786592 -21.806489 32.959009 51.993779 0.573148 0.884207 0.018841 -0.015434 -256928.000000 0 0 1
-34.060282 -23.061589 33.593305 53.107908 0.595178 0.885958 0.014126 -0.008941 -1276940.000000 0 0 1
-32.915672 -24.081489 33.696421 52.903765 0.631628 0.880276 0.016139 -0.003210 -205899.000000 0 0 1
-31.962842 -23.803889 -34.068508 52.430065 0.640124 2.278104 0.017592 -0.010478 -170820.000000 0 0 1
-31.058322 -22.779989 34.351356 51.609717 0.632830 0.842501 0.027751 -0.011140 -1061970.000000 0 0 1
-29.756622 -22.798889 -33.563828 50.316762 0.653775 2.301039 0.030878 -0.008071 -835167.000000 0 0 1
-28.927362 -23.845689 -33.823378 50.491882 0.689401 2.304840 0.031923 -0.000598 -58302.700000 0 0 1
-27.652312 -23.722189 -33.189708 49.284373 0.709047 2.309639 0.036695 -0.001770 424219.000000 0 0 1
-27.517362 -24.070189 -31.692008 48.383495 0.718676 2.285001 0.041882 0.006005 -1153650.000000 0 0 1
-27.483372 -25.443479 -31.613468 49.011404 0.746875 2.271849 0.037337 -0.000046 16713.200000 0 0 1
-26.613852 -25.751669 -30.561368 48.015027 0.768935 2.260743 0.027374 -0.004605 -299226.000000 0 0 1
-26.269272 -27.199439 -30.364808 48.496451 0.802793 2.247369 0.025519 -0.003347 -618930.000000 0 0 1
-27.291202 -28.003049 -29.860458 49.199873 0.798271 2.222978 0.007261 -0.004710 -203362.000000 0 0 1
-26.887442 -29.269419 -29.416628 49.446653 0.827789 2.207958 -0.000277 -0.010516 -992508.000000 0 0 1
-27.907952 -30.349029 -29.699288 50.813041 0.827276 2.195037 0.004345 -0.001789 -576608.000000 0 0 1
-28.065782 -30.691669 -31.073498 51.915595 0.830059 2.212472 0.032001 -0.007496 235984.000000 0 0 1
-28.358422 -32.073039 -31.227858 52.991123 0.846789 2.200993 0.042432 -0.001363 -474236.000000 0 0 1
-28.092992 -32.664659 -32.601358 54.028185 0.860501 2.218572 0.026037 -0.016167 210439.000000 0 0 1
-26.715622 -32.599879 -32.951788 53.500439 0.884277 2.234345 0.037641 -0.006141 243630.000000 0 0 1
-26.504592 -33.301609 -34.189587 54.593209 0.898563 2.247544 0.039808 -0.007179 316466.000000 0 0 1
-25.039862 -33.303449 34.035669 53.800940 0.926100 0.885862 0.044521 -0.005765 412242.000000 0 0 1
-24.757962 -33.983859 32.805471 53.329713 0.941184 0.908227 0.042324 0.005110 -194894.000000 0 0 1
-23.717362 33.906303 33.011840 52.933281 -0.960408 0.897393 0.038339 0.009596 -249274.000000 0 0 1
-23.542962 33.002040 31.812885 51.531208 -0.951147 0.905424 0.053831 -0.000122 -186954.000000 0 0 1
-24.693262 32.266244 31.492885 51.406901 -0.917577 0.911425 0.039456 -0.019128 -117145.000000 0 0 1
-24.424362 31.581864 30.284095 50.110777 -0.912507 0.921855 0.044543 -0.014444 517301.000000 0 0 1
-25.703842 30.848324 29.758805 49.978926 -0.876117 0.932999 0.045974 -0.015802 567151.000000 0 0 1
-26.165872 29.815634 30.677815 50.147315 -0.850502 0.912520 0.046237 -0.018326 155209.000000 0 0 1
-27.368682 29.220714 30.255185 50.182378 -0.818114 0.923660 0.035088 -0.022096 -83506.800000 0 0 1
-27.876572 28.110004 31.220225 50.418033 -0.789568 0.903038 0.029539 -0.036230 -470318.000000 0 0 1
-27.028722 27.017404 31.395045 49.458475 -0.785189 0.883078 0.037949 -0.036861 82235.700000 0 0 1
-27.749062 25.854794 31.814115 49.503724 -0.750075 0.872830 0.041448 -0.025748 323085.000000 0 0 1
-28.806552 25.283414 30.861065 49.208473 -0.720355 0.892908 0.032823 -0.026165 -153824.000000 0 0 1
-28.247102 24.925064 29.618325 47.920797 -0.723002 0.904513 0.031261 -0.014013 28733.000000 0 0 1
-29.165462 24.264674 28.737325 47.594458 -0.693931 0.922542 0.019537 -0.009507 492021.000000 0 0 1
-28.478042 23.963624 27.354915 46.190319 -0.699525 0.936983 0.020018 -0.013131 512804.000000 0 0 1
-27.347742 23.103324 27.476365 45.128851 -0.701466 0.916196 0.017579 -0.008289 144883.000000 0 0 1
-26.634992 23.047124 26.283305 43.947751 -0.713307 0.929721 0.008372 -0.008185 -793446.000000 0 0 1
-25.371452 22.208224 26.281705 42.750951 -0.719013 0.908711 0.007140 -0.002793 -578119.000000 0 0 1
-25.590542 20.825124 26.431965 42.275411 -0.683088 0.895367 0.008202 -0.003426 226849.000000 0 0 1
-24.363862 20.208424 26.746795 41.441154 -0.692438 0.869228 0.005920 0.007345 -251782.000000 0 0 1
-24.412362 19.238024 27.907495 41.771920 -0.667408 0.839154 0.011245 -0.002694 -264668.000000 0 0 1
-23.205762 18.617024 28.284515 41.050149 -0.676117 0.810656 -0.003558 0.004588 168168.000000 0 0 1
-23.486662 17.736324 29.385745 41.589933 -0.646799 0.786172 -0.000165 0.001738 -149728.000000 0 0 1
-22.393462 16.685424 29.674895 40.748864 -0.640359 0.755048 -0.002207 -0.003154 -294904.000000 0 0 1
-21.332762 17.237024 30.419575 40.957933 -0.679604 0.733699 0.009425 -0.003204 232686.000000 0 0 1
-20.262862 16.289524 30.486605 40.067010 -0.677121 0.706112 0.005708 0.000172 717065.000000 0 0 1
-19.096762 16.691824 31.457615 40.408970 -0.718301 0.678554 0.004681 -0.008839 105226.000000 0 0 1
-19.273662 16.460224 32.825165 41.471731 -0.706827 0.657525 0.003710 -0.011310 371706.000000 0 0 1
-18.124362 16.773024 33.612706 41.709002 -0.746694 0.633626 0.009786 -0.011689 -309544.000000 0 0 1
-18.227262 16.510624 -33.616188 41.651914 -0.736021 2.509976 0.004039 -0.016646 -103513.000000 0 0 1
-19.131462 17.342124 -32.925488 41.843158 -0.736379 2.476531 0.008566 -0.018288 -713538.000000 0 0 1
-20.446962 16.922324 -32.988448 42.340064 -0.691357 2.464074 0.008548 -0.016840 -1583480.000000 0 0 1
-21.445462 17.761324 -32.241338 42.601366 -0.691706 2.429222 0.013202 -0.020038 -484381.000000 0 0 1
-21.468262 17.531224 -30.865798 41.484065 -0.684788 2.409893 0.009688 -0.013548 184781.000000 0 0 1
-22.457262 18.312224 -30.217968 41.866356 -0.684076 2.377156 0.012654 -0.015999 -480977.000000 0 0 1
-22.709062 17.851424 -28.771158 40.769528 -0.666203 2.354211 0.016103 -0.022572 203725.000000 0 0 1
-23.269962 16.543224 -28.592198 40.406475 -0.618021 2.356912 0.005460 -0.013723 84362.600000 0 0 1
-24.537762 16.304824 -29.174158 41.461797 -0.586486 2.351303 0.022206 -0.015930 -166758.000000 0 0 1
-25.371192 15.248824 -28.382938 41.009941 -0.541176 2.335189 0.033809 -0.003437 -22939.800000 0 0 1
-24.847262 13.946124 -28.527918 40.320255 -0.511458 2.356798 0.011039 0.002206 94848.700000 0 0 1
-25.569792 12.997324 -27.776948 39.928731 -0.470272 2.340139 0.005259 0.004156 220867.000000 0 0 1
-24.973162 11.574024 -28.079558 39.320204 -0.433989 2.366170 0.015173 -0.000185 413407.000000 0 0 1
-23.890162 11.291624 -27.213548 37.931752 -0.441527 2.370909 0.019973 -0.000558 107098.000000 0 0 1
-23.031162 10.281124 -27.738828 37.491046 -0.419857 2.403686 0.013290 0.004447 494717.000000 0 0 1
-22.055862 9.660124 -26.708648 35.960130 -0.412817 2.407934 0.022086 0.000288 38782.400000 0 0 1
-22.704162 8.723824 -25.903168 35.532495 -0.366846 2.387655 0.042058 -0.002126 359809.000000 0 0 1
-21.853662 8.264324 -24.858058 34.114582 -0.361544 2.387165 0.045145 0.013564 112508.000000 0 0 1
-22.633262 7.131624 -24.071958 33.802127 -0.305247 2.363343 0.041228 0.019479 479425.000000 0 0 1
-22.903762 5.960424 -24.793458 34.275714 -0.254591 2.379443 0.040693 0.009224 159085.000000 0 0 1
-23.429962 4.955224 -23.995758 33.901531 -0.208420 2.357186 0.034445 0.015557 -464717.000000 0 0 1
34.965828 25.471011 -10.498958 44.515274 0.629569 1.808890 -0.009046 0.001818 98966.200000 0 0 1
35.695425 24.644411 -9.601558 44.426346 0.604259 1.788638 0.002958 0.001934 42261.000000 0 0 1
-35.052750 23.564611 -10.223458 43.456936 -0.591866 1.808277 0.016648 -0.001478 -552978.000000 0 0 1
-34.121642 22.814411 -9.279058 42.081881 -0.589354 1.793123 -0.000891 -0.005642 -576877.000000 0 0 1
-34.710520 22.146811 -8.190058 41.980692 -0.567924 1.767147 0.024800 -0.005312 -1202060.000000 0 0 1
-33.785252 21.491711 -7.453658 40.729521 -0.566561 1.754837 0.002246 -0.002600 -1319780.000000 0 0 1
-34.306382 20.729911 -6.226258 40.563818 -0.543545 1.724898 0.022579 0.005074 51320.500000 0 0 1
-34.929888 19.454811 -6.574858 40.519323 -0.508177 1.733782 0.027912 0.000249 585540.000000 0 0 1
-35.454511 18.704811 -5.505258 40.462330 -0.485461 1.707279 0.032445 -0.007298 -182895.000000 0 0 1
35.208008 17.444711 -6.009458 39.749658 0.460022 1.722561 0.027429 0.003515 -439879.000000 0 0 1
34.133628 17.771611 -6.821258 39.082787 0.480029 1.746228 0.041073 -0.003411 -488969.000000 0 0 1
33.445148 16.639911 -7.341558 38.070501 0.461668 1.764853 0.057191 0.001915 15582.100000 0 0 1
32.355618 17.019911 -8.349958 37.500469 0.484251 1.795341 0.039899 -0.000402 -205618.000000 0 0 1
32.000798 15.852511 -9.060858 36.843620 0.459944 1.819273 0.042814 0.001190 -112974.000000 0 0 1
31.440398 16.239511 -10.299958 36.855250 0.476774 1.854039 0.047576 -0.002228 -700896.000000 0 0 1
30.925348 15.140811 -11.186958 36.204548 0.455287 1.884931 0.049149 0.002894 875887.000000 0 0 1
29.719468 14.443111 -10.760758 34.751174 0.452370 1.885623 0.047228 0.003462 1238290.000000 0 0 1
29.750668 13.818711 -9.476258 34.144670 0.434833 1.852021 0.036146 -0.001031 -675590.000000 0 0 1
28.615438 12.784011 -9.192758 32.661614 0.420150 1.856106 0.048296 0.004450 152644.000000 0 0 1
28.802768 11.556111 -9.928458 32.584005 0.381554 1.880423 0.054685 0.001678 -64458.500000 0 0 1
27.842948 10.582111 -9.660858 31.313623 0.363203 1.884432 0.052313 -0.001568 -754422.000000 0 0 1
28.209788 9.147511 -10.039058 31.308973 0.313569 1.897206 0.060770 -0.004647 -388838.000000 0 0 1
29.332578 8.730311 -9.287258 31.982364 0.289283 1.865427 0.057899 -0.006042 344686.000000 0 0 1
29.414908 7.313911 -9.339358 31.716773 0.243704 1.869688 0.052998 -0.005525 -415531.000000 0 0 1
30.596018 6.791011 -8.498658 32.472470 0.218417 1.835599 0.059630 -0.007667 -23427.600000 0 0 1
31.819998 7.122611 -9.137358 33.863478 0.220211 1.844012 0.049867 -0.011923 124652.000000 0 0 1
32.908488 7.001311 -8.245558 34.640672 0.209625 1.811135 0.056232 -0.013234 -474160.000000 0 0 1
34.276918 7.269211 -8.850658 36.139766 0.208977 1.818214 0.049152 -0.009150 -508068.000000 0 0 1
34.592868 6.291411 -9.784658 36.496409 0.179904 1.842216 0.041872 -0.008641 210040.000000 0 0 1
-35.425368 6.092011 -10.003558 37.311399 -0.170302 1.842227 0.034188 -0.008374 -694355.000000 0 0 1
-35.190889 5.489911 -11.372958 37.388260 -0.154756 1.879879 0.031185 -0.004605 -226806.000000 0 0 1
-33.871182 5.358811 -11.872058 36.289387 -0.156911 1.904082 0.033853 -0.008198 739149.000000 0 0 1
-33.211712 6.540711 -12.406658 36.051684 -0.194451 1.922114 0.023841 -0.007176 209460.000000 0 0 1
-32.369752 7.404311 -11.441858 35.121799 -0.224873 1.902629 0.029394 0.002957 -837795.000000 0 0 1
-33.146022 8.085111 -10.471258 35.688584 -0.239252 1.868584 0.032471 -0.003966 310943.000000 0 0 1
-33.587172 9.388011 -10.905158 36.539778 -0.272556 1.873861 0.028215 -0.007396 -29421.800000 0 0 1
-34.518134 10.098811 -9.901858 37.303275 -0.284622 1.839459 0.037941 -0.007516 146298.000000 0 0 1
-33.817272 10.613111 -8.823758 36.525398 -0.304102 1.814789 0.027115 0.001993 406478.000000 0 0 1
-34.698343 11.595111 -8.281158 37.509988 -0.322502 1.793402 0.031502 -0.001149 134904.000000 0 0 1
-34.013582 12.626411 -7.356458 37.019826 -0.355450 1.770845 0.038359 -0.005132 386127.000000 0 0 1
-33.050662 13.478711 -7.988558 36.576481 -0.387229 1.790978 0.026794 -0.003734 463380.000000 0 0 1
-32.512742 14.504711 -7.140058 36.310404 -0.419626 1.768726 0.031612 0.000348 576605.000000 0 0 1
-31.637452 15.644011 -7.785558 36.142473 -0.459220 1.787911 0.008408 0.002734 304866.000000 0 0 1
-32.331102 16.418411 -8.758258 37.303773 -0.469885 1.807791 0.002697 0.002883 -282477.000000 0 0 1
-31.780342 17.678511 -9.000458 37.463691 -0.507646 1.813414 -0.005772 0.006645 -77164.800000 0 0 1
-32.523252 18.578611 -10.014858 38.771434 -0.519005 1.832064 -0.016977 0.005642 45967.400000 0 0 1
-32.237612 18.260811 -11.339858 38.746784 -0.515381 1.867810 -0.023129 0.009735 -230325.000000 0 0 1
-33.048422 19.104711 -12.142858 40.057923 -0.524148 1.878774 -0.021492 0.002976 -493101.000000 0 0 1
-32.664442 19.195011 -13.615858 40.259233 -0.531283 1.915805 -0.031593 0.014886 -345078.000000 0 0 1
-31.820912 20.313411 -13.811858 40.199161 -0.568154 1.921529 -0.031901 0.005239 139556.000000 0 0 1
-31.554722 20.673011 -15.193858 40.668504 -0.579986 1.953686 -0.043336 0.006241 -820582.000000 0 0 1
-30.808242 21.987011 -15.378658 40.854370 -0.619844 1.956732 -0.017971 -0.006774 -218458.000000 0 0 1
-29.559782 21.899311 -14.693058 39.613716 -0.637618 1.950783 -0.014718 -0.005112 815882.000000 0 0 1
-28.724382 23.066911 -14.713158 39.669252 -0.676594 1.950770 -0.017025 -0.002572 422782.000000 0 0 1
-28.035202 23.445711 -16.077058 39.926754 -0.696484 1.985221 -0.009130 -0.012501 -846574.000000 0 0 1
-28.874632 24.099211 -16.980558 41.265672 -0.695494 1.994889 -0.009824 -0.002053 214693.000000 0 0 1
-28.191222 24.630211 -18.146258 41.601430 -0.718084 2.022160 -0.005414 -0.001238 -53870.200000 0 0 1
-27.446232 25.972511 -17.923658 41.822536 -0.757817 2.013700 0.001663 0.000482 -328863.000000 0 0 1
-28.138312 27.096111 -17.488658 42.799731 -0.766532 1.991734 0.006286 0.000364 -564746.000000 0 0 1
-27.324212 28.224111 -17.433358 42.978308 -0.801597 1.988466 0.015106 -0.002191 -240066.000000 0 0 1
-28.077032 29.478911 -16.960958 44.102154 -0.809750 1.965553 0.005098 -0.000785 -295528.000000 0 0 1
-28.435502 29.542111 -15.596658 43.869920 -0.804483 1.934267 0.004006 -0.002818 404654.000000 0 0 1
-27.388812 29.450211 -14.637358 42.798530 -0.821650 1.919847 0.010064 0.002451 -89985.500000 0 0 1
-27.683192 30.370411 -13.421658 43.230335 -0.831654 1.886482 0.011182 0.001234 28174.800000 0 0 1
-27.071782 31.673711 -13.497758 43.798343 -0.863575 1.884075 0.026384 0.002299 273733.000000 0 0 1
-27.437142 32.489211 -12.397358 44.294922 -0.869504 1.854468 0.021724 0.001228 -103012.000000 0 0 1
-26.903292 33.956111 -12.485058 45.085267 -0.900771 1.851385 0.005533 -0.000526 -106169.000000 0 0 1
-27.461132 -34.019903 -13.481158 45.751603 0.891676 1.869896 -0.004404 -0.007174 180904.000000 0 0 1
-26.753272 -32.791703 -13.652758 44.468316 0.886462 1.882859 0.010993 -0.004800 755.926000 0 0 1
-27.256692 -32.036703 -14.882958 44.618158 0.865840 1.910877 0.004035 -0.000526 -64717.900000 0 0 1
-26.709512 -32.728803 -15.996458 45.171443 0.886324 1.932777 0.001754 -0.000036 130661.000000 0 0 1
-26.926942 -32.091303 -17.249758 45.304151 0.872680 1.961408 0.008015 0.008748 -247241.000000 0 0 1
-25.910742 -32.471303 -18.355858 45.416843 0.897302 1.986861 0.003548 0.009011 -569444.000000 0 0 1
-26.022792 -33.764603 -18.957258 46.654172 0.914171 1.989237 0.004787 0.011119 -47369.000000 0 0 1
-25.664542 33.977111 -18.130758 46.279987 -0.923881 1.973343 -0.006692 0.006357 -812042.000000 0 0 1
-25.778672 32.583911 -18.848958 45.623836 -0.901477 1.996694 0.003231 -0.010605 662411.000000 0 0 1
-27.052342 31.970111 -19.095358 46.027708 -0.868526 1.998593 0.007634 -0.009519 395272.000000 0 0 1
-27.840912 32.655011 -20.038558 47.360426 -0.864808 2.007669 0.005872 -0.005300 555068.000000 0 0 1
-29.359822 32.241911 -20.095258 48.014158 -0.832150 2.002620 0.008013 -0.007585 814775.000000 0 0 1
-29.582592 30.968211 -20.520858 47.489635 -0.808278 2.017630 0.003534 -0.010337 -45738.000000 0 0 1
-30.976812 30.777511 -20.526958 48.251156 -0.782171 2.010221 0.009892 -0.008131 -181476.000000 0 0 1
-31.397692 29.357211 -20.906058 47.798788 -0.751825 2.023475 0.007902 -0.009904 -1082980.000000 0 0 1
-32.752872 29.086511 -20.925758 48.545475 -0.726179 2.016458 0.012672 -0.010017 -716720.000000 0 0 1
-32.920252 27.833111 -21.521758 48.183100 -0.701859 2.033832 0.009421 0.002633 -218272.000000 0 0 1
-34.378864 27.359511 -21.697858 49.002512 -0.672189 2.029505 0.009229 0.010659 51076.800000 0 0 1
-35.047732 28.022511 -22.761058 50.315707 -0.674468 2.040212 0.004725 0.017038 374004.000000 0 0 1
35.234528 27.227711 -23.194658 50.207692 0.657907 2.051016 0.017410 0.016849 655310.000000 0 0 1
34.501398 27.948611 -24.388058 50.658155 0.680852 2.073075 0.029395 0.012741 156962.000000 0 0 1
35.199998 27.830111 -25.643438 51.683081 0.669000 2.089975 0.020014 0.005350 -445081.000000 0 0 1
34.402918 28.065611 -26.765538 51.842389 0.684296 2.113306 0.042992 -0.001988 -359612.000000 0 0 1
35.198278 28.155111 -28.086398 53.108142 0.674680 2.128045 0.034653 -0.000460 -92322.500000 0 0 1
35.657930 26.925011 -28.482128 52.987506 0.646752 2.138296 0.015564 0.010291 -344065.000000 0 0 1
-35.107174 27.125811 -29.733098 53.407681 -0.657845 2.161228 0.001468 0.008206 -926007.000000 0 0 1
-34.665922 25.864011 -30.514928 52.932354 -0.640996 2.185222 0.001707 0.009974 650118.000000 0 0 1
-33.540202 25.165311 -29.972718 51.542234 -0.643695 2.191389 0.003488 0.012772 1586050.000000 0 0 1
-32.266012 25.884811 -30.125818 51.173078 -0.676100 2.200252 0.002331 0.019933 953341.000000 0 0 1
-31.200672 25.239111 -29.195018 49.627047 -0.680161 2.199737 0.005379 0.013378 -453170.000000 0 0 1
-30.749852 23.934611 -29.588688 48.927594 -0.661409 2.220241 0.028582 0.002879 32819.700000 0 0 1
-31.532982 22.844511 -29.141918 48.635913 -0.626957 2.213279 0.019669 0.004070 -72531.900000 0 0 1
-31.095642 21.486911 -29.802938 48.133579 -0.604656 2.238483 0.028599 -0.004088 -763696.000000 0 0 1
-29.787112 21.104711 -29.572788 46.981174 -0.616420 2.251655 0.026190 -0.002833 -779767.000000 0 0 1
-29.655842 19.798511 -30.121128 46.676893 -0.588655 2.272227 0.020051 -0.006444 -400779.000000 0 0 1
-28.233752 19.238011 -30.000588 45.467363 -0.598122 2.291385 0.036127 -0.005730 -423245.000000 0 0 1
-27.411422 19.689011 -31.063628 45.869295 -0.622888 2.314775 0.045758 -0.012910 464151.000000 0 0 1
-26.220042 18.957111 -31.351478 45.053056 -0.625997 2.340440 0.046097 -0.017419 522702.000000 0 0 1
-26.528922 17.605611 -32.047678 45.175158 -0.585903 2.359456 0.029629 -0.012178 -324097.000000 0 0 1
-27.081442 16.580811 -31.228918 44.537323 -0.549384 2.347855 0.009406 -0.004125 74862.900000 0 0 1
-27.049972 15.353811 -31.879098 44.538943 -0.516262 2.368505 -0.004298 0.001507 -243421.000000 0 0 1
-27.609222 14.166711 -31.097738 43.932154 -0.474085 2.357258 0.009297 0.003453 -141756.000000 0 0 1
-29.027092 14.189211 -31.148518 44.879126 -0.454669 2.337901 0.011943 -0.003696 94347.400000 0 0 1
-29.767492 13.018911 -30.923278 44.853593 -0.412287 2.331494 0.011204 0.001670 -85777.500000 0 0 1
-29.472142 12.081711 -29.725358 43.568014 -0.389043 2.321666 0.006573 -0.003552 -547738.000000 0 0 1
-29.702552 12.569511 -28.410068 42.980998 -0.400328 2.292935 -0.000934 0.001839 147820.000000 0 0 1
-29.678122 11.500111 -27.499018 42.062329 -0.369680 2.283350 0.001840 -0.000905 -103348.000000 0 0 1
-29.638212 12.009711 -26.036998 41.238114 -0.384990 2.254130 -0.008394 0.003153 598238.000000 0 0 1
-28.449952 12.752411 -25.708748 40.409943 -0.421389 2.260357 0.000387 0.000223 471917.000000 0 0 1
-28.513152 13.426211 -24.487358 39.911072 -0.440080 2.231342 0.000295 0.002278 1285060.000000 0 0 1
-27.039792 13.690111 -23.936358 38.620186 -0.468671 2.239270 0.004537 0.006780 1180180.000000 0 0 1
-26.229732 14.427711 -24.860858 38.912979 -0.502883 2.263842 0.013957 0.002468 1111150.000000 0 0 1
-24.872362 14.791511 -24.546658 37.946826 -0.536511 2.274269 0.019088 -0.008431 1053200.000000 0 0 1
-24.536462 15.392911 -23.139858 37.073343 -0.560286 2.244858 0.021934 -0.003739 -742398.000000 0 0 1
-24.914862 16.762611 -23.019858 37.837143 -0.592234 2.224831 0.035189 -0.007676 107855.000000 0 0 1
-24.997562 17.282611 -21.653758 37.315573 -0.604912 2.189878 0.031171 -0.003134 29462.700000 0 0 1
-26.425762 17.458311 -21.106258 38.060316 -0.583829 2.158616 0.018818 -0.000876 317986.000000 0 0 1
-27.317002 16.339511 -21.113758 38.196715 -0.539054 2.156473 0.021691 0.007726 265118.000000 0 0 1
-28.495442 16.642411 -20.401958 38.796907 -0.528600 2.124529 0.024672 0.013542 -1031430.000000 0 0 1
-29.504192 15.477611 -20.487758 39.112684 -0.483126 2.122118 -0.015220 0.004636 -7851.790000 0 0 1
-29.980062 15.311411 -21.839858 40.127582 -0.472187 2.146304 -0.015148 0.007597 215736.000000 0 0 1
-30.887712 16.297411 -22.285158 41.428066 -0.485510 2.138769 -0.033543 0.003754 -883591.000000 0 0 1
-31.205842 16.179311 -23.820358 42.461561 -0.478315 2.166373 -0.031020 0.012497 301554.000000 0 0 1
-32.258192 15.248111 -24.148358 43.084093 -0.441562 2.165778 -0.018571 0.008316 488190.000000 0 0 1
-32.719822 15.417611 -25.465378 44.235449 -0.440344 2.184230 -0.003423 0.000472 322851.000000 0 0 1
-33.962832 14.550511 -25.837898 45.086454 -0.404768 2.181049 -0.001900 0.000870 295880.000000 0 0 1
-33.787002 13.149111 -25.880708 44.545165 -0.371141 2.190752 -0.005502 0.002223 -33255.800000 0 0 1
-33.790312 12.402611 -24.651858 43.627102 -0.351779 2.171300 -0.013366 0.002333 -135573.000000 0 0 1
-33.765482 10.917411 -24.914258 43.359173 -0.312721 2.182914 -0.008787 0.000923 195816.000000 0 0 1
-35.068935 10.434711 -25.157018 44.402579 -0.289206 2.173130 0.001989 0.007320 63423.100000 0 0 1
-34.901305 9.454211 -26.163858 44.632171 -0.264536 2.197170 -0.001734 0.010921 366017.000000 0 0 1
35.212898 8.638911 -26.474278 44.893946 0.240582 2.201492 0.018362 0.009214 303680.000000 0 0 1
34.773528 7.696311 -25.491838 43.798005 0.217815 2.192022 0.010509 0.010583 -90018.600000 0 0 1
33.768468 6.876711 -26.047758 43.198198 0.200896 2.218031 0.025644 0.007811 -58495.700000 0 0 1
33.046018 6.015611 -24.997158 41.869855 0.180066 2.210578 0.033789 0.004760 30556.700000 0 0 1
33.929678 5.151011 -24.326858 42.066043 0.150664 2.187442 0.030736 -0.004136 491769.000000 0 0 1
33.172238 4.293911 -23.474058 40.863999 0.128727 2.182720 0.048379 -0.002647 1190430.000000 0 0 1
34.207588 3.324811 -22.753558 41.218174 0.096891 2.155590 0.037938 -0.004179 798902.000000 0 0 1
34.733018 2.314811 -23.513858 42.007647 0.066547 2.164883 0.040754 -0.007054 -485448.000000 0 0 1
-35.513358 1.750411 -22.998858 42.346311 -0.049249 2.144937 0.043541 -0.004101 -654540.000000 0 0 1
-34.970186 0.588711 -23.818758 42.315408 -0.016833 2.168670 0.041986 -0.004387 -608288.000000 0 0 1
35.667761 -0.557289 -23.959258 42.971453 -0.015623 2.162243 0.048340 -0.012751 -426243.000000 0 0 1
-35.048399 -1.585789 -24.631958 42.867684 0.045215 2.182917 0.044147 -0.008351 8449.740000 0 0 1
-22.836162 29.272211 27.244155 46.049936 -0.908289 0.937727 0.025024 -0.004896 308741.000000 0 0 1
-24.212062 29.486111 26.883835 46.673282 -0.883301 0.956969 0.013866 -0.011296 1026450.000000 0 0 1
-24.556062 28.926911 25.638465 45.794074 -0.866941 0.976574 0.004206 -0.001827 -340549.000000 0 0 1
-24.973362 27.460311 25.566715 45.070993 -0.832793 0.967628 0.006563 -0.004669 12169.700000 0 0 1
-26.167712 27.105911 26.283485 45.938014 -0.803007 0.961670 0.010355 -0.009062 517832.000000 0 0 1
-26.023232 27.066711 27.741965 46.684388 -0.805051 0.934470 0.020127 -0.008064 -649000.000000 0 0 1
-25.156552 25.878611 28.319465 45.875339 -0.799545 0.905473 0.014101 -0.001019 938015.000000 0 0 1
-23.762162 26.098311 28.513025 45.373503 -0.832218 0.891293 0.025654 -0.003105 310980.000000 0 0 1
-23.462162 26.839511 29.662955 46.375891 -0.852439 0.876792 0.026772 -0.009227 568173.000000 0 0 1
-22.036862 26.534811 30.261185 45.885278 -0.877739 0.850647 0.040737 -0.004193 1091740.000000 0 0 1
-20.912662 26.934011 29.447325 45.054692 -0.910587 0.858477 0.049918 -0.005988 1048820.000000 0 0 1
-19.648962 26.614511 30.035865 44.682962 -0.934838 0.833621 0.067960 -0.010940 605810.000000 0 0 1
-19.194262 25.126011 30.008445 43.591775 -0.918446 0.811520 0.062289 -0.008054 -815414.000000 0 0 1
-18.686362 24.712311 28.782545 42.288454 -0.923367 0.822182 0.059955 -0.014846 3307.640000 0 0 1
-19.573162 24.032211 27.887385 41.693669 -0.887303 0.838117 0.058944 -0.012281 204050.000000 0 0 1
-19.873262 22.496011 28.069005 41.096059 -0.847221 0.818921 0.057199 -0.002055 172049.000000 0 0 1
-20.475962 22.106411 29.273245 42.010490 -0.823669 0.799859 0.032598 -0.004586 42786.300000 0 0 1
-20.433462 20.677211 29.392515 41.339973 -0.791327 0.779884 0.018001 0.006041 4621.760000 0 0 1
-20.710762 20.148811 30.805915 42.236413 -0.771646 0.753398 0.016465 0.003458 23181.000000 0 0 1
-19.763862 20.664711 31.730845 42.714014 -0.807677 0.733453 0.020213 -0.012092 72841.900000 0 0 1
-20.038162 20.151011 33.058334 43.594089 -0.788206 0.710062 0.017732 -0.005132 -434412.000000 0 0 1
-19.143162 20.755111 34.112869 44.282311 -0.825778 0.691407 0.023241 -0.013370 -858422.000000 0 0 1
-19.111762 22.167711 34.176641 44.996773 -0.859294 0.708198 0.011763 -0.013539 41837.100000 0 0 1
-18.350962 22.853611 33.167598 44.262116 -0.894242 0.723724 0.024720 -0.005049 80422.200000 0 0 1
-16.843662 22.949311 33.535218 43.988529 -0.937646 0.703840 0.025371 0.000809 106034.000000 0 0 1
-16.281562 21.674411 33.704709 43.253633 -0.926535 0.677353 0.028550 -0.009142 -697353.000000 0 0 1
-14.877262 21.769311 33.775201 42.848571 -0.971295 0.662843 0.029397 -0.019356 -718053.000000 0 0 1
-14.268662 20.396311 33.898881 42.056371 -0.960359 0.633375 0.044037 -0.019673 664935.000000 0 0 1
-12.863662 20.356911 34.219792 41.843420 -1.007246 0.613208 0.031110 -0.029139 902926.000000 0 0 1
-12.586462 20.551211 -33.185648 41.012907 -1.021277 2.513503 0.035020 -0.023562 82493.000000 0 0 1
-11.078362 20.337611 -32.837138 40.182411 -1.072014 2.527335 0.033574 -0.023405 428146.000000 0 0 1
-10.313762 21.433311 -33.309428 40.930166 -1.122300 2.521477 0.027421 -0.023125 -942917.000000 0 0 1
-9.019562 21.172711 -32.863198 40.120145 -1.168079 2.530671 0.037442 -0.019517 -436167.000000 0 0 1
-8.009662 22.370511 -32.935658 40.612215 -1.226972 2.516620 0.038436 -0.021260 292860.000000 0 0 1
-8.016662 23.375811 -31.965568 40.404121 -1.240419 2.483477 0.030255 -0.015182 -31739.100000 0 0 1
-7.502762 22.983211 -30.702458 39.078899 -1.255258 2.474547 0.019478 -0.011324 -197677.000000 0 0 1
-7.119362 24.149411 -29.750958 38.974336 -1.284113 2.439276 0.015969 -0.004695 333334.000000 0 0 1
-6.066262 24.961711 -30.265758 39.697641 -1.332395 2.437821 0.024391 -0.005872 239705.000000 0 0 1
-5.940862 26.244011 -29.622068 40.018857 -1.348178 2.404168 0.017788 0.005739 -91468.200000 0 0 1
-4.655762 27.016411 -30.008198 40.645474 -1.400142 2.401330 0.022483 0.003789 -109999.000000 0 0 1
-3.528362 26.408311 -29.385498 39.665548 -1.437975 2.405104 0.035952 -0.003461 521583.000000 0 0 1
-2.270062 26.884911 -29.864168 40.246990 -1.486560 2.406879 0.041421 -0.002336 656768.000000 0 0 1
-1.758762 28.183211 -29.200108 40.620598 -1.508473 2.372943 0.048431 -0.009619 -574445.000000 0 0 1
-1.400262 28.171811 -27.866638 39.650488 -1.521133 2.350132 0.060556 -0.021066 386050.000000 0 0 1
-0.645462 29.329211 -27.547328 40.242695 -1.548792 2.324755 0.065535 -0.027491 -522087.000000 0 0 1
0.012438 29.419411 -26.109238 39.334390 1.570374 2.296653 0.075278 -0.040097 418873.000000 0 0 1
1.087638 28.562711 -25.787118 38.496583 1.532736 2.304809 0.092190 -0.046574 758942.000000 0 0 1
2.305438 28.719311 -26.540498 39.172847 1.490693 2.315186 0.091506 -0.044185 -67245.300000 0 0 1
3.521938 28.810211 -25.622658 38.716313 1.449154 2.294021 0.082524 -0.046025 -432997.000000 0 0 1
3.855738 27.660311 -24.912458 37.424458 1.432293 2.299192 0.088086 -0.038614 -217320.000000 0 0 1
5.101838 27.728911 -24.284258 37.210838 1.388841 2.281824 0.062030 -0.028983 -409207.000000 0 0 1
5.779138 26.468411 -23.778458 36.047057 1.355829 2.291150 0.051715 -0.030322 -572436.000000 0 0 1
7.008138 26.762811 -23.201158 36.106174 1.314686 2.268659 0.040148 -0.032085 -795156.000000 0 0 1
7.617438 25.563211 -22.651558 34.994231 1.281190 2.274825 0.027969 -0.017085 608967.000000 0 0 1
9.087638 25.618311 -22.177358 35.081594 1.229912 2.255141 0.017666 0.002398 -407519.000000 0 0 1
9.243438 26.473411 -21.058658 35.067787 1.234871 2.214939 0.026457 0.004917 256585.000000 0 0 1
10.563638 26.775611 -20.604458 35.398693 1.195019 2.192066 0.035843 0.000241 283781.000000 0 0 1
11.330338 25.637211 -19.970458 34.416019 1.154658 2.189852 0.015973 0.012539 -527173.000000 0 0 1
11.779238 24.644511 -20.893258 34.389397 1.124931 2.223768 0.014191 0.002226 -137100.000000 0 0 1
11.988238 23.353411 -20.315958 33.193942 1.096534 2.229432 0.005336 0.010259 -326120.000000 0 0 1
12.205338 22.211211 -21.338458 33.130620 1.068327 2.270604 0.010062 0.004093 333628.000000 0 0 1
11.103338 22.007211 -22.239558 33.199389 1.103530 2.304842 0.006092 -0.002588 472025.000000 0 0 1
11.398838 21.101111 -23.302258 33.439283 1.075508 2.341796 -0.008502 -0.002224 -94316.700000 0 0 1
10.650138 21.392811 -24.610458 34.303826 1.108880 2.370897 0.002317 -0.002459 -135486.000000 0 0 1
9.300638 21.004311 -24.621458 33.673419 1.153949 2.390852 -0.000790 -0.004991 -565299.000000 0 0 1
8.787838 21.197711 -25.902568 34.605088 1.177797 2.416622 -0.011749 -0.008241 -317998.000000 0 0 1
7.324638 20.676711 -26.043408 34.050489 1.230344 2.441600 0.020176 -0.012178 623218.000000 0 0 1
6.283738 21.521811 -25.570878 34.007992 1.286722 2.421748 0.036021 -0.010683 140907.000000 0 0 1
6.282838 21.787711 -24.176558 33.146408 1.290047 2.388222 0.049026 -0.009565 -1070030.000000 0 0 1
4.885638 22.175511 -23.668658 32.799819 1.353944 2.376921 0.065632 -0.015805 -209783.000000 0 0 1
4.342138 23.352911 -24.178458 33.894107 1.386960 2.365067 0.065118 -0.019438 795403.000000 0 0 1
2.973338 23.535011 -23.754258 33.570854 1.445125 2.356872 0.085464 -0.024042 1052240.000000 0 0 1
2.137238 24.432811 -24.665658 34.783972 1.483544 2.359031 0.076801 -0.021055 -75775.000000 0 0 1
0.735938 24.244911 -24.682958 34.606441 1.540451 2.364917 0.087882 -0.040155 257772.000000 0 0 1
0.125638 25.139711 -25.608578 35.886211 1.565799 2.365427 0.071761 -0.027576 -30718.300000 0 0 1
-1.356262 24.912811 -25.933178 35.986349 -1.516410 2.375520 0.076910 -0.023640 -459209.000000 0 0 1
-1.580262 23.660611 -26.647108 35.670578 -1.504107 2.414384 0.094411 -0.027236 169606.000000 0 0 1
-2.516762 23.927311 -27.704188 36.692947 -1.465998 2.426493 0.079189 -0.021580 244773.000000 0 0 1
-3.158462 22.609511 -28.215528 36.294378 -1.431998 2.461330 0.071054 -0.022769 -593265.000000 0 0 1
-2.410762 21.849411 -29.100428 36.469761 -1.460905 2.494655 0.087458 -0.019174 -440396.000000 0 0 1
-3.042962 20.664511 -29.501678 36.147346 -1.424592 2.525514 0.075276 -0.018238 229937.000000 0 0 1
-4.266862 20.686211 -30.468548 37.073682 -1.367383 2.535425 0.052845 -0.015215 239587.000000 0 0 1
-3.993762 20.991211 -31.838178 38.343848 -1.382785 2.550502 0.061385 -0.015858 -273330.000000 0 0 1
-3.540762 22.246011 -32.175688 39.277181 -1.412956 2.530803 0.067217 -0.012559 -38219.800000 0 0 1
-3.007262 22.324811 -33.649328 40.493433 -1.436897 2.551668 0.051659 -0.010987 263608.000000 0 0 1
-1.722962 21.743111 -33.783028 40.212243 -1.491720 2.568297 0.056901 -0.007934 145277.000000 0 0 1
-1.373162 21.743611 33.579880 40.028471 -1.507728 0.575537 0.050149 0.000354 283880.000000 0 0 1
-0.297762 20.687311 33.197556 39.116891 -1.556404 0.557320 0.054131 0.008705 172341.000000 0 0 1
-0.780762 19.366311 33.015576 38.284355 -1.530503 0.530849 0.048169 0.027819 396227.000000 0 0 1
0.272338 18.532211 32.519525 37.430422 1.556102 0.518024 0.049784 0.015920 268126.000000 0 0 1
-0.183862 17.177511 32.031205 36.346922 -1.560093 0.492268 0.050826 0.012837 -161339.000000 0 0 1
-0.782562 17.288211 30.769935 35.302741 -1.525562 0.512336 0.030296 0.011428 -88871.600000 0 0 1
-1.288262 16.087511 30.247345 34.283662 -1.490888 0.490140 0.040088 0.009893 -544219.000000 0 0 1
-2.391562 16.263411 29.244775 33.548099 -1.424791 0.512081 0.046002 0.005504 -181568.000000 0 0 1
-3.586162 16.886611 29.729765 34.378439 -1.361538 0.526086 0.027795 0.002322 403829.000000 0 0 1
-3.764162 18.240011 29.286985 34.707267 -1.367285 0.566418 0.029285 -0.001312 -773282.000000 0 0 1
-5.143062 18.783811 29.625415 35.453460 -1.303543 0.581546 0.027642 -0.018539 -600342.000000 0 0 1
-6.075562 18.160811 28.787015 34.574842 -1.247958 0.587011 0.020703 -0.014392 -1083870.000000 0 0 1
-7.387762 18.523311 29.073035 35.255261 -1.191294 0.601224 0.034537 -0.018984 -994818.000000 0 0 1
-8.460662 17.763911 28.275855 34.447979 -1.126301 0.607938 0.034431 -0.021742 -13892.800000 0 0 1
-8.927262 16.504611 28.822955 34.392745 -1.074970 0.577091 0.050164 -0.029400 -179551.000000 0 0 1
-9.551362 16.592611 30.057885 35.637336 -1.048482 0.567145 0.050320 -0.034111 -1361400.000000 0 0 1
-10.321862 15.288811 30.275835 35.452993 -0.976961 0.547226 0.050174 -0.042667 -534882.000000 0 0 1
-9.664962 14.031111 30.167555 34.646283 -0.967611 0.514112 0.045420 -0.021848 4287.290000 0 0 1
-8.730262 13.718211 31.197725 35.181029 -1.004042 0.480472 0.031918 -0.017073 46343.700000 0 0 1
-9.354662 13.458911 32.656945 36.539404 -0.963398 0.465169 0.047616 -0.029059 167399.000000 0 0 1
-9.851762 12.092511 32.862676 36.376386 -0.887156 0.443147 0.038053 -0.015829 437628.000000 0 0 1
-10.221362 11.923111 34.188829 37.623302 -0.862095 0.430603 0.034832 -0.011665 -263730.000000 0 0 1
-10.462162 10.499311 -34.195733 37.269834 -0.787170 2.732590 0.030040 -0.015635 -818590.000000 0 0 1
-9.319362 9.713911 -34.305778 36.852368 -0.806125 2.767659 0.028589 -0.011885 -393292.000000 0 0 1
-9.307362 8.594011 -33.449268 35.767829 -0.745570 2.779556 0.053442 -0.014839 -309311.000000 0 0 1
-8.598562 8.858811 -32.131708 34.421802 -0.800305 2.774765 0.039157 -0.014774 -386202.000000 0 0 1
-9.205862 9.957611 -31.422458 34.223863 -0.824606 2.734169 0.042116 -0.017429 275642.000000 0 0 1
-8.291962 10.785911 -30.745448 33.621052 -0.915386 2.724993 0.051995 -0.022642 -186432.000000 0 0 1
-7.475562 11.820411 -31.540788 34.502572 -1.006873 2.724221 0.038293 -0.017522 351106.000000 0 0 1
-8.166262 13.035911 -31.860248 35.379348 -1.011160 2.691789 0.045346 -0.020276 215745.000000 0 0 1
-7.200562 13.845311 -32.471388 36.026820 -1.091220 2.693584 0.031673 -0.014517 -86741.700000 0 0 1
-7.533262 15.339411 -32.655288 36.856688 -1.114290 2.659458 0.039627 -0.020966 791962.000000 0 0 1
-8.563862 15.602011 -33.661508 38.077022 -1.068802 2.655227 0.052343 -0.021658 894451.000000 0 0 1
-8.966962 16.938411 -33.686628 38.757001 -1.083917 2.624329 0.059502 -0.029502 -696312.000000 0 0 1
-9.321462 17.519011 33.655564 39.070480 -1.081818 0.532764 0.055101 -0.033608 671985.000000 0 0 1
-10.442962 16.938011 32.984959 38.522191 -1.018304 0.542814 0.055709 -0.035477 874867.000000 0 0 1
-11.724562 17.282011 33.542612 39.512530 -0.974697 0.556875 0.053085 -0.039607 -219869.000000 0 0 1
-12.846662 16.804811 32.622445 38.880101 -0.918103 0.575257 0.049980 -0.036065 -593838.000000 0 0 1
-12.992762 15.374311 32.570765 38.288850 -0.869156 0.553558 0.048174 -0.033900 648681.000000 0 0 1
-14.117962 14.853711 33.292595 39.094072 -0.810788 0.551762 0.042857 -0.024189 271824.000000 0 0 1
-14.110862 13.321211 33.241466 38.491118 -0.756620 0.528402 0.035975 -0.015661 217260.000000 0 0 1
-14.465962 12.703011 31.995445 37.340849 -0.720601 0.541671 0.024168 -0.016724 -400521.000000 0 0 1
-13.305662 12.174411 31.458055 36.261083 -0.741030 0.520555 0.027245 -0.006077 -470026.000000 0 0 1
-13.502362 11.596411 30.059435 34.933653 -0.709606 0.534601 0.014502 -0.000842 -477612.000000 0 0 1
-13.977062 10.265411 30.116725 34.752756 -0.633473 0.522449 0.009663 0.005601 75951.600000 0 0 1
-13.956962 9.739211 28.813925 33.464777 -0.609250 0.533520 -0.004982 0.008128 -384026.000000 0 0 1
-14.599962 8.342811 28.808375 33.356916 -0.519145 0.528350 0.000622 0.014569 -104623.000000 0 0 1
-13.843962 7.178311 29.151735 33.060657 -0.478350 0.491205 -0.019466 0.012807 -539854.000000 0 0 1
-14.577762 6.024411 29.045855 33.052479 -0.391885 0.497497 -0.010304 0.018521 -671702.000000 0 0 1
-13.665162 4.816611 28.947365 32.371072 -0.338877 0.464076 -0.004882 0.019253 -365045.000000 0 0 1
-12.945062 4.800211 27.761755 31.005349 -0.355096 0.461499 -0.004306 0.016634 -89702.300000 0 0 1
-13.694162 4.319711 26.632765 30.257134 -0.305563 0.494483 0.000227 0.022421 -93009.700000 0 0 1
-12.820262 4.224411 25.392595 28.757410 -0.318306 0.488595 0.004583 0.029101 -37384.200000 0 0 1
-11.939362 3.103111 25.414565 28.250270 -0.254280 0.451893 -0.004902 0.025360 124865.000000 0 0 1
-11.617762 2.660011 24.082515 26.870347 -0.225081 0.459558 -0.004428 0.024069 -86032.800000 0 0 1
-10.601862 1.502711 24.092995 26.365318 -0.140802 0.418219 -0.007444 0.023192 588198.000000 0 0 1
-9.284462 1.887611 24.516095 26.283135 -0.200575 0.368777 -0.005828 0.018992 24185.600000 0 0 1
-8.522862 0.768811 24.835465 26.268433 -0.089962 0.331826 -0.006275 0.019783 378383.000000 0 0 1
-7.017662 1.141811 24.608155 25.614695 -0.161292 0.281267 -0.000847 0.010063 -77408.700000 0 0 1
-6.774362 1.478311 23.267245 24.278428 -0.214853 0.289627 0.013302 0.009576 -366836.000000 0 1 0
-5.443162 1.586111 22.839045 23.532227 -0.283544 0.243321 0.022476 0.001889 -319455.000000 0 1 0
-4.738662 2.894511 23.278445 23.931550 -0.548344 0.234161 0.039509 -0.002528 -475577.000000 0 1 0
-4.474262 2.927011 24.655005 25.228073 -0.579314 0.213551 0.039884 -0.004674 -209234.000000 0 0 1
-3.818862 4.125611 24.963525 25.588707 -0.823991 0.221504 0.037697 -0.010474 -253852.000000 0 0 1
4.142538 -24.035389 12.986542 27.631699 -1.400122 1.081520 0.040864 -0.004488 252406.000000 0 0 1
3.938438 -25.119089 13.875742 28.965775 -1.415272 1.071237 0.033139 -0.011664 -720641.000000 0 0 1
2.872638 -25.854169 13.377542 29.251474 -1.460141 1.095807 0.033635 -0.011021 -164728.000000 0 0 1
2.311838 -26.949949 14.339142 30.614626 -1.485223 1.083345 0.013477 0.002338 106809.000000 0 0 1
1.766538 -26.542919 15.588942 30.832812 -1.504340 1.040724 0.018757 -0.005381 157170.000000 0 0 1
1.853838 -27.652919 16.463142 32.235938 -1.503857 1.034789 0.009603 -0.004218 -153364.000000 0 0 1
1.416338 -27.444389 17.995242 32.848580 -1.519235 0.991035 -0.011418 0.004916 -419696.000000 0 0 1
2.363838 -26.811239 18.819042 32.841842 -1.482858 0.960610 0.025869 -0.006681 -100080.000000 0 0 1
2.329138 -27.278749 20.187242 34.015875 -1.485620 0.935439 0.021020 -0.008459 654030.000000 0 0 1
3.239338 -26.317059 21.075542 33.871217 -1.448323 0.899214 0.023737 -0.002592 613175.000000 0 0 1
2.504538 -25.162229 21.465542 33.168961 -1.471587 0.866946 0.016903 0.000264 -25782.400000 0 0 1
3.266938 -24.310889 22.253542 33.119667 -1.437215 0.834007 0.049893 -0.022237 -168585.000000 0 0 1
2.628038 -22.936389 22.651142 32.342831 -1.456714 0.794916 0.052501 -0.017064 -251524.000000 0 0 1
2.344138 -21.958289 21.673942 30.942223 -1.464445 0.794748 0.048008 -0.008181 -546295.000000 0 0 1
3.412738 -21.457689 20.960942 30.190069 -1.413072 0.803351 0.055235 -0.001274 -471214.000000 0 0 1
2.903338 -20.295589 20.038642 28.668580 -1.428708 0.796832 0.032363 -0.003788 208592.000000 0 0 1
2.410338 -19.210789 20.753042 28.382264 -1.445981 0.750721 0.019793 -0.002284 -2319.440000 0 0 1
1.666138 -18.289589 19.981042 27.139033 -1.479949 0.743288 0.007967 -0.011917 115558.000000 0 0 1
1.266238 -17.025289 20.835442 26.936582 -1.496559 0.686452 0.012629 -0.012177 587553.000000 0 0 1
2.364338 -16.088889 20.989542 26.551898 -1.424886 0.659155 -0.009371 0.008746 941338.000000 0 0 1
1.839038 -14.829289 21.382442 26.086370 -1.447412 0.609946 0.001429 0.005119 416806.000000 0 0 1
2.718338 -13.653189 20.856042 25.075355 -1.374267 0.588571 -0.026435 0.005789 -363880.000000 0 0 1
2.922638 -13.409789 19.454642 23.808556 -1.356204 0.614385 -0.036354 0.001671 1007540.000000 0 1 0
1.731238 -13.106889 18.662742 22.871066 -1.439470 0.616343 -0.026466 0.006555 1460660.000000 0 1 0
0.830238 -11.876489 19.042442 22.457847 -1.501004 0.558748 -0.028179 -0.002749 92481.500000 0 1 0
1.589338 -10.673089 18.815442 21.690128 -1.422972 0.520711 -0.025701 -0.003878 224360.000000 0 1 0
1.323938 -9.568689 19.737342 21.974423 -1.433308 0.455148 -0.017589 -0.012702 644373.000000 0 1 0
-0.170862 -9.135389 19.907942 21.904581 1.552095 0.430282 -0.007340 -0.014583 362248.000000 0 1 0
-0.389762 -8.502189 21.169042 22.815947 1.524986 0.382277 -0.005238 -0.011569 369346.000000 0 1 0
-1.726962 -7.994489 21.220542 22.742156 1.358046 0.367877 0.002706 -0.011062 705115.000000 0 1 0
-2.057962 -7.256889 22.549242 23.777425 1.294464 0.322813 0.003602 -0.005404 -192624.000000 0 1 0
-2.320462 -8.169089 23.653542 25.131824 1.294032 0.344694 -0.001729 -0.002898 119997.000000 0 0 1
-2.434262 -7.452889 24.881242 26.087303 1.255100 0.305262 -0.003127 -0.002529 -270824.000000 0 0 1
-2.555862 -8.423689 26.052042 27.499088 1.276211 0.325852 -0.004312 -0.010150 770264.000000 0 0 1
-1.446262 -9.351989 26.228142 27.883091 1.417364 0.346265 -0.014317 -0.006413 846217.000000 0 0 1
-1.684062 -10.214789 27.302942 29.199805 1.407401 0.362429 -0.003233 -0.017513 244845.000000 0 0 1
-0.441462 -11.128589 27.522242 29.690304 1.531148 0.384523 0.000597 -0.020966 859665.000000 0 0 1
0.696638 -10.607989 28.201642 30.138801 -1.505219 0.360486 -0.000235 -0.023149 -483527.000000 0 0 1
1.649538 -11.579989 28.364542 30.681661 -1.429301 0.391130 0.011536 -0.031602 -65900.000000 0 0 1
2.805638 -11.168389 29.332942 31.512315 -1.324677 0.374090 0.030557 -0.033601 529339.000000 0 0 1
2.191138 -10.870989 30.531142 32.482766 -1.371903 0.348406 0.018997 -0.031621 876258.000000 0 0 1
3.153138 -10.175089 31.388242 33.146590 -1.270293 0.327180 0.044561 -0.025248 594257.000000 0 0 1
2.692038 -10.061789 32.866442 34.477379 -1.309369 0.306897 0.033778 -0.020046 -255764.000000 0 0 1
2.712938 -11.221789 33.672642 35.596845 -1.333591 0.330302 0.022907 -0.018502 61885.700000 0 0 1
2.275338 -11.043589 -33.712662 35.548299 -1.367607 2.818828 0.013145 -0.012966 -581564.000000 0 0 1
3.035738 -10.147689 -32.674962 34.348863 -1.280114 2.828117 0.016947 -0.005208 -68400.500000 0 0 1
3.256538 -8.815389 -33.131062 34.438109 -1.216931 2.865201 0.016496 -0.012626 -99845.100000 0 0 1
3.902538 -8.132789 -32.105362 33.348558 -1.123396 2.867685 0.033342 -0.007744 -114730.000000 0 0 1
3.302138 -6.719389 -31.739762 32.610838 -1.114025 2.909942 0.017674 -0.007135 46456.400000 0 0 1
3.705938 -5.751689 -32.634762 33.344318 -0.998423 2.934926 0.042767 -0.007363 -36748.400000 0 0 1
3.467738 -4.468689 -32.077662 32.572546 -0.910857 2.967054 0.038407 -0.004107 82180.600000 0 0 1
3.293838 -3.399989 -33.140162 33.476553 -0.801255 2.999709 0.039864 -0.001322 576328.000000 0 0 1
2.055138 -3.596089 -33.840562 34.093094 -1.051602 3.019803 0.038939 -0.004737 515677.000000 0 0 1
1.889538 -2.585389 33.966442 34.117059 -0.939663 0.094000 0.063261 -0.002355 9160.490000 0 0 1
1.462838 -3.189589 32.663142 32.851091 -1.140790 0.107021 0.044763 -0.007663 505613.000000 0 0 1
0.057038 -3.351989 32.507142 32.679555 -1.553782 0.102767 0.040566 -0.013117 297734.000000 0 0 1
-0.312562 -3.803589 31.186042 31.418691 1.488805 0.121770 0.042125 -0.022339 361578.000000 0 0 1
-1.829562 -3.921989 30.860342 31.162317 1.134316 0.139328 0.023756 -0.018452 304752.000000 0 0 1
-2.374462 -2.772089 30.271742 30.490997 0.862506 0.119995 0.015818 -0.012869 -394769.000000 0 0 1
-3.755962 -2.778989 30.511242 30.866906 0.636998 0.151952 0.001496 -0.010907 -328977.000000 0 0 1
-4.638162 -1.668689 29.967842 30.370522 0.345355 0.163023 0.009576 -0.005534 -493492.000000 0 0 1
-4.923362 -1.714589 28.570242 29.042004 0.335120 0.180490 -0.000181 -0.002180 163941.000000 0 0 1
-6.150962 -1.088989 28.231142 28.913969 0.175228 0.217758 -0.020191 -0.000441 423154.000000 0 0 1
-6.378562 0.471811 28.487042 29.196236 -0.073834 0.220860 0.010827 0.003952 -582753.000000 0 0 1
-6.320062 0.856811 29.858842 30.532405 -0.134748 0.210439 0.013436 0.014690 -133125.000000 0 0 1
-6.659462 2.230011 30.048642 30.858423 -0.323127 0.229597 0.020612 0.006496 -6576.240000 0 0 1
-8.197062 2.396011 30.229242 31.412414 -0.284379 0.275335 -0.008990 0.014084 473014.000000 0 0 1
-8.943762 2.031511 29.027742 30.442203 -0.223353 0.306033 -0.014453 0.022976 375905.000000 0 0 1
-10.307062 2.342311 29.286442 31.135472 -0.223458 0.346364 -0.007367 0.023405 394308.000000 0 0 1
-11.394762 1.657011 28.419842 30.663882 -0.144406 0.384948 0.000134 0.025395 138318.000000 0 0 1
-11.570762 0.300311 28.774842 31.015548 -0.025948 0.382444 -0.000461 0.024694 -42552.500000 0 0 1
-12.074362 -0.461389 27.720242 30.239294 0.038194 0.411064 0.002234 0.027632 -585329.000000 0 0 1
-11.977362 -1.993489 28.002242 30.521414 0.164926 0.409143 0.009613 0.018912 1594410.000000 0 0 1
-10.620062 -2.500689 28.209742 30.246135 0.231256 0.369044 0.008778 0.015238 2098500.000000 0 0 1
-9.658262 -2.458789 27.126342 28.899240 0.249284 0.352095 0.004657 0.010284 86624.800000 0 0 1
-9.868262 -3.297589 25.831142 27.847883 0.322495 0.382913 0.002325 0.009231 -142607.000000 0 0 1
-10.717262 -2.612589 24.887242 27.222419 0.239110 0.417221 0.006318 0.017664 534085.000000 0 0 1
-10.663962 -3.185689 23.584342 26.078533 0.290295 0.440922 0.012993 0.008584 292120.000000 0 0 1
-9.559462 -2.628689 22.612442 24.690400 0.268350 0.413203 0.010606 0.007358 507315.000000 0 1 0
-8.241762 -2.861489 23.028042 24.625301 0.334173 0.362149 0.002474 0.005457 -761809.000000 0 1 0
-7.302162 -2.271189 22.190842 23.471543 0.301545 0.331866 0.001806 0.003136 1158330.000000 0 1 0
-5.790462 -2.416689 22.679842 23.531788 0.395379 0.269906 0.007189 0.003152 1258810.000000 0 1 0
-5.216762 -3.691789 22.580642 23.467622 0.615861 0.275813 0.011070 -0.004231 -233159.000000 0 1 0
-5.589362 -4.582689 23.575542 24.658633 0.686755 0.297485 0.009369 -0.006717 -238889.000000 0 1 0
-5.428862 -6.083389 23.177942 24.570249 0.842192 0.338260 0.015463 -0.006355 -346087.000000 0 1 0
-6.409262 -6.518189 22.263942 24.067582 0.793824 0.389605 0.017486 -0.009714 -30008.300000 0 1 0
-6.056462 -6.218489 20.923442 22.652610 0.798597 0.393257 0.020656 -0.015962 -333661.000000 0 1 0
-7.199062 -6.355089 19.909442 22.104287 0.723212 0.449407 0.030718 -0.013446 -785926.000000 0 1 0
-8.016662 -5.269089 20.006542 22.187651 0.581467 0.447118 0.023585 -0.016185 -673261.000000 0 1 0
-9.029562 -5.218889 19.002942 21.676752 0.524070 0.501940 0.032323 -0.014809 388449.000000 0 1 0
-9.763862 -3.910289 19.167042 21.863185 0.380925 0.501877 0.024351 -0.008879 -349884.000000 0 1 0
-8.920362 -2.883789 18.676842 20.897692 0.312677 0.465210 0.022294 -0.011660 20668.800000 0 1 0
-9.465862 -1.570489 18.646142 20.970159 0.164413 0.475257 0.014651 -0.013495 -580457.000000 0 1 0
-8.502962 -0.502389 18.068942 19.975971 0.059015 0.440511 0.010166 -0.002794 -437575.000000 0 1 0
-7.426762 -0.257489 18.974342 20.377653 0.034657 0.373284 0.012564 0.005238 25838.500000 0 1 0
-7.642762 0.443411 20.185642 21.588621 -0.057952 0.362501 0.013199 0.007495 -663051.000000 0 1 0
-7.577262 2.003711 20.070242 21.546330 -0.258520 0.372302 0.013813 0.003677 341717.000000 0 1 0
-8.544062 2.576311 19.151742 21.128833 -0.292862 0.436050 0.007498 -0.001358 674448.000000 0 1 0
-8.342562 3.980811 18.957042 21.090629 -0.445216 0.453687 0.001318 0.005927 264325.000000 0 1 0
-9.304162 4.551111 17.882942 20.665905 -0.454928 0.524977 0.001078 0.012365 637435.000000 0 1 0
-10.689162 4.639511 18.241042 21.645296 -0.409502 0.568470 -0.001713 0.018643 230885.000000 0 1 0
-11.472262 5.116811 17.210042 21.306808 -0.419536 0.630513 -0.003356 0.027178 -249631.000000 0 1 0
-11.630362 6.655011 17.044942 21.681433 -0.519735 0.666235 -0.000898 0.021639 -546356.000000 0 1 0
-10.424162 7.325311 16.737542 21.034938 -0.612552 0.650631 -0.004792 0.016379 126057.000000 0 1 0
-10.691962 8.673511 16.665242 21.616617 -0.681544 0.690471 -0.005398 0.013349 552353.000000 0 1 0
-9.449862 9.618311 16.868942 21.595671 -0.794232 0.674329 -0.005043 0.015423 577179.000000 0 1 0
-9.058962 9.820711 18.229342 22.601328 -0.825724 0.632486 0.011764 0.031107 -148285.000000 0 1 0
-8.143462 10.859011 18.490042 22.937213 -0.927342 0.633238 0.019263 0.021527 -64243.400000 0 1 0
-8.572162 12.306211 18.137942 23.535287 -0.962375 0.690904 0.013139 0.020221 -215939.000000 0 1 0
-8.417662 12.513511 16.776242 22.558530 -0.978638 0.732244 0.012185 0.004651 -197298.000000 0 1 0
-9.121562 13.643011 16.288742 23.122667 -0.981464 0.789150 0.024531 -0.007794 -566974.000000 0 1 0
-8.792262 14.180611 14.885542 22.360075 -1.015786 0.842338 0.026855 -0.008709 -186071.000000 0 1 0
-7.574462 14.864311 14.937742 22.393221 -1.099519 0.840534 0.025344 0.001929 -468101.000000 0 1 0
-7.345362 15.428611 13.665442 21.880143 -1.126461 0.896230 0.021305 -0.007747 799930.000000 0 1 0
-6.150862 16.478711 13.668242 22.275588 -1.213551 0.910188 -0.003477 -0.003870 1379770.000000 0 1 0
-4.863062 15.901111 13.865742 21.650716 -1.273998 0.875740 -0.005105 -0.012177 456097.000000 0 1 0
-3.827562 16.873111 13.662942 22.046044 -1.347728 0.902378 -0.005081 -0.016255 -14730.400000 0 1 0
-2.424762 16.295011 13.626442 21.379587 -1.423076 0.879732 0.014129 -0.031644 -740443.000000 0 1 0
-1.797562 16.031711 14.854842 21.929735 -1.459137 0.826596 0.018371 -0.021286 -313386.000000 0 1 0
-2.199762 14.931111 15.582842 21.693362 -1.424521 0.769407 0.031971 -0.008314 -632099.000000 0 1 0
-1.181062 14.661411 16.692242 22.248209 -1.490414 0.722321 0.029912 0.002518 -1422270.000000 0 1 0
-0.156562 13.897511 16.139242 21.298836 -1.559531 0.710935 0.012917 -0.020550 -867187.000000 0 1 0
0.792538 13.518611 17.116042 21.825211 1.512238 0.669338 0.017733 0.009631 -191881.000000 0 1 0
1.806638 14.544011 17.549342 22.864199 1.447211 0.695791 0.013267 -0.007973 -1099560.000000 0 1 0
1.233438 15.495311 18.454642 24.128817 1.491363 0.700006 0.015010 -0.015077 547524.000000 0 1 0
2.132638 16.613711 18.657042 25.072868 1.443128 0.731591 0.037091 -0.020956 497912.000000 0 0 1
1.265438 17.738711 19.243842 26.202836 1.499579 0.745987 0.034734 -0.020794 327317.000000 0 0 1
0.620638 18.513711 18.298642 26.038106 1.537286 0.791521 0.023399 -0.015878 508411.000000 0 0 1
-0.680862 18.115111 17.830642 25.427398 -1.533229 0.793665 0.029111 -0.017814 284740.000000 0 0 1
-1.368562 19.045111 16.855542 25.469560 -1.499061 0.847590 0.012635 -0.008168 -410855.000000 0 0 1
-1.954462 20.185011 17.365942 26.698886 -1.474270 0.862637 0.008558 0.002857 -464107.000000 0 0 1
-2.643262 20.924711 16.432342 26.736720 -1.445139 0.908920 0.013271 -0.004623 -1097200.000000 0 0 1
-3.229862 22.230211 17.050542 28.201689 -1.426514 0.921542 0.011722 0.002951 -833925.000000 0 0 1
-4.301462 21.915111 17.872142 28.603987 -1.376982 0.895904 0.016558 0.005588 -525557.000000 0 0 1
-4.877562 23.095311 18.415542 29.938540 -1.362662 0.908269 0.018911 0.003358 334882.000000 0 0 1
-5.920362 22.761311 19.532342 30.571888 -1.316329 0.877730 0.009583 0.003504 844661.000000 0 0 1
-7.228262 22.370911 19.099842 30.290417 -1.258275 0.888525 -0.006157 0.011325 56065.400000 0 0 1
-8.052162 22.178311 20.213442 31.069245 -1.222530 0.862431 -0.019773 0.009514 -21316.700000 0 0 1
-9.506162 22.493211 19.779442 31.425117 -1.170940 0.889996 -0.015110 0.008008 -213989.000000 0 0 1
-9.853762 23.846511 19.716642 32.473045 -1.178949 0.918303 -0.010392 0.011442 54564.900000 0 0 1
-11.060662 24.163611 19.057342 32.701691 -1.141524 0.948672 -0.012370 0.013416 66313.500000 0 0 1
-11.570062 25.611611 19.281942 34.082462 -1.146488 0.969461 -0.004299 0.010508 -83699.400000 0 0 1
-12.139062 25.830011 20.570642 35.180926 -1.131469 0.946274 -0.005957 0.018116 -51559.200000 0 0 1
-12.850862 27.030311 20.608742 36.338720 -1.127002 0.967780 0.025278 0.000852 -603948.000000 0 0 1
-13.655562 27.083111 21.922642 37.424210 -1.103787 0.944945 0.035947 -0.005250 -523847.000000 0 0 1
-14.861362 26.345311 21.886342 37.335605 -1.057193 0.944429 0.035709 -0.006201 -225894.000000 0 0 1
-15.578362 26.671311 23.056642 38.544168 -1.042160 0.929559 0.029392 -0.000209 -450939.000000 0 0 1
-17.072862 26.377011 22.912042 38.886900 -0.996348 0.940732 0.042020 0.003970 -383781.000000 0 0 1
-17.392562 24.978711 22.946742 38.118108 -0.962561 0.924805 0.054210 -0.000449 251165.000000 0 0 1
-18.760562 24.827611 23.304442 38.877576 -0.923700 0.928006 0.057362 -0.000086 111635.000000 0 0 1
26.565938 24.600311 23.330245 43.072319 0.747001 0.998394 0.028408 -0.015108 -103181.000000 0 0 1
26.497338 23.973911 24.567095 43.363573 0.735442 0.968498 0.037234 -0.014190 201454.000000 0 0 1
26.097938 22.676311 24.292655 42.254592 0.715361 0.958300 0.038780 -0.008243 -332426.000000 0 0 1
25.964038 21.892811 25.555905 42.503302 0.700532 0.925708 0.049395 -0.009004 368320.000000 0 0 1
24.780338 22.182711 26.298135 42.399643 0.730142 0.901742 0.033945 -0.002827 549990.000000 0 0 1
24.794238 21.342611 27.412015 42.681141 0.710724 0.873365 0.042717 -0.000526 490567.000000 0 0 1
23.483338 21.484111 28.251265 42.557821 0.740968 0.844865 0.036164 0.001063 408561.000000 0 0 1
23.293638 22.748411 28.833095 43.490586 0.773557 0.846013 0.046745 -0.014219 -183670.000000 0 0 1
22.066238 22.719011 29.509095 43.288093 0.799973 0.820725 0.047495 -0.011884 -403747.000000 0 0 1
21.713038 24.084611 30.125855 44.261627 0.837136 0.822172 0.047327 -0.022546 -359632.000000 0 0 1
21.572538 25.178911 29.221925 44.195846 0.862385 0.848390 0.031683 -0.016334 -5552.070000 0 0 1
21.122938 26.398211 29.815135 45.077559 0.895954 0.848088 0.037705 -0.023224 1088990.000000 0 0 1
19.727438 26.476411 30.578225 45.002222 0.930442 0.823739 0.040705 -0.019689 -48683.200000 0 0 1
18.619638 26.598811 29.721245 44.017497 0.960058 0.829541 0.035788 -0.015586 126480.000000 0 0 1
17.550038 27.322411 30.352145 44.449642 0.999831 0.819149 0.038444 -0.015409 694466.000000 0 0 1
16.557138 26.368911 31.131045 44.029538 1.010112 0.785480 0.021615 0.001726 -278781.000000 0 0 1
17.081338 25.552211 32.147335 44.476271 0.981534 0.762954 0.025563 -0.014908 -65933.900000 0 0 1
15.936938 25.168011 32.883709 44.370633 1.006306 0.736068 0.002184 -0.011290 193585.000000 0 0 1
16.097938 24.510211 34.260166 45.096042 0.989666 0.707921 0.009401 -0.021096 -261285.000000 0 0 1
16.524338 25.478511 -33.549398 45.252297 0.995434 2.405929 0.015355 -0.018269 188464.000000 0 0 1
17.127338 24.974911 -32.362128 44.321544 0.969677 2.389363 0.019288 -0.005296 321870.000000 0 0 1
17.594038 26.149411 -31.435958 44.514732 0.978541 2.354902 0.014020 0.006385 207004.000000 0 0 1
16.441138 26.798311 -30.957578 44.122921 1.020499 2.348467 0.024709 -0.014766 435505.000000 0 0 1
16.870238 27.989111 -30.396148 44.630943 1.028362 2.319999 0.025753 -0.014259 40530.800000 0 0 1
16.106838 28.299211 -29.091268 43.664373 1.053360 2.299961 0.030090 -0.007160 -94284.800000 0 0 1
16.613838 27.447911 -28.005498 42.587737 1.026499 2.288419 0.024691 0.000887 499156.000000 0 0 1
16.210038 28.005911 -26.784688 42.006141 1.046105 2.262224 0.017713 0.008274 -169384.000000 0 0 1
16.720338 27.272611 -25.521868 40.923475 1.020813 2.244198 0.015815 0.007052 -225961.000000 0 0 1
18.121538 27.325411 -25.489248 41.530350 0.985215 2.231598 0.025751 0.005770 -456521.000000 0 0 1
18.725638 26.744111 -24.330958 40.717226 0.959951 2.211250 0.028335 0.006202 1153040.000000 0 0 1
20.299938 26.781911 -24.458158 41.563924 0.922213 2.199933 0.021639 0.003894 1081340.000000 0 0 1
20.871338 26.426111 -23.231658 40.910415 0.902306 2.174708 0.023786 0.000994 -686274.000000 0 0 1
22.263238 26.313411 -23.280158 41.593426 0.868583 2.164829 0.024925 0.004202 -42503.600000 0 0 1
22.955738 26.101611 -21.887058 41.076798 0.849437 2.132741 0.028414 0.000313 232154.000000 0 0 1
22.650138 24.861811 -21.298958 39.809346 0.831914 2.135333 0.024556 0.002515 593350.000000 0 0 1
23.444438 24.732011 -20.096858 39.562580 0.812118 2.103630 0.031814 -0.003243 -219101.000000 0 0 1
22.876238 23.702311 -19.159558 38.107879 0.803131 2.097598 0.029463 -0.006898 -486780.000000 0 0 1
23.276538 22.426611 -19.630658 37.816833 0.766804 2.116592 0.027178 -0.002164 333709.000000 0 0 1
23.117638 21.416111 -18.615958 36.600941 0.747209 2.104377 0.026477 0.003341 -889957.000000 0 0 1
23.428838 20.005911 -19.241258 36.323174 0.706755 2.129072 0.047876 -0.009376 307524.000000 0 0 1
22.607438 19.480311 -20.302958 36.094167 0.711234 2.168202 0.035732 -0.016048 920298.000000 0 0 1
21.206138 19.713611 -20.149058 35.274797 0.748940 2.178767 0.032930 -0.007391 -185584.000000 0 0 1
20.359738 19.704811 -21.445758 35.534758 0.769053 2.218698 0.044188 -0.011841 -127209.000000 0 0 1
20.501138 20.752611 -22.448958 36.809282 0.791494 2.226696 0.038804 -0.007243 -93365.100000 0 0 1
20.422238 22.115811 -22.048258 37.313571 0.825190 2.202959 0.033489 -0.000841 -174767.000000 0 0 1
19.872338 23.008911 -23.143458 38.209154 0.858414 2.221447 0.031274 -0.005791 -316943.000000 0 0 1
18.507938 22.776711 -23.320858 37.485794 0.888431 2.242251 0.032069 -0.004208 -600877.000000 0 0 1
17.931338 23.163511 -24.575258 38.236428 0.912036 2.268838 0.028691 -0.005398 -140742.000000 0 0 1
16.404738 23.108711 -24.639858 37.553303 0.953461 2.286476 0.030175 -0.007384 -255204.000000 0 0 1
15.810638 24.186611 -23.915758 37.509091 0.991829 2.262174 0.015813 -0.004300 -437062.000000 0 0 1
14.419738 24.134411 -24.012058 36.972660 1.032235 2.277663 0.011804 -0.003772 -159470.000000 0 0 1
13.640438 25.370711 -23.444858 37.140219 1.077488 2.253963 0.005741 0.004488 240105.000000 0 0 1
13.866538 26.594111 -24.127058 38.492110 1.090165 2.248243 0.003266 0.009348 -374468.000000 0 0 1
12.879538 27.533211 -23.829558 38.623931 1.133254 2.235675 0.001399 0.010084 -174297.000000 0 0 1
12.943938 28.876811 -24.561858 40.058715 1.149401 2.230834 0.005575 0.003845 -66936.300000 0 0 1
12.829838 28.829811 -25.992648 40.882521 1.152092 2.259826 0.010461 -0.002736 -102449.000000 0 0 1
12.399338 30.017711 -26.655528 42.015756 1.179076 2.258051 0.026263 -0.008557 40671.400000 0 0 1
13.310738 31.294411 -26.673838 43.220476 1.168638 2.235921 0.033387 -0.008108 84072.400000 0 0 1
14.479338 31.204711 -27.448368 44.009069 1.136352 2.244261 0.024957 0.012272 -499533.000000 0 0 1
15.270138 32.328511 -27.268838 44.965534 1.129518 2.222370 0.023916 0.000002 73330.300000 0 0 1
16.751338 32.179411 -27.718778 45.655804 1.090836 2.223234 0.016370 0.014459 346393.000000 0 0 1
17.540338 31.545911 -26.725908 44.911937 1.063339 2.208154 0.001764 0.020927 -576512.000000 0 0 1
18.857538 31.486111 -27.190418 45.676041 1.031174 2.208421 0.001812 0.025784 -138024.000000 0 0 1
19.771438 30.544611 -26.286988 44.887512 0.996324 2.196440 0.014218 0.028663 -76743.600000 0 0 1
20.417238 31.093011 -25.135638 44.893644 0.989760 2.165053 0.024780 0.029278 195323.000000 0 0 1
21.440238 32.052211 -25.204848 46.068562 0.981238 2.149711 0.028375 0.022732 -753838.000000 0 0 1
22.769738 31.578111 -25.731198 46.666183 0.946075 2.154824 0.034953 0.019920 -1467390.000000 0 0 1
22.598438 31.269211 -27.133028 47.166240 0.944994 2.183723 0.025272 0.024409 -25253.500000 0 0 1
23.693338 31.521411 -27.986598 48.355179 0.926235 2.188018 0.026749 0.026317 -215135.000000 0 0 1
23.290838 31.071711 -29.368528 48.687009 0.927562 2.218317 0.017279 0.027283 469417.000000 0 0 1
22.293438 31.889611 -29.937688 49.093888 0.960687 2.226611 0.017502 0.024777 -1104570.000000 0 0 1
21.153138 31.325411 -30.376838 48.492153 0.976861 2.247758 0.015543 0.021841 -1472010.000000 0 0 1
20.217738 32.193511 -31.195578 49.176653 1.010038 2.257973 -0.000413 0.026313 -1335420.000000 0 0 1
19.649438 33.189811 -30.399718 49.110150 1.036256 2.238279 -0.007746 0.023558 -694167.000000 0 0 1
18.934438 34.091511 -31.105268 49.882680 1.063816 2.244095 -0.008014 0.022293 -396036.000000 0 0 1
17.403638 33.832911 -31.148058 49.170662 1.095695 2.256824 0.007379 0.010777 -101746.000000 0 0 1
16.841638 32.549611 -31.534248 48.347976 1.093314 2.281326 0.018786 0.003577 220285.000000 0 0 1
17.229938 31.988611 -32.780828 48.935924 1.076726 2.304833 0.019013 -0.009930 -967156.000000 0 0 1
16.728038 32.635011 -34.112921 50.085553 1.097136 2.320051 0.032513 -0.013835 -90750.200000 0 0 1
17.384738 33.895311 -34.349150 51.293132 1.096886 2.304552 0.024036 -0.001011 306166.000000 0 0 1
17.296438 -34.322803 33.146959 50.753743 -1.104006 0.859134 0.043209 -0.015298 -5975.390000 0 0 1
15.873138 -33.906703 32.685800 49.698919 -1.132959 0.853066 0.055757 -0.017363 -422992.000000 0 0 1
14.959738 33.843311 32.384275 49.172194 1.154591 0.851854 0.060460 -0.018369 -59809.300000 0 0 1
13.639138 34.252811 32.647595 49.245777 1.191851 0.846041 0.048940 -0.014854 -23866.500000 0 0 1
13.009538 -33.760803 31.442375 47.933942 -1.202988 0.855353 0.058787 -0.014791 -1075450.000000 0 0 1
13.590138 -32.500303 31.231765 47.078495 -1.174738 0.845446 0.077184 -0.017558 -142611.000000 0 0 1
12.993038 -31.912203 30.122655 45.766604 -1.184142 0.852398 0.084182 -0.028927 -161994.000000 0 0 1
13.395238 -30.468303 29.842725 44.702775 -1.156587 0.839841 0.073889 -0.032655 -160234.000000 0 0 1
12.942238 -29.606103 30.837835 44.665366 -1.158682 0.808728 0.068391 -0.017752 190197.000000 0 0 1
13.336438 -28.292003 30.576395 43.740301 -1.130301 0.796737 0.075706 -0.020339 -549919.000000 0 0 1
12.847538 -27.270403 31.625965 43.691369 -1.130521 0.761431 0.060432 -0.015504 344360.000000 0 0 1
11.450638 -27.018803 31.725645 43.216309 -1.169940 0.746437 0.042097 -0.010363 259241.000000 0 0 1
11.008538 -26.039903 30.771365 41.786856 -1.170827 0.743079 0.025481 -0.009915 -431075.000000 0 0 1
11.217438 -24.539403 30.966695 41.072489 -1.142038 0.716739 0.013572 -0.005737 -325260.000000 0 0 1
10.506538 -24.037903 32.070745 41.433571 -1.158737 0.685618 0.027999 -0.012965 55086.500000 0 0 1
11.059538 -22.816703 32.590395 41.292241 -1.119453 0.661190 0.017499 -0.009279 215691.000000 0 0 1
10.189638 -22.149903 33.690071 41.586871 -1.139632 0.626451 0.019288 -0.008333 -393040.000000 0 0 1
10.014538 -22.867903 -33.805298 42.024162 -1.158025 2.505504 0.023109 -0.003959 647931.000000 0 0 1
11.178038 -23.112603 -32.988248 41.801501 -1.120327 2.480243 0.028789 -0.005367 226194.000000 0 0 1
11.818638 -21.941203 -32.343578 40.831405 -1.076709 2.485079 0.033666 -0.013571 -301723.000000 0 0 1
12.526738 -21.190803 -33.342128 41.444744 -1.036917 2.505623 0.022914 -0.010639 -41811.700000 0 0 1
13.266738 -20.138303 -32.815008 40.723241 -0.988273 2.507831 0.032556 -0.017616 -296430.000000 0 0 1
13.499238 -18.945103 -33.682968 40.935177 -0.951700 2.537181 0.027944 -0.014560 -277288.000000 0 0 1
14.343038 -19.183103 33.933203 41.535243 -0.928774 0.614653 0.041249 -0.003989 602552.000000 0 0 1
14.141638 -18.248403 32.920898 40.209149 -0.911516 0.611581 0.020373 -0.003717 -236664.000000 0 0 1
15.093638 -17.043703 32.968146 40.065001 -0.846003 0.604359 0.042406 -0.011731 -883196.000000 0 0 1
14.967938 -16.340303 34.188876 40.742163 -0.829204 0.575074 0.036499 -0.011920 541709.000000 0 0 1
15.699938 -15.106003 34.237698 40.582007 -0.766121 0.566719 0.044170 -0.014718 209513.000000 0 0 1
17.237938 -15.132303 -34.335758 41.292583 -0.720441 2.552641 0.053999 -0.018633 -84404.700000 0 0 1
17.902038 -15.818403 33.386751 41.053379 -0.723685 0.621077 0.053156 -0.016897 489085.000000 0 0 1
19.321338 -15.783103 33.556188 41.814330 -0.684946 0.639315 0.069350 -0.018610 517565.000000 0 0 1
20.104238 -16.624003 32.525925 41.695007 -0.690924 0.675984 0.077137 -0.028118 -444451.000000 0 0 1
20.062738 -15.922103 31.230685 40.390376 -0.670836 0.686892 0.069641 -0.020919 830741.000000 0 0 1
21.018538 -16.463103 30.303155 40.386803 -0.664454 0.722246 0.062569 -0.021509 222485.000000 0 0 1
21.352038 -15.657703 29.022045 39.285522 -0.632735 0.739588 0.069593 -0.011495 -100691.000000 0 0 1
22.163138 -14.513003 29.169295 39.404057 -0.579760 0.737338 0.055541 -0.014167 284572.000000 0 0 1
22.346538 -13.826703 27.943295 38.358483 -0.554085 0.754699 0.064140 -0.014319 -31779.800000 0 0 1
22.941638 -12.404503 28.127725 38.358302 -0.495674 0.747649 0.050316 -0.002813 -494090.000000 0 0 1
22.169038 -11.573403 28.903645 38.220813 -0.481134 0.713268 0.057668 -0.012750 -284244.000000 0 0 1
22.775438 -10.337603 29.236795 38.475665 -0.426086 0.707672 0.045366 -0.011234 166980.000000 0 0 1
21.731638 -9.192203 29.189275 37.533644 -0.400164 0.679825 0.045270 -0.016314 250468.000000 0 0 1
20.711038 -9.232103 30.137675 37.715491 -0.419320 0.645034 0.043322 -0.027308 -376447.000000 0 0 1
19.665138 -8.312403 29.907045 36.745680 -0.399919 0.619975 0.030943 -0.019471 70455.600000 0 0 1
18.513638 -8.483203 30.914605 37.019350 -0.429663 0.582494 0.023394 -0.015755 -426041.000000 0 0 1
18.838638 -8.102503 32.243965 38.212800 -0.406183 0.566471 0.020826 -0.019206 400709.000000 0 0 1
19.465338 -9.209703 32.915532 39.333831 -0.441924 0.579339 0.027001 -0.024371 -785121.000000 0 0 1
19.779138 -8.826503 34.357786 40.615008 -0.419734 0.562474 0.022196 -0.031599 125581.000000 0 0 1
18.610838 -8.667703 -33.586968 39.364664 -0.435861 2.592937 0.013168 -0.032543 532373.000000 0 0 1
18.730038 -7.533403 -32.718038 38.445240 -0.382410 2.588739 0.019492 -0.025988 -370631.000000 0 0 1
17.428638 -7.332303 -31.960608 37.134897 -0.398227 2.607365 0.022491 -0.020236 -441980.000000 0 0 1
17.472238 -6.248203 -31.066088 36.185922 -0.343436 2.603159 0.035791 -0.018224 574610.000000 0 0 1
16.270838 -5.995903 -30.325178 34.932899 -0.353065 2.622154 0.043543 -0.009739 515312.000000 0 0 1
16.561738 -4.844103 -29.305298 34.008190 -0.284551 2.609432 0.044035 -0.007328 212017.000000 0 0 1
17.299438 -5.156103 -28.093198 33.392870 -0.289667 2.570468 0.047213 -0.011380 632782.000000 0 0 1
16.701538 -6.095403 -27.167268 32.467765 -0.349940 2.562110 0.058452 -0.016573 -249112.000000 0 0 1
15.366838 -5.707503 -26.524138 31.180847 -0.355626 2.588026 0.057999 -0.018313 -345938.000000 0 0 1
15.347438 -4.682803 -25.551378 30.171931 -0.296147 2.580848 0.056377 -0.012895 152413.000000 0 0 1
13.998838 -4.666203 -25.079848 29.098792 -0.321746 2.609774 0.056315 -0.010672 590076.000000 0 0 1
13.623038 -3.568903 -24.070358 27.887388 -0.256218 2.612226 0.064253 -0.004978 82826.400000 0 0 1
13.825238 -2.297903 -24.659858 28.364171 -0.164705 2.624786 0.048153 -0.010877 136743.000000 0 0 1
13.428238 -1.290903 -23.760758 27.323207 -0.095839 2.625225 0.049441 -0.013979 -91686.900000 0 0 1
13.751138 0.156097 -24.261458 27.887928 0.011351 2.625923 0.037729 -0.020097 -227521.000000 0 0 1
12.968338 0.674097 -25.346428 28.479354 0.051933 2.668126 0.032818 -0.017366 173918.000000 0 0 1
13.571238 1.793097 -25.914208 29.307676 0.131364 2.655601 0.032138 -0.012005 116998.000000 0 0 1
12.628538 2.422097 -26.996478 29.902448 0.189494 2.697075 0.020217 -0.008164 650835.000000 0 0 1
11.556038 3.213097 -26.446588 29.039422 0.271195 2.715804 0.027772 -0.013083 544175.000000 0 0 1
10.779738 3.719097 -27.505518 29.775627 0.332221 2.748580 0.027524 -0.011647 166250.000000 0 0 1
9.506838 4.522097 -27.072178 29.047068 0.443993 2.770718 0.033997 -0.012341 313271.000000 0 0 1
9.698038 5.833097 -26.485818 28.802353 0.541501 2.737784 0.037963 -0.012911 -751559.000000 0 0 1
8.534138 6.562097 -26.542918 28.642960 0.655502 2.756283 0.044891 -0.013254 -974591.000000 0 0 1
8.063638 5.143811 -31.836678 33.242370 0.567823 2.849745 0.030105 -0.010205 -80437.000000 0 0 1
7.940838 4.279911 -30.744448 32.040531 0.494339 2.856191 0.022696 -0.000481 337715.000000 0 0 1
7.872938 2.942311 -31.132658 32.247213 0.357652 2.877912 0.023077 0.002030 -118657.000000 0 0 1
7.492838 1.964911 -30.025698 31.008806 0.256464 2.889113 0.025455 -0.002555 635351.000000 0 0 1
8.660338 1.560111 -29.273698 30.567709 0.178233 2.849583 0.033004 -0.011638 1158440.000000 0 0 1
8.293238 0.557511 -28.309668 29.504677 0.067124 2.856010 0.023359 -0.009014 -22629.300000 0 0 1
9.437438 0.043011 -27.414018 28.993025 0.004557 2.810041 0.025520 -0.015456 -10435.000000 0 0 1
10.474738 -0.614389 -28.105808 30.000568 -0.058587 2.784287 0.032989 -0.006818 -304457.000000 0 0 1
11.394638 -1.120389 -27.193268 29.505371 -0.098011 2.743077 0.032851 -0.014556 -447235.000000 0 0 1
12.261438 -2.265889 -27.718288 30.393760 -0.182736 2.718864 0.038349 -0.008156 -386539.000000 0 0 1
11.521038 -3.411689 -27.904488 30.381481 -0.287900 2.734991 0.040079 -0.010016 -208431.000000 0 0 1
12.289438 -4.526189 -28.297988 31.181610 -0.352883 2.708142 0.051431 -0.008989 -4303.210000 0 0 1
11.521938 -5.829289 -27.892268 30.736205 -0.468380 2.708025 0.046861 -0.007572 287195.000000 0 0 1
11.296738 -5.868289 -26.454698 29.358205 -0.479100 2.693098 0.049445 -0.007557 -114755.000000 0 0 1
10.604938 -6.995489 -26.001658 28.939382 -0.583125 2.687107 0.051396 -0.009896 -286932.000000 0 0 1
10.283338 -6.940189 -24.471058 27.436216 -0.593679 2.672382 0.043007 -0.007663 -513451.000000 0 0 1
11.408438 -7.064889 -23.657658 27.198344 -0.554467 2.625633 0.053144 -0.005471 -310267.000000 0 0 1
11.132838 -6.868989 -22.294358 25.848820 -0.552828 2.610967 0.043437 -0.004540 66493.400000 0 0 1
12.451138 -6.929089 -21.497258 25.790991 -0.507822 2.556241 0.057514 -0.003930 561813.000000 0 0 1
13.330838 -5.802889 -21.696058 26.117115 -0.410561 2.551199 0.062267 0.000700 445705.000000 0 0 1
14.463738 -5.989789 -20.837158 26.062702 -0.392623 2.497260 0.064941 -0.003718 407336.000000 0 0 1
14.908938 -4.679689 -20.195358 25.534847 -0.304146 2.483065 0.069447 -0.009132 -235379.000000 0 0 1
15.710638 -3.874989 -21.003758 26.514101 -0.241821 2.485158 0.067879 -0.009203 -118442.000000 0 0 1
16.195138 -2.753389 -20.265258 26.087245 -0.168403 2.460406 0.053798 -0.001175 -713488.000000 0 0 1
17.151638 -1.979889 -21.092358 27.257774 -0.114926 2.455632 0.034806 -0.005694 -249416.000000 0 0 1
18.463038 -2.536789 -21.062458 28.123766 -0.136543 2.417228 0.047271 -0.012489 262678.000000 0 0 1
19.375538 -1.763689 -21.797258 29.217162 -0.090776 2.412896 0.044206 -0.011163 209448.000000 0 0 1
20.785838 -2.375789 -21.965558 30.334488 -0.113805 2.380542 0.012396 -0.004608 -102168.000000 0 0 1
21.777338 -2.104989 -20.940758 30.285290 -0.096360 2.334290 -0.004759 -0.000025 329236.000000 0 0 1
22.997438 -2.710289 -21.204958 31.398696 -0.117311 2.312229 -0.012235 -0.001296 -896198.000000 0 0 1
23.907438 -1.966189 -22.185158 32.674344 -0.082057 2.317166 -0.011573 0.000079 -1735090.000000 0 0 1
23.473738 -1.942389 -23.568658 33.320728 -0.082559 2.356506 -0.005446 -0.004201 594480.000000 0 0 1
24.293938 -1.118589 -24.461258 34.493475 -0.046011 2.359097 -0.001427 0.004893 1470340.000000 0 0 1
25.661038 -1.841089 -24.846858 35.766533 -0.071624 2.338793 0.001877 -0.003794 -817826.000000 0 0 1
26.568938 -2.023189 -23.774858 35.710582 -0.076002 2.299315 0.004204 0.004012 655601.000000 0 0 1
27.852538 -2.512289 -24.204258 36.985424 -0.089956 2.284221 0.005149 0.010642 457115.000000 0 0 1
28.656138 -1.558489 -25.067758 38.105061 -0.054332 2.288769 0.013855 -0.002696 -2300180.000000 0 0 1
28.215238 -1.315289 -26.400608 38.662925 -0.046583 2.322440 0.022096 -0.006929 508994.000000 0 0 1
28.992038 -0.247989 -26.993608 39.613819 -0.008553 2.320496 0.021956 -0.014479 -11955.400000 0 0 1
28.409038 0.058511 -28.398318 40.168910 0.002060 2.356005 0.013752 -0.019256 929736.000000 0 0 1
27.029938 0.445111 -28.445478 39.242336 0.016466 2.381638 0.016470 -0.019774 873318.000000 0 0 1
26.619538 1.744611 -27.902028 38.602677 0.065445 2.378642 0.010598 -0.008688 19053.100000 0 0 1
25.106638 2.014411 -28.111568 37.744687 0.080063 2.411005 0.020133 -0.014964 931593.000000 0 0 1
24.195338 1.359211 -27.184628 36.417933 0.056118 2.413527 0.020102 -0.011229 91793.000000 0 0 1
22.864538 1.530911 -27.543028 35.829446 0.066856 2.447643 0.029693 -0.015960 -329277.000000 0 0 1
21.835938 1.134011 -26.434758 34.305839 0.051887 2.450518 0.037024 -0.016461 130066.000000 0 0 1
21.860438 2.040211 -25.383788 33.561554 0.093059 2.428489 0.035192 -0.013773 459504.000000 0 0 1
20.999138 1.571211 -24.344558 32.188352 0.074683 2.428459 0.028602 -0.004524 -29761.600000 0 0 1
21.113738 2.171111 -22.873758 31.204366 0.102469 2.393563 0.016377 0.004785 -241778.000000 0 0 1
20.694638 3.524311 -22.790958 30.985748 0.168682 2.397246 0.020994 0.000169 516052.000000 0 0 1
21.198038 3.954111 -21.528958 30.471099 0.184413 2.355389 0.019266 0.001401 -220596.000000 0 0 1
20.830538 5.402711 -21.007658 30.073615 0.253773 2.344153 0.011727 0.012432 -354247.000000 0 0 1
21.534238 6.475811 -21.573058 31.161778 0.292119 2.335457 0.006817 0.012399 152123.000000 0 0 1
21.148638 7.798111 -21.071458 30.855822 0.353261 2.322522 0.002171 0.008881 -229765.000000 0 0 1
21.678538 8.201611 -19.634858 30.376851 0.361686 2.273621 0.000898 0.005700 657593.000000 0 0 1
23.105938 8.414611 -19.629958 31.464668 0.349247 2.244485 -0.005029 0.003987 1189120.000000 0 0 1
23.627238 8.675811 -18.330158 31.136968 0.351911 2.200239 0.009058 -0.007491 -179260.000000 0 0 1
23.265438 10.022411 -17.635158 30.866294 0.406761 2.178934 0.018452 -0.019373 1282000.000000 0 0 1
21.891238 10.237111 -17.168058 29.644004 0.437422 2.188471 0.016882 -0.024509 1586840.000000 0 0 1
21.746238 11.648311 -16.930758 29.920438 0.491757 2.172271 0.013141 -0.021015 -150293.000000 0 0 1
20.250138 12.025211 -16.796958 28.927696 0.535873 2.190327 0.016972 -0.025025 459798.000000 0 0 1
19.483138 11.910511 -17.999958 29.076648 0.548704 2.238331 0.018566 -0.024998 422173.000000 0 0 1
18.947238 10.653011 -18.299158 28.413794 0.512197 2.270543 0.020877 -0.021931 -230620.000000 0 0 1
18.059138 10.448511 -19.581058 28.613313 0.524515 2.324486 0.025061 -0.009600 207433.000000 0 0 1
18.788038 10.493611 -20.788758 29.921208 0.509366 2.338915 0.025324 -0.003836 506586.000000 0 0 1
17.969938 10.197411 -21.937758 30.135877 0.516157 2.386140 0.021075 -0.000905 210629.000000 0 0 1
18.743938 10.322611 -23.283158 31.622729 0.503394 2.398352 0.030479 -0.004351 2503.870000 0 0 1
19.055438 11.688211 -23.503958 32.437017 0.550199 2.381254 0.030105 -0.003823 181794.000000 0 0 1
19.798438 11.976211 -24.666458 33.820732 0.544020 2.388138 0.041612 -0.008314 -86281.300000 0 0 1
20.197638 13.418611 -24.888958 34.748582 0.586408 2.369222 0.054873 -0.018780 -483868.000000 0 0 1
20.828538 13.659011 -26.094768 36.074000 0.580430 2.379464 0.048371 -0.022319 -51905.500000 0 0 1
20.802638 15.002411 -26.515768 36.890487 0.624799 2.372828 0.056687 -0.021765 243859.000000 0 0 1
19.516738 15.528711 -27.218428 36.917296 0.672090 2.399833 0.047485 -0.023234 -137069.000000 0 0 1
18.334238 15.382111 -26.499298 35.706672 0.698063 2.407052 0.038582 -0.019615 -438253.000000 0 0 1
17.258938 15.813011 -27.330728 35.984593 0.741705 2.433359 0.028291 -0.018667 175317.000000 0 0 1
15.876838 15.554811 -26.690268 34.733220 0.775153 2.447190 0.026304 -0.015273 -247068.000000 0 0 1
15.558938 14.120811 -26.647348 33.934629 0.736981 2.473905 0.014506 -0.008006 201424.000000 0 0 1
14.320838 13.772211 -26.062558 32.772201 0.765872 2.490240 0.000095 -0.002834 -43701.600000 0 0 1
14.112238 12.224011 -26.004748 32.012945 0.713824 2.518915 0.003316 -0.000230 -920761.000000 0 0 1
12.886038 11.770911 -25.578818 30.965792 0.740203 2.542832 0.005804 0.007463 -948987.000000 0 0 1
12.915338 10.382711 -25.329648 30.268758 0.677118 2.562254 0.014249 0.004742 -283777.000000 0 0 1
11.576838 9.664611 -25.114318 29.294315 0.695617 2.600818 0.028352 -0.010228 -22844.700000 0 0 1
10.829238 10.116111 -23.981458 28.190751 0.751364 2.588084 0.042867 -0.018593 -194369.000000 0 0 1
9.659138 9.349611 -23.842358 27.371011 0.769116 2.628195 0.046640 -0.016920 -713973.000000 0 0 1
8.728138 9.987911 -22.855458 26.425570 0.852607 2.615746 0.037064 -0.017355 -602777.000000 0 0 1
8.063638 11.181011 -23.309058 27.080426 0.945990 2.607507 0.030071 -0.018985 -169387.000000 0 0 1
7.520838 11.871211 -22.196358 26.271029 1.006082 2.577172 0.034299 -0.011717 -94840.600000 0 0 1
8.460738 12.665611 -21.270858 26.162018 0.981865 2.520157 0.034075 -0.010767 -553365.000000 0 0 1
9.376638 11.915111 -20.574058 25.557447 0.904061 2.506492 0.040800 -0.025534 -971342.000000 0 0 1
10.209538 12.672411 -19.745258 25.587104 0.892619 2.452287 0.041940 -0.021986 -632424.000000 0 0 1
11.141438 11.745611 -18.936958 24.913840 0.811790 2.434260 0.049481 -0.029555 -221528.000000 0 1 0
12.218238 11.178311 -19.661658 25.706435 0.740980 2.441610 0.051338 -0.027096 -129863.000000 0 0 1
11.961838 10.284411 -20.758358 26.072286 0.710138 2.491760 0.056060 -0.027047 -1440510.000000 0 0 1
13.182838 9.703311 -21.431358 26.967473 0.634517 2.489328 0.057745 -0.020738 -227084.000000 0 0 1
13.993838 8.843411 -20.614258 26.438250 0.563582 2.465004 0.072703 -0.028211 429561.000000 0 0 1
14.748738 7.950211 -21.413958 27.189865 0.494392 2.477654 0.053406 -0.023389 -91366.500000 0 0 1
15.309638 6.769011 -20.559858 26.512493 0.416299 2.458268 0.075611 -0.026032 -219675.000000 0 0 1
16.277738 7.169711 -19.623858 26.485191 0.414893 2.405261 0.048337 -0.015690 44190.000000 0 0 1
17.139638 6.102211 -19.291958 26.517613 0.342036 2.385489 0.039569 -0.018064 210394.000000 0 0 1
17.867938 6.262111 -17.927658 26.074474 0.337090 2.328914 0.077632 -0.018975 -303234.000000 0 0 1
19.086438 6.975811 -17.959758 27.120232 0.350403 2.294584 0.042462 -0.016597 254529.000000 0 0 1
19.683538 7.123011 -16.657158 26.751446 0.347216 2.242939 0.034373 -0.026777 171707.000000 0 0 1
20.415738 5.919411 -16.024158 26.619832 0.282205 2.216754 0.024429 -0.032992 -448756.000000 0 0 1
21.660238 5.648811 -16.648158 27.896884 0.255110 2.210272 0.012951 -0.018579 360581.000000 0 0 1
22.187038 4.506511 -16.009958 27.728903 0.200389 2.186306 0.039697 -0.025876 -415625.000000 0 0 1
23.534138 4.034511 -16.572658 29.065201 0.169782 2.177532 -0.004631 0.014180 -277632.000000 0 0 1
24.092338 2.980311 -15.802058 28.965981 0.123078 2.147828 0.006994 0.001803 216643.000000 0 0 1
25.294338 2.450211 -16.317358 30.200385 0.096567 2.141593 0.007540 -0.001782 -37145.100000 0 0 1
25.946038 1.322111 -15.541358 30.273399 0.050912 2.109900 0.019839 -0.016052 -432151.000000 0 0 1
25.325638 0.050211 -15.623958 29.757327 0.001983 2.123565 0.027932 -0.018290 -620484.000000 0 0 1
26.218038 -1.011089 -15.725658 30.589282 -0.038546 2.110743 0.026228 -0.011727 -819204.000000 0 0 1
25.633038 -2.424489 -15.898858 30.260609 -0.094304 2.123979 0.016110 -0.006121 -963466.000000 0 0 1
25.197438 -2.959989 -14.714458 29.328957 -0.116936 2.096364 0.028488 -0.008559 197726.000000 0 0 1
24.946738 -4.344689 -14.952658 29.407449 -0.172429 2.104198 0.018483 -0.002547 -1009550.000000 0 0 1
24.268738 -5.119989 -13.816358 28.391507 -0.207922 2.079032 0.019694 -0.003712 329247.000000 0 0 1
22.886138 -4.934689 -13.549258 27.050118 -0.212368 2.095428 0.028234 0.001299 940831.000000 0 0 1
22.012938 -5.574789 -14.510058 26.947904 -0.248036 2.139391 0.034810 0.002350 453321.000000 0 0 1
20.485338 -5.536189 -14.180958 25.522501 -0.263946 2.159912 0.039396 0.002716 376704.000000 0 0 1
20.031438 -6.368089 -13.141558 24.789345 -0.307801 2.129549 0.039850 0.001165 269183.000000 0 1 0
20.300238 -5.915089 -11.807758 24.217991 -0.283530 2.080091 0.044522 -0.003265 -610337.000000 0 1 0
20.078838 -7.065189 -10.780958 23.860128 -0.338342 2.039623 0.042147 -0.004691 -131249.000000 0 1 0
18.792638 -7.657889 -10.813658 22.994384 -0.386950 2.060397 0.038134 -0.002529 444302.000000 0 1 0
18.696538 -8.685589 -11.787458 23.747509 -0.434893 2.090204 0.039660 -0.003431 -395487.000000 0 1 0
17.368938 -9.500789 -11.718658 23.005911 -0.500536 2.105256 0.058663 -0.007712 -21631.700000 0 1 0
16.307138 -8.624989 -11.968958 21.990206 -0.486506 2.146334 0.047831 -0.004011 -684942.000000 0 1 0
15.151138 -9.271489 -12.435858 21.683359 -0.549148 2.181594 0.045497 -0.001699 94180.200000 0 1 0
13.997538 -8.239789 -12.633258 20.577279 -0.532039 2.231841 0.037550 0.000035 -123870.000000 0 1 0
14.174238 -7.248689 -13.653058 20.972804 -0.472725 2.279683 0.038928 -0.004068 487883.000000 0 1 0
15.168838 -6.237089 -13.478558 21.228906 -0.390105 2.258695 0.036825 -0.003051 116341.000000 0 1 0
14.966838 -5.120789 -14.505158 21.462254 -0.329658 2.312907 0.033467 -0.004699 -197309.000000 0 1 0
13.866938 -4.282789 -14.260058 20.346585 -0.299555 2.347395 0.036629 -0.010572 -324867.000000 0 1 0
13.643038 -3.316889 -15.280158 20.751325 -0.238493 2.398450 0.038005 -0.013389 174724.000000 0 1 0
14.712838 -2.196189 -15.574458 21.537284 -0.148176 2.379133 0.047306 -0.012957 -551006.000000 0 1 0
15.776938 -2.568289 -16.407058 22.906319 -0.161372 2.369236 0.040584 -0.005486 -7339.650000 0 1 0
16.839838 -1.617089 -16.359758 23.533738 -0.095734 2.339441 0.046917 0.000276 617700.000000 0 1 0
17.905438 -2.075289 -15.287958 23.635423 -0.115388 2.274209 0.047931 -0.002815 -381746.000000 0 1 0
17.432438 -2.081989 -13.945958 22.421292 -0.118869 2.242086 0.037384 -0.001870 814094.000000 0 1 0
18.527438 -2.382989 -13.046458 22.784966 -0.127917 2.180459 0.032987 -0.003942 663789.000000 0 1 0
18.063438 -2.683089 -11.629958 21.650466 -0.147459 2.137873 0.029925 -0.001665 -421591.000000 0 1 0
17.828738 -1.481989 -10.937958 20.969004 -0.082933 2.119551 0.029712 -0.003866 591982.000000 0 1 0
17.461938 -1.740989 -9.613958 20.009461 -0.099374 2.071988 0.027851 -0.007041 -1097950.000000 0 1 0
17.527738 -0.449489 -8.744658 19.593180 -0.025639 2.033435 0.030001 -0.006675 376367.000000 0 1 0
18.802338 -0.035989 -8.222458 20.521648 -0.001914 1.983047 0.033409 -0.006535 1610080.000000 0 1 0
19.772338 0.598411 -9.086358 21.768449 0.030256 2.001389 0.031738 -0.000377 97598.000000 0 1 0
19.440938 1.943611 -9.699158 21.812872 0.099644 2.031583 0.028658 -0.007962 -741179.000000 0 1 0
19.299838 2.941311 -8.736458 21.388332 0.151237 1.991572 0.020128 -0.004795 450653.000000 0 1 0
18.624138 3.975511 -9.384258 21.230344 0.210304 2.028647 0.007170 -0.015436 -516480.000000 0 1 0
18.510038 5.333911 -8.681358 21.129082 0.280562 1.994207 0.006053 -0.008133 -39008.300000 0 1 0
17.727538 6.155811 -9.538858 21.051115 0.334219 2.041068 -0.000162 -0.015483 655217.000000 0 1 0
18.232038 7.493111 -9.466458 21.867047 0.389941 2.018515 0.013983 -0.009875 -28851.800000 0 1 0
-25.960422 -29.734549 5.739942 39.887766 0.853059 1.426393 0.039092 -0.015031 2188.190000 0 0 1
-25.931132 -28.708559 6.672842 39.257252 0.836186 1.399990 0.038858 -0.019315 -139808.000000 0 0 1
-24.711262 -28.002019 6.770142 37.955163 0.847745 1.391465 0.038141 -0.013355 -476222.000000 0 0 1
-24.785962 -26.861869 7.735542 37.359638 0.825570 1.362231 0.040454 -0.005947 51145.500000 0 0 1
-25.651232 -25.704069 7.452042 37.070444 0.786427 1.368393 0.041531 -0.013052 12205.000000 0 0 1
-27.019192 -25.908119 7.553942 38.188080 0.764409 1.371674 0.026112 -0.013620 -837928.000000 0 0 1
-27.572512 -25.891379 8.998142 38.878960 0.753964 1.337239 0.019065 -0.010434 -615342.000000 0 0 1
-27.032462 -26.905869 9.840642 39.389314 0.783051 1.318291 0.021873 -0.012199 63370.400000 0 0 1
-27.468422 -26.812229 11.207242 39.987649 0.773310 1.286723 0.019801 -0.015105 -353223.000000 0 0 1
-26.594632 -27.747979 12.102342 40.295055 0.806619 1.265744 0.014387 -0.016436 439930.000000 0 0 1
-25.296952 -27.329469 12.471442 39.273051 0.824001 1.247644 0.023650 -0.010342 50227.000000 0 0 1
-25.328522 -26.175899 13.314742 38.781362 0.801849 1.220338 0.022014 -0.004053 -893474.000000 0 0 1
-23.971962 -25.886759 13.982342 37.951089 0.823784 1.193476 0.039611 -0.007238 -353085.000000 0 0 1
-23.502162 -27.024959 14.597542 38.675422 0.855006 1.183769 0.050903 -0.009840 -96753.400000 0 0 1
-22.279962 -26.688409 15.241142 37.959983 0.875183 1.157636 0.062342 -0.017034 141114.000000 0 0 1
-21.570362 -27.867279 15.911242 38.665662 0.912087 1.146688 0.051169 -0.017516 -577043.000000 0 0 1
-22.350262 -28.453169 16.898742 39.933501 0.904953 1.133853 0.047101 -0.012662 325547.000000 0 0 1
-21.635662 -29.505279 17.527542 40.569423 0.938081 1.124045 0.056414 -0.010140 -18620.000000 0 0 1
-22.643562 -30.366899 18.306142 42.071300 0.930075 1.120623 0.068439 -0.019980 448619.000000 0 0 1
-23.418362 -31.259449 17.467742 42.786620 0.927832 1.150257 0.025830 -0.005452 584929.000000 0 0 1
-24.431062 -31.944599 18.160142 44.126239 0.917894 1.146643 0.026151 -0.008177 176396.000000 0 0 1
-25.308162 -32.923499 17.280442 44.978590 0.915437 1.176463 0.015101 -0.008363 367851.000000 0 0 1
-24.779362 -34.237098 17.251742 45.648858 0.944303 1.183245 0.018122 -0.009629 223828.000000 0 0 1
-25.674562 33.623086 16.709042 45.485021 -0.918648 1.194635 0.012109 -0.005914 -516002.000000 0 0 1
-25.506782 33.284030 15.186342 44.598740 -0.916921 1.223336 0.007608 -0.002476 -377908.000000 0 0 1
-24.317162 32.605364 14.899342 43.317716 -0.929987 1.219671 -0.000531 -0.003268 56922.100000 0 0 1
-23.207062 33.432150 14.558042 43.222829 -0.964005 1.227265 0.006762 -0.002918 212489.000000 0 0 1
-21.892462 32.597094 14.583142 41.886973 -0.979381 1.215195 0.030605 -0.016197 98288.200000 0 0 1
-21.660462 31.776654 13.484042 40.752310 -0.972494 1.233563 0.033331 -0.010475 -283308.000000 0 0 1
-20.570462 30.938664 13.714942 39.603592 -0.984032 1.217166 0.039676 -0.011856 -235678.000000 0 0 1
-20.378762 29.944774 12.539042 38.330289 -0.973247 1.237530 0.032536 -0.008350 259900.000000 0 0 1
-19.882462 30.631524 11.338542 38.238268 -0.995065 1.269746 0.023172 -0.002754 117888.000000 0 0 1
-19.940562 29.753804 10.249742 37.255497 -0.980362 1.292082 0.029326 -0.000224 -10454.600000 0 0 1
-19.318362 30.332344 8.975542 37.064951 -1.003693 1.326208 0.016494 -0.007010 -333946.000000 0 0 1
-17.918362 30.421754 9.033642 36.443895 -1.038506 1.320307 0.007439 -0.009578 -566599.000000 0 0 1
-17.412562 31.108374 7.896442 36.514135 -1.060507 1.352817 0.019583 -0.012655 283617.000000 0 0 1
-16.752162 30.279104 6.735442 35.253727 -1.065455 1.378558 0.026111 -0.014677 -185988.000000 0 0 1
-17.585262 29.271274 6.157042 34.698099 -1.029812 1.392406 0.019577 -0.008955 95661.000000 0 0 1
-17.400862 28.019164 6.806742 33.677816 -1.015054 1.367281 0.020175 -0.004743 -303563.000000 0 0 1
-18.531962 27.078004 6.371042 33.425172 -0.970623 1.379017 0.026227 -0.005477 68211.000000 0 0 1
-18.300162 26.391924 5.136242 32.524000 -0.964514 1.412211 0.031507 -0.013777 -522188.000000 0 0 1
-19.524762 25.958074 4.675842 32.816177 -0.925911 1.427824 0.033239 -0.013222 -1423580.000000 0 0 1
-19.397762 25.119904 3.352742 31.914317 -0.913234 1.465548 0.039624 -0.018645 -849287.000000 0 0 1
-19.002562 25.850384 2.167142 32.156434 -0.936901 1.503351 0.039325 -0.016682 770308.000000 0 0 1
-17.691062 26.410704 2.106442 31.858061 -0.980597 1.504628 0.039575 -0.016787 677417.000000 0 0 1
-16.409662 25.533664 2.358142 30.443486 -0.999593 1.493259 0.037497 -0.023129 -73687.400000 0 0 1
-16.161362 24.454494 1.433642 29.347355 -0.986814 1.521926 0.054325 -0.027013 30837.200000 0 0 1
-15.896362 24.801424 0.108242 29.458729 -1.000813 1.567122 0.050203 -0.025482 -231144.000000 0 0 1
-15.431462 23.606324 -0.729058 28.212056 -0.991824 1.596641 0.052676 -0.027390 56558.600000 0 0 1
-16.546362 22.822024 -1.166658 28.213259 -0.943477 1.612160 0.055863 -0.033005 362589.000000 0 0 1
-16.424862 21.860124 -2.205058 27.431796 -0.926424 1.651266 0.053681 -0.028364 -364777.000000 0 0 1
-15.549462 20.669424 -1.693158 25.920603 -0.925829 1.636164 0.061722 -0.031117 236542.000000 0 0 1
-16.108362 19.835724 -0.708758 25.562426 -0.888728 1.598526 0.065950 -0.035589 -103592.000000 0 0 1
-15.112562 18.928724 -0.358658 24.224260 -0.897036 1.585603 0.077586 -0.032535 -383926.000000 0 1 0
-15.615362 17.935724 0.725442 23.791932 -0.854447 1.540301 0.067125 -0.025911 147837.000000 0 1 0
-16.382562 16.951524 0.053542 23.574253 -0.802465 1.568525 0.062985 -0.024818 327140.000000 0 1 0
-16.885762 16.045224 1.050842 23.316999 -0.759879 1.525713 0.054769 -0.034177 174950.000000 0 1 0
-17.597862 14.803824 0.402942 23.000007 -0.699380 1.553276 0.057628 -0.032239 -29866.400000 0 1 0
-18.765762 15.164624 -0.308958 24.129134 -0.679661 1.583601 0.086374 -0.038426 369224.000000 0 1 0
-19.521862 13.995224 -0.643458 24.028804 -0.621978 1.597578 0.072814 -0.032103 8997.540000 0 1 0
-20.663662 14.314224 -1.630758 25.190143 -0.605826 1.635580 0.082167 -0.023532 -1291260.000000 0 0 1
-21.425862 13.222524 -2.151358 25.269172 -0.552919 1.656037 0.060664 -0.028238 993087.000000 0 0 1
-22.662662 12.966424 -1.482358 26.151899 -0.519689 1.627509 0.064035 -0.023350 434788.000000 0 0 1
-23.760162 14.054324 -1.644658 27.654552 -0.534152 1.630303 0.047393 -0.013454 -1277850.000000 0 0 1
-23.428462 15.183624 -0.983458 27.935685 -0.575028 1.606008 0.039426 -0.017205 -309845.000000 0 0 1
-24.496662 15.993324 -0.540058 29.260290 -0.578396 1.589254 0.031103 -0.009959 -443547.000000 0 0 1
-24.017662 17.190724 0.349842 29.537967 -0.621221 1.558952 0.016474 -0.008549 210244.000000 0 0 1
-23.699662 16.804524 1.691342 29.102004 -0.616782 1.512646 0.012010 -0.005559 45357.800000 0 0 1
-23.328762 17.871124 2.548642 29.497522 -0.653698 1.484287 0.010543 -0.012743 53201.000000 0 0 1
-24.521262 18.721124 3.039142 31.000148 -0.652063 1.472602 0.015499 -0.011084 -302004.000000 0 0 1
-25.389322 17.984224 3.897742 31.356696 -0.616300 1.446171 0.020944 -0.011824 367536.000000 0 0 1
-26.608262 18.667724 4.134642 32.765512 -0.611783 1.444270 0.024338 -0.016912 196160.000000 0 0 1
-27.735962 18.475224 3.112242 33.470936 -0.587618 1.477678 0.027571 -0.011118 -1148350.000000 0 0 1
-28.859822 19.288024 3.236242 34.862451 -0.589157 1.477834 0.030955 -0.010664 -280640.000000 0 0 1
-29.652042 19.099024 2.085842 35.332238 -0.572220 1.511727 0.013903 -0.008907 -1052880.000000 0 0 1
-30.975542 19.808524 2.118442 36.828652 -0.568951 1.513243 0.025640 -0.022435 -1021760.000000 0 0 1
-31.962472 19.154124 2.897442 37.374795 -0.539882 1.493195 0.038179 -0.014843 -546786.000000 0 0 1
-33.103732 19.924524 2.990942 38.752929 -0.541802 1.493540 0.046055 -0.017296 -854421.000000 0 0 1
-33.386572 20.702224 4.335242 39.522647 -0.555051 1.460885 0.036559 -0.021913 42336.800000 0 0 1
-32.399732 21.724024 4.596542 39.278545 -0.590652 1.453503 0.035246 -0.024699 893632.000000 0 0 1
-32.505312 22.180424 5.917142 39.794209 -0.598791 1.421549 0.042951 -0.031358 217617.000000 0 0 1
-31.458802 23.304224 6.259442 39.647493 -0.637578 1.412256 0.046863 -0.036782 156992.000000 0 0 1
-31.657682 24.484974 5.462542 40.392600 -0.658328 1.435144 0.038070 -0.023741 422601.000000 0 0 1
-30.619552 25.417734 5.640242 40.192419 -0.692836 1.430001 0.038465 -0.028624 -375496.000000 0 0 1
-31.150242 26.841994 5.456142 41.480112 -0.711244 1.438878 0.037476 -0.019723 -204398.000000 0 0 1
-32.180892 27.135254 6.377442 42.574683 -0.700539 1.420436 0.042408 -0.013181 207048.000000 0 0 1
-32.639122 28.470304 6.340342 43.772942 -0.717285 1.425439 0.031874 -0.005058 247131.000000 0 0 1
-33.720002 28.811914 7.398842 44.965629 -0.707069 1.405500 0.022961 0.004197 -144488.000000 0 0 1
-33.121942 28.892334 8.660142 44.797635 -0.717300 1.376255 0.026538 -0.002450 584747.000000 0 0 1
-34.026162 29.331584 9.679242 45.954426 -0.711437 1.358580 0.025437 0.003647 938598.000000 0 0 1
-35.200129 28.411924 10.241442 46.380747 -0.679088 1.348149 0.016142 0.008398 613161.000000 0 0 1
-34.817445 27.175484 10.837842 45.477690 -0.662745 1.330170 0.026011 -0.003590 123056.000000 0 0 1
35.663013 26.662654 11.789242 46.062282 0.641981 1.311975 0.023396 -0.001364 -288788.000000 0 0 1
-35.054343 25.436134 12.382042 45.045742 -0.627715 1.292334 0.046666 -0.008121 103522.000000 0 0 1
-33.924332 25.757314 13.165342 44.582797 -0.649400 1.271026 0.042327 -0.016094 111882.000000 0 0 1
-33.454122 24.738884 13.999442 43.899602 -0.636739 1.246231 0.051204 -0.017316 -349103.000000 0 0 1
-32.370372 25.282614 14.936342 43.705216 -0.663074 1.222016 0.053081 -0.017314 -328304.000000 0 0 1
-32.802072 26.250314 15.870842 44.910339 -0.674902 1.209604 0.043708 -0.024908 133543.000000 0 0 1
-31.721962 26.656924 16.679642 44.666374 -0.698853 1.188096 0.058313 -0.015187 -144391.000000 0 0 1
-32.060742 27.927414 17.474242 45.969346 -0.716604 1.180862 0.049959 -0.020200 -327433.000000 0 0 1
-32.252442 29.034884 16.629442 46.473464 -0.732947 1.204857 0.058764 -0.012803 157962.000000 0 0 1
-32.642392 30.189034 17.337742 47.723169 -0.746371 1.198991 0.043971 -0.009669 -108323.000000 0 0 1
-32.355592 31.484634 16.549242 48.083718 -0.771756 1.219436 0.028730 -0.004344 -488020.000000 0 0 1
-30.994422 31.690074 16.351342 47.247025 -0.796495 1.217405 0.022550 -0.000464 -700326.000000 0 0 1
-30.695072 32.840914 15.643142 47.596439 -0.819159 1.235910 0.011636 0.009214 -50504.200000 0 0 1
-29.275022 32.961130 15.013542 46.571123 -0.844557 1.242555 0.019582 0.006372 113669.000000 0 0 1
-28.984052 32.062244 13.939642 45.413394 -0.835779 1.258810 0.018811 0.001920 589831.000000 0 0 1
-28.470742 30.768214 14.395942 44.322785 -0.824162 1.239998 0.026526 0.000688 -48039.200000 0 0 1
-29.508732 29.697114 14.063842 44.164188 -0.788580 1.246708 0.043609 -0.002718 52378.400000 0 0 1
-29.485492 29.322344 12.664642 43.469383 -0.782624 1.275162 0.058529 -0.012381 527171.000000 0 0 1
-30.444232 28.296934 12.310542 43.348785 -0.748859 1.282845 0.057270 -0.015209 491868.000000 0 0 1
-30.558322 28.133634 10.802442 42.918588 -0.744110 1.316364 0.055573 -0.007547 358392.000000 0 0 1
-29.394692 27.557264 10.190342 41.560724 -0.753147 1.323079 0.050339 -0.007361 466005.000000 0 0 1
-29.544992 27.429994 8.808342 41.266185 -0.748294 1.355689 0.050625 -0.012359 570823.000000 0 0 1
-28.227712 26.796974 8.228942 39.781868 -0.759402 1.362441 0.051047 -0.017579 686625.000000 0 0 1
-28.102552 26.961714 6.852942 39.543018 -0.764683 1.396613 0.048289 -0.020390 616669.000000 0 0 1
-26.903872 26.346574 6.294442 38.178270 -0.774933 1.405170 0.040302 -0.018676 788322.000000 0 0 1
-26.576802 26.770414 4.871142 38.035635 -0.789027 1.442376 0.037866 -0.021210 -315483.000000 0 0 1
-26.033032 28.030904 4.625142 38.533651 -0.822335 1.450478 0.037645 -0.011701 193914.000000 0 0 1
-25.697032 28.182144 3.232242 38.275555 -0.831489 1.486249 0.031748 -0.010507 23637.200000 0 0 1
-24.672962 29.343544 3.009542 38.455897 -0.871649 1.492457 0.026549 -0.011853 1089500.000000 0 0 1
-23.295962 29.003104 3.305042 37.347091 -0.894093 1.482185 0.021123 -0.008561 674256.000000 0 0 1
-22.482262 29.963744 2.691242 37.556902 -0.927093 1.499077 0.028294 -0.006623 545494.000000 0 0 1
-20.963662 29.670844 2.944842 36.448679 -0.955694 1.489914 0.014758 -0.010666 664819.000000 0 0 1
-20.116462 30.616044 2.381242 36.710823 -0.989477 1.505886 0.010166 -0.009093 -273596.000000 0 0 1
-18.741762 30.307834 2.555342 35.726016 -1.016972 1.499209 0.022030 -0.006426 742201.000000 0 0 1
-17.694862 31.394074 2.221242 36.105816 -1.057544 1.509237 0.018897 -0.009991 104603.000000 0 0 1
-17.699162 32.555244 3.022942 37.178521 -1.072829 1.489398 0.022881 -0.013042 -737200.000000 0 0 1
-16.516762 33.250096 2.847342 37.235463 -1.109757 1.494253 0.032828 -0.011996 -894069.000000 0 0 1
-16.314662 -34.397798 3.879742 38.267860 1.127924 1.469238 0.035484 -0.011264 -252225.000000 0 0 1
-17.138262 -33.286869 3.679642 37.620147 1.095327 1.472829 0.035697 -0.013802 -216141.000000 0 0 1
-17.004262 -32.368949 4.720242 36.866984 1.087094 1.442410 0.028641 -0.017999 -3525.880000 0 0 1
-18.183262 -31.383189 4.849742 36.593108 1.045665 1.437874 0.033907 -0.014086 -93188.600000 0 0 1
-18.280762 -30.373859 3.862542 35.660578 1.029011 1.462269 0.035693 -0.008243 320390.000000 0 0 1
-19.420062 -29.571449 4.172142 35.623253 0.989714 1.453408 0.033991 -0.012405 44843.800000 0 0 1
-19.825362 -28.641819 3.053842 34.967481 0.965336 1.483351 0.032032 -0.014072 -119898.000000 0 0 1
-19.019662 -27.494499 2.975542 33.564101 0.965620 1.482027 0.030891 -0.006564 -141249.000000 0 0 1
-19.285962 -26.750609 1.818342 33.028015 0.946145 1.515714 0.022085 -0.000194 -16302.900000 0 0 1
-18.279262 -25.602179 1.633342 31.500330 0.950754 1.518921 0.024222 -0.001960 742095.000000 0 0 1
-16.960262 -26.028669 1.259442 31.092255 0.993298 1.530279 0.040343 -0.005586 182015.000000 0 0 1
-16.109762 -24.884189 1.345742 29.674203 0.996258 1.525430 0.037365 -0.007631 251221.000000 0 0 1
-14.743562 -25.165989 0.671842 29.174492 1.040844 1.547766 0.048139 -0.012220 -325602.000000 0 0 1
-14.692162 -25.134629 -0.745458 29.123271 1.041823 1.596396 0.046517 -0.007531 -236339.000000 0 0 1
-14.594062 -23.812489 -1.279158 27.958139 1.020964 1.616565 0.042421 -0.012223 -151046.000000 0 0 1
-15.040662 -23.831489 -2.772358 28.316910 1.007804 1.668858 0.025949 -0.000929 44529.300000 0 0 1
-14.109862 -24.453389 -3.625858 28.464070 1.047452 1.698527 0.046944 -0.006977 -74263.800000 0 0 1
-14.662162 -24.623089 -4.916658 29.076607 1.033719 1.740706 0.020412 -0.004555 -808459.000000 0 0 1
-13.641862 -24.869289 -5.949358 28.982353 1.069073 1.777541 0.065715 -0.008092 -591204.000000 0 0 1
-12.828562 -26.008009 -5.746858 29.563744 1.112560 1.766431 0.048290 -0.015529 -596942.000000 0 0 1
-11.981362 -26.139329 -6.820358 29.552240 1.141008 1.803686 0.061268 -0.017663 -571481.000000 0 0 1
23.277438 13.054611 28.311005 38.907261 0.511118 0.755901 -0.000343 0.011465 -427876.000000 0 0 1
23.794338 11.813311 28.758625 39.150777 0.460824 0.745777 0.007555 0.002168 379491.000000 0 0 1
22.895538 11.046411 29.602425 39.019641 0.449526 0.709551 0.005883 -0.008703 31409.500000 0 0 1
22.769538 11.458011 31.083635 40.198634 0.466218 0.686844 0.011602 -0.004301 625603.000000 0 0 1
21.845438 12.533411 31.400095 40.252646 0.520880 0.676010 -0.000352 0.000781 547127.000000 0 0 1
22.322138 13.138011 32.556935 41.603355 0.531968 0.672036 0.015644 -0.002636 -661045.000000 0 0 1
21.328038 13.985011 33.351656 41.985696 0.580379 0.652847 -0.000688 0.001247 -384178.000000 0 0 1
20.174338 13.280711 33.746257 41.499290 0.582186 0.621207 0.004112 0.009760 -24045.700000 0 0 1
19.461938 13.952711 -34.013318 41.597488 0.621994 2.528161 0.006116 0.011335 482879.000000 0 0 1
18.228638 13.244511 -33.316468 40.220485 0.628341 2.546945 0.006434 0.010535 428528.000000 0 0 1
17.168938 13.009911 -34.211663 40.428556 0.648448 2.579657 -0.003718 0.012486 -598515.000000 0 0 1
16.209538 12.311611 -33.492428 39.192699 0.649572 2.595495 0.001865 0.009100 -115752.000000 0 0 1
14.840138 12.127811 -34.204788 39.208176 0.685159 2.630865 0.002422 0.011370 290726.000000 0 0 1
14.867338 11.103511 33.559219 38.347710 0.641475 0.505093 0.005513 0.014801 173788.000000 0 0 1
13.568438 10.797711 33.082685 37.351802 0.672172 0.482786 0.004763 0.020658 96018.600000 0 0 1
13.667638 9.733611 31.949985 36.088073 0.618844 0.483585 0.006878 0.023144 56152.700000 0 0 1
14.211238 8.501611 32.366955 36.357343 0.539118 0.472913 0.000360 0.017031 183179.000000 0 0 1
14.882538 7.738811 31.362535 35.566666 0.479514 0.491140 0.004193 -0.002692 373976.000000 0 0 1
15.377938 6.366811 31.924365 36.002532 0.392536 0.480583 0.025152 -0.003993 423288.000000 0 0 1
14.316138 5.426111 32.080265 35.546278 0.362291 0.445273 0.019003 0.000591 246983.000000 0 0 1
14.838038 4.177711 32.548205 36.013973 0.274449 0.442308 0.024148 -0.004954 -344836.000000 0 0 1
13.818738 3.076111 32.687772 35.621769 0.219033 0.408709 0.015629 -0.002659 -572323.000000 0 0 1
14.320438 1.768111 32.826725 35.857984 0.122846 0.414135 0.026230 -0.006666 -281208.000000 0 0 1
13.274538 0.897811 33.203074 35.769589 0.067531 0.381120 0.033027 -0.009770 46600.000000 0 0 1
13.725438 -0.548889 33.491672 36.199185 -0.039969 0.389221 0.029234 -0.008655 25618.900000 0 0 1
14.001938 -1.515289 32.494505 35.415296 -0.107800 0.408979 0.022502 -0.006752 169913.000000 0 0 1
14.526638 -2.765789 32.960975 36.126149 -0.188142 0.421722 0.029795 -0.011168 -86792.400000 0 0 1
14.781038 -3.720089 31.794605 35.259255 -0.246559 0.447023 0.028015 -0.007168 -1038350.000000 0 0 1
15.014638 -5.107489 32.098335 35.802638 -0.327888 0.458911 0.029943 -0.006700 683418.000000 0 0 1
16.154838 -5.590289 32.842594 37.025209 -0.333146 0.479917 0.017993 -0.009268 1447000.000000 0 0 1
17.587438 -5.096189 32.421405 37.234884 -0.282039 0.514118 0.025011 -0.005538 87630.400000 0 0 1
17.700938 -3.670889 32.589295 37.267422 -0.204485 0.506451 0.030903 -0.008171 163483.000000 0 0 1
18.623438 -3.045989 31.681805 36.876107 -0.162121 0.537206 0.043136 -0.017856 -22848.800000 0 0 1
18.560438 -1.490589 31.708925 36.771832 -0.080138 0.530971 0.054243 -0.017224 -163056.000000 0 0 1
19.155138 -0.897589 32.863459 38.049072 -0.046825 0.528206 0.038119 -0.021073 180699.000000 0 0 1
19.002638 0.534911 32.915180 38.010465 0.028142 0.523749 0.036549 -0.011791 -206156.000000 0 0 1
19.867038 1.444911 32.034975 37.723024 0.072601 0.556299 0.048887 -0.017584 -473767.000000 0 0 1
19.810038 1.323511 30.604635 36.480583 0.066711 0.575483 0.048343 -0.017640 95218.300000 0 0 1
20.797838 2.123711 29.962215 36.534840 0.101759 0.609211 0.040008 -0.015405 212808.000000 0 0 1
20.487138 3.635411 29.801285 36.346329 0.175620 0.609515 0.040133 -0.012624 -186303.000000 0 0 1
20.310638 4.300911 31.055165 37.355630 0.208674 0.589285 0.045057 -0.011856 392975.000000 0 0 1
19.493538 5.447011 30.980875 37.006520 0.272477 0.578702 0.049241 -0.011102 -288405.000000 0 0 1
19.372138 6.092711 32.359845 38.204193 0.304714 0.560436 0.049361 -0.006423 17582.700000 0 0 1
18.457838 5.470411 33.265090 38.434143 0.288126 0.524631 0.036267 -0.006130 487144.000000 0 0 1
18.603138 5.984011 -34.184097 39.375597 0.311214 2.622268 0.033297 -0.000191 187831.000000 0 0 1
17.379438 5.467711 -33.382658 38.030811 0.304804 2.642003 0.023346 -0.000856 114545.000000 0 0 1
17.329338 4.041111 -33.259978 37.720852 0.229101 2.650334 0.025835 -0.004978 -57027.000000 0 0 1
16.236138 3.501411 -32.551648 36.544245 0.212403 2.669781 0.014251 -0.003716 -94929.500000 0 0 1
16.015638 1.995311 -32.785788 36.542986 0.123947 2.684148 0.024749 -0.012596 -221175.000000 0 0 1
17.048938 1.281111 -32.152658 36.415669 0.075002 2.652873 0.028314 -0.012275 90056.600000 0 0 1
16.895838 -0.115789 -32.495888 36.626022 -0.006853 2.662113 0.032015 -0.015393 -8223.240000 0 0 1
18.026438 -1.010789 -31.890808 36.646935 -0.056014 2.626440 0.025654 -0.017470 52781.500000 0 0 1
18.037638 -1.127989 -30.465608 35.422903 -0.062454 2.606172 0.036843 -0.019652 264398.000000 0 0 1
17.988738 0.066811 -29.698188 34.721485 0.003714 2.596976 0.029847 -0.015588 -557761.000000 0 0 1
17.814438 -0.172989 -28.213688 33.367594 -0.009710 2.578375 0.037106 -0.019423 905687.000000 0 0 1
16.509038 -0.682889 -27.853308 32.385513 -0.041341 2.606173 0.045362 -0.020866 862161.000000 0 0 1
16.405438 -1.001689 -26.421528 31.116538 -0.060983 2.585104 0.048367 -0.020751 -91834.700000 0 0 1
17.349238 -2.044889 -25.745108 31.112509 -0.117325 2.545408 0.055112 -0.017897 1487160.000000 0 0 1
18.762138 -1.683089 -25.807938 31.951530 -0.089467 2.511073 0.038013 -0.018627 1340400.000000 0 0 1
19.563938 -2.871889 -25.723398 32.445164 -0.145754 2.486230 0.037129 -0.010277 59525.300000 0 0 1
20.320238 -3.146189 -27.003178 33.940864 -0.153611 2.490785 0.037786 -0.016931 -630900.000000 0 0 1
21.425938 -2.286589 -27.139308 34.653158 -0.106318 2.470544 0.028617 -0.011124 -392103.000000 0 0 1
21.904638 -2.447389 -28.445748 35.985601 -0.111268 2.482382 0.027757 -0.014819 -374574.000000 0 0 1
23.363938 -1.988389 -28.605898 36.988170 -0.084900 2.454951 0.026643 -0.020113 -258458.000000 0 0 1
24.241838 -3.078689 -28.365518 37.439921 -0.126323 2.430467 0.024986 -0.016868 -1090470.000000 0 0 1
25.535638 -2.637889 -28.612798 38.441117 -0.102937 2.410324 0.016719 -0.013016 -547169.000000 0 0 1
26.538138 -3.796489 -28.290968 38.975184 -0.142094 2.383097 0.002884 -0.004973 -3471.470000 0 0 1
26.321138 -4.926289 -29.127528 39.566192 -0.185020 2.398193 0.008177 -0.010162 478383.000000 0 0 1
27.251938 -5.995389 -28.876628 40.155603 -0.216549 2.373329 0.005250 -0.005997 328583.000000 0 0 1
26.960338 -6.985089 -27.683408 39.268593 -0.253513 2.353185 -0.016569 0.000217 -215732.000000 0 0 1
27.280038 -6.454389 -26.442708 38.536689 -0.232325 2.327007 -0.023763 0.009379 218738.000000 0 0 1
26.686738 -7.208989 -25.405368 37.544430 -0.263837 2.314033 -0.041028 0.017849 -204391.000000 0 0 1
26.738938 -6.584089 -24.013258 36.537072 -0.241433 2.287934 -0.045926 0.023087 -744899.000000 0 0 1
28.035938 -6.408589 -23.538258 37.163604 -0.224724 2.256695 -0.041302 0.025644 -266460.000000 0 0 1
28.042838 -5.884189 -22.226558 36.263540 -0.206828 2.230544 -0.030513 0.013103 -189690.000000 0 0 1
29.420538 -5.512389 -21.640258 36.935826 -0.185218 2.196772 -0.016632 0.013511 -239700.000000 0 0 1
29.844138 -4.291089 -22.176858 37.428586 -0.142805 2.204969 0.006112 0.009260 -2620.180000 0 0 1
31.156438 -3.905389 -21.829558 38.242716 -0.124697 2.178296 0.020560 0.008242 79235.600000 0 0 1
31.659638 -2.649589 -22.579258 38.976607 -0.083495 2.188669 0.030943 -0.002010 -112078.000000 0 0 1
31.128738 -1.396589 -22.174858 38.244910 -0.044835 2.189294 0.019002 -0.002329 -85843.400000 0 0 1
31.629438 -0.324989 -22.878458 39.037813 -0.010275 2.196983 0.036980 -0.005859 73798.700000 0 0 1
30.710138 0.939311 -22.749158 38.229819 0.030577 2.208141 0.035952 -0.002034 -783435.000000 0 0 1
29.522138 0.824811 -23.409158 37.685881 0.027931 2.241025 0.031774 -0.002027 -1186240.000000 0 0 1
28.616738 1.835911 -23.045158 36.788145 0.064067 2.247760 0.033760 0.002961 -488868.000000 0 0 1
27.267538 1.605111 -23.721258 36.177246 0.058797 2.285900 0.013584 0.004639 -428716.000000 0 0 1
26.274638 2.578111 -23.398858 35.277611 0.097809 2.295987 0.013039 0.005552 534871.000000 0 0 1
25.315938 2.699411 -24.439458 35.291226 0.106228 2.335756 0.011231 0.000472 18274.500000 0 0 1
24.268338 3.822611 -24.269058 34.533343 0.156231 2.350082 0.015074 0.002178 -290926.000000 0 0 1
24.800738 5.090811 -23.992158 34.880032 0.202456 2.329316 0.022450 0.002229 192706.000000 0 0 1
23.736638 5.997311 -23.771858 34.124727 0.247481 2.341467 0.009286 0.008470 -238164.000000 0 0 1
24.127938 7.370811 -23.210258 34.281224 0.296485 2.314549 0.010309 0.006092 -201600.000000 0 0 1
24.908738 8.170611 -24.096658 35.606924 0.316963 2.314123 0.011572 0.004625 245265.000000 0 0 1
25.129638 9.465211 -23.582358 35.738167 0.360221 2.291435 0.017550 0.005354 87126.700000 0 0 1
25.958538 10.445511 -24.530258 37.211396 0.382567 2.290569 0.027039 0.005940 141153.000000 0 0 1
25.449138 10.823411 -25.804088 37.824011 0.402121 2.321583 0.028977 -0.007359 -197261.000000 0 0 1
24.257238 11.556211 -25.784248 37.239590 0.444592 2.335590 0.037870 -0.011652 -175884.000000 0 0 1
23.774338 11.857311 -27.229208 38.042670 0.462642 2.368500 0.034484 -0.010096 -81344.800000 0 0 1
23.319438 10.770311 -28.021818 38.013394 0.432673 2.399649 0.037842 -0.006249 503535.000000 0 0 1
24.332438 9.898511 -28.521448 38.775264 0.386357 2.397286 0.032626 -0.008844 470048.000000 0 0 1
25.168338 10.373011 -29.779378 40.346697 0.390932 2.401027 0.028389 -0.004861 96244.700000 0 0 1
26.204238 11.322011 -29.526918 41.069319 0.407842 2.373091 0.019547 -0.001572 1174470.000000 0 0 1
26.947738 11.753911 -30.701908 42.508142 0.411297 2.377860 0.012230 -0.000641 922651.000000 0 0 1
28.019838 10.786711 -31.303018 43.374456 0.367480 2.377041 0.014101 -0.002527 83355.900000 0 0 1
27.370138 9.777511 -32.069138 43.279947 0.343104 2.405310 0.010962 0.001360 510085.000000 0 0 1
28.311138 8.923911 -32.658418 44.133083 0.305350 2.403865 0.012834 -0.000303 66513.500000 0 0 1
27.562738 7.700111 -33.312728 43.917355 0.272421 2.431854 0.012336 0.003285 642004.000000 0 0 1
26.680738 7.029411 -32.392688 42.550683 0.257610 2.436070 0.018475 -0.000204 680511.000000 0 0 1
26.000638 5.937411 -33.070008 42.484250 0.224507 2.462919 0.007518 -0.000557 168514.000000 0 0 1
24.705538 5.364911 -32.426988 41.117581 0.213834 2.479391 0.015037 -0.000585 404326.000000 0 0 1
23.537338 6.133811 -32.657538 40.720323 0.254929 2.501426 0.021606 -0.000841 183323.000000 0 0 1
23.345738 7.103911 -31.636088 39.954113 0.295389 2.484564 0.029151 -0.001561 -574603.000000 0 0 1
21.973738 7.784911 -31.554778 39.232054 0.340485 2.505312 0.036057 -0.002312 -206332.000000 0 0 1
21.597738 8.684411 -32.566228 40.030495 0.382314 2.521003 0.032888 0.002579 117546.000000 0 0 1
20.199938 8.883811 -32.482488 39.269220 0.414334 2.544857 0.029576 0.004922 -104310.000000 0 0 1
19.690638 9.772811 -33.608138 40.158885 0.460697 2.562353 0.026706 0.011488 -292561.000000 0 0 1
19.391338 9.089911 33.929362 40.122962 0.438346 0.563043 0.030572 0.006208 -81172.800000 0 0 1
19.059438 10.132111 33.034922 39.461727 0.488612 0.578766 0.020696 0.005078 -393082.000000 0 0 1
18.164738 9.768811 31.860095 37.953300 0.493420 0.574516 0.020552 0.003276 -691784.000000 0 0 1
18.542438 8.787211 30.896945 37.089867 0.442548 0.586235 0.023457 -0.007148 291053.000000 0 0 1
19.610038 9.057311 29.959825 36.934801 0.432682 0.624673 0.033209 -0.007818 24766.700000 0 0 1
19.272838 10.061611 28.820665 36.101371 0.481141 0.646286 0.035964 -0.010919 -622312.000000 0 0 1
18.347638 9.503411 27.932005 34.744029 0.477915 0.636911 0.019634 0.000900 -159668.000000 0 0 1
17.094338 10.126711 28.150075 34.455672 0.534814 0.614618 0.006184 0.000294 49936.500000 0 0 1
15.924438 9.365311 27.440215 33.079633 0.531630 0.592549 0.024791 -0.001851 38494.600000 0 0 1
15.743938 9.686311 26.040675 31.934510 0.551551 0.617308 0.029626 -0.001766 -181603.000000 0 0 1
14.517838 9.286611 25.498775 30.776554 0.569078 0.594349 0.041507 -0.000191 -357139.000000 0 0 1
14.283038 7.764711 25.094135 29.900025 0.497941 0.574861 0.049557 -0.006328 -108466.000000 0 0 1
14.185038 7.035811 26.244785 30.651373 0.460444 0.542859 0.040035 -0.009152 23217.500000 0 0 1
13.827938 5.662311 25.935755 29.932207 0.388655 0.522682 0.044119 -0.012637 50231.300000 0 0 1
13.938338 4.897611 27.324085 31.062348 0.337901 0.495664 0.056154 -0.008111 160153.000000 0 0 1
15.264038 4.563411 27.688655 31.944908 0.290507 0.522122 0.035172 -0.010860 233393.000000 0 0 1
15.298738 4.121011 29.029215 33.071580 0.263124 0.499611 0.022811 -0.009529 189213.000000 0 0 1
16.425538 3.109511 29.369565 33.794063 0.187095 0.517468 0.046094 -0.013395 -32623.000000 0 0 1
16.225838 1.712411 29.037385 33.307355 0.105147 0.511929 0.041520 -0.008407 58152.400000 0 0 1
15.271738 1.065711 29.856855 33.552846 0.069670 0.473790 0.032276 -0.007145 32240.600000 0 0 1
15.258138 -0.450889 29.748195 33.436046 -0.029542 0.474099 0.038739 -0.003922 -450516.000000 0 0 1
14.590138 -1.077889 28.645685 32.165342 -0.073744 0.472186 0.040890 -0.009981 -128429.000000 0 0 1
15.060838 -1.126789 27.330825 31.226150 -0.074677 0.504835 0.051327 -0.007555 -1132090.000000 0 0 1
16.236538 -2.110489 27.181165 31.731609 -0.129259 0.542161 0.029305 -0.004003 192910.000000 0 0 1
17.462238 -1.802089 27.806875 32.884640 -0.102835 0.563130 0.034866 -0.009424 265403.000000 0 0 1
18.228838 -0.675389 27.370795 32.892356 -0.037034 0.587855 0.041458 -0.010270 -1135770.000000 0 0 1
19.639438 -0.745989 27.921095 34.144568 -0.037966 0.613337 0.047381 -0.004231 -478938.000000 0 0 1
20.532938 -1.477789 27.092575 34.026357 -0.071848 0.649770 0.033122 -0.001050 -629395.000000 0 0 1
21.851638 -1.366989 27.515445 35.163368 -0.062476 0.672120 0.043051 -0.005275 -285343.000000 0 0 1
22.889738 -1.803689 26.429665 35.010292 -0.078637 0.715277 0.038328 0.000667 -31588.100000 0 0 1
22.719138 -1.180689 25.179325 33.934520 -0.051922 0.734751 0.039344 0.008830 437706.000000 0 0 1
21.898638 -1.924689 24.270685 32.746311 -0.087666 0.735980 0.034106 0.020691 35987.900000 0 0 1
21.815038 -1.232989 22.869245 31.629393 -0.056460 0.762607 0.028581 0.000652 -89103.700000 0 0 1
21.167138 0.023411 22.937345 31.211697 0.001106 0.745283 0.013827 0.007928 250068.000000 0 0 1
21.237338 0.538911 21.618545 30.309675 0.025370 0.776664 0.016774 0.005537 -30294.600000 0 0 1
-30.178392 -27.566403 -10.366658 42.167636 0.740196 1.819187 -0.009021 0.010060 -14099.100000 0 0 1
-29.966922 -26.432303 -9.480158 41.067706 0.722809 1.803739 -0.002597 0.012242 39887.800000 0 0 1
-30.491042 -26.768903 -8.172458 41.389212 0.720485 1.769556 0.015530 -0.000538 -449853.000000 0 0 1
-30.648902 -25.567303 -7.176258 40.552939 0.695249 1.748693 0.049610 -0.009956 267760.000000 0 0 1
-29.464422 -24.894003 -6.769658 39.162378 0.701516 1.744530 0.032572 -0.011974 -103020.000000 0 0 1
-28.682492 -25.575803 -5.767758 38.859672 0.728203 1.719772 0.011550 -0.008015 828625.000000 0 0 1
-27.451202 -24.662203 -5.372158 37.291458 0.731931 1.715358 -0.007610 0.001638 384494.000000 0 0 1
-27.610342 -23.566803 -4.458258 36.573231 0.706551 1.693000 0.009792 -0.009725 -508266.000000 0 0 1
-28.329372 -22.505003 -4.974858 36.520921 0.671320 1.707441 0.031500 -0.017109 -360914.000000 0 0 1
-28.344082 -21.258903 -4.004558 35.656198 0.643520 1.683344 0.028349 -0.022631 -523455.000000 0 0 1
-27.188222 -20.471103 -3.920958 34.258421 0.645380 1.685500 0.032313 -0.029819 -111480.000000 0 0 1
-27.369572 -19.326703 -3.130958 33.651416 0.614834 1.663972 0.045878 -0.023106 -105511.000000 0 0 1
-26.194782 -18.359303 -3.353658 32.163296 0.611314 1.675256 0.041810 -0.023875 61344.100000 0 0 1
-26.431512 -17.563403 -4.464558 32.047312 0.586492 1.710562 0.037930 -0.027744 57584.600000 0 0 1
-25.529762 -16.484603 -4.484258 30.718390 0.573347 1.717299 0.038407 -0.028086 -25366.300000 0 0 1
-25.965622 -15.375403 -5.485258 30.670908 0.534623 1.750606 0.039436 -0.036721 -75329.000000 0 0 1
-27.157902 -14.683703 -5.182158 31.305232 0.495659 1.737098 0.033243 -0.024777 -6381.170000 0 0 1
-27.349452 -13.639003 -6.146058 31.173530 0.462602 1.769253 0.051986 -0.035536 -542680.000000 0 0 1
-28.752452 -13.062203 -5.943158 32.134806 0.426423 1.756812 0.046608 -0.021578 47205.100000 0 0 1
-29.769452 -13.880403 -6.537358 33.490639 0.436296 1.767257 0.048915 -0.020801 -134991.000000 0 0 1
-31.038182 -13.344503 -6.376958 34.381828 0.406046 1.757351 0.034900 -0.018453 -558449.000000 0 0 1
-32.116132 -14.055203 -7.252458 35.799341 0.412525 1.774795 0.016164 -0.017251 -7235.300000 0 0 1
-32.723552 -15.114203 -6.546658 36.635075 0.432685 1.750461 0.020843 -0.023730 84354.500000 0 0 1
-32.811332 -16.246003 -7.366758 37.346824 0.459747 1.769351 0.030132 -0.017066 -349891.000000 0 0 1
-33.795612 -17.319703 -6.794658 38.578270 0.473585 1.747846 0.032823 -0.022922 592079.000000 0 0 1
-35.190997 -17.064703 -6.909058 39.715809 0.451508 1.745648 0.023703 -0.024706 327991.000000 0 0 1
-35.632783 -16.230903 -5.856358 39.590837 0.427422 1.719263 0.038155 -0.021929 -1033800.000000 0 0 1
34.245258 -16.134103 -5.901758 38.312892 -0.440289 1.725453 0.045488 -0.027047 -1092980.000000 0 0 1
33.757128 -15.175003 -6.855758 37.640747 -0.422467 1.753955 0.057438 -0.024569 1010140.000000 0 0 1
32.325698 -15.088603 -6.859458 36.327246 -0.436710 1.760761 0.062850 -0.025018 908626.000000 0 0 1
31.570438 -14.419403 -5.656358 35.165411 -0.428443 1.732348 0.074869 -0.026047 -652020.000000 0 0 1
31.718888 -15.225103 -4.479558 35.467704 -0.447521 1.697434 0.074844 -0.032279 362266.000000 0 0 1
31.139978 -14.560303 -3.368358 34.540505 -0.437374 1.668471 0.075108 -0.029991 -1221460.000000 0 0 1
31.313598 -15.122103 -1.930158 34.827359 -0.449894 1.626245 0.082302 -0.025291 134365.000000 0 0 1
32.621658 -15.264303 -1.387958 36.043001 -0.437655 1.609314 0.091464 -0.020689 549839.000000 0 0 1
33.565998 -16.097703 -2.061058 37.283511 -0.447182 1.626105 0.074250 -0.021992 -489803.000000 0 0 1
33.276338 -17.597403 -2.396258 37.719031 -0.486442 1.634368 0.073381 -0.026364 -853443.000000 0 0 1
33.238308 -18.469703 -1.255858 38.045922 -0.507190 1.603811 0.086872 -0.030133 402227.000000 0 0 1
32.956838 -19.865203 -1.501158 38.510166 -0.542450 1.609787 0.082617 -0.031973 599497.000000 0 0 1
34.100038 -20.603303 -2.322558 39.908682 -0.543503 1.629026 0.070792 -0.034013 715456.000000 0 0 1
34.355638 -20.085403 -3.629858 39.961345 -0.529043 1.661756 0.046330 -0.036535 3725.570000 0 0 1
35.261918 -20.865003 -4.379258 41.205935 -0.534305 1.677275 0.070671 -0.036230 -217390.000000 0 0 1
35.239468 -20.258303 -5.799858 41.059192 -0.521741 1.712526 0.083300 -0.036743 325197.000000 0 0 1
34.033638 -20.379803 -6.558658 40.207473 -0.539547 1.734649 0.064058 -0.042925 555291.000000 0 0 1
33.996758 -19.463603 -7.612558 39.906922 -0.519964 1.762730 0.054509 -0.041443 -145863.000000 0 0 1
32.855038 -19.742603 -8.612758 39.286174 -0.541081 1.791823 0.045022 -0.046041 -124806.000000 0 0 1
33.146068 -20.818403 -9.510958 40.280591 -0.560812 1.809165 0.046478 -0.043543 484240.000000 0 0 1
32.026958 -21.045203 -10.365258 39.699687 -0.581357 1.834949 0.044025 -0.043434 54799.700000 0 0 1
31.897188 -22.385203 -11.053558 40.505667 -0.611928 1.847191 0.048684 -0.033026 -153638.000000 0 0 1
31.631938 -23.343303 -10.050658 40.577149 -0.635755 1.821094 0.037757 -0.033761 -8762.290000 0 0 1
31.401098 -24.597403 -10.701858 41.298801 -0.664493 1.832920 0.032165 -0.020846 -642451.000000 0 0 1
30.737578 -25.640403 -9.852558 41.222589 -0.695233 1.812141 0.034037 -0.018683 -99967.800000 0 0 1
29.435688 -25.198703 -9.515558 39.899626 -0.708001 1.811604 0.031971 -0.020569 8740.580000 0 0 1
28.619058 -26.219603 -8.982958 39.839824 -0.741671 1.798229 0.020389 -0.011783 75626.400000 0 0 1
27.173328 -25.794203 -8.667758 38.455958 -0.759367 1.798144 0.032876 -0.023397 -535716.000000 0 0 1
26.454878 -25.410503 -9.768558 37.960228 -0.765265 1.831061 0.038254 -0.018985 36670.700000 0 0 1
25.129338 -25.061303 -9.376758 36.707984 -0.784043 1.829101 0.047427 -0.020866 278193.000000 0 0 1
24.216138 -24.525603 -10.494158 36.028515 -0.791747 1.866354 0.065908 -0.023882 -142923.000000 0 0 1
23.929838 -25.516003 -11.498858 36.822918 -0.817466 1.888383 0.062178 -0.023591 401609.000000 0 0 1
23.143138 -25.066203 -12.584758 36.363381 -0.825267 1.924190 0.062362 -0.008603 -296504.000000 0 0 1
22.333638 -26.123603 -13.290558 36.849328 -0.863452 1.939786 0.068022 -0.016359 -198427.000000 0 0 1
23.098038 -27.043803 -14.032958 38.233631 -0.863928 1.946612 0.055650 -0.010558 558911.000000 0 0 1
22.312838 -28.226103 -14.190558 38.677481 -0.901873 1.946465 0.061625 -0.013206 296116.000000 0 0 1
23.186838 -29.394003 -14.708358 40.224031 -0.902904 1.945139 0.047988 -0.015346 -9553.460000 0 0 1
23.541038 -29.237903 -16.084758 40.838155 -0.892920 1.975630 0.043677 -0.010081 412616.000000 0 0 1
23.812238 -30.532703 -16.605958 42.131063 -0.908437 1.975939 0.038646 -0.017117 -296975.000000 0 0 1
23.830638 -30.614003 -18.115458 42.816893 -0.909351 2.007651 0.040533 -0.011944 -401018.000000 0 0 1
22.510138 -30.559203 -18.561358 42.250387 -0.935922 2.025636 0.041294 -0.011825 -269067.000000 0 0 1
22.451238 -30.697303 -19.956958 42.949536 -0.939322 2.054048 0.035335 -0.007477 790154.000000 0 0 1
21.040338 -30.216903 -20.480858 42.133390 -0.962551 2.078413 0.031972 -0.009413 790476.000000 0 0 1
20.756138 -30.344303 -21.866258 42.775311 -0.970875 2.107364 0.031501 -0.003621 218865.000000 0 0 1
19.395738 -30.066003 -22.158058 42.084899 -0.997870 2.125285 0.035061 -0.010200 -13520.600000 0 0 1
19.149738 -30.123203 -23.673158 42.831510 -1.004530 2.156402 0.031119 -0.001297 -270205.000000 0 0 1
19.797938 -29.120203 -24.423758 42.853991 -0.973709 2.177217 0.034882 -0.001732 239981.000000 0 0 1
19.505138 -29.320903 -25.786888 43.647787 -0.983789 2.202840 0.032224 0.000332 -290912.000000 0 0 1
20.033138 -28.362503 -26.873258 43.908202 -0.955838 2.229425 0.028578 -0.002982 -122259.000000 0 0 1
19.325538 -27.161803 -27.089978 42.954707 -0.952396 2.253205 0.038701 -0.014659 -277889.000000 0 0 1
18.289138 -27.266103 -28.037498 43.174463 -0.979962 2.277592 0.044404 -0.011938 -178374.000000 0 0 1
17.556938 -25.943703 -28.309008 42.222290 -0.975858 2.305646 0.041642 -0.011303 -414447.000000 0 0 1
16.801738 -25.598003 -27.171588 40.937163 -0.989957 2.296603 0.041156 -0.005404 -345031.000000 0 0 1
16.483238 -24.246503 -27.313908 40.070433 -0.973743 2.320808 0.040363 -0.004989 -217924.000000 0 0 1
15.432538 -23.762603 -26.271488 38.639560 -0.994810 2.318439 0.049249 -0.015402 -148029.000000 0 0 1
14.216138 -24.405703 -26.600578 38.798552 -1.043350 2.326234 0.052981 -0.020281 -358072.000000 0 0 1
13.080138 -24.089803 -25.816918 37.655303 -1.073363 2.326240 0.055165 -0.021043 455007.000000 0 0 1
13.001538 -24.630603 -24.344758 36.991537 -1.085109 2.289111 0.051016 -0.012575 -422985.000000 0 0 1
13.998638 -23.999903 -23.581058 36.442057 -1.042762 2.274549 0.039006 -0.016403 -286164.000000 0 0 1
14.180438 -24.670103 -22.335958 36.174491 -1.049110 2.236294 0.048015 -0.019008 226884.000000 0 0 1
15.349238 -24.123703 -21.490258 35.768469 -1.004132 2.215317 0.047986 -0.027982 149042.000000 0 0 1
15.150738 -22.822703 -21.034858 34.538180 -0.984750 2.225636 0.054779 -0.032730 61666.900000 0 0 1
16.398938 -22.301903 -20.620958 34.518458 -0.936760 2.211038 0.049019 -0.027515 -120311.000000 0 0 1
16.395738 -20.893903 -19.991758 33.242229 -0.905446 2.216044 0.044121 -0.015210 -78039.400000 0 0 1
15.631838 -20.721503 -18.839158 32.072557 -0.924499 2.198629 0.037802 -0.019057 803607.000000 0 0 1
14.245138 -20.407403 -19.037258 31.333740 -0.961389 2.223787 0.038957 -0.020831 541162.000000 0 0 1
13.374638 -20.335903 -17.781158 30.142984 -0.989037 2.201724 0.039949 -0.016389 -158320.000000 0 0 1
13.566338 -19.133003 -16.989358 28.961278 -0.954019 2.197679 0.042755 -0.015256 40940.900000 0 0 1
12.873438 -19.254103 -15.771558 28.021205 -0.981451 2.168618 0.031988 -0.006884 -229617.000000 0 0 1
12.865338 -18.023103 -14.898658 26.689308 -0.950852 2.163042 0.034088 -0.007379 -385295.000000 0 0 1
12.216438 -16.882403 -15.391358 25.906578 -0.944394 2.206955 0.030653 -0.014155 174874.000000 0 0 1
12.439538 -15.802703 -14.553058 24.824565 -0.903923 2.197201 0.031690 -0.009628 550682.000000 0 1 0
11.081138 -15.065603 -14.261158 23.519027 -0.936623 2.222280 0.025490 -0.005635 476445.000000 0 1 0
10.621938 -14.338903 -15.313358 23.514435 -0.933224 2.280003 0.029195 -0.004247 -1167400.000000 0 1 0
9.339638 -13.861903 -15.179458 22.578688 -0.977897 2.308096 0.030310 -0.003578 -739135.000000 0 1 0
8.638038 -13.365703 -16.471858 22.903708 -0.997038 2.373416 0.031226 0.005633 41354.000000 0 1 0
9.051138 -12.096503 -17.017458 22.756150 -0.928420 2.415566 0.032167 0.006941 540276.000000 0 1 0
10.314438 -12.116303 -17.684958 23.789707 -0.865556 2.408916 0.046098 0.000256 578231.000000 0 1 0
10.241638 -10.894603 -18.644958 23.900167 -0.816281 2.465651 0.043910 0.000786 108981.000000 0 1 0
9.393238 -11.078203 -19.751158 24.516683 -0.867521 2.507520 0.040398 0.004299 70260.900000 0 1 0
9.390838 -9.898803 -20.489658 24.617072 -0.811726 2.554104 0.038225 0.002011 121348.000000 0 1 0
9.049538 -10.118503 -21.972458 25.827643 -0.841109 2.588177 0.035911 0.006209 -198887.000000 0 0 1
10.107638 -10.653803 -22.695158 27.032167 -0.811699 2.567271 0.038027 0.001187 -610952.000000 0 0 1
9.791738 -10.649303 -24.054358 28.069520 -0.827327 2.600132 0.048204 0.003408 411437.000000 0 0 1
10.843738 -11.470303 -24.854558 29.443226 -0.813470 2.575778 0.078033 0.002531 193802.000000 0 0 1
10.889538 -12.831203 -24.498558 29.722065 -0.867071 2.539681 0.075520 -0.006545 558527.000000 0 0 1
11.961438 -13.582403 -25.128488 30.967702 -0.848771 2.517411 0.064306 -0.018055 708868.000000 0 0 1
11.848938 -15.109103 -24.772358 31.342496 -0.905749 2.482219 0.056329 -0.020007 -48730.400000 0 0 1
10.782538 -15.815403 -25.375168 31.785048 -0.972407 2.495324 0.064844 -0.027090 -90228.200000 0 0 1
10.608938 -16.993903 -24.661158 31.772866 -1.012716 2.459366 0.065088 -0.026295 -417114.000000 0 0 1
9.437838 -17.790203 -25.201828 32.259824 -1.083042 2.467405 0.074190 -0.033424 -331085.000000 0 0 1
9.707038 -18.429803 -26.439518 33.659060 -1.086015 2.474316 0.074634 -0.035789 -251118.000000 0 0 1
8.579738 -19.135203 -26.876548 34.089833 -1.149295 2.479006 0.070868 -0.034382 -277378.000000 0 0 1
8.848438 -20.008803 -28.163168 35.662461 -1.154425 2.481140 0.055129 -0.033418 170684.000000 0 0 1
9.929438 -20.923803 -28.021238 36.353666 -1.127713 2.450885 0.057479 -0.031264 20251.300000 0 0 1
9.894138 -21.811003 -29.077788 37.671363 -1.144927 2.452590 0.063783 -0.028525 -70919.700000 0 0 1
10.583938 -23.157503 -28.856098 38.483296 -1.142102 2.418608 0.045074 -0.019725 39753.800000 0 0 1
10.400338 -23.956903 -30.012138 39.784779 -1.161221 2.425479 0.041258 -0.012776 -76821.600000 0 0 1
10.957338 -25.259203 -29.934298 40.671277 -1.161499 2.397948 0.041947 -0.006166 -25639.700000 0 0 1
10.320238 -26.347003 -29.033778 40.541733 -1.197462 2.369060 0.037682 -0.005390 -1194.490000 0 0 1
10.882638 -26.387603 -27.708888 39.780898 -1.179634 2.341357 0.041848 -0.008134 -240718.000000 0 0 1
10.017938 -26.879403 -26.706768 39.193276 -1.214044 2.320486 0.032980 -0.002376 518391.000000 0 0 1
8.930738 -25.900403 -26.181658 37.895490 -1.238752 2.333517 0.022917 -0.005076 -291249.000000 0 0 1
9.510138 -24.828303 -25.501668 36.840500 -1.204999 2.335355 0.041766 -0.005192 -1093420.000000 0 0 1
8.594938 -23.850703 -25.375518 35.869847 -1.224918 2.356656 0.029539 -0.003321 -880024.000000 0 0 1
9.251838 -22.498003 -25.047958 34.916427 -1.180647 2.370815 0.047828 -0.015481 278151.000000 0 0 1
10.009738 -22.479503 -23.844858 34.265145 -1.151872 2.340458 0.040462 -0.010609 414275.000000 0 0 1
11.030038 -21.467203 -23.969958 34.015606 -1.096163 2.352762 0.056667 -0.021215 465492.000000 0 0 1
11.760738 -21.333303 -22.559458 33.201716 -1.066967 2.317832 0.044988 -0.015150 494403.000000 0 0 1
10.946138 -20.734703 -21.509958 31.818613 -1.085068 2.313142 0.038014 -0.022647 315039.000000 0 0 1
10.741138 -19.297303 -21.635458 30.916840 -1.062890 2.345907 0.059570 -0.032013 143655.000000 0 0 1
11.953538 -18.381603 -21.305758 30.572957 -0.994211 2.341838 0.053079 -0.022792 -575339.000000 0 0 1
12.969538 -18.393603 -22.215258 31.623587 -0.956648 2.349687 0.055841 -0.033104 -128454.000000 0 0 1
14.042338 -17.543103 -21.749958 31.273126 -0.895782 2.339890 0.052468 -0.023190 1463110.000000 0 0 1
15.320038 -17.220603 -22.609458 32.286844 -0.843738 2.346570 0.038700 -0.017582 920576.000000 0 0 1
16.485138 -17.908003 -22.182558 32.932085 -0.826745 2.309845 0.049224 -0.012178 700476.000000 0 0 1
17.612738 -17.519403 -22.971558 33.835344 -0.782741 2.317090 0.048449 -0.007391 1427600.000000 0 0 1
19.016438 -18.048503 -22.438058 34.508547 -0.759290 2.278667 0.036956 -0.000218 1022630.000000 0 0 1
19.232138 -19.440303 -22.374058 35.332690 -0.790781 2.256528 0.030883 -0.008094 832502.000000 0 0 1
20.597338 -19.697903 -21.999758 36.003431 -0.763081 2.228178 0.022114 -0.000320 793721.000000 0 0 1
20.877138 -21.156303 -21.601358 36.743200 -0.792040 2.199258 0.010485 -0.003258 -226759.000000 0 0 1
20.468238 -21.502703 -20.303958 35.966175 -0.810040 2.170659 0.020186 -0.000283 255115.000000 0 0 1
20.905938 -22.780703 -19.960158 36.802535 -0.828286 2.144038 0.017481 -0.001987 -227400.000000 0 0 1
-16.769662 12.980111 28.845295 35.801618 -0.658700 0.633943 0.018368 -0.015303 232780.000000 0 0 1
-17.914262 13.768111 28.543795 36.403707 -0.655271 0.669567 0.011224 -0.014955 113925.000000 0 0 1
-18.228462 13.662011 27.163535 35.451163 -0.643173 0.697852 0.014241 -0.017842 578216.000000 0 0 1
-19.544162 14.407611 26.748605 36.125356 -0.635247 0.737074 0.022067 -0.020045 534480.000000 0 0 1
-19.445462 15.846011 27.048725 36.889776 -0.683758 0.747735 0.022046 -0.017354 644910.000000 0 0 1
-20.500962 16.601311 26.420645 37.335552 -0.680677 0.784624 0.017838 -0.014152 134522.000000 0 0 1
-20.200962 18.100211 26.738285 38.087168 -0.730605 0.792554 0.012277 0.001076 410030.000000 0 0 1
-19.105962 18.659611 26.042125 37.301624 -0.773580 0.797986 0.023933 -0.005682 735777.000000 0 0 1
-17.837662 18.581311 26.700505 37.099383 -0.805815 0.767423 0.035112 -0.005215 -302557.000000 0 0 1
-16.699662 19.376011 26.131145 36.566996 -0.859450 0.774730 0.050490 -0.011004 -495311.000000 0 0 1
-16.912362 20.762911 26.192435 37.458912 -0.887248 0.796475 0.050468 -0.010711 7308.450000 0 0 1
-15.710162 21.440111 25.914325 37.121958 -0.938429 0.798075 0.066302 -0.014117 35927.700000 0 0 1
-15.930462 22.973911 25.735375 37.998549 -0.964503 0.826747 0.056287 -0.014119 19680.600000 0 0 1
-15.532862 23.691311 26.846635 39.029345 -0.990470 0.812263 0.053651 -0.013423 -81505.200000 0 0 1
-15.555762 25.083211 26.490265 39.659593 -1.015680 0.839358 0.051970 -0.010250 -46183.900000 0 0 1
-14.891662 26.037811 27.545825 40.724706 -1.051276 0.827945 0.039868 -0.005106 -429274.000000 0 0 1
-13.499762 26.084911 27.502275 40.237312 -1.093222 0.818247 0.030883 -0.011262 -811661.000000 0 0 1
-13.063462 27.031411 28.471495 41.376046 -1.120622 0.811908 0.049855 -0.007894 -411013.000000 0 0 1
-11.545562 27.136011 28.508255 41.016871 -1.168528 0.802325 0.052067 -0.009507 -340468.000000 0 0 1
-10.940462 27.750011 27.403635 40.505753 -1.195256 0.827747 0.053461 -0.015593 -547881.000000 0 0 1
-9.552662 27.834511 27.516905 40.288874 -1.240197 0.818948 0.035442 -0.013117 -523038.000000 0 0 1
-8.819562 28.572111 26.364425 39.865186 -1.271398 0.848193 0.045087 -0.021463 -33155.400000 0 0 1
-7.467162 28.178611 26.296245 39.259204 -1.311756 0.836842 0.032645 -0.015755 -184643.000000 0 0 1
-6.824262 28.480111 25.131935 38.591468 -1.335615 0.861592 0.049177 -0.016794 99623.700000 0 0 1
-5.285662 28.281211 25.225245 38.263273 -1.386031 0.850969 0.032457 -0.016521 -442589.000000 0 0 1
-4.564662 29.221911 25.961075 39.353953 -1.415842 0.850401 0.041720 -0.016156 -518723.000000 0 0 1
-3.176762 29.034811 25.933925 39.059960 -1.461818 0.844705 0.027473 -0.016845 39135.200000 0 0 1
-2.520462 29.739711 24.703095 38.743335 -1.486248 0.879406 0.022676 -0.015454 -527483.000000 0 0 1
-2.879662 29.105011 23.467745 37.498389 -1.472177 0.894597 0.018665 -0.009112 -207863.000000 0 0 1
-2.463562 29.936111 22.461045 37.506511 -1.488687 0.928723 0.011933 -0.014443 -257168.000000 0 0 1
-2.934962 29.459711 21.037745 36.319076 -1.471498 0.952991 0.008911 -0.007825 710561.000000 0 0 1
-4.339462 29.604611 20.863745 36.476839 -1.425252 0.961888 0.006289 0.002730 239184.000000 0 0 1
-5.075462 28.438311 21.231545 35.850751 -1.394183 0.936985 0.024520 0.001513 949485.000000 0 0 1
-6.616362 28.629011 20.899045 36.057823 -1.343677 0.952561 0.023074 -0.004547 878381.000000 0 0 1
-6.927162 28.726111 19.494545 35.400739 -1.334169 0.987615 0.022579 -0.003675 523022.000000 0 0 1
-7.800762 27.688911 18.989945 34.469489 -1.296185 0.987330 0.003670 0.003787 -23119.700000 0 0 1
-7.078462 26.267311 18.811445 33.074865 -1.307571 0.965807 -0.012130 0.006789 1025670.000000 0 0 1
-6.167762 26.114211 17.696545 32.142822 -1.338863 0.987762 -0.007013 0.009376 369267.000000 0 0 1
-4.971962 26.847711 17.730045 32.555713 -1.387680 0.994877 0.002207 0.005817 -580679.000000 0 0 1
-4.316962 26.945611 16.340245 31.807321 -1.411936 1.031274 -0.006052 0.004864 -69266.300000 0 0 1
-3.719862 25.718311 15.931445 30.480811 -1.427154 1.020815 0.012271 0.000213 -103532.000000 0 0 1
-2.840562 25.947511 14.870545 30.041225 -1.461757 1.052956 0.030482 -0.013894 58699.300000 0 0 1
-2.195962 24.708311 14.136345 28.550991 -1.482154 1.052816 0.018078 -0.006938 285806.000000 0 0 1
-1.337862 24.051811 15.065145 28.411935 -1.515229 1.011913 0.013474 -0.009867 27740.000000 0 0 1
-0.540562 23.077411 14.406545 27.210432 -1.547377 1.012845 0.018100 -0.023633 -439995.000000 0 0 1
0.622838 22.564411 15.260545 27.247473 1.543201 0.976324 0.008189 -0.020646 283605.000000 0 0 1
1.630038 23.581611 15.368445 28.194653 1.501783 0.994307 0.023298 -0.027114 829234.000000 0 0 1
2.920038 23.124611 15.781045 28.148101 1.445187 0.975634 0.025729 -0.025832 92448.200000 0 0 1
4.018338 24.166911 15.737045 29.117713 1.406029 0.999809 0.024610 -0.024225 -130453.000000 0 0 1
5.273338 23.522211 15.935145 28.896909 1.350257 0.986697 0.038756 -0.024075 -35475.100000 0 0 1
6.295138 24.491811 16.006245 29.927870 1.319212 1.006493 0.055891 -0.023758 65559.000000 0 0 1
7.742238 23.937111 16.098345 29.867779 1.257975 1.001562 0.064845 -0.024506 286788.000000 0 0 1
8.292238 23.369611 14.911745 28.935446 1.229825 1.029386 0.048288 -0.014378 63865.200000 0 0 1
9.062138 24.257011 14.125745 29.496806 1.213264 1.071406 0.050213 -0.014088 -747788.000000 0 0 1
9.591438 23.586311 12.866545 28.528191 1.184568 1.102898 0.041892 -0.009458 -559978.000000 0 0 1
10.774238 22.866411 13.046645 28.445947 1.130468 1.094324 0.041784 -0.005615 -392387.000000 0 0 1
10.896638 21.988711 11.965745 27.302366 1.110710 1.117126 0.023013 -0.004379 1061200.000000 0 0 1
12.239438 21.134611 11.887245 27.162146 1.045873 1.117824 0.046928 -0.002225 1185570.000000 0 0 1
12.298938 20.222111 12.925745 26.967991 1.024375 1.070940 0.042166 -0.006595 -373308.000000 0 0 1
13.569938 19.643011 12.932345 27.152102 0.966253 1.074363 0.043369 -0.005892 -570627.000000 0 0 1
13.757338 18.723011 14.174745 27.216518 0.937106 1.022992 0.049322 -0.014417 -2328.010000 0 0 1
15.073738 18.236211 14.394545 27.694401 0.880055 1.024222 0.047027 -0.009676 389175.000000 0 0 1
15.252438 17.894211 15.757045 28.304136 0.864930 0.980383 0.033370 -0.021206 146585.000000 0 0 1
16.544038 17.044011 15.837945 28.548975 0.800283 0.982717 0.020297 -0.021232 -31014.000000 0 0 1
17.009938 16.623311 17.080445 29.281633 0.773903 0.947991 0.022590 -0.020072 125533.000000 0 0 1
18.173738 15.845611 16.796645 29.385292 0.717069 0.962341 0.014893 -0.018236 168111.000000 0 0 1
18.841838 15.346311 18.073745 30.285052 0.683508 0.931305 0.018558 -0.012970 -18412.900000 0 0 1
19.515138 16.299611 18.960445 31.717761 0.695856 0.930059 0.016380 -0.008916 424439.000000 0 0 1
18.628438 17.188411 19.595945 32.038433 0.745215 0.912666 0.004952 -0.006205 -592399.000000 0 0 1
19.199138 18.224511 20.597345 33.540875 0.759361 0.909555 -0.010040 0.004683 -432208.000000 0 0 1
18.273738 19.136511 21.162445 33.881922 0.808457 0.896185 0.008252 0.016501 38837.600000 0 0 1
18.904338 20.195911 21.798045 35.219363 0.818419 0.903427 -0.004632 0.021899 -307508.000000 0 0 1
17.827038 21.199211 22.245345 35.525557 0.871592 0.894154 0.005130 0.020005 194595.000000 0 0 1
17.192038 20.895211 23.497445 35.837214 0.882322 0.855725 0.003737 0.022098 175027.000000 0 0 1
16.443938 22.015811 23.895945 36.415865 0.929273 0.855030 0.002417 0.009224 -352807.000000 0 0 1
15.625438 21.859211 25.163325 36.812665 0.950192 0.818180 0.020771 0.010065 -24609.200000 0 0 1
14.486838 21.033611 25.086955 35.799952 0.967663 0.794343 0.019857 0.005377 -76377.400000 0 0 1
13.797638 20.839711 26.332585 36.305280 0.985973 0.759312 0.022779 0.002297 499885.000000 0 0 1
12.853038 19.610011 26.206875 35.164661 0.990612 0.729869 0.044802 -0.005194 122660.000000 0 0 1
13.558438 18.391611 26.250895 34.802185 0.935533 0.716226 0.028851 -0.001731 130806.000000 0 0 1
14.188138 17.937211 25.046935 33.917484 0.901574 0.740003 0.029828 -0.002144 265942.000000 0 0 1
13.258538 17.668411 23.797635 32.469816 0.927033 0.748199 0.052543 -0.009953 -225514.000000 0 0 1
12.929638 18.798211 23.024545 32.414162 0.968297 0.780838 0.054815 -0.004831 -434827.000000 0 0 1
13.959038 19.331211 22.255245 32.616658 0.945393 0.819855 0.039767 -0.001618 -277675.000000 0 0 1
14.624538 18.432711 21.181145 31.658851 0.900092 0.837875 0.040995 -0.003287 -467570.000000 0 0 1
13.778638 18.108211 20.120745 30.374373 0.920352 0.846745 0.055770 -0.016432 -225000.000000 0 0 1
14.326038 17.086711 19.324945 29.506686 0.873057 0.856700 0.046597 -0.019013 -377588.000000 0 0 1
13.246538 16.313011 18.596645 28.061010 0.888767 0.846349 0.035408 -0.011334 -589955.000000 0 0 1
12.663138 17.043411 17.551745 27.548079 0.931795 0.880026 0.054164 -0.014231 17624.000000 0 0 1
11.515838 16.369811 17.049345 26.291926 0.957738 0.865233 0.035163 -0.012680 141412.000000 0 0 1
10.973538 16.947311 15.757545 25.611132 0.996174 0.908079 0.034277 -0.009743 -378639.000000 0 0 1
10.200138 18.086111 15.953345 26.185099 1.057286 0.915678 0.034734 -0.014301 -124397.000000 0 0 1
9.861738 18.763811 14.758045 25.828944 1.086901 0.962615 0.021681 -0.001821 172399.000000 0 0 1
8.763838 19.848911 15.041145 26.401139 1.155011 0.964636 0.028503 -0.003525 702193.000000 0 0 1
7.430038 19.361311 15.129445 25.670331 1.204371 0.940512 0.006351 -0.006032 141943.000000 0 0 1
6.559338 20.467711 15.059145 26.243665 1.260665 0.959633 0.022636 -0.012636 -386148.000000 0 0 1
5.166238 20.320511 15.639845 26.157559 1.321833 0.929906 0.022522 -0.010780 -369201.000000 0 0 1
4.242938 19.494611 14.951845 24.931908 1.356492 0.927661 0.018944 -0.018729 -807368.000000 0 1 0
3.166038 19.194311 15.767645 25.041246 1.407322 0.889672 0.014812 -0.018630 -679406.000000 0 0 1
2.067238 18.525211 14.939945 23.888467 1.459666 0.895147 0.009167 -0.017372 113850.000000 0 1 0
1.248938 19.449211 14.185345 24.105096 1.506669 0.941620 0.008109 -0.022551 272286.000000 0 1 0
0.377338 18.784011 13.298845 23.018269 1.550711 0.954825 0.008361 -0.024308 342663.000000 0 1 0
-0.631762 19.668711 12.500545 23.313535 -1.538687 1.004876 0.019098 -0.027079 162163.000000 0 1 0
-1.626962 20.302611 13.219945 24.281885 -1.490832 0.995079 0.010492 -0.020844 151161.000000 0 1 0
-2.757062 20.674711 12.414645 24.272793 -1.438224 1.033909 0.012416 -0.022619 976790.000000 0 1 0
-4.003462 21.287211 13.087945 25.307456 -1.384899 1.027270 0.012141 -0.021240 183125.000000 0 0 1
-4.536362 20.459311 14.073645 25.243404 -1.352600 0.979404 0.018412 -0.023521 57735.000000 0 0 1
-5.661462 21.056611 14.704845 26.299534 -1.308139 0.977461 0.004659 -0.013508 -590977.000000 0 0 1
-6.370862 20.289811 15.812145 26.500721 -1.266552 0.931453 0.004805 -0.007409 -1162750.000000 0 0 1
-7.296062 19.399011 15.247145 25.729935 -1.211057 0.936534 0.017256 -0.008869 -209478.000000 0 0 1
-8.214062 18.869411 16.163545 26.168410 -1.160225 0.905015 0.013829 0.002110 -47717.900000 0 0 1
-9.318062 19.774811 16.758345 27.544719 -1.130446 0.916747 0.008582 0.013782 -311893.000000 0 0 1
-10.377562 20.035311 15.850345 27.574280 -1.092881 0.958408 0.010030 0.005143 847081.000000 0 0 1
-11.628062 19.433211 16.224245 27.858349 -1.031583 0.949139 0.012278 0.010946 947851.000000 0 0 1
-12.782262 19.537911 15.181045 27.849242 -0.991454 0.994270 0.008449 0.005112 386061.000000 0 0 1
-13.330462 20.869611 15.056045 28.981483 -1.002370 1.024524 0.000573 0.004413 94071.900000 0 0 1
-14.375462 20.891911 14.116545 29.024174 -0.968110 1.062864 0.008987 -0.009750 -664466.000000 0 0 1
-15.297662 22.083411 14.290345 30.428760 -0.964972 1.081921 0.007141 -0.010151 -917183.000000 0 0 1
-16.399862 21.769611 15.073245 31.146013 -0.925163 1.065629 0.019785 -0.017415 -1220800.000000 0 0 1
-17.233062 22.850611 15.182245 32.397984 -0.924637 1.083072 0.027598 -0.025299 -828841.000000 0 0 1
-18.499962 22.534611 15.966345 33.241261 -0.883406 1.069780 0.052695 -0.033110 -1574470.000000 0 0 1
-19.249862 21.475611 15.388445 32.688886 -0.839996 1.080650 0.055818 -0.028184 -466212.000000 0 0 1
-20.460862 21.283211 16.028445 33.593645 -0.805095 1.073413 0.051506 -0.025194 -659616.000000 0 0 1
-21.550562 22.344611 16.009745 34.928789 -0.803486 1.094654 0.049211 -0.028156 -1895840.000000 0 0 1
-22.314262 22.436111 14.862145 34.959816 -0.788121 1.131701 0.060193 -0.026280 -122322.000000 0 0 1
-23.050662 23.627411 14.739945 36.150429 -0.797753 1.150820 0.066676 -0.030628 -76290.400000 0 0 1
-22.350862 24.798711 13.957245 36.184828 -0.837268 1.174807 0.054722 -0.028887 -646297.000000 0 0 1
-21.270762 25.333511 14.622045 36.166784 -0.872354 1.154589 0.046608 -0.030086 -616471.000000 0 0 1
-20.765662 26.451911 13.914645 36.394143 -0.905248 1.178478 0.032359 -0.020089 344007.000000 0 0 1
-19.245262 26.686511 14.155445 35.817965 -0.946009 1.164505 0.032126 -0.015021 548413.000000 0 0 1
-18.361862 25.965711 13.291645 34.468013 -0.955282 1.174914 0.032667 -0.016705 -426211.000000 0 0 1
-17.042562 26.324211 13.563845 34.167102 -0.996244 1.162566 0.011061 -0.005881 -980888.000000 0 0 1
-16.060362 25.852211 12.496245 32.900276 -1.014907 1.181193 0.020664 -0.016416 -587473.000000 0 0 1
-14.787462 26.347911 12.839845 32.828997 -1.059366 1.168956 0.016036 -0.008372 -341574.000000 0 0 1
-13.846062 25.781811 11.945345 31.608645 -1.077952 1.183254 0.017789 -0.013490 118869.000000 0 0 1
-12.389262 26.229411 12.169745 31.457567 -1.129519 1.173570 0.009295 -0.008065 39297.500000 0 0 1
-11.349862 25.702911 11.344745 30.301192 -1.154967 1.187047 0.003606 -0.008076 1300940.000000 0 0 1
-10.082462 26.292111 11.709045 30.496440 -1.204613 1.176728 0.012920 -0.003426 668187.000000 0 0 1
-9.614962 27.635211 11.080645 31.287906 -1.235972 1.208790 0.019516 -0.011506 -402824.000000 0 0 1
-8.384362 28.087911 11.597445 31.523467 -1.280712 1.194048 0.029093 -0.019781 143687.000000 0 0 1
-8.051862 29.373511 11.052245 32.400428 -1.303249 1.222694 0.039039 -0.022634 173436.000000 0 0 1
-6.776162 29.987111 11.715445 32.899769 -1.348560 1.206711 0.032919 -0.022082 332435.000000 0 0 1
-5.604562 29.371311 11.292845 31.962687 -1.382245 1.209686 0.041543 -0.023280 -1173620.000000 0 0 1
-4.413862 29.764511 11.860245 32.343062 -1.423576 1.195335 0.041482 -0.029397 -736836.000000 0 0 1
-3.190762 29.227511 11.126745 31.436170 -1.462057 1.209008 0.054574 -0.037722 -424943.000000 0 0 1
-2.997562 29.816511 9.862545 31.548050 -1.470599 1.252847 0.063800 -0.043618 601569.000000 0 0 1
-1.817462 29.347711 9.190445 30.806746 -1.508947 1.267858 0.058222 -0.040968 742593.000000 0 0 1
-1.551462 30.109111 7.849745 31.154198 -1.519314 1.316087 0.050301 -0.037885 -270489.000000 0 0 1
-2.374162 29.694311 6.823145 30.560498 -1.491013 1.345632 0.062565 -0.043797 -180687.000000 0 0 1
-2.183162 30.535711 5.725145 31.144391 -1.499422 1.385919 0.057582 -0.038085 -17745.900000 0 0 1
10.985038 -34.101203 -27.035588 44.883027 -1.259162 2.217246 0.046403 -0.016142 113464.000000 0 0 1
11.620138 -34.270403 -25.790338 44.436805 -1.243890 2.189994 0.034694 -0.015762 -133960.000000 0 0 1
12.689838 -33.397503 -25.581458 43.941281 -1.207681 2.192196 0.041434 -0.011057 -339583.000000 0 0 1
13.157838 -33.401903 -24.115858 43.248011 -1.195538 2.162310 0.029974 0.000914 -408474.000000 0 0 1
12.343738 -32.678203 -23.192858 41.930198 -1.209629 2.156913 0.035335 -0.001180 514863.000000 0 0 1
12.886638 -32.701903 -21.864958 41.395124 -1.195418 2.127277 0.018349 -0.002072 1115640.000000 0 0 1
14.365638 -32.157903 -21.615358 41.324641 -1.150672 2.121236 0.004977 -0.001027 1127620.000000 0 0 1
15.311938 -33.150803 -21.971058 42.616412 -1.138101 2.112450 0.024881 0.006747 -823333.000000 0 0 1
16.604138 -32.702703 -21.701458 42.615930 -1.100984 2.105090 0.026287 0.003245 -546277.000000 0 0 1
17.668738 -33.752703 -22.082158 44.034656 -1.088545 2.096096 0.010368 0.010727 -568563.000000 0 0 1
18.961138 -33.460103 -21.627958 44.123370 -1.055238 2.083081 0.026147 0.008803 208826.000000 0 0 1
19.780638 34.205211 -21.921258 45.186410 1.046491 2.077308 0.015753 0.015676 178082.000000 0 0 1
21.273338 34.205911 -21.527358 45.673038 1.014415 2.061602 0.030034 0.016737 75991.200000 0 0 1
22.051738 -33.774403 -22.399158 46.137964 -0.992376 2.077711 0.022709 0.016474 -245764.000000 0 0 1
23.396438 -34.010103 -22.077658 46.813496 -0.968220 2.061911 0.017748 0.013731 -177437.000000 0 0 1
24.363038 -33.204503 -23.017358 47.179396 -0.937792 2.080443 0.029508 0.008039 55131.800000 0 0 1
24.338938 -31.794803 -23.080658 46.216990 -0.917448 2.093700 0.031564 0.006223 -750972.000000 0 0 1
23.232938 -31.204003 -23.698858 45.553212 -0.930792 2.117935 0.026014 0.012747 -487728.000000 0 0 1
23.218538 -29.627403 -23.765858 44.516284 -0.906083 2.133966 0.030424 -0.011276 -493007.000000 0 0 1
24.035438 -29.076203 -24.746358 45.116628 -0.880024 2.151363 0.030776 -0.006728 -338039.000000 0 0 1
24.019138 -27.692703 -24.563358 44.126674 -0.856318 2.161151 0.031154 -0.010623 159972.000000 0 0 1
24.705938 -26.977403 -25.792588 44.759594 -0.829320 2.184926 0.025069 -0.009042 309108.000000 0 0 1
23.960538 -27.017003 -26.988428 45.082159 -0.845284 2.212611 0.023115 -0.011922 -368864.000000 0 0 1
24.557638 -26.230003 -28.005538 45.556567 -0.818315 2.232855 0.016064 -0.012303 -253573.000000 0 0 1
23.532038 -25.844103 -29.066998 45.459486 -0.832190 2.264520 0.011118 -0.007793 465586.000000 0 0 1
22.774738 -24.645903 -28.801968 44.222874 -0.824837 2.280081 0.028682 -0.011851 615413.000000 0 0 1
21.467738 -24.831603 -28.243658 43.303308 -0.857925 2.281317 0.017570 -0.011084 350765.000000 0 0 1
20.840538 -23.495303 -27.864418 41.985510 -0.845205 2.296507 0.023118 -0.008902 -243967.000000 0 0 1
20.438038 -22.779903 -29.027888 42.181224 -0.839533 2.329761 0.031998 -0.009549 28952.700000 0 0 1
19.924338 -21.521403 -28.655668 41.003626 -0.823913 2.344594 0.036704 0.000381 -197309.000000 0 0 1
18.866238 -20.975303 -29.641798 40.921076 -0.838285 2.380909 0.045311 -0.008335 1114010.000000 0 0 1
17.610238 -21.701403 -29.563438 40.682530 -0.889095 2.384282 0.033343 -0.014551 475392.000000 0 0 1
16.656338 -21.182703 -30.413038 40.633649 -0.904454 2.416547 0.023108 -0.019902 -236866.000000 0 0 1
15.395438 -22.082103 -30.486828 40.670450 -0.961958 2.418264 0.025450 -0.023809 -61261.700000 0 0 1
15.674038 -23.265803 -31.252748 41.996516 -0.977944 2.410095 0.017881 -0.011981 -101511.000000 0 0 1
14.685338 -24.244603 -31.071058 42.057943 -1.026185 2.402037 0.026721 -0.013571 -282389.000000 0 0 1
15.294338 -25.647803 -31.176408 43.170534 -1.033086 2.377729 0.031138 -0.005853 -571492.000000 0 0 1
14.392338 -26.629703 -30.792688 43.179510 -1.075306 2.364752 0.044975 -0.004327 -375837.000000 0 0 1
14.855738 -27.973903 -30.943388 44.280080 -1.082613 2.344530 0.051667 -0.008922 132332.000000 0 0 1
14.080538 -29.044303 -30.110408 44.141474 -1.119386 2.321474 0.055609 -0.015591 198133.000000 0 0 1
14.290538 -29.118603 -28.693188 43.306022 -1.114560 2.295039 0.068188 -0.022363 -164388.000000 0 0 1
13.973438 -27.962003 -27.947568 41.930862 -1.107365 2.300321 0.051392 -0.017130 -297340.000000 0 0 1
14.518638 -27.920003 -26.559948 41.179464 -1.091270 2.271794 0.050157 -0.010570 -150359.000000 0 0 1
14.172838 -29.026703 -25.801698 41.341824 -1.116578 2.244784 0.057766 -0.014757 169130.000000 0 0 1
14.995438 -29.120403 -24.628858 40.980992 -1.095263 2.215526 0.051720 -0.014010 -380466.000000 0 0 1
14.493138 -28.360903 -23.383258 39.511627 -1.098367 2.204095 0.027447 -0.006280 665973.000000 0 0 1
13.412938 -28.977603 -22.688958 39.171382 -1.137289 2.188571 0.040222 -0.010102 -205147.000000 0 0 1
12.141238 -28.966203 -23.245058 39.074075 -1.173890 2.207934 0.038617 -0.006098 -727125.000000 0 0 1
11.052438 -28.537103 -22.206258 37.810588 -1.201285 2.198518 0.015577 -0.002209 188298.000000 0 0 1
11.006538 -27.159703 -22.037258 36.666525 -1.185770 2.215571 0.010045 -0.006150 652031.000000 0 0 1
9.686338 -26.748403 -21.676958 35.765804 -1.223358 2.221920 0.010914 -0.006760 122484.000000 0 0 1
9.596038 -25.234603 -21.525758 34.528646 -1.207411 2.243902 0.013376 -0.007639 -174952.000000 0 0 1
10.222938 -24.750803 -20.380258 33.652127 -1.179104 2.221336 0.023181 -0.011269 16293.600000 0 0 1
10.057238 -23.362203 -20.311358 32.549836 -1.164283 2.244658 0.019485 -0.012667 -470317.000000 0 0 1
10.545338 -22.783403 -19.020958 31.497372 -1.137306 2.219169 0.007621 -0.008594 -109770.000000 0 0 1
9.733938 -23.123403 -17.917058 30.829568 -1.172356 2.190956 0.016042 -0.014676 4585.650000 0 0 1
10.161838 -22.420503 -16.740458 29.768857 -1.145252 2.168019 0.012422 -0.013235 -59357.800000 0 0 1
9.348038 -22.593903 -15.446958 28.921943 -1.178500 2.134229 0.006897 -0.010607 64769.900000 0 0 1
9.702338 -23.858403 -14.950358 29.780396 -1.184559 2.096729 0.012159 -0.010150 559565.000000 0 0 1
8.825138 -24.224903 -13.871358 29.277014 -1.221439 2.064394 0.013610 -0.006150 165708.000000 0 0 1
8.940138 -25.737503 -13.571358 30.438904 -1.236477 2.032926 0.017308 -0.009506 448311.000000 0 0 1
10.229738 -26.096603 -13.070958 30.927822 -1.197210 2.007139 0.016543 -0.006197 375347.000000 0 0 1
10.448538 -27.502403 -13.187258 32.240625 -1.207725 1.992183 0.012770 -0.018722 -425033.000000 0 0 1
11.798038 -27.967403 -12.581158 32.858102 -1.171597 1.963723 0.020686 -0.016028 639081.000000 0 0 1
13.022438 -27.733403 -13.298858 33.400377 -1.131798 1.980312 0.026304 -0.013987 638402.000000 0 0 1
13.147238 -27.989203 -14.718858 34.247484 -1.131660 2.015045 0.028043 -0.016292 -409639.000000 0 0 1
14.518838 -27.583303 -15.346958 34.744271 -1.086281 2.028302 0.014980 -0.010768 812733.000000 0 0 1
15.607738 -28.464103 -15.062458 35.786650 -1.069236 2.005229 0.032428 -0.007191 -59531.800000 0 0 1
16.759838 -27.983403 -15.705658 36.202634 -1.031171 2.019532 0.043389 -0.010974 -835726.000000 0 0 1
17.973238 -28.814903 -15.420858 37.297973 -1.013098 1.997037 0.040472 -0.015864 -696458.000000 0 0 1
18.044138 -29.972703 -16.221658 38.562884 -1.028894 2.004963 0.031286 -0.012399 500154.000000 0 0 1
19.402738 -30.345503 -16.476858 39.608113 -1.001913 1.999835 0.037982 -0.011438 825867.000000 0 0 1
19.447938 -31.502703 -17.516258 40.956829 -1.017723 2.012717 0.029122 -0.011378 68833.100000 0 0 1
19.135238 -32.813703 -17.003558 41.617513 -1.042860 1.991680 0.009145 -0.001582 93582.800000 0 0 1
19.585538 -33.760103 -17.955158 42.961908 -1.045109 2.001964 0.009262 -0.001941 -20538.200000 0 0 1
19.635338 33.589611 -17.566958 42.689653 1.041803 1.994900 0.005562 -0.003481 292715.000000 0 0 1
20.631938 33.239411 -16.580058 42.490395 1.015290 1.971653 0.024152 -0.008668 792634.000000 0 0 1
20.238838 31.983711 -16.059358 41.115342 1.006618 1.972072 0.024318 -0.011512 -659985.000000 0 0 1
21.199238 31.447111 -15.048158 40.801661 0.977649 1.948527 0.034476 -0.014283 -1383580.000000 0 0 1
22.469538 31.193811 -15.603158 41.489668 0.946562 1.956351 0.040044 -0.011228 912678.000000 0 0 1
23.507938 30.939011 -14.596258 41.507786 0.921043 1.930131 0.043566 -0.013247 994948.000000 0 0 1
23.249538 29.741111 -13.707358 40.161752 0.907295 1.919100 0.040066 -0.008650 -1459220.000000 0 0 1
23.362538 28.450511 -14.275558 39.484571 0.883283 1.940724 0.038133 -0.001074 183680.000000 0 0 1
22.915338 27.447911 -13.339558 38.163390 0.875154 1.927874 0.016595 -0.000628 -568458.000000 0 0 1
21.449838 27.383211 -12.949058 37.116221 0.906309 1.927171 0.027275 -0.005188 -1636580.000000 0 0 1
20.661138 27.051711 -14.059358 36.828565 0.918544 1.962487 0.029905 -0.004453 -127604.000000 0 0 1
19.316038 26.765611 -13.723358 35.746857 0.945672 1.964817 0.033852 -0.003414 226132.000000 0 0 1
18.388538 28.011711 -13.758458 36.222775 0.989894 1.960408 0.029036 -0.011129 -501394.000000 0 0 1
18.317138 28.789711 -15.012758 37.279323 1.004156 1.985272 0.016194 -0.009443 229769.000000 0 0 1
17.802338 28.128011 -16.188958 37.016086 1.006533 2.023445 0.000727 -0.001710 -87470.000000 0 0 1
17.924138 28.978311 -17.493958 38.302164 1.016859 2.045118 -0.006499 0.003993 -122531.000000 0 0 1
17.025638 30.062311 -17.538358 38.745437 1.055491 2.040538 -0.001641 -0.001540 -102495.000000 0 0 1
17.226638 30.806911 -18.693358 39.940762 1.060932 2.057853 -0.009419 0.005283 -900890.000000 0 0 1
16.372938 31.991811 -18.941958 40.624461 1.097765 2.055866 -0.011752 0.012228 -647308.000000 0 0 1
16.573238 33.104211 -18.085258 41.202397 1.106638 2.025212 -0.010422 -0.005057 -73730.700000 0 0 1
15.704638 34.152711 -18.499358 41.895937 1.139793 2.028127 -0.011922 -0.000958 -75206.500000 0 0 1
15.587738 -33.455603 -17.576858 40.880324 -1.134780 2.015244 -0.001166 -0.002827 -563009.000000 0 0 1
14.570738 -32.635703 -18.075858 40.051619 -1.150885 2.039034 -0.003894 -0.002971 -351094.000000 0 0 1
14.316538 -31.594803 -17.165158 38.701905 -1.145343 2.030321 0.008635 -0.010156 -476712.000000 0 0 1
13.191838 -30.620603 -17.428958 37.621995 -1.164010 2.052472 0.017304 -0.014986 200577.000000 0 0 1
11.890838 -31.203003 -17.351558 37.631051 -1.206706 2.050027 0.015260 -0.015571 302492.000000 0 0 1
10.875538 -30.273003 -17.701358 36.716074 -1.225906 2.073863 0.004208 -0.007250 408145.000000 0 0 1
9.549438 -30.960103 -18.127058 37.125597 -1.271611 2.080895 0.024639 -0.012779 -1240900.000000 0 0 1
8.942338 -31.503303 -16.987558 36.891742 -1.294217 2.049321 0.028800 -0.014613 298540.000000 0 0 1
7.852738 -32.384403 -17.322058 37.556208 -1.332903 2.050178 0.037573 -0.007654 619789.000000 0 0 1
6.561738 -31.792403 -17.912458 37.076535 -1.367261 2.075012 0.028082 0.002396 -898810.000000 0 0 1
6.725338 -31.357903 -19.241758 37.400448 -1.359527 2.111197 0.012855 0.006821 -174222.000000 0 0 1
6.535538 -32.394603 -20.178358 38.720662 -1.371721 2.118966 0.027721 -0.003700 -1026100.000000 0 0 1
6.694338 -31.843403 -21.606958 39.059917 -1.363587 2.156967 0.019326 0.010171 364375.000000 0 0 1
7.973238 -31.372603 -22.098358 39.193752 -1.321919 2.169804 0.015693 0.002461 1121790.000000 0 0 1
9.016238 -32.346503 -22.083058 40.190176 -1.298957 2.152519 0.019144 -0.002808 -356012.000000 0 0 1
8.862238 -33.523703 -23.053058 41.639181 -1.312351 2.157524 0.023235 -0.008179 -1500440.000000 0 0 1
7.879238 -34.389103 -22.692258 41.947960 -1.345564 2.142377 0.035056 -0.021105 -1129390.000000 0 0 1
7.827538 33.277311 -23.513858 41.491581 1.339774 2.173308 0.040231 -0.029756 -431150.000000 0 0 1
6.528938 32.456411 -23.359858 40.518250 1.372285 2.185268 0.058202 -0.037385 358834.000000 0 0 1
5.314938 33.076711 -23.757658 41.069985 1.411473 2.187645 0.068495 -0.034542 149619.000000 0 0 1
4.759938 33.829011 -22.690058 41.010946 1.431008 2.157079 0.050351 -0.028854 -1878280.000000 0 0 1
3.488838 -34.295003 -23.059358 41.473524 -1.469415 2.160364 0.044374 -0.023819 -1066390.000000 0 0 1
2.434838 33.565711 -23.030158 40.779573 1.498384 2.170923 0.042904 -0.030458 -160469.000000 0 0 1
1.254538 34.231711 -23.412458 41.491289 1.534164 2.170350 0.031544 -0.015764 67904.900000 0 0 1
-0.131562 33.648511 -23.033858 40.777423 -1.566886 2.171070 0.020781 -0.018104 288705.000000 0 0 1
-0.333562 33.838711 -21.689158 40.194393 -1.560939 2.140766 0.011055 -0.010735 -405239.000000 0 0 1
-1.463162 33.178011 -21.191858 39.395636 -1.526725 2.138769 0.004991 -0.001933 -258286.000000 0 0 1
-1.831062 33.456411 -19.708458 38.872967 -1.516121 2.102493 0.016934 -0.002012 -59502.200000 0 0 1
-0.933362 32.982111 -18.732758 37.942154 -1.542505 2.087157 0.022151 -0.009439 -241820.000000 0 0 1
-1.520362 32.991711 -17.429758 37.343821 -1.524746 2.056394 0.010104 -0.006544 122372.000000 0 0 1
-0.812062 32.090911 -16.390658 36.043580 -1.545497 2.042883 0.008919 0.000189 517370.000000 0 0 1
0.552538 32.386711 -16.145358 36.192222 1.553737 2.033200 0.006524 -0.006557 213532.000000 0 0 1
1.179938 31.481611 -15.238658 34.995725 1.533334 2.021327 0.022732 -0.004924 888772.000000 0 0 1
2.123438 32.179511 -14.162558 35.222265 1.504905 1.984596 0.025008 -0.013451 844781.000000 0 0 1
3.371938 32.629611 -14.678458 35.937705 1.467822 1.991543 0.030062 -0.020258 61830.400000 0 0 1
4.230938 33.069011 -13.681558 36.036722 1.443545 1.960221 0.037032 -0.029198 -438268.000000 0 0 1
5.597638 33.572711 -14.146058 36.858804 1.405584 1.964694 0.057579 -0.036382 43053.100000 0 0 1
6.456938 32.526611 -14.568258 36.220251 1.374831 1.984729 0.051311 -0.032161 -813223.000000 0 0 1
7.687738 32.973511 -15.021058 37.040328 1.341739 1.988358 0.037345 -0.021122 -63381.600000 0 0 1
8.781838 31.859411 -15.095858 36.332185 1.301832 1.999284 0.031054 -0.024741 277249.000000 0 0 1
9.192438 31.320411 -13.898658 35.477341 1.285316 1.973342 0.028743 -0.032148 -458278.000000 0 0 1
10.102638 30.267211 -13.972658 34.833928 1.248642 1.983538 0.031931 -0.025912 151905.000000 0 0 1
9.421938 28.844811 -13.778258 33.326212 1.255080 1.997021 0.036362 -0.023164 197599.000000 0 0 1
8.695638 28.389111 -14.884358 33.212947 1.273568 2.035490 0.036159 -0.024272 -45086.800000 0 0 1
8.051138 27.130311 -14.707858 31.893505 1.282316 2.050093 0.028504 -0.018506 113136.000000 0 0 1
7.375338 26.589011 -15.986358 31.889415 1.300216 2.095904 0.031314 -0.011474 151447.000000 0 0 1
8.225738 25.843711 -16.837558 31.922774 1.262647 2.126389 0.031326 -0.006121 -14350.900000 0 0 1
7.462238 24.957611 -17.645658 31.463258 1.280260 2.166189 0.026988 0.000738 587187.000000 0 0 1
8.419238 23.935911 -18.330858 31.302265 1.232571 2.196426 0.029223 0.011444 196034.000000 0 0 1
7.730038 22.928911 -19.022858 30.779174 1.245632 2.237047 0.039271 0.003358 -402914.000000 0 0 1
8.611338 22.264311 -19.897358 31.076672 1.201740 2.265642 0.028880 0.003106 -379884.000000 0 0 1
7.866638 21.304111 -20.844258 30.825837 1.217072 2.313381 0.016182 -0.001796 235487.000000 0 0 1
7.091838 20.294411 -20.202358 29.500721 1.234613 2.325138 0.029590 -0.006266 26203.600000 0 0 1
6.524138 19.388911 -21.103858 29.391616 1.246209 2.371754 0.031263 -0.003327 -43112.200000 0 0 1
24.619438 -12.880889 -9.128158 29.246492 -0.482035 1.888211 0.048286 0.002301 244276.000000 0 0 1
25.268838 -12.030189 -8.154258 29.150155 -0.444336 1.854312 0.059194 -0.013406 350591.000000 0 0 1
24.354238 -11.660189 -7.148058 27.931768 -0.446524 1.829587 0.057485 -0.015544 -505360.000000 0 0 1
24.958538 -11.111789 -5.834858 27.936464 -0.418863 1.781207 0.046083 -0.019217 -563975.000000 0 0 1
25.124538 -9.720089 -5.569258 27.508893 -0.369142 1.774658 0.061044 -0.021934 454275.000000 0 0 1
25.998538 -8.966989 -6.393458 28.234858 -0.332127 1.799216 0.053244 -0.020325 -1205930.000000 0 0 1
26.209638 -7.583989 -5.756358 27.885438 -0.281666 1.778720 0.078835 -0.023144 -374394.000000 0 0 1
27.034138 -7.483189 -4.643558 28.432470 -0.270044 1.734850 0.094361 -0.027568 1007580.000000 0 0 1
28.397038 -7.946389 -4.770858 29.871357 -0.272853 1.731197 0.094833 -0.029573 149973.000000 0 0 1
29.074838 -7.886789 -3.422358 30.319304 -0.264884 1.683915 0.099062 -0.029633 -420710.000000 0 0 1
29.297938 -6.576189 -2.943358 30.170827 -0.220800 1.668508 0.096734 -0.021224 404431.000000 0 0 1
29.951138 -6.651289 -1.666958 30.726032 -0.218525 1.625075 0.082190 -0.014341 53770.000000 0 0 1
30.034438 -5.223889 -1.129758 30.506275 -0.172207 1.607838 0.071876 -0.013341 378060.000000 0 0 1
28.752938 -4.704989 -0.769058 29.145494 -0.162198 1.597186 0.076078 -0.009831 175812.000000 0 0 1
28.714138 -3.444989 -0.095658 28.920215 -0.119405 1.574104 0.068285 -0.007223 -204152.000000 0 0 1
29.572938 -3.237189 1.163842 29.772346 -0.109030 1.531695 0.065031 -0.007468 102922.000000 0 0 1
28.915538 -3.816389 2.311042 29.257718 -0.131226 1.491725 0.068889 -0.022032 431065.000000 0 0 1
29.675738 -3.639689 3.452942 30.096836 -0.122039 1.455815 0.057000 -0.020850 -502130.000000 0 0 1
29.109638 -4.448189 4.649942 29.812403 -0.151635 1.414183 0.058183 -0.023859 -203262.000000 0 0 1
29.604338 -5.747189 4.651042 30.513590 -0.191748 1.417775 0.056117 -0.028890 95676.000000 0 0 1
29.288238 -6.440889 5.827842 30.549135 -0.216468 1.378850 0.057547 -0.034948 -525337.000000 0 0 1
29.916138 -7.824189 5.761542 31.454548 -0.255808 1.386586 0.047857 -0.029852 225498.000000 0 0 1
31.327138 -7.632389 5.637042 32.732540 -0.238979 1.397718 0.050573 -0.028902 -96106.600000 0 0 1
31.952938 -8.856389 5.703242 33.644507 -0.270382 1.400459 0.050656 -0.027400 327585.000000 0 0 1
33.499738 -8.684989 5.838442 35.096280 -0.253671 1.403664 0.062644 -0.026129 469719.000000 0 0 1
34.213838 -8.183589 4.720242 35.494204 -0.234778 1.437415 0.065987 -0.027664 148720.000000 0 0 1
35.591438 -8.113189 5.075242 36.855561 -0.224124 1.432651 0.070410 -0.024335 210623.000000 0 0 1
-34.974062 -7.627689 3.878742 36.005712 0.214733 1.462861 0.063216 -0.023148 -206748.000000 0 0 1
-34.790362 -8.659789 2.927842 35.971287 0.243956 1.489312 0.068465 -0.027664 -59429.700000 0 0 1
-33.779162 -8.332389 2.021942 34.850376 0.241844 1.512746 0.075528 -0.026925 -538742.000000 0 0 1
-33.514462 -9.453289 1.047042 34.837912 0.274923 1.540737 0.065207 -0.019618 -198754.000000 0 0 1
-33.136462 -10.633589 1.731842 34.843903 0.310522 1.521073 0.058857 -0.019066 167075.000000 0 0 1
-33.186562 -11.816689 1.011642 35.242098 0.342071 1.542087 0.042331 -0.023561 -1126630.000000 0 0 1
-32.868062 -12.950189 1.991242 35.383357 0.375328 1.514490 0.041270 -0.030962 -615400.000000 0 0 1
-31.575262 -12.857889 2.473842 34.182486 0.386710 1.498361 0.030422 -0.026103 -788012.000000 0 0 1
-30.643562 -13.638489 1.791542 33.589372 0.418745 1.517434 0.029660 -0.014811 -136213.000000 0 0 1
-29.299162 -13.946589 2.504342 32.545660 0.444269 1.493772 0.028240 -0.015523 182643.000000 0 0 1
-28.344162 -12.902789 2.522742 31.244803 0.427185 1.489967 0.028748 -0.018611 1318430.000000 0 0 1
-27.083062 -13.472989 2.996842 30.397282 0.461621 1.472047 0.030354 -0.012821 887754.000000 0 0 1
-26.324562 -12.449189 3.816742 29.368902 0.441743 1.440469 0.037677 -0.008402 155124.000000 0 0 1
-25.061462 -12.880089 4.342042 28.510119 0.474737 1.417903 0.030661 -0.003321 902178.000000 0 0 1
-24.334162 -11.802489 4.961042 27.496584 0.451590 1.389379 0.027849 0.001086 332628.000000 0 0 1
-22.972062 -12.373889 5.440442 26.653840 0.494087 1.365237 0.031024 0.010411 103747.000000 0 0 1
-23.076862 -13.244789 6.542842 27.400270 0.521039 1.329679 0.032832 -0.003385 388188.000000 0 0 1
-21.812562 -13.508189 7.156142 26.635867 0.554479 1.298789 0.038533 0.000498 466918.000000 0 0 1
-21.621062 -12.848589 8.574742 26.572218 0.536190 1.242220 0.053328 -0.005008 -577970.000000 0 0 1
-21.306362 -11.476889 8.462342 25.637692 0.494095 1.234414 0.053273 -0.014851 402480.000000 0 0 1
-22.345562 -10.529989 8.673542 26.180816 0.440371 1.233122 0.056412 -0.018557 -522311.000000 0 0 1
-22.826262 -10.374189 10.127042 27.041061 0.426577 1.186932 0.042697 -0.010719 -174155.000000 0 0 1
-23.455262 -11.551689 10.673842 28.240427 0.457629 1.183201 0.039782 -0.016807 941911.000000 0 0 1
-24.863162 -11.654589 10.453242 29.381568 0.438336 1.207053 0.039638 -0.012062 698733.000000 0 0 1
-25.804962 -11.075889 11.567342 30.370623 0.405436 1.180056 0.035564 -0.006342 1172.780000 0 0 1
-25.762562 -11.830089 12.793242 31.101891 0.430476 1.146880 0.031850 -0.005237 -6108.110000 0 0 1
-27.041362 -11.809489 13.363942 32.392811 0.411755 1.145535 0.024836 -0.003216 -213508.000000 0 0 1
-27.071962 -12.590589 14.703142 33.280571 0.435322 1.113199 0.019884 0.001661 -85607.900000 0 0 1
-27.132862 -13.983489 14.571442 33.823913 0.475869 1.125414 0.009757 0.003534 330468.000000 0 0 1
-26.837862 -14.585589 15.810642 34.394573 0.497816 1.093157 0.014013 0.008571 -421528.000000 0 0 1
-26.514762 -16.088789 15.671942 34.748978 0.545394 1.102906 0.008630 0.015293 -163740.000000 0 0 1
-27.625362 -16.901189 15.405542 35.862815 0.549051 1.126781 0.001365 0.012351 34215.500000 0 0 1
-27.114462 -18.208889 15.418842 36.117840 0.591380 1.129730 0.001409 0.017810 351780.000000 0 0 1
-28.057662 -19.344989 15.994142 37.646694 0.603626 1.132002 -0.014550 0.017062 118285.000000 0 0 1
-28.391862 -19.068489 17.325342 38.338917 0.591423 1.101903 -0.001595 0.019065 31543.300000 0 0 1
-28.962462 -20.152589 18.070942 39.642275 0.607913 1.097469 0.009671 0.011947 42557.900000 0 0 1
-28.072662 -21.410989 18.375442 39.801528 0.651579 1.090912 0.007387 0.013381 -665786.000000 0 0 1
-26.994762 -21.087189 19.185342 39.261483 0.663146 1.060248 0.028305 0.012752 -699392.000000 0 0 1
-26.402362 -22.201289 19.703042 39.726462 0.699177 1.051847 0.035543 0.010992 74866.300000 0 0 1
-25.030362 -21.949389 20.410742 39.049879 0.719911 1.020800 0.050712 0.014293 1195790.000000 0 0 1
-23.951362 -21.556089 19.540542 37.685083 0.732812 1.025675 0.055257 0.008022 1328250.000000 0 0 1
-22.664462 -21.819589 20.099642 37.333201 0.766408 1.002277 0.052387 0.005978 2042040.000000 0 0 1
-21.330862 -21.634089 19.230342 35.956161 0.792456 1.006493 0.050041 0.008333 1345630.000000 0 0 1
-21.184162 -22.557989 18.207842 35.904834 0.816795 1.038963 0.047385 0.005608 651297.000000 0 0 1
-19.984962 -22.209689 17.506042 34.628464 0.838075 1.040790 0.046798 -0.003948 407571.000000 0 0 1
-19.649162 -23.068789 16.216742 34.369191 0.865279 1.079420 0.049014 0.000443 -149429.000000 0 0 1
-19.566962 -24.488589 16.278542 35.320644 0.896651 1.091811 0.053235 -0.010962 686257.000000 0 0 1
-18.534762 -24.999989 17.141642 35.529885 0.932828 1.067339 0.057359 -0.019858 -106704.000000 0 0 1
-17.135162 -25.169099 16.572342 34.666119 0.973072 1.072356 0.052505 -0.019827 -279017.000000 0 0 1
-16.403662 -23.939789 16.416842 33.342260 0.970069 1.055982 0.050725 -0.021838 -698306.000000 0 0 1
-15.292562 -24.147789 15.641042 32.582516 1.006258 1.070091 0.049272 -0.017762 -1063750.000000 0 0 1
-14.439362 -22.871189 15.442442 31.145713 1.007655 1.052026 0.044552 -0.015042 -318848.000000 0 0 1
-14.987162 -21.874189 14.593142 30.266400 0.970105 1.067682 0.035359 -0.011179 480970.000000 0 0 1
-16.032862 -21.058089 15.161742 30.502036 0.920062 1.050574 0.044237 -0.008308 369434.000000 0 0 1
-15.509462 -19.963889 16.087942 29.965349 0.910315 1.004056 0.029265 -0.004214 -395990.000000 0 0 1
-14.941262 -18.857489 15.393642 28.562395 0.900753 1.001609 0.026295 -0.006741 -44975.000000 0 0 1
-14.970462 -17.662489 16.170542 28.241187 0.867706 0.961138 0.008915 0.003091 -725717.000000 0 0 1
-14.274862 -16.427789 15.546742 26.745936 0.855405 0.950502 0.016045 0.000253 -297122.000000 0 0 1
-14.966262 -15.757089 14.543942 26.149591 0.811133 0.981011 0.030535 -0.010285 -196693.000000 0 0 1
-14.900662 -16.280389 13.255842 25.744866 0.829618 1.029914 0.026755 -0.015399 -293060.000000 0 0 1
-15.874862 -15.569989 12.306042 25.414060 0.775703 1.065323 0.029606 -0.013421 854568.000000 0 0 1
-17.263062 -15.738289 12.698242 26.588576 0.739228 1.072895 0.024952 -0.016519 993841.000000 0 0 1
-18.029962 -14.753789 12.067442 26.236939 0.685796 1.092868 0.035934 -0.016607 -46205.400000 0 0 1
-19.574262 -14.778589 12.307242 27.441331 0.646694 1.105718 0.039467 -0.019270 794467.000000 0 0 1
-20.236262 -15.946289 11.773342 28.326701 0.667384 1.142164 0.050806 -0.015890 238837.000000 0 0 1
-20.442962 -15.878489 10.340342 27.874070 0.660385 1.190747 0.050548 -0.012391 -403987.000000 0 0 1
-21.257862 -17.080589 9.846242 28.992959 0.676869 1.224296 0.047342 -0.002107 569000.000000 0 0 1
-20.410562 -18.181289 9.548442 28.953809 0.727697 1.234724 0.049794 0.005276 873910.000000 0 0 1
-21.304462 -19.164089 8.973142 30.027649 0.732558 1.267331 0.056854 -0.000276 902212.000000 0 0 1
-20.715862 -20.607089 9.035342 30.584906 0.782766 1.270903 0.058034 0.007470 -45307.100000 0 0 1
-19.586962 -20.702989 8.207142 29.658389 0.813091 1.290415 0.069364 0.001759 -663295.000000 0 0 1
-19.224162 -22.062489 8.249942 30.403674 0.854037 1.296004 0.065150 -0.002257 7949.210000 0 0 1
-17.855062 -22.279889 7.574642 29.539328 0.895203 1.311474 0.053634 -0.008237 138758.000000 0 0 1
-16.739362 -21.900189 8.368742 28.807297 0.918176 1.276039 0.041498 -0.008141 1248940.000000 0 0 1
-15.505462 -22.126789 7.626442 28.074486 0.959564 1.295689 0.049213 -0.003555 1211260.000000 0 0 1
-14.174262 -22.014989 8.411042 27.501183 0.998759 1.259973 -0.007764 0.006633 -626421.000000 0 0 1
-13.092162 -22.193689 7.573542 26.857458 1.037833 1.284928 0.011960 0.005395 -870886.000000 0 0 1
-11.931562 -21.871989 8.322542 26.268056 1.071401 1.248410 0.010232 0.006576 -269403.000000 0 0 1
-10.631062 -22.454089 7.796342 26.038213 1.128607 1.266712 0.004408 0.011563 -393371.000000 0 0 1
-10.627062 -23.867289 7.704542 27.238610 1.151894 1.284028 0.005638 0.015787 -1106700.000000 0 0 1
-9.455062 -24.331489 7.140242 27.062938 1.200162 1.303797 0.019487 0.008504 -589094.000000 0 0 1
-9.383662 -25.897609 7.063842 28.436546 1.223173 1.319761 0.010410 0.005833 -320625.000000 0 0 1
-10.286162 -26.470009 6.147942 29.056216 1.200159 1.357597 0.018076 0.001725 -358455.000000 0 0 1
-10.302562 -27.890569 6.407242 30.415118 1.216951 1.358547 0.032755 0.002794 199445.000000 0 0 1
-9.207662 -28.681369 5.636242 30.645868 1.260157 1.385828 0.037373 0.001304 -442958.000000 0 0 1
-7.921262 -28.364419 6.050742 30.064899 1.298467 1.368156 0.030326 -0.003147 -1020030.000000 0 0 1
-6.893862 -29.276519 5.729142 30.618017 1.339535 1.382570 0.035827 0.003076 377699.000000 0 0 1
-6.831062 -30.650049 6.403842 32.048371 1.351508 1.369624 0.043828 -0.005163 -556554.000000 0 0 1
-6.600062 -30.572199 7.798642 32.234128 1.358175 1.326434 0.037355 -0.005681 -33652.100000 0 0 1
-6.629562 -31.911569 8.333842 33.641526 1.365962 1.320465 0.062878 -0.015305 -135655.000000 0 0 1
-6.857062 -32.074019 9.824942 34.238742 1.360178 1.279751 0.055299 -0.018052 -87528.300000 0 0 1
-5.749862 -31.616109 10.569742 33.828371 1.390898 1.253023 0.042815 -0.008232 293844.000000 0 0 1
-5.983862 -31.795219 11.961242 34.493679 1.384772 1.216675 0.038069 -0.012244 -332845.000000 0 0 1
-5.172862 -30.907239 12.904042 33.889972 1.404966 1.180175 0.040202 -0.011762 -60591.700000 0 0 1
-5.651862 -29.608799 12.948942 32.807006 1.382181 1.165054 0.033454 -0.006258 276719.000000 0 0 1
-4.821862 -28.853469 13.826442 32.356507 1.405211 1.129275 0.015711 -0.009298 120743.000000 0 0 1
-5.605862 -28.286879 15.033842 32.520603 1.375152 1.090224 0.027312 -0.007488 -40972.800000 0 0 1
-6.033862 -29.135759 16.114542 33.837530 1.366588 1.074431 0.030785 -0.012656 -38357.400000 0 0 1
-5.013862 -29.813029 16.831542 34.601392 1.404179 1.062784 0.006494 -0.011122 76219.700000 0 0 1
-5.412862 -31.274969 17.351642 36.173225 1.399421 1.070504 0.019491 -0.014048 80108.300000 0 0 1
-5.525862 -32.039059 16.193242 36.321585 1.400004 1.108695 0.017082 -0.011666 130772.000000 0 0 1
-5.894862 -33.331539 16.607342 37.703378 1.395751 1.114670 0.019376 -0.011524 -276301.000000 0 0 1
-5.346862 -34.399789 15.637242 38.163566 1.416597 1.148624 0.012096 -0.011879 -437718.000000 0 0 1
-5.822862 34.230335 14.333642 37.564276 -1.402301 1.179295 0.036359 -0.020600 -60093.500000 0 0 1
-5.291862 33.066975 13.694442 36.179641 -1.412107 1.182608 0.027754 -0.017164 321170.000000 0 0 1
-3.943862 33.381070 12.995942 36.038097 -1.453195 1.201867 0.031281 -0.021191 -8349.620000 0 0 1
-4.320862 33.731512 11.706942 35.965779 -1.443394 1.239253 0.034729 -0.020185 212219.000000 0 0 1
-3.285862 34.227984 10.881442 36.066017 -1.475090 1.264312 0.050483 -0.025340 -775903.000000 0 0 1
-3.678862 -34.112735 9.461642 35.591226 1.463367 1.301719 0.043768 -0.028538 -600595.000000 0 0 1
-4.033862 33.672822 8.531942 34.970345 -1.451569 1.324332 0.049423 -0.034884 873058.000000 0 0 1
-4.984862 32.614244 8.780342 34.141356 -1.419127 1.310697 0.063194 -0.038533 224029.000000 0 0 1
-6.420862 32.923124 9.232442 34.790768 -1.378188 1.302208 0.067351 -0.034612 28447.000000 0 0 1
-7.267462 33.301536 8.135042 35.042649 -1.355933 1.336512 0.070815 -0.033132 -962448.000000 0 0 1
-8.539862 33.634433 8.544242 35.738053 -1.322148 1.329378 0.065139 -0.025572 -979391.000000 0 0 1
-9.487962 33.922511 7.375742 35.988328 -1.298070 1.364386 0.067454 -0.024089 -321305.000000 0 0 1
-9.252262 -33.678609 6.749442 35.572574 1.302688 1.379902 0.076674 -0.021603 50858.000000 0 0 1
-9.942862 -33.659419 5.528542 35.530012 1.283569 1.414559 0.058352 -0.011392 -450543.000000 0 0 1
-9.919462 -32.213219 4.939242 34.065867 1.272079 1.425293 0.044462 -0.010088 282803.000000 0 0 1
-10.875062 -31.369689 5.562942 33.664086 1.237087 1.404786 0.044411 -0.008559 1416970.000000 0 0 1
-12.253962 -31.485679 5.089142 34.167337 1.199642 1.421292 0.049513 -0.005680 1886160.000000 0 0 1
-13.208962 -30.557879 5.978442 33.823105 1.162792 1.393107 0.045247 -0.009101 347749.000000 0 0 1
-13.630662 -31.100959 7.203042 34.712367 1.157739 1.361771 0.047990 -0.015408 -257405.000000 0 0 1
-14.445862 -30.176579 7.846742 34.363938 1.124324 1.340422 0.038200 -0.013613 -523047.000000 0 0 1
32.842028 -12.962989 -12.968858 37.614215 -0.375935 1.922807 0.022734 -0.021337 -491676.000000 0 0 1
31.978208 -13.008789 -11.872958 36.507554 -0.386356 1.902040 0.031654 -0.020529 28321.900000 0 0 1
31.581338 -14.294689 -11.520258 36.529924 -0.425040 1.891638 0.035730 -0.023436 796066.000000 0 0 1
32.633228 -15.061589 -10.584258 37.467393 -0.432410 1.857188 0.024760 -0.023438 1915310.000000 0 0 1
33.954398 -15.348789 -11.086958 38.876820 -0.424550 1.859992 0.032750 -0.024936 673495.000000 0 0 1
34.858158 -15.615289 -10.052458 39.496586 -0.421162 1.828142 0.028352 -0.022423 377886.000000 0 0 1
-35.079046 -15.871789 -10.526558 39.915681 0.424896 1.837673 0.016010 -0.020036 635868.000000 0 0 1
-34.491125 -14.650489 -11.017858 39.059797 0.401668 1.856754 0.008525 -0.015395 -114040.000000 0 0 1
-33.086742 -14.715589 -10.986158 37.841469 0.418486 1.865358 0.015094 -0.011382 109840.000000 0 0 1
-32.351392 -13.415789 -11.474558 36.854599 0.393105 1.887406 0.023978 -0.014839 -209028.000000 0 0 1
-32.592672 -12.388389 -10.542558 36.426639 0.363232 1.864416 0.034888 -0.011788 263548.000000 0 0 1
-32.088972 -11.116289 -10.831158 35.645308 0.333483 1.879537 0.030971 -0.011905 -575718.000000 0 0 1
-32.580772 -10.060289 -9.870758 35.498563 0.299492 1.852571 0.028375 -0.016050 199598.000000 0 0 1
-31.835932 -9.976689 -8.643158 34.463968 0.303685 1.824291 0.036158 -0.012011 802036.000000 0 0 1
-32.588292 -9.144489 -7.759658 34.725074 0.273571 1.796159 0.049314 -0.016500 88638.400000 0 0 1
-31.976662 -9.100989 -6.318658 33.841696 0.277282 1.758611 0.041816 -0.006105 -259106.000000 0 0 1
-30.759612 -8.371089 -6.203258 32.476288 0.265710 1.762986 0.045404 -0.012603 334007.000000 0 0 1
-30.390102 -8.306989 -4.782558 31.865926 0.266827 1.721449 0.046790 -0.007438 362688.000000 0 0 1
-29.522372 -9.501389 -4.208358 31.297877 0.311368 1.705666 0.043468 -0.003122 -23879.800000 0 0 1
-30.255792 -10.710289 -4.015358 32.345732 0.340226 1.695256 0.051755 -0.009263 430172.000000 0 0 1
-30.720502 -10.793289 -2.689458 32.672275 0.337867 1.653206 0.035501 -0.011343 -309338.000000 0 0 1
-31.269762 -12.171689 -2.340858 33.636701 0.371203 1.640445 0.045889 -0.011154 -430445.000000 0 0 1
-32.477352 -12.452189 -3.005058 34.912258 0.366125 1.656978 0.039995 -0.019937 -140806.000000 0 0 1
-33.005382 -13.703289 -2.733358 35.841409 0.393527 1.647133 0.038656 -0.023701 177884.000000 0 0 1
-34.555555 -13.624689 -2.608258 37.236025 0.375569 1.640900 0.019525 -0.018997 255813.000000 0 0 1
-34.951444 -12.948589 -1.449058 37.301061 0.354796 1.609654 0.031508 -0.021561 212417.000000 0 0 1
35.044928 -12.800489 -1.342058 37.333639 -0.350204 1.606752 0.070847 -0.022272 143899.000000 0 0 1
34.617298 -11.833089 -0.249358 36.584716 -0.329374 1.577612 0.061948 -0.026538 -300829.000000 0 0 1
34.818128 -12.393089 1.008842 36.971725 -0.341955 1.543506 0.077213 -0.021982 162008.000000 0 0 1
34.819458 -11.383389 2.050142 36.690316 -0.315973 1.514890 0.061185 -0.022373 -557742.000000 0 0 1
35.190988 -11.767689 3.498642 37.270962 -0.322706 1.476787 0.070952 -0.033472 138186.000000 0 0 1
34.123418 -12.274489 4.294542 36.517308 -0.345298 1.452921 0.069543 -0.039451 291854.000000 0 0 1
34.627228 -12.777189 5.562042 37.326100 -0.353493 1.421227 0.064174 -0.032469 333668.000000 0 0 1
33.559138 -12.979289 6.702942 36.600643 -0.369040 1.386620 0.064678 -0.037553 329165.000000 0 0 1
32.955488 -11.732689 7.021942 35.679515 -0.342024 1.372697 0.064627 -0.033839 103088.000000 0 0 1
32.490088 -11.798689 8.361942 35.563140 -0.348339 1.333445 0.041843 -0.013379 -320575.000000 0 0 1
31.800788 -10.489889 8.896042 34.647762 -0.318624 1.311132 0.032024 -0.027296 -117784.000000 0 0 1
30.504388 -10.297389 8.384642 33.269447 -0.325559 1.316027 0.045802 -0.027463 -137592.000000 0 0 1
29.745988 -9.464689 9.221642 32.549083 -0.308055 1.283547 0.038007 -0.011164 624049.000000 0 0 1
28.195198 -9.569489 8.987042 31.101627 -0.327202 1.277659 0.042801 -0.016669 588416.000000 0 0 1
27.851968 -8.989889 7.792842 30.286607 -0.312217 1.310566 0.054416 -0.023181 -573699.000000 0 0 1
26.919118 -9.819089 7.188642 29.542004 -0.349765 1.324992 0.068745 -0.035821 -629790.000000 0 0 1
25.994738 -9.197989 6.110142 28.242932 -0.340092 1.352730 0.074370 -0.044743 -123343.000000 0 0 1
25.109438 -8.312289 6.776442 27.303812 -0.319687 1.319988 0.074597 -0.036831 -113799.000000 0 0 1
24.101238 -7.773389 5.983042 26.020992 -0.311997 1.338789 0.078431 -0.042769 -565741.000000 0 0 1
24.510538 -6.488289 5.129542 25.868447 -0.258779 1.371180 0.067795 -0.035967 -752859.000000 0 0 1
25.426638 -6.805389 4.090142 26.637501 -0.261518 1.416638 0.072907 -0.038674 392993.000000 0 0 1
25.612338 -5.596989 3.333742 26.427863 -0.215145 1.444314 0.066280 -0.033274 615987.000000 0 0 1
26.378528 -5.830989 1.925642 27.083856 -0.217552 1.499637 0.084522 -0.035446 617677.000000 0 0 1
25.474738 -6.288489 0.942442 26.256343 -0.242014 1.534895 0.093273 -0.032347 533166.000000 0 0 1
26.094038 -6.252689 -0.383158 26.835457 -0.235187 1.585075 0.096681 -0.029339 25770.900000 0 0 1
25.057838 -6.372589 -1.514958 25.899811 -0.249036 1.629323 0.087523 -0.031150 346278.000000 0 0 1
24.071138 -5.352789 -1.642858 24.713782 -0.218813 1.637321 0.083110 -0.026221 137087.000000 0 1 0
23.544538 -5.464789 -2.939158 24.348467 -0.228066 1.691804 0.069555 -0.024218 69674.900000 0 1 0
22.219338 -4.719289 -3.224258 22.942679 -0.209285 1.711798 0.040386 -0.020083 -29631.900000 0 1 0
22.421738 -3.295489 -3.376058 22.912711 -0.145933 1.718679 0.038473 -0.018741 430157.000000 0 1 0
22.980138 -2.829289 -4.600158 23.606208 -0.122502 1.766922 0.049695 -0.018896 289483.000000 0 1 0
22.100438 -1.679089 -5.259158 22.779540 -0.075830 1.803770 0.035210 -0.008458 380881.000000 0 1 0
22.009638 -0.514889 -4.521458 22.475161 -0.023390 1.773354 0.039551 0.000966 485435.000000 0 1 0
21.134738 0.329011 -5.260658 21.782101 0.015566 1.814721 0.039069 0.000704 -353997.000000 0 1 0
20.838538 1.674111 -4.610958 21.408135 0.080165 1.787881 0.035472 0.010721 -682049.000000 0 1 0
21.866238 2.635011 -4.634258 22.506710 0.119928 1.778185 0.041726 0.007315 46331.200000 0 1 0
22.695238 2.487411 -3.486458 23.095810 0.109165 1.722332 0.060469 0.006234 197956.000000 0 1 0
23.803638 3.584711 -3.434458 24.315814 0.149472 1.712514 0.058533 0.001075 439234.000000 0 1 0
23.239938 4.874911 -3.220458 23.963114 0.206767 1.705597 0.031114 0.004931 111235.000000 0 1 0
24.257138 5.753111 -2.880258 25.095874 0.232869 1.685820 0.038626 -0.001868 -485519.000000 0 0 1
23.962938 7.258811 -3.143258 25.234754 0.294132 1.695681 0.027974 -0.004618 510193.000000 0 0 1
22.955738 7.737011 -2.213758 24.325459 0.325083 1.661928 0.037606 -0.006278 999608.000000 0 1 0
22.353338 8.939211 -2.607258 24.215264 0.380424 1.678675 0.024179 -0.000314 439559.000000 0 1 0
21.118938 9.420011 -1.747758 23.190532 0.419561 1.646233 0.005872 0.003097 317779.000000 0 1 0
21.546938 9.647411 -0.463958 23.612673 0.420972 1.590446 -0.006275 -0.000153 1473130.000000 0 1 0
20.446738 10.030211 0.410542 22.778120 0.456062 1.552772 -0.026284 0.001837 530255.000000 0 1 0
20.982038 10.306911 1.838042 23.449024 0.456603 1.492331 -0.006118 -0.010776 -501711.000000 0 1 0
21.823938 11.480111 1.973342 24.738053 0.484256 1.490942 0.010052 -0.012802 463440.000000 0 1 0
21.355538 12.788111 1.821542 24.958221 0.539551 1.497748 0.018031 -0.007433 -279880.000000 0 1 0
20.348638 13.351111 2.901142 24.509913 0.580664 1.452152 0.015447 -0.005229 429154.000000 0 1 0
18.985538 12.967111 2.674542 23.146269 0.599225 1.454988 0.023714 -0.002527 972149.000000 0 1 0
18.076238 13.657311 3.533942 22.929484 0.647037 1.416057 0.022523 -0.008156 -72062.100000 0 1 0
18.185838 13.453711 5.084642 23.185785 0.636935 1.349699 0.020430 -0.008581 -870479.000000 0 1 0
17.783338 12.206611 5.485942 22.256325 0.601545 1.321740 0.009161 -0.007115 272638.000000 0 1 0
17.953538 12.048311 6.855942 22.682488 0.591054 1.263737 0.014315 -0.014694 -119793.000000 0 1 0
18.022638 10.585011 7.262142 22.126830 0.531042 1.236393 -0.001731 -0.022723 -61015.300000 0 1 0
19.221638 9.940111 6.865542 22.702705 0.477259 1.263576 -0.000401 -0.022256 496126.000000 0 1 0
19.261438 8.539011 7.255642 22.283672 0.417286 1.239146 0.012600 -0.023990 229655.000000 0 1 0
20.325138 7.683911 6.477442 22.674015 0.361442 1.281084 0.029710 -0.024369 341070.000000 0 1 0
19.917138 7.481511 5.162942 21.893409 0.359324 1.332732 0.015682 -0.020747 478964.000000 0 1 0
20.867838 6.752711 4.437342 22.377572 0.312960 1.371179 0.025216 -0.022856 -465673.000000 0 1 0
20.562238 6.531211 2.959442 21.776607 0.307553 1.434474 0.026107 -0.015321 -443858.000000 0 1 0
21.618738 5.956811 2.240342 22.536028 0.268867 1.471220 0.025208 -0.013104 313366.000000 0 1 0
21.205938 5.787311 0.925842 22.000953 0.266422 1.528702 0.025960 -0.000925 462211.000000 0 1 0
22.235038 4.898111 0.085042 22.768303 0.216825 1.567061 0.045599 -0.003415 586889.000000 0 1 0
22.108238 3.521511 0.418142 22.390848 0.157958 1.552121 0.041795 0.004331 733698.000000 0 1 0
23.303938 2.763211 0.236542 23.468379 0.118022 1.560717 0.053353 0.003230 331117.000000 0 1 0
23.153238 1.229211 0.315742 23.187994 0.053040 1.557179 0.067165 0.003120 69205.400000 0 1 0
22.271738 0.666911 -0.662758 22.291575 0.029935 1.600532 0.048649 -0.000571 876776.000000 0 1 0
22.652038 -0.626889 -1.148358 22.689789 -0.027668 1.621429 0.066969 -0.005523 -645559.000000 0 1 0
22.423938 -1.859089 -0.183458 22.501619 -0.082717 1.578950 0.078762 -0.001263 8509.050000 0 1 0
23.233138 -1.982889 0.964442 23.337538 -0.085141 1.529459 0.074410 -0.004343 1003600.000000 0 1 0
24.592538 -2.401389 0.750442 24.720897 -0.097338 1.540435 0.090530 -0.012264 919934.000000 0 1 0
25.546938 -2.047789 1.937042 25.701976 -0.079987 1.495359 0.078852 -0.010516 -84537.300000 0 0 1
25.533138 -0.668589 2.231942 25.639222 -0.026179 1.483634 0.070066 -0.006567 252368.000000 0 0 1
26.346168 -0.278189 3.314842 26.555341 -0.010559 1.445642 0.071387 -0.006926 -253768.000000 0 0 1
25.972338 1.147111 3.808542 26.275144 0.044138 1.425335 0.070687 -0.006521 -289403.000000 0 0 1
26.263838 2.170211 2.847642 26.506755 0.082444 1.463158 0.087229 -0.005252 1164150.000000 0 0 1
27.666178 2.376111 2.574642 27.887131 0.085675 1.478341 0.084929 -0.012638 891693.000000 0 0 1
27.780148 3.462811 1.545242 28.037750 0.124011 1.515655 0.098477 -0.021784 -377890.000000 0 0 1
27.312958 3.103111 0.276342 27.490058 0.113128 1.560744 0.112063 -0.010690 159172.000000 0 0 1
27.549188 4.089611 -0.734058 27.860752 0.147371 1.597147 0.100927 -0.008860 -437641.000000 0 0 1
28.970068 4.033511 -1.280758 29.277540 0.138341 1.614556 0.088712 -0.012956 -92558.300000 0 0 1
30.043478 4.278111 -0.362358 30.348708 0.141446 1.582736 0.090614 -0.017372 -378917.000000 0 0 1
31.266868 3.977811 -0.922358 31.532376 0.126541 1.600052 0.057450 -0.012007 -819170.000000 0 0 1
32.498118 4.265011 -0.053258 32.776833 0.130493 1.572421 0.022589 -0.010879 -376396.000000 0 0 1
32.704288 3.451311 1.135442 32.905489 0.105142 1.536283 0.030697 -0.009250 165811.000000 0 0 1
31.899398 3.855211 2.217742 32.207959 0.120272 1.501885 0.040154 -0.000702 -109379.000000 0 0 1
31.968248 2.916611 3.437142 32.284507 0.090983 1.464130 0.047695 -0.005490 -204948.000000 0 0 1
31.140608 1.767811 3.295142 31.364320 0.056708 1.465542 0.052800 -0.008456 347042.000000 0 0 1
31.364138 0.759711 4.325842 31.670163 0.024218 1.433778 0.047644 -0.012149 -593171.000000 0 0 1
32.492548 -0.252289 4.193342 32.762988 -0.007764 1.442454 0.054881 -0.010572 -123658.000000 0 0 1
33.737678 0.454411 4.286842 34.011974 0.013468 1.444421 0.052146 -0.016372 -90861.500000 0 0 1
34.787908 -0.437689 4.039842 35.024426 -0.012581 1.455195 0.056489 -0.018335 -93192.100000 0 0 1
-35.218288 0.252311 4.258442 35.475707 -0.007164 1.450468 0.068354 -0.028433 499370.000000 0 0 1
-34.919079 1.410711 3.504042 35.122792 -0.040377 1.470865 0.051368 -0.022110 150109.000000 0 0 1
-34.836638 1.209711 2.092342 34.920376 -0.034711 1.510843 0.062129 -0.023271 -1178870.000000 0 0 1
-34.626820 2.571211 1.294342 34.746268 -0.074119 1.533536 0.041052 -0.018072 317742.000000 0 0 1
-33.454912 3.272011 1.683442 33.656666 -0.097494 1.520757 0.063274 -0.028717 152794.000000 0 0 1
-32.285022 2.707011 1.171042 32.419468 -0.083652 1.534667 0.086253 -0.029575 -1056320.000000 0 0 1
-30.983652 3.515011 1.360742 31.212075 -0.112964 1.527186 0.080531 -0.023185 44672.100000 0 0 1
-30.567232 3.437511 2.724742 30.880356 -0.111987 1.482446 0.078785 -0.025182 255622.000000 0 0 1
-29.731542 4.542211 3.125242 30.238443 -0.151602 1.467258 0.075409 -0.019254 -159602.000000 0 0 1
-29.832922 4.719211 4.643742 30.558772 -0.156888 1.418244 0.072331 -0.014985 1685880.000000 0 0 1
-31.181712 5.035411 5.137642 32.000780 -0.160104 1.409551 0.062401 -0.006368 2242260.000000 0 0 1
-32.138302 3.942811 5.162242 32.788183 -0.122073 1.412696 0.057375 -0.012176 67598.400000 0 0 1
-32.082112 2.972611 6.360642 32.841378 -0.092393 1.375887 0.050011 -0.008843 -599243.000000 0 0 1
-32.471982 3.645911 7.579642 33.543602 -0.111810 1.342864 0.045345 -0.003449 521792.000000 0 0 1
-32.758342 2.797411 8.689742 34.006560 -0.085189 1.312399 0.045806 -0.002212 -223158.000000 0 0 1
-34.028332 1.916611 8.672742 35.168412 -0.056265 1.321620 0.044541 -0.004964 -882926.000000 0 0 1
-33.843112 0.743011 7.946642 34.771503 -0.021951 1.340220 0.055560 -0.020043 -48485.600000 0 0 1
-34.766016 -0.310789 8.048642 35.686876 0.008939 1.343304 0.061580 -0.018177 -310827.000000 0 0 1
-34.732333 -1.061889 9.399542 35.997416 0.030564 1.306617 0.058388 -0.003322 17133.300000 0 0 1
-33.544872 -1.831189 9.490442 34.909600 0.054535 1.295473 0.056702 -0.021648 274993.000000 0 0 1
-33.572922 -2.675389 10.616342 35.312965 0.079521 1.265437 0.050636 -0.007611 -568543.000000 0 0 1
-32.304102 -3.496289 10.697042 34.208270 0.107811 1.252759 0.039100 -0.009998 -771457.000000 0 0 1
-32.189522 -4.443989 9.676342 33.904955 0.137190 1.281377 0.046777 -0.017717 -85023.300000 0 0 1
-31.001482 -5.192689 9.684642 32.891461 0.165958 1.271924 0.053209 -0.025459 -34923.600000 0 0 1
-31.098062 -6.222189 8.527142 32.840786 0.197475 1.308136 0.049616 -0.025422 364199.000000 0 0 1
-32.030162 -7.269889 8.778842 33.997803 0.223189 1.309619 0.049211 -0.022052 89854.100000 0 0 1
-32.129932 -8.155289 7.698342 34.030953 0.248573 1.342605 0.040392 -0.025607 -30907.900000 0 0 1
-33.087892 -9.332489 7.902042 35.275292 0.274910 1.344869 0.038944 -0.022042 894210.000000 0 0 1
-34.460966 -8.953989 8.139942 36.523838 0.254209 1.346042 0.050747 -0.031386 633606.000000 0 0 1
-35.137373 -10.155289 8.399642 37.527575 0.281350 1.345058 0.049238 -0.028441 -423949.000000 0 0 1
7.674838 -23.987089 10.776642 27.393787 -1.261132 1.166472 0.067228 -0.025562 -197377.000000 0 0 1
7.070638 -24.665989 9.681242 27.425014 -1.291627 1.210012 0.065064 -0.022698 -202056.000000 0 0 1
5.698638 -24.921389 9.897542 27.413709 -1.345997 1.201410 0.056771 -0.026400 367860.000000 0 0 1
5.171038 -25.897249 8.789642 27.832803 -1.373713 1.249495 0.047708 -0.011246 -344025.000000 0 0 1
4.982338 -25.322249 7.524242 26.882228 -1.376521 1.287110 0.060500 -0.013051 -380903.000000 0 0 1
4.847138 -26.341039 6.526442 27.567001 -1.388817 1.331779 0.054689 -0.001842 -505526.000000 0 0 1
4.033838 -25.833409 5.313342 26.680864 -1.415899 1.370312 0.048855 -0.005712 685892.000000 0 0 1
2.631938 -25.682409 5.524842 26.401460 -1.468673 1.359975 0.024268 -0.013869 194.250000 0 0 1
1.911038 -26.860189 5.312442 27.447110 -1.499768 1.376015 0.017360 -0.009711 -124200.000000 0 0 1
0.365238 -26.783119 5.289942 27.302973 -1.557160 1.375814 0.019588 -0.010272 404905.000000 0 0 1
-0.260062 -26.567849 6.596742 27.375815 1.561008 1.327431 0.026863 -0.017254 988074.000000 0 0 1
-1.695162 -26.727579 6.652942 27.595266 1.507457 1.327308 0.012520 -0.013928 1343310.000000 0 0 1
-2.276962 -28.156399 6.589642 29.006736 1.490104 1.341619 0.018208 -0.005603 -274054.000000 0 0 1
-1.739762 -28.819239 7.715242 29.884783 1.510501 1.309673 0.011109 -0.013144 28355.400000 0 0 1
-2.208862 -30.110729 7.854442 31.196592 1.497570 1.316285 0.023049 -0.009783 -120373.000000 0 0 1
-2.028362 -30.716359 9.293442 32.155513 1.504857 1.277598 0.021430 -0.010221 -433655.000000 0 0 1
-0.740662 -31.164609 9.552942 32.604296 1.547035 1.273437 0.019353 -0.010089 -787339.000000 0 0 1
-0.589862 -31.548349 10.881142 33.377320 1.552101 1.238723 0.011473 -0.005687 262857.000000 0 0 1
0.853638 -31.854289 11.368142 33.832811 -1.544005 1.228120 0.017870 -0.002168 -435137.000000 0 0 1
1.322438 -33.053979 10.846742 34.813305 -1.530809 1.253953 0.018464 -0.000356 -1119150.000000 0 0 1
2.698438 -33.093529 10.988842 34.974532 -1.489437 1.251187 0.016218 0.003248 -805156.000000 0 0 1
3.182938 -33.660819 12.343542 35.993678 -1.476518 1.220755 0.010754 0.005840 -793487.000000 0 0 1
2.918038 -32.851389 13.487342 35.631967 -1.482203 1.182602 -0.004819 0.008743 -19516.800000 0 0 1
3.642038 -33.356109 14.571542 36.581748 -1.462041 1.161103 -0.004938 0.011799 -396951.000000 0 0 1
3.188938 -32.579629 15.826042 36.360214 -1.473226 1.120472 -0.011747 0.009207 -28222.000000 0 0 1
3.437438 -31.150289 15.864342 35.125971 -1.460891 1.102192 0.001318 0.003247 204381.000000 0 0 1
4.787438 -30.818849 16.168042 35.130138 -1.416687 1.092539 0.005537 0.014960 272855.000000 0 0 1
5.207838 -29.557359 15.344842 33.707910 -1.396392 1.098166 0.020379 0.005630 -47573.000000 0 0 1
5.423338 -29.767489 13.929842 33.310006 -1.390583 1.139347 0.019450 0.003888 920150.000000 0 0 1
4.182538 -29.800579 13.172442 32.849374 -1.431356 1.158193 0.010318 0.013942 535477.000000 0 0 1
4.436938 -29.733429 11.637442 32.236521 -1.422666 1.201454 0.011964 0.006069 61181.700000 0 0 1
5.051838 -30.755299 10.891642 33.015714 -1.407991 1.234606 0.019998 0.002646 503948.000000 0 0 1
6.439338 -30.946709 11.196042 33.533792 -1.365645 1.230387 0.019608 0.005636 296514.000000 0 0 1
6.954138 -32.280609 10.631942 34.690574 -1.358611 1.259304 0.011787 0.008366 -327464.000000 0 0 1
6.683538 -33.434969 11.475142 35.975627 -1.373500 1.246154 -0.009770 0.005748 273425.000000 0 0 1
6.852338 34.197941 10.691742 36.479680 1.373042 1.273342 0.002932 0.007957 -198073.000000 0 0 1
6.754038 32.921649 11.465842 35.509401 1.368449 1.242009 0.011002 0.001900 146575.000000 0 0 1
5.515038 32.653834 12.117242 35.263523 1.403481 1.220028 -0.002606 0.002927 264480.000000 0 0 1
5.336838 31.313984 12.619742 34.180482 1.401988 1.192639 0.010669 0.004719 616928.000000 0 0 1
4.097838 31.105144 13.563742 34.180365 1.439809 1.162737 0.003591 -0.002017 740570.000000 0 0 1
4.308538 31.682524 14.864842 35.260592 1.435634 1.135619 0.005842 -0.001954 579295.000000 0 0 1
3.131338 31.490004 15.658342 35.307355 1.471683 1.111311 0.014425 -0.002940 515446.000000 0 0 1
3.372838 31.606844 17.151242 36.118330 1.464486 1.075989 0.008937 -0.004567 -301831.000000 0 0 1
3.815438 32.883592 17.457842 37.425452 1.455284 1.085501 0.004873 -0.000462 126386.000000 0 0 1
4.087638 32.953610 18.855142 38.185934 1.447385 1.054374 -0.001847 0.000828 -156311.000000 0 0 1
4.425438 34.313879 19.437242 39.684168 1.442535 1.058938 0.001498 0.000311 46668.900000 0 0 1
3.339638 -33.628689 19.695942 39.114857 -1.471812 1.043104 -0.015000 0.000028 -5060.030000 0 0 1
3.778138 -32.587889 20.512342 38.691097 -1.455375 1.012011 -0.000634 -0.007742 633955.000000 0 0 1
2.579738 -31.839089 21.188442 38.331876 -1.489949 0.985120 -0.016288 -0.009578 780404.000000 0 0 1
1.818538 -32.510399 22.209542 39.414425 -1.514917 0.972195 -0.012450 -0.002197 -123663.000000 0 0 1
0.664538 -31.786169 22.508442 38.954231 -1.549893 0.954744 -0.012424 -0.000433 -431222.000000 0 0 1
-0.450362 -32.611089 23.190842 40.018759 1.556987 0.952682 -0.013181 0.005089 -580382.000000 0 0 1
-1.185062 -33.387469 22.219642 40.122811 1.535317 0.983886 -0.014465 -0.005820 609741.000000 0 0 1
-2.082862 -34.320020 22.877142 41.298495 1.510181 0.983700 0.002991 -0.007820 -458515.000000 0 0 1
-3.392162 -33.785259 23.379642 41.225698 1.470728 0.967800 0.024022 -0.001215 -1094030.000000 0 0 1
-4.348462 -33.466739 22.396642 40.503596 1.441586 0.984890 0.018571 -0.010792 -726604.000000 0 0 1
-5.504462 -32.898249 22.892142 40.455458 1.405014 0.969320 0.030467 -0.002657 -577761.000000 0 0 1
-6.736362 -32.772699 21.978642 40.031101 1.368072 0.989582 0.028225 -0.008954 431443.000000 0 0 1
-7.589962 -33.893359 21.758842 40.985540 1.350494 1.011145 0.011709 0.001782 128391.000000 0 0 1
-8.696562 -33.524369 20.992742 40.499490 1.316981 1.025881 0.033163 -0.018504 -60116.000000 0 0 1
-9.805462 34.242175 20.695742 41.194507 -1.291903 1.044435 0.061397 -0.024494 284899.000000 0 0 1
-10.480462 34.042806 21.903242 41.815126 -1.272143 1.019477 0.085511 -0.033731 -464330.000000 0 0 1
-11.856362 33.744161 21.876342 41.926317 -1.232910 1.021859 0.072533 -0.027237 81375.300000 0 0 1
-12.368162 33.429901 23.305242 42.587134 -1.216440 0.991737 0.069180 -0.029255 -29444.000000 0 0 1
-12.571962 -34.289807 24.204242 43.814272 1.219376 0.985522 0.059600 -0.025030 260416.000000 0 0 1
-11.353962 -33.667539 24.600342 43.215651 1.245536 0.965208 0.053760 -0.022001 209319.000000 0 0 1
-11.504562 -32.322339 25.289942 42.622408 1.228846 0.935584 0.048011 -0.014124 -119724.000000 0 0 1
-12.097262 -32.379619 26.558842 43.590774 1.213247 0.915648 0.049746 -0.013841 95102.400000 0 0 1
-12.721862 -31.136959 26.743442 42.971708 1.182917 0.899055 0.056829 -0.014584 -38358.700000 0 0 1
-13.481162 -30.795829 28.040542 43.776670 1.158168 0.875600 0.052281 -0.015084 -290431.000000 0 0 1
-12.681962 -30.293819 29.064742 43.855522 1.174332 0.846327 0.051660 -0.005611 -58673.400000 0 0 1
-13.517962 -29.826619 30.095042 44.475544 1.145269 0.827573 0.050102 -0.010618 184808.000000 0 0 1
-12.817962 -29.215799 31.352442 44.730735 1.157351 0.794117 0.045592 -0.004835 -34277.800000 0 0 1
-13.799262 -28.988659 32.350742 45.577763 1.126514 0.781593 0.040963 -0.005565 509839.000000 0 0 1
-13.322562 -28.729369 33.687142 46.235169 1.136586 0.754514 0.036486 -0.001231 -94411.900000 0 0 1
-12.597862 -29.934269 -34.343862 47.268038 1.172445 2.384123 0.030997 0.004993 752691.000000 0 0 1
-11.227862 -30.043899 33.986442 46.730921 1.213153 0.756446 0.034926 0.000503 628304.000000 0 0 1
-10.667562 -31.236289 -34.242962 47.561361 1.241703 2.374562 0.031338 0.004596 915916.000000 0 0 1
-9.124662 -31.455989 34.325142 47.444221 1.288468 0.761960 0.030924 -0.000294 847588.000000 0 0 1
-8.292462 -30.824139 -33.502762 46.274480 1.307994 2.380381 0.036333 -0.007612 -35498.500000 0 0 1
-6.973362 -31.357669 -33.458662 46.383329 1.351976 2.376547 0.044454 -0.014676 329902.000000 0 0 1
-6.160862 -30.556679 -32.391962 44.954489 1.371843 2.375392 0.045145 -0.011743 -128796.000000 0 0 1
-6.522662 -30.771019 -31.030862 44.185010 1.361914 2.349411 0.037701 -0.010338 -202747.000000 0 0 1
-5.899462 -29.806599 -30.239062 42.867678 1.375397 2.353790 0.031827 -0.003419 -39435.900000 0 0 1
-6.214762 -29.848309 -28.721062 41.886086 1.365518 2.326354 0.027358 -0.003741 -328198.000000 0 0 1
-5.756762 -30.977709 -28.106162 42.222211 1.387057 2.299191 0.020107 -0.000634 422727.000000 0 0 1
-6.849062 -31.663979 -27.436562 42.453294 1.357774 2.273491 0.019716 -0.000603 987134.000000 0 0 1
-6.454462 -32.928209 -26.541762 42.783083 1.377234 2.240023 0.019355 -0.001185 -52281.000000 0 0 1
-5.672362 -32.738739 -25.423862 41.837465 1.399238 2.223935 0.005962 -0.000835 -490977.000000 0 0 1
-5.615962 -33.877859 -24.576362 42.228497 1.406519 2.191964 0.012689 -0.005589 141048.000000 0 0 1
-4.575662 -33.736799 -23.395862 41.309498 1.435991 2.172873 0.017639 -0.010097 393851.000000 0 0 1
-4.892562 -32.918259 -22.283862 40.051460 1.423249 2.160820 0.024283 -0.002541 -251818.000000 0 0 1
-5.027662 -31.542499 -22.565062 39.107399 1.412733 2.185850 0.003850 0.008866 -184524.000000 0 0 1
-5.317962 -30.785079 -21.195162 37.752307 1.399740 2.166905 0.026731 0.003088 253475.000000 0 0 1
-6.640562 -30.929879 -20.650662 37.778358 1.359309 2.149127 0.040119 -0.008126 550365.000000 0 0 1
-7.099662 -29.720879 -20.064162 36.555525 1.336313 2.151806 0.043304 -0.009411 -56347.100000 0 0 1
-7.571262 -28.615279 -21.022162 36.305502 1.312136 2.188341 0.057608 -0.019056 -520623.000000 0 0 1
-6.493462 -27.983309 -21.682962 35.991408 1.342784 2.217361 0.055840 -0.014015 -339740.000000 0 0 1
-6.873062 -27.190829 -22.739362 36.106215 1.323211 2.252080 0.064534 -0.029230 -1190300.000000 0 0 1
-6.100762 -27.465959 -24.024062 36.996672 1.352224 2.277535 0.047255 -0.019293 1699170.000000 0 0 1
-4.693862 -27.114059 -24.161262 36.619272 1.399380 2.291344 0.051819 -0.015625 2328130.000000 0 0 1
-3.794662 -27.590329 -23.103962 36.185892 1.434118 2.263318 0.033297 -0.012289 844259.000000 0 0 1
-2.263762 -27.177999 -23.136962 35.764329 1.487694 2.274346 0.028975 -0.013393 1158270.000000 0 0 1
-1.927662 -25.821079 -23.000362 34.633230 1.496280 2.297102 0.028721 -0.013469 42365.800000 0 0 1
-2.389062 -25.091919 -21.883562 33.379669 1.475870 2.285767 0.047550 -0.022372 -744623.000000 0 0 1
-2.334762 -23.575289 -22.176762 32.450796 1.472084 2.323201 0.051776 -0.021315 421930.000000 0 0 1
-3.087662 -23.063989 -23.298862 32.928987 1.437714 2.356820 0.048826 -0.032778 1241040.000000 0 0 1
-4.522362 -23.160589 -23.163962 33.067110 1.377962 2.346913 0.061027 -0.035583 622156.000000 0 0 1
-5.254462 -23.253789 -24.477562 34.168686 1.348567 2.369388 0.064496 -0.036584 -186640.000000 0 0 1
-5.091462 -22.106689 -25.317762 33.994378 1.344431 2.410976 0.073700 -0.033543 -100911.000000 0 0 1
-5.693462 -22.371589 -26.535062 35.171196 1.321591 2.425619 0.067057 -0.027831 2664.800000 0 0 1
-5.636762 -21.142989 -27.387562 35.055351 1.310254 2.467488 0.066935 -0.019889 85678.200000 0 0 1
-5.964362 -21.296589 -28.760662 36.280766 1.297730 2.486062 0.068188 -0.020377 72737.000000 0 0 1
-4.865662 -21.626889 -29.583362 36.967179 1.349499 2.498525 0.060315 -0.022319 114573.000000 0 0 1
-5.406162 -22.036689 -30.952762 38.378584 1.330222 2.509024 0.068349 -0.022902 69037.600000 0 0 1
-6.103062 -21.037389 -31.652162 38.492577 1.288442 2.536224 0.057261 -0.025955 24806.500000 0 0 1
-6.904662 -21.491689 -32.725962 39.756202 1.259941 2.537761 0.059437 -0.024319 -71030.900000 0 0 1
-6.862362 -20.596789 -33.964262 40.309934 1.249187 2.572848 0.053816 -0.023335 56656.400000 0 0 1
-5.682962 -20.758189 34.034042 40.268033 1.303574 0.563880 0.051746 -0.018221 -297843.000000 0 0 1
-5.781562 -20.265589 32.731742 38.929262 1.292889 0.572036 0.053230 -0.015255 610522.000000 0 0 1
-4.564662 -20.624689 31.806242 38.181814 1.352987 0.586251 0.035578 -0.017285 -586741.000000 0 0 1
-4.400962 -22.006589 31.417442 38.609767 1.373416 0.620277 0.031243 -0.013420 611824.000000 0 0 1
-3.192262 -22.194489 30.673942 37.995744 1.427945 0.631235 0.036646 -0.006404 1231750.000000 0 0 1
-1.807862 -21.995889 31.382642 38.366101 1.488790 0.612908 0.029351 -0.010205 -334052.000000 0 0 1
-1.316162 -20.697689 31.111942 37.390902 1.507292 0.587963 0.019711 -0.010304 286964.000000 0 0 1
-0.253162 -20.268489 31.972342 37.856391 1.558307 0.565036 0.032424 -0.012784 251035.000000 0 0 1
-0.754062 -19.948389 33.390242 38.902636 1.533014 0.538843 0.022115 -0.019103 -354452.000000 0 0 1
-1.625262 -18.867789 33.326342 38.331188 1.484869 0.516746 0.014771 -0.021530 -458908.000000 0 0 1
-2.083062 -18.577689 -34.103262 38.890900 1.459136 2.640162 0.023189 -0.026877 521484.000000 0 0 1
-3.068762 -17.356489 -33.971062 38.271374 1.395797 2.662983 0.017603 -0.030135 565031.000000 0 0 1
-2.548962 -16.086589 -34.326662 37.994674 1.413650 2.698569 0.014613 -0.021640 134546.000000 0 0 1
-3.519462 -15.160289 -33.882762 37.286224 1.342687 2.711005 0.021195 -0.027609 107051.000000 0 0 1
-3.048262 -13.746689 -34.030962 36.828925 1.352582 2.749282 0.003781 -0.028533 -574687.000000 0 0 1
-1.858062 -13.407889 -33.355662 35.997556 1.433094 2.756089 0.005981 -0.020509 -234964.000000 0 0 1
-1.553662 -12.028889 -33.370362 35.506184 1.442347 2.792977 0.000138 -0.018435 -179055.000000 0 0 1
-1.118062 -11.403089 34.060742 35.936258 1.473060 0.324501 0.004496 -0.025022 -568926.000000 0 0 1
-2.141462 -11.317589 33.060342 35.009425 1.383792 0.335254 -0.003606 -0.022311 274503.000000 0 0 1
-1.667262 -10.877589 31.804042 33.654105 1.418705 0.333119 0.002131 -0.021526 -483543.000000 0 0 1
-0.949862 -11.889889 30.908342 33.130006 1.491077 0.368299 -0.005056 -0.024603 -7255.790000 0 0 1
-1.707362 -13.041689 30.568342 33.277984 1.440621 0.406335 -0.000401 -0.028863 663880.000000 0 0 1
-0.753662 -14.001589 30.021142 33.134294 1.517021 0.436955 0.000751 -0.029871 852666.000000 0 0 1
-1.106762 -15.438589 30.516842 34.217723 1.499231 0.469393 0.002516 -0.026372 -76110.100000 0 0 1
-2.299862 -15.980789 30.016842 34.083512 1.427864 0.493490 0.014310 -0.027164 -172434.000000 0 0 1
-2.456262 -17.262289 30.656142 35.267816 1.429454 0.517136 0.013681 -0.022098 -563380.000000 0 0 1
-2.833962 -18.327389 29.647342 34.969836 1.417381 0.558978 0.014263 -0.006779 -1316380.000000 0 0 1
-4.147862 -18.339689 29.229942 34.755409 1.348370 0.571633 0.019930 -0.010664 -1040450.000000 0 0 1
-4.474862 -19.255889 28.203242 34.441784 1.342460 0.611362 0.022674 -0.011363 -351100.000000 0 0 1
-3.751462 -19.072589 26.854342 33.151060 1.376582 0.626542 0.027120 -0.009527 -553195.000000 0 0 1
-4.218162 -19.708989 25.697342 32.658697 1.359955 0.665116 0.050323 -0.012352 -419643.000000 0 0 1
-4.054462 -21.052389 25.630242 33.414833 1.380537 0.696594 0.038168 -0.010283 -415590.000000 0 0 1
-29.128542 -33.982203 -0.515058 44.760779 0.862154 1.582303 0.005069 -0.019314 -346299.000000 0 0 1
-28.109082 -33.132603 -0.034158 43.449868 0.867243 1.571582 0.012585 -0.011748 166165.000000 0 0 1
-28.521152 -32.550103 1.181542 43.293895 0.851274 1.543502 0.014803 -0.014401 317516.000000 0 0 1
-27.677472 -31.272603 1.501742 41.788436 0.846309 1.534852 0.024649 -0.010935 170118.000000 0 0 1
-26.325642 -31.477403 1.835742 41.075982 0.874289 1.526090 0.022347 -0.012985 -748145.000000 0 0 1
-25.788202 -30.233603 2.164342 39.796815 0.864583 1.516385 0.026107 -0.011076 -712918.000000 0 0 1
-24.298062 -30.496103 2.331342 39.062044 0.898034 1.511078 0.012193 -0.007553 -887279.000000 0 0 1
-23.973462 -31.223103 3.495942 39.520003 0.915993 1.482220 0.018739 -0.012881 -649154.000000 0 0 1
-22.589262 -31.390303 3.531642 38.834242 0.947020 1.479729 0.015714 -0.006975 -570177.000000 0 0 1
-22.220762 -31.861803 4.974942 39.162313 0.961810 1.443418 0.029651 -0.013063 -128173.000000 0 0 1
-22.574362 -30.925503 6.020542 38.758682 0.940245 1.414831 0.030012 -0.009365 22794.900000 0 0 1
-22.310362 -31.445503 7.275642 39.236550 0.953728 1.384287 0.025340 -0.010050 -189661.000000 0 0 1
-22.920862 -30.673103 8.487142 39.220361 0.929049 1.352675 0.029952 -0.010877 -343060.000000 0 0 1
-22.276062 -29.462203 8.764442 37.961293 0.923409 1.337816 0.042530 -0.011654 -165863.000000 0 0 1
-22.767062 -28.863703 9.937742 38.081638 0.902935 1.306781 0.035680 -0.007975 -349495.000000 0 0 1
-21.969562 -27.717603 10.540842 36.905779 0.900571 1.281148 0.044765 -0.009034 -846373.000000 0 0 1
-20.699162 -28.006503 10.994542 36.519850 0.934318 1.264996 0.041943 -0.011399 -1221960.000000 0 0 1
-20.128362 -26.924903 11.650542 35.578596 0.928850 1.237183 0.055231 -0.013520 -445854.000000 0 0 1
-18.867862 -27.467903 12.320542 35.528547 0.968913 1.216662 0.057756 -0.015947 -640758.000000 0 0 1
-19.087862 -28.318503 13.425542 36.695085 0.977705 1.196231 0.061346 -0.014917 -342924.000000 0 0 1
-17.934762 -28.524203 14.202542 36.564984 1.009501 1.171881 0.066157 -0.021262 -113007.000000 0 0 1
-18.111562 -29.665803 15.266442 37.962518 1.022678 1.156938 0.095642 -0.030238 40837.300000 0 0 1
-17.924162 -30.975503 14.781442 38.720129 1.046219 1.179106 0.098743 -0.025642 -88025.700000 0 0 1
-18.015562 -31.937403 15.801242 39.927903 1.057200 1.163918 0.105138 -0.025887 194273.000000 0 0 1
-17.778862 -33.368303 15.287742 40.782921 1.081249 1.186554 0.105313 -0.025910 159013.000000 0 0 1
-17.999462 -34.402303 16.247942 42.089128 1.088757 1.174465 0.111174 -0.025331 -96356.600000 0 0 1
-17.390962 33.176311 15.954242 40.714260 -1.087978 1.168145 0.107027 -0.021928 -77133.900000 0 0 1
-17.495862 32.107511 17.076942 40.356157 -1.071866 1.133871 0.105619 -0.023776 -290764.000000 0 0 1
-18.808162 31.660411 17.291942 40.683410 -1.034756 1.131794 0.110076 -0.025757 -74134.900000 0 0 1
-18.782662 30.668311 18.287442 40.345560 -1.021276 1.100366 0.088336 -0.014001 148058.000000 0 0 1
-19.295362 31.155111 19.698442 41.605054 -1.016283 1.077578 0.074073 -0.021993 404924.000000 0 0 1
-18.442762 32.116811 20.351842 42.258993 -1.049533 1.068319 0.077959 -0.019696 648667.000000 0 0 1
-19.120762 32.596911 21.531342 43.494377 -1.040301 1.052918 0.069724 -0.017473 234673.000000 0 0 1
-18.522862 33.930311 22.039342 44.498258 -1.071099 1.052633 0.051516 0.008251 93027.300000 0 0 1
-17.318362 33.646511 22.723142 44.140169 -1.095446 1.030028 0.041951 -0.011628 -294827.000000 0 0 1
-17.259762 34.276511 23.952342 45.238183 -1.104317 1.012819 0.037752 -0.010531 -114411.000000 0 0 1
-17.901862 33.487511 25.148742 45.545024 -1.079866 0.985828 0.025568 -0.017786 344437.000000 0 0 1
-19.305762 33.401211 24.933042 45.934844 -1.046713 0.997039 0.010100 -0.013770 -97529.000000 0 0 1
-19.890462 32.711911 26.016042 46.287515 -1.024479 0.973930 0.008827 -0.010909 -174152.000000 0 0 1
-21.420062 32.912911 25.990042 47.090987 -0.993852 0.986142 0.048607 -0.018275 -337052.000000 0 0 1
-21.909762 32.356711 24.803842 46.284176 -0.975583 1.005219 0.036191 -0.022891 -359643.000000 0 0 1
-23.306262 32.468511 24.767842 47.019486 -0.948216 1.016016 0.015985 -0.022469 -340753.000000 0 0 1
-23.942862 31.995411 23.437242 46.327867 -0.928370 1.040372 0.008422 -0.019674 -17575.700000 0 0 1
-23.607462 32.822711 22.311842 46.178576 -0.947273 1.066531 0.002874 -0.009351 174529.000000 0 0 1
-23.621862 32.072111 21.088942 45.070568 -0.935976 1.083873 -0.005097 -0.008926 -114162.000000 0 0 1
-23.219562 32.931011 19.890642 44.935923 -0.956658 1.112251 0.013833 -0.009839 309858.000000 0 0 1
-21.892862 33.446911 19.865642 44.638962 -0.991225 1.109589 0.052753 -0.017072 193045.000000 0 0 1
-21.718062 34.189011 18.666642 44.598276 -1.004871 1.138947 0.069463 -0.019101 -350586.000000 0 0 1
-20.325662 -34.013503 18.541042 43.747241 1.032161 1.133135 0.082524 -0.021507 -442147.000000 0 0 1
-20.194662 -32.926103 19.413942 43.230241 1.020631 1.105058 0.081704 -0.030362 458544.000000 0 0 1
-18.944262 -32.247603 19.407242 42.135899 1.039646 1.092140 0.090092 -0.031945 212501.000000 0 0 1
-19.014662 -31.188103 20.522742 41.897948 1.023292 1.058905 0.074211 -0.032915 165589.000000 0 0 1
-19.856862 -30.073503 20.217842 41.321564 0.987230 1.059532 0.083701 -0.036456 487009.000000 0 0 1
-19.992262 -29.169003 21.300742 41.282476 0.969940 1.028650 0.084010 -0.031380 -9819.280000 0 0 1
-20.775062 -27.833703 21.093442 40.635594 0.929604 1.025013 0.061557 -0.023543 -56988.900000 0 0 1
-20.044762 -26.800403 20.420442 39.205210 0.928623 1.022938 0.056437 -0.013173 430811.000000 0 0 1
-20.758062 -25.603103 20.136542 38.625074 0.889527 1.022384 0.051011 -0.000137 540457.000000 0 0 1
-21.858962 -25.580903 18.981442 38.632783 0.863694 1.057180 0.050433 -0.009569 200853.000000 0 0 1
-23.155262 -25.937503 19.360042 39.796123 0.842011 1.062739 0.047689 -0.006908 -339017.000000 0 0 1
-24.002962 -25.830203 18.224242 39.692122 0.822049 1.093769 0.046699 -0.007936 -578520.000000 0 0 1
-25.485442 -25.898603 18.647542 40.840864 0.793439 1.096637 0.029969 -0.003288 -17604.100000 0 0 1
-25.930842 -27.149103 19.208042 42.171450 0.808346 1.097891 0.018139 -0.009858 171260.000000 0 0 1
-26.198692 -28.110103 18.178442 42.508882 0.820579 1.128917 0.016883 -0.012441 -873136.000000 0 0 1
-26.957982 -29.362403 18.624742 43.997324 0.828064 1.133695 0.014034 -0.008685 503180.000000 0 0 1
-28.322392 -29.147303 19.019042 44.871451 0.799751 1.133098 0.006097 -0.008803 980162.000000 0 0 1
-29.173522 -29.461403 17.903242 45.161872 0.790308 1.163178 0.004656 -0.007513 -111185.000000 0 0 1
-30.668582 -29.111003 18.053942 45.977790 0.759349 1.167267 0.007447 -0.002398 185769.000000 0 0 1
-31.032582 -27.778903 17.745242 45.272312 0.730131 1.168028 0.018665 -0.002260 484711.000000 0 0 1
-32.429672 -27.572603 17.946642 46.195389 0.704626 1.171799 0.007144 0.010719 267912.000000 0 0 1
-32.865482 -26.229603 17.240642 45.446361 0.673575 1.181689 0.009352 -0.000243 -302526.000000 0 0 1
-32.938572 -26.459303 15.867242 45.131071 0.676745 1.211537 0.025061 -0.016641 397480.000000 0 0 1
-33.334652 -25.274803 15.102942 44.475988 0.648737 1.224331 0.022743 -0.017791 -594138.000000 0 0 1
-32.204592 -24.376003 14.655342 42.966316 0.647909 1.222721 0.015956 -0.013632 -337875.000000 0 0 1
-31.557412 -23.702103 15.790242 42.508725 0.644191 1.190217 0.010793 -0.012119 279506.000000 0 0 1
-31.387952 -22.285003 15.609642 41.538967 0.617397 1.185555 0.004794 -0.009933 -250496.000000 0 0 1
-32.584732 -21.361903 15.943242 42.098487 0.580288 1.182391 0.005864 -0.010715 -155236.000000 0 0 1
-32.614202 -20.814903 17.268742 42.369279 0.568046 1.150997 0.010869 -0.008999 -18247.600000 0 0 1
-33.414112 -19.667703 17.389342 42.493654 0.531998 1.149195 0.018065 -0.014268 -291528.000000 0 0 1
-33.659922 -19.256803 18.887942 43.134315 0.519651 1.117550 0.012371 -0.000525 -91555.100000 0 0 1
-34.619847 -20.095903 19.530342 44.540020 0.525938 1.116879 0.021474 -0.005159 436180.000000 0 0 1
-34.797562 -19.560603 20.798242 45.011714 0.512105 1.090476 0.017955 0.000464 -48356.600000 0 0 1
35.131708 -19.566103 21.318942 45.514465 -0.508153 1.083318 0.025031 -0.004789 656516.000000 0 0 1
34.405038 -20.780303 21.516042 45.590214 -0.543348 1.079302 0.023917 -0.000764 273648.000000 0 0 1
35.036708 -21.660403 22.441042 46.907827 -0.553709 1.071956 0.018037 0.001939 -744536.000000 0 0 1
34.318758 -22.903103 22.841442 47.159948 -0.588485 1.065188 0.029141 0.004566 -304386.000000 0 0 1
33.237828 -22.759303 23.741842 46.759107 -0.600411 1.038228 0.036536 -0.004490 309532.000000 0 0 1
32.727698 -24.004603 24.147142 47.227191 -0.632834 1.034103 0.028261 -0.009207 -324097.000000 0 0 1
31.995008 -24.004903 25.478342 47.424274 -0.643674 1.003632 0.041392 -0.011109 -468273.000000 0 0 1
30.794278 -23.284803 25.566542 46.304618 -0.647420 0.985870 0.043564 -0.007912 62339.700000 0 0 1
30.075868 -23.563403 26.791842 46.664703 -0.664577 0.959249 0.031911 -0.003236 693545.000000 0 0 1
28.837508 -24.449003 26.457742 46.145072 -0.703227 0.960195 0.024222 -0.006187 -508277.000000 0 0 1
27.771848 -23.851403 25.809342 44.791596 -0.709600 0.956713 0.023266 -0.000833 -455836.000000 0 0 1
26.672558 -24.749403 25.668642 44.529063 -0.748016 0.956423 0.006285 0.004866 723480.000000 0 0 1
25.387438 -23.992303 25.182242 43.061559 -0.757152 0.946167 0.019293 0.004877 51443.400000 0 0 1
25.398338 -23.436003 23.863042 41.997221 -0.745236 0.966473 0.021472 -0.001499 -71387.500000 0 0 1
26.174438 -22.264403 23.727942 41.759071 -0.704852 0.966467 0.016550 -0.003875 -154712.000000 0 0 1
26.150438 -21.635003 22.287642 40.603666 -0.691184 0.989740 0.026038 -0.004048 115492.000000 0 0 1
25.380238 -20.439503 22.215342 39.439208 -0.677983 0.972445 0.032167 -0.003349 214161.000000 0 0 1
25.526838 -19.896203 20.910542 38.532182 -0.662067 0.997175 0.031753 -0.009279 279720.000000 0 0 1
24.797638 -18.469203 20.717542 37.218958 -0.640163 0.980461 0.033416 -0.004495 251710.000000 0 0 1
25.299638 -17.304303 21.344942 37.351266 -0.599889 0.962506 0.039671 -0.019897 -59678.300000 0 0 1
25.258338 -17.331003 22.792242 38.181587 -0.601370 0.931111 0.036582 -0.005459 -241608.000000 0 0 1
25.409838 -15.868903 23.363542 37.991275 -0.558253 0.908447 0.059321 0.000391 -849607.000000 0 0 1
24.407338 -15.014803 23.021542 36.758044 -0.551503 0.893999 0.049975 -0.002724 -973573.000000 0 0 1
24.453638 -13.808903 23.760742 36.786397 -0.514057 0.868580 0.047147 -0.001970 307486.000000 0 0 1
23.120238 -13.042303 23.542542 35.480957 -0.513610 0.845274 0.043982 -0.000625 487329.000000 0 0 1
22.019638 -13.575103 24.228442 35.442421 -0.552463 0.818112 0.055374 -0.007273 -715131.000000 0 0 1
20.806638 -12.915603 24.109142 34.365385 -0.555533 0.793222 0.049894 -0.005357 -15804.400000 0 0 1
19.618638 -13.722403 24.712242 34.407705 -0.610362 0.769558 0.045402 -0.007142 -34058.700000 0 0 1
19.179238 -14.796403 23.955442 34.068165 -0.657107 0.790961 0.042285 -0.011327 149399.000000 0 0 1
17.887638 -15.145003 24.433542 33.857594 -0.702560 0.764605 0.042466 -0.011745 222205.000000 0 0 1
17.295638 -16.359103 23.610442 33.529275 -0.757578 0.789537 0.033201 -0.008666 -25542.200000 0 0 1
17.870238 -17.622603 23.817042 34.599899 -0.778421 0.811576 0.029254 -0.010590 -111137.000000 0 0 1
17.489938 -18.466703 22.775842 34.141705 -0.812557 0.840491 0.019185 0.000943 -127019.000000 0 0 1
17.646738 -19.984503 23.058442 35.248822 -0.847441 0.857722 0.005677 0.004478 54293.000000 0 0 1
16.944938 -20.420603 24.241142 35.941131 -0.878149 0.830552 0.005576 0.003856 233110.000000 0 0 1
17.188738 -21.738803 24.679042 37.109074 -0.901756 0.843248 0.023217 0.002135 -478660.000000 0 0 1
16.647638 -22.996203 23.899542 37.110070 -0.944190 0.871058 0.009148 -0.001280 -39688.600000 0 0 1
17.317138 -23.459003 22.739642 36.977011 -0.934898 0.908452 0.006310 -0.001613 692712.000000 0 0 1
18.576938 -24.128803 22.983942 38.151845 -0.914676 0.924250 0.022944 -0.007779 338491.000000 0 0 1
19.514638 -24.264103 21.811242 38.017075 -0.893463 0.959753 0.021844 0.004566 -429582.000000 0 0 1
19.110138 -25.166603 20.773642 37.816656 -0.921341 0.989240 0.022662 -0.007829 261125.000000 0 0 1
20.148838 -25.405603 19.835842 38.011589 -0.900285 1.021794 0.018263 -0.014754 277024.000000 0 0 1
19.560838 -25.797003 18.467742 37.271560 -0.922030 1.052396 0.021369 -0.024082 210593.000000 0 0 1
18.907138 -27.062203 18.516542 37.851090 -0.960974 1.059630 0.037069 -0.031598 305341.000000 0 0 1
18.168538 -27.402003 17.326842 37.164297 -0.985311 1.085780 0.040869 -0.032028 349354.000000 0 0 1
17.340138 -28.708203 17.610542 37.881030 -1.027431 1.087285 0.042977 -0.034058 132800.000000 0 0 1
16.431638 -28.508503 18.671842 37.833466 -1.047928 1.054656 0.044031 -0.037015 -56314.300000 0 0 1
15.814738 -29.695403 19.143142 38.708949 -1.081437 1.053490 0.065531 -0.039315 -581613.000000 0 0 1
14.568538 -29.459503 19.967842 38.455420 -1.111536 1.024827 0.051795 -0.027292 -443398.000000 0 0 1
13.590538 -28.789103 19.209942 37.182483 -1.129739 1.027875 0.040844 -0.027951 -173977.000000 0 0 1
12.273038 -28.803103 19.730142 37.007089 -1.167993 1.008483 0.025251 -0.022536 226071.000000 0 0 1
11.320938 -28.171503 18.705642 35.660878 -1.188689 1.018619 0.032434 -0.025084 -503274.000000 0 0 1
10.993738 -29.059203 17.675442 35.745220 -1.209116 1.053555 0.030309 -0.029468 -86077.900000 0 0 1
10.356838 -28.335303 16.661442 34.463852 -1.220371 1.066208 0.047513 -0.019382 -151424.000000 0 0 1
10.082138 -29.257103 15.437642 34.582486 -1.238936 1.108057 0.035480 -0.012663 119510.000000 0 0 1
8.925238 -30.063803 15.538642 34.999164 -1.282208 1.110770 0.022572 0.003649 138965.000000 0 0 1
8.994838 -31.023403 14.496942 35.405084 -1.288597 1.148935 0.014530 0.004751 -165992.000000 0 0 1
7.862738 -32.052703 14.480542 36.040040 -1.330240 1.157325 0.001723 0.005797 -488689.000000 0 0 1
7.908738 -32.966803 15.586142 37.313349 -1.335346 1.139873 0.012296 0.001075 160471.000000 0 0 1
7.172738 -34.181803 15.398342 38.170050 -1.363957 1.155551 -0.010296 0.006762 -42349.200000 0 0 1
7.124938 33.555911 16.517442 38.073478 1.361573 1.122056 0.012419 -0.000066 308829.000000 0 0 1
8.366238 32.885311 16.643642 37.794820 1.321675 1.114787 0.028183 -0.004827 215710.000000 0 0 1
8.146438 31.857311 17.619842 37.305650 1.320445 1.078886 0.035833 -0.012418 649386.000000 0 0 1
9.386838 30.917211 17.833642 36.905628 1.276029 1.066464 0.051218 -0.011010 396655.000000 0 0 1
9.677738 30.151711 16.648342 35.776410 1.260215 1.086773 0.057851 -0.010043 -134255.000000 0 0 1
11.025038 29.756311 16.763042 35.888564 1.215967 1.084804 0.075185 -0.025855 -381089.000000 0 0 1
11.532838 28.924011 15.589142 34.822781 1.191386 1.106638 0.071327 -0.019825 -84428.600000 0 0 1
10.932138 27.652311 15.318042 33.448532 1.194311 1.095099 0.069366 -0.020438 -349315.000000 0 0 1
11.628438 27.024511 14.335942 32.727114 1.164452 1.117374 0.063781 -0.010206 -268425.000000 0 0 1
-9.185362 -9.319289 19.110745 23.161187 0.792636 0.600383 0.039611 -0.009852 -15943.000000 0 1 0
-9.588262 -9.346189 17.774645 22.253629 0.772614 0.645615 0.048639 -0.019727 58606.900000 0 1 0
-9.375162 -10.621589 17.242145 22.315989 0.847649 0.687813 0.044918 -0.026225 46755.000000 0 1 0
-9.628562 -10.743989 15.717445 21.334961 0.840095 0.742621 0.040990 -0.027562 -38626.600000 0 1 0
-11.019962 -10.763989 15.491545 21.846990 0.773648 0.782585 0.051786 -0.019914 21754.700000 0 1 0
-11.415962 -11.412289 14.278845 21.551101 0.785237 0.846568 0.047551 -0.022119 12113.600000 0 1 0
-11.495562 -12.973589 14.285445 22.461876 0.845729 0.881510 0.028160 -0.015813 -16416.200000 0 1 0
-10.286062 -13.680789 14.011745 22.120037 0.926105 0.884804 0.026193 -0.009780 203678.000000 0 1 0
-10.358462 -15.135689 14.112245 23.141786 0.970635 0.914967 0.033775 -0.011194 93771.800000 0 1 0
-10.163462 -15.687289 15.557245 24.319023 0.995914 0.876669 0.047680 -0.012024 273677.000000 0 1 0
-11.204662 -15.324389 16.456645 25.123744 0.939459 0.856583 0.035273 0.000119 -319644.000000 0 0 1
-10.774762 -15.296089 17.784945 25.814145 0.957115 0.810741 0.060935 -0.000527 106582.000000 0 0 1
-11.856362 -14.871089 18.843945 26.773436 0.897719 0.790022 0.036328 0.006388 241248.000000 0 0 1
-12.331362 -13.491689 18.794045 26.216489 0.830302 0.771481 0.050444 0.010447 643810.000000 0 0 1
-13.403062 -13.219989 17.876445 25.961076 0.778522 0.811258 0.052047 -0.000963 1019150.000000 0 0 1
-14.853562 -13.415189 18.433845 27.210333 0.734560 0.826496 0.028228 0.008486 363618.000000 0 0 1
-15.032762 -14.775889 18.760445 28.218170 0.776781 0.843523 0.025437 0.010995 -339312.000000 0 0 1
-15.710262 -14.973789 19.957445 29.484340 0.761401 0.827277 0.016808 0.010055 -315279.000000 0 0 1
-16.094362 -16.447989 20.107745 30.559552 0.796264 0.852656 0.006374 0.010116 -391999.000000 0 0 1
-17.146962 -16.908689 19.324145 30.876280 0.778402 0.894566 0.012227 0.015064 -500156.000000 0 0 1
-17.318062 -18.278389 19.671845 31.953032 0.812370 0.907587 -0.002163 0.009636 287708.000000 0 0 1
-18.539762 -18.968289 18.986845 32.619305 0.796823 0.949520 0.025282 0.011348 251974.000000 0 0 1
-18.459862 -18.965189 17.550545 31.756362 0.798900 0.985241 0.034414 0.005575 116194.000000 0 0 1
-18.872462 -17.748789 16.878445 30.920402 0.754724 0.993372 0.040086 -0.002361 -406687.000000 0 0 1
-18.664362 -17.814889 15.333645 30.014153 0.762116 1.034588 0.041540 -0.009353 -450641.000000 0 0 1
-19.502662 -18.711889 14.652345 30.743777 0.764708 1.074018 0.045545 -0.006740 -182496.000000 0 0 1
-19.356562 -18.675089 13.233845 29.976159 0.767482 1.113550 0.055435 -0.009550 34358.100000 0 0 1
-19.398062 -20.004089 12.506145 30.542627 0.800778 1.148928 0.055776 -0.004489 -276884.000000 0 0 1
-18.361262 -20.874289 12.843545 30.623986 0.849361 1.138018 0.053238 -0.003436 -242427.000000 0 0 1
-18.434362 -22.106889 12.077245 31.215382 0.875739 1.173528 0.049964 -0.002590 173259.000000 0 0 1
-17.495462 -23.245389 12.632145 31.717667 0.925606 1.161168 0.046294 -0.007038 174133.000000 0 0 1
-17.466062 -24.439489 11.867645 32.298498 0.950295 1.194545 0.053444 -0.016555 689727.000000 0 0 1
-16.393462 -24.524489 10.904645 31.450079 0.981558 1.216715 0.047479 -0.015438 455141.000000 0 0 1
-16.554162 -25.874509 10.065945 32.324198 1.001635 1.254124 0.037505 -0.012623 395910.000000 0 0 1
-17.768462 -25.825129 9.301845 32.698316 0.968149 1.282338 0.044200 -0.008112 145646.000000 0 0 1
-17.970762 -26.949829 8.406045 33.464954 0.982686 1.316887 0.052275 -0.009777 -12960.500000 0 0 1
-19.258862 -26.852859 7.575945 33.902430 0.948620 1.345430 0.048189 -0.012782 17910.800000 0 0 1
-19.244662 -25.713499 6.779945 32.825428 0.928303 1.362753 0.050297 -0.015779 448536.000000 0 0 1
-20.412862 -25.667089 5.950645 33.330085 0.898932 1.391297 0.054332 -0.014999 508107.000000 0 0 1
-20.369462 -24.407589 5.083045 32.194452 0.875338 1.412247 0.053110 -0.014111 132749.000000 0 0 1
-21.224662 -24.308289 3.947945 32.511005 0.853018 1.449062 0.041275 -0.010948 -49927.000000 0 0 1
-21.054062 -23.075489 3.274545 31.408190 0.831173 1.466349 0.044314 -0.013771 540186.000000 0 0 1
-21.897262 -22.892089 1.957145 31.739065 0.807606 1.509094 0.024382 -0.010192 331017.000000 0 0 1
-21.353762 -23.787289 0.997045 31.981438 0.839255 1.539616 0.016747 -0.012089 198360.000000 0 0 1
-21.506862 -23.334989 -0.322355 31.735954 0.826144 1.580954 -0.002735 -0.003968 -493573.000000 0 0 1
-20.903562 -24.200389 -1.427355 32.010234 0.858362 1.615402 -0.006875 0.000874 -347750.000000 0 0 1
-19.495462 -24.110189 -1.497455 31.042175 0.890834 1.619054 0.005049 -0.002533 -159725.000000 0 0 1
-19.013962 -24.423989 -2.816755 31.080478 0.909306 1.661549 0.007584 0.001404 -53186.200000 0 0 1
-18.945062 -25.917449 -3.292455 32.271811 0.939581 1.672997 0.002078 0.007208 -248643.000000 0 0 1
-20.128262 -26.696259 -3.398155 33.606319 0.924757 1.672086 0.018767 0.002419 -155094.000000 0 0 1
-19.745862 -27.937419 -3.914855 34.434351 0.955528 1.684733 0.028272 0.003097 625595.000000 0 0 1
-20.947262 -28.711689 -4.586155 35.835481 0.940497 1.699126 0.027128 0.001522 816809.000000 0 0 1
-21.182362 -28.150579 -5.873655 35.716206 0.925719 1.736000 0.014033 0.003556 142266.000000 0 0 1
-22.271862 -28.887029 -6.441455 37.040365 0.913991 1.745589 0.024379 -0.008267 249206.000000 0 0 1
-22.657362 -28.173029 -7.768655 36.978746 0.893486 1.782458 0.016344 0.006852 91084.900000 0 0 1
-21.639862 -28.176009 -8.782355 36.596460 0.915859 1.813140 0.040685 0.004397 323376.000000 0 0 1
-22.083262 -28.147379 -10.141455 37.185945 0.905542 1.847018 0.034279 0.004727 -338190.000000 0 0 1
-22.897062 -26.936459 -10.696355 36.935895 0.866279 1.864597 0.019682 0.018335 -441518.000000 0 0 1
-22.376562 -25.638589 -10.864955 35.722473 0.853231 1.879841 0.017498 0.024271 -225788.000000 0 0 1
-22.130162 -25.012789 -9.609455 34.752343 0.846469 1.850959 -0.005918 0.025276 -206873.000000 0 0 1
-21.717162 -23.602389 -9.845555 33.550602 0.826973 1.868634 -0.000604 0.020948 196675.000000 0 0 1
-22.778262 -22.854889 -10.414355 33.906548 0.787077 1.882992 0.005858 0.022630 446381.000000 0 0 1
-22.280462 -21.546589 -10.744155 32.804137 0.768655 1.904479 0.011737 0.021956 883285.000000 0 0 1
-23.478962 -20.549189 -10.955555 33.068944 0.718953 1.908471 0.022511 0.021710 232156.000000 0 0 1
-24.228862 -20.874689 -12.110155 34.197168 0.711169 1.932777 0.021554 0.022148 786366.000000 0 0 1
-25.446502 -20.129189 -12.290655 34.695373 0.669253 1.932903 0.024619 0.011897 411844.000000 0 0 1
-25.374342 -18.534389 -12.288655 33.740063 0.630864 1.943587 0.028922 0.006326 -1145970.000000 0 0 1
-24.778062 -17.882889 -13.432255 33.379269 0.625157 1.984948 0.038129 0.015218 596569.000000 0 0 1
-24.302662 -16.550789 -13.234455 32.244361 0.597879 1.993736 0.049553 -0.004566 -451582.000000 0 0 1
-23.240662 -16.248889 -12.216355 30.877081 0.610160 1.977566 0.030931 -0.003062 -1009700.000000 0 0 1
-23.749762 -16.459189 -10.893255 30.880724 0.606030 1.931307 0.053437 -0.006548 661096.000000 0 0 1
-22.705062 -16.630289 -9.943155 29.848831 0.632173 1.910404 0.037913 -0.004180 278599.000000 0 0 1
-23.335562 -17.038889 -8.614155 30.150885 0.630688 1.860535 0.017673 -0.007900 260661.000000 0 0 1
-23.729562 -18.390789 -8.478155 31.196031 0.659320 1.846028 0.010215 0.003044 308292.000000 0 0 1
-24.742862 -18.617989 -7.512755 31.863462 0.645073 1.808817 0.011344 0.001897 -274912.000000 0 0 1
-24.719962 -20.098489 -7.105655 32.642245 0.682646 1.790236 0.007726 0.010714 -97551.400000 0 0 1
-25.379582 -20.941589 -8.023055 33.868020 0.689881 1.809962 0.012312 0.000095 3007.190000 0 0 1
-24.953462 -22.257589 -7.761955 34.326717 0.728358 1.798889 0.008792 0.008750 351036.000000 0 0 1
-25.649272 -23.338489 -8.690355 35.750420 0.738262 1.816340 -0.008184 0.024329 242597.000000 0 0 1
-25.512362 -24.604889 -8.126455 36.363725 0.767293 1.796177 -0.013868 0.018034 -209333.000000 0 0 1
-25.845812 -25.555369 -9.091555 37.466509 0.779748 1.815901 -0.020910 0.024223 -181845.000000 0 0 1
-26.650362 -26.771159 -8.521355 38.724027 0.787659 1.792666 -0.020702 0.012896 -137684.000000 0 0 1
-25.999662 -27.361849 -7.458555 38.474450 0.810920 1.765889 -0.008471 -0.001005 58183.900000 0 0 1
-26.768402 -28.463319 -7.053055 39.704578 0.816076 1.749382 -0.000074 -0.007172 298407.000000 0 0 1
-26.164122 -28.968829 -5.692855 39.448231 0.836226 1.715614 0.005211 -0.012107 240222.000000 0 0 1
-26.349802 -28.081689 -4.576755 38.779376 0.817205 1.689092 -0.007637 -0.010384 113624.000000 0 0 1
-25.476182 -28.469159 -3.526555 38.366202 0.840823 1.662845 0.000569 -0.009489 -29501.200000 0 0 1
-25.830022 -29.690259 -2.663655 39.443587 0.854815 1.638379 0.000660 -0.007010 -615660.000000 0 0 1
-25.857172 -30.928109 -3.346055 40.451667 0.874462 1.653608 0.005541 -0.012092 -179294.000000 0 0 1
-26.046632 -31.998329 -2.492755 41.334416 0.887577 1.631140 0.007657 -0.016672 -133052.000000 0 0 1
-25.036262 -32.250819 -1.340055 40.850037 0.910676 1.603606 0.015262 -0.017897 148071.000000 0 0 1
-23.765462 -32.604819 -1.894455 40.391340 0.940940 1.617716 0.021617 -0.018419 -35694.400000 0 0 1
-22.751962 -32.814609 -0.938755 39.941603 0.964548 1.594302 0.030927 -0.010355 180917.000000 0 0 1
-21.789362 -31.605149 -0.858255 38.397895 0.967203 1.593150 0.042151 -0.011494 -473086.000000 0 0 1
-22.437262 -30.444309 -0.392455 37.821168 0.935671 1.581173 0.022673 -0.003610 -252370.000000 0 0 1
-22.043362 -29.220599 -0.941455 36.614745 0.924500 1.596512 0.010853 -0.002279 -95109.900000 0 0 1
-22.632862 -28.028279 -0.148055 36.025724 0.891498 1.574906 0.004224 -0.002953 -438476.000000 0 0 1
-24.020762 -27.868399 -0.159255 36.792255 0.859414 1.575125 0.005800 -0.005135 -477353.000000 0 0 1
-24.452762 -26.524799 0.092545 36.076462 0.826022 1.568231 0.016171 -0.018772 194793.000000 0 0 1
-24.160262 -25.859169 1.454445 35.419349 0.819350 1.529721 0.016846 -0.005768 -381437.000000 0 0 1
-24.736362 -26.547939 2.520545 36.373532 0.820708 1.501445 0.003955 -0.008566 -183519.000000 0 0 1
-24.193862 -26.002169 3.688445 35.707988 0.821407 1.467317 0.022973 -0.016331 45747.500000 0 0 1
-24.920662 -24.812889 4.370145 35.437509 0.783231 1.447162 0.038019 -0.017988 -173527.000000 0 0 1
-24.928362 -23.660589 3.545345 34.551645 0.759312 1.468005 0.034146 -0.017502 58609.000000 0 0 1
-25.958182 -22.716389 3.781745 34.701054 0.718895 1.461599 0.033591 -0.015230 -239139.000000 0 0 1
-26.116562 -21.681689 2.643445 34.046413 0.692880 1.493076 0.024314 -0.016678 -204372.000000 0 0 1
-25.021662 -20.810589 2.610545 32.649336 0.693775 1.490754 0.029484 -0.011475 -156708.000000 0 0 1
-25.127672 -19.970689 1.457445 32.130242 0.671543 1.525420 0.024373 -0.013890 265431.000000 0 0 1
-23.912462 -19.005489 1.511045 30.582638 0.671559 1.521368 0.036831 -0.012818 129465.000000 0 0 1
-22.694462 -19.687589 1.367545 30.075072 0.714570 1.525310 0.036145 -0.019876 -262440.000000 0 0 1
-21.572262 -18.824489 1.441845 28.667103 0.717483 1.520479 0.045308 -0.013643 855385.000000 0 0 1
-20.234162 -19.656989 1.339945 28.242061 0.770930 1.523334 0.045299 -0.016130 488351.000000 0 0 1
-19.965262 -20.148189 0.045845 28.364825 0.789958 1.569180 0.021896 -0.014813 246017.000000 0 0 1
-18.710162 -20.827589 0.029845 27.997491 0.838902 1.569730 0.042652 -0.006972 331187.000000 0 0 1
-18.262062 -21.140189 -1.443855 27.973116 0.858313 1.622435 0.038922 -0.009582 -137550.000000 0 0 1
-17.767362 -20.003589 -2.086255 26.836080 0.844534 1.648616 0.033771 -0.011683 -155590.000000 0 0 1
-17.526462 -20.195489 -3.481155 26.965776 0.856036 1.700253 0.029462 -0.000659 85379.700000 0 0 1
-16.793362 -19.049589 -4.232855 25.745309 0.848263 1.735959 0.033535 0.002700 1634790.000000 0 0 1
-15.353062 -19.098189 -3.986555 24.826397 0.893681 1.732072 0.048859 -0.008865 1424550.000000 0 1 0
-14.728962 -18.401589 -5.066955 24.108813 0.895801 1.782545 0.049262 -0.005472 -498766.000000 0 1 0
-13.212562 -18.273489 -5.159555 23.132514 0.944771 1.795732 0.057653 -0.010945 -203010.000000 0 1 0
-12.502062 -19.488789 -5.370055 23.768718 1.000420 1.798693 0.042007 -0.014009 219028.000000 0 1 0
-11.178462 -19.236889 -5.825755 22.999029 1.044393 1.826891 0.036927 -0.018777 532233.000000 0 1 0
-10.314762 -20.510489 -6.035855 23.738282 1.104830 1.827886 0.038780 -0.018225 394345.000000 0 1 0
-10.812262 -21.404189 -7.003055 24.981736 1.103040 1.854931 0.051539 -0.013066 -83808.200000 0 1 0
-9.808362 -22.401489 -7.130855 25.473119 1.158097 1.854524 0.055542 -0.013027 352764.000000 0 0 1
-10.069562 -23.554689 -8.078255 26.860336 1.166812 1.876276 0.059704 -0.012794 -396572.000000 0 0 1
-10.272762 -23.088089 -9.406855 26.964392 1.152160 1.927153 0.045151 -0.000594 -24842.300000 0 0 1
-10.571262 -24.132989 -10.324255 28.297403 1.157931 1.944266 0.054825 0.003410 693154.000000 0 0 1
-11.550062 -23.647289 -11.495555 28.718392 1.116447 1.982625 0.059662 0.003471 457694.000000 0 0 1
-10.945262 -22.677289 -12.324355 28.034763 1.121122 2.025960 0.039814 0.005550 -368541.000000 0 0 1
-11.863662 -22.070789 -13.173855 28.309304 1.077579 2.054831 0.054109 0.002329 -819011.000000 0 0 1
-11.275862 -21.109489 -14.200455 27.828197 1.080195 2.106318 0.044595 0.003182 -432818.000000 0 0 1
-10.844262 -19.912689 -13.598255 26.439095 1.072116 2.111015 0.037393 0.006740 -76150.100000 0 0 1
-10.694562 -18.799689 -14.476955 26.026606 1.053582 2.160647 0.022480 0.019951 -190381.000000 0 0 1
-10.312862 -17.610789 -13.674855 24.566170 1.041033 2.161149 0.035958 0.013950 -769951.000000 0 1 0
-11.326662 -17.103789 -12.865955 24.214989 0.985871 2.130957 0.041470 0.005308 -404423.000000 0 1 0
-10.906862 -16.243689 -11.801855 22.849527 0.979488 2.113559 0.038692 -0.002703 140919.000000 0 1 0
-10.457662 -14.784889 -12.166955 21.817205 0.955174 2.162381 0.036513 -0.001800 773775.000000 0 1 0
-11.561962 -14.041889 -12.715355 22.193104 0.881955 2.180887 0.036818 0.002976 565933.000000 0 1 0
-11.548262 -14.002789 -14.080355 22.971654 0.881168 2.230579 0.042041 0.001010 -519779.000000 0 1 0
-12.698462 -13.255789 -14.747355 23.546791 0.806868 2.247594 0.038211 0.000338 -346397.000000 0 1 0
-12.702762 -11.850189 -14.560055 22.666768 0.750688 2.268360 0.026804 0.002687 88034.600000 0 1 0
-13.900862 -11.233089 -15.023955 23.348137 0.679652 2.269826 0.037171 -0.008763 276305.000000 0 1 0
-14.186162 -9.844489 -14.405455 22.487292 0.606654 2.266081 0.035444 -0.010668 -205555.000000 0 1 0
-13.224062 -8.846689 -14.675955 21.645401 0.589605 2.315858 0.028438 -0.000630 -56507.900000 0 1 0
-13.292162 -8.102689 -15.868655 22.229471 0.547437 2.365786 0.029304 -0.000343 -280447.000000 0 1 0
-12.104262 -7.102989 -15.947855 21.243816 0.530670 2.419926 0.019422 0.004638 898800.000000 0 1 0
-10.900762 -7.915789 -16.027855 20.937490 0.628074 2.442630 0.021740 0.005642 -77206.000000 0 1 0
-9.820062 -7.194089 -15.569355 19.763435 0.632266 2.478002 0.010394 0.007730 -555601.000000 0 1 0
11.259738 22.658011 16.104745 29.992165 1.109597 1.003961 0.079585 -0.018889 -505910.000000 0 0 1
12.095838 22.379711 17.222345 30.720838 1.075290 0.975677 0.088999 -0.022953 176560.000000 0 0 1
12.510938 21.007411 17.161745 29.872401 1.033656 0.958801 0.072841 -0.017652 -2162.360000 0 0 1
13.646138 20.564611 18.110945 30.612524 0.984938 0.937731 0.066607 -0.018876 888973.000000 0 0 1
14.886538 21.251111 17.823245 31.478354 0.959731 0.968900 0.049485 -0.014124 308184.000000 0 0 1
15.937138 20.770511 18.611545 32.121583 0.916317 0.952793 0.038013 -0.013326 -85577.000000 0 0 1
17.313438 21.243411 18.101845 32.843788 0.886974 0.987055 0.017931 -0.001622 -1002380.000000 0 0 1
17.458638 22.651211 18.262145 33.932099 0.914141 1.002500 0.021259 -0.001589 1359110.000000 0 0 1
18.687138 23.176411 17.636545 34.603509 0.892226 1.035989 0.012426 0.001263 1373040.000000 0 0 1
20.057038 22.777611 18.179145 35.377756 0.848826 1.031120 -0.008467 0.003971 -891740.000000 0 0 1
20.337538 21.380511 18.018745 34.574801 0.810393 1.022596 0.008168 -0.000105 11353.300000 0 0 1
21.645338 21.113011 18.500145 35.447641 0.772949 1.021719 0.011270 0.000715 -11252.700000 0 0 1
21.995238 19.590411 18.459745 34.761140 0.727634 1.010962 0.015247 -0.012255 -137357.000000 0 0 1
22.201338 19.011411 17.157045 33.892438 0.708151 1.040000 0.007273 -0.009335 79552.600000 0 0 1
21.935638 17.593011 17.210645 32.968053 0.675977 1.021555 0.006632 -0.010359 -696541.000000 0 0 1
23.011338 16.662411 17.714345 33.480675 0.626715 1.013267 -0.006493 -0.004118 -748220.000000 0 0 1
24.160038 16.523011 16.910545 33.803607 0.599838 1.046899 0.002439 -0.009074 -516887.000000 0 0 1
24.944338 15.566511 17.527745 34.230952 0.557916 1.033234 -0.009122 -0.008743 -658816.000000 0 0 1
26.349838 15.418011 16.885845 34.887831 0.529412 1.065572 0.025478 -0.029146 -1524670.000000 0 0 1
27.045638 16.656811 17.117545 36.082215 0.552013 1.076510 0.019999 -0.024129 212636.000000 0 0 1
28.408338 16.458911 17.425645 37.169645 0.525112 1.082849 0.027057 -0.029937 701309.000000 0 0 1
29.337438 15.539411 16.518845 37.081407 0.487108 1.109091 0.038483 -0.037261 -961736.000000 0 0 1
29.312538 15.993911 15.172945 36.677627 0.499485 1.144300 0.048001 -0.037095 43521.700000 0 0 1
29.627638 14.887011 14.392745 36.146523 0.465622 1.161267 0.068983 -0.041743 -210300.000000 0 0 1
28.897038 14.979611 13.034445 35.061721 0.478242 1.189895 0.054491 -0.027123 -398468.000000 0 0 1
29.368538 15.940811 12.103745 35.540415 0.497287 1.223281 0.051947 -0.018528 -46767.500000 0 0 1
28.656338 15.960411 10.874945 34.556980 0.508170 1.250660 0.034746 -0.008341 627162.000000 0 0 1
27.185338 16.499111 10.870245 33.606926 0.545486 1.241420 0.017650 -0.006889 144199.000000 0 0 1
27.143838 17.923711 11.088245 34.365630 0.583598 1.242263 -0.006322 0.000685 -30391.700000 0 0 1
27.605538 18.419011 12.350045 35.409734 0.588387 1.214532 -0.009201 -0.005444 -541850.000000 0 0 1
26.834238 17.983811 13.644645 35.066652 0.590432 1.171135 -0.013387 -0.017046 161425.000000 0 0 1
25.726238 18.829211 13.919845 34.787075 0.631821 1.159122 -0.020172 0.008301 94158.400000 0 0 1
25.284238 18.829711 15.280745 35.033582 0.640114 1.119454 -0.011390 0.001921 74199.400000 0 0 1
26.164138 19.661511 16.260545 36.545074 0.644440 1.109684 0.003631 -0.008026 108990.000000 0 0 1
26.039938 21.061511 16.128545 37.172511 0.680093 1.121997 -0.007551 -0.002427 1136240.000000 0 0 1
24.786638 21.641611 16.601145 36.855593 0.717762 1.103541 0.005834 0.001085 854924.000000 0 0 1
24.760238 23.191811 16.279145 37.628978 0.752702 1.123397 0.005556 0.008519 -115992.000000 0 0 1
24.686438 23.545611 14.954345 37.248469 0.761750 1.157669 0.024306 0.000348 30240.400000 0 0 1
24.729238 24.957711 14.939445 38.178653 0.789996 1.168749 0.014427 0.004534 -420452.000000 0 0 1
24.626838 25.616611 13.538745 38.026169 0.805095 1.206772 0.012847 -0.001707 -222872.000000 0 0 1
23.318738 25.575511 13.044645 36.986931 0.831522 1.210360 0.029513 -0.003904 -154901.000000 0 0 1
23.450638 25.763811 11.610345 36.722016 0.832366 1.249108 0.038456 -0.017130 114356.000000 0 0 1
22.800438 24.628311 10.813045 35.260964 0.823918 1.259117 0.038483 -0.016450 1332990.000000 0 0 1
21.340438 24.532111 10.881545 34.287706 0.854863 1.247852 0.047248 -0.017192 1741830.000000 0 0 1
20.895138 23.246111 10.442745 32.955111 0.838608 1.248360 0.041393 -0.008826 77770.800000 0 0 1
20.756938 23.046811 8.889745 32.265051 0.837626 1.291663 0.051263 -0.001384 -153944.000000 0 0 1
19.630738 23.704311 8.328745 31.884608 0.879125 1.306515 0.070053 -0.008803 106166.000000 0 0 1
19.676138 23.648711 6.949645 31.539015 0.876835 1.348622 0.060025 -0.026359 213603.000000 0 0 1
18.408538 24.091511 6.147845 30.936567 0.918327 1.370740 0.056373 -0.021655 -113857.000000 0 0 1
17.465238 23.050011 6.024845 29.540418 0.922379 1.365403 0.060571 -0.010817 291535.000000 0 0 1
16.479438 23.197811 5.016045 28.894134 0.953133 1.396312 0.076369 -0.020605 1056570.000000 0 0 1
15.237038 24.135111 5.352545 29.039983 1.007663 1.385420 0.042876 -0.016616 225947.000000 0 0 1
15.508238 25.530211 5.339345 30.344781 1.024919 1.393920 0.058368 -0.024431 423158.000000 0 0 1
14.448538 26.253311 5.970245 30.555530 1.067684 1.374141 0.041268 -0.023870 246452.000000 0 0 1
14.289638 27.673011 5.332845 31.597919 1.094135 1.401213 0.044707 -0.032703 -329341.000000 0 0 1
13.611038 27.605411 4.100545 31.050500 1.112719 1.438349 0.032292 -0.012520 332309.000000 0 0 1
13.633638 28.859411 3.409945 32.099368 1.129459 1.464365 0.028383 -0.013112 -3955.790000 0 0 1
13.038838 28.834311 2.014445 31.709411 1.146115 1.507225 0.035230 -0.015360 223167.000000 0 0 1
13.996838 28.125211 1.207145 31.438768 1.109021 1.532390 0.048745 -0.016824 607546.000000 0 0 1
13.407838 27.199411 0.383245 30.326967 1.112808 1.558159 0.030852 -0.008937 -103316.000000 0 0 1
14.404438 26.695911 -0.700055 30.342208 1.075992 1.593870 0.033237 -0.012408 276377.000000 0 0 1
14.711138 27.590711 -1.722055 31.315018 1.080949 1.625815 0.034655 -0.004775 -533383.000000 0 0 1
15.669038 26.990811 -2.529055 31.311639 1.044814 1.651655 0.044020 -0.006088 -361097.000000 0 0 1
15.541638 27.441311 -4.035155 31.793876 1.055480 1.698056 0.048592 -0.010338 302801.000000 0 0 1
14.381038 26.976411 -4.733655 30.934584 1.081023 1.724421 0.069036 -0.019173 160654.000000 0 0 1
14.326838 27.560911 -6.033855 31.642843 1.091415 1.762658 0.068521 -0.015454 340335.000000 0 0 1
13.120338 27.134111 -6.907155 30.921061 1.120406 1.796077 0.071666 -0.025601 229640.000000 0 0 1
13.181038 25.761611 -7.325355 29.850648 1.097869 1.818729 0.065448 -0.022502 -774940.000000 0 0 1
12.077638 25.421511 -8.090755 29.284516 1.127270 1.850719 0.047183 -0.021101 -379144.000000 0 0 1
11.892438 23.891811 -8.336455 27.959707 1.108941 1.873560 0.050798 -0.017463 4801.420000 0 0 1
12.559138 23.430911 -9.503555 28.232199 1.078760 1.914123 0.054817 -0.020307 6572.950000 0 0 1
12.043638 22.211611 -9.859755 27.122309 1.073944 1.942850 0.062990 -0.018858 -357650.000000 0 0 1
12.369538 21.801311 -11.274555 27.484873 1.054711 1.993480 0.063524 -0.018685 69561.100000 0 0 1
11.698038 20.620511 -11.701855 26.438286 1.054767 2.029304 0.065097 -0.022101 -291968.000000 0 0 1
11.835438 20.356311 -13.059555 26.925990 1.044155 2.077179 0.058543 -0.019782 -142752.000000 0 0 1
13.127838 19.629511 -13.443355 27.173178 0.981332 2.088319 0.048857 -0.017190 358939.000000 0 0 1
14.302438 20.419611 -13.222255 28.219643 0.959784 2.058443 0.041848 -0.014736 -707936.000000 0 0 1
15.381338 19.803711 -13.824155 28.633543 0.910431 2.074641 0.044095 -0.011513 264169.000000 0 0 1
16.775038 20.522411 -13.683155 29.829515 0.885535 2.047341 0.035789 -0.000262 664855.000000 0 0 1
16.991438 21.687611 -14.463855 31.116949 0.906221 2.054230 0.033402 -0.003546 59853.000000 0 0 1
16.113738 22.782511 -14.179655 31.301086 0.955198 2.040933 0.038998 -0.010994 117648.000000 0 0 1
16.615938 24.153211 -14.698155 32.794859 0.968211 2.035530 0.025626 -0.010776 -93019.800000 0 0 1
16.801238 24.395011 -16.100855 33.714028 0.967684 2.068685 0.011821 0.002275 374429.000000 0 0 1
15.550538 24.584411 -16.773255 33.579079 1.006796 2.093835 0.033096 0.004861 616056.000000 0 0 1
15.662638 24.700411 -18.301555 34.501818 1.005677 2.129930 0.005042 0.012209 250111.000000 0 0 1
16.220538 23.519211 -18.918155 34.265956 0.967036 2.155674 0.005482 0.012127 194825.000000 0 0 1
16.124438 23.616311 -20.304255 35.071219 0.971730 2.188229 0.002749 0.013232 -322352.000000 0 0 1
16.464538 22.253711 -20.955455 34.719444 0.933819 2.218762 0.017222 0.009029 -478257.000000 0 0 1
15.507638 21.249311 -20.790355 33.529970 0.940352 2.239606 0.026570 0.005838 -332869.000000 0 0 1
15.688238 20.171411 -21.646055 33.489675 0.909773 2.273588 0.032596 0.003364 173020.000000 0 0 1
14.568338 19.077111 -21.706955 32.363012 0.918613 2.305994 0.027912 0.004555 -331231.000000 0 0 1
14.498838 18.226011 -20.555455 31.063331 0.898804 2.293917 0.023562 0.002145 427895.000000 0 0 1
13.578738 17.142111 -20.752755 30.148150 0.900874 2.330021 0.018180 0.002871 1208610.000000 0 0 1
12.040638 17.385711 -20.891455 29.726971 0.965082 2.350091 0.017668 0.002830 268367.000000 0 0 1
11.180138 17.374911 -19.771755 28.597296 0.999029 2.334201 0.024462 0.001687 -529702.000000 0 0 1
9.873438 17.629311 -20.215855 28.582480 1.060264 2.356441 0.013322 0.008091 -68683.700000 0 0 1
8.825838 17.052711 -19.221355 27.168932 1.093198 2.356716 0.022473 -0.006338 -161507.000000 0 0 1
8.742138 15.610711 -19.200955 26.244922 1.060301 2.391472 0.030876 -0.012977 280642.000000 0 0 1
7.648738 15.017211 -18.471955 25.004658 1.099711 2.401996 0.032343 -0.021299 566348.000000 0 0 1
7.553138 15.259811 -16.923955 24.006915 1.111181 2.353165 0.030354 -0.033603 -254273.000000 0 1 0
7.147038 16.532211 -16.673955 24.544142 1.162750 2.317667 0.034587 -0.029088 -515902.000000 0 1 0
6.636138 16.620411 -15.338555 23.570059 1.190914 2.279387 0.031440 -0.038446 94684.000000 0 1 0
6.079138 18.030511 -15.004455 24.231981 1.245607 2.238520 0.034909 -0.025978 50246.000000 0 1 0
7.065038 19.044311 -14.836255 25.153827 1.215556 2.201633 0.032506 -0.027116 -239232.000000 0 0 1
7.423738 19.621311 -16.039655 26.407920 1.209091 2.223555 0.038426 -0.018676 -81524.700000 0 0 1
8.560038 20.636311 -15.771255 27.347103 1.177593 2.185488 0.028487 -0.002269 -114033.000000 0 0 1
8.174238 21.796811 -15.075755 27.734410 1.212008 2.145488 0.018026 -0.009005 -76446.200000 0 0 1
8.020238 21.711911 -13.697455 26.895196 1.216950 2.105156 0.011253 -0.017361 -30669.200000 0 0 1
7.965438 23.100811 -12.998955 27.677942 1.238751 2.059691 0.021369 -0.020462 -1341620.000000 0 0 1
6.737438 23.654711 -13.221455 27.923920 1.293320 2.064035 0.027511 -0.017406 -1301440.000000 0 0 1
6.371638 24.648311 -12.277255 28.264253 1.317832 2.020139 0.016830 -0.016758 103089.000000 0 0 1
5.777938 24.145211 -10.929755 27.126285 1.335914 1.985503 0.006217 -0.016763 -482251.000000 0 0 1
6.726738 23.735011 -9.969355 26.608040 1.294628 1.954842 0.000179 -0.013100 -220811.000000 0 0 1
6.078438 23.085811 -8.930655 25.488403 1.313342 1.928774 0.009636 -0.020087 -29353.800000 0 0 1
6.903238 23.114211 -7.634355 25.302269 1.280571 1.877299 0.006859 -0.018525 156048.000000 0 0 1
7.133338 24.385711 -7.078955 26.375348 1.286215 1.842521 -0.000229 -0.016247 529160.000000 0 0 1
8.198738 24.317711 -6.113355 26.380741 1.245614 1.804658 0.017364 -0.012716 581122.000000 0 0 1
8.438138 25.709111 -5.444155 27.600713 1.253659 1.769345 0.010203 -0.013904 -45993.200000 0 0 1
9.006238 26.627711 -6.314455 28.810062 1.244647 1.791766 0.020777 -0.020358 -123147.000000 0 0 1
9.143438 27.844311 -5.675855 29.851691 1.253513 1.762096 0.018768 -0.020952 59847.700000 0 0 1
9.362438 29.000711 -6.647855 31.191192 1.258524 1.785576 0.020844 -0.016376 761692.000000 0 0 1
10.625538 29.019211 -7.332355 31.761299 1.219802 1.803756 0.033049 -0.019272 397184.000000 0 0 1
10.761538 30.350311 -7.905955 33.158049 1.230049 1.811548 0.031759 -0.021519 -300132.000000 0 0 1
12.075838 30.610211 -8.649755 34.023949 1.195037 1.827843 0.046483 -0.031972 -296565.000000 0 0 1
13.181938 30.676811 -7.787555 34.285219 1.164948 1.799937 0.049306 -0.019146 -1045250.000000 0 0 1
14.296538 31.030711 -8.536655 35.216054 1.139062 1.815643 0.047783 -0.022287 -480971.000000 0 0 1
15.569438 31.268911 -7.709655 35.771371 1.108814 1.788027 0.046840 -0.021474 100601.000000 0 0 1
16.220538 30.095311 -7.200955 34.938336 1.076459 1.778389 0.054525 -0.017301 -275399.000000 0 0 1
17.410938 30.489611 -6.579155 35.721736 1.051939 1.756032 0.050624 -0.005118 671000.000000 0 0 1
18.522338 29.364411 -6.403255 35.303644 1.008055 1.753182 0.047092 -0.001483 609702.000000 0 0 1
18.318738 28.607111 -5.233155 34.370465 1.001231 1.723648 0.061068 -0.007106 264429.000000 0 0 1
19.328238 27.621711 -5.006755 34.082360 0.960239 1.718232 0.047170 -0.005923 -52654.200000 0 0 1
19.367138 26.340311 -5.940455 33.229310 0.936792 1.750534 0.042833 -0.000165 -201678.000000 0 0 1
19.824038 26.694911 -7.235655 34.028891 0.932038 1.785065 0.038693 0.003510 288039.000000 0 0 1
19.742538 25.654611 -8.203855 33.395061 0.914899 1.818998 0.031148 -0.009848 -1021780.000000 0 0 1
20.126838 26.089611 -9.631555 34.329641 0.913708 1.855175 0.031469 -0.010704 1412350.000000 0 0 1
21.564638 26.203711 -9.822355 35.329120 0.882211 1.852533 0.031274 -0.005909 1389910.000000 0 0 1
22.261638 24.966111 -9.857455 34.872004 0.842600 1.857378 0.027437 -0.006281 -1431880.000000 0 0 1
23.749738 25.081811 -9.618955 35.856263 0.812670 1.842387 0.017852 0.002355 -880439.000000 0 0 1
24.461138 25.474711 -10.778055 36.925257 0.805693 1.866997 0.020656 -0.000278 449199.000000 0 0 1
25.849538 25.505011 -10.411455 37.777011 0.778689 1.850013 0.017262 0.005891 743365.000000 0 0 1
26.835938 25.702511 -11.572655 38.919314 0.763828 1.872712 0.025147 0.005141 10238.200000 0 0 1
26.702038 26.962511 -12.186555 39.855840 0.790252 1.881539 0.027247 0.002326 216762.000000 0 0 1
27.771838 27.007811 -13.124355 40.901657 0.771452 1.897450 0.036498 0.001870 364318.000000 0 0 1
27.517438 27.971011 -14.365455 41.784604 0.793572 1.921755 0.043945 -0.006374 -33429.500000 0 0 1
27.646838 29.329811 -14.069155 42.691060 0.814928 1.906631 0.031061 -0.010815 48894.200000 0 0 1
27.515038 30.112411 -15.251855 43.548291 0.830439 1.928611 0.032947 -0.000825 -108673.000000 0 0 1
27.744838 31.631811 -15.077055 44.695247 0.850768 1.914876 0.028298 -0.007960 -667706.000000 0 0 1
29.018938 31.957211 -14.642455 45.582492 0.833548 1.897824 0.026984 -0.010040 -491607.000000 0 0 1
29.406938 33.284611 -15.077355 46.903731 0.847173 1.898060 0.027725 -0.015461 87846.000000 0 0 1
15.090738 -32.595803 -29.166708 46.270008 -1.137213 2.252812 0.031614 -0.006569 -19239.800000 0 0 1
15.876338 -33.154403 -28.127968 46.286663 -1.124203 2.223946 0.032039 0.000846 211017.000000 0 0 1
16.134238 -32.161003 -27.125388 45.060298 -1.105813 2.216774 0.049636 -0.004430 -296547.000000 0 0 1
17.226138 -32.635503 -26.105248 45.202875 -1.085130 2.186475 0.029752 0.007711 1236600.000000 0 0 1
18.583138 -32.240203 -26.375688 45.611847 -1.047913 2.187396 0.024295 0.003902 826937.000000 0 0 1
19.214738 -33.093303 -27.339558 47.030036 -1.044746 2.191148 0.013150 0.011027 10783.700000 0 0 1
20.751038 -32.821703 -27.325748 47.482273 -1.007011 2.184004 0.029639 0.014171 453490.000000 0 0 1
21.102238 -31.581903 -27.976958 47.174476 -0.981750 2.205642 0.026729 0.005170 -629154.000000 0 0 1
22.408538 -31.158903 -27.798238 47.389470 -0.947320 2.197640 0.020395 0.013839 -845969.000000 0 0 1
22.980838 -29.996103 -28.567318 47.370632 -0.917053 2.218128 0.014189 0.018137 -99657.800000 0 0 1
23.197838 -30.230203 -29.946288 48.464266 -0.916269 2.236871 0.015191 0.020752 -55591.000000 0 0 1
23.757638 -29.171403 -30.662198 48.534179 -0.887327 2.254624 0.020804 0.006975 45558.000000 0 0 1
23.991538 -29.498903 -32.148258 49.792466 -0.887996 2.272664 0.019587 0.010136 696542.000000 0 0 1
25.186638 -30.243003 -32.412808 50.986234 -0.876368 2.259733 0.021872 0.000733 286158.000000 0 0 1
25.192438 -30.546903 -33.800938 52.060308 -0.881167 2.277414 0.011670 -0.003310 878633.000000 0 0 1
26.477338 -31.340903 -34.276072 53.461676 -0.869319 2.266771 0.015205 -0.007197 1484800.000000 0 0 1
27.664238 -30.533703 -34.225069 53.562790 -0.834664 2.263956 0.017023 -0.014092 218088.000000 0 0 1
28.805138 -31.243003 34.096149 54.483103 -0.825974 0.894625 0.030555 -0.006041 -3769.710000 0 0 1
30.048238 -30.361403 33.952157 54.566110 -0.790582 0.899220 0.038973 -0.016338 -214020.000000 0 0 1
30.000538 -29.343703 32.968943 53.366997 -0.774330 0.904883 0.024210 -0.008774 360575.000000 0 0 1
31.279238 -28.725003 32.939228 53.744853 -0.742856 0.911094 0.028914 -0.017474 337418.000000 0 0 1
31.374738 -27.774603 31.713955 52.550715 -0.724608 0.922923 0.023616 -0.009820 19511.700000 0 0 1
32.689738 -27.248803 31.568215 52.987436 -0.694871 0.932575 0.018972 -0.015746 527888.000000 0 0 1
32.868438 -26.363803 30.437765 51.979244 -0.676021 0.945207 0.025887 -0.005290 -93106.100000 0 0 1
33.479038 -27.098803 29.153205 52.010580 -0.680462 0.975777 0.020534 -0.004946 -431479.000000 0 0 1
32.742138 -28.076103 28.445665 51.666923 -0.708827 0.987763 0.016443 -0.009246 305172.000000 0 0 1
31.940938 -27.531103 27.386355 50.281185 -0.711384 0.994808 0.019259 -0.012487 -45501.300000 0 0 1
30.937738 -28.528603 26.788425 49.886316 -0.744908 1.003932 0.013411 0.000925 -129459.000000 0 0 1
30.020638 -27.929103 25.901365 48.499012 -0.749322 1.007401 0.002592 0.003513 -170218.000000 0 0 1
29.337638 -28.952703 25.191095 48.306803 -0.778795 1.022210 -0.006964 0.009054 -273433.000000 0 0 1
28.083538 -28.458203 24.434255 46.857093 -0.792024 1.022231 -0.011333 0.010963 -221295.000000 0 0 1
27.054538 -28.278003 25.367205 46.637844 -0.807506 0.995696 -0.018447 0.010861 -1356390.000000 0 0 1
25.783838 -28.402703 24.851625 45.706926 -0.833691 0.995937 -0.018960 0.016624 -556280.000000 0 0 1
24.668238 -28.222103 25.904455 45.563690 -0.852490 0.966075 -0.007017 0.011598 -109175.000000 0 0 1
24.603638 -27.009603 26.523505 45.148133 -0.831980 0.942858 -0.020741 0.011906 635303.000000 0 0 1
23.483838 -26.917003 27.439755 45.043932 -0.853410 0.915773 -0.018914 0.003422 540728.000000 0 0 1
23.402238 -25.642803 28.356765 44.825486 -0.831050 0.885886 -0.018340 0.018512 -426467.000000 0 0 1
22.283738 -25.669803 29.215515 44.822428 -0.855893 0.860833 0.004173 0.009067 15348.200000 0 0 1
22.273338 -24.550403 30.109555 44.781795 -0.833990 0.833402 0.009401 0.004407 -128272.000000 0 0 1
21.616938 -23.195103 29.655155 43.413512 -0.820601 0.818817 0.021375 -0.004759 -390168.000000 0 0 1
22.298138 -22.611403 28.569405 42.716430 -0.792374 0.838182 0.033558 -0.008169 250526.000000 0 0 1
21.890938 -21.285703 28.243025 41.592821 -0.771381 0.824348 0.042972 -0.002649 -71173.100000 0 0 1
22.708538 -20.258703 29.035165 42.061069 -0.728443 0.808879 0.046455 -0.005625 -196560.000000 0 0 1
22.324838 -20.208603 30.420615 42.804203 -0.735685 0.780315 0.047199 -0.002516 195740.000000 0 0 1
23.284338 -19.440503 31.106855 43.448014 -0.695673 0.772804 0.060828 -0.008544 -195800.000000 0 0 1
22.802838 -18.884503 32.453535 43.929782 -0.691680 0.739569 0.077940 -0.018728 -531090.000000 0 0 1
22.991038 -19.779303 33.484016 45.177295 -0.710446 0.735986 0.056185 -0.013518 123516.000000 0 0 1
22.417238 -19.352703 -34.055698 45.131477 -0.712162 2.425823 0.055439 -0.014477 20047.300000 0 0 1
22.214138 -20.483203 -33.019118 44.758147 -0.744881 2.400488 0.039195 -0.013336 -256168.000000 0 0 1
23.425438 -20.866903 -32.457728 45.140701 -0.727698 2.373209 0.037348 -0.006942 -482038.000000 0 0 1
23.156038 -21.996003 -31.606998 44.933602 -0.759712 2.350988 0.033317 -0.001815 55894.100000 0 0 1
24.301338 -22.315603 -30.633358 45.021593 -0.742827 2.319125 0.023937 -0.003180 -6057.850000 0 0 1
25.430338 -22.867003 -31.286998 46.351679 -0.732374 2.311750 0.015871 -0.003834 -416453.000000 0 0 1
26.235738 -23.399803 -30.280348 46.397890 -0.728325 2.281838 0.010236 -0.008193 1103910.000000 0 0 1
27.553838 -24.242203 -30.638308 47.807994 -0.721549 2.266416 0.000935 -0.000582 1232280.000000 0 0 1
28.613938 -23.647903 -31.390918 48.614509 -0.690660 2.272750 -0.000790 -0.006215 -6621.640000 0 0 1
28.380738 -23.566803 -32.795198 49.359756 -0.692993 2.297503 0.002112 -0.008242 -157526.000000 0 0 1
28.558638 -24.876503 -33.611528 50.637644 -0.716598 2.296639 0.002875 -0.016194 -626442.000000 0 0 1
27.590038 -25.808703 -33.285478 50.350992 -0.752051 2.293039 0.026274 -0.016555 -621850.000000 0 0 1
27.585538 -26.970503 -34.089059 51.482365 -0.774125 2.294481 0.024509 -0.015067 -276720.000000 0 0 1
27.075738 -26.934703 33.203345 50.606678 -0.782787 0.855149 0.021531 -0.010483 -476703.000000 0 0 1
27.875838 -26.145003 32.364595 50.080840 -0.753369 0.868140 0.013251 -0.011054 -292715.000000 0 0 1
27.525538 -26.236303 31.005145 49.064425 -0.761422 0.886759 0.010124 -0.007927 -586397.000000 0 0 1
28.663738 -25.769703 30.073415 48.888626 -0.732282 0.908231 0.012280 -0.011083 -61117.000000 0 0 1
28.943338 -24.401703 29.973635 48.286423 -0.700466 0.901102 0.014290 -0.015459 41540.600000 0 0 1
29.269938 -23.755303 31.172795 48.916120 -0.681771 0.879845 0.007364 -0.011104 -1620300.000000 0 0 1
29.750938 -22.292603 30.993055 48.400908 -0.643058 0.875855 0.012220 -0.010827 741757.000000 0 0 1
31.079138 -22.076103 30.529005 48.839403 -0.617618 0.895550 0.013892 -0.006840 -136919.000000 0 0 1
32.086238 -22.505003 31.345335 50.184976 -0.611659 0.896182 0.011944 -0.010678 -1958540.000000 0 0 1
33.529538 -22.194003 31.009845 50.778087 -0.584712 0.913860 0.010140 -0.014325 -371565.000000 0 0 1
34.084338 -22.787103 29.832125 50.704534 -0.589306 0.941777 0.017035 -0.016072 536890.000000 0 0 1
35.332438 -22.242903 29.426745 51.078970 -0.561852 0.956843 -0.002144 -0.022013 280340.000000 0 0 1
35.636038 -22.516603 27.944975 50.575154 -0.563509 0.985383 0.012162 -0.018781 -171403.000000 0 0 1
-35.587462 -23.869203 27.627895 50.985359 0.590803 0.998125 0.004165 -0.007843 304245.000000 0 0 1
-35.307062 -23.915403 26.219415 50.059892 0.595366 1.019536 0.003844 0.001034 -103313.000000 0 0 1
-35.078162 -25.410803 25.812395 50.422872 0.626918 1.033380 -0.003563 -0.007918 -1253.730000 0 0 1
35.109038 -26.140303 25.845055 50.832340 -0.640002 1.037427 0.000531 -0.007519 303592.000000 0 0 1
35.247138 -27.516103 25.524705 51.487932 -0.662838 1.052108 -0.005680 0.002126 -65549.900000 0 0 1
-35.267962 -28.308103 26.506935 52.419418 0.676359 1.040638 -0.008515 -0.001927 -694443.000000 0 0 1
-35.175262 -29.645603 26.069385 52.875076 0.700297 1.055219 -0.006434 -0.006539 733859.000000 0 0 1
-34.107562 -30.423203 26.653655 52.908547 0.728365 1.042841 -0.003921 -0.014984 238111.000000 0 0 1
-32.667862 -30.006203 26.403485 51.620785 0.742955 1.033879 0.013670 -0.013170 -1642460.000000 0 0 1
-32.230962 -30.065603 25.117165 50.731128 0.750653 1.052842 0.008529 -0.011296 53217.200000 0 0 1
-30.992362 -29.361803 25.074115 49.511142 0.758388 1.039752 0.006019 -0.009118 193222.000000 0 0 1
-30.413462 -29.342203 23.648645 48.427285 0.767473 1.060618 0.005745 -0.006691 -307930.000000 0 0 1
-30.191562 -30.637903 23.156145 48.850983 0.792736 1.076950 0.007115 -0.010370 360420.000000 0 0 1
-29.692262 -30.697603 21.857245 47.976165 0.802044 1.097767 0.007683 -0.007960 -645640.000000 0 0 1
-29.672962 -32.157503 21.360745 48.691591 0.825560 1.116651 0.006861 -0.004066 -637595.000000 0 0 1
-28.665962 -33.033003 21.726645 48.836090 0.856060 1.109746 0.009198 -0.015900 -456840.000000 0 0 1
-27.471562 -32.848303 20.984545 47.686988 0.874300 1.115145 0.022708 -0.011551 411263.000000 0 0 1
-26.522462 -34.115603 21.059545 48.070987 0.909970 1.117321 0.013601 -0.005932 117676.000000 0 0 1
-26.806262 33.697311 20.059345 47.502229 -0.898804 1.134835 0.002100 -0.004714 316919.000000 0 0 1
-28.040762 33.000511 20.217145 47.791746 -0.866472 1.134014 0.005799 -0.005023 322112.000000 0 0 1
-28.099062 31.930111 21.333545 47.583709 -0.849132 1.105892 0.009501 -0.004362 -315578.000000 0 0 1
-27.276362 30.846611 21.012045 46.227906 -0.846747 1.098950 0.008750 -0.004832 -132365.000000 0 0 1
-27.235762 29.853911 22.029045 46.025227 -0.831226 1.071703 0.017730 -0.009128 -276900.000000 0 0 1
-26.312162 28.669111 21.698445 44.554128 -0.828240 1.062130 0.013231 -0.008948 -268038.000000 0 0 1
-24.972562 29.083211 21.617945 44.009062 -0.861297 1.057311 0.016074 -0.003170 -448343.000000 0 0 1
-24.109162 28.095211 21.133545 42.628855 -0.861605 1.052090 0.009947 -0.007103 -232117.000000 0 0 1
-22.638362 28.524511 21.150945 42.113010 -0.899942 1.044606 0.007077 0.003831 -377787.000000 0 0 1
-22.030162 28.617611 22.391445 42.493205 -0.914736 1.015798 0.018000 -0.001987 1146500.000000 0 0 1
-20.594262 28.701211 22.403045 41.830366 -0.948395 1.005615 0.036516 -0.006071 957054.000000 0 0 1
-19.987762 28.757411 23.832895 42.361612 -0.963402 0.973262 0.032919 -0.004477 -616941.000000 0 0 1
-20.088462 27.500511 24.516295 41.962758 -0.939908 0.946854 0.041264 -0.008862 397061.000000 0 0 1
-19.844062 27.583111 25.937905 42.747979 -0.947150 0.918814 0.041268 -0.005625 -185021.000000 0 0 1
-18.410462 27.971211 26.376955 42.627192 -0.988683 0.903605 0.051379 -0.006245 -357155.000000 0 0 1
-18.188862 29.325811 26.212775 43.335291 -1.015632 0.921178 0.026049 -0.006722 543722.000000 0 0 1
-16.868862 29.682511 26.656625 43.314958 -1.054004 0.907885 0.030560 -0.006400 301948.000000 0 0 1
-16.688962 30.039111 28.191785 44.448243 -1.063683 0.883744 0.021454 -0.002039 -278043.000000 0 0 1
-16.630062 28.903311 29.023345 44.207634 -1.048685 0.854596 0.029450 0.003058 150541.000000 0 0 1
-16.614662 29.208411 30.395095 45.310485 -1.053610 0.835485 0.021497 0.006708 -45471.200000 0 0 1
-16.405662 27.938611 31.268945 45.027310 -1.039839 0.803149 0.020034 0.003684 104898.000000 0 0 1
-15.065562 27.454011 31.169275 44.183906 -1.068908 0.787747 0.028600 0.002145 564182.000000 0 0 1
-14.682662 26.386511 31.986705 43.988382 -1.063018 0.756617 0.036318 -0.001423 -214744.000000 0 0 1
-14.806962 26.570111 33.530336 45.271407 -1.062382 0.736757 0.047593 0.004466 -1500440.000000 0 0 1
-16.135862 26.324111 33.801272 45.780463 -1.020895 0.740200 0.052244 0.001381 -1069120.000000 0 0 1
-16.526162 26.975511 -33.745668 46.255403 -1.021138 2.388461 0.039585 0.003223 -18773.600000 0 0 1
-17.835862 26.449211 -33.136038 45.996476 -0.977498 2.375181 0.022168 0.003726 275499.000000 0 0 1
-18.958162 26.584011 -34.010808 47.147180 -0.951305 2.376582 0.011758 0.001019 155903.000000 0 0 1
-20.120062 26.130911 -33.340248 46.895773 -0.914635 2.361635 0.008674 -0.008719 -198601.000000 0 0 1
-21.431962 26.392411 -34.137555 48.179467 -0.888751 2.358237 0.042354 -0.023406 -130831.000000 0 0 1
-21.672262 25.519111 33.553786 47.400089 -0.866734 0.784298 0.041287 -0.022685 10161.100000 0 0 1
-21.847162 24.163711 33.962058 47.059587 -0.835704 0.764567 0.034007 -0.025171 -772533.000000 0 0 1
-22.352462 23.214911 32.877818 46.038196 -0.804323 0.775398 0.031737 -0.017346 1065180.000000 0 0 1
-23.697062 23.340011 32.334525 46.387804 -0.777807 0.799524 0.035957 -0.028851 1005730.000000 0 0 1
-23.810862 22.737611 31.059445 45.261962 -0.762346 0.814523 0.031633 -0.022658 -180822.000000 0 0 1
-25.209462 22.607411 30.430555 45.526153 -0.731035 0.838715 0.026636 -0.011139 -261497.000000 0 0 1
-25.700362 21.407411 30.865885 45.513610 -0.694519 0.825529 0.027864 -0.019200 -938081.000000 0 0 1
-26.943762 21.205811 30.262895 45.732871 -0.666788 0.847670 0.021736 -0.010995 -466614.000000 0 0 1
-27.509762 19.840111 30.797315 45.813662 -0.624815 0.833580 0.033342 -0.016069 -357148.000000 0 0 1
-27.977162 19.735811 32.101695 46.933385 -0.614358 0.817586 0.038187 -0.016367 -125953.000000 0 0 1
-27.920862 18.396511 32.675289 46.751263 -0.582593 0.796913 0.034563 -0.011555 65147.800000 0 0 1
-28.863362 17.320611 32.016085 46.455644 -0.540486 0.810446 0.023109 -0.010248 -880374.000000 0 0 1
-30.209762 17.596611 32.168195 47.508559 -0.527438 0.826977 0.018889 -0.013632 -1203030.000000 0 0 1
-30.920862 16.456311 31.853985 47.345393 -0.489080 0.832809 0.019781 -0.003094 -423637.000000 0 0 1
-32.452562 16.613211 31.880765 48.430886 -0.473140 0.852273 0.022586 -0.002807 -32124.100000 0 0 1
-33.056962 16.827311 33.144268 49.743981 -0.470853 0.841564 0.022564 -0.010497 128099.000000 0 0 1
-34.457062 16.928711 33.042903 50.652777 -0.456662 0.860127 0.036840 -0.012781 -42383.600000 0 0 1
-35.116962 17.307411 -34.324732 52.066637 -0.457912 2.290612 0.037744 -0.009567 -1093060.000000 0 0 1
34.919638 17.463511 -34.280783 51.956977 0.463732 2.291338 0.033718 -0.012457 -1095400.000000 0 0 1
34.603838 18.084711 -33.022878 51.137001 0.481581 2.272831 0.029663 -0.018262 -232692.000000 0 0 1
33.102338 18.186111 -32.754998 49.993893 0.502375 2.285217 0.026966 -0.015997 -347027.000000 0 0 1
32.447838 16.955411 -32.681508 49.075749 0.481519 2.299550 0.021100 -0.011484 -442800.000000 0 0 1
31.161838 17.117511 -32.149858 47.934150 0.502313 2.305960 0.018770 -0.011268 -211954.000000 0 0 1
30.182038 15.926511 -32.340188 47.015922 0.485547 2.329328 0.015843 -0.008490 -302421.000000 0 0 1
29.711738 15.878211 -33.651218 47.616273 0.490794 2.355643 0.015568 -0.008737 -38494.400000 0 0 1
28.935938 14.677111 -33.886458 46.914797 0.469413 2.377916 0.009092 -0.010159 376345.000000 0 0 1
29.753238 13.365311 -34.229747 47.281733 0.422193 2.380312 0.008571 -0.005287 71511.600000 0 0 1
30.411538 12.774511 -33.171768 46.780509 0.397675 2.359009 0.010458 -0.000331 -204505.000000 0 0 1
31.280038 11.771311 -33.615868 47.402860 0.359928 2.359092 0.018690 0.000549 -288096.000000 0 0 1
17.354738 -21.215189 10.245642 29.261653 -0.885156 1.213077 0.024527 -0.016989 -6433.900000 0 0 1
17.038438 -22.367789 10.981942 30.186576 -0.919824 1.198450 0.032623 -0.020467 53901.100000 0 0 1
18.199238 -23.097189 11.351842 31.520735 -0.903451 1.202380 0.028059 -0.016302 -396336.000000 0 0 1
17.951938 -24.418389 12.112342 32.637994 -0.936847 1.190590 0.032039 -0.024714 -295008.000000 0 0 1
17.262138 -25.441259 11.401142 32.790625 -0.974640 1.215685 0.016785 -0.014254 1690910.000000 0 0 1
15.816438 -25.232689 11.384042 31.881730 -1.010887 1.205666 0.029700 -0.014074 1252100.000000 0 0 1
15.019538 -26.290149 10.594842 32.078172 -1.051748 1.234194 0.036435 -0.004178 27513.300000 0 0 1
15.208938 -26.088169 9.184042 31.563444 -1.042984 1.275555 0.037847 -0.010331 455785.000000 0 0 1
14.188138 -26.708109 8.407842 31.389778 -1.082478 1.299633 0.041311 -0.000415 236198.000000 0 0 1
14.011438 -26.140749 6.936742 30.459441 -1.078765 1.341043 0.052585 -0.004218 115289.000000 0 0 1
13.393338 -24.848689 6.915742 29.063144 -1.076441 1.330536 0.068574 -0.013408 179111.000000 0 0 1
12.924238 -24.458589 5.635942 28.231584 -1.084677 1.369813 0.055185 -0.002754 -137273.000000 0 0 1
12.319938 -23.079689 5.777942 26.792490 -1.080476 1.353433 0.063199 -0.008578 -385468.000000 0 0 1
11.819838 -22.549689 4.605042 25.872832 -1.088001 1.391855 0.068242 -0.010495 -81290.000000 0 0 1
11.089238 -21.357989 4.801542 24.539554 -1.091901 1.373860 0.067548 -0.010427 657832.000000 0 1 0
10.161138 -20.738989 3.676142 23.385218 -1.115218 1.412942 0.048726 -0.013348 261857.000000 0 1 0
10.886538 -20.069289 2.661342 22.986427 -1.073770 1.454757 0.037114 -0.007919 -142664.000000 0 1 0
10.099838 -19.654489 1.554842 22.152273 -1.096115 1.500550 0.022525 0.001525 -47542.700000 0 1 0
10.922538 -19.046889 0.381342 21.959764 -1.050124 1.553430 0.018775 0.002568 -271255.000000 0 1 0
11.716538 -17.950089 0.676142 21.446215 -0.992505 1.539264 0.013414 0.003406 -417570.000000 0 1 0
12.475938 -17.633289 -0.476358 21.605759 -0.955040 1.592846 0.021477 0.003162 -674761.000000 0 1 0
13.669738 -16.745789 -0.180258 21.617486 -0.886190 1.579135 0.022382 0.004983 -110457.000000 0 1 0
14.685238 -17.435489 0.548842 22.802494 -0.870812 1.546725 0.024278 0.002541 226302.000000 0 1 0
15.975338 -16.892189 0.353042 23.252572 -0.813286 1.555613 0.022041 0.000625 289054.000000 0 1 0
17.066438 -17.609589 1.181442 24.551105 -0.801060 1.522656 0.014065 0.005667 -44383.300000 0 1 0
17.331738 -18.987289 0.942842 25.725381 -0.830950 1.534138 0.005252 0.003787 -17703.100000 0 0 1
18.529438 -19.374789 1.586442 26.855899 -0.807697 1.511690 0.003739 0.009885 258002.000000 0 0 1
19.069338 -20.664089 0.943942 28.134236 -0.825513 1.537239 -0.011138 0.011752 114963.000000 0 0 1
18.292038 -21.795489 1.334542 28.485488 -0.872572 1.523929 -0.002439 0.022212 118587.000000 0 0 1
18.301838 -22.828789 0.407842 29.262215 -0.895020 1.556858 -0.001401 0.019304 -191679.000000 0 0 1
17.226438 -23.881689 0.739242 29.455589 -0.945902 1.545697 0.004121 0.019621 -38133.600000 0 0 1
17.386838 -24.636989 1.896842 30.213927 -0.956241 1.507975 -0.004967 0.023170 127324.000000 0 0 1
16.241938 -25.455719 2.087042 30.267969 -1.002870 1.501789 0.006749 0.021225 -83537.300000 0 0 1
16.252438 -26.299989 3.415242 31.104582 -1.017273 1.460776 0.012941 0.013506 137117.000000 0 0 1
17.240438 -27.310269 3.507842 32.486743 -1.007694 1.462608 -0.000842 0.016958 -556797.000000 0 0 1
18.491738 -26.883129 3.917042 32.863205 -0.968267 1.451320 -0.000580 0.023887 -833332.000000 0 0 1
19.546838 -28.013669 4.027242 34.395686 -0.961575 1.453441 0.012133 0.016394 -37845.700000 0 0 1
19.965738 -28.346469 2.693442 34.776539 -0.957159 1.493269 0.011650 0.021942 467793.000000 0 0 1
20.933238 -29.416269 2.642342 36.200819 -0.952313 1.497740 0.030001 0.025576 702629.000000 0 0 1
20.269838 -30.814449 2.975342 37.003368 -0.988955 1.490302 0.035770 0.016700 206531.000000 0 0 1
19.942138 -31.015159 4.370942 37.131309 -0.999372 1.452807 0.047602 0.009710 -18965.500000 0 0 1
19.318038 -32.256129 4.485342 37.865060 -1.031190 1.452062 0.034932 -0.007354 -597913.000000 0 0 1
19.085038 -32.564599 5.974942 38.215072 -1.040685 1.413802 0.042423 -0.013048 -1553220.000000 0 0 1
20.113338 -33.115679 6.687142 39.318093 -1.024978 1.399888 0.038099 -0.025559 -800657.000000 0 0 1
19.746738 -33.721149 7.944542 39.876877 -1.041040 1.370228 0.042121 -0.020474 -342836.000000 0 0 1
20.866438 34.292519 8.607142 41.054452 1.024162 1.359577 0.041036 -0.029924 -15343.200000 0 0 1
21.861138 -33.690279 9.199042 41.201537 -0.995205 1.345629 0.048514 -0.033368 -73555.700000 0 0 1
23.017638 34.346234 9.388042 42.398240 0.980376 1.347521 0.053919 -0.035853 -234161.000000 0 0 1
24.051038 -33.721409 10.260442 42.671566 -0.951248 1.327965 0.056803 -0.030980 -293530.000000 0 0 1
24.699838 -32.593279 9.696942 42.028972 -0.922309 1.337978 0.044447 -0.030636 -317794.000000 0 0 1
25.654338 -32.083639 10.554242 42.413406 -0.896294 1.319312 0.034825 -0.020415 -469831.000000 0 0 1
26.334938 -30.845169 9.924642 41.754664 -0.864113 1.330810 0.034370 -0.026658 -157928.000000 0 0 1
25.395638 -29.827339 9.575542 40.327405 -0.865478 1.331062 0.030731 -0.026792 80831.200000 0 0 1
25.713438 -29.111219 8.450342 39.749871 -0.847294 1.356574 0.035429 -0.025828 -212834.000000 0 0 1
25.515838 -27.587559 8.500742 38.527834 -0.824391 1.348327 0.023885 -0.014889 -136902.000000 0 0 1
26.243238 -27.028179 9.552142 38.864809 -0.800132 1.322473 0.009445 -0.024209 -183176.000000 0 0 1
25.936038 -25.660749 9.631242 37.734771 -0.780063 1.312705 0.019508 -0.019982 -248634.000000 0 0 1
26.829238 -24.834189 10.613742 38.068313 -0.746801 1.288244 0.038623 -0.021306 334977.000000 0 0 1
28.138838 -24.752989 10.088342 38.810814 -0.721471 1.307840 0.015523 -0.009839 -223117.000000 0 0 1
29.041338 -23.999789 10.880542 39.214479 -0.690633 1.289645 0.019508 -0.011418 408199.000000 0 0 1
30.298838 -23.594689 10.066542 39.699675 -0.661638 1.314430 0.030444 -0.009826 146110.000000 0 0 1
29.989538 -22.790889 8.954142 38.716581 -0.649846 1.337409 0.015475 -0.007742 -239406.000000 0 0 1
31.036238 -22.675589 8.004942 39.262062 -0.630980 1.365472 0.030293 -0.010661 -156862.000000 0 0 1
30.805538 -21.669189 6.852842 38.281802 -0.613017 1.390816 0.034740 -0.003905 -268532.000000 0 0 1
30.656138 -20.340089 7.277242 37.503017 -0.585801 1.375513 0.035386 -0.003166 -106696.000000 0 0 1
30.785738 -19.562989 6.133942 36.987801 -0.566083 1.404190 0.034428 -0.006745 -170161.000000 0 0 1
30.434638 -18.025289 6.299342 35.928539 -0.534711 1.394556 0.046857 -0.005635 -42383.500000 0 0 1
31.283138 -17.435689 7.241442 36.538698 -0.508469 1.371290 0.056564 -0.006001 -296053.000000 0 0 1
31.166838 -16.056189 7.327242 35.817055 -0.475709 1.364768 0.058703 -0.006526 -41652.200000 0 0 1
31.741238 -15.666889 8.737642 36.459621 -0.458500 1.328788 0.058222 -0.019706 1113610.000000 0 0 1
33.179538 -15.719889 8.668942 37.724623 -0.442455 1.338929 0.037822 -0.015587 547558.000000 0 0 1
33.805938 -15.277789 9.832642 38.378811 -0.424455 1.311708 0.029144 -0.023407 131444.000000 0 0 1
35.349238 -15.300489 9.758942 39.735507 -0.408491 1.322660 0.032614 -0.028613 44939.700000 0 0 1
-35.490262 -14.352689 8.891042 39.301514 0.384304 1.342594 0.035127 -0.018955 -1105700.000000 0 0 1
-34.150362 -14.622089 8.717942 38.158292 0.404551 1.340293 0.033222 -0.017181 -703698.000000 0 0 1
-33.355962 -13.458089 8.084242 36.865910 0.383493 1.349712 0.036184 -0.021054 -256993.000000 0 0 1
-33.802762 -13.279689 6.697042 36.930031 0.374334 1.388443 0.044741 -0.027548 -191430.000000 0 0 1
-32.834562 -12.830289 5.796042 35.725605 0.372512 1.407838 0.028525 -0.022682 -460975.000000 0 0 1
-31.847062 -13.942589 5.392042 35.181035 0.412661 1.416924 0.003375 -0.018013 -185182.000000 0 0 1
-30.984762 -14.408389 6.432142 34.771103 0.435270 1.384739 0.019224 -0.015798 448376.000000 0 0 1
-30.220062 -15.554689 5.982442 34.510724 0.475349 1.396566 0.016871 -0.003877 419018.000000 0 0 1
-29.634762 -16.353589 7.212442 34.607489 0.504253 1.360850 0.004873 -0.014654 256972.000000 0 0 1
-30.570962 -17.243089 7.806142 35.956136 0.513555 1.351952 0.017316 -0.017954 121273.000000 0 0 1
-30.429262 -17.186389 9.221842 36.143524 0.514133 1.312799 0.000876 -0.013285 -229773.000000 0 0 1
-31.492162 -17.991189 9.953742 37.610053 0.519042 1.302949 -0.015769 -0.014595 -688784.000000 0 0 1
-32.820162 -17.504689 9.799542 38.465675 0.489972 1.313196 0.003439 -0.004622 671752.000000 0 0 1
-33.811162 -18.207489 10.562642 39.828090 0.493975 1.302379 0.028848 -0.024367 430129.000000 0 0 1
-34.075362 -19.725789 10.242842 40.683570 0.524751 1.316289 0.037071 -0.018518 -1150470.000000 0 0 1
-33.067862 -20.609789 10.631742 40.389118 0.557345 1.304425 0.037387 -0.011259 -685886.000000 0 0 1
-32.899962 -20.854889 12.037342 40.770473 0.564965 1.271083 0.023878 -0.030364 -940093.000000 0 0 1
-34.078762 -21.400489 12.853242 42.243920 0.560733 1.261632 0.035342 -0.040433 -486920.000000 0 0 1
-34.301662 -22.704789 12.388342 42.960243 0.584706 1.278275 0.036938 -0.036586 233235.000000 0 0 1
-35.404262 -22.857889 11.489342 43.680085 0.573294 1.304631 0.038167 -0.024595 -102075.000000 0 0 1
35.504138 -24.326589 11.528142 44.555862 -0.600708 1.309084 0.036440 -0.015230 -263117.000000 0 0 1
35.028738 -24.600389 12.821942 44.683261 -0.612262 1.279753 0.073792 -0.018786 33001.200000 0 0 1
34.665238 -25.970619 12.917342 45.199663 -0.642978 1.280972 0.036235 -0.008097 -328069.000000 0 0 1
33.789138 -26.209059 14.140642 45.039742 -0.659726 1.251436 0.043056 -0.008986 -239963.000000 0 0 1
32.507938 -25.633089 13.998342 43.700971 -0.667700 1.244728 0.037509 -0.005055 -97825.000000 0 0 1
31.874438 -25.439499 15.260742 43.543520 -0.673591 1.212722 0.034242 0.002483 -138417.000000 0 0 1
31.580938 -23.942789 15.587242 42.586088 -0.648691 1.196071 0.050647 -0.008123 -514940.000000 0 0 1
32.676638 -23.234289 16.072542 43.196313 -0.618095 1.189546 0.055590 -0.018190 -560204.000000 0 0 1
33.417738 -22.632789 15.022742 43.065893 -0.595307 1.214472 0.051441 -0.021074 343550.000000 0 0 1
34.786238 -22.049889 15.499342 44.005790 -0.564951 1.210863 0.048255 -0.026966 63071.100000 0 0 1
34.823038 -20.823489 16.215042 43.694270 -0.538933 1.190601 0.046521 -0.021604 315629.000000 0 0 1
33.924338 -20.616589 17.321542 43.312126 -0.546079 1.159363 0.045866 -0.019552 219364.000000 0 0 1
34.040138 -19.132289 17.880842 42.947642 -0.512048 1.141380 0.033873 -0.015812 -377677.000000 0 0 1
33.527738 -18.095689 17.048042 41.739656 -0.494919 1.150055 0.043794 -0.024729 57999.600000 0 0 1
33.368538 -16.848589 17.708742 41.363436 -0.467579 1.128379 0.034698 -0.022880 -551648.000000 0 0 1
34.565538 -16.048889 18.198342 42.231776 -0.434685 1.125289 0.034675 -0.022190 -255713.000000 0 0 1
35.278838 -16.512989 19.368642 43.501948 -0.437779 1.109358 0.027220 -0.009309 960467.000000 0 0 1
-34.962362 -15.680789 19.528742 43.007274 0.421610 1.099457 0.008919 -0.003125 544581.000000 0 0 1
-34.478562 -15.530489 21.024942 43.266794 0.423219 1.063361 -0.002280 -0.001404 -47067.600000 0 0 1
-34.058362 -16.738289 21.626342 43.678839 0.456792 1.052821 0.002487 0.005844 318203.000000 0 0 1
-33.457862 -16.541989 22.914442 43.796547 0.459168 1.020192 -0.001997 0.000301 -384497.000000 0 0 1
-32.654762 -17.727289 23.433542 43.928591 0.497353 1.008127 -0.002979 0.007032 -895630.000000 0 0 1
-33.339762 -18.967389 23.550842 45.010484 0.517247 1.020159 -0.000930 0.006581 245910.000000 0 0 1
-32.542162 -20.092589 23.948342 45.124578 0.553139 1.011351 -0.012494 0.010043 -446771.000000 0 0 1
-31.498662 -20.622289 22.980242 44.108231 0.579675 1.022778 0.004701 0.013113 -206189.000000 0 0 1
-30.323762 -19.828189 22.929142 42.876954 0.579100 1.006565 0.001342 0.018803 277271.000000 0 0 1
-29.271362 -20.558789 22.287542 42.145118 0.612303 1.013577 0.018827 0.010778 -307086.000000 0 0 1
-28.004062 -19.733589 22.239642 40.844139 0.613853 0.995003 0.029204 0.011243 -841790.000000 0 0 1
-27.690762 -19.298189 23.496742 41.125360 0.608654 0.962653 0.017440 0.014726 483104.000000 0 0 1
-26.361862 -18.769889 23.465342 39.973476 0.618740 0.943420 0.036587 0.006770 439392.000000 0 0 1
-26.067162 -18.047089 24.805742 40.255673 0.605560 0.906881 0.022253 -0.000727 -552816.000000 0 0 1
-24.845362 -17.330989 24.706242 39.090326 0.609083 0.886627 0.021619 -0.002466 280175.000000 0 0 1
-24.593562 -16.478989 25.853342 39.303888 0.590343 0.852928 0.016228 -0.006760 521256.000000 0 0 1
-23.620062 -17.062089 26.933542 39.679187 0.625573 0.824693 0.018205 0.002178 150379.000000 0 0 1
-24.204562 -18.294989 27.396442 40.879487 0.647234 0.836351 0.017822 0.002312 10569.000000 0 0 1
-23.433662 -18.881489 28.422542 41.394299 0.678232 0.813954 0.026238 -0.003780 -377529.000000 0 0 1
-23.940762 -20.223389 29.019842 42.711787 0.701424 0.823805 0.029548 0.010558 -776860.000000 0 0 1
-25.074062 -20.214189 29.802042 43.880334 0.678497 0.824170 0.023463 0.002411 -559528.000000 0 0 1
-25.248762 -21.438389 30.398942 44.957760 0.703964 0.828249 0.020864 0.007524 37008.600000 0 0 1
-26.271562 -21.379489 31.569742 46.302550 0.683092 0.820556 0.015943 0.004051 -596905.000000 0 0 1
-25.816162 -20.643789 32.663042 46.470577 0.674525 0.791364 0.027187 -0.002498 151987.000000 0 0 1
-26.815662 -20.508689 33.627442 47.649668 0.652908 0.787354 0.037219 -0.016035 1323550.000000 0 0 1
-28.147462 -19.662789 33.310642 47.838308 0.609761 0.800543 0.019118 -0.021725 1185410.000000 0 0 1
-29.005662 -20.270589 32.361442 47.952978 0.609953 0.830024 0.024689 -0.018509 109837.000000 0 0 1
-30.255462 -19.622589 32.267142 48.390158 0.575365 0.840874 0.025920 -0.025022 118249.000000 0 0 1
-31.244862 -20.252789 31.261542 48.617907 0.575106 0.872381 0.016285 -0.001415 -193221.000000 0 0 1
-31.214162 -19.746289 29.939142 47.545684 0.564051 0.889640 0.011500 -0.011986 287904.000000 0 0 1
-32.435962 -20.099189 29.334242 48.130726 0.554748 0.915404 0.012555 -0.013433 -88428.300000 0 0 1
-32.867662 -19.321389 28.099042 47.361962 0.531441 0.935665 0.018344 -0.013454 180121.000000 0 0 1
-34.063062 -19.758689 27.464442 48.010348 0.525630 0.961790 0.001490 -0.011871 320475.000000 0 0 1
-34.670062 -18.800689 26.666042 47.608370 0.496893 0.976275 0.006476 -0.005288 -694380.000000 0 0 1
35.553938 -19.300389 25.842042 48.004152 -0.497336 1.002343 0.001545 -0.001385 -147512.000000 0 0 1
34.405438 -19.437489 26.662842 47.670297 -0.514252 0.977234 0.024581 -0.011225 243594.000000 0 0 1
33.235638 -19.976889 26.068942 46.725512 -0.541205 0.978923 0.056536 -0.013200 117596.000000 0 0 1
32.133438 -20.271389 27.076942 46.654558 -0.562795 0.951612 0.054157 -0.013034 -607223.000000 0 0 1
31.428938 -19.158789 27.511842 45.953659 -0.547442 0.928936 0.043066 -0.013284 -347343.000000 0 0 1
30.248638 -19.613589 28.102042 45.709930 -0.575258 0.908676 0.038659 -0.008522 -615242.000000 0 0 1
-29.259212 -6.183089 34.054005 45.321158 0.208257 0.720626 0.015671 0.000573 -66846.100000 0 0 1
-30.073172 -5.683989 33.000639 45.008283 0.186802 0.747762 0.007487 -0.001084 368612.000000 0 0 1
-29.666062 -4.461989 32.409585 44.162946 0.149288 0.746804 0.010755 -0.002793 -26436.200000 0 0 1
-30.381202 -4.319489 31.037295 43.646181 0.141230 0.779719 -0.001199 -0.009318 80244.500000 0 0 1
-30.112702 -5.287089 30.030535 42.855118 0.173805 0.794354 0.007960 -0.009723 67691.200000 0 0 1
-28.802872 -5.243889 29.482045 41.548704 0.180089 0.781897 0.017037 -0.010737 244020.000000 0 0 1
-28.599142 -6.285089 28.335275 40.746792 0.216326 0.801821 0.014847 -0.021841 -149776.000000 0 0 1
-29.417132 -5.930189 27.223345 40.517222 0.198924 0.834031 0.009202 -0.022342 153506.000000 0 0 1
-29.146742 -6.866589 26.131855 39.743634 0.231368 0.853287 0.013424 -0.021881 91092.500000 0 0 1
-29.810752 -6.383689 24.827555 39.317171 0.210954 0.887351 0.001691 -0.014777 -35689.700000 0 0 1
-29.195372 -5.244089 24.278555 38.331690 0.177725 0.884882 0.018070 -0.017988 270364.000000 0 0 1
-30.037992 -4.794089 23.211845 38.262959 0.158266 0.918969 0.020510 -0.013002 299708.000000 0 0 1
-29.486342 -3.606589 22.401345 37.205807 0.121709 0.924677 0.024552 -0.010772 -184870.000000 0 0 1
-28.469132 -3.903789 21.485345 35.879675 0.136274 0.928774 0.029097 -0.006804 -174778.000000 0 0 1
-27.902492 -2.673989 21.070045 35.066310 0.095542 0.926216 0.035054 -0.008548 -738801.000000 0 0 1
-26.458142 -2.698489 20.632445 33.660257 0.101639 0.910993 0.021602 -0.000712 -786870.000000 0 0 1
-26.304972 -3.320389 19.375945 32.839059 0.125563 0.939704 0.028366 -0.009985 -193786.000000 0 0 1
-24.945462 -3.276089 19.013245 31.535889 0.130583 0.923655 0.021753 -0.004286 -292506.000000 0 0 1
-24.644262 -4.044889 17.706145 30.613859 0.162681 0.954067 0.034745 -0.008015 -16960.200000 0 0 1
-25.399332 -3.445989 16.647345 30.563622 0.134849 0.994791 0.042003 -0.005296 871647.000000 0 0 1
-24.909362 -4.036289 15.436245 29.581170 0.160643 1.021805 0.049988 -0.014676 186434.000000 0 0 1
-26.127972 -4.394089 14.551345 30.227811 0.166617 1.068557 0.049256 -0.018938 -29060.800000 0 0 1
-26.772702 -3.268289 14.069545 30.420575 0.121474 1.089982 0.052954 -0.018546 -129161.000000 0 0 1
-27.927792 -3.580589 13.317645 31.147100 0.127513 1.128991 0.058796 -0.020632 136232.000000 0 0 1
-28.467942 -2.333889 12.572645 31.208046 0.081800 1.156151 0.050862 -0.004343 -371319.000000 0 0 1
-27.730252 -2.051489 11.384245 30.046240 0.073846 1.182199 0.065271 -0.017474 78530.300000 0 0 1
-28.136652 -0.963189 10.609845 30.086006 0.034219 1.210394 0.064302 -0.011842 -337282.000000 0 0 1
-29.481132 -1.171089 9.881845 31.115261 0.039702 1.247611 0.048772 -0.011658 -196502.000000 0 0 1
-29.392702 -1.839989 8.650345 30.694380 0.062519 1.285104 0.045925 -0.021061 217812.000000 0 0 1
-30.647992 -1.967789 7.986545 31.732578 0.064118 1.316378 0.051436 -0.018032 128450.000000 0 0 1
-30.531492 -2.551389 6.575945 31.335677 0.083372 1.359370 0.058346 -0.020638 -268582.000000 0 0 1
-30.078842 -1.734789 5.499545 30.626642 0.057611 1.390250 0.069757 -0.027610 -34526.600000 0 0 1
-30.987482 -0.760989 5.054545 31.406235 0.024553 1.409153 0.082974 -0.031765 -319013.000000 0 0 1
-30.702202 -0.209389 3.674645 30.922032 0.006820 1.451679 0.070479 -0.025622 36039.300000 0 0 1
-31.166572 -1.040089 2.578545 31.290348 0.033360 1.488296 0.070962 -0.029549 201394.000000 0 0 1
-30.691732 -0.656189 1.321545 30.727178 0.021377 1.527774 0.075624 -0.034540 -535917.000000 0 0 1
-31.574022 -1.186189 0.213545 31.597018 0.037551 1.564038 0.082255 -0.023990 130526.000000 0 0 1
-32.895552 -0.654689 0.248545 32.903005 0.019899 1.563242 0.075063 -0.019132 505358.000000 0 0 1
-33.642512 -1.140189 -0.860955 33.672836 0.033878 1.596367 0.061935 -0.013978 680788.000000 0 0 1
-35.202570 -1.007089 -0.747055 35.224896 0.028601 1.592006 0.043663 -0.010596 535733.000000 0 0 1
-35.623021 -1.921589 0.197045 35.675355 0.053890 1.565273 0.053294 -0.011298 499712.000000 0 0 1
34.353048 -1.925289 0.276945 34.408071 -0.055986 1.562747 0.041613 -0.006388 383758.000000 0 0 1
33.753928 -3.210889 0.931845 33.919106 -0.094841 1.543320 0.044954 -0.015010 -357028.000000 0 0 1
34.076168 -3.411689 2.300945 34.323741 -0.099787 1.503709 0.048870 -0.012776 -89656.000000 0 0 1
33.305438 -4.467289 2.747845 33.715864 -0.133335 1.489206 0.050701 -0.008257 -248183.000000 0 0 1
33.305988 -4.643289 4.327645 33.905419 -0.138520 1.442808 0.062940 -0.006026 133070.000000 0 0 1
32.616428 -3.549489 4.915445 33.175169 -0.108399 1.422082 0.061902 -0.017171 120428.000000 0 0 1
32.726788 -3.549089 6.300445 33.516179 -0.108024 1.381689 0.060842 -0.021028 -49837.100000 0 0 1
32.043558 -2.295189 6.908445 32.860068 -0.071505 1.358978 0.065287 -0.017443 1540340.000000 0 0 1
30.613258 -2.479989 7.122645 31.528621 -0.080834 1.342919 0.052198 -0.017045 1581860.000000 0 0 1
29.999008 -1.307089 7.734745 31.007664 -0.043544 1.318688 0.074484 -0.014409 -614166.000000 0 0 1
28.500218 -1.462389 7.808745 29.586779 -0.051267 1.303705 0.051416 -0.005801 -1590700.000000 0 0 1
27.803898 -1.406089 6.602245 28.611596 -0.050529 1.337944 0.047146 -0.013184 335898.000000 0 0 1
26.404258 -1.622089 6.709745 27.291696 -0.061356 1.322397 0.058712 -0.005225 348205.000000 0 0 1
26.073138 -3.129389 6.769945 27.118882 -0.119452 1.318488 0.063498 -0.016269 -1421850.000000 0 0 1
26.452918 -3.810089 7.928545 27.877149 -0.143049 1.282405 0.051782 -0.013827 329218.000000 0 0 1
26.411558 -5.214189 7.705845 28.002468 -0.194914 1.292015 0.064067 -0.021883 -586764.000000 0 0 1
26.820968 -6.009789 8.936745 28.902375 -0.220430 1.256440 0.045647 -0.017898 -208094.000000 0 0 1
25.891238 -5.875589 9.989245 28.366596 -0.223154 1.210931 0.045956 -0.004916 459477.000000 0 0 1
26.115838 -6.827389 11.010545 29.152741 -0.255704 1.183502 0.050877 -0.005493 -95169.600000 0 0 1
25.016438 -6.723789 12.091945 28.587526 -0.262570 1.134065 0.046822 -0.010346 760291.000000 0 0 1
23.742538 -7.181889 11.628445 27.395408 -0.293740 1.132423 0.055048 -0.022473 284643.000000 0 0 1
22.712638 -6.986889 12.544145 26.870729 -0.298434 1.085090 0.066865 -0.023541 529798.000000 0 0 1
21.647838 -8.154089 12.609045 26.345893 -0.360234 1.071741 0.073947 -0.022327 684617.000000 0 0 1
22.125938 -9.217089 13.396645 27.458732 -0.394712 1.061134 0.059576 -0.022241 576724.000000 0 0 1
21.125238 -10.224489 13.371845 27.011517 -0.450761 1.052913 0.080116 -0.031962 37835.000000 0 0 1
21.416338 -11.354289 14.347845 28.168068 -0.487491 1.036349 0.057686 -0.024037 -174624.000000 0 0 1
21.242338 -10.859589 15.615545 28.513380 -0.472586 0.991235 0.057169 -0.022580 360499.000000 0 0 1
21.784238 -11.762189 16.604345 29.809501 -0.495087 0.980009 0.054773 -0.026287 -70640.500000 0 0 1
21.558338 -11.384389 18.114445 30.372674 -0.485853 0.931780 0.065901 -0.024940 -212085.000000 0 0 1
20.213438 -11.455689 18.534245 29.720937 -0.515602 0.897445 0.070363 -0.032940 -201463.000000 0 0 1
19.954138 -11.863689 19.885045 30.566808 -0.536401 0.862496 0.079346 -0.031627 110110.000000 0 0 1
20.329338 -10.905589 21.038445 31.222268 -0.492377 0.831419 0.074764 -0.023671 209368.000000 0 0 1
19.496938 -9.739989 21.294545 30.470569 -0.463300 0.796999 0.060414 -0.021241 238803.000000 0 0 1
19.670938 -8.611989 20.433645 29.641963 -0.412664 0.810207 0.066147 -0.015562 -692828.000000 0 0 1
20.716038 -7.604489 20.988045 30.454564 -0.351811 0.810468 0.061979 -0.001282 926727.000000 0 0 1
22.064138 -8.044789 21.123745 31.587298 -0.349630 0.838281 0.070152 -0.007810 704152.000000 0 0 1
22.779238 -8.230189 19.909245 31.352954 -0.346708 0.882783 0.068571 -0.017002 -333244.000000 0 0 1
24.171438 -8.893389 20.000145 32.609148 -0.352558 0.910527 0.060794 -0.024762 -13205.700000 0 0 1
24.011938 -10.307389 20.208045 33.033021 -0.405474 0.912522 0.047013 -0.024816 -35726.000000 0 0 1
25.185538 -11.082389 20.087645 34.068228 -0.414532 0.940196 0.049150 -0.032679 20186.000000 0 0 1
24.915538 -12.599889 20.303945 34.522332 -0.468200 0.942040 0.052874 -0.037165 -475213.000000 0 0 1
24.045238 -13.157189 19.378345 33.567921 -0.500679 0.955393 0.062361 -0.034995 -242925.000000 0 0 1
23.853738 -14.526089 19.488945 34.056233 -0.546985 0.961540 0.063200 -0.033729 290755.000000 0 0 1
22.744638 -14.980789 18.483345 32.914687 -0.582433 0.974535 0.041427 -0.020806 51049.200000 0 0 1
23.231338 -15.025689 17.126345 32.538870 -0.574112 1.016512 0.042116 -0.023859 929847.000000 0 0 1
22.249038 -15.546089 16.197645 31.607978 -0.609874 1.032756 0.037992 -0.024160 449647.000000 0 0 1
21.859238 -17.010289 16.369045 32.173309 -0.661290 1.037033 0.029587 -0.024963 -169367.000000 0 0 1
22.899638 -17.877689 15.951845 33.143122 -0.662860 1.068657 0.061713 -0.021758 156329.000000 0 0 1
22.903138 -19.120189 16.558845 34.122290 -0.695620 1.064114 0.037795 -0.009942 57391.200000 0 0 1
24.274138 -19.837289 16.421745 35.389624 -0.685153 1.088260 0.029591 -0.008597 84628.700000 0 0 1
24.492038 -20.298889 15.121545 35.221668 -0.692054 1.127051 0.037403 -0.022045 -74431.800000 0 0 1
25.370238 -21.409689 15.157145 36.493325 -0.700936 1.142480 0.024540 -0.022194 -368983.000000 0 0 1
26.182538 -21.440889 13.864645 36.571374 -0.686160 1.181960 0.020676 -0.027275 -442185.000000 0 0 1
25.387038 -21.515989 12.701945 35.619922 -0.703052 1.206174 0.024168 -0.023891 -126249.000000 0 0 1
26.179838 -21.484089 11.556445 35.784094 -0.687197 1.241952 0.007339 -0.027242 -512658.000000 0 0 1
25.400638 -21.266989 10.192845 34.660804 -0.697052 1.272310 0.008439 -0.019313 900268.000000 0 0 1
24.532638 -22.291789 9.675245 34.530921 -0.737578 1.286804 0.005207 -0.018080 103378.000000 0 0 1
23.344138 -22.551389 10.371945 34.074788 -0.768127 1.261501 -0.004134 -0.003745 -755114.000000 0 0 1
22.394738 -23.407289 9.540545 33.770512 -0.807502 1.284385 -0.004149 -0.005813 -482942.000000 0 0 1
22.837038 -24.742489 9.383545 34.953855 -0.825424 1.299007 -0.009468 -0.002482 -28154.800000 0 0 1
22.367838 -25.405769 8.215645 34.832027 -0.848903 1.332688 0.005272 0.008200 -1000130.000000 0 0 1
20.977838 -26.019939 8.174045 34.408166 -0.892273 1.330942 0.006754 0.028751 -573026.000000 0 0 1
20.024938 -25.001189 7.983645 33.012061 -0.895471 1.326534 -0.004476 0.022166 -382607.000000 0 0 1
18.708038 -25.530959 7.975745 32.640972 -0.938421 1.323949 0.012567 0.007755 -152483.000000 0 0 1
17.690438 -24.425989 7.856445 31.165755 -0.943982 1.315961 0.016671 0.001217 -687243.000000 0 0 1
17.548838 -23.819089 6.561345 30.304487 -0.935826 1.352554 0.028235 0.011173 -51759.400000 0 0 1
16.550838 -22.814689 6.609145 28.950321 -0.943195 1.340473 0.048044 -0.005033 33696.000000 0 0 1
16.055538 -22.320289 5.222045 27.986521 -0.947218 1.383105 0.043915 0.005121 -162508.000000 0 0 1
15.348938 -21.074989 5.250845 26.595421 -0.941328 1.372056 0.062797 -0.003347 115498.000000 0 0 1
15.381138 -20.571989 3.908345 25.981942 -0.928786 1.419798 0.063425 0.001656 203028.000000 0 0 1
14.562438 -19.261389 3.729945 24.433137 -0.923439 1.417538 0.073184 0.001978 450737.000000 0 1 0
15.258938 -18.149789 4.272045 24.093576 -0.871713 1.392543 0.037857 0.004683 870504.000000 0 1 0
14.351538 -17.055289 4.513845 22.742566 -0.871274 1.370994 0.019446 0.012272 1183080.000000 0 1 0
15.264838 -15.784289 4.711445 22.457889 -0.802127 1.359436 0.008757 0.006297 415881.000000 0 1 0
15.974838 -15.724289 5.951845 23.192093 -0.777494 1.311260 0.029593 0.001100 74277.400000 0 1 0
17.049038 -14.838189 6.072645 23.403388 -0.716176 1.308316 0.028743 -0.001199 -543641.000000 0 1 0
18.357438 -15.343289 5.492245 24.547440 -0.696197 1.345146 0.037873 -0.016115 -1585900.000000 0 1 0
19.284838 -14.336889 5.392145 24.627760 -0.639282 1.350062 0.055120 -0.022073 -1006640.000000 0 1 0
20.539838 -14.840089 5.015545 25.831548 -0.625669 1.375392 0.066812 -0.022786 -142725.000000 0 0 1
21.538038 -13.656789 4.829845 25.956162 -0.565100 1.383628 0.070652 -0.030072 -97970.000000 0 0 1
21.904638 -13.158589 6.104345 26.272127 -0.540950 1.336303 0.092800 -0.035646 -48069.100000 0 0 1
22.768238 -12.072689 5.973645 26.454242 -0.487548 1.343021 0.090733 -0.041131 -234122.000000 0 0 1
22.923638 -11.393289 7.382345 26.642057 -0.461253 1.290028 0.093835 -0.041970 -10018.800000 0 0 1
23.402538 -12.276089 8.415845 27.734592 -0.483104 1.262493 0.094759 -0.029747 436648.000000 0 0 1
23.530938 -11.457989 9.563945 27.865024 -0.453139 1.220449 0.101383 -0.037199 -133046.000000 0 0 1
23.693738 -12.363989 10.870145 28.851715 -0.480955 1.184501 0.079092 -0.033453 472255.000000 0 0 1
22.536638 -13.166789 11.160445 28.386967 -0.528750 1.166737 0.084757 -0.038389 876232.000000 0 0 1
22.836338 -14.113389 12.145945 29.465404 -0.553567 1.145918 0.080190 -0.038910 -106515.000000 0 0 1
21.675438 -15.087489 12.435845 29.190875 -0.608079 1.130709 0.075225 -0.035822 561727.000000 0 0 1
20.616538 -14.481189 13.226445 28.454970 -0.612339 1.087365 0.052066 -0.032359 873429.000000 0 0 1
19.560138 -15.449889 13.335745 28.269067 -0.668531 1.079529 0.018058 -0.027254 672891.000000 0 0 1
18.371238 -14.967889 14.223745 27.637927 -0.683668 1.030202 0.025780 -0.029517 -163013.000000 0 0 1
18.780538 -14.720189 15.576645 28.496042 -0.664785 0.992468 0.025982 -0.029492 245051.000000 0 0 1
18.432038 -13.384389 15.901645 27.780284 -0.628060 0.961357 0.042662 -0.040360 1063480.000000 0 0 1
16.935438 -12.865689 16.109045 26.680261 -0.649674 0.922560 0.041287 -0.037507 791318.000000 0 0 1
16.347938 -12.913989 14.803245 25.557039 -0.668580 0.953020 0.045026 -0.046413 998127.000000 0 0 1
14.912238 -12.667789 14.877445 24.580197 -0.704198 0.920702 0.074272 -0.040800 1470150.000000 0 1 0
14.554138 -11.225989 14.678245 23.522258 -0.657011 0.896926 0.063918 -0.038045 -487909.000000 0 1 0
14.975138 -10.391989 15.728845 24.075812 -0.606654 0.858855 0.045639 -0.027510 126983.000000 0 1 0
14.559738 -9.027389 15.541545 23.130485 -0.555013 0.834015 0.043372 -0.022518 -389556.000000 0 1 0
15.284238 -8.180789 16.642545 24.031386 -0.491443 0.805801 0.054080 -0.010805 399598.000000 0 1 0
16.664538 -7.966589 16.404645 24.703962 -0.445939 0.844575 0.061506 -0.027086 745767.000000 0 1 0
17.522238 -9.045989 16.911245 25.977855 -0.476569 0.861912 0.076024 -0.020681 -452641.000000 0 0 1
18.954438 -8.843089 16.447945 26.608379 -0.436527 0.904410 0.064366 -0.016863 -1074620.000000 0 0 1
19.577638 -7.770189 17.059245 27.104936 -0.377823 0.890044 0.071878 -0.023107 -250188.000000 0 0 1
20.753238 -7.421589 16.384445 27.463191 -0.343439 0.931543 0.070679 -0.010349 -108362.000000 0 0 1
21.495738 -6.115289 16.782445 27.948416 -0.277166 0.926696 0.068292 -0.010010 225305.000000 0 0 1
22.196638 -6.030889 18.031645 29.226744 -0.265298 0.905926 0.060788 -0.006916 495698.000000 0 0 1
22.618638 -4.712889 18.283245 29.463386 -0.205424 0.901364 0.059169 -0.012591 -295793.000000 0 0 1
-5.804462 -33.077903 -6.425558 34.192503 1.397086 1.759843 0.016911 -0.009184 -92654.600000 0 0 1
-6.146662 -31.723303 -6.586058 32.977652 1.379409 1.771861 0.027248 -0.014729 -103571.000000 0 0 1
-5.714062 -30.961003 -5.519258 31.963986 1.388293 1.744337 0.036051 -0.014852 -765227.000000 0 0 1
-6.385262 -29.550303 -5.388858 30.708822 1.357987 1.747192 0.047661 -0.017548 1560340.000000 0 0 1
-7.794762 -29.554103 -5.057558 30.980352 1.312923 1.734781 0.049046 -0.018483 1515950.000000 0 0 1
-8.709162 -29.998803 -6.080558 31.823747 1.288247 1.763048 0.044145 -0.013208 -328301.000000 0 0 1
-10.167862 -29.935203 -5.615558 32.109754 1.243360 1.746587 0.052819 -0.003613 -102927.000000 0 0 1
-11.111962 -30.411203 -6.530958 33.029841 1.220477 1.769837 0.039066 -0.003281 -1040820.000000 0 0 1
-12.425262 -30.215903 -6.136858 33.242277 1.180659 1.756471 0.036956 -0.001172 -704508.000000 0 0 1
-13.434362 -30.804003 -7.105558 34.349056 1.159541 1.779164 0.035747 -0.004334 -271163.000000 0 0 1
-13.533762 -30.082703 -8.300358 34.015110 1.148038 1.817305 0.050403 -0.008583 -186702.000000 0 0 1
-14.674562 -30.484903 -9.022358 35.015354 1.122162 1.831405 0.059872 -0.008109 152945.000000 0 0 1
-14.967862 -29.781603 -10.394658 34.914606 1.105081 1.873096 0.073686 -0.008688 4299.700000 0 0 1
-15.543462 -28.459803 -10.347258 34.038586 1.070910 1.879670 0.079297 -0.013790 462624.000000 0 0 1
-14.620162 -27.483903 -9.824558 32.644081 1.081914 1.876495 0.067538 -0.009202 140237.000000 0 0 1
-14.936162 -25.970103 -9.675358 31.482499 1.048865 1.883177 0.075252 -0.006236 -328833.000000 0 0 1
-15.034862 -25.229303 -10.919758 31.333782 1.033376 1.926764 0.077657 -0.011396 141868.000000 0 0 1
-15.259162 -23.842103 -10.670658 30.251460 1.001477 1.931286 0.063121 0.006002 -206021.000000 0 0 1
-15.883562 -23.077803 -11.856058 30.421023 0.967992 1.971137 0.061443 0.015625 456334.000000 0 0 1
-17.223362 -23.498503 -12.122658 31.556025 0.938293 1.965097 0.060175 0.006627 218427.000000 0 0 1
-17.708562 -22.914403 -13.313758 31.873487 0.912854 2.001716 0.067102 -0.001065 60611.300000 0 0 1
-19.201262 -23.312603 -13.475758 33.072073 0.881804 1.990474 0.057730 0.014404 188258.000000 0 0 1
-19.476462 -24.688103 -13.805358 34.342727 0.902860 1.984483 0.081685 0.005249 8576.420000 0 0 1
-19.404962 -25.577403 -12.673458 34.516266 0.921766 1.946765 0.090566 -0.001124 -1024520.000000 0 0 1
-19.563262 -27.102403 -12.894258 35.826294 0.945571 1.938968 0.089711 -0.009390 425497.000000 0 0 1
-18.661462 -27.904903 -13.708558 36.260975 0.981351 1.958488 0.090270 -0.009526 102619.000000 0 0 1
-17.302462 -27.707003 -13.458558 35.329676 1.012571 1.961611 0.096810 -0.009216 -976201.000000 0 0 1
-16.428962 -28.854503 -13.937358 36.010319 1.053202 1.968213 0.082363 -0.012875 -357949.000000 0 0 1
-16.443562 -28.982103 -15.377958 36.699246 1.054715 2.003169 0.072532 -0.011464 8497.060000 0 0 1
-15.637462 -30.053703 -15.851658 37.403614 1.091027 2.008433 0.088837 -0.018537 54843.300000 0 0 1
-16.175562 -31.504403 -15.732258 38.751518 1.096456 1.988845 0.072132 -0.021813 -174473.000000 0 0 1
-16.348262 -31.895803 -14.337958 38.602914 1.097158 1.951336 0.074638 -0.023455 149839.000000 0 0 1
-16.463962 -33.280403 -14.170058 39.742142 1.111394 1.935369 0.041968 -0.014045 -1248970.000000 0 0 1
-16.869662 -33.608903 -12.681258 39.685743 1.105598 1.896042 0.060370 -0.023277 1220750.000000 0 0 1
-18.285262 -33.507903 -12.377458 40.128940 1.071260 1.884351 0.065804 -0.020308 1580920.000000 0 0 1
-19.001062 -32.293603 -12.616758 39.536056 1.038961 1.895597 0.080856 -0.022790 -328456.000000 0 0 1
-18.540862 -31.047503 -11.728358 38.016646 1.032455 1.884418 0.092661 -0.020926 -375362.000000 0 0 1
-18.927162 -31.128103 -10.395658 37.884904 1.024485 1.848763 0.083718 -0.020711 181039.000000 0 0 1
-18.766662 -29.928803 -9.651858 36.620748 1.010729 1.837510 0.092957 -0.016012 -236364.000000 0 0 1
-18.850162 -30.180803 -8.125458 36.499761 1.012503 1.795294 0.062427 -0.014525 27537.900000 0 0 1
-17.772662 -30.935003 -7.602958 36.478033 1.049326 1.780761 0.068283 -0.015633 27444.100000 0 0 1
-18.066262 -31.501303 -6.307358 36.857898 1.050084 1.742769 0.069850 -0.011951 109144.000000 0 0 1
-16.965862 -32.397403 -5.691458 37.011145 1.088385 1.725186 0.064663 -0.011399 259086.000000 0 0 1
-15.812862 -31.878703 -5.074758 35.945118 1.110328 1.712450 0.062257 -0.006153 311903.000000 0 0 1
-16.038362 -31.775203 -3.693358 35.784542 1.103360 1.674191 0.046366 -0.001371 -534497.000000 0 0 1
-14.816162 -31.233503 -2.979458 34.697659 1.127864 1.656771 0.039120 -0.002124 104295.000000 0 0 1
-13.685762 -32.135703 -3.001358 35.057262 1.168186 1.656514 0.035740 0.006017 -297721.000000 0 0 1
-12.635262 -31.453903 -2.424858 33.983493 1.188819 1.642211 0.039400 -0.000027 -270092.000000 0 0 1
-11.247562 -32.151003 -2.434258 34.148503 1.234268 1.642141 0.037072 -0.002233 16185.700000 0 0 1
-11.116562 -33.306103 -1.575558 35.147643 1.248653 1.615638 0.036826 0.004273 523198.000000 0 0 1
-9.829462 -33.955403 -1.668358 35.388856 1.289017 1.617957 0.053276 -0.001066 932038.000000 0 0 1
-8.699862 -33.356503 -0.794458 34.481517 1.315665 1.593838 0.046999 -0.002074 -265982.000000 0 0 1
-9.068762 -33.092803 0.530742 34.317018 1.303323 1.555330 0.054212 -0.002761 516979.000000 0 0 1
-7.940262 -32.764303 1.367142 33.740426 1.333035 1.530266 0.054826 -0.009039 1480360.000000 0 0 1
-7.007262 -33.910303 1.943842 34.681247 1.367023 1.514718 0.053120 -0.013164 534187.000000 0 0 1
-7.746162 34.109711 2.845942 35.093800 -1.347488 1.489612 0.063662 -0.015787 332312.000000 0 0 1
-6.949862 33.120811 3.508942 34.023541 -1.363963 1.467480 0.057618 -0.019519 277478.000000 0 0 1
-6.132662 33.498411 4.781342 34.389160 -1.389728 1.431308 0.061049 -0.021877 -104321.000000 0 0 1
-5.137562 -34.371803 4.568742 35.052657 1.422425 1.440085 0.061285 -0.019047 -483682.000000 0 0 1
-4.740362 -33.783903 5.787142 34.602227 1.431392 1.402759 0.057001 -0.021920 851686.000000 0 0 1
-3.469462 -32.834603 5.657542 33.498598 1.465522 1.401094 0.042174 -0.013533 843570.000000 0 0 1
-3.767562 -31.732703 4.876542 32.325526 1.452621 1.419361 0.034550 -0.006110 182999.000000 0 0 1
-3.585362 -31.888703 3.511942 32.281232 1.458833 1.461789 0.036247 -0.012741 -227954.000000 0 0 1
-3.941262 -30.593103 2.702542 30.964096 1.442674 1.483405 0.026618 -0.006513 -86031.300000 0 0 1
-3.133962 -29.552103 3.155342 29.884857 1.465143 1.465016 0.021215 -0.000158 -169959.000000 0 0 1
-3.429062 -28.389703 2.429242 28.699040 1.450593 1.486050 0.025497 -0.005702 -33428.800000 0 0 1
-2.650462 -27.140203 2.794642 27.412143 1.473447 1.468670 0.017715 -0.007477 -351948.000000 0 0 1
-2.989262 -26.031303 1.964642 26.275925 1.456464 1.495957 0.024122 -0.004939 -212808.000000 0 0 1
-2.662962 -24.778303 2.540242 25.050119 1.463736 1.469215 0.009419 -0.003111 53251.500000 0 0 1
-3.674962 -24.210403 3.579942 24.748029 1.420154 1.425631 0.002523 -0.007285 37413.000000 0 1 0
-3.792062 -24.888303 4.825142 25.633754 1.419596 1.381433 0.014821 -0.006151 39634.600000 0 0 1
-4.743062 -24.268703 5.696042 25.375411 1.377790 1.344396 0.003987 -0.000803 490331.000000 0 0 1
-5.486062 -25.444503 6.506442 26.830084 1.358438 1.325849 0.021059 -0.005227 -126560.000000 0 0 1
-4.787962 -26.090203 7.540442 27.576829 1.389300 1.293835 0.022124 -0.009752 -102303.000000 0 0 1
-5.668062 -26.838103 8.377842 28.680985 1.362660 1.274370 0.025891 -0.008015 238029.000000 0 0 1
-4.878462 -27.568603 9.462542 29.552782 1.395652 1.244865 0.014320 -0.006993 -206068.000000 0 0 1
-4.381162 -26.687503 10.448742 28.992992 1.408082 1.202112 0.018503 -0.004186 76490.900000 0 0 1
-5.318862 -25.981703 11.282742 28.820816 1.368871 1.168558 0.018360 -0.003667 134193.000000 0 0 1
-4.698362 -25.218003 12.449142 28.513214 1.386598 1.118970 0.002686 0.002951 53332.900000 0 0 1
-3.808662 -25.956403 13.269542 29.399345 1.425103 1.102513 -0.017255 0.002266 -373420.000000 0 0 1
-3.217962 -25.017503 14.083042 28.888800 1.442870 1.061582 -0.003934 0.005152 -321576.000000 0 0 1
-2.262062 -25.608803 15.129242 29.829879 1.482694 1.038882 0.003389 0.001351 -183370.000000 0 0 1
-2.910862 -26.299003 16.145642 30.996652 1.460562 1.022911 -0.008007 0.007783 -42422.100000 0 0 1
-1.978962 -26.938103 17.038442 31.935657 1.497465 1.008035 -0.016446 0.024717 -146992.000000 0 0 1
-2.473762 -27.264903 18.475242 33.027700 1.480313 0.977151 -0.010532 -0.001395 -369721.000000 0 0 1
-2.606562 -26.140503 19.309442 32.603291 1.471411 0.936943 -0.005636 0.001008 -92349.000000 0 0 1
-2.406562 -26.412903 20.687342 33.636276 1.479934 0.908371 -0.002038 -0.008300 32859.300000 0 0 1
-2.786462 -25.181803 21.551542 33.261938 1.460591 0.865927 0.011588 -0.006940 -97033.800000 0 0 1
-2.426762 -25.231903 22.892242 34.155421 1.474913 0.836268 -0.000474 -0.012062 -238586.000000 0 0 1
-2.542562 -23.992603 23.610042 33.757128 1.465218 0.796226 0.011283 -0.011516 -284581.000000 0 0 1
-1.651762 -22.798903 23.224042 32.586414 1.498473 0.777469 0.013646 -0.015155 -345894.000000 0 0 1
-2.044062 -21.976603 22.157242 31.274472 1.478052 0.783459 0.032410 -0.008049 -488956.000000 0 0 1
-1.067362 -21.041703 21.764542 30.291712 1.520114 0.769156 0.036889 -0.006861 -318008.000000 0 0 1
-1.729462 -19.822503 21.127142 29.022039 1.483769 0.755442 0.039853 0.011122 -465821.000000 0 0 1
-2.523862 -19.013603 21.996642 29.184571 1.438828 0.717110 0.044469 -0.011426 1078350.000000 0 0 1
-3.877462 -19.435603 22.264342 29.807353 1.373879 0.727347 0.058800 -0.017976 801948.000000 0 0 1
-4.857162 -19.433003 21.053242 29.059811 1.325870 0.760517 0.049527 -0.018350 -937870.000000 0 0 1
-4.770862 -20.442903 20.026342 29.012545 1.341525 0.808941 0.049147 -0.010191 -375183.000000 0 0 1
-5.310962 -21.736703 20.247142 30.176768 1.331160 0.835305 0.047761 -0.007197 66574.200000 0 0 1
-5.208262 -22.608803 19.005042 29.991258 1.344382 0.884488 0.030968 0.000487 12558.600000 0 0 1
-5.635862 -23.968003 19.116342 31.171503 1.339851 0.910611 0.030803 -0.005658 -212142.000000 0 0 1
-5.386762 -24.736903 18.010342 31.069341 1.356382 0.952458 0.026401 -0.005151 -106704.000000 0 0 1
-6.118862 -26.076003 18.244342 32.407629 1.340311 0.972828 0.021831 -0.015093 1395470.000000 0 0 1
-7.542662 -25.890803 18.082542 32.468504 1.287316 0.980117 0.051719 -0.020540 745272.000000 0 0 1
-8.359362 -27.051903 18.069042 33.588311 1.271092 1.002786 0.063501 -0.024094 1094160.000000 0 0 1
-9.886062 -26.728603 18.033542 33.724784 1.216532 1.006612 0.071090 -0.031870 155353.000000 0 0 1
-10.456462 -26.145603 16.853342 32.817149 1.190349 1.031476 0.076624 -0.033926 855688.000000 0 0 1
-11.888762 -26.072903 16.921842 33.278937 1.142979 1.037372 0.065719 -0.033555 1143520.000000 0 0 1
-12.583662 -25.102503 17.918542 33.310033 1.106116 1.002814 0.067164 -0.033063 -801518.000000 0 0 1
-12.324162 -23.768303 17.631442 32.057525 1.092449 0.988439 0.048352 -0.029210 110275.000000 0 0 1
-12.691362 -22.891203 18.685642 32.159463 1.064565 0.950802 0.044635 -0.015162 172814.000000 0 0 1
-11.419562 -22.406803 19.431742 31.781501 1.099461 0.912947 0.038117 -0.018730 130406.000000 0 0 1
-10.753762 -23.370703 20.183942 32.699001 1.139543 0.905535 0.049131 -0.017029 -688563.000000 0 0 1
-9.391462 -23.322403 19.882742 32.053977 1.187982 0.901685 0.053667 -0.022149 -355860.000000 0 0 1
-8.538962 -24.226903 20.806742 33.057181 1.231934 0.889994 0.054595 -0.023981 -44840.800000 0 0 1
-8.547962 -23.839803 22.161142 33.652935 1.226518 0.851945 0.055354 -0.018666 210409.000000 0 0 1
-7.467062 -24.498503 22.796142 34.286991 1.274945 0.843486 0.047240 -0.016103 310086.000000 0 0 1
-7.557262 -24.337703 24.397742 35.280105 1.269719 0.807172 0.052041 -0.016550 -28905.100000 0 0 1
-6.469962 -24.902103 25.090542 35.937590 1.316601 0.797958 0.045833 -0.014667 -171929.000000 0 0 1
-6.533662 -24.634603 26.442742 36.725617 1.311542 0.766982 0.046395 -0.011229 488899.000000 0 0 1
-5.237662 -25.093503 27.213742 37.385889 1.365025 0.755520 0.039944 -0.013509 1399550.000000 0 0 1
-4.075962 -24.301203 26.870442 36.457956 1.404616 0.742138 0.033789 -0.010351 979949.000000 0 0 1
-2.991962 -24.497503 27.791242 37.167628 1.449265 0.726164 0.031047 -0.011046 56713.000000 0 0 1
-1.750762 -23.708703 27.440442 36.306275 1.497085 0.713915 0.029888 -0.013287 -1388850.000000 0 0 1
-1.862362 -22.319103 27.465742 35.439776 1.487547 0.684085 0.034370 -0.011431 -137380.000000 0 0 1
-0.668762 -21.641403 27.142842 34.720763 1.539904 0.673334 0.043791 -0.011059 135979.000000 0 0 1
0.510438 -21.589403 28.136242 35.468450 -1.547158 0.654627 0.044816 -0.009155 -159096.000000 0 0 1
0.980438 -22.877603 28.538542 36.589538 -1.527967 0.676187 0.047186 -0.008069 -38540.200000 0 0 1
1.682838 -22.762403 29.761742 37.506269 -1.497000 0.654235 0.034127 -0.007992 -186721.000000 0 0 1
2.383138 -24.020903 30.314742 38.751344 -1.471909 0.672465 0.043743 -0.013588 175746.000000 0 0 1
3.548638 -24.397403 29.583042 38.509511 -1.426358 0.694770 0.031791 -0.013557 423592.000000 0 0 1
4.180638 -25.560703 30.025342 39.652849 -1.408675 0.711773 0.012555 -0.007817 -122734.000000 0 0 1
5.554138 -25.326203 30.760742 40.230439 -1.354910 0.700355 0.005283 -0.004528 2335.660000 0 0 1
6.563838 -24.898603 29.940842 39.490231 -1.313038 0.710274 0.000376 -0.007899 -625868.000000 0 0 1
7.186538 -25.872003 29.124942 39.614001 -1.299854 0.744808 0.008142 -0.008197 -996465.000000 0 0 1
8.306538 -25.219703 28.289442 38.798511 -1.252620 0.753736 0.016438 -0.009471 -330518.000000 0 0 1
7.947338 -24.298003 27.242142 37.358900 -1.254686 0.753643 0.019547 -0.008718 471607.000000 0 0 1
9.120938 -23.971403 26.499142 36.878505 -1.207219 0.769078 0.007079 -0.005740 186812.000000 0 0 1
8.862438 -22.909903 25.424342 35.352561 -1.201687 0.768196 0.013042 0.004959 -222978.000000 0 0 1
7.960238 -23.179103 24.407242 34.588288 -1.239993 0.787456 0.023240 0.001833 -275408.000000 0 0 1
7.721738 -21.919703 23.709142 33.199729 -1.232097 0.775406 0.018961 0.010481 45033.700000 0 0 1
7.080738 -22.166303 22.354742 32.267883 -1.261604 0.805451 0.047879 0.008226 155092.000000 0 0 1
7.910938 -22.950703 21.491842 32.422476 -1.238857 0.846153 0.050316 0.010711 433928.000000 0 0 1
7.235738 -23.133203 20.256242 31.588230 -1.267651 0.874658 0.066872 0.002202 174544.000000 0 0 1
7.932038 -24.162903 19.317042 31.936048 -1.253607 0.921198 0.059075 -0.010441 299394.000000 0 0 1
9.166938 -23.656903 18.847642 31.605623 -1.201116 0.931865 0.041501 -0.013309 -238447.000000 0 0 1
9.683638 -24.484103 17.812142 31.788622 -1.194169 0.976011 0.056656 -0.019070 -627045.000000 0 0 1
11.058338 -24.164003 17.284842 31.700972 -1.141610 0.994113 0.033139 -0.017733 -930271.000000 0 0 1
11.065838 -22.873903 16.691742 30.402014 -1.120212 0.989588 0.032222 -0.013516 192283.000000 0 0 1
12.355538 -22.627103 16.145642 30.419185 -1.070991 1.011286 0.038831 -0.024119 100499.000000 0 0 1
-12.307862 22.433711 11.589342 28.090349 -1.069004 1.145519 0.015917 -0.016018 -431489.000000 0 0 1
-13.115862 21.553811 10.872142 27.473552 -1.024138 1.163932 0.006732 -0.019638 -310283.000000 0 0 1
-12.421562 20.482411 10.268642 26.062796 -1.025648 1.165821 0.022693 -0.022325 -300813.000000 0 0 1
-13.204262 19.779011 9.161542 25.485205 -0.982155 1.203081 0.031589 -0.022124 -545155.000000 0 0 1
-13.619262 20.627711 8.059142 25.998779 -0.987255 1.255623 0.034520 -0.018564 -88783.000000 0 0 1
-14.403862 19.969911 7.117342 25.630551 -0.945932 1.289408 0.038688 -0.015188 -242943.000000 0 0 1
-15.899662 19.910911 7.467542 26.551983 -0.896946 1.285708 0.038167 -0.015734 -790535.000000 0 0 1
-16.319862 19.061811 8.486542 26.489846 -0.862740 1.244677 0.026405 -0.011983 -192500.000000 0 0 1
-17.687262 19.240711 8.781042 27.570834 -0.827440 1.246660 0.028133 -0.009527 -12039.200000 0 0 1
-18.127962 18.103311 9.788342 27.425618 -0.784718 1.205844 0.013774 -0.008180 -59901.400000 0 0 1
-18.224762 16.825311 9.179642 26.448041 -0.745492 1.216338 0.010455 -0.004461 29397.000000 0 0 1
-18.788862 15.811411 9.986442 26.509452 -0.699557 1.184552 0.016440 -0.008396 -575439.000000 0 0 1
-17.841762 15.015311 10.913642 25.746759 -0.699587 1.133067 0.017524 -0.003763 -68904.500000 0 0 1
-17.067762 14.037311 10.253842 24.361771 -0.688278 1.136360 0.004235 0.006069 165893.000000 0 1 0
-16.387362 13.065011 10.997042 23.668018 -0.673069 1.087571 0.007134 -0.001087 27571.500000 0 1 0
-17.348262 12.178711 11.838742 24.278365 -0.612076 1.061429 0.013480 -0.002170 93218.500000 0 1 0
-18.075562 11.274211 11.036242 23.992340 -0.557683 1.092812 0.003477 -0.002460 16319.600000 0 1 0
-18.917962 10.434211 11.830142 24.631571 -0.504033 1.069818 0.019703 -0.003621 -254580.000000 0 1 0
-19.797562 9.593211 10.925042 24.562770 -0.451224 1.109867 0.022264 -0.006492 -584030.000000 0 1 0
-19.077562 8.753211 10.012742 23.255689 -0.430166 1.125694 0.003005 -0.002503 330460.000000 0 1 0
-18.770662 9.322411 8.724842 22.701717 -0.460962 1.176320 0.016757 0.002275 -488956.000000 0 1 0
-19.973662 9.540911 7.778642 23.462383 -0.445628 1.232864 0.027590 -0.002050 -174855.000000 0 1 0
-20.460062 8.309711 7.312042 23.262231 -0.385791 1.251044 0.011518 -0.004765 187343.000000 0 1 0
-21.264062 8.585811 6.200542 23.755488 -0.383753 1.306723 0.008692 -0.001689 -252336.000000 0 1 0
-21.606962 7.281411 5.418242 23.435808 -0.325041 1.337491 0.024055 -0.002343 -397291.000000 0 1 0
-22.354262 6.363211 6.126442 24.036156 -0.277318 1.313068 0.023723 0.002428 120376.000000 0 1 0
-22.057262 5.072711 5.593642 23.314031 -0.226049 1.328507 0.032305 -0.003953 -650283.000000 0 1 0
-22.924662 3.931311 6.130242 24.053590 -0.169836 1.313096 0.044589 -0.001624 66506.600000 0 1 0
-24.141962 4.047711 5.384042 25.064042 -0.166118 1.354298 0.056975 -0.007943 556014.000000 0 0 1
-24.731662 2.761611 5.170942 25.416928 -0.111202 1.365921 0.053450 -0.015322 -290016.000000 0 0 1
-25.788222 2.728711 4.055942 26.247456 -0.105420 1.415648 0.058500 -0.019816 -319381.000000 0 0 1
-25.337462 2.432811 2.716942 25.598581 -0.095723 1.464460 0.061396 -0.021603 190905.000000 0 0 1
-26.354122 2.493011 1.730442 26.528273 -0.094316 1.505520 0.068663 -0.018521 -195069.000000 0 0 1
-25.799902 2.481811 0.291042 25.920630 -0.095900 1.559568 0.080127 -0.015048 -105536.000000 0 0 1
-25.053062 3.676811 -0.002258 25.321431 -0.145721 1.570886 0.071163 -0.022320 538540.000000 0 0 1
-25.153782 4.086311 -1.383058 25.521041 -0.161046 1.625016 0.077629 -0.013150 206475.000000 0 0 1
-26.517762 4.738411 -1.794058 26.997461 -0.176822 1.637298 0.097034 -0.018134 974103.000000 0 0 1
-27.649462 3.866711 -1.790858 27.975907 -0.138946 1.634854 0.090872 -0.014869 266291.000000 0 0 1
-28.816322 4.562711 -2.146658 29.254177 -0.157034 1.644242 0.085994 -0.005446 -221843.000000 0 0 1
-30.027482 3.662211 -2.455958 30.349517 -0.121363 1.651807 0.081611 -0.004098 -182236.000000 0 0 1
-29.953482 2.987711 -3.735858 30.333054 -0.099416 1.694271 0.077602 0.003045 442209.000000 0 0 1
-31.001302 2.035111 -3.757358 31.294411 -0.065552 1.691152 0.076582 -0.000107 138117.000000 0 0 1
-31.234442 1.365911 -5.155758 31.686558 -0.043703 1.734234 0.065353 -0.003722 334138.000000 0 0 1
-30.044122 0.688511 -5.591058 30.567683 -0.022913 1.754739 0.086990 -0.007541 708098.000000 0 0 1
-30.132962 -0.047989 -6.801458 30.891059 0.001593 1.792791 0.088326 -0.004862 -330250.000000 0 0 1
-30.650932 0.558311 -8.103358 31.708923 -0.018213 1.829218 0.079765 -0.007434 -598936.000000 0 0 1
-32.042842 0.680011 -8.170058 33.075006 -0.021219 1.820396 0.075517 -0.003798 -247459.000000 0 0 1
-32.402252 1.530911 -9.255658 33.733023 -0.047212 1.848741 0.066393 -0.010362 281729.000000 0 0 1
-33.912602 1.908811 -9.264958 35.207209 -0.056227 1.837087 0.054478 -0.006188 212333.000000 0 0 1
-34.204656 2.740511 -8.191758 35.278518 -0.079950 1.805138 0.037412 0.000265 642258.000000 0 0 1
-35.613932 2.662311 -7.979558 36.593899 -0.074616 1.790620 0.042727 0.000067 386129.000000 0 0 1
35.289708 3.702011 -6.951258 36.157825 0.104521 1.764248 0.055817 -0.002085 915532.000000 0 0 1
33.880158 3.663011 -6.616658 34.714016 0.107698 1.762575 0.059184 -0.008648 1432860.000000 0 0 1
33.631548 4.493311 -5.495258 34.372499 0.132818 1.731359 0.055851 -0.009849 30735.200000 0 0 1
32.259648 4.174111 -4.871158 32.891279 0.128676 1.719442 0.069302 -0.016389 31114.300000 0 0 1
32.340858 2.871411 -4.253958 32.745568 0.088554 1.701074 0.058640 -0.015317 635310.000000 0 0 1
31.109828 2.148811 -4.433658 31.497557 0.068962 1.712027 0.084644 -0.014978 529970.000000 0 0 1
30.980988 0.831211 -3.647358 31.206021 0.026823 1.687944 0.088404 -0.001381 -491730.000000 0 0 1
31.983198 -0.118589 -4.028458 32.236121 -0.003708 1.696091 0.052736 -0.002641 380976.000000 0 0 1
31.847678 -1.361089 -3.391158 32.056623 -0.042711 1.676781 0.053701 0.002096 500946.000000 0 0 1
33.146258 -2.247089 -3.428858 33.398815 -0.067690 1.673642 0.036601 0.003792 558721.000000 0 0 1
32.943538 -3.541789 -2.931058 33.262773 -0.107100 1.659029 0.029919 0.003558 -484311.000000 0 0 1
34.081718 -4.340789 -3.083758 34.495152 -0.126682 1.660313 0.048548 -0.000893 -276557.000000 0 0 1
33.891808 -5.869289 -2.831058 34.512578 -0.171477 1.652918 0.043289 -0.000602 -89322.700000 0 0 1
33.559308 -6.153389 -1.497358 34.151624 -0.181344 1.614655 0.047757 0.000643 8568.800000 0 0 1
33.858418 -7.459089 -1.073458 34.686925 -0.216839 1.601748 0.057678 -0.007187 -93805.800000 0 0 1
33.481268 -7.674689 0.426342 34.352262 -0.225331 1.558385 0.059829 -0.004242 -25658.300000 0 0 1
32.073188 -7.640089 0.561442 32.975378 -0.233850 1.553769 0.057390 -0.005058 57503.800000 0 0 1
31.564388 -7.844589 1.856142 32.577499 -0.243591 1.513789 0.054504 -0.020873 -553277.000000 0 0 1
31.222978 -9.318089 2.221542 32.659399 -0.290022 1.502722 0.062201 -0.022138 -343981.000000 0 0 1
30.206348 -9.901889 1.457742 31.821311 -0.316770 1.524970 0.068554 -0.029596 -249867.000000 0 0 1
28.931468 -9.581989 1.954842 30.539577 -0.319826 1.506742 0.069827 -0.037520 -1423750.000000 0 0 1
27.854588 -10.692389 1.839942 29.892986 -0.366520 1.509206 0.090129 -0.035714 -1467120.000000 0 0 1
26.700538 -10.506589 2.539042 28.805448 -0.374888 1.482537 0.110807 -0.042115 -143885.000000 0 0 1
25.766638 -9.500389 2.096842 27.542218 -0.353244 1.494591 0.108673 -0.038996 -25581.400000 0 0 1
25.030238 -9.752889 0.724542 26.872972 -0.371547 1.543831 0.101188 -0.032754 -481471.000000 0 0 1
25.881638 -9.611189 -0.443658 27.612152 -0.355568 1.586865 0.091655 -0.031125 442286.000000 0 0 1
25.301538 -9.783389 -1.744258 27.183174 -0.368964 1.635007 0.084271 -0.021463 -16884.100000 0 0 1
24.578638 -11.143489 -2.070158 27.066074 -0.425662 1.647356 0.073520 -0.012598 608745.000000 0 0 1
23.265438 -11.221989 -1.512558 25.874726 -0.449425 1.629287 0.072243 -0.011524 226759.000000 0 0 1
22.748038 -12.478189 -1.805758 26.008445 -0.501721 1.640282 0.057277 -0.009831 98617.700000 0 0 1
21.232638 -12.767989 -1.639958 24.830141 -0.541403 1.636892 0.045470 0.001074 63022.300000 0 1 0
20.390838 -12.135389 -2.584258 23.869066 -0.536838 1.679277 0.036464 0.000620 -691566.000000 0 1 0
19.114138 -12.551189 -2.223558 22.974482 -0.581032 1.667732 0.029780 0.006642 -887012.000000 0 1 0
18.051438 -12.131089 -3.256858 21.991472 -0.591706 1.719440 0.010589 0.011210 -246547.000000 0 1 0
18.183238 -12.859989 -4.482458 22.717876 -0.615571 1.769409 0.020058 -0.000201 206847.000000 0 1 0
17.539738 -12.201589 -5.526758 22.069577 -0.607803 1.823915 0.023962 -0.006220 -468581.000000 0 1 0
17.673338 -12.917189 -6.920758 22.958605 -0.631155 1.877004 0.026676 -0.009339 -261215.000000 0 1 0
16.862438 -14.057889 -7.083858 23.068314 -0.694943 1.882921 0.027290 -0.008054 233028.000000 0 1 0
16.980338 -14.562089 -8.369558 23.883798 -0.708881 1.928825 0.033040 -0.012230 -722076.000000 0 1 0
15.942838 -15.623089 -8.724558 23.966078 -0.775269 1.943396 0.030144 -0.012184 -719331.000000 0 1 0
14.646438 -15.082589 -8.450458 22.658616 -0.800068 1.952979 0.035831 -0.008886 507508.000000 0 1 0
13.552838 -15.845889 -8.912858 22.676214 -0.863239 1.974741 0.030088 -0.016382 33734.900000 0 1 0
13.469538 -15.976889 -10.472158 23.374249 -0.870343 2.035347 0.039097 -0.018172 -1458380.000000 0 1 0
12.954238 -14.914689 -11.238958 22.728273 -0.855628 2.088047 0.024684 -0.013334 267191.000000 0 1 0
13.422738 -13.583789 -10.942358 22.009644 -0.791362 2.091121 0.031294 -0.008491 -76032.100000 0 1 0
13.414138 -12.594589 -12.126558 22.036701 -0.753898 2.153507 0.045658 -0.008022 -96911.600000 0 1 0
14.448938 -12.906589 -13.031658 23.349004 -0.729076 2.162920 0.049231 -0.003447 158810.000000 0 1 0
14.083438 -12.512889 -14.321458 23.664737 -0.726415 2.220790 0.061504 -0.002780 121972.000000 0 1 0
15.310338 -12.057889 -15.197458 24.713597 -0.667113 2.233110 0.060405 -0.012527 1076150.000000 0 1 0
16.336138 -13.043689 -15.306358 25.909300 -0.673799 2.202805 0.058592 -0.013188 861490.000000 0 0 1
17.338138 -12.789389 -16.310658 27.022529 -0.635547 2.218799 0.056912 -0.007882 457991.000000 0 0 1
18.442138 -13.839289 -16.416258 28.304274 -0.643768 2.189515 0.058520 -0.012298 -158933.000000 0 0 1
19.297838 -13.959489 -15.290358 28.303161 -0.626239 2.141513 0.040805 -0.014098 57596.400000 0 0 1
20.341938 -14.872889 -15.497558 29.583299 -0.631324 2.122175 0.023233 -0.005993 -415092.000000 0 0 1
21.306738 -14.940289 -14.340258 29.712494 -0.611531 2.074456 0.012597 -0.013432 -482724.000000 0 0 1
21.969038 -13.732589 -14.125858 29.508685 -0.558663 2.069972 0.018892 -0.001516 -109319.000000 0 0 1
22.771438 -13.656789 -12.957658 29.545679 -0.540223 2.024796 0.013741 0.001591 315589.000000 0 0 1
23.437238 -12.283789 -12.821458 29.403833 -0.482752 2.021998 0.022523 0.008152 -156590.000000 0 0 1
22.451538 -11.289489 -12.535958 28.083347 -0.465916 2.033517 0.014461 0.008891 349519.000000 0 0 1
22.846038 -9.898389 -12.587958 27.899395 -0.408850 2.038896 0.020850 0.001306 -446580.000000 0 0 1
24.035938 -9.354389 -11.810158 28.367424 -0.371147 2.000199 0.023418 -0.001329 355379.000000 0 0 1
25.307038 -9.885489 -12.184058 29.776171 -0.372396 1.992361 0.028554 0.005819 546593.000000 0 0 1
26.277238 -9.789389 -11.168558 30.183805 -0.356614 1.949825 0.039839 -0.000626 236025.000000 0 0 1
27.605678 -10.517089 -11.510658 31.704540 -0.363999 1.942346 0.051162 -0.000528 508486.000000 0 0 1
28.455188 -9.907089 -12.493858 32.618164 -0.335039 1.963875 0.034675 -0.000833 547936.000000 0 0 1
29.595468 -10.723989 -12.718958 33.950958 -0.347637 1.954791 0.023057 -0.003692 -13116.700000 0 0 1
30.355418 -10.255089 -13.952758 34.947070 -0.325796 1.981499 0.006864 0.001104 -426447.000000 0 0 1
29.585748 -10.520889 -15.085558 34.836470 -0.341661 2.018658 -0.007529 0.010679 376305.000000 0 0 1
30.302398 -10.075089 -16.214258 35.814032 -0.320987 2.040626 -0.018091 0.011872 -310225.000000 0 0 1
29.997598 -10.985189 -17.454758 36.403281 -0.351035 2.070862 -0.042194 0.018706 -529192.000000 0 0 1
28.841968 -10.672689 -18.170958 35.720430 -0.354415 2.104470 -0.027246 0.013232 -294678.000000 0 0 1
28.965738 -9.513489 -18.962158 35.903814 -0.317340 2.127202 -0.032477 0.018880 -513364.000000 0 0 1
27.616618 -8.944589 -19.410458 34.920612 -0.313222 2.160176 -0.064733 0.017565 -177691.000000 0 0 1
27.274048 -9.496089 -20.659058 35.508395 -0.335046 2.191746 -0.062252 0.022485 -345763.000000 0 0 1
25.966238 -9.247389 -21.066358 34.692235 -0.342126 2.223373 -0.030497 0.016340 -494679.000000 0 0 1
25.598838 -9.735389 -22.447458 35.411392 -0.363414 2.257388 -0.017081 0.003560 -162734.000000 0 0 1
25.406438 -11.104989 -22.541558 35.734153 -0.412069 2.253396 -0.027445 0.003116 123006.000000 0 0 1
24.721338 -11.439389 -23.723258 36.121976 -0.433392 2.287303 -0.008299 -0.005408 -746803.000000 0 0 1
24.734338 -12.935089 -24.122058 36.891431 -0.481847 2.283479 -0.016340 0.008106 1385790.000000 0 0 1
25.962038 -13.484489 -24.676858 38.272787 -0.479041 2.271509 -0.017023 0.011556 928015.000000 0 0 1
27.142198 -13.412889 -23.894058 38.568517 -0.458974 2.238930 -0.040970 0.015741 -498813.000000 0 0 1
28.278998 -14.097189 -24.650758 40.076082 -0.462450 2.233308 -0.033636 0.017209 -334637.000000 0 0 1
28.623198 -13.419789 -25.877288 40.853546 -0.438413 2.256756 -0.032574 0.004505 -247139.000000 0 0 1
29.867538 -13.825789 -26.370408 42.173697 -0.433533 2.246288 -0.046186 0.008886 -395617.000000 0 0 1
30.451248 -12.999889 -27.524218 43.056454 -0.403486 2.264330 -0.024519 0.003787 -55878.000000 0 0 1
30.107668 -13.572089 -28.783128 43.808010 -0.423507 2.287667 -0.008472 -0.005778 462735.000000 0 0 1
31.079838 -13.264089 -29.769938 45.034893 -0.403373 2.293002 -0.012348 -0.008043 174230.000000 0 0 1
30.946268 -14.175389 -31.016938 46.050664 -0.429540 2.309783 -0.003155 -0.010971 25133.100000 0 0 1
31.181938 -15.551989 -30.684868 46.429934 -0.462647 2.292794 0.002374 -0.011983 7461.940000 0 0 1
31.362828 -16.491389 -31.770798 47.591769 -0.484094 2.301735 0.007022 -0.009382 362998.000000 0 0 1
30.125018 -16.914089 -32.636828 47.526473 -0.511602 2.327748 -0.005065 -0.006737 411941.000000 0 0 1
29.626538 -15.929789 -33.511588 47.481749 -0.493340 2.354318 -0.013533 -0.001980 914584.000000 0 0 1
28.440998 -16.382089 -34.212003 47.410172 -0.522587 2.376932 -0.013544 -0.007649 974496.000000 0 0 1
27.803218 -15.297489 33.578614 46.201249 -0.503001 0.757159 0.007811 -0.002994 -219728.000000 0 0 1
27.122948 -14.214289 34.189461 45.897925 -0.482717 0.730408 0.010191 -0.013869 -553523.000000 0 0 1
27.920868 -13.136389 -34.293951 46.132577 -0.439759 2.408903 0.017372 -0.020209 -863484.000000 0 0 1
27.109998 -11.932489 -33.871128 44.995440 -0.414633 2.423053 0.021538 -0.021642 75681.400000 0 0 1
26.350488 -11.316189 33.842659 44.359101 -0.405633 0.702971 0.044685 -0.028031 57957.100000 0 0 1
25.692038 -10.212889 -34.352278 44.096065 -0.378360 2.463918 0.022896 -0.026423 -285430.000000 0 0 1
19.964838 -29.670103 9.607142 37.029811 -0.978495 1.308350 0.012729 0.000024 -219955.000000 0 0 1
20.499438 -29.376103 8.309542 36.772692 -0.961530 1.342857 0.004297 -0.006497 569286.000000 0 0 1
21.605838 -30.273503 8.084642 38.061248 -0.950943 1.356754 0.023426 -0.009547 526632.000000 0 0 1
22.153438 -29.971603 6.684342 37.864921 -0.934277 1.393335 0.020828 -0.006679 16825.800000 0 0 1
22.764738 -28.702003 6.488742 37.204059 -0.900252 1.395490 0.018584 0.000119 340359.000000 0 0 1
23.499438 -28.644503 5.262142 37.422203 -0.883750 1.429713 0.018635 0.010410 133346.000000 0 0 1
23.648838 -27.247103 4.689342 36.382167 -0.855979 1.441546 0.009381 0.007676 167154.000000 0 0 1
24.536838 -26.435703 5.440342 36.476021 -0.822634 1.421089 0.010576 0.000817 138561.000000 0 0 1
24.269038 -25.073403 5.151342 35.273192 -0.801698 1.424231 0.012081 0.006875 234747.000000 0 0 1
25.118438 -24.027503 5.975642 35.269889 -0.763204 1.400549 -0.000165 0.005261 -14823.400000 0 0 1
26.409838 -23.785003 5.486642 35.962607 -0.733153 1.417633 -0.005755 0.003361 -382607.000000 0 0 1
27.161338 -22.871003 6.269242 36.057238 -0.699856 1.396039 0.014238 -0.001620 17437.500000 0 0 1
26.705838 -21.360703 6.373842 34.786596 -0.674650 1.386528 0.002011 0.000552 -315904.000000 0 0 1
26.871338 -20.795903 5.126842 34.363103 -0.658627 1.421041 0.005421 0.011457 169684.000000 0 0 1
26.547338 -19.406003 5.252542 33.300800 -0.631227 1.412405 0.011757 0.005978 -222767.000000 0 0 1
26.673738 -18.544503 4.004142 32.732553 -0.607520 1.448160 0.024851 0.009867 1314220.000000 0 0 1
28.013738 -18.104803 3.614042 33.550182 -0.573758 1.462866 0.052931 0.005619 1522950.000000 0 0 1
27.956438 -17.405303 2.414842 33.020273 -0.556862 1.497599 0.055242 0.007312 511704.000000 0 0 1
29.206738 -16.496403 2.187242 33.614712 -0.514146 1.505682 0.063891 -0.013302 364507.000000 0 0 1
29.041738 -15.400003 3.008742 33.009622 -0.487570 1.479522 0.070127 -0.020461 423076.000000 0 0 1
30.204438 -14.588703 3.153842 33.691023 -0.449954 1.477048 0.078645 -0.022278 256845.000000 0 0 1
30.052838 -13.453303 4.135342 33.185320 -0.420902 1.445858 0.085095 -0.028408 246378.000000 0 0 1
29.654838 -13.813503 5.471442 33.168644 -0.435923 1.405081 0.071004 -0.024651 79688.500000 0 0 1
29.590338 -12.672603 6.323342 32.804994 -0.404636 1.376827 0.059499 -0.030975 -327202.000000 0 0 1
29.043038 -13.063103 7.701642 32.763669 -0.422675 1.333509 0.075531 -0.025267 -699909.000000 0 0 1
27.657338 -13.325503 7.734842 31.659519 -0.448988 1.323985 0.062297 -0.021643 -200478.000000 0 0 1
27.135038 -13.134203 9.027942 31.469371 -0.450791 1.279828 0.070142 -0.012734 14131.800000 0 0 1
27.308838 -14.351703 10.009942 32.433670 -0.483865 1.257046 0.070154 -0.014230 1255660.000000 0 0 1
28.648638 -14.465403 10.590942 33.795863 -0.467580 1.252046 0.056062 -0.010713 1285630.000000 0 0 1
28.858538 -15.724603 11.201642 34.721105 -0.498908 1.242303 0.061066 -0.021217 -271938.000000 0 0 1
29.560038 -15.644703 12.567742 35.728150 -0.486774 1.211345 0.054117 -0.013721 1079630.000000 0 0 1
30.966138 -15.321403 12.443442 36.721742 -0.459462 1.225094 0.032794 -0.004927 1027460.000000 0 0 1
31.600638 -15.490603 13.710442 37.769502 -0.455776 1.199308 0.033389 -0.005879 1109960.000000 0 0 1
33.161238 -15.314303 13.806742 39.048965 -0.432634 1.209406 0.038470 -0.012410 704945.000000 0 0 1
33.748638 -14.089903 13.568642 39.007742 -0.395497 1.215525 0.034201 -0.010495 -395197.000000 0 0 1
34.983938 -14.060503 14.214942 40.294394 -0.382155 1.210259 0.019688 -0.005964 -671587.000000 0 0 1
-35.600262 -12.774503 14.117742 40.371738 0.344521 1.213552 0.016900 -0.001021 -262527.000000 0 0 1
-34.831362 -12.716003 12.920242 39.266438 0.350040 1.235509 0.027339 -0.006430 326655.000000 0 0 1
-34.126562 -11.478103 12.799842 38.212629 0.324453 1.229230 0.030567 -0.005222 187171.000000 0 0 1
-33.004362 -11.484103 11.702942 36.852834 0.334854 1.247642 0.024190 -0.005626 114972.000000 0 0 1
-31.826562 -12.179903 11.963042 36.116401 0.365501 1.233183 0.003119 0.004346 -318163.000000 0 0 1
-31.896362 -13.568503 11.702942 36.584710 0.402204 1.245187 0.000278 0.000717 -240504.000000 0 0 1
-30.602562 -14.335303 12.061242 35.881628 0.438078 1.227981 -0.008733 0.007161 73746.700000 0 0 1
-29.504162 -14.082403 11.211042 34.561497 0.445325 1.240441 -0.001126 0.006591 553696.000000 0 0 1
-28.439862 -14.985203 11.620242 34.182043 0.484942 1.223931 -0.000748 0.006598 1021840.000000 0 0 1
-27.113562 -14.848903 10.798742 32.745198 0.501042 1.234725 0.014236 -0.004490 415847.000000 0 0 1
-27.250062 -15.067903 9.381942 32.521199 0.505105 1.278150 0.008975 -0.004468 753964.000000 0 0 1
-25.984862 -14.748503 8.775942 31.140786 0.516241 1.285111 0.019635 -0.007683 778933.000000 0 0 1
-25.983162 -14.713503 7.256542 30.728965 0.515249 1.332398 0.035916 -0.003928 -158368.000000 0 0 1
-26.146362 -15.976103 6.630942 31.350239 0.548487 1.357675 0.038460 -0.001915 124417.000000 0 0 1
-25.973662 -15.919503 5.242842 30.911957 0.549858 1.400367 0.035974 0.001437 -397426.000000 0 0 1
-26.526362 -17.105003 4.412842 31.870083 0.572732 1.431887 0.029684 0.001853 -252239.000000 0 0 1
-27.927262 -17.141703 4.336742 33.054156 0.550503 1.439216 0.000366 -0.008252 -320741.000000 0 0 1
-28.295562 -18.125403 3.375542 33.772227 0.569720 1.470679 0.004726 -0.009386 -230747.000000 0 0 1
-29.796162 -18.443503 3.435742 35.210487 0.554265 1.473064 0.012770 -0.013036 65324.600000 0 0 1
-30.652162 -17.394603 2.961742 35.368053 0.516167 1.486958 0.022226 -0.013451 -724983.000000 0 0 1
-31.967062 -17.634503 3.305942 36.657850 0.504106 1.480490 0.040905 -0.015322 -1082840.000000 0 0 1
-32.916862 -16.744003 2.523942 37.016911 0.470564 1.502560 0.034759 -0.020245 -330153.000000 0 0 1
-32.824562 -16.947803 1.106042 36.958128 0.476614 1.540865 0.029312 -0.013727 -718280.000000 0 0 1
-33.872362 -16.349703 0.442442 37.614431 0.449700 1.559034 0.052417 -0.018630 -574853.000000 0 0 1
-34.309962 -17.236703 -0.749058 38.403626 0.465551 1.590302 0.055988 -0.023420 -267343.000000 0 0 1
-33.344562 -17.237003 -1.775558 37.578274 0.477104 1.618064 0.055248 -0.023844 258186.000000 0 0 1
-33.746062 -17.947303 -2.948658 38.335323 0.488789 1.647790 0.061413 -0.022881 803428.000000 0 0 1
-32.482762 -18.685503 -3.558658 37.642289 0.522017 1.665477 0.048708 -0.011319 741480.000000 0 0 1
-32.828662 -19.591903 -4.535658 38.498518 0.538058 1.688884 0.065669 -0.030008 -823792.000000 0 0 1
-31.790662 -20.376403 -4.919958 38.079522 0.569991 1.700361 0.049119 -0.024699 -1059400.000000 0 0 1
-32.369162 -21.514503 -5.817158 39.299819 0.586612 1.719362 0.065007 -0.028366 281759.000000 0 0 1
-33.179462 -22.429203 -5.087158 40.371091 0.594434 1.697142 0.095608 -0.038097 114220.000000 0 0 1
-33.731962 -23.419003 -5.946758 41.492877 0.606868 1.714612 0.080444 -0.028089 125614.000000 0 0 1
-34.168062 -24.748503 -5.253158 42.515180 0.626860 1.694672 0.080765 -0.026326 82111.000000 0 0 1
-33.113462 -25.398703 -4.575158 41.982467 0.654306 1.679991 0.082000 -0.026623 -427236.000000 0 0 1
-33.311662 -26.779203 -4.401258 42.967006 0.677114 1.673410 0.061922 -0.018505 185440.000000 0 0 1
-32.128762 -27.601403 -3.820258 42.528686 0.709746 1.660745 0.050936 -0.015766 -239021.000000 0 0 1
-31.066062 -27.911403 -4.708958 42.027621 0.731960 1.683076 0.064990 -0.015864 450632.000000 0 0 1
-30.292862 -29.043103 -4.323558 42.188298 0.764339 1.673459 0.046192 -0.014205 262944.000000 0 0 1
-29.272062 -28.933803 -3.181158 41.281210 0.779587 1.647933 0.042408 -0.015296 -969445.000000 0 0 1
-29.952562 -28.759703 -1.967358 41.570987 0.765084 1.618139 0.052551 -0.017660 694734.000000 0 0 1
-29.044462 -28.436903 -0.897858 40.657648 0.774829 1.592882 0.035659 -0.020972 890891.000000 0 0 1
-29.956062 -28.299503 0.362342 41.211149 0.756970 1.562004 0.037632 -0.017658 641760.000000 0 0 1
-30.413462 -29.545903 0.881342 42.411270 0.770930 1.550014 0.036256 -0.010294 -64341.900000 0 0 1
-31.509462 -29.359803 1.745142 43.103245 0.750097 1.530298 0.041675 -0.010858 -134798.000000 0 0 1
-32.015862 -30.617803 2.476442 44.368886 0.763081 1.514952 0.028945 -0.002090 -810530.000000 0 0 1
-32.982462 -30.464303 3.455042 45.031698 0.745730 1.493996 0.029083 -0.004494 -134206.000000 0 0 1
-33.462662 -31.752703 3.917642 46.296131 0.759184 1.486074 0.019929 -0.003235 551629.000000 0 0 1
-34.532162 -32.597403 3.079442 47.587223 0.756585 1.506040 0.015587 -0.004065 540288.000000 0 0 1
-35.138862 -33.685603 3.742942 48.820785 0.764286 1.494054 0.006552 -0.006974 -191953.000000 0 0 1
35.241338 -34.167303 2.909042 49.171323 -0.769925 1.511600 0.020043 -0.006198 -255912.000000 0 0 1
34.068138 33.855111 3.614342 48.165029 0.782262 1.495685 0.013643 -0.006902 111793.000000 0 0 1
33.256138 -34.150703 4.490142 47.879041 -0.798669 1.476877 0.002406 -0.004284 699484.000000 0 0 1
32.454538 -33.101203 3.946942 46.524886 -0.795262 1.485859 0.009652 -0.002438 -362342.000000 0 0 1
31.460538 -33.442303 2.824142 46.001400 -0.815923 1.509365 0.018647 -0.003244 -1251050.000000 0 0 1
32.002538 -33.777403 1.570442 46.556865 -0.812373 1.537058 0.022721 -0.003448 -52779.500000 0 0 1
31.133838 -33.520203 0.444942 45.750605 -0.822291 1.561071 0.025198 0.003149 -225963.000000 0 0 1
31.717738 -34.159903 -0.843958 46.622163 -0.822452 1.588899 0.035167 -0.003207 1725980.000000 0 0 1
32.892338 -33.518203 -1.447858 46.983743 -0.794822 1.601617 0.024085 0.001698 2361070.000000 0 0 1
34.125538 -33.514503 -0.649858 47.835097 -0.776365 1.584382 0.030362 0.001184 684508.000000 0 0 1
35.416238 -33.339003 -1.464158 48.661512 -0.755195 1.600890 0.024439 0.001428 -308698.000000 0 0 1
35.604538 34.362311 -2.281658 49.534407 0.767646 1.616875 0.026806 -0.006150 -229928.000000 0 0 1
-35.087262 -34.131403 -3.399858 49.067582 0.771590 1.640141 0.028426 -0.005574 -410406.000000 0 0 1
-34.366762 33.449311 -4.082558 48.131050 -0.771870 1.655720 0.024416 -0.012914 708648.000000 0 0 1
-33.157962 32.986411 -3.470958 46.899907 -0.782805 1.644872 0.032882 -0.009366 303888.000000 0 0 1
-32.452262 32.195211 -4.384558 45.922818 -0.781422 1.666419 0.036331 -0.017413 1104020.000000 0 0 1
-31.080362 31.628111 -3.798658 44.505686 -0.794133 1.656253 0.045915 -0.015956 975116.000000 0 0 1
-29.938262 32.467811 -3.788658 44.326202 -0.825910 1.656373 0.021599 -0.025417 346039.000000 0 0 1
-28.714962 31.815311 -3.452358 42.996300 -0.836573 1.651177 0.021152 -0.027947 778954.000000 0 0 1
-28.473262 31.380511 -2.006758 42.420398 -0.833933 1.618120 0.023799 -0.023904 -1080180.000000 0 0 1
-29.330862 30.366011 -1.685458 42.252039 -0.802737 1.610697 0.029644 -0.017694 -707895.000000 0 0 1
-29.602162 30.353211 -0.289758 42.399167 -0.797924 1.577630 0.021699 -0.012368 267858.000000 0 0 1
-31.047262 29.840711 -0.028058 43.062760 -0.765585 1.571448 0.018705 -0.009818 645.638000 0 0 1
-31.221262 28.491611 -0.219258 42.268039 -0.739717 1.575984 0.022128 -0.015447 895319.000000 0 0 1
-32.587162 28.330311 -0.671358 43.185418 -0.715633 1.586343 0.016553 -0.015057 1030670.000000 0 0 1
-32.800462 26.828911 -1.065458 42.388630 -0.685586 1.595934 0.015008 -0.013594 -260504.000000 0 0 1
-33.064162 26.039411 0.078742 42.086767 -0.667098 1.568925 0.016736 -0.014573 -63932.300000 0 0 1
-33.633862 24.787311 -0.268258 41.781807 -0.635113 1.577217 0.032854 -0.004153 -79995.100000 0 0 1
-33.578162 23.649111 0.801742 41.078172 -0.613606 1.551278 0.031077 -0.016867 656489.000000 0 0 1
-32.255462 23.187311 1.108242 39.740337 -0.623275 1.542906 0.026733 -0.018459 822714.000000 0 0 1
-31.699162 23.828311 2.276742 39.721642 -0.644589 1.513447 0.029285 -0.023237 -966424.000000 0 0 1
-30.175962 23.678111 2.351942 38.428807 -0.665322 1.509555 0.022270 -0.028411 -72649.800000 0 0 1
-29.502062 24.594011 1.438042 38.435725 -0.694917 1.533373 0.044480 -0.031201 282916.000000 0 0 1
-29.263462 25.889311 2.025142 39.124261 -0.724296 1.519011 0.027634 -0.026760 -344013.000000 0 0 1
-28.607462 26.870811 1.035842 39.261945 -0.754105 1.544410 0.029037 -0.022871 -1107870.000000 0 0 1
-27.312862 26.628011 0.686742 38.151212 -0.772703 1.552795 0.035916 -0.023957 -1385850.000000 0 0 1
-26.753162 27.519511 -0.259058 38.381275 -0.799518 1.577546 0.037608 -0.023073 -239583.000000 0 0 1
-25.574962 26.963111 -1.021358 37.177025 -0.811814 1.598273 0.028222 -0.021546 -788204.000000 0 0 1
-25.972762 26.059011 -2.007658 36.846806 -0.787056 1.625310 0.037214 -0.024538 268649.000000 0 0 1
-24.912962 25.594111 -2.876258 35.832765 -0.798884 1.651152 0.028717 -0.012762 783197.000000 0 0 1
-23.914862 24.546811 -2.337258 34.350099 -0.798438 1.638891 0.030795 -0.015664 -64820.700000 0 0 1
-24.552862 23.373411 -1.977458 33.956880 -0.760793 1.629064 0.021439 -0.015274 -366876.000000 0 0 1
-23.697262 22.489211 -1.238158 32.693392 -0.759248 1.608677 0.021511 -0.028802 -629184.000000 0 0 1
-24.182362 21.085711 -0.780658 32.093664 -0.717098 1.595123 0.023113 -0.026522 -660367.000000 0 0 1
-25.113562 21.050311 0.298542 32.770348 -0.697606 1.561686 0.007593 -0.019562 1099050.000000 0 0 1
-26.478862 21.440611 0.084942 34.071060 -0.680643 1.568303 0.006196 -0.025501 782900.000000 0 0 1
-27.254362 20.652911 -0.997858 34.210213 -0.648464 1.599969 0.000528 -0.024065 -1077170.000000 0 0 1
-27.257262 19.232011 -0.737358 33.367233 -0.614457 1.592896 0.000440 -0.015638 446344.000000 0 0 1
-27.999962 18.498711 -1.722858 33.603101 -0.583839 1.622090 0.029326 -0.015003 243814.000000 0 0 1
-27.968662 17.020511 -1.379858 32.769618 -0.546687 1.612917 0.007982 -0.014009 149297.000000 0 0 1
-28.810162 16.788911 -0.232758 33.345871 -0.527634 1.577777 0.027667 -0.017613 560029.000000 0 0 1
-29.142862 15.427511 -0.089358 32.974573 -0.486871 1.573506 0.035248 -0.020219 -140309.000000 0 0 1
-28.001562 14.539711 0.438942 31.554450 -0.478926 1.556885 0.044936 -0.019771 -368506.000000 0 0 1
-27.741462 14.589711 1.853742 31.398801 -0.484166 1.511723 0.062967 -0.016327 706349.000000 0 0 1
-26.406962 14.148411 2.142242 30.034886 -0.491863 1.499411 0.054368 -0.010583 677676.000000 0 0 1
-26.082662 12.624511 2.106842 29.053783 -0.450781 1.498217 0.052191 -0.013919 -491302.000000 0 0 1
-25.943662 12.195111 0.776842 28.677479 -0.439411 1.543704 0.055958 -0.020547 381460.000000 0 0 1
-25.596262 10.811611 0.808242 27.797712 -0.399658 1.541716 0.060069 -0.016182 -113506.000000 0 0 1
-25.687762 10.133511 -0.581358 27.620411 -0.375746 1.591846 0.074689 -0.021580 -303966.000000 0 0 1
-26.992662 9.844311 -1.000558 28.749180 -0.349713 1.605606 0.078430 -0.029235 -106282.000000 0 0 1
-27.029062 9.283111 -2.318958 28.672703 -0.330827 1.651762 0.092564 -0.028608 284846.000000 0 0 1
-28.454162 8.808211 -2.727058 29.910880 -0.300202 1.662096 0.103487 -0.029809 274370.000000 0 0 1
-28.542762 8.235911 -3.983758 29.973152 -0.280916 1.704102 0.121968 -0.024386 -1224220.000000 0 0 1
-29.817562 7.977811 -4.376458 31.175084 -0.261431 1.711645 0.106610 -0.020509 -1463210.000000 0 0 1
-10.705262 18.062111 -19.666758 28.768453 -1.035768 2.323511 0.075186 -0.015755 260165.000000 0 0 1
-11.151562 17.275611 -20.791358 29.241831 -0.997585 2.361736 0.088904 -0.016433 -143126.000000 0 0 1
-10.227962 17.327811 -21.840258 29.696147 -1.037567 2.397138 0.084356 -0.012589 -170028.000000 0 0 1
-10.438762 16.133011 -22.783458 29.804828 -0.996502 2.440940 0.087030 -0.014207 6492.980000 0 0 1
-10.127362 14.875411 -22.251558 28.617707 -0.973064 2.461549 0.085409 -0.012995 -149653.000000 0 0 1
-10.078162 13.853711 -23.247858 28.878324 -0.941871 2.506519 0.073525 -0.011169 -125078.000000 0 0 1
-9.276862 12.573811 -22.895458 27.719360 -0.935154 2.542723 0.057466 -0.006271 -485907.000000 0 0 1
-7.904862 12.817811 -22.873858 27.386064 -1.018181 2.559360 0.051366 -0.008057 -1000450.000000 0 0 1
-7.259162 11.773011 -22.273258 26.218262 -1.018265 2.585894 0.030252 -0.004929 -716620.000000 0 0 1
-5.747762 11.679411 -22.409258 25.915638 -1.113466 2.615350 0.025073 0.001323 -443822.000000 0 0 1
-5.244162 11.268511 -23.656458 26.722810 -1.135225 2.657835 0.020470 -0.002303 454391.000000 0 0 1
-3.809162 11.234011 -23.574258 26.390498 -1.243888 2.675399 0.019025 -0.001716 856835.000000 0 0 1
-3.124562 10.872111 -24.876258 27.327530 -1.290946 2.714805 0.025506 -0.003886 -325831.000000 0 0 1
-3.386662 9.459711 -25.180388 27.111023 -1.227004 2.761925 0.023838 -0.007292 49187.600000 0 0 1
-3.007062 9.248311 -26.518408 28.245348 -1.256431 2.790099 0.025493 -0.004674 -109681.000000 0 0 1
-2.612762 7.768211 -26.745158 27.972757 -1.246342 2.844237 0.025340 0.009555 355667.000000 0 0 1
-1.341862 7.344211 -26.227418 27.269314 -1.390080 2.864272 0.025173 0.001021 643394.000000 0 0 1
-1.418662 6.133011 -25.470248 26.236615 -1.343479 2.899299 0.033022 0.001213 -290263.000000 0 0 1
-0.069762 5.666811 -24.905258 25.541917 -1.558486 2.917851 -0.002876 0.003889 -242361.000000 0 0 1
0.258938 6.442111 -23.760358 24.619555 1.530623 2.876625 0.003999 -0.005789 541226.000000 0 1 0
1.344538 5.816311 -23.051158 23.811618 1.343620 2.888184 0.010267 -0.001195 462809.000000 0 1 0
1.659238 6.377211 -21.611458 22.593739 1.316257 2.845638 0.020132 -0.005668 318495.000000 0 1 0
2.375638 7.610411 -21.583558 23.008955 1.268225 2.787756 0.011493 -0.010734 54988.800000 0 1 0
2.537938 8.232911 -20.363758 22.111187 1.271772 2.741361 0.026896 -0.015228 351200.000000 0 1 0
3.125338 9.734411 -20.422658 22.838815 1.260131 2.677456 0.020756 -0.019607 -67597.900000 0 1 0
2.745138 10.468711 -19.247558 22.081626 1.314347 2.629365 0.019700 -0.023733 204637.000000 0 1 0
3.294738 11.753711 -19.294058 22.831244 1.297496 2.577497 0.018245 -0.017725 -525651.000000 0 1 0
4.638138 11.864711 -18.583658 22.530780 1.198143 2.540666 0.024433 -0.022763 -292017.000000 0 1 0
5.613738 10.988011 -19.086058 22.727254 1.098469 2.567688 0.028235 -0.023354 -868973.000000 0 1 0
6.679338 10.768111 -18.213058 22.187412 1.015592 2.533735 0.032085 -0.018631 83637.900000 0 1 0
7.754538 9.741811 -18.680258 22.449672 0.898496 2.553671 0.057680 -0.024331 10877.500000 0 1 0
7.344138 8.411611 -18.784158 21.852601 0.853046 2.605252 0.059063 -0.030187 -420659.000000 0 1 0
6.744738 8.133511 -19.973658 22.596294 0.878471 2.655008 0.040956 -0.026921 -370224.000000 0 1 0
6.326838 6.668711 -20.172758 22.168463 0.811699 2.714021 0.049871 -0.028340 152777.000000 0 1 0
7.438438 5.783211 -20.221758 22.309088 0.660855 2.705564 0.049530 -0.023881 180866.000000 0 1 0
7.095838 4.491911 -20.749858 22.384924 0.564356 2.757015 0.039275 -0.009758 -82451.400000 0 1 0
7.247238 4.333111 -22.237658 23.786798 0.538873 2.778700 0.046276 -0.011699 -324451.000000 0 1 0
6.430638 5.237811 -22.956458 24.408743 0.683525 2.794899 0.055440 -0.011019 -47112.600000 0 1 0
6.474138 4.986511 -24.348358 25.683113 0.656317 2.817782 0.052105 -0.005455 16084.100000 0 0 1
5.162138 5.451811 -25.072358 26.172372 0.812683 2.850638 0.035981 -0.007202 416650.000000 0 0 1
5.050738 6.836311 -25.324928 26.713238 0.934495 2.817780 0.047468 -0.011096 185972.000000 0 0 1
4.771838 7.638311 -24.154658 25.779095 1.012395 2.784698 0.047467 -0.017038 -1303670.000000 0 0 1
4.689338 9.158011 -24.357058 26.440979 1.097557 2.741914 0.046135 -0.020054 -402967.000000 0 0 1
3.588938 9.631011 -25.037258 27.064759 1.214093 2.752061 0.054708 -0.017098 -928263.000000 0 0 1
2.340438 9.463211 -24.397858 26.273285 1.328342 2.761468 0.032218 -0.011050 -1395690.000000 0 0 1
1.298738 9.894911 -25.382438 27.273873 1.440289 2.766982 0.027504 -0.001042 -957622.000000 0 0 1
1.252438 11.309011 -25.514228 27.936324 1.460499 2.722109 0.038918 -0.010635 25583.900000 0 0 1
0.193738 11.742311 -26.349408 28.848063 1.554299 2.722321 0.043859 -0.012371 -154667.000000 0 0 1
0.178738 13.204611 -26.745568 29.828160 1.557261 2.682952 0.040683 -0.012646 -466972.000000 0 0 1
-0.182862 13.969211 -25.612898 29.175210 -1.557707 2.642254 0.036189 -0.009032 -22176.300000 0 0 1
-0.171562 15.329611 -25.947728 30.138199 -1.559605 2.607947 0.040484 -0.020753 -103341.000000 0 0 1
-0.499362 16.162011 -24.691958 29.515297 -1.539909 2.561810 0.046336 -0.016847 1425690.000000 0 0 1
-1.814962 15.729111 -24.225058 28.940499 -1.455916 2.562691 0.041604 -0.011176 1030080.000000 0 0 1
-2.045762 16.091411 -22.884758 28.050505 -1.444341 2.524979 0.040905 -0.018683 1042630.000000 0 0 1
-3.370262 15.477911 -22.220858 27.289026 -1.356396 2.522281 0.030363 -0.014416 1973840.000000 0 0 1
-4.634962 15.855611 -22.781958 28.140734 -1.286397 2.514219 0.024242 -0.014862 333344.000000 0 0 1
-4.995362 15.134911 -23.912258 28.737002 -1.251999 2.553692 0.032402 -0.014174 -207486.000000 0 0 1
-6.487962 15.355711 -24.255658 29.431760 -1.171035 2.539465 0.021312 -0.009890 89945.500000 0 0 1
-6.786962 16.673211 -24.734658 30.591864 -1.184220 2.512458 0.028555 -0.008943 144720.000000 0 0 1
-8.015262 16.531711 -25.442548 31.382561 -1.119349 2.516182 0.065492 -0.015021 75589.000000 0 0 1
-8.755562 17.793111 -25.825688 32.561033 -1.113508 2.486755 0.066811 -0.018290 -258803.000000 0 0 1
-9.259962 18.553111 -24.745358 32.284634 -1.107864 2.444131 0.068688 -0.018080 249837.000000 0 0 1
-10.319362 19.378411 -25.246358 33.457296 -1.081474 2.425817 0.071062 -0.013367 619040.000000 0 0 1
-10.739862 20.488611 -24.227458 33.497725 -1.087987 2.379303 0.048378 -0.005154 303.235000 0 0 1
-9.828762 21.552711 -24.147058 33.826090 -1.142936 2.365790 0.055957 -0.004269 -170280.000000 0 0 1
-10.358262 22.714211 -24.700158 35.118753 -1.142943 2.350871 0.049893 -0.009087 -161386.000000 0 0 1
-10.070262 23.024911 -26.193318 36.299403 -1.158500 2.376894 0.034752 -0.004115 -4202.610000 0 0 1
-10.831962 22.267811 -27.144078 36.742180 -1.118055 2.402042 0.046013 -0.007769 185238.000000 0 0 1
-10.809762 22.854011 -28.443388 38.055001 -1.128988 2.414979 0.052500 -0.003626 -61383.700000 0 0 1
-11.701762 22.026311 -29.374908 38.535371 -1.082452 2.437631 0.049958 -0.007527 368395.000000 0 0 1
-11.022762 20.829311 -29.922378 38.088190 -1.084067 2.474474 0.057366 -0.017658 379215.000000 0 0 1
-10.789662 19.706011 -29.004948 36.688291 -1.069850 2.482548 0.062414 -0.015994 -529501.000000 0 0 1
-9.781562 18.757211 -29.586738 36.371514 -1.090111 2.520871 0.047800 -0.017281 -686441.000000 0 0 1
-8.491762 19.348611 -29.665568 36.421487 -1.157226 2.522676 0.039944 -0.016849 485280.000000 0 0 1
-7.422962 18.508611 -30.123688 36.126246 -1.189381 2.556833 0.037031 -0.014219 786045.000000 0 0 1
-7.015862 17.180611 -29.408008 34.773937 -1.183104 2.578655 0.049708 -0.019060 -713128.000000 0 0 1
-8.092562 16.272211 -29.338708 34.511364 -1.109292 2.587004 0.036771 -0.018040 -90810.100000 0 0 1
-7.742562 15.034711 -28.750708 33.355555 -1.095237 2.609893 0.028370 -0.015890 -956713.000000 0 0 1
-8.903262 14.088311 -28.749328 33.230595 -1.007207 2.616238 0.045356 -0.023770 -194291.000000 0 0 1
-9.946362 14.418411 -27.837008 32.889508 -0.966923 2.579947 0.073055 -0.022797 1031530.000000 0 0 1
-11.170762 13.638311 -27.921748 33.021409 -0.884534 2.578419 0.090850 -0.032020 1124570.000000 0 0 1
-12.076462 14.058511 -26.768248 32.557976 -0.861092 2.536012 0.077508 -0.022353 -75646.400000 0 0 1
-12.736162 15.309011 -26.945678 33.505898 -0.876882 2.505136 0.073988 -0.025437 44255.200000 0 0 1
-13.591162 15.684211 -25.857458 33.156030 -0.856772 2.465258 0.063896 -0.026883 563171.000000 0 0 1
-14.518762 16.872211 -26.191618 34.372472 -0.860230 2.437183 0.042316 -0.028055 280842.000000 0 0 1
-13.807362 18.095611 -26.399978 34.857614 -0.919013 2.430067 0.042468 -0.018254 -170450.000000 0 0 1
-14.720762 19.042911 -26.816308 36.033980 -0.912718 2.410125 0.023210 -0.013714 -52247.800000 0 0 1
-14.102762 20.519911 -26.913068 36.664259 -0.968664 2.395050 0.026510 -0.015394 335105.000000 0 0 1
-15.137862 21.487111 -27.074298 37.734181 -0.957051 2.371004 -0.005343 0.000315 285595.000000 0 0 1
-14.773062 22.865111 -27.099768 38.411640 -0.997170 2.353938 0.000364 0.002245 -56901.600000 0 0 1
-14.197362 23.494311 -25.789828 37.665143 -1.027229 2.325007 -0.007491 -0.008031 218244.000000 0 0 1
-13.917162 24.887211 -26.057508 38.627120 -1.060910 2.311207 0.006994 -0.005006 68772.100000 0 0 1
-13.419962 25.456711 -24.829558 38.008505 -1.085651 2.282683 0.020296 -0.005660 4297.610000 0 0 1
-13.018362 26.940611 -25.025758 39.007215 -1.120659 2.267336 0.026124 -0.000473 376497.000000 0 0 1
-14.171662 27.683811 -25.378188 40.140775 -1.097665 2.255224 0.031302 -0.011804 87839.700000 0 0 1
-14.342062 28.896411 -24.678758 40.616972 -1.110092 2.223828 0.041718 -0.011185 -346700.000000 0 0 1
-15.628962 29.529211 -25.213868 41.856635 -1.084007 2.217284 0.029902 -0.014359 -148690.000000 0 0 1
-16.787462 28.744111 -25.077158 41.676212 -1.042201 2.216442 0.020952 -0.012925 269135.000000 0 0 1
-17.950062 29.516111 -25.473438 42.922041 -1.024410 2.206174 0.016811 -0.012811 979667.000000 0 0 1
-19.241862 28.653311 -25.548208 42.941500 -0.979427 2.208004 0.039336 0.000559 164304.000000 0 0 1
-19.635262 28.294011 -24.253958 42.123023 -0.964127 2.184365 0.045142 -0.008124 -834017.000000 0 0 1
-20.574662 27.285911 -24.307358 41.936682 -0.924715 2.189059 0.050373 -0.028219 -430352.000000 0 0 1
-21.238262 27.007811 -22.915858 41.299179 -0.904419 2.159008 0.064276 -0.028115 488944.000000 0 0 1
-22.258762 27.923211 -22.511358 42.212788 -0.897801 2.133273 0.055695 -0.017908 221738.000000 0 0 1
-22.610362 27.789511 -21.130558 41.593099 -0.887800 2.103693 0.034995 -0.008740 -49704.800000 0 0 1
-23.920662 28.476711 -20.710058 42.567918 -0.872132 2.078896 0.022362 -0.002650 14129.600000 0 0 1
-25.096462 27.903111 -21.238158 43.121635 -0.838305 2.085776 0.020430 -0.010896 -264179.000000 0 0 1
-26.235072 28.632411 -20.872758 44.088162 -0.829064 2.063980 0.023784 -0.007112 -489384.000000 0 0 1
-27.566092 27.963311 -21.159958 44.604709 -0.792551 2.065066 0.009878 -0.008916 -471435.000000 0 0 1
-27.819032 27.634811 -22.503558 45.210524 -0.782076 2.091799 0.007646 -0.009254 291143.000000 0 0 1
-29.172972 27.239711 -22.713558 45.923522 -0.751142 2.088165 -0.005303 0.001365 390625.000000 0 0 1
-29.490142 26.758811 -24.184258 46.589492 -0.736878 2.116585 -0.009166 0.008453 -20860.900000 0 0 1
-29.018372 25.491411 -24.538558 45.760450 -0.720785 2.136772 0.007996 0.007263 -318758.000000 0 0 1
-29.056022 25.471111 -25.902208 46.518322 -0.719747 2.161346 0.011645 0.007996 -115273.000000 0 0 1
-29.124822 24.045811 -26.437718 46.102161 -0.690164 2.181519 0.013830 0.000801 -372857.000000 0 0 1
-28.068402 23.149011 -26.163108 44.813169 -0.689643 2.194230 0.036301 -0.009865 -251120.000000 0 0 1
-28.238772 21.934811 -26.778648 44.672813 -0.660410 2.213597 0.031730 -0.011891 43956.500000 0 0 1
-27.005882 20.954611 -26.671078 43.356197 -0.659889 2.233388 0.033228 -0.011518 532761.000000 0 0 1
-26.773262 20.413211 -25.375458 42.159467 -0.651420 2.216665 0.034370 -0.008347 -75765.800000 0 0 1
-26.046802 19.215811 -25.419458 41.156192 -0.635609 2.236527 0.025281 -0.008945 -155892.000000 0 0 1
-26.928092 17.940811 -25.343378 41.100872 -0.587713 2.235231 0.024955 -0.000070 -292936.000000 0 0 1
-27.604462 17.649511 -26.520478 42.152667 -0.568867 2.251259 0.017740 0.001028 235224.000000 0 0 1
-28.457352 16.508611 -26.406898 42.186247 -0.525672 2.247158 0.003325 0.000266 181461.000000 0 0 1
-29.310462 16.144011 -27.635738 43.398921 -0.503452 2.261116 -0.002385 -0.001932 156311.000000 0 0 1
-30.426162 16.967211 -27.941348 44.658219 -0.508699 2.246788 -0.001406 -0.005708 118578.000000 0 0 1
-31.035422 16.359811 -29.074738 45.565132 -0.485118 2.262814 0.011146 -0.005095 249669.000000 0 0 1
-32.379222 16.994311 -29.534038 47.005107 -0.483331 2.250182 0.021722 -0.009839 -69691.600000 0 0 1
-33.501002 16.585511 -28.778378 47.176174 -0.459700 2.226881 0.009801 -0.006875 -876312.000000 0 0 1
-34.550570 17.274411 -29.380168 48.531860 -0.463627 2.221038 0.019657 -0.003582 -989221.000000 0 0 1
35.511292 16.979111 -28.713978 48.722013 0.446001 2.201042 0.008656 -0.002600 -432911.000000 0 0 1
35.342625 17.703211 -27.521058 48.165480 0.464369 2.178989 0.008110 -0.009789 -134450.000000 0 0 1
34.200308 17.184711 -26.864448 46.761885 0.465624 2.182783 0.010029 -0.008837 48439.600000 0 0 1
33.698388 18.108311 -25.732918 46.105047 0.493090 2.162935 0.018732 -0.005489 8724.390000 0 0 1
32.922268 19.208711 -26.167408 46.234008 0.528166 2.172415 0.020398 -0.009519 97156.100000 0 0 1
32.500058 20.024911 -25.116448 45.695588 0.552210 2.152738 0.030906 -0.004888 -612982.000000 0 0 1
32.025578 21.374211 -25.666958 46.274045 0.588517 2.158766 0.027830 -0.011165 835562.000000 0 0 1
30.704388 21.346711 -26.248448 45.688319 0.607520 2.182803 0.023747 -0.011652 691963.000000 0 0 1
29.699838 21.624311 -25.272378 44.591303 0.629334 2.173359 0.030106 -0.010179 1128250.000000 0 0 1
28.239998 21.496911 -25.897808 43.935306 0.650645 2.201178 0.010915 -0.010765 1359590.000000 0 0 1
27.809268 20.153911 -25.994108 43.072371 0.627124 2.218678 0.016536 -0.020742 -513811.000000 0 0 1
26.528808 20.033011 -26.552478 42.545661 0.646784 2.244767 0.020932 -0.021087 -149080.000000 0 0 1
26.101138 18.543011 -26.591638 41.620042 0.617691 2.263882 0.033885 -0.016647 89772.500000 0 0 1
26.970028 17.781311 -27.427138 42.376943 0.582885 2.274726 0.024454 -0.013061 481221.000000 0 0 1
27.890388 16.953611 -26.718878 42.180530 0.546183 2.256788 0.020529 -0.009550 610258.000000 0 0 1
28.958588 16.162711 -27.545828 43.111549 0.509065 2.263920 0.018604 -0.003519 490246.000000 0 0 1
28.439578 15.070111 -28.332878 42.879713 0.487280 2.292617 0.023864 -0.007801 164647.000000 0 0 1
27.800898 13.967511 -27.655888 41.627268 0.465576 2.297446 0.023196 -0.003422 8643.820000 0 0 1
28.539738 13.107111 -26.558698 41.130007 0.430526 2.272770 0.021426 0.002724 -142410.000000 0 0 1
28.710018 13.712111 -25.305788 40.653044 0.445573 2.242706 0.028363 0.000092 -275979.000000 0 0 1
29.444918 12.887111 -24.452458 40.385685 0.412552 2.221157 0.027578 -0.002272 -396088.000000 0 0 1
-14.309362 -31.820003 -23.918358 42.300807 1.148194 2.171757 0.054457 -0.006704 -6498.510000 0 0 1
-13.711762 -30.730103 -24.597158 41.681793 1.151107 2.202001 0.058667 -0.018976 6260.970000 0 0 1
-14.129162 -30.515903 -25.943838 42.472771 1.137176 2.227911 0.041292 -0.011008 -2796.090000 0 0 1
-13.390162 -29.392603 -26.770898 41.951192 1.143326 2.262881 0.043768 -0.009222 -81509.200000 0 0 1
-13.593162 -28.101503 -26.273538 40.801560 1.120260 2.270426 0.043403 0.000701 98433.700000 0 0 1
-12.816762 -27.081603 -26.888028 40.257281 1.128765 2.302186 0.036983 -0.002835 77478.200000 0 0 1
-13.380862 -25.636103 -26.578938 39.277184 1.089740 2.314070 0.023480 0.005915 70630.700000 0 0 1
-13.083562 -25.211503 -25.230078 37.991530 1.092102 2.297082 0.021987 -0.015758 86084.300000 0 0 1
-13.573062 -23.941103 -24.901558 37.114580 1.055044 2.306269 0.020894 -0.012258 -310596.000000 0 0 1
-13.195862 -23.360603 -23.550258 35.699625 1.056603 2.291187 0.028967 -0.011997 -1089170.000000 0 0 1
-11.844362 -23.150703 -23.390958 34.976862 1.097896 2.303330 0.032889 -0.022607 -1126940.000000 0 0 1
-11.588462 -22.424803 -22.200958 33.616169 1.093823 2.292181 0.023948 -0.009713 577624.000000 0 0 1
-10.046162 -22.249303 -22.048458 32.895157 1.146673 2.305362 0.024337 -0.014715 459772.000000 0 0 1
-9.587462 -21.235103 -22.951958 32.705373 1.146703 2.348689 0.026886 -0.015189 309680.000000 0 0 1
-8.185862 -21.085603 -22.743358 32.076024 1.200486 2.358940 0.039045 -0.012485 298520.000000 0 0 1
-7.567162 -19.900703 -23.473558 31.690817 1.207434 2.404916 0.043550 -0.001063 -183957.000000 0 0 1
-7.950762 -18.633103 -22.963558 30.622413 1.167486 2.418698 0.019691 -0.003187 -139750.000000 0 0 1
-8.177362 -17.585403 -23.912258 30.788175 1.135532 2.460159 0.010757 -0.009085 -589818.000000 0 0 1
-7.020562 -16.949903 -24.674258 30.747464 1.178113 2.502238 0.026868 -0.013400 -385874.000000 0 0 1
-6.622462 -17.730203 -25.823678 32.016862 1.213330 2.509114 0.036600 -0.017841 -1003810.000000 0 0 1
-5.678462 -17.066203 -26.512228 32.037454 1.249588 2.545505 0.024746 -0.019445 -1056600.000000 0 0 1
-5.387962 -17.717203 -27.854418 33.448438 1.275574 2.554865 0.034334 -0.008250 -250599.000000 0 0 1
-6.294862 -17.445003 -28.885688 34.326905 1.224497 2.570828 0.060013 -0.009873 -69645.400000 0 0 1
-5.875762 -18.012203 -30.144598 35.604225 1.255470 2.580469 0.055913 -0.020760 57812.900000 0 0 1
-6.932462 -17.779603 -31.256078 36.621247 1.199018 2.593454 0.061220 -0.015609 179297.000000 0 0 1
-6.736262 -16.628703 -32.073098 36.750165 1.185902 2.631570 0.054326 -0.018164 41941.300000 0 0 1
-6.854462 -15.351903 -31.368058 35.589600 1.150866 2.649578 0.038493 -0.016673 -488391.000000 0 0 1
-7.328662 -14.212203 -32.240368 35.988017 1.094699 2.681168 0.034566 -0.017855 -361930.000000 0 0 1
-6.427062 -13.774203 -33.241268 36.551576 1.134223 2.712719 0.033668 -0.021701 -270669.000000 0 0 1
-6.974362 -13.027303 -34.282215 37.331256 1.079259 2.734624 0.037725 -0.023407 -508597.000000 0 0 1
-7.265462 -11.494003 -33.958468 36.579730 1.007101 2.760722 0.025574 -0.022510 243264.000000 0 0 1
-6.163862 -10.607903 -34.083966 36.224820 1.044417 2.796077 0.018558 -0.020458 2585.700000 0 0 1
-5.826862 -10.281703 33.337202 35.369970 1.055206 0.340678 0.010849 -0.025938 -258696.000000 0 0 1
-4.663662 -9.288803 33.131720 34.723802 1.105491 0.303989 0.004845 -0.021678 -203820.000000 0 0 1
-4.531962 -8.802203 31.829005 33.333212 1.095326 0.301562 0.004784 -0.014346 -350750.000000 0 0 1
-3.495162 -7.874803 31.738665 32.887255 1.153076 0.265067 -0.003353 -0.014300 -1179870.000000 0 0 1
-3.758062 -6.862903 30.584335 31.569352 1.069805 0.250461 -0.005545 -0.013543 877373.000000 0 0 1
-4.956962 -6.078403 30.706405 31.692298 0.886673 0.250084 0.003511 -0.018923 -48795.600000 0 0 1
-6.154262 -6.682403 30.390265 31.719042 0.826518 0.290475 0.006261 -0.017559 -1222390.000000 0 0 1
-7.367362 -5.740503 30.371805 31.775429 0.661916 0.298337 0.004085 -0.011832 -492847.000000 0 0 1
-8.430762 -6.398503 29.778565 31.603505 0.649203 0.341495 0.011184 -0.008693 -947359.000000 0 0 1
-9.625962 -5.641403 29.830345 31.848611 0.530107 0.357915 0.013160 -0.004214 -426083.000000 0 0 1
-10.777762 -6.297703 29.130855 31.692711 0.528813 0.404839 0.026141 -0.006429 -885548.000000 0 0 1
-10.590762 -6.337003 27.733955 30.356121 0.539207 0.418696 0.020818 -0.002867 -21851.500000 0 0 1
-11.600362 -6.977603 27.018345 30.219965 0.541521 0.464477 0.034172 -0.016366 -399803.000000 0 0 1
-11.340062 -6.726603 25.511665 28.717403 0.535383 0.477015 0.024103 -0.011103 1808330.000000 0 0 1
-10.114162 -7.430103 25.030425 28.000444 0.633587 0.464759 0.015334 -0.005230 1871500.000000 0 0 1
-9.501862 -6.885103 23.875385 26.603083 0.627050 0.456804 0.012657 -0.009186 -96299.800000 0 0 1
-10.208262 -7.042303 22.470345 25.665522 0.603890 0.504312 0.029306 -0.010326 -56153.900000 0 0 1
-11.343162 -6.222403 22.491545 25.947162 0.501737 0.522005 0.024019 -0.009038 -11260.100000 0 0 1
-12.246362 -6.309903 21.373545 25.428658 0.475771 0.572536 0.033151 -0.010285 94350.900000 0 0 1
-13.285462 -5.216503 21.381045 25.707285 0.374152 0.588613 0.031961 -0.001456 -463714.000000 0 0 1
-12.839062 -3.903703 21.062545 24.974211 0.295167 0.567269 0.021143 0.002741 -7026.090000 0 1 0
-13.946662 -3.011903 21.046945 25.427442 0.212692 0.595754 0.021931 0.002547 344666.000000 0 0 1
-13.696662 -1.569903 20.553845 24.749216 0.114121 0.590819 0.015290 0.004725 -297228.000000 0 1 0
-12.754162 -0.855903 21.302045 24.843074 0.067007 0.540475 0.016922 0.006922 -352213.000000 0 1 0
-12.645162 0.533097 20.939945 24.467644 -0.042133 0.543659 0.010239 0.001974 -459482.000000 0 1 0
-12.220462 1.012097 19.527445 23.058299 -0.082631 0.560719 0.012471 -0.007211 -240360.000000 0 1 0
-13.093862 0.853097 18.452745 22.642455 -0.065060 0.618132 0.022972 -0.001512 -76771.300000 0 1 0
-14.405562 1.405097 18.583345 23.554940 -0.097231 0.661721 0.017942 0.005642 1055700.000000 0 1 0
-15.452962 0.669097 17.620345 23.446072 -0.043272 0.720423 0.030743 0.003374 540740.000000 0 1 0
-15.866362 -0.598903 18.146145 24.111879 0.037729 0.718823 0.017289 0.004624 770034.000000 0 1 0
-16.847862 -1.205903 17.263845 24.152536 0.071454 0.774481 0.017345 0.009933 533774.000000 0 1 0
-16.818962 -2.715903 17.414345 24.362123 0.160097 0.774441 0.020247 0.006819 -207906.000000 0 1 0
-17.148462 -3.102903 18.737645 25.589003 0.179007 0.749171 0.010119 0.007318 212497.000000 0 0 1
-16.949462 -4.499203 18.913745 25.792573 0.259464 0.747630 0.022149 0.005989 -279201.000000 0 0 1
-17.743362 -4.992603 20.120845 27.287385 0.274287 0.741631 0.015274 0.008467 -97404.100000 0 0 1
-17.294062 -4.482303 21.398445 27.875958 0.253601 0.695660 0.014842 0.002068 786217.000000 0 0 1
-18.314262 -4.631103 22.406145 29.306904 0.247677 0.700477 0.012816 -0.002325 192310.000000 0 0 1
-18.625062 -6.106303 22.833345 30.092217 0.316811 0.709360 0.023830 -0.009092 -452004.000000 0 0 1
-17.655762 -6.696103 23.635545 30.252317 0.362499 0.674082 0.027498 -0.009044 -483523.000000 0 0 1
-16.555962 -7.207003 22.932545 29.188052 0.410572 0.666998 0.017918 -0.007042 -229425.000000 0 0 1
-15.382762 -7.576203 23.882935 29.401068 0.457640 0.622685 0.018967 -0.010269 272828.000000 0 0 1
-15.720262 -8.775003 24.600295 30.484452 0.509115 0.631779 0.013832 -0.012954 483689.000000 0 0 1
-14.687362 -8.970003 25.545365 30.801708 0.548271 0.592855 0.029363 -0.015387 280294.000000 0 0 1
-15.058262 -10.049203 26.577515 32.157457 0.588479 0.597969 0.023811 -0.015785 112795.000000 0 0 1
-15.165762 -11.360603 26.088715 32.244142 0.642922 0.628178 0.019701 -0.017182 -184176.000000 0 0 1
-14.451462 -12.154403 26.978345 32.930310 0.699275 0.610684 0.025736 -0.017758 -187587.000000 0 0 1
-14.485162 -13.625603 26.728185 33.314754 0.754830 0.639670 0.019591 -0.017777 160095.000000 0 0 1
-15.559362 -14.293203 27.399605 34.599534 0.743010 0.656871 0.020069 -0.020759 401365.000000 0 0 1
-15.747062 -15.640703 26.978085 34.934490 0.782010 0.688425 0.025927 -0.015121 152400.000000 0 0 1
-14.836462 -16.679203 27.707665 35.581331 0.843802 0.678184 0.038506 -0.012358 -52672.900000 0 0 1
-13.494362 -16.659003 27.308805 34.718741 0.889967 0.665558 0.048196 -0.025093 -661654.000000 0 0 1
-12.769462 -17.559703 28.074325 35.490422 0.942046 0.658290 0.060289 -0.020686 103002.000000 0 0 1
-11.311362 -17.672103 27.549795 34.630064 1.001434 0.650889 0.061864 -0.023339 412858.000000 0 0 1
-10.408062 -18.412103 28.333695 35.357199 1.056295 0.641238 0.061799 -0.026625 626639.000000 0 0 1
-9.162762 -18.733003 27.702645 34.674459 1.115887 0.645274 0.056476 -0.018719 1196810.000000 0 0 1
-8.128462 -19.514903 28.618145 35.579510 1.176125 0.636227 0.051743 -0.023235 256617.000000 0 0 1
-8.533462 -20.772903 29.091595 36.751250 1.181016 0.657404 0.054517 -0.013171 14175.000000 0 0 1
-7.466662 -21.436103 29.735125 37.409025 1.235617 0.652011 0.047115 -0.011570 -45472.200000 0 0 1
-7.885762 -22.799503 30.340625 38.762818 1.237802 0.671764 0.056608 -0.013323 141578.000000 0 0 1
-7.952862 -23.831703 29.382405 38.659071 1.248707 0.707423 0.055993 -0.012930 21383.300000 0 0 1
-8.385362 -25.009603 30.000935 39.948099 1.247290 0.721224 0.057473 -0.010518 -170051.000000 0 0 1
-8.515662 -26.169503 28.937135 39.933910 1.256199 0.760305 0.060862 -0.013880 -974538.000000 0 0 1
-9.620462 -26.064403 28.117355 39.528370 1.217205 0.779421 0.069856 -0.012639 -452237.000000 0 0 1
-9.696262 -27.288903 27.412585 39.876704 1.229391 0.812847 0.072072 -0.011198 656663.000000 0 0 1
-11.059462 -27.525503 26.636065 39.867844 1.188748 0.839132 0.065637 -0.009037 803564.000000 0 0 1
-11.226362 -26.909603 25.375205 38.653059 1.175561 0.854645 0.075829 -0.006741 167920.000000 0 0 1
-11.437762 -25.515703 25.418425 37.788488 1.149387 0.833012 0.071213 0.002664 -289313.000000 0 0 1
-11.827062 -25.026603 23.977695 36.621580 1.129325 0.856955 0.077114 -0.014127 -627076.000000 0 0 1
-13.085862 -25.335603 23.484145 36.941002 1.094035 0.881855 0.062039 -0.010364 -518476.000000 0 0 1
-13.206962 -24.654503 22.285545 35.761905 1.079013 0.898014 0.063271 -0.016714 151583.000000 0 0 1
-14.623762 -24.684803 21.657045 35.947482 1.035969 0.924212 0.045484 -0.014971 -165314.000000 0 0 1
-14.981862 -25.990003 21.342745 36.816426 1.047875 0.952427 0.063616 -0.016722 945211.000000 0 0 1
-16.226862 -26.096303 20.607045 36.999708 1.014496 0.980085 0.057503 -0.021124 838375.000000 0 0 1
-16.514562 -27.447703 19.998345 37.762957 1.029147 1.012696 0.066624 -0.027244 552008.000000 0 0 1
-15.458762 -27.850903 19.108445 37.145373 1.064081 1.030461 0.071367 -0.031280 578570.000000 0 0 1
-15.431162 -29.280903 18.936845 38.132612 1.085779 1.051113 0.094108 -0.023708 15.312500 0 0 1
-14.454662 -29.711603 17.838045 37.548801 1.118008 1.075761 0.095983 -0.029080 -131917.000000 0 0 1
-14.860062 -29.299803 16.543345 36.782906 1.101427 1.104304 0.087630 -0.036832 22622.100000 0 0 1
-13.893062 -29.616503 15.552245 36.221910 1.132174 1.127012 0.091221 -0.034895 129007.000000 0 0 1
-14.111562 -28.996503 14.217745 35.243122 1.117874 1.155546 0.053149 -0.029870 -200879.000000 0 0 1
-13.935262 -27.600003 14.311645 34.070146 1.103236 1.137280 0.053244 -0.023623 -99268.800000 0 0 1
-14.177462 -26.970803 13.035245 33.141247 1.086832 1.166552 0.042105 -0.020001 614388.000000 0 0 1
-13.016262 -27.022903 11.962545 32.291838 1.121916 1.191302 0.030028 -0.017341 560569.000000 0 0 1
-13.408562 -26.482503 10.727945 31.562657 1.102107 1.223993 0.020056 -0.007096 112343.000000 0 0 1
-12.396462 -26.659903 9.745345 30.974093 1.135551 1.250731 0.019909 -0.007874 219446.000000 0 0 1
-12.762762 -25.896103 8.431045 30.076216 1.112889 1.286666 0.019600 -0.002162 -767146.000000 0 0 1
-13.689562 -26.617903 7.697545 30.905809 1.095775 1.319082 0.041922 -0.010092 -539034.000000 0 0 1
-14.256162 -25.910103 6.621145 30.305299 1.067787 1.350538 0.030348 -0.007376 481690.000000 0 0 1
-15.346862 -26.680103 5.797745 31.320407 1.048799 1.384612 0.030070 -0.006759 592909.000000 0 0 1
-14.812162 -27.750403 5.024045 31.854765 1.080504 1.412418 0.036594 -0.008691 91344.600000 0 0 1
-15.729462 -27.964503 3.973645 32.329851 1.058422 1.447575 0.046024 -0.000848 146038.000000 0 0 1
-15.257362 -29.105303 3.076845 33.005647 1.087967 1.477439 0.042807 -0.001798 -603249.000000 0 0 1
-14.054262 -28.820703 2.455445 32.158738 1.117082 1.494368 0.040730 0.000366 -884490.000000 0 0 1
-13.703962 -29.896403 1.606045 32.926780 1.140994 1.522001 0.039215 -0.003392 876657.000000 0 0 1
-12.263262 -29.864803 0.941945 32.298317 1.181163 1.541628 0.026721 -0.004009 1087890.000000 0 0 1
-12.147262 -29.073503 -0.229155 31.509952 1.175030 1.578069 0.041860 -0.004819 -51262.300000 0 0 1
-12.287162 -27.668503 -0.082155 30.274199 1.152872 1.573510 0.037574 -0.009874 -426026.000000 0 0 1
-12.218462 -26.898903 -1.387355 29.576453 1.144425 1.617721 0.048691 -0.009472 -510320.000000 0 0 1
-10.892662 -26.919503 -1.823355 29.096982 1.186298 1.633502 0.050872 -0.015315 -694375.000000 0 0 1
-10.622762 -26.140703 -2.979155 28.373487 1.184812 1.675988 0.071112 -0.023035 714126.000000 0 0 1
-9.156162 -26.332703 -3.473455 28.094687 1.236162 1.694747 0.059868 -0.023473 535608.000000 0 0 1
-8.566762 -25.310703 -4.221955 27.052652 1.244435 1.727501 0.056538 -0.032006 350170.000000 0 0 1
-7.357162 -25.810503 -4.842055 27.271879 1.293115 1.749290 0.055765 -0.019050 863013.000000 0 0 1
-6.650362 -24.716003 -5.660655 26.213568 1.307950 1.788455 0.040541 -0.021445 -180639.000000 0 0 1
-6.955862 -24.632503 -7.047555 26.548300 1.295577 1.839479 0.056754 -0.020618 165351.000000 0 0 1
-6.173162 -23.594103 -7.663955 25.564151 1.314893 1.875272 0.034589 -0.012708 -245232.000000 0 0 1
-6.420062 -23.608603 -9.192655 26.135957 1.305280 1.930209 0.042680 -0.009442 40657.600000 0 0 1
-5.699362 -24.637203 -9.881155 27.149801 1.343464 1.943301 0.026240 -0.013454 14024.900000 0 0 1
-5.820062 -24.778003 -11.252555 27.828808 1.340090 1.987063 0.023632 -0.005449 164540.000000 0 0 1
-7.114762 -25.497303 -11.746355 28.960476 1.298678 1.988431 0.028618 -0.008500 399589.000000 0 0 1
-7.432462 -25.347503 -13.088555 29.479615 1.285569 2.030839 0.035961 -0.002862 -548008.000000 0 0 1
-8.437462 -26.182703 -13.527055 30.654623 1.259051 2.027813 0.050667 0.001211 -919816.000000 0 0 1
-8.608262 -26.119203 -15.051655 31.350714 1.252431 2.071571 0.060670 -0.006111 192022.000000 0 0 1
-7.716462 -26.863803 -15.896655 32.154492 1.291083 2.087922 0.041958 -0.007897 139995.000000 0 0 1
-6.454462 -26.272203 -16.076555 31.469737 1.329891 2.106978 0.053484 -0.015700 -486277.000000 0 0 1
-5.417962 -27.009303 -16.900655 32.318554 1.372828 2.121093 0.037822 -0.005556 -413166.000000 0 0 1
-5.505662 -26.674103 -18.274555 32.799077 1.367250 2.161766 0.065969 -0.011782 -137909.000000 0 0 1
-4.513262 -27.331603 -18.999755 33.591320 1.407143 2.171975 0.049318 -0.012974 -604158.000000 0 0 1
-24.916562 14.513111 -5.575458 29.369222 -0.527429 1.761796 0.045224 -0.021329 45833.800000 0 0 1
-24.979662 13.285211 -4.823258 28.700944 -0.488795 1.739650 0.042961 -0.018148 -384799.000000 0 0 1
-23.782562 12.614611 -5.005358 27.382335 -0.487682 1.754625 0.058628 -0.021040 -1145840.000000 0 0 1
-23.820662 11.227311 -4.323558 26.686506 -0.440447 1.733526 0.065882 -0.030780 -67844.900000 0 0 1
-24.238362 10.236711 -5.239358 26.827958 -0.399611 1.767354 0.067433 -0.022487 1318490.000000 0 0 1
-25.645772 10.283111 -5.583058 28.188979 -0.381340 1.770173 0.073411 -0.023313 618294.000000 0 0 1
-25.860932 9.536511 -6.885958 28.410373 -0.353290 1.815609 0.081664 -0.019908 70361.900000 0 0 1
-25.449472 10.405211 -7.971458 28.626704 -0.388119 1.852989 0.097755 -0.007232 284463.000000 0 0 1
-25.775832 9.719411 -9.180658 29.036958 -0.360588 1.892488 0.096391 -0.015574 -180667.000000 0 0 1
-26.262352 10.689511 -10.283058 30.161533 -0.386550 1.918705 0.076121 -0.015469 81951.500000 0 0 1
-25.276512 11.511311 -10.895558 29.834972 -0.427348 1.944638 0.077930 -0.009688 218304.000000 0 0 1
-25.854392 12.266611 -11.913758 30.997693 -0.442999 1.965293 0.064431 -0.007253 -520224.000000 0 0 1
-25.048862 13.380711 -12.536258 31.042659 -0.490620 1.986506 0.055913 -0.003085 -555331.000000 0 0 1
-24.909662 14.517811 -11.718058 31.121873 -0.527690 1.956835 0.059348 -0.000977 261579.000000 0 0 1
-24.299262 15.584511 -12.482158 31.450523 -0.570276 1.978914 0.056551 0.000638 139715.000000 0 0 1
-24.259862 16.933611 -11.763458 31.838138 -0.609389 1.949242 0.071344 -0.005533 -300446.000000 0 0 1
-23.196462 17.056611 -10.869058 30.775644 -0.634034 1.931754 0.068535 0.002346 -235627.000000 0 0 1
-23.284762 18.359411 -10.241958 31.371099 -0.667673 1.903371 0.052997 0.003413 338735.000000 0 0 1
-22.116662 18.703011 -9.262058 30.409457 -0.701965 1.880292 0.047317 -0.001903 130656.000000 0 0 1
-22.304562 18.148611 -7.974458 29.840535 -0.683022 1.841320 0.058588 -0.005643 335335.000000 0 0 1
-23.131162 18.862711 -7.065858 30.672119 -0.684101 1.803252 0.041640 -0.008144 -29054.000000 0 0 1
-23.346562 18.183711 -5.718458 30.139842 -0.661717 1.761684 0.030963 -0.008796 -396648.000000 0 0 1
-22.208962 18.141211 -4.928058 29.096860 -0.684926 1.740984 0.033428 -0.021224 -306365.000000 0 0 1
-22.540562 17.557211 -3.666458 28.805824 -0.661752 1.698424 0.016139 -0.017128 164108.000000 0 0 1
-21.351062 17.517511 -2.672158 27.746558 -0.687088 1.667252 0.021790 -0.027636 -116877.000000 0 0 1
-20.883062 18.798611 -2.304458 28.192208 -0.732917 1.652629 0.035845 -0.027682 -378504.000000 0 0 1
-19.834362 18.645211 -1.411858 27.258744 -0.754505 1.622614 0.073421 -0.035252 -641709.000000 0 0 1
-19.523162 19.905911 -0.654058 27.889549 -0.795105 1.594250 0.066926 -0.036446 -395415.000000 0 0 1
-20.473462 20.356711 0.269142 28.872665 -0.782539 1.561475 0.053875 -0.023370 -133971.000000 0 0 1
-20.341162 21.735511 0.542042 29.773967 -0.818524 1.552590 0.065337 -0.024895 151386.000000 0 0 1
-21.388962 22.080411 1.619742 30.784019 -0.801303 1.518156 0.031759 -0.022951 134245.000000 0 0 1
-20.937362 21.660211 2.879342 30.262658 -0.802366 1.475507 0.065459 -0.018946 588368.000000 0 0 1
-21.914262 22.023811 3.858842 31.307727 -0.787891 1.447227 0.042362 -0.013765 283160.000000 0 0 1
-21.510162 21.637211 5.286642 30.964569 -0.788343 1.399224 0.049703 -0.016254 -346745.000000 0 0 1
-20.663662 22.563511 5.936442 31.166333 -0.829320 1.379149 0.052569 -0.013748 29333.700000 0 0 1
-20.081862 22.075411 7.157642 30.689359 -0.832651 1.335400 0.049127 -0.009792 43332.100000 0 0 1
-20.944862 21.798611 8.417242 31.380195 -0.805369 1.299237 0.038122 -0.022626 -712310.000000 0 0 1
-21.978562 20.840611 8.246542 31.390981 -0.758829 1.304973 0.047163 -0.016137 617884.000000 0 0 1
-22.566362 20.522511 9.519342 31.953592 -0.738000 1.268292 0.059915 -0.018650 158214.000000 0 0 1
-23.132562 21.608111 10.554942 33.368139 -0.751338 1.248951 0.064910 -0.023272 -942810.000000 0 0 1
-24.323762 22.222611 10.181942 34.484225 -0.740288 1.271065 0.074775 -0.025187 -178057.000000 0 0 1
-24.895062 23.012111 11.180442 35.697670 -0.746114 1.252238 0.071912 -0.024836 107474.000000 0 0 1
-26.145082 23.760611 10.656342 36.901078 -0.737655 1.277843 0.062129 -0.031981 -189703.000000 0 0 1
-27.033892 24.180611 11.650442 38.095486 -0.729743 1.259995 0.054589 -0.022428 97070.400000 0 0 1
-27.037942 25.599111 11.833842 39.069228 -0.758070 1.263068 0.052558 -0.019208 154770.000000 0 0 1
-27.555892 25.948011 13.273042 40.109850 -0.755356 1.233521 0.058640 -0.020049 43132.700000 0 0 1
-26.485902 25.781611 14.162242 39.582364 -0.771924 1.204894 0.039213 -0.021467 118705.000000 0 0 1
-26.699452 26.504411 15.311242 40.617467 -0.781732 1.184282 0.039157 -0.018272 73536.300000 0 0 1
-25.569182 26.414211 16.370942 40.243028 -0.801652 1.151846 0.036308 -0.019964 14787.500000 0 0 1
-25.271542 25.188411 16.944542 39.499676 -0.783751 1.127434 0.043883 -0.024969 -17760.900000 0 0 1
-24.313462 25.363011 17.959342 39.458392 -0.806523 1.098260 0.033995 -0.020336 -315050.000000 0 0 1
-23.882462 24.007611 18.562642 38.617471 -0.788011 1.069366 0.036611 -0.016774 -200664.000000 0 0 1
-22.751162 24.055411 19.411142 38.380602 -0.813256 1.040541 0.037347 -0.024559 287505.000000 0 0 1
-22.410762 22.781411 19.789342 37.587937 -0.793600 1.016340 0.037519 -0.031371 -442790.000000 0 0 1
-21.001362 22.732811 20.419942 37.078456 -0.824968 0.987567 0.049647 -0.026109 -641507.000000 0 0 1
-20.033562 22.985711 19.415142 36.147396 -0.853915 1.003789 0.053936 -0.032845 619225.000000 0 0 1
-18.692662 22.718911 19.836842 35.483303 -0.882319 0.977560 0.045112 -0.030441 484316.000000 0 0 1
-18.218062 21.263411 19.825042 34.308347 -0.862379 0.954706 0.041985 -0.017175 -885816.000000 0 0 1
-18.762362 20.335511 20.753142 34.586878 -0.825613 0.927259 0.049639 -0.015161 23304.200000 0 0 1
-18.224062 20.500611 22.086742 35.216695 -0.844119 0.892886 0.045153 -0.010794 -123481.000000 0 0 1
-19.268562 20.315911 23.204142 36.365449 -0.811851 0.878792 0.036962 -0.012417 -542538.000000 0 0 1
-20.224562 21.338311 23.235342 37.473157 -0.812188 0.901986 0.045651 -0.015128 -493922.000000 0 0 1
-20.878962 21.204811 24.430842 38.502481 -0.793141 0.883401 0.028793 -0.002972 -419182.000000 0 0 1
-21.904562 22.348211 24.668942 39.847322 -0.795423 0.903217 0.033017 -0.004518 -489885.000000 0 0 1
-21.338862 23.627411 24.991142 40.474174 -0.836249 0.905288 0.050988 -0.014358 510454.000000 0 0 1
-22.214362 24.787711 24.954042 41.600633 -0.840093 0.927486 0.036427 -0.005870 80482.600000 0 0 1
-22.998162 25.051211 23.632242 41.412093 -0.828100 0.963486 0.025479 -0.015505 92474.200000 0 0 1
-24.172662 24.267411 23.585142 41.587062 -0.787354 0.967783 0.014556 -0.013304 454129.000000 0 0 1
-24.973762 24.495211 22.379542 41.527678 -0.775725 1.001658 0.011764 -0.021625 346606.000000 0 0 1
-25.838652 23.284811 22.002342 41.157276 -0.733457 1.006772 0.017267 -0.012003 45561.200000 0 0 1
-27.171182 23.553711 22.401442 42.365965 -0.714203 1.013657 0.006650 -0.013715 -89273.100000 0 0 1
-28.101702 22.618911 21.936742 42.220154 -0.677718 1.024437 0.017071 -0.010687 -407798.000000 0 0 1
-29.444212 22.700811 22.671242 43.546224 -0.656792 1.023214 0.030055 -0.004455 -1361760.000000 0 0 1
-30.091902 23.881511 22.244442 44.392165 -0.670838 1.045939 0.027322 -0.004792 -444537.000000 0 0 1
-31.470002 23.905011 22.487442 45.469722 -0.649625 1.053469 0.033375 -0.006912 -538067.000000 0 0 1
-32.271362 23.134511 21.458542 45.134415 -0.621961 1.075336 0.048531 -0.015991 -1638210.000000 0 0 1
-32.142052 21.694111 21.599142 44.387711 -0.593712 1.062601 0.042348 -0.013696 273707.000000 0 0 1
-32.677202 20.946111 20.488542 43.889856 -0.570023 1.085108 0.034854 -0.012849 325600.000000 0 0 1
-34.224978 20.800411 20.468242 44.977273 -0.546102 1.098335 0.045826 -0.011395 41789.900000 0 0 1
-34.691456 20.243111 19.275142 44.551226 -0.528213 1.123365 0.045597 -0.019977 -381679.000000 0 0 1
35.306438 20.250911 19.359042 45.071237 0.520763 1.126834 0.063925 -0.019721 77378.900000 0 0 1
34.567128 19.400911 18.246942 43.637513 0.511442 1.139391 0.066719 -0.013475 -24478.300000 0 0 1
34.591748 18.026011 18.510942 43.176163 0.480390 1.127709 0.070238 -0.025735 62410.600000 0 0 1
33.984808 17.330411 17.475442 41.960712 0.471573 1.141236 0.068516 -0.034203 -219820.000000 0 0 1
34.262978 15.773311 17.605742 41.625847 0.431436 1.134096 0.068505 -0.040580 -457759.000000 0 0 1
33.568028 14.963311 16.713742 40.374030 0.419323 1.143982 0.067482 -0.040704 -245314.000000 0 0 1
34.137328 13.712411 16.511442 40.323877 0.381957 1.148923 0.070424 -0.039781 -396691.000000 0 0 1
33.328188 12.818711 15.602242 38.968159 0.367178 1.158860 0.067229 -0.042450 -286991.000000 0 0 1
33.292128 13.274511 14.321142 38.596289 0.379410 1.190657 0.065704 -0.038618 567365.000000 0 0 1
32.446658 12.493711 13.444642 37.277832 0.367556 1.201820 0.067050 -0.037099 80819.000000 0 0 1
32.508328 12.737311 11.935042 36.898180 0.373432 1.241414 0.076700 -0.033648 433387.000000 0 0 1
33.811698 12.436211 11.419542 37.792806 0.352450 1.263837 0.078151 -0.027665 855527.000000 0 0 1
33.816788 12.559411 10.018542 37.439085 0.355607 1.299899 0.071058 -0.021365 81871.500000 0 0 1
35.170458 12.257511 9.305642 38.390137 0.335353 1.325961 0.063563 -0.017527 -35108.900000 0 0 1
35.505297 10.888911 9.139042 38.245477 0.297578 1.329504 0.055640 -0.010253 83292.900000 0 0 1
-34.527668 10.751011 8.837242 37.226885 -0.301859 1.331120 0.051007 -0.008883 -12753.700000 0 0 1
-34.180224 10.840211 7.323942 36.598333 -0.307114 1.369319 0.048666 -0.010783 -548284.000000 0 0 1
-34.562840 12.035111 6.733742 37.212593 -0.335079 1.388841 0.046195 -0.013768 58193.200000 0 0 1
-33.897512 12.089311 5.499842 36.406607 -0.342581 1.419149 0.062777 -0.026042 -435200.000000 0 0 1
-34.621126 12.968111 4.543942 37.248378 -0.358396 1.448501 0.088460 -0.029124 -755886.000000 0 0 1
35.699563 12.283711 3.893642 37.954035 0.331396 1.468027 0.093672 -0.024503 343708.000000 0 0 1
34.498448 13.011411 3.813042 37.067223 0.360662 1.467746 0.061909 -0.028980 179462.000000 0 0 1
33.783398 13.383311 5.158742 36.702092 0.377183 1.429772 0.075270 -0.016652 -1219950.000000 0 0 1
33.035578 14.610111 5.048642 36.473189 0.416394 1.431930 0.068908 -0.011121 419722.000000 0 0 1
32.661508 15.210711 6.325742 36.580798 0.435839 1.396997 0.061587 -0.006156 -186263.000000 0 0 1
31.442218 14.621711 7.028642 35.380917 0.435286 1.370810 0.068629 -0.016310 -554131.000000 0 0 1
31.770968 13.430611 7.761542 35.355583 0.399948 1.349466 0.083657 -0.009868 -70781.000000 0 0 1
30.714128 12.510311 7.864242 34.083894 0.386796 1.337967 0.084872 -0.007171 -316460.000000 0 0 1
30.637428 11.412511 6.791942 33.392033 0.356579 1.365967 0.091522 -0.014380 -211829.000000 0 0 1
30.037198 11.881411 5.603542 32.784155 0.376670 1.399031 0.083417 -0.021700 139745.000000 0 0 1
30.131768 10.995211 4.496442 32.388826 0.349890 1.431520 0.095407 -0.028205 -29763.500000 0 0 1
29.262228 11.525511 3.323342 31.625306 0.375211 1.465517 0.066373 -0.044421 67342.100000 0 0 1
27.903538 11.157211 3.442742 30.248029 0.380376 1.456732 0.064547 -0.040882 -102426.000000 0 0 1
27.235868 11.614811 2.282342 29.696892 0.403100 1.493866 0.079319 -0.041599 -501164.000000 0 0 1
25.889938 10.920411 2.126542 28.179184 0.399158 1.495260 0.113134 -0.030603 -493075.000000 0 0 1
26.025038 9.612111 1.613242 27.790247 0.353800 1.512713 0.059378 -0.029634 266930.000000 0 0 1
24.802938 8.899111 1.464742 26.391767 0.344486 1.515268 0.053827 -0.031810 -359517.000000 0 0 1
25.106638 7.397111 1.225842 26.202351 0.286521 1.523996 0.061353 -0.026330 344149.000000 0 0 1
25.697038 6.785811 2.394542 26.685554 0.258176 1.480944 0.074368 -0.019594 1810670.000000 0 0 1
27.098738 7.132111 2.603842 28.142292 0.257354 1.478140 0.107610 -0.032424 514799.000000 0 0 1
27.610348 6.440111 3.861542 28.613246 0.229153 1.435427 0.117912 -0.033117 -691956.000000 0 0 1
29.002218 6.486211 4.006942 29.987583 0.220025 1.436775 0.119440 -0.026313 -268713.000000 0 0 1
29.421008 5.967911 5.215842 30.469930 0.200130 1.398769 0.103251 -0.020984 -1011030.000000 0 0 1
30.914658 5.936511 5.449342 31.947669 0.189720 1.399387 0.111521 -0.023834 -763383.000000 0 0 1
31.398508 7.240611 5.721442 32.726558 0.226642 1.395068 0.109119 -0.033575 -167797.000000 0 0 1
32.607498 7.093011 6.451242 33.987913 0.214190 1.379828 0.064467 -0.019379 283984.000000 0 0 1
32.961468 8.258711 7.525242 34.803648 0.245502 1.352855 0.075666 -0.028536 -33701.600000 0 0 1
32.156078 8.178411 8.657942 34.290810 0.249054 1.315548 0.068053 -0.023868 -233890.000000 0 0 1
32.426518 9.171311 9.576142 35.032763 0.275634 1.293924 0.069002 -0.011756 -183171.000000 0 0 1
31.777808 8.947511 10.981242 34.791877 0.274459 1.249679 0.057746 -0.015190 81448.200000 0 0 1
30.407508 9.305611 11.096542 33.680026 0.296980 1.235055 0.056858 -0.013283 337159.000000 0 0 1
29.950498 9.183311 12.418242 33.698342 0.297516 1.193389 0.042490 -0.018086 366812.000000 0 0 1
28.525848 9.789011 12.679542 32.715738 0.330571 1.172805 0.039775 -0.026024 168967.000000 0 0 1
28.357648 11.184611 12.641742 33.000990 0.375680 1.177677 0.038271 -0.031779 75447.300000 0 0 1
28.483148 11.817411 11.330142 32.852899 0.393277 1.218691 0.049284 -0.029647 -763190.000000 0 0 1
27.298878 11.764311 10.372942 31.483736 0.406895 1.235054 0.040053 -0.028534 -568910.000000 0 0 1
27.440468 12.688411 9.311842 31.633612 0.433116 1.272005 0.027781 -0.014971 -64668.700000 0 0 1
26.292738 12.747611 8.509342 30.433839 0.451441 1.287417 0.024858 -0.012964 -392578.000000 0 0 1
26.304138 13.866311 7.493742 30.664938 0.485133 1.323921 0.018281 -0.012590 27390.300000 0 0 1
26.030938 15.119311 8.107342 31.175828 0.526198 1.307720 0.015621 -0.004017 323052.000000 0 0 1
26.164538 16.143211 7.175242 31.570087 0.552817 1.341513 0.006009 -0.000636 -1009900.000000 0 0 1
25.914338 17.580311 7.696842 32.246885 0.596082 1.329785 0.019972 -0.002547 148594.000000 0 0 1
24.611738 18.144111 7.801542 31.556464 0.635268 1.320981 0.016779 -0.006978 653541.000000 0 0 1
23.600338 17.358411 8.451342 30.491237 0.634166 1.289946 0.019985 -0.007420 -357373.000000 0 0 1
22.364938 18.266611 8.636642 30.140522 0.684873 1.280177 0.030042 -0.009113 -301959.000000 0 0 1
21.686438 18.482011 7.390742 29.436531 0.705792 1.317007 0.034052 -0.011524 1012990.000000 0 0 1
20.500138 19.283611 7.636642 29.162160 0.754829 1.305839 0.070269 -0.021867 1108790.000000 0 0 1
19.753138 19.748811 6.338342 28.642216 0.785289 1.347655 0.064538 -0.018917 540667.000000 0 0 1
20.601138 20.605511 5.576342 29.666303 0.785504 1.381703 0.047684 -0.014603 413035.000000 0 0 1
20.027638 20.621511 4.291042 29.064859 0.800007 1.422618 0.051179 -0.021388 50944.300000 0 0 1
17.855638 17.539311 33.589172 41.888945 0.776461 0.640391 0.010083 -0.000962 -131895.000000 0 0 1
17.466738 18.073911 32.374555 40.986156 0.802480 0.660167 0.004949 -0.000475 289082.000000 0 0 1
16.917038 17.109311 31.436235 39.587265 0.791049 0.653271 0.008588 -0.002427 212654.000000 0 0 1
16.387538 17.663611 30.038105 38.507691 0.822856 0.676043 0.000595 0.002322 -36303.500000 0 0 1
17.343238 18.272711 29.221525 38.582086 0.811489 0.711496 -0.005586 0.014839 -665865.000000 0 0 1
16.856038 18.447611 27.911195 37.462984 0.830450 0.730211 0.020191 0.007772 71877.800000 0 0 1
17.918238 18.992211 26.909855 37.495434 0.814487 0.770326 0.008276 0.013711 -198161.000000 0 0 1
18.232638 20.327411 27.148945 38.505817 0.839670 0.788287 0.009087 0.010792 484787.000000 0 0 1
19.194938 20.763311 26.158515 38.520496 0.824628 0.824287 0.002726 0.023687 229053.000000 0 0 1
19.801838 22.146311 26.548115 39.841866 0.841230 0.841511 0.002448 0.014970 289676.000000 0 0 1
18.908638 23.282511 26.433545 39.979297 0.888697 0.848405 -0.016531 0.009316 636639.000000 0 0 1
19.550538 24.476811 26.843605 41.254296 0.896826 0.862308 -0.006406 0.011757 28524.100000 0 0 1
18.755538 25.719511 26.400885 41.355413 0.940719 0.878391 -0.000009 0.015303 54707.200000 0 0 1
18.892038 26.062811 25.046775 40.786274 0.943576 0.909554 0.008134 0.015694 18441.500000 0 0 1
18.087638 27.141411 24.684855 40.904289 0.982963 0.922940 0.020829 0.006249 -540056.000000 0 0 1
18.285538 27.705311 23.255345 40.530929 0.987422 0.959697 0.014136 0.000013 144889.000000 0 0 1
19.467338 28.491511 23.144945 41.550354 0.971388 0.979987 0.010872 -0.000915 400207.000000 0 0 1
19.285938 29.304811 22.057645 41.439824 0.988737 1.009503 0.010558 -0.006596 -14799.700000 0 0 1
20.469138 30.263911 21.834645 42.563383 0.976117 1.032130 0.017799 -0.007084 90346.400000 0 0 1
21.554638 29.600811 21.211245 42.316986 0.941409 1.045758 0.013148 -0.008360 964.461000 0 0 1
22.788138 30.287911 21.288845 43.472654 0.925771 1.059043 0.025250 -0.018445 159289.000000 0 0 1
23.397138 30.559211 19.914545 43.334519 0.917365 1.093304 0.020603 -0.019063 -226552.000000 0 0 1
22.687938 31.567011 19.254845 43.381652 0.947615 1.110908 0.019505 -0.010319 66986.100000 0 0 1
22.998838 31.530111 17.885245 42.929901 0.940594 1.141078 0.019956 0.003521 -292436.000000 0 0 1
22.372638 32.460211 16.877045 42.883970 0.967333 1.166305 0.014136 -0.004092 -503467.000000 0 0 1
22.956738 33.733611 16.970045 44.192202 0.973257 1.176666 0.029826 -0.007859 84189.900000 0 0 1
22.720238 -34.255603 15.847845 44.054622 -0.985159 1.202816 0.037546 -0.009130 -26538.700000 0 0 1
23.628638 34.372711 14.594745 44.190523 0.968560 1.234208 0.025648 -0.003945 -168454.000000 0 0 1
23.512738 33.168311 13.886645 42.963061 0.954128 1.241663 0.034140 0.004280 139962.000000 0 0 1
22.408038 33.271611 13.000445 42.167900 0.978086 1.257389 0.029593 -0.002914 59284.900000 0 0 1
22.052538 31.922511 12.339945 40.714068 0.966262 1.262865 0.036646 -0.018642 -797494.000000 0 0 1
22.960938 31.500411 11.397445 40.612588 0.940931 1.286337 0.038579 -0.033238 -604907.000000 0 0 1
22.653438 30.210211 10.897445 39.301264 0.927385 1.289835 0.036955 -0.034885 -846379.000000 0 0 1
23.757838 29.553611 9.993245 39.213718 0.893688 1.313114 0.031470 -0.032214 113741.000000 0 0 1
24.874838 29.054011 10.650945 39.703095 0.862738 1.299205 0.021594 -0.024530 -84142.700000 0 0 1
25.709538 30.005911 11.346945 41.110682 0.862359 1.291156 0.021422 -0.025982 -1100380.000000 0 0 1
27.067438 29.405811 11.704245 41.645375 0.826781 1.285913 0.021704 -0.018265 -205024.000000 0 0 1
26.976338 28.297911 12.587745 41.072447 0.809303 1.259307 0.017246 -0.008042 -421779.000000 0 0 1
28.265838 28.121911 13.092245 41.966729 0.782846 1.253533 0.021208 0.008649 -301935.000000 0 0 1
28.318138 27.082711 14.242545 41.692208 0.763102 1.222165 0.005932 -0.001651 236657.000000 0 0 1
29.598838 27.036211 14.854145 42.751532 0.740181 1.215943 0.005231 -0.012530 251571.000000 0 0 1
29.765938 25.975711 15.773245 42.538734 0.717506 1.190929 0.015261 -0.022089 -328947.000000 0 0 1
30.873138 26.155711 16.829045 43.823380 0.702866 1.176650 0.026416 -0.022689 731111.000000 0 0 1
32.133038 26.264011 16.130545 44.525553 0.685232 1.200088 0.030275 -0.023047 526458.000000 0 0 1
33.245538 26.359211 17.001245 45.706850 0.670375 1.189674 0.027215 -0.023419 -26379.100000 0 0 1
34.505938 26.769911 16.242045 46.594977 0.659813 1.214741 0.035794 -0.023578 -310785.000000 0 0 1
34.630538 28.115811 15.866945 47.344830 0.681942 1.229047 0.028116 -0.012839 625804.000000 0 0 1
-35.454062 28.396411 15.346945 47.946589 -0.675311 1.244978 0.036874 -0.012381 910926.000000 0 0 1
-35.446562 29.456011 14.278345 48.249212 -0.693358 1.270368 0.018687 -0.005567 46016.300000 0 0 1
35.661738 30.703811 14.881445 49.355252 0.710830 1.264513 0.013962 -0.000669 153455.000000 0 0 1
35.383738 31.720011 13.899445 49.511237 0.730854 1.286238 0.006951 0.016010 -58451.500000 0 0 1
34.649638 32.961511 14.500345 49.973179 0.760435 1.276400 -0.006371 0.019189 -409050.000000 0 0 1
34.259238 33.797011 13.406645 49.956696 0.778606 1.299101 -0.025329 0.018523 -160335.000000 0 0 1
33.342438 -34.009203 13.713345 49.562081 -0.795298 1.290448 -0.026793 0.024776 780324.000000 0 0 1
31.860738 34.288011 13.515345 48.717952 0.822076 1.289688 -0.001032 0.016141 331071.000000 0 0 1
31.543638 33.112811 14.216745 47.891285 0.809663 1.269399 -0.008490 0.005705 67222.100000 0 0 1
30.415038 32.482611 13.612345 46.534831 0.818258 1.273936 0.006365 0.008393 79507.500000 0 0 1
29.837938 31.296111 14.416045 45.580384 0.809246 1.248993 0.019351 -0.001463 -35967.400000 0 0 1
29.088538 31.741811 15.541345 45.773562 0.828988 1.224383 0.008115 -0.002313 49258.800000 0 0 1
28.577338 30.658111 16.280445 44.962616 0.820511 1.200289 0.007814 -0.006178 -187163.000000 0 0 1
27.630038 31.152611 17.384645 45.123497 0.845252 1.175298 0.007082 -0.003099 -155546.000000 0 0 1
27.322338 30.134711 18.347145 44.623185 0.834307 1.147073 0.001120 -0.002137 185374.000000 0 0 1
28.092338 30.244711 19.568545 45.682052 0.822277 1.128115 0.003288 -0.012331 205403.000000 0 0 1
27.844338 29.210811 20.662145 45.337654 0.809344 1.097594 0.021863 -0.024950 -110565.000000 0 0 1
26.580038 29.229411 21.282745 44.875518 0.832834 1.076671 0.016304 -0.026487 -190182.000000 0 0 1
26.605238 28.576611 22.524545 45.075675 0.821108 1.047538 0.013956 -0.022468 -900534.000000 0 0 1
25.300438 28.461411 23.270545 44.628268 0.844126 1.022270 0.012350 -0.013945 -1049760.000000 0 0 1
24.479938 27.483911 22.699045 43.242101 0.843143 1.018164 0.009996 -0.012285 527229.000000 0 0 1
23.175438 27.306411 23.275845 42.714236 0.867047 0.994503 0.004887 -0.014767 794856.000000 0 0 1
23.070138 26.251911 24.361035 42.601104 0.849819 0.962049 0.018553 -0.010409 -436259.000000 0 0 1
23.787138 26.576111 25.523265 43.858347 0.840719 0.949675 0.022744 -0.014039 -109739.000000 0 0 1
23.537938 25.747411 26.632815 43.889298 0.830198 0.918745 0.028721 -0.013851 -392478.000000 0 0 1
24.802538 25.468311 27.509485 44.950778 0.798641 0.912220 0.036674 -0.017000 372977.000000 0 0 1
25.188338 26.597611 28.271195 46.272516 0.812605 0.913509 0.043863 -0.017827 174629.000000 0 0 1
26.040038 27.429711 27.505375 46.765567 0.811382 0.942021 0.029283 -0.003141 -847604.000000 0 0 1
26.549738 28.636411 28.337045 48.248531 0.823192 0.943060 0.009924 0.001478 -493041.000000 0 0 1
27.459338 28.301311 29.350765 49.157368 0.800497 0.930943 0.030137 0.006842 -199995.000000 0 0 1
27.638638 29.364911 30.253015 50.412669 0.815673 0.927161 0.035156 0.000197 898785.000000 0 0 1
29.167138 29.643911 30.494015 51.569064 0.793505 0.938097 0.021217 0.006178 1211660.000000 0 0 1
29.869138 30.020711 29.312285 51.503578 0.787929 0.965348 -0.000305 0.007366 -375699.000000 0 0 1
31.269238 30.031711 29.363245 52.362859 0.765213 0.975487 0.017313 0.003958 57335.200000 0 0 1
31.944738 30.221611 27.977505 52.120560 0.757687 1.004175 0.010747 0.005087 -25775.500000 0 0 1
32.034838 31.607611 27.643105 52.814895 0.778685 1.019965 0.006908 0.004382 120005.000000 0 0 1
32.422538 31.841211 26.297535 52.503752 0.776352 1.046193 0.010706 -0.001717 -274310.000000 0 0 1
32.150438 33.248711 25.822665 52.971100 0.802190 1.061588 -0.003673 -0.003065 -131818.000000 0 0 1
32.901038 34.172611 26.561975 54.367124 0.804354 1.060350 -0.000079 0.001292 63558.700000 0 0 1
32.428338 -33.353403 26.308065 53.443062 -0.799460 1.056108 0.001463 0.000112 -298422.000000 0 0 1
33.118638 -32.191803 27.089585 53.544392 -0.771208 1.040339 0.000345 0.001203 20270.100000 0 0 1
32.966538 -32.124303 28.488105 54.132574 -0.772460 1.016594 0.003406 -0.003170 562306.000000 0 0 1
33.856438 -31.109203 28.968785 54.343642 -0.743136 1.008575 0.003705 -0.008077 148813.000000 0 0 1
33.716038 -30.689503 30.489285 54.847181 -0.738441 0.981357 0.019703 -0.011927 -152704.000000 0 0 1
33.946938 -31.767803 31.397375 56.101542 -0.752250 0.976830 0.022327 -0.011616 227567.000000 0 0 1
32.753638 -32.483803 31.606125 55.919097 -0.781262 0.970107 0.019114 -0.010931 -434382.000000 0 0 1
32.666138 -33.390303 32.844340 57.102886 -0.796361 0.957974 0.029698 -0.016130 -416625.000000 0 0 1
32.500138 -32.687403 34.064525 57.315941 -0.788271 0.934365 0.028739 -0.023751 357517.000000 0 0 1
32.903338 -33.339803 -33.470948 57.571490 -0.791987 2.191221 0.024383 -0.026591 -19866.000000 0 0 1
32.241938 34.079511 -33.190098 57.467715 0.813098 2.186513 0.022817 -0.022185 141692.000000 0 0 1
32.540238 33.086811 -34.174856 57.632673 0.793726 2.205547 0.026468 -0.020579 72361.600000 0 0 1
31.677738 32.009111 -33.952548 56.398917 0.790601 2.216809 0.039856 -0.011067 -111403.000000 0 0 1
31.785438 30.888911 33.708334 55.683846 0.771095 0.920588 0.021431 -0.002640 -42774.600000 0 0 1
33.090838 30.341111 33.685733 56.127668 0.742076 0.927092 0.014198 -0.006344 212300.000000 0 0 1
33.277638 29.574611 32.448675 55.090610 0.726550 0.940969 0.008738 -0.003566 -332603.000000 0 0 1
34.697238 28.995811 32.483915 55.676387 0.696122 0.947837 0.011317 -0.001122 -355496.000000 0 0 1
34.844138 27.883811 33.286146 55.673947 0.674890 0.929947 0.017723 0.003467 299125.000000 0 0 1
-35.327962 27.188511 33.171992 55.566726 -0.655930 0.931070 0.001183 0.000372 979.203000 0 0 1
-35.267062 25.919811 33.972963 55.405455 -0.633805 0.910729 0.008239 0.001957 275700.000000 0 0 1
35.257838 24.893011 33.465262 54.614109 0.614760 0.911250 0.004245 0.005572 557686.000000 0 0 1
35.163238 23.803811 34.310962 54.592278 0.595089 0.891180 0.013140 -0.007564 -49421.800000 0 0 1
34.867238 22.488211 33.610694 53.395905 0.572829 0.889936 0.011781 -0.009046 73918.100000 0 0 1
-35.379562 22.048611 32.923468 53.120706 -0.557305 0.902326 0.025274 -0.009723 130655.000000 0 0 1
-35.695562 20.961111 32.046045 52.349692 -0.530969 0.912015 0.029417 -0.007968 -179466.000000 0 0 1
-34.524062 20.267311 31.332125 50.836766 -0.530842 0.906725 0.021123 -0.016378 -253489.000000 0 0 1
-33.954162 21.116511 30.353515 50.200876 -0.556376 0.921481 0.011951 -0.012989 -211959.000000 0 0 1
-32.985062 20.402211 29.591765 48.784598 -0.553932 0.919045 0.018623 -0.011404 -221080.000000 0 0 1
-33.434762 19.531911 28.391475 48.015150 -0.528706 0.938123 0.023738 -0.004629 -234096.000000 0 0 1
-34.164962 18.370411 28.847695 48.341557 -0.493349 0.931355 0.022695 -0.005456 357535.000000 0 0 1
-34.650162 17.560611 27.834535 47.788807 -0.469071 0.949058 0.032419 -0.009345 -383615.000000 0 0 1
-35.345662 16.303511 28.407505 48.188241 -0.432178 0.940343 0.040216 0.001597 -420313.000000 0 0 1
-34.562562 15.283111 28.984415 47.626048 -0.416338 0.916522 0.027754 -0.001588 -83289.800000 0 0 1
-35.298462 14.115611 29.223765 47.950603 -0.380414 0.915423 0.031909 -0.002439 115355.000000 0 0 1
-34.311862 12.964711 29.596965 47.131390 -0.361266 0.891858 0.024873 0.004238 103174.000000 0 0 1
-33.581162 13.192111 30.765305 47.415506 -0.374321 0.864731 0.019545 0.005043 312582.000000 0 0 1
-32.765962 12.062511 31.077815 46.743374 -0.352744 0.843490 0.034396 0.001884 -200518.000000 0 0 1
-31.255462 12.282211 31.127595 45.789559 -0.374425 0.823311 0.026982 0.003536 -1120340.000000 0 0 1
-30.615562 12.385111 29.853465 44.518906 -0.384411 0.835807 0.019372 0.004945 1213710.000000 0 0 1
-29.214462 12.716811 29.869225 43.673478 -0.410555 0.817672 0.021125 0.003407 1452410.000000 0 0 1
-28.195662 11.711511 30.489995 43.148518 -0.393682 0.786074 0.026491 -0.001963 -381770.000000 0 0 1
-28.011262 10.587011 29.625435 42.123414 -0.361359 0.790766 0.022362 -0.004377 1176290.000000 0 0 1
-26.805262 9.899911 30.100105 41.503573 -0.353788 0.759412 0.028797 -0.006069 802420.000000 0 0 1
-26.286162 8.758811 29.099205 40.180129 -0.321640 0.760895 0.029897 -0.006935 26185.600000 0 0 1
-26.952962 7.521711 28.925615 40.245863 -0.272144 0.768833 0.033203 -0.007424 -427162.000000 0 0 1
-28.166962 7.598611 28.223625 40.591743 -0.263498 0.801953 0.037642 -0.002925 304752.000000 0 0 1
-29.048962 6.286111 28.191785 40.965035 -0.213111 0.811803 0.036601 -0.005390 306180.000000 0 0 1
-29.679362 5.914011 29.416935 42.204219 -0.196687 0.799571 0.040326 -0.003075 585102.000000 0 0 1
-30.347162 4.598611 29.336655 42.458648 -0.150389 0.807999 0.054365 -0.012737 157657.000000 0 0 1
-31.044962 4.288411 30.648855 43.835287 -0.137267 0.796543 0.046356 -0.007218 -109901.000000 0 0 1
-32.189862 5.080911 30.927805 44.928075 -0.156550 0.811536 0.037200 -0.008783 -136973.000000 0 0 1
-32.625362 4.800811 32.247015 46.123009 -0.146101 0.796585 0.041236 -0.011169 603333.000000 0 0 1
-34.157562 5.092311 32.359255 47.326441 -0.147993 0.817913 0.035344 -0.007938 518315.000000 0 0 1
-34.503362 6.444011 32.329845 47.720290 -0.184638 0.826457 0.037185 -0.000412 434993.000000 0 0 1
35.488538 6.581511 32.547485 48.601351 0.183371 0.837015 0.036121 0.008679 752128.000000 0 0 1
35.070438 8.009711 32.731213 48.635618 0.224538 0.832554 0.029290 0.001252 -215274.000000 0 0 1
35.457738 8.568411 33.985489 49.856617 0.237106 0.820761 0.029609 0.000120 217626.000000 0 0 1
35.016738 9.901911 34.147182 49.902403 0.275581 0.817181 0.035510 -0.007150 -174440.000000 0 0 1
34.849638 10.289711 -33.113838 49.161995 0.287103 2.309819 0.025526 -0.002971 -540140.000000 0 0 1
33.905038 9.579811 -32.380788 47.852271 0.275370 2.314044 0.038456 0.004116 -245457.000000 0 0 1
33.803838 9.962911 -31.058588 46.974408 0.286612 2.293188 0.022068 0.014230 474671.000000 0 0 1
32.633238 9.311411 -30.225018 45.444277 0.277949 2.298425 0.025295 0.018583 509511.000000 0 0 1
32.770138 7.947811 -30.014538 45.143351 0.237938 2.298118 0.026682 0.014410 -544744.000000 0 0 1
31.723338 7.417011 -29.294168 43.812447 0.229677 2.303157 0.019714 0.013446 -656793.000000 0 0 1
34.491568 6.188411 -20.064558 40.380084 0.177529 2.090811 0.033891 -0.012108 -608141.000000 0 0 1
33.879948 7.135611 -19.214258 39.597418 0.207581 2.077434 0.027182 -0.014701 119112.000000 0 0 1
34.535638 8.374111 -19.072058 40.330874 0.237886 2.063364 0.017213 -0.010883 -1048530.000000 0 0 1
-35.429543 8.455611 -18.515658 40.860488 -0.234277 2.041085 0.016634 -0.016463 -584766.000000 0 0 1
-34.411730 7.966411 -19.296258 40.248931 -0.227495 2.070793 0.012165 -0.019632 -655514.000000 0 0 1
-34.099145 8.710011 -20.456958 40.707532 -0.250085 2.097325 0.008394 -0.012558 -1064590.000000 0 0 1
-32.986802 8.105211 -21.323658 40.106383 -0.240938 2.131376 0.000830 -0.005619 -440727.000000 0 0 1
-33.301452 6.901111 -22.059858 40.537013 -0.204339 2.146220 -0.000269 -0.001151 335485.000000 0 0 1
-34.096282 7.171811 -23.224158 41.873056 -0.207318 2.158718 0.003822 0.005363 194049.000000 0 0 1
-34.168734 5.937211 -24.154758 42.263521 -0.172044 2.179162 0.015744 0.006511 -319722.000000 0 0 1
-32.955302 5.669711 -24.802858 41.633873 -0.170375 2.208980 0.003638 0.006930 -305931.000000 0 0 1
-32.887752 4.467511 -25.497628 41.853219 -0.135015 2.225867 -0.001827 0.007313 -56405.100000 0 0 1
-31.594542 4.335611 -26.332878 41.357383 -0.136375 2.261027 0.005692 0.004666 -91664.300000 0 0 1
-30.421672 4.307411 -25.553348 39.962552 -0.140655 2.264556 0.009734 -0.002152 175256.000000 0 0 1
-29.327762 3.982811 -26.440508 39.687289 -0.134978 2.299926 0.014785 -0.001482 -7571.050000 0 0 1
-27.983292 4.402111 -25.859218 38.355474 -0.156033 2.310676 0.006481 -0.001880 -701318.000000 0 0 1
-27.833132 5.783711 -25.812488 38.398166 -0.204884 2.308016 0.008270 0.003509 167288.000000 0 0 1
-26.605312 6.177911 -25.230848 37.183396 -0.228162 2.316585 0.015488 0.009919 -64804.100000 0 0 1
-26.262872 7.632711 -25.505028 37.396567 -0.282836 2.321311 0.014307 0.004107 116956.000000 0 0 1
-26.840242 8.538511 -24.547958 37.361839 -0.308000 2.287672 0.008233 0.001187 195440.000000 0 0 1
-26.366502 9.849311 -24.768458 37.492371 -0.357502 2.292449 0.012902 -0.000783 801220.000000 0 0 1
-25.018662 10.308511 -24.105258 36.238962 -0.390836 2.298525 0.038589 0.001085 506489.000000 0 0 1
-25.160262 10.750811 -22.770558 35.596588 -0.403811 2.264883 0.031656 -0.001618 776640.000000 0 0 1
-23.868762 10.955911 -22.192858 34.384193 -0.430318 2.272393 0.054714 -0.011970 228231.000000 0 0 1
-24.027262 11.327511 -20.669358 33.657751 -0.440543 2.232046 0.075721 -0.020545 -795790.000000 0 0 1
-24.520462 12.633511 -20.397258 34.306075 -0.475752 2.207523 0.056934 -0.022089 1949860.000000 0 0 1
-25.961762 12.849511 -20.452058 35.459973 -0.459591 2.185559 0.052544 -0.003996 1799860.000000 0 0 1
-26.974562 11.951711 -19.659958 35.453975 -0.417079 2.158583 0.037936 -0.005296 -259995.000000 0 0 1
-26.694552 12.078311 -18.311958 34.551592 -0.424901 2.129384 0.049605 -0.011403 201813.000000 0 0 1
-27.520302 11.204211 -17.580958 34.525229 -0.386634 2.105075 0.029881 -0.014592 -739290.000000 0 0 1
-27.065182 10.983411 -16.118358 33.361068 -0.385508 2.075044 0.056126 -0.018401 139926.000000 0 0 1
-26.108932 9.960311 -15.905758 32.153962 -0.364449 2.088257 0.070508 -0.019691 -453988.000000 0 0 1
-24.805062 10.386111 -16.130258 31.358374 -0.396530 2.111086 0.069122 -0.015927 -1236400.000000 0 0 1
-23.831062 9.184211 -16.132858 30.208250 -0.367847 2.134186 0.063636 -0.012613 468456.000000 0 0 1
-22.450962 9.551611 -16.205958 29.290136 -0.402246 2.157106 0.065442 -0.007540 989470.000000 0 0 1
-21.591862 8.458711 -15.959858 28.150939 -0.373378 2.173581 0.061886 -0.012062 -294400.000000 0 0 1
-20.080462 8.609711 -15.899458 27.021193 -0.405052 2.199884 0.074804 -0.013735 -226751.000000 0 0 1
-19.404262 9.005211 -17.099858 27.386573 -0.434504 2.245145 0.082950 -0.019741 1075900.000000 0 0 1
-17.993562 9.092011 -16.846558 26.272409 -0.467873 2.266892 0.081655 -0.021059 569948.000000 0 0 1
-17.124662 9.626011 -18.028158 26.663245 -0.512096 2.313311 0.061998 -0.014257 -4029.200000 0 0 1
-17.009662 8.769611 -19.160858 27.080864 -0.476023 2.356811 0.082162 -0.023118 222283.000000 0 0 1
-16.220762 7.620411 -18.947458 26.080452 -0.439192 2.384012 0.076756 -0.016743 -683868.000000 0 0 1
-15.902662 6.867711 -20.231958 26.634419 -0.407666 2.433520 0.056542 -0.016502 197127.000000 0 0 1
-16.881562 6.028011 -20.828258 27.479818 -0.342965 2.430957 0.054019 -0.008078 332776.000000 0 0 1
-17.881162 6.666011 -21.624158 28.840525 -0.356836 2.418532 0.051054 -0.006640 101194.000000 0 0 1
-18.893362 5.680611 -22.219758 29.714410 -0.292069 2.415504 0.043007 0.004971 -210459.000000 0 0 1
-19.617562 4.937911 -21.279758 29.360855 -0.246586 2.381491 0.066407 0.001256 669302.000000 0 0 1
-20.440262 3.860811 -21.813058 30.141660 -0.186683 2.379923 0.042345 0.014202 248876.000000 0 0 1
-21.106262 3.026311 -20.728958 29.737562 -0.142414 2.342090 0.053602 0.003851 -301293.000000 0 0 1
-21.806362 1.926411 -21.265058 30.519358 -0.088113 2.341685 0.051683 0.008991 521142.000000 0 0 1
-22.589562 1.306311 -20.242258 30.360234 -0.057764 2.300617 0.052893 0.003045 -520118.000000 0 0 1
-23.324162 0.028311 -20.657558 31.156894 -0.001214 2.295638 0.041064 0.008585 -894728.000000 0 0 1
-22.576062 -1.100989 -20.731858 30.670845 0.048729 2.313045 0.051217 -0.002399 -531023.000000 0 0 1
-23.291762 -2.239289 -21.161058 31.548550 0.095846 2.306010 0.051388 -0.009603 -747108.000000 0 0 1
-23.618062 -2.299589 -22.671058 32.818864 0.097060 2.333382 0.039247 -0.011943 -535891.000000 0 0 1
-22.637862 -2.236989 -23.664858 32.825332 0.098497 2.375944 0.032506 -0.010311 -350770.000000 0 0 1
-21.743962 -3.344689 -23.585158 32.252853 0.152625 2.390961 0.025687 -0.022063 36565.600000 0 0 1
-20.701162 -3.404889 -24.731358 32.431026 0.163019 2.438093 0.026051 -0.017235 388034.000000 0 0 1
-21.315962 -3.716889 -26.031568 33.850082 0.172635 2.448111 0.027461 -0.020981 303836.000000 0 0 1
-20.348962 -3.888289 -27.039998 34.064066 0.188805 2.487826 0.027971 -0.023446 -298324.000000 0 0 1
-20.976062 -4.101089 -28.459158 35.591260 0.193077 2.497443 0.025705 -0.028405 149589.000000 0 0 1
-21.684462 -5.344689 -28.511698 36.217379 0.241659 2.477113 0.029097 -0.032373 201965.000000 0 0 1
-22.373862 -5.441689 -29.712988 37.590735 0.238584 2.482313 -0.006008 -0.027529 -830247.000000 0 0 1
-21.877462 -6.626489 -30.542828 38.149680 0.294107 2.499101 0.010613 -0.023968 -348194.000000 0 0 1
-20.576762 -6.362789 -31.014958 37.759977 0.299896 2.534607 0.010953 -0.022967 -126009.000000 0 0 1
-19.985262 -7.478889 -31.618138 38.145133 0.358087 2.547918 0.014706 -0.019055 -366644.000000 0 0 1
-18.725562 -7.053589 -32.400268 38.081192 0.360245 2.588342 0.019219 -0.017988 -663807.000000 0 0 1
-18.959562 -6.468889 -33.690878 39.196770 0.328808 2.605150 0.021155 -0.024687 376805.000000 0 0 1
-19.108662 -7.499689 34.095469 39.798082 0.374003 0.541937 0.018009 -0.020537 -512665.000000 0 0 1
-19.217062 -7.011089 32.632645 38.514158 0.349831 0.559935 0.024415 -0.020159 708067.000000 0 0 1
-17.944062 -6.731289 32.018945 37.316383 0.358881 0.539355 0.028466 -0.024941 888722.000000 0 0 1
-17.240962 -5.579789 32.445665 37.163234 0.312997 0.509357 0.032640 -0.023088 -419870.000000 0 0 1
-15.934062 -5.425089 31.659505 35.855964 0.328161 0.488658 0.036856 -0.018352 -248601.000000 0 0 1
-16.153462 -5.181189 30.298895 34.724661 0.310381 0.510405 0.035569 -0.023252 433714.000000 0 0 1
-14.892862 -5.061889 29.659565 33.572457 0.327637 0.487622 0.030008 -0.013595 357078.000000 0 0 1
-15.057462 -5.097689 28.096735 32.282195 0.326437 0.514888 0.030584 -0.013272 346422.000000 0 0 1
-15.877562 -3.987089 27.665035 32.145731 0.246028 0.534324 0.019251 -0.012284 470979.000000 0 0 1
-16.308462 -4.217689 26.319895 31.248867 0.253075 0.569321 0.020326 -0.009336 4837.900000 0 0 1
-15.307162 -3.579389 25.356155 29.833803 0.229710 0.554975 0.030590 -0.003673 122203.000000 0 0 1
-15.269462 -2.156789 25.459155 29.765362 0.140320 0.544612 0.028146 0.001865 -187194.000000 0 0 1
-14.334862 -1.707589 24.523015 28.456676 0.118563 0.532054 0.026424 0.003469 -70054.100000 0 0 1
-14.137662 -0.177689 24.372435 28.176597 0.012568 0.525669 0.026437 0.014515 -401692.000000 0 0 1
-15.161762 0.352111 23.607345 28.059040 -0.023219 0.571029 0.021953 0.003541 -371805.000000 0 0 1
-15.768862 1.501211 24.111285 28.848998 -0.094915 0.581253 0.003930 0.009832 186265.000000 0 0 1
-16.469862 2.364811 23.044145 28.423253 -0.142609 0.625365 0.015475 0.008736 -150735.000000 0 0 1
-15.464262 2.989311 22.275745 27.281646 -0.190949 0.615456 0.012960 0.017816 481881.000000 0 0 1
-16.025762 3.973811 21.435045 27.056928 -0.243061 0.656358 0.011331 0.016367 20170.700000 0 0 1
-14.932462 4.582211 20.529845 25.796310 -0.297741 0.650396 0.005802 0.017425 -18701.000000 0 0 1
-14.231562 5.611811 21.158945 26.109974 -0.375602 0.626000 -0.006471 0.025656 -806894.000000 0 0 1
-12.951662 5.578311 20.614345 24.976275 -0.406691 0.599962 -0.010070 0.023108 -554024.000000 0 1 0
-12.082462 6.802211 20.994345 25.159858 -0.512756 0.583684 -0.011584 0.027254 179944.000000 0 0 1
-12.562062 8.038611 20.468845 25.325842 -0.569251 0.629674 -0.008002 0.025210 -358046.000000 0 0 1
-11.550362 8.956911 20.689645 25.331769 -0.659601 0.615046 -0.008456 0.028479 -441838.000000 0 0 1
-11.842762 10.486011 20.890845 26.203718 -0.724710 0.648075 -0.011881 0.029864 -292641.000000 0 0 1
-12.114862 11.098211 19.639045 25.605317 -0.741630 0.696658 -0.015061 0.029171 214665.000000 0 0 1
-12.633962 12.398911 19.817545 26.572261 -0.776009 0.729064 -0.018396 0.028987 -259967.000000 0 0 1
-13.008662 13.160411 18.501545 26.167324 -0.791197 0.785482 -0.009141 0.023016 439245.000000 0 0 1
-11.962162 13.727811 17.678545 25.378673 -0.854019 0.800162 -0.003242 0.016930 302792.000000 0 0 1
-11.691462 15.136511 17.987845 26.255796 -0.913112 0.816055 0.004532 0.013096 -346941.000000 0 0 1
-12.701162 16.246711 17.516845 27.057623 -0.907272 0.866641 0.001297 0.016222 189965.000000 0 0 1
-12.803762 16.503311 16.130645 26.391159 -0.910968 0.913203 0.010290 0.002918 266235.000000 0 0 1
-13.478862 15.453811 15.377745 25.631524 -0.853553 0.927352 0.014841 0.003003 -236003.000000 0 0 1
-14.100362 15.991611 14.108345 25.565547 -0.848165 0.986215 0.019578 0.000269 3325.130000 0 0 1
-15.206562 16.859811 14.271345 26.817234 -0.836910 1.009634 0.012830 -0.001375 -88812.700000 0 0 1
-15.734762 17.257011 13.042645 26.748790 -0.831506 1.061460 0.013592 -0.007083 -207684.000000 0 0 1
-16.852162 18.308011 13.172245 28.154692 -0.826781 1.083937 0.022444 -0.007809 -387046.000000 0 0 1
-18.041962 17.717011 13.626545 28.724338 -0.776311 1.076525 0.026316 -0.006413 -147285.000000 0 0 1
-19.054162 18.727511 13.815045 30.077171 -0.776753 1.093567 0.037362 -0.012278 202283.000000 0 0 1
-20.473362 18.147211 13.842445 30.660938 -0.725240 1.102386 0.041539 -0.015346 -73566.000000 0 0 1
-20.852862 17.586711 12.602245 30.049140 -0.700633 1.138025 0.036066 -0.016507 -347901.000000 0 0 1
-22.151962 17.061811 12.558145 30.651620 -0.656315 1.148665 0.062670 -0.023108 -141947.000000 0 0 1
-22.551262 16.405411 11.206845 30.054788 -0.628927 1.188685 0.047853 -0.019078 257799.000000 0 0 1
-21.808462 15.195411 10.900745 28.728658 -0.608553 1.181608 0.032045 -0.010093 310013.000000 0 0 1
-22.228762 14.527311 9.711645 28.275018 -0.578857 1.220186 0.039228 -0.003011 -143381.000000 0 0 1
-21.581262 13.104611 9.435345 26.953802 -0.545713 1.213165 0.037466 -0.003708 -300078.000000 0 0 1
-21.970562 12.004311 10.268945 27.060309 -0.500061 1.181558 0.036627 -0.007820 -170428.000000 0 0 1
-23.303462 11.569411 10.368545 28.007309 -0.460818 1.191563 0.056192 -0.006552 -234993.000000 0 0 1
-23.944462 11.017011 9.091245 27.881222 -0.431227 1.238652 0.044954 0.003095 -609034.000000 0 0 1
-24.449962 12.080611 8.276745 28.499935 -0.458913 1.276138 0.050988 -0.000676 290956.000000 0 0 1
-25.240862 11.602911 7.198045 28.697395 -0.430881 1.317263 0.056023 -0.005112 -322974.000000 0 0 1
-25.840212 12.742611 6.362745 29.505512 -0.458137 1.353443 0.050564 0.002803 -300746.000000 0 0 1
-24.999362 13.261911 5.382045 28.806471 -0.487741 1.382857 0.047829 0.003100 1522200.000000 0 0 1
-23.667162 13.782411 5.686545 27.971882 -0.527335 1.366074 0.053558 0.001745 767527.000000 0 0 1
-23.620462 15.236911 6.107345 28.764376 -0.572903 1.356845 0.047538 -0.001146 -773218.000000 0 0 1
-22.337062 15.659611 6.470845 28.036398 -0.611437 1.337895 0.019696 0.000753 -18680.100000 0 0 1
-22.372562 17.005911 6.873745 28.930622 -0.649949 1.330908 0.025961 -0.008619 -48304.900000 0 0 1
-20.934662 17.568811 6.832645 28.171053 -0.698203 1.325812 0.023397 -0.007842 27650.400000 0 0 1
-20.624162 17.954011 5.525745 27.896889 -0.716294 1.371400 0.035544 -0.012040 447068.000000 0 0 1
-19.299462 18.471011 5.495945 27.273667 -0.763468 1.367896 0.039275 -0.010705 122413.000000 0 0 1
-18.900362 19.111111 4.116845 27.192033 -0.790942 1.418813 0.055164 -0.017961 609358.000000 0 0 1
-17.573262 19.664511 4.200845 26.705049 -0.841499 1.412835 0.051560 -0.019139 802659.000000 0 0 1
-17.378662 20.768211 3.355245 27.287252 -0.874021 1.447524 0.050734 -0.007983 76073.500000 0 0 1
-17.477862 22.159411 4.053945 28.512271 -0.902963 1.428130 0.046446 -0.020965 -624665.000000 0 0 1
-16.505562 22.262311 5.021545 28.164871 -0.932814 1.391547 0.047747 -0.024487 -458455.000000 0 0 1
-16.443162 23.612511 5.507345 29.296059 -0.962507 1.381682 0.036455 -0.020487 -11334.400000 0 0 1
-15.622762 23.789211 6.800845 29.261728 -0.989714 1.336237 0.040823 -0.019490 -219635.000000 0 0 1
-16.307562 23.252011 7.893945 29.477228 -0.959172 1.299689 0.039007 -0.018826 206490.000000 0 0 1
-15.569462 23.310811 9.123645 29.479534 -0.981935 1.256139 0.040239 -0.020831 -196494.000000 0 0 1
-16.172362 22.508911 10.230745 29.544280 -0.947770 1.217188 0.023932 -0.017727 -682464.000000 0 0 1
-17.321762 23.144711 10.673945 30.816459 -0.928313 1.217096 0.027906 -0.020620 -856229.000000 0 0 1
-18.172562 22.321911 11.394745 30.957227 -0.887509 1.193853 0.024451 -0.020062 879167.000000 0 0 1
-19.517762 22.977711 11.948945 32.429855 -0.866638 1.193450 0.037464 -0.026824 1111280.000000 0 0 1
-20.346662 23.571511 10.980945 33.017933 -0.858695 1.231763 0.051325 -0.027553 37328.200000 0 0 1
-19.932862 24.896411 10.670145 33.630377 -0.895670 1.247940 0.030720 -0.019739 -192089.000000 0 0 1
-20.992562 25.762911 9.919345 34.681532 -0.887074 1.280734 0.040523 -0.015229 377874.000000 0 0 1
-21.904162 26.389211 10.804545 35.957210 -0.878003 1.265597 0.048289 -0.029871 75322.500000 0 0 1
-22.841062 27.216911 10.151845 36.953137 -0.872592 1.292496 0.045802 -0.023057 -46087.100000 0 0 1
-23.930162 27.740011 11.118145 38.285428 -0.858999 1.276150 0.034816 -0.020011 -263954.000000 0 0 1
-23.420762 28.615811 12.102445 38.908430 -0.884903 1.254499 0.040768 -0.023433 -90331.000000 0 0 1
-24.401562 29.039811 12.990845 40.093751 -0.871973 1.240829 0.033564 -0.021930 -323415.000000 0 0 1
8.802538 -32.759803 28.093145 44.044456 -1.308297 0.879111 0.027899 -0.010730 -420623.000000 0 0 1
10.180338 -32.750403 27.855885 44.183464 -1.269419 0.888651 0.027843 -0.020025 -186307.000000 0 0 1
10.326938 -32.504903 26.510345 43.197369 -1.263177 0.910054 0.035584 -0.020798 -859622.000000 0 0 1
11.758938 -32.605803 26.032955 43.348884 -1.224675 0.926614 0.019146 -0.016803 -735624.000000 0 0 1
12.204238 -33.961703 25.935685 44.440977 -1.225814 0.947643 0.032850 -0.028329 541661.000000 0 0 1
13.628638 -33.959303 25.823775 44.786620 -1.189150 0.956240 0.047650 -0.020710 550398.000000 0 0 1
14.275338 33.483911 25.577325 44.487718 1.167796 0.958278 0.065673 -0.012167 -91191.800000 0 0 1
14.266538 33.193111 24.195005 43.482352 1.164864 0.980710 0.046191 -0.014000 557414.000000 0 0 1
15.201638 32.120411 23.988855 42.875118 1.128760 0.977008 0.052190 -0.010253 126507.000000 0 0 1
15.309738 31.658411 22.574245 41.788031 1.120361 1.000112 0.057938 -0.022943 58996.500000 0 0 1
14.430738 30.639611 22.111045 40.446634 1.130631 0.992412 0.055950 -0.013945 22679.900000 0 0 1
14.857038 29.301811 22.432545 39.781236 1.101537 0.971699 0.051344 -0.010114 -64461.100000 0 0 1
14.561638 28.734411 23.875455 40.096696 1.101750 0.932974 0.043911 -0.004160 158432.000000 0 0 1
15.419038 29.218011 24.919155 41.381193 1.085217 0.924561 0.041397 -0.006841 417438.000000 0 0 1
14.908438 28.775811 26.161405 41.650065 1.092782 0.891656 0.041089 0.000372 137725.000000 0 0 1
15.817538 29.157311 27.368915 43.004660 1.073738 0.880952 0.042694 -0.002755 161291.000000 0 0 1
15.767238 30.524911 27.673155 44.115524 1.094007 0.892730 0.061552 -0.014846 194376.000000 0 0 1
16.371138 30.871511 28.914505 45.355407 1.083204 0.879535 0.068219 -0.016587 52510.300000 0 0 1
16.090338 32.339211 29.310565 46.517015 1.109112 0.889109 0.074528 -0.012190 262432.000000 0 0 1
16.904538 33.185411 28.511355 46.903435 1.099660 0.917417 0.070028 -0.015702 157172.000000 0 0 1
16.357938 -34.347503 28.555775 47.568533 -1.126330 0.926910 0.082540 -0.016687 136937.000000 0 0 1
17.118138 -33.193303 27.796545 46.556137 -1.094659 0.930972 0.075179 -0.023946 -542826.000000 0 0 1
17.009438 -33.350003 26.427235 45.825128 -1.099158 0.956116 0.078133 -0.020907 -33049.000000 0 0 1
17.446938 -32.207803 25.722145 44.758987 -1.074348 0.958582 0.083312 -0.024842 -1283870.000000 0 0 1
18.900338 -31.857503 25.670025 45.067432 -1.035335 0.964788 0.060082 -0.017691 -1413480.000000 0 0 1
19.414638 -31.349003 26.897905 45.641926 -1.016302 0.940574 0.048022 -0.016400 84276.500000 0 0 1
20.543438 -30.507903 26.701085 45.450114 -0.978160 0.942854 0.041861 -0.014877 148482.000000 0 0 1
20.950938 -29.726603 27.927065 45.853393 -0.956865 0.915933 0.048417 -0.009675 -739778.000000 0 0 1
20.039538 -28.724103 28.213945 44.974257 -0.961645 0.892669 0.050296 -0.011459 -496380.000000 0 0 1
20.170638 -28.023703 29.445015 45.378315 -0.946924 0.864687 0.060643 -0.006892 -710053.000000 0 0 1
18.892238 -27.489803 30.091565 44.923359 -0.968682 0.836800 0.037198 -0.009555 -93211.200000 0 0 1
18.131538 -26.501003 29.378885 43.522117 -0.970765 0.829786 0.068546 -0.014375 621440.000000 0 0 1
16.905038 -26.248003 30.057235 43.337920 -0.998615 0.804384 0.048786 -0.008464 423873.000000 0 0 1
15.807738 -25.609003 29.146035 41.895071 -1.017773 0.801415 0.042541 0.003912 -490182.000000 0 0 1
15.190738 -26.566503 28.251375 41.649463 -1.051370 0.825332 0.044151 -0.001798 366181.000000 0 0 1
14.617338 -25.852503 27.146815 40.236402 -1.056197 0.830261 0.037384 -0.024799 414845.000000 0 0 1
13.204738 -25.197103 27.466985 39.543575 -1.088088 0.802932 0.017669 -0.006305 606980.000000 0 0 1
12.144538 -26.139503 27.612735 39.915242 -1.135864 0.806839 0.011318 -0.002094 571524.000000 0 0 1
11.601738 -26.434703 26.296695 39.050096 -1.157226 0.831986 0.010346 -0.004946 -775411.000000 0 0 1
10.791638 -27.730403 26.201655 39.647968 -1.199667 0.848836 0.032339 -0.010554 880881.000000 0 0 1
9.421838 -27.712803 26.646575 39.582956 -1.243074 0.832291 0.018621 -0.016998 872247.000000 0 0 1
8.797738 -28.952003 26.559245 40.261795 -1.275790 0.850425 0.018790 -0.015691 -1059040.000000 0 0 1
7.295838 -29.010203 26.774945 40.146218 -1.324414 0.840708 0.021864 -0.017866 -327527.000000 0 0 1
6.364738 -28.681703 25.753645 39.069172 -1.352426 0.851068 0.035694 -0.027320 287375.000000 0 0 1
6.486438 -27.392103 25.212135 37.789587 -1.338280 0.840391 0.045154 -0.023693 -1141370.000000 0 0 1
5.292838 -27.027303 24.303815 36.730977 -1.377411 0.847751 0.053272 -0.024147 -855033.000000 0 0 1
5.038738 -27.862503 23.134445 36.563786 -1.391887 0.885743 0.035271 -0.019325 67520.000000 0 0 1
4.345638 -29.061803 23.500045 37.626122 -1.422365 0.896219 0.032970 -0.020404 -16702.900000 0 0 1
2.898538 -28.905403 24.042945 37.709243 -1.470854 0.879434 0.011381 -0.019797 -1279040.000000 0 0 1
1.902838 -28.684203 23.080345 36.866063 -1.504556 0.894307 0.005954 -0.009115 89722.800000 0 0 1
0.649638 -28.373203 23.664845 36.952477 -1.547904 0.875761 -0.000348 -0.014698 232931.000000 0 0 1
0.453238 -26.892603 24.225465 36.197937 -1.553944 0.837598 0.016504 -0.012857 -363691.000000 0 0 1
1.249538 -26.640003 25.379655 36.815458 -1.523926 0.810170 0.020346 -0.017653 186553.000000 0 0 1
1.177538 -25.252503 25.672575 36.029940 -1.524200 0.777692 0.029285 -0.015770 -438509.000000 0 0 1
2.427638 -24.814203 26.425365 36.330951 -1.473274 0.756342 0.032921 -0.012812 -344509.000000 0 0 1
3.600938 -24.687603 25.622795 35.762719 -1.425958 0.772072 0.035381 -0.014489 688526.000000 0 0 1
4.635138 -23.927003 26.287495 35.847153 -1.379447 0.747601 0.034798 -0.008576 529143.000000 0 0 1
4.437338 -22.395303 26.523285 34.996060 -1.375193 0.710718 0.039794 -0.007039 -629024.000000 0 0 1
4.426338 -21.752603 25.322715 33.675036 -1.370052 0.719746 0.046290 -0.006281 531137.000000 0 0 1
3.829738 -20.429103 25.516645 32.910702 -1.385482 0.683559 0.041698 -0.013078 136958.000000 0 0 1
3.955638 -19.564703 24.248845 31.407501 -1.371303 0.688702 0.044545 -0.012757 176686.000000 0 0 1
5.272138 -19.288303 23.798475 31.083781 -1.303980 0.698786 0.042138 -0.002122 6140.320000 0 0 1
5.292538 -18.379503 22.720145 29.698856 -1.290423 0.699728 0.040104 -0.001564 836661.000000 0 0 1
6.719338 -17.784003 22.431245 29.403758 -1.209546 0.703056 0.044036 0.001044 279036.000000 0 0 1
7.589738 -18.693803 21.774345 29.684751 -1.185126 0.747310 0.043605 0.006620 -417739.000000 0 0 1
8.848538 -18.164403 21.472545 29.484103 -1.117493 0.754994 0.021956 0.008354 139523.000000 0 0 1
9.891238 -18.077903 22.645345 30.617949 -1.070148 0.738305 0.001848 0.014119 -541324.000000 0 0 1
9.605138 -17.141903 23.688995 30.777784 -1.060056 0.692459 0.006842 0.013958 481927.000000 0 0 1
10.417738 -17.379903 24.884255 32.090753 -1.030809 0.683394 0.002979 0.010193 305170.000000 0 0 1
10.252438 -16.325003 25.954235 32.330179 -1.010028 0.638842 0.021650 -0.001359 -378676.000000 0 0 1
10.693138 -14.998803 25.643265 31.573475 -0.951443 0.622922 0.036926 -0.006629 290892.000000 0 0 1
10.581238 -14.235703 26.825055 32.159002 -0.931604 0.584228 0.031979 -0.012631 -88859.800000 0 0 1
10.894638 -12.757703 26.648175 31.489321 -0.864005 0.561869 0.048388 -0.013905 -326209.000000 0 0 1
9.793538 -12.182103 26.023145 30.356566 -0.893665 0.540893 0.047236 -0.006781 -285136.000000 0 0 1
10.042938 -10.807503 25.870735 29.781834 -0.822051 0.518275 0.057382 -0.002737 436834.000000 0 0 1
9.038338 -9.966103 24.961765 28.356736 -0.834178 0.494352 0.049400 -0.000131 883978.000000 0 0 1
7.782338 -9.796903 25.595845 28.490197 -0.899499 0.454664 0.048516 -0.000090 110351.000000 0 0 1
6.794738 -9.167803 24.790145 27.290444 -0.932982 0.431398 0.046420 0.000612 1059070.000000 0 0 1
5.336438 -9.364603 25.335165 27.532597 -1.052839 0.402236 0.025511 -0.003783 -168028.000000 0 0 1
4.964438 -8.559803 26.420085 28.212351 -1.045234 0.358363 0.028538 -0.002320 702168.000000 0 0 1
3.616238 -8.692103 26.892645 28.492879 -1.176542 0.336738 0.017264 -0.010276 1101230.000000 0 0 1
2.439138 -8.350803 25.956285 27.375427 -1.286617 0.323401 0.008304 -0.006881 -485327.000000 0 0 1
2.592138 -7.092603 25.351995 26.452747 -1.220406 0.289496 0.011166 -0.006214 12667.500000 0 0 1
1.518138 -6.898003 24.440225 25.440357 -1.354166 0.281330 0.002440 -0.003443 313407.000000 0 0 1
1.628738 -5.566603 23.639345 24.340470 -1.286151 0.240600 0.006101 -0.004269 -25251.200000 0 1 0
1.517538 -4.359103 24.392585 24.825448 -1.235788 0.187014 0.014092 -0.003213 -113044.000000 0 1 0
1.995238 -3.182903 23.764725 24.059800 -1.010860 0.156776 0.010863 0.003027 -1208840.000000 0 1 0
1.188738 -2.596903 22.556345 22.736440 -1.141514 0.125948 0.025171 -0.003514 -51383.800000 0 1 0
-0.026162 -1.999903 22.887245 22.974470 1.557715 0.087167 0.025201 -0.010827 -449918.000000 0 1 0
-1.049162 -2.823903 23.380845 23.574119 1.215072 0.128139 0.018893 -0.007748 -1204840.000000 0 1 0
-2.248462 -1.994903 23.863505 24.052070 0.725715 0.125301 0.021546 -0.021642 -357430.000000 0 1 0
-1.953962 -1.290903 25.060515 25.169700 0.583832 0.093178 0.024043 -0.017131 -150347.000000 0 0 1
-2.818962 -0.225903 25.296635 25.454220 0.079966 0.111331 0.023338 -0.019965 -438713.000000 0 0 1
-2.260862 0.743097 26.354105 26.461340 -0.317556 0.090059 0.053699 -0.017891 -63475.900000 0 0 1
-2.249262 0.245097 27.665975 27.758339 -0.108540 0.081600 0.054483 -0.013062 126062.000000 0 0 1
-1.283662 -0.731903 28.034895 28.073810 0.518195 0.052659 0.043358 -0.016286 -546732.000000 0 0 1
0.018138 -0.198903 28.642405 28.643101 -1.479858 0.006973 0.060522 -0.015827 20609.300000 0 0 1
1.026938 0.429097 27.771515 27.793808 0.395792 0.040055 0.050127 -0.013761 1397130.000000 0 0 1
1.864038 -0.512903 27.084225 27.153139 -0.268512 0.071261 0.047573 -0.015629 -175153.000000 0 0 1
2.759638 -1.505903 27.776515 27.953857 -0.499527 0.112702 0.040511 -0.019686 -639716.000000 0 0 1
2.008838 -2.537903 28.487985 28.671269 -0.901239 0.113132 0.042249 -0.021625 -11008.500000 0 0 1
2.763238 -3.509903 29.140915 29.481313 -0.903867 0.152109 0.054016 -0.014350 -431802.000000 0 0 1
3.475938 -4.568603 28.319905 28.895870 -0.920399 0.199995 0.047061 -0.010091 -278717.000000 0 0 1
4.553238 -4.162003 27.520155 28.203070 -0.740537 0.220511 0.054131 -0.010089 -277204.000000 0 0 1
4.793338 -5.052003 26.425145 27.327406 -0.811665 0.257682 0.042782 -0.009662 -627186.000000 0 0 1
5.687638 -4.336403 25.340505 26.330492 -0.651406 0.275087 0.036454 -0.005421 -215239.000000 0 0 1
6.918238 -3.978103 25.918915 27.119688 -0.521847 0.298689 0.037535 -0.006301 -98660.300000 0 0 1
7.907738 -5.004503 25.874935 27.515261 -0.564233 0.347036 0.058386 0.002379 -447103.000000 0 0 1
8.769438 -5.059003 24.621995 26.622156 -0.523254 0.390107 0.033265 0.008416 -398359.000000 0 0 1
8.067738 -5.604703 23.512245 25.481890 -0.607164 0.395759 0.032245 0.001614 426565.000000 0 0 1
8.937238 -5.674103 22.371845 24.750133 -0.565675 0.441976 0.030575 0.000903 511346.000000 0 1 0
9.134338 -4.308803 21.649445 23.889336 -0.440765 0.436495 0.028337 0.002667 893213.000000 0 1 0
7.975338 -3.861803 20.916445 22.716012 -0.450943 0.400721 0.027325 -0.012991 353000.000000 0 1 0
8.238338 -2.623903 20.255845 22.023949 -0.308341 0.403432 0.032576 -0.008493 610776.000000 0 1 0
6.909338 -1.830903 20.054845 21.290560 -0.259036 0.342377 0.028564 -0.007248 685308.000000 0 1 0
6.280538 -1.349903 21.230245 22.180863 -0.211713 0.293827 0.032825 -0.004466 252462.000000 0 1 0
5.065138 -0.675903 20.945545 21.559877 -0.132658 0.239293 0.014444 -0.003574 443229.000000 0 1 0
4.275338 -0.294903 22.262945 22.671660 -0.068869 0.190169 0.016018 -0.011823 -534626.000000 0 1 0
3.068138 0.342097 22.029745 22.245003 0.111041 0.139229 0.017634 -0.013538 -815571.000000 0 1 0
2.606338 0.874097 23.209145 23.371381 0.323586 0.117896 0.031322 -0.015048 -504315.000000 0 1 0
1.183238 1.436097 23.259545 23.333856 0.881636 0.079830 0.031611 -0.019237 -346358.000000 0 1 0
0.926338 2.783097 22.929845 23.116693 1.249486 0.127230 0.040222 -0.019262 -408886.000000 0 1 0
-0.468662 2.891097 22.894345 23.080925 -1.410089 0.127237 0.038877 -0.015055 -507660.000000 0 1 0
-0.974962 4.244097 22.481645 22.899503 -1.344992 0.191328 0.039042 -0.012112 -444262.000000 0 1 0
-0.923662 5.114097 23.547745 24.114382 -1.392112 0.217212 0.044969 -0.009340 -9707.210000 0 1 0
-1.666562 6.287097 23.243645 24.136529 -1.311679 0.272850 0.046549 -0.006899 -101173.000000 0 1 0
-1.435462 7.502097 24.126305 25.306533 -1.381740 0.306608 0.063006 -0.009524 772907.000000 0 0 1
-0.221862 8.247097 23.909775 25.293105 -1.543901 0.332259 0.051299 -0.008150 587130.000000 0 0 1
-0.235262 9.441097 24.539935 26.294449 -1.545883 0.367372 0.064071 -0.008546 -704048.000000 0 0 1
0.581038 10.536097 23.769625 26.006576 1.515705 0.417797 0.074832 -0.017320 2531470.000000 0 0 1
2.045238 10.351097 23.679125 25.923525 1.375722 0.419182 0.063877 -0.015451 1939600.000000 0 0 1
2.647338 10.529097 24.996405 27.252349 1.324472 0.409751 0.085903 -0.018832 -580237.000000 0 0 1
3.945638 11.391097 24.947545 27.707492 1.237351 0.450132 0.069289 -0.016983 558251.000000 0 0 1
5.120638 10.946097 24.307945 27.146163 1.133235 0.461362 0.041117 -0.013593 96070.100000 0 0 1
4.987938 10.572097 22.977345 25.779975 1.129960 0.470622 0.050279 -0.017714 -300090.000000 0 0 1
6.367238 10.226097 22.286445 25.333780 1.013892 0.495539 0.048037 -0.017347 1089860.000000 0 0 1
7.173738 11.347097 21.919045 25.703378 1.007030 0.549532 0.038550 -0.016793 30553.800000 0 0 1
8.391238 10.827097 21.431445 25.435128 0.911473 0.568717 0.041504 -0.014527 392490.000000 0 0 1
9.335238 11.894097 20.766145 25.687526 0.905354 0.629344 0.033119 -0.020498 111172.000000 0 0 1
8.902038 12.236097 19.445145 24.639034 0.941837 0.661290 0.031582 -0.026429 696728.000000 0 1 0
9.773038 13.171097 18.752045 24.912432 0.932431 0.718615 0.045964 -0.027932 395021.000000 0 1 0
11.126238 12.651097 18.221245 24.816470 0.849441 0.746250 0.042366 -0.023926 25198.300000 0 1 0
12.091138 12.622097 19.291645 26.032297 0.806880 0.736140 0.045886 -0.022517 -297802.000000 0 0 1
13.339838 12.585097 18.642945 26.151393 0.756294 0.777192 0.048302 -0.017528 -444894.000000 0 0 1
14.523138 12.389097 19.593045 27.355048 0.706267 0.772383 0.043114 -0.007160 -145552.000000 0 0 1
14.863438 13.513097 20.375245 28.612518 0.737848 0.778298 0.033598 -0.011582 -52356.800000 0 0 1
16.062138 13.264097 21.080845 29.636642 0.690275 0.779436 0.024236 -0.003774 248922.000000 0 0 1
16.851938 14.514097 21.525945 30.951787 0.711002 0.801727 0.021781 0.003555 -388776.000000 0 0 1
16.404838 15.130097 22.704745 31.836205 0.744997 0.776781 0.019579 0.003196 -97831.400000 0 0 1
17.060738 16.311097 23.026745 32.975015 0.762939 0.797764 0.006573 0.017495 -444759.000000 0 0 1
-21.129762 12.985811 -24.566858 34.908862 -0.551067 2.351448 0.015277 0.003632 124883.000000 0 0 1
-20.870462 12.715711 -25.892118 35.604316 -0.547207 2.385057 0.012475 -0.019307 -21708.900000 0 0 1
-21.615262 13.663211 -26.619918 36.912368 -0.563695 2.376279 0.009462 -0.015130 -45058.700000 0 0 1
-21.302062 13.668611 -28.126098 37.837629 -0.570488 2.408841 0.006382 -0.008080 1291250.000000 0 0 1
-19.955462 14.069311 -28.497578 37.527030 -0.614098 2.433168 0.012433 -0.018518 870726.000000 0 0 1
-20.028062 14.698411 -29.781518 38.782798 -0.633111 2.446361 0.015662 -0.018675 331030.000000 0 0 1
-18.601462 15.171611 -30.163308 38.548895 -0.684189 2.469417 0.019524 -0.022936 17804.200000 0 0 1
-17.844062 14.060211 -30.692838 38.185736 -0.667349 2.504414 0.020581 -0.021899 581750.000000 0 0 1
-16.427562 14.279711 -30.662888 37.603027 -0.715566 2.524280 0.026014 -0.018311 1154610.000000 0 0 1
-15.706462 13.991811 -29.288458 36.059361 -0.727726 2.518759 0.051523 -0.021369 -105252.000000 0 0 1
-16.235462 14.683711 -28.102328 35.622219 -0.735253 2.479811 0.056877 -0.030600 -100356.000000 0 0 1
-16.982962 13.808811 -27.294518 34.987069 -0.682677 2.465672 0.040188 -0.023028 -313229.000000 0 0 1
-17.673162 14.459211 -26.072098 34.657809 -0.685708 2.422300 0.033801 -0.019808 -98940.000000 0 0 1
-16.810562 14.764011 -24.965458 33.523799 -0.720672 2.410894 0.103394 -0.025060 295733.000000 0 0 1
-17.554562 15.189811 -23.855358 33.286200 -0.713305 2.369818 0.072252 -0.024050 -543682.000000 0 0 1
-16.693462 15.712911 -22.696758 32.260039 -0.755149 2.351186 0.083878 -0.012024 -231894.000000 0 0 1
-15.974062 16.829111 -23.142758 32.771587 -0.811458 2.354890 0.067419 -0.019946 -696823.000000 0 0 1
-15.177762 17.473611 -22.251458 32.106369 -0.855597 2.336514 0.069287 -0.014113 -685108.000000 0 0 1
-14.823962 18.914611 -22.698758 33.056709 -0.906055 2.327683 0.067560 -0.019910 21067.800000 0 0 1
-15.893562 19.837011 -22.666958 34.057353 -0.895320 2.299030 0.042052 -0.020044 -92784.200000 0 0 1
-16.786962 19.671511 -23.752958 35.113722 -0.864352 2.313739 0.026887 -0.016184 -821391.000000 0 0 1
-18.001862 20.561911 -23.607958 36.113639 -0.851686 2.283277 0.006072 -0.012108 -566184.000000 0 0 1
-17.704362 21.926311 -23.753458 36.856944 -0.891530 2.271136 0.001744 -0.017105 516865.000000 0 0 1
-18.955462 22.594211 -23.888158 37.953287 -0.872751 2.251589 0.006806 -0.021201 563226.000000 0 0 1
-18.693962 24.064811 -24.280758 38.963246 -0.910352 2.243587 0.008468 -0.023392 370951.000000 0 0 1
-18.084662 24.798311 -23.207758 38.478712 -0.940695 2.218219 0.010261 -0.010307 576072.000000 0 0 1
-17.057062 25.727911 -23.596258 38.854243 -0.985351 2.223456 0.012695 -0.001396 586805.000000 0 0 1
-16.036262 25.967811 -22.423158 37.871981 -1.017577 2.204431 0.008663 -0.007003 637913.000000 0 0 1
-15.039462 24.924611 -22.204858 36.612530 -1.027882 2.222425 0.014061 -0.017531 670808.000000 0 0 1
-15.532962 23.652011 -21.701858 35.660359 -0.989705 2.225055 0.018138 -0.005114 -801303.000000 0 0 1
-14.508962 22.507111 -21.625458 34.420059 -0.998199 2.250138 0.060824 -0.015071 360596.000000 0 0 1
-13.519962 22.838211 -20.628258 33.613960 -1.036288 2.231511 0.066331 -0.020352 384457.000000 0 0 1
-12.732862 21.691711 -20.290158 32.316352 -1.039996 2.249598 0.061347 -0.017790 443450.000000 0 0 1
-11.762962 21.890711 -19.066458 31.322521 -1.077717 2.225235 0.055915 -0.020613 368729.000000 0 0 1
-12.360662 21.880211 -17.769158 30.777794 -1.056567 2.186260 0.070380 -0.017295 -181113.000000 0 0 1
-13.323462 22.890811 -17.592858 31.796423 -1.043684 2.157113 0.055481 -0.019689 13759.700000 0 0 1
-13.992062 22.856111 -16.161058 31.294719 -1.021469 2.113455 0.055094 -0.020065 291370.000000 0 0 1
-13.114062 23.251211 -15.148458 30.693211 -1.057256 2.086957 0.050486 -0.029548 85803.300000 0 0 1
-13.913262 23.576211 -14.012958 30.753530 -1.037658 2.043903 0.051472 -0.030988 559792.000000 0 0 1
-13.008962 23.946611 -12.800258 30.108469 -1.073151 2.009911 0.063329 -0.027333 -232775.000000 0 0 1
-12.693462 25.328311 -12.789158 31.083917 -1.106223 1.994829 0.049184 -0.032640 -15798.700000 0 0 1
-11.843762 25.525411 -11.698758 30.474288 -1.136362 1.964801 0.028815 -0.024488 -324826.000000 0 0 1
-11.357762 26.938811 -11.376458 31.370720 -1.171798 1.941902 0.036304 -0.020098 160841.000000 0 0 1
-10.637462 27.436811 -12.513458 31.976880 -1.200931 1.972871 0.038895 -0.019659 130333.000000 0 0 1
-10.582762 28.840811 -12.445558 33.146329 -1.219113 1.955704 0.020704 -0.023694 -979023.000000 0 0 1
-10.099062 29.539711 -13.722858 34.101355 -1.241373 1.984948 0.047405 -0.029483 -463787.000000 0 0 1
-8.780862 29.474011 -14.148358 33.852576 -1.281250 2.001973 0.043278 -0.022457 -650257.000000 0 0 1
-8.158562 28.190911 -14.192958 32.599535 -1.289089 2.021249 0.044827 -0.022274 -936907.000000 0 0 1
-6.844762 28.176211 -14.990058 32.641254 -1.332486 2.047932 0.053812 -0.023652 -258138.000000 0 0 1
-5.863062 28.863011 -14.273458 32.728894 -1.370389 2.022070 0.046911 -0.023447 -834848.000000 0 0 1
-4.586362 28.540811 -14.821658 32.485291 -1.411464 2.044581 0.058249 -0.027758 831483.000000 0 0 1
-3.413162 29.374111 -14.222758 32.814249 -1.455119 2.019094 0.037226 -0.019541 116300.000000 0 0 1
-3.520462 30.794811 -14.434358 34.191589 -1.456970 2.006624 0.025127 -0.012914 300773.000000 0 0 1
-4.540362 31.402611 -13.622158 34.529727 -1.427206 1.976326 0.023017 -0.014383 213450.000000 0 0 1
-4.632462 32.920611 -13.807858 35.998379 -1.430998 1.964454 0.025789 -0.022422 580308.000000 0 0 1
-3.580262 33.641911 -13.141758 36.294659 -1.464773 1.941300 0.001224 -0.023373 475183.000000 0 0 1
-3.511362 -33.832303 -13.621858 36.640270 1.467379 1.951714 0.008103 -0.018365 462068.000000 0 0 1
-2.577662 -32.958203 -12.733758 35.426488 1.492745 1.938466 0.014300 -0.025469 -30891.600000 0 0 1
-3.208062 -32.614603 -11.559458 34.750900 1.472749 1.909895 0.021586 -0.022375 216548.000000 0 0 1
-2.264262 -32.105903 -10.627558 33.894850 1.500388 1.889720 0.016675 -0.022991 124377.000000 0 0 1
-2.834562 -32.120103 -9.215858 33.536067 1.482776 1.849183 0.012913 -0.021887 -269333.000000 0 0 1
-1.980762 -31.341103 -8.404358 32.508789 1.507680 1.832292 0.020663 -0.025078 -24390.300000 0 0 1
-2.224962 -31.504403 -7.027058 32.355176 1.500290 1.789726 0.014964 -0.028208 -187317.000000 0 0 1
-1.154362 -30.816603 -6.179858 31.451331 1.533355 1.768573 0.022742 -0.021250 105868.000000 0 0 1
-1.403862 -30.973703 -4.788458 31.373084 1.525503 1.724025 0.017414 -0.014580 316322.000000 0 0 1
-0.250162 -30.532603 -4.069158 30.803579 1.562603 1.703284 0.020292 -0.009788 457793.000000 0 0 1
-0.211562 -30.753303 -2.543958 30.859069 1.563917 1.653328 0.014112 -0.002625 -330600.000000 0 0 1
-0.119762 -31.993803 -1.917258 32.051422 1.567053 1.630650 0.015267 -0.005714 691129.000000 0 0 1
1.010238 -32.844603 -2.194658 32.933342 -1.540048 1.637485 0.007391 -0.007073 1039430.000000 0 0 1
2.419838 -32.498303 -1.631658 32.629091 -1.496473 1.620823 0.021421 -0.009028 -475388.000000 0 0 1
2.444038 -32.728803 -0.220158 32.820669 -1.496259 1.577504 0.015120 -0.007111 -79777.600000 0 0 1
3.651038 -32.373903 0.412642 32.581742 -1.458494 1.558131 0.028462 -0.006659 -63048.700000 0 0 1
4.056638 -30.871603 0.443542 31.140149 -1.440141 1.556552 0.022381 -0.007234 -371712.000000 0 0 1
4.391138 -30.282003 -0.844958 30.610386 -1.426792 1.598403 0.029579 -0.020985 146411.000000 0 0 1
4.354538 -28.903103 -0.741258 29.238687 -1.421261 1.596151 0.035025 -0.009439 -401217.000000 0 0 1
3.841638 -28.141103 -1.966658 28.470118 -1.435122 1.639929 0.034089 -0.005716 642297.000000 0 0 1
2.444538 -28.363803 -2.245458 28.557366 -1.484824 1.649507 0.030885 -0.007859 925449.000000 0 0 1
1.867738 -27.372503 -3.107958 27.611624 -1.502668 1.683595 0.024461 -0.001710 61280.800000 0 0 1
2.360438 -27.209303 -4.577958 27.692518 -1.484262 1.736873 0.024591 -0.010197 -176270.000000 0 0 1
2.050038 -28.339703 -5.342258 28.911609 -1.498584 1.756643 0.016758 -0.014007 -134288.000000 0 0 1
2.704738 -28.292803 -6.582058 29.173992 -1.475488 1.798369 0.024582 -0.014428 -338784.000000 0 0 1
2.138938 -29.202203 -7.715758 30.279971 -1.497681 1.828452 0.014750 -0.015472 1627840.000000 0 0 1
0.830638 -28.707203 -8.185758 29.863022 -1.541870 1.848461 0.017778 -0.015266 1198560.000000 0 0 1
0.664038 -29.028403 -9.528758 30.559554 -1.547925 1.887893 0.007433 -0.009349 48163.000000 0 0 1
-0.709362 -28.450303 -9.929758 30.141716 1.545868 1.906502 0.012867 -0.015167 -607772.000000 0 0 1
-0.730762 -27.026203 -9.751558 28.740956 1.543764 1.916960 0.005168 -0.011606 -199343.000000 0 0 1
-1.988162 -26.394403 -9.894758 28.258159 1.495613 1.928534 0.019845 -0.012185 740114.000000 0 0 1
-3.115362 -26.790803 -8.880158 28.395595 1.455031 1.888862 0.021932 -0.016439 -257444.000000 0 0 1
-2.920662 -26.415503 -7.519758 27.619845 1.460677 1.846537 0.022983 -0.017255 -155218.000000 0 0 1
-1.879862 -27.175503 -6.913358 28.104027 1.501731 1.819339 0.011448 -0.012849 383817.000000 0 0 1
-1.562262 -26.802303 -5.427858 27.390979 1.512574 1.770279 0.026096 -0.004698 -86491.500000 0 0 1
-2.555462 -27.223903 -4.534558 27.717025 1.477202 1.735137 0.035207 -0.011365 -187106.000000 0 0 1
-2.116662 -27.004503 -3.208858 27.276734 1.492574 1.688710 0.033303 -0.000246 342708.000000 0 0 1
-3.218262 -27.222403 -2.124258 27.494161 1.453121 1.648136 0.023152 -0.001341 487688.000000 0 0 1
-4.262862 -26.264003 -2.083858 26.689180 1.409891 1.648955 0.023082 0.002803 -105291.000000 0 0 1
-5.019362 -26.384403 -0.890558 26.872361 1.382803 1.603943 0.031554 -0.001825 852061.000000 0 0 1
-6.118562 -25.223903 -0.879458 25.970282 1.332823 1.604667 0.037072 -0.005404 758561.000000 0 0 1
-5.556362 -23.963003 -0.559258 24.605110 1.342950 1.593528 0.011637 -0.000513 98455.200000 0 1 0
-6.409462 -23.277403 0.346542 24.146196 1.302104 1.556444 0.029040 -0.000505 7774.630000 0 1 0
-5.816362 -21.942203 0.598642 22.707900 1.311679 1.544431 0.011363 -0.002469 223069.000000 0 1 0
-4.814162 -21.769103 1.574442 22.350590 1.353153 1.500295 0.007054 -0.007006 -115391.000000 0 1 0
-4.256562 -20.514503 1.733442 21.023034 1.366209 1.488248 -0.003962 -0.001561 -427150.000000 0 1 0
-3.229362 -20.396503 2.847442 20.845960 1.413771 1.433774 0.001615 0.001938 -673411.000000 0 1 0
-3.656562 -20.302603 4.224542 21.057371 1.392604 1.368805 -0.002633 0.013296 76.877400 0 1 0
-2.671162 -20.253003 5.279842 21.099667 1.439663 1.317875 0.005481 0.010161 385883.000000 0 1 0
-1.803662 -21.501403 5.518042 22.271334 1.487106 1.320424 0.003687 -0.005955 124817.000000 0 1 0
-0.981762 -21.866703 4.425242 22.331577 1.525929 1.371315 0.023905 -0.005966 -370385.000000 0 1 0
-0.205062 -22.994903 4.807442 23.492959 1.561879 1.364707 0.026558 -0.009328 -857950.000000 0 1 0
0.865938 -23.308403 3.727942 23.620522 -1.533662 1.412307 0.024608 -0.014864 -56896.700000 0 1 0
1.954238 -22.443903 3.582842 22.811939 -1.483943 1.413083 0.001252 -0.021744 -544932.000000 0 1 0
2.868238 -22.658103 4.631642 23.303830 -1.444878 1.370714 0.024853 -0.026604 -1500170.000000 0 1 0
4.094538 -21.755103 4.519942 22.593796 -1.384762 1.369385 0.032859 -0.027844 -553758.000000 0 1 0
4.983938 -22.105803 3.490942 22.927992 -1.349046 1.417945 0.017288 -0.009982 -312498.000000 0 1 0
6.036938 -21.149403 3.557142 22.279926 -1.292748 1.410453 0.037002 -0.011667 204085.000000 0 1 0
6.660838 -20.711603 2.235542 21.870869 -1.259643 1.468402 0.044159 -0.007171 -303754.000000 0 1 0
7.452638 -21.720303 1.639542 23.021761 -1.240265 1.499519 0.046033 -0.008659 -349381.000000 0 1 0
7.034338 -22.037403 0.358942 23.135641 -1.261819 1.555281 0.046443 -0.009283 55023.600000 0 1 0
8.057638 -22.908703 -0.431458 24.288276 -1.232583 1.588561 0.040597 -0.002201 28252.100000 0 1 0
9.189538 -22.156103 -0.739358 23.997649 -1.177628 1.601611 0.040919 -0.000318 -1109960.000000 0 1 0
10.139438 -22.903003 -1.434658 25.088124 -1.154019 1.628012 0.036347 0.000638 517415.000000 0 0 1
11.453138 -22.200003 -1.909558 25.053162 -1.094504 1.647091 0.032208 0.007033 820650.000000 0 0 1
11.197538 -21.207203 -2.869558 24.152943 -1.084995 1.689885 0.031161 0.011619 -630453.000000 0 1 0
12.415738 -21.030903 -3.524858 24.675373 -1.037498 1.714136 0.023524 0.017472 -181399.000000 0 1 0
12.428138 -19.753903 -4.372558 23.744358 -1.009219 1.756005 0.019877 -0.000420 -142956.000000 0 1 0
12.590738 -18.570403 -3.635158 22.728856 -0.974988 1.731422 0.038322 -0.001310 27889.700000 0 1 0
12.573438 -17.398603 -4.482458 21.929322 -0.945017 1.776652 0.034930 -0.008980 -1415390.000000 0 1 0
13.122838 -16.180903 -3.731558 21.164948 -0.889379 1.748031 0.049584 -0.009546 -109935.000000 0 1 0
14.452038 -16.108103 -3.286358 21.889096 -0.839536 1.721503 0.033717 -0.005549 337696.000000 0 1 0
15.395838 -16.207503 -4.364258 22.776341 -0.811075 1.763602 0.028645 -0.004781 -1771630.000000 0 1 0
16.819738 -15.831103 -4.109458 23.460926 -0.755128 1.746866 0.023686 -0.003029 -1035840.000000 0 1 0
17.465838 -16.833803 -3.323858 24.484290 -0.766973 1.706972 0.023265 -0.001502 563967.000000 0 1 0
18.871838 -16.623603 -3.275358 25.361751 -0.722144 1.700304 0.015158 0.005545 -206396.000000 0 0 1
19.602838 -17.522503 -2.307858 26.393855 -0.729421 1.658347 0.018144 -0.002757 162171.000000 0 0 1
21.002538 -17.271503 -2.517458 27.308405 -0.688223 1.663114 0.019329 -0.004263 421866.000000 0 0 1
21.643338 -18.095603 -1.594758 28.256471 -0.696358 1.627265 0.014547 0.000728 826031.000000 0 0 1
23.230638 -18.034203 -1.584158 29.451733 -0.660129 1.624611 0.030349 -0.005853 1128940.000000 0 0 1
23.729538 -16.783303 -1.189558 29.089264 -0.615592 1.611701 0.041923 -0.007194 -319461.000000 0 0 1
25.095438 -16.871803 -0.917958 30.253618 -0.591896 1.601143 0.059414 -0.006572 -414484.000000 0 0 1
25.819738 -15.610603 -0.404258 30.174711 -0.543795 1.584194 0.060856 -0.014705 -22838.900000 0 0 1
25.258538 -15.133703 0.807142 29.456310 -0.539796 1.543392 0.066698 -0.015616 730019.000000 0 0 1
26.115838 -14.208303 1.521842 29.769596 -0.498263 1.519653 0.069059 -0.024333 496290.000000 0 0 1
25.327638 -13.485803 2.640742 28.815441 -0.489272 1.479024 0.084480 -0.026983 347548.000000 0 0 1
24.742538 -14.210803 3.741242 28.777369 -0.521343 1.440421 0.073094 -0.023749 467882.000000 0 0 1
25.714538 -14.723803 4.638042 29.992320 -0.520019 1.415532 0.079895 -0.024454 305407.000000 0 0 1
25.019038 -15.162303 5.933042 29.850438 -0.544842 1.370705 0.061459 -0.017550 522861.000000 0 0 1
24.226038 -16.342303 5.675042 29.768740 -0.593458 1.378985 0.064898 -0.018230 214520.000000 0 0 1
23.450238 -16.639103 6.815842 29.550450 -0.617106 1.338050 0.051699 -0.012320 -30245.300000 0 0 1
22.784238 -18.038903 6.799642 29.845580 -0.669676 1.340950 0.041955 -0.007897 -130498.000000 0 0 1
23.749338 -19.043803 6.731342 31.177050 -0.675878 1.353176 0.041920 -0.004507 -268248.000000 0 0 1
23.126238 -20.264303 7.010842 31.537545 -0.719536 1.346622 0.012852 0.007326 23013.700000 0 0 1
1.920538 23.448611 -2.934558 23.709438 1.489075 1.694886 0.001590 -0.003981 -6224.670000 0 1 0
2.611338 24.640611 -2.653358 24.920255 1.465213 1.677473 0.005170 -0.005800 -240292.000000 0 1 0
3.150838 25.250511 -3.795458 25.727837 1.446655 1.718860 0.016640 -0.006259 -157620.000000 0 0 1
4.263638 26.223711 -3.411158 26.786146 1.409620 1.698491 0.007653 -0.003299 344958.000000 0 0 1
5.392538 25.639611 -2.736558 26.343080 1.363497 1.674866 0.011899 -0.010727 452367.000000 0 0 1
5.885138 26.372311 -1.629558 27.070077 1.351238 1.631031 0.001294 -0.006687 -631463.000000 0 0 1
7.062938 25.735111 -0.927458 26.702831 1.302944 1.605536 -0.001863 -0.017901 -73482.200000 0 0 1
8.188138 25.582511 -1.797858 26.921047 1.261032 1.637629 0.005581 -0.023068 166384.000000 0 0 1
9.042538 24.549411 -1.294058 26.193809 1.217877 1.620220 0.003525 -0.017449 387017.000000 0 0 1
10.185938 24.284111 -2.311758 26.435120 1.173637 1.658358 0.014230 -0.013271 -595150.000000 0 0 1
11.263238 25.179211 -2.330458 27.681839 1.150171 1.655083 0.016528 -0.013846 357840.000000 0 0 1
12.137638 25.084711 -3.481958 28.083607 1.120139 1.695102 0.030520 -0.015879 384164.000000 0 0 1
13.099438 23.886611 -3.514858 27.468522 1.069182 1.699108 0.032032 -0.014531 -985318.000000 0 0 1
12.568738 22.599411 -3.759358 26.131194 1.063241 1.715162 0.031510 -0.018271 -235739.000000 0 0 1
12.344638 22.319511 -5.116558 26.014031 1.065586 1.768772 0.043793 -0.024263 -610712.000000 0 0 1
11.497338 21.049711 -5.288258 24.561042 1.070876 1.787806 0.044028 -0.024171 -322862.000000 0 1 0
10.168038 21.429211 -5.025958 24.245831 1.127761 1.779602 0.034900 -0.020037 -761901.000000 0 1 0
9.328838 20.308011 -4.922858 22.883991 1.140180 1.787613 0.017847 -0.013768 1054690.000000 0 1 0
7.836038 20.851511 -4.792058 22.784925 1.211323 1.782696 0.009264 -0.006898 1136380.000000 0 1 0
7.535238 21.430111 -3.519958 22.987378 1.232680 1.724527 0.010518 -0.005256 -464299.000000 0 1 0
6.224038 21.904311 -3.506358 23.039792 1.293947 1.723577 0.017735 0.004326 -92540.800000 0 1 0
5.598938 22.501511 -2.207358 23.292456 1.326924 1.665706 0.015402 -0.003263 256278.000000 0 1 0
5.146138 21.523211 -1.248558 22.165068 1.336105 1.627156 0.010081 -0.006258 -225370.000000 0 1 0
4.454638 22.165611 -0.226158 22.609937 1.372468 1.580799 0.013886 -0.001688 52708.000000 0 1 0
3.996238 21.247811 0.956942 21.641514 1.384890 1.526564 0.013127 -0.006644 939.203000 0 1 0
3.284338 21.882011 1.992342 22.216631 1.421815 1.480998 0.006644 -0.002079 84529.100000 0 1 0
3.086438 20.941411 3.018342 21.381749 1.424465 1.429159 0.013409 -0.005372 400293.000000 0 1 0
2.072538 21.389211 4.133842 21.883382 1.474201 1.380751 0.013278 -0.012445 304385.000000 0 1 0
0.744938 21.591611 3.730142 21.924109 1.536309 1.399826 0.016121 -0.008104 -406929.000000 0 1 0
-0.029862 22.222711 4.722942 22.719066 -1.569453 1.361385 0.013883 -0.008740 358384.000000 0 1 0
-1.407562 22.652311 4.168042 23.075550 -1.508738 1.389174 0.012613 0.001417 370766.000000 0 1 0
-2.445762 22.803811 5.120042 23.499157 -1.463952 1.351153 0.019367 -0.014326 215651.000000 0 1 0
-3.694562 22.863511 4.443242 23.582458 -1.410589 1.381250 0.019367 -0.016496 291475.000000 0 1 0
-4.915062 23.146311 5.333942 24.256143 -1.361557 1.349084 0.033950 -0.028392 -78114.500000 0 1 0
-5.206362 24.512911 5.650042 25.688752 -1.361514 1.349041 0.043098 -0.021982 -43364.400000 0 0 1
-6.272562 24.567311 6.568742 26.192483 -1.320816 1.317303 0.059723 -0.032571 -24169.600000 0 0 1
-6.510162 26.052811 7.018642 27.755945 -1.325928 1.315151 0.059599 -0.034856 -195909.000000 0 0 1
-5.359662 26.571711 7.663042 28.169203 -1.371761 1.295288 0.050942 -0.038033 249562.000000 0 0 1
-5.642362 27.824311 8.332542 29.588169 -1.370724 1.285317 0.067826 -0.040448 67324.500000 0 0 1
-5.930762 29.128411 7.588442 30.679353 -1.369934 1.320855 0.068056 -0.040423 415119.000000 0 0 1
-7.182162 29.090811 6.919242 30.752799 -1.328749 1.343858 0.067286 -0.038400 -220085.000000 0 0 1
-7.313262 30.275111 6.188042 31.754653 -1.333777 1.374671 0.080434 -0.038054 439010.000000 0 0 1
-8.764762 30.384011 5.601942 32.115275 -1.289954 1.395467 0.065361 -0.033275 1172320.000000 0 0 1
-9.793362 30.812911 6.477442 32.974273 -1.263060 1.373071 0.069103 -0.024890 129287.000000 0 0 1
-10.308562 29.905611 7.404342 32.487479 -1.238848 1.340862 0.050695 -0.022204 -180277.000000 0 0 1
-11.244562 30.398911 8.548042 33.520187 -1.216504 1.312936 0.039146 -0.019290 290575.000000 0 0 1
-10.550562 30.996011 9.630342 34.129321 -1.242713 1.284739 0.057619 -0.021533 -510239.000000 0 0 1
-11.411862 31.366711 10.652342 35.036745 -1.221862 1.261873 0.050228 -0.010492 -741343.000000 0 0 1
-10.844262 31.859211 11.964342 35.717682 -1.242717 1.229223 0.052967 -0.012896 -385841.000000 0 0 1
-10.193462 33.113711 11.795442 36.599958 -1.272170 1.242659 0.051243 -0.016993 -200653.000000 0 0 1
-9.329462 33.323711 12.846742 36.912699 -1.297820 1.215327 0.054957 -0.022975 -297345.000000 0 0 1
-8.879562 -34.052003 12.766942 37.435015 1.315712 1.222770 0.057752 -0.026167 -258635.000000 0 0 1
-9.933162 -33.292703 13.275442 37.192864 1.280846 1.205811 0.046305 -0.014724 -108653.000000 0 0 1
-9.613362 -31.918603 13.175142 35.844083 1.278254 1.194404 0.034362 -0.011768 -107806.000000 0 0 1
-10.523462 -30.875003 13.849042 35.437339 1.242304 1.169292 0.054050 -0.011568 -177869.000000 0 0 1
-10.695062 -30.922703 15.290342 36.116374 1.237811 1.133642 0.054083 -0.021939 -336766.000000 0 0 1
-9.543362 -30.508303 15.960142 35.728958 1.267627 1.107722 0.062348 -0.023139 -164493.000000 0 0 1
-9.518762 -30.844003 17.475542 36.706320 1.271459 1.074592 0.059441 -0.033193 -89431.100000 0 0 1
-10.365262 -30.043003 18.248742 36.647473 1.238570 1.049559 0.090462 -0.031344 123494.000000 0 0 1
-11.133662 -30.728903 19.227142 37.919743 1.223189 1.039040 0.087890 -0.032422 6064.040000 0 0 1
-11.227262 -29.911303 20.547042 37.985765 1.211717 0.999273 0.078388 -0.032454 568731.000000 0 0 1
-10.022462 -29.911103 21.319242 38.074058 1.247479 0.976481 0.063211 -0.026822 737639.000000 0 0 1
-10.243062 -29.036503 22.450942 38.106215 1.231660 0.940768 0.050624 -0.023058 650624.000000 0 0 1
-8.973062 -28.924503 23.366042 38.250681 1.269987 0.913642 0.070280 -0.024507 345837.000000 0 0 1
-8.736662 -30.176703 23.949442 39.503651 1.288985 0.919448 0.070991 -0.010382 183716.000000 0 0 1
-7.583662 -30.156203 24.772842 39.756788 1.324426 0.898084 0.080018 -0.011347 123446.000000 0 0 1
-7.592262 -31.327103 25.701242 41.226007 1.333026 0.897683 0.080442 -0.015722 -253800.000000 0 0 1
-7.402762 -32.586303 25.144442 41.819983 1.347414 0.925727 0.101464 -0.017360 95757.800000 0 0 1
-7.624862 -33.611303 26.069642 43.214400 1.347718 0.923210 0.095985 -0.020171 -323082.000000 0 0 1
-7.365762 33.759811 25.566842 42.984214 -1.355981 0.933784 0.078314 -0.020362 -362733.000000 0 0 1
-6.032962 33.489811 25.212442 42.351284 -1.392565 0.933136 0.076998 -0.013274 -183404.000000 0 0 1
-5.724862 32.278511 24.556842 40.959917 -1.395263 0.927878 0.071637 -0.014891 133130.000000 0 0 1
-6.569762 31.853111 23.263242 39.987008 -1.367397 0.949893 0.065886 -0.020750 261226.000000 0 0 1
-7.778262 31.216911 23.588642 39.892617 -1.326601 0.938122 0.059679 -0.028220 -217130.000000 0 0 1
-8.690462 31.275511 22.514642 39.504314 -1.299766 0.964377 0.041189 -0.018859 -171365.000000 0 0 1
-9.813162 30.237311 22.632242 39.023217 -1.256982 0.952106 0.038441 -0.024441 -227163.000000 0 0 1
-9.346262 28.917811 22.421742 37.766743 -1.258193 0.935159 0.035194 -0.018055 -505899.000000 0 0 1
-10.167862 27.916111 22.878142 37.498054 -1.221502 0.914590 0.021318 -0.013362 -823578.000000 0 0 1
-9.551362 26.498011 22.619942 36.125266 -1.224837 0.894187 0.007074 -0.011787 -42350.600000 0 0 1
-8.296562 26.310011 23.230042 36.065003 -1.265327 0.870929 0.009525 -0.016649 57217.500000 0 0 1
-7.799862 24.983811 22.994542 34.839311 -1.268188 0.849955 0.021885 -0.011455 677319.000000 0 0 1
-6.403762 24.771311 23.680542 34.862502 -1.317819 0.824049 0.029578 -0.015760 442794.000000 0 0 1
-5.349262 25.311111 22.929642 34.569284 -1.362521 0.845583 0.019252 -0.011867 -802892.000000 0 0 1
-4.138262 25.023411 23.573142 34.626425 -1.406904 0.821963 0.048900 -0.016435 205346.000000 0 0 1
-2.896962 25.457211 22.714942 34.240773 -1.457486 0.845458 0.038401 -0.005767 276868.000000 0 0 1
-2.685262 24.577411 21.650042 32.863111 -1.461971 0.851581 0.041455 -0.005719 306310.000000 0 0 1
-1.761562 25.189211 20.742542 32.678012 -1.500977 0.883105 0.037877 -0.000573 226595.000000 0 0 1
-1.346762 24.271011 19.585642 31.216872 -1.515365 0.892579 0.023481 -0.008510 -236686.000000 0 0 1
-0.399562 23.364611 20.108542 30.828852 -1.553697 0.860229 0.037729 -0.007900 -276569.000000 0 0 1
-0.127162 22.353611 19.148142 29.433848 -1.565108 0.862490 0.025464 -0.006520 -531280.000000 0 0 1
1.072638 21.456611 19.422242 28.961356 1.520847 0.835744 0.027606 -0.004752 -364508.000000 0 0 1
2.311438 21.997111 19.012542 29.166631 1.466101 0.860763 0.020203 -0.009001 -476966.000000 0 0 1
3.299638 21.023411 19.301442 28.730072 1.415116 0.834133 0.025408 -0.005849 -63243.900000 0 0 1
4.706938 21.603911 19.092642 29.213236 1.356274 0.858516 0.019898 -0.017224 151072.000000 0 0 1
5.765238 20.667611 19.014042 28.669180 1.298761 0.845680 0.032142 -0.014953 954827.000000 0 0 1
7.070438 21.272611 18.937142 29.345023 1.249910 0.869345 0.065809 -0.020493 835238.000000 0 0 1
8.227338 20.305111 18.723142 28.819137 1.185828 0.863636 0.048124 -0.008784 -234182.000000 0 0 1
8.739538 19.537911 19.771642 29.138073 1.150180 0.825009 0.052202 -0.010640 683743.000000 0 0 1
9.869038 18.724911 19.353942 28.680921 1.085741 0.830100 0.043238 -0.013965 976563.000000 0 0 1
10.498938 17.889311 20.510042 29.170481 1.040077 0.791035 0.050230 -0.015833 -376094.000000 0 0 1
9.650838 16.872511 20.961842 28.587044 1.051230 0.747687 0.050183 -0.013973 -205613.000000 0 0 1
10.215438 16.086911 21.989742 29.097983 1.005027 0.714053 0.056366 -0.016178 187923.000000 0 0 1
9.238438 14.951911 22.470742 28.527927 1.017336 0.663770 0.044431 -0.012021 443509.000000 0 0 1
8.024438 15.501011 22.951742 28.834968 1.093111 0.650190 0.045600 0.003749 149673.000000 0 0 1
7.042738 14.671111 23.571442 28.643577 1.123243 0.604261 0.037188 -0.000935 407652.000000 0 0 1
7.418138 13.790711 24.768142 29.303128 1.077284 0.563784 0.044244 -0.006875 -483969.000000 0 0 1
7.754938 14.528711 25.938942 30.725416 1.080502 0.565692 0.048518 -0.014185 -202071.000000 0 0 1
7.989838 13.762611 27.087542 31.416268 1.044804 0.531172 0.049330 -0.013173 -1049020.000000 0 0 1
9.069738 14.426711 27.969442 32.751791 1.009557 0.547205 0.030402 -0.002081 -256863.000000 0 0 1
10.335338 14.300111 27.361242 32.556872 0.944968 0.572750 0.045497 0.000791 -237647.000000 0 0 1
10.640238 15.301511 26.473542 32.375906 0.963183 0.613405 0.043878 -0.003580 -70948.900000 0 0 1
11.919938 14.974311 25.576642 31.944945 0.898483 0.642421 0.043228 -0.003575 1006710.000000 0 0 1
11.657138 13.988811 24.627142 30.627958 0.876067 0.636680 0.048342 -0.011656 677878.000000 0 0 1
12.913938 13.530511 24.098142 30.505163 0.808710 0.660037 0.044385 -0.003729 345042.000000 0 0 1
12.754638 12.312711 23.109042 29.125786 0.767770 0.654386 0.039653 -0.010791 27265.200000 0 0 1
12.453938 11.096811 23.759242 29.030008 0.727836 0.612110 0.043995 -0.004225 -278428.000000 0 0 1
11.136238 11.046611 24.238642 28.871355 0.781358 0.574361 0.049741 -0.007837 -649480.000000 0 0 1
10.736838 9.710111 24.975642 28.867778 0.735226 0.525300 0.035589 -0.008108 -154215.000000 0 0 1
10.647338 8.678711 24.063042 27.707685 0.683884 0.518707 0.043027 -0.006442 89791.400000 0 0 1
10.308138 7.459511 24.687242 27.773403 0.626424 0.475900 0.042965 -0.005325 -100356.000000 0 0 1
10.319038 6.218911 23.800842 26.676534 0.542376 0.468600 0.063640 -0.018415 523548.000000 0 0 1
11.621138 5.762011 23.390242 26.746121 0.460299 0.506334 0.060604 -0.011191 672640.000000 0 0 1
11.545738 4.564711 22.694542 25.868569 0.376499 0.500585 0.067796 -0.012529 -193535.000000 0 0 1
11.696138 3.330111 23.618442 26.565392 0.277379 0.475491 0.065804 -0.010284 -1097710.000000 0 0 1
13.020138 3.151811 23.967642 27.457344 0.237503 0.509672 0.058593 -0.012660 -821323.000000 0 0 1
13.169938 2.049611 24.877842 28.223309 0.154389 0.491842 0.057870 -0.007455 -1185830.000000 0 0 1
14.594038 1.818611 25.267042 29.235538 0.123974 0.527123 0.058647 -0.008404 -1340660.000000 0 0 1
15.314338 1.070711 24.345642 28.781689 0.069802 0.562597 0.029779 -0.002873 68313.000000 0 0 1
16.715638 1.239111 24.470942 29.661000 0.073994 0.600557 0.042519 -0.008887 176453.000000 0 0 1
17.478838 0.215711 23.593342 29.363278 0.012341 0.637648 0.045932 -0.005787 -3005.460000 0 0 1
17.343838 -1.112489 24.136342 29.742383 -0.064055 0.624059 0.039470 0.000629 320461.000000 0 0 1
18.154738 -2.051389 23.422842 29.705761 -0.112517 0.662438 0.023712 0.008405 -141563.000000 0 0 1
17.984138 -3.581089 23.776342 30.026119 -0.196554 0.656955 0.028812 0.014781 -2265.620000 0 0 1
16.929738 -4.252089 23.102642 28.955627 -0.246071 0.647053 0.024594 0.013382 364957.000000 0 0 1
16.801138 -5.552389 23.567242 29.470700 -0.319178 0.644028 0.044019 0.007473 -210986.000000 0 0 1
15.766038 -6.307989 22.734342 28.376204 -0.380592 0.641538 0.056620 -0.000068 -622308.000000 0 0 1
16.188838 -6.703889 21.437742 27.687495 -0.392607 0.685227 0.043659 0.000314 231912.000000 0 0 1
15.385838 -7.707389 20.782642 26.982328 -0.464400 0.691592 0.047010 -0.010971 150739.000000 0 0 1
15.878438 -9.161889 21.019842 27.890836 -0.523337 0.717203 0.056464 -0.022035 -59637.000000 0 0 1
15.781438 -9.526389 22.368442 28.985394 -0.543095 0.689264 0.049711 -0.014268 -371099.000000 0 0 1
16.535538 -10.641089 22.737042 30.060437 -0.571812 0.713039 0.044147 -0.018717 -497532.000000 0 0 1
16.098738 -11.453989 23.927042 31.030091 -0.618392 0.690243 0.049074 -0.021734 -855835.000000 0 0 1
14.968738 -12.183189 23.601742 30.488283 -0.683165 0.685465 0.052627 -0.023594 -680518.000000 0 0 1
14.634438 -13.089489 24.637442 31.504048 -0.729730 0.672863 0.061758 -0.014633 438120.000000 0 0 1
13.565338 -14.180289 24.229542 31.179636 -0.807558 0.680759 0.051394 -0.015718 414675.000000 0 0 1
14.008338 -15.019789 23.168542 30.961410 -0.820228 0.725295 0.036612 -0.013883 -313615.000000 0 0 1
13.051238 -15.956989 22.868842 30.788703 -0.885235 0.733602 0.031645 -0.006804 -753082.000000 0 0 1
13.419138 -16.711789 21.557342 30.398621 -0.894244 0.782497 0.018974 -0.013052 324529.000000 0 0 1
14.480038 -17.665789 21.685942 31.496534 -0.884179 0.811352 0.016049 -0.009035 360473.000000 0 0 1
14.691138 -18.206089 20.429242 31.058737 -0.891841 0.852953 0.006317 -0.005460 -164726.000000 0 0 1
-23.318662 -32.500103 26.457505 47.958485 0.948425 0.986425 0.045590 -0.027762 -806422.000000 0 0 1
-23.919862 -33.316703 27.372095 49.309168 0.948122 0.982299 0.047628 -0.023599 -324978.000000 0 0 1
-25.108702 -33.826503 26.804745 49.931689 0.932255 1.004123 0.038660 -0.021241 106001.000000 0 0 1
-25.945772 34.093711 27.741045 51.040472 -0.920284 0.996182 0.022290 -0.017342 -707603.000000 0 0 1
-26.722082 -34.133703 28.737385 52.009774 0.906591 0.985390 0.035713 -0.015122 55757.600000 0 0 1
-26.088052 -33.430503 29.831425 51.846879 0.908142 0.957733 0.031861 -0.015405 84575.200000 0 0 1
-27.157812 -32.820303 30.802735 52.569264 0.879528 0.944750 0.021578 -0.013903 435750.000000 0 0 1
-27.705022 -31.606303 30.327895 51.829604 0.851080 0.945736 0.009530 -0.006687 -9832.480000 0 0 1
-28.677232 -31.151803 31.223295 52.609054 0.826735 0.935400 0.015833 0.006226 -600468.000000 0 0 1
-29.058232 -29.696003 31.020135 51.850576 0.796253 0.929468 0.010611 0.005858 -101077.000000 0 0 1
-29.671792 -29.368303 29.788695 51.286244 0.780258 0.951046 0.007237 0.009904 295026.000000 0 0 1
-30.085612 -28.028803 29.725885 50.738408 0.750021 0.944849 0.006779 0.014793 -47732.300000 0 0 1
-30.685502 -27.603203 28.334705 50.063883 0.732567 0.969186 -0.003611 0.003812 18427.300000 0 0 1
-29.776242 -27.587603 27.236665 48.882884 0.747263 0.979808 0.015527 0.002936 456914.000000 0 0 1
-28.919472 -26.438503 27.276855 47.742613 0.740611 0.962669 0.002216 0.010025 26472.900000 0 0 1
-27.926012 -26.265703 26.106105 46.381871 0.754770 0.972965 0.014995 0.016364 -135403.000000 0 0 1
-28.508362 -26.330703 24.808505 46.059684 0.745709 1.002002 0.006838 0.009030 -293621.000000 0 0 1
-27.538822 -26.349403 23.800495 44.934856 0.763330 1.012589 0.023863 0.019878 -338783.000000 0 0 1
-28.048922 -26.547703 22.336645 44.614440 0.757909 1.046436 0.002485 0.022192 72561.300000 0 0 1
-28.868872 -25.510003 21.803345 44.266893 0.723709 1.055787 -0.000689 0.015591 454213.000000 0 0 1
-29.298932 -25.851403 20.469745 44.110462 0.722968 1.088227 -0.000265 0.019050 227015.000000 0 0 1
-30.089992 -24.818403 19.602345 43.653324 0.689685 1.105099 0.000526 0.017899 -130647.000000 0 0 1
-31.288692 -24.386103 20.180145 44.507331 0.662047 1.100207 0.003800 0.007251 -47018.600000 0 0 1
-31.861932 -23.323803 19.406045 43.997467 0.631899 1.114004 0.012022 0.002914 33140.400000 0 0 1
-33.366582 -23.058503 19.644345 45.065770 0.604705 1.119754 0.012600 0.006914 -370529.000000 0 0 1
-34.193188 -23.987403 19.007245 45.889486 0.611749 1.143737 0.014864 -0.000977 -786365.000000 0 0 1
-35.485056 -23.453003 19.021245 46.594423 0.584018 1.150282 0.021017 -0.003181 -1001530.000000 0 0 1
34.890858 -24.448603 18.544045 46.464908 -0.611207 1.160264 0.031255 -0.008608 -571564.000000 0 0 1
34.657208 -25.550103 19.337445 47.200281 -0.635274 1.148683 0.028071 -0.006516 -88067.300000 0 0 1
34.023658 -26.602603 18.635445 47.038150 -0.663597 1.163447 0.028837 0.003088 -56867.200000 0 0 1
33.823468 -27.898903 19.485945 47.979973 -0.689704 1.152585 0.012928 0.003692 -195893.000000 0 0 1
32.758238 -27.999703 20.400245 47.678669 -0.707238 1.128662 0.011063 0.007857 -218384.000000 0 0 1
32.843498 -27.047603 21.463645 47.654551 -0.688925 1.103582 0.011904 -0.001463 -580808.000000 0 0 1
31.572028 -26.898703 22.304345 47.093704 -0.705642 1.077404 0.014841 -0.003343 136147.000000 0 0 1
30.487978 -26.213903 21.688545 45.684554 -0.710162 1.076121 0.018319 -0.001122 137071.000000 0 0 1
29.580128 -25.709303 22.657045 45.269127 -0.715502 1.046624 0.021097 0.000282 523807.000000 0 0 1
28.549998 -24.677903 21.995545 43.679575 -0.712780 1.043075 0.024307 0.002867 251419.000000 0 0 1
29.085848 -23.532703 21.402045 43.102461 -0.680252 1.051190 0.031841 0.001620 -248584.000000 0 0 1
29.762758 -22.655503 22.275645 43.535019 -0.650633 1.033667 0.043074 -0.010799 -335691.000000 0 0 1
30.689798 -21.657403 21.560945 43.310289 -0.614533 1.049707 0.039888 -0.008490 -263818.000000 0 0 1
30.064758 -20.581203 21.012245 42.059363 -0.600290 1.047676 0.049192 -0.014307 -133982.000000 0 0 1
31.057928 -19.739703 20.431245 42.091406 -0.566169 1.063974 0.047809 -0.020829 -246524.000000 0 0 1
30.446278 -18.364803 20.000245 40.795240 -0.542760 1.058409 0.050288 -0.012719 131625.000000 0 0 1
30.029748 -17.548003 21.040645 40.650054 -0.528836 1.026748 0.050708 -0.008762 834745.000000 0 0 1
28.920078 -18.072603 21.815845 40.483589 -0.558538 1.001688 0.059620 -0.023084 -37554.900000 0 0 1
29.248848 -17.802903 23.283245 41.407100 -0.546770 0.973631 0.049066 -0.018155 64520.600000 0 0 1
29.152058 -16.462803 23.633745 40.980730 -0.514076 0.956108 0.042802 -0.014196 132609.000000 0 0 1
29.603938 -16.299803 24.963175 42.014721 -0.503300 0.934584 0.036146 -0.016514 -58707.000000 0 0 1
29.304048 -14.882703 25.475725 41.584067 -0.469925 0.911410 0.050216 -0.023898 416908.000000 0 0 1
27.934948 -14.713203 25.871845 40.819015 -0.484775 0.884316 0.051378 -0.022899 837624.000000 0 0 1
27.604498 -13.379503 26.347285 40.437591 -0.451321 0.861165 0.047210 -0.025434 63871.000000 0 0 1
28.042608 -12.145903 25.536145 39.824684 -0.408731 0.874717 0.052571 -0.035699 -44052.500000 0 0 1
27.284428 -12.092603 24.307965 38.490884 -0.417189 0.887278 0.049331 -0.026786 616232.000000 0 0 1
27.712018 -11.003103 23.479945 37.951706 -0.377962 0.903735 0.053768 -0.022705 132343.000000 0 0 1
28.826578 -11.336303 22.473045 38.269062 -0.374681 0.943154 0.059120 -0.039994 -175355.000000 0 0 1
28.314278 -12.245903 21.483045 37.592309 -0.408205 0.962495 0.059134 -0.043715 481756.000000 0 0 1
28.608328 -13.601003 21.785645 38.445260 -0.443792 0.968342 0.063034 -0.041451 -572618.000000 0 0 1
27.899578 -14.566503 20.799045 37.724921 -0.481175 0.986834 0.074502 -0.046964 -223831.000000 0 0 1
28.320658 -14.458503 19.473145 37.286879 -0.472035 1.021307 0.056610 -0.038159 -390490.000000 0 0 1
27.957848 -15.603803 18.801845 37.129897 -0.509055 1.039815 0.058029 -0.037383 -216446.000000 0 0 1
28.340608 -15.651403 17.297945 36.706612 -0.504577 1.080090 0.065975 -0.034329 -470195.000000 0 0 1
27.963088 -16.831303 16.627545 36.629254 -0.541824 1.099612 0.063333 -0.037398 -383576.000000 0 0 1
26.598718 -16.943903 16.351545 35.524085 -0.567196 1.092469 0.066465 -0.031919 -576938.000000 0 0 1
25.986738 -16.012003 15.267945 34.129238 -0.552218 1.106989 0.061579 -0.024167 -585697.000000 0 0 1
26.334238 -16.330303 13.913845 33.967130 -0.555080 1.148751 0.071036 -0.032674 -448809.000000 0 0 1
25.504838 -17.261503 13.354745 33.567923 -0.594981 1.161632 0.062603 -0.036797 -500159.000000 0 0 1
25.997738 -17.857103 11.973345 33.736026 -0.601860 1.207976 0.048973 -0.025261 -319831.000000 0 0 1
25.640138 -16.970003 10.943845 32.636872 -0.584663 1.228850 0.043076 -0.026975 -171803.000000 0 0 1
25.549038 -17.656003 9.672745 32.527677 -0.604703 1.268860 0.037422 -0.032441 548148.000000 0 0 1
26.916488 -17.797503 8.876445 33.466994 -0.584217 1.302354 0.044618 -0.020219 849500.000000 0 0 1
27.586158 -18.723703 9.687645 34.719211 -0.596311 1.288014 0.038377 -0.011741 -1103290.000000 0 0 1
28.955298 -18.909803 9.414145 35.841540 -0.578530 1.305018 0.036592 0.002755 -73158.200000 0 0 1
29.606808 -19.762303 10.541045 37.124457 -0.588574 1.282898 0.036026 -0.009030 -359951.000000 0 0 1
29.682328 -19.092503 11.874645 37.236695 -0.571600 1.246232 0.053831 -0.021984 205724.000000 0 0 1
29.572158 -20.083503 12.842745 37.984150 -0.596585 1.225891 0.033060 -0.016011 -199903.000000 0 0 1
29.651948 -19.505803 14.222545 38.236045 -0.581857 1.189669 0.042638 -0.016996 62137.400000 0 0 1
29.493528 -20.484303 15.212245 38.998554 -0.607049 1.170087 0.044304 -0.016780 86920.800000 0 0 1
29.202488 -19.854503 16.445145 38.954196 -0.597102 1.134963 0.064903 -0.024419 -12508.100000 0 0 1
28.968398 -20.892303 17.568245 39.803261 -0.624820 1.113664 0.055125 -0.025079 322618.000000 0 0 1
27.731498 -21.598903 17.492745 39.262510 -0.661716 1.109027 0.027065 -0.013828 254397.000000 0 0 1
27.556598 -22.326103 18.657045 40.073760 -0.680924 1.086520 0.028366 -0.010610 -1023890.000000 0 0 1
26.248338 -23.056303 18.583345 39.571568 -0.720747 1.081943 0.023340 0.000573 -483498.000000 0 0 1
25.149038 -22.175303 18.887045 38.482965 -0.722643 1.057800 0.027381 -0.009052 289564.000000 0 0 1
23.954438 -22.881703 18.569645 37.976560 -0.762498 1.059880 0.025675 -0.002343 -138944.000000 0 0 1
22.726838 -22.375003 19.331345 37.294112 -0.777597 1.025878 0.015188 -0.003626 -391913.000000 0 0 1
22.130338 -21.175503 18.834645 35.956885 -0.763353 1.019477 0.017074 -0.007022 342147.000000 0 0 1
20.965538 -20.726303 19.516345 35.355638 -0.779660 0.986034 0.013945 -0.004368 341016.000000 0 0 1
21.147438 -20.246503 20.960445 36.006600 -0.763637 0.949453 0.012033 0.000673 -341312.000000 0 0 1
21.488138 -21.309303 21.803845 37.299251 -0.781220 0.946452 0.012373 0.002292 -238533.000000 0 0 1
21.796738 -20.740803 23.073645 37.916642 -0.760580 0.916582 0.023712 0.000000 -12081.800000 0 0 1
22.093838 -21.812903 24.194475 39.361313 -0.779000 0.908821 0.023201 -0.002768 130381.000000 0 0 1
21.089838 -22.759803 24.519825 39.547588 -0.823464 0.902043 0.011978 0.006863 14712.300000 0 0 1
21.641338 -23.729303 25.448845 40.976469 -0.831386 0.900702 0.011920 0.008973 171883.000000 0 0 1
20.596138 -24.560003 26.261815 41.437634 -0.872955 0.884383 0.020966 0.005365 -157726.000000 0 0 1
19.906038 -25.485203 25.470875 41.164443 -0.907698 0.903634 0.031008 0.001163 -147813.000000 0 0 1
19.075938 -26.279103 26.273265 41.770409 -0.942900 0.890540 0.040004 -0.011815 -175421.000000 0 0 1
18.281938 -27.360603 25.486315 41.621918 -0.981743 0.911793 0.053224 -0.012883 587194.000000 0 0 1
17.331438 -26.741603 24.569365 40.238610 -0.995753 0.913989 0.050329 -0.016905 862779.000000 0 0 1
16.949438 -27.641903 23.569045 40.085635 -1.020743 0.942253 0.055366 -0.021192 -597428.000000 0 0 1
16.125738 -27.027103 22.429745 38.647085 -1.032843 0.951609 0.038612 -0.024729 -480820.000000 0 0 1
14.819638 -26.867703 22.924345 38.301706 -1.066742 0.929144 0.026422 -0.024161 -508856.000000 0 0 1
14.081238 -26.152703 21.963445 36.941007 -1.076884 0.934085 0.002041 -0.016798 9818.410000 0 0 1
12.752038 -25.526403 22.435545 36.298283 -1.107499 0.904488 -0.000886 -0.008692 684727.000000 0 0 1
11.623238 -26.412803 22.450345 36.561644 -1.156239 0.909626 0.009205 -0.019714 526491.000000 0 0 1
10.428638 -25.651503 22.326845 35.570270 -1.184656 0.892223 0.017845 -0.009665 1031920.000000 0 0 1
9.071238 -26.434103 22.341545 35.779795 -1.240224 0.896410 0.035459 -0.010246 628018.000000 0 0 1
8.925738 -27.412403 21.298445 35.843163 -1.256013 0.934511 0.044991 -0.015357 26690.300000 0 0 1
7.573638 -27.816603 21.277145 35.830717 -1.304970 0.934993 0.038774 -0.011874 -50195.900000 0 0 1
7.198138 -28.788503 20.124745 35.855215 -1.325785 0.974867 0.037899 -0.009240 -178050.000000 0 0 1
7.669738 -30.065003 20.290645 37.073434 -1.321019 0.991650 0.047254 -0.016185 46916.100000 0 0 1
7.396238 -30.818203 19.134145 37.021365 -1.335255 1.027640 0.032998 -0.006381 -74451.800000 0 0 1
8.215438 -32.105803 19.068745 38.234710 -1.320285 1.048665 0.026780 -0.003656 -263359.000000 0 0 1
7.699238 -33.010103 19.984345 39.348687 -1.341654 1.038076 0.028822 -0.010781 1170.940000 0 0 1
8.623938 -34.016103 20.212545 40.497093 -1.322503 1.048224 0.025444 -0.013538 -316741.000000 0 0 1
8.055938 33.682111 21.130745 40.569583 1.336031 1.022948 0.043266 -0.021545 116116.000000 0 0 1
7.216638 32.723111 20.524145 39.295322 1.353734 1.021245 0.033945 -0.021096 10467.000000 0 0 1
7.231438 31.555511 21.382045 38.797368 1.345521 0.987089 0.036945 -0.029562 84328.200000 0 0 1
6.250038 30.415611 20.959145 37.462756 1.368130 0.977055 0.042577 -0.032436 751761.000000 0 0 1
4.859938 30.693411 21.131945 37.580095 1.413762 0.973611 0.046983 -0.031054 239571.000000 0 0 1
4.081438 29.600711 20.729845 36.367385 1.433777 0.964276 0.045250 -0.023948 -1142030.000000 0 0 1
2.732638 29.451711 21.324045 36.463481 1.478278 0.946156 0.034459 -0.016439 -1362080.000000 0 0 1
2.704638 29.182911 22.704645 37.073687 1.478382 0.911679 0.029738 -0.022941 -1035080.000000 0 0 1
1.467838 28.729711 23.111145 36.900892 1.519749 0.893994 0.029381 -0.011321 -844701.000000 0 0 1
1.401338 28.217711 24.585515 37.451976 1.521175 0.854687 0.045011 -0.018714 -272620.000000 0 0 1
1.243238 29.190511 25.579775 38.832415 1.528232 0.851677 0.043724 -0.018949 -11238.400000 0 0 1
1.143738 28.676111 26.927225 39.353563 1.530933 0.817237 0.043253 -0.017563 463076.000000 0 0 1
2.411238 28.079511 27.673845 39.498287 1.485135 0.794511 0.033476 -0.018087 510106.000000 0 0 1
2.940538 26.953411 26.964245 38.238771 1.462129 0.788155 0.037787 -0.019441 381022.000000 0 0 1
3.791538 26.199711 27.819015 38.401799 1.427077 0.760604 0.015727 -0.008819 149298.000000 0 0 1
4.475738 24.939311 27.299105 37.245705 1.393221 0.748153 0.010672 0.002669 -321286.000000 0 0 1
3.523938 23.955711 27.013095 36.276735 1.424742 0.730802 0.032788 0.004974 -341933.000000 0 0 1
4.064338 22.656611 26.731555 35.276293 1.393296 0.710897 0.032006 0.012576 255968.000000 0 0 1
2.983038 21.619811 26.303275 34.178604 1.433685 0.692608 0.031917 0.012362 140627.000000 0 0 1
3.284638 20.271711 26.624155 33.624050 1.410162 0.657015 0.041935 0.013412 -253798.000000 0 0 1
3.968738 19.582211 25.640115 32.505835 1.370834 0.661967 0.051353 0.010101 -797511.000000 0 0 1
4.298638 18.113211 26.052885 32.020610 1.337786 0.620430 0.040529 0.006173 -211397.000000 0 0 1
5.480738 17.917111 26.779265 32.683182 1.273941 0.610504 0.026213 0.008657 -28932.700000 0 0 1
6.644838 17.912311 25.962515 32.234406 1.215568 0.634398 0.029262 0.007324 -127686.000000 0 0 1
7.979638 17.868411 26.797665 33.182368 1.150792 0.630747 0.023852 -0.002345 453262.000000 0 0 1
8.432338 19.021411 27.455035 34.448473 1.153522 0.648504 0.016046 -0.003185 106025.000000 0 0 1
8.719138 20.116211 26.617855 34.484714 1.161800 0.689013 0.009263 -0.004226 -568844.000000 0 0 1
9.326238 21.337611 27.322595 35.899812 1.158739 0.705821 0.003361 0.004249 -777281.000000 0 0 1
10.532338 21.129111 27.950135 36.586603 1.108369 0.701392 0.019531 -0.017557 -922164.000000 0 0 1
10.769738 21.983311 29.110355 38.035062 1.115257 0.699202 0.013500 -0.013273 376672.000000 0 0 1
11.886838 21.373811 30.025915 38.725860 1.063251 0.683535 0.018465 -0.016234 -32132.200000 0 0 1
13.188538 21.624411 29.574815 38.938700 1.023136 0.708218 0.011580 -0.013054 -980740.000000 0 0 1
14.090638 21.269211 30.603495 39.843435 0.985691 0.694937 0.010331 0.003237 683129.000000 0 0 1
15.557638 21.492611 30.090945 40.117794 0.944236 0.722636 0.003167 -0.003251 548988.000000 0 0 1
15.709538 22.928011 30.027905 40.916480 0.970094 0.746776 0.003697 -0.021816 -562357.000000 0 0 1
16.992938 23.325011 29.654965 41.379137 0.941179 0.771788 0.023334 0.008395 -327625.000000 0 0 1
-8.814862 16.831111 4.668542 19.564850 -1.088350 1.329853 0.021296 -0.013898 -333571.000000 0 1 0
-8.457062 18.015211 5.306542 20.596823 -1.131894 1.310219 0.023889 -0.019925 -273225.000000 0 1 0
-7.078262 18.268111 5.334842 20.304832 -1.201142 1.304938 0.017553 -0.015425 -505494.000000 0 1 0
-6.643062 19.767311 5.564042 21.583221 -1.246591 1.310057 0.013921 -0.018161 -16030.700000 0 1 0
-7.008162 20.712411 4.541942 22.332656 -1.244532 1.365991 0.020704 -0.026362 -376011.000000 0 1 0
-8.354162 21.076711 4.493242 23.112961 -1.193424 1.375147 0.017077 -0.024213 -442962.000000 0 1 0
-8.654762 22.205911 3.485142 24.086378 -1.199157 1.425593 0.043656 -0.023910 -20962.500000 0 1 0
-8.167862 22.148311 2.167242 23.705666 -1.217490 1.479246 0.032017 -0.017323 -180832.000000 0 1 0
-8.551362 20.974111 1.439142 22.696040 -1.183661 1.507344 0.043553 -0.019129 -596788.000000 0 1 0
-7.906962 20.916011 0.034442 22.360696 -1.209368 1.569256 0.020895 -0.011775 1303960.000000 0 1 0
-6.525562 20.500411 0.048842 21.514000 -1.262624 1.568526 0.019638 -0.005369 901758.000000 0 1 0
-5.580362 21.507611 0.353942 22.222579 -1.316934 1.554869 0.024370 -0.008322 -322931.000000 0 1 0
-4.167962 21.211311 -0.178858 21.617669 -1.376771 1.579070 0.015568 -0.002249 -182340.000000 0 1 0
-3.998962 21.600611 -1.510158 22.019506 -1.387737 1.639433 0.012024 -0.001760 -575132.000000 0 1 0
-2.679462 21.559311 -1.961858 21.813580 -1.447147 1.660855 0.002793 0.006271 -470766.000000 0 1 0
-2.599862 21.662711 -3.469258 22.092263 -1.451352 1.728484 0.012279 0.001314 258204.000000 0 1 0
-1.458162 22.343011 -3.981158 22.741724 -1.505626 1.746763 0.016686 0.011245 288369.000000 0 1 0
-1.671462 22.795711 -5.342958 23.473079 -1.497604 1.800430 0.024241 0.000683 -498586.000000 0 1 0
-0.445362 23.411311 -5.997558 24.171440 -1.551775 1.821541 0.021941 -0.003735 237213.000000 0 1 0
0.681338 22.507811 -5.934758 23.287059 1.540534 1.828491 0.016372 0.007012 232254.000000 0 1 0
1.708638 22.954511 -6.795858 24.000265 1.496498 1.857881 0.019728 -0.002871 447238.000000 0 1 0
2.963438 22.014311 -6.699158 23.201090 1.436987 1.863710 0.007978 0.008356 259727.000000 0 1 0
2.867838 20.902411 -7.577058 22.417562 1.434446 1.915584 0.012107 -0.006273 -143572.000000 0 1 0
3.845838 19.899711 -7.437258 21.589390 1.379889 1.922488 0.011382 -0.007962 50220.300000 0 1 0
3.833338 18.836211 -8.543158 21.035277 1.370029 1.989017 0.010059 -0.012192 -18322.200000 0 1 0
4.247238 19.359711 -9.794358 22.108073 1.354832 2.029763 0.017483 -0.016397 -45038.800000 0 1 0
3.272138 19.046311 -10.764758 22.121231 1.400658 2.079019 0.013652 -0.019392 -238167.000000 0 1 0
3.698638 19.342411 -12.234158 23.183688 1.381858 2.126693 0.029575 -0.027259 47562.800000 0 1 0
3.508638 20.669211 -12.635058 24.477980 1.402647 2.113182 0.048607 -0.026983 -195683.000000 0 1 0
3.531038 20.745111 -14.031358 25.292427 1.402201 2.158877 0.058117 -0.024652 281400.000000 0 0 1
4.037738 22.129711 -14.568458 26.800511 1.390324 2.145503 0.046767 -0.020902 139506.000000 0 0 1
3.087038 23.146711 -14.454758 27.463431 1.438210 2.125072 0.060150 -0.028000 -369986.000000 0 0 1
3.641338 24.347011 -14.893558 28.772458 1.422337 2.114878 0.045885 -0.027922 424027.000000 0 0 1
2.551138 25.357511 -15.388558 29.771117 1.470527 2.114017 0.050608 -0.019843 782764.000000 0 0 1
1.590938 25.788711 -14.428158 29.593250 1.509183 2.080077 0.067044 -0.032251 72516.800000 0 0 1
1.359838 27.185111 -14.436758 30.810703 1.520817 2.058460 0.041947 -0.025937 -623967.000000 0 0 1
0.422638 27.699811 -13.336558 30.746088 1.555540 2.019463 0.043889 -0.028128 976024.000000 0 0 1
-0.985462 27.423011 -13.372658 30.525737 -1.534876 2.024256 0.041573 -0.037107 903090.000000 0 0 1
-1.588362 26.117311 -13.572758 29.476373 -1.510055 2.049312 0.041006 -0.036579 37466.300000 0 0 1
-1.393762 25.143911 -12.407158 28.073055 -1.515422 2.028578 0.062559 -0.036666 246477.000000 0 0 1
-2.248262 25.524011 -11.314258 28.009681 -1.482939 1.986617 0.046618 -0.030034 355259.000000 0 0 1
-2.055562 24.533811 -10.312758 26.692437 -1.487207 1.967473 0.053119 -0.017194 -215947.000000 0 0 1
-3.040562 24.788711 -9.147558 26.597049 -1.448747 1.921897 0.033159 -0.010943 -61410.800000 0 0 1
-2.709562 25.425411 -7.898858 26.761637 -1.464628 1.870415 0.039524 -0.008293 -335797.000000 0 0 1
-2.298462 26.775111 -7.878358 28.004607 -1.485163 1.855970 0.036234 -0.014544 -7289.820000 0 0 1
-2.120562 27.220811 -6.422858 28.048573 -1.493051 1.801837 0.031670 -0.004267 572759.000000 0 0 1
-1.040762 26.541911 -5.758258 27.179289 -1.531604 1.784276 0.028137 -0.006831 387386.000000 0 0 1
-1.015562 26.975811 -4.415158 27.353599 -1.533167 1.732916 0.022208 -0.015513 -689827.000000 0 0 1
-1.716562 26.096711 -3.343958 26.366019 -1.505114 1.697967 0.023763 -0.002577 259147.000000 0 0 1
-3.118862 26.252211 -3.525758 26.670899 -1.452547 1.703379 0.018962 -0.002504 -88781.400000 0 0 1
-3.779262 25.484711 -2.572758 25.891551 -1.423574 1.670327 0.020023 0.001088 -884114.000000 0 0 1
-5.025062 24.804811 -3.037958 25.490372 -1.370917 1.690261 0.026613 0.001658 -85960.700000 0 0 1
-6.178762 25.615411 -3.292058 26.554925 -1.334105 1.695088 0.018503 0.000777 234491.000000 0 0 1
-7.222562 24.999511 -3.994458 26.326729 -1.289546 1.723111 0.008729 0.003502 480065.000000 0 0 1
-8.475862 25.926211 -4.130258 27.587455 -1.254827 1.721076 0.015847 0.002959 104608.000000 0 0 1
-9.256662 25.804611 -2.995758 27.577859 -1.226373 1.679640 0.023640 0.003074 -616653.000000 0 0 1
-10.468262 26.513711 -3.037058 28.666794 -1.194760 1.676939 0.029587 -0.003059 203091.000000 0 0 1
-11.286262 26.458511 -1.708458 28.815817 -1.167601 1.630120 0.036464 -0.003184 -84642.000000 0 0 1
-11.750362 25.186211 -1.276158 27.821661 -1.134274 1.616682 0.039115 -0.005988 108566.000000 0 0 1
-10.809262 24.226911 -0.761158 26.539833 -1.151134 1.599480 0.045601 -0.009855 20479.300000 0 0 1
-11.450662 22.945011 -0.241958 25.644682 -1.107911 1.580232 0.049585 -0.014565 -424696.000000 0 0 1
-12.280162 23.151511 0.850442 26.220566 -1.083105 1.538356 0.067633 -0.018919 -438634.000000 0 0 1
-12.931762 21.941111 1.142742 25.494091 -1.038219 1.525958 0.067879 -0.023184 -574227.000000 0 0 1
-13.641362 22.018111 2.449442 26.016989 -1.016124 1.476509 0.070779 -0.030678 -159826.000000 0 0 1
-12.790362 21.880611 3.583642 25.596816 -1.041813 1.430331 0.075446 -0.031317 199224.000000 0 0 1
-12.416862 23.151011 4.126042 26.592705 -1.078499 1.415010 0.055853 -0.027375 -55923.200000 0 0 1
-12.166862 23.064111 5.627042 26.676756 -1.085373 1.358266 0.044284 -0.029478 563929.000000 0 0 1
-10.869862 22.563211 6.007342 25.755398 -1.121854 1.335382 0.038181 -0.026668 737228.000000 0 0 1
-10.808562 22.484711 7.437242 26.032668 -1.122702 1.281071 0.028487 -0.025387 -399983.000000 0 0 1
-9.504362 21.948011 8.029542 25.229380 -1.162136 1.246901 0.025604 -0.027667 -150468.000000 0 0 1
-8.575662 22.978911 8.402642 25.926371 -1.213607 1.240740 0.020742 -0.028965 295027.000000 0 0 1
-7.578062 22.481511 9.271842 25.471796 -1.245678 1.198233 0.029669 -0.024041 -491392.000000 0 0 1
-7.934262 22.405611 10.777742 26.098345 -1.230456 1.145087 0.037046 -0.027268 -39079.600000 0 0 1
-8.901662 21.388411 11.020042 25.654337 -1.176411 1.126792 0.040854 -0.024132 446043.000000 0 0 1
-8.556762 20.810711 12.279042 25.633547 -1.180697 1.071256 0.030687 -0.015208 8717.980000 0 0 1
-9.630262 19.810711 12.745742 25.449168 -1.118319 1.046237 0.034054 -0.012829 -197095.000000 0 0 1
-9.830262 18.692411 11.862742 24.223231 -1.086647 1.059021 0.047296 -0.026933 -315931.000000 0 1 0
-10.526062 17.720511 12.545142 24.128719 -1.034797 1.024032 0.039326 -0.019374 -383204.000000 0 1 0
-10.796962 16.496111 11.599142 22.874356 -0.991253 1.039002 0.038832 -0.025685 -47678.100000 0 1 0
-11.104262 15.282011 12.287642 22.535098 -0.942425 0.994089 0.025257 -0.016738 229785.000000 0 1 0
-11.589562 14.289911 11.398442 21.643566 -0.889365 1.016149 0.022551 -0.013452 125787.000000 0 1 0
-11.849362 12.886311 12.054242 21.254861 -0.827295 0.967781 0.016056 -0.013294 843789.000000 0 1 0
-12.975362 12.889411 12.962942 22.417288 -0.782075 0.954206 0.026577 -0.008051 724404.000000 0 1 0
-13.174862 11.627511 13.557142 22.193965 -0.723092 0.913665 0.011328 0.005483 -214553.000000 0 1 0
-14.027062 11.639011 14.824442 23.494449 -0.692622 0.887985 0.007410 0.005876 19846.600000 0 1 0
-15.334662 12.069711 14.482042 24.301426 -0.666817 0.932368 0.022075 -0.007142 -401044.000000 0 1 0
-15.906162 12.496211 15.652142 25.576372 -0.665911 0.912239 0.013879 0.002014 -324523.000000 0 0 1
-16.860162 13.704911 15.493942 26.686174 -0.682532 0.951333 0.028830 -0.002178 -710345.000000 0 0 1
-18.105262 13.399011 14.988242 27.055155 -0.637110 0.983649 0.027582 -0.000723 -794879.000000 0 0 1
-18.947862 14.483811 14.695242 28.013432 -0.652656 1.018576 0.047584 -0.008495 136226.000000 0 0 1
-20.100762 14.077811 13.735942 28.122971 -0.610969 1.060513 0.041925 -0.010171 -313232.000000 0 0 1
-21.036462 13.308411 14.448142 28.781858 -0.564071 1.044901 0.050471 -0.003724 -356222.000000 0 0 1
-22.127562 13.071011 13.588842 29.071239 -0.533562 1.084412 0.041729 -0.003568 10049.500000 0 0 1
-23.185262 12.095311 14.173042 29.744378 -0.480842 1.074133 0.049829 -0.013000 408027.000000 0 0 1
-23.963862 12.595411 15.263642 31.078768 -0.483917 1.057413 0.043372 -0.012932 -196506.000000 0 0 1
-24.871562 11.698411 15.762342 31.684363 -0.439650 1.050105 0.041985 -0.015643 -564627.000000 0 0 1
-25.560192 12.172511 17.062942 33.055066 -0.444451 1.028391 0.041374 -0.012343 -442196.000000 0 0 1
-26.392152 13.254811 16.809642 33.982345 -0.465426 1.053355 0.045488 -0.012481 151899.000000 0 0 1
-27.106572 13.705811 17.976142 35.295285 -0.468139 1.036417 0.024911 0.004018 569526.000000 0 0 1
-28.398542 14.549611 17.776642 36.526393 -0.473468 1.062512 0.022473 -0.005896 382500.000000 0 0 1
-28.009712 15.806111 17.221242 36.482164 -0.513762 1.079187 0.024760 -0.005178 496076.000000 0 0 1
-29.052902 16.778611 17.363142 37.776601 -0.523726 1.093221 0.030956 -0.007579 205779.000000 0 0 1
-28.559692 18.277411 17.164942 38.004670 -0.569294 1.102179 0.039217 -0.008766 221715.000000 0 0 1
-27.580422 18.597911 18.158342 37.898382 -0.593279 1.071130 0.024943 -0.009939 -89600.600000 0 0 1
-28.098742 19.082911 19.346442 39.089405 -0.596587 1.053044 0.024288 -0.011612 -1198550.000000 0 0 1
-27.138312 19.229311 20.554342 39.099045 -0.616452 1.017259 0.009992 -0.011019 6342.160000 0 0 1
-26.808512 17.987411 21.167742 38.604618 -0.590968 0.990441 0.012636 -0.001944 -97434.900000 0 0 1
-26.040422 17.125611 20.362642 37.229388 -0.581738 0.992079 0.022169 -0.005665 -677020.000000 0 0 1
-25.589852 15.781611 20.927142 36.631203 -0.552618 0.962716 0.006178 0.001194 639565.000000 0 0 1
-26.770142 15.010911 21.149942 37.273154 -0.511046 0.967414 0.001488 0.001222 747598.000000 0 0 1
-26.413142 13.790911 21.783242 36.910065 -0.481189 0.939526 0.005584 0.006424 -159549.000000 0 0 1
-27.594082 12.821411 22.016742 37.557407 -0.434965 0.944417 0.007334 0.007075 -267203.000000 0 0 1
-28.216442 12.596711 20.786242 37.241275 -0.419882 0.978641 0.006613 -0.008059 20631.300000 0 0 1
-29.238262 11.610411 20.927842 37.784285 -0.378001 0.983783 0.032423 -0.009813 16424.400000 0 0 1
-30.104672 11.538511 19.630842 37.746503 -0.366010 1.023863 0.039851 -0.005852 -247859.000000 0 0 1
-29.441152 11.143211 18.449442 36.487456 -0.361828 1.040675 0.056130 -0.017280 332205.000000 0 0 1
-28.952252 9.783111 18.434842 35.690132 -0.325859 1.028009 0.065692 -0.014129 -51627.000000 0 0 1
-28.340572 9.444911 17.031542 34.387029 -0.321689 1.052628 0.067349 -0.018627 -192467.000000 0 0 1
-29.213802 9.265811 15.926242 34.539060 -0.307136 1.091553 0.066578 -0.010632 506211.000000 0 0 1
-29.800622 10.454411 15.405342 35.138246 -0.337398 1.116955 0.066049 -0.011751 -105328.000000 0 0 1
-28.794342 11.322211 14.607942 34.215472 -0.374639 1.129691 0.058476 -0.007525 -106011.000000 0 0 1
-28.474452 10.869811 13.325042 33.264154 -0.364666 1.158644 0.051099 -0.019555 838563.000000 0 0 1
-27.401962 11.706711 12.846942 32.449322 -0.403751 1.163740 0.046697 -0.019543 326689.000000 0 0 1
-27.164632 11.720911 11.335742 31.682740 -0.407344 1.204897 0.065955 -0.015482 -203723.000000 0 0 1
-26.539362 10.549711 10.787142 30.528619 -0.378360 1.209652 0.074038 -0.007853 470194.000000 0 0 1
-27.351652 9.385111 10.815542 30.873437 -0.330539 1.212885 0.069400 -0.004578 -206158.000000 0 0 1
-26.697892 8.113011 10.204842 29.710893 -0.295015 1.220186 0.064642 -0.013003 -243013.000000 0 0 1
-26.510122 8.254911 8.794642 29.125175 -0.301871 1.264048 0.076899 -0.007261 254047.000000 0 0 1
-26.020082 7.052011 8.265942 28.197541 -0.264664 1.273283 0.076325 -0.016037 -272936.000000 0 0 1
-25.410822 7.317811 6.872742 27.322057 -0.280393 1.316520 0.068133 -0.004386 -306354.000000 0 0 1
-26.290132 7.810411 5.905042 28.054288 -0.288781 1.358724 0.071228 -0.010333 100235.000000 0 0 1
-25.512022 8.231811 4.783142 27.230579 -0.312118 1.394227 0.058746 -0.005305 -155555.000000 0 0 1
-26.324032 8.544411 3.570842 27.905421 -0.313857 1.442482 0.055323 -0.004262 -646080.000000 0 0 1
-26.987192 7.497511 2.863442 28.155293 -0.270984 1.468918 0.072763 -0.014470 651692.000000 0 0 1
-26.185912 6.329511 2.521342 27.057751 -0.237165 1.477477 0.068236 -0.009169 183416.000000 0 0 1
-25.106822 6.452411 1.410042 25.961016 -0.251554 1.516456 0.068999 -0.015123 284674.000000 0 0 1
-24.067662 7.318311 1.873542 25.225388 -0.295189 1.496456 0.051707 -0.008361 2476.920000 0 0 1
-23.025962 7.345311 0.924742 24.186849 -0.308797 1.532554 0.053819 -0.006069 -465188.000000 0 1 0
-21.858162 8.202911 1.415742 23.389556 -0.359015 1.510231 0.029835 -0.003943 -361532.000000 0 1 0
-22.234862 9.578211 1.368642 24.248802 -0.406751 1.514325 0.028321 -0.004390 -95005.300000 0 1 0
-21.317762 10.390111 1.946942 23.794789 -0.453511 1.488883 0.048876 -0.008271 -684915.000000 0 1 0
-21.915462 11.819311 1.997542 24.979467 -0.494602 1.490744 0.059242 -0.008223 -9411.250000 0 1 0
-20.920362 12.647411 2.516842 24.575456 -0.543759 1.468204 0.055691 -0.010717 534597.000000 0 1 0
-21.494362 13.780611 3.118442 25.722315 -0.570112 1.449262 0.055614 -0.010529 -204180.000000 0 0 1
-20.383662 14.650311 3.797942 25.387982 -0.623185 1.420637 0.041718 0.000227 82371.500000 0 0 1
-19.779262 13.779411 4.719842 24.563556 -0.608480 1.377446 0.028697 -0.003651 -428897.000000 0 1 0
-18.986862 14.505911 5.590342 24.539240 -0.652399 1.340966 0.030141 -0.003803 -526539.000000 0 1 0
-18.535362 13.676011 6.849742 24.031477 -0.635669 1.281756 0.024091 -0.000002 306979.000000 0 1 0
-17.494962 12.796111 6.455642 22.616133 -0.631501 1.281327 0.017441 -0.003381 -44337.200000 0 1 0
-16.824562 12.154011 7.444242 22.050002 -0.625600 1.226423 0.008844 0.001405 -397471.000000 0 1 0
10.240538 -33.162003 -14.213358 37.504754 -1.271283 1.959485 0.021170 -0.021343 -1201140.000000 0 0 1
11.405838 -33.134103 -13.499358 37.552558 -1.239269 1.938506 0.014702 -0.022280 -399649.000000 0 0 1
12.130038 -31.891203 -13.763758 36.791680 -1.207338 1.954222 0.011396 -0.024105 241160.000000 0 0 1
13.535638 -31.749503 -13.159958 36.938177 -1.167803 1.935069 0.024762 -0.021915 -137324.000000 0 0 1
14.572138 -32.380803 -13.895258 38.130589 -1.147922 1.943798 0.018385 -0.019751 -106889.000000 0 0 1
15.810138 -31.994303 -13.329658 38.095612 -1.111836 1.928261 0.026406 -0.015734 -588723.000000 0 0 1
16.942738 -32.788303 -13.921258 39.445286 -1.093854 1.931493 0.030409 -0.020090 -677431.000000 0 0 1
16.996838 -34.013903 -13.272758 40.274113 -1.107387 1.906634 0.031653 -0.026681 -639159.000000 0 0 1
17.661638 33.765211 -13.924558 40.569893 1.088862 1.921144 0.031833 -0.015912 -294040.000000 0 0 1
17.682138 32.374211 -13.249558 39.195642 1.070891 1.915626 0.029040 -0.021346 -150573.000000 0 0 1
18.573638 32.229611 -12.157758 39.134881 1.047992 1.886687 0.034728 -0.024679 -77332.900000 0 0 1
18.575538 30.955111 -11.570058 37.909573 1.030318 1.880946 0.026839 -0.018700 -430837.000000 0 0 1
19.468638 30.696911 -10.407858 37.810735 1.005593 1.849659 0.036191 -0.016437 -350107.000000 0 0 1
20.820138 30.399111 -10.684058 38.363175 0.970281 1.853026 0.040025 -0.016013 36084.900000 0 0 1
21.610438 30.489611 -9.528258 38.567021 0.954202 1.820438 0.032273 -0.011695 440058.000000 0 0 1
22.913738 29.627011 -9.561558 38.655175 0.912482 1.820746 0.017022 -0.003320 157729.000000 0 0 1
23.900538 30.063011 -10.453658 39.803257 0.899103 1.836547 0.026968 -0.009883 -518556.000000 0 0 1
25.070138 29.299411 -10.201458 39.887806 0.863029 1.829424 0.018026 0.002023 -114178.000000 0 0 1
26.150138 29.829111 -11.168058 41.210813 0.851024 1.845226 0.024272 -0.003106 -287785.000000 0 0 1
26.769738 31.040311 -10.693458 42.361183 0.859137 1.825993 0.019340 -0.011110 700761.000000 0 0 1
27.724138 31.556611 -11.641958 43.588791 0.849958 1.841164 0.021264 -0.006991 552113.000000 0 0 1
28.151538 33.059711 -11.396558 44.892484 0.865411 1.827469 0.015416 -0.008711 -87639.600000 0 0 1
27.189538 33.996711 -11.852858 45.116932 0.896196 1.836630 0.031369 -0.011442 269336.000000 0 0 1
27.650738 -33.523903 -11.565758 44.968679 -0.881111 1.830916 0.041781 -0.012326 -85952.500000 0 0 1
26.624138 -32.503903 -12.067058 43.714555 -0.884514 1.850470 0.039069 -0.013133 -241852.000000 0 0 1
25.390638 -32.591703 -11.403958 42.859700 -0.908960 1.840117 0.036026 -0.015777 -654284.000000 0 0 1
24.330738 -31.805303 -11.846058 41.759923 -0.917770 1.858416 0.041475 -0.021974 -79095.700000 0 0 1
24.447838 -30.354203 -11.369758 40.599825 -0.892760 1.854637 0.051019 -0.018712 -293149.000000 0 0 1
25.355838 -29.566703 -12.153958 40.802293 -0.861918 1.873262 0.036513 -0.013687 150320.000000 0 0 1
25.904138 -28.542803 -11.362458 40.184841 -0.833823 1.857461 0.039457 -0.010594 -277658.000000 0 0 1
26.818838 -27.638203 -12.193158 40.395463 -0.800443 1.877423 0.023059 0.017807 890302.000000 0 0 1
28.080938 -28.149803 -12.675058 41.732572 -0.786623 1.879392 0.017633 0.011966 834721.000000 0 0 1
27.934438 -29.012403 -13.778158 42.566301 -0.804325 1.900420 0.021853 -0.000433 -675567.000000 0 0 1
29.251138 -29.654203 -14.207258 44.009624 -0.792241 1.899506 0.018489 0.006155 86003.400000 0 0 1
29.829838 -30.587203 -13.245058 44.730613 -0.797933 1.871411 0.028322 -0.002325 182591.000000 0 0 1
30.831838 -31.410203 -13.761258 46.114806 -0.794690 1.873826 0.019364 -0.003991 -342712.000000 0 0 1
31.276338 -32.535203 -12.806258 46.912141 -0.805123 1.847290 0.010140 0.005019 26301.500000 0 0 1
32.143938 -33.423603 -13.493658 48.295432 -0.804912 1.853964 0.009197 0.005240 820513.000000 0 0 1
33.147838 -34.131703 -12.746058 49.256617 -0.800021 1.832543 0.007765 0.007275 622779.000000 0 0 1
32.565338 33.489911 -11.923958 48.210540 0.799394 1.820721 0.008587 -0.003110 124852.000000 0 0 1
32.040538 33.917111 -10.657558 47.859691 0.813842 1.795362 0.013349 -0.004139 -53399.700000 0 0 1
31.427138 32.898711 -9.962558 46.575130 0.808271 1.786365 0.015824 -0.006322 -641432.000000 0 0 1
30.832538 33.240011 -8.575258 46.141942 0.822955 1.757728 0.006335 -0.003498 423115.000000 0 0 1
29.742538 34.157111 -8.697358 46.119094 0.854375 1.760517 0.010618 -0.006462 40498.700000 0 0 1
29.067438 -34.323903 -7.520858 45.602736 -0.868130 1.736474 0.013393 -0.002845 658769.000000 0 0 1
27.970838 -33.238603 -7.822658 44.140304 -0.871248 1.748960 0.008640 -0.008188 -32075.300000 0 0 1
28.523838 -31.923503 -7.922658 43.537201 -0.841581 1.753790 0.000394 -0.012927 603996.000000 0 0 1
27.631138 -30.860103 -8.343558 42.254475 -0.840546 1.769562 0.008802 -0.009511 1557980.000000 0 0 1
26.396038 -30.459603 -7.402658 40.979721 -0.856748 1.752435 0.022830 -0.013836 1520680.000000 0 0 1
25.619538 -29.386103 -7.982458 39.794766 -0.853767 1.772757 0.036895 -0.021999 224032.000000 0 0 1
24.674538 -28.846303 -7.071458 38.612790 -0.863187 1.754974 0.041233 -0.024742 58668.900000 0 0 1
23.627238 -28.004603 -7.849258 37.471523 -0.869976 1.781832 0.057255 -0.031049 -126287.000000 0 0 1
22.715638 -28.816903 -8.606758 37.689393 -0.903246 1.801189 0.072230 -0.034152 414124.000000 0 0 1
21.937638 -27.973603 -9.424358 36.777723 -0.905748 1.829939 0.082183 -0.032175 -424971.000000 0 0 1
20.805538 -28.619703 -10.217658 36.828771 -0.942201 1.851922 0.066703 -0.024440 -495428.000000 0 0 1
21.206838 -29.487103 -11.255058 38.024933 -0.947307 1.871290 0.071878 -0.027074 -57631.000000 0 0 1
20.148138 -30.200703 -11.877158 38.198126 -0.982465 1.886974 0.058273 -0.025457 407356.000000 0 0 1
19.690238 -31.466303 -11.118058 38.748483 -1.011653 1.861816 0.059196 -0.027881 552620.000000 0 0 1
20.789038 -32.364003 -11.243758 40.075365 -0.999817 1.855179 0.054140 -0.023475 261859.000000 0 0 1
20.554238 -33.596103 -10.651258 40.799805 -1.021742 1.834918 0.037000 -0.023593 -430104.000000 0 0 1
21.722838 34.254511 -10.699758 41.949232 1.005637 1.828711 0.032059 -0.015917 34511.600000 0 0 1
22.806938 -34.170803 -9.844658 42.245917 -0.982259 1.805991 0.037869 -0.010689 479494.000000 0 0 1
23.908138 33.766211 -10.066458 42.580390 0.954689 1.809466 0.035415 -0.014655 -363221.000000 0 0 1
25.139038 33.989711 -9.214558 43.268693 0.933980 1.785401 0.030176 -0.012559 -1096540.000000 0 0 1
25.083638 33.612311 -7.856258 42.669628 0.929691 1.755971 0.019767 -0.013169 29518.900000 0 0 1
25.155238 32.205811 -7.616158 41.569293 0.907700 1.755053 0.009471 -0.002333 -280687.000000 0 0 1
25.015438 31.687211 -6.135958 40.835052 0.902522 1.721630 0.005564 0.000570 -528658.000000 0 0 1
26.012438 32.200911 -5.215158 41.722218 0.891307 1.696121 0.006005 0.002897 66466.200000 0 0 1
26.920838 31.198711 -4.827858 41.489749 0.858870 1.687423 0.014417 0.000403 -544050.000000 0 0 1
26.464038 30.149611 -3.821558 40.298246 0.850407 1.665771 0.012725 0.007134 -601095.000000 0 0 1
26.328538 30.637711 -2.472358 40.471889 0.860899 1.631923 0.022261 0.006782 -18220.100000 0 0 1
26.005738 29.661011 -1.451658 39.473805 0.850968 1.607580 0.010716 0.011080 392584.000000 0 0 1
24.576238 29.044411 -1.429558 38.073782 0.868535 1.608352 0.005021 0.013080 351285.000000 0 0 1
23.548638 29.820611 -0.844358 38.006843 0.902382 1.593014 0.015191 0.010693 251247.000000 0 0 1
22.298538 29.156411 -1.082058 36.721818 0.917896 1.600267 0.030255 0.014820 965441.000000 0 0 1
21.115338 29.774811 -0.270558 36.503014 0.953944 1.578208 0.029987 0.009581 319845.000000 0 0 1
20.995338 29.255311 1.033542 36.024237 0.948317 1.542102 0.042229 -0.002304 -647524.000000 0 0 1
19.849238 29.700311 1.653242 35.760787 0.981652 1.524549 0.050844 -0.003663 -1045840.000000 0 0 1
19.251538 28.680111 2.590642 34.639311 0.979627 1.495937 0.050891 -0.020534 -457908.000000 0 0 1
18.444138 27.746611 1.946342 33.374375 0.984132 1.512445 0.059055 -0.014120 -375044.000000 0 0 1
17.679138 27.014611 2.844142 32.410342 0.991314 1.482929 0.060418 -0.021339 -571662.000000 0 0 1
17.160538 25.736411 2.118342 31.005391 0.982715 1.502421 0.060666 -0.017518 316624.000000 0 0 1
18.136838 24.795311 1.635542 30.764059 0.939265 1.517607 0.058475 -0.020835 312925.000000 0 0 1
19.127838 24.396211 2.556442 31.106023 0.905857 1.488519 0.063036 -0.016835 31845.800000 0 0 1
20.438138 23.808111 1.934342 31.437005 0.861415 1.509227 0.063115 -0.010834 275386.000000 0 0 1
20.351238 22.516511 1.324142 30.379590 0.835866 1.527196 0.054172 -0.011069 423837.000000 0 0 1
21.627238 22.096511 0.843242 30.930636 0.796130 1.543531 0.039690 -0.012912 430739.000000 0 0 1
21.514738 20.979511 -0.199158 30.051015 0.772804 1.577424 0.050032 -0.011793 -255242.000000 0 0 1
21.037738 21.470311 -1.399458 30.091845 0.795574 1.617319 0.043850 -0.009351 224085.000000 0 0 1
21.322938 20.687311 -2.574858 29.820503 0.770269 1.657249 0.063363 -0.012696 80287.100000 0 0 1
21.173338 21.414611 -3.957858 30.373680 0.791063 1.701473 0.047904 -0.014720 448157.000000 0 0 1
22.258938 22.330111 -4.179658 31.805089 0.786994 1.702592 0.041152 -0.006744 867545.000000 0 0 1
22.028338 23.140711 -5.356058 32.394869 0.810020 1.736896 0.029047 -0.006681 -43498.000000 0 0 1
23.032438 24.334811 -5.464758 33.949077 0.812886 1.732469 0.028599 0.002990 -100286.000000 0 0 1
22.900638 25.487611 -4.596058 34.571394 0.838810 1.704135 0.019795 0.002731 -139020.000000 0 0 1
23.076138 25.310911 -3.197958 34.400251 0.831551 1.663894 0.036012 0.003403 -638218.000000 0 0 1
21.851438 24.880811 -2.396958 33.200685 0.850132 1.643055 0.039173 -0.005571 -1491980.000000 0 0 1
20.940638 25.979511 -2.195158 33.440455 0.892381 1.636487 0.046858 -0.003023 913865.000000 0 0 1
19.855838 25.689911 -1.313958 32.495420 0.912797 1.611243 0.057450 -0.002998 730935.000000 0 0 1
18.902638 24.510811 -1.766058 31.003363 0.913867 1.627791 0.063754 -0.014288 -1050490.000000 0 0 1
18.282038 24.663211 -3.035958 30.850023 0.932907 1.669366 0.052609 -0.014604 469648.000000 0 0 1
17.672238 23.479511 -3.542858 29.599785 0.925591 1.690776 0.049968 -0.018858 -94773.900000 0 0 1
16.880738 23.845711 -4.795758 29.607035 0.954778 1.733494 0.054020 -0.023688 -155532.000000 0 0 1
16.318638 22.763711 -5.581258 28.559323 0.948837 1.767489 0.055649 -0.025034 528303.000000 0 0 1
15.725338 23.239411 -6.796258 28.871190 0.975902 1.808426 0.049071 -0.021309 156612.000000 0 0 1
15.022538 22.067911 -7.553058 27.743793 0.973113 1.846520 0.054989 -0.020642 -298879.000000 0 0 1
15.972938 21.167811 -8.131058 27.736710 0.924367 1.868318 0.032681 -0.013799 574565.000000 0 0 1
15.403938 20.279711 -9.008958 27.013132 0.921196 1.910813 0.045701 -0.011810 -583585.000000 0 0 1
16.402038 19.151211 -9.203858 26.842256 0.862570 1.920785 0.039077 -0.007419 -301618.000000 0 0 1
17.441938 19.459011 -10.097258 28.014798 0.840006 1.939521 0.023331 -0.007062 237275.000000 0 0 1
18.387838 18.376111 -10.073858 27.879682 0.785079 1.940494 0.029956 -0.000354 -288298.000000 0 0 1
19.657338 18.703311 -10.830358 29.215089 0.760533 1.950571 0.022385 -0.004399 -467587.000000 0 0 1
19.389638 18.624611 -12.221958 29.533209 0.765276 1.997462 0.018682 0.001797 243499.000000 0 0 1
20.516038 19.135611 -12.890958 30.874848 0.750598 2.001514 0.018223 0.001749 -57210.200000 0 0 1
20.402338 19.078111 -14.440158 31.444362 0.751869 2.047923 0.025336 0.000781 -114053.000000 0 0 1
20.656338 17.851111 -15.049758 31.174375 0.712678 2.074601 0.028797 -0.000573 146877.000000 0 0 1
21.163138 18.137611 -16.322058 32.299550 0.708566 2.100565 0.033194 -0.004738 37128.200000 0 0 1
21.182138 16.979911 -17.313458 32.198698 0.675725 2.138511 0.035565 -0.017988 -448512.000000 0 0 1
22.253938 16.087611 -17.082258 32.339643 0.625937 2.127292 0.041277 -0.012030 50391.200000 0 0 1
22.441038 15.381711 -18.332258 32.806538 0.600879 2.163733 0.042509 -0.024326 -619932.000000 0 0 1
23.337238 16.057711 -19.362358 34.312937 0.602676 2.170366 0.044799 -0.024164 -1345670.000000 0 0 1
24.637638 16.211911 -18.875458 35.016028 0.581988 2.140107 0.045988 -0.024344 -338758.000000 0 0 1
25.435838 16.821911 -19.872058 36.398588 0.584311 2.148327 0.054724 -0.028748 -803337.000000 0 0 1
26.803138 17.176111 -19.336558 37.246872 0.569898 2.116648 0.040776 -0.024830 -757964.000000 0 0 1
26.765838 18.361211 -18.497658 37.359169 0.601264 2.088781 0.038347 -0.020590 1342070.000000 0 0 1
28.123438 18.738511 -18.149558 38.359693 0.587745 2.063649 0.038713 -0.025652 963619.000000 0 0 1
28.162538 19.951611 -17.208558 38.565915 0.616371 2.033324 0.041552 -0.014427 439842.000000 0 0 1
27.384438 19.799611 -15.986258 37.383051 0.626012 2.012670 0.033915 -0.013975 1117000.000000 0 0 1
25.992738 20.124711 -16.139058 36.620972 0.658837 2.027181 0.025709 -0.011217 712944.000000 0 0 1
25.150538 19.423811 -15.012758 35.145653 0.657622 2.012144 0.020792 -0.002558 151541.000000 0 0 1
25.642138 19.733511 -13.700758 35.137465 0.655911 1.971340 0.022911 -0.000572 188693.000000 0 0 1
24.700538 19.460711 -12.679758 33.905930 0.667298 1.954081 0.028802 -0.001065 -47048.300000 0 0 1
25.110738 19.936911 -11.273158 33.986963 0.671047 1.908891 0.030764 -0.000827 -168555.000000 0 0 1
25.066438 21.334611 -11.029658 34.715203 0.705145 1.894119 0.023849 -0.002142 -12399.900000 0 0 1
25.606638 21.801311 -9.810458 35.032016 0.705302 1.854635 0.028086 -0.000341 313497.000000 0 0 1
24.712638 21.608911 -8.525658 33.916756 0.718494 1.824892 0.025057 -0.003623 -16453.300000 0 0 1
24.791738 20.245411 -8.109058 33.019142 0.684793 1.818921 0.034988 -0.006629 173916.000000 0 0 1
24.057138 19.892011 -6.964358 31.983437 0.690909 1.790304 0.038941 -0.008586 -561723.000000 0 0 1
22.569538 19.596211 -7.100158 30.721455 0.714999 1.804019 0.049129 -0.009823 -167873.000000 0 0 1
21.767838 20.755811 -7.390858 30.972040 0.761603 1.811751 0.041200 -0.011451 922265.000000 0 0 1
20.401038 20.489711 -7.716858 29.926251 0.787567 1.831606 0.038250 -0.015298 754946.000000 0 0 1
19.579438 21.789111 -7.967858 30.357973 0.838762 1.836371 0.034689 -0.013953 -610448.000000 0 0 1
20.028138 22.473511 -9.079958 31.442497 0.842871 1.863748 0.033276 -0.009134 -20813.700000 0 0 1
19.384538 22.311211 -10.345558 31.314230 0.855474 1.907501 0.029069 -0.005111 1248020.000000 0 0 1
17.831338 22.644311 -10.428958 30.651013 0.903753 1.917977 0.035222 -0.009167 794887.000000 0 0 1
17.621238 24.014511 -10.205358 31.485776 0.937761 1.900884 0.050375 -0.018347 -30834.900000 0 0 1
16.264838 24.392811 -10.271258 31.065301 0.982710 1.907772 0.041125 -0.017746 47292.600000 0 0 1
16.027338 25.827111 -9.800658 31.936940 1.015394 1.882705 0.057996 -0.021568 -106740.000000 0 0 1
16.733838 26.757211 -10.579358 33.285019 1.011913 1.894248 0.067473 -0.011694 23547.300000 0 0 1
16.556838 28.091111 -10.165458 34.155174 1.038209 1.873001 0.071276 -0.025009 -64193.700000 0 0 1
19.708338 28.769711 34.376622 48.968020 0.970183 0.792564 0.016804 -0.002287 37381.400000 0 0 1
18.394238 29.237911 34.190055 48.602091 1.009238 0.790530 0.024571 -0.008390 -390321.000000 0 0 1
17.445238 28.194411 34.250111 47.668975 1.016705 0.769155 0.024234 -0.011078 -409529.000000 0 0 1
16.069338 28.842411 34.058407 47.435043 1.062486 0.769870 0.033584 -0.013409 -351342.000000 0 0 1
15.660638 29.135111 32.694326 46.508378 1.077587 0.791221 0.039505 -0.010058 -189634.000000 0 0 1
14.391638 29.744411 32.697308 46.486161 1.120157 0.790659 0.043708 -0.013391 -178917.000000 0 0 1
13.710838 29.521811 31.327355 45.176626 1.136007 0.804541 0.041882 -0.011889 -73409.400000 0 0 1
13.235638 28.202011 31.035135 43.974028 1.131996 0.787300 0.026537 -0.012041 -155391.000000 0 0 1
11.831738 28.172011 31.045495 43.560016 1.173184 0.777448 0.017060 -0.004521 -603557.000000 0 0 1
11.364338 26.733911 30.890455 42.403660 1.168849 0.754688 0.004312 -0.000523 -236679.000000 0 0 1
11.604338 25.996911 29.655375 41.108895 1.150962 0.764995 0.007986 0.004028 1856920.000000 0 0 1
13.004038 25.702511 29.305375 41.091715 1.102405 0.776786 0.006524 0.003578 1687610.000000 0 0 1
13.162838 24.935811 28.011365 39.745333 1.085103 0.788696 0.021665 -0.000592 -269391.000000 0 0 1
12.737538 25.692411 26.906185 39.322864 1.110538 0.817238 0.014256 -0.000019 208255.000000 0 0 1
12.849338 25.015111 25.665185 38.073126 1.096278 0.831048 0.031579 0.001581 112979.000000 0 0 1
11.869638 23.824811 25.423235 36.808298 1.108586 0.808349 0.027483 0.003614 -286557.000000 0 0 1
11.711838 23.513511 24.059415 35.621732 1.108678 0.829270 0.048318 -0.002455 -4451.230000 0 0 1
10.895938 22.416911 23.770615 34.442437 1.118364 0.809093 0.051173 -0.006683 -231474.000000 0 0 1
10.857138 22.143811 22.205045 33.185687 1.114938 0.837779 0.061204 -0.016604 -43057.800000 0 0 1
10.290638 23.257811 21.523445 33.317888 1.154231 0.868460 0.078329 -0.018994 38124.100000 0 0 1
10.602438 23.175111 20.147845 32.487430 1.141729 0.901832 0.084131 -0.016886 -677738.000000 0 0 1
10.149638 24.334711 19.258245 32.650778 1.175649 0.939954 0.082576 -0.020451 -882456.000000 0 0 1
8.782338 24.483411 19.209245 32.335150 1.226387 0.934691 0.080434 -0.025585 -1490770.000000 0 0 1
8.231338 25.205011 20.228145 33.350042 1.255140 0.919095 0.074606 -0.030818 -126525.000000 0 0 1
6.745138 25.590611 19.919945 33.123714 1.313079 0.925569 0.071621 -0.025879 20597.700000 0 0 1
6.571838 26.538211 18.899845 33.236573 1.328043 0.965937 0.071912 -0.033301 -569396.000000 0 0 1
5.267938 26.773111 18.446245 32.936523 1.376516 0.976345 0.052367 -0.029494 -1274390.000000 0 0 1
5.172138 27.917911 17.373445 33.286594 1.387611 1.021678 0.044999 -0.020294 -291575.000000 0 0 1
5.735238 27.727111 16.114445 32.578535 1.366827 1.053383 0.040884 -0.016145 -237457.000000 0 0 1
6.532038 28.774411 15.613845 33.383025 1.347571 1.084089 0.031805 -0.010802 -184852.000000 0 0 1
7.449038 28.291711 14.499345 32.651800 1.313345 1.110672 0.034645 -0.014959 -245221.000000 0 0 1
6.776138 28.085411 13.276645 31.795843 1.334052 1.140039 0.019685 -0.011629 143467.000000 0 0 1
7.266638 26.907811 12.583045 30.580506 1.307032 1.146727 0.008185 -0.013130 244606.000000 0 0 1
6.506038 26.811611 11.226245 29.786231 1.332740 1.184356 -0.010297 -0.014482 -51842.900000 0 0 1
6.966838 27.671211 10.212345 30.307173 1.324151 1.227109 -0.011190 -0.009660 -54366.000000 0 0 1
6.775138 29.055011 10.340545 31.575671 1.341707 1.237156 -0.009445 -0.001189 -498629.000000 0 0 1
6.771238 29.897711 8.986245 31.944880 1.348074 1.285643 -0.005113 0.005301 -705359.000000 0 0 1
5.686238 29.623511 8.150245 31.245995 1.381153 1.306903 -0.003566 -0.009729 -449671.000000 0 0 1
5.928738 28.657311 7.152645 30.125599 1.366790 1.331080 -0.007919 0.001154 508600.000000 0 0 1
4.558838 28.282311 6.515545 29.378979 1.410981 1.347161 -0.008346 0.002812 635044.000000 0 0 1
3.803538 29.255611 5.862945 30.078760 1.441511 1.374621 -0.004734 -0.000806 -1580350.000000 0 0 1
2.497838 28.913511 5.666245 29.569184 1.484620 1.377977 0.008522 -0.011541 -965325.000000 0 0 1
1.680138 29.904911 4.834245 30.339685 1.514673 1.410777 0.018728 -0.010897 -553170.000000 0 0 1
2.281938 30.025511 3.572145 30.323238 1.494942 1.452720 -0.007342 -0.010971 -209765.000000 0 0 1
1.663238 30.911611 2.683845 31.072449 1.517042 1.484315 -0.017260 -0.017253 1542160.000000 0 0 1
0.194538 30.444411 2.225545 30.526268 1.564406 1.497826 0.029385 -0.017686 1127800.000000 0 0 1
0.301738 29.315611 1.399645 29.350555 1.560504 1.523091 0.028401 -0.014764 176001.000000 0 0 1
-0.805862 28.422811 1.580945 28.478149 -1.542451 1.515253 0.028893 -0.013325 766000.000000 0 0 1
-1.607862 28.131211 0.257245 28.178297 -1.513703 1.561667 0.026082 -0.014344 256196.000000 0 0 1
-2.147562 29.372011 -0.178855 29.450960 -1.497810 1.576869 0.027263 -0.009973 -174907.000000 0 0 1
-1.595662 29.734511 -1.412655 29.810784 -1.517184 1.618201 0.012356 -0.012970 -818560.000000 0 0 1
-2.390762 30.757011 -2.192655 30.927612 -1.493222 1.641752 0.018552 -0.014433 31936.900000 0 0 1
-3.697962 30.500911 -2.666655 30.839772 -1.450144 1.657373 0.018226 -0.010025 342172.000000 0 0 1
-3.645362 29.561511 -3.731655 30.018275 -1.448101 1.695432 0.008298 -0.010156 -746820.000000 0 0 1
-4.948062 29.313211 -4.512655 30.068450 -1.403573 1.721445 0.015752 -0.001369 -404298.000000 0 0 1
-5.372062 30.434611 -5.264855 31.350332 -1.396084 1.739532 0.012703 -0.005623 397909.000000 0 0 1
-6.247062 29.984411 -6.329755 31.275493 -1.365391 1.774591 0.010877 -0.007475 57677.100000 0 0 1
-6.933362 31.162411 -7.004555 32.683806 -1.351871 1.786784 0.013135 -0.011332 -201607.000000 0 0 1
-7.945362 31.747311 -6.184955 33.305768 -1.325565 1.757583 0.019523 -0.002391 223662.000000 0 0 1
-8.392462 32.894211 -6.845655 34.631279 -1.320991 1.769779 0.014919 -0.002740 -795455.000000 0 0 1
-9.360562 33.798111 -6.103955 35.597622 -1.300613 1.743119 0.022789 -0.005311 -588710.000000 0 0 1
-10.681162 33.455911 -6.404755 35.698825 -1.261764 1.751184 0.023407 -0.000841 -1030130.000000 0 0 1
-11.559962 -34.338603 -6.065355 36.736370 1.246067 1.736661 0.030166 0.000734 256427.000000 0 0 1
-13.075462 34.116711 -6.100755 37.042366 -1.204807 1.736247 0.039345 0.001586 541765.000000 0 0 1
-13.467662 34.021811 -7.453455 37.341874 -1.193869 1.771746 0.034839 -0.004340 -1343880.000000 0 0 1
-14.820762 33.892611 -7.603755 37.764814 -1.158566 1.773527 0.041866 -0.009724 -1800740.000000 0 0 1
-15.292962 33.540411 -9.072955 37.962513 -1.143000 1.812130 0.057790 -0.022598 -106758.000000 0 0 1
-16.659762 33.536011 -9.380555 38.603193 -1.109734 1.816253 0.077771 -0.026893 123124.000000 0 0 1
-17.457862 -34.095403 -9.191255 39.392291 1.097571 1.806293 0.079844 -0.028613 260384.000000 0 0 1
-18.968462 -34.376203 -9.555855 40.408418 1.066579 1.809540 0.079856 -0.033200 954619.000000 0 0 1
-19.602062 33.453911 -8.699055 39.737621 -1.040777 1.791496 0.069376 -0.030918 281408.000000 0 0 1
-19.956362 33.984711 -7.433255 40.105738 -1.039830 1.757216 0.061068 -0.010076 -547439.000000 0 0 1
-20.221662 33.039411 -6.285555 39.243171 -1.021566 1.731659 0.053577 -0.018402 -341129.000000 0 0 1
-19.993562 33.561111 -4.951355 39.377742 -1.033518 1.696870 0.044093 -0.015720 518140.000000 0 0 1
-21.128762 33.454111 -4.068155 39.776274 -1.007483 1.673251 0.038746 -0.019190 326800.000000 0 0 1
-22.012862 -34.097903 -4.169055 40.799683 0.997536 1.673159 0.044338 -0.018879 -253151.000000 0 0 1
-22.677662 -34.016703 -5.419355 41.240536 0.982797 1.702586 0.054494 -0.020083 -153117.000000 0 0 1
-23.481462 -32.863803 -5.456555 40.757608 0.950399 1.705078 0.043505 -0.025034 219679.000000 0 0 1
-24.182662 -32.688003 -6.845855 41.233147 0.933854 1.737597 0.052408 -0.017609 189036.000000 0 0 1
-23.192062 -32.391103 -7.820755 40.598270 0.949412 1.764646 0.077843 -0.012340 386249.000000 0 0 1
-23.593162 -32.582703 -9.190755 41.264268 0.944078 1.795409 0.053300 -0.009807 580196.000000 0 0 1
-24.767162 -31.777403 -9.853155 41.476503 0.908746 1.810649 0.041489 -0.009389 1035730.000000 0 0 1
-26.107332 -32.131703 -9.488955 42.474456 0.888474 1.796101 0.035313 -0.008712 969658.000000 0 0 1
-27.193502 -31.592403 -10.214555 42.917405 0.860088 1.811108 -0.005690 0.001273 290280.000000 0 0 1
-27.423492 -30.037803 -10.087855 41.905636 0.830864 1.813912 -0.014892 0.003734 -948553.000000 0 0 1
-26.630902 -29.176803 -10.862955 40.969435 0.830986 1.839154 -0.013587 0.007533 -130447.000000 0 0 1
-26.926762 -29.113903 -12.224255 41.498220 0.824406 1.869805 -0.009945 0.006418 192213.000000 0 0 1
-25.702712 -28.495603 -12.950955 40.501309 0.836884 1.896279 0.008143 0.009816 489318.000000 0 0 1
-24.517562 -29.276103 -13.004655 40.340081 0.873628 1.899034 0.020785 0.003753 439466.000000 0 0 1
-23.521262 -28.718803 -13.852555 39.622124 0.884565 1.927958 0.030643 0.003042 722936.000000 0 0 1
-22.243562 -29.633703 -13.935455 39.586984 0.926900 1.930526 0.051337 -0.010143 398317.000000 0 0 1
-22.307762 -30.828803 -14.652755 40.776888 0.944406 1.938357 0.051962 -0.005684 -233001.000000 0 0 1
-22.878262 -31.869403 -13.927855 41.630024 0.948174 1.911938 0.038897 -0.005146 -189617.000000 0 0 1
-23.141362 -33.207103 -14.710255 43.065368 0.962167 1.919394 0.034455 -0.002205 -83896.000000 0 0 1
-23.343762 -34.364303 -13.856355 43.793094 0.974097 1.892734 0.029821 -0.012105 49855.100000 0 0 1
-23.400162 33.223311 -14.544555 43.161326 -0.957170 1.914505 0.033744 -0.017295 -430937.000000 0 0 1
-23.854962 32.106511 -13.646455 42.262430 -0.931794 1.899586 0.021754 -0.013211 -599646.000000 0 0 1
-23.069562 31.701311 -12.538055 41.162855 -0.941710 1.880311 0.022729 -0.012996 68863.800000 0 0 1
-22.935162 32.699811 -11.499755 41.563730 -0.959141 1.851131 0.052040 -0.014259 61599.800000 0 0 1
-22.189662 32.169811 -10.232255 40.397734 -0.966971 1.826874 0.050257 -0.020086 46679.500000 0 0 1
-22.917762 31.247111 -9.444755 39.884949 -0.937981 1.809867 0.050574 -0.012861 322289.000000 0 0 1
-22.113962 30.710011 -8.383255 38.760948 -0.946714 1.788800 0.047332 -0.013666 119915.000000 0 0 1
-22.811862 29.639011 -7.490555 38.143944 -0.914833 1.768457 0.040431 -0.018299 -57639.500000 0 0 1
-23.243262 28.508011 -8.141455 37.672791 -0.886781 1.788625 0.041306 -0.010308 16909.600000 0 0 1
-23.785362 27.467411 -7.362555 37.073027 -0.857116 1.770722 0.037898 -0.012956 -182826.000000 0 0 1
-22.773062 26.695511 -6.499355 35.686192 -0.864524 1.753944 0.044573 -0.011594 -104787.000000 0 0 1
-22.410162 27.349411 -5.317755 35.755897 -0.884336 1.720074 0.041605 -0.008953 -903341.000000 0 0 1
-21.274562 26.856911 -4.753155 34.590362 -0.900864 1.708645 0.040858 -0.010105 -1204060.000000 0 0 1
-20.095062 27.844011 -4.661655 34.653016 -0.945654 1.705729 0.028918 -0.012030 -618552.000000 0 0 1
-19.382462 27.791211 -5.823255 34.379377 -0.961796 1.740999 0.036033 -0.014408 -1179540.000000 0 0 1
-18.308762 28.653211 -5.766855 34.488750 -1.002209 1.738795 0.032624 -0.012229 -735854.000000 0 0 1
-17.242662 28.429611 -6.858355 33.949804 -1.025608 1.774211 0.041203 -0.013070 -637838.000000 0 0 1
-17.483062 28.841511 -8.176555 34.703692 -1.025847 1.808643 0.043617 -0.023838 98164.400000 0 0 1
-17.576262 30.266811 -8.398755 35.993665 -1.044681 1.806307 0.046566 -0.022253 -188480.000000 0 0 1
-17.675462 30.638011 -9.891255 36.728008 -1.047526 1.843474 0.053093 -0.029174 -428456.000000 0 0 1
-16.483262 30.411911 -10.591755 36.176892 -1.074116 1.867926 0.047242 -0.027400 -189345.000000 0 0 1
-16.456662 31.191711 -11.719055 37.162896 -1.085315 1.891614 0.057206 -0.029196 -83950.000000 0 0 1
-15.049062 31.138211 -12.365555 36.728319 -1.120599 1.914181 0.047824 -0.024439 310455.000000 0 0 1
-14.869562 32.043511 -13.425055 37.790509 -1.136326 1.933977 0.049649 -0.023765 154064.000000 0 0 1
-15.549362 31.493811 -14.572055 38.026143 -1.112179 1.964067 0.045518 -0.021914 169969.000000 0 0 1
-15.220462 32.314011 -15.876455 39.088612 -1.130602 1.989051 0.066850 -0.026076 -131829.000000 0 0 1
-13.845562 32.135811 -16.093255 38.514968 -1.163985 2.001867 0.063904 -0.023939 -526371.000000 0 0 1
-13.453162 32.688911 -17.328455 39.367853 -1.180372 2.026582 0.037791 -0.024101 -157008.000000 0 0 1
-11.911762 32.588211 -17.471855 38.847745 -1.220359 2.037284 0.064091 -0.024773 18873.300000 0 0 1
-11.525762 31.200011 -17.532755 37.598954 -1.216931 2.055911 0.064672 -0.030961 -56423.100000 0 0 1
-10.229462 31.085611 -18.097055 37.395996 -1.252884 2.075937 0.063909 -0.020461 189041.000000 0 0 1
-10.138562 31.066011 -19.596255 38.103815 -1.255339 2.110971 0.077027 -0.024283 -559845.000000 0 0 1
-10.643362 29.908311 -20.133755 37.591971 -1.228905 2.135999 0.053814 -0.026133 68963.400000 0 0 1
-10.223962 29.756711 -21.499655 38.108089 -1.239848 2.170231 0.054442 -0.027349 -237030.000000 0 0 1
-11.431762 29.644411 -22.474955 38.917861 -1.202739 2.186456 0.053171 -0.025757 138717.000000 0 0 1
-12.200362 30.794811 -22.624755 40.112950 -1.193585 2.170050 0.043443 -0.025518 -418368.000000 0 0 1
-13.313362 30.839311 -21.771355 40.028747 -1.163264 2.145866 0.043284 -0.022018 -872425.000000 0 0 1
-14.096062 32.123011 -21.953555 41.382912 -1.157283 2.129984 0.056606 -0.028856 -435199.000000 0 0 1
-14.860662 32.119911 -23.134755 42.281732 -1.137463 2.149761 0.045899 -0.027919 -168739.000000 0 0 1
-15.510462 33.375711 -23.319355 43.569540 -1.135766 2.135566 0.034952 -0.033936 339468.000000 0 0 1
-16.076462 33.437411 -24.754655 44.601637 -1.122632 2.159179 0.030537 -0.027400 345358.000000 0 0 1
-14.995362 33.386811 -25.698755 44.720980 -1.148658 2.182968 0.030167 -0.024539 317010.000000 0 0 1
-15.330962 33.363611 -27.068455 45.616556 -1.140061 2.206062 0.034348 -0.013912 -87428.700000 0 0 1
-15.779462 -34.177903 -27.756355 46.771099 1.138267 2.206136 0.028594 -0.005364 -239659.000000 0 0 1
-16.970862 -33.686603 -27.200855 46.504665 1.104124 2.195560 0.027114 -0.004842 -421002.000000 0 0 1
-17.289462 -32.439303 -27.835655 46.109192 1.081115 2.218918 0.023696 0.007340 -564658.000000 0 0 1
-18.735362 -32.093503 -27.522055 46.243597 1.042393 2.208253 0.019450 -0.001565 -799593.000000 0 0 1
-19.689662 -32.993503 -27.990455 47.536508 1.032752 2.200395 0.013935 0.000256 -714875.000000 0 0 1
-20.885562 -32.788803 -27.263855 47.482945 1.003634 2.182401 0.021255 0.000069 151142.000000 0 0 1
-22.007362 -33.812903 -27.474155 48.810507 0.993819 2.168655 0.018824 0.008624 61750.800000 0 0 1
-21.797262 33.728611 -26.899255 48.335388 -0.997059 2.160979 0.037986 -0.002499 599431.000000 0 0 1
-22.997162 32.953011 -27.164055 48.504188 -0.961496 2.165225 0.030527 -0.003570 1152150.000000 0 0 1
-22.871662 31.478311 -26.782555 47.236662 -0.942450 2.173639 0.035976 -0.005861 167153.000000 0 0 1
-22.756862 31.219811 -25.366555 46.217026 -0.940921 2.151793 0.041997 -0.007217 -365057.000000 0 0 1
-23.203662 29.912611 -25.170955 45.461536 -0.911040 2.157568 0.038174 -0.012551 -231557.000000 0 0 1
30.767908 10.105011 -26.354568 41.753307 0.317328 2.253892 0.016000 0.013300 -120496.000000 0 0 1
30.315988 8.767311 -26.262808 41.056789 0.281517 2.264866 0.024065 0.010094 -449783.000000 0 0 1
28.937708 8.587211 -26.333498 40.057262 0.288471 2.288155 0.027398 0.005107 -472057.000000 0 0 1
28.501548 7.149811 -25.986268 39.226830 0.245785 2.294896 0.031209 0.002070 -116472.000000 0 0 1
28.811338 6.883311 -24.667158 38.547916 0.234514 2.265176 0.028784 0.006868 36343.000000 0 0 1
28.445178 5.597711 -24.262058 37.803571 0.194307 2.267630 0.027573 0.001175 14056.300000 0 0 1
28.552698 5.361811 -22.716658 36.878885 0.185625 2.234426 0.026374 -0.002859 806163.000000 0 0 1
29.878708 5.080911 -22.234458 37.588881 0.168440 2.203735 0.043976 -0.003222 986499.000000 0 0 1
29.704168 4.723311 -20.899658 36.625715 0.157692 2.178067 0.035324 -0.005128 19911.200000 0 0 1
31.064128 4.521011 -20.212058 37.335598 0.144523 2.142852 0.043732 -0.006878 -192518.000000 0 0 1
31.683388 3.259111 -20.383758 37.814765 0.102504 2.140096 0.048429 -0.004256 692018.000000 0 0 1
32.548298 2.965711 -19.264958 37.938447 0.090866 2.103420 0.048929 -0.005969 168556.000000 0 0 1
33.116108 1.531011 -19.132758 38.276403 0.046199 2.094231 0.056197 -0.010658 -709709.000000 0 0 1
32.171478 0.635211 -18.732158 37.233066 0.019742 2.097985 0.058033 -0.004452 -735440.000000 0 0 1
32.629568 -0.651789 -18.959558 37.743587 -0.019973 2.097082 0.057563 0.001695 88574.800000 0 0 1
31.558978 -1.720989 -18.621058 36.683439 -0.054479 2.103211 0.037516 -0.000206 279743.000000 0 0 1
31.392208 -2.058589 -17.242558 35.874982 -0.065483 2.072168 0.038234 -0.001334 56039.100000 0 0 1
30.125598 -1.658089 -16.761958 34.514695 -0.054984 2.077900 0.027078 -0.003958 -86919.100000 0 0 1
30.007238 -1.875489 -15.231858 33.704025 -0.062420 2.039724 0.027845 -0.011843 -219320.000000 0 0 1
30.008498 -3.174289 -14.764158 33.594143 -0.105388 2.025823 0.036297 -0.003537 586868.000000 0 0 1
28.790098 -3.442189 -14.086058 32.235624 -0.118997 2.023026 0.037082 -0.009455 -182160.000000 0 0 1
28.521298 -4.844489 -13.638458 31.983450 -0.168249 2.011330 0.036623 -0.009948 -350143.000000 0 0 1
28.137018 -5.685389 -14.698258 32.249872 -0.199376 2.044024 0.034975 -0.008857 416405.000000 0 0 1
27.806458 -6.990789 -14.186858 31.989642 -0.246304 2.030277 0.028219 -0.005473 -423470.000000 0 0 1
27.155738 -7.932689 -15.173758 32.103031 -0.284210 2.063101 0.011109 0.004651 -331263.000000 0 0 1
25.902538 -7.444889 -15.602558 31.141735 -0.279875 2.095571 0.018412 -0.003404 312539.000000 0 0 1
25.146838 -8.507789 -16.222658 31.111422 -0.326236 2.119331 -0.000393 0.005267 87024.400000 0 0 1
23.739038 -8.166089 -16.709858 30.157027 -0.331314 2.158072 0.001718 0.004045 -472878.000000 0 0 1
23.530738 -7.452289 -17.922958 30.503519 -0.306711 2.198849 -0.004071 0.004420 -815281.000000 0 0 1
22.204338 -7.433789 -18.342758 29.744758 -0.323061 2.235304 0.016060 0.004355 -704721.000000 0 0 1
22.036738 -7.525289 -19.880958 30.618627 -0.329072 2.277472 0.006347 0.000847 -218693.000000 0 0 1
22.357538 -6.398589 -20.630558 31.087319 -0.278743 2.296461 -0.009651 -0.009556 165290.000000 0 0 1
22.596238 -6.778489 -21.952358 32.224896 -0.291441 2.320229 0.007568 -0.012996 -293596.000000 0 0 1
23.142438 -5.741589 -22.904858 33.063134 -0.243188 2.336107 0.000210 -0.010100 -315409.000000 0 0 1
23.189538 -6.187989 -24.259758 34.125969 -0.260768 2.361557 0.011601 -0.011016 132428.000000 0 0 1
23.470238 -5.097389 -25.115738 34.751054 -0.213864 2.378545 0.013518 -0.012271 -485598.000000 0 0 1
23.478638 -5.487489 -26.597008 35.899301 -0.229601 2.405173 0.031000 -0.011793 -377809.000000 0 0 1
22.253338 -5.976389 -27.095818 35.568408 -0.262371 2.436875 0.047924 -0.015808 -159317.000000 0 0 1
22.375638 -6.409289 -28.413528 36.729780 -0.278971 2.455272 0.039615 -0.014669 -306891.000000 0 0 1
21.134638 -7.118089 -28.932548 36.529885 -0.324865 2.484914 0.029280 -0.016323 -337104.000000 0 0 1
20.868438 -8.396789 -28.449438 36.268007 -0.382546 2.472561 0.026221 -0.013553 200338.000000 0 0 1
19.897538 -9.073389 -29.231298 36.506263 -0.427837 2.499293 0.023283 -0.010963 -70758.500000 0 0 1
19.784038 -10.518289 -28.815668 36.501853 -0.488650 2.480677 0.037905 -0.005326 -629989.000000 0 0 1
18.787638 -10.752689 -27.867588 35.287365 -0.519824 2.481170 0.046967 -0.005740 -91712.100000 0 0 1
18.774838 -12.000389 -27.224668 35.180768 -0.568727 2.455695 0.056333 -0.011671 -236139.000000 0 0 1
18.597938 -13.286589 -28.105138 36.225896 -0.620333 2.458826 0.044668 -0.006338 -1080600.000000 0 0 1
17.395538 -13.483689 -28.733158 36.194046 -0.659387 2.487934 0.049689 -0.011007 -652915.000000 0 0 1
17.478238 -14.650189 -29.539498 37.318880 -0.697601 2.484126 0.041823 -0.017009 -199423.000000 0 0 1
16.318738 -14.981289 -30.513308 37.706793 -0.742694 2.513629 0.039912 -0.019057 -39127.400000 0 0 1
15.206138 -15.602389 -29.878728 36.978366 -0.798259 2.511556 0.046190 -0.021264 656158.000000 0 0 1
14.277538 -15.982889 -30.909488 37.612462 -0.841694 2.535339 0.044930 -0.026652 -338501.000000 0 0 1
13.007138 -16.552089 -30.282598 36.880795 -0.904755 2.534121 0.056295 -0.027343 -519141.000000 0 0 1
13.177038 -17.849989 -29.772378 37.130189 -0.934884 2.501160 0.049954 -0.031579 376836.000000 0 0 1
12.353738 -18.045389 -28.612648 36.012978 -0.970486 2.488996 0.060064 -0.035242 238275.000000 0 0 1
12.679538 -19.404989 -27.873848 36.252941 -0.992023 2.447870 0.060390 -0.035623 -94569.500000 0 0 1
13.848238 -19.313689 -27.094228 36.040109 -0.948741 2.421553 0.053896 -0.026360 -97633.500000 0 0 1
13.704238 -20.191889 -25.988248 35.649791 -0.974509 2.387638 0.056404 -0.024509 1077280.000000 0 0 1
14.986638 -20.150089 -25.029458 35.455595 -0.931307 2.354543 0.049302 -0.013241 678006.000000 0 0 1
16.202738 -20.470589 -25.626958 36.582984 -0.901252 2.346916 0.046356 -0.017349 16624.200000 0 0 1
17.245238 -20.475289 -24.660258 36.397308 -0.870821 2.315195 0.052574 -0.017170 458965.000000 0 0 1
18.702838 -20.835389 -25.096638 37.599878 -0.839282 2.301597 0.030891 -0.012980 537086.000000 0 0 1
18.964238 -22.225089 -25.388208 38.706046 -0.864401 2.286202 0.025591 -0.011086 235673.000000 0 0 1
18.742738 -23.107389 -24.327158 38.432438 -0.889315 2.256199 0.028425 -0.010281 -630333.000000 0 0 1
19.138538 -24.586489 -24.616858 39.708548 -0.909355 2.239461 0.033058 -0.015348 -830604.000000 0 0 1
20.519738 -24.761089 -24.539158 40.451718 -0.878793 2.222609 0.040452 -0.010941 -545085.000000 0 0 1
20.815338 -26.042469 -24.005958 41.082533 -0.896492 2.194857 0.042992 -0.025695 -241567.000000 0 0 1
20.699938 -26.191719 -22.418058 40.212721 -0.901983 2.162152 0.052735 -0.028799 -251256.000000 0 0 1
19.397038 -26.008719 -21.896758 39.142899 -0.929995 2.164465 0.058304 -0.025320 -7667.460000 0 0 1
19.301038 -26.011139 -20.483458 38.323380 -0.932416 2.134700 0.046810 -0.020329 -156268.000000 0 0 1
17.992238 -26.466689 -19.804758 37.635551 -0.973752 2.124951 0.045252 -0.019654 -510838.000000 0 0 1
17.897538 -27.854739 -20.076458 38.720441 -0.999690 2.115889 0.041873 -0.017181 115288.000000 0 0 1
16.974838 -28.657879 -19.359758 38.525568 -1.036038 2.097304 0.027674 -0.006342 -232456.000000 0 0 1
15.489038 -28.460909 -19.634858 37.887482 -1.072400 2.115590 0.020717 -0.006932 -731234.000000 0 0 1
14.847738 -27.332719 -19.112058 36.507583 -1.073172 2.121761 0.027433 -0.004439 471776.000000 0 0 1
13.465638 -27.383199 -19.495158 36.210830 -1.113772 2.139309 0.018294 0.003303 855156.000000 0 0 1
12.420538 -26.525029 -18.771758 34.788300 -1.132864 2.140758 0.009925 -0.006527 -523711.000000 0 0 1
11.994238 -26.973339 -17.510858 34.322776 -1.152384 2.106193 0.013176 -0.006295 -219361.000000 0 0 1
11.054738 -26.093049 -16.948758 33.019916 -1.170056 2.109809 0.019098 -0.019177 385290.000000 0 0 1
9.564438 -26.328789 -17.348358 32.949190 -1.222350 2.125297 0.013622 -0.008562 -203900.000000 0 0 1
8.983838 -27.517639 -16.761758 33.449759 -1.255230 2.095669 0.013991 -0.006957 -74341.500000 0 0 1
7.587338 -27.345479 -16.648658 32.901683 -1.300142 2.101352 0.008990 0.005452 192583.000000 0 0 1
6.828338 -28.099079 -17.761958 33.936288 -1.332408 2.121622 0.008827 0.008507 -308894.000000 0 0 1
7.046338 -27.603589 -19.061258 34.277406 -1.320865 2.160468 0.006579 0.010841 -681116.000000 0 0 1
6.176638 -28.237879 -19.900858 35.093772 -1.355452 2.173749 0.014042 0.012094 -579371.000000 0 0 1
6.269338 -27.585519 -21.287158 35.403511 -1.347323 2.215889 0.010375 0.004665 59553.800000 0 0 1
5.283138 -26.575329 -21.586258 34.642838 -1.374556 2.243508 0.012363 0.001595 358354.000000 0 0 1
5.580038 -25.882429 -22.742558 34.903595 -1.358455 2.280465 0.017851 -0.003206 -214107.000000 0 0 1
4.353738 -25.079329 -23.237058 34.465761 -1.398911 2.310687 0.004634 0.001824 1299.920000 0 0 1
3.393438 -26.014919 -23.661558 35.329319 -1.441087 2.304659 0.004165 0.002480 -157213.000000 0 0 1
2.261538 -25.405359 -24.260558 35.201158 -1.482012 2.331178 0.010980 -0.001591 98727.600000 0 0 1
1.266138 -26.365479 -24.892658 36.282035 -1.522811 2.326894 0.011818 -0.011510 -357183.000000 0 0 1
1.653838 -26.817579 -26.192718 37.523009 -1.509204 2.343459 0.007652 -0.001159 -64440.000000 0 0 1
0.951338 -27.947279 -26.604468 38.597321 -1.536769 2.331295 0.016673 -0.011371 -359527.000000 0 0 1
1.711438 -28.813449 -27.596408 39.933766 -1.511469 2.333743 0.010186 -0.008939 -756284.000000 0 0 1
2.055338 -28.128699 -28.773098 40.290685 -1.497857 2.366188 0.008477 -0.010030 321545.000000 0 0 1
2.825938 -28.853699 -29.750778 41.540711 -1.473167 2.369115 0.012328 -0.011065 -323265.000000 0 0 1
4.294438 -29.067119 -29.440948 41.594580 -1.424115 2.357186 0.013827 -0.015659 -1400850.000000 0 0 1
4.504838 -29.998629 -28.430208 41.575090 -1.421742 2.323792 0.017063 -0.018407 -253311.000000 0 0 1
5.644338 -30.806999 -28.657528 42.452134 -1.389590 2.311836 0.029306 -0.015855 285838.000000 0 0 1
5.871538 -31.825349 -27.545318 42.497910 -1.388355 2.275958 0.037014 -0.026274 -30856.300000 0 0 1
4.884138 -32.839359 -27.536878 43.134186 -1.423150 2.263215 0.035501 -0.032384 -198502.000000 0 0 1
5.320038 -34.065161 -26.959818 43.767223 -1.415875 2.234428 0.040376 -0.036349 264308.000000 0 0 1
4.139238 33.759203 -26.702198 43.241467 1.448795 2.236374 0.059215 -0.040925 232503.000000 0 0 1
3.561838 33.222835 -27.884998 43.520301 1.463994 2.266252 0.052571 -0.041370 4192.050000 0 0 1
2.256838 32.803288 -27.542148 42.891945 1.502105 2.268068 0.040168 -0.043123 -117953.000000 0 0 1
1.265738 32.835332 -28.720278 43.641901 1.532267 2.289075 0.039056 -0.030139 -337876.000000 0 0 1
1.207938 31.697434 -29.582208 43.373881 1.532706 2.321329 0.053829 -0.025561 -223015.000000 0 0 1
0.376638 32.091514 -30.626178 44.361807 1.559061 2.332800 0.050735 -0.022747 -115572.000000 0 0 1
0.111038 30.952634 -31.672108 44.285442 1.567209 2.367679 0.048142 -0.022835 317025.000000 0 0 1
1.253838 30.730814 -32.495558 44.742780 1.530018 2.383684 0.059137 -0.021001 148145.000000 0 0 1
0.978138 29.814984 -33.518598 44.870775 1.538001 2.414339 0.066993 -0.020065 -409211.000000 0 0 1
2.076038 29.524954 34.210742 45.237238 1.500597 0.713231 0.064209 -0.015593 -164869.000000 0 0 1
2.440538 30.527334 33.271733 45.220378 1.491020 0.743995 0.054818 -0.020398 239955.000000 0 0 1
3.473738 30.116434 32.365435 44.346227 1.455960 0.752716 0.033770 -0.014447 59849.000000 0 0 1
3.031638 29.162284 31.203855 42.817172 1.467211 0.754273 0.043108 -0.016791 -47060.400000 0 0 1
2.765738 27.852164 31.641625 42.244346 1.471820 0.724223 0.047781 -0.015641 187337.000000 0 0 1
3.916738 27.002154 31.561515 41.720335 1.426748 0.712849 0.038531 -0.009320 291650.000000 0 0 1
3.689938 25.523994 31.839675 40.973831 1.427224 0.680794 0.054382 -0.014821 -43201.600000 0 0 1
2.913438 24.889034 30.839685 39.737115 1.454270 0.682350 0.052553 0.000299 214296.000000 0 0 1
2.908138 23.460724 31.027035 39.006919 1.447468 0.651090 0.042311 0.000862 -174353.000000 0 0 1
2.097738 22.712124 29.930855 37.631066 1.478696 0.651168 0.033436 0.011968 294966.000000 0 0 1
0.715738 22.896324 30.202715 37.907228 1.539547 0.648893 0.017622 0.015836 -40634.800000 0 0 1
-0.067962 22.095124 29.333795 36.724252 -1.567720 0.645568 0.035604 0.009218 -1027000.000000 0 0 1
-1.337262 21.625924 29.961655 36.975257 -1.509039 0.626105 0.044189 0.007908 -1085340.000000 0 0 1
-2.207862 22.739924 30.175815 37.849156 -1.474008 0.648045 0.049451 0.001444 69014.600000 0 0 1
-3.536362 22.250424 30.207775 37.684173 -1.413180 0.640823 0.042495 -0.002169 -541081.000000 0 0 1
-4.584762 23.274724 30.503115 38.641595 -1.376302 0.660989 0.011726 -0.009548 -849631.000000 0 0 1
-4.775162 23.591024 31.835655 39.910494 -1.371080 0.647364 0.016763 -0.007659 62528.900000 0 0 1
-4.593262 24.982844 32.000705 40.856893 -1.388970 0.670938 0.019888 -0.011425 -212350.000000 0 0 1
-4.796062 25.433674 33.427423 42.276076 -1.384414 0.658855 0.032449 -0.010365 192686.000000 0 0 1
-6.114562 25.813904 33.778898 42.950663 -1.338212 0.665743 0.019394 -0.008179 -30930.400000 0 0 1
-6.235762 26.003014 -33.584528 42.929734 -1.335432 2.469168 0.021414 -0.007830 -180635.000000 0 0 1
-7.684262 26.385644 -33.255388 43.141291 -1.287406 2.450968 0.027679 -0.002087 -333713.000000 0 0 1
-8.019962 27.686364 -33.731678 44.369817 -1.288842 2.434478 0.020626 -0.002866 50445.300000 0 0 1
-9.281062 28.161294 -33.282788 44.575112 -1.252438 2.413834 0.014477 -0.003383 226925.000000 0 0 1
-9.429362 28.604224 -31.853378 43.837795 -1.252365 2.384184 0.019065 0.000030 -501674.000000 0 0 1
-9.021162 29.876764 -31.554678 44.381304 -1.277555 2.361702 0.024242 -0.004382 -12005.700000 0 0 1
-9.101362 30.199294 -30.172898 43.649009 -1.278077 2.334030 0.031650 -0.004810 -391704.000000 0 0 1
-8.546562 31.612984 -29.797338 44.275342 -1.306759 2.309055 0.023312 -0.008840 782044.000000 0 0 1
-7.133262 31.790914 -29.948128 44.254221 -1.350072 2.314107 0.010370 -0.013873 449290.000000 0 0 1
-6.633562 33.027778 -29.480748 44.765532 -1.372586 2.289699 0.017783 -0.003423 36266.200000 0 0 1
-5.105662 32.935356 -29.248928 44.343041 -1.417000 2.291091 0.024520 -0.011631 337399.000000 0 0 1
-4.430962 34.146894 -28.792248 44.884712 -1.441756 2.267211 0.029287 -0.015932 256169.000000 0 0 1
-4.298862 -33.594469 -29.770028 45.092385 1.443525 2.291882 0.038804 -0.018178 292285.000000 0 0 1
-3.209162 -33.794959 -30.911058 45.911780 1.476120 2.309420 0.046242 -0.031947 384378.000000 0 0 1
-3.602562 34.136652 -31.915418 46.870923 -1.465652 2.319816 0.045789 -0.025658 -172283.000000 0 0 1
-4.493762 -34.240319 -32.906308 47.701347 1.440300 2.332065 0.057395 -0.026399 175014.000000 0 0 1
-3.796962 -33.357639 -34.017818 47.794989 1.457458 2.362775 0.032837 -0.026119 5922.940000 0 0 1
-3.667262 -31.997809 -33.640838 46.572681 1.456684 2.377962 0.026068 -0.018530 234606.000000 0 0 1
-2.612862 -31.344379 -34.340778 46.568082 1.487629 2.400056 0.019722 -0.022751 332428.000000 0 0 1
31.061198 19.592811 12.775545 38.883040 0.562746 1.236014 0.068802 -0.027623 -14538.300000 0 0 1
32.028048 18.872611 13.534345 39.561974 0.532480 1.221640 0.060652 -0.030402 192242.000000 0 0 1
32.023698 17.501911 13.198445 38.807641 0.500175 1.223774 0.055968 -0.026342 -1099320.000000 0 0 1
33.082498 16.715611 13.895045 39.584537 0.467855 1.212134 0.077708 -0.037783 -1005230.000000 0 0 1
34.300858 16.919711 13.229145 40.470183 0.458252 1.237789 0.071523 -0.014647 -666701.000000 0 0 1
35.327328 16.215811 13.860445 41.268445 0.430326 1.228278 0.061033 -0.019603 294338.000000 0 0 1
-34.880628 15.756211 12.949845 40.405629 -0.424282 1.244543 0.063224 -0.032410 828711.000000 0 0 1
-34.105647 14.597811 13.254745 39.395171 -0.404424 1.227645 0.066065 -0.038985 395010.000000 0 0 1
-34.881570 13.432111 13.069245 39.597357 -0.367576 1.234436 0.066837 -0.036478 -97975.600000 0 0 1
-34.197996 12.296911 13.816745 38.879550 -0.345184 1.207483 0.069840 -0.033831 61468.700000 0 0 1
-34.147813 12.515411 15.210145 39.421532 -0.351304 1.174685 0.066641 -0.036714 112501.000000 0 0 1
-33.661572 11.390311 15.910145 38.935502 -0.326283 1.149846 0.063667 -0.039692 -168341.000000 0 0 1
-33.247792 11.823211 17.338445 39.316989 -0.341663 1.114094 0.061601 -0.025632 -451289.000000 0 0 1
-34.310024 12.358611 18.081345 40.704398 -0.345736 1.110503 0.058580 -0.020984 -413333.000000 0 0 1
-34.006902 12.862411 19.339545 41.181658 -0.361599 1.081941 0.047506 -0.027114 -1221100.000000 0 0 1
-35.140358 13.104411 20.284245 42.638256 -0.356943 1.075004 0.058958 -0.020980 -745726.000000 0 0 1
35.648459 11.893411 20.720045 42.913705 0.322018 1.066912 0.056288 -0.002931 429442.000000 0 0 1
34.648748 12.171411 21.704645 42.658769 0.337815 1.037010 0.051328 -0.014929 451732.000000 0 0 1
34.341408 10.881911 22.579745 42.515799 0.306865 1.010909 0.051068 -0.015470 940109.000000 0 0 1
35.458142 10.578611 23.450145 43.807489 0.289934 1.005934 0.053594 -0.006467 479783.000000 0 0 1
35.036608 10.908711 24.723865 44.247410 0.301838 0.977902 0.053805 -0.006188 -679955.000000 0 0 1
-35.253362 11.133111 25.763185 45.060930 -0.305891 0.962170 0.038521 -0.002651 123729.000000 0 0 1
-34.559179 12.359311 25.496925 44.689849 -0.343454 0.963645 0.040608 -0.004373 373187.000000 0 0 1
-33.446162 12.249011 24.620895 43.299798 -0.351060 0.965976 0.031629 -0.008549 -155248.000000 0 0 1
-32.501822 13.497411 24.576165 42.924776 -0.393610 0.961195 0.031390 -0.009712 -168569.000000 0 0 1
-31.702832 13.714411 25.663765 43.032353 -0.408284 0.931809 0.013903 -0.004990 -452517.000000 0 0 1
-32.364762 14.293611 26.770515 44.367168 -0.415881 0.923056 0.011667 0.000478 -606766.000000 0 0 1
-31.464662 15.025911 27.785685 44.585280 -0.445526 0.897965 0.000159 0.013896 -197110.000000 0 0 1
-30.681882 16.065111 27.189675 44.031172 -0.482351 0.905224 0.010332 0.003341 -321549.000000 0 0 1
-30.101732 16.744411 28.225715 44.532915 -0.507637 0.884318 0.005572 -0.004268 -378376.000000 0 0 1
-29.311572 17.979211 27.786815 44.210037 -0.550202 0.891150 0.013749 -0.000469 80966.400000 0 0 1
-30.130012 18.880811 27.008385 44.651489 -0.559781 0.921193 0.017185 -0.013410 397734.000000 0 0 1
-29.596142 20.172811 26.841595 44.758744 -0.598272 0.927676 0.012829 -0.011215 -145718.000000 0 0 1
-30.535302 21.087411 26.015405 45.319806 -0.604383 0.959364 0.013373 -0.003459 -304637.000000 0 0 1
-31.693312 21.436311 26.712375 46.664038 -0.594688 0.961317 0.019469 -0.010724 -39296.700000 0 0 1
-32.546052 22.339011 26.023805 47.281236 -0.601527 0.987948 0.029772 -0.008253 -153351.000000 0 0 1
-32.524242 23.872211 26.275185 48.146590 -0.633171 0.993533 0.024515 -0.004749 -481296.000000 0 0 1
-33.566822 24.357311 25.486655 48.678329 -0.627725 1.019757 0.031554 -0.002615 50523.200000 0 0 1
-33.286552 25.697911 25.299375 49.075814 -0.657446 1.029186 0.035253 -0.007770 379653.000000 0 0 1
-34.382834 26.428211 24.484245 49.800681 -0.655328 1.056819 0.049506 -0.007093 121185.000000 0 0 1
-34.139074 26.267211 23.112545 48.883867 -0.655813 1.078325 0.052644 -0.016139 476915.000000 0 0 1
-35.204149 26.698711 22.268945 49.477865 -0.648853 1.103943 0.056445 -0.022006 163630.000000 0 0 1
-34.744061 26.496611 20.806345 48.395497 -0.651531 1.126389 0.066193 -0.028215 92405.100000 0 0 1
-34.681761 25.183011 20.252145 47.404198 -0.628040 1.129378 0.060401 -0.028728 17626.700000 0 0 1
-34.279025 25.302611 18.913745 46.615485 -0.635865 1.153009 0.056283 -0.034704 -299157.000000 0 0 1
-34.436955 24.010711 18.057845 45.700152 -0.608869 1.164579 0.058618 -0.024079 257938.000000 0 0 1
35.646152 23.748011 17.598245 46.306742 0.587690 1.180961 0.051915 -0.034283 -83319.600000 0 0 1
35.610036 22.903811 16.423945 45.413711 0.571569 1.200757 0.045048 -0.030215 237774.000000 0 0 1
34.233728 22.635611 15.742645 43.956226 0.584214 1.204517 0.042433 -0.030339 269332.000000 0 0 1
33.439498 21.667611 16.358945 43.073199 0.574943 1.181223 0.038888 -0.032783 -140979.000000 0 0 1
32.315508 21.334811 15.551545 41.729087 0.583515 1.188902 0.039272 -0.031200 -164675.000000 0 0 1
31.247108 20.515611 16.318245 40.786727 0.580973 1.159184 0.031111 -0.023853 465796.000000 0 0 1
30.332968 21.201311 17.153945 40.790223 0.610023 1.136755 0.021020 -0.018540 185309.000000 0 0 1
29.335878 22.055311 16.664545 40.308033 0.644665 1.144579 0.014125 -0.010199 -308748.000000 0 0 1
28.572838 22.802611 17.800645 40.659920 0.673552 1.117653 0.009960 -0.008782 -411351.000000 0 0 1
29.330118 23.599211 18.646845 42.010515 0.677544 1.110893 0.004889 -0.007496 -834033.000000 0 0 1
28.584458 24.346711 19.551645 42.333206 0.705507 1.090715 0.007068 -0.009842 -500511.000000 0 0 1
29.415698 25.141511 20.564145 43.820804 0.707215 1.082323 0.017608 -0.020176 26920.600000 0 0 1
30.090428 26.273011 20.035245 44.689103 0.717773 1.105906 0.029221 -0.021755 -81316.100000 0 0 1
31.121978 26.548911 20.937945 45.954539 0.706268 1.097724 0.037493 -0.022217 -47162.300000 0 0 1
32.210148 27.610411 20.519545 47.126215 0.708657 1.120295 0.043785 -0.023069 287825.000000 0 0 1
33.178568 27.937711 21.487345 48.404948 0.699855 1.110841 0.043400 -0.018622 69371.000000 0 0 1
32.708298 28.656511 22.630245 49.021998 0.719466 1.090959 0.017995 -0.001440 -959452.000000 0 0 1
33.675538 28.828411 23.777375 50.303903 0.708004 1.078473 0.024291 -0.007091 -603357.000000 0 0 1
34.655818 29.821911 23.583645 51.444731 0.710568 1.094572 0.035249 -0.010573 -618419.000000 0 0 1
35.286588 30.059211 24.759405 52.552141 0.705573 1.080214 0.034960 -0.002565 -492730.000000 0 0 1
-34.867914 30.953711 24.560985 52.698630 -0.726001 1.085958 0.024487 -0.006272 161458.000000 0 0 1
-33.655232 30.254411 24.339645 51.385040 -0.732235 1.077341 0.023222 -0.011727 525350.000000 0 0 1
-32.568362 31.157811 24.633655 51.364621 -0.763267 1.070616 0.021286 -0.009577 960854.000000 0 0 1
-31.149972 30.654411 24.228625 49.970390 -0.777380 1.064594 0.030714 -0.012312 136039.000000 0 0 1
-30.822252 30.561111 22.809445 49.033290 -0.781144 1.086955 0.017862 -0.010955 638023.000000 0 0 1
-31.450692 29.421811 22.092945 48.403380 -0.752080 1.096813 0.029839 -0.012099 122606.000000 0 0 1
-31.041062 28.042411 22.642045 47.566654 -0.734689 1.074688 0.023526 -0.007010 -516012.000000 0 0 1
-29.656912 27.782911 22.568545 46.483995 -0.752784 1.063847 0.015208 -0.007854 -59963.500000 0 0 1
-29.248292 26.716811 23.346245 45.981493 -0.740196 1.038247 0.017864 -0.011037 -260380.000000 0 0 1
-28.908282 27.091511 24.778805 46.729304 -0.752967 1.011886 0.019536 -0.011142 -1600720.000000 0 0 1
-30.006912 27.272011 25.570035 47.937501 -0.737687 1.008177 0.012106 -0.008097 -818618.000000 0 0 1
-29.664762 27.732711 26.876825 48.697691 -0.751750 0.986141 0.019382 -0.015377 -836830.000000 0 0 1
-30.892732 28.070111 27.679285 50.084277 -0.737563 0.985251 0.015778 -0.017899 -602189.000000 0 0 1
-31.526782 26.922711 28.215005 50.148348 -0.706790 0.973232 0.012529 -0.016428 -84987.600000 0 0 1
-32.274282 27.228511 29.363365 51.431783 -0.700802 0.963172 0.018045 -0.007694 -629660.000000 0 0 1
-32.979252 26.083611 30.044145 51.678201 -0.669173 0.950385 0.019709 -0.006642 -462343.000000 0 0 1
-32.175192 25.115411 30.643065 51.039438 -0.662789 0.926820 0.014973 -0.016295 144228.000000 0 0 1
-33.003502 24.117511 31.305325 51.486977 -0.631071 0.917227 0.014659 -0.014448 537265.000000 0 0 1
-32.223012 23.248611 32.344465 51.234606 -0.625004 0.887567 0.025644 -0.027576 -767580.000000 0 0 1
-31.231672 22.508311 31.691315 49.863622 -0.624476 0.882063 0.028992 -0.022098 -88717.600000 0 0 1
-30.269092 21.832011 32.475135 49.472103 -0.624855 0.854715 0.028022 -0.023569 482189.000000 0 0 1
-29.323582 22.654911 33.402992 49.888649 -0.657798 0.837192 0.031116 -0.025297 -780489.000000 0 0 1
-29.954912 23.052611 -34.157411 50.945543 -0.655913 2.305637 0.042077 -0.030236 202949.000000 0 0 1
-29.421022 22.552111 -32.924398 49.580341 -0.653997 2.297034 0.027328 -0.021032 105460.000000 0 0 1
-28.185682 23.261911 -32.299008 48.772688 -0.689984 2.294595 0.044823 -0.023383 16438.200000 0 0 1
-28.412232 24.517911 -31.705598 49.128687 -0.711956 2.272288 0.036390 -0.020335 -36605.000000 0 0 1
-27.545372 24.696211 -30.606648 48.014761 -0.730914 2.261971 0.061539 -0.018113 -113341.000000 0 0 1
-27.745882 26.003811 -29.859448 48.348928 -0.752999 2.236462 0.028649 -0.007096 -542569.000000 0 0 1
-27.549332 27.240911 -30.543838 49.335170 -0.779769 2.238404 0.030304 -0.008271 390282.000000 0 0 1
-28.559102 27.656011 -31.479418 50.709280 -0.769335 2.240536 0.021207 -0.004227 115678.000000 0 0 1
-28.414642 29.124711 -31.983488 51.755040 -0.797738 2.236965 0.027118 -0.007767 -91521.500000 0 0 1
-28.681882 30.079211 -30.974818 51.834821 -0.809174 2.211261 0.018098 -0.012653 129449.000000 0 0 1
-28.675982 31.346911 -31.564318 52.926808 -0.829867 2.209776 0.029298 -0.022825 -249.999000 0 0 1
-29.006872 32.526011 -30.607618 53.255669 -0.842527 2.183070 0.028572 -0.006665 471163.000000 0 0 1
-27.824452 32.992811 -29.948558 52.532293 -0.870176 2.177422 0.007607 -0.004442 444024.000000 0 0 1
-28.154822 33.849611 -28.922578 52.678323 -0.876986 2.152013 -0.001008 -0.003078 -1227200.000000 0 0 1
-27.217332 33.832411 -27.657358 51.481498 -0.893333 2.137945 0.001762 -0.007182 89155.900000 0 0 1
-25.887542 34.251511 -27.795058 51.145832 -0.923589 2.145335 -0.000131 -0.002704 -196939.000000 0 0 1
-25.771812 -33.182103 -28.085718 50.537568 0.910439 2.160048 0.014875 0.008262 -891902.000000 0 0 1
-26.115142 -32.141503 -26.944108 49.407103 0.888477 2.147602 0.004405 0.010477 209300.000000 0 0 1
-27.512942 -32.115103 -26.685048 50.004336 0.862427 2.133713 0.005081 0.000934 160126.000000 0 0 1
-27.861162 -31.292003 -25.606158 49.103046 0.843333 2.119379 -0.001452 0.008884 -1050330.000000 0 0 1
-29.312142 -30.936403 -25.541398 49.685267 0.812351 2.110712 -0.012827 -0.001948 -1053470.000000 0 0 1
-29.811422 -29.973503 -26.450288 49.867319 0.788109 2.129884 0.000531 -0.008757 299359.000000 0 0 1
-31.223062 -30.115103 -26.548938 50.859072 0.767337 2.120002 -0.000466 -0.009873 333992.000000 0 0 1
-31.863852 -29.172303 -27.619978 51.275643 0.741329 2.139638 0.013070 -0.010681 693892.000000 0 0 1
-33.282352 -29.365903 -27.716838 52.328714 0.722965 2.129005 0.023027 -0.011623 757571.000000 0 0 1
-33.783752 -28.409303 -28.697548 52.649593 0.699197 2.147265 0.031353 -0.017357 29839.000000 0 0 1
-35.314050 -28.413703 -28.850048 53.728446 0.677540 2.137626 0.024882 -0.020586 22405.200000 0 0 1
35.297608 -28.095203 -27.746868 52.963669 -0.672268 2.122202 0.015463 -0.018696 -168804.000000 0 0 1
33.925008 -28.163103 -28.099728 52.284426 -0.692861 2.138194 0.013739 -0.024875 651583.000000 0 0 1
33.018818 -27.408903 -27.037118 50.719780 -0.692827 2.133020 0.010745 -0.017577 219966.000000 0 0 1
32.885718 -28.189603 -25.836118 50.434404 -0.708659 2.108624 0.016358 -0.010697 198278.000000 0 0 1
31.951178 -27.506403 -25.022058 49.026354 -0.710782 2.106423 0.017812 -0.007228 143525.000000 0 0 1
31.660588 -28.263103 -23.687758 48.603556 -0.728762 2.079868 0.022283 -0.008012 -16701.800000 0 0 1
30.988118 -29.502103 -23.776758 48.948664 -0.760837 2.078016 0.032067 -0.012534 -153786.000000 0 0 1
30.639188 -30.129203 -22.550758 48.529016 -0.777006 2.054076 0.039971 -0.021892 325722.000000 0 0 1
31.715258 -30.320803 -21.380958 48.809364 -0.762924 2.024225 0.034980 -0.016567 -1260090.000000 0 0 1
32.731108 -31.172703 -21.821758 50.192150 -0.761016 2.020573 0.026195 -0.019504 148.412000 0 0 1
33.925958 -31.124103 -21.052458 50.624958 -0.742352 1.999675 0.023993 -0.018059 641917.000000 0 0 1
34.737878 -29.813603 -21.289258 50.485677 -0.709261 2.006104 0.009430 -0.008300 -1179520.000000 0 0 1
34.068998 -28.666603 -20.786058 49.137877 -0.699496 2.007566 0.006003 -0.004715 -318413.000000 0 0 1
34.688468 -27.486803 -21.182658 49.066477 -0.670084 2.017188 0.000806 -0.001172 -151183.000000 0 0 1
33.835808 -26.276703 -20.775558 47.612507 -0.660305 2.022331 0.003687 0.003524 218058.000000 0 0 1
32.680828 -26.055503 -21.541258 47.020756 -0.673075 2.046678 0.016013 -0.005161 -418487.000000 0 0 1
31.661858 -25.375603 -20.895158 45.639918 -0.675628 2.046345 0.023258 -0.003120 -207889.000000 0 0 1
30.337478 -25.249803 -21.671358 45.028467 -0.694127 2.072912 0.026848 -0.011992 -127768.000000 0 0 1
29.554428 -26.405203 -21.755358 45.210558 -0.729181 2.072820 0.034160 -0.015077 -457349.000000 0 0 1
28.453438 -26.216203 -22.589958 44.801715 -0.744498 2.099276 0.032164 -0.017334 -83697.100000 0 0 1
27.685518 -27.501903 -23.008858 45.301767 -0.782071 2.103544 0.032092 -0.016647 52967.800000 0 0 1
26.965668 -28.105803 -21.960758 44.714184 -0.806098 2.084190 0.036496 -0.018537 -97020.400000 0 0 1
26.774668 -29.475003 -22.238258 45.609196 -0.833368 2.080115 0.035315 -0.018064 -396181.000000 0 0 1
26.091938 -30.310003 -21.171158 45.251557 -0.860045 2.057658 0.042018 -0.012025 -473347.000000 0 0 1
26.880868 -30.710703 -20.051758 45.473084 -0.851800 2.027463 0.051084 -0.020501 56715.500000 0 0 1
27.684528 -31.833903 -20.295158 46.815851 -0.855001 2.019181 0.047814 -0.016830 -291957.000000 0 0 1
28.692278 -32.269303 -19.244658 47.274851 -0.844008 1.990052 0.043095 -0.015058 -485135.000000 0 0 1
28.235278 -32.879503 -18.053658 46.949198 -0.861244 1.965501 0.044429 -0.018469 -131125.000000 0 0 1
27.708578 -32.017803 -17.067858 45.653223 -0.857423 1.953962 0.040442 -0.020192 284438.000000 0 0 1
26.899288 -32.717003 -15.896558 45.240187 -0.882676 1.929842 0.032787 -0.014770 -389775.000000 0 0 1
25.594638 -33.089403 -16.192958 44.857619 -0.912424 1.940121 0.034543 -0.015028 -576531.000000 0 0 1
25.146638 -34.083103 -15.298058 45.033786 -0.935147 1.917396 0.035445 -0.010241 688341.000000 0 0 1
23.591638 -34.154403 -15.124358 44.179575 -0.966316 1.920201 0.041592 -0.011095 946165.000000 0 0 1
22.905438 -33.041603 -14.576458 42.765403 -0.964628 1.918614 0.045012 -0.010823 1230170.000000 0 0 1
21.489738 -33.202903 -14.359558 42.076579 -0.996375 1.919066 0.046427 -0.015832 1130460.000000 0 0 1
-0.431762 -6.908889 -29.021668 29.835824 1.508384 2.907444 0.039109 -0.006710 218449.000000 0 0 1
-0.010962 -8.253689 -29.081718 30.230280 1.569468 2.865054 0.035821 -0.001971 -113836.000000 0 0 1
-0.597562 -8.940289 -30.141328 31.444960 1.504056 2.852639 0.014146 -0.003259 -410626.000000 0 0 1
-0.412462 -10.461989 -30.090148 31.859698 1.531392 2.806738 0.009962 -0.005073 -1302300.000000 0 0 1
0.876838 -10.890089 -30.227678 32.141491 -1.490453 2.794768 0.009155 -0.005418 -1199400.000000 0 0 1
0.967038 -12.190389 -29.739328 32.155379 -1.491634 2.751472 0.012198 -0.007059 -10480.500000 0 0 1
2.405938 -12.573989 -29.343848 32.014921 -1.381739 2.730208 0.009789 -0.000984 -1022000.000000 0 0 1
3.319438 -12.513789 -30.424588 33.064621 -1.311505 2.739273 0.015970 -0.005106 1154580.000000 0 0 1
4.681638 -12.818289 -30.008078 32.965301 -1.220618 2.714787 0.047172 -0.005973 1478520.000000 0 0 1
4.972738 -14.217789 -29.325778 32.967786 -1.234340 2.667108 0.047833 -0.014396 -1356330.000000 0 0 1
4.442538 -14.477389 -28.016988 31.847803 -1.273058 2.646059 0.042611 -0.014345 -185456.000000 0 0 1
5.189038 -15.335489 -27.186308 31.641724 -1.244521 2.604484 0.066120 -0.021372 -249706.000000 0 0 1
5.057338 -16.823189 -27.408828 32.555188 -1.278774 2.571626 0.031933 -0.019030 -344454.000000 0 0 1
5.427438 -17.268389 -28.705138 33.935812 -1.266273 2.578982 0.029362 -0.024354 146030.000000 0 0 1
5.247138 -18.689589 -28.793648 34.726177 -1.297091 2.548404 0.025259 -0.026252 -224579.000000 0 0 1
5.442238 -19.095789 -30.292558 36.220246 -1.293160 2.561375 0.028383 -0.022763 -44247.300000 0 0 1
6.754838 -19.140589 -30.809518 36.894667 -1.231535 2.559051 0.033193 -0.024260 162505.000000 0 0 1
6.664938 -19.761889 -32.063048 38.249088 -1.245514 2.564898 0.028047 -0.025006 1083640.000000 0 0 1
8.097638 -19.780589 -32.740038 39.099278 -1.182236 2.563226 0.034616 -0.020797 1115670.000000 0 0 1
8.536638 -18.486489 -33.092088 38.854997 -1.138192 2.589982 0.034417 -0.021846 381516.000000 0 0 1
9.767338 -18.453289 -33.805548 39.733360 -1.083984 2.588322 0.021872 -0.014479 128978.000000 0 0 1
10.175638 -17.111489 34.344460 39.697463 -1.034307 0.525337 0.024999 -0.007348 301727.000000 0 0 1
9.212738 -16.726089 33.346123 38.426560 -1.067339 0.520062 0.028364 -0.011799 606874.000000 0 0 1
9.247238 -15.369489 32.991378 37.552145 -1.029156 0.497982 0.028714 -0.010549 -41247.000000 0 0 1
8.167438 -15.074889 31.938945 36.249904 -1.074278 0.492663 0.038387 -0.025691 -185687.000000 0 0 1
8.591338 -15.580789 30.696455 35.480197 -1.066874 0.525304 0.034800 -0.022931 -132965.000000 0 0 1
7.653438 -15.333989 29.689485 34.280779 -1.107856 0.523514 0.030415 -0.019691 -529043.000000 0 0 1
7.796838 -16.165889 28.405385 33.600484 -1.121407 0.563509 0.013049 -0.007413 -783378.000000 0 0 1
7.407438 -17.531389 28.575205 34.333105 -1.171024 0.587565 0.013045 -0.010007 348331.000000 0 0 1
7.523838 -18.310989 27.387695 33.793288 -1.180936 0.625880 0.005797 -0.002830 -137747.000000 0 0 1
7.020338 -19.777789 27.607335 34.678682 -1.229709 0.649991 0.011540 -0.004246 217186.000000 0 0 1
7.909938 -20.455189 28.514145 35.972744 -1.201811 0.655637 0.009089 -0.001125 267963.000000 0 0 1
7.311238 -21.639389 28.985555 36.903655 -1.244971 0.667392 -0.004075 -0.000623 -466739.000000 0 0 1
7.707938 -22.043089 30.438455 38.364171 -1.234410 0.654408 -0.007941 -0.000976 -265025.000000 0 0 1
7.056938 -21.217389 31.397375 38.545728 -1.249704 0.618845 0.010726 -0.004614 234415.000000 0 0 1
7.343338 -19.824989 31.391925 37.847163 -1.216057 0.592693 0.009202 -0.014309 -591925.000000 0 0 1
6.795238 -18.986589 32.555755 38.295470 -1.227104 0.554583 0.016080 -0.016565 -1082710.000000 0 0 1
5.425338 -18.931389 32.709249 38.180188 -1.291697 0.541944 0.035264 -0.023350 -1019020.000000 0 0 1
5.002038 -17.862989 33.570451 38.354686 -1.297767 0.504816 0.040357 -0.018041 -147581.000000 0 0 1
3.520138 -17.889689 33.941896 38.529010 -1.376509 0.492943 0.029035 -0.018545 -276766.000000 0 0 1
3.220338 -18.971689 -33.938828 39.014608 -1.402655 2.625797 0.022309 -0.017585 108002.000000 0 0 1
2.445838 -18.536289 -32.828888 37.779784 -1.439606 2.623881 0.005220 -0.030213 -104144.000000 0 0 1
2.096438 -19.776889 -31.981638 37.660929 -1.465186 2.585264 0.012196 -0.008657 -252486.000000 0 0 1
0.965038 -20.479189 -32.496398 38.423227 -1.523708 2.578763 0.014849 -0.008574 692695.000000 0 0 1
0.347938 -21.466089 -31.645398 38.240624 -1.554589 2.545496 0.012164 -0.009773 60703.400000 0 0 1
-0.318262 -20.989489 -30.369808 36.918630 1.555635 2.536791 0.015792 -0.016181 -335510.000000 0 0 1
-1.555562 -20.327389 -30.641118 36.803541 1.494420 2.554508 0.023879 -0.025509 370097.000000 0 0 1
-1.926062 -19.400489 -29.624478 35.464044 1.471842 2.559544 0.025453 -0.012413 -81675.300000 0 0 1
-1.643962 -17.943189 -30.010358 35.004032 1.479431 2.600876 0.007533 -0.004118 -153335.000000 0 0 1
-2.459862 -16.941889 -29.402378 34.023204 1.426610 2.614327 0.016206 -0.009283 -124727.000000 0 0 1
-2.240362 -15.658489 -29.914418 33.839030 1.428684 2.655192 0.017225 -0.010508 -136265.000000 0 0 1
-3.344362 -14.711689 -29.426188 33.068401 1.347268 2.667831 0.014392 -0.000922 38546.900000 0 0 1
-3.099362 -14.201789 -28.119408 31.654352 1.355928 2.664485 0.008871 -0.005927 419040.000000 0 0 1
-3.942762 -13.064989 -27.787658 30.957928 1.277707 2.685078 0.009305 -0.009542 306314.000000 0 0 1
-4.093362 -13.077889 -26.204878 29.571650 1.267457 2.659763 0.009012 -0.007239 -465586.000000 0 0 1
-4.720262 -14.156889 -25.574988 29.610444 1.248963 2.613392 0.007040 -0.000844 81109.500000 0 0 1
-4.727462 -14.166489 -24.133858 28.381005 1.248709 2.587451 -0.001342 0.006451 -279129.000000 0 0 1
-5.591762 -13.072389 -23.407558 27.387387 1.166596 2.595738 0.004329 -0.004379 -126260.000000 0 0 1
-6.980862 -13.279489 -23.539758 27.914109 1.086810 2.574176 -0.002708 -0.006099 -191369.000000 0 0 1
-7.624462 -12.019589 -23.373558 27.366516 1.005511 2.594601 -0.015233 -0.008760 -125099.000000 0 0 1
-9.137862 -12.087889 -23.644458 28.083412 0.923497 2.571659 0.012671 -0.014407 -331223.000000 0 0 1
-9.846262 -13.019389 -22.886958 28.111674 0.923290 2.522050 0.007007 -0.009672 -298077.000000 0 0 1
-10.235762 -14.140889 -23.631458 29.379949 0.944248 2.505360 0.007882 -0.009373 -562256.000000 0 0 1
-11.165862 -15.191989 -23.017058 29.753285 0.936975 2.455295 0.015708 -0.010611 -287876.000000 0 0 1
-10.631362 -16.160889 -22.094758 29.366283 0.988926 2.422472 0.016346 -0.004515 -73292.000000 0 0 1
-11.679262 -16.982189 -21.577758 29.839564 0.968349 2.379113 0.016500 0.001913 484387.000000 0 0 1
-11.959262 -18.165589 -22.620358 31.379822 0.988576 2.375834 0.010930 0.003449 349630.000000 0 0 1
-12.818462 -17.679389 -23.666258 32.201950 0.943455 2.396363 0.011689 0.002338 -24356.800000 0 0 1
-13.441862 -18.712489 -24.384458 33.547619 0.947870 2.384537 0.006162 -0.000681 -314218.000000 0 0 1
-14.595462 -18.228689 -25.239528 34.385265 0.895637 2.395021 0.009928 -0.006059 -637390.000000 0 0 1
-15.696562 -17.743089 -24.534558 34.104895 0.846523 2.373713 0.028073 -0.006820 6281.700000 0 0 1
-16.714062 -17.279189 -25.438708 35.000831 0.802021 2.384452 0.032800 -0.013966 728172.000000 0 0 1
-17.502862 -16.020189 -25.029158 34.488482 0.741199 2.382884 0.035265 -0.015021 35737.300000 0 0 1
-18.380062 -16.112489 -23.937758 34.211917 0.719752 2.345761 0.041077 -0.014521 25966.000000 0 0 1
-19.022962 -14.890089 -23.658958 33.813225 0.664129 2.345767 0.044943 -0.018175 410772.000000 0 0 1
-19.838862 -14.802789 -22.321658 33.331058 0.641033 2.304595 0.035166 -0.022700 445381.000000 0 0 1
-18.977462 -14.674489 -21.186558 32.005546 0.658221 2.294234 0.044735 -0.014929 362620.000000 0 0 1
-19.619262 -14.784889 -19.915358 31.624830 0.645795 2.252012 0.037114 -0.017277 -135328.000000 0 0 1
-20.211262 -13.483389 -19.375158 31.075612 0.588318 2.243988 0.044036 -0.018361 -825603.000000 0 0 1
-21.472062 -13.077289 -19.773958 31.985534 0.547038 2.237267 0.036167 -0.025215 -544958.000000 0 0 1
-21.908762 -11.952889 -19.018858 31.378056 0.499440 2.221969 0.033820 -0.018134 -37215.000000 0 0 1
-23.335062 -11.452689 -19.297458 32.374081 0.456255 2.209403 0.039487 -0.018701 -56821.800000 0 0 1
-23.534762 -11.055389 -20.663258 33.212602 0.439154 2.242284 0.033641 -0.026746 316044.000000 0 0 1
-24.919162 -10.752489 -20.796858 34.191958 0.407359 2.224636 0.038829 -0.023916 346434.000000 0 0 1
-25.285822 -9.727289 -21.910258 34.843254 0.367242 2.250836 0.030120 -0.019662 -247805.000000 0 0 1
-25.024862 -10.185989 -23.226858 35.629834 0.386556 2.280875 0.026024 -0.022554 110268.000000 0 0 1
-25.779842 -9.597889 -24.262658 36.679645 0.356403 2.293580 0.007177 -0.021882 -320571.000000 0 0 1
-25.736582 -10.329289 -25.641938 37.770026 0.381667 2.317055 0.009591 -0.020939 -632905.000000 0 0 1
-24.607562 -10.056989 -26.386508 37.455613 0.387980 2.352478 0.000566 -0.021104 -1142780.000000 0 0 1
-23.796262 -11.160989 -26.519438 37.337788 0.438560 2.360660 0.009550 -0.021400 -490001.000000 0 0 1
-22.707162 -10.996189 -27.583258 37.381380 0.450977 2.400732 0.011647 -0.025764 -408865.000000 0 0 1
-23.201362 -11.174189 -28.905048 38.712628 0.448834 2.413818 0.015035 -0.013962 -212394.000000 0 0 1
-22.228262 -11.008889 -29.876338 38.831519 0.459853 2.448672 0.020214 -0.007711 -490172.000000 0 0 1
-22.798762 -11.328089 -31.292368 40.340073 0.461143 2.458642 0.009265 -0.006584 751060.000000 0 0 1
-23.760662 -10.375089 -31.795608 41.026482 0.411697 2.457515 0.002705 -0.002536 558925.000000 0 0 1
-23.097262 -9.339189 -32.452598 40.913019 0.384244 2.486858 -0.002225 -0.007968 -1034190.000000 0 0 1
-24.013362 -8.182789 -32.866278 41.518572 0.328419 2.484226 -0.011990 -0.004924 -570090.000000 0 0 1
-25.008262 -8.536289 -33.842928 42.937457 0.328938 2.478661 0.010108 -0.001442 1269690.000000 0 0 1
-26.200832 -9.210489 -33.436738 43.466449 0.338041 2.448469 0.015046 -0.007464 -284645.000000 0 0 1
-27.125422 -8.420389 -32.505188 43.165713 0.300993 2.423455 0.027648 -0.001800 -2252560.000000 0 0 1
-28.399072 -8.930989 -32.552718 44.112916 0.304689 2.400810 0.036283 -0.004346 -1167650.000000 0 0 1
-29.249942 -8.268089 -31.655228 43.885919 0.275483 2.376484 0.037580 -0.001129 -215844.000000 0 0 1
-30.714422 -8.684389 -31.857028 45.096171 0.275554 2.355230 0.029691 -0.006100 -296858.000000 0 0 1
-30.971482 -10.103889 -31.682128 45.443135 0.315346 2.342255 0.025205 -0.006315 -461158.000000 0 0 1
-32.321532 -10.409689 -31.780608 46.508603 0.311577 2.323107 0.015509 -0.006370 -862254.000000 0 0 1
-32.514802 -11.938989 -31.853868 47.057632 0.351903 2.314355 0.018099 -0.003518 -335609.000000 0 0 1
-33.805432 -12.465389 -31.607108 47.929140 0.353271 2.290890 0.026191 -0.003756 160708.000000 0 0 1
-33.759602 -13.882689 -31.767128 48.389981 0.390143 2.286941 0.030205 -0.012134 197976.000000 0 0 1
-35.009319 -14.678889 -31.321858 49.215658 0.397020 2.260645 0.017995 -0.019328 1984.830000 0 0 1
-35.230249 -14.694389 -29.940248 48.513029 0.395157 2.235923 0.024542 -0.017620 -183736.000000 0 0 1
35.434717 -15.828089 -29.581888 48.797906 -0.420092 2.222086 0.020828 -0.020224 -61927.100000 0 0 1
35.468873 -16.047389 -28.044568 47.979761 -0.424878 2.195070 0.028658 -0.017231 -304330.000000 0 0 1
-34.629618 -16.379289 -27.670298 47.256079 0.441803 2.196342 0.032680 -0.028263 -407309.000000 0 0 1
-34.507721 -16.185889 -26.295958 46.305974 0.438584 2.174717 0.041651 -0.024997 -182368.000000 0 0 1
-33.178412 -15.855289 -25.596878 44.803989 0.445795 2.178895 0.047813 -0.021178 -171944.000000 0 0 1
-32.205112 -16.887089 -25.546868 44.440809 0.482946 2.183219 0.053569 -0.018867 195183.000000 0 0 1
-31.133782 -16.433089 -24.733358 43.024386 0.485657 2.183240 0.060291 0.001922 537169.000000 0 0 1
-29.723812 -17.059689 -24.971858 42.404383 0.521037 2.200491 0.038700 -0.006948 454428.000000 0 0 1
-29.519792 -18.417089 -24.476558 42.540677 0.557800 2.183851 0.041182 -0.018779 -108308.000000 0 0 1
-30.134752 -19.360489 -25.362558 43.888395 0.571059 2.186934 0.040663 -0.024343 -189287.000000 0 0 1
-30.025092 -20.867189 -24.866258 44.218509 0.607357 2.168021 0.035900 -0.030928 -784846.000000 0 0 1
-28.789432 -21.373689 -24.517158 43.436817 0.638629 2.170542 0.036756 -0.012472 -839883.000000 0 0 1
-28.955122 -22.516489 -23.728458 43.685594 0.660954 2.144998 0.028203 -0.007129 142505.000000 0 0 1
-27.584892 -23.269389 -23.586458 43.112780 0.700741 2.149677 0.022936 -0.008725 845492.000000 0 0 1
-26.580722 -22.434089 -22.987958 41.692558 0.701000 2.154800 0.027902 -0.013572 125487.000000 0 0 1
-26.538312 -22.238589 -21.591058 40.804542 0.697475 2.128376 0.039718 -0.025089 -357256.000000 0 0 1
-26.263332 -23.421689 -20.644858 40.798876 0.728267 2.101355 0.037987 -0.014940 -166612.000000 0 0 1
-26.336432 -22.863389 -19.329858 39.874624 0.714925 2.076892 0.038269 -0.015968 131799.000000 0 0 1
-26.215702 -23.861289 -18.327258 39.906297 0.738417 2.047955 0.029449 0.017071 -189287.000000 0 0 1
-26.489722 -23.331589 -16.891758 39.133105 0.722094 2.017116 0.031251 0.016895 556721.000000 0 0 1
-27.818322 -22.852489 -16.680458 39.677865 0.687708 2.004679 0.026729 0.003100 296248.000000 0 0 1
-27.771792 -21.954889 -15.584258 38.680211 0.668950 1.985480 0.027937 0.003923 791583.000000 0 0 1
-29.146392 -21.330389 -15.143658 39.164117 0.631775 1.967816 0.015713 0.013105 706965.000000 0 0 1
-29.781262 -20.465189 -16.055558 39.541478 0.602072 1.988917 0.008764 0.018138 -516007.000000 0 0 1
-30.926412 -19.910189 -15.499158 39.913438 0.571999 1.969603 0.022320 0.019124 -958872.000000 0 0 1
-31.884662 -19.311189 -16.517158 40.772175 0.544569 1.987894 0.011544 0.003653 -357421.000000 0 0 1
-32.609252 -20.434289 -17.069558 42.098614 0.559778 1.988285 -0.002548 0.017762 145240.000000 0 0 1
-33.271632 -20.033989 -18.275558 42.922701 0.541987 2.010618 0.002481 0.016339 131461.000000 0 0 1
-33.752482 -21.209889 -19.163758 44.230522 0.561037 2.018914 -0.000561 0.009793 414643.000000 0 0 1
-34.880026 -22.038389 -18.837658 45.355972 0.563499 1.999101 -0.000941 0.018153 354312.000000 0 0 1
-34.854742 -22.705989 -17.563558 45.154109 0.577391 1.970309 -0.000434 0.019500 94526.400000 0 0 1
35.406013 -23.758389 -17.445458 46.069413 -0.591015 1.959163 0.003522 0.031170 -117327.000000 0 0 1
34.104818 -23.254089 -17.405058 44.797626 -0.598435 1.969828 0.010165 0.018336 -353789.000000 0 0 1
33.238858 -24.378789 -17.311358 44.708278 -0.632820 1.968397 0.002804 0.011208 -69881.700000 0 0 1
31.786928 -24.215889 -16.845758 43.365858 -0.651023 1.969753 0.004478 0.005452 105253.000000 0 0 1
30.919898 -23.616789 -17.813258 42.791412 -0.652278 2.000148 0.003312 -0.005383 859869.000000 0 0 1
29.617988 -24.194189 -17.593658 42.096565 -0.684946 2.001968 0.021500 -0.011636 1162630.000000 0 0 1
28.417008 -23.792389 -18.506458 41.425754 -0.697050 2.033912 0.026767 0.001928 457806.000000 0 0 1
27.934578 -22.515889 -18.158558 40.212425 -0.678402 2.039316 0.044822 0.001904 -798500.000000 0 0 1
26.778998 -22.120089 -18.777258 39.484155 -0.690409 2.066402 0.024470 -0.015001 -1117030.000000 0 0 1
34.311648 29.766211 -18.318658 48.978462 0.714581 1.954130 0.029070 -0.001561 -230593.000000 0 0 1
33.265778 30.010411 -19.203358 48.744289 0.733997 1.975734 0.035237 -0.002052 -221686.000000 0 0 1
33.731858 29.796811 -20.516858 49.463417 0.723536 1.998507 0.035247 0.009630 293413.000000 0 0 1
32.671658 30.125711 -21.619358 49.420566 0.744878 2.023565 0.035226 0.015056 -320026.000000 0 0 1
31.752978 29.067111 -21.846058 48.274204 0.741266 2.040409 0.037317 0.000439 239771.000000 0 0 1
30.949808 29.262911 -22.996058 48.404827 0.757390 2.065849 0.045837 0.009881 508402.000000 0 0 1
29.742448 30.240211 -22.877258 48.191830 0.793696 2.065434 0.049024 0.005774 -585694.000000 0 0 1
30.166428 31.562611 -22.782158 49.246711 0.808012 2.051736 0.055139 -0.006627 -479887.000000 0 0 1
29.141408 32.508711 -22.857658 49.279919 0.839964 2.053113 0.052067 -0.002496 -843739.000000 0 0 1
29.559658 33.997311 -22.745258 50.467190 0.855107 2.038339 0.048700 -0.003600 -74637.900000 0 0 1
30.042698 34.339011 -21.474358 50.426971 0.852031 2.010698 0.049527 -0.011412 -12283.400000 0 0 1
31.422988 34.108511 -21.287958 51.029127 0.826356 2.001128 0.044303 -0.016121 -415659.000000 0 0 1
31.872548 34.023711 -19.831558 50.663230 0.818031 1.972991 0.041986 -0.020239 -246307.000000 0 0 1
31.894798 -33.596703 -19.127258 50.118545 -0.811379 1.962367 0.050604 -0.017799 209300.000000 0 0 1
31.993898 -33.728703 -17.730758 49.755549 -0.811788 1.935163 0.031155 -0.021380 -851773.000000 0 0 1
32.031158 -32.315803 -17.092558 48.605162 -0.789822 1.930142 0.028879 0.000542 14381.300000 0 0 1
33.218688 -31.545503 -17.193758 48.930821 -0.759569 1.929851 0.029997 -0.005284 -485215.000000 0 0 1
34.252158 -32.077303 -16.438458 49.723099 -0.752621 1.907736 0.027999 -0.006550 -1888760.000000 0 0 1
35.583938 -31.445603 -16.738258 50.350887 -0.723737 1.909678 0.005519 0.004060 -969213.000000 0 0 1
-35.262224 -31.978303 -17.914658 50.862278 0.736599 1.930737 0.011088 -0.000738 -388775.000000 0 0 1
-34.166525 -31.192603 -18.319558 49.758779 0.739928 1.947833 0.003222 0.003465 1622.810000 0 0 1
-33.082232 -31.902003 -19.158458 49.791750 0.767238 1.965757 -0.002449 -0.008078 -825347.000000 0 0 1
-32.441982 -32.953503 -18.420258 49.776716 0.793220 1.949867 0.009004 -0.003329 1479170.000000 0 0 1
-31.305812 -33.642803 -19.049758 49.747214 0.821365 1.963764 -0.007279 0.002762 1980420.000000 0 0 1
-30.064062 -32.741103 -19.391058 48.495781 0.827997 1.982150 -0.000577 0.001791 -585110.000000 0 0 1
-30.363602 -31.922003 -20.552658 48.614549 0.810413 2.007293 -0.011354 0.004630 962030.000000 0 0 1
-29.205652 -31.352903 -21.229058 47.818904 0.820841 2.030795 0.001782 0.002166 1080590.000000 0 0 1
-28.249172 -32.314303 -22.009258 48.235229 0.852419 2.044618 -0.003401 0.011607 349811.000000 0 0 1
-28.922882 -32.977703 -23.081458 49.566276 0.850810 2.055186 -0.006549 0.015373 -103678.000000 0 0 1
-28.245942 -34.161203 -23.391358 50.119624 0.879901 2.056364 -0.007185 0.004000 -396368.000000 0 0 1
-28.873242 33.802711 -24.494058 50.756736 -0.863887 2.074391 -0.009450 -0.004603 -543604.000000 0 0 1
-30.011312 33.085511 -24.076358 50.744467 -0.834082 2.065150 -0.011399 -0.007012 -102590.000000 0 0 1
-30.664482 32.204811 -24.992858 51.010815 -0.809894 2.082831 -0.011421 -0.005095 732180.000000 0 0 1
-31.604652 33.007811 -26.002078 52.578301 -0.807111 2.088102 -0.011955 -0.017413 -55681.600000 0 0 1
-30.897912 33.731911 -27.002148 53.119100 -0.829220 2.104043 -0.013058 -0.021123 303815.000000 0 0 1
-31.831722 -34.227303 -27.649018 54.306860 0.821647 2.104965 -0.011323 -0.026183 714016.000000 0 0 1
-31.043212 -33.332203 -28.640378 53.805093 0.820940 2.132110 -0.006128 -0.025029 -430201.000000 0 0 1
-30.939122 -33.819303 -29.966548 54.762839 0.829845 2.149819 -0.000542 -0.019587 273602.000000 0 0 1
-32.127082 -33.696703 -30.762098 55.802544 0.809239 2.154678 0.000854 -0.020078 254162.000000 0 0 1
-32.108142 34.193911 -31.971158 56.765406 -0.816846 2.169068 0.010378 -0.015156 -365844.000000 0 0 1
-31.183522 -34.203703 -32.930338 56.804159 0.831555 2.189178 0.008270 -0.024096 -328600.000000 0 0 1
-31.416582 33.874911 -34.138325 57.445074 -0.823032 2.207164 -0.000738 -0.027085 -434521.000000 0 0 1
-30.552602 34.166511 33.342737 56.679362 -0.841180 0.941879 0.006889 -0.025269 443371.000000 0 0 1
-29.224122 33.683311 33.372664 55.698738 -0.856165 0.928340 0.014495 -0.017615 -40017.500000 0 0 1
-29.059412 32.324411 33.134370 54.655315 -0.838538 0.919469 0.022990 -0.022889 463724.000000 0 0 1
-27.580402 31.768211 33.143229 53.557179 -0.855844 0.903533 0.034160 -0.012898 523194.000000 0 0 1
-27.152322 31.477211 -34.308273 53.899175 -0.859031 2.260783 0.035119 -0.014872 415334.000000 0 0 1
-25.752912 31.219711 -34.225134 53.002289 -0.881060 2.272774 0.046204 -0.011866 246755.000000 0 0 1
-25.302132 29.809611 34.156033 51.917679 -0.867005 0.852785 0.049292 -0.023070 -695894.000000 0 0 1
-25.568042 28.743711 -33.719468 51.155921 -0.843803 2.290485 0.052771 -0.020556 141453.000000 0 0 1
-25.190302 27.483011 -34.165436 50.568214 -0.828898 2.312616 0.051557 -0.025372 -315176.000000 0 0 1
-25.121712 26.494411 -32.981548 49.202000 -0.811986 2.305449 0.056487 -0.027410 -260005.000000 0 0 1
-24.008462 26.582011 -32.123668 48.113819 -0.836225 2.301857 0.062767 -0.022546 -129925.000000 0 0 1
-24.143262 27.618511 -31.176728 48.142161 -0.852437 2.275223 0.059727 -0.014897 -731867.000000 0 0 1
-22.935462 27.824211 -30.303318 47.101096 -0.881414 2.269685 0.074277 -0.014536 -1100560.000000 0 0 1
-21.810062 28.297211 -30.974518 47.284582 -0.914147 2.285066 0.057313 -0.009936 -247886.000000 0 0 1
-20.646762 28.314511 -30.149978 46.227930 -0.940745 2.281283 0.038895 -0.008960 457162.000000 0 0 1
-20.405462 29.546111 -29.171918 46.263986 -0.966386 2.253062 0.030169 -0.002630 -410005.000000 0 0 1
-20.071862 30.779811 -29.799538 47.310558 -0.992938 2.252183 0.025977 0.007162 2054.280000 0 0 1
-19.652962 31.744811 -28.880148 47.202065 -1.016457 2.229182 0.021822 0.005143 -200093.000000 0 0 1
-19.083662 33.024411 -29.528638 48.236276 -1.046811 2.229594 0.021500 0.010448 352720.000000 0 0 1
-17.814362 32.858011 -30.149078 48.020488 -1.073991 2.249568 0.020420 0.005610 -170585.000000 0 0 1
-17.612662 33.908411 -31.098418 49.265585 -1.091735 2.253948 0.023526 0.014733 -550933.000000 0 0 1
-16.197062 33.963811 -31.642108 49.164096 -1.125806 2.269992 0.015464 0.011288 -1018490.000000 0 0 1
-15.263762 -34.292803 -30.769398 48.535911 1.152024 2.257448 0.019908 0.000789 -82359.500000 0 0 1
-13.918362 -34.215103 -31.203478 48.353398 1.184450 2.272240 0.035731 0.005947 734862.000000 0 0 1
-13.088662 33.280811 -31.227278 47.477030 -1.196097 2.288603 0.044068 -0.002513 -589369.000000 0 0 1
-12.942862 32.709411 -29.930468 46.187186 -1.194009 2.275785 0.056006 -0.013574 -116994.000000 0 0 1
-12.549962 31.393211 -30.018678 45.212347 -1.190491 2.296883 0.043928 -0.010143 -421268.000000 0 0 1
-12.481962 30.676011 -28.638138 43.783102 -1.184359 2.283777 0.036866 -0.019920 251908.000000 0 0 1
-11.389162 31.143511 -27.842708 43.299511 -1.220204 2.269239 0.035806 -0.012450 193930.000000 0 0 1
-11.205762 30.467011 -26.595668 41.965908 -1.218353 2.257181 0.022784 -0.017010 -672836.000000 0 0 1
-9.890362 30.861111 -25.969568 41.528856 -1.260658 2.246361 0.024479 -0.008914 -716636.000000 0 0 1
-8.782362 30.335211 -26.648828 41.322088 -1.288990 2.271696 0.035045 -0.009611 299041.000000 0 0 1
-7.554662 30.862011 -26.102008 41.119964 -1.330729 2.258516 0.042271 -0.013884 144629.000000 0 0 1
-6.331362 30.063711 -26.454998 40.543554 -1.363231 2.281686 0.021879 -0.009876 -965334.000000 0 0 1
-6.162962 28.842911 -25.699278 39.119669 -1.360289 2.287549 0.020552 -0.015756 -62387.400000 0 0 1
-4.972962 28.198711 -26.131218 38.765168 -1.396237 2.310529 0.017214 -0.019822 234475.000000 0 0 1
-4.488262 27.004711 -25.270608 37.255906 -1.406099 2.316240 0.025011 -0.018908 -409641.000000 0 0 1
-5.203862 25.803111 -25.474088 36.630723 -1.371790 2.339814 0.036931 -0.014442 -274626.000000 0 0 1
-4.791562 24.740611 -24.728058 35.306285 -1.379493 2.346736 0.023226 -0.021625 -1432820.000000 0 0 1
-5.783262 23.631511 -24.578558 34.583232 -1.330787 2.361300 0.034890 -0.018916 -703012.000000 0 0 1
-5.845862 22.933611 -25.833458 35.035585 -1.321208 2.399934 0.031256 -0.018184 262886.000000 0 0 1
-6.558362 21.710211 -25.586778 34.191060 -1.277426 2.416363 0.028363 -0.022512 -272618.000000 0 0 1
-6.595262 20.972811 -26.984588 34.806957 -1.266120 2.457930 0.027693 -0.013307 104493.000000 0 0 1
-5.500562 20.146811 -27.323588 34.390822 -1.304268 2.488984 0.041628 -0.019905 -291675.000000 0 0 1
-5.151962 19.130411 -26.376968 32.988783 -1.307730 2.497382 0.038743 -0.020228 -424355.000000 0 0 1
-3.985962 18.212911 -26.756208 32.611236 -1.355340 2.533011 0.039860 -0.020121 -91709.300000 0 0 1
-4.147562 17.462911 -27.981288 33.243165 -1.337610 2.571249 0.046942 -0.022448 739050.000000 0 0 1
-2.987762 16.604211 -28.196538 32.858352 -1.392761 2.602401 0.046202 -0.019611 857072.000000 0 0 1
-2.702262 16.439711 -29.673338 34.030476 -1.407879 2.629995 0.057382 -0.023085 -205923.000000 0 0 1
-1.980062 17.513811 -30.192458 34.960531 -1.458217 2.613194 0.067166 -0.028807 -122551.000000 0 0 1
-1.870162 17.487111 -31.615758 36.178070 -1.464256 2.633950 0.066704 -0.025699 -38343.400000 0 0 1
-1.051662 18.671611 -32.141768 37.186400 -1.514532 2.614637 0.074569 -0.014370 -179663.000000 0 0 1
0.319438 18.626711 -31.839838 36.889453 1.553649 2.612202 0.085136 -0.019073 -315978.000000 0 0 1
1.103238 19.724011 -32.273828 37.839843 1.514921 2.592323 0.080522 -0.006520 261352.000000 0 0 1
1.049838 21.079211 -31.540868 37.950780 1.521033 2.551878 0.080368 -0.005596 -156701.000000 0 0 1
1.571538 21.100611 -30.221208 36.892099 1.496455 2.530773 0.085794 -0.022185 -266789.000000 0 0 1
1.326138 22.392911 -29.658638 37.186502 1.511644 2.494043 0.087105 -0.021588 61480.200000 0 0 1
2.302738 22.806811 -28.542288 36.607587 1.470170 2.464955 0.083887 -0.018979 -142502.000000 0 0 1
3.639938 22.801211 -28.987588 37.059744 1.412494 2.468962 0.070953 -0.018356 -581931.000000 0 0 1
4.576338 23.030811 -27.982838 36.529445 1.374646 2.443446 0.060855 -0.021331 -110319.000000 0 0 1
4.955938 24.471411 -27.571618 37.196847 1.370979 2.405705 0.066751 -0.018012 -248771.000000 0 0 1
5.620638 25.253011 -28.562548 38.537323 1.351793 2.405602 0.053985 -0.012220 303815.000000 0 0 1
6.021538 26.517311 -28.037768 39.058202 1.347503 2.371500 0.049345 -0.015264 -196454.000000 0 0 1
6.803138 27.300911 -29.102308 40.479214 1.326579 2.373079 0.043643 -0.020243 481887.000000 0 0 1
8.149838 26.832011 -29.255928 40.525128 1.275916 2.377370 0.015751 -0.013935 425409.000000 0 0 1
8.925638 27.706111 -30.027428 41.820354 1.259141 2.371735 0.022503 -0.022469 -242702.000000 0 0 1
10.432438 27.514011 -29.831928 41.902273 1.208376 2.363054 0.017768 -0.017236 -168866.000000 0 0 1
11.224238 28.366311 -30.630668 43.230417 1.194012 2.358230 0.020678 -0.018480 566980.000000 0 0 1
12.576938 28.488411 -30.165618 43.355893 1.155054 2.340284 0.021574 -0.022079 715906.000000 0 0 1
13.314538 29.564411 -31.038558 44.885670 1.147646 2.334363 0.032734 -0.021544 -418056.000000 0 0 1
12.704138 30.820211 -30.959588 45.494798 1.179816 2.319252 0.029988 -0.017627 85506.300000 0 0 1
13.466538 31.859411 -31.534118 46.805666 1.170887 2.310033 0.057176 -0.022496 228204.000000 0 0 1
12.675538 33.241111 -31.533378 47.539401 1.206495 2.296030 0.068476 -0.029714 401150.000000 0 0 1
11.729038 33.326711 -32.567688 48.050955 1.232393 2.315527 0.051549 -0.027436 -260451.000000 0 0 1
10.768538 34.306611 -32.334598 48.357328 1.266645 2.303201 0.059297 -0.020296 69294.900000 0 0 1
9.710538 -34.396203 -33.505988 48.990250 -1.295643 2.323935 0.047149 -0.013302 483548.000000 0 0 1
10.069738 -33.495303 34.205673 48.922009 -1.278760 0.796535 0.048360 -0.004736 788208.000000 0 0 1
9.058538 -33.516103 33.156501 48.007706 -1.306829 0.808409 0.039201 -0.005481 760839.000000 0 0 1
9.255338 -32.567003 31.960165 46.558813 -1.293903 0.814204 0.050480 -0.001577 -19605.200000 0 0 1
9.041238 -31.218103 32.333845 45.845299 -1.288894 0.787976 0.035761 -0.005355 57028.000000 0 0 1
9.291438 -30.412103 31.187635 44.540940 -1.274285 0.795117 0.059749 -0.005966 -327587.000000 0 0 1
8.842138 -28.928903 31.355325 43.568580 -1.274164 0.767459 0.042742 -0.014971 499788.000000 0 0 1
7.420938 -28.878403 31.399745 43.300998 -1.319267 0.759543 0.008892 0.002997 343034.000000 0 0 1
6.739738 -28.966103 32.661255 44.172579 -1.342187 0.738616 0.006327 0.014093 1120310.000000 0 0 1
5.174638 -28.744303 32.471105 43.673613 -1.392681 0.732515 0.005156 0.011308 1323460.000000 0 0 1
4.439938 -29.847303 31.921065 43.926403 -1.423124 0.757299 0.007015 0.002589 -59770.000000 0 0 1
4.738638 -30.224603 30.590125 43.263576 -1.415281 0.785458 0.015215 -0.003162 -845694.000000 0 0 1
4.322338 -29.303403 29.466045 41.780615 -1.424349 0.788012 0.003974 -0.009585 -268879.000000 0 0 1
2.926038 -29.327303 29.287615 41.550172 -1.471354 0.788552 0.019202 -0.016257 140545.000000 0 0 1
2.560538 -28.584003 28.112555 40.173590 -1.481455 0.795711 0.023663 -0.024078 503297.000000 0 0 1
1.191938 -29.063603 27.512115 40.037859 -1.529808 0.813234 0.019635 -0.019588 475231.000000 0 0 1
1.223038 -30.301903 26.859975 40.511225 -1.530456 0.845943 0.020699 -0.020131 157227.000000 0 0 1
0.820738 -31.414903 27.667785 41.869751 -1.544677 0.848904 0.041466 -0.024481 -585235.000000 0 0 1
1.201138 -32.791503 27.142955 42.584802 -1.534183 0.879695 0.040041 -0.020145 568104.000000 0 0 1
2.610438 -33.013103 27.034555 42.749813 -1.491888 0.886162 0.028522 -0.017434 752156.000000 0 0 1
3.164238 -32.550803 25.812115 41.663322 -1.473892 0.902639 0.025043 -0.026587 -527861.000000 0 0 1
4.694638 -32.433303 25.880465 41.758319 -1.427047 0.902349 0.038229 -0.015462 -252952.000000 0 0 1
5.341338 -32.172503 24.666045 40.890263 -1.406275 0.923257 0.041737 -0.034223 -574707.000000 0 0 1
6.717438 -32.241303 24.879285 41.274743 -1.365386 0.923825 0.050400 -0.033827 -791076.000000 0 0 1
7.521738 -31.663603 23.681685 40.249006 -1.337568 0.941743 0.036726 -0.025139 -252751.000000 0 0 1
8.844738 -31.327603 24.005535 40.446431 -1.295628 0.935378 0.022110 -0.016762 -273817.000000 0 0 1
9.486538 -30.775403 22.883045 39.506374 -1.271787 0.953020 0.028154 -0.010768 104803.000000 0 0 1
10.696238 -29.852403 23.120045 39.244260 -1.226743 0.940812 0.017639 -0.006696 747265.000000 0 0 1
11.891438 -30.480303 23.582145 40.330791 -1.198823 0.946264 0.027388 -0.017211 461187.000000 0 0 1
12.993838 -29.600703 23.722045 40.097093 -1.157152 0.937736 0.038693 -0.014494 -51261.900000 0 0 1
14.233038 -30.266203 24.326105 41.356762 -1.131221 0.941963 0.064104 -0.016582 -506941.000000 0 0 1
14.218638 -30.467903 25.743735 42.346223 -1.134162 0.917340 0.065185 -0.024493 149545.000000 0 0 1
14.588338 -29.318403 26.508335 42.131700 -1.109084 0.890301 0.053208 -0.023696 -113089.000000 0 0 1
-10.780862 -14.005289 26.638985 31.968901 0.914762 0.585785 0.046581 -0.028262 -505205.000000 0 0 1
-9.442462 -13.892189 26.284045 31.193012 0.973828 0.568655 0.046976 -0.025431 -919832.000000 0 0 1
-8.526262 -14.267389 27.281415 31.945753 1.032140 0.547186 0.041548 -0.023697 -253356.000000 0 0 1
-7.049562 -14.088489 26.936315 31.204918 1.106847 0.529208 0.043378 -0.015687 -605446.000000 0 0 1
-6.619562 -15.107089 26.010215 30.798929 1.157819 0.565134 0.038675 -0.023099 -19657.400000 0 0 1
-6.971562 -14.926389 24.613915 29.618315 1.133844 0.589827 0.051732 -0.015381 -477480.000000 0 0 1
-6.310862 -15.943389 23.680115 29.236390 1.193890 0.626724 0.058284 -0.017014 -140935.000000 0 0 1
-6.882962 -17.214089 23.578145 29.993815 1.190424 0.666322 0.065065 -0.014226 -433503.000000 0 0 1
-6.728362 -17.945189 24.753695 31.305688 1.212079 0.658830 0.058464 -0.014240 -132124.000000 0 0 1
-7.188962 -19.375489 24.526155 32.072153 1.215507 0.700193 0.064214 -0.011349 -27425.700000 0 0 1
-8.560262 -19.547789 24.215765 32.276887 1.158038 0.722355 0.052548 -0.005567 -207532.000000 0 0 1
-8.944662 -20.892489 24.096735 33.123341 1.166279 0.756147 0.051537 -0.009589 -566254.000000 0 0 1
-10.457262 -21.018089 24.087275 33.634970 1.109122 0.772543 0.038487 -0.005563 -808222.000000 0 0 1
-11.085362 -20.766289 25.302135 34.558965 1.080464 0.749332 0.042167 -0.013972 997853.000000 0 0 1
-12.514262 -20.594089 25.060185 34.766883 1.024761 0.765832 0.057129 -0.009714 1462330.000000 0 0 1
-13.257462 -20.657589 26.412735 36.057300 1.000227 0.748778 0.059907 -0.012435 -311818.000000 0 0 1
-13.111262 -21.957189 27.032685 37.212758 1.032491 0.757675 0.068794 -0.010170 473402.000000 0 0 1
-12.112962 -21.913589 28.069135 37.613901 1.065836 0.728395 0.070304 -0.014183 554633.000000 0 0 1
-11.727962 -23.242489 28.811215 38.830973 1.103482 0.734800 0.063048 -0.013934 -414796.000000 0 0 1
-12.721162 -23.764689 29.627375 40.054585 1.079312 0.738209 0.063705 -0.011032 -538637.000000 0 0 1
-12.397662 -25.022489 30.193275 41.127373 1.110787 0.746396 0.058370 -0.004338 -63597.200000 0 0 1
-13.317662 -25.567759 31.316225 42.564966 1.090587 0.744056 0.050832 -0.008513 106644.000000 0 0 1
-13.247262 -24.981089 32.585675 43.143609 1.083210 0.714709 0.054504 -0.010551 -139192.000000 0 0 1
-14.437962 -25.173549 33.313771 44.181101 1.050062 0.716624 0.048666 -0.008494 -373674.000000 0 0 1
-14.313862 -24.453889 -34.053738 44.300524 1.041225 2.447600 0.037745 -0.010331 157014.000000 0 0 1
-14.175662 -23.017589 -34.065868 43.488415 1.018795 2.470805 0.032205 -0.010622 234564.000000 0 0 1
-15.331962 -22.363889 34.162011 43.614855 0.969822 0.670895 0.038368 -0.012356 273187.000000 0 0 1
-15.516562 -20.909189 -34.095026 42.900218 0.932375 2.489395 0.021575 -0.011153 -157350.000000 0 0 1
-15.843962 -20.774589 -32.740208 41.887181 0.919242 2.468069 0.017526 -0.008080 40330.300000 0 0 1
-15.944162 -19.402289 -32.456528 41.037682 0.882923 2.483068 0.014077 -0.011694 -396239.000000 0 0 1
-15.949062 -19.049289 -30.930788 39.673186 0.873750 2.464886 0.010509 -0.007346 291457.000000 0 0 1
-17.129462 -19.523189 -30.295528 39.904792 0.850614 2.432872 0.009731 -0.005610 195660.000000 0 0 1
-17.035462 -19.357789 -28.931368 38.755065 0.849124 2.413610 0.008159 -0.005288 -125079.000000 0 0 1
-16.252862 -20.402989 -28.118198 38.354538 0.898137 2.393684 0.000181 0.004533 127798.000000 0 0 1
-14.850962 -20.170589 -28.126128 37.662751 0.936142 2.414017 -0.001286 0.002934 -309646.000000 0 0 1
-14.240562 -21.279389 -27.536608 37.601474 0.981029 2.392531 -0.004542 0.006851 -881655.000000 0 0 1
-12.766562 -21.209089 -27.884228 37.287274 1.028953 2.415571 0.025548 -0.003127 -1663140.000000 0 0 1
-12.161962 -20.164089 -27.234328 36.002951 1.028064 2.428660 0.022341 -0.009521 509040.000000 0 0 1
-10.728962 -20.192689 -27.120898 35.473912 1.082401 2.441109 0.007065 -0.015682 1181980.000000 0 0 1
-10.110762 -21.277089 -26.185908 35.222774 1.127189 2.408991 0.028603 -0.014449 -623894.000000 0 0 1
-10.131062 -22.606289 -26.682848 36.409575 1.149480 2.393301 0.031781 -0.017917 130691.000000 0 0 1
-9.553862 -23.426389 -25.689958 36.056150 1.183563 2.363849 0.044595 -0.018543 -57544.500000 0 0 1
-9.518562 -24.921589 -26.038228 37.278385 1.205955 2.344068 0.045317 -0.017451 -147279.000000 0 0 1
-8.376962 -25.243079 -26.790248 37.750549 1.250380 2.359819 0.043348 -0.019422 -39409.500000 0 0 1
-8.629662 -26.393959 -27.571098 39.131543 1.254796 2.352620 0.039959 -0.021732 72502.900000 0 0 1
-8.573362 -27.805329 -27.013738 39.703664 1.271710 2.319083 0.044225 -0.012704 147163.000000 0 0 1
-9.695662 -28.193589 -26.219618 39.703309 1.239570 2.292133 0.049270 -0.016793 180000.000000 0 0 1
-9.456262 -29.368609 -25.456728 39.999764 1.259293 2.260647 0.072029 -0.010576 -126068.000000 0 0 1
-10.473162 -29.502279 -24.316158 39.640222 1.229679 2.231182 0.071194 -0.019540 -13448.100000 0 0 1
-10.356962 -28.547499 -23.261358 38.253329 1.222766 2.224445 0.065910 -0.019717 -186527.000000 0 0 1
-11.015162 -27.335669 -23.525858 37.709927 1.187741 2.244473 0.063053 -0.022463 -336916.000000 0 0 1
-11.007262 -26.259949 -22.380258 36.216305 1.173878 2.236943 0.061476 -0.020047 -285640.000000 0 0 1
-11.861162 -26.566759 -21.331258 36.076342 1.150885 2.203443 0.058314 -0.022886 -119405.000000 0 0 1
-11.808662 -25.600699 -20.325958 34.756077 1.138615 2.195451 0.050499 -0.009377 276403.000000 0 0 1
-12.452362 -26.028189 -18.929458 34.508729 1.124563 2.151415 0.065579 -0.007538 655507.000000 0 0 1
-13.865962 -26.148689 -18.888458 35.111148 1.083224 2.138814 0.072864 -0.006926 176464.000000 0 0 1
-14.345962 -26.763899 -17.729158 35.162992 1.078750 2.099251 0.070450 -0.001765 385104.000000 0 0 1
-15.891862 -26.882939 -17.604558 35.849187 1.036909 2.084117 0.076088 -0.008089 -727650.000000 0 0 1
-16.495362 -25.587609 -17.566058 35.148103 0.998183 2.094133 0.064561 -0.005080 134194.000000 0 0 1
-17.821162 -25.566969 -17.054858 35.526496 0.962061 2.071520 0.078037 -0.006772 530345.000000 0 0 1
-18.862762 -26.141379 -18.086558 36.963483 0.945742 2.082093 0.071389 -0.006658 -1048110.000000 0 0 1
-18.892962 -27.565739 -18.301858 38.102126 0.969951 2.071835 0.081905 -0.009438 24568.100000 0 0 1
-19.288662 -28.399199 -17.215958 38.405159 0.974169 2.035628 0.086795 -0.012059 -107431.000000 0 0 1
-20.760362 -28.883329 -17.330858 39.567638 0.947586 2.024176 0.060391 -0.005221 301754.000000 0 0 1
-20.970062 -29.842129 -18.319558 40.815468 0.958261 2.036262 0.054045 -0.003874 146546.000000 0 0 1
-22.184062 -30.529379 -18.042558 41.829529 0.942410 2.016769 0.044429 0.007448 268059.000000 0 0 1
-22.661962 -31.541639 -19.094158 43.278475 0.947777 2.027724 0.028389 0.007807 -713916.000000 0 0 1
-21.844362 -32.683769 -19.269558 43.780370 0.981626 2.026553 0.031976 0.005141 -43321.000000 0 0 1
-22.287462 -33.549679 -20.251958 45.082744 0.984425 2.036686 0.021102 0.009073 -140502.000000 0 0 1
-21.655762 33.909710 -20.035358 44.947259 -1.002456 2.032811 0.019972 0.012577 -24094.400000 0 0 1
-22.294762 33.090215 -19.102958 44.237335 -0.977901 2.017316 0.020515 0.006298 -67496.500000 0 0 1
-21.452362 31.982964 -18.844058 42.874379 -0.979977 2.025858 0.015631 -0.004733 343154.000000 0 0 1
-22.158462 30.717754 -18.205358 42.023957 -0.945880 2.018852 0.020663 -0.014643 33968.400000 0 0 1
-22.769562 30.888834 -16.965458 41.957119 -0.935573 1.987067 0.010631 -0.012396 -120146.000000 0 0 1
-23.659262 29.808314 -16.720458 41.567656 -0.899900 1.984766 0.017074 -0.008198 -64969.600000 0 0 1
-23.093062 28.388194 -16.368258 40.088639 -0.887893 1.991389 0.014206 -0.016444 -140729.000000 0 0 1
-22.242862 27.892814 -17.385258 39.686285 -0.897618 2.024244 0.013016 -0.013248 -156092.000000 0 0 1
-21.611862 26.693784 -17.097758 38.366184 -0.890216 2.032693 0.010975 -0.015004 -259405.000000 0 0 1
-20.725562 26.195684 -18.242458 38.059823 -0.901455 2.070665 0.028624 -0.009701 -943963.000000 0 0 1
-20.561962 24.788364 -18.165358 36.976175 -0.878324 2.084346 0.023822 -0.015600 -143334.000000 0 0 1
-20.115562 24.212184 -19.331058 36.939891 -0.877553 2.121528 0.019730 -0.003122 862858.000000 0 0 1
-18.589162 24.501544 -19.663758 36.504055 -0.921755 2.139658 0.016337 -0.011732 363408.000000 0 0 1
-17.699262 23.938154 -18.728058 35.171569 -0.934130 2.132321 0.028094 -0.010874 225568.000000 0 0 1
-16.534762 24.650224 -18.375458 34.909732 -0.979955 2.125123 0.039077 -0.022191 -118561.000000 0 0 1
-16.718662 25.825624 -17.434758 35.361665 -0.996274 2.086378 0.029176 -0.015839 -713901.000000 0 0 1
-17.500962 26.852674 -17.929858 36.726416 -0.993199 2.080823 0.019539 -0.014312 -370552.000000 0 0 1
-17.240362 28.091294 -17.219258 37.186742 -1.020345 2.052228 0.022283 -0.023331 49679.700000 0 0 1
-18.079462 29.389354 -17.593358 38.731478 -1.019297 2.042314 0.023193 -0.019850 324558.000000 0 0 1
-17.893462 29.955334 -18.900458 39.682810 -1.032336 2.067225 -0.002151 -0.023408 225668.000000 0 0 1
-18.480962 29.131374 -19.898758 39.826417 -1.005466 2.093976 0.011652 -0.014649 -154848.000000 0 0 1
-18.373462 29.777214 -21.293058 40.959260 -1.017948 2.117483 0.022159 -0.016599 323302.000000 0 0 1
-19.125762 30.999874 -21.450258 42.271747 -1.017998 2.103004 0.031800 -0.015848 220748.000000 0 0 1
-19.766862 30.973994 -22.709258 43.195226 -1.002778 2.124376 0.028281 -0.016794 57814.100000 0 0 1
-20.337462 32.322434 -23.175958 44.670764 -1.009178 2.116263 0.028182 -0.016472 259368.000000 0 0 1
-19.380362 33.350619 -23.294258 45.060900 -1.044383 2.114081 0.018129 -0.014667 313010.000000 0 0 1
-20.050662 34.404602 -23.989158 46.488552 -1.043127 2.112998 0.016832 -0.009354 612964.000000 0 0 1
-19.139262 -33.126519 -23.972658 45.148267 1.046888 2.130549 0.027811 -0.008647 299983.000000 0 0 1
-19.181562 -32.293249 -22.876558 43.978668 1.034815 2.117851 0.030775 -0.006702 98558.900000 0 0 1
-18.532762 -32.856559 -21.741458 43.539726 1.057230 2.093642 0.028806 -0.017325 -307480.000000 0 0 1
-18.232962 -31.852439 -20.621758 42.098405 1.050903 2.082710 0.046233 -0.021837 -261539.000000 0 0 1
-17.235862 -30.957509 -21.020058 41.198121 1.062779 2.106236 0.052906 -0.024239 -403458.000000 0 0 1
-16.916862 -30.103869 -20.002058 39.906209 1.058825 2.095812 0.064233 -0.020759 -497274.000000 0 0 1
-15.692862 -29.282379 -20.394258 38.982681 1.078831 2.121353 0.083726 -0.028836 -767933.000000 0 0 1
-14.537262 -30.054179 -20.353558 39.100550 1.120272 2.118284 0.088611 -0.030997 -1178500.000000 0 0 1
-13.464762 -29.287719 -20.793858 38.359547 1.139871 2.143704 0.081037 -0.030831 340724.000000 0 0 1
-12.084662 -30.083669 -20.934358 38.591626 1.188824 2.144157 0.093079 -0.026859 1320740.000000 0 0 1
-11.620062 -30.701549 -19.709058 38.289136 1.208974 2.111504 0.086098 -0.022394 73749.200000 0 0 1
-10.949062 -29.827859 -18.849258 36.944251 1.218992 2.106223 0.074190 -0.018211 -832636.000000 0 0 1
-10.306562 -30.464289 -17.630958 36.676271 1.244568 2.072270 0.066843 -0.000545 -142042.000000 0 0 1
-11.107362 -30.970089 -16.561858 36.834971 1.226438 2.037140 0.082040 -0.015406 106581.000000 0 0 1
-11.642862 -32.274879 -16.728958 38.171745 1.224585 2.024453 0.084491 -0.013985 73103.400000 0 0 1
-12.579662 -32.849829 -15.644258 38.498078 1.205079 1.989268 0.081390 -0.024228 -66642.800000 0 0 1
-11.907662 -33.168089 -14.458258 38.091414 1.226118 1.960125 0.072996 -0.016074 -48510.200000 0 0 1
-12.810262 -33.942559 -13.677158 38.771959 1.209914 1.931314 0.069847 -0.012887 -145760.000000 0 0 1
-12.403062 -34.375093 -12.291758 38.556067 1.224519 1.895262 0.055668 -0.004834 -153906.000000 0 0 1
-12.440162 -33.273479 -11.388658 37.303935 1.213011 1.881043 0.036456 -0.000066 202762.000000 0 0 1
-12.068762 -33.617939 -10.032458 37.100823 1.226128 1.844616 0.034723 -0.002157 264379.000000 0 0 1
-10.741162 -32.954109 -9.564658 35.955925 1.255712 1.840049 0.036427 -0.000528 1000550.000000 0 0 1
-9.505862 -33.412179 -10.114358 36.180594 1.293617 1.854124 0.027530 -0.005691 -470193.000000 0 0 1
-8.461162 -32.655269 -9.645458 35.085506 1.317266 1.849295 0.029030 -0.009191 -261133.000000 0 0 1
-7.094162 -33.151229 -10.211858 35.406400 1.359982 1.863371 0.018153 -0.014134 269193.000000 0 0 1
-6.684062 -34.360279 -9.679758 36.318084 1.378667 1.840584 0.003790 -0.007372 169968.000000 0 0 1
-5.464362 34.029752 -10.287458 35.968251 -1.411579 1.860862 0.008854 -0.008973 371981.000000 0 0 1
-4.723462 32.906602 -9.527058 34.582082 -1.428229 1.849897 0.008242 -0.015058 88462.400000 0 0 1
-4.146462 33.354126 -8.263558 34.611809 -1.447115 1.811874 0.009059 -0.013370 -70714.900000 0 0 1
-3.453162 32.320074 -7.688258 33.400911 -1.464357 1.803060 0.012331 -0.020127 -618847.000000 0 0 1
-3.019762 32.794763 -6.276058 33.526174 -1.478975 1.759106 0.013379 -0.014663 -836612.000000 0 0 1
-2.117462 33.871663 -6.268758 34.511890 -1.508363 1.753451 0.010259 -0.010716 -147714.000000 0 0 1
-1.769262 34.246008 -4.951158 34.647270 -1.519179 1.714189 0.009804 -0.009915 -20238.600000 0 0 1
-0.773662 33.313531 -4.229958 33.589916 -1.547577 1.697061 0.013421 -0.022707 125505.000000 0 0 1
0.584238 33.500572 -4.643458 33.825898 1.553358 1.708506 0.015682 -0.015743 214739.000000 0 0 1
1.510238 32.775784 -3.893458 33.040761 1.524751 1.688909 0.012869 -0.017421 122285.000000 0 0 1
2.981138 32.957746 -4.335158 33.375048 1.480588 1.701057 0.017043 -0.011854 139233.000000 0 0 1
3.503238 34.221113 -4.085558 34.641724 1.468781 1.689009 0.016732 -0.009642 -783456.000000 0 0 1
4.889438 34.231343 -3.933858 34.801821 1.428921 1.684074 0.031973 -0.009184 -74454.400000 0 0 1
5.484838 -33.215799 -3.365958 33.833452 -1.407146 1.670447 0.033117 -0.007964 -4623.310000 0 0 1
5.452438 -32.202509 -4.411958 32.957489 -1.403070 1.705068 0.035139 -0.008315 -142967.000000 0 0 1
5.729438 -30.934779 -3.827358 31.692834 -1.387661 1.691856 0.036702 -0.012190 6681.230000 0 0 1
5.711538 -29.828419 -4.939358 30.769360 -1.381607 1.732022 0.036556 -0.010969 -50708.700000 0 0 1
6.706638 -29.846999 -5.976258 31.169505 -1.349767 1.763725 0.045362 -0.004626 268594.000000 0 0 1
6.701838 -28.640729 -6.689758 30.165525 -1.340935 1.794424 0.032117 -0.002074 177426.000000 0 0 1
7.189338 -27.377819 -5.947858 28.924187 -1.313997 1.777910 0.038490 -0.002638 235751.000000 0 0 1
6.182038 -26.849959 -5.106758 28.021722 -1.344496 1.754063 0.043447 -0.008291 179494.000000 0 0 1
6.753538 -25.689479 -4.527358 26.945437 -1.313722 1.739617 0.045599 -0.012537 337377.000000 0 0 1
5.887438 -25.187979 -3.359458 26.084137 -1.341179 1.699948 0.042092 -0.015564 535468.000000 0 0 1
4.719138 -24.527989 -3.839158 25.271163 -1.380721 1.723305 0.042197 -0.019520 452211.000000 0 0 1
3.891638 -23.996589 -2.773258 24.467777 -1.410021 1.684384 0.034082 -0.013321 1230850.000000 0 1 0
2.618138 -23.201889 -3.233958 23.572034 -1.458430 1.708425 0.033949 -0.014028 771827.000000 0 1 0
1.555538 -24.011789 -3.669258 24.340279 -1.506104 1.722122 0.030758 -0.008327 -471822.000000 0 1 0
0.469438 -23.212989 -4.099858 23.576940 -1.550576 1.745578 0.018604 -0.008372 122057.000000 0 1 0
-14.987362 23.249711 18.377745 33.210113 -0.998208 0.984382 0.009520 -0.000094 -100342.000000 0 0 1
-14.940662 22.495411 19.587945 33.360972 -0.984528 0.943261 0.012263 -0.003691 268800.000000 0 0 1
-14.903562 23.381311 20.706745 34.605941 -1.003320 0.929346 0.019387 0.005036 -1204820.000000 0 0 1
-14.826662 22.519111 21.991145 34.792969 -0.988536 0.886591 0.028970 -0.006340 224143.000000 0 0 1
-13.579362 21.847511 22.307845 34.049269 -1.014680 0.856397 0.033480 -0.009578 506797.000000 0 0 1
-12.455762 22.654211 22.392845 34.202321 -1.068091 0.856988 0.010549 -0.004501 -1255260.000000 0 0 1
-12.478462 23.641011 23.581445 35.646794 -1.085132 0.847938 0.028026 -0.006186 -1073680.000000 0 0 1
-12.163062 23.019911 24.824055 35.973463 -1.084710 0.809216 0.037107 -0.009477 138165.000000 0 0 1
-11.997162 24.051411 25.776355 37.240069 -1.108099 0.806309 0.053723 -0.013530 -238383.000000 0 0 1
-11.260562 23.507011 27.014055 37.538500 -1.124065 0.767518 0.054602 -0.014857 361383.000000 0 0 1
-9.883262 23.164011 26.944845 36.881905 -1.167517 0.751639 0.032546 -0.019670 185613.000000 0 0 1
-9.490662 22.563711 28.175055 37.323283 -1.172645 0.715307 0.032520 -0.020676 -547097.000000 0 0 1
-7.985762 22.240211 28.190145 36.784285 -1.226065 0.697635 0.018079 -0.015929 171455.000000 0 0 1
-7.086462 23.295711 28.490095 37.477908 -1.275494 0.707201 0.015939 -0.014579 2123.390000 0 0 1
-6.984862 24.389611 27.565635 37.463391 -1.291875 0.743946 0.013186 -0.010818 -1310030.000000 0 0 1
-5.982962 25.475311 27.864865 38.226143 -1.340123 0.754013 0.016542 -0.019582 45905.700000 0 0 1
-4.654962 24.984311 27.650095 37.555455 -1.386593 0.743289 0.022811 -0.021478 353032.000000 0 0 1
-3.704162 25.992811 28.014925 38.395091 -1.429242 0.752988 0.027963 -0.014022 813357.000000 0 0 1
-2.233362 25.471211 28.002905 37.920089 -1.483338 0.739996 0.032425 -0.011885 345961.000000 0 0 1
-1.669662 25.351611 26.707305 36.861526 -1.505031 0.760443 0.034054 -0.023792 345227.000000 0 0 1
-0.267762 25.104611 26.831885 36.745928 -1.560131 0.752181 0.043734 -0.006462 529132.000000 0 0 1
0.442738 24.902511 25.522025 35.660970 1.553019 0.773192 0.038588 -0.013765 -249553.000000 0 0 1
0.133238 23.671611 24.961895 34.401440 1.565168 0.758882 0.042114 -0.009019 -75335.500000 0 0 1
0.614738 23.601511 23.620345 33.396555 1.544756 0.785169 0.049220 -0.008201 23953.300000 0 0 1
0.154638 22.316011 22.931345 31.998044 1.563867 0.771812 0.029872 -0.004403 -212783.000000 0 0 1
0.899538 21.211911 23.274445 31.503240 1.528415 0.739515 0.054941 -0.006242 -538744.000000 0 0 1
0.484938 20.042511 22.584945 30.199621 1.546606 0.725971 0.054989 -0.008810 -12106.100000 0 0 1
1.225138 18.737611 22.966645 29.665903 1.505505 0.685383 0.058895 -0.000710 -708569.000000 0 0 1
2.566938 18.853511 22.663545 29.591896 1.435477 0.698403 0.055007 -0.010167 -1061960.000000 0 0 1
3.202438 17.566611 22.534145 28.751158 1.390474 0.670092 0.048226 -0.008654 790847.000000 0 0 1
4.610338 17.617811 21.841145 28.437266 1.314849 0.695011 0.038634 -0.007089 771446.000000 0 0 1
5.585038 18.214611 22.677045 29.617783 1.273274 0.698735 0.024729 0.002841 -438200.000000 0 0 1
6.749938 18.587411 21.961945 29.553012 1.222459 0.733050 0.031116 -0.009823 422566.000000 0 0 1
7.790338 19.208411 22.985245 30.951153 1.185498 0.733808 0.039179 -0.018267 4735.200000 0 0 1
7.376438 20.337411 23.723955 32.106824 1.222850 0.739350 0.026447 -0.012617 -64009.100000 0 0 1
7.310038 21.573211 22.973745 32.351708 1.244091 0.781121 0.031200 -0.013530 -338980.000000 0 0 1
5.913438 22.207911 23.149145 32.619671 1.310559 0.781769 0.019279 -0.004637 144483.000000 0 0 1
5.848338 23.517111 22.627445 33.155072 1.327056 0.819655 0.019317 -0.009406 -286271.000000 0 0 1
4.691038 24.115311 23.126845 33.740258 1.378670 0.815592 0.001341 -0.008139 -706981.000000 0 0 1
4.431938 25.593011 22.578745 34.415752 1.399327 0.855212 0.018817 -0.009061 30679.100000 0 0 1
4.020638 25.672611 21.175845 33.521111 1.415446 0.887031 0.026231 -0.010207 -240415.000000 0 0 1
2.760538 25.107311 20.875845 32.768865 1.461287 0.880114 0.027153 -0.011660 -355534.000000 0 0 1
2.367638 25.338011 19.417045 32.010032 1.477625 0.919029 0.027523 -0.016843 -958636.000000 0 0 1
2.020738 26.709011 19.323845 33.028255 1.495283 0.945830 0.034464 -0.020612 -45799.400000 0 0 1
1.665438 27.088011 18.014245 32.573717 1.509391 0.984800 0.040757 -0.018961 243228.000000 0 0 1
0.468938 28.133911 18.007845 33.406875 1.554130 1.001492 0.022302 -0.003568 785041.000000 0 0 1
0.840038 29.438411 18.395345 34.723398 1.542269 1.012469 0.021614 0.001813 71005.600000 0 0 1
-0.274462 30.292311 18.356645 35.421262 -1.561736 1.026007 0.004347 0.009469 -97580.600000 0 0 1
0.106238 31.630511 19.014945 36.906214 1.567438 1.029528 -0.003347 0.012716 -54430.000000 0 0 1
0.408938 31.626511 20.409945 37.642652 1.557867 0.997740 0.003228 0.004266 1639.870000 0 0 1
0.607338 32.922811 20.980145 39.044165 1.552351 1.003512 -0.008963 -0.000793 -220760.000000 0 0 1
1.274338 32.737611 22.307645 39.635919 1.531890 0.973010 -0.000802 -0.009841 -531718.000000 0 0 1
0.338538 32.436011 23.291645 39.933822 1.560360 0.948065 -0.000440 -0.002576 -439946.000000 0 0 1
0.854938 32.593111 24.577715 40.830208 1.544572 0.924856 0.012960 -0.006299 -581058.000000 0 0 1
-0.098062 32.403611 25.758205 41.394308 -1.567770 0.899164 0.022807 -0.005089 -531798.000000 0 0 1
-1.016462 33.488511 25.884905 42.338420 -1.540453 0.912992 0.024723 0.002322 -769881.000000 0 0 1
-2.023862 33.151611 26.729905 42.633474 -1.509823 0.893139 0.024092 0.001816 -792043.000000 0 0 1
-1.676162 33.407611 28.269555 43.795499 -1.520665 0.869132 0.043921 -0.008992 -100534.000000 0 0 1
-0.661462 32.573211 28.814145 43.493753 -1.550492 0.846659 0.044668 -0.010778 222072.000000 0 0 1
-0.132262 33.169011 29.992425 44.718523 -1.566809 0.835653 0.047739 -0.016285 410210.000000 0 0 1
1.142338 32.379911 30.513495 44.506594 1.535532 0.815376 0.046640 -0.014386 1396160.000000 0 0 1
2.385038 32.461811 29.803005 44.132490 1.497456 0.829415 0.029114 -0.015487 785439.000000 0 0 1
2.420738 31.844711 28.562575 42.845843 1.494925 0.841110 0.026356 -0.017073 -1319870.000000 0 0 1
3.819838 31.644611 28.013575 42.435044 1.450667 0.849775 0.019087 -0.016097 -382253.000000 0 0 1
4.528038 30.565411 28.647335 42.135700 1.423723 0.823194 0.019777 -0.023420 246360.000000 0 0 1
5.901338 30.608011 28.324365 42.118235 1.380330 0.833220 0.014761 -0.028095 44876.500000 0 0 1
6.787738 29.501111 28.945985 41.883875 1.344648 0.807785 0.009057 -0.014449 -85706.200000 0 0 1
6.857538 29.608811 30.346005 42.948661 1.343204 0.786165 0.012332 -0.024275 47269.500000 0 0 1
7.664738 28.664811 30.979685 42.897091 1.309517 0.763839 0.007795 -0.019222 -248290.000000 0 0 1
7.787138 28.760911 32.472205 44.071233 1.306382 0.742454 0.014899 -0.009501 -122656.000000 0 0 1
6.496538 28.460511 32.984754 44.047697 1.346376 0.724484 0.028457 -0.015561 266678.000000 0 0 1
6.542338 28.374111 -34.308569 44.999670 1.344183 2.437838 0.037315 -0.014125 -91326.100000 0 0 1
6.591138 26.925111 -33.744718 43.670479 1.330722 2.453899 0.033617 -0.013534 206242.000000 0 0 1
7.809638 26.322811 -34.127463 43.801422 1.282382 2.464090 0.020872 -0.010079 221496.000000 0 0 1
7.691338 24.974111 -33.718228 42.658901 1.272042 2.482282 0.018400 -0.004967 -105933.000000 0 0 1
8.992138 24.223311 -33.984248 42.691410 1.215345 2.491527 0.001785 -0.002448 -760412.000000 0 0 1
9.230638 24.153911 33.383139 42.226177 1.205764 0.659042 -0.006961 0.000865 540660.000000 0 0 1
10.510638 23.626011 33.007321 41.930241 1.152212 0.664547 0.000840 -0.007090 517737.000000 0 0 1
10.749038 22.123711 33.371842 41.456968 1.118524 0.635162 0.005170 -0.011241 -595159.000000 0 0 1
9.980238 21.271011 32.542705 40.138369 1.132096 0.625342 0.006537 -0.011458 159114.000000 0 0 1
9.680838 19.997011 33.160310 39.914975 1.119938 0.590300 0.006123 -0.017288 203001.000000 0 0 1
8.396038 19.913011 34.025268 40.308067 1.171779 0.565855 0.022419 -0.021106 -35287.600000 0 0 1
8.524538 20.488911 -33.397108 40.097756 1.176526 2.555110 0.023339 -0.014676 152127.000000 0 0 1
7.249538 20.862611 -32.897598 39.623936 1.236360 2.550344 0.032897 -0.014942 289461.000000 0 0 1
7.323938 21.499911 -31.533288 38.861736 1.242476 2.517378 0.035109 -0.023467 -291886.000000 0 0 1
7.734538 22.813411 -31.493678 39.650051 1.243923 2.488636 0.021558 -0.016522 -224210.000000 0 0 1
7.738938 23.346411 -30.214768 38.959957 1.250712 2.458357 0.011233 -0.016984 -799992.000000 0 0 1
9.126338 23.329311 -29.619138 38.792269 1.197902 2.439561 0.007577 -0.015360 -697641.000000 0 0 1
9.625038 22.015011 -29.396418 37.966452 1.158635 2.456363 0.012303 -0.024220 -564254.000000 0 0 1
11.018638 22.097911 -29.228598 38.262763 1.108247 2.440118 0.006111 -0.020275 -111484.000000 0 0 1
11.742538 20.748211 -29.317028 37.787082 1.055787 2.458854 0.006879 -0.025795 -224076.000000 0 0 1
11.764138 20.018111 -30.572768 38.390284 1.039489 2.492061 -0.000102 -0.021993 -154864.000000 0 0 1
10.575638 19.337211 -30.918528 37.970083 1.070332 2.522295 0.012203 -0.026453 -189151.000000 0 0 1
10.786938 18.240011 -31.963428 38.349925 1.036733 2.556150 0.019678 -0.030570 -310729.000000 0 0 1
11.524138 17.073711 -31.551938 37.680793 0.977071 2.563210 0.023086 -0.019479 372573.000000 0 0 1
11.846538 16.104611 -32.540898 38.191740 0.936576 2.590667 0.022542 -0.011140 292963.000000 0 0 1
13.006038 16.501311 -33.526688 39.566262 0.903303 2.581782 0.007910 -0.001912 -126780.000000 0 0 1
12.857738 17.759211 -34.136128 40.570756 0.944141 2.570660 0.013509 -0.009572 -177259.000000 0 0 1
13.390638 17.889211 33.293967 40.097647 0.928236 0.591111 0.013729 -0.007684 99807.200000 0 0 1
12.646638 17.091211 32.180175 38.569555 0.933758 0.583859 0.017745 -0.013994 -764830.000000 0 0 1
12.976138 17.486411 30.897845 37.799888 0.932390 0.613903 0.012968 -0.011952 134774.000000 0 0 1
12.143738 16.972911 29.858435 36.429057 0.949758 0.610027 0.024523 -0.012194 724909.000000 0 0 1
10.641338 17.414911 29.884495 36.188399 1.022293 0.599171 0.020899 -0.019131 46980.900000 0 0 1
9.884238 16.622411 30.775675 36.347556 1.034332 0.561034 0.028731 -0.013232 -1204230.000000 0 0 1
8.619138 17.178111 30.888305 36.379450 1.105749 0.556595 0.037569 -0.016284 -554286.000000 0 0 1
7.760938 16.326311 31.859285 36.630515 1.127051 0.516107 0.044706 -0.005323 -205781.000000 0 0 1
8.185338 16.531611 33.175549 37.959333 1.111050 0.507471 0.052995 -0.006080 128917.000000 0 0 1
7.727438 15.539311 34.071320 38.236609 1.109325 0.471109 0.063035 -0.008412 -258667.000000 0 0 1
7.848138 16.008611 -33.234538 37.714764 1.114983 2.649207 0.061042 -0.012300 109582.000000 0 0 1
6.885838 16.951711 -32.755608 37.519397 1.184954 2.632180 0.056519 -0.015672 315394.000000 0 0 1
6.744338 16.786611 -31.367738 36.210653 1.188766 2.618458 0.061908 -0.023099 -215970.000000 0 0 1
5.831338 17.851311 -30.758128 36.037984 1.255062 2.593446 0.060959 -0.027954 -866601.000000 0 0 1
5.763338 17.822011 -29.348688 34.816457 1.258028 2.573548 0.053538 -0.034974 -355978.000000 0 0 1
4.942238 18.780011 -28.781058 34.719790 1.313466 2.548029 0.059276 -0.037444 -55620.400000 0 0 1
3.421638 18.666211 -29.009478 34.665327 1.389503 2.562289 0.079079 -0.037135 -1229400.000000 0 0 1
2.728238 17.708111 -28.279438 33.477561 1.417931 2.576853 0.079697 -0.033884 38784.800000 0 0 1
1.328038 17.639911 -28.447998 33.499534 1.495652 2.585276 0.077804 -0.033002 776838.000000 0 0 1
0.413238 18.874511 -28.085668 33.841139 1.548906 2.549773 0.072649 -0.034307 -370443.000000 0 0 1
0.205738 19.138411 -26.719288 32.867027 1.560047 2.519999 0.071567 -0.030635 62178.800000 0 0 1
-0.522462 20.363811 -26.693908 33.578602 -1.545146 2.489751 0.083173 -0.031730 148524.000000 0 0 1
-1.104062 20.858411 -25.338668 32.838093 -1.517914 2.452187 0.069393 -0.031753 302761.000000 0 0 1
-2.073662 20.049511 -24.700458 31.880960 -1.467736 2.457150 0.060665 -0.030633 18233.400000 0 0 1
-2.232462 20.399211 -23.357658 31.091669 -1.461791 2.420752 0.054506 -0.023298 -188185.000000 0 0 1
-3.204262 19.605211 -22.499458 30.014284 -1.408789 2.418292 0.033737 -0.024802 -2124560.000000 0 0 1
-4.502262 19.746211 -22.789558 30.488476 -1.346622 2.415058 0.028478 -0.018908 -2087300.000000 0 0 1
-5.266762 18.694311 -22.218058 29.510306 -1.296183 2.423241 0.024727 -0.019098 66802.900000 0 0 1
-6.792662 18.918211 -22.313358 30.032065 -1.226078 2.408315 0.058388 -0.014258 205710.000000 0 0 1
-7.267262 19.838011 -21.284558 29.989868 -1.219648 2.359904 0.019470 -0.009038 126006.000000 0 0 1
-7.530462 21.158311 -21.753358 31.266445 -1.228866 2.340248 0.024584 -0.013886 -18817.200000 0 0 1
-7.942262 22.144711 -20.576958 31.255063 -1.226434 2.289429 0.026716 -0.018807 -468979.000000 0 0 1
-7.013362 22.199511 -19.560858 30.407774 -1.264795 2.269577 0.020762 -0.019872 -513432.000000 0 0 1
-7.409362 23.079811 -18.507758 30.497761 -1.260157 2.222896 0.038476 -0.013698 -315533.000000 0 0 1
-6.452862 23.151311 -17.310758 29.618997 -1.298970 2.194996 0.049710 -0.024628 237889.000000 0 0 1
-5.234262 23.811811 -17.660158 30.104502 -1.354420 2.197686 0.055534 -0.024150 -494227.000000 0 0 1
-4.451362 23.912911 -16.533058 29.410609 -1.386754 2.167775 0.066338 -0.027698 350117.000000 0 0 1
-2.989262 24.414311 -16.785958 29.778560 -1.448964 2.169646 0.065912 -0.023129 361242.000000 0 0 1
-2.770362 25.784911 -16.815158 30.907703 -1.463766 2.146046 0.048964 -0.026119 574811.000000 0 0 1
-1.521462 26.093711 -17.488758 31.449217 -1.512555 2.160476 0.049194 -0.026212 1011370.000000 0 0 1
-1.120762 27.476411 -17.019758 32.340090 -1.530029 2.125009 0.033224 -0.036512 -430240.000000 0 0 1
-1.925062 28.510411 -17.534158 33.526051 -1.503377 2.121164 0.043244 -0.035145 -184546.000000 0 0 1
-1.669662 28.878011 -18.889658 34.547742 -1.513043 2.149298 0.050604 -0.025657 -769916.000000 0 0 1
-2.899762 29.360711 -19.649558 35.448062 -1.472352 2.158342 0.063708 -0.021012 -280214.000000 0 0 1
-3.507262 30.504911 -19.129158 36.176998 -1.456325 2.127942 0.054365 -0.010732 178409.000000 0 0 1
-4.671462 30.191311 -18.344258 35.634949 -1.417285 2.111551 0.040314 -0.008196 346720.000000 0 0 1
-5.138962 31.430111 -17.531658 36.354090 -1.408726 2.074014 0.059676 0.001216 -71701.900000 0 0 1
-5.910562 32.253911 -18.359758 37.580982 -1.389556 2.081210 0.078636 -0.008775 -165146.000000 0 0 1
-6.138662 33.496811 -17.711458 38.385092 -1.389546 2.050386 0.071151 -0.024307 -108301.000000 0 0 1
-6.783562 -34.297703 -18.651258 39.625984 1.375532 2.060861 0.060594 -0.006670 268187.000000 0 0 1
-8.138262 34.306911 -19.011758 40.057988 -1.337882 2.065313 0.068253 -0.018212 59676.500000 0 0 1
-8.538162 -33.359703 -19.780758 39.712069 1.320233 2.092208 0.101319 -0.029204 162041.000000 0 0 1
29.371038 -20.492589 -26.853308 44.762755 -0.609190 2.214176 -0.001001 -0.008279 5300.780000 0 0 1
28.782138 -21.713889 -26.447348 44.714278 -0.646325 2.203682 0.012380 -0.015845 358064.000000 0 0 1
27.465138 -21.899689 -26.985268 44.295992 -0.673131 2.225852 0.017319 -0.008190 782162.000000 0 0 1
26.783738 -23.179489 -26.446698 44.205036 -0.713385 2.212141 0.007446 -0.010201 -12606.600000 0 0 1
27.271338 -24.420489 -26.991818 45.482353 -0.730303 2.206143 -0.002273 0.002179 -928924.000000 0 0 1
28.509238 -24.840389 -26.558058 46.207706 -0.716736 2.183100 0.007521 0.002927 -739204.000000 0 0 1
28.890638 -26.308929 -27.101958 47.553600 -0.738662 2.177210 0.013921 -0.007898 -127797.000000 0 0 1
28.384138 -27.309989 -26.277668 47.349875 -0.766114 2.159121 0.027684 -0.015187 -348066.000000 0 0 1
28.516438 -28.618949 -26.830778 48.498682 -0.787192 2.157029 0.031007 -0.006885 355078.000000 0 0 1
27.328538 -29.043469 -27.740248 48.578735 -0.815810 2.178565 0.041568 -0.005142 -89805.800000 0 0 1
27.037538 -28.292369 -28.899658 48.648503 -0.808073 2.206881 0.031693 -0.006203 101920.000000 0 0 1
27.958138 -28.436109 -29.994488 49.899290 -0.793873 2.215674 0.014206 -0.006634 106510.000000 0 0 1
28.273238 -29.861889 -30.568168 51.239841 -0.812718 2.210017 0.021143 -0.003122 -452619.000000 0 0 1
28.996238 -30.799399 -29.792158 51.739323 -0.815544 2.184394 0.027502 -0.004614 437340.000000 0 0 1
30.380038 -30.654219 -29.462398 52.255725 -0.789890 2.169790 0.024998 -0.009112 551062.000000 0 0 1
31.328238 -30.703509 -30.647428 53.511016 -0.775327 2.180630 0.020463 -0.011667 -954681.000000 0 0 1
31.307838 -29.377399 -31.175158 53.057542 -0.753598 2.198852 0.025015 -0.017227 -49318.700000 0 0 1
32.451338 -28.911659 -31.884978 53.903852 -0.727778 2.203734 0.023082 -0.016500 -148709.000000 0 0 1
32.194938 -27.498549 -32.494188 53.371870 -0.706885 2.225376 0.019051 -0.015427 -74775.200000 0 0 1
32.079138 -26.482059 -31.538758 52.202144 -0.690111 2.219515 0.011654 -0.007573 -574435.000000 0 0 1
30.862638 -26.317739 -30.875148 50.974509 -0.706081 2.221439 0.005409 -0.010448 -708932.000000 0 0 1
30.883838 -24.963189 -30.181748 49.878955 -0.679777 2.220688 0.010977 -0.016789 -508520.000000 0 0 1
31.877238 -24.862289 -29.134858 49.831031 -0.662388 2.195273 0.009426 -0.009104 608603.000000 0 0 1
31.797738 -23.594489 -28.491828 48.780942 -0.638373 2.194539 0.005414 -0.011910 191600.000000 0 0 1
32.953038 -23.269289 -27.486698 48.814763 -0.614831 2.168906 0.007955 -0.010443 -44103.000000 0 0 1
32.967038 -23.972689 -26.254098 48.484978 -0.628730 2.143004 0.010837 -0.016686 -666225.000000 0 0 1
31.927138 -23.672289 -25.380458 47.158107 -0.638005 2.139095 0.028178 -0.012468 -558927.000000 0 0 1
32.180338 -22.357989 -24.503358 46.215456 -0.607208 2.129631 0.016287 -0.004956 -7819.010000 0 0 1
32.300138 -21.196289 -25.272478 46.165786 -0.580742 2.150085 0.008922 -0.015469 -95883.200000 0 0 1
32.474438 -20.098789 -24.422958 45.332454 -0.554209 2.139752 0.001670 -0.021561 -138505.000000 0 0 1
32.717038 -18.830789 -25.175578 45.374144 -0.522259 2.158972 -0.007808 -0.025387 -111905.000000 0 0 1
31.742238 -18.551689 -26.171138 45.129406 -0.528906 2.189418 -0.011202 -0.020554 -10016.300000 0 0 1
31.807638 -17.301189 -26.624128 44.943311 -0.498172 2.204823 -0.006662 -0.015348 -164641.000000 0 0 1
30.804438 -17.053989 -27.775758 44.846903 -0.505619 2.238706 -0.011619 -0.005655 -812386.000000 0 0 1
29.490538 -17.134589 -27.359278 43.724319 -0.526347 2.246853 -0.018012 0.000285 -900708.000000 0 0 1
28.609738 -16.873689 -28.431488 43.721711 -0.532877 2.278753 -0.013364 -0.000688 1026990.000000 0 0 1
27.229738 -16.203689 -28.008368 42.290506 -0.536789 2.294661 -0.018590 0.006831 1474350.000000 0 0 1
26.261138 -17.027189 -27.319868 41.544527 -0.575235 2.288431 -0.015931 0.013328 532352.000000 0 0 1
26.514338 -17.068589 -25.941578 40.832736 -0.571969 2.259210 -0.014172 0.014246 132598.000000 0 0 1
25.464538 -17.904389 -25.099908 39.987689 -0.612811 2.249380 0.002262 0.010508 206942.000000 0 0 1
25.364438 -17.526589 -23.727958 38.904396 -0.604654 2.226736 -0.000812 0.013599 -86785.300000 0 0 1
24.795138 -18.536689 -22.948758 38.536388 -0.641959 2.208695 0.011910 0.009594 -166868.000000 0 0 1
24.883438 -18.177989 -21.490458 37.569463 -0.630921 2.179762 0.001429 0.013482 -300160.000000 0 0 1
24.172938 -17.079689 -21.025158 36.305702 -0.615117 2.188438 0.001577 0.006942 -289505.000000 0 0 1
24.551138 -15.760089 -21.463558 36.219099 -0.570681 2.205083 -0.001829 0.017911 384263.000000 0 0 1
25.812238 -15.100189 -20.795058 36.424192 -0.529318 2.178414 -0.021595 0.013244 109022.000000 0 0 1
25.656538 -14.576889 -19.482758 35.359886 -0.516675 2.154340 -0.019471 0.007407 -48774.100000 0 0 1
26.596438 -13.577789 -19.230358 35.518074 -0.472021 2.142927 -0.035072 0.011349 -433379.000000 0 0 1
26.330038 -12.766789 -17.956858 34.332355 -0.451475 2.121199 -0.023391 0.011803 -304456.000000 0 0 1
26.807838 -13.376989 -16.734658 34.316946 -0.462844 2.080192 -0.027464 0.023334 371083.000000 0 0 1
26.473838 -12.476689 -15.684258 33.204334 -0.440412 2.062758 -0.025729 0.029144 3957.180000 0 0 1
26.984638 -12.861889 -14.299058 33.137018 -0.444784 2.016966 -0.006900 0.018973 -515828.000000 0 0 1
26.435638 -13.962689 -13.703058 32.887284 -0.485934 2.000573 0.026383 0.002854 -135696.000000 0 0 1
27.105638 -14.276289 -12.501758 33.088095 -0.484772 1.958251 0.037186 -0.001819 -166739.000000 0 0 1
26.655738 -15.546689 -11.816858 33.043396 -0.528005 1.936511 0.052459 -0.026809 617591.000000 0 0 1
25.320138 -15.390089 -11.298558 31.711538 -0.546150 1.935092 0.040506 -0.026051 852506.000000 0 0 1
24.838738 -16.590489 -10.758058 31.748119 -0.588875 1.916498 0.038458 -0.019768 -221551.000000 0 0 1
23.380238 -16.673689 -10.286258 30.503353 -0.619499 1.914756 0.042670 -0.022746 -238944.000000 0 0 1
23.048438 -15.980189 -9.087458 29.481839 -0.606236 1.884138 0.032465 -0.023165 63210.100000 0 0 1
21.659438 -16.061189 -8.875758 28.387887 -0.638060 1.888789 0.037096 -0.027583 -406556.000000 0 0 1
21.282838 -15.576789 -7.468458 27.411192 -0.631812 1.846745 0.030838 -0.027422 -298778.000000 0 0 1
21.652338 -14.210889 -7.203458 26.882391 -0.580806 1.842073 0.032808 -0.016002 367636.000000 0 0 1
21.488938 -13.691289 -5.880658 26.149723 -0.567276 1.797620 0.031806 -0.012403 -445708.000000 0 0 1
22.294938 -14.425689 -4.796858 26.984711 -0.574291 1.749508 0.037726 -0.015550 -342723.000000 0 0 1
23.672738 -14.154289 -4.925058 28.017827 -0.538885 1.747497 0.048312 -0.013120 310337.000000 0 0 1
24.401338 -14.879589 -3.910258 28.846448 -0.547584 1.706769 0.048189 -0.022140 7705.770000 0 0 1
25.929538 -14.697689 -3.982258 30.070274 -0.515674 1.703618 0.060046 -0.022171 -54359.900000 0 0 1
26.393238 -13.408389 -3.533358 29.813965 -0.470046 1.689589 0.064982 -0.017269 477036.000000 0 0 1
27.752238 -13.271989 -3.917658 31.010973 -0.446081 1.697466 0.070504 -0.025663 116040.000000 0 0 1
28.469238 -11.971289 -3.414458 31.071978 -0.398052 1.680907 0.083299 -0.030579 -1207120.000000 0 0 1
29.002838 -12.039989 -2.120058 31.474126 -0.393482 1.638206 0.090863 -0.032110 227152.000000 0 0 1
29.964138 -11.094489 -1.752058 32.000109 -0.354608 1.625575 0.098989 -0.029090 507788.000000 0 0 1
31.308038 -11.018589 -2.540258 33.287467 -0.338403 1.647183 0.082079 -0.024609 -666782.000000 0 0 1
31.107138 -10.558889 -3.783358 33.067476 -0.327233 1.685461 0.081827 -0.022864 -398400.000000 0 0 1
32.213738 -10.627089 -4.637058 34.236855 -0.318651 1.706654 0.077183 -0.023589 -601456.000000 0 0 1
31.942038 -10.414489 -6.134758 34.152462 -0.315175 1.751405 0.076443 -0.024880 -766384.000000 0 0 1
31.128538 -11.418889 -6.580558 33.803560 -0.351589 1.766718 0.061963 -0.024426 -373180.000000 0 0 1
30.729238 -11.194689 -7.902258 33.645993 -0.349358 1.807876 0.063032 -0.017229 -126175.000000 0 0 1
29.425238 -11.989389 -8.171658 32.808019 -0.386914 1.822521 0.057411 -0.020867 78184.000000 0 0 1
29.631938 -13.394789 -8.251658 33.549396 -0.424548 1.819302 0.051520 -0.018310 -332954.000000 0 0 1
28.425038 -14.100289 -8.280158 32.792712 -0.460484 1.826059 0.049572 -0.019302 -394822.000000 0 0 1
28.500138 -15.655389 -8.272658 33.552734 -0.502313 1.819922 0.049517 -0.027325 -67084.300000 0 0 1
28.914338 -16.280689 -9.517458 34.520744 -0.512820 1.850117 0.054338 -0.028496 329629.000000 0 0 1
29.199138 -17.662989 -9.454458 35.411264 -0.544025 1.841065 0.054154 -0.030528 -128256.000000 0 0 1
29.582538 -18.264089 -10.818158 36.410659 -0.553111 1.872466 0.048194 -0.039480 454251.000000 0 0 1
30.789938 -17.698489 -11.363758 37.287958 -0.521695 1.880479 0.050856 -0.027504 799887.000000 0 0 1
31.121738 -18.084389 -12.679658 38.162566 -0.526396 1.909488 0.042995 -0.009043 53431.700000 0 0 1
30.220238 -17.419789 -13.766058 37.499549 -0.522907 1.946685 0.039174 -0.013808 47730.300000 0 0 1
30.635238 -16.159389 -14.068458 37.384023 -0.485387 1.956620 0.023720 -0.007142 355079.000000 0 0 1
29.886438 -15.715289 -15.212058 37.034797 -0.484100 1.994073 0.008588 -0.004875 -260475.000000 0 0 1
30.625138 -14.590989 -16.002258 37.508243 -0.444621 2.011563 -0.003519 0.010388 723716.000000 0 0 1
31.711038 -14.995289 -16.836358 38.909017 -0.441711 2.018294 -0.026049 0.009573 659411.000000 0 0 1
32.949738 -15.206989 -16.175458 39.731388 -0.432393 1.990095 -0.010022 0.010888 -151132.000000 0 0 1
34.007338 -15.672289 -17.213158 41.211801 -0.431840 2.001682 -0.004807 0.009886 -345137.000000 0 0 1
35.300838 -15.862789 -16.731958 42.163203 -0.422322 1.978866 0.004755 0.007273 -588107.000000 0 0 1
-35.144662 -16.315289 -17.663058 42.583090 0.434626 1.998509 0.012091 -0.000740 187293.000000 0 0 1
-33.763262 -15.809789 -17.160258 41.041220 0.437930 2.002174 0.017865 -0.004414 -348007.000000 0 0 1
-33.162862 -16.522289 -16.093158 40.394940 0.462220 1.980563 0.015882 -0.000124 -189736.000000 0 0 1
-33.784562 -16.345489 -14.815558 40.349379 0.450616 1.946774 0.009743 -0.001517 -470441.000000 0 0 1
-33.283562 -17.286489 -13.627258 39.903889 0.479023 1.919311 0.003690 -0.000277 -22956.800000 0 0 1
-31.932462 -17.016089 -13.285158 38.545101 0.489602 1.922679 0.016498 -0.000618 332793.000000 0 0 1
-31.570562 -17.822989 -12.142958 38.233634 0.513941 1.893992 0.031507 0.004505 -444052.000000 0 0 1
-30.190362 -17.596689 -11.546358 36.802443 0.527720 1.889925 0.041460 -0.000092 -611004.000000 0 0 1
-30.070162 -16.213689 -11.260058 35.970645 0.494510 1.889183 0.033721 -0.015310 571660.000000 0 0 1
-28.763262 -15.850589 -10.808858 34.574526 0.503665 1.888752 0.050421 -0.017634 572275.000000 0 0 1
-28.396662 -16.099889 -9.291758 33.939853 0.515774 1.848108 0.043479 -0.010253 -78175.700000 0 0 1
-28.258162 -17.467089 -9.007758 34.420381 0.553641 1.835578 0.049274 -0.006284 -6537.850000 0 0 1
-28.227962 -17.709589 -7.579358 34.174465 0.560307 1.794440 0.047556 -0.009275 -504933.000000 0 0 1
-28.361962 -19.259089 -7.254658 35.042024 0.596524 1.779332 0.044875 -0.015906 -821110.000000 0 0 1
-29.542562 -19.926389 -7.567758 36.429314 0.593404 1.780058 0.045420 -0.017574 -573190.000000 0 0 1
-29.825762 -20.205189 -8.963258 37.123655 0.595425 1.814649 0.029505 -0.004764 217593.000000 0 0 1
-31.201962 -20.897889 -9.169058 38.656899 0.590142 1.810269 0.031788 -0.011256 -11103.600000 0 0 1
-32.263162 -19.981189 -9.328658 39.079194 0.554504 1.811835 0.029473 -0.014705 66393.100000 0 0 1
-33.427262 -20.803689 -9.446058 40.489546 0.556696 1.806262 0.017880 -0.011532 97906.100000 0 0 1
-34.703462 -20.108289 -9.941858 41.322078 0.525159 1.813774 0.017567 -0.020438 -232654.000000 0 0 1
-34.833862 -19.843789 -11.308358 41.653966 0.517819 1.845730 0.005296 -0.018276 -190704.000000 0 0 1
35.255038 -19.437089 -11.585158 41.891933 -0.503862 1.850997 0.027945 -0.025859 -262086.000000 0 0 1
34.965638 -18.984789 -13.074658 41.880362 -0.497419 1.888294 0.016166 -0.011123 -272502.000000 0 0 1
34.951238 -20.107589 -13.966058 42.672649 -0.522063 1.904224 0.009196 0.000381 212297.000000 0 0 1
34.251138 -19.873989 -15.171858 42.406381 -0.525766 1.936678 0.013288 0.001704 442590.000000 0 0 1
32.969338 -20.742689 -15.380958 41.878518 -0.561579 1.946875 0.018833 -0.005868 105109.000000 0 0 1
31.927438 -20.297289 -14.514958 40.521911 -0.566279 1.937136 0.035396 -0.010322 1677330.000000 0 0 1
30.676438 -21.063589 -14.690558 40.006639 -0.601701 1.946797 0.039236 -0.009210 2147200.000000 0 0 1
29.793638 -20.922389 -15.993158 39.764159 -0.612230 1.984715 0.032753 -0.012842 -138189.000000 0 0 1
29.278338 -19.624289 -16.173558 38.780379 -0.590491 2.000999 0.017620 -0.003114 492249.000000 0 0 1
28.357838 -19.508089 -17.261058 38.505541 -0.602576 2.035631 0.008883 -0.003671 116609.000000 0 0 1
27.679738 -18.121889 -17.386958 37.374819 -0.579671 2.054663 0.010377 -0.004462 811317.000000 0 0 1
26.579538 -17.948589 -16.446658 36.043255 -0.593941 2.044633 0.016699 -0.004468 1007870.000000 0 0 1
26.049138 -16.623089 -16.537558 35.048189 -0.567995 2.062186 0.003385 0.006381 -519663.000000 0 0 1
24.637438 -16.502289 -15.923058 33.658174 -0.590172 2.063581 0.008959 0.001951 761958.000000 0 0 1
23.492438 -17.096689 -16.547858 33.436852 -0.629110 2.088515 0.010818 -0.002573 829521.000000 0 0 1
23.200438 -16.625089 -17.873458 33.676615 -0.621770 2.130267 0.003686 0.001094 -770945.000000 0 0 1
22.125038 -17.461189 -18.592658 33.765328 -0.668124 2.153931 0.008675 0.008590 798129.000000 0 0 1
20.885338 -17.556989 -17.860758 32.610610 -0.699033 2.150406 0.021911 0.008586 -78585.900000 0 0 1
19.928138 -18.157389 -18.625358 32.767750 -0.738938 2.175362 0.019618 -0.005930 -1409070.000000 0 0 1
18.547138 -18.317489 -18.045058 31.704114 -0.779169 2.176293 0.031067 -0.002577 -831221.000000 0 0 1
17.846038 -17.083689 -18.064358 30.604813 -0.763576 2.202159 0.040793 -0.005898 357698.000000 0 0 1
16.497238 -17.376189 -17.714658 29.797650 -0.811340 2.207438 0.037999 -0.008412 123586.000000 0 0 1
15.608838 -16.213589 -17.251258 28.357049 -0.804400 2.224787 0.040375 -0.001885 -261517.000000 0 0 1
15.227038 -15.488189 -18.423458 28.481055 -0.793900 2.274265 0.047140 -0.004913 173434.000000 0 0 1
13.921838 -15.020089 -18.137958 27.357013 -0.823327 2.295628 0.047492 -0.000544 -279181.000000 0 0 1
12.932438 -14.815789 -19.254358 27.522461 -0.853167 2.345616 0.051953 -0.010914 -299497.000000 0 0 1
13.177338 -13.597489 -19.857558 27.438232 -0.801089 2.379972 0.062532 -0.020366 92165.500000 0 0 1
12.561438 -13.523389 -21.137558 28.061863 -0.822259 2.423784 0.057858 -0.006702 119052.000000 0 0 1
12.674738 -12.103889 -21.701358 27.894481 -0.762364 2.462241 0.066796 -0.008945 281730.000000 0 0 1
13.940238 -11.733989 -22.256558 28.764060 -0.699676 2.455556 0.067367 -0.009964 5898.140000 0 0 1
13.956438 -10.383289 -22.686358 28.587860 -0.639636 2.487444 0.055315 -0.016140 -543519.000000 0 0 1
15.269738 -9.838989 -23.212258 29.475067 -0.572390 2.477574 0.044893 -0.008411 -541483.000000 0 0 1
15.747838 -10.483189 -24.380058 30.859017 -0.587327 2.481681 0.064833 -0.004159 -751268.000000 0 0 1
16.900438 -9.859789 -24.795158 31.585442 -0.528127 2.473522 0.057777 -0.009588 -938020.000000 0 0 1
22.334738 4.791411 -7.005358 23.892953 0.211324 1.868366 0.089705 0.007883 -202700.000000 0 1 0
22.214638 6.218811 -7.194358 24.164489 0.272955 1.873104 0.052982 0.004888 800979.000000 0 1 0
21.447438 6.834311 -6.151958 23.335531 0.308481 1.837580 0.032111 0.004843 -133466.000000 0 1 0
21.488438 8.350111 -6.250958 23.886226 0.370628 1.835577 0.027680 0.003960 477825.000000 0 1 0
20.397138 8.871811 -7.075158 23.341168 0.410271 1.878761 0.025473 0.007534 1582580.000000 0 1 0
20.209338 10.287311 -7.221058 23.798945 0.470851 1.879075 0.025868 0.013870 -342495.000000 0 1 0
19.504238 10.966611 -6.053358 23.180272 0.512213 1.835002 0.025363 0.007569 -75252.900000 0 1 0
20.268538 11.170711 -4.848858 23.645503 0.503715 1.777326 0.015620 0.008401 451737.000000 0 1 0
19.736438 12.296211 -4.187858 23.627567 0.557175 1.748982 0.034547 0.001591 235211.000000 0 1 0
20.621838 12.766011 -2.985958 24.436595 0.554311 1.693295 0.025724 -0.008817 809075.000000 0 1 0
21.933738 13.232111 -3.401658 25.840838 0.542825 1.702818 0.032678 -0.016924 1209900.000000 0 0 1
22.713738 13.508911 -2.266358 26.524346 0.536548 1.656345 0.032078 -0.021320 -312896.000000 0 0 1
23.548438 12.394811 -1.656558 26.662791 0.484508 1.632966 0.023529 -0.023961 -920048.000000 0 0 1
24.734238 12.028811 -2.351858 27.604457 0.452646 1.656098 0.026647 -0.021241 470789.000000 0 0 1
25.299138 10.878911 -1.768658 27.595747 0.406107 1.634932 0.029635 -0.025980 -495960.000000 0 0 1
26.678038 10.434311 -2.295058 28.737777 0.372828 1.650744 0.052644 -0.021927 142467.000000 0 0 1
27.565438 11.572311 -2.147958 29.973079 0.397468 1.642521 0.054478 -0.028445 1073740.000000 0 0 1
28.901438 11.030911 -2.055758 31.003230 0.364608 1.637153 0.051774 -0.025236 1253180.000000 0 0 1
30.038138 12.039911 -1.639158 32.402716 0.381214 1.621405 0.045611 -0.022982 806.136000 0 0 1
29.977038 12.493311 -0.298358 32.477602 0.394873 1.579983 0.059559 -0.030004 315566.000000 0 0 1
30.811238 13.610511 0.017542 33.683508 0.415962 1.570276 0.069839 -0.026893 542831.000000 0 0 1
32.337338 13.291511 0.125342 34.962600 0.389976 1.567211 0.075342 -0.030365 73724.000000 0 0 1
33.172938 14.404411 0.299842 36.166570 0.409656 1.562506 0.070002 -0.028966 206445.000000 0 0 1
34.031238 14.695511 -0.808758 37.077450 0.407637 1.592611 0.076909 -0.021720 103530.000000 0 0 1
33.487038 15.732211 -1.848558 37.044586 0.439197 1.620718 0.033382 -0.000902 -22369.300000 0 0 1
32.441838 15.219711 -2.642558 35.931818 0.438655 1.644406 0.051633 -0.001131 -309448.000000 0 0 1
31.867138 16.174711 -3.503258 35.908336 0.469683 1.668513 0.028056 0.009723 271742.000000 0 0 1
30.448438 15.734211 -3.963658 34.501933 0.476957 1.685933 0.048078 -0.003101 -558510.000000 0 0 1
30.390638 14.882411 -5.057858 34.214894 0.455377 1.719166 0.029156 -0.004140 30892.800000 0 0 1
29.222038 14.801911 -5.843758 33.274218 0.468860 1.747336 0.027964 -0.016632 940733.000000 0 0 1
27.944538 14.191311 -5.104258 31.754432 0.469899 1.732238 0.040303 -0.020389 228716.000000 0 0 1
26.846738 13.895911 -5.928958 30.805782 0.477629 1.764467 0.045014 -0.027334 -196375.000000 0 0 1
25.879638 13.265111 -5.127158 29.529757 0.473653 1.745308 0.042590 -0.015122 228080.000000 0 0 1
24.648838 12.788111 -5.974058 28.404055 0.478584 1.782703 0.044070 -0.011046 78404.000000 0 0 1
25.010638 11.787411 -6.880858 28.492477 0.440422 1.814705 0.042334 -0.003597 642979.000000 0 0 1
24.083538 11.466911 -7.955458 27.835160 0.444370 1.860644 0.037221 -0.007704 220747.000000 0 0 1
23.857838 12.576011 -9.001258 28.431939 0.485110 1.892928 0.039778 0.006507 238541.000000 0 0 1
22.875938 13.554311 -8.647358 27.960770 0.534897 1.885219 0.035134 0.003967 526173.000000 0 0 1
22.885338 14.627311 -9.546458 28.789439 0.568715 1.908791 0.042668 0.000965 -636539.000000 0 0 1
22.021038 15.801411 -9.009158 28.561786 0.622414 1.891703 0.039567 -0.001265 -514441.000000 0 0 1
20.652338 15.593411 -9.033158 27.409332 0.646721 1.906639 0.020997 0.006015 -729325.000000 0 0 1
20.255838 15.054011 -7.768458 26.405892 0.639131 1.869409 0.013924 0.005443 214562.000000 0 0 1
18.758538 14.598911 -7.681758 24.980399 0.661340 1.883373 0.009611 0.004412 102755.000000 0 1 0
17.805638 15.565611 -7.916058 24.939787 0.718374 1.893790 0.026115 -0.001942 1011050.000000 0 1 0
16.425138 15.168411 -7.676558 23.638853 0.745641 1.901537 0.038428 -0.001221 1643270.000000 0 1 0
15.882338 15.491911 -6.268658 23.055239 0.772955 1.846160 0.043299 0.004489 -484765.000000 0 1 0
16.454738 14.621911 -5.319558 22.646333 0.726489 1.807909 0.038182 0.002404 554464.000000 0 1 0
16.244038 15.127711 -3.955258 22.546851 0.749829 1.747133 0.044673 0.015263 -13530.700000 0 1 0
15.667038 14.024211 -3.034158 21.244780 0.730124 1.714105 0.018084 0.016297 -718588.000000 0 1 0
16.698038 13.155211 -2.613858 21.417663 0.667276 1.693144 0.014291 0.006375 683036.000000 0 1 0
16.341338 12.334511 -1.496058 20.528460 0.646569 1.643738 0.000296 0.002057 -41747.100000 0 1 0
16.541238 13.077911 -0.173458 21.087304 0.668998 1.579022 0.012710 -0.004370 -268164.000000 0 1 0
15.631738 14.148411 0.003342 21.083851 0.735630 1.570638 0.013716 -0.005194 463845.000000 0 1 0
15.769338 14.797511 1.229342 21.659862 0.753615 1.514009 0.016487 -0.008020 -1237320.000000 0 1 0
14.564238 15.671811 1.495442 21.446655 0.822013 1.501011 0.014702 -0.004726 -691270.000000 0 1 0
14.499438 16.857611 0.728842 22.247336 0.860461 1.538030 0.023327 -0.010190 -1019450.000000 0 1 0
13.399538 17.563411 1.051942 22.116229 0.919075 1.523214 0.006435 -0.013979 -1304410.000000 0 1 0
13.222238 18.920411 0.441342 23.086886 0.960853 1.551679 0.000977 -0.019615 -263552.000000 0 1 0
13.034338 19.022911 -0.964258 23.080184 0.970078 1.612587 0.021444 -0.024568 60029.400000 0 1 0
12.566538 20.327711 -1.276358 23.932463 1.017104 1.624153 0.017988 -0.024510 -647315.000000 0 1 0
11.068038 20.517811 -1.326758 23.350424 1.076100 1.627646 0.018477 -0.022404 -516878.000000 0 1 0
10.383238 20.808711 -0.089258 23.255581 1.107961 1.574634 0.018037 -0.016770 -918188.000000 0 1 0
9.023838 20.610011 -0.163858 22.499534 1.158103 1.578079 0.016031 -0.016550 -679308.000000 0 1 0
8.318038 20.652711 1.213242 22.297896 1.187915 1.516359 0.013477 -0.016610 35061.400000 0 1 0
8.237138 21.889611 1.895742 23.464853 1.210883 1.489917 0.014001 -0.011217 214518.000000 0 1 0
7.329738 21.755211 2.991742 23.150913 1.245822 1.441206 0.018223 -0.013479 310434.000000 0 1 0
6.881238 23.130211 3.575042 24.395471 1.281635 1.423721 0.019602 -0.008957 499093.000000 0 1 0
7.629138 23.658411 4.706142 25.299643 1.258854 1.383690 0.008550 -0.002723 721166.000000 0 0 1
7.010338 24.866711 5.185842 26.351302 1.296011 1.372707 0.000678 0.002370 329817.000000 0 0 1
7.628438 25.199811 6.561142 27.134334 1.276848 1.326574 -0.013254 0.004383 7218.030000 0 0 1
7.441138 24.160211 7.485442 26.365093 1.272024 1.282922 0.000003 -0.005201 28163.600000 0 0 1
7.964538 24.539311 8.720742 27.233490 1.256960 1.244833 -0.007726 -0.003355 -317988.000000 0 0 1
7.662338 23.511111 9.857242 26.620461 1.255748 1.191477 0.002230 -0.009011 -249007.000000 0 0 1
6.457738 23.788711 10.529342 26.804331 1.305722 1.167098 0.001223 -0.014386 -75615.000000 0 0 1
6.095838 22.721711 11.398742 26.141283 1.308686 1.119599 -0.007795 -0.012393 442940.000000 0 0 1
4.735638 23.062011 12.092742 26.467282 1.368268 1.096296 0.006928 -0.022671 686475.000000 0 0 1
3.595238 23.087511 11.251042 25.933469 1.416315 1.122043 0.007625 -0.022029 -434358.000000 0 0 1
2.476538 23.605211 11.921842 26.560676 1.466264 1.105315 0.006356 -0.023571 -931263.000000 0 0 1
1.388338 23.717511 10.900842 26.139551 1.512327 1.140627 0.047501 -0.022175 -1169540.000000 0 0 1
1.524238 24.853711 10.070942 26.859898 1.509545 1.186461 0.045086 -0.020187 503711.000000 0 0 1
0.508638 24.977811 9.061042 26.575406 1.550436 1.222863 0.031908 -0.021720 765673.000000 0 0 1
-0.814662 25.703011 9.444442 27.395363 -1.539112 1.218828 0.032907 -0.032686 426243.000000 0 0 1
-1.726662 24.954411 10.224242 27.022936 -1.501714 1.182779 0.026183 -0.031173 1201630.000000 0 0 1
-3.076662 25.174211 9.731042 27.164313 -1.449185 1.204426 0.030880 -0.030969 941504.000000 0 0 1
-4.180762 24.267911 10.327142 26.703186 -1.400196 1.173704 0.037866 -0.032777 109682.000000 0 0 1
-4.721962 24.546611 11.601642 27.557778 -1.380751 1.136256 0.023742 -0.012466 -63574.600000 0 0 1
-5.666662 25.572911 11.636642 28.661756 -1.352731 1.152725 0.029166 -0.011272 -674736.000000 0 0 1
-6.237162 25.883011 13.017242 29.635806 -1.334330 1.116043 0.011964 0.007680 231850.000000 0 0 1
-7.143062 24.834211 13.436342 29.125532 -1.290727 1.091308 0.009345 -0.015724 397793.000000 0 0 1
-7.264862 24.905311 14.844742 29.890117 -1.286972 1.051069 -0.002342 0.020723 237823.000000 0 0 1
-8.409362 23.967311 15.377242 29.691900 -1.233348 1.026410 -0.001717 0.009004 537117.000000 0 0 1
-9.690362 24.422811 14.962242 30.236492 -1.193073 1.053145 -0.005953 0.013875 -249659.000000 0 0 1
-10.618662 23.437711 15.379142 29.976662 -1.145402 1.032077 -0.004843 0.007035 378603.000000 0 0 1
-12.062962 24.032611 15.266742 30.921753 -1.105597 1.054432 -0.000401 0.001288 267987.000000 0 0 1
-12.410862 25.113911 16.086442 32.303430 -1.111813 1.049529 0.007334 0.004862 809779.000000 0 0 1
-13.714562 25.622211 15.736142 33.048647 -1.079340 1.074524 0.003535 0.003786 567631.000000 0 0 1
-14.169162 26.690211 16.776942 34.562961 -1.082755 1.063973 0.032603 0.001723 -713797.000000 0 0 1
-15.533762 26.551011 17.041742 35.166389 -1.041439 1.064887 0.024003 -0.005045 -465917.000000 0 0 1
-15.834062 27.194311 18.247642 36.376153 -1.043526 1.045306 0.040846 -0.005284 -484053.000000 0 0 1
-17.136662 26.682111 18.844242 36.887744 -0.999887 1.034619 0.031709 -0.015570 -774740.000000 0 0 1
-18.263462 27.068911 18.115942 37.342567 -0.977251 1.064286 0.034363 -0.015851 132117.000000 0 0 1
-19.416962 26.473011 18.751042 37.807939 -0.937963 1.051862 0.039555 -0.010252 795728.000000 0 0 1
-20.755262 26.661611 17.989442 38.278485 -0.909322 1.081548 0.037161 -0.013802 -185936.000000 0 0 1
-21.302462 27.939111 18.073242 39.509883 -0.919368 1.095687 0.028759 -0.015402 51951.900000 0 0 1
-22.033762 28.197311 16.892642 39.571914 -0.907492 1.129751 0.022429 -0.018410 -408182.000000 0 0 1
-22.867562 29.490511 16.989242 41.003048 -0.911223 1.143578 0.011556 -0.017824 -737116.000000 0 0 1
-24.064862 29.253411 17.648842 41.789487 -0.882405 1.134785 0.004923 -0.013360 -612558.000000 0 0 1
-24.870562 30.405211 17.562042 43.028444 -0.885193 1.150370 -0.000755 -0.006867 -67377.500000 0 0 1
-26.300602 30.263811 18.127642 44.002628 -0.855349 1.146184 -0.005006 -0.006520 -339170.000000 0 0 1
-27.161252 29.501611 17.332342 43.686253 -0.826678 1.162827 0.010561 -0.005579 253014.000000 0 0 1
-28.476052 29.256611 17.819342 44.546198 -0.798918 1.159258 0.026619 -0.008297 469150.000000 0 0 1
-28.692832 28.234411 19.015342 44.520150 -0.777346 1.129494 0.023082 -0.014247 -752790.000000 0 0 1
-28.547372 26.896911 18.553342 43.389201 -0.755639 1.128957 0.034203 -0.014845 325371.000000 0 0 1
-28.883282 25.950111 19.544942 43.470185 -0.731957 1.104460 0.033808 -0.010816 -175614.000000 0 0 1
-28.847712 24.531611 18.937142 42.339175 -0.704717 1.107083 0.033908 -0.014396 622555.000000 0 0 1
-30.058932 24.168511 18.239242 42.665282 -0.677198 1.129075 0.044794 -0.015507 684184.000000 0 0 1
-29.857102 23.415611 17.084342 41.612644 -0.665067 1.147732 0.047499 -0.013852 -693596.000000 0 0 1
-30.331332 21.957311 17.126642 41.175661 -0.626597 1.141819 0.040222 -0.015776 1315470.000000 0 0 1
-31.770092 21.722711 17.007642 42.077010 -0.599735 1.154689 0.046082 -0.011651 1545500.000000 0 0 1
-31.956302 20.319811 16.854142 41.450718 -0.566372 1.152059 0.046937 -0.019582 192043.000000 0 0 1
-33.347322 19.910311 16.311742 42.125257 -0.538254 1.173182 0.058296 -0.034212 75025.200000 0 0 1
-33.551402 20.353811 14.971642 42.001479 -0.545292 1.206325 0.050540 -0.036204 224233.000000 0 0 1
-34.818130 19.962211 14.467242 42.662549 -0.520577 1.224827 0.056404 -0.039389 263656.000000 0 0 1
-34.956212 20.055511 12.957842 42.332800 -0.520881 1.259708 0.063375 -0.037448 -57988.500000 0 0 1
-35.079646 21.392011 12.520942 42.953157 -0.547603 1.274999 0.055631 -0.038152 34330.700000 0 0 1
-35.273977 21.619511 11.121142 42.840827 -0.549853 1.308196 0.043521 -0.035029 -415286.000000 0 0 1
-34.086395 21.204911 10.233042 41.427596 -0.556506 1.321203 0.050255 -0.035876 -332234.000000 0 0 1
-34.013152 19.821911 9.969242 40.610201 -0.527655 1.322775 0.063324 -0.027809 -661997.000000 0 0 1
-32.900232 19.471211 9.216842 39.325609 -0.534387 1.334223 0.083074 -0.029249 -839275.000000 0 0 1
-32.117852 18.482711 10.067542 38.399511 -0.522184 1.305517 0.066873 -0.035215 -778883.000000 0 0 1
-31.710342 19.025811 11.323742 38.674984 -0.540410 1.273650 0.065658 -0.029498 240597.000000 0 0 1
-30.984082 18.155411 12.172542 37.918374 -0.530031 1.243990 0.062652 -0.035778 109261.000000 0 0 1
-30.679082 18.646411 13.609142 38.394055 -0.546127 1.208460 0.047484 -0.027811 461923.000000 0 0 1
-29.621662 19.599811 13.792042 38.102701 -0.584536 1.200416 0.037689 -0.021196 482523.000000 0 0 1
-30.041552 20.908911 13.527542 39.021427 -0.608036 1.216778 0.045576 -0.010676 478651.000000 0 0 1
-28.835212 21.871211 13.735742 38.710333 -0.648912 1.208060 0.036644 -0.013740 263423.000000 0 0 1
-28.239622 21.772011 14.956242 38.667633 -0.656790 1.173649 0.032550 -0.007553 -844862.000000 0 0 1
-27.022762 22.480511 14.979442 38.209772 -0.693898 1.167957 0.046485 -0.017602 -348099.000000 0 0 1
-26.333072 22.225211 16.346842 38.139349 -0.701003 1.127844 0.041427 -0.018448 -379607.000000 0 0 1
-25.733542 20.942911 16.523342 37.065368 -0.683121 1.108741 0.057203 -0.023684 349402.000000 0 0 1
-25.083972 20.772011 17.768242 37.099764 -0.691641 1.071359 0.041594 -0.017670 197196.000000 0 0 1
-24.159962 19.516511 17.997842 35.895964 -0.679481 1.045593 0.046814 -0.021547 615106.000000 0 0 1
-23.520662 19.572711 19.284442 36.169079 -0.694039 1.008447 0.041927 -0.020075 879710.000000 0 0 1
-22.399262 18.696911 19.487942 35.086768 -0.695551 0.981927 0.041382 -0.020003 578291.000000 0 0 1
-21.903962 18.539611 20.918942 35.512010 -0.702403 0.940893 0.037301 -0.021406 -334616.000000 0 0 1
-22.860262 17.984111 21.767342 36.329561 -0.666577 0.928341 0.028940 -0.005553 -221199.000000 0 0 1
-22.664462 18.347311 23.079542 37.188263 -0.680518 0.901271 0.011975 -0.003662 52358.800000 0 0 1
-23.636262 17.581811 24.004842 38.000334 -0.639553 0.887051 0.003296 -0.000461 -95477.100000 0 0 1
-23.163362 16.304911 24.253142 37.290834 -0.613345 0.862714 0.003357 -0.008601 -738053.000000 0 0 1
-24.041562 15.495211 24.902842 37.924264 -0.572512 0.854432 0.003181 -0.003884 -714551.000000 0 0 1
20.178738 25.155711 33.822262 46.732608 0.894744 0.761589 0.038457 -0.017254 -6356.190000 0 0 1
21.145538 24.279411 33.307794 46.325292 0.854279 0.768437 0.035520 -0.023440 -142560.000000 0 0 1
20.951038 22.947411 33.779029 45.897194 0.830844 0.743696 0.033541 -0.024899 -3634.160000 0 0 1
19.813538 22.116111 33.157697 44.509903 0.840258 0.730335 0.036671 -0.022329 -148144.000000 0 0 1
20.123038 21.600611 31.877245 43.447460 0.820797 0.747050 0.037978 -0.011523 -404226.000000 0 0 1
19.225138 20.659311 31.403745 42.220945 0.821341 0.732066 0.027979 -0.009295 -788011.000000 0 0 1
19.636838 20.036111 30.056045 41.114681 0.795462 0.750967 0.008023 0.009015 -415843.000000 0 0 1
20.875238 19.359711 30.117445 41.444353 0.747749 0.757296 0.021142 0.002870 -221790.000000 0 0 1
20.876738 18.525111 28.970435 40.228149 0.725786 0.766773 0.003468 0.017631 584782.000000 0 0 1
22.129638 17.570011 28.901085 40.419041 0.671046 0.774120 0.009318 0.018134 1107520.000000 0 0 1
23.413438 18.168311 28.741625 41.283866 0.659921 0.800713 0.020996 0.014901 196830.000000 0 0 1
24.433938 17.276611 29.137485 41.767112 0.615458 0.798729 0.022899 0.018630 -134309.000000 0 0 1
25.785438 17.984211 29.218885 42.919272 0.609017 0.821960 0.030246 0.005331 -146413.000000 0 0 1
26.472138 18.339611 27.993445 42.670228 0.605870 0.855234 0.027459 0.020503 543679.000000 0 0 1
27.854338 18.412811 28.317265 43.780854 0.584097 0.867421 0.033056 0.013267 377258.000000 0 0 1
28.830538 18.445111 27.125255 43.671518 0.569155 0.900625 0.038819 0.016343 46416.800000 0 0 1
28.830938 19.623511 26.305565 43.683955 0.597615 0.924569 0.045227 0.015507 365300.000000 0 0 1
29.984838 19.524611 25.483005 43.928174 0.577183 0.951937 0.053346 0.011084 -3361.980000 0 0 1
30.151138 20.725511 24.531575 44.050381 0.602211 0.980150 0.056968 -0.000121 697023.000000 0 0 1
29.074038 20.875211 23.558245 42.849329 0.622706 0.988680 0.047263 -0.001975 957949.000000 0 0 1
29.397938 21.624811 22.417145 42.829891 0.634214 1.019961 0.044093 -0.013490 -257897.000000 0 0 1
30.318238 20.998811 21.380345 42.629388 0.605751 1.045418 0.048221 -0.008009 -304673.000000 0 0 1
29.668238 19.875211 20.782645 41.317631 0.590248 1.043733 0.041490 -0.006535 243105.000000 0 0 1
30.308638 19.210011 19.738145 40.954028 0.564912 1.067908 0.047301 -0.009102 -67213.800000 0 0 1
31.444838 18.193211 19.987845 41.464258 0.524517 1.067803 0.056054 -0.012094 -223199.000000 0 0 1
30.906438 16.942911 20.266745 40.657239 0.501460 1.048954 0.066780 -0.011399 -153285.000000 0 0 1
31.831038 15.893011 20.393345 41.008429 0.463082 1.050317 0.052557 -0.010190 -716227.000000 0 0 1
31.171938 14.465011 20.525345 40.027691 0.434468 1.032378 0.060865 -0.004779 843079.000000 0 0 1
30.419038 14.090311 21.725745 39.948250 0.433782 0.995782 0.042662 -0.011918 1229190.000000 0 0 1
29.278938 14.900211 22.056145 39.569509 0.470747 0.979542 0.047622 -0.002822 121671.000000 0 0 1
28.515238 14.389811 23.308245 39.540608 0.467349 0.940386 0.030425 -0.001809 -4607.290000 0 0 1
27.946038 13.113911 23.050045 38.526098 0.438753 0.929422 0.033475 -0.005070 416966.000000 0 0 1
27.323538 12.625811 24.306885 38.688648 0.432859 0.891470 0.025741 0.003338 -71476.300000 0 0 1
26.882438 11.154211 24.314525 37.924636 0.393307 0.874830 0.029301 -0.003944 -272488.000000 0 0 1
25.754538 11.067211 23.483545 36.568514 0.405861 0.873458 0.013195 0.007404 -245550.000000 0 0 1
25.503838 9.710811 23.227145 35.836376 0.363810 0.865651 0.004561 0.006439 895863.000000 0 0 1
24.227738 9.473211 22.301445 34.264843 0.372730 0.862086 -0.000794 -0.011459 553206.000000 0 0 1
22.981338 9.518311 22.935345 33.834452 0.392667 0.825935 -0.004858 -0.006748 -365957.000000 0 0 1
22.047938 9.049811 22.003045 32.436779 0.389492 0.825300 -0.019418 0.012102 508630.000000 0 0 1
20.528338 9.027311 22.399245 31.695917 0.414296 0.785985 -0.007628 0.003060 796598.000000 0 0 1
20.302838 8.085511 23.449845 32.054265 0.378993 0.750179 0.014963 0.001928 -868458.000000 0 0 1
18.983538 8.270211 23.805065 31.550788 0.410858 0.715905 0.018791 0.002829 -1007280.000000 0 0 1
18.583538 7.581711 25.128975 32.160466 0.387367 0.673951 0.034116 -0.002911 -335045.000000 0 0 1
18.517738 6.176211 25.168325 31.851166 0.321927 0.659685 0.030133 -0.010903 125287.000000 0 0 1
18.404038 5.706911 26.488135 32.755133 0.300688 0.628906 0.031542 -0.017083 -399600.000000 0 0 1
18.650138 4.186811 26.330275 32.536754 0.220831 0.627927 0.038260 -0.021731 322204.000000 0 0 1
20.059138 4.038611 26.224615 33.262739 0.198679 0.662579 0.045751 -0.016011 376339.000000 0 0 1
20.424438 2.626311 26.098425 33.244292 0.127885 0.668020 0.032014 -0.005284 -612.871000 0 0 1
21.892738 2.392511 25.680325 33.830388 0.108851 0.708882 0.032407 -0.005144 8504.980000 0 0 1
22.743338 2.558511 26.804865 35.246364 0.112024 0.706713 0.039327 -0.018444 189831.000000 0 0 1
24.101038 2.603611 26.384135 35.829616 0.107612 0.743095 0.043399 -0.016005 230912.000000 0 0 1
25.039138 3.122411 27.473855 37.303091 0.124061 0.742910 0.028505 -0.021823 -1030850.000000 0 0 1
25.313838 2.153011 28.479805 38.164448 0.084849 0.728402 0.023180 -0.025156 -153984.000000 0 0 1
26.132138 2.565411 29.509785 39.500599 0.097857 0.727150 0.021001 -0.012661 -62853.000000 0 0 1
27.610438 2.925911 29.236745 40.319778 0.105577 0.759585 0.032493 -0.012803 -1168870.000000 0 0 1
27.772138 4.129211 28.530235 40.028943 0.147600 0.777399 0.021260 -0.002490 320496.000000 0 0 1
29.074738 4.181211 27.952195 40.548096 0.142830 0.810193 0.023400 -0.001507 198923.000000 0 0 1
29.426338 3.136711 26.895515 39.988961 0.106194 0.833115 0.025702 -0.001633 -1087870.000000 0 0 1
28.656538 3.212111 25.720295 38.639984 0.111624 0.842446 0.020094 0.009812 151212.000000 0 0 1
29.096938 2.193811 24.752685 38.264082 0.075254 0.867296 0.033782 0.017744 -73523.900000 0 0 1
28.770938 2.381411 23.260345 37.074002 0.082583 0.892583 0.030301 0.010846 7487.330000 0 0 1
29.475538 3.401011 22.548845 37.266937 0.114876 0.920951 0.020505 0.015500 169034.000000 0 0 1
30.832638 3.075511 22.249645 38.146520 0.099420 0.948050 0.017575 0.017504 383880.000000 0 0 1
31.563738 4.320811 21.696745 38.544619 0.136046 0.972907 0.024658 0.009182 12801.600000 0 0 1
30.968038 4.801011 20.456045 37.423507 0.153807 0.992486 0.016208 0.008918 377265.000000 0 0 1
31.515038 6.066211 20.015145 37.823307 0.190160 1.013168 0.032725 0.005414 46023.000000 0 0 1
33.003138 6.183111 19.573845 38.866095 0.185202 1.043009 0.027624 0.001220 280353.000000 0 0 1
33.970038 6.156111 20.617945 40.211451 0.179276 1.032425 0.035273 -0.000065 272583.000000 0 0 1
33.979538 7.371211 21.389745 40.822358 0.213621 1.019289 0.042848 -0.006277 -635064.000000 0 0 1
34.714638 7.177911 22.735545 42.113341 0.203896 1.000519 0.042411 -0.006790 -267846.000000 0 0 1
34.104538 6.248411 23.536945 41.906442 0.181204 0.974412 0.031114 0.002644 -42855.900000 0 0 1
34.766238 6.045411 24.801705 43.131924 0.172166 0.958168 0.042797 -0.000478 188021.000000 0 0 1
33.936238 5.187611 25.780345 42.932572 0.151689 0.926689 0.038879 0.003062 65209.900000 0 0 1
33.988238 3.783211 25.507435 42.663125 0.110853 0.929942 0.040669 0.003769 171505.000000 0 0 1
33.095738 3.066611 26.356005 42.418993 0.092395 0.900363 0.041553 0.006707 -55923.200000 0 0 1
33.089138 1.532811 26.119055 42.183475 0.046291 0.903102 0.039284 0.008081 121831.000000 0 0 1
32.321138 0.976111 25.044315 40.900201 0.030191 0.911795 0.055467 0.004631 26139.300000 0 0 1
32.478138 -0.412489 24.992915 40.983477 -0.012700 0.914951 0.056330 -0.008675 -122793.000000 0 0 1
31.529438 -1.091289 23.998365 39.638591 -0.034598 0.920491 0.061661 0.001631 2804.250000 0 0 1
30.173538 -1.140989 24.363325 38.798400 -0.037796 0.891884 0.056004 0.001593 -361193.000000 0 0 1
29.460338 -2.102489 23.601545 37.806942 -0.071246 0.896606 0.071601 -0.000558 691532.000000 0 0 1
27.909338 -1.988189 23.765395 36.710734 -0.071117 0.866669 0.037432 0.008418 431196.000000 0 0 1
27.462038 -0.711089 23.425345 36.102852 -0.025888 0.864724 0.032012 0.012638 -492498.000000 0 0 1
26.063438 -0.818689 23.301045 34.970155 -0.031401 0.841544 0.029558 0.012868 -233015.000000 0 0 1
25.342438 0.533111 23.399045 34.496937 0.021033 0.825359 0.020473 0.018072 -122171.000000 0 0 1
25.486438 1.344911 22.250545 33.859327 0.052721 0.853769 0.016251 0.010930 427584.000000 0 0 1
24.544538 2.414311 22.385745 33.307429 0.098049 0.833762 0.005582 0.006568 317923.000000 0 0 1
24.524338 3.450311 21.231745 32.621079 0.139772 0.862080 -0.001438 0.006204 -169568.000000 0 0 1
24.121638 2.964911 19.978245 31.460680 0.122302 0.882758 0.007115 0.004226 125232.000000 0 0 1
23.806338 4.007711 19.112345 30.790992 0.166783 0.901146 0.000993 0.005252 -186587.000000 0 0 1
23.597138 3.565111 17.674845 29.697392 0.149948 0.933326 0.003955 0.003272 236160.000000 0 0 1
24.788338 3.039911 17.039845 30.233410 0.122025 0.972047 -0.006501 0.002327 754767.000000 0 0 1
24.753738 2.948711 15.588545 29.401448 0.118563 1.011964 0.000412 0.001893 -696464.000000 0 0 1
24.226938 1.669011 14.939445 28.511702 0.068782 1.019284 0.007779 0.016016 -9624.690000 0 0 1
22.815438 1.625611 14.854145 27.273292 0.071130 0.994836 0.037884 0.007771 183475.000000 0 0 1
22.449238 0.469611 14.082345 26.504740 0.020916 1.010645 0.060198 0.006658 177180.000000 0 0 1
20.911338 0.225111 13.989445 25.160272 0.010765 0.981215 0.084201 -0.018261 317533.000000 0 0 1
20.069038 1.058811 13.212145 24.050949 0.052710 0.989222 0.093331 -0.014333 576927.000000 0 1 0
20.153938 0.908811 11.795445 23.369631 0.045063 1.041723 0.099267 -0.006103 -578422.000000 0 1 0
19.767638 -0.476089 11.128845 22.690028 -0.024080 1.058164 0.097124 -0.004583 96697.900000 0 1 0
20.598738 -1.605989 11.453845 23.623670 -0.077808 1.064609 0.079351 -0.009330 886279.000000 0 1 0
21.789038 -1.693389 10.653445 24.313075 -0.077562 1.117226 0.079323 -0.002789 283699.000000 0 1 0
22.769838 -2.695589 11.260945 25.544874 -0.117836 1.114273 0.076957 -0.010495 -242951.000000 0 0 1
23.303038 -2.308389 12.502745 26.545788 -0.098737 1.080386 0.070168 -0.016608 -36099.300000 0 0 1
24.277338 -3.154689 13.036345 27.736032 -0.129220 1.081489 0.051726 -0.003667 -142265.000000 0 0 1
24.713538 -2.814389 14.499445 28.790860 -0.113392 1.043021 0.037449 -0.007017 -252831.000000 0 0 1
25.723438 -1.851989 14.512745 29.592987 -0.071872 1.058234 0.029197 -0.002943 -178602.000000 0 0 1
26.044638 -1.658089 15.891445 30.555039 -0.063578 1.023837 0.028179 -0.011412 -250814.000000 0 0 1
27.143738 -0.662789 16.236945 31.636374 -0.024413 1.031845 0.045833 -0.004582 44110.900000 0 0 1
28.459338 -1.099089 15.947545 32.641478 -0.038600 1.060350 0.043182 -0.004529 153469.000000 0 0 1
29.447738 -0.166489 16.276445 33.646986 -0.005654 1.065872 0.030517 -0.000980 -392587.000000 0 0 1
30.852938 -0.762489 16.430845 34.963664 -0.024709 1.081573 0.041778 -0.002118 -85690.300000 0 0 1
31.332338 -1.103189 15.102045 34.799485 -0.035195 1.121898 0.042287 0.005697 -55745.100000 0 0 1
32.558838 -1.785889 15.085745 35.928360 -0.054796 1.137479 0.025028 0.007330 -236353.000000 0 0 1
32.689638 -2.500989 13.736545 35.546590 -0.076358 1.174030 0.031353 0.008807 -189245.000000 0 0 1
33.238538 -1.705889 12.661345 35.609270 -0.051278 1.207280 0.029897 0.002958 418981.000000 0 0 1
33.601838 -2.475289 11.551345 35.618031 -0.073532 1.240512 0.037211 -0.002278 -95769.800000 0 0 1
32.904038 -1.853589 10.327145 34.536378 -0.056274 1.267128 0.052392 -0.005643 -504038.000000 0 0 1
33.417238 -0.577189 9.982645 34.881200 -0.017270 1.280548 0.049258 -0.007787 356180.000000 0 0 1
32.478338 0.494511 9.948845 33.971554 0.015225 1.273582 0.041284 -0.005766 -349016.000000 0 0 1
33.035338 1.797411 9.421645 34.399588 0.054355 1.293363 0.044286 -0.018338 -177709.000000 0 0 1
33.391938 1.854511 8.067145 34.402610 0.055481 1.334100 0.058016 -0.014443 149614.000000 0 0 1
34.035738 3.058711 7.810045 35.054015 0.089627 1.346110 0.054280 -0.012716 -455431.000000 0 0 1
34.282638 3.219111 6.316445 35.007991 0.093625 1.389374 0.041300 -0.017279 -163852.000000 0 0 1
34.965538 4.395711 5.963745 35.741815 0.125059 1.403156 0.036977 -0.014177 188466.000000 0 0 1
35.240138 4.329311 4.551045 35.795562 0.122239 1.443311 0.035785 -0.010824 -154985.000000 0 0 1
-35.568662 5.580911 3.894745 36.213883 -0.155636 1.463040 0.032631 -0.025374 15046.500000 0 0 1
34.950338 6.675011 3.965645 35.802349 0.188713 1.459804 0.055777 -0.028471 -206375.000000 0 0 1
35.524538 7.802411 3.411645 36.530942 0.216202 1.477269 0.046612 -0.034149 -860592.000000 0 0 1
34.571338 9.025311 3.355945 35.887268 0.255364 1.477146 0.082623 -0.033463 315790.000000 0 0 1
33.486538 9.010111 2.459645 34.764640 0.262842 1.499986 0.097560 -0.040161 -342419.000000 0 0 1
32.462738 8.126011 2.743045 33.576565 0.245278 1.489010 0.100997 -0.035642 -1357280.000000 0 0 1
31.199638 8.190211 1.879045 32.311419 0.256718 1.512609 0.122561 -0.040228 -35415.900000 0 0 1
31.465638 8.051711 0.533045 32.483851 0.250514 1.554386 0.120592 -0.039582 415421.000000 0 0 1
30.217938 7.868511 -0.122155 31.225825 0.254735 1.574708 0.125298 -0.032289 123791.000000 0 0 1
30.338938 7.600411 -1.609955 31.317876 0.245465 1.622226 0.094560 -0.024739 -542403.000000 0 0 1
29.212438 7.150511 -2.312955 30.163655 0.240056 1.647552 0.089810 -0.015837 266813.000000 0 0 1
29.549938 6.976411 -3.679255 30.584409 0.231844 1.691387 0.089395 -0.016275 -290083.000000 0 0 1
28.379538 6.376811 -4.473855 29.429191 0.221026 1.723409 0.077601 -0.016903 -376316.000000 0 0 1
28.439038 4.956011 -4.536855 29.221978 0.172535 1.726682 0.080472 -0.016882 463882.000000 0 0 1
27.454738 4.540911 -5.442755 28.355001 0.163912 1.763945 0.070822 -0.007997 -353500.000000 0 0 1
27.408838 2.998111 -5.693655 28.154054 0.108952 1.774433 0.088890 -0.012025 -351041.000000 0 0 1
27.088338 2.314411 -4.558955 27.566621 0.085232 1.736939 0.092202 -0.009526 368626.000000 0 0 1
27.344338 0.957911 -4.622755 27.748879 0.035017 1.738169 0.089119 -0.008702 -410565.000000 0 0 1
27.182838 0.147611 -3.301555 27.383001 0.005430 1.691660 0.087106 -0.004807 731966.000000 0 0 1
28.282738 0.457911 -2.398755 28.387972 0.016189 1.655396 0.086922 -0.001957 819771.000000 0 0 1
28.045438 0.046711 -1.053355 28.065251 0.001666 1.608338 0.089588 -0.001407 565489.000000 0 0 1
29.289738 0.369911 -0.149055 29.292453 0.012629 1.575885 0.089690 -0.000791 124481.000000 0 0 1
30.434538 -0.407489 -0.272255 30.438483 -0.013388 1.579741 0.070853 0.003738 -647059.000000 0 0 1
31.419438 0.251611 0.472745 31.424002 0.008008 1.555752 0.037154 -0.000494 -559306.000000 0 0 1
-2.941462 -21.452989 -8.692258 23.333202 1.434534 1.952527 0.001083 0.012228 109760.000000 0 1 0
-3.392662 -22.082989 -7.521358 23.574126 1.418356 1.895525 0.002828 0.010163 -655838.000000 0 1 0
-2.536662 -23.067089 -7.051758 24.253918 1.461268 1.865804 0.008724 0.004730 -406342.000000 0 1 0
-3.094362 -23.699489 -5.782058 24.590101 1.440964 1.808157 0.003867 0.007026 -534992.000000 0 1 0
-3.002962 -22.850589 -4.713858 23.524193 1.440128 1.772546 0.004801 0.003152 -31977.300000 0 1 0
-3.305962 -23.574689 -3.511258 24.062924 1.431471 1.717239 0.009206 0.001427 -194387.000000 0 1 0
-3.094562 -22.871589 -2.126458 23.177742 1.436311 1.662671 0.006781 -0.005328 502866.000000 0 1 0
-1.715862 -22.692989 -1.783458 22.827542 1.495328 1.649004 0.020891 -0.008520 54800.200000 0 1 0
-1.500662 -22.427089 -0.413858 22.481050 1.503983 1.589207 0.024433 -0.010178 178282.000000 0 1 0
0.009238 -22.397589 -0.118358 22.397904 -1.570384 1.576081 0.022503 -0.012123 182205.000000 0 1 0
0.763038 -21.398489 -0.783358 21.426414 -1.535153 1.607365 0.007279 -0.009767 591761.000000 0 1 0
2.085938 -21.298089 -0.231658 21.401248 -1.473168 1.581621 0.017287 -0.010256 1189260.000000 0 1 0
3.058138 -20.163489 -0.668658 20.405039 -1.420276 1.603571 0.024599 -0.010502 739085.000000 0 1 0
3.763038 -20.578389 -1.844858 21.000811 -1.389931 1.658757 0.024899 -0.008263 -619474.000000 0 1 0
4.591338 -19.596489 -2.376658 20.267000 -1.340654 1.688334 0.035128 -0.006002 -779025.000000 0 1 0
5.550538 -20.107189 -3.417058 21.137261 -1.301457 1.733169 0.033220 -0.005001 -627157.000000 0 1 0
6.556738 -20.936689 -2.851058 22.123840 -1.267301 1.700024 0.045028 -0.012015 -104141.000000 0 1 0
7.436238 -21.620689 -3.707258 23.162375 -1.239530 1.731543 0.038629 -0.009298 435425.000000 0 1 0
8.581238 -20.945589 -4.480758 23.074500 -1.181963 1.766225 0.039790 -0.001644 -189060.000000 0 1 0
8.076438 -19.939789 -5.433558 22.188907 -1.185952 1.818189 0.026873 0.002884 584203.000000 0 1 0
9.202338 -19.405089 -6.133158 22.335088 -1.127982 1.848967 0.034175 0.007770 -8080.110000 0 1 0
8.956438 -18.082489 -6.910058 21.329395 -1.110908 1.900718 0.023010 0.003723 -312185.000000 0 1 0
9.866438 -17.866089 -7.932258 21.896677 -1.066232 1.941486 0.027538 0.010382 -107575.000000 0 1 0
9.514338 -16.659989 -8.488658 20.979399 -1.051906 1.987358 0.020426 0.008849 107309.000000 0 1 0
9.928638 -16.573489 -9.929858 21.722350 -1.031063 2.045558 0.019335 0.008596 -467945.000000 0 1 0
9.187638 -17.434089 -10.741858 22.444324 -1.085788 2.069856 0.011420 0.009166 66020.000000 0 1 0
8.845338 -16.769689 -11.975158 22.424694 -1.085423 2.134140 0.001978 0.012144 9501.410000 0 1 0
8.310138 -17.636289 -13.132758 23.506732 -1.130457 2.163591 0.005531 0.012600 450881.000000 0 1 0
7.042838 -18.214089 -12.817558 23.359033 -1.201834 2.151628 0.002138 0.014255 457870.000000 0 1 0
6.472638 -18.733289 -14.014258 24.274073 -1.238122 2.186257 0.004920 0.016266 -400446.000000 0 1 0
5.201938 -19.487189 -13.724558 24.396192 -1.309937 2.168287 0.014816 0.021185 -793827.000000 0 1 0
5.618738 -20.717889 -13.169258 25.183934 -1.305964 2.121073 0.021476 0.012521 896679.000000 0 0 1
4.503938 -21.560789 -12.799858 25.475272 -1.364863 2.097218 0.026551 0.013469 570378.000000 0 0 1
4.935138 -22.990889 -12.511758 26.636078 -1.359349 2.059781 0.012459 0.006619 -95149.100000 0 0 1
5.370538 -23.692289 -13.679458 27.880008 -1.347885 2.083637 0.012731 0.000588 -10080.200000 0 0 1
5.094538 -25.086649 -13.461558 28.922445 -1.370443 2.054924 0.006647 -0.006058 -1165.340000 0 0 1
3.717338 -25.629949 -13.916358 29.400305 -1.426762 2.063876 -0.001404 -0.011149 386188.000000 0 0 1
2.645238 -25.109129 -13.115058 28.451194 -1.465834 2.049881 0.011544 -0.005131 250509.000000 0 0 1
1.340738 -25.246849 -13.632658 28.723690 -1.517741 2.065321 0.008755 -0.010980 281294.000000 0 0 1
0.646138 -26.579709 -13.246958 29.704888 -1.546492 2.033034 0.008256 -0.012615 -951233.000000 0 0 1
1.121638 -27.754719 -13.897558 31.060017 -1.530406 2.034699 0.004399 -0.008651 248546.000000 0 0 1
0.560338 -28.970929 -13.354458 31.905647 -1.551457 2.002657 0.004424 -0.004571 557240.000000 0 0 1
-0.925162 -29.309429 -13.678058 32.357192 1.539241 2.007242 -0.002701 -0.006026 301198.000000 0 0 1
-1.914862 -28.465709 -13.142358 31.411541 1.503628 2.002471 0.006288 -0.012991 -714440.000000 0 0 1
-3.151562 -29.075269 -13.377658 32.159996 1.462825 1.999808 0.022316 -0.011721 -151645.000000 0 0 1
-4.335662 -28.304679 -12.678458 31.316068 1.418799 1.987616 0.024275 -0.011627 275278.000000 0 0 1
-4.577362 -28.297589 -11.293358 30.809832 1.410427 1.946095 0.027714 -0.025646 107799.000000 0 0 1
-5.118362 -29.532099 -10.833958 31.870318 1.399186 1.917648 0.022952 -0.015958 -455225.000000 0 0 1
-5.595762 -29.594639 -9.363058 31.540800 1.383922 1.872194 0.029143 -0.015535 720964.000000 0 0 1
-6.942262 -29.179099 -9.074458 31.336251 1.337220 1.864588 0.035922 -0.012563 608462.000000 0 0 1
-7.217462 -27.798719 -8.986658 30.093531 1.316772 1.874047 0.042886 -0.016681 -851157.000000 0 0 1
-8.646962 -27.397549 -8.536858 29.971213 1.265080 1.859631 0.047381 -0.011627 274983.000000 0 0 1
-9.683662 -27.445079 -9.475958 30.607180 1.231596 1.885568 0.051584 -0.002625 -214239.000000 0 0 1
-9.870762 -28.739159 -10.143458 32.035308 1.239959 1.892975 0.054101 -0.008286 -1827430.000000 0 0 1
-11.167762 -28.970349 -10.875158 32.897859 1.202861 1.907707 0.055146 -0.006084 -857573.000000 0 0 1
-11.109262 -28.379679 -12.135458 32.803830 1.197681 1.949741 0.061020 -0.007208 158857.000000 0 0 1
-11.950762 -28.986589 -13.090258 33.976432 1.179744 1.966302 0.063242 -0.005022 -319398.000000 0 0 1
-11.753062 -28.349009 -14.503958 33.943565 1.177781 2.012296 0.079361 -0.003621 -300955.000000 0 0 1
-12.524862 -27.260419 -14.929658 33.509660 1.140110 2.032566 0.054096 -0.010131 -171237.000000 0 0 1
-12.646862 -26.169149 -13.996158 32.259261 1.120619 2.019574 0.063506 -0.002966 360941.000000 0 0 1
-13.621762 -24.982589 -14.363558 31.874660 1.071607 2.038263 0.081270 -0.000597 -8470.270000 0 0 1
-13.146162 -24.215689 -15.425958 31.578179 1.073438 2.081167 0.063951 0.000356 -424581.000000 0 0 1
-14.055562 -23.314289 -16.005058 31.579690 1.028267 2.102282 0.071983 -0.002961 -493248.000000 0 0 1
-13.561262 -22.424589 -17.139058 31.313214 1.026892 2.149982 0.077936 -0.002571 -205483.000000 0 0 1
-13.189962 -21.095389 -16.785458 30.012367 1.012015 2.164319 0.055017 0.005263 99356.900000 0 0 1
-13.339762 -20.197189 -17.859458 30.080491 0.987092 2.206473 0.040789 0.008903 -230607.000000 0 0 1
-13.083162 -18.622189 -17.782458 28.882017 0.958356 2.234062 0.028403 0.003958 383337.000000 0 0 1
-11.769062 -18.095689 -17.694758 27.911812 0.994154 2.257449 0.022034 0.013246 167846.000000 0 0 1
-11.928462 -16.733789 -17.922058 27.267345 0.951507 2.287989 0.022642 0.010856 -263731.000000 0 0 1
-10.654562 -15.911589 -17.969658 26.260369 0.980759 2.324423 0.025619 0.008045 -330392.000000 0 0 1
-10.023762 -15.714489 -16.718658 25.038660 1.002997 2.301930 0.022797 0.004610 114240.000000 0 0 1
-8.748262 -15.120889 -16.826258 24.254821 1.046295 2.337449 0.016299 0.001354 -615565.000000 0 1 0
-8.228762 -14.601489 -15.465758 22.805826 1.057605 2.316038 0.008288 -0.001451 -538412.000000 0 1 0
-7.879862 -15.608689 -14.565458 22.756889 1.103286 2.265355 0.017927 0.003993 248220.000000 0 1 0
-6.844862 -16.527189 -14.914458 23.290367 1.178145 2.265777 0.023800 0.007036 -508973.000000 0 1 0
-6.430462 -17.428589 -13.711358 23.089130 1.217331 2.206625 0.023065 0.011172 -585810.000000 0 1 0
-5.958762 -16.711489 -12.581658 21.750376 1.228283 2.187632 0.021780 0.002101 214166.000000 0 1 0
-5.840462 -17.563089 -11.477258 21.778443 1.249758 2.125864 0.022278 -0.000272 700138.000000 0 1 0
-4.576362 -18.523889 -11.400858 22.227396 1.328594 2.109378 0.024890 -0.004669 16328.400000 0 1 0
-3.346662 -17.893489 -11.560558 21.564406 1.385900 2.136600 0.016721 -0.005159 -688733.000000 0 1 0
-2.359162 -18.921889 -11.527758 22.282117 1.446757 2.114553 0.012047 0.002487 517304.000000 0 1 0
-0.916662 -18.538189 -11.927758 22.063004 1.521389 2.141973 0.017864 0.010263 -258221.000000 0 1 0
-0.776262 -18.352889 -13.339358 22.701753 1.528525 2.198875 0.030098 0.008574 564105.000000 0 1 0
0.487838 -17.744389 -13.657658 22.397164 -1.543311 2.226597 0.037337 0.010513 532758.000000 0 1 0
1.671838 -18.709789 -13.821558 23.321379 -1.481677 2.205149 0.032162 0.007394 -856358.000000 0 1 0
1.680238 -19.671989 -14.901558 24.735942 -1.485590 2.217333 0.043815 0.009837 133072.000000 0 1 0
1.076238 -20.917389 -14.548358 25.501964 -1.519390 2.177886 0.043617 0.009684 -989882.000000 0 0 1
1.141238 -22.005589 -15.693158 27.052238 -1.518981 2.189655 0.049567 0.003030 -3103.490000 0 0 1
2.326238 -22.757089 -15.855658 27.833404 -1.468930 2.176892 0.036438 -0.002069 -288142.000000 0 0 1
3.431838 -21.958489 -16.188958 27.496093 -1.415763 2.200336 0.027364 -0.010444 -498715.000000 0 0 1
4.678638 -22.774389 -16.657558 28.601341 -1.368181 2.192480 0.019075 -0.006177 406316.000000 0 0 1
4.572638 -23.278289 -17.973958 29.763248 -1.376832 2.219179 0.004016 0.004120 701621.000000 0 0 1
5.775138 -23.974389 -18.360558 30.744653 -1.334412 2.210796 -0.000007 0.003217 810190.000000 0 0 1
6.159538 -23.730389 -19.871658 31.558740 -1.316837 2.251927 -0.000379 0.004488 12358.100000 0 0 1
6.462438 -22.402189 -20.176958 30.833923 -1.289948 2.284153 0.017054 -0.009686 -75841.500000 0 0 1
6.788438 -22.245489 -21.557258 31.712144 -1.274612 2.318258 0.023549 -0.014597 -89194.900000 0 0 1
7.037438 -20.787489 -21.944358 31.035465 -1.244365 2.356148 0.033967 -0.019009 115534.000000 0 0 1
5.905038 -19.970389 -22.154158 30.405471 -1.283299 2.387107 0.049471 -0.021875 -91613.200000 0 0 1
6.275038 -18.762789 -22.794958 30.183249 -1.248050 2.426784 0.064248 -0.025715 -167033.000000 0 0 1
5.063838 -17.896089 -23.092558 29.650948 -1.295047 2.463568 0.062304 -0.022662 -864444.000000 0 0 1
4.206538 -18.339189 -24.089858 30.567010 -1.345322 2.478512 0.060313 -0.026782 -44409.800000 0 0 1
3.102438 -17.488289 -24.345058 30.135482 -1.395222 2.511298 0.062039 -0.023457 838207.000000 0 0 1
1.809838 -17.813189 -23.516558 29.556958 -1.469543 2.490852 0.061244 -0.015285 207035.000000 0 0 1
1.974038 -17.157389 -22.224558 28.146116 -1.456245 2.480976 0.080246 -0.017687 581926.000000 0 0 1
0.824438 -16.311489 -22.053258 27.442496 -1.520296 2.504144 0.062485 -0.009063 583468.000000 0 0 1
0.912338 -15.339189 -20.866058 25.913616 -1.511389 2.506836 0.054252 -0.006975 115503.000000 0 0 1
1.936538 -14.363589 -21.013858 25.527341 -1.436782 2.537804 0.064401 0.000886 162431.000000 0 0 1
1.924138 -13.481489 -19.900858 24.114249 -1.429029 2.541483 0.066279 -0.001202 558718.000000 0 1 0
3.198638 -12.573489 -19.796258 23.668878 -1.321685 2.561448 0.058985 -0.000454 977340.000000 0 1 0
4.367438 -13.230689 -19.249258 23.762567 -1.251959 2.515062 0.054221 -0.005814 534083.000000 0 1 0
5.507038 -12.401789 -19.148358 23.468947 -1.152900 2.525084 0.044507 -0.013798 259963.000000 0 1 0
5.574038 -11.225889 -18.117558 22.030352 -1.109925 2.536397 0.039131 -0.005564 -413981.000000 0 1 0
4.880338 -9.999089 -18.317258 21.431786 -1.116732 2.595725 0.024999 0.005890 -29573.700000 0 1 0
5.379838 -9.202289 -19.418658 22.151954 -1.041763 2.639571 0.031927 0.008317 -198979.000000 0 1 0
4.725338 -9.490189 -20.762958 23.312935 -1.108816 2.669502 0.038112 -0.000046 -673589.000000 0 1 0
3.343838 -9.284289 -20.717758 22.947871 -1.225098 2.697075 0.039828 -0.003859 -711533.000000 0 1 0
2.778338 -9.503589 -21.985358 24.112100 -1.286376 2.718437 0.034371 -0.001095 -1159090.000000 0 1 0
1.306738 -9.263689 -22.044558 23.947569 -1.430661 2.740242 0.023982 -0.002335 -1100620.000000 0 1 0
0.921838 -7.908889 -21.791458 23.200603 -1.454763 2.791272 0.021933 -0.003189 -343777.000000 0 1 0
-0.459262 -7.679989 -21.944758 23.254367 1.511068 2.804388 0.018686 -0.005047 90065.100000 0 1 0
-0.861262 -6.599689 -22.977458 23.921983 1.441029 2.859649 0.032856 -0.004934 -8393.130000 0 1 0
-0.686362 -7.132089 -24.297358 25.331787 1.474856 2.854831 0.036017 -0.004401 -328690.000000 0 0 1
-1.243062 -6.441289 -25.374368 26.208662 1.380156 2.888598 0.036058 -0.010618 30312.400000 0 0 1
-0.688162 -4.995189 -25.634268 26.125489 1.433893 2.947368 0.045863 -0.016326 159337.000000 0 0 1
-0.962262 -4.499289 -26.953268 27.343157 1.360101 2.972518 0.038517 -0.012031 -116942.000000 0 0 1
-0.633562 -3.117089 -27.278138 27.462966 1.370273 3.025510 0.032738 -0.008317 -267529.000000 0 0 1
-1.243162 -1.915689 -26.412368 26.510913 0.995169 3.055344 0.035233 -0.012789 870492.000000 0 0 1
-2.651062 -1.700189 -26.345568 26.533144 0.570252 3.022615 0.019365 -0.008630 653774.000000 0 0 1
-3.347662 -1.340989 -27.564838 27.799738 0.381002 3.011503 0.030104 -0.004925 1181480.000000 0 0 1
-4.901462 -1.334689 -27.272278 27.741357 0.265858 2.957436 0.023993 -0.007696 801129.000000 0 0 1
-5.322362 -0.229089 -26.578398 27.107034 0.043016 2.943777 0.024916 -0.007728 -372654.000000 0 0 1
-6.712762 -0.366089 -26.383348 27.226389 0.054482 2.892092 0.037515 -0.016431 -302202.000000 0 0 1
-7.450362 0.819611 -25.717258 26.787255 -0.109569 2.857998 0.032783 -0.011822 -784213.000000 0 0 1
-7.581262 2.020911 -26.477318 27.615358 -0.260509 2.853507 0.035757 -0.014764 378536.000000 0 0 1
-8.591662 2.047211 -27.463928 28.849178 -0.233917 2.830446 0.052603 -0.020784 227155.000000 0 0 1
-10.062162 1.643911 -27.216128 29.063159 -0.161945 2.783160 0.048394 -0.012663 -192678.000000 0 0 1
-11.036162 2.199311 -28.136738 30.303628 -0.196705 2.761133 0.053274 -0.026295 156649.000000 0 0 1
-12.247662 1.664411 -27.673588 30.308464 -0.135069 2.721533 0.032405 -0.013822 -654365.000000 0 0 1
-13.444862 2.288911 -28.415008 31.518505 -0.168628 2.694098 0.019847 -0.007161 -851164.000000 0 0 1
-14.676662 1.624511 -28.213238 31.843842 -0.110238 2.659415 0.018205 -0.003305 590200.000000 0 0 1
-15.759762 2.140311 -28.991748 33.067696 -0.134983 2.639837 0.012638 -0.001569 289421.000000 0 0 1
-16.345862 3.517411 -28.584688 33.115613 -0.211955 2.612328 0.010950 0.005885 -995942.000000 0 0 1
-15.497562 4.670911 -28.540298 32.810676 -0.292737 2.625690 0.013995 -0.000828 -27272.900000 0 0 1
-15.311762 5.329111 -29.767928 33.896593 -0.334928 2.642878 0.015048 -0.008206 132713.000000 0 0 1
-16.565362 5.940211 -30.475088 35.191311 -0.344309 2.617910 0.018320 -0.003789 186709.000000 0 0 1
-17.059162 7.101511 -29.940578 35.183586 -0.394468 2.588648 0.024575 0.002370 -16919.200000 0 0 1
-18.171862 7.632511 -30.628748 36.422411 -0.397643 2.569798 0.018977 0.000043 -336207.000000 0 0 1
-18.870162 8.667411 -29.789368 36.312718 -0.430576 2.532830 0.012956 -0.002656 -162513.000000 0 0 1
-17.981562 9.717711 -29.380888 35.791159 -0.495463 2.533778 0.014660 -0.000309 511884.000000 0 0 1
-18.541062 10.450111 -28.323098 35.428431 -0.513240 2.497168 0.020720 0.001951 -83424.600000 0 0 1
-8.275162 24.733511 31.200485 40.665650 -1.247931 0.696263 0.019230 -0.011745 -195916.000000 0 0 1
-9.163362 25.853911 31.052235 41.432272 -1.230182 0.723536 0.019850 -0.015566 403790.000000 0 0 1
-8.805362 26.957211 31.874815 42.664147 -1.255080 0.727093 0.015220 -0.008292 162334.000000 0 0 1
-7.559462 27.809911 31.511535 42.702616 -1.305383 0.740799 0.017784 -0.011673 123699.000000 0 0 1
-7.649462 28.489811 30.300935 42.288654 -1.308485 0.771987 0.032062 -0.005081 -9944.300000 0 0 1
-6.358862 28.911011 29.930845 42.096759 -1.354297 0.779875 0.030665 -0.008330 -99801.100000 0 0 1
-6.252662 30.098211 28.998815 42.260257 -1.365968 0.814550 0.053122 -0.011977 -224667.000000 0 0 1
-6.649162 31.312511 29.624885 43.615576 -1.361556 0.824087 0.054991 -0.010794 376529.000000 0 0 1
-6.186162 32.409811 28.848385 43.828002 -1.382192 0.852347 0.054805 -0.010418 -39909.300000 0 0 1
-6.383662 33.833511 29.572315 45.386996 -1.384310 0.861158 0.060480 -0.012643 29511.900000 0 0 1
-5.524162 33.971811 30.718145 46.132469 -1.409597 0.842139 0.061349 -0.015910 -94419.300000 0 0 1
-5.933062 -34.056603 31.746055 46.934693 1.398316 0.827949 0.075326 -0.023913 441440.000000 0 0 1
-7.180062 34.157611 32.528215 47.711429 -1.363609 0.820617 0.041006 -0.020701 725904.000000 0 0 1
-6.907762 33.062111 33.351374 47.467194 -1.364826 0.791724 0.044200 -0.019132 -80441.300000 0 0 1
-6.766962 31.782511 32.733738 46.123935 -1.361014 0.781737 0.043636 -0.010832 -159138.000000 0 0 1
-6.680862 30.712911 33.818311 46.169199 -1.356607 0.748829 0.033737 -0.004683 187010.000000 0 0 1
-5.602662 31.022311 -34.050818 46.402929 -1.392121 2.394706 0.031986 -0.011578 195540.000000 0 0 1
-5.739062 30.427211 -32.736188 45.060071 -1.384370 2.384013 0.024368 -0.009060 -982874.000000 0 0 1
-4.421862 30.430611 -31.953788 44.346584 -1.426497 2.375387 0.034106 -0.007128 235208.000000 0 0 1
-3.612262 29.268111 -32.082108 43.576742 -1.447998 2.398265 0.042281 -0.000418 424817.000000 0 0 1
-3.001662 29.060311 -33.370178 44.351781 -1.467871 2.422491 0.045120 -0.008051 -668637.000000 0 0 1
-2.325762 27.732711 -33.641068 43.660439 -1.487129 2.450447 0.048470 -0.005334 -866199.000000 0 0 1
-1.162262 27.422111 -32.923978 42.863870 -1.528438 2.446674 0.066644 -0.000275 -62094.700000 0 0 1
-0.488262 26.203511 -33.232338 42.323170 -1.552165 2.473822 0.075226 0.001661 647913.000000 0 0 1
0.072838 26.014011 34.071150 42.866972 1.567996 0.652100 0.070960 -0.001074 -560523.000000 0 0 1
-1.011162 25.849111 33.204121 42.091717 -1.531698 0.661858 0.066747 -0.002551 -126217.000000 0 0 1
-0.637062 25.457011 31.897805 40.815869 -1.545777 0.673722 0.065903 0.001260 -2053.620000 0 0 1
-0.326262 26.665011 30.941695 40.847493 -1.558561 0.711332 0.052988 -0.004748 245540.000000 0 0 1
-1.436262 27.541311 30.851335 41.381052 -1.518694 0.729448 0.038865 -0.013889 360496.000000 0 0 1
-1.059862 28.714711 30.146565 41.647008 -1.533903 0.761417 0.041748 -0.013100 344758.000000 0 0 1
-2.200262 29.755811 30.310875 42.532324 -1.496987 0.777521 0.041689 -0.011317 279054.000000 0 0 1
-2.334962 30.206511 31.630755 43.799429 -1.493650 0.763858 0.048751 -0.014243 -91315.200000 0 0 1
-2.966662 31.455011 31.771615 44.806855 -1.476760 0.782605 0.049671 -0.006849 -168729.000000 0 0 1
-2.611162 32.147511 33.111879 46.224205 -1.489750 0.772265 0.074738 -0.018241 282221.000000 0 0 1
-1.257262 32.548711 33.090812 46.432759 -1.532188 0.777512 0.061923 -0.026446 -28148.200000 0 0 1
-0.751562 33.085911 34.329402 47.683856 -1.548085 0.767084 0.053113 -0.024635 492148.000000 0 0 1
0.693438 33.639811 34.216629 47.988492 1.550186 0.777004 0.056117 -0.021902 422568.000000 0 0 1
0.638338 -33.893403 33.582876 47.717710 -1.551965 0.790089 0.057173 -0.019602 -1292240.000000 0 0 1
1.918738 -33.519003 33.360154 47.329747 -1.513615 0.788591 0.032117 -0.013841 -1546400.000000 0 0 1
2.144338 -32.055603 32.925804 46.002917 -1.504002 0.773123 0.032523 -0.017118 -389059.000000 0 0 1
1.756338 -31.185303 33.982625 46.156545 -1.514536 0.743289 0.027383 -0.009674 185406.000000 0 0 1
1.832438 -29.848103 33.590326 44.973071 -1.509481 0.727411 0.021554 -0.009861 -433415.000000 0 0 1
1.341238 -28.881503 -34.083634 44.694902 -1.524390 2.438095 0.024517 -0.006736 -194895.000000 0 0 1
-0.045462 -28.855103 -33.869098 44.494211 1.569221 2.435961 0.021885 -0.009734 -305807.000000 0 0 1
-0.391362 -27.913103 -32.882048 43.133787 1.556777 2.437697 0.022770 -0.007596 -406883.000000 0 0 1
-1.892462 -27.924203 -32.602688 42.968335 1.503128 2.432205 0.030696 -0.005408 -390715.000000 0 0 1
-2.305062 -27.379503 -31.377898 41.707589 1.486805 2.422389 0.027044 -0.011945 234381.000000 0 0 1
-3.290762 -26.366403 -31.511498 41.218817 1.446629 2.441051 0.048423 -0.014523 -31072.400000 0 0 1
-3.709962 -25.766903 -30.168998 39.848031 1.427797 2.429661 0.045966 -0.013537 -200424.000000 0 0 1
-4.278762 -26.769503 -29.330608 39.939938 1.412300 2.395531 0.039929 -0.008379 -51432.600000 0 0 1
-4.500162 -26.317003 -27.950358 38.653055 1.401436 2.379089 0.034703 -0.011348 54840.400000 0 0 1
-3.298162 -26.110303 -26.969018 37.682274 1.445145 2.368415 0.043787 -0.014832 467486.000000 0 0 1
-2.490862 -25.014903 -27.397998 37.183331 1.471548 2.399174 0.044975 -0.013998 -92338.700000 0 0 1
-1.524862 -24.585703 -26.477318 36.163938 1.508853 2.392265 0.039945 -0.011991 -1104800.000000 0 0 1
-0.806462 -23.286503 -27.038718 35.693191 1.536178 2.430320 0.040222 -0.017961 731227.000000 0 0 1
0.000338 -23.536503 -28.216318 36.744082 -1.570782 2.446376 0.019304 -0.016540 608533.000000 0 0 1
0.987238 -24.567603 -28.148398 37.374779 -1.530633 2.423617 0.026693 -0.014927 -714993.000000 0 0 1
1.814538 -24.804403 -29.420558 38.524281 -1.497773 2.439804 0.001861 -0.015209 -443020.000000 0 0 1
2.600738 -23.663703 -29.629058 38.008101 -1.461332 2.464737 0.009460 -0.013308 -373440.000000 0 0 1
3.337138 -23.966903 -30.782608 39.155050 -1.432446 2.475387 0.018202 -0.009943 -469901.000000 0 0 1
4.348438 -22.846203 -31.230028 38.938061 -1.382711 2.501506 0.021402 -0.013530 179496.000000 0 0 1
5.521238 -22.648303 -30.442848 38.343144 -1.331679 2.488088 0.014893 -0.022324 830589.000000 0 0 1
6.577438 -23.587803 -30.540868 39.145776 -1.298855 2.465755 0.017122 -0.012749 288150.000000 0 0 1
7.316238 -23.889003 -31.872598 40.497831 -1.273607 2.476760 0.023560 -0.009177 -382922.000000 0 0 1
6.511038 -24.795803 -32.602998 41.475064 -1.314007 2.475249 -0.001469 -0.005312 181112.000000 0 0 1
6.741338 -24.691803 -33.994348 42.552867 -1.304273 2.496216 0.000919 -0.005799 223911.000000 0 0 1
6.237038 -23.333703 34.051551 41.747700 -1.309605 0.616943 -0.000317 -0.002544 644330.000000 0 0 1
4.829438 -23.116903 34.161015 41.529382 -1.364845 0.604873 0.014271 -0.002199 202435.000000 0 0 1
4.478038 -22.023203 33.331030 40.199898 -1.370198 0.593243 0.015842 -0.007719 -1247450.000000 0 0 1
3.031138 -21.597803 33.504893 39.977878 -1.431362 0.577031 0.021600 -0.010737 -1151300.000000 0 0 1
2.099938 -22.554403 33.190140 40.183283 -1.477959 0.598878 0.026739 -0.006812 -595910.000000 0 0 1
1.825738 -23.509403 34.199885 41.541033 -1.493292 0.603632 0.019272 -0.003478 -262112.000000 0 0 1
0.520338 -24.308203 33.844995 41.673051 -1.549394 0.622959 0.030166 -0.004946 777610.000000 0 0 1
0.737738 -25.192103 32.806446 41.369665 -1.541520 0.655067 0.020266 -0.008092 1313390.000000 0 0 1
-0.570062 -25.529003 32.238085 41.126014 1.548470 0.669897 0.021904 -0.018006 1344690.000000 0 0 1
-0.677762 -26.803703 31.323475 41.231759 1.545516 0.707956 0.026038 -0.024066 -122232.000000 0 0 1
-1.946362 -26.910203 30.726825 40.891137 1.498594 0.720570 0.032148 -0.027624 -88324.500000 0 0 1
-2.014362 -28.065003 29.898755 41.056517 1.499144 0.755055 0.034963 -0.029658 -95943.200000 0 0 1
-3.360662 -28.206203 29.165045 40.712207 1.452209 0.772209 0.040892 -0.020702 4709.130000 0 0 1
-4.406662 -28.669203 29.997415 41.727530 1.418283 0.768595 0.050747 -0.014200 653358.000000 0 0 1
-5.605162 -28.831403 29.222925 41.432438 1.378780 0.787929 0.051099 -0.011748 759221.000000 0 0 1
-6.725462 -29.717503 29.813985 42.629045 1.348232 0.796264 0.060501 -0.011651 398949.000000 0 0 1
-7.858862 -29.967903 28.978395 42.421507 1.314329 0.818789 0.081086 -0.010209 536700.000000 0 0 1
-9.061562 -30.303003 29.625925 43.336812 1.280228 0.818085 0.071958 -0.010858 -11105.500000 0 0 1
-9.239162 -31.547103 30.565625 44.886961 1.285895 0.821742 0.048570 -0.004778 -636699.000000 0 0 1
-9.166862 -32.794303 29.917165 45.326972 1.298227 0.849938 0.057514 -0.007912 539630.000000 0 0 1
-10.396162 -33.196903 29.318245 45.493670 1.267304 0.870497 0.058708 -0.008298 131581.000000 0 0 1
-10.330062 34.185611 28.749255 45.846328 -1.277345 0.892999 0.069981 -0.011338 -309901.000000 0 0 1
-10.335962 33.210111 29.789025 45.794427 -1.269069 0.862561 0.054409 -0.005910 282438.000000 0 0 1
-10.046562 31.920011 29.251885 44.446521 -1.265870 0.852455 0.052579 -0.019823 -214451.000000 0 0 1
-10.304162 30.722711 30.177175 44.280047 -1.247194 0.820976 0.043761 -0.003431 898270.000000 0 0 1
-11.710662 30.629811 30.477185 44.768110 -1.205616 0.821971 0.031435 0.005526 790901.000000 0 0 1
-11.984062 29.489311 31.298975 44.641494 -1.184796 0.793832 0.025346 0.002112 72893.500000 0 0 1
-11.924662 29.698811 32.787205 45.817221 -1.188980 0.773301 0.021268 -0.013878 -582569.000000 0 0 1
-13.058162 30.382211 33.214655 46.870114 -1.164870 0.783209 0.024022 -0.001519 -117411.000000 0 0 1
-13.105762 30.413511 -34.091756 47.528839 -1.163923 2.370695 0.025619 -0.007476 102665.000000 0 0 1
-14.578262 30.558011 -33.627428 47.719196 -1.125662 2.352788 0.029295 -0.001122 164370.000000 0 0 1
-14.771862 30.179011 -32.287488 46.598954 -1.115604 2.336272 0.020208 -0.004226 -258960.000000 0 0 1
-16.074962 30.432611 -31.825948 46.876851 -1.084832 2.317096 0.018894 -0.006304 -105657.000000 0 0 1
-16.254862 30.026011 -30.395808 45.713095 -1.074611 2.298191 0.034925 -0.002745 -118770.000000 0 0 1
-16.186062 28.596311 -30.103688 44.564219 -1.055738 2.312456 0.028081 -0.009173 166619.000000 0 0 1
-16.262962 28.360511 -28.711868 43.510618 -1.050138 2.291458 0.025133 -0.008242 -247136.000000 0 0 1
-16.651762 26.971911 -28.199998 42.426467 -1.017700 2.297861 0.017305 -0.011741 37154.400000 0 0 1
-18.023362 26.714411 -28.406088 42.958203 -0.977275 2.293279 0.017386 -0.005775 -169010.000000 0 0 1
-18.400162 25.374211 -28.218688 42.174766 -0.943388 2.303779 0.008836 -0.012841 193695.000000 0 0 1
-19.875462 25.173311 -28.625118 42.989847 -0.902463 2.299439 0.017146 -0.017259 293896.000000 0 0 1
-20.887362 25.798111 -27.833998 43.319232 -0.890201 2.268595 0.033906 -0.021226 791817.000000 0 0 1
-22.137162 25.165211 -28.134428 43.759431 -0.849326 2.269119 0.046669 -0.020111 518115.000000 0 0 1
-23.228162 25.270711 -27.051518 43.702872 -0.827489 2.238249 0.070873 -0.030170 -30303.200000 0 0 1
-23.745362 26.568811 -26.869858 44.628838 -0.841456 2.216892 0.059902 -0.018876 165774.000000 0 0 1
-24.896262 26.576611 -26.017538 44.755474 -0.818032 2.191154 0.050414 -0.021429 401411.000000 0 0 1
-24.788062 26.287311 -24.498458 43.653696 -0.814743 2.166631 0.048370 -0.007909 -643339.000000 0 0 1
-24.613062 24.923111 -24.215958 42.583764 -0.791657 2.175680 0.044109 -0.010019 -155499.000000 0 0 1
-25.780392 24.148311 -23.965658 42.686325 -0.752722 2.166917 0.043247 -0.007583 568763.000000 0 0 1
-26.555172 24.415811 -22.562458 42.548484 -0.743451 2.129723 0.027725 -0.008706 197318.000000 0 0 1
-26.015672 23.862311 -21.387258 41.275173 -0.742252 2.115498 0.019733 -0.005280 719583.000000 0 0 1
-24.831662 24.593811 -20.974758 40.760366 -0.780586 2.111322 0.031149 -0.002627 894080.000000 0 0 1
-24.036462 23.949711 -19.797458 39.284596 -0.783590 2.098962 0.028451 -0.010100 28085.400000 0 0 1
-24.622062 24.102111 -18.515158 39.114815 -0.774727 2.063891 0.023832 -0.010650 -243821.000000 0 0 1
-23.702662 23.735911 -17.549558 37.857584 -0.786099 2.052814 0.024878 -0.012333 -577822.000000 0 0 1
-24.172562 23.829411 -16.086158 37.562189 -0.778250 2.013356 0.020328 -0.015534 -204598.000000 0 0 1
-24.345362 25.129911 -15.510358 38.272448 -0.801254 1.988061 0.021947 -0.023333 74523.600000 0 0 1
-24.842162 25.058711 -14.193658 38.033300 -0.789738 1.953242 -0.004704 -0.018401 139838.000000 0 0 1
-25.105292 26.410111 -13.512658 38.863371 -0.810721 1.925910 -0.001161 -0.015397 801034.000000 0 0 1
-23.873462 26.944511 -12.995358 38.273074 -0.845757 1.917227 0.027606 -0.025453 800363.000000 0 0 1
-24.110562 27.918211 -12.023958 38.798470 -0.858451 1.885893 0.032585 -0.020860 -245873.000000 0 0 1
-22.754362 28.499111 -11.620258 38.275197 -0.897017 1.879263 0.034818 -0.023939 -147930.000000 0 0 1
-21.996662 27.519811 -10.920658 36.884332 -0.896481 1.871381 0.041304 -0.029932 -403128.000000 0 0 1
-20.808162 28.056911 -10.418358 36.451503 -0.932666 1.860652 0.036355 -0.029570 -285476.000000 0 0 1
-19.928162 26.967411 -9.723358 34.912986 -0.934391 1.853031 0.056698 -0.026829 -227735.000000 0 0 1
-19.426062 26.147911 -10.692458 34.284308 -0.931836 1.887963 0.047211 -0.022893 -176538.000000 0 0 1
-18.619962 25.140111 -10.078758 32.868062 -0.933308 1.882460 0.045879 -0.017697 -17135.000000 0 0 1
-18.001862 24.172611 -11.169258 32.142409 -0.930682 1.925692 0.046438 -0.023496 -248426.000000 0 0 1
-17.538762 22.993011 -10.650658 30.817580 -0.919162 1.923678 0.043370 -0.017921 169420.000000 0 0 1
-16.930962 22.142811 -11.633858 30.204440 -0.918000 1.966189 0.053290 -0.018333 456218.000000 0 0 1
-16.460862 20.787011 -11.087958 28.740261 -0.901025 1.966870 0.042624 -0.009254 891961.000000 0 0 1
-17.653562 19.966211 -10.987258 28.827377 -0.846795 1.961825 0.047934 -0.003528 1084830.000000 0 0 1
-17.320162 18.607011 -10.721858 27.589257 -0.821201 1.969934 0.060149 -0.010970 -665283.000000 0 0 1
-18.517962 17.669611 -10.457658 27.649461 -0.761959 1.958672 0.053496 -0.002498 568321.000000 0 0 1
-19.308662 17.169411 -11.571958 28.311187 -0.726820 1.991871 0.046193 -0.001006 595590.000000 0 0 1
-20.103362 18.143911 -12.237558 29.717074 -0.734212 1.995227 0.046310 0.001378 -63810.800000 0 0 1
-20.904562 17.521911 -13.493358 30.431707 -0.697595 2.030183 0.058508 -0.000816 633795.000000 0 0 1
-20.111162 17.369811 -14.667758 30.353127 -0.712388 2.075145 0.062297 -0.005808 623412.000000 0 0 1
-20.939462 16.870211 -15.696758 31.136045 -0.678186 2.099176 0.048577 -0.002167 879459.000000 0 0 1
-19.979362 16.554211 -16.892458 30.960813 -0.691918 2.147910 0.076518 -0.011980 488220.000000 0 0 1
-19.416862 17.604811 -17.640758 31.593358 -0.736492 2.163215 0.047608 -0.014247 618994.000000 0 0 1
-18.345662 17.047911 -18.428458 31.093450 -0.748748 2.205178 0.047642 -0.013974 -236864.000000 0 0 1
-17.511962 18.106111 -19.087758 31.604471 -0.802078 2.219254 0.031208 -0.003412 -299493.000000 0 0 1
-16.537962 18.722011 -18.230658 30.925310 -0.847260 2.201244 0.031904 -0.007925 679442.000000 0 0 1
-15.875362 19.860211 -18.763658 31.599525 -0.896449 2.206564 0.056753 -0.005986 117914.000000 0 0 1
32.162858 31.463411 1.795342 45.029089 0.774406 1.530915 0.048680 -0.008742 -394667.000000 0 0 1
33.361358 31.006411 1.251742 45.562535 0.748829 1.543320 0.050181 -0.013505 -441375.000000 0 0 1
33.662538 31.748011 0.081642 46.272122 0.756137 1.569032 0.054293 -0.011409 367322.000000 0 0 1
35.056458 31.588211 -0.580558 47.192238 0.733404 1.583099 0.041156 -0.011738 459939.000000 0 0 1
-35.226148 32.213311 -0.004758 47.734463 -0.740753 1.570896 0.020532 -0.009378 224102.000000 0 0 1
-34.020732 31.964311 -0.714258 46.686588 -0.754243 1.586096 0.033561 -0.011970 103119.000000 0 0 1
-32.969952 33.017111 -0.278958 46.660745 -0.786113 1.576775 0.018215 -0.006574 -335420.000000 0 0 1
-32.393302 32.776411 0.961642 46.092775 -0.791277 1.549932 0.009115 -0.005760 -54443.900000 0 0 1
-31.837452 33.968811 1.514542 46.581083 -0.817775 1.538277 0.004191 -0.003274 -214541.000000 0 0 1
-31.208932 33.834211 2.914142 46.122050 -0.825738 1.507571 0.016534 -0.003532 -94665.500000 0 0 1
-30.901022 -33.796503 3.472442 45.925316 0.830122 1.495113 0.007701 -0.000394 149479.000000 0 0 1
-30.290632 -33.965003 4.785942 45.760781 0.842520 1.466019 0.023934 -0.005122 -47593.300000 0 0 1
-30.162842 -32.658103 5.632242 44.811504 0.825097 1.444776 0.029236 -0.004160 713334.000000 0 0 1
-31.429132 -32.138103 6.083342 45.361383 0.796551 1.436283 0.019542 -0.007866 507071.000000 0 0 1
-31.893132 -32.785303 7.213942 46.304308 0.799191 1.414365 0.011392 -0.015770 -1015640.000000 0 0 1
-33.092662 -32.164803 7.963842 46.830776 0.771181 1.399910 0.020017 -0.014842 318754.000000 0 0 1
-34.338623 -31.978703 7.338142 47.493439 0.749828 1.415666 0.004936 -0.009248 36053.600000 0 0 1
-34.991924 -33.186903 6.971642 48.727909 0.758930 1.427231 -0.002440 -0.010212 -1677460.000000 0 0 1
34.907488 -33.045003 6.891942 48.559281 -0.757996 1.428387 -0.002920 -0.000639 -1223730.000000 0 0 1
34.286718 -33.132803 8.120842 48.366411 -0.768284 1.402095 -0.007605 0.006308 820863.000000 0 0 1
32.923178 -32.659203 7.981642 47.055985 -0.781373 1.400352 -0.007582 0.014149 721054.000000 0 0 1
32.206768 -32.558703 9.313942 46.734297 -0.790832 1.370157 -0.007482 0.005676 -1015320.000000 0 0 1
30.846048 -32.357503 9.084242 45.618089 -0.809308 1.370319 -0.002747 -0.002021 -288685.000000 0 0 1
30.024418 -32.302803 10.241542 45.275003 -0.821937 1.342614 0.001046 0.001524 53483.200000 0 0 1
30.179568 -30.972803 11.077642 44.641180 -0.798369 1.320028 0.000306 0.003126 -563842.000000 0 0 1
29.611838 -29.724303 10.571042 43.268257 -0.787294 1.323984 0.022803 -0.010829 369240.000000 0 0 1
29.916748 -29.293003 9.209642 42.870844 -0.774864 1.354286 0.022377 -0.013179 -70950.000000 0 0 1
29.636398 -27.797203 8.945242 41.605503 -0.753386 1.354103 0.020434 -0.010993 -46820.200000 0 0 1
29.811688 -27.355103 7.609742 41.169728 -0.742452 1.384889 0.032598 -0.021181 171521.000000 0 0 1
29.197788 -26.074803 7.338542 39.827884 -0.728957 1.385481 0.006277 -0.012810 184996.000000 0 0 1
29.306198 -25.735503 5.820142 39.434038 -0.720616 1.422663 -0.007918 -0.006558 -340583.000000 0 0 1
30.617948 -25.447903 5.429042 40.181202 -0.693444 1.435268 0.025399 -0.015292 -582854.000000 0 0 1
30.739268 -25.257603 4.048142 39.990455 -0.687817 1.469395 0.026108 -0.012191 -659858.000000 0 0 1
32.085678 -24.736603 3.576442 40.671626 -0.656778 1.482748 0.041933 -0.017453 -36282.900000 0 0 1
33.038768 -25.811503 3.619942 42.082037 -0.663202 1.484669 0.029517 -0.010187 -418114.000000 0 0 1
34.361798 -25.347303 3.573642 42.848452 -0.635556 1.487297 0.038948 -0.017142 -380960.000000 0 0 1
35.340800 -26.487803 3.527042 44.305935 -0.643179 1.491105 0.035362 -0.017028 -566749.000000 0 0 1
35.152398 -27.201403 4.731642 44.698946 -0.658568 1.464742 0.019543 -0.013697 -88153.000000 0 0 1
35.626222 -28.559703 4.649542 45.896651 -0.675745 1.469318 0.015112 -0.010096 -763462.000000 0 0 1
35.089888 -29.581203 5.697742 46.247292 -0.700423 1.447281 0.012937 -0.009396 980032.000000 0 0 1
33.740698 -30.057003 5.563342 45.528111 -0.727722 1.448294 0.000225 -0.003776 655459.000000 0 0 1
32.747608 -29.083603 5.800542 44.180403 -0.726209 1.439124 0.006393 -0.001930 -283645.000000 0 0 1
31.285128 -29.546703 5.566142 43.390653 -0.756828 1.442162 0.011456 -0.005843 -92640.400000 0 0 1
31.086038 -29.937303 4.225042 43.363981 -0.766576 1.473209 0.004503 -0.008001 167305.000000 0 0 1
29.829608 -29.550303 3.675942 42.149003 -0.780695 1.483472 0.013720 -0.005001 315540.000000 0 0 1
28.651828 -30.513803 3.995142 42.047361 -0.816858 1.475638 0.017712 -0.007877 1783.820000 0 0 1
28.723178 -31.797603 3.399642 42.984486 -0.836154 1.491624 0.019136 0.004396 155206.000000 0 0 1
27.428918 -32.398703 3.424542 42.588132 -0.868276 1.490299 0.036290 0.004631 101322.000000 0 0 1
27.386518 -33.715803 2.652342 43.517946 -0.888615 1.509810 0.031088 0.003249 -169427.000000 0 0 1
27.265108 -33.533303 1.220142 43.236064 -0.888133 1.542572 0.035700 0.000725 298940.000000 0 0 1
27.208168 34.048911 0.499142 43.587405 0.896610 1.559345 0.031550 0.001825 -292850.000000 0 0 1
27.127708 34.253411 -1.037558 43.706810 0.900970 1.594538 0.027913 0.006107 -234810.000000 0 0 1
28.241478 -34.093703 -1.795358 44.307843 -0.879007 1.611328 0.021915 -0.001898 287659.000000 0 0 1
27.980878 -34.132803 -3.231358 44.254033 -0.884119 1.643880 0.029840 0.002328 160768.000000 0 0 1
29.067098 -33.449103 -4.108258 44.504117 -0.855378 1.663240 0.025582 -0.002320 63682.700000 0 0 1
29.216468 -32.070503 -3.967058 43.564397 -0.831933 1.661985 0.017139 0.006160 368398.000000 0 0 1
30.223818 -31.585503 -4.852458 43.984878 -0.807425 1.681342 0.011681 0.006918 68312.000000 0 0 1
30.476778 -30.117503 -4.594458 43.093004 -0.779469 1.677617 -0.001898 0.007249 44453.300000 0 0 1
29.386698 -29.338803 -5.121858 41.839895 -0.784583 1.693520 0.001080 -0.002903 688809.000000 0 0 1
29.632318 -27.910403 -5.070158 41.021596 -0.755483 1.694710 0.000840 -0.011943 -571302.000000 0 0 1
30.621268 -27.408403 -6.112658 41.548131 -0.730089 1.718455 0.018449 -0.017543 -385098.000000 0 0 1
31.904228 -27.771203 -5.607458 42.668056 -0.716250 1.702598 0.016563 -0.008253 346482.000000 0 0 1
33.065528 -27.458303 -6.376658 43.450538 -0.693017 1.718085 0.024662 -0.017319 491886.000000 0 0 1
33.221058 -28.384703 -7.623358 44.355897 -0.707054 1.743522 0.021728 -0.000455 -336450.000000 0 0 1
32.211138 -28.340103 -8.668458 43.770549 -0.721555 1.770157 0.010856 -0.002448 516471.000000 0 0 1
32.339348 -29.338003 -9.673758 44.722851 -0.736774 1.788824 -0.002079 0.008671 113214.000000 0 0 1
32.213808 -30.887003 -9.259158 45.579254 -0.764375 1.775364 -0.017953 0.015039 789703.000000 0 0 1
33.361008 -31.355103 -8.540058 46.572867 -0.754413 1.755210 -0.002422 0.008614 319725.000000 0 0 1
33.070808 -32.706803 -8.229958 47.235003 -0.779864 1.745924 0.004632 -0.000378 324931.000000 0 0 1
33.709928 -33.170803 -6.923058 47.797386 -0.777337 1.716149 0.014465 -0.004793 44551.400000 0 0 1
33.289118 34.386611 -6.471458 48.295798 0.801614 1.705197 0.024092 -0.006128 -85593.400000 0 0 1
32.877208 -34.373503 -5.137958 47.841897 -0.807644 1.678398 0.039359 -0.005276 -192797.000000 0 0 1
32.516538 33.060811 -4.542558 46.593747 0.793698 1.668444 0.036765 -0.004466 -339937.000000 0 0 1
31.453718 32.397611 -5.147158 45.447055 0.800180 1.684296 0.036979 -0.009973 -278359.000000 0 0 1
31.384868 31.028911 -4.902358 44.405364 0.779695 1.681422 0.052115 -0.003194 -92360.900000 0 0 1
30.262458 30.268211 -5.613358 43.168168 0.785493 1.701200 0.034838 0.000692 -430147.000000 0 0 1
30.565438 30.053411 -6.987458 43.431303 0.776952 1.732384 0.023109 0.001474 245245.000000 0 0 1
29.497658 29.416311 -7.676358 42.359859 0.784017 1.753021 0.021322 0.000696 152910.000000 0 0 1
29.742708 29.174511 -9.185458 42.663256 0.775754 1.787797 0.020175 0.003327 -144120.000000 0 0 1
30.514378 28.000611 -9.501558 42.490482 0.742465 1.796319 0.026112 0.000036 210629.000000 0 0 1
30.972518 27.874511 -10.799358 43.045457 0.732802 1.824388 0.027842 0.000037 388699.000000 0 0 1
32.073038 28.895811 -11.268758 44.616505 0.733333 1.826131 0.024271 -0.007208 11839.600000 0 0 1
33.366748 28.552711 -10.782658 45.220160 0.707807 1.811564 0.029216 -0.010995 81564.100000 0 0 1
34.338758 29.521811 -10.974058 46.595252 0.710112 1.808549 0.028183 -0.010452 -396691.000000 0 0 1
34.400968 30.626411 -9.885058 47.107515 0.727418 1.782208 0.019835 -0.008245 -212689.000000 0 0 1
35.217008 30.274811 -8.721158 47.253152 0.710078 1.756423 0.021016 -0.002408 426058.000000 0 0 1
34.922688 31.178511 -7.661058 47.438228 0.728816 1.733002 0.021226 -0.005619 -902458.000000 0 0 1
-35.312264 31.321811 -6.674958 47.671447 -0.725584 1.711278 0.005816 0.000417 -341811.000000 0 0 1
-34.132561 31.763511 -7.275458 47.189879 -0.749462 1.725588 0.017212 0.001928 -28325.000000 0 0 1
-33.351362 30.702411 -7.917558 46.017813 -0.744067 1.743711 0.020521 -0.001941 -804363.000000 0 0 1
-32.037182 31.268911 -8.506358 45.568453 -0.773263 1.758570 0.037908 -0.002451 -225777.000000 0 0 1
-31.205892 31.756511 -7.454058 45.142515 -0.794143 1.736679 0.035319 -0.003130 983225.000000 0 0 1
-29.924552 32.271711 -7.910958 44.716053 -0.823118 1.748648 0.022536 -0.004907 1060450.000000 0 0 1
-29.959882 33.612211 -8.684758 45.856300 -0.842787 1.761338 0.005150 -0.001497 -380798.000000 0 0 1
-30.242942 -33.968603 -7.961758 46.172406 0.843355 1.744098 -0.007182 -0.004457 914546.000000 0 0 1
-29.062192 -33.462703 -7.285558 44.915953 0.855662 1.733720 0.011805 -0.016819 923197.000000 0 0 1
-29.355522 -32.095603 -6.585258 43.991363 0.829958 1.721055 -0.017278 -0.014370 90715.100000 0 0 1
-30.251532 -32.151203 -5.475358 44.484094 0.815831 1.694195 -0.014105 -0.019170 -3255.970000 0 0 1
-29.926982 -32.939403 -4.355858 44.716910 0.833279 1.668361 -0.004448 -0.019542 -119382.000000 0 0 1
-31.038872 -32.953903 -3.269658 45.387905 0.815315 1.642897 0.014608 -0.022519 -30845.300000 0 0 1
-31.387622 -31.639503 -2.864058 44.659196 0.789395 1.634972 0.015240 -0.019544 89578.800000 0 0 1
-32.322422 -31.770603 -1.791358 45.357680 0.776789 1.610301 0.026341 -0.015573 -24722.000000 0 0 1
-33.110222 -30.522003 -1.492658 45.056714 0.744746 1.603931 0.042928 -0.013365 60474.100000 0 0 1
-34.009582 -30.621303 -0.396358 45.765412 0.733021 1.579457 0.038542 -0.010858 -24511.200000 0 0 1
-34.886637 -29.505603 -0.326358 45.692062 0.702025 1.577939 0.049225 -0.010505 252319.000000 0 0 1
35.549077 -29.697503 0.869642 46.329632 -0.695953 1.552024 0.049963 -0.006456 -79050.900000 0 0 1
34.435408 -30.574203 0.742142 46.055727 -0.726073 1.554682 0.021944 -0.004446 922960.000000 0 0 1
33.340838 -30.401403 1.649542 45.150612 -0.739316 1.534254 0.024809 -0.003318 923195.000000 0 0 1
32.562468 -29.041703 1.624142 43.662027 -0.728309 1.533590 0.010858 0.011782 -1377100.000000 0 0 1
31.773948 -28.802103 0.509842 42.888283 -0.736378 1.558908 0.000849 0.002811 -33900.600000 0 0 1
31.305938 -27.430003 0.454042 41.625388 -0.719505 1.559888 -0.004614 0.002143 -477330.000000 0 0 1
30.119188 -27.235603 -0.513058 40.610427 -0.735164 1.583430 -0.013093 0.000028 -18063.400000 0 0 1
28.878728 -27.737503 -0.042658 40.041875 -0.765244 1.571862 -0.011063 0.008484 202545.000000 0 0 1
28.671628 -29.165503 0.106642 40.898657 -0.793937 1.568189 -0.001774 0.007132 -907402.000000 0 0 1
28.422948 -29.985603 -1.206958 41.333486 -0.812146 1.600001 0.004893 0.008942 1143640.000000 0 0 1
27.030268 -29.743403 -1.544358 40.220522 -0.833150 1.609203 0.015493 0.016387 1226680.000000 0 0 1
26.820708 -29.977203 -2.899958 40.328561 -0.840915 1.642767 0.020345 0.010832 656179.000000 0 0 1
25.336538 -30.404003 -3.192258 39.705592 -0.876061 1.651281 0.034415 0.005644 1132330.000000 0 0 1
24.407738 -29.321603 -3.273458 38.291116 -0.876600 1.656390 0.046189 0.003667 -560974.000000 0 0 1
23.105838 -29.835103 -3.284058 37.878729 -0.911829 1.657605 0.037204 0.002026 -371518.000000 0 0 1
22.110238 -28.660003 -3.400158 36.356835 -0.913697 1.664455 0.036026 0.001641 -209249.000000 0 0 1
22.134438 -28.048103 -4.697958 36.037483 -0.902700 1.701532 0.039196 -0.003005 -100653.000000 0 0 1
21.558738 -26.796703 -4.693858 34.711306 -0.893300 1.706438 0.038151 -0.007589 -394704.000000 0 0 1
20.937838 -26.298003 -6.012558 34.148629 -0.898391 1.747789 0.037064 -0.020449 531947.000000 0 0 1
19.585738 -26.716403 -6.254058 33.711727 -0.938201 1.757393 0.033094 -0.016966 533074.000000 0 0 1
19.134038 -26.163303 -7.485958 33.266641 -0.939351 1.797769 0.048608 -0.018216 -1000750.000000 0 0 1
17.650838 -26.288903 -7.715358 32.591183 -0.979512 1.809797 0.042623 -0.011716 -912187.000000 0 0 1
16.848538 -25.596303 -6.803458 31.389982 -0.988650 1.789270 0.025105 -0.007451 -649620.000000 0 0 1
15.569738 -26.149103 -6.672458 31.156284 -1.033750 1.786629 0.025629 -0.009888 -548484.000000 0 0 1
14.870538 -25.266903 -5.623558 29.852532 -1.038847 1.760307 0.010848 -0.000358 -383932.000000 0 0 1
15.184038 -25.605203 -4.304458 30.078394 -1.035535 1.714397 0.005712 0.006014 71555.500000 0 0 1
14.596338 -24.692803 -3.402458 28.885365 -1.036934 1.688862 0.005580 0.010601 -10195.300000 0 0 1
14.613638 -25.176603 -1.926058 29.174123 -1.044879 1.636864 0.006424 0.012871 -191726.000000 0 0 1
13.747838 -26.251903 -1.748558 29.685399 -1.088377 1.629733 0.012989 0.013210 220218.000000 0 0 1
14.417738 -27.326703 -1.060258 30.915109 -1.085308 1.605099 0.018853 0.008545 -107717.000000 0 0 1
13.903638 -28.734003 -1.331958 31.948837 -1.120133 1.612499 0.021146 0.003707 119944.000000 0 0 1
12.610438 -28.929903 -0.788258 31.568715 -1.159733 1.595769 0.036292 -0.004906 106274.000000 0 0 1
11.874538 -30.103403 -1.165358 32.381747 -1.195076 1.606792 0.042179 -0.009859 58237.700000 0 0 1
12.429738 -31.544103 -0.926358 33.917355 -1.195436 1.598112 0.040146 -0.014000 -528839.000000 0 0 1
13.575538 -31.810603 -1.702858 34.628159 -1.167435 1.619992 0.029810 -0.011091 -397298.000000 0 0 1
14.022138 -33.104703 -1.352558 35.977369 -1.170138 1.608400 0.027410 -0.009301 -75492.100000 0 0 1
15.525238 -33.236303 -1.744458 36.725032 -1.133800 1.618315 0.024592 -0.005170 164890.000000 0 0 1
16.253038 -32.250603 -1.048958 36.129807 -1.103985 1.599833 0.023635 0.001819 -322859.000000 0 0 1
17.524538 -32.026603 -1.609658 36.543176 -1.070115 1.614859 0.034318 -0.000621 -162597.000000 0 0 1
18.379238 -30.966203 -0.897058 36.020922 -1.035151 1.595703 0.034790 0.000645 -150963.000000 0 0 1
17.993438 -29.659603 -1.207458 34.711868 -1.025491 1.605589 0.030002 0.003116 137367.000000 0 0 1
18.796738 -28.710503 -0.570358 34.321067 -0.991125 1.587415 0.016435 0.008928 -258714.000000 0 0 1
18.466938 -27.278603 -1.024458 32.957540 -0.975691 1.601886 0.012278 0.020902 -305683.000000 0 0 1
18.976738 -26.905703 -2.267058 33.002621 -0.956519 1.639544 0.012023 0.017384 -86786.200000 0 0 1
18.044738 -27.028103 -3.305058 32.665797 -0.982128 1.672148 0.017758 0.014819 -383926.000000 0 0 1
32.105758 -29.611403 13.752042 45.790103 -0.745004 1.265760 0.000718 0.002202 -85236.300000 0 0 1
32.768688 -30.088303 14.899642 46.915799 -0.742781 1.247617 0.009635 0.014042 394923.000000 0 0 1
31.874088 -30.472503 15.956642 46.895046 -0.762921 1.223600 0.006459 0.018149 -316266.000000 0 0 1
32.606088 -31.076103 17.135242 48.192298 -0.761377 1.207283 0.005297 0.017516 -419877.000000 0 0 1
31.834698 -31.441503 18.288742 48.337296 -0.779184 1.182776 0.003261 0.009641 337945.000000 0 0 1
32.683078 -31.640403 19.404142 49.455226 -0.769190 1.167603 -0.008959 0.008057 -209300.000000 0 0 1
33.404948 -32.960403 19.463742 50.804684 -0.778700 1.177636 -0.015551 0.014928 -1596380.000000 0 0 1
34.458778 -33.062003 18.633542 51.261216 -0.764715 1.198772 -0.016525 0.022063 -908452.000000 0 0 1
35.085828 -34.364603 18.698442 52.550670 -0.775014 1.207008 -0.010259 0.006265 -486327.000000 0 0 1
-35.168424 34.217011 17.751042 52.179703 -0.771687 1.223677 -0.013223 0.009481 -172913.000000 0 0 1
-34.100131 -33.682203 18.039442 51.212608 0.779233 1.210826 -0.004261 0.009878 532616.000000 0 0 1
-33.089842 -33.640903 17.054642 50.174782 0.793656 1.223981 0.005642 0.013473 -311378.000000 0 0 1
-31.980482 -32.639403 17.449342 48.913816 0.795595 1.206024 -0.004510 0.008691 -137640.000000 0 0 1
-30.890422 -32.531803 16.566842 47.822553 0.811273 1.217041 0.010078 0.008401 39049.800000 0 0 1
-31.148532 -31.756603 15.410442 47.076476 0.795064 1.237300 0.021654 0.005404 -312366.000000 0 0 1
-29.955382 -31.747303 14.400142 45.962814 0.814431 1.252131 0.020451 0.001746 -114593.000000 0 0 1
-28.824902 -31.200003 15.007142 45.050299 0.824946 1.231186 0.021145 -0.003151 -428569.000000 0 0 1
-27.791392 -31.124303 14.017842 44.017992 0.841909 1.246695 0.027906 -0.001221 799611.000000 0 0 1
-26.425552 -30.708703 14.663642 43.085457 0.860225 1.223519 0.032798 -0.003923 1102570.000000 0 0 1
-25.281772 -30.952703 13.830142 42.290787 0.885903 1.237643 0.035305 -0.005589 -182125.000000 0 0 1
-24.165162 -30.358003 14.404742 41.389129 0.898495 1.215325 0.022174 -0.005475 -525383.000000 0 0 1
-22.873262 -30.431003 13.569342 40.414837 0.926244 1.228393 0.035034 -0.005352 -31320.300000 0 0 1
-22.370662 -31.730003 13.318942 41.044291 0.956701 1.240311 0.027677 0.007178 -575001.000000 0 0 1
-21.167062 -31.542103 12.655542 40.038875 0.979749 1.249200 0.034217 -0.004591 -337453.000000 0 0 1
-20.487662 -32.873203 12.188042 40.607144 1.013469 1.265951 0.037322 0.000115 539493.000000 0 0 1
-21.357962 -33.603603 11.281942 41.384138 1.004621 1.294686 0.024994 -0.001102 606064.000000 0 0 1
-20.941962 33.895911 10.969542 41.325892 -1.017368 1.302136 0.020008 0.004472 457815.000000 0 0 1
-22.038362 33.268611 10.027342 41.146536 -0.985728 1.324619 0.021415 0.000983 469514.000000 0 0 1
-22.030062 33.701111 8.665842 41.184770 -0.991832 1.358798 0.020549 -0.004404 -355342.000000 0 0 1
-23.128662 33.236611 7.918642 41.259086 -0.962841 1.377673 0.023433 -0.005203 -565596.000000 0 0 1
-22.970862 33.295311 6.386442 40.951494 -0.966872 1.414206 0.019709 -0.005142 -400479.000000 0 0 1
-22.151962 32.357811 5.673342 39.622268 -0.970485 1.427117 0.020983 -0.009360 355297.000000 0 0 1
-20.750462 32.316811 5.897542 38.855359 -0.999998 1.418425 0.014567 -0.009902 247067.000000 0 0 1
-19.970462 33.575411 5.338642 39.428780 -1.034213 1.434980 0.016176 -0.010814 -553574.000000 0 0 1
-20.067862 -34.042603 6.117442 39.988011 1.038139 1.417211 0.022637 -0.010221 189096.000000 0 0 1
-19.379362 -34.224603 7.386542 40.018047 1.055570 1.385152 0.024625 -0.010326 -285859.000000 0 0 1
-19.256162 -32.991403 8.277942 39.086529 1.042469 1.357395 0.027342 -0.011623 -520148.000000 0 0 1
-18.348662 -32.005003 7.844142 37.716365 1.050236 1.361290 0.033174 -0.014260 -243693.000000 0 0 1
-18.211562 -30.804803 8.670242 36.820782 1.036878 1.333093 0.032594 -0.022604 119018.000000 0 0 1
-17.760362 -30.897303 10.136742 37.051684 1.049098 1.293679 0.030740 -0.017437 -774297.000000 0 0 1
-16.432962 -31.280403 10.204842 36.778317 1.087080 1.289638 0.032161 -0.021954 -1040660.000000 0 0 1
-15.925362 -31.195303 11.520342 36.871159 1.098780 1.253027 0.056160 -0.019785 -684883.000000 0 0 1
-14.478762 -31.586603 11.678742 36.657073 1.140993 1.246550 0.064496 -0.019386 -1226600.000000 0 0 1
-13.528962 -30.772103 11.116442 35.405231 1.156583 1.251417 0.042837 -0.014753 -61594.900000 0 0 1
-12.550862 -31.602203 10.452242 35.573483 1.192748 1.272574 0.053655 -0.005305 -38127.200000 0 0 1
-11.384162 -30.907303 9.765142 34.354308 1.217884 1.282574 0.049640 -0.002443 113229.000000 0 0 1
-10.512462 -30.256403 10.714942 33.775313 1.236399 1.247977 0.043287 -0.008434 71002.000000 0 0 1
-9.553562 -29.406703 10.137042 32.538966 1.256676 1.253988 0.038318 -0.006914 -99006.900000 0 0 1
-8.676362 -28.755903 11.182642 32.050471 1.277758 1.214392 0.038842 0.002437 -269313.000000 0 0 1
-9.346962 -27.764803 11.905442 31.622611 1.246066 1.184797 0.034660 -0.009020 -296954.000000 0 0 1
-8.666262 -27.400003 13.095442 31.580925 1.264465 1.143224 0.041904 -0.006422 -102834.000000 0 0 1
-8.942062 -25.957203 13.584342 30.631213 1.239036 1.111318 0.040672 -0.009934 349213.000000 0 0 1
-8.397462 -24.917703 12.737842 29.217493 1.245742 1.119685 0.023883 -0.005450 86683.400000 0 0 1
-9.372762 -24.433703 11.866642 28.734503 1.204508 1.145078 0.018588 -0.003256 154821.000000 0 0 1
-8.881962 -23.040403 11.245142 27.133054 1.202856 1.143464 0.005135 0.003137 378559.000000 0 0 1
-7.832762 -23.153703 10.307242 26.527068 1.244588 1.171733 0.001966 0.000395 -39255.200000 0 0 1
-7.221062 -21.907503 10.047542 25.160197 1.252395 1.159997 0.007715 0.008698 -352943.000000 0 0 1
-6.040762 -21.958403 9.074042 24.515311 1.302337 1.191639 0.006079 0.002332 -395065.000000 0 1 0
-4.965462 -22.614703 9.675342 25.093681 1.354658 1.174972 0.002964 0.000816 -1571830.000000 0 0 1
-3.867362 -22.611503 8.854342 24.589346 1.401400 1.202434 0.007139 -0.003941 -944555.000000 0 1 0
-2.754362 -23.549603 9.298942 25.468424 1.454365 1.197038 0.019213 -0.005659 -485037.000000 0 0 1
-2.011262 -23.031603 10.354842 25.332245 1.483691 1.149700 0.017068 0.001455 -841024.000000 0 0 1
-1.237262 -24.023703 10.923842 26.419679 1.519340 1.144530 0.024888 -0.008944 -698638.000000 0 0 1
-0.136162 -23.543903 11.822142 26.345719 1.565013 1.105451 0.022540 0.002329 -581271.000000 0 0 1
-0.664862 -23.192903 13.118542 26.654248 1.542138 1.056210 0.023974 0.009631 297980.000000 0 0 1
0.281338 -22.712003 14.086042 26.726967 -1.558410 1.015689 0.031699 0.005315 57991.500000 0 0 1
0.683138 -21.249603 13.953042 25.430290 -1.538659 0.990014 0.024227 -0.002184 -472648.000000 0 0 1
1.616238 -21.030303 12.956642 24.753998 -1.494094 1.019941 0.028492 -0.017414 -753028.000000 0 1 0
2.079738 -19.694303 12.992442 23.685321 -1.465585 0.990174 0.027031 -0.012746 195869.000000 0 1 0
3.610838 -19.789903 12.783542 23.834793 -1.390323 1.004702 0.039370 -0.010109 145059.000000 0 1 0
4.002538 -20.199003 11.457942 23.564899 -1.375175 1.063027 0.041578 -0.012248 171244.000000 0 1 0
5.382738 -20.588703 11.433642 24.157746 -1.315079 1.077773 0.048265 -0.008676 529198.000000 0 1 0
5.782538 -21.119503 10.089042 24.109332 -1.303545 1.139036 0.042836 -0.025801 -631769.000000 0 1 0
5.871038 -20.239203 8.980142 22.907146 -1.288463 1.167966 0.039762 -0.025987 -610099.000000 0 1 0
5.973838 -20.926103 7.710442 23.087647 -1.292720 1.230290 0.037768 -0.032580 -418241.000000 0 1 0
7.299438 -21.689503 7.361142 24.039608 -1.246160 1.259588 0.037399 -0.019658 321303.000000 0 1 0
8.391038 -20.918203 6.910542 23.574060 -1.189311 1.273285 0.051804 -0.028527 50216.900000 0 1 0
8.890238 -19.853603 7.757442 23.095016 -1.149782 1.228244 0.057196 -0.018995 -483541.000000 0 1 0
9.586438 -20.125503 9.112442 24.082613 -1.126261 1.182748 0.042286 -0.011345 99704.700000 0 1 0
8.696138 -20.222703 10.201942 24.262319 -1.164683 1.136817 0.045351 -0.017913 -706917.000000 0 1 0
9.349738 -19.685803 11.351142 24.572278 -1.127390 1.090605 0.041061 -0.017046 331960.000000 0 1 0
8.674938 -19.997603 12.693542 25.224684 -1.161497 1.043476 0.059885 -0.023799 -261407.000000 0 0 1
8.767138 -21.373003 13.045842 26.530396 -1.181531 1.056719 0.044849 -0.024842 -49752.600000 0 0 1
7.897638 -21.619203 14.137142 27.011505 -1.220551 1.019990 0.060649 -0.022647 207480.000000 0 0 1
7.922738 -23.031503 14.796042 28.498118 -1.239481 1.024889 0.052983 -0.020254 60921.000000 0 0 1
7.690438 -24.053703 13.882142 28.817309 -1.261348 1.068169 0.056348 -0.021259 -158508.000000 0 0 1
7.613538 -25.314003 14.571542 30.184342 -1.278639 1.067002 0.061736 -0.018759 239202.000000 0 0 1
7.506438 -26.542003 13.679342 30.788779 -1.295181 1.110408 0.058868 -0.023514 -31339.500000 0 0 1
8.755638 -26.846103 13.114342 31.134553 -1.255532 1.136012 0.052855 -0.017999 -234910.000000 0 0 1
8.709038 -27.843803 12.080642 31.576361 -1.267655 1.178204 0.046966 -0.015177 -288188.000000 0 0 1
10.081038 -28.059003 11.406242 31.922364 -1.225878 1.205408 0.044258 -0.018702 -338236.000000 0 0 1
10.892138 -28.731403 12.316142 33.103165 -1.208434 1.189576 0.042373 -0.017627 35575.000000 0 0 1
12.042038 -29.295403 11.682542 33.759637 -1.180796 1.217438 0.054487 -0.013963 441218.000000 0 0 1
13.005938 -30.112203 12.569042 35.126628 -1.163082 1.204863 0.036460 -0.015308 -754732.000000 0 0 1
13.518038 -29.325703 13.636742 35.052745 -1.138864 1.171213 0.034869 -0.018543 376.215000 0 0 1
14.401738 -30.020403 14.481742 36.309165 -1.123494 1.160539 0.042429 -0.020976 185911.000000 0 0 1
15.821338 -30.196003 13.900542 36.814921 -1.088169 1.183616 0.038935 -0.016997 -551556.000000 0 0 1
16.566538 -28.970703 13.738342 36.090079 -1.051342 1.180278 0.031015 -0.024109 1154310.000000 0 0 1
17.842638 -29.247803 13.117442 36.685978 -1.023019 1.205142 0.027903 -0.019878 614796.000000 0 0 1
18.654838 -27.957203 12.941342 36.015087 -0.982380 1.203245 0.021107 -0.027131 -740852.000000 0 0 1
19.931838 -28.192403 12.435042 36.697684 -0.955392 1.225101 0.012939 -0.025349 -448125.000000 0 0 1
20.622638 -26.953003 12.303442 36.098923 -0.917680 1.223001 0.012450 -0.025469 555507.000000 0 0 1
22.059638 -27.123003 11.686442 36.862689 -0.887987 1.248204 0.015295 -0.021661 210291.000000 0 0 1
22.916538 -27.726603 12.590442 38.111041 -0.880094 1.234109 0.024488 -0.027056 -925305.000000 0 0 1
24.118138 -27.962903 11.916142 38.802100 -0.859087 1.258652 0.015811 -0.032115 -963804.000000 0 0 1
25.124338 -28.884403 12.620742 40.309108 -0.854906 1.252342 0.022355 -0.024360 847047.000000 0 0 1
26.252638 -28.269903 13.312942 40.812042 -0.822380 1.238514 0.012963 -0.016058 1532520.000000 0 0 1
27.383038 -28.048403 12.460142 41.131482 -0.797401 1.263026 -0.003784 -0.008173 799321.000000 0 0 1
28.636338 -27.335703 13.102842 41.700899 -0.762165 1.251172 0.021288 -0.010920 626461.000000 0 0 1
28.449438 -25.960203 13.426542 40.786942 -0.739680 1.235354 0.026325 -0.008546 -399059.000000 0 0 1
27.460438 -25.702603 14.372942 40.265132 -0.752345 1.205788 0.031356 -0.010936 -716951.000000 0 0 1
27.868938 -25.360203 15.849842 40.878296 -0.738302 1.172626 0.021701 -0.001540 -22236.500000 0 0 1
28.560238 -26.488903 16.460842 42.288396 -0.747789 1.170977 0.015572 -0.002220 468961.000000 0 0 1
29.021138 -26.111203 17.712042 42.868844 -0.732666 1.144866 0.020603 0.005542 -473992.000000 0 0 1
29.551038 -27.270103 18.500942 44.262932 -0.745277 1.139578 0.013557 0.016614 6509.810000 0 0 1
28.547638 -28.089703 19.097942 44.370378 -0.777313 1.125837 0.009686 0.008920 221246.000000 0 0 1
29.097038 -29.223203 19.722442 45.712229 -0.787561 1.124699 0.010926 0.008608 163667.000000 0 0 1
27.980038 -30.232603 20.078742 45.826288 -0.824074 1.117258 0.006611 0.015875 -361350.000000 0 0 1
27.142938 -29.726703 21.127542 45.461951 -0.830800 1.087466 -0.000619 0.019010 976997.000000 0 0 1
26.071238 -30.567103 21.605042 45.616171 -0.864611 1.077392 -0.011575 0.017296 971630.000000 0 0 1
24.909438 -30.882803 20.638642 44.723385 -0.892056 1.091141 0.019313 0.008805 -825513.000000 0 0 1
25.341438 -31.826503 19.721842 45.211346 -0.898354 1.119409 0.015755 0.008724 -39806.700000 0 0 1
24.625638 -31.940403 18.503742 44.373413 -0.913998 1.140653 0.023931 0.003862 -161381.000000 0 0 1
25.198638 -30.898903 17.458642 43.526058 -0.886664 1.158070 0.023583 0.007638 -305634.000000 0 0 1
26.442738 -31.256603 16.948942 44.310949 -0.868636 1.178296 0.013559 0.004480 -357922.000000 0 0 1
26.841138 -30.288103 15.946342 43.498295 -0.845661 1.195448 0.021057 -0.008180 -450246.000000 0 0 1
28.235538 -30.588403 15.402042 44.386021 -0.825375 1.216424 0.022264 -0.004504 -777349.000000 0 0 1
28.266538 -31.501603 14.319342 44.680999 -0.839472 1.244561 0.035501 0.001927 303353.000000 0 0 1
28.217938 -32.858403 14.678142 45.731548 -0.861231 1.244050 0.017573 -0.001865 -468114.000000 0 0 1
27.325738 -33.773103 13.830942 45.591813 -0.890533 1.262575 0.021601 0.000765 -419393.000000 0 0 1
27.802438 -34.029503 12.531342 45.694826 -0.885769 1.292997 0.028840 -0.006520 258303.000000 0 0 1
27.158038 33.662411 11.941542 44.870005 0.891937 1.301414 0.031046 -0.014621 -350823.000000 0 0 1
27.646038 33.353811 10.528042 44.582729 0.878697 1.332398 0.034083 -0.020268 17405.600000 0 0 1
28.878438 32.658911 10.652142 44.878021 0.846755 1.331151 0.008290 -0.013834 181405.000000 0 0 1
29.094238 31.792911 9.578142 44.147533 0.829692 1.352100 0.006496 -0.018049 131592.000000 0 0 1
30.512038 31.176311 9.743942 44.697776 0.796166 1.351036 -0.017072 -0.008617 359054.000000 0 0 1
30.570038 30.274911 10.836642 44.368122 0.780548 1.324056 -0.019668 -0.002653 -233191.000000 0 0 1
31.914338 29.924611 11.025142 45.117192 0.753233 1.323930 -0.021427 -0.000857 -139422.000000 0 0 1
32.236838 28.840711 12.139442 44.926232 0.729852 1.297187 -0.016679 0.013447 -117648.000000 0 0 1
32.003738 27.514211 11.789342 43.820767 0.710109 1.298405 -0.013474 0.009288 226654.000000 0 0 1
32.166838 26.709511 12.930842 43.764256 0.692971 1.270853 0.004448 -0.007474 -462026.000000 0 0 1
32.081238 25.257511 12.643942 42.743619 0.666948 1.270494 -0.002693 -0.016627 65925.900000 0 0 1
33.142938 24.743311 11.833842 43.020060 0.641298 1.292126 0.003781 -0.009986 79935.600000 0 0 1
33.183538 23.314611 11.778342 42.230884 0.612466 1.288144 0.015917 -0.016542 -82705.200000 0 0 1
32.004938 22.621811 10.976542 40.700698 0.615290 1.297726 0.004312 -0.013851 421928.000000 0 0 1
30.805338 22.771411 11.676842 40.048154 0.636555 1.274929 0.000983 -0.017280 -204473.000000 0 0 1
29.651238 22.925111 10.833442 39.014357 0.658159 1.289420 -0.013674 -0.005770 -110710.000000 0 0 1
28.402938 22.567411 11.621842 38.093072 0.671406 1.260763 -0.027784 -0.000556 -706384.000000 0 0 1
28.274438 23.273511 12.808842 38.796476 0.688686 1.234329 -0.017458 0.001145 -510641.000000 0 0 1
27.331738 22.591911 13.558442 37.963794 0.690740 1.205591 0.015983 -0.008552 -578664.000000 0 0 1
23.641738 9.657711 26.285045 36.648420 0.387815 0.770989 0.009918 -0.012649 -359819.000000 0 0 1
23.298138 8.341111 26.729895 36.426153 0.343798 0.746882 0.023328 -0.025325 319443.000000 0 0 1
21.892838 8.171211 26.795095 35.553370 0.357224 0.717186 0.032331 -0.027337 -204720.000000 0 0 1
21.572838 6.817911 27.454695 35.575715 0.306108 0.689246 0.048335 -0.029065 -706574.000000 0 0 1
21.695638 6.774311 28.882555 36.753149 0.302651 0.666723 0.043354 -0.024648 1499660.000000 0 0 1
23.067938 6.414211 29.227035 37.782157 0.271206 0.686345 0.032769 -0.021740 1242520.000000 0 0 1
23.226038 6.313511 30.744005 39.044885 0.265416 0.664214 0.029962 -0.020665 -266520.000000 0 0 1
23.193438 7.559711 31.419335 39.777624 0.315083 0.660192 0.034416 -0.016821 283376.000000 0 0 1
23.598738 7.479311 32.766359 41.066711 0.306922 0.647024 0.026067 -0.007746 -93038.700000 0 0 1
23.514238 8.707911 33.625883 41.945764 0.354666 0.640744 0.036060 -0.009060 541811.000000 0 0 1
24.486238 9.700911 33.219674 42.393752 0.377207 0.670360 0.015537 -0.010689 598667.000000 0 0 1
25.017238 10.389711 34.338497 43.737177 0.393628 0.667923 0.021920 -0.003907 -73422.500000 0 0 1
26.035538 11.506911 34.041478 44.374322 0.416156 0.696420 0.017495 -0.007229 -299772.000000 0 0 1
25.482338 12.761011 33.648701 44.095669 0.464270 0.702725 0.015271 -0.003170 360470.000000 0 0 1
25.308938 13.595711 -33.992168 44.506777 0.492955 2.439903 0.014526 -0.011584 -663379.000000 0 0 1
24.942438 15.055111 -34.369322 45.055875 0.543058 2.438453 0.013323 -0.008318 -845057.000000 0 0 1
25.848538 15.731111 33.585593 45.206270 0.546710 0.733343 0.013706 -0.005928 -209434.000000 0 0 1
25.483838 17.083311 33.580247 45.485146 0.590554 0.740297 0.013235 -0.009369 88564.500000 0 0 1
26.337138 17.935511 -34.200234 46.743806 0.597858 2.391540 0.011312 -0.009271 -177244.000000 0 0 1
25.888438 17.772611 -32.877388 45.464267 0.601613 2.379145 0.010181 -0.015083 499127.000000 0 0 1
26.914138 17.339911 -31.953848 45.233746 0.572335 2.355218 0.005214 -0.011154 74327.600000 0 0 1
26.327838 16.621611 -30.705998 43.729753 0.563140 2.349246 0.009896 -0.011264 18887.400000 0 0 1
25.529538 15.487511 -30.952318 43.007747 0.545295 2.374154 0.009758 -0.008682 10150.600000 0 0 1
24.734638 15.286011 -29.794718 41.631595 0.553550 2.368387 0.015361 -0.009879 7740.040000 0 0 1
23.805238 14.054511 -29.916468 40.733447 0.533328 2.395645 0.020835 -0.008442 165741.000000 0 0 1
22.958338 14.193311 -31.087298 41.169837 0.553709 2.426601 0.021704 -0.014098 666129.000000 0 0 1
22.494838 12.949211 -31.689198 40.962240 0.522325 2.455330 0.032250 -0.004082 279285.000000 0 0 1
21.486038 12.013711 -30.937538 39.536190 0.509834 2.469486 0.029935 -0.002250 -367638.000000 0 0 1
20.226338 12.575611 -30.659468 38.823366 0.556255 2.481144 0.031938 -0.007217 -312020.000000 0 0 1
19.563338 11.550111 -30.000078 37.631555 0.533328 2.493448 0.029337 -0.006142 -511830.000000 0 0 1
18.376138 12.042711 -29.142848 36.496780 0.580124 2.495603 0.029934 -0.002907 46669.700000 0 0 1
17.316738 12.530811 -29.950158 36.795416 0.626406 2.521741 0.012501 0.009874 -156291.000000 0 0 1
16.127438 12.610311 -29.224958 35.682102 0.663617 2.530527 0.003284 0.001672 -1005880.000000 0 0 1
15.040038 13.419111 -29.922758 36.078342 0.728503 2.548798 -0.002772 0.000967 -402432.000000 0 0 1
14.317038 12.768111 -30.915058 36.383280 0.728273 2.586222 -0.011210 0.011339 855251.000000 0 0 1
13.045238 12.225211 -30.464068 35.322705 0.752960 2.610887 -0.006320 0.015990 645766.000000 0 0 1
12.216338 11.487011 -31.487628 35.674376 0.754639 2.652246 -0.001142 0.017650 -163435.000000 0 0 1
11.874038 12.432011 -32.477598 36.747001 0.808350 2.654754 0.008812 0.013490 -535965.000000 0 0 1
10.814638 12.024511 -33.272988 36.995094 0.838322 2.689167 0.025027 0.018538 -363804.000000 0 0 1
10.444538 13.016911 34.361117 38.199669 0.894604 0.452142 0.034527 0.012917 10922.700000 0 0 1
11.231138 12.920011 33.181054 37.336945 0.855214 0.476311 0.022164 0.015164 314755.000000 0 0 1
10.546738 13.537311 32.096785 36.396374 0.908938 0.490988 0.028786 0.005596 -265578.000000 0 0 1
11.355238 13.503411 30.806425 35.500977 0.871600 0.520114 0.025149 0.007924 -451540.000000 0 0 1
11.683138 12.188511 30.516295 34.875489 0.806565 0.505346 0.015267 0.006818 8745.650000 0 0 1
11.784638 12.038711 29.112605 33.635576 0.796063 0.524588 0.023994 0.008015 -365463.000000 0 0 1
12.154338 10.655711 28.585945 32.839433 0.719792 0.514627 0.027670 0.010379 -273611.000000 0 0 1
11.273638 9.586411 28.781695 32.363253 0.704691 0.474913 0.022325 0.003212 -340972.000000 0 0 1
11.883138 8.350111 28.405365 31.902948 0.612526 0.472643 0.028146 -0.009630 -108577.000000 0 0 1
11.004638 7.119311 28.538875 31.404681 0.574219 0.430527 0.011687 -0.003088 189775.000000 0 0 1
9.943738 6.925211 27.608005 30.150264 0.608332 0.413599 0.010783 -0.004958 -281181.000000 0 0 1
9.050438 5.895611 27.901185 29.918970 0.577371 0.369361 0.009441 -0.014958 -535886.000000 0 0 1
9.406938 4.435911 27.489765 29.391409 0.440636 0.361692 0.027580 -0.017770 -389655.000000 0 0 1
10.537438 3.937311 28.150755 30.315095 0.357586 0.380160 0.022830 -0.014826 -81409.100000 0 0 1
10.691338 2.651411 27.670745 29.782626 0.243092 0.378851 0.031912 -0.008965 50884.700000 0 0 1
11.431538 1.755911 28.682365 30.926386 0.152411 0.383288 0.026890 -0.010953 -108997.000000 0 0 1
10.582638 1.542411 29.759775 31.623021 0.144730 0.344988 0.032787 -0.010950 -145210.000000 0 0 1
10.551738 0.213811 30.232545 32.021737 0.020260 0.335865 0.039330 -0.005714 545213.000000 0 0 1
9.495238 0.055811 31.390795 32.795497 0.005878 0.293740 0.058025 -0.007828 470686.000000 0 0 1
9.815238 0.822911 32.508635 33.968035 0.083645 0.294194 0.029110 -0.007364 -364607.000000 0 0 1
8.679838 1.036911 33.279093 34.408034 0.118899 0.256871 0.041954 -0.014531 -527502.000000 0 0 1
8.805238 2.275811 34.176198 35.365577 0.252926 0.260082 0.037852 -0.011802 -151832.000000 0 0 1
8.803138 3.532811 33.464519 34.782898 0.381637 0.276206 0.020891 -0.011482 448402.000000 0 0 1
9.922438 3.816511 32.624305 34.312764 0.367190 0.315014 0.007093 -0.004837 -3660.530000 0 0 1
9.776738 5.206311 31.943825 33.809735 0.489324 0.333778 0.004147 -0.002429 26952.300000 0 0 1
9.956538 6.285211 32.803564 34.852694 0.563092 0.344614 -0.001347 0.002341 23774.000000 0 0 1
10.292338 7.485211 32.131205 34.559730 0.628788 0.377118 0.002481 0.001589 -114507.000000 0 0 1
10.145538 8.733611 33.049349 35.657641 0.710749 0.384858 0.014831 0.002911 315828.000000 0 0 1
8.824838 9.066211 33.466781 35.778476 0.798889 0.361440 0.019220 -0.001837 192411.000000 0 0 1
8.468938 8.397611 -34.093682 36.119551 0.781169 2.805081 0.019033 0.000320 -136347.000000 0 0 1
7.094638 8.745511 -33.487428 35.330238 0.889244 2.817187 0.029016 0.003277 180251.000000 0 0 1
6.665938 7.852811 -32.433478 34.029868 0.866964 2.834077 0.038444 0.009669 99967.500000 0 0 1
5.284638 8.096611 -32.243178 33.661626 0.992527 2.850259 0.045379 0.003198 268401.000000 0 0 1
4.655238 7.336511 -31.031798 32.225272 1.005373 2.868586 0.044116 0.001976 -247685.000000 0 0 1
5.086338 7.883011 -29.802928 31.244635 0.997783 2.836628 0.047922 0.001092 384093.000000 0 0 1
4.456138 7.331211 -28.619948 29.878174 1.024639 2.850351 0.027585 0.002357 1594300.000000 0 0 1
2.941838 7.744411 -28.319678 29.506516 1.207766 2.857004 0.039119 -0.001212 1860070.000000 0 0 1
2.022838 6.998511 -29.159018 30.055272 1.289426 2.896768 0.036498 0.003200 -104604.000000 0 0 1
0.696738 7.297611 -28.828168 29.745653 1.475610 2.892578 0.028375 0.008646 -348942.000000 0 0 1
-0.296962 6.691311 -29.858898 30.600909 -1.526445 2.920927 0.026974 0.001492 -12007.800000 0 0 1
-0.402362 7.365111 -31.073238 31.936701 -1.516220 2.908529 0.051924 0.002233 211182.000000 0 0 1
-0.322562 6.452911 -32.202748 32.844499 -1.520851 2.943588 0.050530 -0.008520 -374092.000000 0 0 1
0.005838 7.089911 -33.577318 34.317680 1.569973 2.933498 0.068465 -0.015190 -169516.000000 0 0 1
1.360138 7.375211 -33.841428 34.662458 1.388425 2.923508 0.053672 -0.010669 -15082.600000 0 0 1
2.081738 6.361511 34.215158 34.863727 1.254540 0.193189 0.054165 -0.008864 -164176.000000 0 0 1
1.892138 6.311711 32.691215 33.348664 1.279539 0.198895 0.051935 -0.018635 -143648.000000 0 0 1
0.675738 5.705611 32.235985 32.743997 1.452912 0.176380 0.064657 -0.015506 260984.000000 0 0 1
0.619138 5.573411 30.846925 31.352496 1.460162 0.179827 0.081148 -0.020029 320735.000000 0 0 1
1.234438 4.323611 30.094335 30.428382 1.292685 0.148312 0.090441 -0.024688 223744.000000 0 0 1
1.154938 4.542811 28.698605 29.078874 1.321837 0.161900 0.077445 -0.018388 -25342.000000 0 0 1
1.798738 3.555411 27.947205 28.229819 1.102427 0.141619 0.055674 -0.011260 2166.750000 0 0 1
1.676038 3.882911 26.442975 26.779040 1.163311 0.158593 0.063407 -0.014465 -65488.700000 0 0 1
2.349438 5.065711 26.142955 26.732665 1.136532 0.210433 0.054574 -0.011469 -175300.000000 0 0 1
2.364038 5.369411 24.730925 25.417275 1.156056 0.232919 0.052521 -0.018210 -510532.000000 0 0 1
2.828538 6.818911 24.409865 25.501758 1.177590 0.293685 0.046824 -0.018795 -217205.000000 0 0 1
4.182138 7.068811 24.648405 25.980805 1.036552 0.321647 0.032632 -0.009985 -880137.000000 0 0 1
4.947938 6.799711 23.517145 24.975473 0.941741 0.343417 0.028110 -0.020734 -940478.000000 0 1 0
6.473338 6.788511 23.678825 25.469093 0.809159 0.377177 0.041124 -0.017570 -182901.000000 0 0 1
7.085838 5.732211 24.419455 26.064863 0.680185 0.357220 0.035575 -0.021904 -152436.000000 0 0 1
6.735838 4.356611 24.249345 25.541775 0.574109 0.319478 0.043053 -0.019883 -745747.000000 0 0 1
6.749638 3.719411 22.808645 24.075421 0.503652 0.325837 0.047007 -0.022626 260453.000000 0 1 0
5.807038 4.215711 21.855145 23.003071 0.627941 0.317250 0.025709 -0.023931 -336797.000000 0 1 0
4.561038 3.574711 21.945245 22.697475 0.664753 0.258172 0.029000 -0.022710 156591.000000 0 1 0
3.467638 4.043111 20.907745 21.575566 0.861869 0.249454 0.019934 -0.022913 397091.000000 0 1 0
2.904238 5.246311 21.292445 22.120727 1.065211 0.274517 0.015215 -0.019121 -464254.000000 0 1 0
1.810338 5.573111 20.477645 21.299550 1.256714 0.278707 0.018714 -0.017770 -173729.000000 0 1 0
1.498138 7.106111 20.664345 21.903342 1.363015 0.337959 0.028579 -0.007979 89509.200000 0 1 0
2.470938 7.918311 20.045045 21.693524 1.268318 0.392357 0.030063 -0.014856 -263692.000000 0 1 0
2.170038 9.294211 20.188245 22.330621 1.341423 0.441619 0.045237 -0.014228 -305222.000000 0 1 0
3.229538 10.207411 19.627645 22.357674 1.264370 0.499352 0.059441 -0.026199 -1339000.000000 0 1 0
3.152638 10.512511 18.259245 21.303803 1.279437 0.541205 0.028346 -0.019095 -455451.000000 0 1 0
4.035938 11.480011 17.757545 21.526956 1.232730 0.600774 0.023578 -0.020308 -48855.900000 0 1 0
5.531138 11.077011 17.795545 21.678908 1.107681 0.607865 0.036592 -0.026168 -398746.000000 0 1 0
5.683738 9.846311 17.101445 20.535679 1.047276 0.586709 0.028525 -0.025716 -296951.000000 0 1 0
6.976638 9.394211 17.443045 21.004392 0.932014 0.590886 0.025725 -0.016095 36163.900000 0 1 0
7.111538 7.905811 17.817345 20.749303 0.838239 0.538076 0.037044 -0.019884 -241586.000000 0 1 0
6.638738 7.701311 19.115145 21.651138 0.859361 0.488857 0.042022 -0.025940 -210698.000000 0 1 0
6.814038 6.376411 19.613445 21.720427 0.752233 0.444105 0.043741 -0.033372 187141.000000 0 1 0
8.232538 5.991611 20.108345 22.539290 0.629139 0.468722 0.066559 -0.020876 3664.390000 0 1 0
9.176738 5.878211 19.064145 21.959223 0.569707 0.519311 0.059965 -0.017241 -406121.000000 0 1 0
10.469938 5.501211 19.470545 22.781243 0.483783 0.545873 0.074390 -0.015190 3333.480000 0 1 0
10.661638 3.960511 19.552245 22.619603 0.355675 0.526853 0.087546 -0.013226 -337082.000000 0 1 0
9.850738 3.351211 20.535545 23.021213 0.327917 0.468986 0.080536 -0.015875 -150622.000000 0 1 0
9.979838 1.937311 20.399645 22.792451 0.191738 0.462326 0.069950 -0.020440 -286800.000000 0 1 0
9.017338 1.207811 21.302745 23.164156 0.133151 0.403627 0.070890 -0.018156 -414534.000000 0 1 0
9.318238 1.317811 22.692445 24.566506 0.140491 0.393129 0.073849 -0.015122 178705.000000 0 1 0
8.654438 0.305311 23.451245 24.999068 0.035263 0.353737 0.065756 -0.019911 -280124.000000 0 1 0
9.192538 0.276811 24.894565 26.539004 0.030103 0.353875 0.061917 -0.014791 85130.300000 0 0 1
10.509138 -0.227889 25.024595 27.142665 -0.021681 0.397671 0.063863 -0.015214 227781.000000 0 0 1
10.611238 -1.662589 24.990265 27.200660 -0.155418 0.405925 0.056006 -0.010565 -926856.000000 0 0 1
12.010938 -2.181389 25.218225 28.017494 -0.179659 0.450824 0.043268 -0.004393 -703568.000000 0 0 1
11.912738 -3.613889 25.225705 28.130227 -0.294540 0.458433 0.047276 0.000041 1354130.000000 0 0 1
13.222338 -4.232989 25.342545 28.896245 -0.309829 0.501175 0.041636 0.006190 1030590.000000 0 0 1
13.092338 -5.737589 25.484395 29.219576 -0.413032 0.511179 0.039654 -0.001476 -184617.000000 0 0 1
12.738938 -6.309589 24.291755 28.145707 -0.459880 0.529477 0.041591 -0.003325 173641.000000 0 0 1
12.428738 -7.688589 24.481935 28.512332 -0.553994 0.538179 0.039731 -0.015311 -94574.900000 0 0 1
12.591738 -8.539389 23.223545 27.763394 -0.595927 0.579967 0.053298 -0.014891 -116245.000000 0 0 1
12.184638 -9.842689 23.437845 28.190007 -0.679476 0.589131 0.056332 -0.007794 -333675.000000 0 0 1
12.339638 -10.590089 22.219645 27.534147 -0.709245 0.631767 0.048779 -0.016720 -348928.000000 0 0 1
11.564838 -11.856089 22.284145 27.765004 -0.797833 0.639158 0.058158 -0.009780 269668.000000 0 0 1
10.146638 -11.718489 22.399545 27.239986 -0.857163 0.605349 0.046361 -0.003585 239971.000000 0 0 1
9.552838 -13.016389 22.239045 27.481962 -0.937674 0.627967 0.035447 -0.001879 -183122.000000 0 0 1
8.088538 -12.954889 22.672345 27.336584 -1.012656 0.592804 0.020718 0.003756 -41629.700000 0 0 1
7.241638 -12.171289 21.854545 26.042326 -1.034078 0.574998 0.014399 0.002012 87840.700000 0 0 1
5.849638 -12.186389 22.115845 25.919817 -1.123265 0.548628 0.012398 0.000982 600332.000000 0 0 1
5.144238 -11.015489 21.360045 24.577545 -1.133895 0.517441 -0.001779 0.004228 126378.000000 0 1 0
5.371938 -9.721289 21.990745 24.636437 -1.065963 0.467693 0.001562 0.005508 -116567.000000 0 1 0
4.767838 -8.641889 21.268345 23.446898 -1.066639 0.434488 -0.004024 0.009639 267032.000000 0 1 0
5.052138 -7.268789 21.929045 23.648306 -0.963403 0.383666 0.003020 0.008109 88212.100000 0 1 0
4.543238 -6.145589 21.220745 22.555028 -0.934199 0.345686 -0.005735 0.001940 -85608.800000 0 1 0
5.037338 -4.857789 21.672145 22.773993 -0.767255 0.312337 0.018481 -0.006641 55397.400000 0 1 0
-8.036562 -15.040289 -20.800258 26.896977 1.080059 2.454874 0.006421 0.007310 2335.340000 0 0 1
-7.316262 -14.642689 -19.633658 25.562014 1.107426 2.446633 -0.010132 0.005408 276772.000000 0 0 1
-6.448162 -13.530289 -19.821258 24.850147 1.126066 2.494154 -0.015282 -0.007191 107264.000000 0 1 0
-5.851062 -13.131189 -18.459758 23.397131 1.151620 2.479936 -0.019364 -0.005590 -288766.000000 0 1 0
-4.932962 -14.125589 -18.090458 23.476181 1.234815 2.450559 -0.002866 0.004024 -440165.000000 0 1 0
-4.519562 -13.889689 -16.790858 22.254951 1.256212 2.425654 0.015386 -0.004552 -33914.200000 0 1 0
-3.389862 -14.803089 -16.303558 22.280678 1.345681 2.391661 0.019597 0.006271 946409.000000 0 1 0
-2.074362 -14.732389 -16.892958 22.510405 1.430913 2.419541 0.026603 -0.006693 695290.000000 0 1 0
-1.290162 -15.766989 -16.382358 22.773760 1.489151 2.373666 0.036085 0.011890 -285186.000000 0 1 0
-0.053562 -16.095889 -17.231058 23.579438 1.567469 2.390240 0.028751 0.017568 22499.400000 0 1 0
-0.340062 -16.959589 -18.354658 24.992735 1.550748 2.395578 0.040747 0.006439 -57076.500000 0 1 0
-0.517162 -18.341589 -18.061258 25.746658 1.542608 2.348295 0.040583 0.009861 -229789.000000 0 0 1
-0.920162 -19.110389 -19.318858 27.189556 1.522684 2.361040 0.045577 0.004491 -101512.000000 0 0 1
-2.185462 -18.711789 -19.792258 27.324729 1.454527 2.380866 0.058711 -0.003340 -383920.000000 0 0 1
-2.427662 -19.269189 -21.058158 28.646836 1.445470 2.396604 0.042790 -0.008188 -240780.000000 0 0 1
-3.428662 -18.505489 -21.912658 28.885523 1.387596 2.431963 0.033127 -0.005076 -87506.200000 0 0 1
-3.088862 -17.101189 -22.117158 28.127574 1.392100 2.475619 0.031877 -0.005036 -8096.330000 0 0 1
-3.683462 -16.333089 -21.077958 26.918730 1.348986 2.470306 0.004635 0.003504 -121446.000000 0 0 1
-2.875062 -15.091689 -20.729458 25.801851 1.382546 2.503796 0.021289 0.011757 -330753.000000 0 0 1
-2.812262 -14.092989 -21.737858 26.058696 1.373833 2.557456 0.016537 0.004136 4004.000000 0 0 1
-2.122262 -12.913189 -21.317358 25.013681 1.407904 2.591026 0.018654 0.008521 -55395.200000 0 0 1
-1.858462 -11.882789 -22.463258 25.480434 1.415654 2.650013 0.024725 0.008085 -604200.000000 0 0 1
-2.753862 -10.855389 -22.674558 25.289500 1.322351 2.682827 0.017476 -0.001846 -339652.000000 0 0 1
-2.703662 -10.304389 -23.979158 26.239098 1.314201 2.723515 0.015777 -0.000249 123385.000000 0 0 1
-3.690762 -9.103089 -24.018858 25.949827 1.185609 2.753383 0.014457 -0.002126 472536.000000 0 0 1
-5.075762 -9.409889 -23.932258 26.211875 1.076122 2.721451 0.017195 -0.010028 505086.000000 0 0 1
-5.823862 -8.226389 -23.865258 25.906397 0.954756 2.741978 0.019830 -0.014570 650386.000000 0 0 1
-7.360362 -8.468989 -23.583258 26.116447 0.855320 2.697508 -0.004153 -0.017426 1143380.000000 0 0 1
-8.256262 -8.814789 -24.602058 27.406708 0.818104 2.685240 0.003592 -0.012158 -17461.300000 0 0 1
-8.733462 -7.779389 -25.361988 27.928887 0.727685 2.709501 0.004213 -0.013731 -301468.000000 0 0 1
-9.384162 -8.221589 -26.695408 29.466962 0.719460 2.704400 0.006450 -0.016731 46217.500000 0 0 1
-9.911162 -7.232489 -27.508198 30.120442 0.630403 2.722045 0.015043 -0.017779 18647.200000 0 0 1
-10.391462 -7.762189 -28.733758 31.525592 0.641564 2.717573 0.023986 -0.021715 249687.000000 0 0 1
-11.264162 -6.675489 -29.519628 32.293219 0.534983 2.724109 0.040123 -0.024655 563030.000000 0 0 1
-10.517462 -5.650589 -30.126818 32.406347 0.493008 2.764280 0.019826 -0.014308 225808.000000 0 0 1
-11.397162 -5.042789 -31.046778 33.454857 0.416566 2.759859 0.053562 -0.014526 305041.000000 0 0 1
-10.631462 -3.963889 -31.850238 33.810917 0.356880 2.799368 0.037437 -0.008071 605182.000000 0 0 1
-9.751262 -4.554389 -32.838088 34.556759 0.436947 2.824883 0.033234 -0.009563 375202.000000 0 0 1
-9.129762 -3.543489 -33.607748 35.005566 0.370228 2.858044 0.034163 -0.008644 -313806.000000 0 0 1
-8.044862 -4.121389 34.259258 35.431658 0.473440 0.257966 0.027750 -0.007994 1234950.000000 0 0 1
-6.719162 -4.361589 -33.941278 34.873786 0.575761 2.909819 0.013129 -0.007739 1719430.000000 0 0 1
-5.718262 -4.740989 33.854953 34.660256 0.692232 0.215985 0.007130 -0.009487 861369.000000 0 0 1
-4.324062 -4.145289 34.184253 34.705101 0.764293 0.173468 0.015162 -0.008364 158668.000000 0 0 1
-4.299962 -2.786089 33.916691 34.301514 0.574921 0.149933 0.027761 -0.016830 661470.000000 0 0 1
-2.970762 -2.267889 34.035489 34.240082 0.652024 0.109373 0.031088 -0.020010 646936.000000 0 0 1
-2.997262 -0.801889 -34.258282 34.398496 0.261418 3.051272 0.043528 -0.022687 -220834.000000 0 0 1
-3.191162 -0.766089 -32.857048 33.020540 0.235607 3.042041 0.037761 -0.021447 283113.000000 0 0 1
-3.483362 0.500211 -32.373308 32.564016 -0.142625 3.033314 0.041693 -0.021394 -827937.000000 0 0 1
-3.721462 0.426511 -30.833398 31.060097 -0.114111 3.020699 0.071973 -0.024056 799333.000000 0 0 1
-4.910162 -0.289289 -30.452558 30.847232 0.058848 2.981456 0.054289 -0.024831 229890.000000 0 0 1
-6.091862 0.448511 -30.539258 31.144153 -0.073492 2.944181 0.053569 -0.025509 -485723.000000 0 0 1
-7.373662 -0.424589 -30.540868 31.421264 0.057518 2.904313 0.048989 -0.026353 152293.000000 0 0 1
-7.576762 -1.125889 -29.327828 30.311656 0.147518 2.886116 0.029489 -0.018780 -55987.700000 0 0 1
-8.619562 -2.074389 -29.436598 30.742695 0.236170 2.849055 0.028550 -0.006172 -23740.500000 0 0 1
-9.009562 -2.713189 -28.087418 29.621558 0.292507 2.818345 0.027535 -0.001678 -241740.000000 0 0 1
-9.708762 -1.904389 -27.190808 28.934872 0.193692 2.792620 0.030079 -0.001670 21823.100000 0 0 1
-9.909462 -2.498589 -25.946608 27.886679 0.246993 2.766381 0.015721 -0.008597 -241837.000000 0 0 1
-10.921162 -1.724489 -25.098918 27.426289 0.156610 2.726654 0.018164 -0.004422 -52819.500000 0 0 1
-10.448862 -0.469589 -24.607958 26.738565 0.044911 2.739687 0.019466 -0.003641 594691.000000 0 0 1
-11.478562 0.230711 -23.889758 26.505305 -0.020097 2.693603 0.023072 -0.007815 550206.000000 0 0 1
-10.918462 1.518711 -23.301858 25.777818 -0.138209 2.699714 0.028405 -0.010683 187580.000000 0 0 1
-10.685562 2.571211 -24.211458 26.589229 -0.236136 2.715467 0.018712 -0.011940 -80407.300000 0 0 1
-9.913162 3.571911 -23.595358 25.841251 -0.345839 2.721592 0.025814 -0.010597 -484117.000000 0 0 1
-9.748562 4.823611 -24.533358 26.836307 -0.459481 2.724290 0.033968 -0.017081 -54274.600000 0 0 1
-10.968862 5.515711 -24.713658 27.595360 -0.465926 2.680514 0.036518 -0.017757 79304.000000 0 0 1
-11.666662 5.036311 -25.876838 28.828566 -0.407518 2.685116 0.027640 -0.021824 -454788.000000 0 0 1
-13.104262 5.527411 -26.000158 29.635826 -0.399159 2.641049 0.024891 -0.013223 -438240.000000 0 0 1
-13.210962 6.902111 -26.184158 30.129368 -0.481448 2.624091 0.032529 -0.017357 -211968.000000 0 0 1
-14.470362 7.233411 -26.708608 31.226005 -0.463550 2.596988 0.035128 -0.019297 -520698.000000 0 0 1
-14.630562 8.715611 -27.106488 32.012137 -0.537261 2.580655 0.052557 -0.016944 -324373.000000 0 0 1
-14.781562 9.467811 -25.942448 31.323229 -0.569678 2.546716 0.076756 -0.019482 276547.000000 0 0 1
-15.039862 10.837011 -26.089788 32.004926 -0.624387 2.523837 0.060406 -0.022298 -294005.000000 0 0 1
-14.630362 11.722411 -24.873758 31.147492 -0.675496 2.495728 0.061108 -0.012586 -438970.000000 0 0 1
-15.404262 11.586711 -23.735058 30.576072 -0.644892 2.459512 0.075390 -0.008304 -141952.000000 0 0 1
-14.897262 12.384611 -22.669858 29.819951 -0.693558 2.434455 0.065683 -0.009347 -117876.000000 0 0 1
-15.500762 12.155411 -21.243558 28.970958 -0.665021 2.393916 0.068371 -0.009976 -464584.000000 0 0 1
-16.779162 12.696811 -21.252958 29.907148 -0.647776 2.361192 0.056754 -0.009783 -656581.000000 0 0 1
-17.315762 12.987511 -19.989158 29.463155 -0.643527 2.316442 0.056276 -0.002973 -803880.000000 0 0 1
-18.764262 13.418511 -20.035658 30.554567 -0.620795 2.285950 0.050999 -0.009890 -951396.000000 0 0 1
-18.956262 14.560011 -20.860958 31.725595 -0.654975 2.288350 0.048024 -0.013596 -262395.000000 0 0 1
-20.320562 14.846911 -21.013158 32.785802 -0.630992 2.266496 0.029699 -0.014512 -281002.000000 0 0 1
-20.572162 16.298211 -21.481058 33.915799 -0.669995 2.256689 0.021911 -0.015873 -182297.000000 0 0 1
-20.317262 16.515911 -22.841958 34.746532 -0.682558 2.288144 0.026466 -0.013378 373737.000000 0 0 1
-21.067562 17.649011 -23.306058 36.034735 -0.697330 2.274133 0.012595 -0.005384 239955.000000 0 0 1
-21.093862 17.647311 -24.851958 37.067485 -0.696668 2.305614 0.007925 -0.006802 214187.000000 0 0 1
-19.843262 17.946911 -25.447358 36.924446 -0.735259 2.331144 0.002459 -0.013005 244512.000000 0 0 1
-19.672862 17.226011 -26.631958 37.323159 -0.719183 2.365349 0.001155 -0.028463 -500735.000000 0 0 1
-18.577662 17.886311 -27.472468 37.680050 -0.766441 2.387800 -0.006237 -0.017303 -252264.000000 0 0 1
-18.926162 19.156011 -27.948478 38.810692 -0.791434 2.374776 -0.024561 -0.021151 302656.000000 0 0 1
-18.385062 20.164911 -27.134188 38.482442 -0.831535 2.353369 -0.031698 -0.029526 -866044.000000 0 0 1
-18.993162 21.555111 -27.464818 39.745179 -0.848497 2.333699 0.015990 -0.022531 315968.000000 0 0 1
-20.154762 21.987611 -26.814418 40.108384 -0.828863 2.303052 0.034185 -0.016815 964609.000000 0 0 1
-21.426662 21.341411 -27.057568 40.579178 -0.783405 2.300682 0.054464 -0.020388 787891.000000 0 0 1
-22.439462 21.666811 -25.941978 40.570511 -0.767882 2.264552 0.053687 -0.007319 197451.000000 0 0 1
-22.048962 21.162811 -24.667158 39.274546 -0.764894 2.249867 0.038353 -0.005409 589000.000000 0 0 1
-23.111762 21.531411 -23.789358 39.543505 -0.750013 2.216298 0.029782 -0.013112 594496.000000 0 0 1
-22.736462 21.058011 -22.355658 38.212066 -0.747091 2.195728 0.019533 -0.001041 679551.000000 0 0 1
-21.647862 21.789711 -21.762558 37.643464 -0.788664 2.187223 0.017593 0.000605 1327450.000000 0 0 1
-20.621862 20.946711 -21.123758 36.197224 -0.793213 2.193919 0.007645 -0.001135 733316.000000 0 0 1
-20.931862 20.168011 -19.782058 35.159940 -0.766815 2.168361 0.024907 -0.008804 -1430000.000000 0 0 1
-21.835562 19.098511 -20.010458 35.241500 -0.718633 2.174639 0.036223 -0.011409 225669.000000 0 0 1
-22.459062 18.692211 -18.794858 34.742696 -0.694116 2.142390 0.036185 -0.006949 -686928.000000 0 0 1
-23.548162 19.613911 -18.360658 35.725834 -0.694499 2.110559 0.024099 -0.002394 -1648650.000000 0 0 1
-24.707562 19.684911 -19.179858 36.957087 -0.672735 2.116449 0.017333 0.001549 849938.000000 0 0 1
-25.659382 20.622411 -18.630658 37.825774 -0.676992 2.085801 0.016173 -0.007614 81077.900000 0 0 1
-27.110072 20.561111 -19.174558 39.056100 -0.648875 2.083975 0.006596 -0.004681 220961.000000 0 0 1
-27.979172 19.560311 -18.686958 38.918405 -0.610123 2.071630 0.001755 0.002747 312267.000000 0 0 1
-28.307022 19.586711 -17.306258 38.528344 -0.605295 2.036646 -0.015168 0.001195 -749316.000000 0 0 1
-29.188862 18.418811 -16.826058 38.397376 -0.562918 2.024401 -0.021754 0.006730 -28680.200000 0 0 1
-28.467182 17.194711 -16.759958 37.241573 -0.543369 2.037599 -0.010212 0.004746 -111855.000000 0 0 1
-29.319582 16.124911 -16.563758 37.336426 -0.502821 2.030447 -0.014256 0.005532 -43366.200000 0 0 1
-28.610702 14.951311 -15.793958 35.938323 -0.481546 2.025809 0.014111 0.002358 -194426.000000 0 0 1
-28.270062 15.246111 -14.463858 35.225609 -0.494593 1.993915 0.021032 0.004615 134024.000000 0 0 1
-29.295942 15.376911 -13.486758 35.729459 -0.483354 1.957858 -0.005623 0.013782 182356.000000 0 0 1
-28.644902 15.830911 -12.146858 34.909803 -0.504884 1.926180 0.008868 0.004817 275848.000000 0 0 1
-28.221102 17.209811 -12.079758 35.192737 -0.547609 1.921167 0.005705 0.009869 -285758.000000 0 0 1
-29.206182 18.197611 -12.104758 36.478477 -0.557213 1.909042 -0.024265 0.010950 -500096.000000 0 0 1
-28.556192 19.572011 -12.461258 36.794058 -0.600850 1.916306 0.026584 -0.001152 586874.000000 0 0 1
-27.606872 20.034111 -11.495758 35.995242 -0.627762 1.895860 -0.010523 -0.014102 143201.000000 0 0 1
-26.942202 21.177911 -11.954558 36.294595 -0.666177 1.906439 -0.008538 -0.015635 329928.000000 0 0 1
-25.888212 21.778211 -10.993358 35.571673 -0.699387 1.884988 0.014617 -0.011584 468635.000000 0 0 1
-26.521782 22.646411 -10.060858 36.297186 -0.706742 1.851654 0.009174 -0.010557 197373.000000 0 0 1
-26.139632 23.995311 -10.240658 36.931374 -0.742653 1.851767 0.010485 -0.012722 -4617.930000 0 0 1
-26.843122 24.823411 -9.152958 37.689940 -0.746327 1.816098 0.021846 0.001252 -107913.000000 0 0 1
-26.455862 24.590211 -7.851158 36.962573 -0.748866 1.784835 0.026521 -0.004191 -399518.000000 0 0 1
-27.260292 25.204711 -6.918158 37.765883 -0.746238 1.755022 0.027733 -0.007393 -284437.000000 0 0 1
-27.027262 24.558811 -5.541658 36.936676 -0.737584 1.721396 0.042270 -0.008828 -44651.300000 0 0 1
-27.179742 23.152811 -5.684058 36.153832 -0.705562 1.728670 0.036634 -0.009292 -57898.300000 0 0 1
-27.279152 22.507211 -4.427558 35.641688 -0.689842 1.695342 0.034059 -0.008971 -185383.000000 0 0 1
-27.604032 20.986611 -4.548258 34.972948 -0.650044 1.701217 0.017917 -0.005986 -353686.000000 0 0 1
-26.635422 20.218511 -5.210058 33.843442 -0.649289 1.725357 0.025226 -0.014922 -164703.000000 0 0 1
-26.449592 20.515911 -6.568458 34.111994 -0.659723 1.764562 0.019387 -0.005939 -637215.000000 0 0 1
-27.235922 19.698411 -7.597058 34.460675 -0.626161 1.793078 0.010237 -0.005388 -362748.000000 0 0 1
-26.808102 18.378011 -7.587558 33.376589 -0.600955 1.800133 0.010886 -0.000450 166281.000000 0 0 1
-27.360502 17.639811 -8.633958 33.679448 -0.572653 1.830048 0.004628 0.005696 -231437.000000 0 0 1
-26.777032 16.214311 -8.797158 32.516201 -0.544476 1.844757 0.029652 0.008605 30921.800000 0 0 1
-27.320592 15.264611 -7.896458 32.276573 -0.509515 1.817955 0.018015 0.009525 28268.400000 0 0 1
-27.345692 13.996611 -8.544258 31.885676 -0.473074 1.842077 0.028277 -0.002075 39221.700000 0 0 1
-27.812292 12.789211 -7.680058 31.560589 -0.431007 1.816608 0.030813 -0.006681 193140.000000 0 0 1
-29.082592 13.025611 -7.070458 32.641309 -0.421092 1.789138 0.028577 0.002400 705559.000000 0 0 1
-29.775402 11.836311 -6.616258 32.717697 -0.378366 1.774423 0.038375 -0.019434 647753.000000 0 0 1
-30.446792 10.816811 -7.600258 33.192988 -0.341361 1.801818 0.026766 -0.014693 -271578.000000 0 0 1
-29.517082 9.989211 -8.222758 32.228190 -0.326323 1.828791 0.049091 -0.006442 426122.000000 0 0 1
-30.242182 8.896711 -8.828158 32.736485 -0.286111 1.843850 0.040396 0.009948 508882.000000 0 0 1
-29.277432 7.722111 -9.226058 31.653107 -0.257883 1.866564 0.070889 0.005973 24476.200000 0 0 1
-28.722312 7.830611 -10.501458 31.568502 -0.266163 1.909915 0.059902 -0.009881 28480.000000 0 0 1
-27.910522 6.691911 -10.725758 30.640183 -0.235321 1.928426 0.079966 -0.018670 -228048.000000 0 0 1
-27.034812 6.924611 -11.994358 30.375910 -0.250746 1.976716 0.069033 -0.021648 -208333.000000 0 0 1
-26.114602 7.975311 -11.908258 29.789002 -0.296400 1.982044 0.083047 -0.024569 41985.700000 0 0 1
-25.287012 8.040911 -13.022658 29.558059 -0.307875 2.027040 0.073149 -0.014814 -332657.000000 0 0 1
-31.364362 26.141411 -33.851428 53.037871 -0.694822 2.263019 -0.002672 -0.001041 -53399.100000 0 0 1
-31.942262 27.372711 -34.240113 54.239826 -0.708511 2.253989 -0.005828 -0.006004 213077.000000 0 0 1
-31.493122 27.872511 33.233820 53.602056 -0.724485 0.902041 -0.002062 -0.013205 -114855.000000 0 0 1
-32.070782 29.272211 32.914199 54.486162 -0.739808 0.922181 0.000041 -0.018314 -112259.000000 0 0 1
-31.934402 29.780011 31.582455 53.889763 -0.750503 0.944613 0.017018 -0.016327 -38567.700000 0 0 1
-32.344892 31.116611 31.581795 54.880281 -0.766046 0.957621 0.026326 -0.018339 -201673.000000 0 0 1
-32.072592 31.819311 30.282365 54.388798 -0.781434 0.980297 0.029854 -0.016369 442626.000000 0 0 1
-30.731932 31.717911 29.800895 53.278240 -0.801185 0.977201 0.016965 -0.014564 329173.000000 0 0 1
-30.570852 32.335711 28.541805 52.865961 -0.813446 1.000490 0.020231 -0.009844 -126813.000000 0 0 1
-29.116262 32.350111 28.050495 51.779500 -0.837961 0.998303 0.035169 -0.013740 -634613.000000 0 0 1
-28.801322 31.107911 27.499885 50.531791 -0.823881 0.995350 0.047735 -0.021342 59297.800000 0 0 1
-27.653412 31.024111 26.686225 49.389890 -0.842780 0.999982 0.034249 -0.011366 -371296.000000 0 0 1
-27.740572 31.647511 25.262215 49.084455 -0.851090 1.030176 0.032507 -0.017812 -524918.000000 0 0 1
-27.755332 33.125811 25.226545 50.040547 -0.873383 1.042431 0.027550 -0.022461 324099.000000 0 0 1
-28.764722 33.627911 24.364135 50.515905 -0.863186 1.067511 0.028127 -0.018708 -15641.300000 0 0 1
-29.170962 -33.815003 24.851895 51.107887 0.858996 1.062988 0.033083 -0.017733 -111545.000000 0 0 1
-29.779572 -33.775603 26.161115 52.077041 0.848190 1.044477 0.031422 -0.026826 440656.000000 0 0 1
-29.799772 -32.468503 26.626595 51.489860 0.828231 1.027310 0.027026 -0.027211 -280114.000000 0 0 1
-30.243262 -32.362603 28.087275 52.448908 0.819237 1.005677 0.035056 -0.023246 -778693.000000 0 0 1
-31.574552 -32.601703 28.383475 53.529852 0.801402 1.011917 0.024320 -0.029460 -877198.000000 0 0 1
-31.687472 -32.880003 29.753495 54.501935 0.803866 0.993314 0.015030 -0.022152 310961.000000 0 0 1
-33.125122 -33.207303 30.252675 55.814183 0.786637 0.997952 0.015818 -0.023636 419603.000000 0 0 1
-33.274242 -33.450103 31.638655 56.807473 0.788034 0.980093 0.009767 -0.027930 462430.000000 0 0 1
-34.671412 -33.620003 31.926045 57.893728 0.770003 0.986684 0.007912 -0.028048 731951.000000 0 0 1
-34.993330 -33.935903 33.424303 59.104675 0.770059 0.969744 0.011257 -0.019390 -158233.000000 0 0 1
-34.479470 33.645411 33.812709 58.857003 -0.773156 0.958816 -0.011500 -0.019712 -221488.000000 0 0 1
-35.214907 33.128611 -33.856418 59.024161 -0.754881 2.181694 -0.001704 -0.013514 -130300.000000 0 0 1
-34.956186 31.646211 -33.607688 57.904182 -0.735741 2.190018 -0.015901 -0.011096 593768.000000 0 0 1
-33.727072 31.459311 -32.911488 56.660124 -0.750623 2.190579 -0.016794 -0.009743 29831.600000 0 0 1
-33.353032 30.142711 -32.708248 55.595299 -0.734882 2.199785 -0.016037 -0.005162 184158.000000 0 0 1
-32.432942 29.917411 -31.476068 54.200462 -0.745075 2.190427 -0.017894 -0.001832 69535.400000 0 0 1
-33.030302 29.966711 -30.179328 53.849758 -0.736806 2.165708 -0.012913 -0.004324 -372296.000000 0 0 1
-33.307602 31.323911 -29.830768 54.593576 -0.754715 2.148874 -0.026292 -0.003291 699893.000000 0 0 1
-34.507539 31.562811 -28.822008 54.933500 -0.740858 2.123125 -0.016287 -0.001564 792183.000000 0 0 1
-34.173398 31.337811 -27.483438 53.900083 -0.742141 2.105860 -0.029955 -0.008426 -491292.000000 0 0 1
-35.243223 31.599811 -26.635978 54.314898 -0.730945 2.083344 -0.000658 -0.005987 -647462.000000 0 0 1
-34.938425 31.229411 -25.191468 53.203193 -0.729402 2.064051 -0.001723 -0.006674 35608.000000 0 0 1
-34.178445 32.261311 -24.526358 53.014154 -0.756551 2.051765 0.016760 -0.017759 -352795.000000 0 0 1
-33.860242 32.015411 -23.180158 52.046347 -0.757401 2.032390 0.012989 -0.019736 -612178.000000 0 0 1
-34.932527 31.760111 -22.107558 52.131854 -0.737866 2.008731 0.021181 -0.017126 -485454.000000 0 0 1
35.517017 32.740711 -21.770858 52.984742 0.744747 1.994226 0.030942 -0.024355 211910.000000 0 0 1
-35.426618 33.859011 -20.952858 53.296343 -0.762777 1.974839 0.038993 -0.030594 -12871.200000 0 0 1
-35.393882 33.546511 -19.445258 52.499651 -0.758608 1.950223 0.033787 -0.024992 -427336.000000 0 0 1
-34.418095 32.616711 -19.144658 51.136807 -0.758532 1.954526 0.029022 -0.022978 -392056.000000 0 0 1
-34.330671 32.435011 -17.751658 50.455389 -0.757013 1.930320 0.032617 -0.017209 -609582.000000 0 0 1
-32.978822 31.835111 -17.411758 49.033115 -0.767754 1.933820 0.023942 -0.002278 -571631.000000 0 0 1
-32.811542 31.550711 -15.997358 48.248939 -0.765811 1.908752 0.021520 -0.003777 -445791.000000 0 0 1
-31.609612 30.867211 -15.821258 46.928291 -0.773516 1.914670 0.009323 -0.001074 -770420.000000 0 0 1
-31.427712 30.640911 -14.279258 46.156947 -0.772723 1.885320 0.005702 -0.003172 -344996.000000 0 0 1
-32.468262 29.996111 -13.595458 46.247067 -0.745842 1.869179 0.004274 -0.002995 -485017.000000 0 0 1
-31.939872 29.469111 -12.458158 45.208292 -0.745185 1.849981 0.003840 0.002851 -588961.000000 0 0 1
-32.851382 28.662011 -11.548858 45.101001 -0.717398 1.829747 0.002034 -0.001806 -798281.000000 0 0 1
-32.239512 28.211711 -10.429558 44.091524 -0.718868 1.809603 0.004824 0.001794 13522.900000 0 0 1
-33.072242 27.214411 -9.782458 43.932833 -0.688536 1.795347 -0.001162 -0.000999 35127.400000 0 0 1
-32.398582 26.388411 -8.687858 42.678979 -0.683516 1.775792 -0.000026 0.005685 -67349.600000 0 0 1
-32.058612 27.064111 -7.438958 42.609375 -0.701121 1.746281 0.001202 -0.002427 -124047.000000 0 0 1
-30.856382 27.781011 -7.425458 42.178648 -0.732999 1.747766 0.017767 -0.006680 -681194.000000 0 0 1
-30.472302 28.287111 -6.018658 42.011261 -0.748227 1.714554 0.025345 -0.007263 -368534.000000 0 0 1
-29.976432 27.269311 -5.205558 40.857063 -0.738144 1.698553 0.035394 -0.009086 -15890.400000 0 0 1
-29.975352 27.668111 -3.850258 40.974023 -0.745393 1.664903 0.034667 -0.013821 109445.000000 0 0 1
-29.239652 26.694711 -2.862358 39.695818 -0.739931 1.642966 0.039713 -0.009405 215222.000000 0 0 1
-29.933912 25.455411 -2.642458 39.382733 -0.704719 1.637944 0.028473 -0.009313 126785.000000 0 0 1
-29.192572 24.591611 -1.838558 38.214315 -0.700061 1.618927 0.010400 -0.010138 406956.000000 0 0 1
-30.056532 23.324511 -1.491558 38.074305 -0.659948 1.609981 0.007410 -0.017396 342942.000000 0 0 1
-30.226862 22.404411 -2.581058 37.713163 -0.637851 1.639289 -0.002354 -0.004980 -277575.000000 0 0 1
-31.196462 21.432111 -2.381758 37.923969 -0.601951 1.633641 0.004091 -0.001840 -417374.000000 0 0 1
-31.452392 20.478911 -3.587858 37.702937 -0.577154 1.666102 0.012699 0.002401 352923.000000 0 0 1
-30.390542 19.551811 -3.884358 36.344829 -0.571687 1.677876 0.005828 -0.003017 526436.000000 0 0 1
-30.725512 18.820811 -5.090158 36.389418 -0.549594 1.711137 0.013955 -0.001570 148301.000000 0 0 1
-29.675142 17.727611 -5.400058 34.986324 -0.538498 1.725764 0.018873 -0.000063 29411.000000 0 0 1
-29.678102 16.717111 -4.459658 34.353167 -0.512983 1.700982 0.029939 -0.010399 -52786.700000 0 0 1
-28.979832 15.632111 -4.989158 33.302932 -0.494679 1.721174 0.028516 -0.013738 -432886.000000 0 0 1
-28.675572 14.529411 -3.985558 32.392544 -0.468979 1.694148 0.042001 -0.020413 648350.000000 0 0 1
-29.829002 13.986411 -3.306258 33.110729 -0.438448 1.670818 0.049386 -0.023794 835155.000000 0 0 1
-29.460222 12.698211 -2.823958 32.204409 -0.406966 1.658598 0.050294 -0.030114 34155.100000 0 0 1
-30.562782 11.901111 -2.069758 32.863414 -0.371334 1.633819 0.070953 -0.027355 -30457.200000 0 0 1
-31.479902 11.404611 -3.013158 33.617384 -0.347575 1.660548 0.070399 -0.012930 621027.000000 0 0 1
-32.499442 10.506611 -2.522358 34.248575 -0.312681 1.644512 0.067130 -0.006257 656103.000000 0 0 1
-33.491202 10.063311 -3.645258 35.159903 -0.291894 1.674660 0.043504 -0.005486 -72437.900000 0 0 1
-32.970402 9.263811 -4.681858 34.565668 -0.273911 1.706662 0.035470 -0.012276 185077.000000 0 0 1
-33.942792 9.032211 -5.685758 35.581200 -0.260074 1.731281 0.038049 -0.005240 80212.000000 0 0 1
-33.424762 8.189511 -6.877558 35.093926 -0.240280 1.768049 0.036145 -0.012810 -139299.000000 0 0 1
-32.817892 6.942311 -6.539658 34.175676 -0.208467 1.763338 0.035113 -0.005359 480946.000000 0 0 1
-32.502862 6.158311 -7.646058 33.953248 -0.187250 1.797938 0.038667 0.004059 -738199.000000 0 0 1
-31.568842 5.041611 -7.188958 32.767221 -0.158365 1.791990 0.053063 0.003775 -41961.800000 0 0 1
-30.215802 5.461211 -7.130758 31.522488 -0.178810 1.798983 0.066988 -0.004943 231023.000000 0 0 1
-29.337642 4.434811 -6.707058 30.419557 -0.150029 1.793108 0.062687 -0.005650 605930.000000 0 0 1
-27.884492 5.004911 -6.558558 29.079352 -0.177596 1.798294 0.091285 -0.008006 730276.000000 0 0 1
-27.237262 5.367911 -7.792458 28.834100 -0.194586 1.844451 0.089674 -0.009595 884896.000000 0 0 1
-25.821092 5.235911 -7.659758 27.437483 -0.200064 1.853727 0.105481 -0.009530 1047970.000000 0 0 1
-24.923162 5.408611 -8.955058 27.029801 -0.213698 1.908481 0.103075 -0.005711 228183.000000 0 0 1
-24.958462 4.351711 -9.887658 27.196103 -0.172623 1.942892 0.102935 -0.022827 386960.000000 0 0 1
-23.860962 4.410411 -10.758958 26.543406 -0.182775 1.988141 0.093926 -0.030307 -533194.000000 0 0 1
-24.193362 3.663211 -12.078858 27.288032 -0.150272 2.029340 0.088654 -0.035717 276573.000000 0 0 1
-25.155602 4.382511 -12.850758 28.585883 -0.172485 2.037057 0.087407 -0.024824 469937.000000 0 0 1
-25.828952 3.578211 -13.794058 29.499397 -0.137659 2.057375 0.076351 -0.023921 -152933.000000 0 0 1
-26.706022 4.434911 -14.728958 30.819187 -0.164562 2.069076 0.057681 -0.018059 -295456.000000 0 0 1
-25.983242 5.434611 -15.478458 30.728595 -0.206186 2.098690 0.045193 -0.013138 505063.000000 0 0 1
-26.709552 6.416411 -16.286758 31.934762 -0.235762 2.105982 0.069019 -0.007635 -71508.700000 0 0 1
-27.304882 5.795711 -17.589058 32.992754 -0.209155 2.133079 0.022210 0.001441 625755.000000 0 0 1
-28.548712 5.142311 -17.309058 33.779814 -0.178213 2.108783 0.028573 -0.010399 228040.000000 0 0 1
-29.099852 4.419911 -18.390958 34.706834 -0.150736 2.129272 0.025016 -0.002080 -124687.000000 0 0 1
-30.490042 3.899411 -17.963758 35.602594 -0.127201 2.099672 0.024115 -0.005415 -407072.000000 0 0 1
-30.598802 2.773411 -17.145658 35.184544 -0.090391 2.079799 0.030092 -0.011717 274826.000000 0 0 1
-30.142202 1.560111 -17.762058 35.021094 -0.051712 2.102708 0.042885 -0.014220 -111693.000000 0 0 1
-30.427472 0.351111 -16.864358 34.790242 -0.011539 2.076867 0.047766 -0.017398 -295164.000000 0 0 1
-30.142742 -0.921789 -17.369158 34.801182 0.030571 2.093352 0.053613 -0.016084 230197.000000 0 0 1
-30.651112 -1.973189 -16.575958 34.901956 0.064287 2.065680 0.070590 -0.024090 -128864.000000 0 0 1
-30.217502 -3.311589 -17.110658 34.883215 0.109156 2.083474 0.064479 -0.016966 152909.000000 0 0 1
-31.021542 -3.606489 -18.253458 36.173631 0.115738 2.099723 0.070543 -0.017948 439238.000000 0 0 1
-30.726252 -4.881089 -18.822758 36.362396 0.157541 2.114891 0.071841 -0.011943 138736.000000 0 0 1
-31.687812 -5.181889 -20.008258 37.832523 0.162095 2.128058 0.068864 -0.012132 158234.000000 0 0 1
-31.462802 -6.397589 -20.750358 38.228451 0.200603 2.144562 0.080611 -0.009456 85185.500000 0 0 1
-32.477252 -6.529189 -21.730758 39.618532 0.198394 2.151365 0.078837 -0.008505 -59775.500000 0 0 1
-32.212542 -7.674789 -22.754558 40.178604 0.233894 2.172849 0.087288 -0.006515 133115.000000 0 0 1
-30.917412 -7.615289 -23.331458 39.474498 0.241503 2.203158 0.082414 -0.009921 102957.000000 0 0 1
-30.777922 -8.378489 -24.463858 40.199004 0.265784 2.225052 0.081634 -0.008872 -14188.300000 0 0 1
-29.426512 -8.132689 -25.177908 39.572558 0.269642 2.260420 0.067516 -0.004375 -297464.000000 0 0 1
-29.226982 -6.849689 -25.795378 39.579493 0.230207 2.280667 0.052713 -0.013940 -72109.100000 0 0 1
-29.404862 -6.945789 -27.186708 40.644889 0.231960 2.303503 0.043306 -0.016335 170368.000000 0 0 1
-30.868212 -6.941989 -27.733158 42.073338 0.221211 2.290501 0.053477 -0.014309 220512.000000 0 0 1
-31.594032 -8.081989 -27.348688 42.561158 0.250437 2.268649 0.062625 -0.014398 -928239.000000 0 0 1
-32.846502 -8.127289 -27.957318 43.892564 0.242561 2.261330 0.059173 -0.008614 -382395.000000 0 0 1
-33.586402 -9.437389 -27.583718 44.474400 0.273925 2.239814 0.054967 -0.005197 -610895.000000 0 0 1
-33.123412 -10.658489 -28.157078 44.761422 0.311318 2.251124 0.058852 0.002093 -315570.000000 0 0 1
-33.917922 -11.751389 -27.835518 45.423966 0.333523 2.230387 0.039411 0.003688 -490092.000000 0 0 1
-35.259746 -11.851989 -28.574438 46.906480 0.324269 2.225821 0.024834 0.009367 -852500.000000 0 0 1
35.213488 -10.890689 -28.235548 46.431057 -0.299945 2.224484 0.018482 0.008133 -294210.000000 0 0 1
34.395908 -10.626389 -29.395128 46.476577 -0.299641 2.255537 0.019037 0.000943 786112.000000 0 0 1
33.203698 -9.610989 -29.253118 45.283569 -0.281755 2.273127 0.010652 0.006537 139013.000000 0 0 1
32.134168 -10.017889 -28.469458 44.084838 -0.302203 2.272851 -0.004274 0.007476 -661700.000000 0 0 1
31.429198 -8.934789 -27.972098 43.012361 -0.276976 2.278811 -0.026781 0.021092 428791.000000 0 0 1
30.181788 -9.247089 -27.065228 41.580952 -0.297299 2.279572 -0.042989 0.023831 420273.000000 0 0 1
30.471318 -9.730689 -25.805298 41.098673 -0.309104 2.249631 -0.049063 0.033813 74181.200000 0 0 1
29.307778 -10.134089 -25.097378 39.893909 -0.332912 2.251195 -0.062485 0.037026 -60613.300000 0 0 1
29.550318 -10.249989 -23.576658 39.168130 -0.333880 2.216718 -0.072325 0.036203 -85651.500000 0 0 1
30.167348 -11.467889 -23.179158 39.734805 -0.363271 2.193639 -0.089207 0.034450 253322.000000 0 0 1
30.506218 -11.341589 -21.796058 39.170513 -0.355944 2.160892 -0.077300 0.034404 -442051.000000 0 0 1
31.330238 -12.447889 -21.219558 39.834701 -0.378187 2.132573 -0.050125 0.034007 -412671.000000 0 0 1
32.665488 -12.481589 -21.684258 41.146461 -0.364984 2.125865 -0.027131 0.030123 69022.400000 0 0 1
33.454838 -13.199689 -20.762558 41.527603 -0.375801 2.094361 0.002352 0.019371 -297321.000000 0 0 1
34.960088 -13.201289 -21.089258 42.909656 -0.361057 2.084585 0.035703 0.004961 -608185.000000 0 0 1
-35.688530 -12.035289 -20.989058 43.116817 0.325255 2.079213 0.061476 0.004611 250021.000000 0 0 1
35.572528 -11.127189 -22.075858 43.319310 -0.303161 2.105525 0.066498 0.012126 -815006.000000 0 0 1
-35.199636 -11.547389 -23.417758 43.826339 0.316992 2.134512 0.053234 0.012425 -108468.000000 0 0 1
35.622500 -12.583989 -24.236358 44.885636 -0.339576 2.141184 0.034700 0.012798 622252.000000 0 0 1
34.271788 -12.351189 -24.634558 43.976912 -0.345900 2.165388 0.034509 0.012566 214100.000000 0 0 1
33.695938 -13.416189 -25.621858 44.405968 -0.378914 2.185836 0.022113 -0.008388 -247790.000000 0 0 1
33.519638 -14.750189 -25.103178 44.399367 -0.414546 2.171708 0.021049 -0.018931 748040.000000 0 0 1
32.618178 -14.929489 -23.993658 43.157048 -0.429243 2.160316 -0.015050 -0.002187 22175.200000 0 0 1
-29.165642 8.669011 -19.692958 36.243607 -0.288917 2.145219 0.000070 0.004283 232157.000000 0 0 1
-28.020252 7.849711 -19.826358 35.211319 -0.273142 2.168890 0.001521 0.002778 -70814.600000 0 0 1
-27.310302 8.027111 -21.025758 35.388835 -0.285872 2.206987 0.026735 -0.011283 -271938.000000 0 0 1
-26.029352 7.192811 -21.046958 34.237964 -0.269607 2.232835 0.031906 -0.008056 -225944.000000 0 0 1
-25.012962 7.629911 -20.169158 33.025123 -0.296073 2.227768 0.033444 -0.002023 637223.000000 0 0 1
-23.903562 6.696611 -20.162958 31.980772 -0.273149 2.252957 0.049213 -0.005874 1285830.000000 0 0 1
-22.554562 7.336611 -19.696858 30.830186 -0.314488 2.263841 0.043791 -0.004895 492369.000000 0 0 1
-22.117462 8.384611 -20.542258 31.328393 -0.362356 2.285915 0.038313 -0.000035 -867440.000000 0 0 1
-20.936462 8.894311 -20.036958 30.313758 -0.401722 2.292928 0.039242 0.001514 -852022.000000 0 0 1
-20.298862 9.916711 -20.973358 30.826396 -0.454434 2.319064 0.028427 0.000891 -358538.000000 0 0 1
-19.527962 9.279811 -21.970258 30.824478 -0.443617 2.364213 0.039623 -0.007170 6860.800000 0 0 1
-19.172362 10.249411 -22.974158 31.629762 -0.490938 2.383787 0.022794 -0.005783 -42643.500000 0 0 1
-18.162362 9.665911 -23.960658 31.581868 -0.489070 2.432087 0.040562 -0.007577 209453.000000 0 0 1
-18.850362 8.803411 -24.878058 32.430757 -0.436914 2.445125 0.036714 -0.007442 438744.000000 0 0 1
-17.860262 8.047911 -25.565598 32.208037 -0.423356 2.487770 0.034829 -0.004219 -247693.000000 0 0 1
-18.435562 7.019611 -26.538438 33.067108 -0.363815 2.502376 0.027744 0.002554 -165709.000000 0 0 1
-18.965662 5.836811 -25.943758 32.662567 -0.298558 2.488645 0.037571 0.004423 365109.000000 0 0 1
-19.547862 4.943411 -26.911208 33.626914 -0.247694 2.498571 0.038659 0.006850 -347931.000000 0 0 1
-19.877262 3.535811 -26.265898 33.128612 -0.176041 2.486262 0.043797 0.008228 274916.000000 0 0 1
-18.794962 2.670811 -25.927458 32.134358 -0.141157 2.509589 0.043622 0.009967 245577.000000 0 0 1
-17.870562 3.167311 -24.996458 30.890319 -0.175415 2.513586 0.032434 0.007242 -385282.000000 0 0 1
-16.905862 2.135711 -24.390158 29.753139 -0.125664 2.531772 0.036803 0.004917 -59602.200000 0 0 1
-17.457162 1.347211 -23.377558 29.207494 -0.077020 2.498752 0.033616 0.003604 -24593.700000 0 0 1
-18.465362 0.421511 -23.704558 30.050846 -0.022823 2.479675 0.030736 0.004658 -116547.000000 0 0 1
-19.007462 -0.282989 -22.461258 29.425700 0.014887 2.439235 0.042537 0.006720 -101880.000000 0 0 1
-18.315362 -1.456689 -22.151658 28.779687 0.079367 2.449164 0.039827 0.002387 171176.000000 0 0 1
-18.958262 -2.117389 -21.075758 28.426865 0.111226 2.405955 0.035091 -0.000929 -39052.900000 0 0 1
-18.583162 -3.575089 -20.773458 28.100743 0.190061 2.402751 0.026528 -0.014801 -83844.100000 0 0 1
-18.978162 -4.362889 -21.866758 29.280720 0.225964 2.414029 0.030372 -0.017004 398941.000000 0 0 1
-18.828462 -5.742389 -21.451958 29.114817 0.296023 2.399130 0.030745 -0.016959 -226134.000000 0 0 1
-18.792862 -6.822189 -22.536858 30.126797 0.348227 2.415941 0.015983 -0.024171 160037.000000 0 0 1
-17.542662 -6.931589 -23.208358 29.906852 0.376299 2.459129 0.030246 -0.012860 133542.000000 0 0 1
-17.435262 -7.912989 -24.228458 30.880770 0.426051 2.472816 0.038050 -0.016926 -51961.100000 0 0 1
-16.114462 -7.739389 -24.982058 30.719331 0.447744 2.520487 0.046827 -0.024924 -636094.000000 0 0 1
-16.025562 -8.546489 -26.133248 31.824641 0.489934 2.534244 0.048305 -0.048942 32915.100000 0 0 1
-14.713462 -8.574989 -26.649128 31.625819 0.527676 2.572961 0.061620 -0.047220 468887.000000 0 0 1
-13.664262 -9.517789 -25.947308 30.831205 0.608404 2.571021 0.061176 -0.046395 -404184.000000 0 0 1
-13.044862 -8.908089 -24.867258 29.460194 0.599144 2.575675 0.049424 -0.035549 100818.000000 0 0 1
-12.261762 -9.868089 -24.148858 28.825290 0.677652 2.563976 0.033246 -0.034381 465017.000000 0 0 1
-11.386862 -9.193389 -23.012458 27.271822 0.679218 2.575155 0.035195 -0.028105 46121.400000 0 0 1
-12.180862 -8.626989 -21.967258 26.558592 0.616236 2.544768 0.030916 -0.020985 30388.500000 0 0 1
-11.518462 -8.160589 -20.821258 25.155417 0.616394 2.545801 0.033206 -0.016222 -1202070.000000 0 0 1
-12.359462 -8.138189 -19.517858 24.493534 0.582298 2.492872 0.026027 -0.012214 40575.800000 0 1 0
-13.278062 -7.041489 -19.501158 24.620818 0.487601 2.484972 0.017851 -0.001634 503536.000000 0 1 0
-14.582562 -7.422189 -19.922458 25.780697 0.470803 2.453985 0.024640 -0.010747 20383.700000 0 0 1
-15.673062 -6.348689 -19.656658 25.929423 0.384870 2.431165 0.019153 -0.001698 -77095.700000 0 0 1
-15.816962 -5.997189 -18.320558 24.935626 0.362414 2.396042 0.015859 -0.001064 514139.000000 0 1 0
-15.122462 -4.750289 -18.076658 24.042040 0.304361 2.421701 0.011658 -0.001529 -157807.000000 0 1 0
-14.789962 -4.494689 -16.562858 22.655540 0.295032 2.390690 0.015400 0.007475 124230.000000 0 1 0
-15.858762 -4.155689 -15.676058 22.682789 0.256281 2.333805 0.020710 -0.002601 140999.000000 0 1 0
-16.314962 -2.841589 -15.850158 22.923354 0.172441 2.334279 -0.013760 -0.006402 -729750.000000 0 1 0
-17.547762 -2.457789 -15.069158 23.260357 0.139158 2.275551 -0.011770 -0.011852 -758573.000000 0 1 0
-17.419662 -2.571789 -13.667858 22.290560 0.146578 2.230861 0.016095 -0.017931 716365.000000 0 1 0
-18.460362 -1.858089 -12.988358 22.648067 0.100315 2.181552 0.019446 -0.022061 229442.000000 0 1 0
-17.940662 -0.598389 -12.224158 21.717631 0.033341 2.168648 0.013113 -0.015306 -77333.700000 0 1 0
-17.553662 0.380511 -13.150958 21.936808 -0.021674 2.213664 0.023456 -0.015641 726763.000000 0 1 0
-16.683862 1.312011 -12.495458 20.885620 -0.078478 2.212150 0.031027 -0.011518 -318514.000000 0 1 0
-16.152862 2.434411 -13.456258 21.163936 -0.149585 2.259855 0.038520 -0.010428 80383.900000 0 1 0
-15.455162 1.947311 -14.587258 21.341091 -0.125337 2.323383 0.036324 -0.011131 393724.000000 0 1 0
-14.114162 1.576611 -14.298258 20.152803 -0.111243 2.359574 0.024701 -0.007120 -651332.000000 0 1 0
-13.610462 0.555111 -15.354558 20.525966 -0.040763 2.415923 0.024709 -0.006573 -171612.000000 0 1 0
-13.310162 1.031411 -16.636758 21.330869 -0.077336 2.465363 0.023884 -0.006797 126950.000000 0 1 0
-12.818762 0.020611 -17.416958 21.625715 -0.001608 2.507116 0.007891 0.002409 -169251.000000 0 1 0
-12.145362 0.415711 -18.765258 22.356600 -0.034215 2.566903 0.013223 -0.003601 -224001.000000 0 1 0
-10.982162 1.178411 -18.559958 21.597884 -0.106893 2.604777 0.004268 0.001736 -427973.000000 0 1 0
-10.825462 1.991811 -19.654858 22.527126 -0.181958 2.631087 0.020766 0.001386 190565.000000 0 1 0
-9.489862 2.786111 -19.648558 21.997403 -0.285564 2.675257 0.020201 0.004034 -880394.000000 0 1 0
-8.405262 1.864511 -19.688158 21.488332 -0.218292 2.729352 0.014279 0.007683 176206.000000 0 1 0
-7.154862 2.427911 -19.288558 20.715581 -0.327144 2.768251 0.011504 0.007344 594444.000000 0 1 0
-6.617162 3.480411 -20.206958 21.545795 -0.484205 2.787210 0.007580 0.010437 -1688810.000000 0 1 0
-6.462862 3.011011 -21.550458 22.699274 -0.435993 2.822084 0.004002 0.014010 181248.000000 0 1 0
-6.141962 4.062811 -22.441658 23.619021 -0.584406 2.824519 0.004592 0.008708 -401235.000000 0 1 0
-5.567562 3.482011 -23.695958 24.589034 -0.558894 2.871252 0.015883 -0.005324 -879597.000000 0 1 0
-4.291962 2.948411 -23.578958 24.147077 -0.601921 2.924244 0.025939 -0.014385 -678510.000000 0 1 0
-3.976462 2.397811 -24.899358 25.328636 -0.542623 2.957221 0.025319 -0.011090 -32657.600000 0 0 1
-2.619762 1.670211 -24.964258 25.156847 -0.567568 3.017776 0.019445 -0.012392 -63185.700000 0 0 1
-1.504562 2.532411 -24.859458 25.033367 -1.034710 3.023651 0.022803 -0.009737 745637.000000 0 0 1
-0.207562 1.933311 -24.843958 24.919933 -1.463845 3.063487 0.028795 -0.010697 833186.000000 0 1 0
0.338038 1.033611 -23.699658 23.724595 1.254715 3.095739 0.030824 -0.018014 -530354.000000 0 1 0
-0.032262 -0.340789 -23.769858 23.772323 1.476409 3.127193 0.028535 -0.020689 -134488.000000 0 1 0
0.662338 -1.094089 -22.820058 22.855870 -1.026432 3.085606 0.029577 -0.012415 -869623.000000 0 1 0
0.203338 -2.581589 -22.820058 22.966519 -1.492194 3.028598 0.032215 -0.015544 223130.000000 0 1 0
-1.014962 -2.837889 -22.130358 22.334649 1.227325 3.006236 0.029248 -0.011735 244228.000000 0 1 0
-2.182962 -2.693889 -22.926858 23.187566 0.889783 2.991496 0.040069 -0.014055 -363188.000000 0 1 0
-2.902762 -1.345689 -22.803158 23.026527 0.434097 3.002192 0.039295 -0.013359 -1264740.000000 0 1 0
-3.487862 -1.129489 -21.551558 21.861166 0.313177 2.973093 0.025517 -0.007929 323066.000000 0 1 0
-4.334862 0.005611 -21.407558 21.842038 -0.001294 2.941802 0.014333 -0.010339 1723430.000000 0 1 0
-5.811962 -0.082389 -21.984758 22.740169 0.014175 2.883117 0.021313 -0.009573 1049070.000000 0 1 0
-6.530162 -1.248289 -21.575058 22.576191 0.188879 2.842674 0.027636 -0.000518 256012.000000 0 1 0
-7.916262 -1.062589 -21.838958 23.253740 0.133431 2.790970 0.006657 0.009423 368239.000000 0 1 0
-8.682062 -2.355889 -21.494858 23.301445 0.264971 2.745224 0.014916 0.001496 -248656.000000 0 1 0
-8.550862 -3.443289 -22.400258 24.222821 0.382817 2.751197 0.032426 -0.005007 54922.100000 0 1 0
-9.078862 -4.682889 -21.862558 24.131445 0.476209 2.704481 0.022852 -0.004987 126305.000000 0 1 0
-9.894262 -5.494189 -22.931058 25.571781 0.506896 2.683128 0.019226 -0.009517 433066.000000 0 0 1
-11.242162 -5.038489 -22.965758 26.061440 0.421338 2.649225 0.019443 -0.005451 -266247.000000 0 0 1
-12.005262 -5.652089 -23.952858 27.382693 0.440017 2.635705 0.023514 -0.021221 -435075.000000 0 0 1
-13.482262 -5.456389 -23.580358 27.705178 0.384559 2.588906 0.045185 -0.020359 -530423.000000 0 0 1
-13.968862 -4.152189 -23.656158 27.784593 0.288928 2.589469 0.034872 -0.014203 -702928.000000 0 0 1
-15.362162 -4.162089 -23.741458 28.582790 0.264580 2.551018 0.039896 -0.012914 -413792.000000 0 0 1
-15.991362 -2.905289 -24.324658 29.254972 0.179718 2.552546 0.040418 -0.010566 -394925.000000 0 0 1
-15.701262 -2.671089 -25.657168 30.198587 0.168506 2.586051 0.041814 -0.015279 50356.000000 0 0 1
-16.182362 -1.476389 -26.228588 30.854293 0.090983 2.586932 0.031933 -0.003920 -524492.000000 0 0 1
-17.657262 -1.413289 -26.663558 32.011274 0.079870 2.555201 0.036911 -0.002332 -306658.000000 0 0 1
-17.995762 -2.023489 -27.922228 33.280517 0.111972 2.566232 0.040192 -0.016523 18753.600000 0 0 1
-17.625062 -1.236889 -29.041538 33.993877 0.070063 2.595031 0.035027 -0.014946 -317825.000000 0 0 1
-17.736562 -1.834289 -30.443198 35.280853 0.103052 2.611740 0.031592 -0.013974 -613509.000000 0 0 1
-19.049862 -2.143389 -30.756068 36.241235 0.112043 2.584221 0.028745 -0.020491 -755751.000000 0 0 1
-19.144462 -2.926489 -31.962898 37.372472 0.151689 2.596834 0.027398 -0.026670 -315280.000000 0 0 1
-20.604662 -3.310989 -32.293318 38.449619 0.159329 2.567871 0.001653 -0.022793 101588.000000 0 0 1
-21.554762 -2.338489 -32.650558 39.193562 0.108068 2.555411 -0.009280 -0.022187 214225.000000 0 0 1
-22.103662 -1.729989 -31.488378 38.510813 0.078108 2.528114 -0.003071 -0.015004 -407946.000000 0 0 1
-23.219462 -0.701489 -31.853498 39.424369 0.030202 2.511486 0.012465 -0.018320 -90724.200000 0 0 1
-22.774962 0.495511 -32.450338 39.648063 -0.021753 2.529521 0.017496 -0.017206 211131.000000 0 0 1
-23.860962 1.298711 -32.846708 40.619434 -0.054375 2.512642 0.020053 -0.020650 -405765.000000 0 0 1
-23.386962 2.506911 -33.632768 41.041415 -0.106785 2.531306 0.023373 -0.012988 -273330.000000 0 0 1
-22.807162 3.600311 -32.890298 40.185826 -0.156567 2.529514 0.033104 -0.012619 832383.000000 0 0 1
-23.677262 4.410811 -32.071388 40.107879 -0.184178 2.497472 0.029370 -0.018573 -112706.000000 0 0 1
-24.868362 5.197411 -32.640748 41.362628 -0.206031 2.480198 0.036088 -0.021425 399018.000000 0 0 1
-25.997772 4.368111 -32.986018 42.226082 -0.166464 2.467344 0.032976 -0.029367 694925.000000 0 0 1
-26.896652 5.118611 -33.799288 43.497379 -0.188058 2.460749 0.039307 -0.030825 -82643.800000 0 0 1
-28.180372 4.351011 -34.162720 44.498945 -0.153189 2.446071 0.050842 -0.025250 -654785.000000 0 0 1
-27.985012 3.312711 33.702338 43.931567 -0.117826 0.696402 0.047998 -0.024828 639260.000000 0 0 1
-29.230602 2.779311 33.255589 44.363125 -0.094797 0.723305 0.051250 -0.023398 238885.000000 0 0 1
-29.166372 1.275011 33.003504 44.062843 -0.043687 0.724230 0.044962 -0.004848 -130368.000000 0 0 1
-29.205602 0.570911 34.206912 44.982285 -0.019545 0.706786 0.025103 0.000662 227444.000000 0 0 1
-29.064122 -0.788689 34.008063 44.742525 0.027130 0.707354 0.019176 0.002475 -385958.000000 0 0 1
-28.594402 -1.582189 -33.511788 44.081551 0.055276 2.434452 -0.018163 0.000493 359797.000000 0 0 1
-27.226622 -1.466089 -33.123508 42.902275 0.053796 2.452886 0.001050 -0.011412 786236.000000 0 0 1
-26.956272 -0.289189 -32.357538 42.115728 0.010728 2.446978 0.005565 -0.007733 -969794.000000 0 0 1
-27.292242 -0.307889 -30.895648 41.225021 0.011281 2.418011 0.017023 -0.012991 -936994.000000 0 0 1
-26.415412 -1.040789 -30.149648 40.098111 0.039380 2.421731 0.009889 -0.016300 -191846.000000 0 0 1
-26.685152 -0.871489 -28.811368 39.280425 0.032647 2.394223 0.012008 -0.020440 -480201.000000 0 0 1
-25.568122 -1.360689 -27.863948 37.841511 0.053168 2.398431 0.011666 -0.017236 -186575.000000 0 0 1
-25.470182 -2.757189 -27.805258 37.808262 0.107832 2.397095 -0.008099 -0.011964 584145.000000 0 0 1
-24.396862 -3.063789 -26.917638 36.457550 0.124927 2.401385 0.011539 -0.011996 14076.900000 0 0 1
-24.513562 -4.523089 -26.339658 36.265006 0.182462 2.383736 0.011393 -0.017365 150456.000000 0 0 1
-25.661422 -4.604889 -25.508488 36.474602 0.177558 2.345283 0.008843 -0.013466 83738.400000 0 0 1
-25.871472 -5.863089 -24.974058 36.433672 0.222859 2.326040 0.007374 -0.017284 -123868.000000 0 0 1
-26.805902 -5.615089 -23.805258 36.287408 0.206487 2.286329 0.013731 -0.022043 -210912.000000 0 0 1
-27.002962 -6.770589 -22.963358 36.087625 0.245670 2.260518 0.027878 -0.019832 631834.000000 0 0 1
-28.114062 -6.404089 -22.106258 36.333174 0.223968 2.224879 0.055835 -0.016438 748554.000000 0 0 1
-28.535082 -7.470489 -21.057358 36.241847 0.256053 2.190782 0.066093 -0.014931 -249395.000000 0 0 1
-27.480822 -7.666789 -20.131858 34.918003 0.272069 2.185292 0.061885 -0.012294 94422.400000 0 0 1
-27.773812 -8.581389 -19.066658 34.764383 0.299669 2.151310 0.082161 -0.007683 -91864.000000 0 0 1
-28.616182 -8.062289 -17.893658 34.699703 0.274620 2.112588 0.076732 -0.012660 -239377.000000 0 0 1
-27.893892 -7.197689 -17.095858 33.498423 0.252530 2.106386 0.070408 -0.021654 474349.000000 0 0 1
-28.753322 -6.577289 -16.133858 33.620167 0.224880 2.071321 0.078580 -0.019988 400310.000000 0 0 1
-27.889022 -5.752389 -15.172058 32.265754 0.203407 2.060338 0.074241 -0.024193 33726.700000 0 0 1
-27.159802 -4.668589 -15.653058 31.693356 0.170230 2.087355 0.074110 -0.023155 100272.000000 0 0 1
-26.148072 -4.292389 -14.747458 30.325465 0.162706 2.078654 0.062817 -0.031262 31513.700000 0 0 1
-14.047262 21.340011 -5.183958 26.069044 -0.988637 1.770986 0.033651 -0.015124 -51081.800000 0 0 1
-14.021462 20.609311 -6.415658 25.739187 -0.973383 1.822709 0.049205 -0.014711 2831.830000 0 0 1
-14.806162 19.439811 -6.407858 25.262409 -0.919886 1.827250 0.046956 -0.034161 -300468.000000 0 0 1
-15.011462 18.905211 -7.854758 25.385985 -0.899701 1.885372 0.055645 -0.030164 -25203.900000 0 0 1
-13.814362 18.386911 -8.440958 24.498263 -0.926454 1.922559 0.044015 -0.025860 346027.000000 0 1 0
-13.944862 17.468111 -9.491558 24.283405 -0.897090 1.972369 0.032274 -0.024542 -383925.000000 0 1 0
-14.313662 16.006711 -8.986458 23.277718 -0.841179 1.967147 0.035036 -0.032526 -111780.000000 0 1 0
-15.708762 15.885111 -8.752558 23.993942 -0.790980 1.944195 0.038134 -0.030084 286290.000000 0 1 0
-15.997462 15.073211 -7.584058 23.251633 -0.755660 1.903049 0.041462 -0.018822 -1979740.000000 0 1 0
-17.344862 15.275711 -7.099358 24.178347 -0.722052 1.868813 0.057572 -0.018183 -2164860.000000 0 1 0
-18.380062 14.782511 -7.888258 24.871147 -0.677338 1.893535 0.058146 -0.021559 -133627.000000 0 1 0
-19.651662 15.346711 -7.643058 26.079220 -0.663009 1.868233 0.056207 -0.018838 813832.000000 0 0 1
-20.812362 14.743311 -8.523658 26.891865 -0.616336 1.893319 0.052461 -0.004927 465864.000000 0 0 1
-21.124262 13.456111 -8.070858 26.314257 -0.567181 1.882531 0.067289 -0.012607 -69752.100000 0 0 1
-21.991162 12.789811 -8.946858 26.967327 -0.526772 1.908972 0.081936 -0.013456 -319367.000000 0 0 1
-22.361362 11.384111 -8.494658 26.491276 -0.470899 1.897221 0.079655 -0.006661 -519332.000000 0 0 1
-21.331562 10.441011 -8.378858 25.184430 -0.455183 1.909962 0.071657 -0.005587 -358381.000000 0 0 1
-21.754162 9.257711 -7.690558 24.861486 -0.402345 1.885291 0.083978 -0.017958 -881068.000000 0 1 0
-20.699062 8.257111 -7.334658 23.461208 -0.379568 1.888756 0.053578 -0.000540 -1007460.000000 0 1 0
-20.391562 7.394511 -8.392058 23.257714 -0.347878 1.939953 0.041847 0.006543 -383252.000000 0 1 0
-19.471962 6.499911 -7.914958 22.001198 -0.322178 1.938798 0.026515 0.003729 -688065.000000 0 1 0
-19.231262 5.310011 -8.894758 21.843864 -0.269401 1.990179 0.017106 0.003816 -277301.000000 0 1 0
-20.362362 4.473911 -8.825158 22.639017 -0.216278 1.971233 0.034718 0.004998 524722.000000 0 1 0
-20.271662 3.530411 -9.907258 22.837641 -0.172426 2.019516 0.030638 0.006166 65375.100000 0 1 0
-21.181462 2.271911 -9.771858 23.437260 -0.106851 2.000869 0.036525 0.004323 241221.000000 0 1 0
-20.595362 1.402411 -8.820858 22.448680 -0.067989 1.974617 0.022708 -0.001278 571769.000000 0 1 0
-21.508862 0.368511 -8.481858 23.123773 -0.017131 1.946366 0.033049 -0.000521 -10376.300000 0 1 0
-21.392662 -1.034789 -9.272058 23.338549 0.048334 1.979353 0.018907 -0.016350 -78358.600000 0 1 0
-20.338762 -1.850689 -8.782258 22.231022 0.090743 1.976913 0.010879 -0.009300 456292.000000 0 1 0
-20.341062 -3.223089 -9.186258 22.550709 0.157146 1.990358 0.000152 -0.010509 109828.000000 0 1 0
-21.424862 -4.162889 -8.493358 23.419895 0.191911 1.941912 0.016614 -0.007403 601498.000000 0 1 0
-21.095862 -4.413689 -7.124558 22.699678 0.206246 1.890054 0.007454 -0.002113 -211458.000000 0 1 0
-22.071662 -5.182589 -6.492858 23.583357 0.230629 1.849714 0.016336 -0.003533 -958488.000000 0 1 0
-22.180862 -6.677489 -6.768258 24.132734 0.292417 1.855069 0.023728 -0.010127 -516841.000000 0 1 0
-21.178162 -7.407189 -6.128758 23.258175 0.336457 1.837455 0.024740 -0.010710 269651.000000 0 1 0
-21.297262 -8.772889 -6.464458 23.923340 0.390745 1.844413 0.030309 -0.014067 -447693.000000 0 1 0
-20.242062 -9.714589 -5.860458 23.204726 0.447456 1.826116 0.031288 -0.011364 -1656460.000000 0 1 0
-19.055962 -9.582389 -6.509358 22.300754 0.465929 1.866998 0.029191 -0.010101 -1151080.000000 0 1 0
-18.064462 -10.254989 -5.732258 21.548744 0.516322 1.840052 0.036910 -0.008778 99035.700000 0 1 0
-17.263662 -11.358589 -6.440558 21.645609 0.581942 1.872917 0.024469 -0.012287 -288154.000000 0 1 0
-16.341662 -11.061489 -7.474058 21.101375 0.595046 1.932852 0.028779 -0.018046 639156.000000 0 1 0
-16.902262 -10.739589 -8.766158 21.860256 0.566038 1.983414 0.042975 -0.015614 -316456.000000 0 1 0
-15.936562 -11.103289 -9.902958 21.801964 0.608520 2.042296 0.047751 -0.010801 102740.000000 0 1 0
-15.824862 -12.438689 -10.182858 22.557435 0.666159 2.039151 0.041338 -0.014734 1186960.000000 0 1 0
-14.654062 -12.775689 -10.981058 22.328086 0.717026 2.084958 0.035047 -0.005322 908673.000000 0 1 0
-14.922362 -14.164089 -11.569858 23.604236 0.759334 2.083070 0.047145 -0.005277 676184.000000 0 1 0
-15.756062 -14.090389 -12.758158 24.689333 0.729648 2.113844 0.044373 -0.005038 554514.000000 0 1 0
-15.819162 -15.368089 -13.414258 25.814073 0.770936 2.117236 0.030612 0.000190 -96787.900000 0 0 1
-16.412062 -15.272389 -14.803458 26.865294 0.749444 2.154389 0.052651 0.001792 -176277.000000 0 0 1
-16.676862 -16.459589 -15.477758 28.081966 0.778841 2.154555 0.049693 0.009616 335161.000000 0 0 1
-17.025562 -16.232689 -16.870358 28.947866 0.761563 2.192947 0.048154 0.001604 -238153.000000 0 0 1
-17.319962 -17.561189 -17.677658 30.345940 0.792314 2.192644 0.047076 -0.005253 -149272.000000 0 0 1
-18.545962 -18.077189 -17.231458 31.107244 0.772599 2.157882 0.025424 0.001424 58162.900000 0 0 1
-19.565462 -18.090689 -18.251758 32.298716 0.746254 2.171342 0.032825 -0.005110 227687.000000 0 0 1
-20.945062 -17.704089 -17.731058 32.657631 0.701738 2.144728 0.036043 -0.011500 -793179.000000 0 0 1
-21.064562 -16.339989 -17.310458 31.786208 0.659753 2.146697 0.022359 -0.008833 96575.500000 0 0 1
-20.845162 -16.261189 -15.876558 30.838485 0.662485 2.111605 0.024940 -0.004307 -236577.000000 0 0 1
-20.892262 -14.872289 -15.241558 29.832477 0.618639 2.107033 0.034083 -0.009140 -1019920.000000 0 0 1
-22.154462 -14.335389 -15.290058 30.497696 0.574310 2.095956 0.043843 -0.009141 -516636.000000 0 0 1
-22.066362 -12.971989 -14.938958 29.637296 0.531447 2.099089 0.045725 -0.006871 -593838.000000 0 0 1
-23.481662 -12.473489 -14.685058 30.374781 0.488296 2.075402 0.053906 -0.014387 -706678.000000 0 0 1
-24.062662 -13.048889 -13.538058 30.537915 0.496903 2.030095 0.064860 -0.009093 -621225.000000 0 0 1
-25.118892 -12.272389 -13.153058 30.896168 0.454464 2.010552 0.066689 -0.007891 -1271240.000000 0 0 1
-25.860762 -12.846289 -11.961958 31.255313 0.461043 1.963532 0.062929 -0.010677 -649926.000000 0 0 1
-26.697812 -11.966789 -11.300458 31.363635 0.421382 1.939391 0.057853 -0.013945 -180450.000000 0 0 1
-27.438242 -12.593289 -10.258258 31.885419 0.430287 1.898345 0.047665 -0.007812 787648.000000 0 0 1
-28.403392 -11.486689 -9.581158 32.101329 0.384305 1.873881 0.056443 -0.008578 620976.000000 0 0 1
-27.695022 -10.536589 -8.771058 30.902515 0.363541 1.858582 0.054138 -0.015569 -160629.000000 0 0 1
-28.488262 -9.525789 -8.195358 31.136564 0.322689 1.837141 0.051048 -0.014510 -449657.000000 0 0 1
-27.736092 -8.388089 -7.464358 29.922692 0.293680 1.822914 0.049742 -0.014227 -243228.000000 0 0 1
-26.841382 -8.880089 -6.497958 29.009296 0.319501 1.796709 0.039881 -0.012965 319222.000000 0 0 1
-25.896722 -7.995589 -5.900358 27.737770 0.299464 1.785153 0.036935 -0.012194 175047.000000 0 0 1
-26.482222 -6.788889 -5.167658 27.822685 0.250952 1.757617 0.043984 -0.013575 -134860.000000 0 0 1
-27.325082 -7.073289 -4.033258 28.512431 0.253297 1.712729 0.034440 -0.011324 609807.000000 0 0 1
-26.635152 -7.128589 -2.807758 27.715188 0.261509 1.672278 0.049874 -0.008322 -49617.600000 0 0 1
-26.047932 -5.823389 -2.240058 26.784781 0.219948 1.654526 0.051187 -0.004967 234150.000000 0 0 1
-27.057422 -4.967189 -1.709458 27.562643 0.181558 1.632857 0.055979 -0.004931 310017.000000 0 0 1
-26.525562 -3.938189 -0.936658 26.832669 0.147391 1.605711 0.044937 -0.012372 180665.000000 0 0 1
-27.645732 -3.012289 -0.301558 27.810993 0.108532 1.581640 0.056392 -0.019580 862437.000000 0 0 1
-28.528512 -3.532489 0.689842 28.754658 0.123196 1.546803 0.065001 -0.018588 102404.000000 0 0 1
-27.942312 -3.841989 1.938142 28.271719 0.136640 1.502188 0.052627 -0.017374 -519210.000000 0 0 1
-28.874902 -4.182489 3.096742 29.340126 0.143848 1.465053 0.060782 -0.022923 -336925.000000 0 0 1
-29.226962 -5.557989 3.197342 29.922058 0.187923 1.463736 0.069003 -0.021227 -243266.000000 0 0 1
-30.214852 -5.767889 4.151042 31.039281 0.188626 1.436659 0.074362 -0.027922 34229.000000 0 0 1
-30.982722 -7.143089 4.003142 32.046496 0.226591 1.445552 0.059098 -0.025801 -51513.300000 0 0 1
-30.140752 -8.234989 4.276742 31.536812 0.266709 1.434766 0.044944 -0.014240 11400.100000 0 0 1
-30.725972 -9.463089 3.961342 32.393327 0.298765 1.448201 0.056680 -0.012384 -610094.000000 0 0 1
-29.953472 -10.666789 4.432942 32.103611 0.342109 1.432271 0.042039 -0.012814 -487070.000000 0 0 1
-30.039032 -10.858089 5.819842 32.467093 0.346853 1.390569 0.028094 -0.017195 128903.000000 0 0 1
-29.007592 -11.678289 6.297242 31.897932 0.382741 1.372072 0.018183 -0.015223 -463424.000000 0 0 1
-29.077852 -11.881789 7.820942 32.370751 0.387915 1.326777 0.011820 -0.015003 -96791.000000 0 0 1
-29.017432 -10.635389 8.525242 32.059361 0.351313 1.301638 0.027164 -0.008762 497921.000000 0 0 1
-29.422022 -10.909589 9.864942 32.893641 0.355081 1.266204 0.031379 -0.004750 -292840.000000 0 0 1
-29.595962 -9.621289 10.661942 32.896309 0.314311 1.240728 0.027397 -0.004638 386628.000000 0 0 1
-28.313452 -9.021089 10.866642 31.640410 0.308446 1.220217 0.043532 -0.012182 812531.000000 0 0 1
-28.373282 -7.921989 11.770942 31.723116 0.272272 1.190654 0.045917 -0.016002 198895.000000 0 0 1
-27.270842 -6.874789 11.462442 30.370201 0.246948 1.183783 0.050725 -0.017443 177819.000000 0 0 1
-27.598942 -6.115289 10.297042 30.085336 0.218054 1.221474 0.053608 -0.025781 765845.000000 0 0 1
-26.721082 -4.977589 10.174442 29.022610 0.184169 1.212617 0.052809 -0.027019 322183.000000 0 0 1
-27.004072 -4.163889 8.827142 28.713696 0.152990 1.258317 0.053874 -0.027664 -315894.000000 0 0 1
-26.315002 -4.726889 7.777242 27.844359 0.177732 1.287720 0.040685 -0.016080 49041.100000 0 0 1
-26.633782 -4.138789 6.540542 27.735656 0.154163 1.332737 0.038242 -0.021246 26969.800000 0 0 1
-25.683032 -4.756989 5.460442 26.684518 0.183144 1.364711 0.029137 -0.015264 634469.000000 0 0 1
-24.347762 -4.264789 5.652542 25.356521 0.173402 1.345985 0.043855 -0.023248 835699.000000 0 0 1
-23.603962 -4.501589 4.466842 24.441031 0.188450 1.387003 0.043017 -0.017665 119838.000000 0 1 0
-22.133762 -4.021289 4.626342 22.966872 0.179721 1.367973 0.045059 -0.014407 260491.000000 0 1 0
-22.030762 -2.628189 4.542342 22.647179 0.118735 1.368857 0.030255 -0.014793 439604.000000 0 1 0
-20.684062 -2.193189 4.586542 21.299692 0.105638 1.353763 0.021791 -0.006614 -412169.000000 0 1 0
-20.569062 -0.607789 4.719342 21.112269 0.029540 1.345356 0.022068 -0.009663 -363014.000000 0 1 0
-20.847462 0.100011 3.483042 21.136657 -0.004797 1.405254 0.027040 -0.002749 564683.000000 0 1 0
-22.163862 0.609911 3.490642 22.445341 -0.027511 1.414645 0.026362 -0.018238 -360754.000000 0 1 0
-22.175262 1.804411 2.520542 22.390875 -0.081192 1.457987 0.039014 -0.008409 -59780.600000 0 1 0
-21.439762 2.948811 3.042442 21.854412 -0.136682 1.431129 0.014773 -0.009506 580298.000000 0 1 0
-21.545662 4.102511 2.234642 22.046310 -0.188158 1.469261 0.022800 -0.007218 350574.000000 0 1 0
-20.297862 4.246511 1.310142 20.778656 -0.206235 1.507702 0.002739 -0.001375 -233731.000000 0 1 0
-20.464762 5.032111 0.098442 21.074589 -0.241108 1.566125 0.013215 0.001736 317920.000000 0 1 0
-21.460862 4.659611 -0.833158 21.976686 -0.213803 1.608716 0.040216 -0.004931 -398237.000000 0 1 0
-21.280962 3.398011 -1.694458 21.617054 -0.158337 1.649262 0.050804 0.001671 -338367.000000 0 1 0
-21.229162 2.128911 -1.059858 21.361949 -0.099948 1.620431 0.027351 0.003045 336228.000000 0 1 0
-20.777562 1.159611 -1.947358 20.900813 -0.055753 1.664103 0.022946 0.006031 -246604.000000 0 1 0
-19.832462 0.234711 -1.132658 19.866166 -0.011834 1.627842 0.010400 0.004334 52977.900000 0 1 0
-20.575462 -0.582389 -0.202058 20.584694 0.028297 1.580612 0.011789 -0.001389 729937.000000 0 1 0
-19.808962 -1.182489 0.831442 19.861635 0.059624 1.528922 0.012924 -0.005725 -822415.000000 0 1 0
-19.328062 -2.604389 0.383042 19.506500 0.133940 1.551158 0.028147 -0.001982 -228522.000000 0 1 0
-18.555262 -3.259889 1.377342 18.889725 0.173911 1.497817 0.034687 -0.002961 728009.000000 0 1 0
-17.890862 -4.438689 0.919742 18.456187 0.243188 1.520942 0.027118 0.000482 131300.000000 0 1 0
-18.867162 -5.607289 0.671542 19.694224 0.288884 1.536691 0.027526 0.001077 25320.500000 0 1 0
-19.587962 -6.009989 1.830142 20.570796 0.297702 1.481711 0.067089 -0.006755 528571.000000 0 1 0
-20.301062 -7.210389 1.564842 21.600268 0.341276 1.498287 0.022076 -0.005100 122388.000000 0 1 0
-21.184862 -7.623489 2.799542 22.688178 0.345428 1.447089 0.040175 -0.006088 56794.400000 0 1 0
-20.335362 -8.039689 3.853642 22.203921 0.376496 1.396356 0.037463 -0.010176 51459.400000 0 1 0
-20.907362 -8.711889 4.897442 23.173255 0.394811 1.357850 0.036083 -0.013119 -888092.000000 0 1 0
-19.936462 -9.551689 5.681642 22.824950 0.446794 1.319229 0.025184 -0.011867 -489765.000000 0 1 0
-19.389562 -10.671789 5.000842 22.690320 0.503141 1.348577 0.025717 -0.008480 -4634.060000 0 1 0
-18.580262 -11.274089 5.962142 22.536157 0.545388 1.303050 0.039136 -0.012195 -242232.000000 0 1 0
-17.959262 -12.642489 5.505842 22.642480 0.613375 1.325170 0.028936 -0.008844 -89119.600000 0 1 0
-18.853462 -13.704889 5.410942 23.928128 0.628563 1.342690 0.039121 -0.006351 106880.000000 0 1 0
-18.084662 -14.850089 5.037842 23.936583 0.687501 1.358745 0.025975 -0.005929 -87210.500000 0 1 0
-18.908162 -16.111589 4.942842 25.328513 0.705710 1.374387 0.041045 -0.009533 -626450.000000 0 0 1
-18.088562 -17.227489 4.638842 25.406718 0.761021 1.387183 0.040621 -0.015951 38501.700000 0 0 1
-18.680562 -18.484689 4.870642 26.727706 0.780128 1.387540 0.050289 -0.013400 63157.700000 0 0 1
-17.664362 -19.650889 4.683842 26.835154 0.838584 1.395356 0.052572 -0.008630 -167998.000000 0 0 1
-17.259262 -19.988389 3.351942 26.620544 0.858537 1.444546 0.052611 -0.013059 315137.000000 0 0 1
-16.422862 -21.127689 3.210342 26.951734 0.910042 1.451398 0.052344 -0.006567 501374.000000 0 0 1
-14.970962 -21.080089 3.768842 26.128606 0.953261 1.426049 0.038377 -0.006648 -81375.900000 0 0 1
-14.594162 -22.451189 3.889642 27.058728 0.994393 1.426548 0.038783 -0.008531 -201915.000000 0 0 1
-13.211062 -22.465089 4.182042 26.395111 1.039195 1.411686 0.028854 -0.003474 -91827.300000 0 0 1
-12.683962 -23.876889 4.345342 27.383768 1.082483 1.411440 0.028516 -0.000241 -412491.000000 0 0 1
-12.587462 -24.628689 3.151742 27.837924 1.098317 1.457335 0.032284 -0.004056 66189.600000 0 0 1
-12.166662 -25.969139 3.310142 28.868337 1.132661 1.455880 0.038128 -0.003833 45175.200000 0 0 1
18.344738 19.474111 -24.472458 36.258401 0.815252 2.311688 0.049911 -0.011580 490462.000000 0 0 1
17.250338 19.737711 -25.357818 36.471500 0.852545 2.339602 0.041198 -0.015485 251114.000000 0 0 1
17.638938 19.396411 -26.676268 37.402890 0.832817 2.364869 0.041091 -0.016518 111451.000000 0 0 1
16.650938 19.786111 -27.786068 37.957997 0.871230 2.392081 0.032853 -0.014823 -428963.000000 0 0 1
16.647738 21.166611 -28.045088 38.880581 0.904336 2.376493 0.031810 -0.012620 269245.000000 0 0 1
15.916638 21.380511 -29.247438 39.571180 0.930859 2.402544 0.007242 -0.009670 -54769.900000 0 0 1
15.643838 22.861211 -29.590918 40.533777 0.970688 2.389164 0.018389 -0.009106 -573881.000000 0 0 1
14.716338 23.394311 -28.705328 39.847964 1.009285 2.375134 0.013783 -0.010000 -176522.000000 0 0 1
14.422238 24.723211 -28.947588 40.708733 1.042711 2.361844 0.013709 -0.008491 -131865.000000 0 0 1
13.518638 25.424611 -27.924418 40.111564 1.082100 2.340843 0.010371 -0.004783 508758.000000 0 0 1
12.153638 25.001811 -27.930368 39.406940 1.118322 2.358546 0.002942 -0.011734 -19406.700000 0 0 1
11.506038 25.504211 -26.823178 38.759987 1.146993 2.335097 0.004763 -0.004392 -280651.000000 0 0 1
9.960638 25.359011 -26.785308 38.206629 1.196525 2.347685 0.004684 -0.006134 557308.000000 0 0 1
9.270838 26.146611 -25.827148 37.902972 1.230055 2.320472 0.010136 -0.001098 49937.800000 0 0 1
9.280138 27.564011 -26.124568 39.094612 1.246040 2.302636 0.015659 -0.011539 -669622.000000 0 0 1
8.736838 28.596211 -25.135558 39.062410 1.274279 2.269821 0.032924 -0.013398 -300579.000000 0 0 1
9.647238 28.856511 -24.097258 38.812952 1.248160 2.240631 0.028130 -0.011581 -209926.000000 0 0 1
9.103938 29.718911 -23.183858 38.776109 1.273538 2.211663 0.045881 -0.018496 -315537.000000 0 0 1
10.079538 30.012411 -22.029258 38.569808 1.246786 2.178706 0.029818 -0.011127 -288570.000000 0 0 1
11.081038 30.934911 -22.314658 39.720298 1.226831 2.167350 0.018767 -0.015662 -361503.000000 0 0 1
11.898738 31.111511 -21.181658 39.473646 1.205506 2.137202 0.003008 -0.009207 -528189.000000 0 0 1
13.058938 32.049911 -21.463258 40.723508 1.183879 2.125920 -0.005518 0.007293 103536.000000 0 0 1
14.159238 31.461511 -22.169358 41.009647 1.147901 2.141933 -0.003542 0.012222 35702.200000 0 0 1
15.083838 32.408611 -22.620558 42.302835 1.135188 2.134983 -0.004780 0.015331 99959.600000 0 0 1
16.383738 31.736611 -23.140858 42.557475 1.094241 2.145702 -0.006859 0.015316 84925.100000 0 0 1
17.219838 31.141311 -22.190658 41.937208 1.065685 2.128383 -0.003398 0.017706 -126964.000000 0 0 1
18.384238 30.664611 -22.841758 42.426931 1.030725 2.139308 0.005544 0.021898 85852.400000 0 0 1
19.327738 29.812411 -21.961158 41.768813 0.995609 2.124427 0.006080 0.017297 -5481.860000 0 0 1
20.089838 30.583311 -21.061458 42.219966 0.989594 2.093068 0.013152 0.018913 623519.000000 0 0 1
21.049838 29.741811 -20.365558 41.742388 0.954886 2.080464 0.016116 0.007882 365668.000000 0 0 1
21.702238 30.434111 -19.229758 42.035769 0.951340 2.045935 0.033136 0.000970 -963093.000000 0 0 1
22.710038 31.306311 -19.598858 43.358346 0.943217 2.039825 0.028538 0.002522 -278714.000000 0 0 1
23.201338 32.025511 -18.481058 43.651861 0.943839 2.007963 0.035818 -0.004516 -405066.000000 0 0 1
24.370338 32.971911 -18.754158 45.086347 0.934292 1.999796 0.041663 -0.005722 684670.000000 0 0 1
25.632138 32.342311 -19.065158 45.458903 0.900629 2.003573 0.051605 -0.001954 714603.000000 0 0 1
26.690038 33.143511 -18.525858 46.411829 0.892840 1.981399 0.048266 -0.009892 308320.000000 0 0 1
28.064338 32.566511 -18.953258 46.983089 0.859518 1.986032 0.051693 -0.002499 69743.500000 0 0 1
28.311238 31.290011 -18.419958 46.042218 0.835335 1.982386 0.047100 0.009746 245578.000000 0 0 1
29.598338 30.825011 -18.817758 46.694228 0.805697 1.985588 0.039129 0.011031 442537.000000 0 0 1
30.001638 29.434011 -18.291558 45.837107 0.775848 1.981283 0.037529 0.005650 192886.000000 0 0 1
30.636138 29.579411 -16.999658 45.853057 0.767851 1.950604 0.036089 0.003398 188809.000000 0 0 1
30.925338 28.322011 -16.399458 45.027270 0.741486 1.943583 0.035607 -0.000974 -160156.000000 0 0 1
31.415538 28.499111 -14.946858 44.972702 0.736760 1.909595 0.036667 0.000477 476331.000000 0 0 1
32.638138 29.197211 -14.674258 46.185052 0.729809 1.894128 0.016191 0.002438 294329.000000 0 0 1
32.621738 30.612311 -14.854658 47.137588 0.753631 1.891394 0.020402 -0.005286 -397653.000000 0 0 1
33.986738 31.315111 -14.917458 48.561972 0.744509 1.883029 0.017365 -0.004470 -384242.000000 0 0 1
34.706538 31.270711 -13.756458 48.699500 0.733369 1.857171 0.013037 -0.006169 -798639.000000 0 0 1
-35.456762 31.893311 -13.944858 49.687265 -0.732538 1.855270 0.022045 -0.011167 -352539.000000 0 0 1
-34.684462 32.130311 -12.611958 48.932916 -0.747189 1.831479 0.010917 -0.002847 -292083.000000 0 0 1
-35.351362 32.887211 -11.663158 49.672092 -0.749303 1.807812 0.020133 -0.002729 695939.000000 0 0 1
-34.335662 33.339911 -10.765258 49.054848 -0.770686 1.792051 0.024165 -0.002291 594514.000000 0 0 1
-34.860962 -34.187703 -10.044258 49.849502 0.775648 1.773677 0.021286 0.001296 263963.000000 0 0 1
-33.919062 -33.578003 -9.182158 48.603468 0.780345 1.760858 0.013690 0.003530 -134190.000000 0 0 1
-33.783462 -34.077303 -7.813558 48.617245 0.789728 1.732212 0.009282 0.001352 136752.000000 0 0 1
-33.264662 -33.036603 -6.778258 47.369818 0.781958 1.714382 -0.000560 -0.000416 178184.000000 0 0 1
-34.226362 -32.031003 -6.451758 47.318645 0.752276 1.707569 0.013569 0.000865 -38892.900000 0 0 1
-33.820362 -31.166903 -5.473758 46.315815 0.744590 1.689257 0.027863 -0.005373 -442032.000000 0 0 1
-35.013862 -30.370803 -4.955558 46.614523 0.714506 1.677307 0.030995 -0.005716 -267911.000000 0 0 1
35.538938 -31.231503 -4.211358 47.499036 -0.720976 1.659575 0.023233 -0.007630 -626645.000000 0 0 1
34.243638 -30.742003 -4.090758 46.199911 -0.731567 1.659457 0.017662 -0.003436 -620639.000000 0 0 1
33.855338 -29.769003 -2.962158 45.179108 -0.721260 1.636408 0.020432 0.000359 -563213.000000 0 0 1
34.315538 -28.475903 -3.261758 44.710986 -0.692664 1.643813 0.042640 -0.004866 146694.000000 0 0 1
33.708938 -27.576003 -2.383058 43.616595 -0.685658 1.625460 0.032715 -0.006256 -258529.000000 0 0 1
33.937738 -26.098303 -2.669158 42.895406 -0.655554 1.633061 0.061600 -0.021947 -255347.000000 0 0 1
33.276138 -25.660303 -3.810158 42.193244 -0.656889 1.661222 0.052063 -0.018675 267843.000000 0 0 1
33.358038 -24.246103 -3.878058 41.420665 -0.628516 1.664560 0.052598 -0.025580 -338213.000000 0 0 1
32.952638 -23.824803 -5.310458 41.008518 -0.625997 1.700657 0.061537 -0.036331 67290.100000 0 0 1
34.005238 -24.014103 -6.286958 42.101772 -0.614867 1.720685 0.060215 -0.037666 1071840.000000 0 0 1
33.539338 -23.736403 -7.572758 41.780985 -0.615887 1.753053 0.046986 -0.036283 18311.300000 0 0 1
34.782738 -23.478903 -8.452558 42.808217 -0.593761 1.769554 0.040415 -0.034439 247295.000000 0 0 1
35.382238 -24.667103 -8.961158 44.053048 -0.608818 1.775643 0.040559 -0.019776 384840.000000 0 0 1
-34.903562 -24.384903 -9.813358 43.694212 0.609810 1.797320 0.039042 -0.014120 527626.000000 0 0 1
-34.213362 -25.609803 -10.411758 43.986598 0.642561 1.809767 0.025595 -0.008148 -107541.000000 0 0 1
-33.547562 -26.506603 -9.503858 43.799112 0.668688 1.789524 0.021633 -0.000153 606629.000000 0 0 1
-34.385362 -27.616003 -9.081558 45.027452 0.676648 1.773879 0.021803 0.006073 228789.000000 0 0 1
-33.566562 -28.775203 -8.519858 45.025708 0.708693 1.761166 0.015603 0.001880 -187448.000000 0 0 1
-32.893462 -29.445303 -9.578758 45.174753 0.730141 1.784456 -0.000881 0.006207 130186.000000 0 0 1
-32.044162 -30.435703 -9.022858 45.106233 0.759660 1.772191 -0.013073 0.001480 -238826.000000 0 0 1
-31.502362 -31.346103 -10.136658 45.582111 0.782912 1.795054 -0.017167 0.010837 -31216.800000 0 0 1
-30.635862 -30.655003 -11.031658 44.721166 0.785710 1.820046 -0.016309 0.014634 337590.000000 0 0 1
-30.327462 -31.479203 -12.178258 45.376262 0.804031 1.842511 -0.016858 0.014441 -190854.000000 0 0 1
-30.685962 -30.775003 -13.554458 45.524196 0.786847 1.873123 -0.012224 0.015148 -399883.000000 0 0 1
-29.823762 -29.702003 -13.855758 44.313066 0.783353 1.888808 -0.014080 0.015359 -32059.500000 0 0 1
-30.120462 -29.244303 -15.103658 44.616051 0.770640 1.916145 -0.020710 0.020939 -195819.000000 0 0 1
-29.184362 -28.103203 -15.501158 43.379752 0.766528 1.936211 -0.014942 0.015103 -150223.000000 0 0 1
-27.887762 -28.554803 -15.815758 42.932997 0.797216 1.948065 -0.003273 0.009508 -226037.000000 0 0 1
-27.130862 -27.539903 -16.444958 42.011505 0.792880 1.972992 0.023173 0.012090 -858065.000000 0 0 1
-25.781562 -28.019103 -16.902158 41.658637 0.826964 1.988574 0.037788 0.007708 -1070480.000000 0 0 1
-25.856562 -28.850903 -18.043558 42.737646 0.840077 2.006660 0.018579 0.012881 129748.000000 0 0 1
-26.123462 -28.237103 -19.294958 43.035621 0.824260 2.035713 0.014246 0.011236 -423257.000000 0 0 1
-24.865562 -27.623503 -19.902658 42.160051 0.837893 2.062438 0.032135 0.010240 -307171.000000 0 0 1
-24.492962 -26.450103 -19.294258 40.887425 0.823797 2.062227 0.034613 0.009588 -615926.000000 0 0 1
-23.139962 -26.227003 -19.573658 40.080439 0.847849 2.081005 0.049065 0.001797 -264839.000000 0 0 1
-22.586262 -25.067703 -18.705758 38.580233 0.837423 2.076992 0.045714 -0.002736 -162990.000000 0 0 1
-22.826762 -25.383003 -17.318058 38.278885 0.838372 2.040271 0.055449 0.001683 211607.000000 0 0 1
-22.207762 -24.501403 -16.435958 36.927553 0.834463 2.032067 0.061589 -0.004873 -360897.000000 0 0 1
-22.635262 -24.721903 -15.022558 36.731524 0.829431 1.992135 0.052028 0.000893 142831.000000 0 0 1
-23.996862 -24.379503 -14.812058 37.277428 0.793308 1.979420 0.015818 0.013891 221326.000000 0 0 1
-24.248362 -24.401503 -13.442158 36.933833 0.788546 1.943304 0.013041 0.013253 157286.000000 0 0 1
-25.720862 -24.243803 -12.957458 37.645988 0.755845 1.922175 -0.007643 0.029220 17327.800000 0 0 1
-26.409162 -25.437703 -13.244458 38.986360 0.766663 1.917416 0.003819 0.018099 813159.000000 0 0 1
-27.754062 -25.588003 -12.774658 39.852550 0.744814 1.897104 -0.004609 0.019110 1059560.000000 0 0 1
-28.949062 -24.733503 -13.327458 40.341238 0.707031 1.907490 -0.002667 0.018416 -363344.000000 0 0 1
-29.109262 -23.482103 -12.714058 39.501969 0.678806 1.898488 0.003384 0.021410 189853.000000 0 0 1
-29.666862 -23.434803 -11.402058 39.488221 0.668572 1.863713 0.010120 0.016351 -590535.000000 0 0 1
-31.126862 -23.897203 -11.192858 40.807327 0.654756 1.848643 0.015961 0.009001 -26256.900000 0 0 1
-32.185362 -23.016803 -11.592558 41.231761 0.620810 1.855795 0.032393 0.001559 550027.000000 0 0 1
-32.349362 -23.008403 -13.020858 41.778111 0.618235 1.887743 0.029501 0.011594 -1047630.000000 0 0 1
-33.774562 -22.609603 -13.442858 42.809177 0.589911 1.890219 -0.000783 0.005893 12385.400000 0 0 1
-34.644162 -23.724103 -13.360858 44.063177 0.600447 1.878867 0.002207 0.013745 835118.000000 0 0 1
35.378238 -23.346503 -13.469758 44.475986 -0.583311 1.878483 0.011024 0.005656 1083660.000000 0 0 1
34.321038 -24.497003 -13.342958 44.227495 -0.619902 1.877260 0.010948 0.010965 125962.000000 0 0 1
34.327538 -25.527103 -14.339258 45.117925 -0.639414 1.894223 -0.002767 0.018303 262322.000000 0 0 1
33.508838 -26.648303 -13.989058 45.040737 -0.671845 1.886607 0.002069 0.004182 280763.000000 0 0 1
33.479438 -27.732703 -15.036258 46.000703 -0.691790 1.903786 0.001731 0.003161 650028.000000 0 0 1
32.617338 -27.505603 -16.180658 45.631816 -0.700581 1.933274 0.010475 -0.007846 383975.000000 0 0 1
32.760838 -28.567903 -17.103858 46.711236 -0.717136 1.945677 0.010501 -0.009067 15544.200000 0 0 1
31.756738 -28.523203 -18.286358 46.437640 -0.731808 1.975540 0.014723 -0.003686 1431010.000000 0 0 1
30.377338 -28.657703 -17.853858 45.418133 -0.756277 1.974797 0.029955 -0.013521 1421800.000000 0 0 1
29.414138 -28.210103 -18.838558 44.898694 -0.764507 2.003778 0.037209 -0.015390 739234.000000 0 0 1
27.987738 -28.174603 -18.255658 43.708017 -0.788725 2.001679 0.034569 -0.019282 20483.700000 0 0 1
27.688738 -27.103003 -17.353858 42.454627 -0.774708 1.991894 0.020438 -0.013658 812232.000000 0 0 1
26.274138 -27.095403 -17.076858 41.425961 -0.800785 1.995692 0.030697 -0.013270 1010170.000000 0 0 1
25.857938 -26.167703 -15.931058 40.089653 -0.791352 1.979463 0.034697 -0.009439 -132176.000000 0 0 1
25.709438 -24.821903 -16.399158 39.319645 -0.767836 2.001019 0.040942 -0.012599 61036.300000 0 0 1
25.496338 -24.024103 -15.307658 38.230160 -0.755677 1.982758 0.041399 -0.010168 -166965.000000 0 0 1
25.213638 -22.560803 -15.575958 37.246850 -0.729927 2.002239 0.038791 -0.015324 290014.000000 0 0 1
23.923238 -22.327403 -16.122758 36.479824 -0.750908 2.028583 0.037445 -0.010098 136707.000000 0 0 1
23.746838 -20.929703 -16.226258 35.570440 -0.722425 2.044486 0.036015 -0.007457 -1268650.000000 0 0 1
22.320138 -20.482803 -16.313358 34.407258 -0.742499 2.064767 0.038114 -0.009711 -1200010.000000 0 0 1
21.744838 -20.705703 -15.022558 33.574415 -0.760924 2.034698 0.041567 -0.016001 532730.000000 0 0 1
20.428838 -20.158803 -14.889858 32.332996 -0.778745 2.049373 0.037072 -0.016695 564925.000000 0 0 1
20.365238 -18.845403 -14.067358 31.109206 -0.746657 2.040019 0.026985 -0.005663 -217904.000000 0 0 1
20.153938 -19.090703 -12.697158 30.526283 -0.758312 1.999775 0.033503 -0.022550 151613.000000 0 0 1
19.950638 -17.872603 -11.977858 29.341557 -0.730513 1.991301 0.032091 -0.026319 -435310.000000 0 0 1
19.042838 -18.062403 -10.758758 28.366018 -0.758981 1.959818 0.034999 -0.012023 -307809.000000 0 0 1
19.598738 -18.622303 -9.577558 28.681533 -0.759857 1.911264 0.043841 -0.024693 134547.000000 0 0 1
18.586138 -18.673603 -8.608758 27.717480 -0.787746 1.886609 0.035392 -0.031597 -100404.000000 0 0 1
19.176238 -19.287903 -7.368858 28.178917 -0.788301 1.835375 0.029168 -0.027678 35965.800000 0 0 1
20.251538 -18.575303 -6.807058 28.310823 -0.742253 1.813616 0.032610 -0.026337 148223.000000 0 0 1
20.958438 -19.298403 -5.797158 29.073897 -0.744185 1.771536 0.036127 -0.015349 15309.000000 0 0 1
22.294238 -18.630503 -5.443258 29.559393 -0.696112 1.756000 0.036855 -0.021661 27834.300000 0 0 1
23.291838 -18.662503 -6.474458 30.540421 -0.675501 1.784414 0.031360 -0.036940 -218944.000000 0 0 1
24.312138 -17.814503 -6.137858 30.758899 -0.632364 1.771692 0.039710 -0.036817 -842107.000000 0 0 1
25.414538 -17.701103 -7.216158 31.800955 -0.608370 1.799707 0.041248 -0.045010 368481.000000 0 0 1
26.353238 -18.780603 -7.340658 33.182668 -0.619165 1.793861 0.052695 -0.048873 521978.000000 0 0 1
25.924238 -19.764203 -8.232258 33.622313 -0.651379 1.818156 0.058989 -0.049316 -452474.000000 0 0 1
26.675238 -21.097203 -8.184658 34.980693 -0.669162 1.806962 0.053436 -0.054673 942877.000000 0 0 1
28.075438 -20.957103 -8.508458 36.053075 -0.641230 1.809042 0.053950 -0.043961 916137.000000 0 0 1
28.692238 -22.238003 -8.532758 37.290498 -0.659343 1.801660 0.054881 -0.046968 106754.000000 0 0 1
-29.889492 29.915111 3.636842 42.444342 -0.785827 1.485006 0.031395 -0.011049 337120.000000 0 0 1
-29.098362 30.907411 3.024842 42.557401 -0.815537 1.499660 0.019845 -0.007398 281012.000000 0 0 1
-27.863482 31.161211 3.703242 41.965566 -0.841210 1.482437 0.022938 -0.009985 223780.000000 0 0 1
-27.089942 32.325811 3.121542 42.291453 -0.873294 1.496919 0.017678 -0.013879 -886691.000000 0 0 1
-26.503352 31.890111 1.920042 41.510160 -0.877387 1.524525 0.020209 -0.019696 -118694.000000 0 0 1
-26.139092 32.908111 0.995942 42.037933 -0.899537 1.547103 0.016397 -0.023816 21563.900000 0 0 1
-25.058062 33.914211 1.486742 42.193490 -0.934459 1.535553 0.041023 -0.018036 156295.000000 0 0 1
-23.766762 33.317611 1.559442 40.955513 -0.951174 1.532711 0.021620 -0.019182 -338702.000000 0 0 1
-22.822962 33.954911 2.336542 40.979056 -0.979004 1.513747 0.024133 -0.015990 376140.000000 0 0 1
-21.364162 33.529211 1.975542 39.806258 -1.003486 1.521147 0.018286 -0.019521 338080.000000 0 0 1
-20.917762 34.219011 0.851542 40.115067 -1.022116 1.549567 0.033138 -0.018585 663098.000000 0 0 1
-19.479062 34.085211 0.833942 39.267428 -1.051610 1.549557 0.028511 -0.018975 457982.000000 0 0 1
-18.753562 -34.232503 -0.440058 39.035292 1.069621 1.582070 0.033274 -0.016764 38934.100000 0 0 1
-18.550162 -32.854303 -0.665558 37.735351 1.056799 1.588435 0.035388 -0.010140 459663.000000 0 0 1
-17.613062 -32.271003 0.248142 36.765461 1.071194 1.564047 0.038136 -0.010230 4742.860000 0 0 1
-17.676162 -30.747503 0.205942 35.466858 1.049051 1.564990 0.035589 -0.011254 -265339.000000 0 0 1
-17.007162 -30.187303 -0.883058 34.659726 1.057733 1.596277 0.044287 -0.007199 -76638.400000 0 0 1
-17.012162 -28.746803 -0.736558 33.411598 1.036433 1.592843 0.020763 0.002655 -14312.400000 0 0 1
-16.161662 -28.090203 -1.843858 32.460108 1.048700 1.627631 0.024961 0.005121 -193708.000000 0 0 1
-16.575862 -28.352603 -3.138158 32.992080 1.041753 1.666059 0.016798 0.002562 -734543.000000 0 0 1
-15.669362 -27.849903 -4.046658 32.210580 1.058303 1.696761 0.024049 0.006328 -577388.000000 0 0 1
-16.091562 -27.918303 -5.527558 32.694402 1.047925 1.740680 0.042004 0.000591 -283308.000000 0 0 1
-17.204662 -27.093303 -5.732958 32.602366 1.005027 1.747560 0.021613 0.008561 -529868.000000 0 0 1
-17.532462 -26.929903 -7.102358 32.909731 0.993690 1.788321 0.045608 0.000736 54225.800000 0 0 1
-18.313162 -25.677903 -7.410258 32.398125 0.951274 1.801564 0.026489 0.006503 -450719.000000 0 0 1
-17.467062 -24.625203 -7.145958 31.025209 0.953845 1.803211 0.042351 0.008481 -177722.000000 0 0 1
-17.998562 -23.301703 -7.411458 30.361938 0.913104 1.817392 0.020118 0.012968 -268553.000000 0 0 1
-17.054362 -22.178003 -7.026058 28.845807 0.915260 1.816844 0.029828 0.009773 -1392200.000000 0 0 1
-15.891662 -22.243903 -7.706158 28.402835 0.950453 1.845557 0.052348 0.007810 -1998690.000000 0 0 1
-14.974562 -21.282103 -7.264658 27.017414 0.957643 1.843035 0.072440 -0.005846 287517.000000 0 0 1
-13.792562 -21.064503 -8.223658 26.487291 0.991070 1.886490 0.059359 -0.001550 164993.000000 0 0 1
-14.196662 -20.232403 -9.326058 26.417243 0.958944 1.931603 0.058961 0.002920 -36906.400000 0 0 1
-13.145762 -20.047103 -10.285258 26.086087 0.990394 1.976082 0.049801 0.002522 394978.000000 0 0 1
-13.491362 -19.253003 -11.541758 26.189829 0.959573 2.027170 0.057663 0.000863 -574577.000000 0 0 1
-14.394462 -19.939203 -12.342558 27.515652 0.945511 2.035955 0.051462 0.014324 -698020.000000 0 0 1
-14.557062 -19.233303 -13.532558 27.657876 0.922914 2.082065 0.045636 0.005652 -27303.700000 0 0 1
-15.759362 -19.853503 -14.279358 29.093284 0.899858 2.083819 0.050913 0.006427 623056.000000 0 0 1
-17.030962 -19.519103 -13.720758 29.313960 0.853368 2.057893 0.056255 0.003929 311161.000000 0 0 1
-18.064262 -19.677403 -14.659258 30.469847 0.828114 2.072713 0.038984 0.010938 -489915.000000 0 0 1
-19.460162 -19.372803 -14.135958 30.884118 0.783149 2.046214 0.032184 0.014537 382942.000000 0 0 1
-20.507862 -20.127003 -14.793458 32.318958 0.776026 2.046240 0.046258 0.000022 1117160.000000 0 0 1
-21.844962 -19.709003 -14.454658 32.780853 0.734041 2.027451 0.038471 0.005016 947057.000000 0 0 1
-22.809262 -20.500603 -15.391558 34.313805 0.732143 2.035942 0.036883 -0.004198 -220602.000000 0 0 1
-22.946362 -19.983703 -16.693758 34.706851 0.716496 2.072584 0.032899 -0.021201 95709.900000 0 0 1
-23.696662 -20.812603 -17.550658 36.093238 0.720692 2.078600 0.048885 -0.026667 -165875.000000 0 0 1
-24.038562 -20.085203 -18.864658 36.566968 0.696040 2.112847 0.044022 -0.024812 265035.000000 0 0 1
-22.901162 -19.826203 -19.690458 36.128323 0.713555 2.147203 0.031279 -0.028212 447412.000000 0 0 1
-23.260462 -19.238703 -20.936658 36.735820 0.691048 2.177211 0.031481 -0.029525 651608.000000 0 0 1
-22.006862 -18.590203 -21.670958 36.048968 0.701436 2.215740 0.015719 -0.017329 971907.000000 0 0 1
-20.972562 -19.502303 -22.022658 36.127353 0.749089 2.226332 0.010007 -0.019235 -642161.000000 0 0 1
-19.957462 -18.739803 -22.580858 35.487683 0.753942 2.260490 0.019767 -0.020374 -925613.000000 0 0 1
-18.653562 -19.528903 -22.692358 35.274304 0.808319 2.269612 0.026375 -0.016086 -767485.000000 0 0 1
-18.613262 -20.665303 -23.526458 36.428046 0.837594 2.272911 0.014683 -0.007962 -1250560.000000 0 0 1
-17.366562 -21.219303 -23.596458 36.175256 0.884917 2.281387 0.012805 -0.002446 -1241750.000000 0 0 1
-17.423462 -22.655503 -24.109658 37.391503 0.915207 2.271545 0.012633 0.004088 -332830.000000 0 0 1
-17.542762 -22.688503 -25.503668 38.379080 0.912611 2.297648 0.016851 0.004318 166973.000000 0 0 1
-17.677762 -24.054103 -25.848318 39.487197 0.937019 2.284450 0.023377 -0.007185 -134255.000000 0 0 1
-17.573762 -24.390503 -27.365668 40.652350 0.946433 2.309274 0.018909 0.006828 -263812.000000 0 0 1
-16.299162 -24.238403 -27.917148 40.404579 0.978799 2.333585 0.016373 0.005278 -346452.000000 0 0 1
-16.373862 -24.510903 -29.287588 41.552985 0.981855 2.352973 0.015501 0.007345 430957.000000 0 0 1
-15.043462 -24.299503 -30.068368 41.483471 1.016462 2.381581 0.007334 -0.002801 585774.000000 0 0 1
-14.007762 -25.241103 -29.913378 41.570914 1.064154 2.373986 0.012612 0.002772 851913.000000 0 0 1
-12.822562 -24.955103 -30.669318 41.566601 1.096150 2.400654 0.023498 0.002117 464437.000000 0 0 1
-11.682862 -25.956703 -30.572848 41.772464 1.147867 2.391888 0.033939 0.000647 -1370540.000000 0 0 1
-11.938262 -27.172503 -31.246098 43.095077 1.156833 2.381904 0.035236 0.005445 209919.000000 0 0 1
-11.076462 -28.254603 -30.919448 43.324622 1.197185 2.365519 0.034611 0.000719 1255830.000000 0 0 1
-9.617762 -28.167603 -31.555438 43.378115 1.241761 2.385396 0.042844 -0.004358 1045810.000000 0 0 1
-8.882062 -27.080003 -30.958658 42.079165 1.253859 2.397532 0.041807 -0.012426 61255.100000 0 0 1
-7.893062 -26.543903 -31.834188 42.193539 1.281764 2.425658 0.046759 -0.012129 -19152.600000 0 0 1
-7.168162 -25.297703 -31.261538 40.848991 1.294682 2.442296 0.053865 -0.015550 -510173.000000 0 0 1
-7.842862 -24.074903 -31.171928 40.159688 1.255869 2.459412 0.057882 -0.012053 353930.000000 0 0 1
-8.818362 -24.011803 -30.095428 39.497658 1.218836 2.437122 0.048864 -0.005762 260031.000000 0 0 1
-9.332962 -22.515803 -29.931168 38.599746 1.177847 2.458183 0.046878 -0.019771 -75435.200000 0 0 1
-9.995562 -22.146503 -31.092268 39.460208 1.146830 2.478252 0.044387 -0.019308 -252912.000000 0 0 1
-10.470562 -20.820103 -31.012888 38.793151 1.104826 2.497163 0.035176 -0.018934 186094.000000 0 0 1
-10.938362 -20.211803 -32.352548 39.684407 1.074745 2.523950 0.032442 -0.015970 246381.000000 0 0 1
-11.583162 -18.947103 -32.170718 39.091143 1.022079 2.537410 0.036021 -0.012565 122905.000000 0 0 1
-12.215962 -18.614703 -33.388858 40.131693 0.990038 2.553468 0.042977 -0.016667 33997.900000 0 0 1
-13.062062 -17.299003 -33.231318 39.676107 0.924054 2.563607 0.049576 -0.019937 304708.000000 0 0 1
-12.311762 -16.080203 -33.381188 39.044284 0.917356 2.596264 0.054589 -0.022617 405923.000000 0 0 1
-11.607962 -15.648903 -32.218258 37.651682 0.932580 2.597684 0.046265 -0.014070 138716.000000 0 0 1
-11.292562 -14.104303 -32.198718 36.921685 0.895661 2.630236 0.048778 -0.018710 -59128.900000 0 0 1
-10.372562 -13.515703 -33.113128 37.239006 0.916223 2.666402 0.049099 -0.020822 201596.000000 0 0 1
-10.733162 -13.606403 34.261056 38.394725 0.902903 0.468299 0.050385 -0.022353 -407212.000000 0 0 1
-11.500862 -12.434103 33.698860 37.715911 0.824369 0.465735 0.048717 -0.021286 286360.000000 0 0 1
-12.733762 -12.010003 34.267595 38.479305 0.756156 0.472252 0.043653 -0.014008 168189.000000 0 0 1
-13.507062 -11.242303 33.382399 37.725517 0.694145 0.484569 0.036027 -0.020854 318871.000000 0 0 1
-14.526262 -10.362903 34.122560 38.506508 0.619657 0.481825 0.046266 -0.018001 -279144.000000 0 0 1
-13.850462 -9.427303 -33.871028 37.788304 0.597620 2.682232 0.040971 -0.020295 -284148.000000 0 0 1
-14.566962 -8.810803 -32.832198 36.983508 0.543977 2.663236 0.047568 -0.021070 -449814.000000 0 0 1
-13.837362 -7.589503 -32.291638 35.941940 0.501675 2.686998 0.050313 -0.031435 -713217.000000 0 0 1
-14.063662 -6.369403 -32.992988 36.426545 0.425261 2.703919 0.052502 -0.038919 1044520.000000 0 0 1
-15.350262 -5.706203 -32.900228 36.750732 0.355904 2.679735 0.054194 -0.030622 748394.000000 0 0 1
-15.753362 -5.180503 -31.490438 35.590079 0.317711 2.656881 0.059737 -0.030008 -535260.000000 0 0 1
-15.971662 -6.229203 -30.603028 35.077661 0.371870 2.630962 0.052367 -0.035248 -70550.900000 0 0 1
-16.370562 -5.897303 -29.280078 34.060189 0.345766 2.605394 0.066430 -0.042514 549927.000000 0 0 1
-15.272162 -5.195603 -28.368518 32.634431 0.327919 2.624544 0.059594 -0.036350 704807.000000 0 0 1
-14.872562 -3.941503 -28.838128 32.685872 0.259063 2.651483 0.054214 -0.024839 215968.000000 0 0 1
-13.716662 -3.328903 -28.279018 31.605874 0.238087 2.678643 0.046726 -0.017801 393061.000000 0 0 1
-13.487262 -1.859903 -28.818288 31.872547 0.137036 2.700235 0.034978 -0.000162 7504.580000 0 0 1
-13.427662 -1.899903 -30.238618 33.140395 0.140559 2.720004 0.042698 -0.005110 313633.000000 0 0 1
-13.397262 -0.639903 -30.828058 33.619418 0.047727 2.731219 0.045661 -0.011232 -83084.300000 0 0 1
-13.635962 -0.736903 -32.373548 35.135867 0.053989 2.742417 0.040668 -0.016488 202214.000000 0 0 1
-14.991362 -1.051903 -32.703138 35.990870 0.070052 2.710838 0.016492 -0.019654 816237.000000 0 0 1
-14.934162 -1.480903 -34.068738 37.227694 0.098839 2.726664 0.025547 -0.014462 26113.800000 0 0 1
-16.352062 -1.408903 34.105504 37.849179 0.085948 0.448520 0.007702 -0.019417 -91319.600000 0 0 1
-16.271262 -1.919903 32.829330 36.690665 0.117450 0.462903 0.016609 -0.018038 1213560.000000 0 0 1
-17.542662 -1.940903 32.122235 36.651740 0.110191 0.502424 0.011725 -0.013771 1018590.000000 0 0 1
-17.343262 -2.068903 30.598655 35.232751 0.118730 0.518685 0.017198 -0.002622 173453.000000 0 0 1
-16.696062 -0.930903 30.003605 34.348819 0.055698 0.508456 0.008777 0.011804 243515.000000 0 0 1
-16.945462 -0.815903 28.614445 33.265610 0.048112 0.535172 0.012834 0.006953 -72350.600000 0 0 1
-16.438162 0.591097 28.080125 32.543140 -0.035943 0.529898 0.013240 0.006722 -59613.700000 0 0 1
-16.968162 1.799097 28.623995 33.323991 -0.105633 0.537560 0.010400 0.001651 -116664.000000 0 0 1
-18.271562 2.105097 28.183135 33.653685 -0.114706 0.578204 0.008113 -0.001794 -113507.000000 0 0 1
-18.224562 2.854097 26.797215 32.532618 -0.155345 0.602885 0.010093 0.003924 -695163.000000 0 0 1
-17.870662 4.222097 26.801195 32.488316 -0.232004 0.600685 0.011811 0.010465 99215.400000 0 0 1
-17.955762 4.652097 25.471715 31.509676 -0.253512 0.629406 0.008864 0.015733 -323664.000000 0 0 1
-17.993862 6.170097 25.304585 31.657087 -0.330336 0.644610 0.004670 0.010213 1259720.000000 0 0 1
-16.702062 6.828097 25.276835 31.056403 -0.388085 0.619961 0.008502 0.011924 1018650.000000 0 0 1
-15.999662 6.730097 24.025985 29.640029 -0.398172 0.625633 0.002023 0.012168 161368.000000 0 0 1
-14.838162 7.731097 23.892365 29.168236 -0.480328 0.610916 -0.009239 0.017930 -180333.000000 0 0 1
-13.768762 7.565097 24.780915 29.341153 -0.502413 0.565018 -0.003021 0.014897 -327328.000000 0 0 1
-12.714162 8.388097 24.305415 28.683850 -0.583195 0.559811 -0.002497 0.016157 151222.000000 0 0 1
-11.502062 8.503097 25.253135 29.022765 -0.636597 0.515361 -0.003956 0.037449 -460032.000000 0 0 1
-10.456862 9.201097 24.638615 28.303136 -0.721604 0.514526 -0.003970 0.027388 1193480.000000 0 0 1
-9.224462 9.218097 25.448445 28.595233 -0.785053 0.473552 0.007416 0.010292 1272550.000000 0 0 1
-9.226462 10.397097 26.489885 29.915568 -0.844982 0.483253 0.017617 -0.008231 -386255.000000 0 0 1
-10.271462 10.414097 27.473235 31.124508 -0.792293 0.489244 0.006158 -0.003887 519108.000000 0 0 1
-10.486062 11.607097 28.157315 32.210504 -0.836096 0.507081 0.030679 -0.014418 -342386.000000 0 0 1
-11.194962 12.757097 27.352375 32.190419 -0.850525 0.555370 0.034016 -0.019441 575311.000000 0 0 1
-12.578762 12.592097 27.020325 32.355589 -0.785928 0.582472 0.029450 -0.021593 639915.000000 0 0 1
-12.758162 12.072097 25.685435 31.116680 -0.757775 0.599788 0.018067 -0.000600 -134831.000000 0 0 1
-14.200162 11.842097 25.190595 31.248135 -0.695097 0.633185 0.005579 -0.001199 186641.000000 0 0 1
-14.947262 13.069097 24.985785 31.914125 -0.718460 0.671472 0.031193 -0.011259 793223.000000 0 0 1
-16.179462 12.954097 24.259415 31.907724 -0.675138 0.707023 0.028235 0.000195 471012.000000 0 0 1
-16.073262 12.476097 22.786345 30.548654 -0.660061 0.728906 0.015989 0.015990 -526577.000000 0 0 1
-15.964262 11.078097 22.591745 29.798806 -0.606641 0.710336 0.005100 0.019487 83920.200000 0 0 1
-15.859862 10.785097 21.215745 28.600024 -0.597194 0.735033 0.004371 0.026304 -155897.000000 0 0 1
-16.082662 9.282097 20.890445 27.950314 -0.523448 0.726636 0.001412 0.017386 1044460.000000 0 0 1
-17.473362 8.952097 21.059445 28.791642 -0.473462 0.750361 0.013737 0.021947 622676.000000 0 0 1
-17.773062 7.611097 20.997045 28.542712 -0.404610 0.744191 0.010298 0.014747 -870154.000000 0 0 1
-19.257962 7.306097 21.032945 29.438630 -0.362606 0.774934 0.023173 0.006632 -665753.000000 0 0 1
-19.703462 7.613097 22.341445 30.746151 -0.368713 0.757375 0.012212 0.007899 197876.000000 0 0 1
-21.061862 8.034097 22.335445 31.733592 -0.364416 0.790004 0.007713 0.008081 249746.000000 0 0 1
-21.504562 8.749097 23.639745 33.133524 -0.386396 0.776360 0.018237 -0.003206 -359275.000000 0 0 1
-21.342162 10.189097 23.733545 33.505025 -0.445418 0.783627 0.011812 0.002700 511825.000000 0 0 1
-20.023562 10.730097 23.652245 32.794919 -0.491933 0.765239 0.013162 0.009931 770843.000000 0 0 1
-18.921662 10.407097 24.701945 32.810411 -0.502851 0.718386 0.017834 0.001849 -55242.000000 0 0 1
-19.344762 10.654097 26.037205 34.141846 -0.503418 0.703445 0.016221 -0.003296 73409.300000 0 0 1
-18.692362 9.771097 26.938945 34.213820 -0.481667 0.664265 0.019910 -0.007236 165704.000000 0 0 1
-29.842382 -14.079589 21.011345 39.118783 0.440833 1.003781 -0.007786 0.007336 -13516.000000 0 0 1
-29.612152 -15.453289 21.306545 39.618841 0.480979 1.002985 0.009315 0.006654 -137306.000000 0 0 1
-30.547222 -16.347589 20.770945 40.395651 0.491377 1.030736 0.004149 0.007496 -532850.000000 0 0 1
-30.452252 -16.741889 19.252545 39.727711 0.502671 1.064876 -0.000076 0.008298 50943.800000 0 0 1
-30.903742 -15.653489 18.427645 39.238388 0.468853 1.081921 0.004185 0.002703 -64459.300000 0 0 1
-30.424932 -15.684989 17.134645 38.279125 0.475995 1.106690 0.011887 0.000783 -1451670.000000 0 0 1
-30.774132 -14.486389 16.245645 37.693815 0.439961 1.125207 0.003537 0.006282 1223840.000000 0 0 1
-32.128282 -14.556589 15.679545 38.600116 0.425410 1.152500 0.011392 0.005402 1305490.000000 0 0 1
-33.158202 -14.417289 16.604845 39.787504 0.410145 1.140282 0.017754 0.005789 -1600940.000000 0 0 1
-33.457222 -12.957989 17.075045 39.734775 0.369511 1.126608 0.004371 0.008656 -1369820.000000 0 0 1
-34.508802 -13.084889 17.950245 41.040017 0.362426 1.118109 0.000812 0.002318 -683608.000000 0 0 1
-35.018615 -11.812989 18.368545 41.270493 0.325347 1.109536 0.010022 0.006163 136816.000000 0 0 1
35.220348 -12.021889 19.344345 41.942847 -0.328933 1.091441 0.022471 0.004377 -211201.000000 0 0 1
-35.620834 -12.481489 20.573045 42.986993 0.337030 1.071751 0.003647 0.002367 -19060.600000 0 0 1
35.032278 -12.203089 21.688145 42.971519 -0.335194 1.041751 0.006155 -0.007261 -1259180.000000 0 0 1
-35.560074 -12.432789 22.993745 44.133949 0.336343 1.022775 -0.000824 -0.007498 -72768.400000 0 0 1
-34.481303 -11.601489 23.277045 43.189995 0.324560 1.001612 -0.012831 -0.003820 -33993.700000 0 0 1
-33.282282 -11.950089 22.608045 41.971879 0.344717 1.001965 -0.007978 -0.002941 -394202.000000 0 0 1
-32.104292 -10.990789 22.837345 40.902657 0.329840 0.978420 0.000194 -0.009050 -558703.000000 0 0 1
-32.305792 -9.724489 22.290645 40.436404 0.292387 0.986932 0.001280 0.000968 -254137.000000 0 0 1
-31.137262 -8.958989 22.175445 39.262488 0.280158 0.970606 0.008803 0.003584 -516410.000000 0 0 1
-31.208932 -7.779889 21.181945 38.512321 0.244305 0.988427 0.001199 -0.003536 -29804.300000 0 0 1
-31.424572 -8.125289 19.803045 38.022160 0.253023 1.022975 0.005942 0.005858 423934.000000 0 0 1
-32.731132 -8.556889 19.460145 39.028766 0.255707 1.048802 -0.002750 0.002606 -246127.000000 0 0 1
-32.998472 -8.563789 17.962545 38.534279 0.253919 1.085868 0.006132 0.001983 -329003.000000 0 0 1
-34.328898 -8.909289 17.622645 39.603110 0.253925 1.109643 0.002501 0.002171 321949.000000 0 0 1
-34.588973 -8.873089 16.223945 39.221743 0.251114 1.144340 0.005544 0.008600 571050.000000 0 0 1
35.291568 -8.910889 15.880145 39.712437 -0.247324 1.159412 0.008265 0.007824 866267.000000 0 0 1
34.579608 -10.141689 16.044045 39.446350 -0.285285 1.151924 0.006204 0.013941 618635.000000 0 0 1
33.172808 -9.947689 15.983845 38.142823 -0.291342 1.138395 0.002967 0.010406 623976.000000 0 0 1
32.329328 -11.255289 16.113545 37.835344 -0.335021 1.130855 0.015711 0.001633 196703.000000 0 0 1
32.493738 -11.895189 17.356545 38.711602 -0.350924 1.105872 0.017413 -0.011202 -571855.000000 0 0 1
31.378238 -12.645489 17.651445 38.158560 -0.383092 1.089892 0.033810 -0.020031 -714428.000000 0 0 1
31.165848 -13.030589 19.157745 38.834591 -0.396016 1.054898 0.035212 -0.024562 -458203.000000 0 0 1
31.962998 -14.056789 19.665945 40.074629 -0.414325 1.057865 0.029532 -0.021414 -379116.000000 0 0 1
31.994568 -14.176189 21.087545 40.857083 -0.417085 1.028471 0.031205 -0.023505 -439879.000000 0 0 1
32.677238 -15.484389 21.521845 42.080375 -0.442517 1.033929 0.015660 -0.010299 198579.000000 0 0 1
32.719488 -15.459489 22.932145 42.842081 -0.441395 1.005967 0.011549 -0.014148 -236714.000000 0 0 1
33.379798 -16.593189 23.451045 44.039713 -0.461327 1.009248 0.003103 -0.014559 85800.900000 0 0 1
33.792228 -16.376089 24.938345 45.077844 -0.451261 0.984562 0.011531 -0.003474 -315834.000000 0 0 1
34.745898 -15.358689 25.000225 45.477225 -0.416205 0.988755 0.017759 -0.000656 -376722.000000 0 0 1
35.250198 -15.263589 26.278555 46.541552 -0.408633 0.970817 0.009432 0.001589 -1187500.000000 0 0 1
-35.117670 -14.191789 26.428005 46.185464 0.384054 0.961592 0.006117 -0.008106 -643943.000000 0 0 1
-33.858732 -14.715389 25.992375 45.150415 0.409983 0.957356 -0.005793 -0.007506 360135.000000 0 0 1
-32.836482 -13.778289 26.322305 44.282497 0.397291 0.934255 0.005305 -0.011728 841183.000000 0 0 1
-31.393452 -14.311189 26.008285 43.206363 0.427721 0.924849 -0.000485 -0.006666 -120968.000000 0 0 1
-31.028172 -14.430189 24.685035 42.193942 0.435313 0.945870 0.000474 -0.001275 1570880.000000 0 0 1
-29.655352 -14.915789 24.510555 41.263640 0.466022 0.934776 0.005592 -0.010484 1591370.000000 0 0 1
-29.407372 -16.394289 24.865165 41.855020 0.508575 0.934677 0.009804 -0.006361 -795586.000000 0 0 1
-29.681122 -16.653189 26.220475 42.962903 0.511303 0.914351 0.016920 -0.013533 65356.100000 0 0 1
-29.331732 -17.994189 26.409345 43.377354 0.550266 0.916214 0.012613 -0.020476 -427420.000000 0 0 1
-29.003322 -18.362589 27.876885 44.221014 0.564417 0.888729 0.016673 -0.019467 -809641.000000 0 0 1
-27.957642 -17.565389 28.279185 43.472807 0.560959 0.862550 0.018344 -0.019206 -787959.000000 0 0 1
-27.575402 -17.962889 29.593205 44.258626 0.577366 0.838414 0.019443 -0.020623 -164415.000000 0 0 1
-26.358462 -17.200589 30.124565 43.567398 0.578176 0.807306 0.018966 -0.015984 -326168.000000 0 0 1
-26.614172 -15.822089 30.417615 43.403732 0.536365 0.794269 0.029453 -0.025922 203230.000000 0 0 1
-25.379472 -15.112289 30.357865 42.356804 0.537070 0.771712 0.021537 -0.019001 62919.500000 0 0 1
-25.327372 -13.681989 31.061345 42.349495 0.495292 0.747409 0.035740 -0.016952 -58615.700000 0 0 1
-24.751762 -13.730689 32.374905 43.003674 0.506472 0.718429 0.037149 -0.018788 251297.000000 0 0 1
-24.348162 -12.443889 32.685166 42.614592 0.472473 0.696652 0.032955 -0.010390 -306767.000000 0 0 1
-23.748662 -12.288689 34.108326 43.340382 0.477508 0.664886 0.033793 -0.011074 671311.000000 0 0 1
-22.421662 -12.808889 34.309394 42.941042 0.519029 0.645185 0.008821 -0.007155 688936.000000 0 0 1
-22.153262 -14.196689 -34.320881 43.246224 0.569909 2.487525 0.009382 -0.013840 -363485.000000 0 0 1
-22.131162 -14.677689 -32.834718 42.229630 0.585608 2.461521 0.013504 -0.016624 -556133.000000 0 0 1
-21.102562 -14.213589 -31.986028 40.871142 0.592752 2.469639 0.004792 -0.005895 -62536.100000 0 0 1
-20.922262 -15.177589 -30.943498 40.318735 0.627589 2.445685 0.015152 -0.013858 402799.000000 0 0 1
-19.514462 -15.216389 -30.249938 39.082112 0.662270 2.455946 0.023219 -0.013279 521122.000000 0 0 1
-19.251362 -14.139189 -29.400818 37.880598 0.633475 2.459324 0.018200 -0.012415 37176.500000 0 0 1
-20.019162 -14.089289 -28.212398 37.352568 0.613265 2.426908 0.026459 -0.015626 -100824.000000 0 0 1
-19.675562 -12.828689 -27.334938 36.040281 0.577788 2.431736 0.028684 -0.017746 62072.000000 0 0 1
-18.389362 -12.881989 -26.713888 34.896219 0.611070 2.442651 0.032753 -0.015619 416861.000000 0 0 1
-18.045762 -11.687289 -26.075408 33.795994 0.574720 2.452075 0.031631 -0.024705 -249647.000000 0 0 1
-16.682962 -11.685989 -25.399718 32.558091 0.611044 2.465679 0.049471 -0.019363 -900819.000000 0 0 1
-16.771662 -12.518889 -24.273358 32.050073 0.641213 2.430053 0.054497 -0.023178 366816.000000 0 0 1
-15.512662 -12.887589 -23.727758 31.140635 0.693229 2.437123 0.065205 -0.028961 683163.000000 0 0 1
-14.471862 -13.724189 -24.544458 31.626233 0.758887 2.459221 0.034075 -0.024024 -431850.000000 0 0 1
-13.536662 -12.952889 -25.250278 31.441933 0.763364 2.503237 0.041460 -0.028785 -297868.000000 0 0 1
-12.908162 -13.883189 -26.083978 32.244961 0.821775 2.513129 0.028326 -0.024245 -609964.000000 0 0 1
-12.083962 -13.141389 -27.154058 32.497094 0.827293 2.559992 0.026933 -0.018004 -259994.000000 0 0 1
-12.869862 -12.405589 -28.049928 33.261547 0.767032 2.574217 0.046034 -0.030507 -112953.000000 0 0 1
-12.033262 -11.652489 -28.888648 33.393621 0.769324 2.616136 0.051100 -0.030303 8171.590000 0 0 1
-12.777462 -10.605489 -29.780148 34.096879 0.692777 2.632933 0.037724 -0.026311 303805.000000 0 0 1
-11.894862 -9.853489 -30.616058 34.291720 0.691809 2.674346 0.038630 -0.025587 669010.000000 0 0 1
-11.235362 -10.552689 -31.719528 35.266430 0.754076 2.689250 0.051439 -0.024110 341681.000000 0 0 1
-10.473962 -9.523389 -32.585148 35.527324 0.737899 2.731755 0.039856 -0.019113 881310.000000 0 0 1
-9.245362 -8.970589 -32.052958 34.544758 0.770315 2.759449 0.019086 -0.013967 792615.000000 0 0 1
-8.789262 -7.777489 -32.678808 34.722399 0.724401 2.796798 0.014761 -0.011874 -286927.000000 0 0 1
-7.304862 -7.527289 -32.398068 34.053721 0.800393 2.828486 0.019081 -0.007969 -540209.000000 0 0 1
-6.874162 -7.356789 -31.049438 32.641141 0.819299 2.828016 0.008638 -0.000397 -137024.000000 0 0 1
-7.272862 -6.241589 -30.273168 31.754003 0.709237 2.834993 0.015973 -0.001480 -515101.000000 0 0 1
-6.584662 -4.887689 -30.648408 31.726522 0.638545 2.880152 0.020189 -0.005400 349676.000000 0 0 1
-5.236562 -4.852789 -30.195138 31.027690 0.747379 2.909414 0.018001 -0.008383 188262.000000 0 0 1
-4.629162 -3.654289 -30.652358 31.214581 0.668248 2.951509 0.032095 -0.015978 584078.000000 0 0 1
-3.098262 -3.609189 -30.293138 30.664307 0.861424 2.985844 0.024098 -0.009236 172835.000000 0 0 1
-2.385062 -4.222789 -31.346748 31.719696 1.056656 2.988095 0.020254 -0.008833 -680901.000000 0 0 1
-1.000262 -4.187189 -31.224138 31.519516 1.336305 3.004582 0.031344 -0.002993 169041.000000 0 0 1
-0.219562 -2.795789 -31.440888 31.565711 1.492424 3.052632 0.025909 -0.001615 -142844.000000 0 0 1
0.023638 -2.077189 -30.252048 30.323287 -1.559417 3.073033 0.021644 -0.010594 47838.300000 0 0 1
0.758638 -0.897889 -30.475798 30.498459 -0.869263 3.103041 0.021281 -0.001823 51665.100000 0 0 1
1.198738 -0.186189 -29.175618 29.200828 -0.154090 3.100037 0.021129 -0.006547 36726.500000 0 0 1
0.181138 0.505611 -28.478818 28.483882 1.226786 3.122736 0.032000 -0.011086 -329750.000000 0 0 1
0.277738 1.875911 -28.816488 28.878819 1.423809 3.075879 0.039230 -0.014045 623628.000000 0 0 1
-0.902762 2.762511 -28.239958 28.389112 -1.254946 3.039040 0.022996 -0.007451 551153.000000 0 0 1
-2.120462 2.614211 -28.935078 29.130212 -0.889306 3.025781 0.018430 -0.016245 -367397.000000 0 0 1
-3.012762 3.575511 -28.432578 28.814450 -0.870608 2.978607 0.045530 -0.020642 433706.000000 0 0 1
-4.243562 3.783111 -29.383358 29.928273 -0.728096 2.950476 0.057463 -0.024768 590779.000000 0 0 1
-3.734562 4.340211 -30.637108 31.167560 -0.860263 2.956834 0.066203 -0.024422 585878.000000 0 0 1
-4.773362 4.812911 -31.478038 32.199627 -0.789524 2.929489 0.070316 -0.015414 -437494.000000 0 0 1
-4.327162 5.675511 -32.646918 33.417915 -0.919389 2.926369 0.079936 -0.008954 -170896.000000 0 0 1
-4.011062 5.043211 -33.862478 34.470133 -0.898904 2.953548 0.080140 -0.017007 -307877.000000 0 0 1
-2.888462 4.232911 -33.892218 34.277445 -0.971993 2.991529 0.073977 -0.015674 -1087020.000000 0 0 1
-2.548862 3.640111 33.462892 33.756662 -0.959926 0.132025 0.062224 -0.010617 365521.000000 0 0 1
-3.430162 2.545111 33.108018 33.382397 -0.638348 0.128301 0.054946 -0.011710 373308.000000 0 0 1
-3.112962 1.847211 31.903185 32.107879 -0.535547 0.112978 0.056133 -0.011509 -167873.000000 0 0 1
-2.799162 2.591911 30.548455 30.785734 -0.746974 0.124236 0.061299 -0.009592 648072.000000 0 0 1
-3.868462 3.510911 30.209935 30.658305 -0.736983 0.171234 0.054882 -0.011892 466152.000000 0 0 1
-3.502262 4.434711 29.198685 29.740472 -0.902344 0.191169 0.058184 -0.012040 -35987.900000 0 0 1
-4.739062 5.225311 28.750095 29.602880 -0.834158 0.240611 0.052408 -0.001585 46630.800000 0 0 1
-4.647962 5.879311 27.513435 28.515942 -0.901837 0.265947 0.052541 0.004537 391675.000000 0 0 1
-5.873162 6.606611 27.285245 28.681456 -0.844102 0.313305 0.032136 0.002183 514931.000000 0 0 1
-5.879562 7.547711 26.029325 27.731984 -0.909001 0.352238 0.034250 0.003153 -16676.800000 0 0 1
-5.281562 8.817811 26.280515 28.219039 -1.031138 0.372819 0.062871 -0.008198 82057.900000 0 0 1
-5.350462 9.563711 25.098605 27.386711 -1.060723 0.411675 0.053903 -0.007833 31024.800000 0 0 1
-4.591762 10.923111 25.223555 27.868016 -1.172853 0.439164 0.061940 -0.012776 -434374.000000 0 0 1
-4.548262 11.722311 24.088825 27.172978 -1.200677 0.481072 0.070733 -0.017612 205767.000000 0 0 1
-3.884262 12.981711 24.284135 27.808839 -1.280064 0.508959 0.062607 -0.014501 -969023.000000 0 0 1
-2.375462 13.029311 24.401655 27.764123 -1.390460 0.497263 0.063031 -0.011397 -1191060.000000 0 0 1
-1.761762 12.498011 25.571455 28.516721 -1.430756 0.458499 0.073493 -0.013180 -120767.000000 0 0 1
-1.990462 13.186511 26.815765 29.948810 -1.420981 0.461498 0.077511 -0.012739 -627503.000000 0 0 1
-1.130162 12.747211 28.011075 30.795924 -1.482368 0.428546 0.065980 -0.007474 292719.000000 0 0 1
0.240438 13.028011 27.767975 30.673234 1.552343 0.438750 0.075270 -0.012244 182926.000000 0 0 1
1.032638 12.551111 28.891565 31.516967 1.488707 0.411058 0.073717 -0.014742 240236.000000 0 0 1
2.544838 12.716311 28.699285 31.493328 1.373282 0.424411 0.057381 -0.004343 -69666.000000 0 0 1
2.973738 14.070811 28.747395 32.144106 1.362520 0.463868 0.057693 -0.006647 -1205770.000000 0 0 1
4.316138 14.143011 28.453695 32.066595 1.274596 0.479271 0.046352 -0.005092 -958570.000000 0 0 1
4.934238 15.540011 28.768665 33.067729 1.263346 0.515610 0.043061 -0.005714 -334918.000000 0 0 1
4.923038 15.837111 30.176275 34.433384 1.269411 0.502530 0.048410 0.006661 685255.000000 0 0 1
3.836338 16.665411 30.637535 35.087205 1.344540 0.509102 0.031946 0.008285 512777.000000 0 0 1
3.917038 18.094711 29.995095 35.248652 1.357612 0.552991 0.036711 0.006813 -792211.000000 0 0 1
5.030938 18.796511 30.388875 36.084662 1.309274 0.569529 0.053547 0.011621 -626526.000000 0 0 1
5.291438 19.819211 29.458755 35.897335 1.309896 0.608268 0.039588 0.004919 158455.000000 0 0 1
6.355038 20.800311 29.988295 37.045071 1.274277 0.627482 0.045000 0.002203 207036.000000 0 0 1
5.812638 21.645911 31.022635 38.271871 1.308452 0.625645 0.028127 -0.005110 162751.000000 0 0 1
6.799438 22.509611 31.498405 39.307308 1.277443 0.641269 0.010419 -0.004472 -164312.000000 0 0 1
7.081838 23.816811 30.640245 39.448923 1.281776 0.681376 0.004360 0.001272 194613.000000 0 0 1
7.804238 23.694511 29.411255 38.566279 1.252618 0.703449 -0.008185 0.003301 369071.000000 0 0 1
8.280238 24.970111 28.973775 39.135002 1.250601 0.737199 -0.006265 0.002727 9050.950000 0 0 1
8.732638 24.896611 27.506995 38.114760 1.233448 0.764557 0.006668 -0.008120 -161609.000000 0 0 1
7.681938 24.611311 26.629755 37.065788 1.268248 0.769231 0.010461 -0.011125 192530.000000 0 0 1
8.151738 24.935411 25.342995 36.475922 1.254834 0.802673 0.027529 -0.011307 2662.510000 0 0 1
27.783368 2.402911 6.544742 28.644775 0.086273 1.340281 0.069269 -0.008128 22046.200000 0 0 1
28.552448 2.950211 7.588742 29.690655 0.102961 1.312335 0.061797 -0.008130 408729.000000 0 0 1
27.879888 2.701211 8.812342 29.363958 0.096586 1.265991 0.050519 0.006216 153613.000000 0 0 1
28.533328 3.516311 9.979642 30.432030 0.122617 1.236682 0.042890 0.006929 239704.000000 0 0 1
28.188958 4.902511 9.904642 30.277944 0.172194 1.237538 0.033758 0.000939 349494.000000 0 0 1
29.185518 5.654511 9.222342 31.125866 0.191373 1.269988 0.050837 -0.018035 16822.200000 0 0 1
28.917108 7.209111 9.161542 31.178586 0.244322 1.272554 0.051791 -0.023096 289560.000000 0 0 1
27.905418 7.529111 8.198942 30.043676 0.263533 1.294389 0.068063 -0.023339 443744.000000 0 0 1
27.997658 8.874211 7.842942 30.399542 0.306945 1.309850 0.074912 -0.032240 117501.000000 0 0 1
27.195888 9.149211 6.536942 29.428829 0.324525 1.346801 0.080287 -0.027561 -510520.000000 0 0 1
25.816238 9.105211 6.694342 28.181505 0.339072 1.330960 0.072914 -0.023506 -676022.000000 0 0 1
25.198338 9.330011 5.455642 27.418413 0.354611 1.370482 0.080570 -0.033656 497073.000000 0 0 1
23.696738 9.763611 5.511542 26.215273 0.390828 1.358974 0.041144 -0.029568 556998.000000 0 0 1
23.528838 11.118411 5.711742 26.642996 0.441443 1.354739 0.024060 -0.009226 -274779.000000 0 0 1
22.158938 11.387311 5.789042 25.577380 0.474700 1.342484 0.015162 -0.016739 -388952.000000 0 0 1
22.010138 12.836711 6.399342 26.271256 0.527988 1.324734 0.005012 0.000814 -152497.000000 0 0 1
22.133938 13.853811 5.458542 26.676487 0.559252 1.364721 0.005484 0.003781 322032.000000 0 0 1
21.931538 15.113911 6.067542 27.317352 0.603400 1.346815 0.032646 -0.008662 -258908.000000 0 0 1
21.618338 16.261711 5.128442 27.533555 0.644919 1.383441 0.038801 -0.011451 -886085.000000 0 0 1
20.374638 16.197811 4.528042 26.419654 0.671684 1.398557 0.047264 -0.012931 -552642.000000 0 0 1
20.263238 17.173711 3.504842 26.792145 0.703059 1.439604 0.045910 -0.014688 -503706.000000 0 0 1
18.837738 17.360611 2.981442 25.790311 0.744614 1.454934 0.037646 -0.009796 -720916.000000 0 0 1
18.007138 17.937211 3.944642 25.720823 0.783453 1.416825 0.035570 -0.013202 -789074.000000 0 0 1
16.829938 18.293911 3.287242 25.074288 0.827054 1.439318 0.036195 -0.011691 -789157.000000 0 0 1
15.928038 19.156911 4.178542 25.261627 0.877170 1.404622 0.027541 -0.020536 -558994.000000 0 0 1
14.672438 19.383811 3.629642 24.580212 0.922867 1.422589 0.021192 -0.009726 -654183.000000 0 1 0
13.898338 20.358211 4.200242 25.005251 0.971783 1.402022 0.018284 -0.014699 265286.000000 0 0 1
12.374438 20.367711 3.876042 24.145270 1.024843 1.409569 0.011248 -0.005361 585352.000000 0 1 0
11.674138 19.262511 4.449442 22.959254 1.025937 1.375765 0.000807 -0.011089 -538999.000000 0 1 0
10.303838 19.484811 4.333642 22.463467 1.084364 1.376660 0.003918 -0.001154 -600500.000000 0 1 0
9.466138 18.860811 5.448042 21.794933 1.105634 1.318149 0.005281 -0.007113 -429368.000000 0 1 0
9.373638 19.671511 6.568642 22.759184 1.126118 1.278016 0.009113 -0.003934 -282093.000000 0 1 0
8.795538 18.951411 7.590442 22.229086 1.136271 1.222322 0.011786 -0.006475 -1035350.000000 0 1 0
8.018738 19.729911 8.648042 22.986043 1.184763 1.185072 0.001666 -0.010395 374825.000000 0 1 0
6.663138 19.993611 8.301442 22.650735 1.249109 1.195554 0.011002 -0.011514 259362.000000 0 1 0
6.547638 21.129211 7.436742 23.337100 1.270295 1.246474 0.006842 -0.007160 -358800.000000 0 1 0
5.214138 21.264111 6.564242 22.856922 1.330333 1.279506 0.014001 -0.003826 762559.000000 0 1 0
4.080638 21.444511 7.364642 23.038155 1.382756 1.245414 0.020967 -0.004983 -506191.000000 0 1 0
3.983838 22.636011 8.185842 24.398114 1.396585 1.228648 0.016637 -0.007584 -1101090.000000 0 1 0
3.884638 23.942211 7.436942 25.369824 1.409947 1.273286 0.013178 -0.005720 403784.000000 0 0 1
2.780138 24.136811 6.517242 25.155302 1.456119 1.308727 0.022282 -0.010926 617799.000000 0 0 1
2.946738 25.241111 5.706442 26.045353 1.454579 1.349908 0.020550 -0.008813 314559.000000 0 0 1
1.769938 25.566211 4.690842 26.053173 1.501677 1.389760 0.025192 -0.011361 761516.000000 0 0 1
0.604638 25.955611 5.411742 26.520676 1.547505 1.365296 0.039343 -0.026698 149554.000000 0 0 1
-0.446062 26.275411 4.508442 26.663125 -1.553822 1.400891 0.043572 -0.021150 360526.000000 0 0 1
-1.705962 26.894011 5.174042 27.440278 -1.507448 1.381104 0.044306 -0.028898 124213.000000 0 0 1
-2.649362 27.190011 4.171542 27.635440 -1.473664 1.419268 0.061042 -0.026296 -914545.000000 0 0 1
-3.829762 27.596511 4.776142 28.267402 -1.432900 1.401019 0.047755 -0.025354 -1021860.000000 0 0 1
-4.811462 28.172311 3.739442 28.823822 -1.401641 1.440695 0.056699 -0.030705 -240490.000000 0 0 1
-4.446662 29.426711 3.132342 29.925168 -1.420821 1.465932 0.046903 -0.028379 -290868.000000 0 0 1
-5.341462 29.753111 2.134042 30.304009 -1.393162 1.500317 0.056636 -0.031214 -698193.000000 0 0 1
-4.751562 30.656011 1.046042 31.039693 -1.417024 1.537090 0.044278 -0.015089 -105539.000000 0 0 1
-4.296562 31.974911 1.384942 32.292003 -1.437223 1.527895 0.038613 -0.010579 675416.000000 0 0 1
-3.059062 32.007111 2.106742 32.221908 -1.475511 1.505367 0.043704 -0.021978 -163892.000000 0 0 1
-2.549462 33.489911 2.073242 33.650739 -1.494817 1.509147 0.035286 -0.018909 -1057570.000000 0 0 1
-1.843662 33.792811 0.905542 33.855179 -1.516293 1.544046 0.017706 -0.004564 -8218.720000 0 0 1
-1.124962 -33.804303 0.996242 33.837685 1.537530 1.541350 0.019680 -0.005188 -263983.000000 0 0 1
0.192238 -33.850303 1.765842 33.896875 -1.565117 1.518678 0.016779 -0.002628 -1292780.000000 0 0 1
0.052838 -34.090403 3.190842 34.239448 -1.569246 1.477469 0.005307 -0.002949 -293644.000000 0 0 1
1.259938 -34.294903 3.892942 34.538135 -1.534075 1.457842 0.004929 -0.005484 -28291.800000 0 0 1
1.153038 34.373311 5.414342 34.816219 1.537264 1.414651 0.005969 -0.003378 433001.000000 0 0 1
0.181538 33.377311 5.761542 33.871421 1.565357 1.399865 0.018077 -0.018523 376122.000000 0 0 1
-0.440662 33.545511 7.044442 34.280018 -1.557661 1.363825 0.034760 -0.027428 254321.000000 0 0 1
0.459638 33.378611 8.304242 34.399177 1.557027 1.326980 0.037460 -0.013055 252083.000000 0 0 1
1.054438 32.070911 8.363142 33.160176 1.537930 1.315839 0.027621 -0.015899 840463.000000 0 0 1
2.162238 31.990011 9.294742 33.383054 1.503308 1.288640 0.026699 -0.005237 399232.000000 0 0 1
2.861738 30.636411 9.288142 32.141076 1.477657 1.277635 0.014636 -0.008038 33511.900000 0 0 1
2.160438 29.674911 10.059142 31.407868 1.498121 1.244777 0.029928 -0.024206 338105.000000 0 0 1
3.001638 28.572411 10.112642 30.457479 1.466127 1.232347 0.019821 -0.024585 70528.200000 0 0 1
2.400838 27.535211 11.098042 29.784533 1.483825 1.188975 0.021976 -0.031485 -133182.000000 0 0 1
2.738338 27.953111 12.389642 30.698178 1.473146 1.155353 0.018425 -0.013900 -66194.800000 0 0 1
2.719638 27.023911 13.488942 30.325562 1.470496 1.109841 0.020241 -0.010258 1199180.000000 0 0 1
1.260638 26.741011 14.091142 30.252787 1.523689 1.086281 0.025918 -0.020147 1558890.000000 0 0 1
0.543338 27.755111 14.777642 31.448690 1.551223 1.081622 0.027035 -0.019201 -17477.800000 0 0 1
-0.050362 28.687511 13.937242 31.893926 -1.569041 1.118550 0.031707 -0.022061 -566718.000000 0 0 1
-0.637262 29.825111 14.808042 33.304976 -1.549433 1.110047 0.013586 -0.014473 413860.000000 0 0 1
-1.887662 29.543711 15.440942 33.388872 -1.506989 1.090031 0.003991 -0.008730 144396.000000 0 0 1
-2.558162 30.735511 15.598442 34.561933 -1.487756 1.102554 0.005135 -0.001718 -382200.000000 0 0 1
-3.952062 30.674811 16.287642 34.954972 -1.442665 1.086076 -0.004957 0.008198 236902.000000 0 0 1
-4.861062 30.074611 15.368142 34.121722 -1.410549 1.103592 0.002002 -0.000338 775441.000000 0 0 1
-6.133362 29.969111 16.049942 34.545135 -1.368928 1.087605 0.013829 -0.001280 516244.000000 0 0 1
-7.250062 29.248211 15.282442 33.787191 -1.327813 1.101437 0.007125 -0.005680 701438.000000 0 0 1
-8.482862 29.028311 15.984742 34.206925 -1.286486 1.084567 0.007528 -0.000745 635700.000000 0 0 1
-9.481762 28.393411 15.222742 33.583053 -1.248498 1.100347 0.015286 -0.000672 1027550.000000 0 0 1
-10.807662 28.090311 16.034542 34.102458 -1.203508 1.081293 0.019532 0.001297 364685.000000 0 0 1
-11.439162 29.165511 16.628842 35.468293 -1.197019 1.082823 0.025125 -0.008361 113975.000000 0 0 1
-10.865362 29.641011 17.861242 36.272160 -1.219441 1.055925 0.026692 -0.010869 -249749.000000 0 0 1
-11.607862 30.854011 18.513742 37.808347 -1.210957 1.059081 0.042338 -0.007055 -155791.000000 0 0 1
-12.860162 30.543011 19.048142 38.224220 -1.172275 1.049129 0.044249 -0.001852 -266579.000000 0 0 1
-13.639762 31.699611 19.271142 39.525755 -1.164461 1.061504 0.072511 -0.019597 280928.000000 0 0 1
-14.742062 31.523011 20.352142 40.314244 -1.133353 1.041603 0.075461 -0.019932 124694.000000 0 0 1
-14.283862 31.198411 21.644342 40.569041 -1.141442 1.008041 0.067448 -0.019216 -12050.500000 0 0 1
-15.319362 30.720711 22.502742 41.046538 -1.108217 0.990556 0.053436 -0.010323 267221.000000 0 0 1
-14.848562 30.369511 23.921842 41.413059 -1.116044 0.954962 0.039916 -0.005363 -135276.000000 0 0 1
-13.842762 29.337511 24.081742 40.401013 -1.129925 0.932202 0.024499 -0.002196 935511.000000 0 0 1
-13.464062 29.097611 25.441842 40.929686 -1.137414 0.900014 0.041816 -0.009414 -109785.000000 0 0 1
-12.827062 30.254511 26.247542 42.057132 -1.169797 0.896827 0.037852 -0.013433 -1354390.000000 0 0 1
-13.750662 31.197511 26.605342 43.245920 -1.155652 0.908143 0.033625 -0.005068 -240394.000000 0 0 1
-13.202162 32.495911 26.977842 44.250257 -1.184895 0.915158 0.037494 -0.007141 223017.000000 0 0 1
-14.366862 33.441511 27.420242 45.569848 -1.165026 0.925145 0.047633 -0.008800 413534.000000 0 0 1
-15.011962 33.124311 28.646442 46.294682 -1.145284 0.903602 0.021597 -0.010770 450719.000000 0 0 1
-14.184562 33.138411 29.829342 46.788307 -1.166354 0.879497 0.036562 -0.005903 27728.900000 0 0 1
-14.918162 32.524111 31.041942 47.370576 -1.140748 0.856217 0.023420 -0.003206 -676758.000000 0 0 1
-16.119862 33.142411 31.322242 48.366850 -1.118103 0.866369 0.019443 0.002360 -858804.000000 0 0 1
-16.701462 32.599911 32.508742 48.974599 -1.097344 0.844924 0.012606 0.009893 806120.000000 0 0 1
-18.184762 33.061411 32.707542 49.935215 -1.067930 0.856614 0.025484 0.007362 640472.000000 0 0 1
-18.309462 -34.341403 32.963842 51.001796 1.080974 0.868035 0.033635 0.007392 209897.000000 0 0 1
-19.689262 -34.060703 33.180742 51.466107 1.046663 0.870152 0.029038 0.007862 385502.000000 0 0 1
-19.885162 -32.564903 33.373242 50.691871 1.022596 0.852165 0.030689 0.009593 -362749.000000 0 0 1
-19.375862 -31.989103 -34.194162 50.675116 1.026195 2.311452 0.031615 0.009388 -46256.500000 0 0 1
-20.042562 -32.402703 -32.957362 50.376851 1.016852 2.283942 0.037687 0.003033 207929.000000 0 0 1
-19.633762 -31.590703 -31.698862 48.869980 1.014715 2.276588 0.042099 0.004609 -54747.100000 0 0 1
-20.041362 -30.224003 -31.667562 48.145415 0.985271 2.288622 0.045535 0.004966 89207.800000 0 0 1
-19.514762 -29.586703 -30.515962 46.769892 0.987717 2.281636 0.037201 0.002169 -202490.000000 0 0 1
-19.733562 -28.065903 -30.606262 45.976642 0.957983 2.299216 0.034014 -0.001546 337549.000000 0 0 1
-21.080162 -27.736603 -30.281062 46.158803 0.920918 2.286329 0.049799 -0.006168 420437.000000 0 0 1
-21.348862 -26.369903 -30.316862 45.500086 0.890234 2.300037 0.044837 -0.003717 -420692.000000 0 0 1
-22.509362 -25.922203 -29.459862 45.238429 0.855749 2.279978 0.045212 -0.006133 -524167.000000 0 0 1
-22.275362 -26.117003 -28.045462 44.326488 0.864617 2.255834 0.044316 -0.013608 241161.000000 0 0 1
-21.848762 -24.955303 -27.378162 43.008130 0.851674 2.260853 0.042465 -0.017448 -117860.000000 0 0 1
-21.703362 -25.102603 -25.853862 42.066599 0.857895 2.232667 0.045647 -0.014666 -411134.000000 0 0 1
-22.993562 -25.087503 -25.323162 42.418737 0.828921 2.210528 0.037918 -0.014923 -251903.000000 0 0 1
-23.028362 -25.538103 -23.992762 41.930332 0.837029 2.179989 0.040793 -0.007274 -518076.000000 0 0 1
-24.436162 -25.359003 -23.369762 42.265244 0.803929 2.156674 0.035696 -0.006058 203877.000000 0 0 1
-25.437262 -26.304403 -23.686062 43.589052 0.802156 2.145272 0.018390 -0.001386 -128218.000000 0 0 1
-25.240662 -27.638303 -23.292862 44.085420 0.830709 2.127461 0.027878 0.006052 -402285.000000 0 0 1
-26.568362 -28.465303 -23.479562 45.469123 0.819853 2.113420 0.007328 0.009687 1100440.000000 0 0 1
-27.492962 -28.251203 -22.430762 45.355623 0.798999 2.088117 0.004849 0.014859 -42897.500000 0 0 1
-28.487062 -27.278203 -22.694662 45.504513 0.763724 2.092934 0.010889 0.013807 -106427.000000 0 0 1
-29.138062 -26.755503 -21.382662 44.967787 0.742797 2.066341 0.006040 0.018273 43393.800000 0 0 1
-29.911362 -27.744803 -20.683762 45.741466 0.747839 2.040014 -0.006074 0.020216 335577.000000 0 0 1
-30.359162 -27.378703 -19.414562 45.257014 0.733823 2.014165 -0.009400 0.018896 -554460.000000 0 0 1
-31.226062 -28.514003 -18.767762 46.263854 0.740032 1.988506 -0.008622 0.016573 517303.000000 0 0 1
-32.552362 -28.674503 -19.297862 47.479373 0.722147 1.989359 -0.006862 0.010726 907881.000000 0 0 1
-33.536662 -27.708903 -19.027562 47.481987 0.690530 1.983112 -0.008870 0.019603 -477399.000000 0 0 1
-33.948362 -27.393903 -17.588162 47.034675 0.678951 1.954050 -0.009276 0.028835 -648226.000000 0 0 1
-33.121962 -26.374903 -16.993562 45.623251 0.672479 1.952472 -0.010782 0.027236 559287.000000 0 0 1
-33.455662 -25.911403 -15.673962 45.125993 0.658997 1.925527 -0.013792 0.025824 -267456.000000 0 0 1
-33.131862 -26.794603 -14.485962 45.005712 0.680039 1.898500 0.004733 0.020899 107805.000000 0 0 1
-34.041162 -27.865303 -14.249162 46.241912 0.685966 1.884038 0.010003 0.023744 590998.000000 0 0 1
-33.708962 -28.405603 -13.003962 45.959498 0.700224 1.857658 -0.007867 0.022061 260498.000000 0 0 1
-34.511962 -29.723603 -12.826462 47.318984 0.710992 1.845294 -0.000388 0.024076 -43275.600000 0 0 1
-33.935762 -30.717603 -13.557162 47.738912 0.735664 1.858745 -0.006961 0.016810 44284.100000 0 0 1
-34.279662 -32.015703 -13.073062 48.692971 0.751262 1.842610 -0.001402 0.011529 -237404.000000 0 0 1
-33.747262 -33.130703 -14.011462 49.323851 0.776179 1.858833 -0.006819 0.013993 -368243.000000 0 0 1
-32.352462 -33.248303 -14.106862 48.488504 0.799053 1.865997 -0.002464 0.010909 -137061.000000 0 0 1
-31.975262 -34.118203 -15.191462 49.165533 0.817810 1.884923 0.006663 -0.004499 130553.000000 0 0 1
-30.447862 -34.311403 -15.324662 48.365173 0.844988 1.893206 0.006253 0.000257 316711.000000 0 0 1
-29.993262 33.744211 -16.490362 48.064536 -0.844180 1.920999 0.013968 0.000912 -400687.000000 0 0 1
-28.708962 33.254211 -16.204862 46.825683 -0.858621 1.924173 0.009869 -0.000751 -524276.000000 0 0 1
9.696538 19.787711 -8.927658 23.775606 1.115158 1.955729 0.049952 -0.025677 -794344.000000 0 1 0
8.304738 19.955511 -8.733158 23.312210 1.176435 1.954780 0.036331 -0.023984 -141525.000000 0 1 0
7.638938 20.220611 -9.909958 23.778851 1.209591 2.000669 0.032404 -0.027558 -281091.000000 0 1 0
7.487438 19.097611 -10.980458 23.266949 1.197152 2.062279 0.032106 -0.021594 -317850.000000 0 1 0
8.618938 18.841111 -11.827658 23.857222 1.141761 2.089516 0.044301 -0.015933 259390.000000 0 1 0
8.544138 17.512011 -12.248258 23.015053 1.116874 2.131975 0.036465 -0.029072 -595110.000000 0 1 0
9.903438 17.004411 -12.694958 23.417729 1.043416 2.143741 0.050586 -0.032290 -446301.000000 0 1 0
9.791138 15.828711 -13.469158 22.974610 1.016835 2.197234 0.055510 -0.041395 295663.000000 0 1 0
11.016038 15.562011 -14.157658 23.748022 0.954801 2.209508 0.069622 -0.044159 210125.000000 0 1 0
11.045738 14.394611 -15.205758 23.673366 0.916282 2.268311 0.060597 -0.039227 -630519.000000 0 1 0
10.851938 13.133611 -14.665958 22.479916 0.880240 2.281547 0.073070 -0.038373 680560.000000 0 1 0
12.008038 12.463111 -14.130558 22.342667 0.803992 2.255505 0.082262 -0.038190 590089.000000 0 1 0
12.966938 11.821011 -15.190558 23.208422 0.739202 2.284354 0.078635 -0.036784 -599691.000000 0 1 0
13.713438 12.750111 -15.903158 24.566932 0.749012 2.274886 0.060082 -0.028209 307153.000000 0 1 0
14.661238 11.932711 -16.640558 25.184314 0.683156 2.292615 0.061372 -0.033698 429952.000000 0 0 1
15.275338 12.547711 -17.921358 26.682505 0.687676 2.307233 0.046661 -0.025033 -508318.000000 0 0 1
16.146538 13.549511 -17.600558 27.460510 0.698166 2.266520 0.031504 -0.014989 -516848.000000 0 0 1
16.783738 14.114311 -18.754658 28.855586 0.699217 2.278314 0.027780 -0.011142 -98383.300000 0 0 1
17.962038 15.069611 -18.503358 29.868081 0.698056 2.238905 0.028780 -0.008345 -394379.000000 0 0 1
17.730738 16.381811 -17.909058 30.057897 0.745875 2.209081 0.025532 -0.011243 167560.000000 0 0 1
17.067838 17.306011 -18.769158 30.709777 0.792327 2.228345 0.033442 -0.009907 -38239.500000 0 0 1
16.955938 18.627211 -17.978458 30.946757 0.832332 2.190689 0.030959 -0.005267 381019.000000 0 0 1
18.131338 19.425111 -18.087558 32.144053 0.819833 2.168448 0.031815 -0.000935 451494.000000 0 0 1
17.854138 20.755611 -17.689158 32.595582 0.860406 2.144428 0.027032 0.003932 144314.000000 0 0 1
19.008938 21.752511 -18.017058 34.045937 0.852605 2.128452 0.032482 -0.000688 382679.000000 0 0 1
20.021738 21.842711 -17.039658 34.180754 0.828868 2.092683 0.024873 0.002400 -320140.000000 0 0 1
19.684838 22.748011 -16.027158 34.085696 0.857462 2.060316 0.019559 0.000925 -83552.200000 0 0 1
20.896238 23.255911 -15.176258 34.753546 0.838791 2.022704 0.016626 0.001941 -192050.000000 0 0 1
21.418038 22.372011 -14.157058 34.053803 0.807180 1.999537 0.020270 0.001672 -595651.000000 0 0 1
22.213538 23.073711 -13.289958 34.676511 0.804390 1.964115 0.017137 -0.000042 -156775.000000 0 0 1
23.703038 23.102211 -13.725458 35.832030 0.772562 1.963892 0.020050 -0.000951 -428161.000000 0 0 1
23.976738 23.558211 -15.019558 36.816578 0.776594 1.991011 0.020745 0.001153 610261.000000 0 0 1
25.301038 24.139711 -15.026558 38.061340 0.761913 1.976645 0.028077 -0.002228 855101.000000 0 0 1
25.747638 24.645911 -16.403858 39.235804 0.763539 2.002131 0.029265 -0.000342 -222790.000000 0 0 1
26.208038 23.564111 -17.252658 39.240066 0.732327 2.026027 0.025631 -0.001134 355224.000000 0 0 1
26.427638 24.039211 -18.580458 40.268314 0.738107 2.050387 0.029406 0.005140 -962361.000000 0 0 1
27.027038 23.116911 -19.667858 40.640829 0.707578 2.075952 0.026658 -0.001689 448793.000000 0 0 1
28.427938 22.868811 -19.566958 41.400435 0.677448 2.063066 0.024016 0.001577 273695.000000 0 0 1
28.705438 22.115011 -20.698558 41.731357 0.656437 2.089777 0.028463 -0.007226 1189820.000000 0 0 1
30.185838 22.035111 -21.281458 43.007341 0.630566 2.088439 0.034123 -0.004693 1264420.000000 0 0 1
30.478138 23.266011 -21.944858 44.179191 0.652001 2.090616 0.026750 0.009348 309022.000000 0 0 1
31.880538 23.500211 -21.882258 45.248888 0.635216 2.075557 0.031842 0.009044 360231.000000 0 0 1
32.358938 24.833611 -22.452358 46.560901 0.654571 2.073978 0.036347 0.009494 -179389.000000 0 0 1
32.397638 24.845211 -23.906258 47.311739 0.654219 2.100517 0.032272 0.006323 843431.000000 0 0 1
31.112138 25.028811 -24.538658 46.867390 0.677461 2.121840 0.027929 -0.002317 500548.000000 0 0 1
31.206538 25.494411 -26.040968 47.978589 0.684996 2.144519 0.035167 -0.010103 -457622.000000 0 0 1
31.318538 26.892411 -26.240128 48.914179 0.709508 2.137024 0.038586 -0.006763 -286724.000000 0 0 1
30.093838 27.596011 -26.386698 48.615190 0.742128 2.144524 0.043286 -0.004894 407236.000000 0 0 1
29.476338 27.382111 -27.809388 48.908042 0.748583 2.175606 0.045926 -0.011410 -160770.000000 0 0 1
29.058238 26.061111 -28.052818 48.067903 0.731076 2.193961 0.040378 -0.015520 -331300.000000 0 0 1
28.817538 25.801311 -29.389538 48.578834 0.730231 2.220545 0.041076 -0.018509 -288823.000000 0 0 1
28.006438 24.525511 -29.678558 47.609643 0.719232 2.243845 0.034181 -0.020000 -305181.000000 0 0 1
26.693438 24.580011 -29.193388 46.572207 0.744203 2.248289 0.030997 -0.019621 -471574.000000 0 0 1
26.004638 23.395611 -29.491958 45.753376 0.732633 2.271277 0.029430 -0.025202 97275.500000 0 0 1
24.617338 23.228711 -28.838128 44.465987 0.756383 2.276466 0.022746 -0.012243 21933.300000 0 0 1
24.705638 23.004611 -27.423918 43.493125 0.749760 2.253038 0.022202 -0.010406 812985.000000 0 0 1
23.474938 23.283111 -26.721108 42.511100 0.781296 2.250507 0.023927 -0.015373 198955.000000 0 0 1
23.708738 23.423311 -25.180648 41.771052 0.779342 2.217834 0.026674 -0.008279 -335908.000000 0 0 1
23.978338 22.180611 -24.587358 40.883718 0.746471 2.216045 0.031472 -0.010300 -54450.200000 0 0 1
24.458938 22.382411 -23.301258 40.523581 0.741096 2.183406 0.027703 -0.008744 -197974.000000 0 0 1
24.898938 21.084511 -22.606358 39.693339 0.702635 2.176724 0.042520 -0.006798 -465952.000000 0 0 1
26.114738 20.545811 -23.030658 40.429211 0.666610 2.176881 0.023409 -0.005059 -400821.000000 0 0 1
26.335038 19.210211 -22.552758 39.638281 0.630222 2.176042 0.045759 -0.013204 11490.800000 0 0 1
27.649238 18.553011 -23.054858 40.499643 0.591006 2.176403 0.046684 -0.016297 262822.000000 0 0 1
28.779438 18.964111 -22.286058 41.043415 0.582639 2.144787 0.041416 -0.022465 34854.000000 0 0 1
29.806838 18.053311 -22.640858 41.556926 0.544583 2.146965 0.026641 -0.020158 457848.000000 0 0 1
31.153938 18.196511 -21.871658 42.190642 0.528634 2.115776 0.034678 -0.021600 741060.000000 0 0 1
32.125238 19.149911 -22.331958 43.559917 0.537548 2.109091 0.027474 -0.017476 383488.000000 0 0 1
33.312738 19.090811 -21.567358 44.038035 0.520389 2.082592 0.018140 -0.018309 -55204.100000 0 0 1
33.570038 20.142811 -20.465558 44.176004 0.540437 2.052481 0.033355 -0.022549 -420572.000000 0 0 1
32.828938 19.945011 -19.280258 42.979890 0.545948 2.035981 0.038896 -0.023098 189799.000000 0 0 1
32.856838 21.058911 -18.410858 43.151005 0.569972 2.011594 0.024773 -0.006326 -57937.000000 0 0 1
31.974238 20.830311 -17.161258 41.842114 0.577409 1.993407 0.037418 -0.016928 3160.470000 0 0 1
32.535638 19.780911 -16.402858 41.459690 0.546264 1.977554 0.034847 -0.021890 263886.000000 0 0 1
32.086038 19.763711 -15.090758 40.593707 0.552072 1.951691 0.040973 -0.015172 -78595.500000 0 0 1
32.782338 18.642611 -14.233358 40.309020 0.517071 1.931685 0.032260 -0.003855 518249.000000 0 0 1
34.179338 18.826611 -13.993658 41.454685 0.503471 1.915125 0.023513 -0.011898 386080.000000 0 0 1
34.679738 17.772511 -13.230158 41.153171 0.473578 1.898094 0.015785 0.004826 -70769.800000 0 0 1
34.588338 17.967011 -11.660058 40.683210 0.479089 1.861479 0.029229 0.001148 -304544.000000 0 0 1
35.445638 19.026911 -11.240358 41.770351 0.492646 1.843254 0.019309 0.002278 16874.900000 0 0 1
35.087838 19.627511 -10.010258 41.431882 0.510018 1.814819 0.015653 0.001108 475194.000000 0 0 1
33.814238 20.565811 -9.971158 40.813959 0.546427 1.817602 0.031412 -0.002951 1358260.000000 0 0 1
32.574238 19.877711 -10.085058 39.470404 0.547906 1.829171 0.041886 -0.007940 -156276.000000 0 0 1
31.425438 20.629111 -9.830858 38.855683 0.580894 1.826586 0.029801 -0.001607 1174030.000000 0 0 1
30.089138 19.845411 -10.234558 37.469224 0.583062 1.847458 0.034213 -0.002768 1150300.000000 0 0 1
30.055738 19.547111 -11.645758 37.696958 0.576630 1.884865 0.047032 -0.007566 -189664.000000 0 0 1
28.885138 18.829111 -11.950958 36.492630 0.577683 1.904442 0.038128 -0.009104 -83030.100000 0 0 1
28.634538 18.356011 -13.407958 36.560269 0.570054 1.946294 0.046391 -0.009443 -432028.000000 0 0 1
29.630038 17.473811 -13.848458 37.081707 0.532836 1.953530 0.041724 -0.004302 -150409.000000 0 0 1
29.203938 16.600411 -14.898558 36.747934 0.516883 1.988241 0.032814 -0.007311 -740000.000000 0 0 1
30.330338 15.913311 -15.605858 37.639151 0.483185 1.998319 0.037572 -0.020277 -515114.000000 0 0 1
31.046638 14.910611 -14.910058 37.530386 0.447735 1.979347 0.032880 -0.014152 1651320.000000 0 0 1
32.443638 14.817411 -15.312158 38.815042 0.428422 1.976309 0.032785 -0.016094 1391140.000000 0 0 1
33.219938 13.741611 -14.558558 38.785922 0.392223 1.955578 0.025434 -0.016510 -366392.000000 0 0 1
33.852338 14.074311 -13.339558 39.012957 0.394015 1.919762 0.028745 -0.006873 -13624.900000 0 0 1
34.575438 12.974011 -12.846858 39.100225 0.358979 1.905577 0.016243 0.000703 -259580.000000 0 0 1
35.492238 13.463711 -11.710658 39.725432 0.362572 1.870032 0.029481 0.002247 585622.000000 0 0 1
-34.660862 14.029811 -12.169858 39.323230 -0.384615 1.885445 0.008698 0.007218 574342.000000 0 0 1
-33.958762 14.568311 -11.067458 38.573590 -0.405254 1.861804 -0.011143 0.004892 -1601140.000000 0 0 1
-32.545962 14.937111 -11.460658 37.599250 -0.430275 1.880536 0.010638 -0.004073 -915369.000000 0 0 1
-31.708262 13.923311 -11.973558 36.642033 -0.413758 1.903681 0.001571 -0.003132 51636.800000 0 0 1
-31.397162 12.882111 -11.035458 35.686298 -0.389350 1.885185 0.020845 0.004378 -1950970.000000 0 0 1
-30.351862 11.951411 -11.499558 34.587737 -0.375117 1.909723 0.030275 -0.000431 -1056930.000000 0 0 1
-30.622462 11.213211 -12.692358 34.993817 -0.351012 1.941963 0.018025 -0.001333 201030.000000 0 0 1
-30.039462 9.901511 -12.551658 34.028713 -0.318402 1.948573 0.035112 -0.016647 -219696.000000 0 0 1
-29.759662 9.156811 -13.875958 34.088515 -0.298499 1.990026 0.040685 -0.016104 -44600.500000 0 0 1
-30.877162 8.948711 -14.734358 35.363539 -0.282088 2.000558 0.016134 -0.010353 171462.000000 0 0 1
-30.594162 8.197311 -15.926358 35.452046 -0.261788 2.036707 0.027134 -0.019717 241966.000000 0 0 1
-31.827362 7.508811 -16.625758 36.684861 -0.231687 2.041154 0.021357 -0.023135 444431.000000 0 0 1
-32.323262 6.485711 -15.815658 36.564912 -0.198022 2.018100 0.028998 -0.019495 -38957.800000 0 0 1
-33.310962 5.731111 -16.470958 37.599977 -0.170381 2.024233 0.028233 -0.019652 -397347.000000 0 0 1
-34.194662 4.908011 -15.565258 37.889850 -0.142558 1.994131 0.029453 -0.012704 -402140.000000 0 0 1
-35.465162 4.557911 -16.058458 39.197275 -0.127817 1.992903 0.029092 -0.011243 351200.000000 0 0 1
35.082538 4.260311 -14.924758 38.362522 0.120845 1.970391 0.025418 -0.011575 411660.000000 0 0 1
34.118838 3.085311 -15.253058 37.500267 0.090183 1.989685 0.026661 -0.013165 -558001.000000 0 0 1
34.670738 1.795611 -15.423858 37.989205 0.051744 1.988876 0.030358 -0.012768 102057.000000 0 0 1
33.784338 0.676311 -15.341958 37.110842 0.020016 1.996991 0.038693 -0.005533 371667.000000 0 0 1
33.063538 0.295411 -13.995358 35.904803 0.008934 1.971201 0.034659 -0.014657 139573.000000 0 0 1
34.038238 -0.044389 -13.034958 36.448783 -0.001304 1.936519 0.032559 -0.014946 224964.000000 0 0 1
33.486838 -0.121289 -11.753758 35.489912 -0.003622 1.908356 0.038857 -0.007198 -331328.000000 0 0 1
33.550038 1.201111 -11.003258 35.328733 0.035785 1.887519 0.036441 -0.009114 56534.100000 0 0 1
32.751538 2.231911 -11.613358 34.821183 0.068042 1.910825 0.039039 -0.006986 606286.000000 0 0 1
32.961038 3.506511 -11.052158 34.941034 0.105985 1.892632 0.045942 -0.008282 -118435.000000 0 0 1
31.862938 4.493811 -11.551058 34.188713 0.140112 1.915440 0.049615 -0.012444 175458.000000 0 0 1
32.096938 4.938411 -12.855958 34.926737 0.152662 1.947743 0.041729 -0.012622 -313340.000000 0 0 1
31.086838 5.767711 -13.224458 34.271625 0.183449 1.966949 0.050633 -0.021041 -913231.000000 0 0 1
31.432438 6.420511 -14.537658 35.221650 0.201492 1.996265 0.031655 -0.013710 -261573.000000 0 0 1
31.369738 5.559411 -15.653958 35.496675 0.175401 2.027507 0.033400 -0.008175 22497.000000 0 0 1
31.653338 6.211311 -16.863058 36.398859 0.193767 2.052495 0.031791 -0.009560 -822201.000000 0 0 1
30.681138 7.249111 -17.498558 36.056641 0.232018 2.077511 0.028324 -0.008938 1493860.000000 0 0 1
29.369638 6.826411 -17.967558 35.099981 0.228376 2.108187 0.029317 -0.010805 1540880.000000 0 0 1
28.473838 6.248911 -17.036058 33.764413 0.216037 2.099665 0.019514 -0.003161 -595679.000000 0 0 1
27.032738 6.133911 -17.590058 32.829924 0.223129 2.136244 0.004207 0.004780 -47403.700000 0 0 1
26.856538 5.281811 -18.678558 33.136984 0.194189 2.169627 0.014691 -0.001004 311427.000000 0 0 1
25.626938 5.537211 -19.342358 32.581091 0.212799 2.206406 0.006903 -0.000057 132327.000000 0 0 1
25.193238 4.423811 -20.303058 32.657059 0.173823 2.241714 0.017159 0.026384 -307463.000000 0 0 1
24.617838 3.343711 -19.627958 31.661887 0.134999 2.239442 0.017355 0.012205 179787.000000 0 0 1
24.471038 2.249111 -20.518258 32.013890 0.091652 2.266489 0.008710 0.010164 -262096.000000 0 0 1
23.579838 1.131811 -19.890758 30.869597 0.047962 2.270967 0.003681 0.005892 -932120.000000 0 0 1
22.275638 1.532211 -19.785958 29.833469 0.068676 2.295901 0.013151 0.005730 -938279.000000 0 0 1
21.480738 0.817811 -18.857558 28.595427 0.038053 2.290897 0.014888 0.004857 -86741.400000 0 0 1
20.088138 1.397911 -18.605758 27.416449 0.069477 2.316699 0.026471 -0.001655 -738579.000000 0 0 1
19.283138 1.392011 -19.771458 27.652987 0.072063 2.367398 0.026354 -0.001454 572689.000000 0 0 1
18.091238 2.174211 -19.724958 26.853195 0.119607 2.395797 0.035159 -0.010187 1443580.000000 0 0 1
16.878438 1.684911 -18.820158 25.336120 0.099497 2.408068 0.052384 -0.014635 -228820.000000 0 0 1
17.050038 1.704511 -17.421058 24.435679 0.099640 2.364472 0.044185 -0.020331 -1560.460000 0 1 0
15.871638 1.560311 -16.654558 23.059006 0.097993 2.377858 0.034681 -0.018983 127404.000000 0 1 0
14.995838 2.829111 -16.509458 22.482020 0.186468 2.395491 0.043159 -0.019279 -155173.000000 0 1 0
14.466138 3.377111 -17.681658 23.093615 0.229342 2.442850 0.050693 -0.012205 167703.000000 0 1 0
13.664638 4.513111 -17.459058 22.625411 0.318997 2.452239 0.061372 -0.018413 -171668.000000 0 1 0
-19.577462 -21.885689 -17.482158 34.174351 0.841010 2.107793 0.054916 -0.010736 -46525.200000 0 0 1
-19.269162 -22.037289 -18.835958 34.809999 0.852313 2.142550 0.053953 -0.013016 401596.000000 0 0 1
-20.451262 -22.025989 -19.637858 35.903256 0.822453 2.149532 0.057439 -0.016277 170208.000000 0 0 1
-20.369162 -22.677289 -21.035358 37.035773 0.838966 2.174839 0.045610 -0.011595 -178470.000000 0 0 1
-20.120762 -24.078689 -21.044458 37.782239 0.874707 2.161558 0.039925 -0.007894 217751.000000 0 0 1
-19.856762 -24.552089 -22.352658 38.687691 0.890736 2.186792 0.033952 -0.006222 -201576.000000 0 0 1
-19.516362 -26.083269 -22.353758 39.508427 0.928427 2.172196 0.040158 -0.008498 -459521.000000 0 0 1
-20.704362 -26.777129 -22.244458 40.503101 0.912605 2.152208 0.040792 -0.004500 -392098.000000 0 0 1
-20.311862 -28.109159 -21.978258 41.057769 0.945059 2.135660 0.057152 -0.008990 458558.000000 0 0 1
-21.553862 -29.039179 -21.869758 42.262622 0.932284 2.114691 0.046909 0.000105 358543.000000 0 0 1
-22.314762 -29.232449 -23.050558 43.402914 0.918802 2.130675 0.034701 0.008350 6566.160000 0 0 1
-21.699862 -29.992769 -24.066758 44.154944 0.944470 2.147248 0.033749 0.001460 -575173.000000 0 0 1
-22.144462 -29.643439 -25.499338 44.936922 0.929200 2.174199 0.025256 0.004967 225491.000000 0 0 1
-23.528862 -29.786329 -25.793468 45.892655 0.902231 2.167645 0.025615 0.008797 362229.000000 0 0 1
-23.963662 -29.138259 -26.974618 46.378069 0.882538 2.191521 0.026388 0.006378 -254287.000000 0 0 1
-23.297462 -29.369029 -28.349718 47.000193 0.900175 2.218282 0.035046 -0.004932 -606418.000000 0 0 1
-23.676962 -30.593649 -28.927668 48.305071 0.912163 2.212865 0.028726 0.003556 111924.000000 0 0 1
-23.280162 -30.632129 -30.265198 48.951767 0.920931 2.237331 0.036481 -0.002467 -212232.000000 0 0 1
-23.990762 -31.720069 -31.065288 50.465549 0.923258 2.233911 0.029828 0.005026 -205151.000000 0 0 1
-23.507062 -32.956409 -30.739058 50.829092 0.951215 2.220252 0.023151 0.006667 -203702.000000 0 0 1
-24.232762 -34.021559 -31.334418 52.216272 0.951878 2.214409 0.027629 0.006173 -151820.000000 0 0 1
-23.609962 33.404074 -31.092838 51.381194 -0.955522 2.220739 0.038242 0.007846 12544.400000 0 0 1
-22.520262 33.186381 -31.957008 51.281074 -0.974578 2.243590 0.036521 0.003234 -228467.000000 0 0 1
-22.131662 31.835074 -31.825538 50.161213 -0.963301 2.258113 0.052147 0.001274 31586.000000 0 0 1
-20.891362 31.325504 -32.620068 49.817719 -0.982624 2.284699 0.049564 0.004432 239438.000000 0 0 1
-21.077762 31.228184 -34.049948 50.782581 -0.977074 2.305685 0.047286 0.005740 152761.000000 0 0 1
-20.452562 30.057194 34.219376 49.927026 -0.973309 0.815660 0.043191 0.001214 -89943.200000 0 0 1
-20.761762 29.703364 32.782611 48.867578 -0.960762 0.835448 0.033410 0.002479 -240759.000000 0 0 1
-20.227862 30.609824 31.889465 48.611374 -0.986846 0.855279 0.033754 0.008216 132613.000000 0 0 1
-20.744462 30.426134 30.589015 47.872437 -0.972392 0.877639 0.034383 0.004609 -190137.000000 0 0 1
-20.139862 31.412354 29.590035 47.622686 -1.000672 0.900340 0.028306 -0.002670 -151303.000000 0 0 1
-20.854462 32.657114 29.488165 48.692377 -1.002485 0.920275 0.018069 -0.000772 100181.000000 0 0 1
-20.093762 33.864459 29.527725 49.218364 -1.035275 0.927379 0.020188 -0.013315 -251259.000000 0 0 1
-20.915162 -33.667519 29.506045 49.412069 1.014915 0.930862 0.028650 -0.020299 31491.500000 0 0 1
-21.482662 -33.258859 30.764385 50.140840 0.997293 0.910236 0.028453 -0.011096 -162928.000000 0 0 1
-22.543462 -32.328769 30.678835 49.945449 0.961872 0.909365 0.047731 -0.012886 -262600.000000 0 0 1
-22.277162 -30.862739 30.276545 48.635890 0.945580 0.898845 0.058567 -0.016199 -345806.000000 0 0 1
-21.811862 -30.580779 28.934465 47.414604 0.951230 0.914428 0.048486 -0.012819 103467.000000 0 0 1
-21.802662 -29.228959 28.499215 46.280594 0.929907 0.907406 0.047795 -0.014606 608323.000000 0 0 1
-23.184362 -28.887429 27.809555 46.318134 0.894487 0.926791 0.048250 -0.002785 1230530.000000 0 0 1
-24.271362 -28.675869 28.749605 47.306916 0.868394 0.917603 0.052276 0.002575 1375830.000000 0 0 1
-25.362612 -29.606889 28.677995 48.396873 0.862457 0.936565 0.043504 -0.005657 893504.000000 0 0 1
-26.323732 -29.683079 27.447355 48.242941 0.845307 0.965580 0.033233 0.004917 -229129.000000 0 0 1
-25.694682 -30.242159 26.339875 47.629758 0.866516 0.984820 0.032163 0.002900 -63707.300000 0 0 1
-26.622092 -30.515679 25.302375 47.750944 0.853437 1.012335 0.027914 0.008010 -170327.000000 0 0 1
-26.091062 -30.595729 23.875295 46.764002 0.864697 1.034974 0.024701 0.001550 -1023120.000000 0 0 1
-25.546912 -29.391239 23.478045 45.472060 0.855260 1.028250 0.015922 -0.000626 206155.000000 0 0 1
-25.011562 -29.327429 22.155545 44.458346 0.864657 1.049109 0.026512 -0.003120 309585.000000 0 0 1
-23.791162 -30.236249 21.832445 44.236928 0.904130 1.054647 0.032301 -0.015256 -737933.000000 0 0 1
-24.098662 -31.625919 21.764545 45.328134 0.919665 1.069965 0.028524 -0.024220 435442.000000 0 0 1
-22.938162 -32.381179 21.419245 45.094169 0.954469 1.075845 0.037283 -0.016566 121070.000000 0 0 1
-22.168962 -32.856819 22.655145 45.654014 0.977243 1.051539 0.046450 -0.018979 -399166.000000 0 0 1
-21.464462 -31.854219 23.360445 44.956922 0.977848 1.024392 0.064232 -0.033325 -318805.000000 0 0 1
-20.624562 -32.550579 24.180155 45.492776 1.006025 1.010407 0.054721 -0.026013 -983574.000000 0 0 1
-19.784562 -31.872319 25.282565 45.238056 1.015263 0.977764 0.049962 -0.026915 -50569.100000 0 0 1
-18.672062 -31.128569 24.747055 43.932339 1.030497 0.972423 0.048829 -0.023456 563683.000000 0 0 1
-17.788162 -30.546999 25.649905 43.674426 1.043477 0.943080 0.062056 -0.021456 -103027.000000 0 0 1
-16.875662 -31.455849 26.527465 44.474316 1.078387 0.931704 0.044567 -0.024624 -860149.000000 0 0 1
-17.538462 -32.229759 27.508975 45.859554 1.072440 0.927479 0.030716 -0.021408 147467.000000 0 0 1
-16.707962 -32.581739 28.618405 46.472990 1.096960 0.907386 0.027685 -0.018944 -234146.000000 0 0 1
-17.234562 -32.151099 29.971715 47.212572 1.078727 0.883014 0.042794 -0.015268 -237799.000000 0 0 1
-16.964362 -30.780469 30.141205 46.300314 1.067078 0.861904 0.041362 -0.010634 234861.000000 0 0 1
-17.400662 -30.261939 31.381075 46.939747 1.048961 0.838553 0.049415 -0.002211 -182140.000000 0 0 1
-17.334162 -28.651279 31.425915 45.923383 1.026705 0.817137 0.043398 -0.005884 66506.900000 0 0 1
-18.350562 -27.901179 30.780215 45.416303 0.989028 0.826119 0.053940 -0.008635 72654.400000 0 0 1
-18.520462 -27.947749 29.381405 44.579717 0.985558 0.851207 0.060005 -0.004782 641437.000000 0 0 1
-17.179962 -27.748819 28.515085 43.338875 1.016434 0.852695 0.054277 0.002137 1157350.000000 0 0 1
-16.628662 -26.464749 28.780605 42.487864 1.009804 0.826595 0.052284 -0.001040 332150.000000 0 0 1
-15.494262 -26.303379 27.924925 41.373196 1.038460 0.829897 0.053795 -0.005601 361278.000000 0 0 1
-15.394162 -24.838789 27.500105 40.127315 1.015972 0.815751 0.051492 -0.006422 878373.000000 0 0 1
-16.462362 -24.604389 26.524195 39.748185 0.981123 0.840211 0.054525 -0.011025 1127560.000000 0 0 1
-16.151262 -23.498289 25.717795 38.398409 0.968619 0.836908 0.050203 -0.005117 78305.400000 0 0 1
-16.716362 -22.183689 26.242085 38.212561 0.925032 0.813802 0.045964 0.000266 -344596.000000 0 0 1
-16.474162 -21.250189 25.281575 36.906999 0.911331 0.816182 0.041033 -0.000111 241083.000000 0 0 1
-17.180662 -20.025389 25.532115 36.716212 0.861708 0.801833 0.034069 -0.000808 -221638.000000 0 0 1
-16.862562 -18.933489 24.538185 35.283786 0.843187 0.801747 0.033548 -0.004706 -379800.000000 0 0 1
-15.564962 -18.432089 24.717075 34.539018 0.869534 0.773274 0.030649 -0.007934 -468137.000000 0 0 1
-15.245462 -17.485489 23.740555 33.193077 0.853729 0.773849 0.018744 -0.003655 -195878.000000 0 0 1
-13.910962 -16.754489 23.903195 32.335592 0.877861 0.738881 0.043695 -0.005089 178421.000000 0 0 1
-12.723362 -17.554389 23.769525 32.171895 0.943621 0.739465 0.013336 0.000828 942887.000000 0 0 1
-11.487462 -16.858589 23.845895 31.381531 0.972662 0.707683 0.025363 -0.007287 191410.000000 0 0 1
-11.134262 -15.994889 22.560645 29.812597 0.962683 0.712471 0.021768 0.002188 -576514.000000 0 0 1
-10.675162 -16.731589 21.417145 29.199302 1.002886 0.747367 0.050680 0.004032 -35108.800000 0 0 1
-9.292562 -16.974889 21.577645 28.984363 1.069928 0.731073 0.051817 0.002230 -501993.000000 0 0 1
-8.839562 -18.337189 21.142445 29.349503 1.121606 0.766463 0.050289 0.002921 -127581.000000 0 0 1
-9.054362 -18.380189 19.741445 28.452372 1.113074 0.803986 0.036735 -0.000152 19535.200000 0 0 1
-8.375962 -19.483189 19.174345 28.590329 1.164777 0.835700 0.033143 -0.004187 146023.000000 0 0 1
-8.166562 -19.523789 17.663145 27.565518 1.174625 0.875296 0.023271 -0.010411 692633.000000 0 0 1
-7.262762 -18.443689 17.255345 26.280493 1.195663 0.854516 0.040220 -0.000622 354488.000000 0 0 1
-7.222762 -18.437289 15.806645 25.336771 1.197424 0.897122 0.062076 0.003259 -54079.800000 0 0 1
-6.259362 -17.381489 15.282345 23.975943 1.225138 0.879673 0.037035 -0.001931 -76112.200000 0 1 0
-6.501162 -16.088089 15.821245 23.481983 1.186762 0.831510 0.041279 -0.014253 -615980.000000 0 1 0
-5.484862 -15.201289 15.502545 22.394013 1.224519 0.806176 0.029812 -0.004732 -366659.000000 0 1 0
-5.493362 -13.876889 16.331845 22.124065 1.193860 0.740408 0.016200 -0.012585 -26299.700000 0 1 0
-4.911662 -14.091589 17.650945 23.113917 1.235411 0.701848 0.013882 -0.006914 791409.000000 0 1 0
-5.750562 -14.839489 18.585645 24.468461 1.201097 0.708136 0.037897 -0.009242 852155.000000 0 1 0
-7.050162 -14.198289 19.161845 24.869107 1.109912 0.691159 0.070849 -0.010535 366237.000000 0 1 0
-6.836662 -13.219189 20.114545 25.021627 1.093502 0.636996 0.054094 -0.021390 -564327.000000 0 0 1
-8.026762 -12.680589 20.596045 25.483785 1.006468 0.629704 0.061258 -0.012459 -327184.000000 0 0 1
-7.864162 -11.809389 21.874645 26.073105 0.983308 0.575402 0.059743 -0.011434 82599.800000 0 0 1
-7.155362 -10.622189 21.457845 24.989382 0.977993 0.538111 0.031387 -0.007937 490664.000000 0 1 0
-6.763062 -9.689089 22.478045 25.394487 0.961409 0.483970 0.022893 -0.015526 -403379.000000 0 0 1
-5.494462 -9.989789 23.261445 25.905208 1.067947 0.455719 0.023313 -0.006017 -443817.000000 0 0 1
-5.572362 -11.035789 24.200705 27.175614 1.103208 0.472287 0.029402 -0.003670 -407069.000000 0 0 1
-4.274262 -11.463489 24.516115 27.399284 1.213904 0.462876 0.015657 -0.003792 -428818.000000 0 0 1
-4.195662 -12.633989 25.515175 28.779253 1.250162 0.480893 0.015508 -0.005076 -505624.000000 0 0 1
-2.902562 -13.201789 25.593825 28.944014 1.354378 0.485905 0.004744 -0.011184 68609.200000 0 0 1
-2.832162 -14.248789 26.530575 30.247653 1.374588 0.500981 0.002379 -0.015190 56591.600000 0 0 1
-2.746362 -15.634989 25.856245 30.340415 1.396915 0.550612 0.014235 -0.025417 -346032.000000 0 0 1
-1.452662 -15.738289 25.339525 29.864619 1.478756 0.557690 0.016784 -0.022169 -469679.000000 0 0 1
-1.323862 -16.997289 24.720385 30.029284 1.493067 0.603756 0.024014 -0.015587 342346.000000 0 0 1
0.113738 -17.650089 24.672015 30.335571 -1.564352 0.620990 0.033160 -0.015874 900598.000000 0 0 1
0.619338 -18.220289 25.854065 31.635347 -1.536818 0.614169 0.049444 -0.018757 11451.900000 0 0 1
0.617138 -17.431089 27.025915 32.165568 -1.535407 0.573121 0.051355 -0.023053 -973481.000000 0 0 1
1.385538 -17.987789 28.219835 33.493870 -1.493922 0.568820 0.043246 -0.015450 289651.000000 0 0 1
2.771938 -18.219089 27.942565 33.472463 -1.419810 0.583040 0.047501 -0.013709 567930.000000 0 0 1
3.598038 -18.370989 29.051745 34.560715 -1.377390 0.572406 0.048405 -0.019751 98652.300000 0 0 1
4.275238 -17.038589 29.538005 34.366916 -1.324957 0.536526 0.035921 -0.021994 -1456120.000000 0 0 1
3.379438 -16.121789 29.966695 34.195548 -1.364169 0.502600 0.042135 -0.025849 -910175.000000 0 0 1
3.962438 -14.997589 30.541645 34.255228 -1.312494 0.469950 0.040385 -0.023915 -502127.000000 0 0 1
3.042138 -14.176389 31.427395 34.610775 -1.359410 0.432255 0.033730 -0.034910 -437149.000000 0 0 1
2.439938 -14.878089 32.469125 35.798811 -1.408248 0.434718 0.036383 -0.040031 400819.000000 0 0 1
1.393638 -14.072589 33.046968 35.945543 -1.472086 0.404341 0.031159 -0.029713 259384.000000 0 0 1
0.671038 -14.825489 34.131919 37.218722 -1.525565 0.410145 0.013040 -0.023058 -99622.100000 0 0 1
1.505438 -14.922989 -33.477228 36.683604 -1.470256 2.720380 0.029354 -0.014665 -166874.000000 0 0 1
0.757438 -15.327089 -32.415818 35.864727 -1.521418 2.699447 0.005703 -0.017601 172612.000000 0 0 1
1.698738 -15.529289 -31.169138 34.864878 -1.461840 2.676987 0.012418 -0.008424 343923.000000 0 0 1
1.040138 -16.194989 -30.136408 34.228098 -1.506659 2.647624 0.002924 -0.009841 -343940.000000 0 0 1
1.760138 -16.135889 -28.922248 33.165667 -1.462144 2.630180 0.012373 -0.012636 -212317.000000 0 0 1
1.293038 -17.222489 -27.897648 32.811048 -1.495858 2.587260 0.024187 -0.016983 -274844.000000 0 0 1
1.808738 -18.448089 -28.265308 33.801349 -1.473064 2.561147 0.032164 -0.015407 -8661.280000 0 0 1
1.401938 -19.494089 -27.366008 33.628609 -1.499004 2.521409 0.050356 -0.030919 -725539.000000 0 0 1
2.064338 -20.901489 -27.497578 34.601309 -1.472350 2.489306 0.038545 -0.028274 -286897.000000 0 0 1
3.424938 -21.030489 -27.173468 34.531277 -1.409358 2.476603 0.021266 -0.024655 -341482.000000 0 0 1
3.793038 -20.837789 -25.840938 33.411895 -1.390741 2.454992 0.027418 -0.022963 -378306.000000 0 0 1
5.233238 -21.360489 -25.515638 33.685384 -1.330533 2.430224 0.029484 -0.026735 490439.000000 0 0 1
5.411238 -22.771089 -25.710838 34.768538 -1.337487 2.403102 0.029466 -0.020157 21674.400000 0 0 1
5.502038 -23.207289 -27.068688 36.077203 -1.338012 2.419311 0.011390 -0.019035 -774320.000000 0 0 1
5.112638 -24.680689 -27.166638 37.058086 -1.366534 2.393640 0.011026 -0.014753 50023.800000 0 0 1
5.936838 -25.633949 -26.515548 37.355317 -1.343208 2.360039 0.015640 -0.006593 -518296.000000 0 0 1
5.390638 -26.897889 -26.781348 38.337919 -1.373005 2.344180 0.015936 -0.003463 -168226.000000 0 0 1
5.728938 -28.005819 -25.738178 38.465575 -1.369018 2.303824 0.016702 -0.003421 878852.000000 0 0 1
7.118038 -28.378069 -25.745618 38.972017 -1.325038 2.292438 0.021287 -0.005190 503979.000000 0 0 1
7.223438 -29.610779 -25.043058 39.447827 -1.331523 2.258598 0.018248 -0.004479 -788649.000000 0 0 1
8.631538 -30.138279 -25.169638 40.203607 -1.291865 2.247279 0.025458 -0.004469 -829527.000000 0 0 1
8.872038 -30.343239 -26.518568 41.263297 -1.286336 2.268771 0.028885 -0.011140 -1166760.000000 0 0 1
10.161738 -30.720499 -26.807108 42.019413 -1.251345 2.262655 0.045595 -0.000466 -928832.000000 0 0 1
10.484038 -30.577559 -28.314068 42.971952 -1.240490 2.290147 0.048279 -0.013118 118634.000000 0 0 1
9.798538 -31.472039 -29.165908 44.013075 -1.268968 2.295167 0.050903 -0.020930 82507.500000 0 0 1
10.160438 -31.226609 -30.470868 44.797427 -1.256223 2.318821 0.061964 -0.007131 27823.500000 0 0 1
-34.215123 -4.766189 -5.828958 35.033812 0.138410 1.737955 0.074277 -0.010016 -45693.000000 0 0 1
-34.107392 -4.079689 -4.600858 34.657264 0.119047 1.703942 0.077947 -0.011535 641461.000000 0 0 1
-33.210142 -2.944689 -4.692858 33.669090 0.088437 1.710633 0.074907 -0.014421 425602.000000 0 0 1
-33.830422 -1.585689 -5.228558 34.268786 0.046837 1.723970 0.071232 -0.002408 213935.000000 0 0 1
-34.576090 -0.828989 -4.273758 34.849078 0.023971 1.693742 0.056702 -0.001592 743223.000000 0 0 1
-35.316200 0.249311 -4.875158 35.651975 -0.007059 1.707969 0.049507 0.000079 -186634.000000 0 0 1
35.245268 1.077811 -3.972158 35.484766 0.030571 1.682971 0.050100 0.001745 -250445.000000 0 0 1
-35.415975 1.953511 -3.098358 35.604878 -0.055103 1.657927 0.049119 0.003276 168826.000000 0 0 1
35.124988 2.714211 -2.299758 35.304682 0.077120 1.635983 0.043794 -0.007458 -630503.000000 0 0 1
-35.692214 4.046811 -1.864158 35.969236 -0.112899 1.622646 0.035602 -0.016017 -401174.000000 0 0 1
-35.460546 4.966911 -2.905958 35.924436 -0.139163 1.651776 0.047329 -0.013711 144891.000000 0 0 1
-34.236789 4.816111 -3.588958 34.759650 -0.139754 1.674231 0.042893 -0.002213 -390344.000000 0 0 1
-33.197432 5.902811 -3.235158 33.872982 -0.175970 1.666451 0.043007 -0.015039 -165977.000000 0 0 1
-32.625162 5.853111 -1.924758 33.201880 -0.177516 1.628800 0.049922 -0.019441 488327.000000 0 0 1
-32.592852 7.114511 -1.305258 33.385835 -0.214913 1.609902 0.054520 -0.039067 -415449.000000 0 0 1
-31.944052 7.156211 0.064042 32.735881 -0.220385 1.568840 0.066968 -0.034887 -523244.000000 0 0 1
-30.536812 7.115011 -0.007258 31.354750 -0.228914 1.571028 0.093302 -0.031238 4502.040000 0 0 1
-29.850082 7.531311 1.130242 30.806257 -0.247146 1.534099 0.089574 -0.038521 16645.000000 0 0 1
-29.648462 9.080411 1.325442 31.036140 -0.297198 1.528077 0.086479 -0.035294 -181893.000000 0 0 1
-30.960662 9.593311 1.442942 32.444973 -0.300473 1.526308 0.074324 -0.039487 297388.000000 0 0 1
-30.994392 11.037711 1.550742 32.937641 -0.342116 1.523698 0.069797 -0.027455 1375410.000000 0 0 1
-32.498662 11.564511 1.631342 34.533494 -0.341873 1.523539 0.080247 -0.029485 747058.000000 0 0 1
-33.056012 11.986511 0.436442 35.164853 -0.347866 1.558385 0.064252 -0.032131 808164.000000 0 0 1
-34.336335 12.645111 0.476042 36.593843 -0.352859 1.557787 0.071498 -0.017981 1043800.000000 0 0 1
-35.536710 11.659311 0.594042 37.405216 -0.317026 1.554914 0.076250 -0.036482 -513025.000000 0 0 1
35.580275 10.971611 -0.601358 37.238338 0.299111 1.586946 0.070077 -0.035041 17319.200000 0 0 1
34.597688 9.988611 -0.359758 36.012522 0.281065 1.580786 0.088033 -0.034715 73332.500000 0 0 1
34.339328 9.018811 -1.522958 35.536570 0.256837 1.613666 0.076657 -0.043652 223563.000000 0 0 1
33.719128 9.540711 -2.716158 35.148005 0.275739 1.648151 0.069438 -0.038660 494841.000000 0 0 1
33.570918 8.565711 -3.749658 34.848786 0.249822 1.678603 0.050067 -0.038599 -170283.000000 0 0 1
32.879468 9.189911 -4.982158 34.501243 0.272548 1.715708 0.040618 -0.031502 208833.000000 0 0 1
31.476848 9.331611 -4.840158 33.185811 0.288205 1.717169 0.072406 -0.028701 491607.000000 0 0 1
30.872628 9.973111 -5.953658 32.985271 0.312459 1.752285 0.060637 -0.015473 -189472.000000 0 0 1
29.360518 10.190911 -5.887158 31.631524 0.334085 1.758005 0.074647 -0.013774 -264479.000000 0 0 1
28.495648 9.068511 -6.005558 30.500927 0.308107 1.768989 0.071482 -0.010748 997473.000000 0 0 1
27.179988 9.574311 -6.274458 29.492168 0.338683 1.785185 0.051621 -0.005595 335595.000000 0 0 1
26.181338 8.419711 -6.582158 28.278592 0.311146 1.805712 0.060066 0.000699 -170523.000000 0 0 1
26.337298 7.786411 -7.844558 28.562537 0.287454 1.849017 0.064281 -0.002164 256323.000000 0 0 1
25.313838 6.818011 -7.989358 27.406304 0.263096 1.866607 0.057985 -0.003472 -179934.000000 0 0 1
25.631638 5.712411 -9.012158 27.763852 0.219282 1.901386 0.068899 -0.015886 220991.000000 0 0 1
26.732588 4.853811 -8.685958 28.524316 0.179612 1.880221 0.069628 -0.018001 864427.000000 0 0 1
26.926858 3.781611 -9.645658 28.851256 0.139528 1.911684 0.054565 -0.021490 87329.300000 0 0 1
28.065148 2.783311 -9.281658 29.690883 0.098850 1.888736 0.061133 -0.021668 272678.000000 0 0 1
29.413668 3.161511 -9.537558 31.082536 0.107073 1.882674 0.074352 -0.009490 1609510.000000 0 0 1
30.452718 2.838111 -8.585458 31.766854 0.092929 1.844464 0.065141 -0.014771 679983.000000 0 0 1
30.623138 1.326211 -8.203758 31.730696 0.043280 1.832310 0.054594 -0.011890 -1480440.000000 0 0 1
29.503248 0.927311 -7.489458 30.453136 0.031420 1.819279 0.071998 -0.013638 -162323.000000 0 0 1
29.578128 -0.452989 -7.078058 30.416603 -0.015314 1.805653 0.070619 -0.010841 -336798.000000 0 0 1
29.370548 -1.542789 -8.139358 30.516527 -0.052480 1.840784 0.062738 -0.015640 -1733150.000000 0 0 1
30.345938 -1.714889 -9.048858 31.712752 -0.056451 1.860156 0.055642 -0.013616 -926507.000000 0 0 1
30.059018 -2.649789 -10.062858 31.809229 -0.087926 1.892676 0.051440 -0.019276 -263392.000000 0 0 1
31.206748 -2.877289 -11.056558 33.232324 -0.091941 1.909967 0.046530 -0.013063 119907.000000 0 0 1
32.428348 -3.475789 -10.616058 34.298390 -0.106776 1.885485 0.047764 -0.005069 630732.000000 0 0 1
33.042988 -4.025289 -11.779158 35.309922 -0.121222 1.910909 0.040934 -0.014914 349443.000000 0 0 1
34.532468 -4.423389 -11.534258 36.675562 -0.127400 1.890720 0.040580 -0.011125 291117.000000 0 0 1
34.685858 -5.581189 -10.763158 36.743761 -0.159539 1.868081 0.040220 -0.011762 -51388.300000 0 0 1
-35.422325 -5.621389 -10.230158 37.296076 0.157384 1.848654 0.041584 -0.010159 -377919.000000 0 0 1
-35.286850 -6.761989 -9.156458 37.077311 0.189334 1.820334 0.039806 -0.015953 -385739.000000 0 0 1
35.526214 -6.656089 -7.914558 37.000752 -0.185210 1.786365 0.045860 -0.010446 108500.000000 0 0 1
35.420578 -7.909289 -7.322358 37.024196 -0.219692 1.769881 0.039599 -0.010650 -471103.000000 0 0 1
35.034388 -7.885589 -5.809558 36.377765 -0.221392 1.731184 0.056584 -0.011901 -498853.000000 0 0 1
-35.295712 -7.843089 -4.899358 36.487053 0.218658 1.705480 0.043246 -0.005039 183542.000000 0 0 1
-35.113648 -8.910789 -3.909758 36.437023 0.248524 1.678305 0.059946 -0.011094 -229153.000000 0 0 1
-34.752591 -10.332589 -4.448058 36.527937 0.288995 1.692871 0.048955 -0.011908 -911684.000000 0 0 1
35.597377 -10.968289 -5.079458 37.593583 -0.298890 1.706326 0.036815 -0.011567 -390291.000000 0 0 1
-35.354491 -12.033189 -5.881558 37.806486 0.328060 1.727001 0.025468 -0.012089 -178608.000000 0 0 1
35.217298 -12.348389 -7.132258 37.994866 -0.337240 1.759633 0.029465 -0.015771 -330942.000000 0 0 1
35.219658 -11.279989 -8.001658 37.837666 -0.309953 1.783878 0.047839 -0.014714 420407.000000 0 0 1
34.683698 -11.821889 -9.226258 37.786767 -0.328499 1.817456 0.045482 -0.015154 52481.300000 0 0 1
35.111508 -10.991989 -10.480558 38.255508 -0.303394 1.848307 0.029798 -0.017586 -421812.000000 0 0 1
34.379348 -9.814889 -10.702258 37.320369 -0.278090 1.861647 0.035858 -0.021043 355362.000000 0 0 1
34.728698 -9.197489 -11.929158 37.854736 -0.258895 1.891390 0.029572 -0.017027 -126409.000000 0 0 1
33.637728 -8.192789 -12.388458 36.770809 -0.238908 1.914430 0.027686 -0.017686 -8222.170000 0 0 1
34.000868 -7.729889 -13.634558 37.439436 -0.223544 1.943545 0.027139 -0.014131 649798.000000 0 0 1
32.923758 -7.129689 -14.317858 36.603379 -0.213259 1.972690 0.020590 -0.009135 205836.000000 0 0 1
33.474988 -6.668389 -15.709158 37.574192 -0.196631 2.002131 0.016944 -0.011619 346143.000000 0 0 1
34.406238 -5.584789 -15.674758 38.218806 -0.160916 1.993395 0.025995 -0.015431 472596.000000 0 0 1
33.813138 -4.312489 -15.834958 37.585526 -0.126854 2.005680 0.031915 -0.012195 -544787.000000 0 0 1
34.832398 -3.218589 -15.850158 38.404202 -0.092141 1.996234 0.028879 -0.009012 -655753.000000 0 0 1
35.550191 -3.043589 -17.041658 39.541088 -0.085406 2.016382 0.036841 -0.012460 311651.000000 0 0 1
-34.517329 -2.570889 -16.976458 38.551986 0.074344 2.026787 0.046861 -0.010837 259943.000000 0 0 1
-34.391764 -1.032789 -16.589458 38.197778 0.030021 2.020062 0.033161 -0.006836 -663254.000000 0 0 1
-34.484324 -0.272089 -17.771558 38.795244 0.007890 2.046637 0.034952 -0.009656 323021.000000 0 0 1
-34.130396 1.070211 -17.445458 38.345447 -0.031346 2.043118 0.033899 -0.014395 -231539.000000 0 0 1
-34.505263 2.167911 -18.493558 39.208733 -0.062746 2.061979 0.026876 -0.012007 113663.000000 0 0 1
-33.667752 2.272011 -19.651558 39.049498 -0.067381 2.098149 0.024104 -0.010523 463604.000000 0 0 1
-33.786452 3.607811 -20.109358 39.483249 -0.106380 2.105183 0.020485 -0.005260 -244529.000000 0 0 1
-32.899752 4.071111 -21.281558 39.393811 -0.123117 2.141502 0.012854 0.000970 -27725.200000 0 0 1
-31.506082 4.021211 -21.024358 38.089723 -0.126946 2.155520 0.003661 -0.001224 374359.000000 0 0 1
-30.761762 4.105611 -22.210358 38.163360 -0.132681 2.191959 0.005011 -0.000157 -969352.000000 0 0 1
-29.276632 4.328411 -22.066458 36.915917 -0.146782 2.211487 0.006969 -0.003647 -1283290.000000 0 0 1
-28.600692 3.278611 -21.508158 35.935355 -0.114136 2.212453 0.009850 0.010153 -483350.000000 0 0 1
-27.228602 3.593811 -21.534058 34.900257 -0.131228 2.235743 0.008333 0.016473 -218556.000000 0 0 1
-26.375972 2.548011 -20.778258 33.673733 -0.096305 2.235780 0.023623 0.009574 -225481.000000 0 0 1
-26.328012 2.862111 -19.357458 32.803462 -0.108284 2.201984 0.021704 0.009629 -12699.300000 0 0 1
-25.782472 1.784511 -18.591258 31.836382 -0.069104 2.194398 0.035028 0.004701 -141840.000000 0 0 1
-24.999462 2.442211 -17.370158 30.539481 -0.097382 2.175815 0.045261 0.000340 -195153.000000 0 0 1
-23.880062 3.156411 -17.812258 29.958252 -0.131416 2.207526 0.040977 0.003313 -719889.000000 0 0 1
-23.185262 3.462711 -16.664058 28.761738 -0.148254 2.188768 0.045726 -0.005622 -1339600.000000 0 0 1
-22.038062 4.406511 -16.855258 28.092584 -0.197347 2.214284 0.045877 -0.005016 -970913.000000 0 0 1
-20.974062 3.792711 -17.549458 27.609408 -0.178895 2.259625 0.065797 -0.013395 -317437.000000 0 0 1
-19.887462 4.693911 -17.641058 26.995386 -0.231782 2.282975 0.062805 -0.011838 -378046.000000 0 0 1
-18.666362 3.890011 -18.103758 26.292800 -0.205456 2.330276 0.078979 -0.019900 -654660.000000 0 0 1
-18.160062 2.930511 -17.202458 25.185320 -0.159992 2.322706 0.085434 -0.018314 654376.000000 0 0 1
-17.054962 2.234911 -17.841258 24.782596 -0.130299 2.374470 0.053775 -0.014306 188846.000000 0 1 0
-16.959762 0.772511 -17.353058 24.276716 -0.045518 2.367138 0.046388 -0.018491 380092.000000 0 1 0
-17.895562 -0.118989 -17.986058 25.372497 0.006649 2.358706 0.028256 -0.020708 428897.000000 0 0 1
-19.209062 0.044011 -17.489358 25.978215 -0.002291 2.309367 0.037315 -0.026529 -648580.000000 0 0 1
-20.215562 -0.960089 -18.050458 27.118440 0.047457 2.299115 0.030900 -0.026538 -344059.000000 0 0 1
-20.013062 -2.241389 -17.545658 26.709485 0.111532 2.287506 0.011667 -0.025552 1072880.000000 0 0 1
-21.211562 -3.007789 -17.783658 27.843054 0.140860 2.263618 0.037102 -0.018306 736880.000000 0 0 1
-21.422762 -4.230289 -16.867458 27.592413 0.194959 2.228508 0.045812 -0.017600 -288758.000000 0 0 1
-21.498262 -3.745989 -15.526358 26.782000 0.172514 2.189195 0.040216 -0.024176 307123.000000 0 0 1
-21.872262 -4.765889 -14.672958 26.765748 0.214543 2.151006 0.038750 -0.032183 -371331.000000 0 0 1
-22.107062 -4.207389 -13.223058 26.101218 0.188070 2.102041 0.042718 -0.029684 480754.000000 0 0 1
-23.313062 -3.434389 -13.085158 26.953947 0.146264 2.077690 0.045833 -0.031184 1057770.000000 0 0 1
-23.440462 -2.931589 -11.771058 26.393319 0.124419 2.033072 0.039186 -0.030213 -656860.000000 0 0 1
-24.364162 -1.738489 -11.666858 27.069361 0.071234 2.016396 0.076318 -0.032290 -532325.000000 0 0 1
-24.585362 -1.324489 -10.322558 26.697369 0.053821 1.967793 0.070866 -0.030311 604727.000000 0 0 1
-25.408622 -0.174589 -10.259758 27.402394 0.006871 1.954558 0.088251 -0.031099 -204027.000000 0 0 1
-25.820932 0.206511 -8.827458 27.288958 -0.007998 1.900202 0.096888 -0.016494 -154707.000000 0 0 1
-24.758162 0.715611 -8.044858 26.042243 -0.028896 1.884849 0.073262 -0.011100 526626.000000 0 0 1
-25.227502 1.150911 -6.789558 26.150517 -0.045590 1.833439 0.073182 -0.010683 118809.000000 0 0 1
-24.054762 1.562711 -5.866258 24.809003 -0.064874 1.809514 0.037482 0.003898 161913.000000 0 1 0
-23.756662 2.946011 -5.894858 24.653749 -0.123378 1.812241 0.059034 -0.000274 174843.000000 0 1 0
-22.415262 3.158311 -5.516358 23.299123 -0.139979 1.809829 0.042595 0.014756 -71896.300000 0 1 0
-22.014462 4.678811 -5.478858 23.163456 -0.209417 1.809590 0.056119 0.001420 -279168.000000 0 1 0
-22.553362 5.424211 -4.403558 23.610750 -0.236023 1.758401 0.056437 -0.005617 607686.000000 0 1 0
-22.176062 6.792611 -4.488358 23.623350 -0.297230 1.761955 0.059785 -0.009013 -461797.000000 0 1 0
-22.731462 7.600111 -3.317758 24.196871 -0.322659 1.708345 0.060286 -0.004574 83436.500000 0 1 0
-21.938962 7.542511 -2.097758 23.293950 -0.331137 1.660974 0.036287 -0.013793 1210500.000000 0 1 0
-20.612962 8.056211 -2.097658 22.230540 -0.372578 1.665296 0.042156 -0.011283 -302744.000000 0 1 0
-20.397062 9.559411 -2.360958 22.649428 -0.438268 1.675225 0.048128 -0.015212 -732092.000000 0 1 0
-20.192662 9.868411 -3.695358 22.776848 -0.454577 1.733759 0.032335 -0.015320 653517.000000 0 1 0
-19.726062 11.189811 -3.747458 22.986362 -0.515998 1.734557 0.043513 -0.014345 -372207.000000 0 1 0
-19.594162 11.702211 -5.219858 23.411960 -0.538380 1.795643 0.050145 -0.014712 -280053.000000 0 1 0
-18.539562 11.080111 -5.900658 22.389774 -0.538687 1.837489 0.037764 -0.005629 -73678.800000 0 1 0
-18.461362 11.684311 -7.178558 22.997320 -0.564264 1.888249 0.039403 0.000507 129278.000000 0 1 0
-17.177262 11.441811 -8.042158 22.150614 -0.587612 1.942354 0.030100 0.000386 -148192.000000 0 1 0
-16.832262 10.138711 -8.514158 21.415167 -0.542137 1.979670 0.013314 0.007486 723684.000000 0 1 0
-17.795962 9.498711 -9.367858 22.241370 -0.490287 2.005554 0.028464 0.004533 57523.200000 0 1 0
-17.901662 10.041611 -10.805858 23.196337 -0.511197 2.055384 0.038583 0.004380 -371428.000000 0 1 0
-16.801462 9.709411 -11.592158 22.603980 -0.524004 2.109283 0.031241 -0.001198 -376399.000000 0 1 0
-16.685062 10.594011 -12.677658 23.480788 -0.565715 2.141134 0.026678 -0.007768 -223982.000000 0 1 0
-15.463962 10.222111 -13.522558 22.945267 -0.584089 2.201038 0.017537 -0.005735 -618191.000000 0 1 0
-15.565462 9.100611 -14.403358 23.077293 -0.529069 2.244821 0.018634 -0.002251 -43020.500000 0 1 0
-15.431762 7.874711 -13.723858 22.101915 -0.471848 2.240732 0.016735 -0.001509 -381226.000000 0 1 0
-15.734062 6.622711 -14.540358 22.424162 -0.398406 2.276308 0.038729 -0.007132 -335844.000000 0 1 0
-14.954962 6.469611 -15.683558 22.615940 -0.408296 2.337096 0.056769 -0.003337 106032.000000 0 1 0
-15.251162 5.238911 -16.321558 22.944224 -0.330880 2.362225 0.068927 -0.008644 127341.000000 0 1 0
31.559718 -15.977889 28.362375 45.340192 -0.468655 0.894965 0.011198 -0.003898 -259064.000000 0 0 1
31.015358 -14.679189 28.424105 44.557387 -0.442050 0.879000 0.020278 -0.005622 120414.000000 0 0 1
29.937298 -14.521689 29.352265 44.369772 -0.451633 0.847929 0.027065 -0.014191 342407.000000 0 0 1
30.288088 -14.652789 30.840835 45.642410 -0.450588 0.828875 0.024280 -0.016882 -81732.900000 0 0 1
30.958678 -13.519089 31.384495 46.110650 -0.411723 0.822168 0.004870 -0.012285 279825.000000 0 0 1
31.354568 -13.483789 32.763148 47.311154 -0.406134 0.805843 -0.006901 -0.007837 -196505.000000 0 0 1
31.601488 -12.067889 33.231598 47.419691 -0.364786 0.794282 0.006578 -0.012125 -5391.110000 0 0 1
31.331948 -11.937389 -34.138253 47.849896 -0.364018 2.365198 -0.002294 -0.021615 289514.000000 0 0 1
31.504328 -10.536889 -33.782478 47.379368 -0.322763 2.364594 0.017716 -0.012428 -392178.000000 0 0 1
31.096838 -10.255689 -32.305908 45.998524 -0.318566 2.349455 0.017985 -0.008207 -979184.000000 0 0 1
29.724638 -10.240789 -32.166298 44.978868 -0.331786 2.367624 0.031283 -0.011981 -800557.000000 0 0 1
29.291588 -9.912289 -30.889588 43.708320 -0.326304 2.355649 0.007783 0.003106 -218152.000000 0 0 1
28.071168 -10.701089 -30.389438 42.731976 -0.364206 2.361949 0.008842 0.004660 -83052.700000 0 0 1
27.649438 -10.317189 -29.066468 41.422161 -0.357141 2.348595 -0.004435 0.010494 38356.300000 0 0 1
26.702268 -11.172889 -28.498918 40.620597 -0.396288 2.348420 0.013202 0.006338 -1231430.000000 0 0 1
26.308538 -10.812289 -27.054298 39.255316 -0.389936 2.331164 0.014983 0.005645 -1772040.000000 0 0 1
25.413038 -9.738689 -26.845798 38.227758 -0.365954 2.349362 0.006219 -0.000854 1433730.000000 0 0 1
24.083938 -9.762689 -27.438448 37.791727 -0.385119 2.383347 0.020327 -0.004973 1164920.000000 0 0 1
23.221738 -11.019489 -27.202638 37.425416 -0.443068 2.384520 0.021116 0.002634 -1428850.000000 0 0 1
23.904838 -12.121389 -27.767978 38.593134 -0.469286 2.373887 0.017952 0.002059 -928231.000000 0 0 1
23.233638 -13.345789 -27.628768 38.487152 -0.521396 2.371534 0.031287 -0.002225 17734.700000 0 0 1
23.863138 -14.518189 -28.447238 39.868189 -0.546569 2.365323 0.026126 0.001739 14395.000000 0 0 1
23.808138 -14.313189 -29.819278 40.753947 -0.541293 2.391595 0.028553 -0.009312 -51559.900000 0 0 1
24.835438 -15.005389 -30.479418 42.082724 -0.543497 2.380777 0.023657 -0.002136 -369042.000000 0 0 1
24.900238 -14.870789 -31.959648 43.157634 -0.538369 2.404659 0.040797 -0.015655 -646856.000000 0 0 1
23.801338 -15.455489 -32.582038 43.208391 -0.575921 2.425029 0.048295 -0.017707 -351725.000000 0 0 1
23.880238 -15.728789 -34.031868 44.450294 -0.582434 2.442795 0.061449 -0.021795 -43952.800000 0 0 1
24.083538 -14.555989 33.746373 43.939860 -0.543645 0.695064 0.040056 -0.028510 194765.000000 0 0 1
22.893738 -13.765589 33.760029 43.050601 -0.541362 0.669400 0.053661 -0.028896 293080.000000 0 0 1
22.988938 -12.665289 32.953781 42.128998 -0.503557 0.672589 0.049629 -0.030194 -880468.000000 0 0 1
21.833738 -11.642789 33.044752 41.282227 -0.489891 0.642735 0.038780 -0.031812 -219615.000000 0 0 1
20.538938 -12.178489 32.859587 40.619158 -0.535217 0.628402 0.044290 -0.030893 122731.000000 0 0 1
20.264938 -12.521689 31.506005 39.497959 -0.553477 0.647388 0.041409 -0.021310 -1341130.000000 0 0 1
18.803138 -12.946689 31.282485 38.726846 -0.602992 0.630433 0.049233 -0.024315 -320529.000000 0 0 1
17.908938 -11.897989 31.374615 38.034966 -0.586404 0.600791 0.037783 -0.018629 -360570.000000 0 0 1
17.015838 -12.005189 32.456055 38.562401 -0.614428 0.570464 0.019456 -0.014529 -582221.000000 0 0 1
16.193238 -10.811889 32.804483 38.147765 -0.588703 0.535660 0.019493 -0.012702 -823907.000000 0 0 1
15.317138 -10.430289 31.727895 36.743230 -0.597830 0.528621 0.029010 -0.008134 292250.000000 0 0 1
14.710338 -9.155989 31.893275 36.296104 -0.556741 0.497671 0.031480 -0.008429 278226.000000 0 0 1
13.669638 -8.971789 33.038383 36.863081 -0.580812 0.459564 0.038098 -0.005853 -539182.000000 0 0 1
12.545038 -9.822389 32.851017 36.510911 -0.664270 0.451580 0.047798 -0.006251 202993.000000 0 0 1
11.530638 -9.550889 33.800683 36.968382 -0.691764 0.416987 0.055333 -0.003903 192285.000000 0 0 1
10.377138 -8.663289 33.286107 35.926348 -0.695629 0.385768 0.067589 -0.003719 -468204.000000 0 0 1
10.808738 -7.248589 33.174257 35.635687 -0.590737 0.373851 0.055826 -0.001775 369980.000000 0 0 1
9.770238 -6.523989 32.597285 34.649718 -0.588746 0.345913 0.070217 -0.001840 -205866.000000 0 0 1
10.197538 -5.073789 32.419495 34.362141 -0.461686 0.337862 0.080721 -0.007444 40494.700000 0 0 1
10.238738 -4.425389 33.650368 35.450854 -0.407970 0.320075 0.077899 -0.015156 268666.000000 0 0 1
10.502338 -3.052889 33.463669 35.205630 -0.282891 0.315890 0.055987 -0.012134 -211018.000000 0 0 1
10.195338 -2.291389 -33.988688 35.558773 -0.221075 2.843319 0.035259 -0.007675 121282.000000 0 0 1
8.798338 -2.168389 -33.788738 34.982731 -0.241639 2.879574 0.042535 0.000187 156010.000000 0 0 1
8.606538 -1.417789 -32.611138 33.757502 -0.163268 2.880239 0.030271 -0.002758 174560.000000 0 0 1
7.113738 -1.172389 -32.266228 33.061900 -0.163338 2.921760 0.036052 -0.001368 60995.900000 0 0 1
6.592538 -0.152289 -33.058588 33.709865 -0.023096 2.944704 0.051795 -0.000351 -198233.000000 0 0 1
5.200538 0.005811 -32.914968 33.323277 0.001117 2.984889 0.053709 0.000080 -195350.000000 0 0 1
4.625238 1.030311 -33.863208 34.193146 0.219180 3.002562 0.050655 -0.001893 -219394.000000 0 0 1
5.046638 2.349011 -33.573608 34.031950 0.435636 2.977286 0.035741 -0.001827 -144611.000000 0 0 1
4.625138 3.225611 34.143313 34.605813 0.608985 0.163675 0.039981 -0.002269 266466.000000 0 0 1
5.547838 4.455711 33.989061 34.725900 0.676655 0.206369 0.029768 -0.002387 198712.000000 0 0 1
5.024838 5.291111 32.987448 33.784857 0.811204 0.217697 0.044771 -0.022196 574485.000000 0 0 1
6.036238 6.236711 32.626915 33.761639 0.801731 0.259999 0.036127 -0.014467 565801.000000 0 0 1
5.379238 7.346711 31.737365 33.017733 0.938787 0.279397 0.047235 -0.011477 -652198.000000 0 0 1
4.492438 8.129311 32.462495 33.765089 1.065942 0.278671 0.057732 -0.012968 -492512.000000 0 0 1
4.136238 9.378811 31.923015 33.528338 1.155436 0.310698 0.058340 -0.012980 -70214.300000 0 0 1
3.741038 9.413711 30.405185 32.048223 1.192531 0.321595 0.057079 -0.018340 -453037.000000 0 0 1
2.571438 8.685911 30.078055 31.412525 1.282970 0.292528 0.068026 -0.025141 -257713.000000 0 0 1
2.285838 8.808411 28.737405 30.143848 1.316891 0.306676 0.059463 -0.015443 319478.000000 0 0 1
0.955738 8.138611 28.256505 29.420749 1.453899 0.282262 0.061099 -0.017993 -284347.000000 0 0 1
-0.161962 8.801011 28.718755 30.037491 -1.552396 0.297416 0.067827 -0.015528 -1043800.000000 0 0 1
-1.252862 8.382711 27.911325 29.169874 -1.422437 0.294820 0.073377 -0.010949 1250980.000000 0 0 1
-2.673662 8.532211 28.595935 29.961218 -1.267127 0.303047 0.076797 -0.011289 1045540.000000 0 0 1
-3.023262 9.901411 28.837145 30.639174 -1.274451 0.344675 0.072259 -0.011373 -242038.000000 0 0 1
-4.347562 9.992311 29.302365 31.263016 -1.160410 0.356038 0.057754 -0.003056 -440725.000000 0 0 1
-4.543862 11.310411 30.032865 32.412113 -1.188789 0.385544 0.045844 -0.003407 -192976.000000 0 0 1
-4.710862 12.458811 29.257725 32.146985 -1.209298 0.427214 0.048008 -0.009261 -197858.000000 0 0 1
-5.901462 12.518711 28.527655 31.707609 -1.130280 0.451692 0.048337 -0.012826 -408923.000000 0 0 1
-6.324962 13.948711 28.030905 31.942187 -1.145082 0.500065 0.059268 -0.012727 -101187.000000 0 0 1
-5.475362 14.373911 27.037085 31.106155 -1.206842 0.517239 0.057057 -0.009076 -240184.000000 0 0 1
-5.829762 15.709211 26.799185 31.606356 -1.215445 0.558775 0.041195 -0.007611 473024.000000 0 0 1
-4.640662 16.487811 26.140985 31.252756 -1.296434 0.580045 0.081127 -0.010625 504797.000000 0 0 1
-4.163262 15.994511 24.916045 29.899271 -1.316154 0.585686 0.053811 -0.001833 -154345.000000 0 0 1
-3.152162 16.848511 24.420225 29.835479 -1.385846 0.612008 0.067265 0.000714 -99833.200000 0 0 1
-2.995062 16.716211 22.893145 28.504354 -1.393506 0.638240 0.064926 -0.008001 -102788.000000 0 0 1
-2.497062 15.498611 22.423045 27.372161 -1.411054 0.610796 0.060054 -0.014743 -76048.800000 0 0 1
-2.377262 15.549211 21.052645 26.280091 -1.419085 0.641687 0.055072 -0.010241 328932.000000 0 0 1
-1.451162 14.396311 20.544345 25.128266 -1.470335 0.613602 0.049793 -0.011839 54258.700000 0 0 1
-2.090562 13.145011 20.558445 24.491048 -1.413079 0.574568 0.051729 -0.004677 -290361.000000 0 1 0
-1.294462 12.235111 19.871045 23.371606 -1.465389 0.554390 0.049765 -0.003985 -654237.000000 0 1 0
-1.956862 10.911111 19.473445 22.407514 -1.393337 0.517500 0.043347 -0.006397 -765816.000000 0 1 0
-2.060962 9.946111 20.555445 22.928127 -1.366475 0.458954 0.051872 -0.015629 196391.000000 0 1 0
-3.026162 10.188111 21.568745 24.045083 -1.282068 0.457832 0.064066 -0.014094 508912.000000 0 1 0
-4.537162 10.160711 21.174645 23.920524 -1.150824 0.483855 0.047936 -0.002902 184444.000000 0 1 0
-5.112962 8.851611 21.148345 23.489272 -1.046987 0.450245 0.027260 -0.002234 -12193.900000 0 1 0
-6.511562 8.993711 20.985745 23.742130 -0.944135 0.486653 0.013562 0.006296 157165.000000 0 1 0
-7.340862 7.710911 21.156045 23.683847 -0.809978 0.466231 0.012509 0.013582 -87348.600000 0 1 0
-7.392362 7.035311 22.413145 24.627052 -0.760656 0.427265 0.015235 0.008828 -41523.400000 0 1 0
-8.316762 5.984711 22.394945 24.627603 -0.623757 0.429094 0.009061 0.012319 -33839.900000 0 1 0
-8.237262 5.163111 23.666345 25.585271 -0.559892 0.389764 0.005328 0.014634 -122375.000000 0 0 1
-8.735162 5.878911 24.731365 26.879454 -0.592386 0.402501 -0.010242 0.012117 -154838.000000 0 0 1
-8.919562 4.978711 25.813925 27.761572 -0.509101 0.376808 -0.013758 0.032040 -174479.000000 0 0 1
-9.711462 5.575211 26.998395 29.228561 -0.521147 0.393170 0.001124 0.027385 -187058.000000 0 0 1
-9.034262 6.528511 27.762155 29.916159 -0.625759 0.381792 -0.008388 0.021002 -276757.000000 0 0 1
-9.963162 7.201711 28.601775 31.131829 -0.625887 0.405942 0.001744 0.019705 123704.000000 0 0 1
-9.413162 8.292511 29.554495 32.106721 -0.722189 0.401418 0.011589 0.011133 -490376.000000 0 0 1
-8.478262 7.692911 30.392535 32.477192 -0.736871 0.360242 0.019185 0.002370 -462718.000000 0 0 1
-7.966162 8.751611 31.180775 33.351029 -0.832346 0.362743 0.021443 -0.007072 -138125.000000 0 0 1
-6.981662 8.183011 32.215975 33.964309 -0.864453 0.322253 0.046597 -0.005006 587181.000000 0 0 1
-5.659862 7.899411 31.739725 33.194049 -0.949088 0.297108 0.059291 -0.006038 393476.000000 0 0 1
-4.900062 7.258911 32.769543 33.919689 -0.977018 0.261156 0.073155 0.003325 830097.000000 0 0 1
-3.367462 7.284511 32.432415 33.410559 -1.137780 0.242572 0.061995 0.004804 783969.000000 0 0 1
-2.941762 8.652911 32.498325 33.758968 -1.243081 0.274143 0.059546 -0.003854 104743.000000 0 0 1
-1.548862 8.701711 32.182175 33.373809 -1.394646 0.268031 0.058518 -0.009161 693520.000000 0 0 1
-1.197462 10.157011 31.745935 33.352708 -1.453443 0.311663 0.061592 -0.010916 -68341.200000 0 0 1
-1.394362 11.113611 32.781130 34.641869 -1.445984 0.329246 0.068282 -0.021550 44738.300000 0 0 1
-1.376662 12.427811 32.284035 34.620869 -1.460473 0.369516 0.075774 -0.022713 -102742.000000 0 0 1
-1.476662 13.598711 33.323824 36.021975 -1.462632 0.389505 0.063855 -0.016572 16844.500000 0 0 1
-0.195562 13.939411 33.785976 36.549112 -1.556768 0.391338 0.079467 -0.019975 -220467.000000 0 0 1
-0.295262 14.779511 -33.825418 36.914497 -1.550821 2.729583 0.079579 -0.020916 96292.000000 0 0 1
1.086438 15.233311 -33.318388 36.651727 1.499597 2.711804 0.069634 -0.018539 -159646.000000 0 0 1
1.761338 16.161211 -34.130743 37.804691 1.462239 2.697074 0.064796 -0.014818 542626.000000 0 0 1
3.014938 16.500811 -33.514738 37.478051 1.390075 2.677548 0.062211 -0.016965 771420.000000 0 0 1
3.860238 17.451111 34.341331 38.713947 1.353099 0.479874 0.061433 -0.007902 155590.000000 0 0 1
3.541538 18.826311 -34.228577 39.224584 1.384853 2.631360 0.049006 0.001175 275720.000000 0 0 1
4.339738 19.621211 33.632168 39.178412 1.353125 0.538583 0.039484 0.012186 311492.000000 0 0 1
3.746938 21.024111 33.532684 39.755423 1.394427 0.567077 0.052286 0.002607 -80880.800000 0 0 1
3.900038 21.730011 -33.968998 40.512918 1.393210 2.565272 0.053106 -0.005681 135835.000000 0 0 1
3.361438 23.046111 -33.853398 41.091058 1.425961 2.538989 0.055626 -0.000201 56781.800000 0 0 1
3.679538 23.604611 -32.477778 40.317772 1.416159 2.507391 0.066084 -0.002301 -132090.000000 0 0 1
3.383038 24.948611 -32.382418 41.018278 1.436018 2.480730 0.071524 -0.003487 -12632.800000 0 0 1
3.620338 25.464311 -31.087168 40.347863 1.429570 2.450388 0.080500 -0.005064 -191862.000000 0 0 1
2.941438 26.786711 -30.709098 40.856195 1.461425 2.421339 0.074253 -0.006129 -42680.000000 0 0 1
3.719238 27.928411 -30.981628 41.877084 1.438405 2.403604 0.065680 -0.016385 -278351.000000 0 0 1
3.210538 29.020011 -30.266548 42.053924 1.460613 2.374178 0.068305 -0.016155 -794962.000000 0 0 1
4.034638 30.222011 -29.902068 42.705760 1.438081 2.346457 0.069728 -0.024438 -628047.000000 0 0 1
5.035338 29.958411 -28.931178 41.950853 1.404275 2.331794 0.068687 -0.028924 71748.200000 0 0 1
5.811138 31.117511 -28.739338 42.755332 1.386175 2.307947 0.068840 -0.040186 327007.000000 0 0 1
7.116138 30.999611 -27.859178 42.281782 1.345150 2.290143 0.055851 -0.039160 1086920.000000 0 0 1
8.303338 30.424411 -28.400648 42.440394 1.304368 2.303913 0.048650 -0.028573 2941.310000 0 0 1
9.356738 31.248811 -28.724688 43.464289 1.279865 2.292787 0.056019 -0.033499 -613297.000000 0 0 1
9.092738 32.430011 -29.740988 44.932281 1.297435 2.294156 0.062580 -0.034021 -1583820.000000 0 0 1
8.413538 33.461711 -29.069728 45.116769 1.324465 2.270933 0.070073 -0.039126 59769.300000 0 0 1
7.890338 -34.395403 -29.967898 46.296610 -1.345297 2.274836 0.063321 -0.032085 1348550.000000 0 0 1
6.599238 34.027311 -30.861628 46.409567 1.379235 2.298269 0.041466 -0.022642 917524.000000 0 0 1
6.915938 33.154911 -31.923588 46.542387 1.365150 2.326641 0.032681 -0.012703 -720396.000000 0 0 1
5.748538 32.790711 -32.534918 46.548870 1.397250 2.344712 0.029620 -0.015124 -901108.000000 0 0 1
5.941238 32.101611 -33.899528 47.063678 1.387791 2.375018 0.030390 -0.015934 -21547.900000 0 0 1
6.330238 32.964311 33.805954 47.639901 1.381073 0.781846 0.029350 -0.012244 182528.000000 0 0 1
6.273038 32.270711 32.553515 46.265334 1.378803 0.790308 0.030619 -0.007489 45852.200000 0 0 1
5.492138 33.097811 31.458195 45.991811 1.406358 0.817570 0.019047 -0.012587 843659.000000 0 0 1
6.195438 34.332411 31.192105 46.797920 1.392263 0.841255 0.021557 -0.009638 792092.000000 0 0 1
5.393338 -33.793103 30.252635 45.675856 -1.412532 0.846868 0.007854 -0.010216 346831.000000 0 0 1
17.613238 -22.056989 29.552965 40.867036 -0.896950 0.762445 0.060960 -0.003059 -705474.000000 0 0 1
16.556038 -21.119889 29.579285 39.938530 -0.905945 0.736803 0.050437 0.004423 671525.000000 0 0 1
15.226838 -21.636089 29.625705 39.719760 -0.957544 0.728959 0.057014 0.005101 731222.000000 0 0 1
14.839738 -22.095789 31.058585 40.903269 -0.979380 0.708532 0.053453 -0.002032 -372607.000000 0 0 1
15.636138 -23.227889 31.491675 42.139640 -0.978310 0.726781 0.061919 -0.005460 556543.000000 0 0 1
15.241738 -23.540889 32.786309 43.144247 -0.996210 0.707602 0.060886 -0.015941 -81820.600000 0 0 1
16.153638 -24.598289 33.419591 44.529596 -0.989727 0.721974 0.067035 -0.018125 -206094.000000 0 0 1
15.978738 -25.969159 33.033938 44.955070 -1.019205 0.745393 0.077976 -0.025328 -203057.000000 0 0 1
16.751038 -26.728679 33.922758 46.322490 -1.010971 0.749078 0.067420 -0.020859 -65554.500000 0 0 1
16.564738 -28.248189 33.823723 47.078604 -1.040437 0.769222 0.062355 -0.013355 301600.000000 0 0 1
17.225238 -28.683269 32.617015 46.725886 -1.029985 0.798125 0.048153 -0.020440 215405.000000 0 0 1
16.660338 -29.900569 32.284775 47.052286 -1.062449 0.814617 0.057914 -0.019473 -96320.900000 0 0 1
17.348538 -30.546359 31.020055 46.864652 -1.054283 0.847436 0.064086 -0.024010 -496488.000000 0 0 1
18.552138 -31.101179 31.444915 47.960899 -1.032948 0.855771 0.036527 -0.026842 -761693.000000 0 0 1
19.209238 -31.658989 30.331885 47.867626 -1.025425 0.884519 0.027615 -0.017001 -757451.000000 0 0 1
20.439138 -32.531729 30.645675 49.144981 -1.009840 0.897486 0.011329 -0.007025 -471296.000000 0 0 1
21.460538 -31.625269 30.961965 49.186945 -0.974586 0.889919 -0.002573 -0.007296 -949883.000000 0 0 1
22.722938 -32.206859 30.827385 50.039398 -0.956368 0.907063 -0.012374 0.005527 78646.900000 0 0 1
23.814538 -31.082689 31.069185 49.985598 -0.917028 0.900060 -0.018156 0.004945 293211.000000 0 0 1
23.734838 -30.072059 30.077645 48.706632 -0.902635 0.905202 -0.026165 0.002253 -326479.000000 0 0 1
24.723438 -29.123729 30.249755 48.728715 -0.866935 0.901061 -0.029275 0.005063 434904.000000 0 0 1
26.016338 -29.262589 29.366065 48.943996 -0.844056 0.927304 -0.024615 0.009417 556722.000000 0 0 1
26.748638 -30.448219 29.553715 50.159802 -0.849990 0.940739 -0.017501 0.019628 351909.000000 0 0 1
27.842838 -30.615169 28.651665 50.333191 -0.832787 0.965215 -0.021312 0.007163 -92557.200000 0 0 1
28.965038 -31.526899 29.059405 51.743287 -0.827723 0.974469 -0.003865 0.009954 -483455.000000 0 0 1
28.734938 -32.916749 29.025065 52.456300 -0.853124 0.984453 -0.011063 0.008656 21449.200000 0 0 1
29.936538 -33.571739 29.404845 53.739212 -0.842576 0.991809 0.001171 0.005085 -96750.000000 0 0 1
29.691138 33.769643 29.861995 53.978618 0.849578 0.984573 -0.007846 0.010040 -233463.000000 0 0 1
29.251838 33.532650 31.201455 54.347396 0.853475 0.959278 0.009208 0.008672 568595.000000 0 0 1
28.169838 34.207352 31.839555 54.565923 0.881888 0.947757 0.007136 0.007756 603812.000000 0 0 1
26.754938 34.135685 31.209485 53.433170 0.906023 0.947045 -0.004258 0.000742 158198.000000 0 0 1
26.131938 32.848539 30.995625 52.178860 0.898788 0.934741 -0.012762 0.011782 450895.000000 0 0 1
24.739838 33.024479 30.739305 51.454647 0.927848 0.930534 -0.016518 0.012335 673566.000000 0 0 1
23.929838 31.712434 30.723195 50.221811 0.924365 0.912525 0.002253 0.005623 -219797.000000 0 0 1
24.059138 30.929864 29.567295 49.088935 0.909701 0.924391 -0.002720 0.004100 -235497.000000 0 0 1
23.256738 29.801594 29.576325 47.997603 0.908130 0.906882 0.031963 -0.017356 -542674.000000 0 0 1
22.825938 29.361354 28.180975 46.661332 0.909980 0.922352 0.021541 -0.019271 -601911.000000 0 0 1
21.819938 30.122504 27.578635 46.303953 0.943899 0.932784 0.032292 -0.023626 -240005.000000 0 0 1
21.339038 29.487974 26.401895 44.966156 0.944372 0.943262 0.021401 -0.017723 329559.000000 0 0 1
19.953438 30.120454 26.074335 44.556171 0.985715 0.945668 0.040784 -0.012446 186825.000000 0 0 1
20.057538 31.390464 25.468815 45.125676 1.002215 0.971093 0.040279 -0.021311 -101970.000000 0 0 1
18.806838 31.898104 25.070665 44.718279 1.038066 0.975643 0.062012 -0.023814 -281262.000000 0 0 1
18.970738 33.312513 24.536855 45.515598 1.053122 1.001444 0.078268 -0.031313 55381.500000 0 0 1
19.514138 33.450897 23.225045 45.157135 1.042697 1.030586 0.087758 -0.032526 455052.000000 0 0 1
20.855238 33.928768 23.254045 46.117815 1.019655 1.042305 0.066010 -0.020240 345424.000000 0 0 1
21.452338 34.134822 21.840645 45.851965 1.009713 1.074321 0.073555 -0.025078 -354686.000000 0 0 1
20.777738 -33.679579 21.158745 44.874502 -1.018026 1.079795 0.081373 -0.018108 -25202.800000 0 0 1
21.182938 -33.492339 19.823645 44.310614 -1.006843 1.106964 0.086580 -0.019853 -108357.000000 0 0 1
20.793238 -32.095969 19.243445 42.811449 -0.995937 1.104599 0.070264 -0.020322 -62524.000000 0 0 1
21.422438 -31.073679 20.001545 42.714824 -0.967215 1.083478 0.057314 -0.010045 162801.000000 0 0 1
21.105538 -29.747789 19.566045 41.390878 -0.953735 1.078428 0.060383 -0.021734 -361017.000000 0 0 1
21.623638 -29.126489 18.259745 40.612219 -0.932174 1.104465 0.045546 -0.021649 -184155.000000 0 0 1
21.137338 -29.729979 17.054845 40.268182 -0.952741 1.133456 0.042702 -0.018315 296012.000000 0 0 1
21.869038 -29.134239 16.035245 39.801857 -0.926892 1.156138 0.029734 -0.013029 -497267.000000 0 0 1
21.641538 -29.718069 14.649945 39.574495 -0.941375 1.191587 0.022997 -0.024663 -505415.000000 0 0 1
22.249038 -30.943239 14.507345 40.779490 -0.947414 1.207079 0.036488 -0.012569 -38878.700000 0 0 1
22.558438 -31.330529 13.146045 40.783620 -0.946764 1.242600 0.036322 -0.020682 157709.000000 0 0 1
21.310538 -31.613499 12.228245 40.038511 -0.977668 1.260425 0.027368 -0.015741 307944.000000 0 0 1
20.564938 -32.674079 12.814645 40.678339 -1.009042 1.250315 0.034891 -0.019156 613939.000000 0 0 1
19.323538 -32.867569 12.127145 40.009297 -1.039306 1.262844 0.042615 -0.006941 396763.000000 0 0 1
18.270138 -33.620109 12.951945 40.396319 -1.073012 1.244410 0.060029 -0.005508 -286155.000000 0 0 1
17.836038 -32.880829 14.090245 39.972593 -1.073772 1.210558 0.057000 -0.004748 413479.000000 0 0 1
18.477138 -33.254509 15.321045 41.012211 -1.063642 1.187939 0.049952 -0.008828 -727351.000000 0 0 1
18.061638 -32.240939 16.405745 40.433271 -1.060150 1.152999 0.053687 -0.009026 1062730.000000 0 0 1
16.654838 -32.148709 16.717745 39.879896 -1.092808 1.138230 0.077799 -0.027635 1669700.000000 0 0 1
15.899638 -33.376109 17.069145 40.720006 -1.126224 1.138251 0.075738 -0.015459 -71726.500000 0 0 1
16.349338 -34.050260 18.429345 42.028107 -1.123152 1.116867 0.060890 -0.019306 1191600.000000 0 0 1
17.611238 34.041811 18.248045 42.449873 1.093372 1.126444 0.044481 -0.006702 1406300.000000 0 0 1
17.986638 33.342976 19.479945 42.599782 1.076094 1.095864 0.042527 -0.010839 -17542.300000 0 0 1
18.781238 32.068204 19.151245 41.807593 1.040984 1.094962 0.041050 -0.005900 422471.000000 0 0 1
18.015338 30.881244 18.829145 40.407182 1.042691 1.086049 0.021334 -0.003742 288240.000000 0 0 1
18.925138 29.927614 18.323545 39.869477 1.006919 1.093265 0.010599 -0.009798 84509.500000 0 0 1
18.326738 28.576484 18.079445 38.462334 1.000546 1.081442 0.010609 -0.004109 -134795.000000 0 0 1
18.083938 27.832294 19.256345 38.372806 0.994599 1.045092 0.000786 -0.003200 -251963.000000 0 0 1
17.507438 26.604864 18.900445 37.034524 0.988780 1.035209 0.017353 -0.004094 -690269.000000 0 0 1
17.200938 25.628154 20.075045 36.819587 0.979680 0.994136 0.016676 -0.000512 -761792.000000 0 0 1
16.046538 25.913944 20.813345 36.908254 1.016361 0.971670 0.015501 -0.000830 -356134.000000 0 0 1
15.317038 24.743534 21.040045 35.910133 1.016500 0.944796 0.026244 -0.006706 93661.800000 0 0 1
14.051038 24.913334 21.922745 36.037656 1.057271 0.916843 0.035834 -0.016607 477644.000000 0 0 1
13.076438 25.753234 21.302945 35.889243 1.100961 0.935303 0.058020 -0.021453 -20606.100000 0 0 1
12.103738 26.139734 22.238745 36.391592 1.137152 0.913352 0.064513 -0.020749 -449213.000000 0 0 1
11.070938 27.156684 21.806245 36.545362 1.183696 0.931427 0.064787 -0.023165 -454788.000000 0 0 1
11.521638 28.472104 21.833845 37.684554 1.186276 0.952823 0.050155 -0.026217 -44438.800000 0 0 1
10.867738 29.220684 20.831445 37.495403 1.214729 0.981744 0.054933 -0.033085 13438.400000 0 0 1
11.231238 30.747014 20.848445 38.809499 1.220575 1.003683 0.059681 -0.032331 -157995.000000 0 0 1
10.727638 31.571274 21.890245 39.887472 1.243245 0.989868 0.046411 -0.022607 -225910.000000 0 0 1
11.343638 31.454424 23.161245 40.675572 1.224677 0.965003 0.037628 -0.021756 -284920.000000 0 0 1
10.724938 32.433394 24.182895 41.854053 1.251439 0.954777 0.022989 -0.023329 693030.000000 0 0 1
9.329638 32.198994 24.411915 41.469977 1.288770 0.941390 0.022491 -0.023783 467703.000000 0 0 1
8.971838 32.963243 25.609505 42.695621 1.305056 0.927526 0.019169 -0.022451 327095.000000 0 0 1
7.530838 32.689314 26.161055 42.540634 1.344371 0.908453 0.046175 -0.030376 835010.000000 0 0 1
6.415238 33.403305 25.581615 42.560018 1.381053 0.925955 0.044336 -0.028397 933624.000000 0 0 1
5.885338 32.925817 24.371185 41.384795 1.393919 0.941109 0.039708 -0.033312 28679.000000 0 0 1
5.052138 31.594624 24.457885 40.273223 1.412234 0.918140 0.036008 -0.032337 -304945.000000 0 0 1
5.888038 30.534254 24.806855 39.779262 1.380301 0.897441 0.028535 -0.027023 -448432.000000 0 0 1
5.254538 29.331854 24.562885 38.617394 1.393536 0.881418 0.019988 -0.025757 -843730.000000 0 0 1
6.241138 28.185124 24.848005 38.089058 1.352879 0.860094 0.011645 -0.022812 26807.400000 0 0 1
7.321438 28.126954 23.943475 37.656593 1.316148 0.881703 0.017289 -0.022493 1106070.000000 0 0 1
8.437338 29.058214 24.027135 38.637698 1.288207 0.899684 0.029529 -0.017502 488361.000000 0 0 1
9.520938 28.649204 25.075055 39.245172 1.249951 0.877685 0.030428 -0.021056 -837599.000000 0 0 1
9.079438 28.755694 26.422505 40.093327 1.264959 0.851275 0.013551 -0.012456 698470.000000 0 0 1
10.095938 28.579604 27.443475 40.888459 1.231223 0.834998 0.032717 -0.007177 354301.000000 0 0 1
11.230638 29.595754 27.440815 41.893128 1.208114 0.856588 0.028369 -0.008377 -575868.000000 0 0 1
10.776638 30.772214 28.128835 43.061542 1.233937 0.858962 0.027135 -0.015577 187134.000000 0 0 1
11.673238 31.856104 28.173015 44.099826 1.219554 0.877798 0.028116 -0.006873 -631158.000000 0 0 1
11.100338 33.069101 28.881015 45.286819 1.246943 0.879242 0.027807 -0.011082 -251311.000000 0 0 1
10.984838 33.044310 30.311195 46.166672 1.249861 0.854547 0.034733 -0.020094 201912.000000 0 0 1
10.246638 31.967564 30.888595 45.618242 1.260611 0.826967 0.026421 -0.015483 -225105.000000 0 0 1
10.337438 31.964354 32.417895 46.685142 1.258008 0.803219 0.042583 -0.021242 -103474.000000 0 0 1
10.060038 30.701744 32.994944 46.178651 1.254151 0.774878 0.032694 -0.018599 126480.000000 0 0 1
10.497938 30.802924 34.357453 47.322948 1.242332 0.758278 0.046940 -0.013925 53921.400000 0 0 1
10.479938 29.401284 -33.707168 45.939502 1.228392 2.394591 0.036540 -0.012480 -286294.000000 0 0 1
11.429838 28.554044 -34.295224 46.066659 1.190042 2.410536 0.037695 -0.006488 -48213.600000 0 0 1
11.441638 27.319214 -33.611618 44.799458 1.174178 2.419264 0.023929 -0.009142 308476.000000 0 0 1
12.488938 26.324814 -34.248434 44.965817 1.127824 2.436660 0.007620 -0.011964 421594.000000 0 0 1
12.534838 25.030154 -33.814168 43.897936 1.106517 2.450093 0.007655 -0.018826 -265993.000000 0 0 1
12.939138 24.807624 -32.438358 42.837911 1.090035 2.429865 0.015972 -0.013160 -77906.000000 0 0 1
12.936938 23.245424 -32.119378 41.705738 1.062948 2.449861 0.007935 -0.021720 -295128.000000 0 0 1
13.992338 22.668724 -32.833018 42.280772 1.017787 2.459963 0.007884 -0.018201 -378397.000000 0 0 1
14.047238 21.279624 -32.702698 41.468226 0.987335 2.479359 0.000820 -0.013508 -672852.000000 0 0 1
15.255138 20.621724 -33.356128 42.078570 0.933881 2.486039 0.011973 -0.027560 -1265930.000000 0 0 1
16.370038 20.965224 -32.634098 42.101106 0.907861 2.457727 0.015275 -0.024587 -870728.000000 0 0 1
17.529838 20.314924 -33.154068 42.651889 0.858858 2.461187 0.016739 -0.021395 637079.000000 0 0 1
18.766538 20.385124 -32.198028 42.478810 0.826716 2.431005 0.020594 -0.020230 364925.000000 0 0 1
19.414438 21.652724 -32.272478 43.442764 0.839847 2.408149 0.024898 -0.020113 -106390.000000 0 0 1
20.490838 21.901624 -31.406678 43.427354 0.818665 2.379221 0.028828 -0.011770 175562.000000 0 0 1
20.041738 22.110324 -29.929568 42.264841 0.834433 2.357662 0.026627 -0.016408 33366.100000 0 0 1
19.265638 23.294324 -29.836118 42.473337 0.879776 2.349654 0.023012 -0.011374 -184032.000000 0 0 1
19.068738 23.833004 -28.530378 41.780514 0.895996 2.322471 0.025035 -0.004453 420104.000000 0 0 1
20.304238 24.506224 -27.806128 42.261068 0.878897 2.288904 0.020845 -0.005067 449351.000000 0 0 1
20.853138 25.636654 -28.439918 43.599545 0.887931 2.281409 0.018962 -0.003643 -530648.000000 0 0 1
20.009238 26.746524 -28.484198 43.898698 0.928508 2.276884 0.014163 0.001623 -649932.000000 0 0 1
20.686338 27.934814 -29.212428 45.405335 0.933389 2.269688 0.012163 0.008553 -354355.000000 0 0 1
20.878738 27.903704 -30.620658 46.391412 0.928421 2.291682 0.014366 0.006071 243533.000000 0 0 1
21.609638 26.824434 -31.197008 46.473434 0.892653 2.306740 0.025149 0.003385 -179747.000000 0 0 1
23.016538 26.434934 -30.728008 46.613059 0.854415 2.290570 0.038561 -0.012173 -26437.500000 0 0 1
23.965838 27.514794 -30.902728 47.816356 0.854227 2.273495 0.038991 -0.013497 366466.000000 0 0 1
25.286138 27.007534 -30.830358 48.159181 0.818304 2.265524 0.044120 -0.015655 327545.000000 0 0 1
26.381438 28.078454 -31.159358 49.550837 0.816549 2.250852 0.040946 -0.015989 157736.000000 0 0 1
26.584038 29.087794 -30.181638 49.636097 0.830341 2.224409 0.046816 -0.012101 -244782.000000 0 0 1
27.463538 30.110434 -30.528558 50.920301 0.831340 2.213718 0.054753 -0.010200 -55322.700000 0 0 1
27.524038 31.212284 -29.457918 50.985766 0.848109 2.186787 0.046956 -0.003065 -94688.800000 0 0 1
28.058138 30.677244 -28.291758 50.286937 0.829960 2.168332 0.050378 -0.010179 182214.000000 0 0 1
27.714738 31.499514 -27.213288 50.008891 0.849228 2.146195 0.049416 0.002407 -372533.000000 0 0 1
28.087438 30.866434 -25.856258 49.093656 0.832502 2.125477 0.052600 -0.007481 -366483.000000 0 0 1
27.484038 29.628514 -25.561068 47.818296 0.822929 2.134767 0.043727 0.006219 -165350.000000 0 0 1
26.100838 29.494314 -25.404928 46.867672 0.846362 2.143679 0.034323 0.005217 -725772.000000 0 0 1
25.614938 29.797644 -23.962858 46.024377 0.860738 2.118415 0.031666 0.014016 -452582.000000 0 0 1
25.577038 31.161614 -23.626058 46.727098 0.883508 2.100894 0.048304 0.013551 278263.000000 0 0 1
25.165438 31.394024 -22.313758 46.008563 0.895081 2.077150 0.037420 0.019157 29737.600000 0 0 1
2.845138 -26.436149 -19.646558 33.059825 -1.463586 2.207158 0.002616 0.007435 -416787.000000 0 0 1
3.108738 -27.518779 -18.831558 33.489925 -1.458305 2.167967 0.004477 0.009272 101917.000000 0 0 1
2.961038 -27.108589 -17.517258 32.411382 -1.461999 2.141788 0.008721 0.003458 -181915.000000 0 0 1
2.813838 -28.327649 -16.590158 32.948547 -1.471789 2.098461 0.006246 -0.004738 472164.000000 0 0 1
3.992738 -29.102949 -16.336558 33.612598 -1.434454 2.078332 0.014232 -0.004041 340311.000000 0 0 1
3.916138 -29.596859 -14.993558 33.408337 -1.439244 2.036215 0.011503 -0.013108 260151.000000 0 0 1
5.235138 -30.343729 -14.595758 34.076161 -1.399950 2.013437 0.048247 -0.013284 629760.000000 0 0 1
6.277838 -29.403149 -14.296258 33.291732 -1.360446 2.014651 0.027686 -0.010748 244497.000000 0 0 1
7.542338 -30.020499 -14.060858 33.997426 -1.324651 1.997185 0.037402 -0.012860 522184.000000 0 0 1
7.766738 -30.890279 -12.778458 34.319391 -1.324472 1.952325 0.033007 -0.012602 -1179130.000000 0 0 1
7.978438 -30.202679 -11.536458 33.300858 -1.312533 1.924560 0.024140 -0.009187 45559.900000 0 0 1
8.301038 -31.055629 -10.408158 33.788890 -1.309607 1.883923 0.028107 -0.003247 -37722.900000 0 0 1
9.546338 -31.951629 -10.510258 34.964335 -1.280464 1.876117 0.027242 -0.012249 -833353.000000 0 0 1
10.727838 -31.340879 -10.112058 34.635111 -1.241002 1.867072 0.025021 -0.010793 -981319.000000 0 0 1
11.761838 -32.269299 -10.062258 35.789629 -1.221272 1.855789 0.024492 -0.015783 -323319.000000 0 0 1
12.937038 -31.803319 -9.179958 35.539973 -1.184457 1.832058 0.029161 -0.009605 -65647.900000 0 0 1
13.845838 -30.815649 -9.634458 35.130247 -1.148515 1.848606 0.031074 -0.018956 474205.000000 0 0 1
14.844238 -30.566499 -8.651458 35.064369 -1.118705 1.820102 0.029639 -0.012983 2387.600000 0 0 1
16.097138 -29.850719 -9.192558 35.138105 -1.076240 1.835489 0.045340 -0.024301 -89294.000000 0 0 1
15.886738 -28.512759 -9.514058 33.998282 -1.062457 1.854423 0.043499 -0.020896 35895.900000 0 0 1
15.084838 -28.292289 -10.667358 33.790509 -1.080960 1.891981 0.033874 -0.018510 -190011.000000 0 0 1
14.818738 -26.781679 -10.852958 32.475222 -1.065411 1.911544 0.029676 -0.013860 -967744.000000 0 0 1
14.091838 -26.186559 -9.820758 31.317137 -1.077110 1.889768 0.024523 -0.011131 37260.300000 0 0 1
13.620338 -24.864289 -9.960358 30.049213 -1.069654 1.908656 0.004552 -0.002659 343141.000000 0 0 1
12.804438 -24.427589 -11.218158 29.774281 -1.087993 1.957107 0.005381 -0.000639 -285697.000000 0 0 1
13.625638 -24.139989 -12.292058 30.323123 -1.056932 1.988179 0.006652 -0.006801 -453439.000000 0 0 1
12.892138 -24.129589 -13.511458 30.512355 -1.080096 2.029537 0.009382 -0.013782 158659.000000 0 0 1
13.565838 -23.396589 -14.724058 30.793347 -1.045346 2.069352 0.012504 -0.014864 260174.000000 0 0 1
14.608838 -24.157489 -15.299258 32.110275 -1.026904 2.067420 0.020365 -0.016644 -14926.500000 0 0 1
15.069638 -23.657489 -16.510458 32.547903 -1.003620 2.102806 0.018942 -0.023164 -704048.000000 0 0 1
16.022238 -24.705089 -17.172658 34.087443 -0.995448 2.098768 0.025654 -0.019753 1210590.000000 0 0 1
17.359938 -24.876389 -16.648858 34.603275 -0.961516 2.072746 0.037536 -0.019467 786129.000000 0 0 1
18.198838 -23.776089 -16.942358 34.402669 -0.917495 2.085724 0.034263 -0.021588 -271388.000000 0 0 1
19.692338 -24.056689 -16.583158 35.235119 -0.884828 2.060816 0.032751 -0.016983 571924.000000 0 0 1
20.210138 -25.082619 -17.435958 36.627860 -0.892564 2.066931 0.043253 -0.014277 19634.100000 0 0 1
21.439938 -25.572879 -16.902758 37.407838 -0.873084 2.039635 0.047758 -0.008754 236482.000000 0 0 1
22.086238 -26.563899 -17.794758 38.859955 -0.877178 2.046451 0.045912 -0.012637 -446892.000000 0 0 1
22.669038 -26.062709 -18.969458 39.408000 -0.854926 2.073003 0.044820 -0.013232 -41090.900000 0 0 1
23.211438 -27.088579 -19.801358 40.800193 -0.862326 2.077531 0.034487 -0.029411 -236429.000000 0 0 1
24.471738 -26.622039 -20.538058 41.586185 -0.827459 2.087328 0.028053 -0.015211 -308695.000000 0 0 1
24.233938 -25.591819 -21.443658 41.255975 -0.812644 2.117379 0.032618 -0.013697 -160800.000000 0 0 1
24.718738 -24.355889 -20.936758 40.528671 -0.778004 2.113661 0.032900 -0.006649 -75874.300000 0 0 1
24.228538 -23.064289 -21.627358 39.833731 -0.760785 2.144731 0.038932 -0.007527 -298712.000000 0 0 1
24.899638 -22.817489 -22.838158 40.770225 -0.741791 2.165384 0.022047 -0.009208 208206.000000 0 0 1
24.203538 -23.461989 -23.905358 41.324839 -0.769842 2.187653 0.023500 -0.014434 708497.000000 0 0 1
23.255638 -22.435189 -24.660658 40.648622 -0.767444 2.222672 0.029130 -0.001204 789170.000000 0 0 1
23.927438 -21.699389 -25.726168 41.294328 -0.736605 2.243362 0.022013 0.001556 200218.000000 0 0 1
23.076238 -20.765289 -26.366348 40.729526 -0.732735 2.274902 0.011578 0.004537 -59684.100000 0 0 1
23.563838 -20.349789 -27.741098 41.700563 -0.712338 2.298618 0.008725 0.006285 -495295.000000 0 0 1
22.840038 -19.300489 -28.247508 41.135118 -0.701601 2.327737 0.030057 -0.002345 -195371.000000 0 0 1
23.151738 -18.974889 -29.605998 42.101835 -0.686571 2.350684 0.030289 -0.004230 -229321.000000 0 0 1
22.242438 -17.848389 -30.112508 41.473536 -0.676232 2.383379 0.041345 -0.006515 636514.000000 0 0 1
20.972338 -18.328989 -30.602488 41.379984 -0.718241 2.403195 0.048383 -0.013970 411642.000000 0 0 1
20.162338 -17.292089 -30.970848 40.801099 -0.708915 2.432678 0.050330 -0.016705 -915341.000000 0 0 1
18.853638 -17.698789 -31.633158 40.857845 -0.753814 2.456286 0.045774 -0.012218 -693646.000000 0 0 1
18.926938 -18.315589 -32.885958 42.132838 -0.768984 2.466310 0.055045 -0.016396 115854.000000 0 0 1
17.720338 -18.873289 -33.369278 42.234111 -0.816895 2.481773 0.049195 -0.018715 -211624.000000 0 0 1
17.885738 -19.526089 34.012820 43.104984 -0.829216 0.661504 0.077204 -0.011973 -318992.000000 0 0 1
18.688938 -20.662389 34.135057 44.061466 -0.835506 0.684533 0.065048 -0.007223 81800.100000 0 0 1
19.005738 -21.384089 32.928060 43.620574 -0.844215 0.715334 0.047586 -0.013263 -86104.200000 0 0 1
19.858238 -22.648089 33.180704 44.813443 -0.850938 0.737103 0.037317 -0.013165 -192815.000000 0 0 1
19.356438 -23.695089 34.012019 45.748731 -0.885837 0.732578 0.039662 -0.004830 -91058.800000 0 0 1
19.365738 -23.277089 -33.366548 45.057533 -0.876866 2.404658 0.046420 -0.002778 164656.000000 0 0 1
18.320038 -24.043189 -32.478098 44.368070 -0.919682 2.392071 0.047956 -0.007459 -521678.000000 0 0 1
18.531538 -25.432999 -32.281158 45.081355 -0.941105 2.368944 0.035798 -0.006379 626720.000000 0 0 1
19.649038 -25.828469 -31.447048 45.189726 -0.920450 2.340454 0.025835 -0.012685 703139.000000 0 0 1
19.977338 -27.323879 -31.613098 46.314969 -0.939481 2.322067 0.017892 -0.003277 273725.000000 0 0 1
18.966538 -28.191019 -31.101908 46.062912 -0.978569 2.312039 0.014818 -0.003784 369757.000000 0 0 1
19.373138 -29.590499 -31.210228 47.169847 -0.991119 2.293822 0.009351 0.000518 -152182.000000 0 0 1
18.319838 -30.454399 -30.483728 46.822480 -1.029238 2.279762 0.025405 -0.000491 799047.000000 0 0 1
17.071638 -30.662069 -31.140168 46.918156 -1.062772 2.296568 0.027541 -0.008283 195722.000000 0 0 1
17.170938 -31.506649 -32.234488 48.234555 -1.071805 2.302699 0.034209 -0.008656 -840345.000000 0 0 1
15.838638 -32.001129 -32.819558 48.498022 -1.111205 2.314094 0.048183 -0.016406 -458484.000000 0 0 1
15.044238 -30.976379 -33.319688 47.917291 -1.118680 2.339715 0.060637 -0.015050 -1167630.000000 0 0 1
13.890038 -31.555539 -33.830618 48.303167 -1.156141 2.346727 0.053861 -0.019688 -374710.000000 0 0 1
12.933738 -30.462019 34.352000 47.699854 -1.169277 0.766749 0.059770 -0.012524 416564.000000 0 0 1
12.189138 -29.759609 -33.386708 46.356032 -1.182053 2.374921 0.068043 -0.014336 202995.000000 0 0 1
11.191938 -28.985339 -34.030778 46.081485 -1.202309 2.401626 0.063258 -0.005967 168670.000000 0 0 1
10.431438 -28.004559 -33.119378 44.609007 -1.214227 2.407497 0.057781 -0.010060 -624445.000000 0 0 1
9.432138 -28.579149 -32.404628 44.224348 -1.252017 2.393125 0.045488 -0.001750 -27536.900000 0 0 1
8.323538 -27.682139 -32.131948 43.220877 -1.278713 2.408989 0.025748 0.002107 1074870.000000 0 0 1
7.017438 -28.220599 -31.522278 42.887069 -1.327076 2.396473 0.016441 0.004373 212483.000000 0 0 1
6.253238 -29.161229 -32.326428 43.982704 -1.359559 2.396434 0.007371 0.010724 506464.000000 0 0 1
6.749138 -30.518339 -32.397498 45.016861 -1.353149 2.374130 0.016398 0.009764 311501.000000 0 0 1
5.590238 -31.468589 -32.859088 45.839312 -1.394985 2.370044 0.025759 -0.003647 756328.000000 0 0 1
4.720938 -31.754709 -31.790838 45.180817 -1.423208 2.351298 0.029249 -0.018883 13044.800000 0 0 1
3.634838 -32.582719 -32.113918 45.892803 -1.459698 2.345857 0.035893 -0.037098 -16936.500000 0 0 1
2.617038 -33.095589 -31.026218 45.439995 -1.491885 2.322378 0.034418 -0.047592 591621.000000 0 0 1
1.724638 -32.132019 -30.529548 44.356447 -1.517174 2.329908 0.029446 -0.040195 148592.000000 0 0 1
0.500938 -32.066569 -31.258348 44.783927 -1.555176 2.343371 0.020431 -0.012307 56771.800000 0 0 1
-0.391662 -30.873589 -30.808038 43.617280 1.558111 2.355092 0.016011 -0.008293 125503.000000 0 0 1
-1.249762 -31.182139 -29.714058 43.090753 1.530738 2.331690 0.019699 -0.014320 122419.000000 0 0 1
-1.806862 -29.941939 -29.243418 41.892267 1.510524 2.343484 0.022294 -0.004129 -15049.700000 0 0 1
-2.537262 -30.156109 -27.928438 41.180412 1.486856 2.316103 0.027054 -0.007169 -283271.000000 0 0 1
-1.678262 -30.382229 -26.818288 40.560042 1.515614 2.293213 0.016917 -0.004493 -306642.000000 0 0 1
-2.356362 -30.478419 -25.636308 39.896200 1.493637 2.268651 0.019394 -0.005969 -239896.000000 0 0 1
-1.378062 -30.984999 -24.583458 39.576706 1.526350 2.241018 0.010744 -0.002515 -136517.000000 0 0 1
-1.918662 -31.042729 -23.301258 38.862333 1.509068 2.213778 0.024503 -0.007831 -856387.000000 0 0 1
-1.011962 -31.456029 -22.326558 38.587317 1.538637 2.187805 0.017519 0.001130 -261503.000000 0 0 1
-1.452362 -31.299599 -20.848258 37.635411 1.524428 2.157901 -0.010643 0.014374 -185508.000000 0 0 1
-1.680762 -29.981349 -20.350458 36.274611 1.514795 2.166403 -0.015733 0.010617 526666.000000 0 0 1
-0.462862 -29.269729 -20.062158 35.488329 1.554984 2.171614 0.001411 -0.000320 305529.000000 0 0 1
-0.691862 -27.908509 -19.398658 33.995169 1.546011 2.178069 0.006642 -0.006882 -127011.000000 0 0 1
-1.183062 -27.902289 -18.061658 33.258997 1.528422 2.144874 0.010624 -0.006428 151822.000000 0 0 1
-1.128962 -26.576599 -17.517758 31.850621 1.528342 2.153157 0.012964 -0.008250 -108803.000000 0 0 1
-1.719962 -26.513869 -16.096458 31.065085 1.506017 2.115486 0.014142 -0.011780 -181171.000000 0 0 1
-1.866962 -25.187029 -15.525058 29.646238 1.496808 2.121958 0.012210 -0.006894 8604.020000 0 0 1
-2.849362 -25.224729 -14.527758 29.248275 1.458314 2.090594 0.018483 -0.007218 -247650.000000 0 0 1
-2.842062 -23.902389 -13.708358 27.700553 1.452449 2.088489 0.022288 -0.007741 -460009.000000 0 0 1
-1.658262 -23.733989 -12.991558 27.107797 1.501041 2.070602 0.021473 -0.006341 -509256.000000 0 0 1
-1.611262 -22.644689 -12.138658 25.743449 1.499762 2.061815 0.020533 -0.004050 322981.000000 0 0 1
-0.283562 -22.735289 -11.344358 25.410003 1.558325 2.033593 0.013568 -0.000181 371477.000000 0 0 1
-0.011462 -21.503489 -10.587858 23.968791 1.570263 2.028328 0.007532 0.000952 288491.000000 0 1 0
1.260938 -21.523689 -9.947558 23.744748 -1.512279 2.003071 0.003457 -0.000845 731073.000000 0 1 0
2.002238 -20.251289 -9.475658 22.447979 -1.472247 2.006575 0.017026 0.007132 -545331.000000 0 1 0
2.499838 -19.474889 -10.564158 22.296232 -1.443132 2.064408 0.020254 0.015642 431053.000000 0 1 0
3.332038 -18.320089 -10.263758 21.262006 -1.390884 2.074563 0.012172 0.010929 392700.000000 0 1 0
4.740938 -18.674089 -9.787758 21.610144 -1.322171 2.040839 0.021733 -0.001348 -746073.000000 0 1 0
4.648838 -19.098689 -8.422958 21.384991 -1.332028 1.975637 0.022610 -0.004495 -226118.000000 0 1 0
5.617438 -20.061989 -8.022258 22.324777 -1.297784 1.938360 0.026890 -0.001760 54742.800000 0 1 0
5.079938 -21.190889 -7.066258 22.908330 -1.335514 1.884368 0.037631 -0.002424 120771.000000 0 1 0
4.162438 -22.093889 -7.642558 23.746042 -1.384581 1.898474 0.018891 -0.003249 -85999.600000 0 1 0
3.952038 -23.141889 -6.756358 24.429777 -1.401654 1.851011 0.031563 -0.008268 -67348.200000 0 1 0
2.960838 -24.144689 -7.326558 25.404941 -1.448777 1.863342 0.021915 -0.008161 74184.700000 0 0 1
3.526538 -24.782989 -8.434158 26.415300 -1.429449 1.895777 0.023086 -0.005125 131102.000000 0 0 1
2.517438 -25.539469 -9.075258 27.220623 -1.472543 1.910700 0.013799 -0.003548 491807.000000 0 0 1
3.047238 -26.421769 -10.287658 28.517213 -1.455973 1.939871 0.009001 -0.006414 571952.000000 0 0 1
3.999738 -27.445909 -9.894658 29.447922 -1.426083 1.913469 0.014226 -0.007286 199327.000000 0 0 1
4.566738 -27.959199 -11.031058 30.401582 -1.408890 1.942115 0.023896 -0.005190 -4076.960000 0 0 1
4.784738 -29.496659 -10.892058 31.805401 -1.409984 1.920330 0.023976 -0.007744 300305.000000 0 0 1
3.562738 -30.186529 -11.149758 32.376485 -1.453316 1.922373 0.022853 -0.010365 394022.000000 0 0 1
3.716038 -31.623079 -10.992458 33.684748 -1.453822 1.903218 0.032049 -0.008871 -53193.700000 0 0 1
2.445938 -32.422269 -11.337058 34.434213 -1.495499 1.906293 0.034366 -0.016097 -95489.900000 0 0 1
2.207238 -32.290969 -12.732458 34.780657 -1.502548 1.945588 0.031976 -0.017423 377815.000000 0 0 1
1.248938 -33.222619 -13.198458 35.770121 -1.533221 1.948708 0.028557 -0.014239 -315849.000000 0 0 1
0.901238 -33.145309 -14.678158 36.261165 -1.543613 1.987546 0.029566 -0.005643 -230037.000000 0 0 1
-0.062962 -32.155539 -14.933758 35.454193 1.568838 2.005578 0.017757 -0.009976 -42568.200000 0 0 1
-0.411362 -32.262599 -16.323058 36.159186 1.558047 2.039155 0.000082 0.001197 780828.000000 0 0 1
-1.538062 -31.249449 -16.797058 35.511053 1.521617 2.063500 -0.004368 0.006192 1150630.000000 0 0 1
-2.813962 -31.415989 -16.211658 35.464075 1.481464 2.045561 0.004998 -0.001174 458322.000000 0 0 1
-3.897262 -30.897319 -16.984358 35.472545 1.445323 2.070087 0.004964 0.007677 2140800.000000 0 0 1
-5.355462 -30.935109 -16.346158 35.395746 1.399376 2.050833 0.018886 0.003063 1165470.000000 0 0 1
-5.699462 -29.820259 -15.498658 34.087243 1.381947 2.042805 0.019693 0.006392 -199271.000000 0 0 1
-7.011062 -29.713709 -15.001158 34.016088 1.339081 2.027511 0.037579 -0.002647 -104726.000000 0 0 1
-7.402162 -30.765909 -13.935558 34.576480 1.334688 1.985628 0.031613 -0.006350 -313570.000000 0 0 1
-7.626962 -32.022719 -14.498058 35.969693 1.336979 1.985658 0.039065 -0.003178 -30798.600000 0 0 1
-8.642062 -32.777629 -13.842558 36.615224 1.313006 1.958490 0.039442 0.000034 306225.000000 0 0 1
-8.964062 -34.121469 -14.616058 38.187148 1.313891 1.963565 0.059077 -0.001601 73586.700000 0 0 1
-7.893062 33.737980 -14.677258 37.629425 -1.340978 1.971479 0.055683 -0.007278 395788.000000 0 0 1
-8.389062 32.474714 -15.014758 36.748148 -1.317997 1.991700 0.068093 -0.011296 -122593.000000 0 0 1
-7.551062 -22.092389 -3.016758 23.541305 1.241450 1.699297 0.037271 -0.010929 82675.500000 0 1 0
-7.367762 -21.007089 -3.878358 22.596977 1.233474 1.743282 0.025315 -0.012206 241960.000000 0 1 0
-6.149762 -21.090589 -4.620458 22.449525 1.287075 1.778093 0.016677 -0.008231 648449.000000 0 1 0
-5.883962 -20.047489 -5.725858 21.663524 1.285312 1.838283 0.002426 -0.011792 501471.000000 0 1 0
-6.804462 -20.274389 -6.805558 22.442531 1.246990 1.878891 0.017287 -0.012216 150645.000000 0 1 0
-6.699262 -19.264889 -7.807158 21.839592 1.236132 1.936362 0.001807 -0.006947 -166067.000000 0 1 0
-7.719462 -19.457889 -8.977458 22.777057 1.193115 1.975933 0.005372 -0.014656 203550.000000 0 1 0
-7.313562 -20.387689 -9.924258 23.825133 1.226370 2.000439 0.011241 -0.002086 -42111.100000 0 1 0
-8.308762 -20.692789 -10.918258 24.828118 1.188972 2.026121 0.024297 0.009287 137776.000000 0 1 0
-7.830162 -21.483389 -12.087658 25.864241 1.221285 2.057087 0.020335 0.005984 463174.000000 0 0 1
-6.899862 -20.820589 -12.987458 25.490765 1.250790 2.105396 0.036367 0.001836 393509.000000 0 0 1
-6.572962 -21.706289 -14.032558 26.669824 1.276760 2.124873 0.027532 0.006421 53856.700000 0 0 1
-5.625262 -21.094089 -15.107758 26.548984 1.310186 2.176149 0.024283 0.012509 603956.000000 0 0 1
-4.302262 -20.990489 -14.571758 25.912280 1.368634 2.168021 0.022860 0.002556 772998.000000 0 0 1
-3.310162 -20.237389 -15.288758 25.578413 1.408665 2.211452 0.026791 0.006283 653366.000000 0 0 1
-3.489562 -18.681889 -15.292558 24.393695 1.386136 2.248372 0.032127 0.006426 -889676.000000 0 1 0
-4.510562 -18.128389 -16.084158 24.651244 1.326936 2.281634 0.026946 0.007010 -447570.000000 0 1 0
-4.334862 -18.193889 -17.497158 25.611700 1.336898 2.322892 0.037366 0.001057 10505.000000 0 0 1
-5.685862 -18.022989 -18.282458 26.294590 1.265200 2.339625 0.023034 0.012098 401937.000000 0 0 1
-6.503362 -19.137889 -18.003258 27.067875 1.243223 2.298445 0.025039 0.016880 -772904.000000 0 0 1
-7.791062 -18.874889 -18.478458 27.539345 1.179327 2.306331 0.016623 0.012225 -317622.000000 0 0 1
-8.802162 -19.954989 -17.988658 28.271390 1.155368 2.260469 0.029592 0.008780 -75029.700000 0 0 1
-8.512362 -21.300889 -18.275458 29.328835 1.190613 2.243525 0.033972 0.015367 152806.000000 0 0 1
-9.600262 -22.158489 -18.017958 30.129894 1.161955 2.211811 0.038079 0.017367 75147.300000 0 0 1
-9.145462 -23.621189 -18.283758 31.239332 1.201397 2.196022 0.042316 0.000552 -912591.000000 0 0 1
-8.769262 -23.886889 -19.612958 32.127116 1.218955 2.227463 0.040424 -0.006138 624959.000000 0 0 1
-7.538962 -24.579989 -19.790958 32.445244 1.273194 2.226832 0.049842 -0.020095 346430.000000 0 0 1
-6.245462 -23.916589 -19.293358 31.356701 1.315365 2.233546 0.061090 -0.021126 -2181360.000000 0 0 1
-5.725662 -22.859689 -20.018258 30.920532 1.325376 2.274977 0.059107 -0.019203 -255195.000000 0 0 1
-4.963162 -21.939989 -19.303758 29.641714 1.348325 2.280009 0.053297 -0.008755 676865.000000 0 0 1
-3.765062 -22.405489 -18.392458 29.231219 1.404310 2.251328 0.032983 -0.004277 -110894.000000 0 0 1
-2.595062 -22.780289 -19.094158 29.837272 1.457368 2.265221 0.047806 -0.021409 173222.000000 0 0 1
-1.488762 -22.759189 -18.204758 29.182363 1.505476 2.244427 0.060678 -0.012466 97688.700000 0 0 1
-0.158062 -23.328689 -18.709158 29.904604 1.564021 2.246733 0.033060 -0.011376 335174.000000 0 0 1
0.428538 -22.509989 -19.788358 29.974362 -1.551761 2.291850 0.038610 -0.010977 62640.400000 0 0 1
1.826938 -22.710289 -19.817958 30.196795 -1.490524 2.286692 0.039784 -0.013780 304390.000000 0 0 1
2.497038 -21.921689 -20.975358 30.442755 -1.457378 2.330918 0.043623 -0.011372 177645.000000 0 0 1
1.908838 -22.307089 -22.190658 31.522614 -1.485433 2.351754 0.031137 -0.021941 -296240.000000 0 0 1
1.233538 -21.296789 -22.844958 31.256471 -1.512940 2.390417 0.034593 -0.024548 -551168.000000 0 0 1
0.562338 -21.791789 -24.150258 32.533572 -1.544997 2.407320 0.039920 -0.028962 269812.000000 0 0 1
-0.146462 -20.834889 -24.949358 32.505146 1.563767 2.445808 0.043080 -0.031942 165095.000000 0 0 1
-1.383762 -20.377589 -24.435558 31.847409 1.502994 2.445370 0.045131 -0.028387 -119870.000000 0 0 1
-1.933262 -19.190889 -25.284668 31.801607 1.470397 2.489928 0.037031 -0.021488 429138.000000 0 0 1
-1.108762 -18.022789 -25.073158 30.898439 1.509354 2.517460 0.030387 -0.019358 429254.000000 0 0 1
-1.750762 -16.835589 -25.486898 30.595494 1.467177 2.555355 0.022394 -0.016127 228406.000000 0 0 1
-1.037462 -15.493389 -24.989558 29.421072 1.503935 2.585599 0.013988 -0.004516 723561.000000 0 0 1
0.164738 -15.173489 -25.690018 29.836873 -1.559940 2.608060 0.030055 -0.018124 106131.000000 0 0 1
0.871738 -14.018289 -25.336128 28.968807 -1.508691 2.635407 0.032328 -0.016281 228592.000000 0 0 1
0.285438 -12.649389 -25.821018 28.754365 -1.548235 2.685967 0.020409 -0.009450 -292658.000000 0 0 1
1.088038 -11.587289 -25.426168 27.963175 -1.477172 2.712331 0.018587 -0.003636 -80.173300 0 0 1
0.734238 -10.345689 -26.114218 28.098484 -1.499945 2.763531 0.015794 -0.001923 84221.900000 0 0 1
1.737238 -9.155089 -25.845758 27.474295 -1.383269 2.795558 0.035148 -0.004907 1433890.000000 0 0 1
3.036538 -9.153189 -26.476628 28.178241 -1.250475 2.792293 0.039937 -0.005807 616603.000000 0 0 1
3.033538 -9.146489 -27.899218 29.516555 -1.250551 2.809021 0.040008 -0.003006 -1231500.000000 0 0 1
4.442638 -8.965589 -28.417468 30.127584 -1.110738 2.803044 0.042341 0.003414 -652636.000000 0 0 1
4.884538 -7.610289 -28.531458 29.930241 -1.000184 2.834661 0.032949 -0.002497 855031.000000 0 0 1
6.176538 -7.454989 -29.159318 30.724458 -0.878911 2.821032 0.047497 -0.002974 133880.000000 0 0 1
7.353938 -7.317189 -28.199998 30.047655 -0.782893 2.789083 0.058438 -0.010358 -507130.000000 0 0 1
7.895638 -8.471789 -27.583218 29.915652 -0.820585 2.744096 0.048835 -0.005216 640904.000000 0 0 1
8.715638 -9.257789 -28.473408 31.183393 -0.815553 2.721608 0.065835 -0.014916 -257089.000000 0 0 1
9.073538 -10.624789 -27.895618 31.199051 -0.863986 2.677253 0.065048 -0.014110 127575.000000 0 0 1
7.978038 -11.539389 -27.806228 31.144710 -0.965883 2.674336 0.067331 -0.013837 369748.000000 0 0 1
8.248238 -12.774489 -27.200098 31.161938 -0.997464 2.631835 0.066204 -0.015604 12777.400000 0 0 1
9.086938 -13.789989 -28.045848 32.546979 -0.988154 2.609414 0.084044 -0.027090 106131.000000 0 0 1
8.339738 -14.325289 -29.121278 33.508417 -1.043591 2.624123 0.091686 -0.031685 117205.000000 0 0 1
9.002938 -15.348889 -29.813498 34.720109 -1.040323 2.603487 0.085919 -0.027623 -216397.000000 0 0 1
8.098238 -15.974689 -30.884098 35.701536 -1.101611 2.616073 0.062274 -0.025538 -297202.000000 0 0 1
7.635938 -14.947989 -31.730818 35.897002 -1.098519 2.655020 0.062846 -0.021044 463685.000000 0 0 1
6.836438 -15.448789 -32.803228 36.897883 -1.154178 2.666013 0.058571 -0.020465 -370474.000000 0 0 1
5.975638 -14.406489 -33.479268 36.933949 -1.177607 2.705628 0.059738 -0.022587 201186.000000 0 0 1
6.654238 -13.511289 -34.367378 37.522667 -1.113171 2.728565 0.071939 -0.019829 611304.000000 0 0 1
5.592238 -12.798489 33.785411 36.558562 -1.158852 0.392005 0.047774 -0.020193 257600.000000 0 0 1
6.167038 -11.720889 32.880102 35.447323 -1.086442 0.382923 0.075947 -0.021577 -295861.000000 0 0 1
6.665838 -12.287289 31.708245 34.652903 -1.073731 0.415228 0.067668 -0.028722 19800.300000 0 0 1
6.880138 -11.210489 30.791355 33.483114 -1.020347 0.403714 0.072882 -0.021389 -210937.000000 0 0 1
7.440038 -11.649889 29.446025 32.529102 -1.002451 0.438897 0.062390 -0.018785 -23675.100000 0 0 1
6.512538 -12.403989 28.688265 31.926300 -1.087321 0.454279 0.051600 -0.026130 313697.000000 0 0 1
6.931138 -12.423089 27.341305 30.820785 -1.061890 0.479759 0.041577 -0.011955 70687.300000 0 0 1
5.823838 -13.128489 26.503845 30.145117 -1.153275 0.496598 0.035033 -0.028731 111083.000000 0 0 1
5.609538 -14.464089 26.868135 31.025368 -1.200829 0.523639 0.030227 -0.018554 -151352.000000 0 0 1
5.169438 -15.337489 25.860505 30.507825 -1.245708 0.559222 0.002259 -0.012194 -111605.000000 0 0 1
3.640938 -15.345489 25.667835 30.126039 -1.337840 0.550974 0.024844 -0.019836 -103643.000000 0 0 1
3.019038 -14.091189 25.317345 29.131497 -1.359737 0.517475 0.020400 -0.024697 -154783.000000 0 0 1
1.679838 -14.256389 24.917035 28.756306 -1.453507 0.522670 0.018671 -0.021935 -129006.000000 0 0 1
0.963238 -12.932689 24.811515 27.996313 -1.496453 0.481627 0.011166 -0.025194 -608804.000000 0 0 1
1.378438 -12.189589 23.657845 26.649199 -1.458191 0.478361 -0.005947 -0.010931 -10791.400000 0 0 1
0.525738 -11.119589 23.284945 25.809113 -1.523551 0.445956 -0.010289 -0.008808 692883.000000 0 0 1
-0.941562 -11.433889 22.873745 25.589618 1.488633 0.464896 -0.008653 -0.009185 -100630.000000 0 0 1
-1.001962 -12.214389 21.673945 24.898898 1.488948 0.514624 -0.006060 -0.005762 -1291900.000000 0 1 0
-2.256962 -12.669389 21.403445 24.974282 1.394503 0.541339 0.015773 -0.015491 -1121460.000000 0 1 0
-2.222262 -13.655189 20.209645 24.491476 1.409469 0.600292 0.033385 -0.017432 -228284.000000 0 1 0
-1.312062 -14.698089 20.364745 25.149118 1.481765 0.627054 0.036818 -0.014741 -344906.000000 0 0 1
-1.205962 -15.400489 19.141545 24.597320 1.492649 0.679008 0.054708 -0.022311 -152436.000000 0 1 0
-2.209062 -16.594589 19.052845 25.362792 1.438455 0.720899 0.035678 -0.021490 363243.000000 0 0 1
-2.034762 -17.455489 17.924645 25.102336 1.454751 0.775512 0.012834 -0.010786 -229891.000000 0 0 1
-3.154462 -18.314789 17.929345 25.823314 1.400234 0.803338 0.024041 0.008123 224542.000000 0 0 1
-2.913162 -19.521889 17.033245 26.071481 1.422664 0.858823 0.024001 -0.001476 -57734.500000 0 0 1
-1.917262 -20.379789 17.510945 26.937797 1.476996 0.863145 0.026461 -0.001456 -396595.000000 0 0 1
-2.132462 -21.698089 17.110545 27.715072 1.472832 0.905397 0.019363 -0.017659 269477.000000 0 0 1
-1.132062 -22.689489 17.825545 28.876366 1.520944 0.905483 0.033169 -0.008607 614605.000000 0 0 1
0.153138 -22.658789 17.242845 28.473845 -1.564038 0.920317 0.022204 -0.008013 -276022.000000 0 0 1
1.033738 -23.552789 17.926045 29.616644 -1.526934 0.920692 0.025482 -0.000579 -705341.000000 0 0 1
2.385138 -23.516989 17.270845 29.274900 -1.469720 0.939794 0.026924 -0.007716 -1384450.000000 0 0 1
3.093538 -22.376989 17.529545 28.593436 -1.433421 0.910866 0.041447 -0.012420 -430967.000000 0 0 1
4.188438 -22.272589 16.625445 28.107235 -1.384914 0.937878 0.055262 -0.012751 129624.000000 0 0 1
5.004238 -20.990589 16.749345 27.316438 -1.336761 0.910742 0.056162 -0.012926 115828.000000 0 0 1
5.828738 -21.035489 17.960545 28.267422 -1.300487 0.882296 0.061647 -0.007163 476367.000000 0 0 1
6.415038 -19.789689 18.402245 27.774577 -1.257324 0.846569 0.063435 -0.004442 614581.000000 0 0 1
7.393738 -18.946489 17.521445 26.844699 -1.198729 0.859658 0.049325 -0.007323 -178640.000000 0 0 1
6.825138 -18.306789 16.381445 25.496525 -1.213938 0.873044 0.040041 -0.013152 -304247.000000 0 0 1
7.719338 -17.577489 15.595245 24.733944 -1.156993 0.888573 0.053038 -0.013613 -552804.000000 0 1 0
6.993338 -16.784589 14.541345 23.282610 -1.176017 0.896231 0.032971 -0.013969 25543.500000 0 1 0
6.134538 -17.617289 13.748545 23.173776 -1.235716 0.935669 0.031587 -0.010691 110986.000000 0 1 0
5.457738 -16.769889 12.834545 21.811502 -1.256159 0.941680 0.014417 -0.006530 -163652.000000 0 1 0
5.937638 -16.783089 11.347645 21.111529 -1.230752 1.003316 0.013251 -0.013476 -839365.000000 0 1 0
7.254638 -16.379989 11.275745 21.167811 -1.153865 1.009028 0.019069 -0.009141 -1155640.000000 0 1 0
7.867538 -16.633689 10.052845 20.967533 -1.128991 1.070771 0.021935 -0.007869 972720.000000 0 1 0
9.400938 -16.265989 10.074745 21.318080 -1.046747 1.078567 0.027092 -0.000721 1330490.000000 0 1 0
10.089938 -16.658689 8.893245 21.410478 -1.026206 1.142448 0.032098 -0.002295 -388384.000000 0 1 0
11.382838 -16.108689 8.820145 21.606800 -0.955636 1.150302 0.029551 -0.001281 463152.000000 0 1 0
12.414238 -16.980889 8.005545 22.506724 -0.939520 1.207138 0.039321 -0.007643 298648.000000 0 1 0
12.774338 -18.138289 8.671245 23.819566 -0.957207 1.198196 0.048117 -0.013178 -139167.000000 0 1 0
13.546538 -19.011389 7.903945 24.645769 -0.951698 1.244326 0.049911 -0.013758 -67543.000000 0 1 0
14.021038 -20.329889 8.547245 26.133299 -0.967033 1.237602 0.043927 -0.015945 -420293.000000 0 0 1
12.969138 -21.139489 8.963745 26.370917 -1.020507 1.223975 0.047939 -0.019295 -334159.000000 0 0 1
13.442738 -22.422189 9.330945 27.758392 -1.030724 1.227972 0.042298 -0.017988 61373.100000 0 0 1
12.324438 -23.294489 9.917445 28.158137 -1.084163 1.210870 0.044995 -0.018574 -45781.600000 0 0 1
12.163138 -22.807389 11.217845 28.177277 -1.080866 1.161333 0.053493 -0.030782 -90416.400000 0 0 1
11.091838 -23.423189 11.932345 28.531658 -1.128539 1.139318 0.054889 -0.025163 36754.200000 0 0 1
11.389838 -24.803889 12.511445 30.024949 -1.140322 1.140982 0.034694 -0.024017 -28295.900000 0 0 1
12.333938 -24.902489 13.564545 30.923403 -1.110924 1.116701 0.021374 -0.022071 7152.190000 0 0 1
12.287938 -26.203619 14.047145 32.170567 -1.132304 1.118929 0.024192 -0.026314 -81645.600000 0 0 1
13.516738 -26.529619 14.923345 33.305091 -1.099581 1.106180 0.018051 -0.024392 -11790.700000 0 0 1
13.490338 -25.764559 16.135545 33.258947 -1.088447 1.064263 0.015181 -0.023400 -219183.000000 0 0 1
14.303238 -26.353189 17.084845 34.510362 -1.073535 1.052888 0.009836 -0.024808 -930794.000000 0 0 1
14.162138 -25.789189 18.495145 34.752249 -1.068606 1.009599 0.009151 -0.023899 -246072.000000 0 0 1
14.676438 -24.492689 18.830245 34.203330 -1.030953 0.987787 -0.012652 -0.016438 392775.000000 0 0 1
16.039638 -24.468889 19.236045 35.014596 -0.990556 0.989184 -0.006412 -0.020743 118515.000000 0 0 1
16.398938 -23.090089 19.883045 34.603654 -0.953247 0.958689 -0.020746 -0.009328 -235085.000000 0 0 1
16.454038 -21.962489 19.018645 33.388548 -0.927815 0.964758 -0.024278 -0.015150 261526.000000 0 0 1
15.210338 -21.408789 18.611645 32.188258 -0.953077 0.954261 -0.015486 -0.012848 -494721.000000 0 0 1
15.295338 -20.384989 17.457345 30.891002 -0.927088 0.970209 -0.009514 -0.010238 577383.000000 0 0 1
16.210338 -19.277489 17.656745 30.759670 -0.871612 0.959386 -0.018520 -0.012621 450054.000000 0 0 1
17.595938 -19.484789 17.713945 31.671089 -0.836293 0.977244 -0.018533 -0.016616 -244982.000000 0 0 1
18.386138 -18.132089 17.882745 31.410433 -0.778442 0.965112 -0.000475 -0.013223 -17824.100000 0 0 1
18.326538 -17.501989 19.123745 31.747429 -0.762388 0.924328 -0.001927 -0.004832 103322.000000 0 0 1
19.102638 -16.324989 19.109445 31.568765 -0.707155 0.920619 0.021568 -0.012347 -154664.000000 0 0 1
19.791238 -15.983789 20.464745 32.649355 -0.679370 0.893352 0.026179 -0.006289 621112.000000 0 0 1
20.949538 -16.812389 20.701445 33.912968 -0.676275 0.914195 0.031349 -0.007114 509250.000000 0 0 1
21.519338 -16.576489 21.969045 34.935667 -0.656371 0.890732 0.044879 -0.002107 167372.000000 0 0 1
33.583758 -1.005889 -7.411058 34.406458 -0.029943 1.787895 0.055380 -0.001947 -484916.000000 0 0 1
34.741408 -0.855489 -8.175158 35.700567 -0.024620 1.801839 0.041748 -0.001844 -183191.000000 0 0 1
35.398482 -2.095789 -8.302258 36.419395 -0.059137 1.800781 0.048424 -0.010420 46999.500000 0 0 1
-34.701700 -2.059589 -9.122458 35.939799 0.059282 1.827430 0.039867 -0.011493 152236.000000 0 0 1
-33.835882 -3.153589 -8.878658 35.123249 0.092934 1.826355 0.053557 -0.014310 2184760.000000 0 0 1
-32.438982 -2.802489 -9.239458 33.845370 0.086179 1.847296 0.093965 -0.017692 1771340.000000 0 0 1
-31.398982 -3.807689 -8.784158 32.826148 0.120679 1.841694 0.086769 -0.011323 -660358.000000 0 0 1
-31.121142 -3.816289 -7.380158 32.211121 0.122018 1.801968 0.085649 -0.011402 -84710.800000 0 0 1
-29.985252 -4.579789 -7.098258 31.152449 0.151563 1.800671 0.074569 -0.014244 -288329.000000 0 0 1
-29.667802 -4.408389 -5.598058 30.511484 0.147512 1.755315 0.073596 -0.020611 -145602.000000 0 0 1
-29.035692 -3.162389 -5.348458 29.693065 0.108486 1.751910 0.081177 -0.016780 414708.000000 0 0 1
-29.196172 -2.866889 -3.973758 29.604498 0.097880 1.705431 0.085063 -0.016844 -304100.000000 0 0 1
-28.964642 -1.385889 -3.606558 29.221199 0.047811 1.694535 0.100963 -0.013475 276361.000000 0 0 1
-27.591432 -1.023889 -3.441658 27.824099 0.037092 1.694807 0.080877 -0.010078 762698.000000 0 0 1
-27.337672 0.257811 -2.938658 27.496372 -0.009430 1.677875 0.087098 -0.013650 209834.000000 0 0 1
-25.832942 0.373211 -2.554458 25.961615 -0.014446 1.669349 0.072617 -0.004573 255453.000000 0 0 1
-25.436202 -0.445689 -1.513758 25.485103 0.017520 1.630229 0.055732 -0.009994 141543.000000 0 0 1
-24.085462 -0.207689 -1.176858 24.115091 0.008623 1.619617 0.036441 -0.010060 -312714.000000 0 1 0
-23.774262 -1.137789 0.047342 23.801520 0.047822 1.568807 0.024925 -0.009859 -295317.000000 0 1 0
-23.767862 -2.546989 -0.160458 23.904480 0.106754 1.577509 0.026039 -0.012542 921467.000000 0 1 0
-22.884762 -3.215889 0.789842 23.123108 0.139611 1.536632 0.011356 -0.009553 -13149.000000 0 1 0
-22.982262 -4.771389 0.801342 23.486010 0.204704 1.536670 0.008873 -0.004849 -315795.000000 0 1 0
-24.198462 -5.237089 1.343042 24.795089 0.213135 1.516604 0.012933 -0.006055 264694.000000 0 1 0
-24.403262 -6.610189 1.187542 25.310552 0.264526 1.523860 0.003955 -0.003438 55318.900000 0 0 1
-25.634692 -7.290189 1.867842 26.716533 0.277073 1.500826 0.020260 -0.008401 276328.000000 0 0 1
-25.551842 -7.602589 3.258342 26.857267 0.289195 1.449176 0.018137 -0.011407 -276629.000000 0 0 1
-26.660742 -8.345689 3.654442 28.174468 0.303370 1.440722 0.037601 -0.011548 -411309.000000 0 0 1
-26.900912 -8.475989 5.205342 28.680953 0.305235 1.388294 0.031741 -0.019153 -724026.000000 0 0 1
-25.991802 -9.273789 5.877342 28.215600 0.342717 1.360959 0.029934 -0.007520 -409127.000000 0 0 1
-26.133502 -9.311289 7.274342 28.680587 0.342274 1.314362 0.023694 -0.008523 -181373.000000 0 0 1
-25.622422 -7.976889 7.960442 27.991211 0.301814 1.282425 0.029464 -0.007636 230589.000000 0 0 1
-24.200362 -7.968689 7.983242 26.699994 0.318098 1.267154 0.042530 -0.015229 223249.000000 0 0 1
-23.736062 -6.639689 8.156142 25.961679 0.272758 1.251224 0.035094 -0.021580 -34590.100000 0 0 1
-22.317662 -6.544889 7.549542 24.452182 0.285262 1.256921 0.044092 -0.019162 -240222.000000 0 1 0
-21.265862 -7.073589 8.276042 23.890697 0.321114 1.217052 0.049484 -0.027295 -245556.000000 0 1 0
-20.000062 -6.626489 7.827542 22.476282 0.319941 1.215084 0.039678 -0.023683 -108193.000000 0 1 0
-18.902162 -6.983889 8.821042 21.997209 0.353919 1.158180 0.050363 -0.022879 -471834.000000 0 1 0
-18.919162 -6.205089 10.042342 22.299920 0.316924 1.103661 0.048426 -0.010878 494385.000000 0 1 0
-17.781562 -6.418989 10.876442 21.810189 0.346433 1.048714 0.038225 -0.016027 156142.000000 0 1 0
-17.603762 -5.233389 11.837642 21.849727 0.288967 0.998249 0.032464 -0.008280 -172311.000000 0 1 0
-18.610562 -5.122689 12.802642 23.162526 0.268605 0.985159 0.028563 -0.007461 -102253.000000 0 1 0
-18.715362 -3.817789 13.352942 23.305393 0.201231 0.960690 0.029494 0.002056 98591.100000 0 1 0
-19.962462 -3.684289 14.248242 24.800933 0.182507 0.958798 0.032279 -0.001958 -170763.000000 0 1 0
-19.786462 -4.444189 15.449442 25.493924 0.220941 0.919768 0.033377 -0.007269 109507.000000 0 0 1
-20.984862 -4.650289 16.153542 26.887293 0.218078 0.926311 0.022691 0.002512 -419030.000000 0 0 1
-20.819762 -5.461989 17.423742 27.692645 0.256565 0.890295 0.017389 0.003916 -1246470.000000 0 0 1
-21.878662 -5.407589 18.268042 29.011019 0.242306 0.889638 0.013938 0.005660 -774302.000000 0 0 1
-21.627262 -6.131489 19.474542 29.742081 0.276258 0.856904 0.017101 0.005434 -376821.000000 0 0 1
-22.350362 -5.639989 20.747142 31.012772 0.247184 0.837951 0.011382 0.007499 -348849.000000 0 0 1
-22.199162 -4.280289 21.007342 30.861498 0.190476 0.822082 0.013514 0.009360 267329.000000 0 0 1
-22.879462 -3.909589 22.176342 32.102100 0.169243 0.808192 0.012342 -0.001909 -276160.000000 0 0 1
-22.669362 -2.472289 22.656942 32.145749 0.108629 0.788628 0.010280 0.002176 -212445.000000 0 0 1
-23.272762 -1.503089 21.800542 31.924040 0.064496 0.819088 0.014652 0.004446 151839.000000 0 0 1
-23.154962 -0.181589 22.309942 32.154607 0.007842 0.803998 0.016027 0.001411 -1079010.000000 0 0 1
-24.228862 0.731911 21.806342 32.605061 -0.030199 0.838200 0.013116 0.001852 -447348.000000 0 0 1
-25.428722 0.393511 22.490142 33.949687 -0.015474 0.846705 0.012363 -0.001448 -177479.000000 0 0 1
-26.545402 1.081311 21.968342 34.473695 -0.040712 0.879873 0.018442 0.000436 255771.000000 0 0 1
-27.645162 1.185411 23.069142 36.025623 -0.042853 0.875838 0.021928 -0.001643 9498.930000 0 0 1
-27.285772 2.027311 24.156942 36.499057 -0.074163 0.847511 0.030938 -0.002499 442346.000000 0 0 1
-28.300222 1.875811 25.136342 37.897980 -0.066186 0.845625 0.033079 -0.003767 -15826.100000 0 0 1
-28.055132 2.906111 26.287542 38.556073 -0.103218 0.820576 0.055722 -0.007366 357750.000000 0 0 1
-26.938542 2.631211 27.134342 38.325981 -0.097366 0.784151 0.044452 -0.007734 529916.000000 0 0 1
-26.642832 3.503911 28.143642 38.912497 -0.130764 0.762293 0.037549 -0.007270 -602633.000000 0 0 1
-25.451982 3.089711 29.004442 38.711850 -0.120803 0.723883 0.030782 -0.007560 -403039.000000 0 0 1
-25.606662 1.968511 29.807142 39.345163 -0.076724 0.711197 0.025014 -0.009971 670639.000000 0 0 1
-24.425062 1.774311 30.599842 39.192884 -0.072516 0.674931 0.013130 -0.013171 611348.000000 0 0 1
-24.615962 0.760811 31.781142 40.206534 -0.030897 0.659258 0.019650 -0.010872 -106780.000000 0 0 1
-24.869862 -0.546589 31.268542 39.956608 0.021974 0.672025 0.012072 -0.006377 -243435.000000 0 0 1
-25.488442 -1.306489 32.264642 41.138482 0.051213 0.669240 0.013788 -0.000694 -1068760.000000 0 0 1
-26.070382 -2.585889 31.623042 41.065416 0.098865 0.691853 0.010699 0.001202 452291.000000 0 0 1
-27.353352 -2.433589 31.000042 41.414138 0.088735 0.724942 0.006860 0.003200 516637.000000 0 0 1
-27.376052 -1.594789 29.882842 40.558301 0.058189 0.742490 0.007617 0.000578 -878023.000000 0 0 1
-28.781042 -1.358989 29.298042 41.092219 0.047183 0.777053 0.030637 -0.013841 493147.000000 0 0 1
-29.713112 -0.837289 30.242842 42.405183 0.028172 0.776761 0.048486 -0.010371 363218.000000 0 0 1
-31.045922 -0.745889 29.737542 42.996826 0.024021 0.807064 0.039806 -0.017488 732812.000000 0 0 1
-32.043912 -0.146889 30.751942 44.413014 0.004584 0.805975 0.042258 -0.015080 -46081.900000 0 0 1
-32.306772 -1.078289 31.820142 45.358700 0.033364 0.793265 0.033036 -0.014838 -29485.800000 0 0 1
-33.228962 -0.630889 32.792642 46.689606 0.018984 0.792097 0.041564 -0.013814 -130338.000000 0 0 1
-33.518672 -1.603789 33.935242 47.724984 0.047811 0.779794 0.042713 -0.013279 48886.800000 0 0 1
-34.058252 -2.811689 33.383142 47.773468 0.082369 0.797106 0.023750 -0.004508 34913.400000 0 0 1
-34.018122 -3.915989 34.263042 48.440929 0.114610 0.785102 0.022289 0.000296 -143097.000000 0 0 1
-34.955359 -5.102389 33.857642 48.931088 0.144945 0.806616 0.015703 -0.006967 593107.000000 0 0 1
35.123438 -4.719389 34.251942 49.286144 -0.133566 0.802431 0.013637 -0.012977 248181.000000 0 0 1
34.122618 -5.348889 33.451542 48.082942 -0.155490 0.801395 0.013582 -0.011021 549139.000000 0 0 1
32.706388 -4.855989 33.930242 47.376679 -0.147395 0.772483 0.022894 -0.011057 275091.000000 0 0 1
32.217628 -5.396889 -33.610162 46.869445 -0.165973 2.370431 0.023333 -0.016112 235142.000000 0 0 1
31.659828 -6.718489 -33.666062 46.699962 -0.209107 2.375898 0.033619 -0.016564 -42876.200000 0 0 1
30.223658 -6.849289 -34.249462 46.188828 -0.222856 2.406114 0.038561 -0.021756 -103213.000000 0 0 1
29.246968 -6.527589 -33.283062 44.785675 -0.219590 2.408582 0.040075 -0.023379 20595.100000 0 0 1
27.972648 -6.903589 -33.792362 44.407795 -0.241963 2.435581 0.050205 -0.021425 -185894.000000 0 0 1
26.828658 -6.541689 -32.852762 42.917066 -0.239165 2.442605 0.042337 -0.021111 -712247.000000 0 0 1
25.565838 -6.986489 -33.253862 42.523434 -0.266761 2.468685 0.030349 -0.017993 -463189.000000 0 0 1
24.664538 -6.859789 -32.178762 41.120175 -0.271268 2.469554 0.023059 -0.018446 490698.000000 0 0 1
23.249638 -7.473089 -32.491162 40.645643 -0.310998 2.497053 0.032787 -0.029719 524802.000000 0 0 1
23.009538 -8.881189 -32.570762 40.855463 -0.368361 2.493471 0.049333 -0.032715 117253.000000 0 0 1
23.291438 -9.710289 -31.424262 40.302171 -0.394993 2.465009 0.036011 -0.019503 -238980.000000 0 0 1
23.084138 -11.222089 -31.742562 40.821599 -0.452497 2.461624 0.047272 -0.024144 -22759.500000 0 0 1
21.737238 -11.541189 -32.016462 40.382674 -0.488093 2.486230 0.057922 -0.029963 57327.300000 0 0 1
21.588938 -12.967089 -31.967562 40.695855 -0.540887 2.474338 0.052239 -0.027145 -794771.000000 0 0 1
20.437938 -13.491289 -32.862562 40.983803 -0.583450 2.501169 0.041401 -0.024865 1165830.000000 0 0 1
19.097938 -13.237989 -32.362062 39.840665 -0.606123 2.518859 0.029935 -0.017519 1128620.000000 0 0 1
18.694038 -11.942089 -32.670962 39.490154 -0.568474 2.545115 0.025852 -0.019604 -1908260.000000 0 0 1
17.346338 -11.507289 -32.188862 38.333222 -0.585727 2.567549 0.029446 -0.018595 -1724850.000000 0 0 1
16.252738 -11.965989 -32.870662 38.572228 -0.634639 2.590943 0.023020 -0.012975 -705519.000000 0 0 1
15.071738 -11.472289 -32.248462 37.399652 -0.650617 2.610524 0.049330 -0.015991 294953.000000 0 0 1
13.773038 -11.901989 -32.968062 37.659620 -0.712653 2.637105 0.051504 -0.020724 -516264.000000 0 0 1
13.477538 -13.317689 -32.865462 37.936044 -0.779433 2.618621 0.054375 -0.014365 -57256.100000 0 0 1
12.291038 -13.659289 -33.518062 38.224419 -0.838075 2.640120 0.051516 -0.019459 -493981.000000 0 0 1
10.968938 -13.497489 -32.777262 37.105912 -0.888380 2.653744 0.057603 -0.014592 -582532.000000 0 0 1
10.558638 -12.131089 -32.679262 36.422277 -0.854590 2.684258 0.081294 -0.010249 -676081.000000 0 0 1
9.575938 -11.996889 -31.721862 35.240608 -0.897153 2.690912 0.089239 -0.021048 -506561.000000 0 0 1
8.397938 -11.098789 -32.134262 35.018841 -0.923051 2.732866 0.084754 -0.014672 -212351.000000 0 0 1
8.703838 -9.755889 -32.096662 34.657320 -0.842328 2.754777 0.069056 -0.007924 -265276.000000 0 0 1
7.736938 -9.052289 -32.760462 34.857596 -0.863583 2.792949 0.074204 -0.006254 -633515.000000 0 0 1
8.261638 -7.627189 -33.000962 34.863909 -0.745489 2.813210 0.072655 -0.001833 -193643.000000 0 0 1
8.517138 -6.827589 -31.839962 33.659185 -0.675734 2.811313 0.055514 -0.002898 229719.000000 0 0 1
9.002738 -5.559389 -32.149362 33.845791 -0.553204 2.823641 0.053337 -0.005528 -182160.000000 0 0 1
9.361038 -4.685189 -30.947362 32.669852 -0.464047 2.815421 0.052202 -0.009871 112438.000000 0 0 1
8.177938 -4.214389 -30.315362 31.680607 -0.475841 2.846950 0.053555 -0.006247 340749.000000 0 0 1
8.394838 -3.482089 -29.146162 30.530263 -0.393190 2.839327 0.043922 -0.002945 -139154.000000 0 0 1
7.027538 -3.078489 -28.576862 29.588856 -0.412881 2.879300 0.034542 -0.002764 -511634.000000 0 0 1
6.346038 -2.136789 -29.436762 30.188756 -0.324789 2.917924 0.037690 0.004804 861169.000000 0 0 1
5.040438 -1.721589 -29.021362 29.506089 -0.329132 2.960081 0.042664 -0.003515 1382980.000000 0 0 1
3.895438 -2.811489 -28.985662 29.381074 -0.625167 2.977347 0.034234 -0.005856 -213520.000000 0 0 1
4.002038 -3.625789 -27.850062 28.368796 -0.736112 2.950065 0.029649 -0.014701 -323535.000000 0 0 1
3.101938 -4.699889 -27.912362 28.474742 -0.987422 2.942517 0.058710 -0.012187 46188.400000 0 0 1
3.287338 -5.665589 -26.749662 27.539969 -1.045041 2.901447 0.051076 -0.021013 -75107.400000 0 0 1
2.838638 -5.128189 -25.559162 26.222642 -1.065242 2.916163 0.045071 -0.018855 -93675.400000 0 0 1
3.180638 -5.946989 -24.493062 25.404590 -1.079673 2.872903 0.041147 -0.020508 -193798.000000 0 0 1
3.001538 -5.337289 -23.070962 23.869754 -1.058505 2.882159 0.031924 -0.024953 -260445.000000 0 1 0
3.840638 -4.232389 -22.925462 23.627112 -0.833886 2.897277 0.025729 -0.017499 -190325.000000 0 1 0
3.741438 -3.671389 -21.659762 22.285034 -0.775949 2.904147 0.024710 -0.016372 -257200.000000 0 1 0
4.660338 -2.448689 -21.477862 22.113647 -0.483785 2.901219 0.029228 -0.012298 -114457.000000 0 1 0
5.999738 -2.838889 -21.263262 22.275153 -0.441953 2.839020 0.028674 -0.007223 -697312.000000 0 1 0
6.650938 -1.760189 -20.629662 21.746636 -0.258721 2.819695 0.035695 -0.007040 49000.100000 0 1 0
8.046038 -2.280189 -20.176962 21.841423 -0.276152 2.748668 0.039356 -0.011340 -548390.000000 0 1 0
8.839338 -2.521589 -21.319362 23.216535 -0.277888 2.734519 0.048091 -0.017348 46756.100000 0 1 0
10.073038 -3.185489 -21.154262 23.645638 -0.306288 2.678414 0.044743 -0.017702 1075550.000000 0 1 0
11.244538 -2.488089 -20.363862 23.394809 -0.217762 2.626899 0.050489 -0.020816 -119458.000000 0 1 0
11.047338 -2.512189 -18.971062 22.096514 -0.223600 2.603240 0.039681 -0.015640 249379.000000 0 1 0
12.133238 -1.918689 -18.267062 22.013232 -0.156836 2.549585 0.043667 -0.019628 60040.000000 0 1 0
12.303438 -0.348189 -18.391262 22.129942 -0.028293 2.551803 0.034303 -0.017083 -4255.140000 0 1 0
12.854538 0.064311 -19.633662 23.467508 0.005003 2.561901 0.041364 -0.017673 118594.000000 0 1 0
12.827238 1.479611 -19.692962 23.548673 0.114842 2.561234 0.050404 -0.025328 -68700.200000 0 1 0
13.166738 2.076211 -21.056962 24.921261 0.156398 2.577249 0.046502 -0.018960 115208.000000 0 1 0
14.548238 2.012011 -21.372662 25.932413 0.137428 2.539528 0.044907 -0.012919 225486.000000 0 0 1
14.738938 3.023011 -22.330262 26.926111 0.202298 2.548679 0.045798 -0.018095 -636686.000000 0 0 1
16.189938 3.408011 -22.657862 28.055433 0.207473 2.510885 0.041869 -0.012247 -73131.700000 0 0 1
16.899438 2.682811 -23.640462 29.183212 0.157438 2.515069 0.035412 -0.017672 138327.000000 0 0 1
17.167138 1.301011 -23.363262 29.021462 0.075640 2.506529 0.037543 -0.013903 -711414.000000 0 0 1
9.084638 27.498811 3.392342 29.158587 1.251720 1.454191 -0.015600 -0.002277 187555.000000 0 0 1
9.092038 27.651811 4.811242 29.503150 1.253127 1.406989 -0.015919 0.003317 644867.000000 0 0 1
10.447638 27.810111 5.242442 30.166846 1.211432 1.396128 -0.004040 0.003966 430984.000000 0 0 1
10.502238 28.479311 6.687742 31.082053 1.217501 1.353936 -0.002722 -0.004725 22293.200000 0 0 1
10.315838 27.417311 7.701942 30.289360 1.210928 1.313694 -0.012172 -0.001005 106433.000000 0 0 1
10.282738 27.980111 9.008342 31.141155 1.218616 1.277327 -0.004947 -0.001883 -422104.000000 0 0 1
10.292738 26.980911 10.120042 30.599432 1.206355 1.233723 0.005959 -0.000525 170778.000000 0 0 1
11.507138 26.361411 10.538042 30.633128 1.159213 1.219614 0.026867 -0.002407 167661.000000 0 0 1
12.071838 25.374311 9.732442 29.737272 1.126736 1.237372 0.021456 -0.004503 -194587.000000 0 0 1
13.381638 24.849011 10.349442 30.060814 1.076811 1.219321 0.042557 -0.011607 61052.500000 0 0 1
14.504938 25.711611 10.292442 31.263629 1.057162 1.235325 0.055442 -0.014893 247884.000000 0 0 1
15.669838 24.980311 10.656242 31.354668 1.010554 1.224027 0.071265 -0.014692 -80743.100000 0 0 1
16.873638 25.880511 10.922042 32.769063 0.993029 1.230991 0.067514 -0.018955 -1155580.000000 0 0 1
17.346738 26.575311 9.771542 33.206016 0.992498 1.272104 0.057180 -0.020071 1715670.000000 0 0 1
18.806438 26.506811 9.630342 33.897442 0.953727 1.282726 0.057677 -0.026210 2232950.000000 0 0 1
19.624538 27.299811 10.730742 35.292364 0.947529 1.261852 0.054254 -0.027813 -740802.000000 0 0 1
19.664738 28.729211 10.771642 36.443075 0.970559 1.270740 0.054558 -0.036908 -1014600.000000 0 0 1
18.455638 29.357311 10.958142 36.366786 1.009573 1.264717 0.047758 -0.020369 -1073240.000000 0 0 1
18.480738 30.890211 11.153842 37.684891 1.031649 1.270319 0.050452 -0.002487 -585596.000000 0 0 1
18.664138 31.719411 9.995742 38.136412 1.038940 1.305594 0.058180 -0.027818 -226495.000000 0 0 1
17.602638 31.762711 9.094742 37.435771 1.064740 1.325398 0.061959 -0.028953 695177.000000 0 0 1
16.303938 32.564911 9.556742 37.651336 1.106621 1.314167 0.061674 -0.025594 663494.000000 0 0 1
16.507638 33.983511 9.650942 38.993869 1.118610 1.320698 0.051117 -0.025082 -427636.000000 0 0 1
15.345438 -34.250803 10.124542 38.872951 -1.149581 1.307306 0.060838 -0.013576 -295603.000000 0 0 1
15.537438 -32.762703 10.273142 37.687453 -1.127967 1.294715 0.057462 -0.010945 132193.000000 0 0 1
15.895538 -32.056803 9.097642 36.919830 -1.110470 1.321816 0.043160 -0.007904 60624.000000 0 0 1
16.131638 -30.714903 9.239142 35.902601 -1.087188 1.310529 0.025549 -0.004074 -56673.400000 0 0 1
16.710038 -30.156903 7.900142 35.370558 -1.064808 1.345543 0.024809 0.002231 305064.000000 0 0 1
15.836738 -30.394603 6.795042 34.940045 -1.090460 1.375072 0.026936 0.003636 -12278.900000 0 0 1
16.484438 -29.958603 5.627042 34.654266 -1.067768 1.407698 0.018660 0.015554 -250273.000000 0 0 1
15.937338 -30.350803 4.263542 34.544866 -1.087268 1.447060 0.023240 0.005526 -388345.000000 0 0 1
16.070738 -31.712303 3.844742 35.759206 -1.101750 1.463071 0.022842 -0.001710 -67722.800000 0 0 1
15.869338 -31.840503 2.475042 35.662015 -1.108429 1.501338 0.023467 -0.005472 -356430.000000 0 0 1
16.332438 -33.223003 1.950642 37.071842 -1.113891 1.518154 0.015625 -0.011087 204932.000000 0 0 1
17.749638 -33.356203 1.876242 37.831286 -1.081781 1.521181 0.028905 -0.000720 512957.000000 0 0 1
18.093738 34.188311 1.419542 38.707093 1.084033 1.534114 0.052205 -0.009170 -429247.000000 0 0 1
19.586138 33.885911 1.585042 39.171215 1.046709 1.530321 0.067513 -0.008665 -279947.000000 0 0 1
19.816438 33.643111 2.975542 39.158702 1.038490 1.494736 0.055958 -0.025915 176474.000000 0 0 1
21.157538 33.291511 3.245742 39.579047 1.004665 1.488698 0.037855 -0.015422 -336075.000000 0 0 1
21.476738 33.128911 4.754742 39.766601 0.995633 1.450943 0.047704 -0.014932 -311263.000000 0 0 1
20.905138 31.995511 5.456542 38.607141 0.992051 1.428986 0.057658 -0.026670 84481.500000 0 0 1
21.775938 30.882911 5.532942 38.191087 0.956647 1.425409 0.040150 -0.030923 -182323.000000 0 0 1
21.235938 29.772911 6.460442 37.136620 0.951224 1.395943 0.057041 -0.042308 -216883.000000 0 0 1
20.231738 29.007511 5.876542 35.850978 0.961773 1.406137 0.065280 -0.036929 -502745.000000 0 0 1
19.300838 28.609911 6.861242 35.187014 0.977307 1.374545 0.064000 -0.043252 1312450.000000 0 0 1
17.777938 28.868411 6.470042 34.515238 1.018821 1.382226 0.071353 -0.031986 993907.000000 0 0 1
17.387538 30.215611 6.440242 35.451182 1.048625 1.388117 0.060221 -0.036141 -23693.900000 0 0 1
17.740738 31.033211 5.319242 36.139843 1.051469 1.423075 0.061934 -0.037806 -459504.000000 0 0 1
17.500238 32.530111 5.479942 37.342954 1.077236 1.423518 0.052303 -0.034630 64675.200000 0 0 1
16.160838 32.957711 5.349742 37.094516 1.114898 1.426072 0.055740 -0.027376 -113830.000000 0 0 1
16.106338 34.338611 5.435742 38.315814 1.132218 1.428449 0.045212 -0.029789 -557743.000000 0 0 1
14.722938 -33.847903 5.647242 37.340819 -1.160509 1.418979 0.038080 -0.025977 -519727.000000 0 0 1
13.832238 -34.011703 4.584342 37.001931 -1.184536 1.446582 0.042452 -0.025019 -764400.000000 0 0 1
12.935538 -32.956503 4.591242 35.700682 -1.196769 1.441835 0.036236 -0.014637 -462238.000000 0 0 1
12.032438 -32.932203 3.314142 35.217795 -1.220495 1.476553 0.035566 -0.010348 131124.000000 0 0 1
11.103238 -31.855503 3.424042 33.908391 -1.235414 1.469645 0.043253 -0.012843 71035.900000 0 0 1
10.397538 -31.851303 2.172142 33.575772 -1.255263 1.506057 0.037172 -0.008322 -926345.000000 0 0 1
9.632438 -30.548503 2.050742 32.096735 -1.265348 1.506860 0.048289 -0.008069 -122645.000000 0 0 1
9.050238 -30.243603 0.756742 31.577761 -1.280033 1.546830 0.048664 -0.002357 444539.000000 0 0 1
7.958238 -31.088403 0.412742 32.093499 -1.320190 1.557935 0.046943 -0.009871 -364228.000000 0 0 1
8.248938 -31.802403 -0.977058 32.869324 -1.317008 1.600526 0.050044 -0.010337 -675333.000000 0 0 1
9.164738 -32.813003 -0.909958 34.080986 -1.298435 1.597499 0.041201 -0.012666 -697495.000000 0 0 1
9.297738 -33.535603 -2.087758 34.863209 -1.300340 1.630716 0.036542 -0.006798 657501.000000 0 0 1
10.570238 34.333211 -1.947058 35.976247 1.272133 1.624943 0.034061 -0.015722 660632.000000 0 0 1
10.484638 33.397311 -0.895958 35.015864 1.266603 1.596386 0.032310 -0.016889 -411942.000000 0 0 1
11.665138 32.666111 -0.808558 34.695879 1.227809 1.594103 0.040740 -0.018543 -804444.000000 0 0 1
11.855438 31.778311 0.427242 33.920421 1.213721 1.558201 0.038290 -0.017849 -563737.000000 0 0 1
12.248038 32.483211 1.622742 34.753514 1.210223 1.524086 0.029482 -0.015163 -91952.100000 0 0 1
13.494138 33.117811 1.661642 35.800031 1.183877 1.524365 0.033895 -0.016506 -195514.000000 0 0 1
14.769838 32.214511 1.732142 35.481307 1.140910 1.521958 0.046505 -0.022145 -394558.000000 0 0 1
15.213238 31.751211 0.503342 35.211296 1.123976 1.556501 0.044056 -0.020055 38968.100000 0 0 1
16.193438 30.742611 0.707142 34.753929 1.085984 1.550448 0.053725 -0.016308 -130618.000000 0 0 1
16.684238 30.155911 -0.618258 34.469189 1.065449 1.588734 0.050902 -0.008712 448455.000000 0 0 1
17.614038 30.949111 -1.398858 35.637881 1.053385 1.610058 0.044785 -0.007523 652927.000000 0 0 1
17.071838 32.155011 -1.891158 36.455025 1.082717 1.622696 0.048827 -0.009307 -140816.000000 0 0 1
18.102038 32.902011 -2.793158 37.656710 1.067815 1.645039 0.036375 0.002578 209481.000000 0 0 1
19.099038 33.491011 -1.979558 38.604918 1.052521 1.622096 0.034321 0.006504 -237857.000000 0 0 1
20.026938 34.158411 -2.789858 39.694566 1.040514 1.641137 0.040368 0.015686 -1055290.000000 0 0 1
21.101338 -33.892803 -1.994958 39.974597 -1.013932 1.620723 0.039499 0.017023 -976645.000000 0 0 1
21.948738 34.152911 -1.119158 40.613063 0.999598 1.598356 0.032067 0.012114 950528.000000 0 0 1
22.874738 33.253011 -1.760858 40.399468 0.968238 1.614396 0.026658 0.014183 310168.000000 0 0 1
23.863838 33.874711 -2.806358 41.531367 0.957074 1.638420 0.028424 0.013902 -981371.000000 0 0 1
23.225138 34.323511 -3.976258 41.633173 0.975911 1.666449 0.027141 0.002198 -186084.000000 0 0 1
24.116938 -33.666603 -4.675558 41.676464 -0.949184 1.683220 0.029244 0.003529 -43322.400000 0 0 1
23.457438 -33.163903 -5.975858 41.058577 -0.955176 1.716860 0.040049 -0.006394 -788944.000000 0 0 1
22.418938 -32.301903 -5.718358 39.733126 -0.964079 1.715217 0.042848 -0.005804 -549618.000000 0 0 1
21.810638 -31.895703 -6.943358 39.258757 -0.971018 1.748593 0.042944 -0.014989 120954.000000 0 0 1
20.777538 -30.757403 -6.738858 37.724476 -0.976683 1.750394 0.051573 -0.016924 546342.000000 0 0 1
19.588538 -31.068803 -6.024958 37.219369 -1.008260 1.733389 0.053487 -0.015324 627241.000000 0 0 1
18.759338 -29.883003 -5.892958 35.771966 -1.010215 1.736287 0.048229 -0.019274 278984.000000 0 0 1
17.545338 -29.940503 -4.984358 35.058757 -1.040729 1.713451 0.037631 -0.009711 430040.000000 0 0 1
16.515938 -30.855103 -5.442858 35.418050 -1.079329 1.725082 0.031833 -0.013636 481058.000000 0 0 1
15.401438 -30.788003 -4.573158 34.727787 -1.106956 1.702866 0.017897 -0.007691 -76536.000000 0 0 1
14.178038 -31.585903 -5.003558 34.981733 -1.148881 1.714322 0.009317 -0.004830 -311941.000000 0 0 1
14.372338 -32.973803 -4.911858 36.303748 -1.159754 1.706511 0.013250 -0.000263 -609353.000000 0 0 1
13.135238 -33.584303 -5.120958 36.423400 -1.197975 1.711859 0.019925 0.003868 -527574.000000 0 0 1
13.180838 33.723811 -5.220458 36.582552 1.198206 1.713989 0.024647 -0.000811 -201788.000000 0 0 1
13.298138 33.114411 -3.972458 35.905224 1.188927 1.681661 0.039242 -0.011858 149657.000000 0 0 1
13.801038 31.757211 -4.084958 34.866545 1.160840 1.688226 0.040296 -0.010732 386137.000000 0 0 1
12.773238 30.618011 -4.420958 33.468837 1.175567 1.703275 0.038702 -0.012574 304075.000000 0 0 1
11.802638 30.281311 -3.439758 32.681677 1.199143 1.676242 0.033828 -0.016136 103659.000000 0 0 1
11.900338 28.954711 -3.021458 31.450318 1.180845 1.667016 0.037600 -0.018662 -402909.000000 0 0 1
10.726638 28.539411 -2.136958 30.563464 1.211278 1.640772 0.030549 -0.012414 -381374.000000 0 0 1
10.614538 29.149011 -0.862858 31.033494 1.221574 1.598604 0.027064 -0.011893 -152455.000000 0 0 1
9.652938 28.512911 -0.038658 30.102604 1.244362 1.572081 0.010269 -0.002721 546045.000000 0 0 1
8.279338 29.275411 -0.026658 30.423639 1.295185 1.571673 -0.006519 0.003852 439594.000000 0 0 1
7.318938 28.714011 0.833942 29.643831 1.321220 1.542661 -0.011002 -0.001433 164202.000000 0 0 1
6.118538 29.488511 0.881242 30.129477 1.366210 1.541544 -0.000079 0.006484 800660.000000 0 0 1
4.992438 28.910811 1.791842 29.393369 1.399799 1.509798 0.000952 0.004065 350319.000000 0 0 1
4.591238 27.682711 1.239242 28.088212 1.406440 1.526662 -0.001387 -0.000651 -117293.000000 0 0 1
3.235638 27.350811 1.467242 27.580591 1.453042 1.517573 0.008268 -0.002766 186668.000000 0 0 1
2.779138 26.154411 0.586442 26.308187 1.464935 1.548503 0.008205 -0.004272 -230928.000000 0 0 1
1.517138 25.697711 1.001142 25.761916 1.511827 1.531925 0.016367 -0.008688 -166778.000000 0 0 1
0.989738 24.739011 0.054742 24.758862 1.530810 1.568585 0.005409 -0.004516 17310.200000 0 1 0
-0.291862 24.054611 0.560942 24.062920 -1.558664 1.547483 0.013622 -0.003381 653744.000000 0 1 0
-1.411062 24.967611 0.588942 25.014387 -1.514341 1.547250 0.023196 -0.011076 187888.000000 0 0 1
-2.544962 24.292311 1.077742 24.449023 -1.466413 1.526701 0.023792 -0.006044 -392862.000000 0 1 0
-3.759462 25.209011 1.308342 25.521355 -1.422756 1.519509 0.043471 -0.018452 -544450.000000 0 0 1
-4.799762 24.405111 1.835042 24.940219 -1.376604 1.497152 0.030198 -0.013485 1264810.000000 0 1 0
-6.008662 25.075711 2.330342 25.890650 -1.335610 1.480667 0.022508 -0.011817 1258940.000000 0 0 1
-6.995062 25.630611 1.313242 26.600446 -1.304367 1.521407 0.033696 -0.014671 -914723.000000 0 0 1
-6.625262 26.821711 0.704342 27.636830 -1.328633 1.545308 0.037751 -0.014946 -174448.000000 0 0 1
-7.437762 27.001011 -0.416458 28.009790 -1.302000 1.585665 0.035078 -0.006475 -149835.000000 0 0 1
-6.952662 28.106911 -1.413758 28.988561 -1.328299 1.619585 0.036596 -0.001861 -7260.680000 0 0 1
-7.384362 29.360011 -0.990858 30.290606 -1.324396 1.603514 0.050084 -0.018643 79133.800000 0 0 1
-7.224562 30.308411 -2.050658 31.224978 -1.336795 1.636517 0.046368 -0.013889 -273889.000000 0 0 1
-7.353362 31.775911 -1.534158 32.651709 -1.343386 1.617799 0.035917 -0.013103 -516868.000000 0 0 1
-7.387962 32.843511 -2.504258 33.757214 -1.349535 1.645049 0.033862 -0.000959 236578.000000 0 0 1
-6.300362 33.019011 -3.411758 33.787420 -1.382253 1.671946 0.023162 -0.000865 1003.830000 0 0 1
-4.956462 33.451811 -2.811058 33.933644 -1.423699 1.653731 0.028297 -0.004324 -832703.000000 0 0 1
-4.812562 -34.002003 -2.569558 34.436893 1.430193 1.645482 0.034773 0.000539 400710.000000 0 0 1
-3.937162 -33.681103 -1.477258 33.942602 1.454429 1.614332 0.026695 -0.003432 294159.000000 0 0 1
-3.832962 -32.132003 -1.418358 32.390877 1.452069 1.614599 0.024045 -0.002227 456723.000000 0 0 1
-5.139962 -31.694603 -1.066258 32.126375 1.410024 1.603992 0.037304 -0.001832 404328.000000 0 0 1
-5.416962 -30.386403 -1.500358 30.901910 1.394380 1.619368 0.043717 0.002489 -40452.200000 0 0 1
-6.880662 -29.935203 -1.335558 30.744814 1.344869 1.614250 0.071178 -0.004311 62354.600000 0 0 1
-7.226062 -29.342403 -0.077158 30.219175 1.329334 1.573350 0.061304 -0.003866 -961759.000000 0 0 1
-8.419562 -28.670803 -0.017658 29.881504 1.285163 1.571387 0.053853 -0.006621 -855694.000000 0 0 1
-8.443062 -27.788603 1.271642 29.070755 1.275828 1.527039 0.046913 -0.000887 51137.500000 0 0 1
-7.420362 -26.820303 1.340242 27.860127 1.300879 1.522672 0.049849 -0.007092 -330209.000000 0 0 1
-7.067962 -26.471503 2.687642 27.530346 1.309880 1.473016 0.045614 -0.000582 -46980.500000 0 0 1
-8.050262 -25.551503 3.428142 27.008113 1.265581 1.443523 0.031914 0.000448 57370.100000 0 0 1
-7.927262 -24.195603 2.979442 25.634854 1.254185 1.454307 0.033788 -0.006314 39595.400000 0 0 1
-8.942462 -23.341903 3.514142 25.242053 1.204937 1.431125 0.027908 -0.008151 74070.600000 0 0 1
-8.410162 -21.936403 3.761842 23.792605 1.204692 1.412020 0.014961 0.004878 176017.000000 0 1 0
-7.474362 -21.920103 4.834642 23.658630 1.242178 1.364997 0.007130 0.006036 -251445.000000 0 1 0
-6.891062 -20.656703 5.120542 22.369758 1.248806 1.339844 -0.003155 0.004769 -367631.000000 0 1 0
-7.722362 -19.559203 5.744842 21.799094 1.194764 1.304111 -0.000275 -0.000426 -370040.000000 0 1 0
-8.119762 -20.038503 7.043042 22.739318 1.185808 1.255888 -0.000084 0.000430 -244462.000000 0 1 0
-8.833462 -19.054203 7.690142 22.365844 1.136693 1.219799 -0.004096 -0.000791 -717525.000000 0 1 0
-26.800362 29.255411 -5.681958 40.080209 -0.829167 1.713040 0.050884 -0.001492 22174.000000 0 0 1
-25.924902 30.213711 -5.087058 40.135359 -0.861647 1.697886 0.053539 -0.013152 1190640.000000 0 0 1
-24.931162 29.464511 -4.271458 38.832533 -0.868546 1.681016 0.038797 -0.011730 948374.000000 0 0 1
-23.941662 30.346011 -3.524958 38.813772 -0.902826 1.661739 0.027088 -0.017854 -712322.000000 0 0 1
-24.566462 31.061911 -2.494858 39.680949 -0.901637 1.633711 0.019590 -0.027830 -164888.000000 0 0 1
-23.863462 32.158511 -1.984158 40.094532 -0.932398 1.620304 0.016704 -0.025546 -668783.000000 0 0 1
-22.661362 31.812611 -1.115858 39.074604 -0.951837 1.599357 0.016747 -0.019007 -405205.000000 0 0 1
-21.561162 31.211211 -1.759558 37.975248 -0.966262 1.617147 0.018895 -0.026291 -525847.000000 0 0 1
-20.520962 30.962511 -0.865258 37.155560 -0.985498 1.594086 0.018175 -0.015586 -241040.000000 0 0 1
-19.279262 30.351911 -1.550858 35.990743 -1.004902 1.613900 0.031522 -0.016856 -382950.000000 0 0 1
-18.174362 30.187111 -0.718958 35.243240 -1.028866 1.591198 0.029421 -0.011962 -140911.000000 0 0 1
-17.317162 29.153811 -1.262558 33.932622 -1.034805 1.608013 0.021846 -0.005388 707867.000000 0 0 1
-15.801562 29.385411 -0.989758 33.379205 -1.077418 1.600453 0.025544 -0.001882 264506.000000 0 0 1
-15.533962 28.975011 0.319642 32.877917 -1.078675 1.561074 0.024817 -0.013507 -617325.000000 0 0 1
-14.393962 29.580611 0.822342 32.907065 -1.117925 1.545804 0.034913 -0.016440 -614356.000000 0 0 1
-13.954262 28.868111 2.104142 32.132797 -1.120533 1.505267 0.031875 -0.019196 -141521.000000 0 0 1
-14.890862 28.975911 3.172442 32.732332 -1.096087 1.473723 0.024876 -0.019049 78142.600000 0 0 1
-14.488562 28.241911 4.360242 32.039595 -1.096790 1.434284 0.031103 -0.025714 612016.000000 0 0 1
-13.265162 28.808411 5.185342 32.136845 -1.139277 1.408736 0.037143 -0.022436 644460.000000 0 0 1
-13.449962 29.982611 5.922942 33.390712 -1.149114 1.392470 0.032513 -0.019109 -365317.000000 0 0 1
-13.609962 31.137811 5.090442 34.361416 -1.158732 1.422105 0.034965 -0.010845 -213044.000000 0 0 1
-13.329562 32.430711 5.924342 35.560175 -1.180829 1.403415 0.044046 -0.012949 148277.000000 0 0 1
-14.347262 32.783711 6.854042 36.436157 -1.158274 1.381558 0.050937 -0.016686 101496.000000 0 0 1
-14.069162 33.982911 7.505642 37.538170 -1.178274 1.369493 0.052809 -0.016402 237818.000000 0 0 1
-15.219162 -34.324403 8.426542 38.481088 1.153451 1.350029 0.042109 -0.011536 326342.000000 0 0 1
-15.348262 33.772511 9.632942 38.326821 -1.144239 1.316735 0.039534 -0.007797 391686.000000 0 0 1
-16.598562 34.083911 10.249642 39.271878 -1.117610 1.306747 0.056242 -0.010842 -108736.000000 0 0 1
-16.859462 33.448711 11.646642 39.226292 -1.103923 1.269342 0.069764 -0.010677 -125055.000000 0 0 1
-16.124262 33.890811 12.781942 39.647912 -1.126719 1.242547 0.086204 -0.018705 172543.000000 0 0 1
-14.786962 33.414211 12.687042 38.679772 -1.154168 1.236609 0.079670 -0.012914 -476932.000000 0 0 1
-13.875762 33.547711 13.869342 38.863148 -1.178610 1.205874 0.090009 -0.017780 -553692.000000 0 0 1
-14.126062 32.745311 15.049342 38.707670 -1.163524 1.171473 0.085065 -0.011100 -139685.000000 0 0 1
-13.754062 31.385411 15.055542 37.428433 -1.157772 1.156825 0.075584 -0.003799 270362.000000 0 0 1
-14.660762 30.350511 14.259742 36.598247 -1.120802 1.170568 0.084136 -0.005851 505727.000000 0 0 1
-14.244462 30.262111 12.941542 35.863401 -1.130860 1.201610 0.073228 -0.004539 -76336.800000 0 0 1
-15.253762 29.663411 12.196142 35.515364 -1.095831 1.220257 0.036885 -0.009738 -230608.000000 0 0 1
-14.967962 29.573311 10.694742 34.828122 -1.102256 1.258681 0.017604 -0.003381 154611.000000 0 0 1
-14.026862 28.589211 10.310142 33.472300 -1.114669 1.257685 0.006161 -0.004574 170135.000000 0 0 1
-14.361762 28.130811 9.030142 32.850360 -1.098756 1.292324 0.023476 -0.002541 -384169.000000 0 0 1
-13.802562 26.769511 8.580842 31.316901 -1.094741 1.293246 0.024999 -0.011409 -108047.000000 0 0 1
-12.500262 26.979411 8.089642 30.815377 -1.136916 1.305164 0.028612 -0.013623 -250144.000000 0 0 1
-11.728862 25.824511 8.061142 29.486498 -1.144475 1.293887 0.027215 -0.020741 20352.800000 0 0 1
-10.378062 26.013711 7.329042 28.950512 -1.191199 1.314854 0.039529 -0.028629 14021.300000 0 0 1
-10.662962 26.320011 5.946242 29.013782 -1.185877 1.364388 0.039101 -0.024252 842417.000000 0 0 1
-9.517762 26.190611 5.089242 28.327306 -1.222231 1.390157 0.050347 -0.021067 151793.000000 0 0 1
-9.805262 26.576311 3.634242 28.559607 -1.217343 1.443199 0.045479 -0.017970 -92041.100000 0 0 1
-9.763262 27.945511 3.377742 29.793993 -1.234685 1.457182 0.051199 -0.017937 15678.100000 0 0 1
-10.211962 28.355011 2.102542 30.211115 -1.225111 1.501145 0.052033 -0.018318 -169893.000000 0 0 1
-9.919262 29.806711 1.673142 31.458404 -1.249538 1.517585 0.068744 -0.020977 52296.400000 0 0 1
-10.746562 30.761911 2.269542 32.663964 -1.234704 1.501259 0.057245 -0.025387 24900.300000 0 0 1
-10.216462 32.043411 2.019642 33.693252 -1.262153 1.510818 0.058780 -0.022207 127209.000000 0 0 1
-11.060462 33.082211 2.816742 34.995722 -1.248147 1.490221 0.055610 -0.011601 207756.000000 0 0 1
-12.323262 33.501611 2.368442 35.774715 -1.218317 1.504544 0.053991 -0.013364 -212782.000000 0 0 1
-12.328562 34.289111 1.157242 36.456491 -1.225641 1.539048 0.050456 -0.005804 -992124.000000 0 0 1
-13.784162 -34.160903 0.922742 36.848634 1.187270 1.545752 0.048215 -0.006278 -150363.000000 0 0 1
-14.528962 33.628211 0.193742 36.633111 -1.162972 1.565508 0.040323 -0.003548 150263.000000 0 0 1
-14.571362 33.689111 -1.235458 36.726110 -1.162570 1.604442 0.035949 -0.003733 -875355.000000 0 0 1
-13.320762 33.318811 -1.984258 35.937768 -1.190465 1.626038 0.047551 -0.004091 -924002.000000 0 0 1
-13.019162 31.933511 -2.055158 34.546655 -1.183673 1.630321 0.041736 -0.007778 922434.000000 0 0 1
-11.603562 31.745611 -2.257858 33.875129 -1.220365 1.637498 0.039944 -0.001391 907121.000000 0 0 1
-11.227062 30.284511 -2.549958 32.399086 -1.215784 1.649582 0.021054 -0.009806 -185627.000000 0 0 1
-11.433562 29.716211 -3.802658 32.066177 -1.203498 1.689664 0.022348 -0.007153 -312013.000000 0 0 1
-10.397062 29.901911 -4.737858 32.010474 -1.236167 1.719352 0.017244 -0.005425 -126153.000000 0 0 1
-10.670262 29.205511 -6.100458 31.686463 -1.220512 1.764532 0.014843 -0.007943 -126839.000000 0 0 1
-10.841762 27.786211 -5.980458 30.420112 -1.198780 1.768681 0.018469 -0.001646 100836.000000 0 0 1
-10.879362 27.215611 -7.294058 30.203531 -1.190508 1.814704 0.007562 -0.002759 -188399.000000 0 0 1
-11.265962 25.736511 -7.247058 29.013958 -1.158182 1.823248 0.027064 -0.008457 198496.000000 0 0 1
-10.451262 24.852811 -6.459558 27.723942 -1.172721 1.805953 0.017684 -0.002676 6072.930000 0 0 1
-10.882462 23.521611 -6.523658 26.725499 -1.137466 1.817386 0.035658 -0.014248 -431327.000000 0 0 1
-10.217462 22.478611 -5.610758 25.321238 -1.144172 1.794234 0.032360 -0.012132 -17772.100000 0 0 1
-8.862862 22.234711 -6.012558 24.679618 -1.191493 1.816897 0.031522 -0.006674 503698.000000 0 1 0
-8.239562 21.134511 -5.409258 23.319906 -1.199059 1.804887 0.034357 -0.006244 -238294.000000 0 1 0
-8.188162 21.049611 -3.806958 22.904695 -1.199814 1.737780 0.028360 -0.012925 1084180.000000 0 1 0
-9.464862 20.872911 -3.094258 23.126531 -1.145075 1.704996 0.035387 -0.016309 1623030.000000 0 1 0
-10.216262 19.671611 -3.211158 22.397674 -1.091796 1.714662 0.041748 -0.018979 -44790.700000 0 1 0
-11.603762 19.696511 -2.540858 23.001213 -1.038409 1.681489 0.038147 -0.016511 -177393.000000 0 1 0
-11.613462 19.634911 -1.167958 22.842205 -1.036672 1.621950 0.048989 -0.017720 191199.000000 0 1 0
-11.497862 18.283911 -0.730658 21.611018 -1.009432 1.604612 0.046587 -0.025304 -503310.000000 0 1 0
-11.153362 18.209211 0.772242 21.367480 -1.021228 1.534647 0.049172 -0.024532 -457881.000000 0 1 0
-12.217462 18.414711 1.651542 22.160676 -0.985016 1.496201 0.058574 -0.020304 -340367.000000 0 1 0
-11.828462 18.397111 2.993142 22.075441 -0.999392 1.434790 0.046463 -0.022252 250926.000000 0 1 0
-13.045862 18.453811 3.971242 22.945771 -0.955423 1.396850 0.052181 -0.018494 719788.000000 0 1 0
-13.776362 17.208911 4.043042 22.411625 -0.895728 1.389404 0.038165 -0.012643 705311.000000 0 1 0
-14.965662 17.359211 4.806942 23.418367 -0.859310 1.364063 0.048376 -0.013818 336553.000000 0 1 0
-15.557362 16.044211 5.396742 22.990716 -0.800803 1.333850 0.035249 -0.001971 -206161.000000 0 1 0
-14.751462 15.423711 6.373142 22.273604 -0.807673 1.280611 0.038767 -0.003804 -116201.000000 0 1 0
-15.074062 15.889911 7.647342 23.199104 -0.811740 1.234875 0.020831 -0.000653 -1053100.000000 0 1 0
-14.018362 15.865011 8.770842 22.915949 -0.847115 1.178036 0.022468 0.005764 -134786.000000 0 1 0
-12.915362 16.704311 8.609342 22.802661 -0.912627 1.183638 0.033896 -0.014062 -758116.000000 0 1 0
-11.922162 16.200611 7.794342 21.571961 -0.936375 1.201115 0.030592 -0.010316 -1133680.000000 0 1 0
-10.699862 17.115311 7.578342 21.560431 -1.012080 1.211631 0.033756 -0.021126 -24019.600000 0 1 0
-9.798962 17.206211 8.659842 21.611715 -1.053104 1.158514 0.041334 -0.016693 -202023.000000 0 1 0
-8.964662 18.332011 8.478242 22.097700 -1.115974 1.177028 0.036123 -0.022974 -87912.800000 0 1 0
-7.725362 18.419311 9.402642 22.076275 -1.173664 1.130822 0.031766 -0.017253 -157645.000000 0 1 0
-6.641562 17.664111 8.864642 20.849773 -1.211156 1.131650 0.019581 -0.014003 -6978.970000 0 1 0
-5.459562 17.873711 9.620942 21.019964 -1.274345 1.095384 0.022696 -0.010783 233626.000000 0 1 0
-4.516662 18.897011 9.009442 21.416519 -1.336183 1.136605 0.017965 -0.014031 -1327630.000000 0 1 0
-4.857262 20.208811 9.397542 22.810147 -1.334917 1.146160 0.023545 -0.016708 -35978.300000 0 1 0
-4.324062 21.144911 8.505242 23.197929 -1.369081 1.195404 0.023989 -0.024854 1209010.000000 0 1 0
-2.795662 21.566411 8.659642 23.407588 -1.441885 1.191841 0.027433 -0.022200 1145470.000000 0 1 0
-1.789862 20.608211 8.422442 22.334715 -1.484162 1.184132 0.017559 -0.009164 692982.000000 0 1 0
-0.568462 21.334311 8.120142 22.834462 -1.544157 1.207231 0.019736 -0.014530 272309.000000 0 1 0
0.694338 20.523011 8.109442 22.078023 1.536977 1.194683 0.020437 -0.004138 -755497.000000 0 1 0
1.035438 20.033511 9.357842 22.135557 1.519157 1.134317 0.015795 -0.003971 -330836.000000 0 1 0
2.208138 19.232111 9.270442 21.463715 1.456482 1.124184 0.007942 -0.014257 -182267.000000 0 1 0
2.863038 19.126111 10.614042 22.060439 1.422207 1.068848 -0.002410 -0.013990 -158641.000000 0 1 0
3.820038 18.068011 10.829242 21.408367 1.362439 1.040439 0.007895 -0.010812 444231.000000 0 1 0
4.640438 18.316011 11.948042 22.355438 1.322663 1.006930 0.003943 -0.002557 1115730.000000 0 1 0
6.124338 18.856111 11.653542 22.997075 1.256751 1.039397 0.009826 -0.007418 1511410.000000 0 1 0
7.010238 17.852711 11.205542 22.213214 1.196624 1.042047 0.002727 -0.000318 -90835.700000 0 1 0
7.536038 17.054111 12.237142 22.302067 1.154707 0.989988 -0.000377 0.006206 -195822.000000 0 1 0
8.852038 16.259211 11.893242 22.003857 1.072238 0.999757 0.001966 0.008891 -74731.800000 0 1 0
9.861338 17.104311 11.516242 22.856668 1.047805 1.042751 0.011961 0.001301 -1041600.000000 0 1 0
10.676738 16.519011 10.535942 22.313147 0.997005 1.079028 0.008615 -0.008108 116836.000000 0 1 0
11.784338 17.547211 10.144242 23.445274 0.979401 1.123336 0.013471 -0.003513 520402.000000 0 1 0
12.638338 17.127111 9.072642 23.138244 0.935075 1.167877 0.006489 0.002717 709330.000000 0 1 0
13.591638 18.178511 8.730742 24.319061 0.928784 1.203591 0.020100 0.010139 423981.000000 0 1 0
14.467738 17.728911 7.549142 24.096042 0.886343 1.252137 0.023833 0.001394 -186517.000000 0 1 0
15.638938 17.090011 7.997642 24.507287 0.829705 1.238370 0.036853 -0.004180 988538.000000 0 1 0
16.609738 16.747711 6.943142 24.588136 0.789534 1.284525 0.042997 -0.003936 6640.250000 0 1 0
18.009838 16.505011 7.419742 25.530809 0.741826 1.275922 0.041470 -0.005973 -1156110.000000 0 0 1
18.163738 15.450111 8.272242 25.239994 0.704843 1.236882 0.042243 -0.006518 -88108.000000 0 0 1
19.419738 15.600311 8.879342 26.445011 0.676764 1.228378 0.050986 -0.012978 -388267.000000 0 0 1
19.618438 14.533711 10.013042 26.388877 0.637599 1.181603 0.039954 -0.017674 -151229.000000 0 0 1
20.454838 13.480711 9.566242 26.299105 0.582709 1.198508 0.050716 -0.018020 409330.000000 0 0 1
20.642138 12.425011 10.466742 26.268449 0.541833 1.160967 0.052078 -0.022656 151872.000000 0 0 1
21.481338 11.262411 9.804242 26.161287 0.482889 1.186657 0.049710 -0.024811 141170.000000 0 0 1
22.873338 11.536311 9.668042 27.381510 0.467127 1.209928 0.034578 -0.021603 1001680.000000 0 0 1
23.608538 10.490511 9.040542 27.370518 0.418147 1.234173 0.048857 -0.020941 -206287.000000 0 0 1
23.761538 9.072011 9.747042 27.238151 0.364714 1.204837 0.060671 -0.026363 -283460.000000 0 0 1
22.576338 8.281311 9.592942 25.890069 0.351574 1.191221 0.058878 -0.024582 973269.000000 0 0 1
22.649638 6.915511 10.046842 25.724879 0.296335 1.169568 0.052838 -0.016867 -664097.000000 0 0 1
23.731438 6.093011 9.360442 26.228301 0.251320 1.205867 0.058427 -0.016269 -179910.000000 0 0 1
23.389938 5.930611 7.973942 25.413482 0.248321 1.251637 0.060233 -0.010685 1294290.000000 0 0 1
24.491338 5.357711 7.210642 26.086856 0.215367 1.290741 0.055344 -0.011305 774274.000000 0 0 1
24.109738 5.032011 5.753542 25.292367 0.205759 1.341306 0.070870 -0.025418 -397569.000000 0 0 1
23.241638 3.940611 5.680042 24.247990 0.167952 1.334351 0.065682 -0.011523 327035.000000 0 1 0
23.038838 3.652111 4.291942 23.718068 0.157212 1.388837 0.070038 -0.015318 -74902.100000 0 1 0
22.203138 2.382311 3.929942 22.673755 0.106887 1.396591 0.064120 -0.010034 -141280.000000 0 1 0
22.808038 1.148811 4.262642 23.231368 0.050326 1.386264 0.070813 -0.005726 167660.000000 0 1 0
22.057038 0.034411 3.811242 22.383915 0.001560 1.399696 0.052931 -0.007922 -284503.000000 0 1 0
22.675438 -1.320789 4.082942 23.077920 -0.058182 1.392940 0.057252 -0.009847 -643895.000000 0 1 0
22.568338 -1.687089 5.443742 23.276823 -0.074616 1.334741 0.057611 -0.009982 613617.000000 0 1 0
22.609338 -3.103889 5.542142 23.484710 -0.136431 1.332560 0.043593 -0.015342 -685809.000000 0 1 0
22.501038 -3.632989 7.018342 23.848531 -0.160077 1.272086 0.076195 -0.021484 -331077.000000 0 1 0
22.329338 -5.039489 7.052842 23.952836 -0.221970 1.271919 0.057392 -0.023944 454779.000000 0 1 0
22.025938 -5.397689 8.371942 24.173672 -0.240324 1.217146 0.067620 -0.022698 -12924.300000 0 1 0
22.057538 -6.913289 8.720842 24.705903 -0.303723 1.210036 0.082301 -0.028813 -295054.000000 0 1 0
20.980538 -7.617889 8.178142 23.771773 -0.348291 1.219594 0.103999 -0.039500 152708.000000 0 1 0
20.568338 -8.704889 8.990042 24.075973 -0.400360 1.188122 0.081680 -0.028125 -192624.000000 0 1 0
-26.099672 -33.353403 5.295642 42.681216 0.906806 1.446401 0.015771 -0.009899 -445632.000000 0 0 1
-26.763272 34.373211 5.748642 43.941293 -0.909236 1.439595 0.022720 -0.011399 -331881.000000 0 0 1
-26.918012 -34.381303 7.127742 44.243170 0.906553 1.408987 0.035398 -0.000902 -503229.000000 0 0 1
-27.777242 33.318511 7.666542 44.050814 -0.875849 1.395867 0.045904 -0.006220 -145669.000000 0 0 1
-29.154762 33.412011 7.341942 44.947377 -0.853337 1.406716 0.034868 -0.008321 11909.200000 0 0 1
-29.760652 32.188711 7.786342 44.524562 -0.824572 1.395015 0.040536 -0.003491 466028.000000 0 0 1
-31.308372 32.090211 7.755642 45.498855 -0.797730 1.399502 0.032106 -0.003199 397421.000000 0 0 1
-31.870512 32.342011 6.476842 45.865942 -0.792741 1.429110 0.026236 0.000126 -522468.000000 0 0 1
-33.260202 32.453711 6.569142 46.932270 -0.773126 1.430365 0.010088 0.004578 -528779.000000 0 0 1
-33.952372 32.303611 5.206842 47.152922 -0.760519 1.460146 0.006261 0.007456 -436297.000000 0 0 1
-33.631732 31.090111 4.547442 46.025728 -0.746148 1.471833 0.008378 -0.002571 487581.000000 0 0 1
-34.491582 30.844711 3.441242 46.399435 -0.729639 1.496563 0.011459 0.002179 -6908.320000 0 0 1
-34.013132 29.611911 2.721942 45.179280 -0.716334 1.510512 0.021100 -0.009996 52830.000000 0 0 1
-34.491095 28.448211 3.373842 44.836583 -0.689680 1.495478 0.032061 -0.016128 396355.000000 0 0 1
-33.913042 27.307011 2.809342 43.630948 -0.677908 1.506363 0.032656 -0.016684 -425493.000000 0 0 1
-34.272995 26.091511 3.668142 43.230318 -0.650684 1.485843 0.041091 -0.013815 -1033560.000000 0 0 1
-35.614794 25.742111 3.629142 44.093543 -0.625860 1.488398 0.033385 -0.007613 -811672.000000 0 0 1
35.501920 24.675611 4.561042 43.474995 0.607396 1.465691 0.036597 -0.015645 -1122190.000000 0 0 1
34.055178 24.314111 4.388842 42.073662 0.620035 1.466293 0.048906 -0.016748 -1324410.000000 0 0 1
33.698028 23.567311 3.269042 41.251204 0.610301 1.491466 0.046312 -0.021078 99724.600000 0 0 1
34.250868 22.286111 3.273442 40.994001 0.576848 1.490860 0.042327 -0.021471 -1476160.000000 0 0 1
33.604718 21.451211 2.188042 39.927672 0.568134 1.515969 0.049920 -0.021723 -576128.000000 0 0 1
32.248308 21.130011 2.344142 38.625454 0.580042 1.510070 0.049890 -0.025162 32289.900000 0 0 1
31.936368 20.329411 3.466442 38.016217 0.566869 1.479486 0.045622 -0.018796 -939721.000000 0 0 1
32.282888 18.827211 3.291342 37.516418 0.527971 1.482953 0.051112 -0.022522 -488079.000000 0 0 1
31.617088 18.260611 2.171342 36.576015 0.523752 1.511396 0.058137 -0.030475 365760.000000 0 0 1
31.631628 16.827511 2.100442 35.890623 0.488906 1.512239 0.046122 -0.025631 -580517.000000 0 0 1
30.882578 16.062611 3.184442 34.955425 0.479613 1.479570 0.061876 -0.024776 314887.000000 0 0 1
29.459878 16.126511 2.972442 33.716230 0.500849 1.482521 0.058903 -0.019843 946016.000000 0 0 1
28.815038 15.259111 3.919942 32.840719 0.487010 1.451149 0.054613 -0.023250 -461841.000000 0 0 1
27.298948 15.325111 3.812642 31.537720 0.511539 1.449608 0.033557 -0.014569 -576274.000000 0 0 1
26.637798 14.638311 2.750842 30.519167 0.502484 1.480539 0.042868 -0.021009 605050.000000 0 0 1
25.394438 15.301011 2.489042 29.752205 0.542281 1.487039 0.017302 -0.006715 260299.000000 0 0 1
24.617938 14.569211 1.359442 28.638311 0.534378 1.523309 0.012964 -0.016326 -446102.000000 0 0 1
25.044238 14.836211 0.011342 29.108884 0.534813 1.570407 0.021661 -0.013455 637099.000000 0 0 1
26.305738 14.205911 -0.248958 29.897520 0.495157 1.579123 0.037194 -0.016458 -872366.000000 0 0 1
26.995828 14.806011 -1.451858 30.823701 0.501657 1.617916 0.050607 -0.020391 -249446.000000 0 0 1
27.413668 16.171011 -1.350558 31.856471 0.532951 1.613204 0.041107 -0.017100 374915.000000 0 0 1
28.328678 16.408711 -0.299158 32.739109 0.525005 1.579934 0.057579 -0.026360 -1019390.000000 0 0 1
29.033598 17.763811 -0.332858 34.038413 0.549077 1.580575 0.067215 -0.026207 -131704.000000 0 0 1
29.800108 17.866811 -1.525958 34.779274 0.540092 1.614686 0.059025 -0.024293 152572.000000 0 0 1
30.513828 19.089111 -1.588558 36.027925 0.559023 1.614903 0.048652 -0.018053 291485.000000 0 0 1
29.712118 20.235311 -2.243758 36.018220 0.597891 1.633132 0.040165 -0.010903 -86086.700000 0 0 1
30.598738 21.325311 -2.315658 37.368622 0.608666 1.632804 0.037350 -0.005017 236923.000000 0 0 1
30.108948 22.437511 -3.017258 37.670870 0.640429 1.650977 0.033791 -0.001683 -613431.000000 0 0 1
31.143778 23.558711 -3.000358 39.165672 0.647616 1.647478 0.038841 0.003238 -145435.000000 0 0 1
31.308138 24.038411 -1.673658 39.507541 0.654797 1.613172 0.029110 0.011299 48003.000000 0 0 1
32.350328 23.492711 -0.894058 39.990630 0.628092 1.593155 0.030014 0.009254 -344864.000000 0 0 1
32.726368 24.442911 0.252142 40.847700 0.641506 1.564624 0.037000 -0.002970 -38855.400000 0 0 1
33.256698 25.688411 -0.208058 42.023156 0.657701 1.575747 0.056442 -0.005132 830597.000000 0 0 1
34.166508 26.314111 0.749742 43.131714 0.656287 1.553413 0.047590 -0.008833 689277.000000 0 0 1
34.669578 27.743111 0.383642 44.405033 0.674872 1.562157 0.049246 -0.010000 115184.000000 0 0 1
35.540054 27.816011 -0.741358 45.137296 0.664082 1.587222 0.039402 -0.010067 -342663.000000 0 0 1
34.881798 27.863311 -1.951958 44.686844 0.674004 1.614491 0.027291 -0.008771 -727079.000000 0 0 1
35.492264 27.120411 -3.136858 44.777867 0.652478 1.640908 0.021767 0.001585 -102188.000000 0 0 1
-34.933783 27.975411 -3.739458 44.910760 -0.675236 1.654157 0.033271 0.002599 227495.000000 0 0 1
-34.436476 27.496611 -4.984458 44.348386 -0.673809 1.683428 0.029712 0.000445 -346108.000000 0 0 1
-35.369422 27.687411 -6.169558 45.339301 -0.664169 1.707295 0.023983 0.001869 -609168.000000 0 0 1
34.931818 26.830511 -6.096158 44.466519 0.654974 1.708325 0.018773 0.015637 -588280.000000 0 0 1
34.013408 27.156311 -7.128058 44.104267 0.673765 1.733127 0.016503 0.009388 -378749.000000 0 0 1
32.698068 26.410111 -7.020558 42.613916 0.679416 1.736299 0.029705 0.018006 -671938.000000 0 0 1
32.743908 25.022211 -7.342858 41.859194 0.652514 1.747127 0.021395 0.015325 364913.000000 0 0 1
33.624048 24.185011 -6.541158 41.931827 0.623547 1.727431 0.023561 0.010282 410834.000000 0 0 1
33.473498 22.650111 -6.799458 40.984573 0.594888 1.737470 0.017343 0.014270 -553299.000000 0 0 1
32.386328 22.018611 -6.219558 39.653201 0.597090 1.728296 0.021109 0.008893 -278731.000000 0 0 1
32.649058 20.596811 -6.197058 39.097226 0.562798 1.729971 0.033100 0.000276 -592604.000000 0 0 1
31.556948 19.771911 -5.578458 37.654862 0.559711 1.719491 0.049982 -0.004184 -138574.000000 0 0 1
30.327498 19.689211 -6.269758 36.697847 0.575827 1.742487 0.037651 -0.004704 151718.000000 0 0 1
29.294378 18.942811 -5.685758 35.345700 0.574007 1.732360 0.054973 -0.016607 -119655.000000 0 0 1
28.148288 18.663511 -6.696158 34.430964 0.585489 1.766524 0.036555 -0.015816 42724.400000 0 0 1
28.197598 17.502311 -7.494358 34.023533 0.555503 1.792887 0.033649 -0.013119 808917.000000 0 0 1
27.083338 17.652811 -8.416258 33.406022 0.577637 1.825479 0.039451 -0.013055 795670.000000 0 0 1
26.862178 16.382811 -9.228858 32.789402 0.547655 1.856110 0.048609 -0.005367 -30897.600000 0 0 1
26.089538 16.613811 -10.399558 32.631787 0.567040 1.895148 0.040030 -0.001376 224103.000000 0 0 1
26.060938 15.483611 -11.244458 32.331912 0.536093 1.926001 0.041977 0.003791 -67828.100000 0 0 1
25.359838 15.704811 -12.617958 32.387889 0.554475 1.970981 0.043326 0.002980 -70137.800000 0 0 1
23.949738 15.644311 -12.576858 31.249188 0.578632 1.985010 0.049013 0.003471 318313.000000 0 0 1
23.223238 15.681011 -13.811058 31.240330 0.593907 2.028724 0.040793 -0.000065 76305.700000 0 0 1
23.273538 14.313311 -14.600058 30.978866 0.551379 2.061550 0.032689 -0.005018 33317.700000 0 0 1
24.592338 13.880111 -14.936858 31.946053 0.513838 2.057331 0.045346 -0.012824 517654.000000 0 0 1
25.071738 14.425511 -16.153058 33.130178 0.522112 2.080093 0.045271 -0.021363 -510751.000000 0 0 1
26.450838 13.962111 -16.648058 34.230764 0.485680 2.078701 0.049283 -0.019556 -179312.000000 0 0 1
26.494098 12.595211 -17.049958 33.930482 0.443772 2.097281 0.044140 -0.021946 -694827.000000 0 0 1
27.731468 12.205511 -17.540458 35.009663 0.414618 2.095571 0.037020 -0.015017 -616686.000000 0 0 1
27.690668 10.770711 -18.098758 34.790032 0.370958 2.117915 0.026097 -0.010080 -197047.000000 0 0 1
26.964398 10.633611 -19.298658 34.822272 0.375633 2.158203 0.019532 -0.014409 12975.800000 0 0 1
26.938638 9.338711 -19.915558 34.778315 0.333702 2.180522 0.009099 0.000669 -352258.000000 0 0 1
28.290378 9.005111 -20.566058 36.116482 0.308169 2.176617 0.021505 -0.004682 -807454.000000 0 0 1
28.685778 9.991811 -21.526358 37.230286 0.335177 2.187311 0.027628 -0.004461 136642.000000 0 0 1
29.312498 9.327211 -22.621058 38.182871 0.308068 2.204880 0.025290 0.001220 892535.000000 0 0 1
30.777468 8.738411 -22.432858 39.074870 0.276642 2.182300 0.024654 0.000533 -130188.000000 0 0 1
31.692058 9.770611 -22.560358 40.110113 0.299053 2.168155 0.023474 0.000701 -629515.000000 0 0 1
32.979038 9.200811 -22.473358 40.955142 0.272072 2.151642 0.017015 0.003096 -331486.000000 0 0 1
34.157138 10.158811 -22.383658 42.082534 0.289083 2.131638 0.020084 -0.001349 -379300.000000 0 0 1
34.151308 10.917611 -21.177358 41.641164 0.309416 2.104317 0.022422 -0.008927 84020.200000 0 0 1
35.029598 12.019111 -21.211458 42.678539 0.330526 2.090941 0.002698 -0.003641 -49661.600000 0 0 1
35.041018 12.848711 -19.933758 42.312138 0.351453 2.061347 -0.011043 -0.002876 146488.000000 0 0 1
35.601766 12.089111 -18.845758 42.057044 0.327348 2.035435 0.001822 -0.005936 326240.000000 0 0 1
35.358940 12.736611 -17.617058 41.507067 0.345741 2.009134 0.002723 0.001137 -139496.000000 0 0 1
-35.539907 11.853911 -16.411358 40.901502 -0.321935 1.983668 -0.007162 -0.000855 -304803.000000 0 0 1
35.333658 10.566511 -16.179458 40.272738 0.290584 1.984220 0.007612 -0.009310 4334.830000 0 0 1
-35.597483 9.970811 -14.980258 39.887417 -0.273100 1.955801 -0.005421 -0.020137 -201568.000000 0 0 1
35.203598 8.578211 -14.754558 39.122576 0.239016 1.957499 0.024765 -0.009587 -831797.000000 0 0 1
34.030408 8.622611 -14.036258 37.807864 0.248157 1.951154 0.034083 -0.007466 -615538.000000 0 0 1
34.177358 8.566411 -12.647558 37.435757 0.245586 1.915425 0.027408 -0.011878 -282487.000000 0 0 1
32.978778 9.037411 -11.756558 36.159248 0.267471 1.901949 0.048339 -0.012346 25152.800000 0 0 1
32.858468 10.428811 -11.829858 36.447010 0.307330 1.901361 0.049764 -0.015215 317158.000000 0 0 1
31.896968 11.024411 -10.965658 35.485206 0.332773 1.884959 0.039443 -0.006961 -353749.000000 0 0 1
32.114148 10.787411 -9.462858 35.174314 0.324066 1.843180 0.055915 -0.004440 -470545.000000 0 0 1
33.309308 11.394511 -9.021658 36.341920 0.329603 1.821663 0.054332 -0.010961 93434.100000 0 0 1
33.322018 12.776011 -8.736258 36.741060 0.366124 1.810875 0.061609 -0.007529 -864792.000000 0 0 1
33.032008 13.011611 -7.253858 36.235811 0.375245 1.772343 0.051081 -0.011763 -19503.000000 0 0 1
34.138598 12.789211 -6.383658 37.010253 0.358443 1.744147 0.058435 -0.012483 312918.000000 0 0 1
33.858868 13.034411 -5.018558 36.626557 0.367477 1.708248 0.050474 -0.010935 -598004.000000 0 0 1
35.030458 12.684511 -4.118958 37.483271 0.347413 1.680907 0.063467 -0.008582 -463363.000000 0 0 1
-35.445475 13.729211 -4.146858 38.237016 -0.369539 1.679461 0.067683 0.001905 -511837.000000 0 0 1
-34.279592 13.510511 -3.394658 37.002001 -0.375433 1.662668 0.059818 -0.011918 247196.000000 0 0 1
-33.235032 14.650511 -3.448158 36.484169 -0.415190 1.665449 0.052347 -0.010183 226262.000000 0 0 1
-33.603392 15.707811 -2.555758 37.181382 -0.437268 1.639588 0.066888 -0.011423 502438.000000 0 0 1
-32.713132 16.838211 -2.647258 36.887428 -0.475357 1.642624 0.048079 -0.006883 349975.000000 0 0 1
-32.946782 17.900311 -1.520558 37.526306 -0.497692 1.611327 0.054882 -0.002140 1207520.000000 0 0 1
-34.235079 18.583911 -1.516458 38.983356 -0.497324 1.609706 0.042484 -0.001494 1234730.000000 0 0 1
-34.382922 19.303311 -0.323058 39.432316 -0.511570 1.578989 0.028851 0.002122 -414031.000000 0 0 1
-35.614968 20.214011 -0.316158 40.952804 -0.516233 1.578516 0.014903 -0.000027 -299307.000000 0 0 1
-35.527473 21.385011 -1.119858 41.482214 -0.541837 1.597796 0.020666 0.002705 -17320.100000 0 0 1
-35.616288 21.126711 -2.520858 41.487500 -0.535386 1.631596 -0.005356 0.014198 -247265.000000 0 0 1
-35.539523 22.428911 -3.340058 42.157677 -0.562972 1.650107 0.028158 -0.014987 -458609.000000 0 0 1
-34.205820 22.702411 -3.638358 41.214988 -0.585946 1.659189 0.024990 -0.000290 -589587.000000 0 0 1
-34.022792 23.920711 -4.294358 41.811390 -0.612789 1.673686 0.018109 -0.003596 149908.000000 0 0 1
-32.566222 24.084811 -4.777458 40.785549 -0.636789 1.688202 -0.000204 -0.009597 -88700.100000 0 0 1
-32.096212 23.161611 -5.687958 39.987247 -0.625096 1.713525 -0.016263 -0.002870 -320004.000000 0 0 1
-30.781422 23.600311 -6.015558 39.251211 -0.654108 1.724661 -0.002627 0.005345 21261.600000 0 0 1
-30.129392 22.671011 -7.056258 38.360732 -0.645070 1.755795 0.006314 -0.011789 -238170.000000 0 0 1
-30.759402 22.719911 -8.345758 39.140604 -0.636186 1.785671 -0.005354 -0.020508 122006.000000 0 0 1
-29.906772 22.271011 -9.375658 38.448874 -0.640088 1.817127 -0.019923 -0.021230 340094.000000 0 0 1
-30.699892 22.300711 -10.724358 39.431167 -0.628232 1.846243 -0.019440 -0.008865 23788.200000 0 0 1
-31.164192 23.555111 -11.033058 40.592838 -0.647228 1.846057 -0.024530 -0.005624 123874.000000 0 0 1
-31.896642 23.464911 -12.265558 41.454092 -0.634257 1.871176 -0.039154 -0.000930 -427819.000000 0 0 1
-32.683392 24.701111 -12.657658 42.878495 -0.647183 1.870459 -0.003184 0.000628 -476717.000000 0 0 1
-31.920312 25.827211 -12.992158 43.066777 -0.680274 1.877245 -0.008200 -0.009738 -322386.000000 0 0 1
-31.224452 25.788811 -14.223358 42.922408 -0.690346 1.908556 -0.020341 -0.012731 -1089100.000000 0 0 1
-29.969592 26.622011 -14.266958 42.549430 -0.726314 1.912723 -0.014564 -0.002489 -246049.000000 0 0 1
-28.812842 26.141111 -13.558158 41.199044 -0.736819 1.906135 -0.002311 -0.004644 738854.000000 0 0 1
-28.875882 25.780011 -12.145358 40.570128 -0.728816 1.874826 -0.000660 -0.001908 -932697.000000 0 0 1
-29.222682 26.940411 -11.157058 41.282331 -0.744784 1.844462 0.010750 0.003353 -87037.200000 0 0 1
-28.034332 27.662011 -10.941258 40.875687 -0.778713 1.841772 0.022883 0.003012 -15179.400000 0 0 1
-28.279492 28.750911 -10.008158 41.551267 -0.793664 1.814051 0.012475 0.003120 -182130.000000 0 0 1
-27.048462 29.602611 -9.727758 41.262127 -0.830453 1.808792 0.015864 0.004416 -330572.000000 0 0 1
-27.300492 30.785611 -9.041058 42.128511 -0.845326 1.787085 0.015332 -0.003067 -834728.000000 0 0 1
-26.194952 31.607911 -8.860758 41.997007 -0.878771 1.783379 0.034864 -0.003455 -571550.000000 0 0 1
34.235168 -25.256919 33.624907 54.227235 -0.635613 0.901959 0.009841 -0.003385 -214021.000000 0 0 1
33.873778 -23.897289 33.978779 53.601032 -0.614395 0.884185 0.010049 -0.018252 -552348.000000 0 0 1
32.822198 -24.040289 -33.898418 52.955972 -0.632168 2.265457 0.011605 -0.016445 -670254.000000 0 0 1
32.439448 -22.637189 -33.348428 51.738552 -0.609267 2.271240 0.004756 -0.021658 -59120.600000 0 0 1
31.776848 -21.917989 -34.362049 51.680913 -0.603812 2.298141 -0.002055 -0.020528 35251.200000 0 0 1
31.564918 -20.573489 -33.984048 50.739807 -0.577628 2.304697 -0.007209 -0.013834 257604.000000 0 0 1
31.098848 -19.567389 33.645704 49.820221 -0.561614 0.829368 -0.000074 -0.001183 766333.000000 0 0 1
32.169368 -19.312989 32.710615 49.777948 -0.540679 0.853791 0.021026 -0.015088 756654.000000 0 0 1
31.800628 -18.546489 31.580675 48.503517 -0.527983 0.861763 0.023951 -0.012964 -17265.300000 0 0 1
32.936878 -18.589589 30.503045 48.588543 -0.513832 0.892095 0.016369 -0.012825 321870.000000 0 0 1
33.981148 -17.719189 30.902435 49.230565 -0.480654 0.892191 0.000718 -0.011213 273583.000000 0 0 1
34.903228 -17.404689 29.892335 49.139701 -0.462571 0.916863 0.020040 -0.017993 78399.700000 0 0 1
-35.217093 -16.636789 30.290425 49.341020 0.441330 0.909805 0.008074 -0.021135 312817.000000 0 0 1
-34.196107 -16.611789 29.271805 47.980869 0.452207 0.914644 0.019594 -0.018740 1310380.000000 0 0 1
-33.106182 -15.693989 29.482855 47.027219 0.442673 0.893188 0.020800 -0.017645 1065630.000000 0 0 1
-31.958452 -16.242189 30.396895 47.001304 0.470209 0.867514 0.036163 -0.020581 -93981.500000 0 0 1
-31.113742 -15.265889 30.989905 46.491790 0.456138 0.841202 0.033706 -0.019361 -265061.000000 0 0 1
-30.014142 -15.868089 31.586235 46.371707 0.486333 0.821460 0.029806 -0.019566 -701785.000000 0 0 1
-29.020292 -14.816389 32.096825 45.737391 0.472054 0.792927 0.033847 -0.020412 -859756.000000 0 0 1
-29.491172 -14.032389 33.155930 46.539799 0.444114 0.777854 0.042683 -0.020019 477335.000000 0 0 1
-28.507232 -13.143989 33.692791 46.050308 0.432026 0.750054 0.039084 -0.021226 122638.000000 0 0 1
-28.917532 -12.548389 -33.685248 46.134387 0.409416 2.389345 0.034588 -0.009001 -106991.000000 0 0 1
-29.055552 -13.570089 -32.693088 45.795310 0.436933 2.365843 0.048680 -0.007160 380627.000000 0 0 1
-29.128102 -12.980089 -31.410018 44.760678 0.419206 2.348623 0.053294 -0.002952 -504398.000000 0 0 1
-29.086592 -14.011589 -30.259278 44.249050 0.448917 2.323809 0.049743 -0.005654 -212988.000000 0 0 1
-30.304002 -14.699589 -30.194938 45.234332 0.451633 2.301673 0.041529 -0.003676 -133052.000000 0 0 1
-30.180232 -15.573289 -29.114288 44.732712 0.476373 2.279500 0.054565 -0.009972 609746.000000 0 0 1
-31.310272 -16.650089 -28.985708 45.800981 0.488745 2.256041 0.043943 -0.014422 389720.000000 0 0 1
-31.282142 -17.677389 -29.942428 46.771910 0.514359 2.265529 0.048092 -0.016250 -517221.000000 0 0 1
-32.526462 -18.265589 -30.052308 47.903483 0.511676 2.248943 0.043671 -0.019190 -750736.000000 0 0 1
-32.378032 -19.540889 -30.890848 48.830603 0.543006 2.255718 0.050002 -0.021506 976864.000000 0 0 1
-33.605172 -20.250789 -31.198518 50.127334 0.542336 2.242583 0.031468 -0.025365 836905.000000 0 0 1
-33.323722 -21.508189 -31.644698 50.739133 0.573157 2.244231 0.028217 -0.013679 328889.000000 0 0 1
-34.593651 -22.414389 -31.746798 52.028692 0.574921 2.227082 0.028573 -0.013125 514749.000000 0 0 1
-35.294242 -22.667989 -30.541908 51.887662 0.570913 2.200142 0.019887 -0.016323 406762.000000 0 0 1
35.039678 -23.621989 -30.619028 52.185269 -0.593165 2.197820 0.016864 -0.016096 291369.000000 0 0 1
35.426505 -25.116149 -30.740498 53.205605 -0.616717 2.186788 0.014353 -0.014011 17267.700000 0 0 1
-35.461597 -25.433489 -32.017038 54.124652 0.622185 2.203767 0.022384 -0.007695 -421642.000000 0 0 1
-34.739334 -26.619609 -32.111648 54.282436 0.653831 2.203796 0.024791 -0.006069 -37873.200000 0 0 1
-34.931235 -27.463179 -33.326918 55.543685 0.666274 2.214313 0.023438 -0.012545 -210024.000000 0 0 1
35.223408 -28.112349 -33.333038 56.054296 -0.673591 2.207634 0.026057 -0.010726 -513883.000000 0 0 1
35.071158 -29.155849 -34.250639 57.036444 -0.693557 2.214928 0.020570 -0.013301 -279532.000000 0 0 1
-35.617932 -30.436289 -33.818028 57.781172 0.707113 2.196019 0.022072 -0.021149 -90920.700000 0 0 1
35.291128 -30.909039 -32.617158 57.137653 -0.719300 2.178340 0.028529 -0.024585 118744.000000 0 0 1
-35.114732 -31.659189 -31.940968 57.057639 0.733694 2.164943 0.021183 -0.027080 239310.000000 0 0 1
-35.681821 -32.018309 -30.527268 56.835540 0.731337 2.137810 0.018609 -0.026937 170797.000000 0 0 1
34.795848 -33.085169 -30.582018 56.926613 -0.760202 2.137932 0.027622 -0.028467 93468.100000 0 0 1
34.569598 -33.656649 -29.315928 56.455742 -0.772018 2.116796 0.028698 -0.028702 -18557.900000 0 0 1
33.407428 34.123100 -29.252338 56.001263 0.795996 2.120402 0.030804 -0.026238 25937.400000 0 0 1
32.175568 -34.032100 -29.457358 55.327994 -0.813432 2.132245 0.034417 -0.022641 -523230.000000 0 0 1
31.131528 33.886628 -29.179558 54.487817 0.827747 2.135925 0.049596 -0.024167 -151418.000000 0 0 1
29.752518 34.269975 -29.727678 54.252911 0.855842 2.150703 0.048437 -0.009197 -199868.000000 0 0 1
29.608808 34.012770 -31.072138 54.763380 0.854509 2.174128 0.049135 -0.008536 731315.000000 0 0 1
28.295108 34.307605 -31.588698 54.547876 0.881147 2.188421 0.046001 -0.003566 806726.000000 0 0 1
28.115598 33.838035 -33.088488 55.048593 0.877503 2.215645 0.045775 -0.005752 17986.100000 0 0 1
28.101998 32.395854 -33.111798 54.181222 0.856255 2.228284 0.041627 -0.004256 70612.200000 0 0 1
27.682548 31.882494 34.364317 54.440088 0.855792 0.887656 0.043556 -0.001075 165412.000000 0 0 1
27.581428 30.409384 -34.299214 53.496747 0.834125 2.266787 0.037890 -0.011062 271326.000000 0 0 1
28.899448 29.893674 -34.230100 53.856380 0.802307 2.259557 0.041757 -0.008816 -157625.000000 0 0 1
28.869308 28.517074 -33.968438 52.919895 0.779260 2.267749 0.030427 -0.010085 -104644.000000 0 0 1
30.207218 27.779754 -33.799948 53.166035 0.743560 2.259767 0.040931 -0.004394 -106842.000000 0 0 1
30.819128 27.980964 -32.534808 52.832440 0.737168 2.234211 0.042288 -0.011615 -63446.400000 0 0 1
32.078148 27.328744 -32.558828 53.253593 0.705621 2.228615 0.059349 -0.010239 357079.000000 0 0 1
32.912458 27.560574 -31.255458 53.101025 0.697128 2.200127 0.047544 -0.015877 -91148.500000 0 0 1
33.627038 28.818034 -31.192068 54.168274 0.708538 2.184423 0.027933 -0.009712 394342.000000 0 0 1
32.920568 30.082254 -31.165248 54.405685 0.740378 2.180752 0.025334 -0.003109 -5074.550000 0 0 1
32.032028 30.410574 -29.938138 53.358654 0.759437 2.166479 0.038635 -0.002120 292199.000000 0 0 1
32.699308 30.597424 -28.710548 53.195326 0.752204 2.140900 0.038214 -0.003943 68197.900000 0 0 1
31.688538 30.782164 -27.750418 52.170785 0.770890 2.131657 0.041121 -0.008022 19493.200000 0 0 1
32.258618 31.148084 -26.370188 52.021230 0.767886 2.102395 0.040000 -0.009818 -195419.000000 0 0 1
32.715958 32.480424 -26.436848 53.143380 0.781786 2.091468 0.034603 -0.015053 92394.900000 0 0 1
32.960998 32.848051 -25.125658 52.884029 0.783682 2.065884 0.029410 -0.016095 -241972.000000 0 0 1
33.053098 34.350330 -24.887358 53.775767 0.804642 2.051946 0.038176 -0.020215 624349.000000 0 0 1
31.784718 -33.812849 -25.090708 52.755291 -0.816306 2.066449 0.045155 -0.016104 824726.000000 0 0 1
31.849358 -32.402449 -24.995158 51.856130 -0.794006 2.073743 0.041678 -0.021312 -596000.000000 0 0 1
32.360318 -31.718129 -26.308658 52.396330 -0.775377 2.096832 0.038304 -0.020861 1745550.000000 0 0 1
33.762368 -31.907529 -26.657948 53.559631 -0.757161 2.091770 0.034793 -0.025258 1998760.000000 0 0 1
34.754558 -31.171389 -25.886958 53.382295 -0.731100 2.077085 0.032307 -0.023382 1858020.000000 0 0 1
-35.156000 -31.629889 -26.223158 54.074470 0.732650 2.077097 0.022961 -0.020344 1210700.000000 0 0 1
-34.788874 -32.963869 -25.776348 54.417852 0.758468 2.064255 0.026330 -0.025590 -128259.000000 0 0 1
-34.478668 -33.208949 -24.426558 53.742624 0.766642 2.042618 0.028451 -0.025311 1036520.000000 0 0 1
-33.017232 -32.802139 -23.947258 52.341085 0.782130 2.046004 0.012187 -0.012648 1234330.000000 0 0 1
-32.900002 -31.393149 -23.992858 51.415924 0.761965 2.056287 0.003782 -0.011836 -219953.000000 0 0 1
-32.585612 -30.918979 -22.685858 50.323489 0.759160 2.038458 0.011318 -0.010962 -394112.000000 0 0 1
-32.583732 -29.366789 -22.544758 49.319104 0.733517 2.045551 -0.000826 0.001867 473747.000000 0 0 1
-33.796292 -28.710649 -22.934758 49.924882 0.704216 2.048099 -0.003940 0.000553 224769.000000 0 0 1
-33.939932 -28.524799 -24.349358 50.581364 0.698923 2.073036 -0.000834 0.006727 426652.000000 0 0 1
-35.087154 -27.518279 -24.709158 50.979472 0.665084 2.076803 -0.002667 0.002879 548520.000000 0 0 1
-34.783058 -26.327279 -24.040258 49.808842 0.647902 2.074475 -0.009743 -0.000170 -147469.000000 0 0 1
-35.679004 -25.272729 -24.325458 50.034289 0.616299 2.078504 0.002793 -0.003803 -176047.000000 0 0 1
-35.539472 -24.605089 -25.697288 50.287326 0.605561 2.107155 0.015226 0.001287 -416455.000000 0 0 1
-34.342916 -23.861789 -25.870508 49.174222 0.607234 2.124803 0.009401 -0.011830 -39804.800000 0 0 1
-34.277851 -23.278189 -27.091608 49.505559 0.596563 2.149864 0.024274 -0.015719 -392079.000000 0 0 1
-33.119452 -22.295989 -27.148118 48.280737 0.592512 2.167957 0.023121 -0.021525 -630568.000000 0 0 1
-33.128252 -21.104889 -26.432938 47.345514 0.567229 2.163130 0.017078 -0.016441 -66007.400000 0 0 1
-33.978832 -20.122189 -27.020298 47.849348 0.534663 2.170860 0.025403 -0.020454 965345.000000 0 0 1
-35.340920 -20.002489 -26.228798 48.342839 0.515034 2.144276 0.033128 -0.024118 337745.000000 0 0 1
-35.202722 -19.234189 -24.995358 47.264719 0.500062 2.128027 0.022131 -0.025144 -286092.000000 0 0 1
-34.372446 -19.677689 -23.954558 46.287119 0.519942 2.114748 0.011104 -0.009248 -242281.000000 0 0 1
-34.739026 -21.059989 -23.296358 46.829941 0.544991 2.091473 0.019002 -0.000051 590928.000000 0 0 1
35.472579 -20.938789 -22.517258 46.944261 -0.533243 2.071063 0.016394 0.005439 208534.000000 0 0 1
35.100618 -22.116189 -21.897658 46.911477 -0.562244 2.056450 0.022870 0.017720 165998.000000 0 0 1
33.923688 -21.920089 -20.900958 45.476994 -0.573670 2.048334 0.010067 0.015347 -616350.000000 0 0 1
32.747238 -21.443389 -21.427258 44.624297 -0.579753 2.071645 0.015321 0.009087 -531884.000000 0 0 1
31.731428 -21.672489 -20.437258 43.523118 -0.599224 2.059603 0.024747 0.008269 2078280.000000 0 0 1
30.182728 -21.469889 -20.769058 42.465362 -0.618290 2.081834 0.008592 0.009050 1244650.000000 0 0 1
29.640598 -22.393089 -21.680658 43.012398 -0.647004 2.099085 0.007240 0.012900 323460.000000 0 0 1
28.331378 -22.101989 -22.162858 42.217972 -0.662503 2.123468 0.017042 0.002946 434482.000000 0 0 1
28.253368 -20.921589 -23.234558 42.140365 -0.637393 2.154791 0.013255 0.005214 -318454.000000 0 0 1
28.561878 -19.708989 -22.578358 41.400572 -0.604014 2.147619 0.001843 0.006123 -12223.400000 0 0 1
28.722748 -18.715789 -23.510758 41.569613 -0.577500 2.171927 -0.016745 0.007905 -108291.000000 0 0 1
29.487668 -17.446089 -22.970658 41.249724 -0.534250 2.161407 -0.023603 0.017322 26821.500000 0 0 1
28.717938 -16.801589 -21.984658 39.879049 -0.529358 2.154698 -0.035703 0.012795 150974.000000 0 0 1
29.363158 -15.772889 -21.228258 39.517313 -0.492936 2.137897 -0.046642 0.008638 138827.000000 0 0 1
30.441068 -16.185289 -20.148558 39.932275 -0.488679 2.099678 -0.013741 0.000258 321965.000000 0 0 1
31.682418 -16.588589 -20.662458 41.302470 -0.482341 2.094709 -0.014506 0.003682 -325095.000000 0 0 1
32.242038 -17.533789 -19.760158 41.682690 -0.498084 2.064694 -0.002727 0.019120 -482489.000000 0 0 1
33.527968 -18.079489 -20.384758 43.203367 -0.494542 2.062165 0.010913 0.002723 -606483.000000 0 0 1
34.485798 -17.086889 -20.639358 43.671674 -0.460022 2.063038 0.006625 0.003869 -240201.000000 0 0 1
35.452441 -17.678989 -21.486058 45.067426 -0.462581 2.067754 0.021033 -0.001575 319065.000000 0 0 1
-34.986424 -16.595189 -22.120958 44.595818 0.442903 2.089819 0.032307 -0.013277 478176.000000 0 0 1
-34.073276 -15.934789 -21.272458 43.213692 0.437444 2.085483 0.040600 -0.009252 -61755.900000 0 0 1
-33.275352 -14.982989 -21.931658 42.576245 0.423081 2.111938 0.057854 -0.019031 -862119.000000 0 0 1
-32.065412 -14.600489 -21.120958 41.078703 0.427281 2.110822 0.066702 -0.008318 -770106.000000 0 0 1
-30.979402 -15.468489 -20.916258 40.453521 0.463100 2.114190 0.065299 -0.025042 123485.000000 0 0 1
-31.184192 -16.664089 -20.180158 40.710987 0.490769 2.089429 0.050557 -0.022290 -899447.000000 0 0 1
-29.938032 -17.537589 -20.185858 40.141272 0.529910 2.097713 0.042202 -0.030566 -418065.000000 0 0 1
-30.131562 -18.733389 -19.458158 40.465675 0.556237 2.072427 0.034123 -0.023618 671836.000000 0 0 1
-29.055022 -19.656189 -19.666758 40.216184 0.594790 2.081769 0.043091 -0.030317 365242.000000 0 0 1
-29.484392 -21.072789 -19.229958 41.026615 0.620530 2.058637 0.025826 -0.002868 210500.000000 0 0 1
-30.480622 -21.699289 -20.039558 42.444215 0.618671 2.062512 0.014541 0.003773 420463.000000 0 0 1
-30.507212 -23.109689 -19.794658 43.088006 0.648294 2.048117 0.007123 0.016540 -135795.000000 0 0 1
-31.598222 -23.795189 -20.628058 44.611383 0.645453 2.051490 -0.007761 0.016621 -120944.000000 0 0 1
-31.217712 -23.909889 -22.002258 45.059158 0.653605 2.080934 -0.003931 0.008017 374728.000000 0 0 1
-32.062182 -24.878889 -22.610758 46.456313 0.659908 2.079116 -0.004297 0.008867 -183593.000000 0 0 1
-31.829302 -25.032499 -24.125958 47.135892 0.666431 2.108120 0.004808 0.005929 -188536.000000 0 0 1
-30.527122 -25.397489 -24.553258 46.688330 0.693930 2.124566 0.008278 0.001135 -98513.500000 0 0 1
-30.414212 -25.650609 -25.933018 47.492099 0.700636 2.148437 0.016692 0.003393 546100.000000 0 0 1
-28.982402 -26.044919 -26.408618 47.071569 0.732067 2.166427 0.016659 -0.005447 730735.000000 0 0 1
-28.034662 -24.989889 -26.456178 45.938722 0.728039 2.184503 0.031192 -0.010750 365105.000000 0 0 1
-26.730752 -25.437379 -26.797028 45.603444 0.760611 2.198898 0.022534 -0.010576 136552.000000 0 0 1
-25.702032 -24.352389 -26.997478 44.525242 0.758441 2.222247 0.029145 -0.011104 -503386.000000 0 0 1
-25.773612 -23.696989 -28.245248 44.984669 0.743446 2.249631 0.037619 -0.010222 174332.000000 0 0 1
-24.768562 -22.692989 -28.353768 43.958954 0.741694 2.271827 0.046657 -0.012388 213557.000000 0 0 1
-24.552662 -22.164789 -29.800828 44.521910 0.734330 2.304133 0.029338 -0.002778 80068.300000 0 0 1
-23.931362 -23.177489 -30.577318 45.220333 0.769397 2.313369 0.028440 -0.006965 144435.000000 0 0 1
-23.496762 -22.634889 -31.804208 45.562525 0.766717 2.343445 0.036133 -0.001905 246368.000000 0 0 1
-23.159462 -23.755189 -32.825488 46.671002 0.798096 2.350879 0.033810 -0.007992 -105051.000000 0 0 1
-24.388262 -24.208089 -33.309138 47.857263 0.781691 2.340622 0.019085 -0.008393 -330042.000000 0 0 1
-24.353462 -25.488909 -33.908198 48.913613 0.808175 2.336752 0.039963 0.001534 70632.100000 0 0 1
-19.374962 -14.581089 -11.836558 26.983355 0.645146 2.024905 0.031059 0.011061 215358.000000 0 0 1
-19.856962 -14.150189 -10.585358 26.581509 0.619136 1.980375 0.033607 0.006598 213747.000000 0 0 1
-18.967762 -14.629889 -9.587758 25.801837 0.656996 1.951520 0.018709 -0.003305 179528.000000 0 0 1
-19.431162 -14.155089 -8.228658 25.409593 0.629581 1.900582 0.039476 -0.020852 332077.000000 0 0 1
-20.634462 -14.712489 -7.704758 26.487765 0.619401 1.865943 0.049479 -0.016862 438774.000000 0 0 1
-20.901362 -14.120589 -6.453558 26.036636 0.594150 1.821272 0.052403 -0.027757 -205243.000000 0 0 1
-22.117262 -14.819689 -5.852458 27.258902 0.590342 1.787180 0.052994 -0.028790 -585078.000000 0 0 1
-21.766262 -16.101589 -5.335858 27.595339 0.636909 1.765383 0.036428 -0.027941 369716.000000 0 0 1
-21.280062 -16.017889 -4.031658 26.938227 0.645238 1.721024 0.049532 -0.030984 -342003.000000 0 0 1
-20.968562 -17.417289 -3.335958 27.462177 0.693146 1.692572 0.035382 -0.020880 24793.400000 0 0 1
-22.084062 -18.260189 -3.110358 28.823855 0.690899 1.678916 0.034415 -0.023423 106606.000000 0 0 1
-21.713662 -19.422589 -2.432858 29.234208 0.729761 1.654112 0.021664 -0.015483 -236003.000000 0 0 1
-22.926662 -20.286889 -2.052158 30.682260 0.724387 1.637730 0.009549 -0.023580 -114614.000000 0 0 1
-23.338662 -21.159389 -3.089858 31.653754 0.736463 1.668566 -0.015690 -0.018316 -238771.000000 0 0 1
-24.282662 -22.068389 -2.589958 32.914577 0.737663 1.649565 -0.010590 -0.012802 -297964.000000 0 0 1
-24.428962 -23.174089 -3.687858 33.873484 0.759043 1.679884 -0.022418 -0.009939 44057.500000 0 0 1
-23.255662 -23.990289 -3.799558 33.627317 0.800946 1.684028 -0.026670 -0.000798 93681.700000 0 0 1
-23.144062 -24.800189 -4.960158 34.282651 0.819927 1.715990 -0.023373 0.005971 -756018.000000 0 0 1
-21.776262 -24.564389 -5.548658 33.292678 0.845492 1.738241 -0.020607 0.010191 -786214.000000 0 0 1
-21.535762 -23.232289 -6.053658 32.251746 0.823276 1.759617 -0.023117 0.018410 37186.200000 0 0 1
-21.169062 -22.219789 -5.113558 31.112645 0.809610 1.735902 -0.025064 0.018457 -739043.000000 0 0 1
-21.092462 -20.800289 -5.720358 30.170623 0.778424 1.761551 -0.015246 0.020998 -459509.000000 0 0 1
-19.968662 -20.466989 -6.472658 29.317920 0.797721 1.793405 -0.013841 0.024899 -508031.000000 0 0 1
-20.113562 -19.212189 -7.138458 28.716218 0.762481 1.822017 -0.017121 0.023460 -388289.000000 0 0 1
-18.891062 -18.883489 -7.961558 27.871936 0.785198 1.860479 0.009532 0.017371 -528699.000000 0 0 1
-18.655362 -19.668389 -9.089158 28.591622 0.811825 1.894306 0.006979 0.017655 -432783.000000 0 0 1
-17.490762 -19.419589 -9.836358 27.924920 0.837608 1.930763 0.024042 0.017052 -566008.000000 0 0 1
-17.218062 -18.133289 -10.651358 27.179575 0.811282 1.973480 0.027199 0.015197 -164381.000000 0 0 1
-16.824062 -17.002789 -9.847158 25.867169 0.790682 1.961330 0.032364 -0.001664 126521.000000 0 0 1
-15.476662 -17.088389 -9.428358 24.908514 0.834850 1.958993 0.031716 -0.002563 -562529.000000 0 1 0
-15.187962 -15.958389 -8.418158 23.584100 0.810129 1.935789 0.026497 -0.007306 -86728.700000 0 1 0
-15.718562 -16.213789 -7.144258 23.685451 0.800906 1.877199 0.000600 -0.008144 20045.400000 0 1 0
-15.881162 -15.016489 -6.410358 22.777159 0.757420 1.856089 0.009081 -0.011272 -270212.000000 0 1 0
-16.612562 -15.469389 -5.132758 23.272826 0.749780 1.793172 0.011844 -0.010885 -110247.000000 0 1 0
-17.188662 -14.347289 -4.486058 22.834613 0.695541 1.768541 0.024445 -0.008141 82632.900000 0 1 0
-17.638562 -14.574989 -3.174358 23.100341 0.690581 1.708649 0.024941 -0.009493 -177189.000000 0 1 0
-18.502362 -13.442389 -2.609858 23.018397 0.628306 1.684422 0.035786 -0.006737 -320168.000000 0 1 0
-19.841462 -13.422589 -3.049358 24.148460 0.594774 1.697410 0.048231 -0.018093 -147859.000000 0 1 0
-20.533962 -12.538789 -2.225158 24.162288 0.548204 1.663019 0.043618 -0.007408 -239360.000000 0 1 0
-22.063962 -12.590989 -2.495258 25.526021 0.518565 1.668706 0.042105 -0.011892 204320.000000 0 0 1
-22.481862 -11.964689 -3.728758 25.738911 0.489069 1.716176 0.048753 -0.017793 100708.000000 0 0 1
-23.843262 -12.213389 -3.965158 27.081184 0.473389 1.717742 0.043470 -0.015436 -480110.000000 0 0 1
-24.390062 -11.473489 -5.196658 27.450343 0.439702 1.761257 0.050431 -0.018048 -142945.000000 0 0 1
-23.917562 -12.009689 -6.423658 27.523550 0.465349 1.806356 0.051058 -0.024127 187365.000000 0 0 1
-24.563662 -11.429089 -7.522458 28.117343 0.435492 1.841633 0.058670 -0.023323 -532354.000000 0 0 1
-23.894962 -11.730589 -8.833558 28.046527 0.456360 1.891212 0.077332 -0.023120 -816021.000000 0 0 1
-22.650362 -11.117689 -8.841758 26.736092 0.456292 1.907847 0.073335 -0.021782 -759542.000000 0 0 1
-21.875762 -11.410689 -9.937258 26.598908 0.480788 1.953680 0.059207 -0.019581 -340527.000000 0 0 1
-20.548862 -10.635189 -10.042458 25.223282 0.477594 1.980287 0.049384 -0.017530 -158956.000000 0 0 1
-20.747762 -9.291489 -10.274258 24.947180 0.421049 1.995269 0.045489 -0.024319 931061.000000 0 1 0
-19.552862 -8.614889 -9.868358 23.535404 0.415005 2.003469 0.044088 -0.018188 257558.000000 0 1 0
-19.482362 -7.200189 -10.485058 23.266749 0.354006 2.038285 0.036547 -0.025676 -97985.500000 0 1 0
-19.011062 -7.377489 -11.802458 23.561533 0.370174 2.095458 0.048389 -0.021142 395862.000000 0 1 0
-18.844962 -6.073989 -12.364958 23.343482 0.311800 2.129039 0.039440 -0.038708 -237220.000000 0 1 0
-18.300562 -5.945989 -13.820358 23.691088 0.314148 2.193652 0.057113 -0.026147 -234946.000000 0 1 0
-19.121762 -6.526289 -14.790258 25.039688 0.328905 2.202688 0.051933 -0.033194 426644.000000 0 0 1
-18.532862 -6.245489 -16.096058 25.328960 0.325043 2.259427 0.046261 -0.033154 -156692.000000 0 0 1
-18.934562 -7.212089 -17.221158 26.591355 0.363929 2.275256 0.044988 -0.026005 192806.000000 0 0 1
-20.308862 -7.165189 -17.576158 27.797683 0.339177 2.255300 0.043115 -0.027614 492987.000000 0 0 1
-20.619062 -8.021789 -18.705058 28.971953 0.371029 2.272640 0.045549 -0.026859 -19502.500000 0 0 1
-21.999462 -7.819189 -19.368158 30.335484 0.341501 2.263299 0.034050 -0.023975 -571896.000000 0 0 1
-22.167662 -6.578389 -20.002758 30.574349 0.288478 2.283965 0.034174 -0.025784 168726.000000 0 0 1
-23.270662 -6.422889 -20.869558 31.911059 0.269303 2.283645 0.017778 -0.023205 217082.000000 0 0 1
-24.648562 -6.236589 -20.205258 32.476132 0.247819 2.242291 0.039384 -0.023453 -512431.000000 0 0 1
-24.661962 -5.042589 -19.425858 31.796290 0.201688 2.228053 0.036706 -0.014806 -227468.000000 0 0 1
-25.970162 -4.803989 -18.993058 32.530968 0.182913 2.194254 0.052096 -0.012847 -436058.000000 0 0 1
-26.042662 -3.339189 -18.420058 32.072870 0.127524 2.182568 0.051543 -0.015630 12145.000000 0 0 1
-26.239632 -2.280789 -19.378058 32.699074 0.086704 2.205101 0.047362 -0.013016 528058.000000 0 0 1
-27.594562 -2.079289 -19.784758 34.017936 0.075209 2.191488 0.047502 -0.006816 427393.000000 0 0 1
-27.894112 -0.808089 -20.593058 34.681530 0.028962 2.206540 0.036428 -0.001648 -453222.000000 0 0 1
-27.357002 -0.757889 -21.904858 35.054283 0.027697 2.245779 0.028844 0.001858 153256.000000 0 0 1
-27.931362 -1.617589 -22.864158 36.132358 0.057848 2.255946 0.014849 0.002723 -506778.000000 0 0 1
-27.159772 -1.490089 -24.186358 36.398537 0.054809 2.297604 0.010915 -0.003661 -447657.000000 0 0 1
-27.250442 -0.266289 -24.937258 36.939469 0.009772 2.311875 0.014360 0.002505 445897.000000 0 0 1
-26.546762 0.880211 -24.378758 36.053144 -0.033145 2.313374 0.013799 0.010249 589634.000000 0 0 1
-24.993162 0.915911 -24.297858 34.869513 -0.036630 2.341754 0.024128 0.013694 121814.000000 0 0 1
-24.342262 0.652811 -25.527018 35.278897 -0.026812 2.379768 0.019867 0.008793 -94469.600000 0 0 1
-23.001662 0.353011 -25.178718 34.105263 -0.015346 2.401291 0.025943 0.013741 143642.000000 0 0 1
-22.158862 -0.142989 -26.396548 34.464669 0.006453 2.443239 0.030968 0.003249 -44145.900000 0 0 1
-21.994862 0.824711 -27.406108 35.150375 -0.037478 2.464954 0.022436 0.009428 -401139.000000 0 0 1
-21.102462 0.424211 -28.356208 35.349235 -0.020100 2.501722 0.021446 0.009138 -661855.000000 0 0 1
-21.070862 1.353411 -29.606008 36.363838 -0.064143 2.522079 0.018209 0.008159 -70500.600000 0 0 1
-20.262062 2.530911 -29.445628 35.832970 -0.124265 2.535266 0.023198 0.010296 485841.000000 0 0 1
-20.299462 3.285511 -30.630638 36.893072 -0.160461 2.550360 0.018700 0.001803 60753.500000 0 0 1
-19.558962 2.764511 -31.908998 37.528385 -0.140412 2.587281 0.007359 0.002702 557803.000000 0 0 1
-18.144562 2.631811 -31.784858 36.693716 -0.144042 2.618385 0.002630 0.004333 550977.000000 0 0 1
-17.536562 1.993611 -32.936028 37.366930 -0.113197 2.649660 -0.004577 0.011187 2343530.000000 0 0 1
-15.936862 1.935511 -32.710708 36.437895 -0.120857 2.685343 0.009939 -0.003373 1904580.000000 0 0 1
-15.305162 3.188911 -32.863128 36.392339 -0.205416 2.697552 0.011332 0.000491 -1067500.000000 0 0 1
-13.987062 3.081411 -33.228378 36.183672 -0.216841 2.734625 0.011287 -0.002325 -1313530.000000 0 0 1
-13.237962 4.347711 -33.521188 36.301740 -0.317329 2.747654 0.018937 -0.002611 -422822.000000 0 0 1
-12.970562 5.131111 -32.421668 35.294877 -0.376705 2.735305 0.033066 -0.014294 176965.000000 0 0 1
-12.617662 6.452011 -32.837418 35.764925 -0.472684 2.734172 0.037190 -0.007618 -240303.000000 0 0 1
-12.352762 7.397111 -31.650088 34.771196 -0.539553 2.714656 0.041417 -0.015378 -58136.700000 0 0 1
-11.151562 7.124911 -30.942358 33.653399 -0.568544 2.737456 0.059121 -0.026293 480779.000000 0 0 1
-11.336662 6.185111 -29.899948 32.569655 -0.499447 2.733882 0.055016 -0.031710 426319.000000 0 0 1
-9.975162 5.432311 -29.675028 31.774537 -0.498675 2.776036 0.071214 -0.035213 649722.000000 0 0 1
-9.550062 4.553811 -30.771658 32.539758 -0.444945 2.810425 0.057208 -0.032250 277790.000000 0 0 1
-10.221062 3.336711 -30.802268 32.624891 -0.315547 2.805753 0.060860 -0.030489 -217586.000000 0 0 1
-9.924762 2.621111 -32.167198 33.765364 -0.258203 2.832692 0.051388 -0.023804 279586.000000 0 0 1
-10.731462 1.429511 -32.227188 33.997051 -0.132428 2.817502 0.056260 -0.017890 652455.000000 0 0 1
-10.374062 0.623211 -33.324178 34.907169 -0.060002 2.839283 0.050946 -0.015555 -407869.000000 0 0 1
-10.690962 1.179611 34.034098 35.693248 -0.109893 0.306099 0.043363 -0.008129 -489175.000000 0 0 1
-12.028062 1.046611 33.652875 35.753122 -0.086795 0.344463 0.023510 0.000630 -514146.000000 0 0 1
-12.166162 1.325711 32.287575 34.529125 -0.108539 0.362305 0.014510 0.005796 843602.000000 0 0 1
-13.680762 1.099711 31.934115 34.758600 -0.080211 0.405919 0.007541 0.013217 1395940.000000 0 0 1
-14.571362 2.188511 32.312375 35.513430 -0.149078 0.427841 0.007791 0.017769 963354.000000 0 0 1
-15.890762 1.837711 31.903125 35.688974 -0.115135 0.464778 0.005171 0.017529 118973.000000 0 0 1
-16.862662 2.900911 31.454965 35.807534 -0.170364 0.498197 0.013137 0.020170 -581000.000000 0 0 1
-17.293562 3.747311 32.519755 37.022211 -0.213389 0.498324 0.012980 0.008924 354410.000000 0 0 1
-16.572862 4.979311 32.507785 36.826748 -0.291869 0.489172 0.009181 0.011551 -241083.000000 0 0 1
-17.025662 5.888711 33.620755 38.143220 -0.332993 0.491905 0.011122 0.001371 -942182.000000 0 0 1
-18.354662 6.254911 33.587808 38.783481 -0.328438 0.523582 0.017322 0.001132 -1091390.000000 0 0 1
-19.023262 5.610211 -34.085449 39.435730 -0.286783 2.614611 0.019200 0.000569 -220912.000000 0 0 1
-20.458762 6.141211 -33.866798 40.040423 -0.291617 2.578888 0.017319 0.003712 -187266.000000 0 0 1
-20.724762 7.494611 -33.442778 40.051272 -0.346994 2.558928 0.024029 -0.005506 154160.000000 0 0 1
-20.324762 8.463111 34.361752 40.809927 -0.394559 0.569826 0.009009 -0.001961 -398454.000000 0 0 1
-20.354862 9.870311 -33.815148 40.684244 -0.451504 2.551988 0.002672 0.005063 -52513.200000 0 0 1
-19.526362 10.058411 -32.629598 39.333715 -0.475670 2.549112 0.008282 -0.000787 596424.000000 0 0 1
-19.310662 11.437911 -32.218228 39.265019 -0.534746 2.533139 0.012021 -0.001226 496505.000000 0 0 1
-18.481062 12.311111 -33.257258 39.989478 -0.587643 2.552869 0.007916 -0.011411 -39956.200000 0 0 1
-19.201762 12.564111 34.315891 41.281290 -0.579407 0.589408 0.017891 -0.009747 375281.000000 0 0 1
-18.323362 12.957611 33.247578 40.112924 -0.615517 0.593748 0.007629 -0.009191 411651.000000 0 0 1
-18.847262 12.506711 31.819285 39.039774 -0.585864 0.617985 0.025491 -0.014721 -189330.000000 0 0 1
-18.942562 11.101911 31.593965 38.474039 -0.530123 0.607327 0.012245 0.000907 -59774.600000 0 0 1
-17.736562 10.525411 31.160835 37.368001 -0.535575 0.584676 0.016736 0.002565 41379.700000 0 0 1
-17.834762 8.955611 31.152485 36.996743 -0.465361 0.569755 0.020137 0.009928 -66967.800000 0 0 1
-18.454462 8.420911 30.041015 36.248331 -0.428087 0.593916 0.017206 0.002807 -66169.800000 0 0 1
-18.506562 7.042311 30.173515 36.090552 -0.363610 0.580752 0.012177 0.002291 -184785.000000 0 0 1
-19.077662 6.321611 28.925675 35.222360 -0.319975 0.607232 0.008432 0.009625 1155660.000000 0 0 1
-20.492562 6.591011 28.766145 35.928785 -0.311180 0.642428 0.022895 -0.000441 1021900.000000 0 0 1
-21.060462 5.497811 28.038045 35.495083 -0.255350 0.660128 0.007955 0.000348 838587.000000 0 0 1
-22.602762 5.598311 27.757245 36.231072 -0.242796 0.698019 0.015470 0.006925 810384.000000 0 0 1
-22.931362 6.527611 26.757015 35.838456 -0.277323 0.727859 0.022808 0.007088 457294.000000 0 0 1
-24.334062 6.648711 26.543815 36.618657 -0.266717 0.759949 0.025284 0.001773 338478.000000 0 0 1
-24.846762 7.358911 25.238995 36.173499 -0.287941 0.798586 0.025081 -0.001290 -103708.000000 0 0 1
-24.909662 6.642411 24.034825 35.246073 -0.260596 0.820419 0.018549 0.001892 311884.000000 0 0 1
-25.709532 5.480511 23.950945 35.562112 -0.210027 0.831868 0.020753 0.007407 -382649.000000 0 0 1
-25.694562 4.869911 22.505045 34.502226 -0.187309 0.860210 0.025003 0.010984 110803.000000 0 0 1
-26.485502 5.615911 21.576445 34.620272 -0.208943 0.897928 0.017059 0.013311 311677.000000 0 0 1
-26.687272 4.898311 20.326345 33.902275 -0.181524 0.927849 0.027585 0.010537 -234626.000000 0 0 1
-27.486232 5.710711 19.302145 34.068724 -0.204852 0.968465 0.039679 0.005049 517517.000000 0 0 1
-28.874022 5.808511 19.638445 35.399385 -0.198518 0.982712 0.049781 0.003297 -33537.700000 0 0 1
-29.607622 5.917711 18.478445 35.398920 -0.197272 1.021595 0.059124 0.005340 -304283.000000 0 0 1
-31.121712 6.028611 18.762445 36.836591 -0.191341 1.036376 0.061677 0.003278 74891.700000 0 0 1
-31.441252 7.179111 19.569445 37.723403 -0.224486 1.025395 0.065134 -0.012474 -106814.000000 0 0 1
-32.826622 7.261611 19.807045 39.020983 -0.217705 1.038400 0.074979 -0.018970 -154986.000000 0 0 1
-33.199692 8.392511 20.766245 40.048604 -0.247602 1.025670 0.072307 -0.010911 -53516.400000 0 0 1
-32.964782 8.069811 22.106545 40.503062 -0.240080 0.993454 0.055631 -0.006679 142157.000000 0 0 1
-33.118882 9.163811 22.956545 41.326005 -0.269941 0.981834 0.058183 0.002139 -126857.000000 0 0 1
-0.363662 32.068211 11.645742 34.119286 -1.559457 1.222471 0.016338 0.005024 -340580.000000 0 0 1
-0.235462 32.269011 13.075542 34.818304 -1.563500 1.185821 0.002815 -0.000692 180065.000000 0 0 1
-0.006662 33.662511 13.360242 36.216857 -1.570598 1.192976 -0.010545 -0.000132 -235365.000000 0 0 1
0.239138 33.984611 14.827842 37.079318 1.563760 1.159394 -0.016952 0.005053 -89792.700000 0 0 1
-0.910362 33.833011 15.629742 37.279890 -1.543895 1.138173 -0.004704 0.015559 44949.200000 0 0 1
-0.541662 34.227311 16.919442 38.184679 -1.554972 1.111748 -0.018474 0.001408 7266.490000 0 0 1
-1.717462 -34.206103 17.819942 38.607738 1.520629 1.091039 -0.003357 0.006101 -554629.000000 0 0 1
-2.537462 33.545611 18.234042 38.265219 -1.495298 1.074107 -0.011539 0.004027 -431406.000000 0 0 1
-3.253662 34.094111 19.318542 39.321759 -1.475653 1.057222 -0.001768 0.000460 -514668.000000 0 0 1
-4.364462 33.137711 19.745142 38.820446 -1.439843 1.037207 -0.004321 -0.011661 -557733.000000 0 0 1
-5.398862 33.013011 18.821542 38.383030 -1.408694 1.058292 0.002627 -0.015531 -505145.000000 0 0 1
-6.479462 32.313011 19.416242 38.250549 -1.372899 1.038391 0.023352 -0.027264 -632754.000000 0 0 1
-7.541462 32.060111 18.382642 37.717978 -1.339768 1.061720 0.002267 -0.025900 -1000660.000000 0 0 1
-8.212362 33.249111 18.040142 38.709081 -1.328648 1.085982 0.027774 -0.029447 -300030.000000 0 0 1
-8.876062 33.106911 16.829342 38.184797 -1.308853 1.114380 0.057009 -0.022451 -530041.000000 0 0 1
-9.892062 34.196011 16.537042 39.251672 -1.289207 1.135909 0.118739 -0.033329 131936.000000 0 0 1
-10.990262 34.351811 17.426342 40.056337 -1.261155 1.120707 0.111201 -0.031802 -84414.200000 0 0 1
-11.949062 -33.595103 16.953942 39.482238 1.229072 1.126960 0.086794 -0.033050 -294016.000000 0 0 1
-13.338462 -33.694803 17.635342 40.302104 1.193863 1.117892 0.112261 -0.036319 213473.000000 0 0 1
-13.518662 -33.207903 18.934142 40.546526 1.184191 1.084932 0.101353 -0.027087 647568.000000 0 0 1
-14.905262 -33.232503 19.317942 41.228012 1.149178 1.083132 0.075928 -0.034809 990026.000000 0 0 1
-15.163062 -33.001103 20.819342 41.862110 1.140094 1.050276 0.076890 -0.042988 -19215.200000 0 0 1
-14.866962 -31.650703 21.208242 40.897226 1.131665 1.025614 0.094205 -0.035251 148759.000000 0 0 1
-15.135762 -31.476303 22.576642 41.587903 1.122576 0.996951 0.068073 -0.022711 87686.000000 0 0 1
-14.754862 -30.089303 22.962542 40.624505 1.114883 0.970074 0.076255 -0.026933 -123186.000000 0 0 1
-15.024962 -29.775803 24.281042 41.254296 1.103473 0.941507 0.065817 -0.029893 -237372.000000 0 0 1
-14.731262 -28.382203 24.522042 40.297519 1.092040 0.916596 0.064432 -0.003676 -168814.000000 0 0 1
-15.791762 -27.346003 24.087042 39.716107 1.047100 0.919170 0.076001 -0.004924 516447.000000 0 0 1
-16.978862 -27.476703 24.873242 40.766765 1.017292 0.914565 0.078072 -0.005202 700051.000000 0 0 1
-18.113362 -26.747603 24.413542 40.491347 0.975540 0.923625 0.066374 0.000165 337904.000000 0 0 1
-19.211062 -26.636403 25.522442 41.592762 0.945961 0.910150 0.054000 0.002154 -48412.700000 0 0 1
-19.939962 -27.826703 25.884842 42.917974 0.949032 0.923385 0.060382 0.001509 765266.000000 0 0 1
-20.913162 -28.264703 24.932942 43.103426 0.933788 0.953976 0.051030 0.001423 -204644.000000 0 0 1
-22.216062 -27.463403 24.782442 43.150450 0.890632 0.959015 0.037164 0.004610 -641885.000000 0 0 1
-22.124462 -26.244303 24.122842 41.954341 0.870369 0.958219 0.045931 0.003593 404972.000000 0 0 1
-23.397762 -26.000203 23.533942 42.158181 0.838033 0.978546 0.049010 0.004590 248352.000000 0 0 1
-23.711862 -24.522503 23.231342 41.271065 0.802203 0.972910 0.051724 0.015360 -216554.000000 0 0 1
-24.127362 -23.862503 24.427842 41.812296 0.779879 0.946870 0.045086 0.017442 191443.000000 0 0 1
-24.400562 -22.464503 24.327142 41.132118 0.744110 0.937954 0.033509 0.015797 -23755.300000 0 0 1
-25.104212 -21.917403 25.567642 42.003551 0.717728 0.916373 0.033244 0.015581 -89421.500000 0 0 1
-26.444652 -22.312703 25.771642 43.143410 0.700855 0.930606 0.023992 0.024588 335664.000000 0 0 1
-26.960492 -21.551503 26.874042 43.744137 0.674359 0.909239 0.012651 0.014514 -290974.000000 0 0 1
-28.240712 -22.107203 27.566942 45.234970 0.664173 0.915472 0.008040 0.014351 847637.000000 0 0 1
-29.496512 -21.670403 27.019142 45.493786 0.633622 0.934888 -0.005246 0.013388 853244.000000 0 0 1
-29.883762 -22.447303 25.925642 45.486916 0.644239 0.964341 0.003068 0.019718 -286097.000000 0 0 1
-31.395512 -22.850403 26.061642 46.765674 0.629157 0.979688 -0.003993 0.013517 443273.000000 0 0 1
-31.964812 -23.468703 24.955042 46.853851 0.633315 1.009110 -0.003040 0.007319 243676.000000 0 0 1
-31.381082 -24.736503 24.631342 46.940067 0.667542 1.018386 -0.009042 0.010095 -673445.000000 0 0 1
-31.793052 -25.297203 23.273342 46.823018 0.672103 1.050602 -0.005713 0.009116 -999886.000000 0 0 1
-33.065602 -25.821703 23.243642 47.962081 0.663000 1.064861 -0.009321 0.003850 -815557.000000 0 0 1
-33.541242 -26.161703 21.907942 47.847754 0.662418 1.095201 0.001883 0.007552 33996.000000 0 0 1
-34.803106 -27.018903 22.063742 49.275613 0.660144 1.106536 0.004127 0.001340 -520429.000000 0 0 1
-34.588379 -28.209703 22.797542 50.118571 0.684171 1.098568 -0.005599 0.002375 29888.100000 0 0 1
-33.807662 -29.230703 22.188542 49.897128 0.712919 1.109973 -0.006567 -0.004090 -567482.000000 0 0 1
-34.382412 -30.045403 21.054842 50.281039 0.718184 1.138735 -0.004498 0.000817 -444918.000000 0 0 1
-34.569213 -29.463803 19.770942 49.538231 0.705836 1.160256 -0.001514 0.004468 322022.000000 0 0 1
-34.990306 -30.546703 18.965442 50.170814 0.717699 1.183142 -0.010279 0.014330 -530220.000000 0 0 1
-35.303390 -30.179803 17.486142 49.627764 0.707314 1.210720 0.002975 0.023854 -888195.000000 0 0 1
-34.177035 -29.892003 16.724742 48.387173 0.718616 1.217871 0.015792 0.012049 -150167.000000 0 0 1
-34.524598 -29.456903 15.389342 47.921695 0.706358 1.243868 0.018168 0.012699 80932.500000 0 0 1
-34.991685 -30.521103 14.330942 48.593534 0.717264 1.271430 0.004623 0.007539 -56431.600000 0 0 1
-33.998762 -31.416503 13.860142 48.322003 0.745944 1.279881 0.006382 0.003815 -143310.000000 0 0 1
-34.208158 -32.154403 12.663742 48.625858 0.754461 1.307326 0.006391 0.004770 -125267.000000 0 0 1
-34.407320 -31.319803 11.322942 47.885308 0.738458 1.332076 0.003573 0.003337 194667.000000 0 0 1
-35.595058 -30.564903 11.133942 48.220184 0.709514 1.337796 0.000412 0.006709 342591.000000 0 0 1
-35.605155 -29.852603 9.921442 47.511472 0.697741 1.360426 0.005138 -0.005686 -1079150.000000 0 0 1
34.572068 -29.001403 9.864442 46.191086 -0.697996 1.355582 0.025117 0.006180 -891819.000000 0 0 1
34.660338 -27.965803 8.859442 45.408312 -0.678906 1.374431 0.030173 -0.028466 667468.000000 0 0 1
33.498188 -27.120303 8.843042 43.998168 -0.680570 1.368431 0.031219 -0.018716 386881.000000 0 0 1
33.587118 -25.935303 7.821942 43.149938 -0.657546 1.388515 0.026923 -0.015471 305813.000000 0 0 1
34.335938 -24.773703 8.222342 43.131194 -0.625016 1.378987 0.037448 -0.024098 201890.000000 0 0 1
34.594868 -24.017303 7.141042 42.715690 -0.606853 1.402832 0.043617 -0.030588 -359199.000000 0 0 1
35.097088 -22.623403 7.535342 42.431183 -0.572566 1.392260 0.052129 -0.035990 -372030.000000 0 0 1
34.221258 -21.793603 8.271942 41.406287 -0.567071 1.369668 0.041489 -0.024202 -231461.000000 0 0 1
34.270088 -20.459903 7.910742 40.689389 -0.538225 1.375132 0.053896 -0.024707 -135152.000000 0 0 1
33.430388 -19.606003 8.860642 39.755467 -0.530413 1.346030 0.066970 -0.016904 -45240.800000 0 0 1
34.050608 -19.467603 10.124942 40.508590 -0.519370 1.318172 0.048920 -0.022489 -58175.200000 0 0 1
33.194428 -18.816503 11.008042 39.712816 -0.515693 1.289927 0.045559 -0.014428 -297922.000000 0 0 1
33.681958 -18.936203 12.453442 40.597318 -0.512166 1.259014 0.031980 -0.027200 353165.000000 0 0 1
34.874498 -18.224703 12.760642 41.366706 -0.481548 1.257206 0.016441 -0.019134 442495.000000 0 0 1
35.271498 -18.467303 14.104242 42.238010 -0.482330 1.230334 0.017733 -0.010206 -679238.000000 0 0 1
-34.876375 -17.779503 14.613642 41.785533 0.471446 1.213514 0.026912 -0.019011 -471780.000000 0 0 1
-33.704072 -18.350403 14.071442 40.874286 0.498577 1.219344 0.024593 -0.017716 366575.000000 0 0 1
-32.537342 -17.704903 14.596142 39.814439 0.498334 1.195440 0.008711 -0.015224 85613.100000 0 0 1
-31.300042 -17.836603 13.724442 38.551230 0.517962 1.206807 0.019862 -0.014837 -770218.000000 0 0 1
-30.660842 -19.040403 13.609742 38.572649 0.555718 1.210198 0.014945 -0.015366 -395253.000000 0 0 1
-29.646002 -18.910003 12.657042 37.372107 0.567794 1.225287 -0.012808 -0.000737 -737609.000000 0 0 1
-28.903602 -20.226903 12.365942 37.382647 0.610595 1.233652 -0.011398 -0.010826 -145930.000000 0 0 1
-29.615052 -21.246603 11.671742 38.271386 0.622326 1.260886 0.001940 -0.016424 188526.000000 0 0 1
-28.686942 -21.905803 10.776642 37.668831 0.652158 1.280653 -0.002977 -0.010749 130654.000000 0 0 1
-29.242602 -22.878803 9.692342 38.373309 0.663904 1.315450 0.015477 -0.016494 65017.500000 0 0 1
-29.987042 -23.971903 10.196642 39.722114 0.674380 1.311191 0.020420 -0.020992 259879.000000 0 0 1
-31.344912 -23.668603 10.471142 40.649122 0.646758 1.310261 0.032636 -0.026784 -697046.000000 0 0 1
-32.210312 -24.878003 10.655242 42.070814 0.657660 1.314738 0.042065 -0.027480 -621325.000000 0 0 1
-32.333812 -25.502603 9.379642 42.235481 0.667830 1.346849 0.042980 -0.019434 187353.000000 0 0 1
-33.120722 -26.687703 9.524142 43.588129 0.678250 1.350516 0.050349 -0.011540 172179.000000 0 0 1
-33.265002 -27.526803 8.222642 43.953351 0.691286 1.382611 0.044469 -0.013480 163288.000000 0 0 1
-32.087712 -28.136303 7.719642 43.368948 0.719880 1.391843 0.034140 -0.016749 -60341.600000 0 0 1
-32.312902 -28.596703 6.388242 43.620003 0.724462 1.423816 0.035301 -0.018359 -692973.000000 0 0 1
-31.091672 -28.950203 5.571342 42.846775 0.749747 1.440398 0.036169 -0.017437 -718553.000000 0 0 1
-30.441632 -27.820203 5.027242 41.544311 0.740435 1.449490 0.048918 -0.012863 -606018.000000 0 0 1
-29.216532 -28.218303 4.501842 40.867407 0.768020 1.460415 0.038962 -0.015954 -786198.000000 0 0 1
-28.389702 -27.125603 3.856142 39.454320 0.762632 1.472903 0.036878 -0.016541 2403.740000 0 0 1
-28.938122 -26.488503 2.675942 39.321958 0.741231 1.502692 0.035990 -0.012607 -324969.000000 0 0 1
-27.995522 -25.587403 2.181342 37.989771 0.740486 1.513346 0.033117 -0.017100 -460133.000000 0 0 1
-28.288892 -24.918703 0.868642 37.708854 0.722142 1.547759 0.040211 -0.019398 -335912.000000 0 0 1
-27.924162 -25.585103 -0.344958 37.874468 0.741713 1.579904 0.032475 -0.018225 -116003.000000 0 0 1
-28.173222 -24.844703 -1.571958 37.596020 0.722699 1.612620 0.031864 -0.019531 -38156.500000 0 0 1
-29.613842 -24.729303 -2.092758 38.638034 0.695756 1.624986 0.067135 -0.023433 -8407.950000 0 0 1
-30.456202 -23.789603 -1.467258 38.674000 0.663115 1.608745 0.056883 -0.020802 -555368.000000 0 0 1
-31.760582 -23.809003 -1.960058 39.742232 0.643271 1.620136 0.079041 -0.028314 -626228.000000 0 0 1
-32.393492 -22.427403 -1.901658 39.445444 0.605568 1.619025 0.074676 -0.027849 -451107.000000 0 0 1
-32.707082 -22.097203 -0.555758 39.475923 0.594168 1.584875 0.070668 -0.027698 225929.000000 0 0 1
-33.226892 -20.801303 -0.342758 39.202526 0.559346 1.579540 0.068014 -0.027591 -289434.000000 0 0 1
-33.164472 -20.416003 1.144842 38.961597 0.551810 1.541408 0.040481 -0.025885 -506600.000000 0 0 1
-33.864262 -21.395203 1.869742 40.100360 0.563469 1.524153 0.064784 -0.032543 218352.000000 0 0 1
-34.339790 -20.890703 3.099942 40.314418 0.546539 1.493826 0.062555 -0.033512 -497849.000000 0 0 1
-35.408449 -21.810403 3.792942 41.759291 0.552077 1.479842 0.075400 -0.022459 504758.000000 0 0 1
34.759188 -21.675803 3.097442 41.080843 -0.557591 1.495326 0.067561 -0.022086 -54755.500000 0 0 1
33.878658 -20.813703 3.792542 39.941921 -0.550912 1.475702 0.063264 -0.028392 -1394040.000000 0 0 1
32.652238 -20.546903 2.993242 38.695004 -0.561660 1.493364 0.055381 -0.015926 -1337460.000000 0 0 1
31.605668 -21.473303 3.137342 38.338804 -0.596775 1.488873 0.048711 -0.016399 -377706.000000 0 0 1
30.511488 -21.074403 2.331142 37.155290 -0.604460 1.508015 0.050433 -0.012158 -212350.000000 0 0 1
29.219248 -21.757803 2.785042 36.536596 -0.640061 1.494496 0.035108 0.004137 -363218.000000 0 0 1
29.029038 -23.065303 2.230442 37.143884 -0.671415 1.510711 0.022003 -0.004855 824189.000000 0 0 1
27.656838 -23.464303 2.410042 36.349449 -0.703570 1.504446 0.007339 0.006607 984702.000000 0 0 1
27.257998 -24.718503 1.530742 36.828603 -0.736578 1.529220 0.009251 0.004585 105241.000000 0 0 1
27.382658 -24.467603 0.139742 36.721833 -0.729237 1.566991 0.004775 -0.000219 23190.000000 0 0 1
26.733438 -25.433103 -0.608858 36.903795 -0.760477 1.587296 -0.001106 -0.000955 -340422.000000 0 0 1
25.913438 -24.789403 -1.766758 35.904626 -0.763233 1.620023 0.016201 -0.002378 -134690.000000 0 0 1
26.660168 -24.284403 -2.846658 36.174580 -0.738798 1.649570 0.002517 -0.025620 70134.900000 0 0 1
27.054288 -25.212403 -3.850358 37.180976 -0.750173 1.674540 0.013815 -0.029849 64143.500000 0 0 1
25.898638 -25.666103 -4.813258 36.778468 -0.780889 1.702044 0.018879 -0.027676 555930.000000 0 0 1
25.428338 -24.649103 -5.719158 35.873213 -0.769839 1.730907 0.026110 -0.031522 912299.000000 0 0 1
24.205538 -24.029903 -5.286358 34.515067 -0.781757 1.724562 0.032883 -0.034814 411269.000000 0 0 1
23.637038 -22.960603 -6.277258 33.545533 -0.770883 1.759032 0.034804 -0.037103 -114061.000000 0 0 1
23.080838 -23.493803 -7.455458 33.767850 -0.794265 1.793416 0.041926 -0.032549 -395916.000000 0 0 1
21.994538 -22.746203 -7.902058 32.612758 -0.802197 1.815532 0.037304 -0.033975 -476398.000000 0 0 1
22.226438 -21.358503 -8.590158 31.999859 -0.765487 1.842573 0.039793 -0.029232 -274223.000000 0 0 1
22.953138 -21.460903 -9.822658 32.922659 -0.751813 1.873766 0.049766 -0.026626 304776.000000 0 0 1
22.782338 -20.300503 -10.617258 32.309000 -0.727856 1.905634 0.045241 -0.025741 314259.000000 0 0 1
23.604238 -20.330003 -11.997858 33.382895 -0.711010 1.938423 0.041194 -0.026223 258587.000000 0 0 1
24.972638 -20.061003 -11.807758 34.139415 -0.676762 1.923961 0.045915 -0.025118 -305367.000000 0 0 1
25.467538 -19.703903 -13.099458 34.762553 -0.658489 1.957164 0.042742 -0.022416 407940.000000 0 0 1
27.020478 -19.881003 -13.143258 36.029234 -0.634335 1.944208 0.036785 -0.023921 454507.000000 0 0 1
27.408318 -21.276703 -13.324558 37.167968 -0.660113 1.937452 0.029967 -0.021981 363967.000000 0 0 1
27.757148 -22.003203 -12.177158 37.455085 -0.670276 1.901928 0.031598 -0.033400 -279291.000000 0 0 1
28.043008 -23.473103 -12.478258 38.640701 -0.696921 1.899621 0.021397 -0.014280 44107.500000 0 0 1
29.249008 -23.638803 -13.211758 39.860356 -0.679716 1.908638 0.018858 -0.014886 493447.000000 0 0 1
29.375038 -25.035003 -13.531258 40.899134 -0.705801 1.907995 0.023818 -0.003725 -145699.000000 0 0 1
-4.322162 -9.392989 -27.643968 29.514375 1.139536 2.783672 0.031706 0.001126 -57861.300000 0 0 1
-4.059262 -8.139889 -27.116128 28.601046 1.108199 2.817945 0.015597 0.004228 -211309.000000 0 0 1
-4.920762 -7.192389 -27.628468 28.970272 0.970779 2.836049 0.010153 0.000585 -504576.000000 0 0 1
-4.761462 -5.755689 -26.994038 28.008527 0.879652 2.871624 0.007505 -0.002971 -62956.600000 0 0 1
-5.345962 -5.549289 -25.711638 26.841428 0.804058 2.850423 0.002969 -0.000557 314172.000000 0 0 1
-5.003762 -4.303889 -25.097808 25.951129 0.710346 2.884440 0.015187 -0.008958 -36467.800000 0 0 1
-5.426562 -4.177389 -23.635558 24.607677 0.656056 2.859573 0.013185 -0.012802 -386815.000000 0 1 0
-4.744262 -5.073889 -22.804958 23.839432 0.818959 2.845921 0.002983 -0.020314 294597.000000 0 1 0
-5.231762 -4.943489 -21.482058 22.655866 0.757075 2.818285 0.007266 -0.015191 -53209.900000 0 1 0
-4.718362 -6.035189 -20.508858 21.892915 0.907247 2.784110 0.014334 -0.024411 -808533.000000 0 1 0
-5.241062 -7.311889 -20.712458 22.581815 0.948893 2.731838 0.007025 -0.017882 223389.000000 0 1 0
-4.398862 -8.369389 -20.203058 22.306058 1.086887 2.703873 0.009543 -0.014258 -1202060.000000 0 1 0
-5.095262 -9.725789 -20.112558 22.914355 1.088218 2.641895 0.014408 -0.014306 699572.000000 0 1 0
-6.195862 -9.731589 -19.164058 22.368587 1.003845 2.599711 0.013928 -0.018830 655930.000000 0 1 0
-7.340562 -9.051789 -19.644658 22.841439 0.889413 2.606154 0.005120 -0.015679 -1409460.000000 0 1 0
-8.568462 -9.229589 -18.730258 22.570477 0.822527 2.549647 0.008167 -0.010217 -517138.000000 0 1 0
-9.122162 -10.489789 -18.751958 23.342782 0.855020 2.503662 0.021126 -0.009122 -10916.300000 0 1 0
-9.921962 -10.689389 -17.584558 22.845679 0.822614 2.449184 0.023490 -0.007427 200084.000000 0 1 0
-10.759262 -12.004689 -17.706258 23.945477 0.840054 2.403035 0.032289 0.001128 -129148.000000 0 1 0
-11.805262 -11.963489 -18.625958 25.088157 0.792055 2.407472 0.041764 -0.008510 -37563.500000 0 0 1
-11.342262 -12.499189 -19.854158 26.058861 0.833886 2.437033 0.041593 -0.016836 -918766.000000 0 0 1
-12.411162 -12.433889 -20.969658 27.356263 0.786313 2.444232 0.040305 -0.025291 1073290.000000 0 0 1
-13.493862 -13.415289 -21.030858 28.361088 0.782478 2.406158 0.046677 -0.009051 804117.000000 0 0 1
-14.329062 -13.292589 -19.896258 27.890429 0.747892 2.365095 0.044316 -0.005838 -1160480.000000 0 0 1
-15.593862 -14.178789 -19.928458 29.006035 0.737905 2.328211 0.044629 -0.002164 -31131.600000 0 0 1
-15.386362 -15.559989 -19.947358 29.609973 0.791009 2.309960 0.042372 -0.003471 -402001.000000 0 0 1
-15.976362 -16.220689 -21.012858 30.982174 0.792987 2.316140 0.051511 -0.009062 -132449.000000 0 0 1
-15.508762 -17.712489 -21.272258 31.729528 0.851636 2.305577 0.024533 -0.003097 -209102.000000 0 0 1
-15.961562 -18.713389 -20.368558 31.934943 0.864593 2.262453 0.024345 0.006115 -64124.400000 0 0 1
-15.471562 -19.943189 -20.771958 32.689055 0.910998 2.259376 0.015915 0.007469 -400407.000000 0 0 1
-16.136262 -21.205589 -20.159558 33.413527 0.920328 2.218473 0.017782 0.006533 -133686.000000 0 0 1
-15.842862 -22.369189 -20.873858 34.454243 0.954558 2.221621 0.027765 -0.000940 -172460.000000 0 0 1
-16.563862 -23.443789 -20.359758 35.192223 0.955698 2.187722 0.045287 -0.000435 -256533.000000 0 0 1
-16.027762 -24.818189 -20.808958 36.136469 0.997374 2.184432 0.046776 -0.004035 -112269.000000 0 0 1
-16.288762 -25.225869 -22.115958 37.293215 0.997438 2.205612 0.032429 -0.010214 54305.200000 0 0 1
-15.558762 -26.405839 -22.427958 37.978372 1.038343 2.202531 0.037598 -0.009914 -46506.300000 0 0 1
-15.702662 -26.911609 -23.903558 39.270707 1.042605 2.225201 0.042881 -0.008748 -467337.000000 0 0 1
-16.898962 -27.556399 -24.227758 40.396960 1.020691 2.213975 0.056136 -0.011247 -547794.000000 0 0 1
-16.970562 -28.912979 -23.963558 41.209374 1.040025 2.191377 0.054509 -0.008163 -100781.000000 0 0 1
-18.040462 -29.534159 -24.877658 42.621857 1.022449 2.194054 0.055667 -0.013861 -133215.000000 0 0 1
-17.576762 -29.607819 -26.232898 43.286609 1.035057 2.221854 0.047109 -0.008828 64650.200000 0 0 1
-17.770762 -28.421499 -27.032418 43.061970 1.012012 2.249464 0.067256 -0.008907 -442393.000000 0 0 1
-16.676062 -28.134149 -28.050358 43.086471 1.035737 2.279730 0.060735 -0.006567 -513400.000000 0 0 1
-16.699062 -28.879339 -29.255918 44.370978 1.046534 2.290748 0.056123 -0.000021 -218779.000000 0 0 1
-15.607962 -28.417629 -30.008988 44.178157 1.068540 2.317567 0.023546 0.011083 -71957.700000 0 0 1
-15.898162 -28.584869 -31.511348 45.418183 1.063225 2.337555 0.032297 0.008284 -56440.300000 0 0 1
-15.754962 -29.912959 -31.930658 46.503451 1.086023 2.327640 0.019480 0.006489 -95799.100000 0 0 1
-16.389962 -30.097679 -33.136708 47.671193 1.072140 2.339369 0.034952 0.005976 -279174.000000 0 0 1
-16.410062 -31.572009 -33.604108 48.941986 1.091461 2.327614 0.030826 0.000727 49004.100000 0 0 1
-15.150762 -31.867239 -34.210909 49.147257 1.126994 2.340733 0.029934 -0.002670 283207.000000 0 0 1
-15.304162 -32.888509 33.596343 49.442752 1.135264 0.823716 0.029166 -0.002066 -463769.000000 0 0 1
-14.025662 -33.267659 32.868036 48.823807 1.171809 0.832273 0.029873 -0.007460 -538124.000000 0 0 1
-13.180262 -34.073590 33.616951 49.647037 1.201706 0.826956 0.023922 -0.002787 -33414.800000 0 0 1
-12.101162 34.148310 32.881960 48.926154 -1.230233 0.833791 0.026565 -0.007037 643977.000000 0 0 1
-11.142462 33.272131 33.766040 48.696351 -1.247647 0.804600 0.031156 -0.007290 -20864.900000 0 0 1
-10.446962 34.074575 -34.080435 49.312187 -1.273304 2.333828 0.036227 -0.006978 -265143.000000 0 0 1
-9.685462 33.192895 -33.242948 47.965301 -1.286886 2.336525 0.033375 -0.012607 -88113.900000 0 0 1
-8.924362 34.129916 -32.280478 47.817619 -1.315041 2.311863 0.022568 -0.011830 162264.000000 0 0 1
-9.809562 -34.104567 -31.314318 47.327957 1.290725 2.293807 0.030582 -0.007572 212767.000000 0 0 1
-9.259962 -32.933199 -30.747438 45.997255 1.296699 2.302936 0.029798 -0.002913 -108962.000000 0 0 1
-10.241862 -32.168549 -29.812168 45.038613 1.262562 2.294180 0.034710 -0.004114 317584.000000 0 0 1
-10.428562 -32.636799 -28.475768 44.550925 1.261516 2.264219 0.055546 0.001711 42489.100000 0 0 1
-10.921262 -33.972959 -28.330808 45.563918 1.259761 2.241812 0.062256 -0.010281 -335536.000000 0 0 1
-11.123362 -34.261397 -26.849428 44.927323 1.256870 2.211325 0.058500 -0.007682 136448.000000 0 0 1
-9.969462 -34.377407 -26.039858 44.263648 1.288539 2.199739 0.053442 -0.004958 -295119.000000 0 0 1
-10.322062 34.270029 -24.623558 43.443061 -1.278241 2.173414 0.054314 -0.013543 449152.000000 0 0 1
-9.188862 34.216727 -23.536258 42.534399 -1.308438 2.157173 0.068294 -0.014173 212861.000000 0 0 1
-8.403662 33.049024 -23.661158 41.505541 -1.321795 2.177390 0.052337 -0.013383 -71185.000000 0 0 1
-7.744862 32.794949 -22.416158 40.471913 -1.338885 2.157801 0.065991 -0.013862 112228.000000 0 0 1
-6.938962 31.468334 -22.417158 39.254735 -1.353763 2.178604 0.057363 -0.019785 -771357.000000 0 0 1
-5.739862 31.485724 -23.094558 39.467144 -1.390476 2.195873 0.033748 -0.026509 -1241650.000000 0 0 1
-5.021462 30.323354 -22.802958 38.271345 -1.406688 2.209087 0.020212 -0.017115 1421620.000000 0 0 1
-3.434062 30.474694 -23.012358 38.341471 -1.458584 2.214541 0.027721 -0.026660 1764650.000000 0 0 1
-2.933862 30.741484 -24.322158 39.309208 -1.475648 2.237933 0.031340 -0.028323 -161064.000000 0 0 1
-3.489462 31.795384 -25.042358 40.623177 -1.461486 2.235029 0.040512 -0.034406 -926422.000000 0 0 1
-2.818562 32.006394 -26.445398 41.613852 -1.482960 2.259446 0.029482 -0.020485 1108270.000000 0 0 1
-1.624762 32.847421 -26.476458 42.220798 -1.521373 2.248615 0.037912 -0.033346 1238120.000000 0 0 1
-1.991362 34.226841 -26.524518 43.347344 -1.512681 2.229265 0.036175 -0.026847 -393538.000000 0 0 1
-0.946562 -33.675009 -27.144428 43.263405 1.542695 2.249035 0.017269 -0.012050 -998891.000000 0 0 1
0.190338 -33.467879 -26.372318 42.610261 -1.565109 2.238163 0.031714 -0.018863 -664179.000000 0 0 1
0.953938 -32.472969 -27.030708 42.261838 -1.541428 2.264775 0.014419 -0.005629 -438957.000000 0 0 1
2.193438 -31.956939 -26.309378 41.451665 -1.502267 2.258417 0.020501 -0.003343 -817804.000000 0 0 1
2.023738 -31.334949 -24.995558 40.134181 -1.506302 2.243112 0.015793 -0.002032 742617.000000 0 0 1
3.279638 -30.828789 -24.491158 39.509329 -1.464813 2.239390 0.003302 0.000624 748170.000000 0 0 1
3.171538 -30.121649 -23.115258 38.101018 -1.465892 2.222678 0.007166 0.000484 -214172.000000 0 0 1
2.859738 -30.989279 -22.059858 38.146440 -1.478775 2.187432 0.015966 0.001990 349546.000000 0 0 1
2.941038 -30.277829 -20.815158 36.860107 -1.473965 2.170874 0.012449 0.008717 -498685.000000 0 0 1
2.736038 -31.184939 -19.528458 36.896437 -1.483285 2.128545 0.019342 0.009468 -116805.000000 0 0 1
1.510338 -31.878799 -19.388858 37.342560 -1.523454 2.116730 0.018841 0.007831 -3447.080000 0 0 1
1.493038 -33.203919 -19.871458 38.724724 -1.525861 2.109643 0.023516 0.008317 -511152.000000 0 0 1
2.126138 -34.229756 -18.898658 39.158089 -1.508762 2.074445 0.017820 0.000812 196551.000000 0 0 1
3.542138 -34.191200 -18.907758 39.231215 -1.467567 2.073683 0.022657 -0.003924 -36008.000000 0 0 1
4.022138 33.814604 -17.828658 38.437821 1.452406 2.053111 0.042410 -0.015436 110078.000000 0 0 1
5.187238 32.907871 -18.233958 37.977792 1.414454 2.071590 0.046830 -0.013840 41619.700000 0 0 1
6.412238 33.527968 -18.536658 38.843908 1.381828 2.068272 0.063938 -0.016190 -121399.000000 0 0 1
7.458538 32.587154 -18.678358 38.294040 1.345792 2.080320 0.060751 -0.032570 777459.000000 0 0 1
8.855638 33.142920 -19.097358 39.263018 1.309700 2.078756 0.044318 -0.024569 506007.000000 0 0 1
9.690738 33.540678 -18.031058 39.293849 1.289531 2.047528 0.033876 -0.020902 -862307.000000 0 0 1
10.860238 34.079256 -18.536958 40.285969 1.262295 2.048943 0.027605 -0.010922 -894120.000000 0 0 1
11.905038 34.369589 -17.468858 40.350460 1.237347 2.018535 0.003410 -0.010791 -936683.000000 0 0 1
12.556638 33.220480 -17.014758 39.379836 1.209417 2.017581 0.001768 -0.019467 96946.400000 0 0 1
13.307638 33.483623 -15.806758 39.345900 1.192501 1.984211 -0.007601 -0.025519 -196547.000000 0 0 1
14.433638 32.506404 -15.471458 38.786109 1.152923 1.981104 0.000288 -0.020200 -350555.000000 0 0 1
14.011238 31.420514 -14.726658 37.422426 1.151335 1.975259 0.021000 -0.022258 -614915.000000 0 0 1
14.908838 30.367194 -14.839858 36.941323 1.114413 1.984184 0.013021 -0.016401 -312113.000000 0 0 1
14.595538 29.157864 -13.926758 35.456528 1.106693 1.974453 0.024021 -0.022245 -186317.000000 0 0 1
14.536038 29.549664 -12.556658 35.244130 1.113634 1.935076 0.029231 -0.024812 241335.000000 0 0 1
13.241738 29.407404 -11.977058 34.403328 1.147705 1.926379 0.048250 -0.026770 457338.000000 0 0 1
12.732838 27.975614 -11.561558 32.839455 1.143676 1.930571 0.042754 -0.019678 -397814.000000 0 0 1
12.217838 27.262594 -12.681158 32.455144 1.149479 1.972219 0.031548 -0.019005 62532.800000 0 0 1
11.624538 25.965714 -12.509158 31.077761 1.149867 1.985055 0.049310 -0.018825 775374.000000 0 0 1
10.594838 25.772794 -11.320058 30.077088 1.180770 1.956669 0.047839 -0.020063 -333401.000000 0 0 1
9.458538 26.560484 -11.506658 30.452035 1.228686 1.958282 0.034588 -0.018504 -375478.000000 0 0 1
8.828538 26.854244 -10.261858 30.073232 1.253170 1.919020 0.017397 -0.009743 -51209.700000 0 0 1
7.688038 27.863614 -10.251758 30.668966 1.301578 1.911628 0.024245 -0.010329 -144897.000000 0 0 1
8.167638 29.114264 -10.669658 32.065438 1.297289 1.910011 0.032198 -0.015976 -792549.000000 0 0 1
7.201838 30.071504 -10.591258 32.685419 1.335733 1.900789 0.018249 -0.015545 -860082.000000 0 0 1
7.711438 31.461244 -10.990958 34.206393 1.330426 1.897912 0.036686 -0.025304 -116371.000000 0 0 1
8.733638 31.849784 -10.073758 34.527754 1.303162 1.866861 0.025630 -0.023244 90675.300000 0 0 1
9.381938 33.069062 -10.375058 35.905786 1.294353 1.863929 0.035256 -0.021881 335777.000000 0 0 1
10.427238 33.055499 -11.532158 36.529221 1.265229 1.891987 0.026650 -0.030926 -480195.000000 0 0 1
11.725838 32.632424 -11.168058 36.429328 1.225833 1.882381 0.021289 -0.022092 -1038360.000000 0 0 1
12.534838 33.129658 -12.145458 37.446076 1.209086 1.901116 0.029541 -0.027218 -1373670.000000 0 0 1
13.985738 33.073234 -11.699758 37.766705 1.170730 1.885769 0.033967 -0.026171 -639154.000000 0 0 1
14.382138 33.989510 -10.661058 38.416024 1.170507 1.852004 0.041706 -0.023021 518932.000000 0 0 1
15.803538 34.130248 -10.631758 39.085291 1.137155 1.846282 0.034045 -0.023460 475978.000000 0 0 1
16.218038 -33.807029 -9.455058 38.669602 -1.123501 1.817809 0.043806 -0.026375 -214189.000000 0 0 1
16.045038 -34.391627 -8.179858 38.821867 -1.134274 1.783090 0.040639 -0.023890 221087.000000 0 0 1
16.549538 -33.505889 -7.209958 38.059366 -1.112017 1.761388 0.035957 -0.015878 -866559.000000 0 0 1
17.018838 -34.205698 -5.923558 38.662116 -1.109115 1.724616 0.045494 -0.008985 703256.000000 0 0 1
18.123938 33.674019 -5.997558 38.709009 1.077044 1.726363 0.041044 -0.014380 1513090.000000 0 0 1
19.413938 34.234243 -6.318558 39.859862 1.054926 1.729987 0.044290 -0.008723 -2385.850000 0 0 1
20.230438 33.307520 -7.250858 39.638825 1.024965 1.754755 0.032769 -0.001325 149218.000000 0 0 1
20.516238 32.014984 -6.711758 38.612471 1.000893 1.745507 0.038574 0.008517 79880.900000 0 0 1
21.526438 32.041324 -5.718358 39.022220 0.979225 1.717867 0.040361 0.005958 -747580.000000 0 0 1
21.844138 30.688194 -5.028258 38.002829 0.952189 1.703498 0.026323 0.004171 -461197.000000 0 0 1
22.396638 29.748034 -5.898158 37.700706 0.925456 1.727889 0.020394 0.002358 -55766.500000 0 0 1
22.895238 28.594324 -5.200758 36.998313 0.895634 1.711831 0.021768 0.004636 180029.000000 0 0 1
23.901038 27.830814 -6.121458 37.192554 0.861217 1.736137 0.011772 0.012594 55824.100000 0 0 1
25.170838 28.435334 -6.342558 38.501524 0.846221 1.736286 0.012187 0.010224 52968.800000 0 0 1
26.084838 27.550724 -6.925958 38.567215 0.812722 1.751357 0.007018 0.010749 -79730.000000 0 0 1
26.825538 26.593124 -5.972658 38.242338 0.781047 1.727618 0.008193 0.013905 -1027970.000000 0 0 1
27.958238 27.148344 -5.364558 39.337948 0.770702 1.707594 0.022934 0.009142 -224339.000000 0 0 1
28.579638 26.185284 -4.529758 39.025422 0.741705 1.687131 0.028098 0.013112 -170335.000000 0 0 1
29.835838 26.772044 -3.872658 40.273031 0.731328 1.667105 0.044530 0.006996 -375084.000000 0 0 1
29.529938 27.787644 -3.009858 40.659927 0.755010 1.644889 0.047172 -0.004015 1096080.000000 0 0 1
30.458138 27.863444 -1.854458 41.322012 0.740938 1.615690 0.055606 -0.005018 1086610.000000 0 0 1
29.960038 29.038904 -1.028558 41.736312 0.769787 1.595443 0.064480 -0.008232 214277.000000 0 0 1
30.137438 30.258614 -1.750158 42.742391 0.787405 1.611754 0.065115 -0.003648 130882.000000 0 0 1
29.462038 31.346864 -1.142758 43.034213 0.816384 1.597354 0.057072 -0.005492 -119960.000000 0 0 1
32.841818 23.069311 19.090545 44.443526 0.612360 1.126806 0.057902 -0.016877 5990.730000 0 0 1
32.871278 22.888111 20.504645 44.998077 0.608235 1.097662 0.051516 -0.020403 -505098.000000 0 0 1
33.816088 23.657611 21.139445 46.369025 0.610455 1.097418 0.056239 -0.020615 -568127.000000 0 0 1
33.530458 23.612711 22.674945 46.861549 0.613550 1.065724 0.048069 -0.011596 530496.000000 0 0 1
32.327268 24.277011 23.077645 46.551081 0.644126 1.052099 0.042815 -0.007637 544631.000000 0 0 1
32.064068 24.054611 24.427785 46.940871 0.643632 1.023483 0.050698 -0.005124 -432594.000000 0 0 1
30.747448 24.700711 24.841025 46.611234 0.676775 1.008724 0.045651 -0.005798 -149574.000000 0 0 1
30.872228 26.138011 24.870065 47.484841 0.702547 1.019552 0.040707 -0.011295 910765.000000 0 0 1
29.548668 26.646811 25.097185 47.043012 0.733805 1.008070 0.030070 -0.014579 801681.000000 0 0 1
29.489908 28.205911 25.367525 48.049343 0.763147 1.014614 0.020686 0.000088 -119926.000000 0 0 1
29.612398 29.042811 24.246415 48.044433 0.775688 1.041801 0.022398 -0.013446 238799.000000 0 0 1
29.399768 30.366211 24.576845 48.892478 0.801567 1.044110 0.017412 -0.006201 -391925.000000 0 0 1
29.592268 31.262811 23.393745 48.993193 0.812842 1.073001 0.018902 -0.009863 -160944.000000 0 0 1
30.950228 31.510211 23.118045 49.852322 0.794363 1.088595 -0.005630 -0.008736 -156552.000000 0 0 1
31.029138 32.346811 21.976045 49.920638 0.806187 1.114953 -0.005786 -0.006636 45509.100000 0 0 1
32.484388 32.710211 21.623245 50.919132 0.788862 1.132212 -0.018984 -0.010394 -56260.700000 0 0 1
33.008198 33.740311 22.418445 52.254534 0.796366 1.127384 -0.011008 0.005042 506896.000000 0 0 1
34.427998 33.769311 22.232245 53.102976 0.775740 1.138824 -0.015978 0.008120 471549.000000 0 0 1
34.977238 -33.829503 23.026045 53.833458 -0.768719 1.128819 -0.014478 0.010652 -628269.000000 0 0 1
34.323868 -32.615303 22.686445 52.502958 -0.759880 1.123978 -0.018075 0.011229 287773.000000 0 0 1
34.691188 -31.670503 23.673145 52.601493 -0.739911 1.103978 -0.004841 0.002653 -431391.000000 0 0 1
33.858768 -30.338603 23.704345 51.271268 -0.730620 1.090173 -0.004142 0.007499 1110960.000000 0 0 1
32.454748 -30.287703 24.030805 50.479057 -0.750873 1.074633 -0.009689 0.014256 1036640.000000 0 0 1
31.649888 -30.647503 22.925545 49.664529 -0.769309 1.090989 -0.008702 0.019793 -340246.000000 0 0 1
30.949348 -32.030103 23.046145 50.148922 -0.802557 1.093303 -0.020136 0.016469 -299493.000000 0 0 1
30.007938 -32.186403 24.065535 50.155666 -0.820411 1.070350 -0.013037 0.012943 -79654.000000 0 0 1
29.337408 -33.436803 24.017465 50.552368 -0.850609 1.075718 -0.014517 0.006104 699.439000 0 0 1
28.511928 -33.608603 25.292675 50.815230 -0.867260 1.049807 -0.020296 0.006714 -279431.000000 0 0 1
27.994458 33.920111 25.467385 50.821760 0.880814 1.045913 -0.010841 -0.004720 -56136.400000 0 0 1
27.288898 33.640811 26.629825 50.848163 0.889273 1.019593 -0.017700 0.001130 -1054090.000000 0 0 1
27.007168 32.128911 26.781915 49.788804 0.871792 1.002840 -0.003780 0.002044 507072.000000 0 0 1
26.152238 31.537411 25.799225 48.416400 0.878476 1.008818 -0.013883 0.000214 -195354.000000 0 0 1
24.808038 31.941711 25.810105 47.977840 0.910446 1.002782 -0.022831 0.000275 -625497.000000 0 0 1
24.182538 31.690511 24.371005 46.722901 0.918974 1.022063 0.001252 -0.016798 -72266.200000 0 0 1
24.430238 32.606111 23.316645 46.943167 0.927773 1.051005 0.008463 -0.022484 -643662.000000 0 0 1
25.711038 32.435811 22.815345 47.261816 0.900538 1.067011 -0.001630 -0.014763 -889033.000000 0 0 1
25.993538 33.245811 21.590645 47.403627 0.907215 1.097903 0.007304 -0.009155 655229.000000 0 0 1
27.357058 33.635411 21.363645 48.333785 0.887973 1.112967 0.011058 -0.004119 740785.000000 0 0 1
27.471708 34.204511 20.066745 48.242279 0.894131 1.141801 0.006947 -0.003597 515332.000000 0 0 1
28.946318 34.361011 19.583545 49.011056 0.870721 1.159744 0.011194 -0.006711 343359.000000 0 0 1
29.578158 33.206011 19.128145 48.408599 0.843117 1.164577 0.011172 -0.014409 -172471.000000 0 0 1
30.675138 33.606511 18.328645 49.054061 0.830969 1.187864 0.011108 0.000685 -310997.000000 0 0 1
31.475558 32.471711 17.680445 48.556368 0.800975 1.198106 0.004372 -0.003869 -951952.000000 0 0 1
32.323218 31.896611 18.589345 49.068808 0.778755 1.182251 -0.002740 -0.004366 -805423.000000 0 0 1
33.081728 30.938111 17.953245 48.722545 0.751927 1.193424 0.004930 -0.011609 108421.000000 0 0 1
34.164948 30.254311 18.864345 49.380466 0.724767 1.178815 0.011913 -0.023450 -99392.500000 0 0 1
35.214828 31.091311 19.253745 50.768695 0.723289 1.181817 0.020996 -0.015472 -543016.000000 0 0 1
-35.454941 30.477411 20.251445 50.951412 -0.710047 1.162043 0.030666 -0.018567 -286713.000000 0 0 1
-34.525853 31.540811 20.887745 51.216747 -0.740247 1.150720 0.027614 -0.013618 -60443.200000 0 0 1
-33.524362 31.984911 19.986345 50.461583 -0.761903 1.163563 0.024025 -0.011324 921146.000000 0 0 1
-32.409872 32.750411 20.528945 50.442311 -0.790624 1.151652 0.021839 -0.005342 946529.000000 0 0 1
-32.626342 34.172111 21.178645 51.775924 -0.808535 1.149390 0.005933 -0.000055 -508991.000000 0 0 1
-32.855342 34.149211 22.562045 52.485121 -0.804706 1.126442 0.014499 -0.002013 300110.000000 0 0 1
-32.872852 -33.396303 23.132845 52.259602 0.793297 1.112242 0.004304 -0.000117 -506050.000000 0 0 1
-32.977502 -33.437803 24.713565 53.069413 0.792329 1.086389 0.010473 -0.009853 410147.000000 0 0 1
-34.206844 -34.011703 25.190545 54.419368 0.782538 1.089536 0.004251 0.001702 225530.000000 0 0 1
-34.013472 34.347611 26.515535 55.133912 -0.790286 1.069082 0.012325 -0.001693 78044.400000 0 0 1
-35.275414 33.923611 27.290525 56.035158 -0.765866 1.062116 0.005135 -0.003453 -44973.300000 0 0 1
-35.106341 33.367011 28.580795 56.237660 -0.760002 1.037686 0.021398 -0.011152 -558962.000000 0 0 1
35.030648 33.125211 29.138215 56.333484 0.757448 1.027168 0.016034 -0.014406 -163717.000000 0 0 1
34.966008 31.943211 30.122385 56.127965 0.740251 1.004307 0.027242 -0.012075 -211735.000000 0 0 1
34.992908 30.623511 29.621825 55.133978 0.718906 1.003600 0.028882 -0.009790 -384465.000000 0 0 1
-35.279815 30.167611 28.958475 54.711455 -0.707445 1.013027 0.027524 -0.007296 -746475.000000 0 0 1
-35.440799 28.693811 28.575015 53.813720 -0.680583 1.011018 0.036791 -0.003774 -68113.400000 0 0 1
34.787558 28.457011 27.793295 52.843570 0.685634 1.016960 0.030800 0.000804 676827.000000 0 0 1
34.493958 27.074211 27.553475 51.788415 0.665464 1.009789 0.039789 -0.006604 -21540.700000 0 0 1
34.167188 26.033911 28.701125 51.661550 0.651109 0.981759 0.043320 -0.010096 -542577.000000 0 0 1
35.259828 25.421311 29.344135 52.445941 0.624662 0.976999 0.027656 -0.004053 -143871.000000 0 0 1
34.969708 23.999611 29.582945 51.710854 0.601470 0.961752 0.021321 0.002028 201765.000000 0 0 1
35.238438 22.921311 28.481765 50.777405 0.576701 0.975307 0.036652 -0.003528 -238815.000000 0 0 1
34.394478 23.041111 27.398475 49.644227 0.590243 0.986160 0.041264 -0.005341 -20542.500000 0 0 1
34.961098 22.292711 26.279725 49.090399 0.567640 1.005894 0.039070 -0.011447 204471.000000 0 0 1
34.749808 20.693611 26.381585 48.288328 0.537106 0.992815 0.039924 -0.007761 -273172.000000 0 0 1
33.423308 20.215411 26.277955 47.077715 0.543963 0.978603 0.054220 0.003225 199330.000000 0 0 1
33.247788 18.933211 26.877375 46.757621 0.517659 0.958408 0.057131 0.005878 -710678.000000 0 0 1
33.130558 18.949511 28.448735 47.603028 0.519550 0.930261 0.045913 0.010912 -88362.400000 0 0 1
31.976918 19.541611 29.037055 47.408315 0.548553 0.911591 0.033851 0.003358 456005.000000 0 0 1
31.800938 20.934011 28.776695 47.724528 0.582176 0.923571 0.032545 -0.006108 -98964.500000 0 0 1
30.776178 21.666811 29.752065 47.977173 0.613414 0.901888 0.036044 -0.004098 627406.000000 0 0 1
29.382448 21.581811 29.573905 46.943782 0.633516 0.889262 0.039355 0.000105 -40836.900000 0 0 1
28.810658 22.245211 28.488945 46.222542 0.657507 0.906706 0.029162 0.003362 -340828.000000 0 0 1
28.643188 23.816411 28.504145 46.905649 0.693647 0.917646 0.025955 0.003460 -126947.000000 0 0 1
29.921858 24.401611 28.342115 47.896050 0.684128 0.937578 0.042682 -0.006185 72754.300000 0 0 1
30.185058 25.708411 28.805225 49.008173 0.705476 0.942504 0.030790 0.000752 32158.600000 0 0 1
30.243858 25.946111 30.344765 50.086888 0.709061 0.919972 0.030578 -0.000950 148015.000000 0 0 1
31.480098 25.465011 30.858865 50.909065 0.680159 0.919577 0.028320 0.009516 233712.000000 0 0 1
31.540668 25.728611 32.252775 51.932809 0.684258 0.900717 0.031019 0.000833 211222.000000 0 0 1
31.231188 24.445911 33.069787 51.639137 0.664128 0.875775 0.033220 0.001693 25673.400000 0 0 1
31.562808 24.485311 -34.284242 52.641719 0.659788 2.280060 0.023427 -0.008979 254150.000000 0 0 1
31.313448 23.189111 -33.674688 51.500015 0.637424 2.283494 0.019936 -0.009132 -213276.000000 0 0 1
32.006208 23.056011 -32.318018 50.994424 0.624260 2.257195 0.018303 -0.012008 -168165.000000 0 0 1
31.302708 23.894711 -31.416238 50.376550 0.651986 2.244172 -0.001467 -0.012185 690484.000000 0 0 1
31.675948 23.499611 -30.072088 49.597660 0.638281 2.222222 0.039952 -0.023796 -647851.000000 0 0 1
32.947168 24.118511 -29.513208 50.381027 0.631905 2.196663 0.033670 -0.000610 -207754.000000 0 0 1
33.494108 23.444211 -28.377438 49.767110 0.610693 2.177551 0.029080 -0.004172 -47199.300000 0 0 1
34.617878 24.109811 -27.814648 50.530536 0.608343 2.153702 0.032997 0.007767 -2565.170000 0 0 1
35.202908 23.258411 -26.703948 49.932947 0.583857 2.135063 0.022747 0.010126 169663.000000 0 0 1
-35.351075 22.192111 -27.183608 49.811011 -0.560584 2.148062 0.013485 0.004984 163172.000000 0 0 1
-35.297623 21.104011 -26.290648 48.810856 -0.538865 2.139598 0.000011 0.004268 -31570.600000 0 0 1
-34.239264 19.996411 -26.581788 47.736518 -0.528587 2.161378 0.010258 0.006842 1050450.000000 0 0 1
-32.891652 20.423911 -26.304008 46.807027 -0.555678 2.167558 0.009089 0.005879 506948.000000 0 0 1
-31.966592 19.357611 -26.389878 45.749380 -0.544496 2.185646 -0.013005 0.001870 332634.000000 0 0 1
-30.628172 19.781911 -25.735218 44.628583 -0.573469 2.185423 -0.008954 0.003225 -427337.000000 0 0 1
-30.729742 19.833811 -24.322758 43.923726 -0.573154 2.157657 -0.016379 0.000560 -377561.000000 0 0 1
-29.501842 19.713311 -23.680158 42.658214 -0.589068 2.159296 -0.005417 -0.001341 -757680.000000 0 0 1
-29.688612 20.090011 -22.228158 42.179536 -0.594910 2.125850 -0.017177 -0.002718 -85331.800000 0 0 1
-30.456612 19.239011 -21.441858 41.922524 -0.563393 2.107684 -0.033252 0.001843 -99978.400000 0 0 1
-30.894012 19.805811 -20.210558 41.894830 -0.570085 2.074202 -0.028405 0.002213 -766766.000000 0 0 1
-31.907062 18.848411 -19.461458 41.857754 -0.533574 2.054366 -0.025424 0.002450 195068.000000 0 0 1
-32.525902 19.311211 -18.300558 42.021038 -0.535788 2.021400 -0.028532 -0.000936 104651.000000 0 0 1
-33.437412 20.343511 -18.689958 43.373189 -0.546577 2.016298 -0.033336 0.000099 -1716680.000000 0 0 1
-34.636548 20.462811 -17.787058 43.986322 -0.533617 1.987094 -0.008545 -0.006207 -983580.000000 0 0 1
-34.336037 20.905111 -16.484558 43.447989 -0.546893 1.959954 -0.012332 -0.011178 418944.000000 0 0 1
-35.445056 20.764611 -15.573758 43.932482 -0.529932 1.933168 0.009912 -0.000342 19631.000000 0 0 1
-35.245911 21.566311 -14.257358 43.711009 -0.549110 1.903049 0.008399 0.001057 -306112.000000 0 0 1
-35.350379 22.972311 -14.350258 44.534327 -0.576267 1.898880 0.015753 -0.011032 750137.000000 0 0 1
34.719378 23.439511 -14.580858 44.355916 0.593827 1.905749 0.025828 -0.005214 439806.000000 0 0 1
34.605968 24.946711 -14.793058 45.152474 0.624602 1.904585 0.019945 -0.009732 -142536.000000 0 0 1
34.919978 25.766011 -13.688358 45.504542 0.635685 1.876341 0.021984 -0.006759 108847.000000 0 0 1
34.891508 27.148411 -14.002158 46.373634 0.661232 1.877526 0.022368 0.000305 -1226860.000000 0 0 1
-35.248125 27.797211 -14.471058 47.164889 -0.667760 1.882645 0.019277 -0.000074 -955472.000000 0 0 1
-35.102883 27.565211 -15.812858 47.350816 -0.665694 1.911289 0.020165 0.002668 -683952.000000 0 0 1
-33.920722 28.128411 -16.235358 46.961790 -0.692318 1.923796 0.012968 -0.003557 -1338310.000000 0 0 1
-33.664562 27.982711 -17.759058 47.241073 -0.693491 1.956190 0.010057 -0.001713 -129292.000000 0 0 1
-33.397402 26.737411 -18.319458 46.538996 -0.675097 1.975381 0.010208 -0.008212 -265237.000000 0 0 1
-32.223462 26.118611 -17.901358 45.177339 -0.681139 1.978221 0.005267 -0.001804 -565957.000000 0 0 1
-32.006332 24.738311 -18.577758 44.514295 -0.658009 2.001317 -0.001879 -0.000958 -313507.000000 0 0 1
-31.632862 24.810911 -19.947458 44.878952 -0.665119 2.031382 -0.002678 0.003387 300892.000000 0 0 1
-31.105832 23.580911 -20.408058 44.046805 -0.648656 2.052542 -0.004050 0.004150 -123510.000000 0 0 1
-30.813132 23.642211 -21.905558 44.589873 -0.654467 2.084341 -0.004239 0.007615 -36546.100000 0 0 1
-32.012722 23.757911 -22.632058 45.841714 -0.638451 2.087136 -0.000257 0.011498 56802.900000 0 0 1
-31.844082 23.352111 -23.992158 46.205955 -0.632744 2.116762 0.006298 0.006596 59096.500000 0 0 1
-32.763662 24.146711 -24.966958 47.747986 -0.635127 2.121035 -0.003035 0.022548 -7352.670000 0 0 1
-32.475872 25.557811 -24.927158 48.262275 -0.666750 2.113547 -0.007755 0.021515 -36223.200000 0 0 1
-33.461222 26.259911 -25.656198 49.673703 -0.665395 2.113548 -0.008661 0.014328 -99159.200000 0 0 1
-32.972502 27.664211 -26.027398 50.298309 -0.698078 2.114677 -0.018189 0.020872 100226.000000 0 0 1
-31.951302 27.696811 -27.016988 50.178847 -0.714192 2.139350 -0.007001 0.007689 -33139.500000 0 0 1
-31.460522 29.044211 -27.160478 50.705248 -0.745483 2.136079 -0.014261 -0.002776 109986.000000 0 0 1
-30.089222 29.191011 -27.834198 50.321159 -0.770247 2.156914 -0.002125 0.000996 -553825.000000 0 0 1
-29.011452 28.769811 -27.053658 49.002722 -0.781216 2.155659 -0.027915 0.006931 2032.870000 0 0 1
-27.764532 28.822111 -27.767188 48.709343 -0.804086 2.177374 0.023599 -0.000967 677720.000000 0 0 1
-26.934762 30.082211 -27.513738 48.861300 -0.840544 2.168927 0.016675 -0.007868 -453055.000000 0 0 1
-26.288022 30.070111 -26.216528 47.776333 -0.852406 2.151646 0.028946 -0.011397 50066.600000 0 0 1
-27.163892 30.247711 -25.124058 47.791415 -0.839061 2.124337 0.014124 -0.008959 -104637.000000 0 0 1
-26.478242 30.886711 -23.863858 47.165347 -0.862097 2.101293 0.005524 -0.012642 31523.600000 0 0 1
-26.032322 32.187611 -24.058958 47.880660 -0.890732 2.097258 0.017369 -0.005987 -48226.800000 0 0 1
-25.051462 32.548011 -23.087958 47.116903 -0.914820 2.082903 0.024198 0.006537 139.541000 0 0 1
-24.379662 33.887511 -23.374658 47.844602 -0.947149 2.081228 0.010480 0.014566 -253569.000000 0 0 1
-25.078672 -33.730603 -23.044758 47.934896 0.931469 2.072308 -0.005056 0.010913 -155402.000000 0 0 1
-24.426062 -32.603703 -23.534758 47.048048 0.927820 2.094659 0.007878 0.014119 -168539.000000 0 0 1
16.327638 8.311511 -25.483688 31.386165 0.470858 2.518265 0.028828 0.000134 934572.000000 0 0 1
15.017938 7.848211 -25.063258 30.253922 0.481555 2.547095 0.030389 -0.002065 1137390.000000 0 0 1
14.978738 6.412211 -25.249878 30.050547 0.404483 2.568535 0.033176 -0.009059 -66618.700000 0 0 1
13.557938 5.820211 -25.155588 29.163267 0.405494 2.611139 0.023003 -0.007191 85749.500000 0 0 1
13.071438 5.935311 -23.804558 27.798335 0.426231 2.598918 0.045617 -0.027125 495669.000000 0 0 1
11.718338 5.480211 -23.809658 27.097085 0.437443 2.643886 0.044274 -0.026273 -52941.400000 0 0 1
10.957338 5.804311 -22.588058 25.767686 0.487139 2.639555 0.056682 -0.035362 -638395.000000 0 0 1
11.281538 4.844511 -21.603158 24.848317 0.405608 2.624786 0.051893 -0.033751 163328.000000 0 1 0
10.888638 5.185611 -20.295158 23.608186 0.444460 2.605412 0.063967 -0.033266 -107211.000000 0 1 0
11.615338 6.415611 -19.661358 23.720142 0.504638 2.547915 0.068044 -0.040702 -448984.000000 0 1 0
11.192138 6.650511 -18.331658 22.484282 0.536153 2.524061 0.059245 -0.034371 -339163.000000 0 1 0
11.505538 7.922311 -17.778958 22.610435 0.603010 2.475620 0.062122 -0.033508 892782.000000 0 1 0
13.032438 8.238411 -17.539658 23.352847 0.563722 2.420480 0.066876 -0.029380 687093.000000 0 1 0
13.385738 7.584511 -16.356758 22.455430 0.515507 2.386795 0.069663 -0.035211 109235.000000 0 1 0
14.789438 7.643211 -16.189758 23.221852 0.476999 2.342249 0.053070 -0.034093 -129562.000000 0 1 0
15.269038 7.366511 -14.757958 22.476796 0.449507 2.287080 0.045179 -0.032869 -870654.000000 0 1 0
16.660038 7.290111 -14.626258 23.337309 0.412478 2.248150 0.044190 -0.034961 41647.200000 0 1 0
17.040738 7.567111 -13.268458 22.884490 0.417903 2.189281 0.036625 -0.037775 -483932.000000 0 1 0
17.482738 9.044211 -13.109158 23.649396 0.477409 2.158333 0.042234 -0.033638 -1175470.000000 0 1 0
16.451838 9.982711 -13.231958 23.353848 0.545393 2.173153 0.048351 -0.023176 235563.000000 0 1 0
16.936038 11.327511 -13.213258 24.284400 0.589506 2.146118 0.057011 -0.023847 -925749.000000 0 1 0
15.752138 12.264311 -13.182958 23.923494 0.661543 2.154414 0.060410 -0.012408 -595245.000000 0 1 0
14.988438 12.179011 -11.986358 22.730032 0.682353 2.126258 0.072525 -0.009022 296935.000000 0 1 0
15.531938 13.056011 -11.008558 23.084386 0.699006 2.067902 0.069426 -0.011466 -143086.000000 0 1 0
15.278038 14.592611 -11.108958 23.869891 0.762456 2.054879 0.074964 -0.015855 -249181.000000 0 1 0
13.984038 14.933811 -10.706258 23.091037 0.818230 2.052912 0.078332 -0.026533 -260899.000000 0 1 0
13.823638 16.301011 -10.851858 23.970372 0.867451 2.040609 0.066322 -0.026695 1193650.000000 0 1 0
12.591038 16.937611 -10.045858 23.373835 0.931547 2.015057 0.055499 -0.026585 1008780.000000 0 1 0
12.697138 16.661611 -8.599158 22.644472 0.919622 1.960319 0.060748 -0.020448 420940.000000 0 1 0
11.617038 17.126611 -7.783258 22.110076 0.974781 1.930528 0.053218 -0.014586 131326.000000 0 1 0
11.887838 16.960811 -6.269558 21.640175 0.959466 1.864729 0.041718 -0.014569 825343.000000 0 1 0
12.931138 17.856911 -5.796658 22.796597 0.944043 1.827897 0.045972 -0.008261 804063.000000 0 1 0
13.253838 17.613711 -4.458058 22.489582 0.925715 1.770346 0.030831 -0.008841 -499488.000000 0 1 0
14.243538 18.653211 -3.987858 23.805958 0.918650 1.739105 0.024258 -0.013329 -454974.000000 0 1 0
15.545538 18.582611 -4.533058 24.648038 0.874155 1.755761 0.031300 -0.017160 334705.000000 0 1 0
16.210938 19.846511 -4.338658 25.990430 0.885886 1.738514 0.028207 -0.019701 -2683.480000 0 0 1
17.535938 19.905811 -5.140058 27.021669 0.848609 1.762182 0.024866 -0.016148 705793.000000 0 0 1
18.622438 19.164111 -4.532058 27.103466 0.799732 1.738799 0.034546 -0.030714 710468.000000 0 0 1
18.777838 17.957611 -5.260458 26.509534 0.763074 1.770559 0.028181 -0.018881 -447313.000000 0 0 1
19.837338 17.007811 -4.671358 26.544438 0.708753 1.747700 0.045435 -0.025846 -569417.000000 0 0 1
21.138938 17.430711 -4.931058 27.838817 0.689549 1.748865 0.042279 -0.031516 -572293.000000 0 0 1
22.027138 16.562911 -4.277858 27.889512 0.644736 1.724790 0.050733 -0.035014 -298205.000000 0 0 1
23.536338 16.703311 -4.536858 29.215456 0.617194 1.726717 0.054002 -0.033769 21060.000000 0 0 1
24.037138 17.968011 -4.049058 30.282475 0.641906 1.704908 0.057445 -0.035139 83467.500000 0 0 1
25.444138 17.879811 -4.049558 31.360655 0.612541 1.700287 0.044692 -0.023672 -132967.000000 0 0 1
26.230538 19.066611 -3.471958 32.613360 0.628543 1.677457 0.054700 -0.028192 -347660.000000 0 0 1
26.185238 20.279811 -4.214558 33.387122 0.658982 1.697367 0.046177 -0.024700 167195.000000 0 0 1
25.990838 21.400611 -3.388158 33.837692 0.688842 1.671094 0.055061 -0.007270 -274960.000000 0 0 1
25.998438 22.702611 -4.198458 34.770021 0.717827 1.691841 0.039509 -0.003950 94058.600000 0 0 1
27.268338 23.121711 -4.686858 36.057487 0.703293 1.701148 0.037230 0.004885 533542.000000 0 0 1
27.646238 22.450911 -5.895058 36.098609 0.682063 1.734835 0.035169 0.001179 -37772.300000 0 0 1
28.737838 23.087511 -6.783758 37.482207 0.676801 1.752785 0.034404 0.001826 1968.960000 0 0 1
28.221138 23.977311 -7.749958 37.833925 0.704275 1.777098 0.016959 0.007084 285218.000000 0 0 1
29.168338 24.852111 -8.356658 39.220570 0.705668 1.785511 0.021115 0.005784 524602.000000 0 0 1
30.133438 24.263511 -9.452658 39.825806 0.677905 1.810433 0.028336 0.000932 595245.000000 0 0 1
29.457138 24.043911 -10.710058 39.503645 0.684561 1.845348 0.029011 0.000435 -267554.000000 0 0 1
30.303638 23.583711 -11.713258 40.146012 0.661335 1.866869 0.021761 -0.006534 -393222.000000 0 0 1
29.687138 22.951811 -13.002258 39.713606 0.658136 1.904348 0.031462 -0.005224 -31689.900000 0 0 1
29.204138 23.849311 -13.960158 40.206434 0.684806 1.925393 0.026311 -0.002690 16854.600000 0 0 1
29.238638 23.208711 -15.201658 40.306732 0.670930 1.957513 0.039467 -0.002799 -90635.400000 0 0 1
29.480438 24.172711 -16.387758 41.496684 0.686792 1.976774 0.038127 0.000415 -1087470.000000 0 0 1
30.810538 24.376011 -16.692658 42.686344 0.669326 1.972573 0.039770 0.005870 -1022990.000000 0 0 1
30.980838 24.864511 -18.016758 43.619489 0.676310 1.996590 0.040109 0.003569 4142.570000 0 0 1
32.417138 25.350611 -18.279558 45.029619 0.663676 1.988809 0.028867 0.001752 -348122.000000 0 0 1
33.306838 24.308611 -18.518758 45.201752 0.630472 1.992912 0.032834 0.004700 664283.000000 0 0 1
34.621138 24.871711 -18.771458 46.578888 0.622966 1.985593 0.028685 -0.000965 1211930.000000 0 0 1
-35.570062 23.923211 -18.896558 46.846870 -0.592076 1.985992 0.016289 -0.009041 -121351.000000 0 0 1
35.597938 22.979111 -19.911758 46.815925 0.573218 2.010112 0.010145 0.002393 105245.000000 0 0 1
-34.832362 23.084211 -20.919858 46.731303 -0.585267 2.034946 0.008853 0.004012 -391914.000000 0 0 1
-34.935262 22.096211 -22.113458 46.879847 -0.563967 2.062020 0.009784 0.005463 -156202.000000 0 0 1
-34.639862 20.754011 -21.702058 45.843520 -0.539784 2.063937 -0.004282 -0.002299 220933.000000 0 0 1
-34.268462 19.965411 -22.812158 45.753029 -0.527540 2.092772 -0.008366 0.001178 87948.600000 0 0 1
-33.975762 18.487611 -22.606058 44.801540 -0.498334 2.099694 -0.017926 -0.001594 183160.000000 0 0 1
-35.166162 17.766911 -22.294558 45.269961 -0.467821 2.085734 -0.008534 -0.006353 383339.000000 0 0 1
-34.968862 16.384311 -22.307158 44.596819 -0.438164 2.094622 -0.010949 0.000040 -933758.000000 0 0 1
35.102438 15.676011 -22.213958 44.400207 0.420005 2.094755 -0.000310 -0.003047 -578108.000000 0 0 1
34.404138 15.933911 -23.434058 44.572293 0.433727 2.124398 0.021545 -0.007221 188709.000000 0 0 1
33.151538 15.301711 -23.622858 43.488001 0.432433 2.145045 0.020256 -0.008985 94213.800000 0 0 1
33.171338 13.932611 -24.233158 43.378581 0.397645 2.163546 0.005403 -0.003525 -477262.000000 0 0 1
33.390538 13.842711 -25.599498 44.293148 0.393003 2.187018 0.002324 0.004209 248378.000000 0 0 1
33.924338 12.568311 -25.973988 44.536179 0.354803 2.193472 0.007189 0.013009 -399729.000000 0 0 1
33.932438 12.298411 -27.508388 45.380312 0.347712 2.222038 0.024264 0.014380 -920006.000000 0 0 1
32.662638 11.950711 -27.957448 44.623831 0.350754 2.247869 0.021550 0.017843 -565894.000000 0 0 1
31.935038 13.040011 -28.453648 44.715754 0.387666 2.260518 0.019120 0.013441 -457436.000000 0 0 1
32.255138 13.422811 -29.921598 45.998563 0.394346 2.279026 0.018552 -0.000025 80919.500000 0 0 1
33.558638 13.971811 -30.112338 47.203248 0.394513 2.262603 0.022156 0.003157 -219307.000000 0 0 1
33.725438 14.180111 -31.473258 48.260198 0.398017 2.281224 0.027000 -0.009688 -1607230.000000 0 0 1
35.156238 14.582311 -31.712488 49.540759 0.393187 2.265463 0.038516 -0.010428 -310037.000000 0 0 1
-35.271562 13.568111 -31.379348 49.120670 -0.367226 2.263762 0.029331 -0.000962 507786.000000 0 0 1
-34.991762 13.446511 -29.989568 48.006315 -0.366879 2.245544 0.008959 0.000113 -1514930.000000 0 0 1
-33.913562 12.401711 -29.727128 46.772153 -0.350580 2.259547 0.003515 0.006708 74761.000000 0 0 1
-34.381062 11.090011 -30.078678 47.008219 -0.312025 2.265112 0.008515 0.005867 164127.000000 0 0 1
-33.368962 10.203111 -29.736528 45.845962 -0.296739 2.276564 0.005015 0.000918 -181767.000000 0 0 1
-33.747262 8.813611 -30.126938 46.088934 -0.255459 2.283220 0.010846 0.004527 -234110.000000 0 0 1
-33.770262 8.738211 -31.564088 47.043369 -0.253201 2.306295 0.020944 -0.001037 -5402.890000 0 0 1
-33.994862 7.497611 -32.224218 47.436959 -0.217076 2.317613 0.022711 -0.000105 269429.000000 0 0 1
-35.235862 6.597411 -31.886698 47.977634 -0.185093 2.297776 0.020249 0.013012 237020.000000 0 0 1
-35.118262 6.011311 -30.656028 47.002343 -0.169530 2.281310 0.023713 0.008857 487036.000000 0 0 1
35.195738 5.149111 -30.304208 46.728988 0.145269 2.276421 0.024547 0.016868 155350.000000 0 0 1
35.311538 4.374311 -28.990128 45.896262 0.123250 2.254469 0.024347 0.011337 -478589.000000 0 0 1
-35.073262 3.431811 -29.058098 45.675859 -0.097536 2.260334 0.032425 0.007347 -97161.200000 0 0 1
-35.356362 2.332211 -28.195798 45.282608 -0.065868 2.242938 0.042601 0.008874 -577529.000000 0 0 1
-34.304462 1.223611 -28.086558 44.352543 -0.035654 2.256551 0.043963 0.006422 -783899.000000 0 0 1
-33.166662 1.592411 -27.379198 43.037004 -0.047976 2.260331 0.037152 -0.000715 -169382.000000 0 0 1
-32.303062 0.480911 -27.166588 42.210693 -0.014886 2.269982 0.034239 -0.003748 411906.000000 0 0 1
-31.233362 0.651311 -26.051748 40.677275 -0.020850 2.265880 0.031483 -0.002535 136396.000000 0 0 1
-31.693362 0.342011 -24.767058 40.224288 -0.010791 2.234101 0.025955 -0.003395 498747.000000 0 0 1
-30.696962 0.641511 -23.781358 38.836426 -0.020895 2.229822 0.023805 0.003624 247470.000000 0 0 1
-31.109162 0.253711 -22.301258 38.277806 -0.008155 2.192740 0.028995 0.009389 -610971.000000 0 0 1
-31.263162 -1.172989 -22.262958 38.397923 0.037502 2.189274 0.041716 0.001492 196281.000000 0 0 1
-31.678062 -1.621289 -21.003258 38.042937 0.051136 2.155669 0.050063 -0.005410 -504867.000000 0 0 1
-33.139462 -1.428889 -20.584758 39.038416 0.043091 2.126210 0.041238 -0.001529 -477342.000000 0 0 1
-33.965562 -2.587089 -20.789858 39.907025 0.076021 2.118768 0.050543 -0.004961 330651.000000 0 0 1
-35.300362 -2.199789 -20.502158 40.881452 0.062236 2.096131 0.049476 -0.000181 462022.000000 0 0 1
35.124338 -3.399789 -20.225258 40.673563 -0.096492 2.091232 0.045590 -0.003070 131930.000000 0 0 1
34.582838 -4.107489 -21.334158 40.841039 -0.118219 2.120425 0.045499 0.005931 320038.000000 0 0 1
35.533338 -4.702189 -22.189658 42.155778 -0.131567 2.125125 0.045729 0.002340 -338202.000000 0 0 1
34.825438 -5.517689 -23.249858 42.235198 -0.157132 2.153742 0.046769 0.006346 -721445.000000 0 0 1
34.251238 -6.727289 -22.772658 41.677304 -0.193941 2.148861 0.050033 0.008211 706705.000000 0 0 1
33.521538 -7.509889 -23.746758 41.761232 -0.220393 2.175638 0.050233 0.014280 273615.000000 0 0 1
32.228538 -6.933889 -24.338558 40.977102 -0.211917 2.206763 0.022648 0.020763 -649071.000000 0 0 1
32.430538 -5.933389 -25.300488 41.557907 -0.180956 2.225344 0.013724 0.019546 -463044.000000 0 0 1
31.199338 -5.345889 -25.568988 40.690913 -0.169698 2.250254 -0.019604 0.022837 -348848.000000 0 0 1
31.277138 -4.050189 -26.362018 41.104980 -0.128777 2.267032 0.010656 -0.005447 -105182.000000 0 0 1
31.453038 -4.306089 -27.713008 42.140798 -0.136060 2.288463 0.010492 -0.005919 223103.000000 0 0 1
31.032638 -3.273889 -28.589378 42.321337 -0.105109 2.312481 0.003552 -0.007856 -62870.400000 0 0 1
30.858938 -3.816589 -30.000008 43.206954 -0.123054 2.338289 0.005509 -0.007226 100892.000000 0 0 1
30.270638 -2.807689 -30.804238 43.279276 -0.092488 2.362790 0.003805 -0.017359 -165041.000000 0 0 1
29.640538 -3.421989 -31.882668 43.666647 -0.114941 2.389320 0.019929 -0.021373 -1445280.000000 0 0 1
29.132638 -2.447489 -32.880538 43.998075 -0.083815 2.414812 0.024857 -0.018812 -793613.000000 0 0 1
28.108038 -1.597589 -32.341998 42.879120 -0.056776 2.425322 0.019232 -0.018321 417020.000000 0 0 1
26.847038 -2.179489 -32.072958 41.883031 -0.081004 2.443041 0.028679 -0.022502 -661894.000000 0 0 1
26.059338 -2.558689 -33.358888 42.408153 -0.097873 2.476104 0.037693 -0.033198 -1055790.000000 0 0 1
26.633938 -3.631189 -34.147951 43.458426 -0.135501 2.474722 0.049809 -0.036239 -48140.100000 0 0 1
26.006338 -3.602789 33.357604 42.450435 -0.137659 0.666806 0.049425 -0.035661 -735472.000000 0 0 1
26.438338 -4.732289 32.458315 42.129829 -0.177118 0.691272 0.059214 -0.041315 1145510.000000 0 0 1
27.782438 -4.719289 31.890345 42.557369 -0.168260 0.723717 0.063416 -0.038586 1155460.000000 0 0 1
28.102538 -3.791189 30.930015 41.961787 -0.134096 0.742028 0.073606 -0.039344 -433877.000000 0 0 1
28.817238 -2.529489 31.504245 42.770889 -0.087553 0.742794 0.044428 -0.033928 506177.000000 0 0 1
30.215338 -2.675989 31.802515 43.949147 -0.088333 0.761762 0.043928 -0.030630 598296.000000 0 0 1
30.708238 -1.440889 32.246685 44.552449 -0.046888 0.761515 0.027030 -0.022512 -358213.000000 0 0 1
32.203538 -1.431089 32.575825 45.829033 -0.044410 0.780144 0.021136 -0.022577 -79356.100000 0 0 1
33.047538 -1.659089 31.445355 45.647592 -0.050161 0.810864 0.036568 -0.023434 576894.000000 0 0 1
34.396838 -1.767789 31.900635 46.945905 -0.051349 0.823690 0.034309 -0.011112 786358.000000 0 0 1
35.461038 -2.360889 30.924775 47.110516 -0.066479 0.854719 0.021012 -0.012081 264808.000000 0 0 1
35.650738 -1.529389 29.797685 46.488882 -0.042873 0.875043 0.020193 -0.007023 235756.000000 0 0 1
-34.730162 -1.947389 28.892965 45.219242 0.056013 0.877660 0.019345 -0.007164 156679.000000 0 0 1
-34.691962 -1.238789 27.516275 44.296864 0.035693 0.900550 0.027466 -0.004072 -228416.000000 0 0 1
35.692938 -1.604289 26.625015 44.558400 -0.044917 0.930378 0.042595 -0.022212 -192173.000000 0 0 1
-35.229962 -1.459589 25.283915 43.388443 0.041407 0.948708 0.039450 -0.018667 -145499.000000 0 0 1
-26.261152 15.362911 12.335642 32.830400 -0.529321 1.185603 0.066749 -0.019762 955131.000000 0 0 1
-27.519812 14.799511 12.780342 33.759483 -0.493410 1.182545 0.042596 -0.018767 1228120.000000 0 0 1
-28.196822 15.634911 13.710842 35.035673 -0.506285 1.168710 0.051136 -0.030484 220557.000000 0 0 1
-29.457232 14.882511 14.214942 35.934415 -0.467818 1.164097 0.048675 -0.032213 413894.000000 0 0 1
-30.490792 15.661311 14.793942 37.333976 -0.474500 1.163357 0.048722 -0.038343 438504.000000 0 0 1
-31.563722 14.831611 15.267842 38.070359 -0.439274 1.158141 0.052052 -0.019873 -377951.000000 0 0 1
-32.718242 15.507011 15.905942 39.546804 -0.442596 1.156872 0.066338 -0.034846 -1152440.000000 0 0 1
-32.367832 15.999011 17.201542 39.994224 -0.459067 1.126192 0.063836 -0.021146 207273.000000 0 0 1
-33.440112 16.263811 18.084242 41.349636 -0.452673 1.118147 0.065556 -0.025290 -381891.000000 0 0 1
-32.891592 16.512211 19.480042 41.641109 -0.465262 1.083987 0.041492 -0.009972 167344.000000 0 0 1
-32.167582 15.425111 20.073942 40.934710 -0.447133 1.058260 0.025763 -0.003805 899228.000000 0 0 1
-30.799682 15.721511 20.378942 40.138355 -0.471968 1.038263 0.022278 0.002132 682046.000000 0 0 1
-30.499842 16.288211 21.793442 40.871754 -0.490509 1.008400 0.033444 -0.003896 -11118.700000 0 0 1
-31.144222 17.570711 21.980942 41.974447 -0.513659 1.019638 0.022150 0.002960 361557.000000 0 0 1
-31.205042 18.135611 23.273042 42.945192 -0.526463 0.998071 0.016298 -0.002464 -811220.000000 0 0 1
-31.926762 17.302211 24.392542 43.745637 -0.496630 0.979305 0.013734 0.001561 1611790.000000 0 0 1
-33.289942 16.877011 24.052242 44.402298 -0.469208 0.998351 0.057370 0.003311 1408440.000000 0 0 1
-34.252856 17.890711 24.183742 45.587159 -0.481338 1.011612 0.055429 -0.004648 -560460.000000 0 0 1
-35.653367 17.351111 23.786942 46.238969 -0.452920 1.030448 0.007867 -0.011788 114542.000000 0 0 1
35.141378 16.604211 24.803442 46.106691 0.441404 1.002784 0.028907 0.002515 -1287590.000000 0 0 1
34.002068 15.952311 24.453442 44.817269 0.438670 0.993661 0.047951 -0.000331 -811767.000000 0 0 1
33.435508 15.075411 25.614142 44.735729 0.423586 0.961165 0.061416 0.005796 -406793.000000 0 0 1
32.729608 15.809111 26.575942 45.027057 0.449973 0.939463 0.049236 0.003566 301970.000000 0 0 1
32.168908 15.203411 27.764442 45.131436 0.441498 0.908168 0.050950 0.007920 582904.000000 0 0 1
31.118038 14.098611 27.533942 43.877341 0.425403 0.892431 0.043603 0.001813 160009.000000 0 0 1
31.833638 12.941111 27.140642 43.788894 0.386117 0.902300 0.041910 0.002125 -340222.000000 0 0 1
30.941538 11.947711 27.269242 42.938771 0.368500 0.882694 0.034647 0.005020 -368804.000000 0 0 1
31.549568 10.559311 26.845642 42.750003 0.322971 0.891857 0.045414 -0.002536 -3506.310000 0 0 1
32.339538 9.961311 27.814942 43.803475 0.298801 0.882796 0.045743 -0.002516 -399572.000000 0 0 1
33.089078 8.905811 27.277942 43.798249 0.262916 0.898468 0.034907 -0.002127 96605.400000 0 0 1
34.145658 8.237411 28.218742 45.056390 0.236720 0.894000 0.029516 0.003330 -195310.000000 0 0 1
35.352262 8.936411 28.237442 46.119355 0.247595 0.911869 0.029627 0.001443 -1026000.000000 0 0 1
-35.102266 8.154211 28.879542 46.181037 -0.228250 0.895210 0.040054 -0.002486 -621906.000000 0 0 1
-33.752932 8.842411 29.105542 45.437663 -0.256217 0.875569 0.044044 -0.000631 -70518.200000 0 0 1
-33.096802 9.109811 27.861442 44.211389 -0.268596 0.889002 0.035660 0.002403 345591.000000 0 0 1
-31.801122 9.645211 28.094942 43.516287 -0.294480 0.868963 0.034827 0.003512 382478.000000 0 0 1
-31.101992 10.219211 26.860542 42.346840 -0.317458 0.883695 0.026117 0.006427 -1034.540000 0 0 1
-30.735462 9.314611 25.798042 41.194290 -0.294259 0.894059 0.032175 -0.003072 -620776.000000 0 0 1
-29.861292 9.929111 24.983442 40.180298 -0.321007 0.899779 0.024245 0.002132 -1047050.000000 0 0 1
-29.209872 9.021611 23.974242 38.850616 -0.299561 0.905760 0.022651 0.007700 -774198.000000 0 0 1
-28.136872 9.600211 23.327642 37.789238 -0.328811 0.905479 0.016929 0.000860 -689660.000000 0 0 1
-27.519992 8.571811 22.578642 36.614491 -0.301951 0.906305 0.006967 0.009460 -294164.000000 0 0 1
-26.544492 9.207811 21.594642 35.436173 -0.333895 0.915498 0.009635 0.013828 -584305.000000 0 0 1
-25.322132 9.749011 22.162742 35.034850 -0.367508 0.885902 0.013263 0.001198 1252230.000000 0 0 1
-24.533262 10.350911 21.125942 33.990112 -0.399253 0.900100 0.008262 -0.002228 411001.000000 0 0 1
-23.878462 9.359111 20.050342 32.554418 -0.373546 0.907266 0.005630 0.005585 -767259.000000 0 0 1
-24.788562 8.838411 19.095942 32.515309 -0.342500 0.943089 0.011074 0.008300 498380.000000 0 0 1
-24.160862 8.232911 17.933842 31.195364 -0.328414 0.958329 0.014211 0.012762 -56379.500000 0 0 1
-23.898362 6.722911 17.897342 30.604641 -0.274225 0.946173 0.013005 0.017054 -78407.500000 0 0 1
-22.758762 6.434611 18.705042 30.153674 -0.275539 0.901641 0.019190 0.013328 674938.000000 0 0 1
-22.871062 5.281611 19.555742 30.551725 -0.226951 0.876186 0.022504 0.015558 -210976.000000 0 0 1
-22.930962 3.869411 18.917842 29.978094 -0.167167 0.887883 0.015217 0.014662 -11361.900000 0 0 1
-24.195862 3.712611 18.283242 30.553235 -0.152252 0.929286 0.033291 0.008099 626685.000000 0 0 1
-24.191662 2.707311 17.288942 29.857554 -0.111447 0.953236 0.039560 0.005457 -126213.000000 0 0 1
-24.071062 1.235411 17.716542 29.913511 -0.051278 0.936937 0.029039 0.008188 -116689.000000 0 0 1
-22.741362 0.804511 17.920042 28.964542 -0.035362 0.903724 0.007434 0.013560 278366.000000 0 0 1
-22.797262 -0.477089 18.489442 29.356468 0.020924 0.889468 0.012712 0.007068 27501.500000 0 0 1
-21.433362 -1.200889 18.679642 28.456285 0.055970 0.854716 0.019580 0.012907 241379.000000 0 0 1
-20.571362 -0.618289 19.642242 28.449620 0.030047 0.808724 -0.000036 0.012019 -192353.000000 0 0 1
-19.877762 -1.632389 20.270242 28.437173 0.081938 0.777303 0.007252 0.009485 -266183.000000 0 0 1
-18.868562 -1.296589 21.382542 28.546749 0.068609 0.724191 0.009014 0.007660 65119.700000 0 0 1
-19.450662 -0.990289 22.606442 29.838903 0.050869 0.711143 0.003884 0.005640 -245168.000000 0 0 1
-18.540962 -1.169189 23.668642 30.088850 0.062976 0.665473 0.009975 0.005887 -205728.000000 0 0 1
-19.086662 -0.746689 25.037042 31.491454 0.039101 0.651719 0.012129 0.009214 53328.200000 0 0 1
-19.545562 0.597911 25.163742 31.868486 -0.030581 0.660620 0.022223 -0.007973 -208272.000000 0 0 1
-20.948962 0.627811 25.114142 32.710446 -0.029960 0.695441 0.001009 -0.002428 -874695.000000 0 0 1
-21.561962 1.748611 25.935442 33.773110 -0.080920 0.695191 0.000268 -0.006502 -747706.000000 0 0 1
-21.340562 3.043211 25.404142 33.317430 -0.141647 0.703646 0.005760 0.003616 -92194.600000 0 0 1
-22.398662 3.553011 24.646342 33.492777 -0.157315 0.743845 -0.001518 0.001688 -1009540.000000 0 0 1
-21.937262 4.350611 23.433142 32.392644 -0.195780 0.762069 0.004854 0.007966 -203300.000000 0 0 1
-21.412062 3.615611 22.363442 31.171663 -0.167281 0.770692 0.011238 0.008795 1213130.000000 0 0 1
-20.076762 3.079611 22.495342 30.308427 -0.152205 0.734428 0.002342 0.013575 95577.700000 0 0 1
-19.730462 2.326511 21.219542 29.068415 -0.117373 0.752495 0.005650 0.012465 -447937.000000 0 0 1
-19.174162 3.098711 20.196442 28.020470 -0.160223 0.765877 0.008837 0.019293 156522.000000 0 0 1
-19.062062 2.459811 19.008842 27.032368 -0.128333 0.790925 0.016892 0.007165 135974.000000 0 0 1
-18.496662 3.199011 17.728242 25.819580 -0.171257 0.813967 0.004587 0.014606 -250499.000000 0 0 1
-17.165262 3.615911 17.794242 24.987118 -0.207617 0.778259 0.009687 0.006537 -424635.000000 0 1 0
-16.881762 4.465311 16.698142 24.161143 -0.258583 0.807765 0.011766 0.007461 13122.000000 0 1 0
-15.452362 5.018511 16.456042 23.124927 -0.314027 0.779002 0.016496 0.005771 28330.900000 0 1 0
-15.043162 5.961211 17.472242 23.814113 -0.377290 0.747056 0.012946 0.005358 22149.100000 0 1 0
-15.432662 7.314311 17.472342 24.432538 -0.442591 0.773992 0.003229 -0.004214 -63246.400000 0 1 0
-14.782362 8.225811 16.275242 23.474788 -0.507790 0.804728 -0.016283 0.003323 42532.600000 0 1 0
-15.236662 7.924511 14.973442 22.785032 -0.479594 0.853750 -0.015656 0.003549 1370190.000000 0 1 0
-16.645762 8.197511 14.743342 23.699086 -0.457604 0.899367 0.001902 0.000841 1218430.000000 0 1 0
-17.236762 7.499511 13.478642 23.130551 -0.410384 0.948724 0.000921 0.000149 -293189.000000 0 1 0
-17.285262 6.051511 13.605942 22.814967 -0.336761 0.931837 0.015028 -0.000046 139887.000000 0 1 0
-17.584362 5.383611 12.446142 22.205844 -0.297098 0.975820 0.004202 -0.002528 -102701.000000 0 1 0
-17.195562 3.880211 12.513142 21.617634 -0.221935 0.953491 0.002417 0.004781 103954.000000 0 1 0
-17.959962 3.161611 13.509342 22.694897 -0.174251 0.933208 0.013837 0.003064 521740.000000 0 1 0
-17.600462 1.830211 13.614642 22.326764 -0.103614 0.915001 0.006120 0.004915 -1317680.000000 0 1 0
-18.499662 1.107311 14.508442 23.536323 -0.059784 0.906598 0.015703 0.004672 -1404680.000000 0 1 0
-19.740062 0.937211 13.905642 24.164339 -0.047442 0.957628 0.020444 0.002805 -218350.000000 0 1 0
-20.689562 0.510911 14.895642 25.499003 -0.024689 0.946945 0.018992 0.001082 -38500.500000 0 0 1
-22.057262 0.162911 14.309142 26.292601 -0.007386 0.995329 0.027553 -0.000589 -478035.000000 0 0 1
-21.992462 -1.096889 13.590642 25.876188 0.049834 1.017825 0.034513 -0.003329 1101070.000000 0 0 1
-23.287662 -1.521889 13.129542 26.777158 0.065259 1.058332 0.055832 -0.007783 549734.000000 0 0 1
-23.334962 -2.735689 12.245842 26.494624 0.116703 1.090321 0.053620 -0.016997 -263045.000000 0 0 1
-22.935062 -3.899889 12.931042 26.616500 0.168430 1.063486 0.041106 -0.014011 58648.000000 0 0 1
-22.843962 -5.039689 12.056742 26.317486 0.217136 1.094910 0.049598 -0.021421 -60648.200000 0 0 1
-22.864862 -6.492889 12.619742 26.911288 0.276684 1.082708 0.050618 -0.020460 288745.000000 0 0 1
-24.120762 -6.744289 13.230142 28.325488 0.272643 1.084816 0.040119 -0.021530 448593.000000 0 0 1
-24.234162 -8.113289 13.538642 28.920838 0.323059 1.083626 0.049153 -0.025683 -542287.000000 0 0 1
-25.123182 -8.446289 14.701142 30.309036 0.324324 1.064386 0.039034 -0.012064 -112112.000000 0 0 1
-26.435222 -7.920189 14.562142 31.202665 0.291097 1.085246 0.042381 -0.014091 231489.000000 0 0 1
-27.193822 -8.161589 15.707342 32.447436 0.291573 1.065478 0.033842 -0.005140 -618415.000000 0 0 1
-28.625152 -7.549289 15.753542 33.534537 0.257858 1.081765 0.032361 -0.008176 524649.000000 0 0 1
-29.574522 -8.219789 14.894542 34.118392 0.271093 1.119031 0.029506 0.000358 752190.000000 0 0 1
-29.932382 -9.607889 15.019742 34.840374 0.310598 1.125083 0.031235 -0.002217 -654404.000000 0 0 1
-30.218382 -10.098689 16.497242 35.878867 0.322522 1.093022 0.017841 -0.004726 -1566010.000000 0 0 1
-29.116262 -10.273589 17.305242 35.394558 0.339209 1.059941 0.027368 0.014209 -562486.000000 0 0 1
-29.441062 -10.937389 18.521442 36.461575 0.355700 1.037968 0.020860 0.013984 -47734.200000 0 0 1
-28.228452 -11.071889 19.480042 36.040314 0.373785 0.999757 0.024439 0.016672 -153261.000000 0 0 1
-27.485452 -12.190989 19.109942 35.626678 0.417472 1.004638 0.026502 0.014668 -308772.000000 0 0 1
-26.203982 -12.142389 19.709742 34.965128 0.433924 0.971941 0.021464 0.008901 39897.300000 0 0 1
-25.191542 -13.052089 19.010042 34.151903 0.478034 0.980470 0.045589 0.008964 -172143.000000 0 0 1
-24.721362 -12.621789 17.753642 32.949159 0.472061 1.001761 0.034175 0.010329 669755.000000 0 0 1
-23.512062 -13.273789 17.354142 32.096367 0.513947 0.999541 0.034634 0.004371 378451.000000 0 0 1
-23.138762 -13.146089 15.871342 30.985827 0.516665 1.033037 0.028225 -0.003784 -295669.000000 0 0 1
-22.747962 -11.904589 15.501642 29.991497 0.482133 1.027608 0.027294 -0.009400 -187133.000000 0 0 1
-22.622962 -11.809389 14.097142 29.154579 0.481099 1.066112 0.022693 -0.010152 179722.000000 0 0 1
-21.312262 -11.249789 13.490842 27.618347 0.485683 1.060456 0.033361 -0.023231 -262282.000000 0 0 1
-21.242762 -9.806289 13.550742 27.037767 0.432483 1.045836 0.036348 -0.027037 425526.000000 0 0 1
-19.943962 -9.249089 13.363242 25.727097 0.434233 1.024621 0.045322 -0.025270 87031.200000 0 0 1
-19.420962 -9.332489 11.966442 24.646802 0.447956 1.063842 0.053619 -0.016497 -840312.000000 0 1 0
-18.690062 -10.482489 11.590442 24.362663 0.511142 1.074984 0.045373 -0.025923 313535.000000 0 1 0
-18.561162 -10.313589 10.244342 23.576119 0.507174 1.121289 0.057246 -0.022650 -627622.000000 0 1 0
-17.829162 -11.551489 9.656642 23.335952 0.574897 1.144161 0.039181 -0.023450 582479.000000 0 1 0
-16.417362 -11.651489 9.681142 22.338565 0.617210 1.122554 0.047682 -0.030601 838253.000000 0 1 0
-15.736762 -11.659489 10.948842 22.438059 0.637657 1.061047 0.045595 -0.025125 360705.000000 0 1 0
-14.258462 -12.175589 10.934442 21.705085 0.706766 1.042835 0.037406 -0.020356 697180.000000 0 1 0
-14.093362 -13.584989 10.682242 22.299890 0.767033 1.071251 0.036769 -0.023463 52310.600000 0 1 0
-12.715362 -13.888489 10.742542 21.678855 0.829466 1.052350 0.039737 -0.019797 5104.150000 0 1 0
-12.331662 -15.332789 10.565842 22.333860 0.893459 1.078006 0.029352 -0.019181 -205040.000000 0 1 0
-12.498462 -15.854689 9.266642 22.213810 0.903222 1.140482 0.019337 -0.024319 -2417.000000 0 1 0
-12.457762 -17.255689 9.433642 23.279782 0.945490 1.153567 0.019266 -0.016432 62537.200000 0 1 0
-12.879162 -18.025089 8.196242 23.621072 0.950396 1.216438 0.011256 -0.011533 -159131.000000 0 1 0
-11.937462 -17.912089 7.139442 22.678571 0.982946 1.250540 0.011852 -0.013485 -213376.000000 0 1 0
-12.234462 -18.550889 5.898642 22.991553 0.987766 1.311338 -0.000125 -0.011688 -312708.000000 0 1 0
-11.392862 -18.152389 4.691442 21.938919 1.010313 1.355291 0.009519 -0.015910 -214851.000000 0 1 0
-11.779462 -18.851089 3.494342 22.501771 1.012291 1.414873 0.020867 -0.013965 201801.000000 0 1 0
-10.775862 -18.811489 2.505142 21.823544 1.050591 1.455752 0.015923 -0.024355 16366.600000 0 1 0
-10.988262 -19.823289 1.381842 22.707140 1.064650 1.509904 0.019862 -0.017106 -74458.900000 0 1 0
-10.613962 -21.158689 1.809542 23.740698 1.105841 1.494501 0.006410 -0.016742 -122832.000000 0 1 0
-11.166762 -22.237189 1.026142 24.904661 1.105417 1.529582 0.015732 -0.015720 330551.000000 0 1 0
-10.313962 -22.605989 -0.272658 24.849203 1.142758 1.581769 0.030881 -0.011737 341024.000000 0 1 0
-10.257862 -21.754189 -1.385258 24.091231 1.130179 1.628329 0.028448 -0.020171 972988.000000 0 1 0
-11.423362 -21.736989 -2.285858 24.662016 1.086937 1.663617 0.043832 -0.014351 1567250.000000 0 1 0
-12.442462 -20.571689 -2.025058 24.126958 1.026830 1.654829 0.036692 -0.013932 322579.000000 0 1 0
-13.391462 -20.814089 -1.015258 24.770715 0.999086 1.611794 0.040406 -0.007208 224129.000000 0 1 0
-14.290062 -19.699289 -0.846558 24.351274 0.943219 1.605568 0.043047 -0.001874 614758.000000 0 1 0
25.684638 -20.399089 -3.918058 33.032933 -0.671203 1.689687 0.039823 -0.025806 -352769.000000 0 0 1
24.405438 -20.589589 -3.375358 32.108404 -0.700795 1.676115 0.021048 -0.020244 -223205.000000 0 0 1
24.395138 -21.580689 -2.414058 32.660015 -0.724259 1.644779 0.009031 -0.017798 -192442.000000 0 0 1
23.021038 -22.065789 -1.924758 31.946392 -0.764214 1.631082 0.008057 -0.006932 -92121.500000 0 0 1
22.191438 -22.783889 -2.797658 31.927925 -0.798570 1.658533 0.024732 -0.012266 49618.200000 0 0 1
20.964838 -23.115289 -2.150858 31.280461 -0.834145 1.639611 0.009617 -0.002512 -29000.300000 0 0 1
20.025638 -23.781989 -3.151358 31.249644 -0.870935 1.671813 0.024807 -0.007186 -422866.000000 0 0 1
19.330338 -22.813189 -3.880458 30.152305 -0.867853 1.699850 0.026545 -0.012605 -678706.000000 0 0 1
18.426738 -23.319389 -4.817558 30.108926 -0.902066 1.731491 0.022503 -0.009627 -392130.000000 0 0 1
17.581338 -22.196589 -5.355658 28.817965 -0.900907 1.757728 0.014253 0.006838 -950429.000000 0 0 1
16.715538 -21.544189 -4.483158 27.634399 -0.910942 1.733748 0.010833 0.010145 -150968.000000 0 0 1
17.246138 -20.550089 -3.600858 27.068462 -0.872591 1.704220 0.006800 0.004236 -275539.000000 0 0 1
16.228338 -19.939789 -2.591958 25.839357 -0.887657 1.671276 0.024143 0.008227 127583.000000 0 0 1
15.719938 -20.952289 -1.727558 26.250701 -0.927120 1.636654 0.017853 0.007357 -28978.600000 0 0 1
14.849038 -20.333989 -0.825558 25.192193 -0.940051 1.603573 0.022348 0.011831 -365144.000000 0 0 1
14.520238 -21.067589 0.488042 25.591382 -0.967341 1.551725 0.020288 0.008652 -119856.000000 0 0 1
13.822238 -22.255789 0.455842 26.202714 -1.015033 1.553399 0.036555 -0.000148 -264082.000000 0 0 1
13.214738 -22.591189 1.693542 26.227070 -1.041516 1.506179 0.041990 -0.002236 -414876.000000 0 0 1
12.312338 -23.790189 1.602442 26.835323 -1.093217 1.511047 0.043814 -0.005844 -405132.000000 0 0 1
12.869938 -25.091589 1.831242 28.259098 -1.096867 1.505949 0.031940 0.005220 83391.300000 0 0 1
11.909338 -26.121759 1.622642 28.754332 -1.143033 1.514335 0.031441 0.003149 -12424.400000 0 0 1
12.193838 -27.500109 2.176142 30.160923 -1.153436 1.498583 0.034987 0.001908 -205986.000000 0 0 1
12.029538 -27.613129 3.547542 30.327871 -1.159943 1.453555 0.054474 -0.002084 156286.000000 0 0 1
12.300738 -28.904359 4.000242 31.666576 -1.168446 1.444134 0.060434 -0.005049 -186365.000000 0 0 1
12.179338 -28.989429 5.532142 31.926914 -1.173058 1.396642 0.071815 -0.002824 -399.666000 0 0 1
12.442538 -30.229969 6.181942 33.269869 -1.180333 1.383898 0.054394 -0.007954 -151096.000000 0 0 1
12.207038 -30.252839 7.582742 33.492447 -1.187276 1.342415 0.051952 -0.004221 155321.000000 0 0 1
12.216538 -31.636109 8.242342 34.900192 -1.202279 1.332375 0.031334 -0.003743 279088.000000 0 0 1
11.819838 -31.680559 9.626342 35.157259 -1.213697 1.293446 0.032424 -0.003855 -10244.900000 0 0 1
10.809638 -32.654659 9.783642 35.761637 -1.251121 1.293684 0.033928 -0.001588 51131.500000 0 0 1
10.618138 -32.977569 11.249942 36.425624 -1.259298 1.256816 0.030987 -0.001249 352699.000000 0 0 1
11.857238 -33.491849 11.783342 37.431874 -1.230533 1.250556 0.023864 -0.003190 811923.000000 0 0 1
11.903638 -33.849769 13.197742 38.231974 -1.232643 1.218343 0.037367 -0.001340 -256593.000000 0 0 1
10.878238 33.947069 13.701342 38.189872 1.260688 1.203848 0.030958 -0.002129 -125148.000000 0 0 1
11.011138 32.736094 13.020942 36.911271 1.246324 1.210274 0.037786 -0.003976 73234.400000 0 0 1
9.870738 31.958044 13.297242 35.993954 1.271226 1.192401 0.032257 0.001100 -280798.000000 0 0 1
9.746838 30.666584 12.419842 34.491922 1.263061 1.202443 0.037600 -0.001108 -74349.800000 0 0 1
9.393138 30.830864 11.037242 34.067491 1.275064 1.240861 -0.005549 0.005354 1126260.000000 0 0 1
10.466338 31.459484 10.247642 34.702414 1.249623 1.271026 0.008633 0.003393 988357.000000 0 0 1
10.015838 31.726104 8.834342 34.422497 1.265001 1.311248 0.009773 -0.000555 543652.000000 0 0 1
9.134238 32.898295 8.741742 35.244151 1.299967 1.320146 0.010273 0.001835 851650.000000 0 0 1
8.423238 32.943389 7.494342 34.819291 1.320471 1.353864 0.007067 -0.001893 -39228.900000 0 0 1
8.789038 34.206778 6.682942 35.944577 1.319298 1.383785 0.020405 0.003754 -113980.000000 0 0 1
8.170238 -33.421079 7.077442 35.125653 -1.331035 1.367918 0.026132 0.003737 -272701.000000 0 0 1
8.677538 -32.378869 6.327142 34.113393 -1.308950 1.384242 0.040716 -0.003230 -56778.400000 0 0 1
8.144538 -30.958039 6.629542 32.690740 -1.313543 1.366584 0.036328 -0.004277 -3856.540000 0 0 1
8.468238 -30.437829 7.909942 32.568999 -1.299444 1.325476 0.036516 -0.001544 91420.300000 0 0 1
7.921038 -29.115799 8.084942 31.238420 -1.305172 1.309002 0.052374 0.001606 173271.000000 0 0 1
8.816538 -27.943019 7.621842 30.275999 -1.265164 1.316313 0.057424 -0.008124 26998.900000 0 0 1
9.167738 -26.929699 8.579542 29.713038 -1.242670 1.277879 0.054553 -0.008293 182617.000000 0 0 1
10.018238 -25.891029 8.121642 28.925275 -1.201600 1.286190 0.067035 -0.019730 341850.000000 0 0 1
9.256138 -24.794989 7.301242 27.454976 -1.213511 1.301623 0.047147 -0.022963 155285.000000 0 0 1
9.076738 -25.198979 5.941842 27.435036 -1.225061 1.352488 0.052310 -0.019027 -409072.000000 0 0 1
8.302938 -24.294589 5.218442 26.199198 -1.241480 1.370272 0.053765 -0.021113 129232.000000 0 0 1
7.953538 -24.762289 3.742342 26.276127 -1.260009 1.427887 0.060905 -0.013771 621377.000000 0 0 1
7.069338 -25.874239 3.526442 27.053421 -1.304087 1.440073 0.044202 -0.011856 255711.000000 0 0 1
7.671138 -27.131369 3.840742 28.455383 -1.295248 1.435409 0.051424 -0.010407 371716.000000 0 0 1
6.703338 -28.318219 3.471242 29.307095 -1.338360 1.452074 0.048964 -0.004916 -108251.000000 0 0 1
5.689438 -28.401159 4.409342 29.299110 -1.373089 1.419728 0.039640 0.002624 -342708.000000 0 0 1
4.644938 -29.340099 4.045342 29.979687 -1.413786 1.435447 0.035735 0.007425 642862.000000 0 0 1
4.811038 -30.893579 4.182542 31.544460 -1.416308 1.437813 0.040783 0.004558 -229468.000000 0 0 1
5.902838 -31.549519 3.563942 32.294231 -1.385837 1.460213 0.043098 -0.000070 84569.800000 0 0 1
5.697138 -32.942689 3.678242 33.633430 -1.399549 1.461214 0.032052 0.002225 247255.000000 0 0 1
6.655538 -33.858049 2.854542 34.623866 -1.376699 1.488258 0.021912 -0.000888 269687.000000 0 0 1
6.334038 -34.003349 1.493642 34.620496 -1.386630 1.527640 0.030172 -0.006206 207541.000000 0 0 1
7.238338 33.813343 0.987242 34.593501 1.359912 1.542254 0.010915 -0.002562 199257.000000 0 0 1
6.788438 33.148996 -0.360058 33.838861 1.368803 1.581437 0.035388 -0.004337 77472.600000 0 0 1
5.673938 32.285414 -0.401358 32.782658 1.396830 1.583040 0.009523 -0.004710 -210889.000000 0 0 1
4.478938 33.032384 -0.649658 33.340986 1.436026 1.590283 0.019059 -0.008836 52134.600000 0 0 1
3.266638 32.100294 -0.412558 32.268716 1.469382 1.583582 0.030600 -0.009702 -271285.000000 0 0 1
3.222838 31.028364 -1.331158 31.223678 1.467300 1.613442 0.025484 -0.011976 -40065.700000 0 0 1
2.224438 30.056784 -1.084158 30.158478 1.496923 1.606753 0.010345 -0.011632 -39391.800000 0 0 1
2.222938 29.033634 -2.221758 29.203246 1.494381 1.646949 0.009206 -0.006353 -171960.000000 0 0 1
1.776538 29.598854 -3.425258 29.849299 1.510848 1.685801 0.012523 -0.021541 6718.150000 0 0 1
1.960938 28.749784 -4.555858 29.174496 1.502695 1.727597 0.014851 -0.033532 -613335.000000 0 0 1
1.644238 29.508814 -5.876258 30.133106 1.515134 1.767064 0.015799 -0.029924 -153820.000000 0 0 1
0.251338 29.785694 -5.945058 30.374240 1.562358 1.767795 0.021183 -0.027711 264898.000000 0 0 1
0.005138 30.809664 -6.945558 31.582847 1.570630 1.792524 0.021983 -0.024365 -229420.000000 0 0 1
-0.098862 30.205664 -8.370858 31.344269 -1.567523 1.841139 0.026544 -0.027948 -409104.000000 0 0 1
-1.386162 29.770384 -8.788058 31.071324 -1.524268 1.857545 0.025690 -0.027403 208097.000000 0 0 1
-1.408762 29.343224 -10.150258 31.081139 -1.522823 1.903472 0.037165 -0.027746 -32310.000000 0 0 1
-1.571362 30.398854 -11.239358 32.448154 -1.519151 1.924505 0.032819 -0.027564 344533.000000 0 0 1
-0.346162 31.123844 -11.393158 33.145401 -1.559675 1.921685 0.028360 -0.023511 561934.000000 0 0 1
-0.581462 32.488234 -11.716758 34.541365 -1.552901 1.916873 0.028269 -0.025423 21991.900000 0 0 1
-0.823562 33.414083 -10.454458 35.021064 -1.546154 1.873937 0.026518 -0.027077 157101.000000 0 0 1
0.378538 33.695057 -9.765058 35.083565 1.559563 1.852859 0.023204 -0.029787 207860.000000 0 0 1
0.080538 -34.265988 -8.681058 35.348624 -1.568446 1.818918 0.027754 -0.022361 -231861.000000 0 0 1
1.229538 -34.116162 -7.669458 34.989211 -1.534772 1.791786 0.023481 -0.022758 -9589.370000 0 0 1
2.326238 -33.369519 -8.148558 34.428697 -1.501197 1.809743 0.032201 -0.020304 -13564.800000 0 0 1
3.230638 -33.153049 -7.041758 34.046263 -1.473657 1.779129 0.030135 -0.020696 586676.000000 0 0 1
4.568038 -32.442129 -7.526458 33.615566 -1.430910 1.796609 0.027745 -0.013242 1445320.000000 0 0 1
5.537038 -33.248669 -8.214858 34.693179 -1.405777 1.809853 0.043178 -0.012471 753888.000000 0 0 1
6.186638 -34.229844 -7.379258 35.558546 -1.391989 1.779840 0.041700 -0.012197 -1017460.000000 0 0 1
6.281638 33.214826 -8.049158 34.748707 1.383882 1.804559 0.032569 -0.019878 -281828.000000 0 0 1
5.095738 32.506764 -8.226458 33.916528 1.415302 1.815790 0.034123 -0.022196 -453391.000000 0 0 1
4.294538 32.729754 -9.368758 34.314042 1.440330 1.847337 0.035305 -0.026326 286675.000000 0 0 1
3.294738 31.582254 -9.649958 33.187585 1.466850 1.865828 0.029460 -0.028233 -101502.000000 0 0 1
3.876138 30.538934 -10.358958 32.480132 1.444547 1.895399 0.024963 -0.029631 192191.000000 0 0 1
3.017738 29.391264 -10.501558 31.356592 1.468480 1.912303 0.019323 -0.031877 146693.000000 0 0 1
3.693338 28.303444 -11.360958 30.721281 1.441039 1.949598 0.012292 -0.028405 -22757.900000 0 0 1
3.673338 28.483414 -12.737958 31.417414 1.442540 1.988259 0.017388 -0.025492 123704.000000 0 0 1
4.977438 28.856364 -13.154658 32.101553 1.399987 1.993012 0.025219 -0.020772 176275.000000 0 0 1
4.934638 29.324244 -14.610258 33.131882 1.404080 2.027479 0.030427 -0.020904 14507.000000 0 0 1
4.398538 28.433724 -15.579658 32.719254 1.417318 2.067081 0.038412 -0.022185 -44784.100000 0 0 1
4.305738 29.066254 -16.838058 33.866011 1.423731 2.091161 0.048981 -0.018809 51814.200000 0 0 1
3.185238 28.557904 -17.765358 33.783244 1.459719 2.124526 0.046495 -0.014564 157823.000000 0 0 1
3.482338 27.268124 -18.223358 32.981329 1.443777 2.156200 0.052556 -0.008267 92482.700000 0 0 1
2.465638 26.834224 -19.092358 33.025341 1.479170 2.187210 0.057168 -0.018659 378599.000000 0 0 1
3.066538 25.642104 -19.915358 32.612002 1.451772 2.227710 0.060253 -0.019610 449744.000000 0 0 1
3.300038 24.512524 -19.148758 31.279851 1.436974 2.229605 0.060278 -0.024351 -147575.000000 0 0 1
4.355638 23.779524 -19.719958 31.197983 1.389637 2.255045 0.060874 -0.018111 -123141.000000 0 0 1
4.718438 22.587424 -18.819258 29.776163 1.364861 2.254959 0.062017 -0.013030 379737.000000 0 0 1
3.679238 21.572624 -18.622458 28.735185 1.401870 2.275846 0.084028 -0.009514 542547.000000 0 0 1
4.163038 20.474824 -17.866758 27.491278 1.370206 2.278258 0.061095 -0.005691 480948.000000 0 0 1
3.129138 19.299924 -17.739358 26.400065 1.410063 2.307627 0.062022 -0.015068 -168795.000000 0 0 1
2.083238 19.521724 -16.865758 25.882261 1.464485 2.280533 0.063759 -0.020340 -964557.000000 0 0 1
1.417438 18.307724 -16.566358 24.731076 1.493528 2.304817 0.052759 -0.018103 -371717.000000 0 1 0
1.971438 17.397024 -15.488658 23.376090 1.457957 2.295062 0.045278 -0.006593 598681.000000 0 1 0
3.192538 16.653624 -15.717958 23.121196 1.381392 2.318296 0.043373 -0.025229 341876.000000 0 1 0
3.193938 15.527524 -16.660758 22.997524 1.367931 2.381045 0.047962 -0.026578 -137704.000000 0 1 0
3.162638 15.698124 -18.250658 24.280031 1.371992 2.421392 0.049124 -0.021059 -78857.000000 0 1 0
4.376238 16.212524 -18.758158 25.176694 1.307150 2.411422 0.044209 -0.019634 -394972.000000 0 0 1
4.392538 16.495924 -20.172358 26.426009 1.310555 2.439283 0.045489 -0.011724 -407233.000000 0 0 1
4.666238 15.404724 -21.230058 26.641972 1.276672 2.492885 0.026428 -0.016241 796156.000000 0 0 1
3.623138 14.417324 -21.383758 26.043262 1.324590 2.534107 0.021351 -0.012816 -383025.000000 0 0 1
2.499538 14.837924 -22.052658 26.697030 1.403907 2.542831 0.030390 -0.008979 -986319.000000 0 0 1
1.686538 13.668824 -22.596158 26.462569 1.448031 2.594213 0.040985 -0.002746 -290064.000000 0 0 1
1.095038 12.902624 -21.585158 25.171331 1.486130 2.601244 0.037118 -0.001935 -164303.000000 0 0 1
0.351038 11.888924 -22.226458 25.208832 1.541278 2.650235 0.036293 0.001290 -63781.600000 0 0 1
-0.310162 10.815124 -21.271358 23.864907 -1.542126 2.671053 0.023315 -0.000848 98468.800000 0 1 0
-1.361662 11.515324 -20.542058 23.588832 -1.453095 2.627701 0.023077 0.004670 760665.000000 0 1 0
-1.886262 10.757724 -19.410758 22.272498 -1.397221 2.629074 0.012454 0.007778 414424.000000 0 1 0
-2.928762 9.675624 -19.819558 22.248826 -1.276869 2.669929 0.004136 0.000837 -203432.000000 0 1 0
-2.396062 8.515224 -20.435558 22.267964 -1.296503 2.733076 0.008548 -0.007345 -344298.000000 0 1 0
-3.423062 7.798824 -21.091458 22.746178 -1.157194 2.757804 0.007397 0.006028 276741.000000 0 1 0
-2.926862 6.554624 -21.873358 23.021152 -1.150829 2.824487 0.008624 0.001157 45239.700000 0 1 0
-2.329562 5.567224 -21.045158 21.893368 -1.174493 2.862324 0.019165 -0.002270 10384.900000 0 1 0
-2.166662 4.399624 -21.837558 22.381467 -1.113195 2.920682 0.024146 -0.005947 -313664.000000 0 1 0
-1.496962 3.254424 -21.031058 21.333954 -1.139676 2.972883 0.022354 -0.003117 -539527.000000 0 1 0
-0.123662 3.457324 -20.866458 21.151300 -1.535043 2.977293 0.020785 -0.005457 -562309.000000 0 1 0
0.492338 2.400224 -20.122958 20.271579 1.368481 3.020428 0.024780 -0.002724 572708.000000 0 1 0
2.042038 2.493924 -20.140858 20.397151 0.884694 2.982901 0.020828 -0.005737 515600.000000 0 1 0
2.616438 2.082024 -21.398758 21.658426 0.672143 2.986588 0.031597 -0.003870 -265288.000000 0 1 0
4.021438 2.115424 -21.301958 21.781194 0.484259 2.931434 0.033840 -0.003266 -43702.100000 0 1 0
4.644938 1.356124 -22.513858 23.027990 0.284062 2.929885 0.034308 0.002156 -117534.000000 0 1 0
6.046838 1.265424 -22.445558 23.280220 0.206293 2.873007 0.036033 -0.002263 -472293.000000 0 1 0
6.595638 0.862424 -23.628258 24.546707 0.130019 2.867177 0.035186 -0.000590 -178803.000000 0 1 0
8.133738 0.689524 -23.485058 24.863248 0.084571 2.807076 0.029982 -0.013320 180564.000000 0 1 0
8.641038 2.003524 -23.444058 25.066023 0.227836 2.779880 0.036069 -0.022424 1117570.000000 0 0 1
10.096438 1.992424 -23.419358 25.580738 0.194836 2.727564 0.038056 -0.021491 1322100.000000 0 0 1
13.795838 -20.955589 22.501645 33.701422 -0.988583 0.839713 -0.003286 0.015193 -166991.000000 0 0 1
12.865138 -22.045489 22.574545 34.075291 -1.042544 0.846658 -0.001977 0.019528 -159496.000000 0 0 1
11.556138 -21.779989 22.177545 33.162565 -1.082981 0.838267 -0.007238 0.014955 -81059.100000 0 0 1
11.290538 -21.441889 20.641345 31.832310 -1.086124 0.865263 -0.004386 0.000559 -414931.000000 0 0 1
11.773538 -20.185989 20.194045 30.885106 -1.042782 0.858142 -0.023373 0.000611 -44776.200000 0 0 1
11.315838 -19.955589 18.873045 29.706322 -1.054956 0.882372 0.014651 -0.010124 56926.000000 0 0 1
11.415538 -18.523389 18.291345 28.425407 -1.018494 0.871753 0.031862 -0.015838 4624.010000 0 0 1
10.684638 -17.513689 18.958545 27.934159 -1.023003 0.824823 0.034211 -0.014852 -263452.000000 0 0 1
10.725338 -16.267789 18.291345 26.725402 -0.987912 0.816991 0.044066 -0.014117 393011.000000 0 0 1
9.637638 -15.303889 18.868345 26.136326 -1.008788 0.764223 0.053960 -0.007289 988074.000000 0 0 1
8.309138 -15.639689 18.485445 25.599869 -1.082435 0.763976 0.042829 -0.004687 524002.000000 0 0 1
7.327038 -14.672189 18.893445 25.018411 -1.107643 0.714865 0.026335 -0.000368 681685.000000 0 0 1
5.878338 -14.981589 18.462945 24.492513 -1.196884 0.716940 0.009278 0.007521 -72243.700000 0 1 0
5.647538 -14.834489 17.061945 23.303792 -1.207035 0.749319 0.001508 -0.001375 -143568.000000 0 1 0
4.292338 -15.034189 16.740045 22.905897 -1.292690 0.751277 -0.019559 -0.000185 -167590.000000 0 1 0
3.706238 -16.447289 16.656145 23.699719 -1.349158 0.791472 -0.023522 0.002587 -376208.000000 0 1 0
2.380338 -16.518589 16.183945 23.247578 -1.427681 0.800767 -0.014099 0.002065 -613892.000000 0 1 0
1.878038 -17.797989 16.381645 24.262187 -1.465666 0.829571 0.001919 -0.000230 1114020.000000 0 1 0
0.331038 -17.721689 16.068345 23.924037 -1.552119 0.834376 0.012369 0.001178 684510.000000 0 1 0
0.118538 -17.650189 14.676245 22.955073 -1.564080 0.877148 0.012246 0.001933 -511879.000000 0 1 0
-1.259962 -17.564089 14.431145 22.767140 1.499184 0.884265 0.012302 0.003731 -567956.000000 0 1 0
-1.780162 -17.850389 13.062145 22.190651 1.471398 0.941430 0.006952 -0.005680 93658.600000 0 1 0
-3.195762 -17.967189 13.109645 22.469881 1.394771 0.947848 0.004343 -0.008052 -36282.900000 0 1 0
-3.470562 -19.129989 12.355445 23.036022 1.391328 1.004686 0.021775 -0.010811 -694443.000000 0 1 0
-4.947762 -19.462289 12.275945 23.536352 1.321847 1.022102 0.019380 -0.008534 -836738.000000 0 1 0
-5.502562 -19.979689 13.479645 24.721792 1.302051 0.994105 0.014221 -0.006672 -97204.700000 0 1 0
-5.659662 -21.370589 13.489045 25.897648 1.311906 1.022938 -0.013995 0.005758 -16160.800000 0 0 1
-6.388362 -21.980489 14.746845 27.229075 1.287951 0.998476 -0.002266 -0.000582 705351.000000 0 0 1
-7.791062 -21.784689 14.603445 27.359348 1.227332 1.007750 0.011645 -0.003909 181454.000000 0 0 1
-8.553062 -22.461489 15.597445 28.652289 1.206961 0.995158 0.009932 -0.008393 616511.000000 0 0 1
-10.068762 -22.149189 15.440045 28.815994 1.144133 1.005324 0.030715 -0.015339 387171.000000 0 0 1
-10.264162 -20.798589 15.763345 28.043134 1.112360 0.973861 0.015673 -0.008823 -1233880.000000 0 0 1
-11.581062 -20.398789 15.620345 28.182029 1.054441 0.983315 0.024723 -0.008716 -753874.000000 0 0 1
-11.920862 -19.249389 16.584245 28.065693 1.016317 0.938612 0.023035 -0.002221 -797710.000000 0 0 1
-12.094462 -19.665889 17.923445 29.227950 1.019423 0.910654 0.026422 -0.002200 -81281.300000 0 0 1
-12.430862 -18.631089 18.791245 29.236188 0.982417 0.872728 0.014281 -0.004076 -84884.500000 0 0 1
-12.727662 -19.166889 20.200845 30.617595 0.984611 0.850272 0.025606 -0.000571 -87729.000000 0 0 1
-13.989462 -19.782589 20.305645 31.612894 0.955281 0.873273 0.029524 -0.004729 -144817.000000 0 0 1
-14.230862 -20.484189 21.502145 32.931166 0.963620 0.859334 0.016926 0.002648 -155999.000000 0 0 1
-15.657962 -21.049089 21.464745 33.896478 0.931225 0.885059 0.030197 -0.006082 -860145.000000 0 0 1
-15.701962 -21.983589 20.367645 33.832983 0.950565 0.924786 0.026570 -0.007339 421771.000000 0 0 1
-16.976762 -22.336389 19.853445 34.369812 0.920894 0.954959 0.037944 -0.003080 320515.000000 0 0 1
-17.986962 -23.063789 20.781745 35.879661 0.908445 0.953041 0.047639 -0.009304 -536953.000000 0 0 1
-18.497562 -22.284289 21.837245 36.271402 0.877986 0.924729 0.039934 -0.006654 75545.100000 0 0 1
-19.329362 -23.070989 22.693145 37.694477 0.873415 0.924757 0.043478 0.002197 178486.000000 0 0 1
-19.804562 -22.239589 23.913795 38.192795 0.843249 0.894212 0.030601 0.006263 -958324.000000 0 0 1
-20.717262 -21.330189 23.494545 37.896907 0.799974 0.902105 0.039706 0.010782 -687818.000000 0 0 1
-20.589362 -20.108989 24.183265 37.591536 0.773595 0.871974 0.037264 0.005866 -168075.000000 0 0 1
-21.700562 -19.098189 23.817725 37.455830 0.721699 0.881637 0.030660 0.004454 69744.800000 0 0 1
-21.418262 -18.372089 22.681345 36.203854 0.708992 0.893755 0.031548 0.006557 -185034.000000 0 0 1
-22.404762 -17.394689 22.410345 36.149303 0.660174 0.902132 0.036231 0.007477 -262563.000000 0 0 1
-22.233162 -16.762789 21.012945 34.883355 0.646027 0.924320 0.038828 0.007910 142693.000000 0 0 1
-21.187562 -15.813489 20.825745 33.655473 0.641166 0.903592 0.034585 0.009279 -219961.000000 0 0 1
-21.011462 -15.711789 19.405845 32.633245 0.642074 0.933948 0.033093 0.011878 58069.500000 0 0 1
-20.171762 -14.494589 19.090945 31.328218 0.623073 0.915512 0.018167 0.006865 -136205.000000 0 0 1
-20.044362 -14.319589 17.672845 30.317594 0.620322 0.948474 0.013205 0.009617 -11117.100000 0 0 1
-19.337862 -13.129289 17.346845 29.107459 0.596453 0.932337 0.028067 -0.003743 -344209.000000 0 0 1
-18.871862 -13.116389 15.830345 27.906749 0.607378 0.967623 0.030788 -0.008097 121036.000000 0 0 1
-18.311462 -11.933889 15.314545 26.688249 0.577581 0.959620 0.034960 -0.014646 -184493.000000 0 0 1
-17.027562 -11.643589 15.795745 25.981081 0.599776 0.917294 0.045690 -0.017391 -668232.000000 0 0 1
-16.429262 -10.341589 15.186145 24.647274 0.561801 0.906965 0.050038 -0.024298 57083.400000 0 1 0
-17.111262 -9.158789 15.554145 24.871874 0.491448 0.895190 0.047854 -0.019989 230966.000000 0 1 0
-16.536762 -8.027589 14.881345 23.650816 0.451931 0.890259 0.037772 -0.012539 -327648.000000 0 1 0
-16.753062 -6.685289 15.507445 23.787371 0.379686 0.860684 0.040157 -0.006931 657806.000000 0 1 0
-15.941162 -6.423689 16.679345 23.949634 0.383058 0.800380 0.037321 -0.004101 1017690.000000 0 1 0
-14.541662 -6.207889 16.461845 22.825209 0.403482 0.765244 0.042393 -0.009866 168817.000000 0 1 0
-13.727662 -6.211789 17.752045 23.284547 0.424932 0.703789 0.041556 -0.006723 -264734.000000 0 1 0
-13.842262 -7.318489 18.657045 24.356802 0.486348 0.698218 0.047207 -0.009167 166848.000000 0 1 0
-13.320362 -8.539089 18.080445 24.026039 0.570062 0.718893 0.056427 -0.008993 -333146.000000 0 1 0
-13.401362 -9.779889 18.972945 25.203479 0.630427 0.718505 0.052457 -0.007272 775124.000000 0 0 1
-14.666162 -10.393389 19.256445 26.342542 0.616517 0.751007 0.048023 -0.002938 742084.000000 0 0 1
-15.548462 -9.723589 20.144445 27.241540 0.558868 0.738506 0.038349 -0.004454 -992391.000000 0 0 1
-16.904062 -10.417389 20.443645 28.499332 0.552294 0.770823 0.028139 -0.000287 390707.000000 0 0 1
-17.933862 -10.422689 19.494345 28.465511 0.526462 0.816411 0.029770 -0.006136 23151.200000 0 0 1
-18.210662 -9.191089 18.897945 27.807133 0.467408 0.823568 0.033272 -0.008093 -1199070.000000 0 0 1
-19.376662 -9.206689 17.863845 27.916574 0.443565 0.876427 0.034228 -0.009023 261168.000000 0 0 1
-20.632062 -9.471089 18.447545 29.252272 0.430352 0.888423 0.028799 -0.005074 -506122.000000 0 0 1
-21.655762 -9.289689 17.527345 29.367979 0.405229 0.931267 0.032217 -0.015862 147451.000000 0 0 1
-23.104062 -9.548889 18.040045 30.828918 0.391918 0.945711 0.029778 -0.004185 372979.000000 0 0 1
-23.629062 -8.561689 18.872845 31.429594 0.347623 0.926695 0.033282 -0.002391 845195.000000 0 0 1
-25.054962 -8.573789 18.935245 32.554638 0.329709 0.950047 0.017254 0.006509 655172.000000 0 0 1
-25.755282 -7.479489 19.823845 33.350594 0.282632 0.934268 0.032076 -0.004133 74206.800000 0 0 1
-25.578862 -7.688289 21.203545 34.102467 0.291981 0.899809 0.046232 -0.007148 485356.000000 0 0 1
-26.216822 -6.615289 21.889545 34.788446 0.247170 0.890249 0.038539 -0.012908 -705835.000000 0 0 1
-26.107112 -6.737089 23.452545 35.735018 0.252546 0.854905 0.034326 -0.011077 282875.000000 0 0 1
-24.919362 -6.346289 24.138395 35.269138 0.249372 0.817008 0.030275 -0.012615 662010.000000 0 0 1
-23.763162 -7.111989 23.788065 34.367722 0.290802 0.806315 0.034533 -0.007550 323727.000000 0 0 1
-22.564162 -6.831489 24.778645 34.202221 0.293985 0.760524 0.030880 -0.007456 413211.000000 0 0 1
-22.055862 -5.555989 24.740135 33.606611 0.246771 0.743404 0.021532 -0.005614 -173216.000000 0 0 1
-21.117662 -5.313189 25.751515 33.724266 0.246483 0.701941 0.022405 -0.010767 -70948.200000 0 0 1
-20.736962 -3.767689 25.768835 33.290388 0.179729 0.685564 0.010374 -0.011171 1027680.000000 0 0 1
-19.648762 -3.425789 26.691365 33.320247 0.172616 0.641740 0.009644 -0.010546 902320.000000 0 0 1
-20.043262 -3.509289 28.053925 34.656459 0.173329 0.627520 0.003237 -0.013856 34809.700000 0 0 1
-20.799862 -2.291289 28.601245 35.438898 0.109716 0.631644 0.007375 -0.017094 -399688.000000 0 0 1
-22.024962 -2.075989 27.990595 35.677473 0.093979 0.668834 0.000802 -0.016025 -1031040.000000 0 0 1
-22.791862 -1.077789 28.629845 36.610089 0.047253 0.672895 0.011769 -0.007394 -138691.000000 0 0 1
-24.109962 -0.848389 27.902375 36.885669 0.035174 0.712919 0.015056 -0.009128 -1036530.000000 0 0 1
-23.899462 -0.519989 26.522595 35.705780 0.021754 0.733539 0.002229 -0.008391 -105660.000000 0 0 1
-24.996262 -0.052389 25.775095 35.905033 0.002096 0.770060 0.020060 -0.010620 -177590.000000 0 0 1
-26.083482 -1.095689 25.348545 36.388148 0.041982 0.800127 0.017332 -0.006479 82422.600000 0 0 1
-26.883962 -1.543789 26.440405 37.738915 0.057361 0.794539 0.020232 -0.004215 66704.100000 0 0 1
-27.369882 -2.823989 26.233375 38.016777 0.102815 0.809242 0.011029 -0.010263 -131900.000000 0 0 1
-26.282012 -3.919789 26.385855 37.447593 0.148052 0.788926 0.022840 -0.023837 195623.000000 0 0 1
-25.924062 -4.241889 27.716715 38.187261 0.162190 0.758584 0.012279 -0.018588 -65909.300000 0 0 1
-25.070852 -5.374189 27.634735 37.697587 0.211164 0.747981 0.022214 -0.019756 78580.900000 0 0 1
-24.617762 -5.973789 29.000025 38.506127 0.238060 0.717993 0.011167 -0.017746 -220060.000000 0 0 1
-25.705332 -6.653489 29.578385 39.748130 0.253278 0.731542 0.021778 -0.014595 -134925.000000 0 0 1
-25.453582 -7.232789 30.852365 40.645621 0.276858 0.708932 0.016194 -0.005747 -790921.000000 0 0 1
-26.695262 -7.765289 31.539825 42.043992 0.283075 0.722489 0.002636 -0.008517 -173242.000000 0 0 1
-27.405852 -8.708589 30.695935 42.061392 0.307673 0.752783 0.009641 -0.011811 2043220.000000 0 0 1
-28.844682 -8.706089 30.996785 43.227449 0.293132 0.771218 0.019878 -0.009968 1829380.000000 0 0 1
-29.604702 -9.534389 29.925325 43.160955 0.311567 0.804679 0.019311 -0.018364 -106322.000000 0 0 1
-29.397912 -10.919189 30.080265 43.454439 0.355635 0.806228 0.029929 -0.018495 438901.000000 0 0 1
-30.310042 -11.698489 29.348215 43.782085 0.368345 0.836150 0.010625 -0.012638 -178956.000000 0 0 1
-29.445472 -12.877189 28.887855 43.213030 0.412262 0.838608 0.017299 -0.016540 300948.000000 0 0 1
-28.460072 -12.428989 27.967255 41.792617 0.411753 0.837676 0.022021 -0.016962 -171800.000000 0 0 1
-27.563292 -13.458189 27.664385 41.305885 0.454216 0.836932 0.027443 -0.016902 -456681.000000 0 0 1
-26.216392 -12.982289 27.071485 39.858554 0.459798 0.824139 0.039170 -0.023163 -211301.000000 0 0 1
-25.315592 -12.326189 27.937725 39.665232 0.453114 0.789306 0.037798 -0.022083 -114613.000000 0 0 1
-25.695532 -11.103089 28.518585 39.960589 0.407871 0.776076 0.044429 -0.022120 -932291.000000 0 0 1
-25.737002 -9.852789 27.614575 39.013273 0.365614 0.784382 0.045940 -0.019726 1040530.000000 0 0 1
-24.494562 -9.492789 26.939685 37.627692 0.369725 0.772807 0.043986 -0.022580 925477.000000 0 0 1
-23.980662 -10.223189 25.839385 36.705034 0.402979 0.789819 0.036787 -0.022572 -181007.000000 0 0 1
-24.753762 -10.272289 24.482555 36.299644 0.393352 0.830567 0.035043 -0.013431 201625.000000 0 0 1
-26.007802 -10.944389 24.617325 37.445936 0.398318 0.853420 0.034310 -0.017682 361999.000000 0 0 1
-26.746932 -10.826189 23.409245 37.156392 0.384606 0.889218 0.039176 -0.006384 61521.000000 0 0 1
-28.067502 -11.639589 23.457645 38.386532 0.393114 0.913359 0.036940 -0.014269 1213520.000000 0 0 1
-29.253922 -11.037789 24.045695 39.443887 0.360794 0.915218 0.030186 -0.016784 698835.000000 0 0 1
-29.263182 -10.928589 25.395755 40.258071 0.357419 0.888182 0.040256 -0.021137 153214.000000 0 0 1
-30.646332 -10.585789 26.069185 41.603594 0.332587 0.893602 0.001380 -0.018632 270174.000000 0 0 1
-31.120182 -9.268889 25.838285 41.496928 0.289476 0.898665 0.011867 -0.026411 613353.000000 0 0 1
-32.506382 -8.940089 26.021745 42.587807 0.268390 0.913455 0.002714 -0.012304 612172.000000 0 0 1
-32.999742 -9.097489 27.467445 43.888584 0.269002 0.894582 -0.006834 -0.009642 -995463.000000 0 0 1
-33.303632 -10.416289 27.906065 44.680862 0.303128 0.896223 0.002731 -0.015222 132760.000000 0 0 1
-34.049082 -10.393789 29.083605 45.969848 0.296275 0.885804 0.002108 -0.013543 -744058.000000 0 0 1
-34.423896 -11.787289 29.647585 46.935318 0.329902 0.887092 0.004365 -0.009709 300484.000000 0 0 1
-35.487790 -12.459989 28.975595 47.478623 0.337660 0.914373 0.002092 -0.014387 1754100.000000 0 0 1
34.566978 -12.089689 29.396265 46.959311 -0.336449 0.894390 -0.002544 -0.007623 297261.000000 0 0 1
33.532448 -12.669589 28.520395 45.807821 -0.361250 0.898723 -0.004082 -0.004906 -1227850.000000 0 0 1
33.480398 -12.058489 27.246995 44.819002 -0.345702 0.917340 0.006286 -0.008976 -16735.400000 0 0 1
32.624898 -12.776589 26.371505 43.852952 -0.373262 0.925591 0.017016 -0.004887 -150932.000000 0 0 1
32.477718 -12.146089 24.983185 42.737444 -0.357878 0.946442 0.024259 -0.018109 76076.900000 0 0 1
31.890228 -10.864689 24.880975 41.881869 -0.328357 0.934681 0.032064 -0.025667 90025.000000 0 0 1
32.229218 -10.296489 23.619845 41.263025 -0.309228 0.961340 0.027593 -0.025814 -225087.000000 0 0 1
31.754018 -8.822789 23.358845 40.395481 -0.271012 0.954209 0.051878 -0.012301 -1255700.000000 0 0 1
30.398398 -8.673989 23.502645 39.391306 -0.277957 0.931482 0.067509 -0.023045 -1449120.000000 0 0 1
30.037598 -7.368889 23.076545 38.588660 -0.240571 0.929776 0.076190 -0.011147 -1573340.000000 0 0 1
28.563048 -7.258789 23.112045 37.452694 -0.248864 0.905745 0.076612 0.001855 -1673310.000000 0 0 1
27.831428 -7.979789 22.135945 36.445376 -0.279228 0.918047 0.062144 0.003295 -586177.000000 0 0 1
26.487888 -7.660589 22.245645 35.428259 -0.281530 0.891936 0.069034 -0.019412 -1105610.000000 0 0 1
14.164138 -17.347189 26.306805 34.548455 -0.886070 0.705254 0.004913 0.007643 -183371.000000 0 0 1
13.496538 -18.566189 26.108405 34.763612 -0.942217 0.721180 -0.025999 0.024597 274126.000000 0 0 1
14.356438 -19.706589 26.115415 35.727746 -0.941192 0.751074 0.007909 0.017975 -481225.000000 0 0 1
13.567038 -21.020589 26.174755 36.208390 -0.997650 0.762818 -0.023622 0.009927 275682.000000 0 0 1
12.804738 -21.403289 27.333795 37.002681 -1.031657 0.739660 -0.010275 0.006998 740069.000000 0 0 1
11.602438 -20.684289 27.551955 36.353357 -1.059600 0.710719 -0.013754 0.011483 163405.000000 0 0 1
10.791838 -21.037389 28.839715 37.292957 -1.096816 0.686722 -0.011583 0.008277 -312673.000000 0 0 1
11.556738 -20.691889 30.043415 38.266424 -1.061439 0.667920 -0.006251 0.010270 905371.000000 0 0 1
10.932038 -19.629689 30.829625 38.148393 -1.062661 0.629792 -0.000496 0.010470 39005.000000 0 0 1
10.819238 -18.197489 30.254465 36.926104 -1.034397 0.610564 -0.000023 0.003365 -968583.000000 0 0 1
11.969438 -17.470189 30.216495 36.898665 -0.970117 0.611296 -0.000508 0.008229 -1257000.000000 0 0 1
11.697438 -16.144589 29.689985 35.762732 -0.943788 0.591342 0.014337 0.000976 -316927.000000 0 0 1
12.674238 -15.116889 30.176485 36.052418 -0.873066 0.578988 0.021605 -0.002613 -253693.000000 0 0 1
12.357638 -13.832589 29.709835 35.024649 -0.841656 0.558115 0.038399 -0.004828 -175964.000000 0 0 1
13.220438 -12.899889 30.283475 35.472186 -0.773127 0.547700 0.034821 -0.005481 -200719.000000 0 0 1
12.760238 -11.496189 29.888755 34.472071 -0.733333 0.521561 0.036547 -0.006675 -8056.020000 0 0 1
12.870938 -10.905589 28.596775 33.201934 -0.702926 0.532977 0.050660 -0.006527 475796.000000 0 0 1
14.203638 -10.861089 28.071875 33.282679 -0.652824 0.567145 0.040299 -0.003422 -96550.700000 0 0 1
14.512638 -9.873489 26.904265 32.123853 -0.597407 0.578074 0.037827 -0.007402 26316.600000 0 0 1
14.578238 -8.472089 27.257455 32.051055 -0.526441 0.553978 0.039342 -0.003111 195578.000000 0 0 1
15.761738 -8.272789 28.007495 33.185707 -0.483341 0.566168 0.034372 -0.007111 -456128.000000 0 0 1
16.045138 -6.759689 28.285995 33.215017 -0.398726 0.551761 0.031626 -0.007523 -1537110.000000 0 0 1
17.373038 -6.495189 28.434725 33.949131 -0.357776 0.577979 0.034052 -0.010010 -1481950.000000 0 0 1
17.688238 -5.201989 27.910865 33.450722 -0.286029 0.583776 0.033559 -0.007178 726432.000000 0 0 1
19.213338 -4.903789 27.677495 34.047661 -0.249893 0.621674 0.032396 -0.009051 214513.000000 0 0 1
19.659538 -5.631789 26.541585 33.506271 -0.278995 0.656493 0.031598 -0.008844 -686955.000000 0 0 1
20.926738 -5.338089 26.093645 33.871844 -0.249758 0.691385 0.041429 -0.001731 193476.000000 0 0 1
22.176638 -5.857489 26.942225 35.383568 -0.258232 0.705275 0.051176 -0.014075 342135.000000 0 0 1
22.631638 -4.874589 27.853045 36.218017 -0.212147 0.693461 0.045759 -0.012021 -204971.000000 0 0 1
23.580138 -5.407689 28.731345 37.560034 -0.225434 0.699841 0.062455 -0.028159 -576749.000000 0 0 1
24.193338 -4.242589 29.576295 38.445733 -0.173597 0.693052 0.063432 -0.021003 -252957.000000 0 0 1
25.129638 -3.510589 28.813945 38.393572 -0.138801 0.721995 0.050532 -0.014453 171071.000000 0 0 1
25.239638 -2.193789 29.278865 38.718264 -0.086701 0.713306 0.041204 -0.028519 -806568.000000 0 0 1
26.122638 -1.241789 28.463685 38.653791 -0.047501 0.743100 0.041337 -0.029922 -69005.600000 0 0 1
27.513438 -1.465089 28.591595 39.706612 -0.053200 0.766891 0.044924 -0.022800 -28154.800000 0 0 1
28.198638 -0.786489 27.561925 39.439085 -0.027884 0.797011 0.041709 -0.004217 -283511.000000 0 0 1
29.725338 -0.844789 27.635625 40.596024 -0.028412 0.822014 0.035087 -0.012785 -300979.000000 0 0 1
30.212638 0.185611 28.483815 41.523074 0.006143 0.814853 0.017336 -0.005287 259276.000000 0 0 1
31.580838 0.082711 28.859015 42.780824 0.002619 0.830403 0.024492 -0.013341 357464.000000 0 0 1
31.941038 1.177511 29.847275 43.731868 0.036848 0.819610 0.022629 -0.013933 -146887.000000 0 0 1
31.868238 2.497811 29.354455 43.399397 0.078219 0.827961 0.019331 -0.006531 17291.800000 0 0 1
32.236338 3.475111 30.286455 44.368088 0.107386 0.819457 0.018302 -0.001484 -249810.000000 0 0 1
32.432438 4.935611 29.705435 44.256481 0.151023 0.834955 0.023625 -0.000492 19328.200000 0 0 1
32.531138 5.976011 30.668995 45.106262 0.181676 0.823132 0.023699 0.000531 758995.000000 0 0 1
31.199738 6.420711 30.968185 44.426092 0.202960 0.799491 0.022247 -0.002141 625947.000000 0 0 1
31.193338 7.334311 32.202215 45.429055 0.230930 0.782935 0.014591 -0.004814 -227807.000000 0 0 1
31.422838 6.639511 33.418589 46.349541 0.208233 0.765534 0.011453 0.005698 221106.000000 0 0 1
31.555438 7.477511 -34.218489 47.144075 0.232673 2.383034 0.021490 -0.001836 -202370.000000 0 0 1
31.705838 6.721511 -32.843828 46.142778 0.208903 2.362835 0.024289 0.002267 -190825.000000 0 0 1
30.565238 6.006411 -32.436078 44.971212 0.194039 2.376421 0.020749 0.007083 -178210.000000 0 0 1
30.449638 4.649911 -32.822818 45.012660 0.151538 2.387935 0.017377 -0.002635 -8014.660000 0 0 1
31.264138 3.636811 -31.933068 44.837413 0.115805 2.363419 0.022677 -0.004421 7189.040000 0 0 1
31.254638 2.254111 -32.285648 44.992183 0.071996 2.371123 0.019381 -0.009872 -8372.680000 0 0 1
31.910538 1.485111 -31.301758 44.724580 0.046506 2.346023 0.012616 -0.008073 -1924.230000 0 0 1
31.907138 -0.040489 -31.616478 44.918468 -0.001269 2.351619 0.010884 -0.019757 -33698.100000 0 0 1
32.873138 -0.336889 -32.652208 46.334905 -0.010248 2.352797 0.010869 -0.018508 489679.000000 0 0 1
33.455338 -1.634089 -32.580608 46.727143 -0.048805 2.342354 0.007494 -0.013646 314930.000000 0 0 1
34.374238 -1.961789 -31.361018 46.571991 -0.057010 2.309578 0.012500 -0.014344 -482721.000000 0 0 1
33.807138 -2.025889 -30.059888 45.283813 -0.059853 2.296699 0.015224 -0.014214 76338.800000 0 0 1
34.820438 -1.674289 -29.121298 45.423740 -0.048047 2.266731 0.026290 -0.019563 256733.000000 0 0 1
34.225238 -1.110489 -27.770488 44.088549 -0.032435 2.252195 0.026694 -0.016965 51563.500000 0 0 1
33.449438 0.059911 -27.980908 43.609629 0.001791 2.267408 0.036452 -0.011362 491072.000000 0 0 1
32.890738 0.581411 -26.793798 42.426953 0.017675 2.254318 0.026451 -0.006141 -205625.000000 0 0 1
32.476938 2.065511 -27.005688 42.288592 0.063514 2.263480 0.032535 -0.011122 -281144.000000 0 0 1
31.431938 2.320411 -27.909478 42.098575 0.073690 2.295556 0.033246 -0.018748 148988.000000 0 0 1
30.827438 3.544211 -27.591388 41.523211 0.114467 2.297596 0.032774 -0.001537 -222531.000000 0 0 1
29.796238 3.920711 -28.653288 41.523472 0.130832 2.332355 0.026620 -0.002820 89821.300000 0 0 1
28.708838 4.781411 -28.303438 40.597338 0.165034 2.342245 0.030448 -0.001954 698732.000000 0 0 1
28.097938 5.301811 -29.450748 41.048141 0.186498 2.370958 0.018555 -0.001418 -817593.000000 0 0 1
26.866838 6.132611 -29.162978 40.123749 0.224415 2.384485 0.015267 -0.002330 -671062.000000 0 0 1
25.776638 5.353311 -28.714228 38.956385 0.204770 2.399545 0.022474 -0.007750 386331.000000 0 0 1
24.825938 6.151511 -28.000268 37.923387 0.242893 2.401399 0.027133 -0.006599 -128958.000000 0 0 1
23.571738 5.374911 -27.596098 36.688706 0.224190 2.422143 0.041351 -0.004183 133655.000000 0 0 1
22.795138 5.019011 -28.780818 37.055962 0.216721 2.460182 0.038281 -0.008023 2007570.000000 0 0 1
21.401338 4.682711 -28.499278 35.946542 0.215410 2.486225 0.040621 -0.011404 1511820.000000 0 0 1
20.545038 4.311811 -29.710808 36.378873 0.206869 2.526474 0.042856 -0.013356 -217301.000000 0 0 1
20.879038 3.032011 -30.168948 36.814301 0.144210 2.531317 0.050297 -0.019252 48465.600000 0 0 1
20.111738 2.505711 -31.221518 37.222894 0.123951 2.565820 0.033001 -0.016224 -339127.000000 0 0 1
20.396538 3.130611 -32.640838 38.616626 0.152299 2.577836 0.036953 -0.014635 220823.000000 0 0 1
21.715538 2.869811 -33.098608 39.690279 0.131393 2.556973 0.026723 -0.012587 213985.000000 0 0 1
21.796938 3.578511 -34.333616 40.825353 0.162723 2.569902 0.033812 -0.013444 57299.800000 0 0 1
23.192938 3.261911 33.836727 41.151871 0.139726 0.605460 0.043564 -0.010772 77199.500000 0 0 1
23.425638 1.935311 33.412035 40.851805 0.082428 0.613073 0.051313 -0.021706 -462897.000000 0 0 1
24.792738 1.827511 33.137131 41.425706 0.073578 0.643639 0.039865 -0.024064 -820669.000000 0 0 1
25.155538 0.302211 32.962842 41.466147 0.012013 0.651898 0.030939 -0.024969 -543487.000000 0 0 1
24.670738 -0.314089 31.724415 40.189333 -0.012731 0.661008 0.038504 -0.027994 -192267.000000 0 0 1
23.316738 -0.511989 31.494395 39.189658 -0.021954 0.637409 0.054183 -0.033929 -1100370.000000 0 0 1
22.501338 -1.462789 32.346235 39.430050 -0.064918 0.608783 0.049771 -0.037704 -710463.000000 0 0 1
22.826338 -2.776789 32.125885 39.507274 -0.121054 0.621229 0.045891 -0.041966 47167.100000 0 0 1
22.138838 -3.545189 33.070391 39.954315 -0.158786 0.595791 0.048374 -0.036527 -325482.000000 0 0 1
21.993438 -5.048989 32.755320 39.775804 -0.225658 0.603246 0.045722 -0.030646 -425852.000000 0 0 1
23.158938 -5.807589 32.814829 40.581738 -0.245704 0.629009 0.048128 -0.028000 -284837.000000 0 0 1
22.855838 -7.177789 32.517025 40.388945 -0.304293 0.634957 0.054695 -0.031688 14229.100000 0 0 1
24.176438 -7.924489 32.264345 41.088753 -0.316742 0.667720 0.055541 -0.027490 86114.200000 0 0 1
24.646038 -7.525689 30.955615 40.277950 -0.296359 0.694225 0.068265 -0.029706 786109.000000 0 0 1
25.953838 -8.043889 30.648105 40.958664 -0.300542 0.725347 0.073690 -0.031471 759335.000000 0 0 1
26.482738 -7.851689 29.208585 40.201068 -0.288227 0.757491 0.070251 -0.025054 7776.800000 0 0 1
25.652938 -8.536989 28.332975 39.162621 -0.321260 0.761981 0.059715 -0.016507 -97965.200000 0 0 1
26.135338 -8.261189 27.012675 38.483603 -0.306155 0.792697 0.076353 -0.015190 109811.000000 0 0 1
25.451038 -9.105489 25.966195 37.482109 -0.343576 0.805484 0.059964 -0.018862 726053.000000 0 0 1
24.112038 -8.707889 25.637605 36.256096 -0.346567 0.785372 0.058162 -0.020448 534931.000000 0 0 1
23.547738 -9.485289 24.601635 35.351197 -0.382927 0.801095 0.067410 -0.022203 -70493.100000 0 0 1
22.133338 -9.049589 24.212615 34.029846 -0.388127 0.779150 0.051202 -0.007964 -539657.000000 0 0 1
21.173238 -9.045089 25.227115 34.154457 -0.403728 0.739778 0.038219 -0.004843 -236040.000000 0 0 1
19.928538 -8.763189 24.605595 32.853849 -0.414281 0.724334 0.040101 -0.002286 442588.000000 0 0 1
18.725738 -8.680789 25.586475 32.873653 -0.434086 0.678798 0.034885 -0.003201 128897.000000 0 0 1
18.106538 -9.831389 26.185865 33.319700 -0.497433 0.666650 0.043951 -0.012419 207095.000000 0 0 1
18.893538 -10.655189 27.040135 34.665079 -0.513497 0.676067 0.043597 -0.013103 -167858.000000 0 0 1
18.080538 -11.756289 27.806015 35.189354 -0.576528 0.659689 0.038464 -0.008281 32987.400000 0 0 1
17.449638 -12.691989 26.979825 34.546887 -0.628847 0.674591 0.041757 -0.009578 224566.000000 0 0 1
16.540638 -13.493289 27.696365 34.967845 -0.684281 0.656633 0.037048 -0.010469 271882.000000 0 0 1
17.268638 -14.711289 28.433165 36.374067 -0.705601 0.673429 0.042700 -0.003839 509307.000000 0 0 1
16.279538 -15.286089 29.263825 36.811130 -0.753936 0.651835 0.032773 -0.005530 524009.000000 0 0 1
16.741738 -16.477989 29.860985 37.993267 -0.777459 0.666558 0.049975 -0.010608 -24680.700000 0 0 1
17.011438 -17.755189 29.020505 38.037159 -0.806788 0.702930 0.048507 -0.001705 404764.000000 0 0 1
18.156738 -17.670189 28.176785 37.892399 -0.771818 0.732358 0.049740 0.002407 669403.000000 0 0 1
18.466338 -18.878889 27.505475 38.130948 -0.796445 0.765058 0.037279 0.009109 -176454.000000 0 0 1
19.389938 -18.674089 26.277115 37.618852 -0.766594 0.797484 0.048418 0.000431 -494243.000000 0 0 1
20.671338 -18.322489 26.695375 38.414331 -0.725234 0.802470 0.066688 -0.010103 -362861.000000 0 0 1
21.474138 -17.834489 25.628005 37.894620 -0.693070 0.828073 0.058445 -0.007336 34181.800000 0 0 1
22.864038 -17.277289 25.953275 38.663179 -0.647110 0.834881 0.048051 -0.005025 -384466.000000 0 0 1
23.826338 -18.289789 26.068655 39.771667 -0.654689 0.856008 0.046617 -0.012594 -787482.000000 0 0 1
24.973738 -17.800289 26.667165 40.640811 -0.619239 0.855068 0.034344 -0.008268 -932189.000000 0 0 1
26.022338 -18.854289 26.947695 41.938342 -0.627008 0.872968 0.018648 -0.007202 -219514.000000 0 0 1
25.553338 -19.874189 27.867945 42.715089 -0.661028 0.860030 0.033753 -0.010814 -47637.700000 0 0 1
26.557638 -20.833089 27.997945 43.854426 -0.665186 0.878341 0.033870 -0.001102 -145902.000000 0 0 1
26.162738 -22.023389 28.921235 44.787904 -0.699705 0.868807 0.032406 0.001883 86377.100000 0 0 1
25.925638 -21.687089 30.275145 45.376788 -0.696611 0.840360 0.035696 -0.007597 121065.000000 0 0 1
25.361038 -22.842689 30.910215 46.047932 -0.733202 0.834887 0.030723 -0.004820 -168861.000000 0 0 1
24.944938 -22.881489 32.398935 46.856200 -0.742280 0.807296 0.037206 -0.006180 -26920.200000 0 0 1
24.733438 -24.190389 32.833837 47.696737 -0.774299 0.811533 0.021605 -0.002026 -90654.300000 0 0 1
24.639538 -24.113189 34.241626 48.590551 -0.774602 0.788800 0.035665 0.000444 -636430.000000 0 0 1
24.395638 -25.458039 -33.723278 48.790557 -0.806705 2.333923 0.025809 0.002548 -219411.000000 0 0 1
23.151038 -26.122539 -33.876588 48.641349 -0.845631 2.341244 0.023201 0.006216 -40353.200000 0 0 1
22.769638 -26.434079 33.543924 48.398469 -0.859736 0.805046 0.007388 0.000412 -796806.000000 0 0 1
21.423238 -27.153019 33.508686 48.156761 -0.902810 0.801228 0.016410 -0.004386 -257871.000000 0 0 1
21.450938 -28.491709 34.022369 49.289368 -0.925452 0.808951 0.004734 0.000395 -633157.000000 0 0 1
20.245238 -29.152299 33.814912 49.022183 -0.963795 0.809600 0.026636 -0.000698 -806458.000000 0 0 1
20.219538 -30.702179 33.879870 49.992990 -0.988420 0.826176 0.008690 -0.000251 -392110.000000 0 0 1
20.478238 -31.165809 -33.605218 50.199369 -0.989464 2.304244 -0.014391 -0.000031 395727.000000 0 0 1
21.427538 -32.227179 -33.583028 51.240124 -0.984025 2.285515 -0.015532 0.015250 -15879.900000 0 0 1
21.903138 -32.713439 -32.212718 50.868220 -0.980803 2.256552 0.000550 0.019057 -412084.000000 0 0 1
22.840238 -33.783069 -32.412928 52.091940 -0.976301 2.242379 -0.004709 0.015979 685784.000000 0 0 1
23.569638 -34.173151 -31.271238 51.973286 -0.967008 2.216398 0.009271 0.023716 638645.000000 0 0 1
24.672738 -33.220319 -30.680248 51.513214 -0.931983 2.208784 0.017504 0.021579 214474.000000 0 0 1
25.246038 -33.636349 -29.429058 51.330653 -0.926938 2.181353 0.027797 0.023626 19589.000000 0 0 1
26.110238 -32.685669 -28.850958 50.818061 -0.896770 2.174543 0.035633 0.018965 387917.000000 0 0 1
26.717538 -32.922699 -27.403528 50.484496 -0.889068 2.144577 0.032515 0.007682 758962.000000 0 0 1
27.786138 -33.872399 -27.386908 51.666736 -0.883789 2.129478 0.031484 0.009618 253309.000000 0 0 1
28.466338 -33.798059 -26.099968 51.321044 -0.870820 2.104311 0.032692 0.003915 501104.000000 0 0 1
-26.611642 -30.769303 9.140742 41.695115 0.857729 1.349773 0.038654 -0.007554 -253145.000000 0 0 1
-26.583552 -32.157903 9.365942 42.761394 0.880011 1.349978 0.036432 -0.004898 69992.200000 0 0 1
-25.602432 -32.374103 10.351342 42.552524 0.901672 1.325071 0.033501 -0.006447 -106199.000000 0 0 1
-25.866712 -33.622103 11.214142 43.878122 0.915034 1.312354 0.022398 -0.004354 -51651.300000 0 0 1
-25.679692 33.958211 10.543342 43.860788 -0.923330 1.328037 0.024123 0.000072 -48749.000000 0 0 1
-25.784042 32.850511 11.427742 43.296260 -0.905337 1.303689 0.022434 -0.000019 80727.800000 0 0 1
-25.659222 31.481311 10.683842 41.995394 -0.886938 1.313564 0.026641 -0.001804 446627.000000 0 0 1
-26.747712 31.275011 9.781942 42.299560 -0.863267 1.337430 0.036432 -0.009864 266826.000000 0 0 1
-26.689962 29.973411 9.234642 41.182982 -0.843280 1.344639 0.041246 -0.013630 44727.700000 0 0 1
-25.906062 29.776711 7.898342 40.251216 -0.854799 1.373289 0.042350 -0.008359 -50293.700000 0 0 1
-24.509462 29.787211 8.013842 39.398138 -0.882296 1.365960 0.040775 -0.009157 -330055.000000 0 0 1
-23.858762 29.712311 6.773742 38.703301 -0.894233 1.394873 0.030106 -0.003113 -444521.000000 0 0 1
-22.516262 28.995411 6.736342 37.324177 -0.910521 1.389320 0.042502 -0.001116 -529589.000000 0 0 1
-22.426062 27.658411 7.163442 36.321218 -0.889491 1.372270 0.054423 -0.008855 164616.000000 0 0 1
-22.695362 26.641311 6.133942 35.531171 -0.865208 1.397292 0.040403 -0.017569 -427033.000000 0 0 1
-22.911462 25.185611 6.612442 34.683922 -0.832645 1.378973 0.042270 -0.014051 -3332.130000 0 0 1
-24.144862 25.026811 7.316242 35.536503 -0.803332 1.363434 0.048953 -0.017484 673921.000000 0 0 1
-24.539262 23.672811 7.536142 34.919490 -0.767428 1.353270 0.049571 -0.023709 -237433.000000 0 0 1
-24.932862 22.769511 6.365442 34.360109 -0.740078 1.384463 0.040641 -0.031372 -488174.000000 0 0 1
-26.238962 23.108711 5.921842 35.462147 -0.722050 1.403020 0.037478 -0.030884 240821.000000 0 0 1
-26.526952 22.515811 4.711042 35.111748 -0.703791 1.436218 0.026386 -0.024292 -148695.000000 0 0 1
-26.423542 23.419411 3.442442 35.475665 -0.725199 1.473607 0.022792 -0.026926 560112.000000 0 0 1
-25.152712 24.061211 3.190842 34.954002 -0.763223 1.479382 0.027257 -0.022414 989611.000000 0 0 1
-25.002062 24.542111 1.877042 35.084777 -0.776115 1.517271 0.022988 -0.018806 -115123.000000 0 0 1
-23.665962 25.281311 1.768942 34.674942 -0.818388 1.519759 0.037512 -0.010237 59244.400000 0 0 1
-23.102862 25.802711 0.557742 34.638608 -0.840548 1.554694 0.018643 -0.015012 484519.000000 0 0 1
-21.797762 26.342011 0.780142 34.200184 -0.879516 1.547983 0.031594 -0.016651 191993.000000 0 0 1
-20.996962 26.932911 -0.398658 34.152789 -0.908617 1.582469 0.034736 -0.017592 190830.000000 0 0 1
-20.702562 26.046311 -1.458158 33.303643 -0.899212 1.614594 0.031526 -0.019837 592948.000000 0 0 1
-19.671362 25.077211 -1.169858 31.893535 -0.905621 1.607485 0.035286 -0.021827 182686.000000 0 0 1
-19.502262 24.087211 -2.357758 31.082004 -0.890198 1.646725 0.036377 -0.026156 -880168.000000 0 0 1
-20.635462 23.362111 -2.636458 31.281967 -0.847292 1.655177 0.035371 -0.023913 -882197.000000 0 0 1
-20.358162 22.317211 -3.488358 30.408573 -0.831272 1.685766 0.038694 -0.022653 -189018.000000 0 0 1
-21.517862 21.921011 -4.414958 31.032901 -0.794679 1.713548 0.040038 -0.019118 -189694.000000 0 0 1
-21.900762 22.845311 -5.336958 32.094154 -0.806504 1.737863 0.034628 -0.017206 -338075.000000 0 0 1
-23.082262 22.412211 -5.954158 32.719261 -0.770671 1.753793 0.032286 -0.010126 -54952.200000 0 0 1
-23.301962 22.992011 -7.364058 33.553589 -0.778703 1.792069 0.031566 -0.005969 -104513.000000 0 0 1
-22.474262 22.398811 -8.310958 32.800476 -0.783717 1.826968 0.032811 -0.010623 -147021.000000 0 0 1
-22.310762 23.314711 -9.367258 33.601955 -0.807399 1.853311 0.034681 -0.014888 -20557.500000 0 0 1
-21.526062 22.753811 -10.557958 33.054164 -0.813118 1.895907 0.029374 -0.014068 296929.000000 0 0 1
-22.368862 21.947611 -11.399758 33.346935 -0.775893 1.919685 0.019484 -0.011330 1096700.000000 0 0 1
-21.608062 21.666911 -12.603958 33.094156 -0.786758 1.961513 0.014703 -0.005250 529536.000000 0 0 1
-22.541362 21.487711 -13.817458 34.069882 -0.761472 1.988390 0.007447 -0.009122 -63836.500000 0 0 1
-23.200962 20.234311 -13.800458 33.736696 -0.717204 1.992224 0.013715 -0.000129 -507331.000000 0 0 1
-24.209362 20.306011 -14.743558 34.868321 -0.697936 2.007368 0.014573 -0.008196 -402391.000000 0 0 1
-25.048662 19.005811 -14.799758 34.751823 -0.649081 2.010720 0.043405 -0.012655 176827.000000 0 0 1
-24.432362 18.025011 -15.584058 34.127763 -0.635616 2.045010 0.038515 -0.009137 291098.000000 0 0 1
-25.416402 17.052211 -15.924558 34.501637 -0.590937 2.050549 0.051026 -0.010834 150444.000000 0 0 1
-24.995862 16.155411 -17.134758 34.342253 -0.573786 2.093173 0.059462 -0.007688 145718.000000 0 0 1
-23.946162 15.249611 -16.868158 33.022781 -0.567060 2.106916 0.074411 -0.013786 24017.300000 0 0 1
-23.666162 14.396711 -17.913958 32.988823 -0.546518 2.144839 0.078072 -0.018328 349209.000000 0 0 1
-22.725662 13.202211 -17.528858 31.591375 -0.526286 2.158994 0.086381 -0.013182 886105.000000 0 0 1
-21.384862 13.451711 -17.159358 30.540210 -0.561492 2.167430 0.080488 -0.020630 831188.000000 0 0 1
-20.452262 12.363711 -17.119258 29.397710 -0.543733 2.192392 0.078359 -0.011704 874281.000000 0 0 1
-19.239062 12.603611 -16.161158 28.110062 -0.579956 2.183308 0.072733 -0.018235 -64408.100000 0 0 1
-18.367562 13.571011 -16.583658 28.223348 -0.636332 2.198869 0.060081 -0.012829 -328575.000000 0 0 1
-17.221762 13.684511 -15.759258 27.059363 -0.671443 2.192469 0.056248 -0.004707 401566.000000 0 0 1
-16.370662 14.958011 -16.168658 27.443873 -0.740337 2.200807 0.039670 -0.001073 57629.500000 0 0 1
-15.694562 14.766211 -17.387358 27.688996 -0.754931 2.249715 0.056987 -0.003675 -471045.000000 0 0 1
-14.763562 15.762911 -17.582158 27.848957 -0.818124 2.254076 0.045698 -0.002797 -1248130.000000 0 0 1
-13.747662 15.463911 -18.618858 27.835097 -0.844083 2.303523 0.044133 -0.006951 -726892.000000 0 0 1
-12.866162 14.416611 -18.306158 26.617517 -0.842166 2.329179 0.048496 -0.008925 -470096.000000 0 0 1
-11.926362 14.306111 -19.340458 26.850629 -0.875868 2.375028 0.062104 -0.010233 214406.000000 0 0 1
-11.195462 12.930911 -19.408958 25.869953 -0.857206 2.419238 0.049683 -0.015584 221404.000000 0 0 1
-11.995562 11.919011 -19.977558 26.173635 -0.782197 2.439156 0.057561 -0.010633 5550.570000 0 0 1
-11.290562 10.710111 -20.043958 25.376043 -0.759021 2.481405 0.035883 0.007081 19637.900000 0 0 1
-11.935462 9.698011 -21.015558 26.041512 -0.682339 2.509854 0.053397 0.001034 176906.000000 0 0 1
-11.493162 10.106111 -22.303658 27.049574 -0.721269 2.540198 0.057063 -0.004648 147092.000000 0 0 1
-11.872062 9.155011 -23.304158 27.709996 -0.656893 2.569929 0.041730 0.015224 92580.100000 0 0 1
-11.313062 9.428411 -24.723858 28.777586 -0.694783 2.604375 0.049847 -0.013298 516618.000000 0 0 1
-9.965962 9.133011 -25.096008 28.505121 -0.741813 2.647509 0.051260 -0.014133 395532.000000 0 0 1
-9.886462 8.676511 -26.482878 29.569694 -0.720309 2.680594 0.034267 -0.023335 -387862.000000 0 0 1
-9.518362 9.774511 -27.550268 30.743415 -0.798674 2.681780 0.059294 -0.026581 184140.000000 0 0 1
-8.162262 10.181111 -27.645408 30.570348 -0.895016 2.700583 0.056442 -0.024038 394688.000000 0 0 1
-7.668762 10.899311 -26.549688 29.706747 -0.957658 2.676379 0.047340 -0.014363 757678.000000 0 0 1
-6.186362 11.417311 -26.798528 29.778972 -1.074239 2.690370 0.040492 -0.010540 664952.000000 0 0 1
-6.149762 12.660711 -27.514888 30.906023 -1.118625 2.668747 0.031504 -0.022633 361989.000000 0 0 1
-4.846462 13.181911 -27.750918 31.102483 -1.218476 2.673081 0.035094 -0.006575 37886.700000 0 0 1
-4.129062 12.632411 -28.990868 31.891965 -1.254881 2.711756 0.041443 -0.008705 701731.000000 0 0 1
-2.745662 13.040311 -29.032348 31.944728 -1.363276 2.711269 0.049348 -0.014294 919956.000000 0 0 1
-2.185662 12.670411 -30.299298 32.914494 -1.399976 2.740272 0.056309 -0.016113 1830270.000000 0 0 1
-0.593462 12.549111 -30.352188 32.849471 -1.523540 2.749151 0.065297 -0.018732 1500110.000000 0 0 1
0.027238 11.486711 -29.600748 31.751371 1.568425 2.771425 0.046332 0.000022 425005.000000 0 0 1
1.428538 11.390611 -29.805648 31.939997 1.446034 2.773947 0.062004 -0.004239 346082.000000 0 0 1
1.905838 10.655211 -31.063128 32.895040 1.393804 2.806289 0.060992 -0.002636 -499062.000000 0 0 1
1.756438 11.406111 -32.256498 34.258811 1.418006 2.798009 0.075892 -0.014647 173740.000000 0 0 1
1.909838 10.582811 -33.404598 35.092885 1.392252 2.830145 0.072228 -0.010147 49206.600000 0 0 1
1.917038 11.358511 34.033159 35.929747 1.403597 0.326365 0.075686 -0.018223 1153920.000000 0 0 1
3.216338 11.973111 33.777158 35.980503 1.308362 0.351774 0.066277 -0.020972 1132480.000000 0 0 1
3.167738 12.881511 32.700818 35.288969 1.329667 0.385373 0.073187 -0.012705 426460.000000 0 0 1
4.593738 13.304711 32.234375 35.173465 1.238340 0.411704 0.076519 -0.010294 406909.000000 0 0 1
5.314238 12.231411 31.694755 34.386131 1.160928 0.398277 0.059292 -0.012677 -364968.000000 0 0 1
6.646338 12.557111 31.417325 34.480475 1.083993 0.424699 0.060931 -0.003374 18223.500000 0 0 1
7.583638 11.449311 30.879175 33.795291 0.985777 0.418469 0.033188 -0.000382 229482.000000 0 0 1
7.128738 11.066311 29.610175 32.404391 0.998521 0.418326 0.031924 -0.006740 -89300.100000 0 0 1
8.021438 10.193311 28.999075 31.767804 0.904075 0.420598 0.019306 -0.010313 -194711.000000 0 0 1
7.307438 9.327211 27.938055 30.346835 0.906226 0.401118 0.009519 -0.003818 289675.000000 0 0 1
6.502138 8.301311 28.490365 30.379112 0.906342 0.354479 0.011808 -0.011232 -20262.500000 0 0 1
5.871838 7.570911 27.433505 29.058464 0.911125 0.336004 0.024680 -0.020490 -112699.000000 0 0 1
5.127838 6.306311 27.962045 29.119413 0.888102 0.282884 0.045044 -0.024857 -437901.000000 0 0 1
5.883738 5.239611 28.434515 29.505822 0.727555 0.270297 0.027658 -0.018844 -785992.000000 0 0 1
5.348538 4.590211 29.558145 30.386853 0.709246 0.234080 0.031089 -0.012944 -284717.000000 0 0 1
6.100638 3.332911 30.037695 30.831626 0.500015 0.227428 0.053535 -0.009183 101262.000000 0 0 1
5.730238 2.092411 29.390825 30.017235 0.350109 0.204653 0.045997 -0.007363 194135.000000 0 0 1
6.441938 1.902611 28.176755 28.966325 0.287183 0.234021 0.049198 -0.013495 37850.900000 0 0 1
6.367138 0.385711 27.745335 28.469156 0.060504 0.225979 0.051077 -0.006748 -158532.000000 0 0 1
7.173138 -0.446089 28.519285 29.410925 -0.062109 0.246865 0.062403 -0.004556 -28904.500000 0 0 1
7.333438 -1.736689 28.041645 29.036688 -0.232534 0.262549 0.063645 -0.005811 91583.700000 0 0 1
8.108938 -2.694389 29.020005 30.251864 -0.320797 0.286355 0.059199 -0.004112 489633.000000 0 0 1
9.483738 -2.463689 29.272335 30.868765 -0.254162 0.323013 0.061388 -0.011952 176593.000000 0 0 1
10.254938 -3.550389 28.782605 30.760484 -0.333297 0.360556 0.060704 -0.001038 -500458.000000 0 0 1
11.776938 -3.497289 28.799255 31.310132 -0.288666 0.403210 0.050333 0.001359 -245639.000000 0 0 1
12.523138 -4.662489 28.464585 31.445196 -0.356410 0.438917 0.041712 0.000481 295438.000000 0 0 1
12.631638 -5.709189 29.409495 32.512636 -0.424495 0.440460 0.043394 -0.002276 -688405.000000 0 0 1
11.923638 -7.025689 29.098295 32.221797 -0.532458 0.443949 0.050582 -0.004997 35823.500000 0 0 1
10.511838 -6.971689 29.089255 31.706276 -0.585615 0.409147 0.064715 -0.006629 -78075.100000 0 0 1
9.901838 -8.188989 28.717235 31.460857 -0.690999 0.420726 0.064031 -0.007978 -1245170.000000 0 0 1
8.452138 -8.086689 28.412105 30.725899 -0.763305 0.390561 0.061514 -0.008138 -1008020.000000 0 0 1
7.687838 -7.767789 29.582895 31.537106 -0.790571 0.353882 0.065901 -0.007734 -545537.000000 0 0 1
6.315838 -7.641589 29.413155 31.038965 -0.880099 0.325095 0.059585 -0.005901 -845251.000000 0 0 1
5.703138 -6.882889 30.539365 31.820634 -0.878860 0.284740 0.047494 -0.010846 -349805.000000 0 0 1
5.667438 -7.640389 31.776985 33.170351 -0.932581 0.290874 0.053588 -0.017111 -39921.300000 0 0 1
5.088838 -6.860889 32.813404 33.907043 -0.932617 0.254672 0.051024 -0.015936 -46912.700000 0 0 1
5.759038 -5.544889 33.368224 34.312544 -0.766456 0.235152 0.059922 -0.011486 16225.100000 0 0 1
5.824238 -4.494289 32.445985 33.269540 -0.657215 0.222966 0.058597 -0.010820 40135.100000 0 0 1
6.374638 -3.348989 33.081377 33.856007 -0.483730 0.214327 0.055319 -0.006058 -20205.300000 0 0 1
6.345738 -2.049189 32.254645 32.936753 -0.312353 0.203870 0.062099 -0.002072 116675.000000 0 0 1
4.999138 -1.669189 32.035605 32.466252 -0.322256 0.163058 0.058621 -0.000795 121314.000000 0 0 1
4.868838 -0.481689 31.322905 31.702712 -0.098612 0.154947 0.052314 -0.008718 293826.000000 0 0 1
3.396938 -0.054089 31.044575 31.229917 -0.015922 0.109001 0.050727 -0.009056 240482.000000 0 0 1
2.689538 0.175211 32.231915 32.344407 0.065053 0.083426 0.046789 -0.004336 403976.000000 0 0 1
1.428838 0.791011 31.872715 31.914530 0.505606 0.051196 0.054805 -0.008237 650192.000000 0 0 1
0.582938 1.022511 33.132886 33.153785 1.052649 0.035509 0.046162 -0.003328 -342059.000000 0 0 1
1.045638 2.094411 33.970704 34.051265 1.107748 0.068801 0.037970 -0.000679 235457.000000 0 0 1
0.463038 2.037311 -33.482628 33.547749 1.347314 3.079275 0.026473 -0.000265 -9310.010000 0 0 1
0.948938 3.146511 -32.507698 32.673406 1.277887 3.040836 0.026923 0.000039 -272831.000000 0 0 1
2.167238 2.909611 -31.875368 32.081176 0.930596 3.028260 0.016408 0.007625 -524622.000000 0 0 1
2.721938 4.008611 -31.230968 31.604609 0.974288 2.987673 0.015817 0.006782 58523.700000 0 0 1
3.884138 3.579311 -30.300198 30.757113 0.744578 2.969009 0.023650 0.009146 29861.100000 0 0 1
3.402038 2.870011 -29.135388 29.473406 0.700776 2.989997 0.025856 0.002117 742915.000000 0 0 1
4.357138 2.782011 -28.054868 28.527178 0.568245 2.959371 0.037523 -0.006465 398557.000000 0 0 1
3.736538 2.023211 -26.841818 27.176061 0.496268 2.984593 0.031223 -0.009433 152853.000000 0 0 1
3.847138 0.632311 -26.904828 27.185843 0.162902 2.997685 0.038278 -0.012460 51087.300000 0 0 1
3.272938 0.104111 -25.708868 25.916575 0.031799 3.014903 0.045985 -0.014638 -180583.000000 0 0 1
3.749638 -1.325389 -25.398618 25.708097 -0.339764 2.986271 0.039660 -0.013479 -102395.000000 0 0 1
5.131138 -1.375189 -25.153918 25.708740 -0.261855 2.933462 0.034528 -0.015124 -214227.000000 0 0 1
5.594738 -2.749989 -25.102348 25.864869 -0.456850 2.898172 0.037759 -0.012531 334317.000000 0 0 1
6.987538 -3.027789 -24.470958 25.628519 -0.408890 2.839894 0.043049 -0.017387 641586.000000 0 0 1
8.045138 -2.652589 -25.335078 26.713792 -0.318489 2.818914 0.034430 -0.013384 -382951.000000 0 0 1
9.291038 -3.143589 -24.904358 26.766259 -0.326256 2.766404 0.036066 -0.013266 121858.000000 0 0 1
-28.929712 -4.172089 17.179245 33.903702 0.143227 1.039435 0.040242 -0.014471 -177527.000000 0 0 1
-30.219742 -3.838389 17.624545 35.193616 0.126339 1.046287 0.031684 0.002641 -304655.000000 0 0 1
-30.598472 -4.801989 18.591745 36.124487 0.155666 1.030188 0.025814 0.000169 -504156.000000 0 0 1
-32.022102 -4.712989 19.123045 37.594124 0.146130 1.037156 0.018530 0.001010 -67658.400000 0 0 1
-33.021202 -5.016289 18.141545 38.008928 0.150759 1.073220 0.013958 0.002463 241462.000000 0 0 1
-34.320239 -4.850489 18.663445 39.366613 0.140400 1.076862 0.020662 0.008955 -74277.400000 0 0 1
-35.364521 -5.151889 17.547045 39.813190 0.144662 1.114380 0.016675 0.005961 1159960.000000 0 0 1
34.689148 -5.144289 18.065645 39.448298 -0.147224 1.095100 0.026677 0.009207 1064000.000000 0 0 1
33.682588 -5.217689 17.078845 38.123850 -0.153686 1.106288 0.018693 0.007288 866422.000000 0 0 1
32.266288 -5.725089 17.500945 37.150680 -0.175605 1.080282 0.026617 0.007030 327223.000000 0 0 1
31.589328 -4.875489 18.357845 36.860093 -0.153131 1.049458 0.047551 0.004785 -337879.000000 0 0 1
30.408178 -5.503189 18.742345 36.141636 -0.179039 1.025606 0.056311 -0.006284 -67315.500000 0 0 1
29.554928 -4.979689 19.952445 36.005432 -0.166922 0.983454 0.060579 -0.002109 535554.000000 0 0 1
28.773398 -3.781589 19.944245 35.213374 -0.130678 0.968686 0.063339 -0.004636 846091.000000 0 0 1
29.507988 -2.554489 19.743045 35.595429 -0.086354 0.982853 0.066917 -0.003543 93532.800000 0 0 1
28.559458 -1.378889 19.982345 34.883206 -0.048244 0.960835 0.044452 0.005656 -382516.000000 0 0 1
29.063748 -0.130889 19.614345 35.063387 -0.004503 0.977138 0.045950 0.003320 119365.000000 0 0 1
28.138598 0.910111 19.890445 34.470839 0.032333 0.955718 0.034520 0.001600 251047.000000 0 0 1
28.569068 2.285011 19.224845 34.510977 0.079812 0.979949 0.019718 0.008916 117988.000000 0 0 1
28.526468 2.264011 17.799445 33.700227 0.079199 1.014352 0.009548 0.002914 53160.500000 0 0 1
28.315948 3.564211 17.323545 33.385651 0.125214 1.025242 -0.004029 0.011457 60208.600000 0 0 1
28.239668 3.539811 15.764745 32.535154 0.124698 1.064953 0.001231 0.007674 -517046.000000 0 0 1
27.890748 4.741611 15.094345 32.065806 0.168397 1.080678 -0.005554 0.012973 294419.000000 0 0 1
27.715368 4.565411 13.682545 31.244145 0.163259 1.117509 0.010894 0.014186 -260379.000000 0 0 1
27.324588 5.837811 12.915645 30.781927 0.210482 1.137808 0.015691 0.008055 944711.000000 0 0 1
26.075338 6.347811 13.449545 30.018464 0.238796 1.106222 -0.001068 0.007295 843250.000000 0 0 1
25.647438 7.571311 12.816745 29.654422 0.287054 1.123861 0.016597 -0.007320 -290043.000000 0 0 1
24.504138 8.306311 13.592545 29.226783 0.326820 1.087081 0.010559 -0.009191 1463070.000000 0 0 1
23.200038 7.700611 13.758045 28.050400 0.320480 1.058161 0.013354 0.001444 1432400.000000 0 0 1
23.187438 6.411211 14.303845 27.988584 0.269756 1.034379 0.020888 0.002438 -1845970.000000 0 0 1
21.823738 5.763311 14.255545 26.696663 0.258190 1.007493 0.047709 0.001850 -840923.000000 0 0 1
21.333038 5.531711 12.956245 25.564870 0.253715 1.039329 0.067697 0.002422 997182.000000 0 0 1
20.099638 4.804411 12.881145 24.351626 0.234627 1.013416 0.074277 0.003295 548033.000000 0 1 0
19.649138 4.597011 11.344945 23.150138 0.229821 1.058638 0.081475 -0.003681 230811.000000 0 1 0
20.483838 3.704211 10.584145 23.352364 0.178902 1.100403 0.075456 -0.010647 631152.000000 0 1 0
19.977338 3.482811 9.293045 22.306606 0.172603 1.141089 0.078101 -0.010978 362282.000000 0 1 0
21.019538 2.837611 8.283545 22.770378 0.134187 1.198467 0.064608 -0.005326 -296684.000000 0 1 0
21.364438 1.477411 8.618845 23.084766 0.069043 1.188172 0.061983 -0.001257 662959.000000 0 1 0
22.306738 1.029811 7.646045 23.603242 0.046133 1.240905 0.049198 0.005644 1926550.000000 0 1 0
23.854338 1.500111 7.711245 25.114598 0.062804 1.258713 0.056758 0.001778 1354190.000000 0 0 1
24.605238 0.970111 8.769845 26.139415 0.039407 1.228658 0.051452 0.013580 305891.000000 0 0 1
24.378138 1.584211 10.066645 26.422351 0.064894 1.179930 0.049164 0.011980 -618022.000000 0 0 1
25.118738 0.901911 11.205245 27.519483 0.035890 1.151437 0.029246 0.014824 466086.000000 0 0 1
26.546898 0.902611 11.098645 28.787713 0.033988 1.175010 0.029335 0.009773 795324.000000 0 0 1
27.058228 0.283411 12.269645 29.711482 0.010474 1.145095 0.028547 0.006148 276853.000000 0 0 1
28.607608 0.352611 12.395945 31.179785 0.012325 1.161936 0.040731 0.003050 246865.000000 0 0 1
29.149188 1.649211 12.613845 31.804152 0.056518 1.162975 0.031764 0.010077 438311.000000 0 0 1
30.538358 1.495911 12.880945 33.177519 0.048946 1.172072 0.019238 0.007063 479084.000000 0 0 1
31.287998 2.855611 13.151545 34.059601 0.091016 1.174360 0.022840 -0.000766 -187234.000000 0 0 1
31.315148 3.687811 11.994545 33.735849 0.117225 1.207301 0.028506 -0.006915 274356.000000 0 0 1
31.901658 4.951211 12.295445 34.545741 0.153974 1.206900 0.030124 -0.007876 577820.000000 0 0 1
33.396778 5.095311 11.858245 35.803979 0.151401 1.233222 0.030901 -0.003944 25288.900000 0 0 1
34.231548 4.280411 12.617945 36.733272 0.124397 1.220153 0.032954 -0.006572 423925.000000 0 0 1
35.543234 4.283311 12.044145 37.772075 0.119932 1.246266 0.035158 -0.006247 420487.000000 0 0 1
-34.767280 3.429711 12.693245 37.170488 -0.098330 1.222298 0.055834 0.000921 -569318.000000 0 0 1
-34.706044 2.049311 12.471245 36.935635 -0.058979 1.226379 0.039034 -0.000229 191461.000000 0 0 1
35.571476 1.203511 12.700745 37.790041 0.033821 1.228037 0.039454 0.012114 -30930.800000 0 0 1
35.252438 0.925411 14.156645 38.000018 0.026245 1.189048 0.027702 0.022587 -44046.900000 0 0 1
-35.189073 0.142211 14.841445 38.191093 -0.004041 1.171674 0.031453 0.019325 251024.000000 0 0 1
-35.599622 0.048611 16.174445 39.101766 -0.001365 1.144337 0.040580 0.011439 -161095.000000 0 0 1
-34.631601 -0.799589 17.008945 38.591338 0.023084 1.114368 0.031681 0.013142 1212220.000000 0 0 1
-33.270972 -0.286189 17.085645 37.402657 0.008602 1.096398 0.029184 0.008520 1597780.000000 0 0 1
-32.302132 -1.065589 17.787545 36.891191 0.032976 1.067675 0.039791 0.004132 470188.000000 0 0 1
-32.277692 -0.976889 19.290345 37.615437 0.030256 1.032318 0.031007 -0.000319 256437.000000 0 0 1
-33.356192 -1.697989 19.925445 38.891414 0.050861 1.032894 0.022605 -0.003245 668174.000000 0 0 1
-33.416412 -1.611489 21.347745 39.686014 0.048187 1.002833 0.021588 -0.010630 -114253.000000 0 0 1
-34.208592 -2.720389 22.016345 40.771899 0.079357 1.000373 0.021303 -0.012899 -340244.000000 0 0 1
-33.440492 -3.886989 22.232945 40.344504 0.115717 0.987141 0.017373 -0.012048 59409.100000 0 0 1
-34.095394 -4.894389 22.967245 41.399822 0.142576 0.982714 0.015839 -0.010512 -374005.000000 0 0 1
-34.133694 -4.681889 24.491855 42.271505 0.136313 0.952811 0.022020 -0.022169 -600460.000000 0 0 1
-32.864342 -4.511689 25.040125 41.562341 0.136429 0.924202 0.017255 -0.027862 -752022.000000 0 0 1
-32.840852 -4.523089 26.409495 42.384447 0.136866 0.898104 0.014486 -0.033458 5099.230000 0 0 1
-31.610322 -3.816189 27.016145 41.757009 0.120145 0.867173 0.017920 -0.020744 -163510.000000 0 0 1
-31.659502 -2.384389 26.947625 41.643533 0.075172 0.867019 0.023463 -0.013469 89930.300000 0 0 1
-31.096792 -1.825489 25.737945 40.407731 0.058636 0.880253 0.031473 -0.018456 -125075.000000 0 0 1
-31.198112 -0.311889 25.692445 40.416843 0.009997 0.881899 0.034503 -0.017812 -801798.000000 0 0 1
-32.470502 0.148011 25.401755 41.226261 -0.004558 0.906945 0.042004 -0.021351 -810610.000000 0 0 1
-32.451412 1.527211 25.114815 41.063127 -0.047027 0.912696 0.044985 -0.003786 261265.000000 0 0 1
-33.868632 2.027011 24.729635 41.985091 -0.059778 0.940963 0.046624 -0.005992 377754.000000 0 0 1
-34.401506 1.650511 23.470345 41.677870 -0.047941 0.972619 0.047674 0.002982 107906.000000 0 0 1
-35.427963 2.539011 23.032645 42.333082 -0.071545 0.995502 0.048994 0.012666 278992.000000 0 0 1
-34.936941 3.699211 22.192545 41.554579 -0.105489 1.007403 0.051976 0.010234 -474422.000000 0 0 1
-34.403904 3.308311 20.925545 40.403613 -0.095866 1.026387 0.057470 -0.005403 -236203.000000 0 0 1
-35.263118 3.080711 19.825645 40.571350 -0.087142 1.060242 0.054879 0.000874 -87262.300000 0 0 1
-34.482445 2.544211 18.589645 39.256680 -0.073649 1.077490 0.048523 0.003067 327158.000000 0 0 1
-33.400582 3.315311 18.099645 38.133808 -0.098935 1.076247 0.060168 0.006228 135660.000000 0 0 1
-33.093892 2.766011 16.882045 37.253992 -0.083387 1.100489 0.060995 0.010905 223182.000000 0 0 1
-32.045962 3.605111 16.042945 36.018281 -0.112027 1.109163 0.061281 0.008328 670642.000000 0 0 1
-32.528052 4.938311 15.742845 36.473254 -0.150666 1.124501 0.073016 -0.003440 598397.000000 0 0 1
-31.606072 5.566311 14.861045 35.366344 -0.174328 1.137127 0.070141 -0.001807 41814.100000 0 0 1
-32.222472 6.819911 14.244945 35.884779 -0.208573 1.162590 0.079760 -0.020146 39456.300000 0 0 1
-31.456512 7.404411 13.216445 34.914350 -0.231177 1.182579 0.079776 -0.015667 318994.000000 0 0 1
-32.107162 8.600411 12.842245 35.633694 -0.261722 1.202104 0.069973 -0.023001 -174273.000000 0 0 1
-31.283822 9.400611 11.843045 34.746319 -0.291910 1.222983 0.071989 -0.018658 -80644.300000 0 0 1
-31.954412 10.609611 11.422045 35.554344 -0.320571 1.243741 0.060826 -0.010562 418750.000000 0 0 1
-31.242722 11.410311 10.485145 34.874649 -0.350165 1.265420 0.060039 -0.026310 -184738.000000 0 0 1
-31.353782 12.868511 10.885145 35.596975 -0.389465 1.260030 0.053369 -0.025920 353043.000000 0 0 1
-30.628612 13.654611 9.910945 34.968373 -0.419366 1.283432 0.060130 -0.025736 463779.000000 0 0 1
-30.525492 15.006811 10.337945 35.551134 -0.456918 1.275743 0.057322 -0.029621 6408.580000 0 0 1
-29.662542 15.911711 9.428145 34.956242 -0.492361 1.297702 0.061487 -0.024959 -1493180.000000 0 0 1
-28.347492 15.591911 9.305545 33.664241 -0.502865 1.290727 0.069803 -0.021982 -1043860.000000 0 0 1
-27.656662 16.325211 8.264045 33.161693 -0.533243 1.318938 0.053383 -0.023906 1175080.000000 0 0 1
-26.147082 16.645611 8.585745 32.163042 -0.566908 1.300575 0.056919 -0.015478 688246.000000 0 0 1
-25.797472 17.342011 9.756745 32.579886 -0.591849 1.266658 0.059987 -0.018632 230979.000000 0 0 1
-26.221542 18.719511 9.799845 33.675307 -0.619993 1.275514 0.059797 -0.025283 -180526.000000 0 0 1
-26.331622 19.176311 11.339645 34.491633 -0.629443 1.235801 0.063388 -0.012877 -72457.900000 0 0 1
-25.074652 19.201011 11.978545 33.777249 -0.653508 1.208274 0.063900 -0.011673 138700.000000 0 0 1
-25.070592 19.679311 13.332245 34.547918 -0.665500 1.174607 0.057312 -0.021724 12766.500000 0 0 1
-25.628192 18.666611 14.371845 34.810868 -0.629509 1.145210 0.042403 -0.018264 443056.000000 0 0 1
-24.680962 17.634411 14.703845 33.709426 -0.620388 1.119432 0.055259 -0.019231 368992.000000 0 0 1
-25.073242 16.870311 15.821245 34.111386 -0.592265 1.088504 0.058055 -0.013730 -320790.000000 0 0 1
-24.150862 15.702011 16.225745 33.061943 -0.576490 1.057825 0.048443 -0.012289 439290.000000 0 0 1
-23.026762 16.178811 17.003445 32.880128 -0.612475 1.027297 0.037427 -0.014587 965013.000000 0 0 1
-21.988562 15.194511 17.167945 31.766466 -0.604673 0.999834 0.028790 -0.020786 673016.000000 0 0 1
-22.371662 14.009011 18.126945 32.020771 -0.559458 0.969030 0.040215 -0.012305 -593471.000000 0 0 1
-22.215362 14.414611 19.468945 32.868574 -0.575572 0.936852 0.032928 -0.009137 83561.600000 0 0 1
-22.484162 13.318911 20.304945 33.094134 -0.534789 0.910246 0.030163 -0.011555 -733151.000000 0 0 1
-22.323562 13.458211 21.808445 33.986367 -0.542527 0.874107 0.010006 -0.010937 -762475.000000 0 0 1
-21.047562 13.706311 22.291945 33.582639 -0.577223 0.844917 0.007512 -0.006637 -534821.000000 0 0 1
-20.656462 15.089111 22.209445 33.876690 -0.630890 0.855824 0.018754 -0.003899 513508.000000 0 0 1
-19.208662 15.339911 22.798545 33.526992 -0.673883 0.823026 0.045362 -0.009669 1533110.000000 0 0 1
-18.156562 14.846011 21.967045 32.134340 -0.685421 0.818112 0.036719 -0.011350 207815.000000 0 0 1
-17.580462 15.794211 21.070545 31.662242 -0.731928 0.842661 0.037751 -0.018078 -1170020.000000 0 0 1
-16.409262 15.197611 20.203445 30.139848 -0.747082 0.836152 0.034190 -0.002810 928326.000000 0 0 1
-15.207762 14.909911 20.884545 29.828605 -0.775509 0.795187 0.035707 0.005601 180719.000000 0 0 1
-14.635362 16.020311 21.633345 30.640590 -0.830545 0.786912 0.030527 0.002933 -1149380.000000 0 0 1
-13.550062 15.524211 22.630145 30.606025 -0.853194 0.738615 0.022870 -0.000048 218696.000000 0 0 1
-12.367462 15.052711 22.007645 29.391745 -0.883017 0.724592 -0.000098 0.030695 -343306.000000 0 0 1
-11.542262 14.483311 22.985945 29.518532 -0.897927 0.678213 0.012142 0.020280 586535.000000 0 0 1
-10.325962 13.671811 22.400145 28.201248 -0.923928 0.652948 0.005228 0.017251 -421512.000000 0 0 1
-9.746062 12.745411 23.279345 28.272940 -0.917971 0.603457 0.005562 0.010136 -302214.000000 0 0 1
-8.577962 12.082211 22.913845 27.287461 -0.953413 0.574028 0.007523 0.024883 -338789.000000 0 0 1
-7.314662 12.947111 22.877845 27.286036 -1.056536 0.576372 0.011983 0.024691 -1274750.000000 0 0 1
-7.216362 13.771611 21.727745 26.717560 -1.088131 0.621101 0.002726 0.017968 -96756.100000 0 0 1
-6.253062 14.806511 21.862845 27.135171 -1.171199 0.633938 0.018864 0.010147 258960.000000 0 0 1
-6.805962 16.034511 22.728445 28.635797 -1.169386 0.653917 0.030999 -0.001570 230235.000000 0 0 1
-7.838562 16.793111 22.132445 28.866880 -1.134082 0.697100 -0.006947 0.010200 -379742.000000 0 0 1
-7.372362 17.723011 21.184545 28.587441 -1.176593 0.736173 0.002299 0.012189 -1311220.000000 0 0 1
-8.278862 17.937311 19.957045 28.081494 -1.138384 0.780328 -0.005166 0.018921 599078.000000 0 0 1
-9.542362 18.577511 20.044945 28.947891 -1.096287 0.805918 -0.004955 0.017002 228304.000000 0 0 1
-10.458162 17.909011 20.912145 29.452056 -1.042254 0.781241 -0.003230 0.014485 -719200.000000 0 0 1
-11.738962 18.747011 21.185545 30.628107 -1.011350 0.806952 0.006438 0.007309 147428.000000 0 0 1
-12.571562 18.745611 20.045345 30.187049 -0.980048 0.844590 0.007266 0.011826 -1085670.000000 0 0 1
-13.745462 19.419411 20.301645 31.276317 -0.954841 0.864388 0.018523 0.003963 -625900.000000 0 0 1
-14.533062 19.615311 18.965045 30.913480 -0.933142 0.910327 0.020200 0.003986 40322.800000 0 0 1
-15.233162 18.462311 18.550445 30.282423 -0.880940 0.911474 0.033310 0.007225 -108682.000000 0 0 1
-16.030762 18.740211 17.420945 30.193876 -0.863164 0.955783 0.049697 -0.007960 -652395.000000 0 0 1
-16.909062 17.530511 16.983245 29.692858 -0.803441 0.961898 0.040415 -0.013745 105298.000000 0 0 1
-18.021262 17.252311 17.787145 30.639690 -0.763602 0.951421 0.044161 -0.016223 -1065880.000000 0 0 1
-19.115362 18.039111 17.530445 31.593086 -0.756439 0.982575 0.048704 -0.021013 -1327820.000000 0 0 1
34.029218 -10.010889 12.036542 37.457761 -0.286114 1.243656 0.011241 -0.003412 -1317030.000000 0 0 1
32.693438 -10.305089 11.878742 36.278923 -0.305346 1.237216 0.007262 0.000251 -796904.000000 0 0 1
32.344268 -11.596289 12.387242 36.524914 -0.344251 1.224788 0.014669 -0.001319 -1078290.000000 0 0 1
30.886588 -11.927589 12.225542 35.294653 -0.368531 1.217081 0.028350 0.001208 -1766380.000000 0 0 1
30.033548 -10.952689 12.695842 34.397090 -0.349694 1.192760 0.029928 0.002032 -271543.000000 0 0 1
28.692618 -11.308089 12.944042 33.446785 -0.375420 1.173416 0.039018 0.001154 218951.000000 0 0 1
28.369508 -12.299589 14.129242 33.996240 -0.409090 1.142181 0.053219 -0.005124 -1154840.000000 0 0 1
28.518728 -11.627989 15.362542 34.417084 -0.387154 1.108099 0.064145 -0.009338 540544.000000 0 0 1
27.696438 -12.116689 16.445842 34.414714 -0.412395 1.072565 0.062636 -0.010078 449364.000000 0 0 1
26.172438 -11.903389 16.299342 33.050805 -0.426844 1.055078 0.051189 -0.016608 -272698.000000 0 0 1
25.762538 -10.541789 16.538142 32.378199 -0.388404 1.034704 0.033080 -0.018631 118106.000000 0 0 1
25.121238 -9.892989 15.443342 31.103772 -0.375159 1.051222 0.048876 -0.017325 176264.000000 0 0 1
24.722538 -8.431289 15.836942 30.546673 -0.328667 1.025758 0.073754 -0.019439 -110454.000000 0 0 1
25.820638 -7.564589 15.953542 31.280087 -0.284992 1.035586 0.057281 -0.014493 -243234.000000 0 0 1
25.442738 -6.250589 16.194842 30.800579 -0.240902 1.017145 0.074583 -0.018750 -1098430.000000 0 0 1
26.604388 -5.334289 16.361842 31.685295 -0.197880 1.028171 0.064350 -0.012446 -623812.000000 0 0 1
27.181198 -4.989889 15.060142 31.472597 -0.181557 1.071832 0.061997 -0.006056 1009160.000000 0 0 1
28.584288 -4.734689 15.187042 32.712765 -0.164149 1.088004 0.055929 -0.005155 636924.000000 0 0 1
29.248898 -3.866989 14.060942 32.682743 -0.131447 1.126054 0.046170 0.003093 -184220.000000 0 0 1
29.422978 -4.515989 12.847142 32.421518 -0.152297 1.163364 0.028307 0.004057 270090.000000 0 0 1
29.773048 -3.580989 11.833042 32.237846 -0.119701 1.194956 0.031082 0.001750 -324962.000000 0 0 1
29.970428 -4.138089 10.437142 32.004441 -0.137205 1.238605 0.048440 -0.001733 -271818.000000 0 0 1
31.067148 -5.021889 10.439542 33.156765 -0.160260 1.250493 0.038371 -0.004365 63025.900000 0 0 1
31.211278 -5.700389 9.172642 33.026893 -0.180648 1.289363 0.042987 -0.016629 348279.000000 0 0 1
32.599938 -6.368389 8.981542 34.409016 -0.192920 1.306715 0.029437 -0.016329 573499.000000 0 0 1
33.774178 -5.582389 8.925542 35.376877 -0.163805 1.315741 0.035114 -0.015216 481496.000000 0 0 1
34.909608 -6.374489 8.599142 36.513834 -0.180610 1.333060 0.048253 -0.029044 284610.000000 0 0 1
-35.232904 -5.585189 8.226042 36.609010 0.157214 1.344161 0.053040 -0.031109 -82627.400000 0 0 1
-35.328365 -5.041689 6.937842 36.354445 0.141752 1.378780 0.061142 -0.030313 377294.000000 0 0 1
-34.283165 -4.080389 6.780342 35.184628 0.118463 1.376876 0.062313 -0.021325 203082.000000 0 0 1
-34.307720 -3.277889 5.447542 34.891832 0.095255 1.414028 0.063825 -0.029754 -254582.000000 0 0 1
-33.792492 -3.920489 4.319342 34.292265 0.115500 1.444504 0.065237 -0.028576 47570.600000 0 0 1
-33.706262 -3.167289 3.115742 33.997819 0.093692 1.479022 0.070648 -0.020681 343851.000000 0 0 1
-32.908802 -4.043489 2.042042 33.219106 0.122257 1.509286 0.072775 -0.019898 890329.000000 0 0 1
-33.639932 -5.250189 1.643242 34.086797 0.154821 1.522570 0.068947 -0.012121 479477.000000 0 0 1
-34.734932 -5.106889 0.764042 35.116657 0.145979 1.549037 0.057260 -0.005793 -621416.000000 0 0 1
-34.403888 -5.184789 -0.722358 34.799876 0.149578 1.591555 0.072249 -0.004476 -1269060.000000 0 0 1
-33.968172 -6.434089 -1.237758 34.594310 0.187197 1.606583 0.062815 -0.008942 103454.000000 0 0 1
-33.127762 -6.371189 -2.371358 33.818102 0.190002 1.640975 0.056700 -0.006508 -39292.900000 0 0 1
-31.683352 -5.964389 -1.974758 32.300285 0.186072 1.631972 0.062621 -0.017193 -803055.000000 0 0 1
-31.184192 -7.005789 -1.196558 31.983850 0.220989 1.608216 0.062490 -0.016972 -789252.000000 0 0 1
-30.079092 -6.616989 -0.451058 30.801620 0.216537 1.585441 0.063987 -0.021026 -345040.000000 0 0 1
-29.615662 -7.703889 0.578242 30.606727 0.254489 1.551903 0.045321 -0.015248 205970.000000 0 0 1
-29.101212 -8.878589 -0.120858 30.425721 0.296123 1.574769 0.045760 -0.007713 519426.000000 0 0 1
-28.525942 -9.844789 0.698942 30.185059 0.332318 1.547639 0.035508 -0.007617 -252364.000000 0 0 1
-28.134282 -11.111189 -0.030458 30.248922 0.376132 1.571803 0.028482 -0.010342 497893.000000 0 0 1
-26.984042 -10.988589 -0.905758 29.149752 0.386720 1.601874 0.031787 -0.014236 1235380.000000 0 0 1
-26.457622 -12.202789 -1.461558 29.172761 0.432145 1.620917 0.034053 -0.007556 -245904.000000 0 0 1
-27.387572 -13.014389 -2.378658 30.415645 0.443606 1.649081 0.035043 -0.014653 -886871.000000 0 0 1
-28.267322 -13.873089 -1.751358 31.536825 0.456246 1.626359 0.038912 -0.017521 -98618.400000 0 0 1
-28.820412 -14.825589 -2.635758 32.517095 0.475111 1.651943 0.041673 -0.021207 76884.600000 0 0 1
-29.791842 -15.830689 -1.941458 33.792512 0.488433 1.628280 0.043479 -0.019184 515204.000000 0 0 1
-29.031102 -16.523189 -0.962358 33.417762 0.517430 1.599598 0.014853 -0.010173 516225.000000 0 0 1
-29.883712 -17.316289 -0.155458 34.538591 0.525176 1.575297 0.022450 -0.007719 -13321.600000 0 0 1
-29.939112 -18.809089 -0.429758 35.359821 0.560929 1.582950 0.029458 -0.008790 965334.000000 0 0 1
-28.730072 -19.506389 0.023442 34.726313 0.596461 1.570121 0.036108 -0.019175 1463780.000000 0 0 1
-28.850022 -20.936889 -0.034658 35.646575 0.627777 1.571769 0.046769 -0.024665 398200.000000 0 0 1
-29.864072 -21.646389 0.952342 36.896286 0.627197 1.544982 0.042843 -0.024609 -284082.000000 0 0 1
-29.348882 -21.885489 2.255242 36.679935 0.640744 1.509273 0.039171 -0.023855 -138802.000000 0 0 1
-30.261402 -22.505189 3.126442 37.841916 0.639452 1.488084 0.040220 -0.018801 -129982.000000 0 0 1
-29.678162 -22.694189 4.574842 37.639722 0.652828 1.448952 0.026019 -0.014081 -233466.000000 0 0 1
-29.180722 -21.465389 5.007342 36.569809 0.634222 1.433439 0.015329 -0.013584 -218675.000000 0 0 1
-28.458472 -21.659489 6.183042 36.293913 0.650562 1.399601 0.009925 -0.011223 -266132.000000 0 0 1
-28.120782 -20.248389 6.764042 35.306202 0.624056 1.378022 0.014110 -0.005808 -32379.500000 0 0 1
-27.228792 -20.321389 7.843042 34.869461 0.641142 1.343929 0.009244 -0.008876 -214610.000000 0 0 1
-26.811122 -19.038389 8.238942 33.899509 0.617468 1.325298 0.015529 -0.010376 534753.000000 0 0 1
-25.653642 -19.046689 9.312842 33.280846 0.638655 1.287184 0.020854 -0.002949 487992.000000 0 0 1
-26.040482 -19.582289 10.593542 34.260705 0.644776 1.256441 0.021442 -0.008810 301005.000000 0 0 1
-24.990662 -19.660789 11.557042 33.832603 0.666594 1.222183 0.031304 0.005140 138043.000000 0 0 1
-24.798962 -18.414289 12.483942 33.315512 0.638711 1.186703 0.029472 0.000317 -396028.000000 0 0 1
-24.128662 -17.286489 11.915142 31.984147 0.621668 1.189060 0.026913 -0.002693 311431.000000 0 0 1
-23.795362 -16.145289 12.745242 31.453629 0.596154 1.153591 0.026633 0.009046 403748.000000 0 0 1
-22.843662 -16.484889 13.942842 31.432265 0.625102 1.111203 0.040420 0.010924 -74466.100000 0 0 1
-23.503462 -17.140989 14.995842 32.727687 0.630119 1.094827 0.031696 -0.003273 437889.000000 0 0 1
-22.543562 -17.574589 15.978942 32.747595 0.662167 1.061065 0.046199 -0.003491 612706.000000 0 0 1
-23.299562 -18.346889 17.090542 34.228125 0.667032 1.047991 0.038201 0.011888 704862.000000 0 0 1
-24.121562 -17.556689 17.954142 34.820085 0.629169 1.029058 0.034990 0.006986 490120.000000 0 0 1
-25.194922 -18.279589 18.543942 36.232654 0.627653 1.033515 0.034215 0.009935 536969.000000 0 0 1
-26.114792 -17.357089 19.432142 36.889823 0.586602 1.016010 0.035934 0.011843 178256.000000 0 0 1
-25.500992 -16.925789 20.618642 36.904083 0.585967 0.977968 0.035649 0.007752 108188.000000 0 0 1
-26.311192 -15.965789 21.319542 37.439392 0.545409 0.964970 0.033094 0.003684 116613.000000 0 0 1
-25.575032 -15.207089 22.456642 37.277856 0.536445 0.924276 0.036412 0.001283 -602846.000000 0 0 1
-24.577362 -14.405689 21.938042 35.956199 0.530163 0.914569 0.042659 -0.001688 -508985.000000 0 0 1
-23.793462 -13.816989 22.943742 35.825317 0.526111 0.875733 0.034167 -0.004167 -550602.000000 0 0 1
-22.617462 -13.017289 22.441142 34.418080 0.522241 0.860556 0.029354 0.000147 -451079.000000 0 0 1
-23.022562 -11.760589 21.929942 33.900917 0.472273 0.867306 0.033397 0.000476 800334.000000 0 0 1
-21.868562 -11.074989 21.430742 32.560192 0.468782 0.852386 0.027694 0.003039 31301.600000 0 0 1
-21.697562 -9.670089 22.045042 32.408003 0.419253 0.822714 0.032769 -0.001558 11974.900000 0 0 1
-21.067362 -9.643589 23.314242 32.869232 0.429280 0.782288 0.040455 -0.006745 -335964.000000 0 0 1
-19.689162 -9.847889 23.333742 32.079706 0.463782 0.756318 0.028638 0.000141 -809496.000000 0 0 1
-19.114262 -10.128789 24.737542 32.861731 0.487286 0.718526 0.019554 -0.005999 235738.000000 0 0 1
-19.489562 -11.350789 25.301542 33.894711 0.527380 0.728048 0.014507 -0.002195 150995.000000 0 0 1
-18.696462 -11.379989 26.475742 34.351517 0.546771 0.690810 0.015568 -0.001735 -390749.000000 0 0 1
-18.733362 -12.709089 27.305842 35.469265 0.596096 0.692198 0.016152 -0.016425 594030.000000 0 0 1
-19.927662 -12.996289 28.044042 36.776127 0.577902 0.703534 0.027832 -0.016986 -160013.000000 0 0 1
-21.062162 -13.308389 27.265742 36.934382 0.563519 0.740367 0.020765 -0.010518 -611349.000000 0 0 1
-22.216162 -13.493789 28.260442 38.396520 0.545833 0.743630 0.028343 -0.013063 -487223.000000 0 0 1
-22.381462 -14.599389 29.097842 39.506410 0.577989 0.742864 0.020227 -0.004733 -158266.000000 0 0 1
-21.420862 -14.627289 30.149042 39.771543 0.599125 0.710470 0.010291 -0.000726 118163.000000 0 0 1
-21.797962 -15.627389 31.218142 41.157488 0.621991 0.709781 0.004013 -0.004485 -937705.000000 0 0 1
-21.678162 -16.936889 30.735342 41.248784 0.663227 0.730080 0.011705 -0.004289 -161027.000000 0 0 1
-21.910362 -17.855889 31.764942 42.519504 0.683792 0.727157 0.013997 -0.001885 491163.000000 0 0 1
-23.342862 -18.028089 32.386442 43.803913 0.657632 0.738691 0.011815 -0.000516 477645.000000 0 0 1
-23.867262 -16.884689 33.073042 44.142553 0.615703 0.723894 0.019690 -0.012216 -299348.000000 0 0 1
-25.125352 -17.171589 33.622542 45.349996 0.599523 0.735640 0.025570 -0.014494 -421736.000000 0 0 1
-25.754972 -16.065189 -34.305462 45.806916 0.557715 2.417219 0.030606 -0.014491 -71975.100000 0 0 1
-25.179982 -15.915989 -33.009162 44.462962 0.563681 2.407437 0.034471 -0.021301 168534.000000 0 0 1
-25.854942 -14.831789 -32.381162 44.011358 0.520822 2.397563 0.039535 -0.019206 -225765.000000 0 0 1
-25.312542 -14.340489 -30.993062 42.508167 0.515451 2.387815 0.029038 -0.009214 -382811.000000 0 0 1
-25.810642 -15.101989 -29.897962 42.286492 0.529397 2.356091 0.033919 -0.003198 295787.000000 0 0 1
-25.219332 -14.875989 -28.611162 40.937859 0.532934 2.344644 0.045709 -0.003748 -395203.000000 0 0 1
-25.787652 -15.818589 -27.541862 40.911916 0.550227 2.309323 0.041687 -0.005146 -220587.000000 0 0 1
-27.050512 -15.436789 -27.057562 41.256955 0.518571 2.286078 0.056683 -0.008982 -7283.450000 0 0 1
-27.108912 -14.289689 -26.181162 40.305602 0.485109 2.277810 0.039380 -0.005972 -657589.000000 0 0 1
-26.270442 -14.397789 -24.866362 38.932870 0.501353 2.263602 0.042296 -0.017914 482837.000000 0 0 1
-24.903862 -14.029889 -25.119462 38.052956 0.513044 2.291773 0.040124 -0.024496 1086430.000000 0 0 1
-23.980362 -14.202189 -24.051862 36.813747 0.534696 2.282783 0.040344 -0.022899 159054.000000 0 0 1
-23.368462 -15.623389 -24.009162 36.967758 0.589317 2.277673 0.039086 -0.018485 -888362.000000 0 0 1
-22.582762 -15.841489 -25.148862 37.328262 0.611723 2.310030 0.039334 -0.012292 -27189.700000 0 0 1
-22.142362 -17.181289 -25.244362 37.719474 0.659901 2.304017 0.039392 -0.009639 -253870.000000 0 0 1
-21.266562 -17.366689 -26.498962 38.158400 0.684793 2.338446 0.031414 -0.002439 -151588.000000 0 0 1
-21.827262 -17.334789 -27.806562 39.371680 0.671182 2.354995 0.032174 -0.003211 195164.000000 0 0 1
-22.737462 -18.386889 -28.120962 40.569180 0.680000 2.336661 0.036487 -0.005102 -108067.000000 0 0 1
-23.320862 -18.273489 -29.513462 41.818984 0.664641 2.354268 0.030114 -0.010711 -472918.000000 0 0 1
-22.506162 -18.703389 -30.547862 42.302671 0.693380 2.377667 0.028831 -0.001624 -229970.000000 0 0 1
-22.971762 -18.124789 -31.702162 43.142055 0.667999 2.396215 0.021725 -0.008253 -801623.000000 0 0 1
-22.102862 -18.431589 -32.900662 43.711709 0.695073 2.422910 0.019056 -0.008589 -1185460.000000 0 0 1
-20.811062 -17.916489 -32.790262 42.770342 0.710795 2.444417 0.018167 -0.005007 -790449.000000 0 0 1
-19.818362 -18.859689 -32.573962 42.538434 0.760617 2.443009 0.014088 -0.001943 -619960.000000 0 0 1
-19.566762 -20.093389 -33.576062 43.748764 0.798676 2.445689 0.024122 -0.004574 -899122.000000 0 0 1
-19.174962 -19.680589 33.891542 43.630739 0.798410 0.681258 0.025759 -0.010027 211953.000000 0 0 1
-18.760362 -20.765289 33.074642 43.325285 0.836079 0.702231 0.027167 -0.006839 -391537.000000 0 0 1
-19.893362 -21.397289 32.220042 43.493918 0.821805 0.736544 0.018882 -0.005300 -126364.000000 0 0 1
-20.926662 -21.862789 33.084342 44.838381 0.807272 0.740906 0.015899 -0.001604 428138.000000 0 0 1
-22.109762 -22.330689 32.405842 45.140224 0.790369 0.770026 0.024509 0.007376 764682.000000 0 0 1
-21.975062 -23.518589 31.439142 44.993855 0.819314 0.797157 0.026147 0.016187 -753492.000000 0 0 1
-21.580362 -24.684389 32.090242 45.878260 0.852390 0.796148 0.034129 0.016905 76918.500000 0 0 1
-22.013962 -25.843339 31.375542 46.226803 0.865245 0.824764 0.042349 0.020910 -14795.200000 0 0 1
-21.380162 -27.172029 31.902342 47.044552 0.904129 0.825581 0.066594 0.008132 -37869.400000 0 0 1
-21.904262 -27.677389 33.156642 48.427239 0.901313 0.816647 0.049183 0.006859 -65517.500000 0 0 1
-21.299662 -28.821409 33.678942 49.179471 0.934358 0.816444 0.050830 -0.006370 -586722.000000 0 0 1
-22.301962 -29.582359 -34.155662 50.389510 0.924808 2.315607 0.044307 -0.004210 832940.000000 0 0 1
-23.463162 -30.246049 34.066642 51.243337 0.911022 0.843568 0.041742 -0.002506 726216.000000 0 0 1
-24.456162 -29.361269 33.584042 50.873135 0.876290 0.849774 0.037561 -0.000889 -595109.000000 0 0 1
-25.746142 -29.366899 -34.309762 51.984982 0.851001 2.291607 0.025889 0.002260 -605493.000000 0 0 1
-26.711402 -28.492739 33.979142 51.767917 0.817655 0.854793 0.022319 0.009841 -379338.000000 0 0 1
-27.624192 -28.270389 -33.710562 51.949137 0.796959 2.276954 0.022340 0.010420 -700321.000000 0 0 1
-28.795502 -27.392679 -34.052062 52.336247 0.760437 2.279223 0.011758 0.008142 -843391.000000 0 0 1
-29.597342 -27.845719 33.663142 52.769251 0.754914 0.878988 -0.004248 0.009593 -440961.000000 0 0 1
-30.752372 -27.074569 33.491842 52.919223 0.721884 0.885521 -0.000972 -0.001199 -144234.000000 0 0 1
