# x y z rho theta phi s1 s2 stress_xx np intf bulk
-0.678744 -10.808237 -14.298611 17.936805 1.508080 2.493383 0.013244 -0.000848 -1423550.000000 1 0 0
2.247856 -13.427937 -12.892311 18.750308 -1.404933 2.328945 0.005177 0.003604 993445.000000 1 0 0
2.223256 -11.177937 -14.573811 18.500949 -1.374462 2.477917 -0.000356 0.002312 608929.000000 1 0 0
-5.483244 -6.374237 -16.517511 18.534428 0.860399 2.670736 0.030056 -0.003397 1015030.000000 1 0 0
4.717956 -14.027137 -11.427511 18.697799 -1.246338 2.228333 0.004326 0.000420 1191910.000000 1 0 0
14.135556 -10.639537 -7.827311 19.346331 -0.645214 1.987326 0.041669 -0.012147 296942.000000 1 0 0
7.058056 10.873663 -10.785711 16.863697 0.995057 2.264750 0.023784 -0.012825 -714173.000000 1 0 0
5.732856 -4.121437 -12.604311 14.447164 -0.623308 2.630973 0.001877 -0.000248 1555380.000000 1 0 0
13.682956 0.510763 -10.024711 16.969944 0.037311 2.202764 0.013999 0.000181 2004310.000000 1 0 0
14.183556 5.154463 -10.284211 18.262167 0.348572 2.168981 0.006162 -0.001201 814602.000000 1 0 0
4.025956 4.241963 -13.402411 14.622831 0.811518 2.730138 0.011558 -0.000069 2231610.000000 1 0 0
10.317356 -4.978037 -13.627111 17.802440 -0.449543 2.442557 0.024267 -0.008933 -729226.000000 1 0 0
2.654156 -7.460737 -11.964011 14.347289 -1.229008 2.556909 0.000413 0.001195 775826.000000 1 0 0
-5.609244 -2.006037 -15.197011 16.322896 0.343456 2.768005 0.019532 -0.004356 1157110.000000 1 0 0
10.670556 0.040163 -9.670811 14.400937 0.003764 2.307082 0.015463 0.000867 1206420.000000 1 0 0
-1.540044 -9.543237 -16.904311 19.473080 1.410800 2.622130 0.018719 -0.005674 984063.000000 1 0 0
8.754256 1.759363 -17.947911 20.046443 0.198330 2.679938 0.033056 -0.012724 483655.000000 1 0 0
16.478556 -5.855337 -8.720311 19.541536 -0.341416 2.033361 0.051095 -0.015779 -2006000.000000 1 0 0
10.135256 7.581663 -9.904011 16.071542 0.642251 2.234762 0.015447 -0.001393 1419400.000000 1 0 0
13.920156 -2.294237 -10.649911 17.676394 -0.163346 2.217418 0.035825 -0.003106 -2833.160000 1 0 0
7.275156 -1.833437 -13.788811 15.697793 -0.246873 2.643283 0.015748 -0.007134 538915.000000 1 0 0
-2.842544 6.671363 -13.767511 15.560575 -1.168010 2.656794 0.007215 -0.000592 1692420.000000 1 0 0
11.406156 1.934663 -13.984111 18.149344 0.168017 2.450425 0.021091 -0.003006 2106740.000000 1 0 0
-2.431044 10.783863 -12.952411 17.028406 -1.349069 2.435088 0.011108 -0.001146 -385830.000000 1 0 0
2.850756 -0.960437 -15.208911 15.503555 -0.324963 2.946321 0.016039 -0.009424 -256453.000000 1 0 0
-9.072344 0.392563 -15.410411 17.886931 -0.043243 2.609103 0.025310 0.006510 -1862100.000000 1 0 0
2.438256 -1.626137 -18.081811 18.317787 -0.588182 2.980906 0.029623 -0.016779 874655.000000 1 0 0
1.021856 7.856763 -13.210311 15.404065 1.441462 2.601354 0.006224 0.000160 45946.100000 1 0 0
9.425356 -9.064337 -9.792511 16.336855 -0.765875 2.213563 0.017407 -0.000983 1155700.000000 1 0 0
3.853656 7.247863 -13.408311 15.721482 1.082115 2.592246 0.008176 -0.006177 159112.000000 1 0 0
-2.729844 9.113663 -15.511211 18.196389 -1.279768 2.591419 0.006334 0.002421 1110850.000000 1 0 0
5.588256 -7.655337 -15.179311 17.895371 -0.940230 2.583422 0.006111 -0.001122 506101.000000 1 0 0
4.191456 7.169163 -16.255111 18.253598 1.041739 2.669273 0.011100 -0.006582 -992435.000000 1 0 0
-0.247444 5.093963 -13.448311 14.382863 -1.522259 2.779121 0.008691 -0.002559 1789130.000000 1 0 0
8.849156 4.307863 -16.519111 19.228788 0.453040 2.604270 0.026639 -0.011100 -1034660.000000 1 0 0
5.336456 0.317163 -14.341011 15.304998 0.059363 2.784780 0.009544 -0.004445 -341561.000000 1 0 0
6.187956 8.021163 -11.563511 15.373505 0.913706 2.422147 0.009689 -0.002826 170406.000000 1 0 0
2.779556 -8.398837 -15.008611 17.421963 -1.251196 2.608966 0.000175 -0.000297 2152530.000000 1 0 0
4.052156 11.446563 -13.798311 18.380347 1.230557 2.419933 0.013708 -0.014275 -1941950.000000 1 0 0
0.610956 -4.488937 -13.752311 14.479292 -1.435525 2.823366 0.007034 -0.003439 669130.000000 1 0 0
8.534556 -0.074937 -11.682811 14.468322 -0.008780 2.510656 0.008381 -0.000418 -106494.000000 1 0 0
-0.942644 -5.093537 -16.259311 17.064522 1.387800 2.833171 0.011281 -0.006640 338333.000000 1 0 0
4.581256 0.853663 -11.600511 12.501540 0.184225 2.759608 0.004645 -0.003305 1985150.000000 1 0 0
-2.800944 -7.245937 -15.489211 17.328143 1.201935 2.676714 0.015180 -0.004130 2473460.000000 1 0 0
11.438156 -3.829337 -11.272011 16.509194 -0.323058 2.322346 0.029681 -0.006520 1033160.000000 1 0 0
6.526756 -6.959837 -12.430211 15.669972 -0.817499 2.486925 0.005201 0.000259 -654876.000000 1 0 0
3.456656 -3.928637 -14.662011 15.567827 -0.849220 2.798786 0.011338 -0.004703 4319070.000000 1 0 0
-0.576344 -1.458837 -18.259011 18.326262 1.194547 3.055897 0.026211 -0.016693 1455060.000000 1 0 0
14.874356 2.962863 -8.457411 17.365277 0.196619 2.079482 -0.001072 0.000292 -1769730.000000 1 0 0
6.909856 4.309363 -14.308511 16.463603 0.557631 2.624175 0.010135 -0.002038 3471440.000000 1 0 0
10.182356 -9.543837 -14.029511 19.788694 -0.753040 2.358827 0.032971 -0.009587 -499459.000000 1 0 0
9.121356 -3.144537 -15.535711 18.287853 -0.331985 2.585852 0.029058 -0.015772 -830784.000000 1 0 0
-5.272044 -2.207337 -18.162011 19.040101 0.396512 2.836710 0.014485 0.005616 -1548120.000000 1 0 0
5.097256 -8.979837 -11.011211 15.095240 -1.054516 2.388313 -0.008147 0.004678 2172130.000000 1 0 0
-2.450544 3.874063 -17.250611 17.849289 -1.006785 2.881862 0.010660 0.005347 1942290.000000 1 0 0
9.533756 9.308463 -14.474911 19.673918 0.773442 2.397557 0.036405 -0.014840 1011740.000000 1 0 0
9.855656 10.012363 -11.537511 18.179536 0.793285 2.258343 0.022981 -0.012492 1413090.000000 1 0 0
12.098656 -5.944437 -9.596611 16.547168 -0.456688 2.189470 0.036189 -0.005033 -267779.000000 1 0 0
8.069056 6.962263 -13.621311 17.295170 0.711898 2.477666 0.014710 -0.004053 817781.000000 1 0 0
3.985156 -4.057037 -17.603411 18.499219 -0.794336 2.829119 0.028542 -0.015824 -365158.000000 1 0 0
9.377256 -7.453237 -12.262311 17.141994 -0.671575 2.367903 0.021353 -0.004368 -598339.000000 1 0 0
12.080756 -8.668337 -8.747611 17.251245 -0.622396 2.102580 0.033778 -0.008777 325538.000000 1 0 0
-2.998644 -2.583537 -13.916111 14.468057 0.711172 2.864485 0.014596 -0.006075 -2297820.000000 1 0 0
-0.337744 6.015463 -17.614011 18.615941 -1.514709 2.812014 0.003590 0.002463 3501470.000000 1 0 0
1.109856 -8.481537 -17.425611 19.411857 -1.440680 2.685269 0.013574 -0.004273 1287850.000000 1 0 0
0.021456 8.452963 -15.990411 18.087186 1.568258 2.655305 -0.000846 0.004533 116316.000000 1 0 0
1.773956 3.327463 -14.893511 15.363450 1.081001 2.893619 0.011833 -0.002194 2623910.000000 1 0 0
-1.973744 -0.460237 -15.764511 15.894254 0.229086 3.013734 0.012811 -0.008393 1450150.000000 1 0 0
14.163256 -4.297737 -8.440011 17.038256 -0.294612 2.089042 0.039210 -0.008982 571595.000000 1 0 0
0.549756 0.626363 -14.449411 14.473425 0.850441 3.083979 0.010811 -0.006547 1461650.000000 1 0 0
8.866056 2.763463 -12.578811 15.635542 0.302147 2.505631 0.010602 -0.000184 2206960.000000 1 0 0
5.981956 0.965163 -17.163211 18.201405 0.159967 2.802211 0.029972 -0.008853 384195.000000 1 0 0
15.355156 1.600763 -12.287811 19.731538 0.103874 2.243049 0.023583 -0.010755 -643762.000000 1 0 0
8.899656 -11.208837 -11.935811 18.636134 -0.899733 2.265901 0.023752 0.000896 1000450.000000 1 0 0
-4.629344 0.753763 -15.019111 15.734442 -0.161406 2.838900 0.015979 -0.002778 142743.000000 1 0 0
2.489356 4.957463 -17.183311 18.056564 1.105436 2.829320 0.008521 -0.005770 1772500.000000 1 0 0
5.931856 -11.566537 -12.310211 17.902877 -1.096925 2.328990 -0.002041 0.001579 1801290.000000 1 0 0
12.802156 7.271663 -8.569011 17.035265 0.516560 2.097881 0.006999 0.000253 -294178.000000 1 0 0
-4.953444 3.630963 -15.641611 16.804181 -0.632544 2.767437 0.009170 0.001911 1480560.000000 1 0 0
-0.608044 -4.239837 -18.982711 19.459940 1.428356 2.919671 0.031167 -0.018957 -1856900.000000 1 0 0
9.809756 4.424163 -10.278711 14.881413 0.423682 2.333264 0.005245 0.002393 1758960.000000 1 0 0
13.444156 3.701463 -12.685411 18.851149 0.268665 2.308952 0.012385 -0.008915 77010.300000 1 0 0
-6.025744 5.884663 -17.265911 19.210688 -0.773554 2.687743 0.012275 0.009895 -1202040.000000 1 0 0
-10.189144 3.134763 -15.548111 18.851768 -0.298467 2.540567 0.030095 0.002969 951571.000000 1 0 0
10.668256 13.670363 -8.317911 19.232217 0.908126 2.018059 0.058448 -0.013853 1487430.000000 1 0 0
7.419156 13.330663 -12.426111 19.676348 1.062940 2.254315 0.035786 -0.019970 768794.000000 1 0 0
5.232456 15.079563 -11.366211 19.594963 1.236806 2.189596 0.024116 -0.019178 -586943.000000 1 0 0
14.100756 9.538163 -9.767111 19.626623 0.594731 2.091679 0.039130 -0.010567 -1131910.000000 1 0 0
8.403756 -17.246537 -1.986211 19.287592 -1.117383 1.673958 0.031029 -0.002743 113323.000000 1 0 0
0.699756 -15.953837 -0.018011 15.969186 -1.526963 1.571924 0.016978 -0.010803 2958800.000000 1 0 0
-9.179144 -11.636937 7.581889 16.648124 0.902926 1.097952 0.017885 -0.005526 2018240.000000 1 0 0
2.090556 -15.865037 -2.647911 16.219780 -1.439780 1.734782 0.014297 -0.008320 2566230.000000 1 0 0
-1.232444 -11.082437 -9.490011 14.642392 1.460044 2.275908 0.010971 -0.000840 546942.000000 1 0 0
-4.698244 -12.607837 -13.040311 18.737149 1.214092 2.340553 0.042399 -0.001068 1201820.000000 1 0 0
-8.289344 -17.830537 -1.911411 19.755879 1.135624 1.667699 0.034836 -0.023487 -822424.000000 1 0 0
-11.318844 -7.131337 -8.892211 16.063736 0.562216 2.157427 0.018849 -0.004962 2705750.000000 1 0 0
-13.584444 -11.573837 -4.698011 18.454325 0.705649 1.828205 0.031821 -0.011046 -506435.000000 1 0 0
-5.691744 -13.425837 9.760889 17.547763 1.169824 0.980934 0.018344 -0.009115 362935.000000 1 0 0
0.143856 -13.980237 -3.700111 14.462315 -1.560507 1.829518 0.010602 -0.008235 457669.000000 1 0 0
-14.842444 -11.646637 1.883689 18.960237 0.665332 1.471283 0.022627 -0.003512 377085.000000 1 0 0
-3.844844 -16.639537 -7.519411 18.660080 1.343715 1.985554 0.017710 -0.005832 -1048930.000000 1 0 0
0.710756 -15.345337 -9.196411 17.904148 -1.524512 2.110226 0.011010 0.005185 1046410.000000 1 0 0
4.597656 -14.244437 -2.569911 15.187063 -1.258584 1.740832 0.009662 -0.000321 -163763.000000 1 0 0
-3.519544 -18.023737 -2.393611 18.519494 1.377950 1.700407 0.013398 -0.022842 164422.000000 1 0 0
-0.892744 -13.381837 0.583089 13.424252 1.504182 1.527347 0.014199 -0.010942 992841.000000 1 0 0
-8.492344 -11.419137 -10.589911 17.738738 0.931343 2.210545 0.025671 -0.000587 1813890.000000 1 0 0
-3.702144 -14.084637 -0.519311 14.572322 1.313761 1.606441 0.010059 -0.010064 4870570.000000 1 0 0
-1.436444 -15.034637 -7.346711 16.795174 1.475543 2.023535 0.004690 -0.000544 1093320.000000 1 0 0
-14.112144 -7.889337 -1.895911 16.278474 0.509762 1.687529 0.016035 -0.010374 1206870.000000 1 0 0
-10.714044 -7.440737 -11.761111 17.563571 0.607015 2.304508 0.026682 -0.002671 -335966.000000 1 0 0
-9.462344 -14.603637 6.791589 18.679610 0.995868 1.198685 0.010050 -0.004574 -864828.000000 1 0 0
-2.359644 -14.342737 -12.295311 19.038296 1.407739 2.272893 0.037490 -0.004342 -1128870.000000 1 0 0
2.470956 -17.693037 -4.770111 18.490623 -1.432037 1.831722 0.018315 -0.007066 459068.000000 1 0 0
-6.637344 -9.690237 -9.283711 14.971383 0.970242 2.239663 0.020640 -0.005237 717890.000000 1 0 0
-11.003244 -15.399137 0.355689 18.929641 0.950381 1.552005 0.028356 -0.018005 1158940.000000 1 0 0
-12.706544 -11.152737 4.014189 17.376810 0.720366 1.337682 0.030741 -0.005101 2722980.000000 1 0 0
-16.939444 -8.774237 -1.724611 19.154798 0.477925 1.660954 0.021391 -0.016230 -981878.000000 1 0 0
-1.344844 -19.163137 -3.876811 19.597553 1.500733 1.769931 0.004974 -0.013896 455439.000000 1 0 0
3.436056 -14.241637 -8.714211 17.046061 -1.334052 2.107395 0.003122 0.002709 1587760.000000 1 0 0
-4.250944 -8.029537 -12.967411 15.833437 1.083896 2.530443 0.018860 0.001284 1586740.000000 1 0 0
5.545056 -16.568837 1.308189 17.520998 -1.247845 1.496063 0.024450 -0.005980 3320660.000000 1 0 0
-2.767744 -13.734637 -3.288511 14.391490 1.371944 1.801337 0.011645 -0.008872 -1071150.000000 1 0 0
-0.409344 -13.960337 3.612589 14.425997 1.541483 1.317680 0.013433 -0.005317 -2413770.000000 1 0 0
1.245156 -16.212537 6.946789 17.682043 -1.494145 1.167043 0.017697 -0.010586 2722030.000000 1 0 0
-5.448544 -10.359237 -14.562811 18.683573 1.086597 2.464575 0.039136 -0.001658 1238550.000000 1 0 0
-0.255444 -17.295837 -5.837811 18.256267 1.556028 1.896283 0.008217 -0.006453 1796470.000000 1 0 0
-6.500044 -13.411137 -1.317611 14.961459 1.119484 1.658978 0.009373 -0.008583 3398120.000000 1 0 0
-1.726244 -17.679037 -0.156011 17.763801 1.473461 1.579579 0.011844 -0.016945 768367.000000 1 0 0
-9.481444 -9.816137 -4.864011 14.488372 0.802740 1.913164 0.019197 -0.005827 2602020.000000 1 0 0
-0.803644 -16.643237 4.792189 17.338058 1.522547 1.290753 0.026906 -0.012760 2855660.000000 1 0 0
-6.765644 -9.975337 -6.337111 13.617645 0.974826 2.054838 0.018301 -0.007963 2413080.000000 1 0 0
-5.851244 -14.666537 -8.547811 17.955764 1.191194 2.066952 0.019619 -0.005831 -608188.000000 1 0 0
-5.769844 -12.276837 -10.322411 17.045938 1.131453 2.221271 0.032253 -0.002975 589613.000000 1 0 0
-10.627144 -12.135637 -8.764811 18.358426 0.851572 2.068521 0.035188 -0.018173 -597655.000000 1 0 0
4.064756 -17.131337 6.582489 18.797184 -1.337834 1.213028 0.030957 -0.013028 442644.000000 1 0 0
-6.593044 -14.363937 -4.152911 16.341285 1.140483 1.827751 0.017667 -0.017315 -1947780.000000 1 0 0
-2.759344 -12.294037 -7.157411 14.490889 1.350010 2.087394 0.016159 -0.003404 2584640.000000 1 0 0
-7.099744 -12.769837 4.388889 15.255735 1.063375 1.278985 -0.000170 -0.003503 1292550.000000 1 0 0
2.619756 -16.364137 2.327089 16.735097 -1.412052 1.431290 0.021963 -0.012023 2510370.000000 1 0 0
-6.250944 -11.974537 7.223289 15.317955 1.089689 1.079741 -0.000044 -0.002189 507822.000000 1 0 0
-11.343844 -12.817137 -0.958511 17.142944 0.846301 1.626738 0.029387 -0.009997 1425880.000000 1 0 0
-14.314644 -8.777137 4.533089 17.392414 0.550038 1.307115 0.021472 -0.010181 691244.000000 1 0 0
-8.025544 -15.523337 4.374689 18.014473 1.093643 1.325501 0.005359 -0.003419 1435470.000000 1 0 0
-16.488344 -9.275837 1.055989 18.947869 0.512442 1.515036 0.018273 -0.009152 -505139.000000 1 0 0
-6.612244 -16.992937 2.246489 18.371946 1.199707 1.448211 0.002802 -0.009974 702286.000000 1 0 0
-11.558044 -14.909337 -4.628711 19.424255 0.911348 1.811407 0.054079 -0.020822 -139639.000000 1 0 0
-10.131144 -10.140837 -12.652611 19.119760 0.785876 2.293955 0.024485 0.004351 72553.000000 1 0 0
-4.289144 -15.998337 -4.529211 17.171409 1.308857 1.837719 0.012494 -0.013648 -573238.000000 1 0 0
-11.779844 -8.213037 -0.049611 14.360402 0.608852 1.574251 0.001150 -0.001325 100381.000000 1 0 0
-9.670344 -11.115737 3.440389 15.129819 0.854823 1.341398 0.007988 -0.000314 2994710.000000 1 0 0
-14.288844 -12.932237 -0.686911 19.284337 0.735603 1.606424 0.033009 -0.008005 359462.000000 1 0 0
5.775556 -14.875337 -7.046011 17.443594 -1.200448 1.986606 0.008397 -0.004612 1078240.000000 1 0 0
-7.503744 -10.619437 -1.302211 13.068067 0.955651 1.670610 0.008880 -0.003818 1602240.000000 1 0 0
-11.599144 -8.242837 -6.105411 15.484203 0.617833 1.976102 0.015048 -0.007899 8745.620000 1 0 0
-14.337044 -6.621937 -9.255411 18.304740 0.432686 2.100907 0.025932 -0.011213 2278160.000000 1 0 0
-3.877344 -16.267637 1.379689 16.780148 1.336815 1.488482 0.009497 -0.017442 1300980.000000 1 0 0
-7.990044 -15.579837 0.076089 17.509367 1.096926 1.566451 0.024000 -0.016801 775508.000000 1 0 0
1.035956 -18.553837 3.635489 18.935017 -1.515019 1.377599 0.023590 -0.018007 -559932.000000 1 0 0
-14.094044 -8.754137 -4.680711 17.239085 0.555807 1.845766 0.020277 -0.014276 -376888.000000 1 0 0
-3.353144 -14.585437 11.120589 18.645269 1.344826 0.931751 0.008539 -0.010198 -1272.380000 1 0 0
-10.824644 -12.110737 -3.819611 16.686291 0.841414 1.801751 0.032719 -0.015030 1444040.000000 1 0 0
-10.022844 -10.648737 0.482989 14.631687 0.815667 1.537781 0.008976 -0.000801 2255370.000000 1 0 0
-0.026544 -13.272137 -11.092211 17.297037 1.568796 2.266959 0.015385 -0.000892 13607.600000 1 0 0
-5.742544 -12.724437 -6.333511 15.329758 1.146862 1.996708 0.012186 -0.011084 975526.000000 1 0 0
1.821456 -15.982737 9.836489 18.855294 -1.457322 1.021974 0.015029 -0.005741 -285155.000000 1 0 0
-8.943944 -15.684537 -5.546811 18.888249 1.052547 1.868855 0.050737 -0.023647 812444.000000 1 0 0
-3.424244 -15.503337 5.727589 16.878513 1.353415 1.224579 0.009867 -0.007528 440826.000000 1 0 0
-17.517544 -5.518237 -6.466911 19.471420 0.305172 1.909350 0.036316 -0.013218 -752445.000000 1 0 0
18.817356 5.572563 -2.872711 19.834284 0.287911 1.716143 0.007803 0.001880 861362.000000 1 0 0
12.943956 -12.481937 -5.784011 18.889138 -0.767229 1.882004 0.042401 -0.009662 -1655940.000000 1 0 0
11.147156 -13.549437 -1.467811 17.606840 -0.882365 1.654259 0.034609 -0.007681 2077590.000000 1 0 0
18.642656 -2.849937 4.916189 19.489477 -0.151697 1.315793 0.036886 0.000467 -667558.000000 1 0 0
8.474856 -17.027537 5.037489 19.675785 -1.108979 1.311889 0.036278 -0.016378 -604747.000000 1 0 0
18.010356 -0.938237 6.876889 19.301420 -0.052047 1.206503 0.050749 -0.011690 -886753.000000 1 0 0
18.096956 -4.212937 -4.985111 19.237983 -0.228724 1.832916 0.048807 -0.016818 -376772.000000 1 0 0
5.601056 -11.652737 14.769589 19.629031 -1.122736 0.719044 0.013487 -0.001534 -1309690.000000 1 0 0
16.150056 -8.860337 -0.785011 18.437628 -0.501788 1.613386 0.044871 -0.010449 130887.000000 1 0 0
14.042556 -12.520437 -1.346311 18.861795 -0.728159 1.642235 0.042163 -0.008212 1215170.000000 1 0 0
11.022956 -2.149437 13.981189 17.933190 -0.192580 0.676727 0.015976 -0.007329 270337.000000 1 0 0
17.043856 -6.073937 -1.399911 18.147879 -0.342339 1.648012 0.033872 -0.006872 -3119730.000000 1 0 0
17.853256 3.697963 -0.847111 18.251885 0.204243 1.617225 0.012130 0.003682 1375450.000000 1 0 0
9.804156 -11.087837 9.476389 17.574515 -0.846765 1.001295 0.012867 -0.008434 1387070.000000 1 0 0
9.149556 -11.156837 4.390989 15.082115 -0.883928 1.275379 0.014478 -0.005610 -747342.000000 1 0 0
14.075356 -10.075937 6.875589 18.625625 -0.621289 1.192706 0.032325 -0.011581 -406583.000000 1 0 0
16.326256 -0.474137 -4.826211 17.031259 -0.029033 1.858107 0.020216 -0.002946 -657159.000000 1 0 0
15.820356 -0.354737 -1.784111 15.924590 -0.022419 1.683067 0.014479 0.005673 2533910.000000 1 0 0
13.063456 -5.137737 -0.335711 14.041472 -0.374709 1.594707 0.011904 0.000322 1027480.000000 1 0 0
14.423656 -7.487737 1.134089 16.290925 -0.478833 1.501125 0.022286 -0.001563 2006720.000000 1 0 0
15.561056 2.463963 3.755489 16.196336 0.157038 1.336794 0.018805 -0.000375 1430980.000000 1 0 0
15.963456 -7.005837 5.158689 18.180368 -0.413557 1.283093 0.034010 -0.008442 -1549240.000000 1 0 0
13.794256 -11.959037 3.349689 18.561263 -0.714257 1.389335 0.035703 -0.006419 734622.000000 1 0 0
13.904856 -0.940437 9.355489 16.785548 -0.067531 0.979601 0.022304 -0.010602 1961910.000000 1 0 0
14.339456 -2.734437 -1.570711 14.682108 -0.188431 1.677983 0.009411 0.003954 2227700.000000 1 0 0
14.981956 1.861563 9.190889 17.674752 0.123620 1.023944 0.039528 -0.014261 -1428350.000000 1 0 0
14.364756 -10.030437 -2.962511 17.768860 -0.609562 1.738303 0.038457 -0.009878 1122640.000000 1 0 0
7.275356 -12.555437 6.168189 15.767573 -1.045618 1.168867 0.007536 -0.009362 -518397.000000 1 0 0
12.397456 -4.723337 7.017789 15.008538 -0.364014 1.084238 0.011754 -0.008086 2537820.000000 1 0 0
14.994356 -8.932137 -5.609611 18.332527 -0.537252 1.881777 0.047773 -0.012710 -1068100.000000 1 0 0
14.326056 -4.517437 4.764989 15.759069 -0.305461 1.263624 0.016525 -0.005271 1280770.000000 1 0 0
17.203556 -4.174037 1.089389 17.736170 -0.238027 1.509336 0.024982 -0.003189 -352906.000000 1 0 0
10.265756 -14.524037 1.252789 17.829832 -0.955514 1.500475 0.031146 -0.003601 963806.000000 1 0 0
16.370156 -2.517337 8.752789 18.733134 -0.152581 1.084635 0.043992 -0.014017 1794190.000000 1 0 0
16.129456 -2.574037 3.379089 16.679427 -0.158252 1.366794 0.024936 -0.000016 846969.000000 1 0 0
7.779456 -15.197937 2.818489 17.304367 -1.097693 1.407190 0.021738 -0.007866 2310350.000000 1 0 0
16.564656 -7.022237 8.051589 19.711107 -0.400963 1.150008 0.038486 -0.012016 -925198.000000 1 0 0
10.320556 -8.580537 5.155489 14.377711 -0.693598 1.204055 0.011223 -0.006019 1470810.000000 1 0 0
11.000656 -11.880237 2.319189 16.356440 -0.823821 1.428526 0.024880 -0.004817 884043.000000 1 0 0
12.349556 -7.315137 12.026789 18.726089 -0.534768 0.873369 0.015232 -0.019311 228354.000000 1 0 0
15.163756 -9.748137 4.346789 18.543470 -0.571338 1.334184 0.025024 -0.006515 -22246.500000 1 0 0
7.323356 -10.259037 7.858989 14.854060 -0.950839 1.013280 0.007661 -0.006541 810703.000000 1 0 0
15.382056 -3.337637 -4.355811 16.331582 -0.213670 1.840775 0.032699 -0.003233 979701.000000 1 0 0
11.924856 -9.072137 9.798189 17.902804 -0.650362 0.991663 0.019522 -0.016892 -1812700.000000 1 0 0
17.105456 -6.605337 2.538589 18.511390 -0.368513 1.433226 0.040431 -0.004428 1875790.000000 1 0 0
17.528456 3.960563 2.119189 18.094856 0.222219 1.453411 0.017084 0.004178 1114200.000000 1 0 0
14.620956 -4.896837 8.886989 17.796909 -0.323177 1.047941 0.033849 -0.014184 1283200.000000 1 0 0
12.903956 -12.627737 6.158889 19.076262 -0.774580 1.242051 0.035570 -0.007072 -719125.000000 1 0 0
18.390656 0.806963 -1.066711 18.439233 0.043851 1.628679 0.030194 0.004588 392497.000000 1 0 0
11.630356 -2.192737 11.100289 16.226204 -0.186348 0.817432 0.013940 -0.009343 1322710.000000 1 0 0
5.852156 -12.453937 10.621489 17.382874 -1.131514 0.913433 0.009385 -0.003362 -888433.000000 1 0 0
10.769156 -5.046537 11.060789 16.241408 -0.438222 0.821636 0.010674 -0.011873 389907.000000 1 0 0
17.847056 1.333663 5.059189 18.598158 0.074589 1.295298 0.043587 -0.005284 -863098.000000 1 0 0
12.249156 -7.772537 7.177689 16.185592 -0.565428 1.111339 0.025554 -0.012881 -2121910.000000 1 0 0
10.626156 -7.905437 14.285989 19.480776 -0.639624 0.747578 0.019336 -0.016563 -620302.000000 1 0 0
14.240356 -0.273737 3.951189 14.780886 -0.019220 1.300188 0.008276 0.003962 2312610.000000 1 0 0
11.750756 -7.713437 2.582489 14.291488 -0.580876 1.389097 0.013972 -0.002992 2251660.000000 1 0 0
9.270756 6.116263 3.505289 11.646572 0.583190 1.265085 0.003753 -0.000010 1725930.000000 1 0 0
-4.055744 14.744363 -9.949511 18.243850 -1.302364 2.147618 0.012270 -0.007388 839498.000000 1 0 0
8.867556 -6.503737 9.307289 14.406866 -0.632812 0.868422 0.003894 -0.008180 -1186890.000000 1 0 0
5.926256 -10.589137 -8.412211 14.765353 -1.060571 2.176969 -0.002726 -0.000177 1205370.000000 1 0 0
5.388556 1.024663 0.573789 5.515044 0.187912 1.466567 0.002737 -0.002199 2575200.000000 1 0 0
-0.549944 9.878663 10.927589 14.741188 -1.515184 0.735797 -0.003425 -0.000898 -1816840.000000 1 0 0
-6.302244 -5.126937 1.007789 8.186538 0.682925 1.447380 0.006916 -0.003373 3123970.000000 1 0 0
-1.020444 3.939763 -10.860211 11.597725 -1.317354 2.783049 0.011647 -0.004135 1501330.000000 1 0 0
10.952956 5.831063 1.285789 12.474847 0.489210 1.467542 0.004623 0.002199 647757.000000 1 0 0
-10.208844 -1.816837 -13.726311 17.202703 0.176123 2.494626 0.012592 0.002446 2055350.000000 1 0 0
7.513456 10.953263 -6.099511 14.616088 0.969558 2.001285 0.015866 -0.002174 1702950.000000 1 0 0
-12.475744 -2.936537 -9.664411 16.052049 0.231172 2.216884 0.011881 -0.002656 1313200.000000 1 0 0
-4.005044 -8.725437 2.423989 9.901987 1.140477 1.323485 0.008886 -0.003670 -2496230.000000 1 0 0
8.178556 -6.613137 -5.827211 12.024091 -0.679960 2.076734 0.001917 -0.002342 1940830.000000 1 0 0
14.371956 3.220463 -4.227811 15.323149 0.220438 1.850333 0.014233 0.000348 802179.000000 1 0 0
-2.389844 -5.058437 9.751889 11.242708 1.129433 0.520849 0.001550 -0.001872 1218000.000000 1 0 0
3.526356 -1.827237 -4.600111 6.077418 -0.478074 2.429381 0.004229 -0.003534 -1772000.000000 1 0 0
-3.957444 8.363163 -3.470211 9.881610 -1.128818 1.929626 0.002970 -0.001166 991793.000000 1 0 0
5.780956 0.081863 11.799289 13.139611 0.014160 0.455608 -0.006952 -0.002990 1320830.000000 1 0 0
7.113156 4.741163 12.410389 15.069617 0.587911 0.603178 -0.006256 -0.001174 270601.000000 1 0 0
1.292456 -14.545837 12.274189 19.076361 -1.482175 0.871834 0.007133 -0.010603 1370350.000000 1 0 0
2.976756 8.772963 -9.118411 12.998899 1.243676 2.348262 0.009878 -0.001616 1194200.000000 1 0 0
-4.454144 -8.888337 -4.626211 10.965572 1.106251 2.006320 0.013989 -0.004728 2151040.000000 1 0 0
5.863456 -6.560737 -3.981011 9.657735 -0.841462 1.995674 0.003390 -0.003707 1829760.000000 1 0 0
-3.074144 3.357963 8.545589 9.682632 -0.829495 0.489498 0.002225 -0.000625 1342560.000000 1 0 0
-3.791644 3.074763 -11.106611 12.132087 -0.681371 2.727481 0.009434 -0.004262 873271.000000 1 0 0
2.993856 -6.135037 8.580889 10.965104 -1.116800 0.672024 0.001474 -0.000878 -193842.000000 1 0 0
-5.195644 -8.659137 10.424089 14.513339 1.030363 0.769524 0.005983 -0.003302 1930330.000000 1 0 0
-13.322044 -2.571237 6.475289 15.033877 0.190662 1.125513 0.018652 -0.008378 1709440.000000 1 0 0
3.999656 -5.846837 -8.296311 10.909241 -0.970841 2.434856 0.003040 -0.002548 2311620.000000 1 0 0
2.898556 -0.509037 12.409389 12.753575 -0.173845 0.232851 -0.005331 0.000580 1157900.000000 1 0 0
1.483556 -1.419837 -7.530911 7.805863 -0.763455 2.875388 0.007644 -0.005129 56652.600000 1 0 0
3.674356 -3.472137 3.503889 6.150924 -0.757109 0.964713 0.004655 -0.003271 2183070.000000 1 0 0
1.580056 0.421563 -11.713411 11.827015 0.260729 3.002878 0.010662 -0.007891 -344397.000000 1 0 0
4.081656 3.528863 -10.545511 11.845700 0.712890 2.668667 0.003579 -0.000071 688496.000000 1 0 0
2.832956 3.219763 3.349689 5.441776 0.849218 0.907712 -0.003599 0.001503 -622433.000000 1 0 0
-5.374444 0.880263 2.471589 5.980657 -0.162345 1.144761 0.007779 -0.003384 1243730.000000 1 0 0
-9.483544 -9.264537 5.661089 14.415865 0.773717 1.167232 0.010444 -0.004041 -1605520.000000 1 0 0
-3.035544 3.832863 -0.580411 4.923641 -0.900966 1.688954 0.006766 -0.005422 74355.100000 1 0 0
-15.961044 -6.561237 4.903089 17.940040 0.390020 1.293970 0.042549 -0.015524 2366650.000000 1 0 0
0.971056 6.737363 -8.098111 10.578961 1.427652 2.442602 0.007446 -0.002101 91037.000000 1 0 0
-1.620344 6.447963 -9.477811 11.577160 -1.324599 2.529878 0.007366 -0.001975 2246880.000000 1 0 0
2.060456 -0.419537 5.277589 5.681059 -0.200868 0.379150 0.000321 -0.001164 2211470.000000 1 0 0
-3.414544 -0.635537 -6.315011 7.207106 0.184021 2.638758 0.014027 -0.008543 -473592.000000 1 0 0
1.932256 -1.120137 -2.414711 3.289248 -0.525362 2.395170 0.010339 -0.003378 789483.000000 1 0 0
2.493056 -8.568737 -7.688311 11.779165 -1.287665 2.281945 0.003800 -0.000753 418778.000000 1 0 0
-2.565544 14.030063 -5.627311 15.332687 -1.389934 1.946593 0.009013 0.002523 3012690.000000 1 0 0
6.909056 -5.089437 -8.036311 11.756689 -0.634891 2.323415 0.003281 -0.002546 3845520.000000 1 0 0
-14.124144 -4.910137 -2.220211 15.117216 0.334572 1.718196 0.009503 -0.005509 -497005.000000 1 0 0
-2.748644 6.847463 -6.831711 10.055599 -1.189075 2.317732 0.007832 -0.002129 -3784130.000000 1 0 0
-5.679344 -1.178337 -8.098611 9.961472 0.204575 2.520071 0.014883 -0.008069 224963.000000 1 0 0
-5.801144 -10.631237 3.399889 12.579178 1.071284 1.297113 0.002110 -0.002992 -3757910.000000 1 0 0
8.141556 -7.581637 6.696489 12.984958 -0.749802 1.028959 0.005572 -0.006975 1188850.000000 1 0 0
8.828556 -5.928137 13.169489 16.926951 -0.591323 0.679290 0.013920 -0.008564 654829.000000 1 0 0
-4.766544 9.510663 -0.797911 10.668144 -1.106206 1.645660 0.000354 0.001924 1863490.000000 1 0 0
2.796856 6.639163 12.025989 14.018748 1.172092 0.539724 -0.001911 -0.001284 1202540.000000 1 0 0
6.006356 -2.803137 10.943089 12.793947 -0.436651 0.544603 -0.004322 -0.005026 1082290.000000 1 0 0
-9.617444 -6.423537 -1.130211 11.620432 0.588859 1.668211 0.009173 -0.003783 -329791.000000 1 0 0
0.797256 -13.412437 6.272289 14.828038 -1.511425 1.134041 0.011402 -0.003233 22006.500000 1 0 0
-0.525944 -3.192537 8.653989 9.239071 1.407521 0.357790 -0.001254 -0.001661 860386.000000 1 0 0
4.272356 0.765563 3.421389 5.526755 0.177308 0.903252 -0.002639 0.000575 1435790.000000 1 0 0
-10.251844 5.464463 8.196189 14.217530 -0.489715 0.956376 0.008450 -0.006454 952677.000000 1 0 0
9.424856 8.064663 -0.028111 12.404334 0.707782 1.573063 0.003632 0.001919 -144661.000000 1 0 0
4.300756 2.883063 8.203189 9.700560 0.590556 0.563032 -0.008871 0.001121 2903830.000000 1 0 0
1.365356 2.646863 -9.686011 10.133553 1.094558 2.843286 0.010477 -0.006414 2457270.000000 1 0 0
-1.487244 -10.195537 2.990189 10.728565 1.425946 1.288343 0.012924 -0.005420 -1718710.000000 1 0 0
-9.951044 9.474863 8.985789 16.417694 -0.760890 0.991634 0.005217 -0.008754 1188230.000000 1 0 0
9.854756 -1.985837 -7.585211 12.593459 -0.198848 2.217193 0.013786 -0.000817 1358390.000000 1 0 0
-5.166744 -1.860337 6.685089 8.651388 0.345609 0.687683 0.005244 -0.004214 969615.000000 1 0 0
3.286256 -7.840837 -4.939711 9.832546 -1.173916 2.097150 0.003459 -0.002232 2862740.000000 1 0 0
-5.139144 4.911563 -13.007811 14.823542 -0.762759 2.641442 0.007637 -0.005826 2711470.000000 1 0 0
-5.649544 9.574663 5.476989 12.393099 -1.037724 1.113038 0.001141 -0.003580 510007.000000 1 0 0
-0.470944 -1.782837 -9.363411 9.543258 1.312541 2.947145 0.010715 -0.008822 284963.000000 1 0 0
-16.868544 0.084663 6.465889 18.065510 -0.005019 1.204764 0.030991 -0.004082 -1012230.000000 1 0 0
-5.950344 -2.948137 4.036689 7.771291 0.460006 1.024605 0.002396 -0.001950 1961020.000000 1 0 0
1.018256 -5.739937 -5.077111 7.730510 -1.395224 2.287314 0.008779 -0.003884 1706190.000000 1 0 0
-7.068644 1.339163 -8.480011 11.120686 -0.187232 2.438033 0.010207 -0.004130 2040160.000000 1 0 0
8.055256 1.998763 4.825189 9.600243 0.243219 1.044180 -0.004348 0.001193 -632906.000000 1 0 0
0.539656 -8.100337 -0.538311 8.136121 -1.504273 1.637008 0.010719 -0.002340 1513160.000000 1 0 0
5.476456 5.575563 -3.276511 8.474314 0.794365 1.967782 0.002443 -0.000732 -448051.000000 1 0 0
-0.731944 -0.391137 -1.210211 1.467427 0.490773 2.540497 0.011178 -0.004948 655589.000000 1 0 0
9.108056 6.405463 -6.282711 12.785113 0.612920 2.084502 0.006924 0.001875 355118.000000 1 0 0
-15.021044 -7.125237 2.391089 16.796370 0.442918 1.427954 0.013494 -0.006966 1225680.000000 1 0 0
-6.472544 6.728663 8.884689 12.888228 -0.804797 0.810185 0.006408 -0.002889 350139.000000 1 0 0
-9.494644 -3.233137 -9.693711 13.948816 0.328207 2.339145 0.006839 -0.001261 778640.000000 1 0 0
14.977556 3.511063 -1.235611 15.433130 0.230264 1.650944 0.001856 0.004788 773362.000000 1 0 0
12.100356 1.694263 -5.775111 13.514476 0.139113 2.012331 0.011569 0.001079 -278162.000000 1 0 0
1.725556 -9.478337 12.756089 15.985438 -1.390716 0.646857 -0.001277 0.000848 -156837.000000 1 0 0
-3.648344 6.277363 7.840189 10.685703 -1.044322 0.747033 0.004036 -0.001780 2027400.000000 1 0 0
-4.196344 13.113063 -12.378511 18.514569 -1.261082 2.303097 0.012152 -0.006642 1318910.000000 1 0 0
-10.318944 7.692663 6.445589 14.394557 -0.640608 1.106516 0.002821 -0.006277 1048940.000000 1 0 0
8.166956 -9.268137 -7.080111 14.238171 -0.848473 2.091237 0.002146 -0.001195 587715.000000 1 0 0
5.936856 -3.737437 -0.314211 7.022352 -0.561851 1.615556 0.005044 -0.003672 -663279.000000 1 0 0
-1.610344 -4.532337 4.149089 6.352183 1.229407 0.859026 0.004846 0.000061 1434340.000000 1 0 0
10.039456 -2.012737 -2.544411 10.550632 -0.197860 1.814359 0.007817 -0.001448 -2585190.000000 1 0 0
13.571056 7.028363 1.527889 15.359228 0.477860 1.471155 0.007720 0.002064 -390010.000000 1 0 0
5.483656 -3.681437 -3.255911 7.363724 -0.591236 2.028797 0.005350 -0.003764 -1140060.000000 1 0 0
-12.267544 -5.906337 1.802389 13.734120 0.448706 1.439182 0.002914 -0.003892 2219990.000000 1 0 0
3.884256 -5.713937 -0.235111 6.913162 -0.973766 1.604812 0.009906 -0.003400 -1121870.000000 1 0 0
-5.197044 3.584063 -8.662511 10.718856 -0.603736 2.511811 0.010384 -0.004502 305597.000000 1 0 0
-1.725444 -9.325037 7.250389 11.937404 1.387832 0.918054 0.003640 -0.003580 2984810.000000 1 0 0
-7.359144 -7.403337 2.564989 10.749212 0.788392 1.329851 0.008682 -0.003613 -4150780.000000 1 0 0
-5.864844 13.074563 -8.508211 16.665240 -1.149133 2.106605 0.011209 -0.007464 260179.000000 1 0 0
9.346756 -13.883237 -4.036511 17.216258 -0.978256 1.807459 0.024877 -0.002920 1975690.000000 1 0 0
-6.404044 -5.190937 -6.751211 10.655349 0.681154 2.256992 0.014057 -0.004865 -664250.000000 1 0 0
3.418056 0.422763 -6.283211 7.165234 0.123060 2.640176 0.004604 -0.003834 2074740.000000 1 0 0
-3.630944 5.740263 4.912589 8.382595 -1.006794 0.944626 0.006823 -0.002037 -212669.000000 1 0 0
-2.682644 -10.765237 -2.922911 11.473026 1.326575 1.828400 0.014184 -0.004410 929607.000000 1 0 0
-12.641944 -0.418437 1.697989 12.762327 0.033087 1.437354 0.003769 -0.002629 1611550.000000 1 0 0
8.528656 -11.960437 -5.993411 15.865403 -0.951351 1.958179 0.014138 -0.004747 181996.000000 1 0 0
6.158956 3.886863 1.069789 7.361039 0.562967 1.424949 0.000121 -0.001528 -890989.000000 1 0 0
3.489456 -4.733537 -10.936811 12.417589 -0.935552 2.648243 0.002443 -0.001371 -214484.000000 1 0 0
-7.653944 4.087363 8.563489 12.191092 -0.490492 0.791979 0.009426 -0.005793 1570980.000000 1 0 0
8.150456 8.822263 4.010789 12.662886 0.824959 1.248510 0.000824 0.001374 2338160.000000 1 0 0
0.171856 10.643263 -6.321311 12.380127 1.554651 2.106681 0.007584 -0.001153 1594520.000000 1 0 0
5.395556 8.087163 3.177489 10.227936 0.982442 1.254901 0.002925 -0.000824 1345390.000000 1 0 0
8.079556 6.724363 -3.761411 11.164430 0.694110 1.914430 0.004610 0.000715 1899000.000000 1 0 0
10.484156 2.514563 -8.241011 13.570366 0.235398 2.223429 0.005198 0.001836 2352310.000000 1 0 0
3.353956 -12.530737 -0.294311 12.975169 -1.309268 1.593481 0.010019 -0.003215 -1736330.000000 1 0 0
0.620956 2.101163 5.202589 5.645122 1.283446 0.398593 0.003064 -0.000931 833537.000000 1 0 0
-4.869344 13.323563 1.487489 14.263255 -1.220408 1.466318 -0.002732 0.001964 1450700.000000 1 0 0
8.207656 4.135463 -8.045111 12.214397 0.466726 2.289830 0.004160 0.001928 -234515.000000 1 0 0
-13.826944 -0.535137 -3.655111 14.311903 0.038683 1.829047 0.003821 -0.004599 -1104700.000000 1 0 0
-8.611844 0.034363 -0.517611 8.627453 -0.003990 1.630828 0.003438 -0.003323 362645.000000 1 0 0
1.954356 -3.783037 -1.155911 4.412144 -1.093949 1.835874 0.008391 -0.002493 -2331970.000000 1 0 0
8.189056 -5.595037 -0.215111 9.920250 -0.599384 1.592482 0.006605 -0.001497 2343180.000000 1 0 0
-2.287144 -1.155137 7.463989 7.891546 0.467685 0.330683 0.002377 -0.000162 1330160.000000 1 0 0
-5.902444 8.848663 -11.620111 15.753243 -0.982533 2.400354 0.005907 -0.000004 -651869.000000 1 0 0
-6.308044 9.166963 -8.818411 14.198204 -0.968083 2.240933 0.004168 -0.000006 397449.000000 1 0 0
-1.633744 13.936363 -8.469811 16.389906 -1.454100 2.113870 0.019513 -0.004272 -757914.000000 1 0 0
-1.462244 7.191263 9.659589 12.130955 -1.370195 0.649682 -0.001203 -0.002739 940124.000000 1 0 0
10.050556 2.377163 -3.944311 11.055414 0.232252 1.935611 0.005254 0.001843 -1784610.000000 1 0 0
-2.988044 -7.523537 -7.042411 10.729752 1.192741 2.286759 0.013806 -0.004658 723118.000000 1 0 0
-5.498744 -5.059737 -1.690811 7.661329 0.743844 1.793323 0.010818 -0.003668 -807950.000000 1 0 0
5.599456 7.455663 -8.811211 12.828806 0.926634 2.327915 0.002228 0.002055 -3533.820000 1 0 0
-9.654344 5.213363 -7.465711 13.271109 -0.495135 2.168268 0.008722 -0.002666 100601.000000 1 0 0
-0.452944 6.135463 -5.347611 8.151442 -1.497106 2.286346 0.007832 -0.002314 -2177560.000000 1 0 0
-8.300144 2.814063 -6.336911 10.815164 -0.326876 2.196821 0.006391 -0.001890 939260.000000 1 0 0
3.759256 1.474063 -1.991311 4.502243 0.373691 2.028950 0.001375 -0.003131 2466940.000000 1 0 0
-6.877244 12.469963 -3.487611 14.661510 -1.066799 1.810974 0.004879 0.000723 1544640.000000 1 0 0
-6.625944 3.127463 -2.383111 7.704763 -0.441000 1.885257 0.008513 -0.003607 -1261050.000000 1 0 0
12.146256 4.038763 -0.746311 12.821861 0.321010 1.629035 0.002784 0.003278 -88965.900000 1 0 0
2.200356 12.431763 -5.519011 13.778599 1.395616 1.982913 0.010964 -0.005010 1665810.000000 1 0 0
-9.191644 -1.443337 -4.366811 10.278063 0.155755 2.009611 0.002905 -0.002339 -1354300.000000 1 0 0
-1.142744 5.776263 3.418589 6.808658 -1.375484 1.044777 0.005417 -0.001565 2103590.000000 1 0 0
11.421056 2.589063 12.089289 16.831360 0.222924 0.769498 0.011653 0.000065 553331.000000 1 0 0
-7.045244 -2.435537 -5.766111 9.424189 0.332839 2.229183 0.011532 -0.004581 -33141.100000 1 0 0
7.506656 -7.336337 10.914489 15.142582 -0.773924 0.765868 0.004514 -0.007734 -1692170.000000 1 0 0
-5.554344 -1.989437 -10.943711 12.432755 0.343941 2.647148 0.016041 -0.004787 -556017.000000 1 0 0
0.841756 -6.253437 4.412289 7.699502 -1.436994 0.960559 0.004324 -0.000139 1784770.000000 1 0 0
-4.888144 -9.339837 7.392589 12.875437 1.088632 0.959216 -0.001218 -0.002240 2334330.000000 1 0 0
-8.783444 9.242163 1.616089 12.852167 -0.810841 1.444718 0.001338 -0.003437 831768.000000 1 0 0
-8.284944 7.154863 -9.069211 14.215588 -0.712336 2.262664 0.007516 -0.001846 -601990.000000 1 0 0
-1.335344 -10.612637 -0.153911 10.697425 1.445628 1.585185 0.012185 -0.004060 -899808.000000 1 0 0
-3.907144 10.216363 7.682289 13.366278 -1.205519 0.958496 0.001553 -0.003616 516268.000000 1 0 0
-7.457144 11.949263 2.011589 14.228154 -1.012868 1.428940 -0.000150 -0.004910 1323530.000000 1 0 0
-8.181944 -8.261837 -2.860711 11.974382 0.790257 1.812032 0.013581 -0.006315 -534247.000000 1 0 0
5.396156 4.692463 -7.962711 10.702452 0.715760 2.409845 0.003467 0.001565 1977140.000000 1 0 0
-8.976044 -0.189937 -10.292411 13.657934 0.021157 2.424295 0.009755 -0.001262 -1507870.000000 1 0 0
-15.165044 -2.208937 -1.583111 15.406628 0.144643 1.673733 0.008090 -0.004377 -21749.700000 1 0 0
-7.155144 -5.758037 8.742189 12.679785 0.677625 0.810055 0.005089 -0.004716 -942837.000000 1 0 0
8.170356 3.450163 -0.962711 8.921052 0.399563 1.678921 0.003331 0.000809 800894.000000 1 0 0
11.902656 7.308263 -5.763111 15.109513 0.550652 1.962131 0.003775 0.003374 299473.000000 1 0 0
3.768856 13.225863 -9.517211 16.724384 1.293193 2.176161 0.008919 -0.013147 238745.000000 1 0 0
-9.775544 5.400763 -0.454711 11.177489 -0.504743 1.611489 0.002656 -0.003436 1162730.000000 1 0 0
11.403456 -1.253237 -5.140811 12.571291 -0.109460 1.992080 0.018077 -0.001503 -445650.000000 1 0 0
10.643856 1.727663 -1.164411 10.845845 0.160912 1.678364 0.005604 0.001730 -789726.000000 1 0 0
14.551456 5.065063 4.903389 16.169198 0.334963 1.262690 0.017718 -0.002905 2493150.000000 1 0 0
0.893156 -0.841037 10.271589 10.344593 -0.755353 0.118874 -0.002792 -0.000737 2091290.000000 1 0 0
-7.983444 1.284163 -12.687311 15.045009 -0.159487 2.574173 0.008942 -0.000931 1002420.000000 1 0 0
3.160756 -11.512337 -7.860711 14.293882 -1.302845 2.153083 -0.000555 0.000358 -40371.900000 1 0 0
2.860256 5.095763 -6.718211 8.904057 1.059318 2.425705 0.004738 -0.001625 -1933110.000000 1 0 0
6.519156 8.167363 0.459189 10.460214 0.897156 1.526884 0.004248 -0.000366 -1334470.000000 1 0 0
-9.039544 -5.393337 6.656689 12.454435 0.537944 1.006900 0.006754 -0.005712 284121.000000 1 0 0
-0.197544 -6.815837 -11.849511 13.671341 1.541821 2.619427 0.005863 0.000422 2362210.000000 1 0 0
6.604056 -13.356937 -4.556611 15.581529 -1.111615 1.867570 0.006910 -0.000264 2538320.000000 1 0 0
-3.219944 -0.300937 10.035789 10.543987 0.093190 0.311737 0.000381 -0.000307 -721248.000000 1 0 0
8.637656 8.516163 6.915489 13.962740 0.778316 1.052637 -0.003038 0.000630 -1032840.000000 1 0 0
-8.019244 5.663463 -2.657111 10.170709 -0.614898 1.835115 0.005703 -0.004126 552255.000000 1 0 0
-5.386144 5.767663 -6.516111 10.234070 -0.819590 2.261017 0.007007 -0.001368 -832571.000000 1 0 0
3.406956 -13.662137 2.539189 14.307649 -1.326409 1.392381 0.014572 -0.006454 -3161320.000000 1 0 0
-11.270944 -7.031237 6.413189 14.751321 0.557763 1.121032 0.020244 -0.009243 -932373.000000 1 0 0
-12.908944 -3.753737 -6.802911 15.066883 0.282982 2.039258 0.011406 -0.004648 -65116.900000 1 0 0
6.107256 0.350563 -7.176711 9.430093 0.057338 2.435717 0.003023 -0.000086 349890.000000 1 0 0
-1.383544 2.176563 -2.509311 3.598369 -1.004571 2.342485 0.009740 -0.006694 3375330.000000 1 0 0
7.604656 0.988563 -4.925111 9.113988 0.129269 2.141697 0.002574 0.000824 540592.000000 1 0 0
3.686156 -4.488737 10.875689 12.329522 -0.883261 0.490526 -0.005334 -0.001770 -825522.000000 1 0 0
6.080156 -2.493237 2.102789 6.899729 -0.389150 1.261106 0.007781 -0.003513 -1797720.000000 1 0 0
-6.298644 7.654163 1.127489 9.976490 -0.882245 1.457540 0.002556 -0.001908 1243210.000000 1 0 0
6.129856 -3.476437 7.995989 10.658170 -0.515901 0.722399 -0.000751 -0.004729 714876.000000 1 0 0
6.750656 -2.250937 -7.755211 10.525273 -0.321846 2.399148 0.003682 -0.001861 2361230.000000 1 0 0
12.107056 -8.129937 -5.772511 15.684342 -0.591344 1.947700 0.029365 -0.007192 -430782.000000 1 0 0
5.624756 -9.605837 10.055489 15.000762 -1.041065 0.836140 0.003244 -0.002738 2538170.000000 1 0 0
-6.606044 7.476063 -4.496111 10.942867 -0.847102 1.994206 0.003203 -0.002745 1897310.000000 1 0 0
-1.308744 -7.713937 9.819589 12.555555 1.402737 0.672782 0.001702 -0.001178 -330527.000000 1 0 0
10.089256 -9.288437 0.857589 13.740583 -0.744095 1.508343 0.012213 -0.003894 1694040.000000 1 0 0
11.064356 6.091163 9.772189 15.969281 0.503243 0.912289 -0.002542 -0.001273 3056870.000000 1 0 0
-15.314844 -4.215037 -4.990611 16.649840 0.268576 1.875216 0.021696 -0.008909 2310360.000000 1 0 0
-4.618444 -4.736137 7.758289 10.195688 0.797979 0.706038 0.006255 -0.004841 -1124950.000000 1 0 0
2.858556 10.934563 -11.089611 15.833998 1.315095 2.346708 0.010180 -0.004647 -77858.000000 1 0 0
9.998456 -1.392837 1.629789 10.225719 -0.138414 1.410732 0.004764 -0.000525 561105.000000 1 0 0
-1.540844 -2.711537 0.645689 3.184894 1.054046 1.366646 0.008599 -0.002480 2294830.000000 1 0 0
1.562156 2.998163 0.872089 3.491397 1.090460 1.318341 0.004434 -0.003253 -154519.000000 1 0 0
-8.919144 -2.366137 4.310189 10.184668 0.259314 1.133818 0.008192 -0.004055 3652160.000000 1 0 0
9.958056 4.942663 -2.704911 11.441562 0.460722 1.809467 0.002576 0.001454 1760620.000000 1 0 0
2.569156 8.456463 2.384589 9.154157 1.275848 1.307264 -0.000750 -0.001469 1132630.000000 1 0 0
-8.167944 -0.118237 2.406289 8.515839 0.014475 1.284328 0.003881 -0.004420 362112.000000 1 0 0
6.877556 2.051463 13.770389 15.528454 0.289881 0.480456 -0.004023 -0.001279 -1209070.000000 1 0 0
6.881556 4.360763 3.797189 8.988365 0.564823 1.134643 -0.004829 0.002192 -511046.000000 1 0 0
-0.251144 3.359163 7.728789 8.430968 -1.496171 0.411019 0.000988 -0.001257 -39170.500000 1 0 0
2.783156 -10.234937 9.149289 14.007476 -1.305289 0.859031 0.007014 -0.006008 1975690.000000 1 0 0
1.365856 -4.597337 6.832889 8.348020 -1.282005 0.611994 -0.000451 0.000110 534361.000000 1 0 0
-0.166244 10.822363 -2.004811 11.007745 -1.555436 1.753946 0.006425 -0.002056 2329120.000000 1 0 0
8.728356 5.558463 7.958789 13.054617 0.567060 0.915173 -0.005057 -0.000056 -873185.000000 1 0 0
2.611056 11.445763 -2.918511 12.097140 1.346510 1.814456 0.012148 -0.007397 860316.000000 1 0 0
1.513656 2.540663 -6.635211 7.264444 1.033491 2.722311 0.006165 -0.007129 -281445.000000 1 0 0
-13.631444 -2.224137 3.553989 14.261622 0.161737 1.318943 0.008171 -0.007058 967730.000000 1 0 0
-0.946744 -10.587637 -5.333011 11.892661 1.481614 2.035803 0.009188 -0.002270 562002.000000 1 0 0
-5.741644 2.859363 0.410189 6.427339 -0.462050 1.506934 0.010961 -0.004864 -59878.900000 1 0 0
3.764256 7.320563 -4.983911 9.622870 1.095851 2.115218 0.004998 -0.002716 -1395370.000000 1 0 0
2.874756 9.774863 -6.452911 12.060358 1.284764 2.135365 0.007040 -0.002085 -96308.100000 1 0 0
-12.189544 1.678063 -2.572711 12.570589 -0.136804 1.776914 0.000900 -0.002796 1191550.000000 1 0 0
-2.534744 9.635763 -5.743911 11.500668 -1.313568 2.093750 0.003416 0.000965 987260.000000 1 0 0
-1.296644 3.272663 1.755189 3.933484 -1.193566 1.108262 0.005720 -0.003746 37718.900000 1 0 0
12.800356 3.694863 9.769089 16.520782 0.281015 0.938100 0.020280 -0.003145 1532640.000000 1 0 0
-2.658844 -9.653337 11.644089 15.357121 1.302028 0.710216 0.001904 -0.005275 1706360.000000 1 0 0
-0.406344 -8.930137 -7.579711 11.720260 1.525325 2.274071 0.009489 -0.003015 2188720.000000 1 0 0
2.354456 7.665563 -0.539911 8.037153 1.272795 1.638024 0.002615 -0.001460 828077.000000 1 0 0
-11.853444 -1.300737 -5.646111 13.193734 0.109298 2.013007 0.007934 -0.000094 65705.300000 1 0 0
-6.258144 -7.201837 -11.004611 14.564762 0.855395 2.427311 0.015368 -0.001627 767163.000000 1 0 0
-4.705744 -2.315137 -1.441511 5.438919 0.457212 1.839038 0.009407 -0.004802 -701815.000000 1 0 0
-10.633944 3.727663 4.465989 12.121109 -0.337159 1.193458 0.003121 -0.003939 2106120.000000 1 0 0
6.769656 9.470163 -3.528711 12.164047 0.950180 1.865121 0.005835 0.000326 2190360.000000 1 0 0
1.261856 -2.697637 -11.495911 11.875416 -1.133269 2.888102 0.007647 -0.006504 -2114010.000000 1 0 0
1.294456 8.788363 7.477289 11.611235 1.424556 0.871120 -0.001073 0.000424 -247480.000000 1 0 0
10.265056 0.381263 10.563089 14.734164 0.037125 0.771435 0.001139 -0.004314 857292.000000 1 0 0
-5.240644 -0.889037 -3.928211 6.609506 0.168043 2.207225 0.012658 -0.007500 145349.000000 1 0 0
11.645856 5.684863 5.454689 14.060486 0.454118 1.172396 -0.000382 0.002313 2999140.000000 1 0 0
10.001656 -3.456837 3.702289 11.211146 -0.332773 1.234246 0.009649 -0.004027 -2186060.000000 1 0 0
7.409756 -1.644437 -3.349211 8.296136 -0.218389 1.986362 0.003921 -0.001748 -2753210.000000 1 0 0
2.326856 9.245763 10.364589 14.082723 1.324249 0.743685 -0.000282 -0.001094 3138090.000000 1 0 0
2.372356 -10.959337 6.305689 12.864558 -1.357617 1.058523 0.004600 -0.002378 2015190.000000 1 0 0
5.977256 -7.522337 -1.163111 9.678119 -0.899356 1.691267 0.003993 -0.003448 892639.000000 1 0 0
-0.146544 -5.503837 -2.280311 5.959322 1.544177 1.963455 0.011260 -0.001225 1164470.000000 1 0 0
7.766656 -5.016437 2.738389 9.642840 -0.573483 1.282852 0.005219 -0.002876 2539790.000000 1 0 0
-2.776344 -12.468437 4.661689 13.597844 1.351701 1.220873 0.009432 -0.004884 -676987.000000 1 0 0
4.960856 -10.278837 -1.057911 11.462276 -1.121143 1.663223 0.009605 -0.004899 1994420.000000 1 0 0
0.923156 0.167363 1.132889 1.470940 0.179346 0.691673 0.004771 -0.001202 -2201460.000000 1 0 0
-1.671744 8.494463 2.376689 8.977710 -1.376476 1.302870 0.003148 -0.000541 1364230.000000 1 0 0
-7.537844 0.667463 -3.129211 8.188807 -0.088318 1.962899 0.005855 -0.002069 72971.400000 1 0 0
4.418756 -6.301637 12.952389 15.066533 -0.959260 0.536154 0.006002 -0.004716 -391486.000000 1 0 0
-5.068644 12.953763 8.337789 16.217578 -1.197823 1.030814 0.003280 -0.007186 1766400.000000 1 0 0
0.687256 6.108663 8.192789 10.242552 1.458762 0.643705 -0.002645 0.001384 1532420.000000 1 0 0
8.047056 -0.537637 -0.669811 8.092763 -0.066713 1.653658 0.005566 -0.001648 4101960.000000 1 0 0
2.572156 -9.196837 -2.387711 9.843727 -1.298086 1.815802 0.006306 -0.002273 1793990.000000 1 0 0
-7.176844 12.143763 4.880689 14.926459 -1.037028 1.237688 -0.003307 -0.000980 1506420.000000 1 0 0
-15.011044 0.269963 0.098889 15.013797 -0.017982 1.564210 0.011867 -0.004175 581726.000000 1 0 0
6.886456 -0.442937 3.962789 7.957586 -0.064232 1.049518 -0.001143 -0.000959 -618877.000000 1 0 0
-4.219644 -5.104137 5.035289 8.319360 0.879979 0.920717 0.004987 -0.001669 -617857.000000 1 0 0
2.981756 5.092863 6.792289 8.997961 1.041124 0.715341 -0.005876 0.000983 -2079760.000000 1 0 0
2.149056 -7.245737 1.730489 7.753305 -1.282465 1.345707 0.007637 -0.001424 2735060.000000 1 0 0
-2.391044 6.403663 -1.731311 7.051342 -1.213441 1.818862 0.003215 -0.002055 2133660.000000 1 0 0
2.755156 -3.815337 -6.481011 8.009444 -0.945374 2.513536 0.004228 -0.005414 -893642.000000 1 0 0
-5.155444 0.908863 -12.146611 13.226670 -0.174499 2.734668 0.010929 -0.001129 -675605.000000 1 0 0
-7.555644 6.380863 -11.865611 15.446549 -0.701302 2.446778 0.012665 -0.004022 1648260.000000 1 0 0
-1.142344 11.204763 -9.077511 14.465575 -1.469196 2.249167 0.008520 -0.002225 1419370.000000 1 0 0
4.656856 5.932563 -0.601711 7.565955 0.905290 1.650409 0.001816 -0.000923 368264.000000 1 0 0
-2.617344 13.343463 3.599989 14.066215 -1.377104 1.311985 -0.000454 0.001642 -312873.000000 1 0 0
1.482556 -7.997537 10.249789 13.084982 -1.387500 0.670800 0.001862 -0.002150 -429409.000000 1 0 0
13.048756 -0.176837 -0.959111 13.085152 -0.013551 1.644160 0.011644 0.000290 -476323.000000 1 0 0
-1.017144 3.090863 -5.418611 6.320551 -1.252878 2.600799 0.010186 -0.007230 622597.000000 1 0 0
6.541856 1.019263 7.297589 9.853405 0.154564 0.736810 -0.006648 0.000802 1640690.000000 1 0 0
5.441056 -6.143637 6.912489 10.729952 -0.845971 0.870789 0.001324 -0.001861 1705160.000000 1 0 0
12.300656 -4.881337 2.611789 13.489071 -0.377775 1.375943 0.009140 -0.003330 -610004.000000 1 0 0
4.473056 -9.157637 13.837789 17.185894 -1.116431 0.634812 0.009005 -0.002296 900088.000000 1 0 0
-2.750544 -4.312837 -1.493011 5.328709 1.003076 1.854781 0.014177 -0.004920 2353700.000000 1 0 0
-9.273844 -5.208737 -7.582511 13.062526 0.511750 2.190112 0.012177 -0.004053 2493310.000000 1 0 0
-10.647044 -3.132137 7.769389 13.547443 0.286108 0.960031 0.012198 -0.008292 -604080.000000 1 0 0
12.134656 -0.597837 1.773289 12.278104 -0.049227 1.425863 0.008559 -0.000061 648723.000000 1 0 0
-7.731744 4.674063 4.399289 10.048904 -0.543743 1.117659 0.009157 -0.006338 2239850.000000 1 0 0
-1.059644 10.486063 6.921589 12.609074 -1.470086 0.989704 -0.001544 -0.000632 1460200.000000 1 0 0
7.460556 -10.095037 1.993889 12.710046 -0.934352 1.413271 0.008462 -0.003165 3413580.000000 1 0 0
-4.278344 -1.693437 1.632789 4.882413 0.376894 1.229804 0.005488 -0.001003 2083610.000000 1 0 0
6.704856 -14.985337 -0.883611 16.440687 -1.150084 1.624568 0.018758 -0.002051 -1119130.000000 1 0 0
-10.475544 1.631263 2.432889 10.877361 -0.154480 1.345223 0.002310 -0.002824 51080.100000 1 0 0
-3.131844 8.340263 -11.299411 14.389062 -1.211580 2.473941 0.004509 -0.000986 -187405.000000 1 0 0
-1.262844 -5.183037 -6.940011 8.753422 1.331804 2.486242 0.008529 -0.005492 220825.000000 1 0 0
12.788656 -0.492037 6.579589 14.390373 -0.038456 1.095928 0.006821 -0.005903 2884580.000000 1 0 0
5.920856 -13.299637 3.800689 15.046000 -1.151950 1.315425 0.008286 -0.004352 897797.000000 1 0 0
-5.635844 3.520663 -4.966711 8.296145 -0.558377 2.212645 0.009679 -0.004459 1834360.000000 1 0 0
-4.476344 7.998663 3.319389 9.748569 -1.060585 1.223348 0.006155 -0.002629 -181144.000000 1 0 0
14.041056 6.203363 -3.952211 15.850960 0.416015 1.822791 0.015600 0.002732 908936.000000 1 0 0
-6.723044 -8.467437 5.245789 12.017284 0.899732 1.119069 0.008377 -0.001645 885400.000000 1 0 0
1.626256 11.364363 2.691089 11.791328 1.428660 1.340541 0.002733 -0.003473 2354000.000000 1 0 0
-7.425644 7.203463 5.977389 11.948190 -0.770212 1.046879 0.007051 -0.005415 -586894.000000 1 0 0
-17.504044 -4.108637 5.132089 18.697882 0.230551 1.292753 0.040651 -0.016306 -616176.000000 1 0 0
7.632656 -13.018637 -8.528311 17.334199 -1.040521 2.085174 0.019220 -0.001897 -1531600.000000 1 0 0
-2.395744 12.791863 -2.815211 13.315283 -1.385655 1.783831 0.003027 0.003029 1930820.000000 1 0 0
-5.584244 13.919663 -5.787411 16.075911 -1.189276 1.939070 0.007578 0.003722 1724450.000000 1 0 0
-5.520544 2.324263 7.355689 9.486030 -0.398495 0.683411 0.007583 -0.003867 1172000.000000 1 0 0
-7.502944 5.092563 1.489489 9.189501 -0.596316 1.407992 0.005795 -0.003767 1491020.000000 1 0 0
10.847656 -5.650237 -4.971311 13.202680 -0.480205 1.956853 0.012844 -0.004849 2792460.000000 1 0 0
-9.521444 -0.748737 6.869189 11.764534 0.078475 0.947285 0.009852 -0.005187 610183.000000 1 0 0
-11.271644 -4.533637 -2.614311 12.427326 0.382415 1.782748 0.004471 -0.004364 860388.000000 1 0 0
6.489456 -4.300537 13.582689 15.655577 -0.585249 0.520453 0.005249 -0.010266 -397159.000000 1 0 0
0.079556 10.269063 -11.728711 15.589184 1.563049 2.422437 0.010763 -0.000829 -966901.000000 1 0 0
-11.788344 -3.139737 1.406089 12.280068 0.260300 1.456043 0.002163 -0.004489 3061600.000000 1 0 0
5.249556 5.964063 5.355189 9.581541 0.849030 0.977729 -0.005309 0.001900 -5589300.000000 1 0 0
-7.098244 -0.056537 8.132689 10.794855 0.007965 0.717601 0.007516 -0.004249 124630.000000 1 0 0
1.802256 2.072663 9.606389 9.991335 0.855069 0.278489 -0.001669 -0.000618 2399710.000000 1 0 0
10.620556 -4.866737 -1.957511 11.845387 -0.429683 1.736813 0.007741 -0.001521 1071120.000000 1 0 0
-9.680144 -2.334037 -1.725711 10.105988 0.236600 1.742399 0.002612 -0.003265 -857895.000000 1 0 0
-1.973144 -5.222137 -9.934511 11.395548 1.209536 2.629638 0.013716 -0.006372 1592350.000000 1 0 0
7.651956 -1.635337 6.515889 10.182513 -0.210548 0.876416 -0.000883 -0.003360 1751950.000000 1 0 0
1.551556 -11.819837 -2.598611 12.201175 -1.440275 1.785421 0.007263 -0.002457 -2636060.000000 1 0 0
-0.773644 -1.568037 4.854789 5.160062 1.112456 0.345698 0.007648 -0.000164 2718470.000000 1 0 0
7.512556 1.433663 9.916489 12.523204 0.188568 0.656965 -0.009160 0.000915 1062930.000000 1 0 0
-3.956844 10.712763 -7.989511 13.937438 -1.216981 2.181252 0.008282 0.000596 2659440.000000 1 0 0
-9.557044 12.624363 6.466589 17.103461 -0.922810 1.183068 0.002528 -0.004327 658591.000000 1 0 0
-2.571844 -2.419337 -11.077211 11.626357 0.754853 2.833017 0.016571 -0.008171 -26326.400000 1 0 0
1.208956 -11.919337 11.013389 16.273503 -1.469714 0.827433 0.006434 -0.004099 1185390.000000 1 0 0
1.478856 3.469063 -1.961411 4.250711 1.167826 2.050404 0.003953 -0.003919 3077150.000000 1 0 0
-1.819044 -9.363637 -12.034711 15.356461 1.378920 2.471381 0.010888 -0.001499 994205.000000 1 0 0
1.397356 -2.657837 1.537089 3.373329 -1.086762 1.097684 0.010966 -0.002874 2961470.000000 1 0 0
-1.041644 -2.277837 -6.636411 7.093343 1.141892 2.780703 0.012732 -0.009678 -355604.000000 1 0 0
1.859056 5.844363 4.027489 7.337120 1.262823 0.989725 -0.006247 0.001669 -972937.000000 1 0 0
-11.029544 8.574463 3.603989 14.427785 -0.660813 1.318328 -0.004939 -0.002760 2978940.000000 1 0 0
-16.448644 -1.524137 3.996389 16.995646 0.092397 1.333432 0.023197 -0.005878 -335943.000000 1 0 0
-12.241444 0.217063 6.836189 14.022608 -0.017730 1.061558 0.008440 -0.004343 413923.000000 1 0 0
-5.185344 3.011363 4.619289 7.569275 -0.526141 0.914397 0.006747 -0.003705 929473.000000 1 0 0
5.201556 -6.019237 4.024389 8.915330 -0.858142 1.102462 0.001916 -0.003031 2208040.000000 1 0 0
9.922156 3.451363 6.276289 12.237357 0.334753 1.032261 -0.005798 0.003114 485566.000000 1 0 0
-12.352344 5.877163 3.200789 14.048718 -0.444095 1.340943 0.002183 -0.002423 1973220.000000 1 0 0
-5.009444 12.259763 -1.318511 13.309199 -1.182891 1.670027 -0.003510 0.004652 1238260.000000 1 0 0
-1.731544 -12.301537 10.383089 16.190571 1.430957 0.874599 0.006112 -0.005753 2504210.000000 1 0 0
5.208556 6.465063 13.798789 16.103809 0.892622 0.541639 -0.002818 -0.001546 760883.000000 1 0 0
13.076556 -3.719237 -5.898511 14.819632 -0.277103 1.980154 0.016776 -0.003733 1438170.000000 1 0 0
3.580156 -2.571137 6.485989 7.841959 -0.622812 0.596890 -0.002483 -0.000100 2060360.000000 1 0 0
7.334156 -11.900737 -0.567211 13.990680 -1.018494 1.611350 0.008763 -0.001190 -647778.000000 1 0 0
-6.134844 -6.650537 -4.134811 9.947996 0.825711 1.999446 0.010808 -0.004901 -1537420.000000 1 0 0
0.228656 -8.977537 5.030589 10.293458 -1.545332 1.060178 0.008977 -0.004284 1335240.000000 1 0 0
-10.265544 2.509863 -0.381411 10.574794 -0.239790 1.606872 0.001779 -0.001001 -1085770.000000 1 0 0
-1.830044 9.002763 -0.400811 9.195621 -1.370253 1.614397 0.003056 -0.000376 782877.000000 1 0 0
-3.529244 2.300663 -6.554211 7.791424 -0.577700 2.570310 0.015913 -0.009183 362136.000000 1 0 0
-12.845944 3.002563 6.404889 14.664796 -0.229614 1.118811 0.007189 -0.003557 992501.000000 1 0 0
11.270856 1.632963 7.980889 13.906594 0.143882 0.959545 0.005149 -0.006854 -1917010.000000 1 0 0
6.093156 2.675363 -3.181111 7.375879 0.413733 2.016714 0.001876 -0.000574 876817.000000 1 0 0
10.514756 -2.459837 6.512989 12.610707 -0.229809 1.028079 0.007876 -0.006547 2894240.000000 1 0 0
-0.974544 10.954263 4.080289 11.730062 -1.482065 1.215521 0.003857 0.000144 642218.000000 1 0 0
-1.655744 -12.338237 7.413589 14.489130 1.437397 1.033674 0.005896 -0.002914 -167981.000000 1 0 0
8.058456 8.676063 -7.817111 14.188728 0.822288 2.154284 0.010772 0.000347 1811500.000000 1 0 0
-4.709444 -6.012237 -8.777311 11.634735 0.906316 2.425545 0.013907 -0.004912 732610.000000 1 0 0
-8.550644 -5.358437 -11.709911 15.457955 0.559800 2.430322 0.014338 -0.002392 2117260.000000 1 0 0
6.186156 -0.572237 -9.847611 11.643515 -0.092240 2.578783 0.005264 0.000284 -1062710.000000 1 0 0
-11.157844 -5.473637 -5.393511 13.547994 0.456070 1.980245 0.004906 -0.007594 -879873.000000 1 0 0
3.883756 8.950563 -2.703811 10.124561 1.161401 1.841132 0.009968 -0.005414 265110.000000 1 0 0
11.698456 -10.406237 -3.978911 16.154733 -0.727006 1.819657 0.026769 -0.007531 -594711.000000 1 0 0
3.945856 -11.273337 3.895589 12.563181 -1.234107 1.255519 0.004973 -0.001476 -240425.000000 1 0 0
-1.074444 0.816563 3.217289 3.488861 -0.649862 0.397168 0.008499 -0.003170 137831.000000 1 0 0
-10.564644 -5.113537 4.404589 12.536361 0.450785 1.211789 0.010274 -0.006170 3369770.000000 1 0 0
4.597456 -8.689537 2.840689 10.232995 -1.084157 1.289500 0.004120 -0.001049 4698690.000000 1 0 0
-3.679844 -5.739937 2.555989 7.281566 1.000707 1.212134 0.008558 -0.001430 1076050.000000 1 0 0
9.980756 5.018963 12.322189 16.632553 0.465936 0.736465 0.002122 0.001859 458761.000000 1 0 0
1.655456 -12.299737 -5.302011 13.495755 -1.437008 1.974541 0.007257 -0.004247 1337550.000000 1 0 0
9.938856 -10.780937 -1.639811 14.754608 -0.826017 1.682165 0.012731 -0.006035 1410090.000000 1 0 0
9.658856 -4.415637 -9.084311 13.975553 -0.428792 2.278400 0.015812 -0.002877 2621360.000000 1 0 0
-7.470444 -3.124237 -13.121611 15.418984 0.396108 2.588690 0.015517 -0.000944 2628430.000000 1 0 0
0.502956 6.166763 -2.528511 6.683958 1.489417 1.958751 0.003874 -0.002879 942595.000000 1 0 0
-5.964544 -9.558837 0.916189 11.304271 1.012929 1.489659 0.008496 -0.003770 -701379.000000 1 0 0
-8.963844 -4.001937 0.548589 9.831935 0.419901 1.514971 0.001033 -0.002783 4908280.000000 1 0 0
1.817456 3.856863 12.101789 12.830894 1.130431 0.338735 -0.003780 -0.002609 813190.000000 1 0 0
6.655656 4.292763 9.575289 12.426252 0.572838 0.691062 -0.011167 0.002980 150617.000000 1 0 0
-8.250244 9.833063 -3.601611 13.331438 -0.872705 1.844355 0.000960 -0.000814 1795770.000000 1 0 0
16.433856 2.194963 -6.084611 17.661030 0.132778 1.922526 0.019540 0.000095 -1465060.000000 1 0 0
-10.997044 2.691763 -5.150111 12.438014 -0.240052 1.997709 0.003428 -0.000319 302786.000000 1 0 0
-13.873644 3.998763 1.474989 14.513569 -0.280621 1.468992 0.006700 0.001572 232118.000000 1 0 0
-17.335044 10.448163 3.314789 20.509892 -0.542416 1.408465 0.039908 -0.010806 -1143220.000000 1 0 0
-14.362444 2.907763 -1.203211 14.703149 -0.199756 1.652722 0.006315 0.000821 965369.000000 1 0 0
-14.560444 5.059963 5.127289 16.244963 -0.334459 1.249683 0.007412 0.000557 169108.000000 1 0 0
-17.557344 7.577563 3.230189 19.393656 -0.407439 1.403457 0.033513 0.000358 -2648910.000000 1 0 0
-15.092244 12.591063 -3.401711 19.946988 -0.695293 1.742172 0.053474 -0.013843 -1654940.000000 1 0 0
-8.614244 12.497663 -9.587211 17.953033 -0.967309 2.134140 0.007912 -0.009840 1184230.000000 1 0 0
-12.600644 8.648963 -9.944011 18.233599 -0.601534 2.147624 0.012279 -0.003127 -96121.800000 1 0 0
-13.896644 -3.644737 -12.175411 18.831926 0.256497 2.273824 0.019043 -0.001044 -886105.000000 1 0 0
-14.834644 5.704163 -7.580911 17.608928 -0.367088 2.015860 0.031802 -0.001284 928549.000000 1 0 0
-11.058544 13.462663 -8.371211 19.329042 -0.883128 2.018714 0.013826 -0.012321 536662.000000 1 0 0
-10.825644 13.615963 3.939589 17.835621 -0.899069 1.348076 0.002909 0.001596 -963336.000000 1 0 0
-15.245444 3.200063 3.011389 15.866077 -0.206899 1.379837 0.010477 0.006775 432934.000000 1 0 0
-11.300944 9.274363 -12.507511 19.239620 -0.687219 2.278501 0.019111 -0.008521 228864.000000 1 0 0
-13.190444 11.377663 -8.877711 19.551286 -0.711746 2.042128 0.023838 -0.028835 -453067.000000 1 0 0
-9.008944 14.595563 -3.521511 17.509785 -1.017798 1.773294 0.015148 -0.005779 1789360.000000 1 0 0
-16.769844 8.360563 -4.105511 19.182854 -0.462485 1.786485 0.043336 -0.006614 616460.000000 1 0 0
-17.002944 6.712463 0.420189 18.284797 -0.376000 1.547814 0.034337 0.003547 -56632.700000 1 0 0
-10.502944 2.751363 -12.660611 16.678516 -0.256204 2.432721 0.016390 -0.002474 22775.300000 1 0 0
-16.962544 0.885263 2.289489 17.139234 -0.052142 1.436814 0.021106 -0.000617 359690.000000 1 0 0
-12.718444 1.259363 -7.061711 14.601800 -0.098697 2.075581 0.005272 -0.001600 142343.000000 1 0 0
-12.287044 9.026563 -5.404711 16.175944 -0.633598 1.911468 0.016048 -0.004386 612668.000000 1 0 0
-9.532544 13.925863 1.246689 16.921976 -0.970535 1.497057 0.015372 -0.005870 -48700.700000 1 0 0
-12.157044 11.133663 2.683189 16.701846 -0.741487 1.409445 0.003179 -0.005448 62086.800000 1 0 0
-12.561544 6.880363 -3.559911 14.758209 -0.501100 1.814415 0.004071 -0.001051 273570.000000 1 0 0
-16.120544 3.667663 -9.263011 18.950648 -0.223707 2.081506 0.048003 -0.009104 -1695320.000000 1 0 0
-15.077744 5.913063 -4.694111 16.862305 -0.373740 1.852902 0.023177 -0.001994 2444880.000000 1 0 0
-18.177044 5.226163 7.537989 20.360230 -0.279963 1.191539 0.044819 -0.001762 -224801.000000 1 0 0
-15.905344 10.141663 -1.975411 18.966695 -0.567627 1.675137 0.041824 -0.004784 -474566.000000 1 0 0
-8.948444 9.921763 -8.396011 15.780020 -0.836932 2.131835 0.006970 -0.005066 277162.000000 1 0 0
-17.045744 4.283563 -1.388611 17.630500 -0.246200 1.649640 0.018601 0.001983 48756.600000 1 0 0
-10.283844 5.338763 -4.556711 12.450841 -0.478843 1.945478 0.002486 -0.001444 -16166.300000 1 0 0
-18.295544 2.678263 6.114589 19.475323 -0.145356 1.251429 0.035254 0.000474 -409092.000000 1 0 0
-10.379544 10.137863 -5.712111 15.592928 -0.773619 1.945855 0.004574 -0.005423 2046830.000000 1 0 0
-15.290444 0.551763 -5.874711 16.389458 -0.036070 1.937397 0.010437 -0.001698 -480260.000000 1 0 0
-16.392744 -4.149937 -8.862911 19.091758 0.247948 2.053558 0.034700 -0.019198 -1132660.000000 1 0 0
-9.984544 9.658363 -1.097711 13.934850 -0.768794 1.649653 0.000092 -0.000295 2069810.000000 1 0 0
-17.375944 -2.945237 -3.313611 17.932592 0.167905 1.756646 0.029815 -0.007931 119136.000000 1 0 0
-12.015444 5.047063 -11.586711 17.438337 -0.397669 2.297539 0.015029 -0.002162 -546077.000000 1 0 0
-16.456844 7.011063 5.957889 18.854154 -0.402740 1.249287 0.028160 -0.001280 47969.300000 1 0 0
-12.224644 5.834363 -8.804511 16.155529 -0.445293 2.147167 0.010532 -0.001708 -609008.000000 1 0 0
-14.530844 8.396863 -0.031411 16.782542 -0.523985 1.572668 0.024088 -0.000609 292487.000000 1 0 0
-14.848444 11.850663 3.762389 19.366725 -0.673586 1.375282 0.012758 -0.013517 1795330.000000 1 0 0
-17.279644 4.165163 -4.196011 18.263110 -0.236532 1.802621 0.024065 -0.005499 -775191.000000 1 0 0
-13.824544 13.611963 -0.910511 19.422476 -0.777650 1.617693 0.030565 -0.001681 -260415.000000 1 0 0
-10.177144 6.721063 -13.167311 17.947842 -0.583657 2.394464 0.009639 -0.005347 1830710.000000 1 0 0
-15.825744 -1.162837 -8.312011 17.913567 0.073346 2.053309 0.016378 -0.010983 -1102120.000000 1 0 0
-11.447344 12.034663 -0.141311 16.610080 -0.810404 1.579304 0.015500 -0.007521 1543090.000000 1 0 0
-12.005044 7.396963 -0.900911 14.129677 -0.552213 1.634600 0.001628 0.002521 2559110.000000 1 0 0
-11.534144 0.132963 -11.801311 16.502275 -0.011527 2.367610 0.007032 0.000175 1111190.000000 1 0 0
-19.140244 -1.214237 -4.924111 19.800762 0.063354 1.822117 0.037509 -0.008419 -374161.000000 1 0 0
-17.946844 1.526063 -5.212211 18.750605 -0.084828 1.852482 0.023070 -0.002766 -213421.000000 1 0 0
-13.350144 -0.076337 -9.567711 16.424776 0.005718 2.192618 0.010579 -0.003772 225859.000000 1 0 0
-6.262844 11.149963 -13.282711 18.438419 -1.059021 2.375150 0.001902 -0.005456 -731297.000000 1 0 0
16.292456 5.778263 7.174889 18.716610 0.340819 1.177383 0.035393 -0.011841 527325.000000 1 0 0
14.957256 10.202663 -5.419811 18.899423 0.598626 1.861651 0.054941 -0.011460 122751.000000 1 0 0
2.403856 16.818863 4.364589 17.541445 1.428832 1.319339 0.022505 -0.010146 2097450.000000 1 0 0
-4.053544 18.233163 -5.923711 19.595147 -1.352037 1.877906 0.020739 0.000156 2231280.000000 1 0 0
5.519456 14.549063 5.616689 16.543483 1.208201 1.224400 0.010964 -0.008082 -223413.000000 1 0 0
9.714156 6.032563 15.041589 18.894604 0.555723 0.650009 0.007455 -0.000695 -1436350.000000 1 0 0
4.655656 12.753563 -1.285911 13.637524 1.220780 1.665229 0.014974 -0.008567 1141090.000000 1 0 0
3.474856 13.631563 12.901089 19.087489 1.321199 0.828621 0.006258 -0.006286 341148.000000 1 0 0
-0.806144 12.309963 9.117389 15.339877 -1.505403 0.934328 -0.000910 -0.001836 557941.000000 1 0 0
-7.749544 13.862863 8.303489 17.921560 -1.061058 1.089054 0.009416 -0.015782 988337.000000 1 0 0
11.405956 12.979863 -4.133111 17.766690 0.849851 1.805580 0.037267 -0.007717 -208182.000000 1 0 0
-5.873544 16.047263 0.844489 17.109246 -1.219926 1.521418 0.006149 0.003466 507433.000000 1 0 0
3.226356 10.595363 6.741689 12.966166 1.275210 1.024010 -0.001385 -0.000782 2152010.000000 1 0 0
-1.290444 15.537763 2.379489 15.771788 -1.487934 1.419348 0.008636 -0.002376 -2080150.000000 1 0 0
9.946656 8.839663 9.425489 16.306914 0.726541 0.954514 0.004401 0.001920 1415620.000000 1 0 0
7.258556 12.317363 6.225989 15.593813 1.038286 1.160087 0.004932 -0.004952 -1050760.000000 1 0 0
11.919856 14.094863 -1.484511 18.518961 0.868811 1.651044 0.035241 -0.009799 1353750.000000 1 0 0
9.644756 16.080163 -1.284311 18.794744 1.030530 1.639183 0.025512 -0.009258 1638840.000000 1 0 0
10.049056 13.837963 2.948889 17.354213 0.942705 1.400044 0.009101 -0.005757 2320360.000000 1 0 0
-6.061144 14.481563 6.161989 16.864852 -1.174408 1.196761 -0.003720 -0.004541 -950874.000000 1 0 0
-1.091944 18.157363 -6.350211 19.266742 -1.510731 1.906670 0.026338 -0.001881 1696260.000000 1 0 0
-3.556144 15.667063 5.440089 16.961650 -1.347596 1.244298 -0.005768 0.000207 2099260.000000 1 0 0
7.033056 12.286363 10.585189 17.676674 1.050897 0.928766 0.003296 0.000607 3306350.000000 1 0 0
1.404456 14.575963 6.216189 15.908243 1.474739 1.169347 0.003970 -0.006043 1194540.000000 1 0 0
17.473456 7.680663 -1.415511 19.139434 0.414140 1.644822 0.018664 0.001657 451951.000000 1 0 0
1.985556 16.117363 -3.358011 16.582764 1.448220 1.774707 0.020789 -0.010030 162706.000000 1 0 0
6.774456 11.329363 0.561589 13.212233 1.031881 1.528278 0.013338 -0.002966 1293120.000000 1 0 0
12.719556 9.282763 3.258089 16.080172 0.630449 1.366768 0.020722 -0.000080 -2032910.000000 1 0 0
6.013956 14.307363 -3.552811 15.921393 1.172879 1.795838 0.017202 -0.009418 632761.000000 1 0 0
3.138256 16.403263 1.594289 16.776693 1.381762 1.475623 0.023427 -0.016833 -1093210.000000 1 0 0
2.723656 18.744463 -2.462611 19.100724 1.426502 1.700084 0.032910 -0.025521 155162.000000 1 0 0
3.907356 11.837663 10.703189 16.430336 1.251978 0.861331 0.004283 -0.003991 1992680.000000 1 0 0
7.980056 11.656363 3.413489 14.532859 0.970474 1.333700 0.003338 0.000177 598387.000000 1 0 0
0.753656 12.516463 0.134789 12.539857 1.510656 1.560047 0.007931 -0.004711 -2379710.000000 1 0 0
12.080956 10.079463 -4.632611 16.401407 0.695324 1.857146 0.025779 -0.000083 724599.000000 1 0 0
-1.322244 16.414263 9.991289 19.261417 -1.490415 1.025443 0.000109 -0.003948 580743.000000 1 0 0
8.136356 14.950863 -7.997911 18.806785 1.072412 2.010054 0.028445 -0.002841 -34142.800000 1 0 0
14.508556 7.617263 -1.264211 16.435301 0.483462 1.647793 0.015537 0.003360 1399320.000000 1 0 0
12.484256 8.379963 6.077689 16.217852 0.591164 1.186666 0.014946 0.000845 -354450.000000 1 0 0
-3.052944 14.141463 10.112189 17.651000 -1.358173 0.960761 -0.000288 -0.011387 2366950.000000 1 0 0
-4.700644 17.112263 -3.181411 18.029059 -1.302714 1.748185 0.020724 0.000028 1225190.000000 1 0 0
-7.240644 16.462763 -1.799011 18.074455 -1.156441 1.670495 0.012413 0.004918 1960930.000000 1 0 0
8.387456 11.377363 -1.805711 14.249716 0.935534 1.697857 0.015036 -0.001727 -340918.000000 1 0 0
8.607456 12.955763 -4.190511 16.109019 0.984383 1.833958 0.031958 -0.005772 2281890.000000 1 0 0
2.535256 14.806463 -7.399411 16.745452 1.401215 2.028485 0.015160 -0.007657 -1288030.000000 1 0 0
11.322256 11.394463 9.713589 18.771816 0.788577 1.026921 0.019282 -0.002269 1767710.000000 1 0 0
8.680956 15.861163 1.397989 18.135321 1.070022 1.493633 0.012128 -0.007857 1160030.000000 1 0 0
6.043956 9.954863 7.727889 13.976729 1.025146 0.984942 0.001469 0.002046 2910790.000000 1 0 0
14.425156 11.532363 2.735189 18.669809 0.674413 1.423764 0.032397 -0.003234 852034.000000 1 0 0
12.131156 12.683663 1.161389 17.589459 0.807660 1.504721 0.027503 -0.006733 3288210.000000 1 0 0
5.208256 15.840863 8.216489 18.589501 1.253144 1.112973 0.017207 -0.006788 -244144.000000 1 0 0
11.569656 15.025763 5.129189 19.645332 0.914625 1.306646 0.025861 -0.011359 -199294.000000 1 0 0
5.982856 16.864363 1.763889 17.980896 1.229884 1.472540 0.017081 -0.018568 1279190.000000 1 0 0
-0.697544 16.174863 -4.318111 16.755860 -1.527698 1.831445 0.013784 -0.001004 916463.000000 1 0 0
16.019956 6.477263 2.676989 17.486000 0.384229 1.417099 0.011141 -0.002416 -1456490.000000 1 0 0
7.633456 16.762163 -3.183811 18.691613 1.143462 1.741965 0.020711 -0.013636 -1207460.000000 1 0 0
14.839856 8.160163 7.467289 18.508647 0.502752 1.155514 0.038295 -0.009436 210339.000000 1 0 0
2.054856 12.899163 8.575089 15.625075 1.412822 0.989865 0.000605 -0.003846 1284650.000000 1 0 0
15.982456 7.431463 -5.820911 18.562019 0.435238 1.889770 0.019479 0.002689 -844978.000000 1 0 0
-3.077844 17.049363 0.655089 17.337331 -1.392194 1.533002 0.004913 0.000267 643600.000000 1 0 0
-2.968744 18.497763 4.611189 19.293619 -1.411661 1.329460 0.004513 -0.008970 1269590.000000 1 0 0
-1.090344 19.108463 0.889389 19.160199 -1.513797 1.524361 0.015062 -0.007317 -688023.000000 1 0 0
6.898856 16.881763 -6.062911 19.218403 1.182849 1.891753 0.021673 -0.007223 1444120.000000 1 0 0
11.106556 10.067363 0.772789 15.010150 0.736359 1.519289 0.008041 0.000941 -464746.000000 1 0 0
9.141456 8.669263 14.118589 18.922391 0.758893 0.728564 0.010431 -0.004185 -1000960.000000 1 0 0
6.381756 12.534463 -8.316111 16.340051 1.099866 2.104750 0.019962 -0.008861 352273.000000 1 0 0
6.425756 9.055163 13.278789 17.309320 0.953641 0.696415 0.003570 -0.005002 -1385760.000000 1 0 0
16.649056 9.503563 2.950489 19.396241 0.518685 1.418087 0.033825 -0.005819 126851.000000 1 0 0
2.563256 14.782963 -0.756511 15.022602 1.399111 1.621176 0.018533 -0.007955 1336480.000000 1 0 0
9.070756 12.909263 8.265789 17.811540 0.958291 1.088213 0.007935 -0.006386 2059420.000000 1 0 0
7.166856 9.364663 10.480889 15.776875 0.917570 0.844213 -0.002634 -0.001426 2318040.000000 1 0 0
4.293756 15.896763 -5.341211 17.311035 1.306989 1.884458 0.021139 -0.006289 1620520.000000 1 0 0
0.150356 16.263263 -8.212711 18.219905 1.561551 2.038407 0.018091 -0.006248 -709255.000000 1 0 0
-2.444644 15.697363 -1.998611 16.011806 -1.416301 1.695944 0.001843 0.000213 -68725.400000 1 0 0
13.382156 10.539663 7.779189 18.726515 0.667128 1.142402 0.032439 -0.002120 2788650.000000 1 0 0
-1.061144 15.793563 7.095589 17.346758 -1.503709 1.149390 0.002341 -0.005110 1616560.000000 1 0 0
13.370656 13.448963 6.764689 20.134797 0.788318 1.228161 0.038289 -0.010522 -642411.000000 1 0 0
5.337556 17.343463 4.524489 18.701770 1.272239 1.326444 0.021873 -0.014819 540004.000000 1 0 0
10.886756 9.596563 -1.864311 14.631854 0.722494 1.698558 0.014187 0.003193 1260320.000000 1 0 0
3.253156 12.653563 4.727389 13.894023 1.319152 1.223618 0.003846 -0.001356 3920610.000000 1 0 0
-0.248944 18.001363 3.506889 18.341464 -1.556968 1.378412 0.013083 -0.009103 2605840.000000 1 0 0
-7.784144 15.927363 -5.834311 18.663144 -1.116207 1.888737 0.026627 -0.007279 424904.000000 1 0 0
-12.448844 -9.102137 8.209689 17.470592 0.631336 1.081602 0.032247 -0.010911 -1701610.000000 1 0 0
-13.266344 -11.685337 6.828889 18.951958 0.722120 1.202179 0.045694 -0.010072 -60334.500000 1 0 0
-6.432544 -12.347137 12.379289 18.629981 1.090510 0.843996 0.026336 -0.005850 -618517.000000 1 0 0
-1.862444 -10.779737 14.356589 18.049462 1.399713 0.651125 0.008320 -0.006558 2285780.000000 1 0 0
-8.861744 2.793763 11.040889 14.430414 -0.305398 0.699580 0.013514 -0.008794 2489910.000000 1 0 0
0.512156 10.085763 15.198589 18.247795 1.520060 0.586469 -0.000035 -0.003557 843858.000000 1 0 0
0.962856 -6.800037 16.431689 17.809211 -1.430136 0.395897 0.015539 -0.017295 2123290.000000 1 0 0
5.963356 2.355563 17.848289 18.965013 0.376194 0.344878 0.005400 -0.006955 1509590.000000 1 0 0
-5.286644 -2.939537 17.644389 18.652451 0.507462 0.330268 0.024585 -0.013196 2159140.000000 1 0 0
-4.363844 8.123863 12.989489 15.930069 -1.077862 0.617365 -0.000111 -0.000126 288280.000000 1 0 0
0.006456 -4.930437 18.551589 19.195591 -1.569487 0.259764 0.027264 -0.023159 276089.000000 1 0 0
-11.703544 2.070063 11.196589 16.328555 -0.175064 0.815223 0.021856 -0.012258 1054380.000000 1 0 0
-3.488544 -6.024437 14.300489 15.904960 1.045912 0.453038 0.013746 -0.012200 1103870.000000 1 0 0
-7.540344 -2.180837 14.522089 16.507692 0.281540 0.495531 0.014737 -0.010319 935012.000000 1 0 0
-6.070044 -1.167537 10.584089 12.256896 0.190023 0.528586 0.009884 -0.008073 3106910.000000 1 0 0
-3.995244 2.449363 11.070289 12.021341 -0.549974 0.400448 0.000760 0.000319 394606.000000 1 0 0
-6.423544 6.153963 13.529989 16.192398 -0.763968 0.581615 0.001292 -0.008214 649658.000000 1 0 0
-8.982844 5.386663 12.548489 16.345403 -0.540170 0.695540 0.011288 -0.011049 -1052900.000000 1 0 0
-12.344244 -2.186537 15.710189 20.099038 0.175312 0.673507 0.010063 -0.002634 561481.000000 1 0 0
-3.559544 -7.554637 16.944889 18.891060 1.130475 0.457908 0.018685 -0.009180 -1075250.000000 1 0 0
-0.598844 -5.392037 14.262889 15.259839 1.460189 0.363471 0.006689 -0.003234 626566.000000 1 0 0
-14.331644 -2.247637 13.558889 19.856771 0.155563 0.819161 0.018726 -0.007855 -1352030.000000 1 0 0
-6.452044 1.454263 12.139789 13.824551 -0.221691 0.498852 0.009720 -0.006526 441465.000000 1 0 0
2.162356 -2.207737 14.576289 14.900271 -0.795782 0.208915 0.002460 -0.003012 63419.200000 1 0 0
-12.729744 3.991263 9.137589 16.170098 -0.303831 0.970252 0.010585 -0.005487 958572.000000 1 0 0
-9.118044 -2.992237 12.394889 15.675633 0.317093 0.658827 0.005217 -0.005343 353597.000000 1 0 0
-7.256144 -7.203637 15.123889 18.255849 0.781767 0.594478 0.023481 -0.014117 -429884.000000 1 0 0
-3.216444 5.974663 19.520189 20.665911 -1.076944 0.334545 0.020435 -0.014273 329905.000000 1 0 0
0.684156 5.495563 16.210689 17.130549 1.446941 0.329195 0.006465 -0.007564 1780580.000000 1 0 0
3.379756 1.481763 16.734489 17.136554 0.413185 0.217047 0.001138 -0.006956 1050670.000000 1 0 0
-11.762044 11.385763 7.852289 18.155983 -0.769144 1.123543 0.009002 -0.011363 -1350730.000000 1 0 0
0.605056 -9.546937 15.412389 18.139786 -1.507504 0.555483 0.000379 -0.000209 1368050.000000 1 0 0
-2.548844 -3.604637 18.713089 19.226797 0.955320 0.231681 0.027923 -0.024688 2116600.000000 1 0 0
-13.002244 2.406063 13.770789 19.091414 -0.182980 0.765107 0.026305 -0.013559 300554.000000 1 0 0
-5.487044 -0.571937 15.763589 16.701063 0.103859 0.336647 0.015430 -0.007785 1270570.000000 1 0 0
-4.423344 -6.001337 11.620189 13.806187 0.935629 0.570437 0.006115 -0.003518 602224.000000 1 0 0
2.381556 1.918963 13.968689 14.299598 0.678243 0.215550 -0.004230 -0.000089 596848.000000 1 0 0
0.035156 3.398463 14.341989 14.739180 1.560452 0.232680 0.005646 -0.005090 -150517.000000 1 0 0
-13.036044 6.990863 12.094989 19.107573 -0.492242 0.885381 0.021848 -0.010807 -88356.400000 1 0 0
0.811156 1.433863 18.214689 18.289036 1.055969 0.090198 0.012060 -0.008579 1808960.000000 1 0 0
-1.997144 6.501563 12.455289 14.191304 -1.272766 0.499817 -0.003506 0.001519 2309200.000000 1 0 0
-13.564244 -2.681237 10.781089 17.533100 0.195154 0.908538 0.026460 -0.013118 403758.000000 1 0 0
-2.546944 3.661863 13.416289 14.138351 -0.963075 0.320973 -0.000507 -0.001455 -626954.000000 1 0 0
3.600556 6.136163 16.209289 17.701908 1.040157 0.413599 0.005620 -0.005933 267006.000000 1 0 0
-3.821344 12.333363 12.217489 17.775869 -1.270339 0.813021 0.006231 -0.007435 603935.000000 1 0 0
3.651656 -1.470937 17.042489 17.491274 -0.382930 0.227016 0.009064 -0.011504 -897735.000000 1 0 0
-15.937244 0.280763 9.196789 18.402594 -0.017615 1.047480 0.025136 -0.003827 399273.000000 1 0 0
-4.617744 4.536463 15.212389 16.532387 -0.776519 0.402316 0.009174 -0.007027 -64502.300000 1 0 0
-8.055944 -8.030537 10.472189 15.461387 0.783819 0.826693 0.013746 -0.007980 3125280.000000 1 0 0
-2.694544 -0.425837 14.711489 14.962279 0.156741 0.183350 0.009784 -0.002902 2025310.000000 1 0 0
-1.999744 0.938363 17.301789 17.442230 -0.438739 0.126985 0.013445 -0.010990 2433440.000000 1 0 0
-0.716944 -2.436737 14.433589 14.655381 1.284648 0.174196 0.007502 -0.002729 -1058230.000000 1 0 0
5.160156 -8.220637 16.562189 19.196671 -1.010252 0.530086 0.020365 -0.006303 244875.000000 1 0 0
-4.509444 9.937763 10.546689 15.176523 -1.144813 0.802468 0.000537 -0.005358 -1652930.000000 1 0 0
-6.148744 2.094563 15.177489 16.509101 -0.328320 0.404395 0.013819 -0.007828 -740542.000000 1 0 0
-4.842444 6.730263 17.284089 19.169909 -0.947101 0.447282 0.008072 -0.007674 -734408.000000 1 0 0
-4.109144 9.110663 15.696989 18.608726 -1.147090 0.566977 0.004529 -0.004617 -112902.000000 1 0 0
-4.571244 -9.984937 18.306389 21.347579 1.141463 0.540329 0.033857 -0.012634 -792394.000000 1 0 0
-6.788544 -4.070637 11.099389 13.632712 0.540150 0.619493 0.005023 -0.004111 743532.000000 1 0 0
-2.404344 -0.860137 19.518089 19.684423 0.343556 0.130092 0.025464 -0.013495 -691739.000000 1 0 0
-5.821544 -4.506737 15.219289 16.906443 0.658778 0.450553 0.013636 -0.010629 2745890.000000 1 0 0
-13.042944 0.025963 9.713789 16.262741 -0.001991 0.930662 0.012095 -0.005383 2259660.000000 1 0 0
-14.333844 8.887563 10.493489 19.863563 -0.555025 1.014225 0.004558 -0.003415 -1429820.000000 1 0 0
-8.372644 10.502563 12.717989 18.497357 -0.897765 0.812677 0.013515 -0.009921 -751405.000000 1 0 0
-10.461144 7.115463 10.696389 16.567380 -0.597300 0.868949 0.016029 -0.006998 -378782.000000 1 0 0
-9.914344 -6.337137 14.709989 18.837125 0.568737 0.674684 0.021521 -0.012405 -97573.200000 1 0 0
-0.716244 -13.534237 14.274889 19.684030 1.517925 0.759469 0.006478 -0.010790 337746.000000 1 0 0
3.724856 -5.688537 16.941789 18.255361 -0.991054 0.381668 0.022247 -0.014661 388861.000000 1 0 0
-7.298844 9.264063 10.261989 15.633438 -0.903498 0.854742 0.002647 -0.007425 500176.000000 1 0 0
-10.328744 -6.680637 11.760489 17.018312 0.574123 0.807857 0.021251 -0.013971 616062.000000 1 0 0
-10.915644 -3.910637 10.573789 15.692335 0.344014 0.831432 0.012963 -0.009057 -790778.000000 1 0 0
-10.111344 -10.154737 9.807889 17.365271 0.787539 0.970607 0.026706 -0.012000 2061510.000000 1 0 0
-9.907944 -3.522637 15.109889 18.408831 0.341599 0.607994 0.016782 -0.015494 2178310.000000 1 0 0
5.466256 -3.429837 16.120389 17.364063 -0.560364 0.380776 0.009279 -0.011065 711439.000000 1 0 0
-11.347944 0.550263 15.182489 18.962768 -0.048452 0.642422 0.019569 -0.015142 -1609850.000000 1 0 0
-3.443444 3.051263 18.832389 19.386242 -0.725087 0.239610 0.028980 -0.016869 2317850.000000 1 0 0
0.551256 7.432763 13.869689 15.745416 1.496766 0.493096 0.000185 -0.004339 1180350.000000 1 0 0
-13.098744 -7.479037 11.976589 19.260108 0.518803 0.899714 0.021519 -0.018831 -258015.000000 1 0 0
-1.529344 -1.112937 12.131689 12.278249 0.629090 0.154663 0.001626 -0.001458 1076860.000000 1 0 0
1.987156 -4.840337 13.076789 14.084746 -1.181236 0.380615 0.002552 -0.005031 1915600.000000 1 0 0
-14.736844 -4.088237 8.496389 17.495053 0.270611 1.063695 0.034086 -0.016530 -1434880.000000 1 0 0
7.870856 0.795763 16.142889 17.977110 0.100760 0.455664 0.006907 -0.009550 1828810.000000 1 0 0
-1.341344 11.296863 13.306289 17.506445 -1.452614 0.707361 -0.007092 -0.001725 1503350.000000 1 0 0
2.946256 -12.215237 -13.607311 18.521646 -1.334122 2.395978 0.002545 0.004211 -1197450.000000 1 0 0
0.840456 -10.749537 -13.915411 17.603908 -1.492770 2.482377 -0.000837 0.004375 -2528280.000000 1 0 0
3.380356 -14.372437 -12.251911 19.186013 -1.339798 2.263455 0.007084 0.001444 161322.000000 1 0 0
-5.130944 -10.199537 -16.095511 19.733794 1.104707 2.524617 0.040897 -0.008301 -182993.000000 1 0 0
-1.132744 -12.205437 -15.018511 19.385858 1.478255 2.457060 0.027196 -0.004113 195473.000000 1 0 0
5.935356 -14.836737 -12.130511 20.062565 -1.190252 2.220103 0.013552 0.001613 503094.000000 1 0 0
1.973856 -11.870737 -15.987611 20.010353 -1.406025 2.496372 0.004034 -0.001064 -594111.000000 1 0 0
1.395456 -14.245637 -14.039911 20.050052 -1.473151 2.346534 0.025314 0.008141 350422.000000 1 0 0
-0.975744 -10.666937 -15.883411 19.157724 1.479577 2.548268 0.015322 -0.006111 -373272.000000 1 0 0
-5.902044 -5.517537 -15.238411 17.247797 0.751740 2.654076 0.032474 -0.000668 116779.000000 1 0 0
-6.483144 -7.632237 -16.596311 19.383491 0.866626 2.598682 0.036717 -0.001931 682751.000000 1 0 0
4.980856 -12.444537 -11.423511 17.611702 -1.190079 2.276582 -0.004938 0.004739 -746435.000000 1 0 0
-1.762444 -15.413737 -13.303411 20.436982 1.456948 2.279629 0.036834 -0.003612 -87305.000000 1 0 0
15.748756 -7.253337 -8.589511 19.349779 -0.431606 2.030751 0.031035 -0.010403 12557.300000 1 0 0
19.401556 -3.656337 -4.246711 20.194647 -0.186271 1.782667 0.046005 -0.021726 160203.000000 1 0 0
14.956956 -11.576437 -8.859811 20.885897 -0.658675 2.008875 0.044322 -0.013392 217647.000000 1 0 0
18.004556 -3.499037 -6.410811 19.429509 -0.191949 1.907049 0.061775 -0.013333 334338.000000 1 0 0
9.540256 -8.980037 -15.361211 20.189710 -0.755158 2.435408 0.039233 -0.015447 -203048.000000 1 0 0
1.134956 1.890063 -15.207311 15.366287 1.030019 2.997623 0.011555 -0.006311 -42938.000000 1 0 0
4.859356 -4.358537 -13.954611 15.405887 -0.731120 2.704054 0.007070 -0.001880 770240.000000 1 0 0
13.316456 -5.586137 -8.673811 16.845413 -0.397195 2.111695 0.039676 -0.004641 -2526420.000000 1 0 0
3.039856 0.850763 -12.088011 12.493380 0.272888 2.886157 0.007535 -0.004806 -2033260.000000 1 0 0
0.507656 6.369663 -12.918411 14.412344 1.491265 2.682249 0.007265 -0.000456 -228149.000000 1 0 0
3.152856 -1.051837 -16.779611 17.105619 -0.322003 2.946045 0.025542 -0.010122 -19948.400000 1 0 0
13.174556 4.370063 -11.248511 17.866040 0.320284 2.251838 0.001817 -0.006436 654698.000000 1 0 0
-3.855244 9.297963 -16.643811 19.450745 -1.177739 2.597679 0.009885 0.003350 -117215.000000 1 0 0
-0.368944 -5.161837 -17.709711 18.450327 1.499442 2.857295 0.014498 -0.008133 -175369.000000 1 0 0
-0.461744 -8.612437 -17.682611 19.673892 1.517234 2.687788 0.017457 -0.000193 -622103.000000 1 0 0
5.731456 -9.995437 -12.060011 16.679395 -1.050160 2.379001 -0.000172 0.000582 228838.000000 1 0 0
1.918956 -9.730537 -18.046011 20.591850 -1.376085 2.639062 0.022625 -0.005689 -363527.000000 1 0 0
11.013756 8.636963 -14.355011 20.049097 0.665031 2.368842 0.046623 -0.023128 486391.000000 1 0 0
10.936956 -3.767037 -12.815311 17.263829 -0.331706 2.407325 0.026119 -0.010505 446460.000000 1 0 0
4.805756 7.517163 -12.194911 15.110225 1.001977 2.509958 0.003447 -0.003391 -569463.000000 1 0 0
9.563456 -5.895037 -12.595811 16.877963 -0.552400 2.413263 0.016698 -0.006534 -1452280.000000 1 0 0
-3.361744 0.301263 -15.834211 16.189945 -0.089376 2.931576 0.015607 -0.003362 -2254670.000000 1 0 0
-0.848944 10.820163 -12.854511 16.823647 -1.492497 2.440401 0.010051 -0.002147 -2129830.000000 1 0 0
6.593556 -5.421637 -12.288111 14.962179 -0.688169 2.534444 0.006864 -0.001608 -226351.000000 1 0 0
17.942756 -5.937237 -8.088111 20.557501 -0.319558 1.975165 0.044414 -0.018719 -6520.250000 1 0 0
13.160456 4.829063 -13.767011 19.648106 0.351683 2.347145 0.010985 -0.011737 303430.000000 1 0 0
14.206556 0.781263 -11.516011 18.304511 0.054938 2.251236 0.016319 -0.002722 20463.100000 1 0 0
15.021056 6.295363 -11.113811 19.717518 0.396865 2.169596 0.018000 -0.005452 302537.000000 1 0 0
8.288656 1.512563 -11.763211 14.469375 0.180500 2.520036 0.004012 0.003644 861395.000000 1 0 0
9.891556 1.209263 -8.961811 13.402211 0.121648 2.303230 0.006945 0.001518 497727.000000 1 0 0
-0.108044 -5.715537 -12.974611 14.178137 1.551895 2.726587 0.003757 -0.001903 335009.000000 1 0 0
10.715556 -5.639637 -8.846911 14.996549 -0.484468 2.201768 0.022887 -0.005662 496497.000000 1 0 0
10.265956 8.457863 -11.239811 17.414323 0.689130 2.272389 0.022311 -0.009258 606351.000000 1 0 0
8.362256 8.202663 -14.619311 18.733266 0.775764 2.466091 0.031148 -0.011338 837808.000000 1 0 0
8.591356 10.562263 -10.676811 17.302228 0.887937 2.235819 0.027845 -0.011862 -1225290.000000 1 0 0
7.147656 1.770363 -17.933711 19.386624 0.242798 2.751979 0.032120 -0.007260 30196.300000 1 0 0
12.308956 2.582363 -12.841511 17.974521 0.206796 2.366603 0.016113 -0.005961 -906203.000000 1 0 0
2.762356 -0.768137 -19.381711 19.592636 -0.271221 2.994726 0.039083 -0.020766 -184807.000000 1 0 0
10.388856 -2.150337 -15.436211 18.730427 -0.204103 2.539452 0.034055 -0.014904 359851.000000 1 0 0
8.344856 -0.806837 -13.145311 15.591242 -0.096387 2.573858 0.013224 -0.004142 694878.000000 1 0 0
0.626756 4.441763 -14.580611 15.255042 1.430616 2.843130 0.007063 -0.000265 186562.000000 1 0 0
4.069556 -7.646237 -15.672311 17.906635 -1.081698 2.636694 0.006983 -0.005693 67509.600000 1 0 0
11.464456 -5.814237 -14.352511 19.267426 -0.469354 2.411197 0.037913 -0.012673 -917324.000000 1 0 0
-5.822244 4.411163 -16.735911 18.260548 -0.648373 2.730054 0.007264 0.001186 276144.000000 1 0 0
11.397056 7.862163 -8.990911 16.508876 0.603876 2.146721 0.016715 -0.003436 -1627000.000000 1 0 0
9.458156 6.206663 -13.270111 17.437753 0.580738 2.435648 0.015201 -0.004111 -189822.000000 1 0 0
12.079856 0.573963 -10.191211 15.814966 0.047478 2.271039 0.016675 0.002070 -600201.000000 1 0 0
5.518656 -7.247737 -13.600311 16.369292 -0.920019 2.551417 0.004602 -0.000597 -1203680.000000 1 0 0
8.749356 -10.197137 -10.707911 17.181159 -0.861664 2.243670 0.015390 0.000666 -38993.500000 1 0 0
10.105256 4.618263 -15.611111 19.161194 0.428673 2.523052 0.035543 -0.016477 -834262.000000 1 0 0
9.934856 -0.348537 -11.003711 14.829178 -0.035068 2.406891 0.011040 0.000214 -1208390.000000 1 0 0
-1.732344 5.472563 -13.972411 15.105570 -1.264225 2.751790 0.005672 -0.000251 1464810.000000 1 0 0
1.369056 -0.658437 -14.819211 14.896875 -0.448286 3.039436 0.012507 -0.009760 -2045940.000000 1 0 0
11.603056 -10.202937 -14.350111 21.086881 -0.721278 2.319273 0.057397 -0.012473 183714.000000 1 0 0
9.484656 -7.727737 -10.696911 16.251170 -0.683678 2.289254 0.019360 -0.003345 -386166.000000 1 0 0
14.093656 -0.992837 -9.652411 17.110988 -0.070330 2.170146 0.021101 -0.000966 928515.000000 1 0 0
3.930656 11.199963 -12.245711 17.054227 1.233273 2.371786 0.017404 -0.012529 -466069.000000 1 0 0
-1.320944 2.717363 -17.159611 17.423582 -1.118320 2.967302 0.009637 -0.001545 372406.000000 1 0 0
6.116556 -0.619037 -17.599111 18.642001 -0.100863 2.805520 0.025646 -0.008331 328296.000000 1 0 0
6.366156 -6.495137 -15.928311 18.341915 -0.795426 2.622784 0.016236 -0.006192 36989.100000 1 0 0
-1.816944 -5.016837 -19.676611 20.387226 1.223322 2.876790 0.037784 -0.023470 -529530.000000 1 0 0
-0.070944 -4.266337 -15.182811 15.770999 1.554169 2.867623 0.005634 -0.006524 -159648.000000 1 0 0
0.618756 0.867863 -12.876111 12.920150 0.951421 3.059003 0.011380 -0.008916 120841.000000 1 0 0
15.725956 0.668163 -13.536011 20.759955 0.042462 2.281049 0.032694 -0.015360 360551.000000 1 0 0
-0.241644 6.919763 -16.307011 17.716098 -1.535890 2.740060 0.002560 0.005868 -75904.300000 1 0 0
-4.896244 -0.649537 -18.369811 19.022225 0.131890 2.878932 0.017543 0.000720 182346.000000 1 0 0
10.428456 -8.288937 -13.046311 18.645788 -0.671586 2.345763 0.022728 -0.010665 -285992.000000 1 0 0
4.025356 8.500663 -17.060311 19.481247 1.128544 2.637742 0.011744 -0.014515 -668491.000000 1 0 0
9.347656 0.587863 -16.989811 19.400463 0.062806 2.637768 0.027990 -0.006833 497464.000000 1 0 0
3.516056 4.834163 -18.401211 19.347774 0.941959 2.827498 0.017518 -0.007308 -672889.000000 1 0 0
1.474256 -8.182337 -15.908311 17.949887 -1.392533 2.660009 0.002389 -0.002025 997.801000 1 0 0
4.533456 7.687863 -14.785411 17.270317 1.037992 2.598505 0.011419 -0.007407 622204.000000 1 0 0
-5.719044 -0.422137 -15.056711 16.111803 0.073679 2.777688 0.014783 -0.004196 -764404.000000 1 0 0
2.830756 3.219463 -13.669511 14.325978 0.849557 2.837692 0.009946 -0.002087 -74319.600000 1 0 0
-2.407744 -10.300237 -18.006311 20.883471 1.341163 2.610448 0.034175 -0.009996 55373.500000 1 0 0
6.357856 -9.005937 -15.469611 18.995739 -0.956080 2.522444 0.004410 -0.004133 -131017.000000 1 0 0
-1.770044 5.265563 -17.581211 18.437955 -1.246509 2.835551 0.005989 0.008502 785023.000000 1 0 0
10.114456 -12.209737 -11.674211 19.689264 -0.878981 2.205480 0.044148 0.001495 42031.100000 1 0 0
10.863856 3.628663 -9.351611 14.786589 0.322362 2.255494 0.005289 -0.000775 -1396380.000000 1 0 0
4.971256 -0.486637 -10.852311 11.946668 -0.097579 2.710229 0.004826 -0.003592 -317014.000000 1 0 0
6.256056 9.599363 -11.260611 16.065098 0.993216 2.347506 0.019658 -0.012622 -151120.000000 1 0 0
10.946756 -9.545437 -9.419211 17.310933 -0.717121 2.146135 0.035988 -0.004998 378059.000000 1 0 0
3.295056 -2.340237 -14.512911 15.065148 -0.617557 2.869995 0.012306 -0.005797 -115680.000000 1 0 0
9.227156 -4.470037 -14.656611 17.886808 -0.451125 2.531176 0.025830 -0.012416 76761.600000 1 0 0
-3.926944 -6.786837 -16.539211 18.303758 1.046252 2.698888 0.016572 -0.004151 222675.000000 1 0 0
5.918856 -7.630037 -11.079311 14.696988 -0.911030 2.424697 -0.000391 0.002263 -25616.800000 1 0 0
5.447656 6.404463 -16.855611 18.836288 0.865952 2.678887 0.018790 -0.010478 -1739580.000000 1 0 0
9.342356 1.423363 -19.406011 21.584690 0.151193 2.688423 0.052476 -0.020718 640659.000000 1 0 0
13.162756 5.887263 -9.274011 17.144250 0.420579 2.142351 0.000217 0.000302 997663.000000 1 0 0
-1.454044 -0.594537 -17.252511 17.323881 0.388143 3.050790 0.018327 -0.009932 518744.000000 1 0 0
-0.506444 -0.550637 -19.535611 19.549931 0.827181 3.103316 0.031902 -0.018664 28355.900000 1 0 0
2.917256 6.240563 -16.394811 17.783274 1.133512 2.743812 0.005567 -0.005136 -775332.000000 1 0 0
7.616856 3.793663 -15.639411 17.804481 0.462096 2.643295 0.016530 -0.005553 -11413.900000 1 0 0
3.136556 -9.928737 -14.766611 18.068498 -1.264811 2.527432 0.001916 0.000052 -247400.000000 1 0 0
9.114856 -10.563837 -13.380811 19.331875 -0.858897 2.335278 0.027087 0.000076 646315.000000 1 0 0
3.836456 0.230263 -14.808211 15.298841 0.059948 2.887653 0.016148 -0.007913 -2227840.000000 1 0 0
-1.291544 -2.806137 -18.645511 18.899671 1.139446 2.977409 0.039455 -0.016155 457196.000000 1 0 0
9.284256 10.055163 -13.089911 18.938043 0.825239 2.333940 0.032508 -0.019027 685375.000000 1 0 0
4.610356 2.054463 -10.548211 11.693629 0.419205 2.695287 0.004318 -0.000127 -260769.000000 1 0 0
-0.326444 6.930863 -18.893711 20.127487 -1.523731 2.789642 0.002410 0.004575 93230.600000 1 0 0
0.898256 -1.736637 -17.702311 17.809958 -1.093453 3.031590 0.029790 -0.013960 -1482220.000000 1 0 0
-4.516844 -2.354637 -14.134211 15.024051 0.480543 2.795697 0.020338 -0.005525 -4413940.000000 1 0 0
10.117356 6.027063 -10.311811 15.653109 0.537263 2.289980 0.009183 0.003360 279443.000000 1 0 0
8.331756 5.535763 -17.316311 19.997937 0.586444 2.617753 0.042501 -0.019703 -460250.000000 1 0 0
11.601856 0.322763 -13.766711 18.006376 0.027813 2.441134 0.020692 0.008117 763747.000000 1 0 0
6.710256 12.062163 -11.816311 18.169990 1.063124 2.278802 0.026847 -0.018881 -662828.000000 1 0 0
-0.967344 0.437163 -14.893911 14.931693 -0.424450 3.070440 0.011611 -0.006345 -132227.000000 1 0 0
-4.247044 -3.105837 -18.966011 19.682306 0.631421 2.870979 0.024185 -0.002213 -647196.000000 1 0 0
5.742356 -11.854137 -13.878011 19.133594 -1.119692 2.382298 0.000158 0.000236 -415013.000000 1 0 0
2.167156 -4.695737 -13.992011 14.917201 -1.138407 2.787549 0.005769 -0.002146 -59019.200000 1 0 0
11.953456 2.303763 -15.488311 19.699752 0.190393 2.475462 0.035365 -0.006687 218750.000000 1 0 0
9.810456 2.265563 -13.794611 17.078323 0.226955 2.511082 0.016519 -0.005680 2128800.000000 1 0 0
-2.312144 -4.267037 -16.354911 17.059799 1.074223 2.853127 0.014122 -0.007750 -1257230.000000 1 0 0
-2.955644 10.192063 -14.371311 17.864729 -1.288544 2.505548 0.010489 -0.000111 122735.000000 1 0 0
3.415156 5.688763 -13.457311 15.004151 1.030131 2.683519 0.009596 -0.003556 -392995.000000 1 0 0
-5.143344 -2.590237 -16.617211 17.586785 0.466531 2.807991 0.022164 -0.001829 624082.000000 1 0 0
-4.358744 6.189563 -13.628511 15.589921 -0.957251 2.634556 0.009041 -0.000590 136046.000000 1 0 0
5.945256 -1.107337 -14.199211 15.433401 -0.184146 2.738957 0.012979 -0.002343 -1892490.000000 1 0 0
6.826356 -2.983737 -12.748711 14.765889 -0.412067 2.612746 0.009347 -0.005684 740061.000000 1 0 0
3.041156 -3.040237 -18.353911 18.850934 -0.785247 2.911451 0.030811 -0.019454 -376600.000000 1 0 0
7.502156 -11.964437 -12.060111 18.570848 -1.010733 2.277606 0.011362 0.006249 682133.000000 1 0 0
-5.953744 -5.570337 -17.833611 19.609013 0.752140 2.712780 0.040232 0.001092 564863.000000 1 0 0
0.420756 8.722563 -12.067511 14.895804 1.522596 2.515167 0.010727 0.000125 331041.000000 1 0 0
0.443456 8.629863 -14.468311 16.852395 1.519455 2.603195 0.001713 0.003974 327002.000000 1 0 0
7.805456 -2.395637 -15.161011 17.219770 -0.297792 2.647590 0.020295 -0.009812 -1062970.000000 1 0 0
14.270256 1.562663 -8.975211 16.930344 0.109070 2.129545 0.003948 0.002997 282144.000000 1 0 0
2.703256 11.034163 -14.531811 18.445430 1.330539 2.478069 0.005245 0.001875 -788001.000000 1 0 0
6.085656 1.068463 -15.549111 16.731757 0.173799 2.763356 0.016776 -0.008136 577677.000000 1 0 0
16.739856 -5.471737 -10.260811 20.382516 -0.315921 2.098340 0.072513 -0.020144 331775.000000 1 0 0
4.896856 -4.075637 -11.236411 12.916925 -0.694126 2.625792 0.002306 -0.000479 -1617520.000000 1 0 0
8.920256 -3.668437 -17.047011 19.586449 -0.390165 2.626703 0.026179 -0.016735 427364.000000 1 0 0
13.436856 -9.520937 -8.776511 18.660775 -0.616454 2.060448 0.049096 -0.010054 236630.000000 1 0 0
2.386556 -7.800537 -13.538011 15.805751 -1.273892 2.599294 -0.000781 0.001492 137581.000000 1 0 0
-6.791344 -2.550037 -18.472311 19.845688 0.359194 2.767384 0.020956 -0.003084 -851045.000000 1 0 0
-1.379444 -6.513537 -15.635011 16.993605 1.362099 2.739011 0.009067 -0.005257 560001.000000 1 0 0
1.612656 -7.218037 -18.260011 19.700983 -1.350986 2.756751 0.021772 -0.013243 -354636.000000 1 0 0
5.250756 10.568563 -14.413611 18.628396 1.109690 2.455526 0.028676 -0.029587 -312642.000000 1 0 0
5.413856 -3.386637 -17.334311 18.473156 -0.558995 2.788626 0.024661 -0.014114 -809312.000000 1 0 0
4.395556 12.967963 -14.097311 19.652561 1.243995 2.370754 0.010311 -0.015134 -257903.000000 1 0 0
9.501956 10.241363 -15.766511 21.065506 0.822832 2.416520 0.057972 -0.024494 226746.000000 1 0 0
2.545656 3.689363 -16.252711 16.859489 0.966814 2.872489 0.012414 -0.003265 294857.000000 1 0 0
16.656656 1.706263 -11.368611 20.238598 0.102081 2.167271 0.032135 -0.010461 -304266.000000 1 0 0
10.116256 -3.651637 -10.389511 14.953763 -0.346412 2.338904 0.022424 -0.003550 -8401.790000 1 0 0
14.790856 -2.135937 -12.030911 19.185267 -0.143418 2.248610 0.050143 -0.008379 631178.000000 1 0 0
-2.521544 -8.723537 -15.968711 18.370031 1.289415 2.624541 0.020272 -0.003266 -199998.000000 1 0 0
14.005956 8.232063 -8.875311 18.512288 0.531367 2.070799 0.033714 -0.002323 -57656.400000 1 0 0
-8.261344 -0.015737 -16.707811 18.638696 0.001905 2.682386 0.012966 -0.000209 -435271.000000 1 0 0
-3.381744 3.850563 -15.912311 16.717197 -0.850131 2.830021 0.007319 0.000509 495408.000000 1 0 0
15.160956 4.071863 -9.604311 18.403192 0.262384 2.119853 0.008553 -0.000366 350484.000000 1 0 0
5.408556 1.096663 -12.966011 14.091579 0.200052 2.739195 0.007709 -0.001205 230790.000000 1 0 0
7.912256 -7.715337 -12.766211 16.885093 -0.772798 2.428075 0.015069 -0.002299 -2381770.000000 1 0 0
3.391856 -6.064137 -11.838511 13.726937 -1.060818 2.610846 0.002819 -0.000528 -1809400.000000 1 0 0
-3.326544 3.481663 -18.580611 19.194452 -0.808178 2.888010 0.016027 0.002086 207922.000000 1 0 0
0.996856 5.080563 -17.775211 18.513886 1.377048 2.858162 0.006177 -0.008208 1178700.000000 1 0 0
6.302956 7.192663 -10.233011 14.006291 0.851228 2.389998 0.004731 -0.000086 436068.000000 1 0 0
9.817156 3.733863 -11.714211 15.733437 0.363445 2.410645 0.012528 0.001434 448614.000000 1 0 0
4.558656 1.497963 -17.687311 18.326653 0.317482 2.876675 0.025077 -0.004233 -287541.000000 1 0 0
2.598256 8.131063 -13.170311 15.694656 1.261504 2.566531 0.006347 -0.003942 -1917130.000000 1 0 0
14.446756 -3.560737 -9.826111 17.830874 -0.241657 2.154446 0.043513 -0.005463 70239.000000 1 0 0
-1.288644 9.335563 -16.187911 18.731305 -1.433627 2.614388 0.005817 0.005728 -1114730.000000 1 0 0
-5.203944 2.060363 -15.699911 16.667733 -0.376987 2.799141 0.014953 -0.003265 414553.000000 1 0 0
4.443556 4.207863 -11.922811 13.401669 0.758162 2.667377 0.009229 -0.000771 256944.000000 1 0 0
9.357456 3.148663 -17.450311 20.049674 0.324586 2.626717 0.031685 -0.014298 835292.000000 1 0 0
-4.462744 14.354663 -13.300111 20.071507 -1.269377 2.295130 0.024720 -0.014390 -223120.000000 1 0 0
15.628456 -4.765537 -7.967411 18.177971 -0.295971 2.024503 0.045625 -0.012159 48803.100000 1 0 0
1.205156 9.094763 -16.868711 19.202097 1.439053 2.643474 -0.003902 0.007485 -396126.000000 1 0 0
0.502656 -3.225437 -12.801311 13.210968 -1.416199 2.891911 0.005092 -0.005043 255990.000000 1 0 0
7.583656 3.610863 -13.017811 15.492372 0.444376 2.568582 0.008348 -0.000517 297256.000000 1 0 0
-2.921444 7.606063 -15.045411 17.109980 -1.204077 2.645261 0.004563 0.003442 -38995.300000 1 0 0
12.230256 -5.195637 -10.998411 17.249315 -0.401717 2.262194 0.042595 -0.007346 -403322.000000 1 0 0
0.662656 -4.279837 -19.920911 20.386241 -1.417184 2.927522 0.036490 -0.021165 -813502.000000 1 0 0
3.361356 -4.441937 -16.179811 17.111862 -0.923001 2.810021 0.016513 -0.012171 553125.000000 1 0 0
-5.658044 4.182663 -14.304411 15.941277 -0.636580 2.684454 0.010681 0.000300 940630.000000 1 0 0
12.313656 -7.514937 -9.776411 17.426378 -0.547953 2.166404 0.033049 -0.005306 110897.000000 1 0 0
-2.142644 -1.882137 -15.070611 15.338080 0.720763 2.954568 0.014014 -0.004662 537569.000000 1 0 0
7.071056 5.899063 -14.301611 17.009846 0.695282 2.569527 0.015221 -0.002977 135543.000000 1 0 0
4.220756 -5.435737 -18.382011 19.628050 -0.910561 2.783358 0.031738 -0.017568 110075.000000 1 0 0
7.489456 7.530563 -12.313811 16.261343 0.788135 2.429880 0.010276 -0.006231 -1003360.000000 1 0 0
12.388056 -2.538137 -11.048711 16.792263 -0.202089 2.288909 0.031585 -0.002565 -322711.000000 1 0 0
7.525356 -0.733137 -10.655811 13.065787 -0.097116 2.524476 0.007408 -0.000858 -1928280.000000 1 0 0
5.318756 4.020763 -14.357711 15.830337 0.647304 2.706840 0.008799 -0.002623 1139390.000000 1 0 0
14.855656 3.010263 -12.825111 19.855369 0.199927 2.273033 0.020309 -0.014713 -832452.000000 1 0 0
-6.286144 6.874963 -16.061711 18.567694 -0.830108 2.616017 0.012427 0.014393 417326.000000 1 0 0
-11.345844 3.782863 -16.457711 20.344397 -0.321823 2.513169 0.059028 -0.017373 279628.000000 1 0 0
-4.760344 6.400063 -18.056411 19.739698 -0.931277 2.725625 0.011703 0.015920 -897819.000000 1 0 0
-10.068844 1.545363 -15.706311 18.720523 -0.152291 2.566219 0.038363 -0.005780 -829020.000000 1 0 0
-7.376844 5.956563 -18.159011 20.485315 -0.679278 2.660393 0.019954 0.005937 452711.000000 1 0 0
-8.748144 3.850963 -15.848211 18.507451 -0.414677 2.598888 0.012920 0.010873 390196.000000 1 0 0
8.986656 13.348163 -12.038011 20.095949 0.978250 2.213081 0.053958 -0.030070 -560726.000000 1 0 0
13.772356 9.258363 -11.327711 20.092589 0.591853 2.169746 0.028580 -0.008669 161429.000000 1 0 0
8.332356 16.055763 -9.149411 20.271344 1.092093 2.039071 0.039565 -0.016573 -36554.300000 1 0 0
7.377056 13.242563 -14.008811 20.640572 1.062540 2.316791 0.038041 -0.023900 -167672.000000 1 0 0
4.501756 15.851663 -12.539211 20.706831 1.294089 2.221265 0.035626 -0.027566 -35503.700000 1 0 0
11.083056 11.006163 -11.359111 19.313186 0.781917 2.199570 0.049535 -0.020116 -459825.000000 1 0 0
15.596556 10.050863 -9.537611 20.862369 0.572448 2.045605 0.055115 -0.004806 -353586.000000 1 0 0
13.159456 10.721563 -9.211511 19.312564 0.683666 2.068000 0.059538 -0.012124 -174609.000000 1 0 0
10.248056 12.146963 -8.288711 17.924121 0.869987 2.051534 0.030976 -0.002284 178728.000000 1 0 0
5.244656 16.180563 -10.188811 19.827479 1.257349 2.110490 0.029583 -0.019556 -148422.000000 1 0 0
6.681656 14.688363 -11.882511 20.039626 1.143880 2.205515 0.029952 -0.002787 -474173.000000 1 0 0
10.696456 14.136263 -9.847711 20.278696 0.923041 2.077867 0.061253 -0.011359 -565353.000000 1 0 0
8.270556 -18.610537 -1.172911 20.399263 -1.152608 1.628326 0.044798 -0.004724 -277120.000000 1 0 0
7.563156 -17.328237 -3.361511 19.203356 -1.159256 1.746751 0.039536 -0.004264 129485.000000 1 0 0
4.524756 -18.152737 5.413289 19.475600 -1.326514 1.289135 0.034680 -0.011338 -179976.000000 1 0 0
9.963456 -17.089537 -2.336511 19.919388 -1.042959 1.688365 0.046245 -0.003026 -766196.000000 1 0 0
-9.740444 -12.264237 -10.063111 18.615960 0.899593 2.141903 0.034906 -0.005073 -213821.000000 1 0 0
-5.202844 -7.017237 -12.165911 14.977336 0.932798 2.518861 0.014215 -0.000531 88234.900000 1 0 0
-10.866744 -9.536837 -5.600111 15.504794 0.720310 1.940336 0.017734 -0.005391 -949720.000000 1 0 0
-4.442244 -11.471437 -14.124211 18.730209 1.201335 2.425060 0.039043 -0.002416 -235866.000000 1 0 0
-3.100944 -15.508337 7.288289 17.413889 1.373446 1.138967 0.009546 -0.006556 252863.000000 1 0 0
-4.849044 -11.993637 -11.598711 17.375001 1.186587 2.301712 0.032221 -0.000856 624914.000000 1 0 0
-14.428644 -12.841637 -4.166411 19.759868 0.727268 1.783243 0.053258 -0.016771 19538.600000 1 0 0
-3.307644 -12.191237 -3.271611 13.048763 1.305861 1.824222 0.012746 -0.007575 966764.000000 1 0 0
-2.431644 -17.256137 -1.533711 17.493983 1.430803 1.658580 0.004794 -0.017152 -758642.000000 1 0 0
-5.874244 -12.213837 3.569789 14.015276 1.122505 1.313252 -0.001915 -0.002373 -166477.000000 1 0 0
-8.903044 -10.979637 -12.017311 18.553501 0.889463 2.275373 0.026388 0.006951 846842.000000 1 0 0
-9.653744 -11.961437 -7.523211 17.113429 0.891758 2.025959 0.033154 -0.013201 -148726.000000 1 0 0
-10.867044 -14.949737 6.141289 19.475695 0.942240 1.249991 0.039871 -0.017324 -1319840.000000 1 0 0
-9.465544 -15.730237 0.631589 18.369425 1.029097 1.536407 0.025156 -0.010961 -1594560.000000 1 0 0
-14.761344 -7.636837 -8.114611 18.495012 0.477434 2.024999 0.020032 -0.015865 -91195.800000 1 0 0
-2.404844 -16.504637 4.983689 17.407570 1.426107 1.280439 0.018901 -0.007355 747903.000000 1 0 0
4.577956 -15.650437 6.285089 17.475589 -1.286222 1.202904 0.025832 -0.009834 -441873.000000 1 0 0
4.419556 -14.598737 -9.967311 18.220947 -1.276832 2.149602 0.007327 0.001308 644688.000000 1 0 0
-7.595244 -14.088837 -0.333811 16.009200 1.076363 1.591649 0.013301 -0.005336 1478830.000000 1 0 0
3.134456 -15.066537 9.597789 18.136783 -1.365681 1.013152 0.017889 -0.006592 -134035.000000 1 0 0
2.243856 -17.426437 10.376589 20.405617 -1.442739 1.037336 0.033279 -0.008435 -396253.000000 1 0 0
-8.341744 -17.133437 -5.785811 19.915194 1.117708 1.865569 0.049862 -0.020407 -408757.000000 1 0 0
-6.428644 -9.193137 -7.764611 13.642962 0.960549 2.176243 0.019377 -0.008191 293207.000000 1 0 0
-5.947244 -13.041237 -4.798711 15.115264 1.142936 1.893861 0.009584 -0.013626 164222.000000 1 0 0
2.505256 -19.272237 -4.877711 20.037153 -1.441528 1.816700 0.023657 -0.010138 208840.000000 1 0 0
-5.539944 -12.933637 8.265389 16.318290 1.166103 1.039663 0.007839 -0.004576 1046570.000000 1 0 0
2.152156 -17.444137 3.421689 17.906358 -1.448042 1.378526 0.015028 -0.013730 -324562.000000 1 0 0
-17.619044 -9.744337 -2.787611 20.326180 0.505187 1.708374 0.048857 -0.025396 694535.000000 1 0 0
-3.442344 -15.204237 2.448589 15.780182 1.348143 1.414998 0.009653 -0.011964 -233572.000000 1 0 0
-10.183844 -10.426737 -14.259211 20.390013 0.797183 2.345247 0.033195 -0.004393 -52350.600000 1 0 0
6.264556 -14.569637 -5.536611 16.798008 -1.164721 1.906675 0.003716 -0.001554 372019.000000 1 0 0
-7.292244 -12.448237 -10.749511 17.991315 1.040879 2.211155 0.031016 -0.003775 -1599550.000000 1 0 0
-7.200744 -14.212337 4.003489 16.427695 1.101839 1.324614 0.000897 -0.002874 731501.000000 1 0 0
3.250356 -14.884437 -3.094911 15.546375 -1.355799 1.771211 0.009155 -0.005818 -1313660.000000 1 0 0
-7.578644 -11.331337 7.796389 15.704099 0.981303 1.051285 0.005353 -0.007544 -127975.000000 1 0 0
-12.863744 -12.315337 -1.069811 17.840626 0.763621 1.630797 0.033279 -0.005280 -407922.000000 1 0 0
-1.900944 -13.616437 4.021789 14.324655 1.432086 1.286211 0.007826 -0.003986 -2515460.000000 1 0 0
-3.164444 -13.962437 5.228389 15.241372 1.347922 1.220646 0.001335 -0.002945 76078.200000 1 0 0
-14.440844 -10.274337 -4.522311 18.290743 0.618388 1.820633 0.026789 -0.014532 447421.000000 1 0 0
-6.235744 -8.703437 -10.501011 14.996851 0.949103 2.346494 0.017239 -0.002772 133359.000000 1 0 0
0.915956 -19.459737 2.339689 19.621277 -1.523762 1.451269 0.036042 -0.022009 44857.700000 1 0 0
6.613356 -14.113637 -8.108811 17.569407 -1.132600 2.050516 0.014834 0.000229 -2586960.000000 1 0 0
-3.910844 -16.767737 -5.888611 18.196908 1.341657 1.900333 0.013997 -0.010843 -70279.400000 1 0 0
-3.457344 -13.607737 -13.113011 19.211320 1.321989 2.322066 0.052276 -0.007376 -1617630.000000 1 0 0
-8.070344 -14.697437 -4.583811 17.382647 1.068645 1.837653 0.024825 -0.017400 -1030850.000000 1 0 0
-4.468644 -14.441437 10.019389 18.135932 1.270709 0.985483 0.015760 -0.007679 -456344.000000 1 0 0
-0.279944 -12.278137 -9.926811 15.791536 1.548000 2.250569 0.010361 -0.000711 412241.000000 1 0 0
2.476156 -17.205437 6.639689 18.607630 -1.427861 1.205928 0.019850 -0.015637 -911215.000000 1 0 0
-2.811944 -19.105537 -3.284411 19.588669 1.424666 1.739261 0.015776 -0.024597 -969896.000000 1 0 0
0.641756 -15.344437 -3.127611 15.673084 -1.528997 1.771698 0.009001 -0.008381 292184.000000 1 0 0
6.151356 -17.934537 0.669889 18.971968 -1.240381 1.535480 0.028616 -0.007745 -114873.000000 1 0 0
-7.071244 -16.703137 3.796789 18.531403 1.170326 1.364451 0.001523 -0.004263 585720.000000 1 0 0
-5.209844 -13.575437 -9.577211 17.411431 1.204359 2.153224 0.026755 -0.005838 318422.000000 1 0 0
5.690856 -15.236837 -2.082211 16.397642 -1.213347 1.698122 0.016410 -0.001482 -937976.000000 1 0 0
-8.963844 -10.284437 -0.677811 13.659413 0.853899 1.620439 0.007411 -0.001718 589052.000000 1 0 0
-7.475244 -18.086037 -3.235411 19.835622 1.178864 1.734640 0.037069 -0.032938 -103988.000000 1 0 0
7.925856 -15.987537 -1.100711 17.878258 -1.110553 1.632402 0.023085 -0.000652 -101238.000000 1 0 0
-8.127144 -10.176937 -9.603211 16.181538 0.896919 2.206156 0.024734 -0.003479 -851066.000000 1 0 0
-9.096244 -15.042337 -6.991011 18.917923 1.026921 1.949315 0.046705 -0.020957 -69175.500000 1 0 0
-11.549144 -10.565037 -12.046911 19.751729 0.740926 2.226752 0.037678 0.005656 -418529.000000 1 0 0
6.542056 -16.199437 2.545789 17.655065 -1.186980 1.426096 0.028602 -0.009206 351315.000000 1 0 0
-2.109244 -11.334037 -6.074711 13.031171 1.386803 2.055750 0.014940 -0.005475 -606668.000000 1 0 0
-12.408144 -15.329537 -3.328911 20.000960 0.890334 1.738012 0.047687 -0.021357 -98073.100000 1 0 0
-0.179544 -19.386037 -2.759911 19.582334 1.561535 1.712206 0.017906 -0.027384 548103.000000 1 0 0
-5.791644 -15.574637 -4.742511 17.280158 1.214778 1.848812 0.014385 -0.017206 -2680830.000000 1 0 0
1.962356 -15.971137 -1.059611 16.126092 -1.448540 1.636552 0.019016 -0.008137 1492840.000000 1 0 0
-13.315244 -11.949637 5.252989 18.646271 0.731399 1.285212 0.042186 -0.008115 345895.000000 1 0 0
2.266056 -15.312037 -8.805811 17.808307 -1.423871 2.088030 0.008531 0.006619 -682975.000000 1 0 0
-11.753044 -16.799737 -0.002411 20.502810 0.960341 1.570914 0.060044 -0.023312 641061.000000 1 0 0
-7.681244 -16.693737 -1.044411 18.405792 1.139553 1.627570 0.029310 -0.016990 260177.000000 1 0 0
-2.953144 -14.468237 -1.873311 14.884900 1.369450 1.696984 0.009498 -0.010344 601073.000000 1 0 0
-1.759944 -10.484737 -13.213011 16.959091 1.404489 2.464042 0.019757 -0.000086 -515833.000000 1 0 0
1.449356 -19.554437 4.845789 20.197978 -1.496813 1.328518 0.037887 -0.023004 -18022.300000 1 0 0
-17.419044 -9.417637 2.344689 19.940224 0.495638 1.452938 0.045411 -0.017853 -652119.000000 1 0 0
-2.524344 -15.936337 -8.065811 18.038749 1.413700 2.034359 0.010077 0.003105 -979416.000000 1 0 0
-10.598144 -12.134037 0.289289 16.113324 0.852860 1.552842 0.016715 -0.001749 729864.000000 1 0 0
-6.776444 -11.526237 -6.664011 14.939323 1.039311 2.033168 0.018177 -0.007388 476271.000000 1 0 0
-2.180744 -13.722237 -6.809211 15.473228 1.413194 2.026466 0.009513 -0.002738 538243.000000 1 0 0
-14.596744 -14.412737 -1.162711 20.546139 0.779055 1.627417 0.066831 -0.012664 465889.000000 1 0 0
-9.513444 -11.327037 -4.359211 15.421093 0.872202 1.857382 0.020977 -0.011003 1502090.000000 1 0 0
9.673356 -15.095837 -5.053111 18.627723 -1.000918 1.845507 0.036681 -0.001961 301402.000000 1 0 0
-5.640644 -10.953237 -9.443811 15.523396 1.095241 2.224789 0.022770 -0.004155 -277795.000000 1 0 0
-10.381944 -15.936637 -4.880111 19.636106 0.993402 1.821956 0.058713 -0.025170 -901239.000000 1 0 0
2.295656 -17.279737 -3.255011 17.732864 -1.438717 1.755401 0.017813 -0.007796 283598.000000 1 0 0
-0.139444 -14.585337 -8.150011 16.708507 1.561236 2.080337 0.012527 0.002832 -668551.000000 1 0 0
-0.466044 -18.324037 -7.021211 19.628677 1.545368 1.936602 0.009126 -0.004291 116979.000000 1 0 0
-1.625844 -9.991637 -10.589411 14.649635 1.409490 2.378707 0.010943 -0.000465 223138.000000 1 0 0
-5.058444 -17.152037 2.025989 17.996802 1.284008 1.457982 0.008552 -0.014400 -1317290.000000 1 0 0
0.282756 -12.750137 -2.722011 13.040525 -1.548623 1.781077 0.010629 -0.006656 -2020460.000000 1 0 0
2.659256 -14.976937 3.067889 15.517482 -1.395071 1.371780 0.018051 -0.006691 -877388.000000 1 0 0
-9.374044 -12.989237 6.775189 17.392417 0.945669 1.170655 0.012746 -0.005677 -943377.000000 1 0 0
-0.920044 -17.769337 -4.472111 18.346542 1.519065 1.817035 0.002715 -0.011544 142112.000000 1 0 0
-9.849344 -17.498937 -2.221311 20.202886 1.058138 1.680969 0.056840 -0.032729 139138.000000 1 0 0
1.335756 -16.197337 1.418889 16.314142 -1.488515 1.483713 0.019953 -0.015330 -59672.600000 1 0 0
-0.370544 -17.951137 4.026089 18.400816 1.550157 1.350212 0.030426 -0.021107 -754441.000000 1 0 0
-17.347244 -9.271637 -0.271211 19.671392 0.490844 1.584584 0.019692 -0.012533 549866.000000 1 0 0
-14.666844 -7.227837 -10.717311 19.550414 0.457872 2.150993 0.035987 -0.016854 439773.000000 1 0 0
2.948256 -12.708237 -8.884111 15.783502 -1.342833 2.168654 -0.003172 0.002227 605007.000000 1 0 0
-11.700744 -14.860637 1.705189 18.990882 0.903807 1.480885 0.035560 -0.006986 5613.660000 1 0 0
-2.293944 -15.632837 10.568889 19.009187 1.425097 0.981245 0.018475 -0.006005 -42664.400000 1 0 0
-7.036544 -15.803537 1.294689 17.347650 1.151899 1.496095 0.012377 -0.010852 -1550940.000000 1 0 0
-12.588144 -15.064037 -5.848411 20.483908 0.874697 1.860337 0.056158 -0.019651 323933.000000 1 0 0
0.934656 -13.738037 -5.133511 14.695584 -1.502867 1.927645 0.006234 -0.002797 681176.000000 1 0 0
6.052756 -16.405737 -7.408311 18.991239 -1.217348 1.971527 0.026931 -0.007776 149304.000000 1 0 0
-6.531844 -12.848037 5.903189 15.575130 1.100457 1.182066 0.003536 -0.003027 132489.000000 1 0 0
-2.476944 -13.522137 0.398489 13.752899 1.389628 1.541817 0.011255 -0.009920 738103.000000 1 0 0
-4.282044 -15.425337 0.083989 16.008872 1.300016 1.565550 0.007275 -0.013673 -41374.900000 1 0 0
-17.549844 -7.323837 -2.061811 19.128164 0.395345 1.678795 0.013447 -0.011829 643336.000000 1 0 0
1.293656 -12.808437 -11.788611 17.455686 -1.470137 2.312229 0.007563 0.002635 -1039300.000000 1 0 0
1.353356 -17.060737 -5.707111 18.040827 -1.491636 1.892670 0.015741 -0.004084 347444.000000 1 0 0
-12.738744 -6.411437 -9.142611 16.940173 0.466286 2.140877 0.021824 -0.004788 959799.000000 1 0 0
-11.406144 -13.527637 -8.687911 19.712354 0.870279 2.027213 0.041025 -0.015472 251845.000000 1 0 0
-4.383444 -9.918037 3.514789 11.398938 1.154643 1.257345 0.004618 -0.003904 -4634240.000000 1 0 0
-7.081644 -14.211837 9.726189 18.620546 1.108516 1.021208 0.021491 -0.009643 -937710.000000 1 0 0
-5.104644 -16.013237 -8.180211 18.692164 1.262204 2.023755 0.020559 -0.006698 -1879750.000000 1 0 0
-0.352844 -13.358037 2.104889 13.527462 1.544388 1.414560 0.014704 -0.009311 824361.000000 1 0 0
-11.015344 -13.441037 -4.637811 17.986344 0.884259 1.831594 0.046475 -0.015652 -710123.000000 1 0 0
-9.744044 -10.475937 6.635889 15.771071 0.821579 1.136510 0.018870 -0.006293 -439864.000000 1 0 0
-15.519644 -8.133637 -4.995911 18.220168 0.482731 1.848551 0.035311 -0.017680 -704440.000000 1 0 0
-14.579644 -7.375037 5.346789 17.191432 0.468313 1.254536 0.027001 -0.011386 1356430.000000 1 0 0
-1.666244 -19.282537 -0.000711 19.354395 1.484598 1.570833 0.025317 -0.021278 -656565.000000 1 0 0
-15.475144 -12.139837 -1.401411 19.718511 0.665201 1.641927 0.041578 -0.007053 474294.000000 1 0 0
-4.318744 -12.197637 -6.773111 14.605100 1.230506 2.053019 0.011185 -0.006618 -1226200.000000 1 0 0
-7.294944 -18.359837 1.813389 19.839058 1.192592 1.479264 0.016396 -0.012495 -45447.900000 1 0 0
-2.461644 -11.705237 -8.633511 14.751603 1.363514 2.195996 0.013825 -0.001635 588789.000000 1 0 0
-1.116544 -20.377837 -4.934511 20.996484 1.516059 1.808031 0.010429 -0.006204 -63287.000000 1 0 0
-5.244744 -9.025537 -13.722511 17.241664 1.044390 2.491277 0.025644 -0.002725 616219.000000 1 0 0
-8.248044 -19.140937 -0.963411 20.864656 1.163930 1.616987 0.031526 -0.013420 -136075.000000 1 0 0
-17.287344 -7.339537 5.458189 19.557936 0.401499 1.287963 0.066108 -0.022874 850143.000000 1 0 0
-3.546044 -14.600437 -4.364311 15.645907 1.332537 1.853489 0.009405 -0.012133 -3124510.000000 1 0 0
-2.898544 -14.886937 -10.896311 18.674904 1.378498 2.193795 0.026721 -0.005007 -412181.000000 1 0 0
-0.112644 -16.658637 6.231389 17.786318 1.564035 1.212854 0.028748 -0.015807 -450746.000000 1 0 0
-11.178944 -11.624537 3.697689 16.546043 0.804936 1.345414 0.022446 -0.003500 1116750.000000 1 0 0
-0.134044 -14.575837 -0.154011 14.577267 1.561600 1.581362 0.011590 -0.010619 737484.000000 1 0 0
-7.241744 -9.479637 -2.408311 12.169895 0.918442 1.770002 0.011881 -0.003550 155254.000000 1 0 0
-11.204044 -14.423837 -0.862011 18.284440 0.910380 1.617958 0.037788 -0.018695 331534.000000 1 0 0
0.420956 -14.711937 -10.592511 18.133383 -1.542191 2.194622 0.011971 0.001589 194933.000000 1 0 0
-1.389444 -13.953337 -3.986711 14.578067 1.471546 1.847798 0.008370 -0.008636 -3902450.000000 1 0 0
-11.229744 -8.090437 -7.654711 15.816350 0.624318 2.075987 0.015988 -0.006736 388066.000000 1 0 0
-0.242944 -17.177137 -0.253511 17.180726 1.556654 1.585552 0.017421 -0.018384 -1815990.000000 1 0 0
-12.900144 -9.573837 4.404989 16.657611 0.638458 1.303170 0.021891 -0.007358 583969.000000 1 0 0
4.006656 -16.874037 1.635189 17.420111 -1.337669 1.476790 0.021001 -0.009403 938594.000000 1 0 0
-3.827844 -18.125037 -8.126311 20.228848 1.362664 1.984189 0.030954 -0.010214 -86964.600000 1 0 0
-13.464244 -11.495437 2.656189 17.902130 0.706682 1.421874 0.019644 -0.003382 -773075.000000 1 0 0
-8.553844 -12.058537 4.192789 15.367369 0.953816 1.294456 0.008009 -0.004742 1020580.000000 1 0 0
-8.249144 -9.543137 -5.896011 13.924180 0.857998 2.008032 0.017520 -0.009669 701489.000000 1 0 0
3.920356 -17.194737 -5.259911 18.403664 -1.346631 1.860646 0.005845 -0.003840 -259924.000000 1 0 0
-2.590644 -13.229537 11.357489 17.627383 1.377421 0.870676 0.005264 -0.002756 128737.000000 1 0 0
0.282656 -16.856037 -9.408811 19.306258 -1.554029 2.079843 0.018466 0.001381 -271357.000000 1 0 0
-7.048144 -10.749437 -14.472011 19.356287 0.990442 2.415335 0.041537 0.004629 1000080.000000 1 0 0
-4.558644 -18.719137 -1.462411 19.321645 1.331918 1.646556 0.025724 -0.027453 -1473370.000000 1 0 0
-2.530444 -17.087837 1.052589 17.306221 1.423780 1.509937 0.017340 -0.020699 281386.000000 1 0 0
4.216456 -14.538837 -7.326311 16.817584 -1.288527 2.021539 0.002817 -0.001761 719423.000000 1 0 0
-0.947844 -15.890837 -6.107411 17.050442 1.511220 1.937132 0.005938 -0.004118 -378008.000000 1 0 0
-9.418244 -15.185237 8.298889 19.701936 1.015639 1.136004 0.019842 -0.004276 -419506.000000 1 0 0
-7.286244 -12.101637 -1.882111 14.250660 1.028843 1.703255 0.010765 -0.006727 1115510.000000 1 0 0
-7.170244 -15.244437 -9.270211 19.228678 1.131148 2.073850 0.036409 -0.008439 -296699.000000 1 0 0
-5.009644 -13.094337 -0.715211 14.038152 1.205396 1.621766 0.009803 -0.007302 3129040.000000 1 0 0
-6.173944 -13.934937 -7.205211 16.858681 1.153733 2.012399 0.015373 -0.009326 211062.000000 1 0 0
5.699756 -15.361037 0.295989 16.387077 -1.215491 1.552733 0.016263 -0.001614 484492.000000 1 0 0
-14.665044 -12.822237 0.879289 19.499908 0.718456 1.525689 0.034807 -0.004562 1196250.000000 1 0 0
0.954156 -15.288037 10.926489 18.815490 -1.508465 0.951186 0.019589 -0.011699 -468164.000000 1 0 0
-9.300444 -10.723637 1.913689 14.323298 0.856353 1.436789 0.008130 -0.000940 32014.500000 1 0 0
-9.466944 -8.920737 -3.496811 13.469605 0.755702 1.833412 0.015501 -0.006241 -789232.000000 1 0 0
-12.210544 -7.453937 -12.364011 18.908393 0.548069 2.283511 0.030015 -0.005147 -384975.000000 1 0 0
-13.214844 -8.357037 -0.663611 15.649682 0.563901 1.613213 0.006488 -0.005932 -1532830.000000 1 0 0
-11.267544 -9.617037 0.406489 14.819250 0.706532 1.543363 0.003726 0.000401 774468.000000 1 0 0
-15.957144 -12.077237 2.989389 20.234291 0.647874 1.422515 0.051252 -0.011392 351093.000000 1 0 0
-10.555044 -12.455237 -2.291311 16.486115 0.867791 1.710232 0.032694 -0.013825 531641.000000 1 0 0
-3.299744 -8.801637 -11.951111 15.204808 1.212112 2.475122 0.014237 -0.001886 -744103.000000 1 0 0
-0.202444 -15.519937 3.853489 15.992461 1.557753 1.327445 0.021832 -0.010321 -897256.000000 1 0 0
-15.749544 -7.820737 1.139489 17.621308 0.460899 1.506086 0.016173 -0.008685 627255.000000 1 0 0
-6.043844 -13.422237 -13.406411 19.910207 1.147705 2.309518 0.038441 -0.000718 12095.300000 1 0 0
-15.278244 -10.351837 1.056889 18.485191 0.595502 1.513590 0.023346 -0.007374 788936.000000 1 0 0
-9.897944 -8.610937 -12.482911 18.109130 0.715975 2.331341 0.022299 -0.001928 348363.000000 1 0 0
-13.381444 -11.788437 -6.301211 18.913898 0.722192 1.910441 0.043942 -0.009528 105259.000000 1 0 0
-12.214244 -11.367937 -3.910011 17.137851 0.749526 1.800974 0.025681 -0.009893 -1882290.000000 1 0 0
-11.708044 -10.930737 -8.856711 18.303023 0.751076 2.075895 0.033550 -0.019697 645241.000000 1 0 0
-13.136744 -8.535437 -5.944411 16.756006 0.576191 1.933457 0.014204 -0.011398 -1743690.000000 1 0 0
-13.485044 -8.124337 -3.336311 16.092925 0.542234 1.779626 0.014105 -0.011595 71483.000000 1 0 0
-4.316444 -16.967837 -3.300311 17.816600 1.321690 1.757110 0.015236 -0.021336 338265.000000 1 0 0
-15.367244 -8.879037 -1.824711 17.841498 0.523928 1.673249 0.029547 -0.011937 -2117230.000000 1 0 0
-9.438644 -15.527737 3.570189 18.518771 1.024620 1.376794 0.013104 -0.011899 -190049.000000 1 0 0
4.662956 -17.549537 8.011389 19.847211 -1.311094 1.155290 0.031870 -0.014495 334281.000000 1 0 0
-8.355744 -15.460237 5.962189 18.557615 1.075302 1.243716 0.003420 0.002478 158565.000000 1 0 0
0.949556 -16.118837 8.519689 18.256606 -1.511955 1.085282 0.013980 -0.007768 246748.000000 1 0 0
-10.835144 -7.850337 -10.239411 16.848551 0.626997 2.223998 0.021013 -0.003712 1008500.000000 1 0 0
-4.962444 -16.007837 5.595889 17.668918 1.270190 1.248539 0.007112 -0.008615 -284896.000000 1 0 0
-1.268244 -13.273337 -12.064811 17.981924 1.475537 2.306273 0.020517 -0.002030 -1890990.000000 1 0 0
-6.420944 -14.325437 -2.592311 15.911214 1.149424 1.734449 0.015964 -0.014560 430942.000000 1 0 0
-17.612844 -6.997137 -7.080711 20.231378 0.378155 1.928353 0.045359 -0.022390 -73030.700000 1 0 0
-17.263144 -4.069237 -10.197811 20.458988 0.231492 2.092608 0.054325 -0.020837 791522.000000 1 0 0
-15.267844 -5.313737 -9.000911 18.502953 0.334923 2.078828 0.025182 -0.018473 690737.000000 1 0 0
-16.149944 -5.399737 -5.677711 17.950327 0.322665 1.892624 0.032003 -0.011486 -328607.000000 1 0 0
-15.203644 -4.534137 -12.349811 20.105398 0.289829 2.232236 0.045511 -0.012784 -769487.000000 1 0 0
-18.768644 -5.141237 -5.534011 20.231648 0.267368 1.847860 0.045221 -0.018002 -386964.000000 1 0 0
-17.433344 -4.494537 -7.707511 19.583872 0.252318 1.975302 0.037806 -0.017269 795163.000000 1 0 0
12.382756 -7.885937 8.776289 17.103915 -0.567074 1.031985 0.021378 -0.016479 332133.000000 1 0 0
16.089856 -3.373737 1.971589 16.557559 -0.206687 1.451438 0.022508 -0.001972 587035.000000 1 0 0
11.899156 -2.414737 12.667289 17.546541 -0.200215 0.764216 0.019972 -0.008495 344836.000000 1 0 0
9.901656 -10.090837 5.295789 15.096794 -0.794860 1.212383 0.010761 -0.006642 331649.000000 1 0 0
16.797656 -1.778737 7.411089 18.445851 -0.105499 1.157342 0.034797 -0.015486 -439019.000000 1 0 0
5.085856 -12.851937 9.232089 16.621363 -1.193979 0.981910 0.011862 -0.003924 -38751.700000 1 0 0
15.266356 -8.995537 -2.109511 17.844645 -0.532470 1.689289 0.031481 -0.006937 833656.000000 1 0 0
11.111656 -8.566237 6.553589 15.485440 -0.656758 1.133811 0.020507 -0.013732 -3754610.000000 1 0 0
19.906656 -3.364937 4.063989 20.594023 -0.167453 1.372154 0.057232 -0.006283 131272.000000 1 0 0
13.603856 -8.547537 6.824289 17.455550 -0.560981 1.169130 0.025766 -0.010173 -1308550.000000 1 0 0
8.346056 -11.020037 8.792389 16.383039 -0.922606 1.004303 0.008857 -0.007427 -367840.000000 1 0 0
17.034156 0.056763 -0.807911 17.053399 0.003332 1.618189 0.018759 0.006478 -875500.000000 1 0 0
12.533256 -12.338037 2.426189 17.753762 -0.777549 1.433710 0.030151 -0.006406 -326467.000000 1 0 0
10.433556 -11.777737 3.775989 16.181233 -0.845842 1.335269 0.021138 -0.003799 -805533.000000 1 0 0
16.317256 2.993863 2.464389 16.771681 0.181460 1.423325 0.015899 0.001921 -784603.000000 1 0 0
18.397056 -3.188937 0.628389 18.681967 -0.171634 1.537154 0.028883 -0.002920 571277.000000 1 0 0
13.710656 -11.643037 -0.061111 17.987389 -0.704027 1.574194 0.037299 -0.004436 -110441.000000 1 0 0
17.057356 -7.542137 -0.796011 18.667375 -0.416318 1.613451 0.041991 -0.006514 -23963.000000 1 0 0
10.167756 -5.838837 9.797989 15.279917 -0.521271 0.874692 0.010933 -0.011506 -1810360.000000 1 0 0
11.452956 -13.307837 6.037689 18.566702 -0.860171 1.239585 0.038785 -0.009533 -324240.000000 1 0 0
13.023056 -1.692237 10.482689 16.803286 -0.129218 0.897140 0.024176 -0.009288 131108.000000 1 0 0
15.717756 -1.906737 -1.399711 15.894738 -0.120721 1.658972 0.014868 0.004012 368229.000000 1 0 0
10.639256 -12.375537 8.993389 18.634075 -0.860697 1.067140 0.031362 -0.020303 235116.000000 1 0 0
14.525456 1.249163 3.553489 15.005885 0.085787 1.331719 0.010625 0.001585 1208710.000000 1 0 0
15.113956 -5.721537 5.434189 17.049870 -0.361888 1.246414 0.029324 -0.007488 -868255.000000 1 0 0
14.439956 -3.281237 -3.050711 15.119051 -0.223439 1.773971 0.015372 -0.000772 1022260.000000 1 0 0
14.027756 0.603963 9.592589 17.004719 0.043028 0.971437 0.031636 -0.012076 403067.000000 1 0 0
15.381256 -3.346037 4.537889 16.382047 -0.214203 1.290122 0.022163 -0.001088 -685351.000000 1 0 0
18.424156 4.621363 -4.089711 19.430190 0.245761 1.782865 -0.003930 -0.005087 293472.000000 1 0 0
18.269056 -5.795437 -5.211411 19.862133 -0.307185 1.836283 0.057269 -0.017781 516313.000000 1 0 0
17.323356 0.120163 5.925089 18.309009 0.006936 1.241248 0.044000 -0.004082 597759.000000 1 0 0
17.135156 -6.615437 4.157189 18.832414 -0.368444 1.348217 0.038993 -0.009966 228939.000000 1 0 0
9.827956 -6.534637 14.277089 18.523646 -0.586781 0.690780 0.020382 -0.010285 -289842.000000 1 0 0
8.607556 -12.245837 5.410289 15.916086 -0.958129 1.223958 0.014543 -0.007388 -2075210.000000 1 0 0
17.021856 -10.151037 -0.544711 19.826343 -0.537734 1.598274 0.055981 -0.006660 -390977.000000 1 0 0
15.090556 -8.754837 0.404889 17.450960 -0.525699 1.547593 0.040002 -0.008126 294246.000000 1 0 0
10.090256 -12.956637 1.597489 16.499688 -0.909134 1.473825 0.024710 -0.005805 217004.000000 1 0 0
16.621356 -8.234737 9.100889 20.661717 -0.459986 1.114673 0.040433 -0.017615 708346.000000 1 0 0
19.143456 0.045963 -2.282511 19.279105 0.002401 1.689468 0.038205 0.005419 765.481000 1 0 0
13.291756 -1.261637 7.919589 15.523608 -0.094635 1.035421 0.010355 -0.011476 -97062.700000 1 0 0
12.798556 -9.713637 -3.063011 16.356645 -0.649213 1.759172 0.021969 -0.006394 -1211840.000000 1 0 0
8.848256 -15.208937 1.593489 17.667558 -1.043882 1.480481 0.031157 -0.000373 470130.000000 1 0 0
11.553056 -8.361937 11.188589 18.126766 -0.626512 0.905565 0.018569 -0.015702 -182726.000000 1 0 0
14.082856 -3.926437 -0.552911 14.630429 -0.271905 1.608597 0.011917 -0.000630 -577602.000000 1 0 0
7.206456 -13.334937 10.601789 18.497337 -1.075339 0.960449 0.018189 -0.002534 -223459.000000 1 0 0
15.587156 -6.760437 1.965589 17.103406 -0.409232 1.455618 0.029548 -0.005930 588671.000000 1 0 0
15.975056 -6.025137 -2.579511 17.267269 -0.360662 1.720745 0.039286 -0.006464 -197667.000000 1 0 0
11.326856 -8.525637 3.890889 14.701129 -0.645222 1.302939 0.018611 -0.007625 661014.000000 1 0 0
10.765156 -14.577337 -0.251611 18.123208 -0.934705 1.584680 0.040528 -0.006058 543234.000000 1 0 0
13.613756 -12.825337 4.730589 19.292540 -0.755587 1.323067 0.036179 -0.003434 434471.000000 1 0 0
12.832656 -11.059437 6.600089 18.181018 -0.711316 1.199288 0.025560 -0.010848 149941.000000 1 0 0
10.910556 -10.538337 1.531589 15.246067 -0.768046 1.470169 0.015958 -0.006547 748092.000000 1 0 0
13.949356 -7.593437 11.868189 19.826718 -0.498501 0.929049 0.028456 -0.026691 795009.000000 1 0 0
15.517156 -1.858737 -4.992711 16.406225 -0.119218 1.880019 0.027919 -0.004308 -174082.000000 1 0 0
13.011656 -11.416237 -6.971411 18.661036 -0.720179 1.953663 0.043934 -0.007136 441499.000000 1 0 0
17.883356 -5.318837 2.001389 18.764595 -0.289087 1.463935 0.044787 -0.004468 906436.000000 1 0 0
10.695456 -9.806637 9.120989 17.139293 -0.742073 1.009637 0.012366 -0.010913 -802240.000000 1 0 0
16.372456 1.759563 9.950189 19.239533 0.107060 1.027250 0.051592 -0.013317 -276020.000000 1 0 0
18.138556 3.489963 0.701589 18.484569 0.190083 1.532832 0.006209 0.003306 465868.000000 1 0 0
13.310456 -4.034637 5.897689 15.107259 -0.294315 1.169744 0.016646 -0.011207 -1355250.000000 1 0 0
12.111756 -6.262837 6.639589 15.165814 -0.477224 1.117646 0.017874 -0.013936 -62332.300000 1 0 0
16.604256 -10.081637 3.648489 19.764924 -0.545676 1.385137 0.024978 -0.005138 827015.000000 1 0 0
16.250956 -8.054037 -5.316611 18.900462 -0.460125 1.855940 0.044994 -0.016797 -976545.000000 1 0 0
14.031056 -0.463637 5.530189 15.088688 -0.033032 1.195539 0.014663 -0.001720 940151.000000 1 0 0
18.122956 -4.150937 5.707989 19.448727 -0.225159 1.272922 0.037282 0.001653 -174300.000000 1 0 0
13.757656 -13.456737 7.212089 20.551669 -0.774341 1.212238 0.054552 -0.010512 -119185.000000 1 0 0
15.311656 -13.415537 -1.004911 20.382181 -0.719489 1.620120 0.053354 -0.009299 -117115.000000 1 0 0
17.818256 -6.061437 8.349289 20.589850 -0.327901 1.153265 0.054326 -0.005844 17898.000000 1 0 0
14.300956 3.292063 9.324489 17.386809 0.226257 1.004753 0.028064 -0.009002 44659.800000 1 0 0
18.764756 3.903063 3.197989 19.431344 0.205076 1.405465 0.037171 -0.001026 1186060.000000 1 0 0
14.840256 -10.594137 8.200889 19.993087 -0.619980 1.148138 0.032888 -0.019366 -229747.000000 1 0 0
14.824556 -4.754837 10.499189 18.777884 -0.310375 0.977466 0.038282 -0.021479 237570.000000 1 0 0
17.931356 -7.872737 1.998589 19.685220 -0.413710 1.469094 0.061543 -0.009810 -89599.400000 1 0 0
18.511856 -5.685337 -1.767111 19.445683 -0.297975 1.661796 0.041584 -0.010944 -1386770.000000 1 0 0
14.394156 -12.907437 -5.352511 20.060983 -0.730996 1.840880 0.052097 -0.012898 -1748320.000000 1 0 0
15.411456 -1.503537 9.547889 18.191641 -0.097252 1.018257 0.048656 -0.015650 715229.000000 1 0 0
13.041156 -10.136737 10.190389 19.407968 -0.660738 1.018008 0.018067 -0.022320 -1743990.000000 1 0 0
16.562856 2.251363 4.966489 17.437398 0.135100 1.281980 0.029562 -0.002242 -1448350.000000 1 0 0
15.071656 2.493263 0.044789 15.276557 0.163943 1.567864 0.007073 0.006561 -1241740.000000 1 0 0
15.138556 -9.810637 -6.924111 19.322728 -0.575008 1.937286 0.048276 -0.011733 424130.000000 1 0 0
16.171756 -0.038937 -3.293411 16.503750 -0.002408 1.771700 0.013449 0.004648 3598.670000 1 0 0
11.866356 2.571663 13.622489 18.248180 0.213418 0.727992 0.023309 -0.005283 -118403.000000 1 0 0
17.620556 -3.040337 9.653289 20.320277 -0.170863 1.075768 0.047301 -0.016941 586665.000000 1 0 0
7.539156 -18.233837 4.580589 20.255703 -1.178732 1.342685 0.046456 -0.018541 -670300.000000 1 0 0
6.719956 -11.114037 6.641489 14.587289 -1.026974 1.098095 0.008875 -0.006568 359934.000000 1 0 0
18.146456 2.296563 -1.612111 18.362107 0.125888 1.658705 0.024084 0.005129 591731.000000 1 0 0
17.587156 -2.255737 3.894789 18.153947 -0.127564 1.354573 0.030427 0.001135 -1820860.000000 1 0 0
12.730256 -13.469837 -1.662311 18.608042 -0.813619 1.660249 0.038234 -0.007135 863289.000000 1 0 0
15.035456 -8.127937 4.476389 17.668231 -0.495586 1.314646 0.022563 -0.005493 -232022.000000 1 0 0
11.546256 -3.197837 15.078189 19.258608 -0.270186 0.671431 0.024867 -0.011002 195606.000000 1 0 0
12.142756 -13.751937 -6.367511 19.419256 -0.847462 1.904873 0.040167 -0.009530 -70016.000000 1 0 0
10.755656 -12.049437 -1.081111 16.187708 -0.842070 1.637632 0.024131 -0.007617 -557907.000000 1 0 0
13.261756 -8.014737 2.068889 15.632994 -0.543612 1.438066 0.015848 -0.000016 -146322.000000 1 0 0
8.738656 -7.923237 10.088489 15.521579 -0.736498 0.863257 0.006054 -0.009410 -885354.000000 1 0 0
15.518656 -3.798337 8.234389 17.973904 -0.240040 1.094906 0.037594 -0.014782 -185819.000000 1 0 0
9.924956 -17.627637 5.396489 20.937059 -1.058001 1.310105 0.048763 -0.010137 -325583.000000 1 0 0
15.189056 -6.334237 8.457789 18.503086 -0.395098 1.096063 0.034304 -0.010610 -217923.000000 1 0 0
16.726256 -4.965437 -0.265311 17.449745 -0.288578 1.586001 0.026860 -0.001075 -879034.000000 1 0 0
14.006356 -10.420137 3.522889 17.809212 -0.639623 1.371670 0.032120 -0.008838 -500077.000000 1 0 0
14.971556 -9.965037 -4.433511 18.523107 -0.587262 1.812493 0.047642 -0.014668 309769.000000 1 0 0
13.801756 -6.546237 -0.047211 15.275599 -0.442881 1.573887 0.017946 -0.002629 275771.000000 1 0 0
17.889856 -0.803337 -4.944011 18.577824 -0.044874 1.840166 0.035927 -0.010394 -452360.000000 1 0 0
14.417656 0.355863 -1.477711 14.497554 0.024677 1.672902 0.008031 0.004336 -1934150.000000 1 0 0
4.982956 -12.905637 11.850389 18.215846 -1.202324 0.862483 0.011125 -0.000022 -755575.000000 1 0 0
11.998056 -7.553137 13.568389 19.624077 -0.561850 0.807350 0.013663 -0.017098 -379911.000000 1 0 0
12.024856 -5.817637 11.600789 17.692382 -0.450605 0.855695 0.014967 -0.014625 -512376.000000 1 0 0
13.083056 -4.671237 8.468389 16.269617 -0.342937 1.023356 0.018118 -0.014388 -405719.000000 1 0 0
15.425656 -1.160237 3.332489 15.824112 -0.075073 1.358612 0.020009 0.002776 -63464.600000 1 0 0
15.205856 -10.285937 5.824589 19.259917 -0.594742 1.263566 0.030296 -0.009039 -458250.000000 1 0 0
13.682656 -8.029637 -5.673411 16.848672 -0.530693 1.914236 0.040921 -0.010641 -1680340.000000 1 0 0
9.454856 -2.397137 13.640889 16.769449 -0.248303 0.620760 0.005550 -0.008423 108482.000000 1 0 0
9.769156 -9.058737 13.629589 19.059455 -0.747684 0.774016 0.021103 -0.013555 -628451.000000 1 0 0
20.322656 6.190663 -3.158511 21.478149 0.295689 1.718389 0.064523 -0.012214 1714550.000000 1 0 0
11.146956 -3.589237 10.504689 15.731680 -0.311509 0.839626 0.014343 -0.011757 516873.000000 1 0 0
10.394656 -14.044337 -2.810811 17.697258 -0.933641 1.730299 0.032206 -0.004431 870108.000000 1 0 0
15.076456 -12.581737 2.674289 19.817958 -0.695443 1.435441 0.041032 0.000375 -680935.000000 1 0 0
11.200256 -0.633737 14.437389 18.283478 -0.056522 0.660572 0.027013 -0.004976 344661.000000 1 0 0
19.053056 -1.811237 6.039989 20.069405 -0.094778 1.265102 0.070838 -0.001541 593183.000000 1 0 0
18.778056 -0.241737 8.087089 20.446879 -0.012873 1.164166 0.057481 -0.012035 73795.300000 1 0 0
19.415656 0.731163 0.203789 19.430488 0.037641 1.560308 0.057637 -0.000196 726283.000000 1 0 0
18.376856 0.685263 3.679489 18.754122 0.037272 1.373319 0.036651 -0.003220 -119805.000000 1 0 0
16.861456 -3.841237 -4.045511 17.760348 -0.223989 1.800597 0.035514 -0.009873 -563649.000000 1 0 0
10.890356 -8.227337 15.864689 20.927907 -0.646993 0.710457 0.028831 -0.012469 511187.000000 1 0 0
16.537956 -7.522837 6.528989 19.306081 -0.426907 1.225811 0.032535 -0.007852 371467.000000 1 0 0
18.938156 2.153663 5.911489 19.955895 0.113234 1.270056 0.057437 -0.010881 3629.360000 1 0 0
15.261756 1.710663 7.611789 17.140213 0.111622 1.110639 0.028581 -0.010721 -555.491000 1 0 0
8.615656 -15.805337 3.987489 18.437415 -1.071715 1.352802 0.031397 -0.010854 96167.900000 1 0 0
11.341656 -15.217537 2.253189 19.112391 -0.930309 1.452630 0.033150 -0.000251 226605.000000 1 0 0
7.892156 -16.316937 6.350589 19.205691 -1.120291 1.233792 0.034849 -0.010994 -210954.000000 1 0 0
14.438656 -11.579637 -2.527311 18.680206 -0.675952 1.706506 0.033473 -0.008648 335815.000000 1 0 0
13.729356 -4.868837 3.303189 14.936929 -0.340793 1.347811 0.010087 -0.000554 -1329880.000000 1 0 0
-1.139244 10.334563 -5.534011 11.778215 -1.461003 2.059919 0.003866 -0.000139 -2290390.000000 1 0 0
8.312856 -1.728837 -7.827811 11.548467 -0.205049 2.315593 0.004499 -0.000555 -1121720.000000 1 0 0
2.943556 -10.169937 7.564889 13.012290 -1.289058 0.950391 0.007276 -0.002581 830578.000000 1 0 0
-6.144244 1.174363 8.293289 10.387950 -0.188854 0.646235 0.006667 -0.003726 -513634.000000 1 0 0
7.233956 -6.269537 -7.078711 11.905687 -0.714099 2.207522 -0.000116 -0.001653 237304.000000 1 0 0
-11.351344 -4.523137 -4.187211 12.916830 0.379184 1.900927 0.005687 -0.004753 -37910.100000 1 0 0
2.191556 -3.141937 2.884889 4.795547 -0.961738 0.925323 0.006578 -0.002088 1841220.000000 1 0 0
-3.500044 -4.450037 8.753589 10.424896 0.904329 0.574100 0.003007 -0.002948 -2828620.000000 1 0 0
-4.807744 -1.094037 -2.415411 5.490494 0.223747 2.026313 0.009375 -0.004777 13520.300000 1 0 0
5.080756 -5.247537 -3.470511 8.086729 -0.801545 2.014360 0.006609 -0.004206 387280.000000 1 0 0
2.807856 14.359663 -8.897011 17.124275 1.377695 2.117127 0.019445 -0.008834 113301.000000 1 0 0
5.512956 -5.547137 13.770889 15.836692 -0.788489 0.516494 0.005490 -0.006893 -1218460.000000 1 0 0
-4.649844 -0.906337 9.799889 10.884866 0.192504 0.450287 0.006271 -0.002750 -1784270.000000 1 0 0
-1.042444 11.937763 -2.684811 12.280272 -1.483694 1.791205 0.001874 0.001359 304690.000000 1 0 0
3.105156 9.441763 -10.534911 14.483550 1.253064 2.385279 0.011906 -0.003402 22014.300000 1 0 0
-10.553844 2.667763 1.214889 10.953380 -0.247590 1.459653 0.000490 -0.002203 501006.000000 1 0 0
5.730956 -8.979037 -0.590111 10.668421 -1.002719 1.626138 0.003964 -0.002591 669731.000000 1 0 0
-7.051744 5.320963 9.336789 12.853613 -0.646413 0.757736 0.007654 -0.003439 -57763.600000 1 0 0
-5.377944 -1.927137 5.100589 7.658469 0.344086 0.841954 0.006627 -0.004514 961955.000000 1 0 0
6.657456 -3.727837 -7.188411 10.482927 -0.510450 2.326396 0.003145 -0.004280 624144.000000 1 0 0
6.232756 4.745563 11.065789 13.557998 0.650751 0.616025 -0.008656 0.002047 406462.000000 1 0 0
3.680256 -9.827937 3.387289 11.027528 -1.212491 1.258582 0.003075 -0.000331 718804.000000 1 0 0
-6.603044 6.590563 -5.832711 11.002555 -0.784452 2.129542 0.003924 -0.002857 242169.000000 1 0 0
-11.097644 8.321963 5.213289 14.818608 -0.643428 1.211296 0.000950 -0.004755 -16635.700000 1 0 0
-9.134044 -5.520837 5.024589 11.796478 0.543666 1.130796 0.004974 -0.004615 -1022940.000000 1 0 0
3.152556 9.876163 -7.987611 13.087365 1.261811 2.227273 0.008960 -0.003757 715094.000000 1 0 0
-8.142244 -8.518237 5.954789 13.202879 0.807962 1.102886 0.003109 -0.003865 -2670980.000000 1 0 0
-7.685044 -5.569737 -7.587411 12.151159 0.627144 2.245183 0.013938 -0.006698 -429074.000000 1 0 0
9.205056 -1.680737 7.048789 11.715091 -0.180599 0.925188 0.000775 -0.006395 2099120.000000 1 0 0
-4.046444 -0.518837 -4.904411 6.379353 0.127525 2.447750 0.014561 -0.009088 -958170.000000 1 0 0
9.086456 1.180663 -4.373411 10.153048 0.129213 2.016118 0.003086 0.001048 -2151860.000000 1 0 0
-1.909944 -10.756637 10.773889 15.343722 1.395068 0.792357 -0.001553 -0.003722 286356.000000 1 0 0
-12.876344 0.214363 -2.710111 13.160200 -0.016646 1.778213 0.004973 -0.003761 -1328270.000000 1 0 0
-9.783344 -5.162437 -6.044111 12.605390 0.485543 2.070866 0.007973 -0.005322 -1482810.000000 1 0 0
-5.380744 8.320663 0.012789 9.908885 -0.996764 1.569506 0.002763 -0.001075 192536.000000 1 0 0
6.290356 9.761263 0.365589 11.618283 0.998354 1.539324 0.010006 -0.002626 672810.000000 1 0 0
-0.494244 -11.953437 -0.029011 11.963686 1.529472 1.573221 0.012495 -0.004213 -621410.000000 1 0 0
6.193156 4.711363 2.415589 8.147834 0.650337 1.269802 0.000073 -0.000000 295609.000000 1 0 0
3.480856 -7.407537 -8.210311 11.592980 -1.131511 2.357762 0.002374 -0.002626 538500.000000 1 0 0
-6.546844 -9.854937 4.557389 12.678752 0.984419 1.203117 0.004349 -0.001192 -2420870.000000 1 0 0
-0.035244 6.487463 -9.250411 11.298607 -1.565364 2.529977 0.008330 -0.002748 -1330720.000000 1 0 0
-17.414344 -2.697837 4.366989 18.155117 0.153699 1.327877 0.039290 -0.013690 -199755.000000 1 0 0
-8.419944 0.777263 -9.203711 12.498315 -0.092051 2.398524 0.012020 -0.004078 1727960.000000 1 0 0
-10.048744 -5.956537 -11.912411 16.684218 0.535082 2.365981 0.016260 0.001995 538401.000000 1 0 0
2.170256 9.454763 6.322489 11.579137 1.345164 0.993185 -0.003038 -0.000178 -311427.000000 1 0 0
-11.351744 1.655563 -1.206311 11.535084 -0.144821 1.675565 0.000430 -0.002393 -1227020.000000 1 0 0
-5.949044 -5.403137 -3.179011 8.642403 0.737347 1.947480 0.014362 -0.005170 580793.000000 1 0 0
-6.935544 -8.349437 1.347389 10.937565 0.877638 1.447293 0.008020 -0.002848 -454086.000000 1 0 0
-0.140244 11.012963 -7.856711 13.528966 -1.558063 2.190425 0.011428 -0.003013 547681.000000 1 0 0
-2.965144 9.360663 -4.260511 10.703553 -1.264029 1.980183 0.005041 -0.001073 151856.000000 1 0 0
3.289256 -4.794037 9.383289 11.038483 -0.969451 0.554712 -0.000171 -0.002697 -428509.000000 1 0 0
-8.934544 1.645263 -0.404711 9.093775 -0.182106 1.615315 0.003968 -0.001918 -1909790.000000 1 0 0
2.504456 3.555463 -10.367411 11.242635 0.957126 2.744402 0.006347 -0.003219 -935424.000000 1 0 0
-13.759844 0.500263 1.024889 13.807026 -0.036341 1.496498 0.006089 -0.002217 -902177.000000 1 0 0
9.607556 -12.644037 -5.005111 16.650164 -0.921022 1.876123 0.028245 -0.005560 -2205470.000000 1 0 0
-4.860744 9.430963 -8.224511 13.424324 -1.094903 2.230215 0.004727 -0.000963 -830920.000000 1 0 0
-2.364944 7.131763 8.334489 11.221350 -1.250600 0.733651 0.003711 -0.002248 -255118.000000 1 0 0
-10.701844 -1.229537 -4.605011 11.715261 0.114389 1.974773 0.003559 -0.002345 -4213710.000000 1 0 0
2.732056 -7.131837 9.726789 12.366797 -1.204962 0.665635 0.000772 -0.001005 -133929.000000 1 0 0
-16.162944 -6.542237 3.313389 17.748807 0.384610 1.383012 0.032680 -0.010763 -572547.000000 1 0 0
-10.766144 0.059663 6.261989 12.454955 -0.005542 1.043995 0.009869 -0.005570 -1099470.000000 1 0 0
-8.427544 9.784163 9.253089 15.886251 -0.859752 0.949046 0.003734 -0.007563 -855645.000000 1 0 0
0.291956 -6.110637 -3.686311 7.142410 -1.523054 2.113106 0.008255 -0.001920 216540.000000 1 0 0
5.017756 1.482263 -2.996711 6.029532 0.287234 2.090941 0.000485 -0.000831 -26696.000000 1 0 0
0.351156 5.376963 3.811989 6.600477 1.505581 0.955094 0.001809 0.000189 -1132170.000000 1 0 0
6.154056 -11.287237 -1.449611 12.937369 -1.071628 1.683080 0.003885 -0.002037 -1445650.000000 1 0 0
6.195056 -13.420437 5.356889 15.722058 -1.138327 1.223109 0.010946 -0.007634 66589.900000 1 0 0
8.414456 -8.200637 -5.914611 13.154321 -0.772530 2.037150 0.004166 -0.001886 367076.000000 1 0 0
-13.139244 -1.419637 -4.720211 14.033370 0.107628 1.913841 0.006211 -0.002883 -2348670.000000 1 0 0
-6.817644 -1.571137 -7.049711 9.932128 0.226497 2.359994 0.011382 -0.004827 -71222.800000 1 0 0
-5.805544 12.965863 -4.551011 14.917427 -1.149810 1.880819 0.002289 0.001835 191889.000000 1 0 0
-4.265844 6.796263 -6.815611 10.528018 -1.010276 2.274936 0.006430 -0.001058 -4972500.000000 1 0 0
-9.419444 -3.717237 -8.198611 13.029236 0.375872 2.251381 0.006663 -0.000779 722113.000000 1 0 0
-2.132144 -6.530037 9.165789 11.454218 1.255196 0.643150 0.001368 -0.001706 -460241.000000 1 0 0
7.505256 -5.978937 10.039389 13.887617 -0.672685 0.762803 0.003442 -0.005890 582516.000000 1 0 0
9.602556 -4.969437 12.182789 16.288792 -0.477559 0.725866 0.010681 -0.009794 -93143.600000 1 0 0
-6.502844 2.733863 -9.032211 11.460446 -0.397977 2.478546 0.009407 -0.003806 87987.400000 1 0 0
7.398656 5.458863 8.854589 12.764915 0.635659 0.804230 -0.011447 0.001371 -332314.000000 1 0 0
12.619256 3.303363 11.307589 17.263239 0.256027 0.856601 0.020402 -0.001268 -40333.200000 1 0 0
-7.558444 -7.284837 -3.899411 11.198408 0.766967 1.926459 0.012434 -0.008343 -1219760.000000 1 0 0
2.287556 1.463463 -5.744511 6.354057 0.569135 2.699994 0.005815 -0.004402 812368.000000 1 0 0
12.813256 6.965163 -7.026511 16.188418 0.497909 2.019775 0.005535 0.001563 115182.000000 1 0 0
0.902156 -7.881237 0.953289 7.989778 -1.456824 1.451198 0.007785 -0.001350 869543.000000 1 0 0
-10.081344 -6.181037 -8.554711 14.595266 0.550008 2.197069 0.011536 -0.001734 206833.000000 1 0 0
-6.725744 0.202163 3.030389 7.379685 -0.030049 1.147641 0.006821 -0.003821 -263413.000000 1 0 0
10.853956 -7.990037 1.310189 13.541258 -0.634572 1.473889 0.010030 -0.004384 -429803.000000 1 0 0
6.127556 1.057663 10.624089 12.310031 0.170923 0.529533 -0.005874 -0.000440 -244377.000000 1 0 0
-13.139144 5.383963 1.882089 14.323631 -0.388896 1.439018 0.002075 0.000722 222011.000000 1 0 0
2.072856 7.371963 3.502989 8.421015 1.296693 1.141774 -0.004483 0.000807 241707.000000 1 0 0
10.199956 -9.484837 -0.741211 13.948141 -0.749086 1.623962 0.010623 -0.002983 794838.000000 1 0 0
6.886356 -11.720937 -9.024311 16.316877 -1.039599 2.156836 -0.000131 -0.000411 -638729.000000 1 0 0
10.101256 3.485363 11.988389 16.059409 0.332252 0.728006 -0.003357 -0.001255 -1140660.000000 1 0 0
-11.061144 -3.037337 -2.062611 11.654556 0.267990 1.748712 0.002081 -0.001776 -600848.000000 1 0 0
12.287456 1.024763 6.923089 14.140753 0.083207 1.059184 0.007287 -0.005447 -594279.000000 1 0 0
-9.535344 8.933763 3.034389 13.414261 -0.752837 1.342615 -0.000915 -0.004309 1781070.000000 1 0 0
-6.804044 7.646663 -8.770111 13.478921 -0.843642 2.279241 0.005119 -0.002042 -1203250.000000 1 0 0
8.472056 5.448663 12.000089 15.667348 0.571533 0.698310 -0.002917 -0.000269 -2146770.000000 1 0 0
1.407756 4.880763 -2.725411 5.764676 1.289988 2.063237 0.002455 -0.003666 243745.000000 1 0 0
1.397756 0.476663 9.489489 9.603714 0.328652 0.154386 -0.000961 -0.000117 727586.000000 1 0 0
2.551256 12.681563 -3.948511 13.524854 1.372268 1.867056 0.010907 -0.006152 392625.000000 1 0 0
2.043956 0.666563 13.045089 13.221059 0.315239 0.163337 -0.005232 -0.000921 -41763.600000 1 0 0
-12.264044 -1.716237 0.779389 12.408049 0.139038 1.507942 0.000640 -0.003859 185793.000000 1 0 0
3.257256 8.773463 -1.253711 9.442201 1.215307 1.703967 0.007824 -0.002632 -226427.000000 1 0 0
3.708456 -2.787837 -5.792311 7.421291 -0.644621 2.466260 0.003794 -0.004413 -1492110.000000 1 0 0
-7.817944 -7.100937 9.231689 14.027389 0.737375 0.852479 0.005959 -0.006626 -358328.000000 1 0 0
-7.012844 10.849463 -3.554411 13.398681 -0.996972 1.839291 0.005085 0.001349 266476.000000 1 0 0
0.311356 0.347963 2.546189 2.588648 0.840863 0.181368 0.005646 -0.002458 -1316430.000000 1 0 0
-7.101844 4.580063 -2.010411 8.686479 -0.572790 1.804355 0.008066 -0.004041 -729775.000000 1 0 0
-6.669244 -3.913937 -5.843611 9.692549 0.530704 2.217924 0.012507 -0.003588 457497.000000 1 0 0
2.910956 -6.073037 13.423689 15.018351 -1.123825 0.465006 0.001874 -0.004812 -797627.000000 1 0 0
-5.496644 -0.585037 -11.703811 12.943514 0.106036 2.700351 0.015050 -0.003084 -636241.000000 1 0 0
11.868856 2.486563 -0.519911 12.137671 0.206516 1.613644 0.001672 0.003441 -1308730.000000 1 0 0
6.197456 -10.883537 10.852589 16.572222 -1.053155 0.856791 0.008116 -0.003185 673779.000000 1 0 0
-8.228344 6.320063 -10.437111 14.716729 -0.654975 2.359160 0.014167 -0.003634 304392.000000 1 0 0
2.896256 7.867363 10.977289 13.812479 1.218057 0.652222 -0.001136 -0.000927 962888.000000 1 0 0
-6.250144 -10.202237 -0.463811 11.973515 1.021146 1.609542 0.013638 -0.002381 -342516.000000 1 0 0
11.280156 4.274363 6.097489 13.516341 0.362210 1.102777 0.000513 0.000537 -166371.000000 1 0 0
-8.023944 10.628463 1.372889 13.387782 -0.924136 1.468068 -0.000756 -0.000741 523358.000000 1 0 0
4.370156 -2.592637 -3.509811 6.175663 -0.535449 2.175270 0.005533 -0.003771 -3949860.000000 1 0 0
6.356356 6.589363 6.236789 11.077929 0.803395 0.972794 -0.005160 0.002486 -4940800.000000 1 0 0
-0.426944 10.355363 -10.234911 14.566030 -1.529590 2.349920 0.010573 -0.003018 -196428.000000 1 0 0
14.071756 6.567163 -2.387711 15.711242 0.436647 1.723362 0.010851 0.004461 789924.000000 1 0 0
1.348656 9.540663 -6.167811 11.440499 1.430368 2.140189 0.008467 -0.003937 -1131950.000000 1 0 0
0.671456 7.357863 7.162989 10.290647 1.479791 0.800890 -0.002520 0.001189 313735.000000 1 0 0
12.269456 6.287363 2.007189 13.931952 0.473550 1.426222 0.005173 0.001618 -1937680.000000 1 0 0
-6.861744 6.622763 -3.205111 10.060678 -0.767677 1.895025 0.002464 -0.004207 819152.000000 1 0 0
0.995656 9.852363 11.061789 14.846668 1.470081 0.730158 -0.001546 -0.001743 -1758810.000000 1 0 0
-3.754044 13.480163 -10.908911 17.742941 -1.299192 2.232968 0.012899 -0.008098 -511324.000000 1 0 0
-9.973944 -5.439337 -2.312811 11.593750 0.499270 1.771631 0.006304 -0.004935 420245.000000 1 0 0
-4.045244 3.928263 -12.424411 13.644092 -0.770728 2.715548 0.007743 -0.004514 -512553.000000 1 0 0
-3.269544 8.366863 2.366189 9.289411 -1.198270 1.313239 0.004928 -0.000263 -1688590.000000 1 0 0
7.090056 8.896763 7.113389 13.417212 0.897933 1.011997 0.003096 0.001393 -211060.000000 1 0 0
-1.377944 -2.251537 -8.164711 8.580831 1.021599 2.828891 0.012597 -0.009982 -1179870.000000 1 0 0
0.840056 -1.357237 4.853089 5.108841 -1.016562 0.317755 0.004482 -0.001104 368237.000000 1 0 0
2.853456 -8.826737 -6.145611 11.127535 -1.258126 2.155903 0.004579 -0.001990 642599.000000 1 0 0
5.353556 3.980563 8.781889 11.028464 0.639351 0.649654 -0.008874 0.001886 -936626.000000 1 0 0
6.181156 -7.578437 -2.739511 10.156000 -0.886601 1.843923 0.002914 -0.003895 884431.000000 1 0 0
1.821856 2.360663 -8.212011 8.736648 0.913516 2.793280 0.006602 -0.006455 39918.400000 1 0 0
-5.597044 10.894163 -0.695911 12.267598 -1.096197 1.627554 -0.000920 0.001968 1075180.000000 1 0 0
-5.449444 3.336863 -3.445311 7.259563 -0.549437 2.065294 0.009310 -0.003122 570619.000000 1 0 0
1.991556 13.697763 -6.455311 15.273050 1.426415 2.007175 0.012197 -0.005311 557621.000000 1 0 0
-5.209744 -2.554937 2.655789 6.381406 0.455950 1.141560 0.003392 -0.002788 845207.000000 1 0 0
10.536056 -3.290137 -1.784711 11.181175 -0.302679 1.731099 0.005403 -0.000330 -273980.000000 1 0 0
2.417356 -3.457837 7.096489 8.255931 -0.960678 0.536383 -0.002328 -0.000428 -1615860.000000 1 0 0
-2.944944 9.911563 -11.656011 15.581218 -1.281982 2.415962 0.008445 -0.001419 -3312380.000000 1 0 0
0.504856 -2.024737 9.212589 9.445964 -1.326435 0.222750 -0.001493 -0.001199 746622.000000 1 0 0
9.446756 2.705163 4.959289 11.006982 0.278896 1.103406 -0.003462 -0.000458 -1638060.000000 1 0 0
13.453056 2.143663 -5.030611 14.521951 0.158015 1.924542 0.010917 0.000155 -1224240.000000 1 0 0
-6.449244 3.585863 7.633989 10.617389 -0.507448 0.768422 0.007948 -0.003094 417406.000000 1 0 0
10.665056 0.078163 1.906589 10.834418 0.007329 1.393900 0.001425 0.001778 1663650.000000 1 0 0
15.476756 6.655863 -4.534611 17.446868 0.406145 1.833725 0.020559 0.000687 615708.000000 1 0 0
8.139756 -4.905937 -9.104311 13.161016 -0.542412 2.334725 0.008377 -0.000237 844544.000000 1 0 0
4.404456 5.658663 -2.132511 7.481130 0.909393 1.859857 0.003459 -0.002164 -26122.000000 1 0 0
-1.712744 -10.540137 1.423689 10.772877 1.409707 1.438254 0.014484 -0.005630 -952160.000000 1 0 0
-2.996944 12.296663 -13.060711 18.187132 -1.331737 2.371907 0.016767 -0.001317 148859.000000 1 0 0
8.330656 4.165163 -9.623411 13.392478 0.463632 2.372538 0.004564 0.001350 245788.000000 1 0 0
4.060356 7.643063 -8.964211 12.460336 1.082464 2.373763 0.008466 -0.001593 -3200970.000000 1 0 0
-1.613144 -4.912037 -2.462911 5.726803 1.253487 2.015364 0.012858 -0.003943 -240565.000000 1 0 0
-3.321744 -9.079037 7.191089 12.048845 1.220054 0.931254 0.000957 0.000221 223075.000000 1 0 0
1.075756 7.193163 -1.417811 7.410063 1.422344 1.763319 0.005675 -0.003652 554905.000000 1 0 0
0.421556 -0.765637 -2.219611 2.385495 -1.067496 2.766467 0.011008 -0.003522 -2282860.000000 1 0 0
4.171856 -6.688137 7.699689 11.019110 -1.013082 0.797137 0.001816 -0.000957 -1199500.000000 1 0 0
-14.133444 3.747163 5.922789 15.775769 -0.259165 1.185929 0.005396 0.003713 -1310280.000000 1 0 0
4.294956 6.420663 12.509989 14.702768 0.981230 0.553177 -0.001746 -0.002625 -1540880.000000 1 0 0
8.385956 10.115163 -7.174011 14.970211 0.878592 2.070561 0.020782 -0.003488 437935.000000 1 0 0
12.463156 5.263263 9.492189 16.526762 0.399586 0.958983 0.014514 -0.000377 1517350.000000 1 0 0
7.520456 3.996163 0.345889 8.523275 0.488429 1.530203 0.004585 0.001359 -2635610.000000 1 0 0
-10.798044 -7.497537 -1.031211 13.186137 0.606919 1.649080 0.009959 -0.004747 -1664050.000000 1 0 0
10.439856 6.874363 0.203989 12.501563 0.582309 1.554479 0.004075 0.000851 -314116.000000 1 0 0
14.568356 3.589563 4.304489 15.609311 0.241582 1.291412 0.016286 -0.002359 813728.000000 1 0 0
2.207956 5.570463 8.110789 10.084147 1.193424 0.636282 -0.005418 0.002606 78725.400000 1 0 0
4.187556 0.166863 11.802789 12.524747 0.039826 0.341189 -0.008399 -0.000557 -1580870.000000 1 0 0
-1.472344 -1.605837 -0.481211 2.231160 0.828739 1.788182 0.013342 -0.005676 -652200.000000 1 0 0
3.182156 -5.172937 -9.457011 11.239238 -1.019308 2.570717 0.000323 -0.002222 31310.700000 1 0 0
-3.960544 -5.365737 -1.476911 6.830689 0.934944 1.788734 0.012210 -0.005214 -1320720.000000 1 0 0
-1.124244 -8.746037 8.630589 12.338726 1.442954 0.796138 0.002912 -0.000091 -458224.000000 1 0 0
3.893156 8.618963 -5.921311 11.158186 1.146532 2.130187 0.010127 -0.002102 605764.000000 1 0 0
-14.213144 -1.685037 -2.701111 14.565329 0.118004 1.757324 0.003592 -0.003447 -1199860.000000 1 0 0
8.970056 -10.521537 -6.535111 15.292885 -0.864828 2.012334 0.005037 -0.003620 -6615.090000 1 0 0
14.838756 6.089563 1.728789 16.132581 0.389424 1.463429 0.005870 0.002599 -1891330.000000 1 0 0
-5.800344 0.370963 -8.522911 10.316085 -0.063868 2.543084 0.013683 -0.007121 7030.650000 1 0 0
-8.050744 -4.644237 -13.054711 16.025258 0.523239 2.522893 0.017205 -0.002358 764524.000000 1 0 0
0.987856 -10.677737 11.990289 16.085924 -1.478543 0.729676 0.005943 -0.002190 -127462.000000 1 0 0
0.181556 11.712563 3.315789 12.174216 1.555297 1.294950 0.002864 -0.001003 -732236.000000 1 0 0
5.253856 -13.266637 -3.674111 14.734509 -1.193726 1.822810 0.007339 -0.002017 1012300.000000 1 0 0
-7.617444 1.544263 -7.006911 10.464559 -0.200016 2.304446 0.005970 -0.003377 987162.000000 1 0 0
1.502456 2.825463 4.090289 5.193369 1.082068 0.663895 0.000751 -0.000782 -1635950.000000 1 0 0
17.149956 5.505263 2.173189 18.142538 0.310616 1.450724 0.009306 -0.002534 -500685.000000 1 0 0
2.744856 -8.113137 -3.509911 9.256171 -1.244562 1.959725 0.005578 -0.001150 354981.000000 1 0 0
-0.463544 -9.364437 -0.661311 9.399196 1.521336 1.641213 0.013274 -0.003032 60046.300000 1 0 0
0.667356 11.932963 -5.588411 13.193608 1.514929 2.008179 0.007830 -0.002664 51346.800000 1 0 0
5.949156 -5.020037 7.902289 11.092313 -0.700897 0.777868 0.000735 -0.001711 -954860.000000 1 0 0
-5.939444 -2.001237 -9.430211 11.323022 0.324993 2.555007 0.016342 -0.005932 -172956.000000 1 0 0
2.103256 -1.288437 11.212389 11.480480 -0.549627 0.216533 -0.008445 0.000553 -50052.600000 1 0 0
18.005156 2.279063 -5.957911 19.101741 0.125909 1.887993 0.017723 -0.002921 -2000000.000000 1 0 0
-8.894644 4.718163 7.803989 12.738838 -0.487710 0.911433 0.009773 -0.009038 -1002300.000000 1 0 0
11.438156 -7.123437 -4.775611 14.296197 -0.557000 1.911391 0.018047 -0.004393 36041.900000 1 0 0
10.779356 0.553663 9.068289 14.097338 0.051318 0.872045 0.001548 -0.004848 -258965.000000 1 0 0
-8.429144 -7.384237 -1.545311 11.312180 0.719417 1.707831 0.009783 -0.005371 -1119210.000000 1 0 0
10.309656 -10.461837 -3.206511 15.033987 -0.792724 1.785732 0.019073 -0.004280 -2155.350000 1 0 0
7.787256 -13.873037 -3.612411 16.314167 -1.059301 1.794075 0.014308 -0.004303 -964234.000000 1 0 0
1.699756 -1.171037 -11.593411 11.775724 -0.603267 2.965398 0.009826 -0.006446 106105.000000 1 0 0
-11.849544 -2.612837 -6.498211 13.764641 0.217028 2.062462 0.009754 -0.002097 -118222.000000 1 0 0
2.741156 -12.036837 -6.401111 13.905884 -1.346884 2.049148 0.005706 -0.002559 -19602.100000 1 0 0
-5.697944 1.394663 1.001289 5.950985 -0.240046 1.401736 0.008026 -0.002508 180488.000000 1 0 0
0.094856 6.819863 -3.973411 7.893511 1.556888 2.098299 0.007835 -0.004121 1081040.000000 1 0 0
5.433656 -11.803237 3.656089 13.498445 -1.139366 1.296518 0.001370 -0.004418 -2518530.000000 1 0 0
-4.425144 -9.324137 1.017289 10.370936 1.127682 1.472548 0.011156 -0.004386 -2087860.000000 1 0 0
7.303956 -6.331837 -4.504111 10.664284 -0.714227 2.006838 0.005802 -0.003501 -1290690.000000 1 0 0
-6.894944 -5.980637 2.209289 9.390912 0.714506 1.333312 0.005980 -0.002767 -235748.000000 1 0 0
-6.426344 -1.053137 7.102189 9.635771 0.162434 0.742079 0.005915 -0.004801 -2923170.000000 1 0 0
4.202756 -4.990337 3.275789 7.300508 -0.870860 1.105478 0.003230 -0.001458 -289162.000000 1 0 0
-2.597344 10.590063 -8.808311 14.017203 -1.330282 2.250282 0.007663 -0.000216 -381288.000000 1 0 0
-2.323644 -4.860537 2.681289 6.017761 1.124852 1.108994 0.006366 0.001019 453244.000000 1 0 0
15.058056 5.045163 6.421989 17.130110 0.323292 1.186513 0.026976 -0.008571 570731.000000 1 0 0
6.818056 0.292463 0.143889 6.825843 0.042869 1.549715 0.002703 -0.002644 4929930.000000 1 0 0
-9.772044 9.245163 0.408889 13.458568 -0.757700 1.540410 -0.001717 -0.001298 -2091400.000000 1 0 0
7.158656 10.577763 -2.466011 13.008330 0.975835 1.761522 0.008991 -0.002122 103290.000000 1 0 0
1.760556 -4.314337 -5.291611 7.050831 -1.183352 2.419607 0.007627 -0.004438 431473.000000 1 0 0
0.984056 -8.158837 -7.896511 11.396924 -1.450764 2.336249 0.006086 -0.001616 -286296.000000 1 0 0
-10.465044 0.212763 -10.616011 14.908457 -0.020328 2.363252 0.007772 0.001408 -3276540.000000 1 0 0
5.773356 -2.419637 0.537789 6.282954 -0.396866 1.485097 0.002567 -0.002474 151400.000000 1 0 0
-3.290544 5.325063 -1.087611 6.353493 -1.017293 1.742827 0.007535 -0.004302 355187.000000 1 0 0
-0.383944 4.530463 -5.190011 6.899907 -1.486251 2.422169 0.006961 -0.003645 -1520740.000000 1 0 0
4.009356 -9.669737 10.053489 14.513835 -1.177742 0.805594 0.003987 -0.004122 -847916.000000 1 0 0
7.365156 -13.512837 -0.776911 15.409279 -1.071762 1.621236 0.016244 -0.002498 671461.000000 1 0 0
13.068256 0.020763 0.658889 13.084873 0.001589 1.520420 0.006925 -0.000867 368038.000000 1 0 0
9.370456 2.485163 -0.604911 9.713259 0.259244 1.633114 0.004496 0.000049 -1385400.000000 1 0 0
-0.732044 -5.859937 4.370089 7.346593 1.446517 0.933723 0.002651 0.000172 469439.000000 1 0 0
11.464456 -3.752737 3.284089 12.502081 -0.316344 1.304994 0.010226 -0.001149 -2833320.000000 1 0 0
1.828656 -8.256837 11.766689 14.490490 -1.352843 0.623177 -0.000903 -0.001294 299036.000000 1 0 0
9.475956 -5.713637 -5.783511 12.485528 -0.542594 2.052418 0.004513 -0.005208 -1104500.000000 1 0 0
3.180556 6.323063 -0.202111 7.080813 1.104745 1.599344 -0.000967 0.000103 -972107.000000 1 0 0
6.352356 -1.345037 11.387589 13.108728 -0.208657 0.518219 -0.003758 -0.004807 84436.400000 1 0 0
-4.923944 -7.552537 -3.869611 9.811215 0.993045 1.976219 0.013993 -0.006449 -1154160.000000 1 0 0
-3.401144 -8.504637 -5.833311 10.859289 1.190362 2.137878 0.013413 -0.002636 240779.000000 1 0 0
9.830056 5.312463 2.251289 11.398271 0.495467 1.371978 0.001383 -0.000716 -496858.000000 1 0 0
8.871056 -1.469537 0.420789 9.001791 -0.164164 1.524034 0.003017 0.000367 1725250.000000 1 0 0
-3.884444 9.560863 9.136489 13.783121 -1.184883 0.846144 -0.000532 -0.004039 -82955.900000 1 0 0
-14.348344 -3.589937 -6.113211 16.004186 0.245166 1.962730 0.014204 -0.006131 -313061.000000 1 0 0
10.627356 6.387663 -5.832811 13.702723 0.541197 2.010496 0.003645 0.001108 -1994590.000000 1 0 0
-1.800344 4.479563 2.661489 5.512825 -1.188652 1.066968 0.006509 -0.002986 701258.000000 1 0 0
6.961956 -3.660537 2.618289 8.289982 -0.484067 1.249457 0.006085 -0.004643 -1724940.000000 1 0 0
8.409556 -11.189637 -1.496411 14.077211 -0.926305 1.677298 0.013121 -0.005172 -2010670.000000 1 0 0
4.556656 0.482063 1.858289 4.944567 0.105401 1.185510 0.002885 -0.001139 28246.100000 1 0 0
-10.868944 2.303563 3.829989 11.751985 -0.208849 1.238831 0.005312 -0.003710 108787.000000 1 0 0
-0.827744 -3.108737 4.330289 5.394516 1.310570 0.638953 0.004196 -0.000556 668422.000000 1 0 0
8.694256 -8.704237 -8.434711 14.916373 -0.785972 2.171795 0.007530 -0.001193 -983916.000000 1 0 0
12.245756 -4.794337 1.014689 13.189913 -0.373166 1.493791 0.007155 -0.000754 309086.000000 1 0 0
2.911556 4.821263 3.385389 6.571346 1.027515 1.029585 -0.003497 -0.000591 -179522.000000 1 0 0
6.164456 7.594963 1.898389 9.964329 0.888992 1.379106 0.001086 -0.000047 -208991.000000 1 0 0
-1.665244 -1.283637 -10.320411 10.532409 0.656706 2.940615 0.014189 -0.008324 1946140.000000 1 0 0
-1.034744 -8.704137 5.970289 10.605520 1.452472 0.972856 0.001560 -0.001296 -4735.080000 1 0 0
-4.287344 -0.249437 2.258989 4.852480 0.058114 1.086560 0.006967 -0.002345 137501.000000 1 0 0
-8.590644 6.274263 -7.832311 13.210247 -0.630813 2.205447 0.005636 -0.002339 -1198680.000000 1 0 0
6.493356 11.284663 -9.339411 16.022855 1.048651 2.193066 0.017620 -0.008169 163709.000000 1 0 0
-11.158844 -5.750737 3.017389 12.911057 0.475854 1.334909 0.004628 -0.003240 1352000.000000 1 0 0
1.563256 -6.288837 2.934589 7.113723 -1.327158 1.145572 0.006974 -0.001126 1141400.000000 1 0 0
10.049956 2.185963 7.187789 12.547684 0.214174 0.960832 -0.002904 0.000941 -2190030.000000 1 0 0
-4.111344 -2.538537 -10.669411 11.712543 0.553150 2.716351 0.014807 -0.007116 -2038210.000000 1 0 0
-8.325044 11.769963 5.951389 15.596711 -0.955179 1.179292 0.000207 -0.002547 -231532.000000 1 0 0
6.908856 6.059363 -2.848611 9.620954 0.719986 1.871387 0.005666 0.000153 -2467620.000000 1 0 0
4.006556 -9.878137 -2.259111 10.896498 -1.185473 1.779636 0.004117 -0.003355 -1395020.000000 1 0 0
8.601056 -12.837837 -7.306511 17.093079 -0.980505 2.012471 0.015658 -0.003441 -27519.400000 1 0 0
-1.252444 9.431163 3.606389 10.174551 -1.438770 1.208468 0.001080 -0.000396 188481.000000 1 0 0
0.477256 -13.213637 4.716989 14.038446 -1.534694 1.228124 0.011011 -0.004554 -839767.000000 1 0 0
-11.151744 -7.030537 -5.157711 14.155982 0.562504 1.943729 0.010783 -0.007907 254615.000000 1 0 0
3.526256 10.314063 -3.438011 11.429536 1.241366 1.876328 0.010523 -0.006752 -808773.000000 1 0 0
11.649656 -8.109137 -7.309111 15.965454 -0.608093 2.046324 0.032379 -0.007260 191886.000000 1 0 0
11.914656 -4.828537 -5.845911 14.122623 -0.385033 1.997574 0.015524 -0.005054 189435.000000 1 0 0
1.420156 -10.281837 -2.740111 10.735047 -1.433542 1.828902 0.007287 -0.001342 97777.700000 1 0 0
2.431656 -12.029537 -3.944311 12.891094 -1.371343 1.881755 0.007714 -0.002797 -1088480.000000 1 0 0
-7.586244 -5.674737 7.188989 11.892657 0.642239 0.921671 0.005441 -0.003307 -1891050.000000 1 0 0
-7.265244 -0.760637 9.561289 12.032480 0.104315 0.652410 0.010249 -0.006351 853786.000000 1 0 0
16.144856 2.640663 -7.571311 18.026487 0.162125 2.004253 0.011297 -0.001911 -724751.000000 1 0 0
-1.995344 6.273263 -5.552911 8.612203 -1.262844 2.271522 0.006937 -0.001048 -1833180.000000 1 0 0
7.663656 1.055463 8.419189 11.433651 0.136862 0.743134 -0.005644 -0.001182 -85548.000000 1 0 0
7.899356 8.302763 -3.677511 12.035771 0.810291 1.881311 0.007719 0.002962 719772.000000 1 0 0
8.060856 0.575363 4.114289 9.068397 0.071257 1.099889 0.000075 -0.000244 -368822.000000 1 0 0
-7.089844 5.748663 5.409089 10.609960 -0.681310 1.035830 0.008454 -0.007715 405161.000000 1 0 0
-6.094144 -2.080037 -4.523011 7.869102 0.328919 2.183133 0.010172 -0.005144 -993633.000000 1 0 0
-15.194344 -2.192537 3.242789 15.690474 0.143310 1.362624 0.013839 -0.006957 -784532.000000 1 0 0
1.129356 1.228863 -10.403011 10.536042 0.827569 2.982514 0.010666 -0.006535 592639.000000 1 0 0
1.537456 -9.283837 9.380989 13.287451 -1.406680 0.786957 0.006194 -0.005715 -1105950.000000 1 0 0
-0.025944 -6.721737 -1.154811 6.820265 1.566937 1.740937 0.011649 -0.001701 455441.000000 1 0 0
-0.338844 -10.194037 -8.532811 13.298198 1.537569 2.267446 0.007651 -0.000774 -252645.000000 1 0 0
-4.367744 6.456363 3.684189 8.621778 -0.976015 1.129279 0.007024 -0.003457 -559.638000 1 0 0
10.799956 -1.193137 -8.641311 13.882899 -0.110030 2.242656 0.020033 0.000557 771190.000000 1 0 0
3.033156 -1.030537 6.362789 7.123702 -0.327521 0.466416 -0.002821 0.000124 667295.000000 1 0 0
1.745656 -12.330737 6.915089 14.244748 -1.430161 1.063920 0.008110 -0.002619 -151542.000000 1 0 0
3.048656 -4.936537 -1.341911 5.955202 -1.017558 1.798082 0.010650 -0.002407 -1291700.000000 1 0 0
-1.020744 9.489763 -1.747711 9.703196 -1.463646 1.751902 0.003754 -0.004053 467737.000000 1 0 0
4.668456 -2.485337 2.778489 5.974227 -0.489206 1.087072 0.005793 -0.001385 -2058080.000000 1 0 0
17.834056 6.821963 -2.705811 19.285076 0.365351 1.711567 0.011334 0.006330 50971.000000 1 0 0
-7.179844 3.468963 -5.447911 9.657308 -0.450079 2.170167 0.007150 -0.003074 -469327.000000 1 0 0
-13.840344 -6.009737 2.216489 15.250734 0.409653 1.424943 0.000698 -0.007266 2035710.000000 1 0 0
6.689656 -6.065037 3.337889 9.626925 -0.736466 1.216720 0.004660 -0.004538 1625940.000000 1 0 0
-4.712344 2.011063 3.465089 6.185256 -0.403365 0.976148 0.008364 -0.004411 990934.000000 1 0 0
7.041456 -12.037437 -5.378311 14.946847 -1.041507 1.938881 0.007057 -0.003116 -219217.000000 1 0 0
2.957456 -12.256637 3.176589 13.002401 -1.334028 1.323990 0.007272 -0.004111 -725536.000000 1 0 0
3.214056 11.288763 -6.107511 13.231327 1.293423 2.050588 0.007027 -0.002865 -128260.000000 1 0 0
-5.646444 -8.319937 6.445289 11.943426 0.974534 1.000773 0.004383 -0.000499 -175564.000000 1 0 0
-4.009944 6.527263 6.311489 9.925709 -1.019901 0.881657 0.007730 -0.003167 436496.000000 1 0 0
4.289256 4.459563 -6.846411 9.228151 0.804862 2.406703 0.003650 -0.000055 -2008180.000000 1 0 0
-0.205944 -2.805137 1.604389 3.238097 1.497511 1.052417 0.006465 -0.001044 803512.000000 1 0 0
-13.156744 -0.999237 6.410889 14.669624 0.075803 1.118516 0.009588 -0.004473 -79862.900000 1 0 0
-0.576944 -9.256737 -6.047511 11.072147 1.508550 2.148607 0.007957 -0.000570 41687.100000 1 0 0
2.100356 -1.599137 -3.927711 4.732405 -0.650735 2.549834 0.006989 -0.003216 -777019.000000 1 0 0
11.458356 -1.962937 1.203089 11.687364 -0.169664 1.467674 0.009002 -0.001648 1001830.000000 1 0 0
0.649056 -4.189937 -1.872411 4.634951 -1.417109 1.986656 0.011108 -0.002845 -2463230.000000 1 0 0
1.247156 -7.209337 -11.227611 13.401089 -1.399500 2.564062 0.001453 0.000818 70780.400000 1 0 0
-4.390544 3.992363 -9.967711 11.600478 -0.737935 2.604598 0.009379 -0.002831 31247.700000 1 0 0
-0.946844 5.741963 -2.090511 6.183598 -1.407368 1.915666 0.006004 -0.003794 -952070.000000 1 0 0
-11.321444 1.725063 -3.924411 12.105863 -0.151208 1.900935 0.002922 -0.002199 76139.500000 1 0 0
-1.913344 -11.240137 4.142289 12.130957 1.402188 1.222322 0.011849 -0.004598 -585416.000000 1 0 0
-3.535944 -5.517037 -9.744411 11.742834 1.000835 2.549577 0.010926 -0.003262 -232116.000000 1 0 0
-12.903744 -3.802837 -8.408611 15.864202 0.286595 2.129440 0.015905 -0.001711 -194662.000000 1 0 0
11.458956 4.526163 0.570689 12.333674 0.376179 1.524509 0.005210 0.003013 289668.000000 1 0 0
-8.897744 -2.363237 -3.110111 9.717382 0.259606 1.896585 0.004574 -0.003317 -288932.000000 1 0 0
-2.463844 -6.100137 -6.497211 9.246402 1.186933 2.349946 0.010395 -0.005325 -610556.000000 1 0 0
0.079156 2.705163 -2.011711 3.372114 1.541543 2.210020 0.007951 -0.004690 637854.000000 1 0 0
8.054956 6.082863 -5.194311 11.351846 0.646802 2.046061 0.006170 0.002197 -799652.000000 1 0 0
-9.829444 -0.861137 -1.071811 9.925135 0.087385 1.678997 0.001944 -0.002583 -316778.000000 1 0 0
6.246656 0.566263 -8.764811 10.777907 0.090403 2.520461 0.003179 0.001362 352500.000000 1 0 0
-4.023844 2.337163 7.827389 9.106133 -0.526203 0.536362 0.003128 -0.000038 -1882620.000000 1 0 0
-10.162344 -3.253437 1.465789 10.770637 0.309836 1.434282 0.003744 -0.003858 2820900.000000 1 0 0
-1.770244 -8.191837 -7.828011 11.468118 1.357970 2.322096 0.008073 -0.003755 -962400.000000 1 0 0
-9.494144 -9.689437 4.134489 14.181606 0.795578 1.274961 0.005987 -0.003956 57796.900000 1 0 0
-1.189444 -10.820837 7.329489 13.123517 1.461314 0.978220 0.008666 -0.002956 129934.000000 1 0 0
9.470156 3.811763 -3.740611 10.872239 0.382662 1.922025 0.002668 0.003004 -765383.000000 1 0 0
12.933956 -0.805337 3.127389 13.331030 -0.062185 1.333995 0.006170 0.000866 399439.000000 1 0 0
6.553356 12.033763 -6.805911 15.299619 1.072123 2.031794 0.013603 -0.000891 522303.000000 1 0 0
-11.872444 -0.009537 -6.591611 13.579556 0.000803 2.077625 0.008179 -0.000801 638687.000000 1 0 0
-7.676844 -6.657537 -11.453611 15.311497 0.714408 2.415900 0.019043 -0.003328 -2198690.000000 1 0 0
4.121356 6.044163 6.415589 9.730224 0.972339 0.850847 -0.006448 0.001833 -4435400.000000 1 0 0
-4.280744 -1.434837 -7.391411 8.661206 0.323415 2.593256 0.012602 -0.008729 -1051780.000000 1 0 0
9.665956 9.339063 0.887089 13.469808 0.768199 1.504891 0.005272 0.001846 -401635.000000 1 0 0
-9.099244 3.942663 4.818889 11.025539 -0.408876 1.118462 0.006707 -0.005328 -375439.000000 1 0 0
-7.029144 7.851363 -12.106311 16.050406 -0.840597 2.425335 0.007904 -0.003485 -634610.000000 1 0 0
11.082956 -3.788537 7.285989 13.793860 -0.329382 1.014311 0.011282 -0.008239 520869.000000 1 0 0
11.815856 6.953663 6.488289 15.167919 0.531923 1.128779 0.005812 -0.000400 122943.000000 1 0 0
-9.923544 -0.843937 -14.950811 17.964290 0.084840 2.553953 0.016523 0.006875 -34663.900000 1 0 0
1.814656 -13.097337 11.877889 17.774067 -1.433121 0.838915 0.007323 -0.005428 -21954.400000 1 0 0
2.888456 3.133863 13.073889 13.751031 0.826125 0.315127 -0.008877 -0.000629 -891995.000000 1 0 0
-2.607344 -1.390137 11.011589 11.401132 0.489824 0.262158 0.002514 -0.001582 -579365.000000 1 0 0
2.666456 -10.022237 -8.371511 13.328069 -1.310766 2.249920 -0.001920 -0.000236 -811317.000000 1 0 0
13.872656 3.667763 -7.485911 16.184621 0.258474 2.051646 0.007062 0.000371 -3136040.000000 1 0 0
7.377556 -1.529037 4.965589 9.023490 -0.204362 0.988078 -0.001327 -0.001605 139106.000000 1 0 0
-1.224444 8.711863 10.092089 13.388281 -1.431162 0.716970 0.000722 -0.002458 -40393.800000 1 0 0
-12.214944 -4.604937 0.865689 13.082802 0.360516 1.504578 0.002006 -0.004661 -52395.500000 1 0 0
-4.844944 4.842163 -5.375411 8.707185 -0.785111 2.236171 0.010082 -0.004325 -52097.800000 1 0 0
-11.248544 0.338063 1.929289 11.417801 -0.030045 1.401010 0.000537 -0.001947 -1527150.000000 1 0 0
-1.303944 2.269563 -4.109411 4.872211 -1.049311 2.574448 0.010751 -0.007672 676717.000000 1 0 0
3.203056 -9.887037 13.155489 16.765440 -1.257501 0.668618 0.005732 0.001186 -1235000.000000 1 0 0
8.960456 4.701763 -1.512611 10.231537 0.483230 1.719178 0.004207 -0.001036 -1094740.000000 1 0 0
4.122556 2.299363 3.715689 6.007402 0.508775 0.903941 -0.006178 0.001497 863464.000000 1 0 0
-5.282044 -3.256637 7.493389 9.729160 0.552499 0.691643 0.005701 -0.005110 435337.000000 1 0 0
1.673256 -5.845937 7.749689 9.850505 -1.292024 0.665302 -0.000242 0.000453 -135266.000000 1 0 0
-5.898744 -6.253137 -9.778011 13.019463 0.814554 2.420417 0.015359 -0.004510 -799476.000000 1 0 0
-11.705944 -5.842237 5.363689 14.139661 0.462914 1.181717 0.011805 -0.007312 -40858.700000 1 0 0
10.492256 6.270563 4.531689 13.036242 0.538680 1.215762 -0.000683 0.002072 -717456.000000 1 0 0
1.682956 -3.635537 0.389389 4.025059 -1.137252 1.473904 0.011097 -0.003894 -599929.000000 1 0 0
8.758956 4.342863 6.948489 11.994218 0.460298 0.952902 -0.004351 0.003429 269899.000000 1 0 0
-7.884544 11.900263 3.496889 14.697296 -0.985648 1.330565 0.000460 -0.003875 151258.000000 1 0 0
-6.274244 13.181263 -7.001411 16.190478 -1.126535 2.017994 0.009840 -0.003310 184390.000000 1 0 0
4.546056 -6.964637 -0.847311 8.360068 -0.992501 1.672323 0.009075 -0.003516 -1646790.000000 1 0 0
-1.974144 -8.288537 11.161089 14.041617 1.336975 0.652023 0.002075 -0.004028 -310919.000000 1 0 0
11.608256 8.936663 -5.671911 15.709428 0.656087 1.940191 0.014662 -0.000100 686443.000000 1 0 0
-3.333544 -2.947837 -2.001211 4.879252 0.724070 1.993412 0.013742 -0.005315 -1746740.000000 1 0 0
-2.088944 5.983363 4.695689 7.887573 -1.234901 0.933123 0.005030 -0.000802 -1110380.000000 1 0 0
0.491656 -11.246037 -5.619411 12.581449 -1.527106 2.033806 0.003306 -0.002284 291750.000000 1 0 0
-8.927744 6.274063 -1.511011 11.015971 -0.612576 1.708396 0.002285 -0.003909 -584168.000000 1 0 0
2.970256 -0.058937 3.974389 4.962022 -0.019840 0.641897 -0.000737 -0.000185 1073840.000000 1 0 0
-10.132044 3.957563 -1.005911 10.923940 -0.372376 1.663010 0.004931 -0.003421 -76847.100000 1 0 0
6.530056 5.609463 13.580089 16.078760 0.709709 0.564982 -0.001317 -0.001125 -959593.000000 1 0 0
-8.818944 -1.591237 5.699689 10.620370 0.178513 1.004305 0.008993 -0.005903 -522375.000000 1 0 0
13.040956 -1.736937 -1.408911 13.231346 -0.132412 1.677481 0.013351 0.000299 -516373.000000 1 0 0
5.129056 -5.452537 5.510989 9.295611 -0.815959 0.936192 0.002822 -0.003378 -117918.000000 1 0 0
-9.004944 -1.200237 3.220389 9.638490 0.132506 1.230127 0.003735 -0.002455 243034.000000 1 0 0
2.037756 5.373963 5.570389 8.003821 1.208357 0.801032 -0.001928 0.000227 -1687940.000000 1 0 0
9.178056 3.029863 -7.442111 12.198435 0.318856 2.226967 0.004290 0.001885 -108652.000000 1 0 0
2.464856 -2.316837 -1.494311 3.698137 -0.754453 1.986760 0.007579 -0.003372 52952.500000 1 0 0
-6.177444 0.383763 -3.882311 7.306191 -0.062043 2.131017 0.008846 -0.004385 -1765370.000000 1 0 0
-4.086144 4.136663 4.925389 7.620236 -0.791542 0.867997 0.007846 -0.004357 575932.000000 1 0 0
-6.470744 1.743963 -12.387411 14.084029 -0.263260 2.645683 0.012787 -0.002283 -1489210.000000 1 0 0
-0.085944 3.071963 6.202089 6.921723 -1.542827 0.460045 0.002117 -0.000891 951185.000000 1 0 0
-8.743344 9.413563 -2.119011 13.021191 -0.822294 1.734259 -0.001148 0.001150 782340.000000 1 0 0
-1.297344 -3.778937 -6.147011 7.331386 1.240095 2.565232 0.010019 -0.006114 498342.000000 1 0 0
-3.249644 7.037263 -2.935411 8.288540 -1.138192 1.932805 0.006725 -0.000311 639903.000000 1 0 0
7.064056 -0.318637 -4.141211 8.194636 -0.045076 2.100591 0.002059 -0.000601 -297603.000000 1 0 0
-5.150444 -10.868937 6.926089 13.879178 1.128272 1.048320 -0.002641 -0.001007 219220.000000 1 0 0
9.833956 8.409763 -1.536111 13.030366 0.707491 1.688958 0.007582 0.002995 887393.000000 1 0 0
13.811156 4.670263 -4.255011 15.187644 0.326081 1.854760 0.006752 -0.001642 301583.000000 1 0 0
4.761656 1.096863 -6.800111 8.373649 0.226404 2.518512 0.000381 -0.000651 -873150.000000 1 0 0
9.052556 -4.712837 3.622289 10.829616 -0.479998 1.229743 0.005086 -0.004200 -380785.000000 1 0 0
-8.776544 -3.235337 -0.804511 9.388416 0.353178 1.656593 0.001047 -0.002426 254152.000000 1 0 0
-8.650544 -4.293837 -10.528811 14.287225 0.460736 2.399327 0.008876 -0.002744 -178591.000000 1 0 0
10.440756 -1.141037 10.887389 15.127677 -0.108855 0.767426 0.008504 -0.007145 588629.000000 1 0 0
2.198656 -11.616737 9.785489 15.347263 -1.383743 0.879411 0.006826 -0.004212 676006.000000 1 0 0
-6.432644 -10.663137 1.937789 12.603032 1.027983 1.416428 0.008801 -0.002204 -974055.000000 1 0 0
-3.794944 -1.086237 6.968889 8.009177 0.278779 0.515365 0.007113 0.002863 -561895.000000 1 0 0
4.774756 -7.563837 3.976589 9.788932 -1.007707 1.152468 0.002033 -0.000357 212805.000000 1 0 0
11.521656 -9.486937 -5.291011 15.834941 -0.688848 1.911484 0.024431 -0.006562 180703.000000 1 0 0
11.181356 1.143463 11.575089 16.134216 0.101911 0.770698 0.005652 -0.003446 -204881.000000 1 0 0
-10.204044 -3.452837 4.326589 11.608788 0.326285 1.188880 0.008878 -0.004372 1938000.000000 1 0 0
2.040356 8.774363 8.900389 12.663705 1.342321 0.791433 -0.003040 0.000237 -693311.000000 1 0 0
6.507556 8.788163 4.019889 11.650734 0.933409 1.218522 0.003945 0.000959 973523.000000 1 0 0
-4.286244 3.460663 0.357689 5.520508 -0.679230 1.505958 0.009201 -0.004728 -948187.000000 1 0 0
4.955256 6.838963 4.066089 9.373316 0.943775 1.122097 -0.001641 -0.000871 -1227200.000000 1 0 0
-8.211744 13.082863 1.232589 15.495590 -1.010278 1.491168 0.001877 -0.002960 -1344660.000000 1 0 0
8.809256 8.091263 -9.111711 15.036449 0.742940 2.221787 0.009313 -0.002233 -508494.000000 1 0 0
7.102256 1.993763 6.143189 9.599787 0.273678 0.876390 -0.007441 0.002237 -376656.000000 1 0 0
11.607156 -6.226137 3.035589 13.516866 -0.492346 1.344287 0.012720 -0.004581 65033.200000 1 0 0
11.430656 4.730463 -2.046511 12.538955 0.392380 1.734742 0.002755 0.002808 869433.000000 1 0 0
-4.093344 14.415363 -5.956611 16.125736 -1.294122 1.949144 0.009127 0.002509 -1148580.000000 1 0 0
7.200956 -3.117637 6.928389 10.467856 -0.408583 0.847482 0.000643 -0.003708 -1421660.000000 1 0 0
-8.034344 -0.468637 0.878289 8.095782 0.058263 1.462095 0.003770 -0.002810 -10402.100000 1 0 0
-3.268244 1.110063 10.744589 11.285382 -0.327426 0.310829 0.001765 0.000534 -601120.000000 1 0 0
7.188456 -1.275737 -1.804111 7.520388 -0.175642 1.813055 0.005819 -0.002560 -1549890.000000 1 0 0
-7.835044 5.389263 2.982889 9.966428 -0.602519 1.266844 0.007926 -0.004482 888361.000000 1 0 0
9.511256 -2.133137 2.950689 10.184343 -0.220624 1.276854 0.004275 -0.003499 -1695590.000000 1 0 0
0.264256 3.421063 1.657989 3.810830 1.493705 1.120677 0.005159 -0.002788 -4162400.000000 1 0 0
-7.539444 -3.092037 3.955689 9.058222 0.389195 1.118874 0.004725 -0.002835 -422852.000000 1 0 0
-2.324644 8.349163 -6.722511 10.968347 -1.299246 2.230523 0.004830 -0.002157 -518979.000000 1 0 0
4.503756 9.768463 7.327689 13.015441 1.138791 0.972785 -0.002671 0.000797 773818.000000 1 0 0
-11.916244 -3.241337 6.815189 14.104961 0.265584 1.066517 0.016522 -0.009451 -753039.000000 1 0 0
-4.765544 2.377363 -5.548911 7.691078 -0.462739 2.376725 0.013430 -0.007617 -192360.000000 1 0 0
-2.654644 2.930963 -1.882311 4.379586 -0.834828 2.015059 0.011431 -0.004889 1141280.000000 1 0 0
2.327656 5.236463 11.437289 12.792580 1.152518 0.464476 -0.002135 -0.003339 237326.000000 1 0 0
-0.689644 1.573263 4.506689 4.822967 -1.157671 0.364162 0.007447 -0.002838 -311863.000000 1 0 0
5.092256 1.621963 7.600789 9.291600 0.308356 0.612822 -0.008278 0.001116 33748.700000 1 0 0
3.451056 -8.214937 1.878489 9.106245 -1.173087 1.363019 0.007208 -0.002016 1555270.000000 1 0 0
5.069656 6.520963 -4.498911 9.405561 0.909964 2.069542 0.007455 -0.002258 -2029410.000000 1 0 0
-4.104044 2.722963 -7.950311 9.352280 -0.585795 2.586959 0.014880 -0.007291 -423434.000000 1 0 0
-8.775944 -2.190237 -13.042211 15.871786 0.244577 2.535224 0.013950 0.000875 957845.000000 1 0 0
-7.807344 8.121663 1.081989 11.317540 -0.805128 1.475047 0.001421 -0.002577 -1623270.000000 1 0 0
7.475456 0.908263 -6.512111 9.955651 0.120907 2.283804 0.001492 0.001281 970117.000000 1 0 0
8.897356 8.980063 5.424189 13.755955 0.790024 1.165473 -0.001416 0.002270 540616.000000 1 0 0
9.473056 -1.098337 -1.299411 9.624636 -0.115428 1.706219 0.005534 0.000395 515037.000000 1 0 0
5.451256 0.178263 4.282589 6.934590 0.032690 0.905148 -0.004284 0.000095 -1916420.000000 1 0 0
-4.189644 -7.375137 -8.053911 11.696634 1.054181 2.330307 0.015312 -0.005580 -614271.000000 1 0 0
-2.177644 7.434363 -0.565311 7.767333 -1.285851 1.643641 0.005835 -0.001733 193441.000000 1 0 0
13.358256 -3.339537 -7.416111 15.639509 -0.244977 2.064841 0.024105 -0.004465 905317.000000 1 0 0
-4.751444 -5.065437 1.501089 7.105501 0.817372 1.357935 0.008878 -0.002645 1632350.000000 1 0 0
-8.950144 1.235063 2.545289 9.386636 -0.137128 1.296197 0.005482 -0.003944 -1695380.000000 1 0 0
-1.136244 11.076163 10.055989 15.003178 -1.468569 0.836241 -0.003056 -0.004586 267462.000000 1 0 0
-8.513444 0.314363 7.517789 11.361985 -0.036909 0.847764 0.008390 -0.005312 -647589.000000 1 0 0
-6.195044 12.911563 -2.090811 14.472681 -1.123434 1.715770 0.000543 0.002922 -194829.000000 1 0 0
-13.051344 -0.772937 3.246589 13.471278 0.059154 1.327399 0.006776 -0.005427 565016.000000 1 0 0
-6.646444 12.703263 8.667789 16.753467 -1.088755 1.027018 0.004997 -0.009383 1837790.000000 1 0 0
-8.092544 0.734363 -14.209711 16.369009 -0.090498 2.622130 0.014725 0.003332 -977680.000000 1 0 0
7.253856 2.828763 3.766489 8.649091 0.371827 1.120227 -0.002545 0.001686 -741231.000000 1 0 0
-1.631744 0.655563 -2.003111 2.665484 -0.382019 2.421129 0.010167 -0.006069 508347.000000 1 0 0
-6.377544 9.658363 -10.330511 15.513752 -0.987205 2.299488 0.004607 -0.000190 -312581.000000 1 0 0
-10.046544 13.659263 5.361189 17.783443 -0.936633 1.264561 -0.000809 0.000262 742785.000000 1 0 0
-5.770544 8.250763 2.465089 10.365854 -0.960476 1.330687 0.000849 -0.002310 -1399340.000000 1 0 0
-2.487444 -10.832637 -1.241311 11.183660 1.345084 1.682019 0.011758 -0.004827 -350076.000000 1 0 0
-2.320244 -12.477737 8.872489 15.485429 1.386946 0.960687 0.003569 -0.005258 649818.000000 1 0 0
-14.583644 -6.376337 -1.707011 16.007943 0.412180 1.677635 0.013829 -0.006755 286137.000000 1 0 0
-2.821144 -9.360637 3.223789 10.294328 1.278071 1.252276 0.007871 -0.002251 -1015860.000000 1 0 0
4.750656 -2.712337 7.607889 9.370458 -0.518777 0.623394 -0.004050 0.000100 -120390.000000 1 0 0
-15.056544 -1.282937 -0.307811 15.114238 0.085003 1.591163 0.008093 -0.006662 67572.600000 1 0 0
5.462556 8.920563 -2.736811 10.812312 1.021341 1.826700 0.007525 -0.000414 -1017660.000000 1 0 0
-5.601444 -5.745537 8.558389 11.731726 0.798096 0.753194 0.004281 -0.002693 -2645510.000000 1 0 0
3.470056 3.613963 7.023789 8.627608 0.805710 0.619608 -0.005763 0.001539 -270213.000000 1 0 0
3.381356 2.293363 9.393489 10.243570 0.595970 0.410270 -0.002603 -0.000873 188184.000000 1 0 0
9.917956 -3.169337 5.241689 11.657009 -0.309300 1.104412 0.007807 -0.004029 -851850.000000 1 0 0
6.587356 10.090263 -5.031211 13.058321 0.992425 1.966316 0.007811 -0.000874 913884.000000 1 0 0
-4.691044 12.015063 -8.530811 15.464228 -1.198567 2.155135 0.008185 -0.001512 -783545.000000 1 0 0
-3.434744 -7.235937 2.108289 8.282580 1.127610 1.313419 0.008744 -0.003664 975806.000000 1 0 0
-7.399044 -3.945737 1.014189 8.446494 0.489913 1.450434 0.005106 -0.001314 2486520.000000 1 0 0
-2.000344 -3.918137 -10.957511 11.807634 1.098757 2.759811 0.014236 -0.006435 -967195.000000 1 0 0
-5.148744 8.159763 -4.478711 10.637206 -1.007900 2.005390 0.007025 -0.002704 -763471.000000 1 0 0
-10.994044 -3.205137 -10.265611 15.379359 0.283672 2.301633 0.008834 0.003125 393992.000000 1 0 0
4.723256 -11.406137 -7.734411 14.568124 -1.178196 2.130474 -0.000207 -0.001322 -2138920.000000 1 0 0
-9.496444 -3.963637 7.142989 12.526578 0.395400 0.964015 0.009535 -0.007046 -1284850.000000 1 0 0
-5.747144 -9.703537 -5.137911 12.392999 1.036078 1.998279 0.015580 -0.009309 190051.000000 1 0 0
4.859956 4.369163 -9.439911 11.481319 0.732269 2.536057 0.002982 0.004467 285840.000000 1 0 0
-3.316844 -7.190237 -13.951711 16.042170 1.138587 2.625370 0.013061 0.001449 269862.000000 1 0 0
0.634756 -0.822037 -8.757411 8.818782 -0.913254 3.023549 0.010779 -0.009966 34322.300000 1 0 0
-7.801044 2.235663 -2.936111 8.629902 -0.279105 1.917953 0.008083 -0.003450 -854072.000000 1 0 0
-2.493044 7.576463 -12.513611 14.839424 -1.252905 2.574131 0.006735 -0.000761 11131.200000 1 0 0
-10.021544 8.768163 7.558689 15.311623 -0.718791 1.054507 0.004469 -0.006954 -222357.000000 1 0 0
-10.701944 -3.157437 -14.421811 18.234299 0.286895 2.483102 0.016095 0.004575 -82061.200000 1 0 0
-3.262644 4.763463 7.864989 9.756714 -0.970256 0.633247 0.004453 -0.003374 -53509.900000 1 0 0
8.846056 -2.246637 -3.480111 9.767869 -0.248712 1.935082 0.004267 -0.001268 -5381250.000000 1 0 0
1.988956 -8.415937 -1.143611 8.723061 -1.338722 1.702277 0.008997 -0.000058 -74984.500000 1 0 0
-13.599444 -2.943637 4.958789 14.771576 0.213164 1.228450 0.018874 -0.009960 591787.000000 1 0 0
7.170156 2.697663 -1.983411 7.913435 0.359853 1.824136 0.003216 -0.000991 208167.000000 1 0 0
-11.197144 4.409863 8.885889 14.959343 -0.375183 0.934771 0.010765 -0.007003 -912418.000000 1 0 0
-1.800744 -2.523937 8.034689 8.612152 0.951090 0.368280 0.001066 -0.002413 -1425410.000000 1 0 0
2.893856 11.993863 -9.875811 15.803759 1.334043 2.245803 0.009688 -0.008636 320730.000000 1 0 0
3.659356 -5.040837 -6.974311 9.351040 -0.942871 2.412580 0.002386 -0.004718 -246067.000000 1 0 0
8.417956 -13.678437 -9.716911 18.771787 -1.019117 2.114879 0.024058 0.005108 -227635.000000 1 0 0
-6.223144 -5.769537 -0.473611 8.499375 0.747593 1.626548 0.011080 -0.005034 -184833.000000 1 0 0
-1.082844 -4.180937 9.738189 10.652939 1.317369 0.417435 -0.001345 -0.001836 -269608.000000 1 0 0
2.851356 3.175463 1.779789 4.624007 0.839124 1.175695 -0.002626 -0.001055 -210683.000000 1 0 0
-9.181644 13.355463 7.796989 17.985105 -0.968521 1.122396 0.008301 -0.013698 177722.000000 1 0 0
4.073956 -11.141937 -0.000711 11.863384 -1.220255 1.570856 0.007814 -0.001877 349861.000000 1 0 0
-12.509544 -1.394737 -9.173111 15.574978 0.111035 2.200573 0.010716 -0.001625 352921.000000 1 0 0
-4.270644 0.864963 -13.454911 14.142885 -0.199834 2.828402 0.009828 -0.003731 261580.000000 1 0 0
4.007756 -3.066337 5.001589 7.104958 -0.653096 0.789842 0.000677 0.000672 -13489.600000 1 0 0
1.734156 -1.172437 1.113889 2.371214 -0.594495 1.081783 0.007510 -0.001341 -8533.920000 1 0 0
8.195456 -9.078437 7.259089 14.222444 -0.836470 1.035150 0.010482 -0.006835 -1505870.000000 1 0 0
-0.022744 2.377163 -6.410111 6.836735 -1.561229 2.786454 0.008743 -0.007998 -2216240.000000 1 0 0
-3.827744 -9.757837 -3.384511 11.014623 1.196968 1.883124 0.014353 -0.003730 358125.000000 1 0 0
-9.505744 2.323263 -5.413611 11.183197 -0.239707 2.076113 0.004206 -0.001150 -2152710.000000 1 0 0
8.991656 -7.643637 5.315489 12.943319 -0.704541 1.147603 0.008335 -0.005841 1745730.000000 1 0 0
-5.537644 -4.383737 4.557889 8.405772 0.669613 0.997704 0.003268 -0.002406 -1033750.000000 1 0 0
-0.128244 -12.527137 10.372489 16.264506 1.560559 0.879239 0.009068 -0.005149 -253619.000000 1 0 0
-14.319044 -8.356337 3.032589 16.854079 0.528260 1.389879 0.010997 -0.008016 -1287700.000000 1 0 0
10.937656 -1.209837 -3.575111 11.570543 -0.110164 1.884921 0.011144 -0.000898 -629863.000000 1 0 0
-13.675944 3.005663 2.697989 14.259894 -0.216338 1.380448 0.004763 0.000418 -969384.000000 1 0 0
-6.344444 6.069663 1.006989 8.837805 -0.763267 1.456607 0.007646 -0.003099 675998.000000 1 0 0
7.260956 -6.849137 -0.461111 9.992237 -0.756220 1.616960 0.004330 -0.003497 73640.800000 1 0 0
-6.866244 7.759063 10.028289 14.419256 -0.846369 0.801710 0.005108 -0.004895 207690.000000 1 0 0
-12.589544 -5.036137 -1.946511 13.698474 0.380528 1.713376 0.001479 -0.005722 -3674380.000000 1 0 0
-9.470644 -5.519937 0.154889 10.962973 0.527712 1.556667 0.005028 -0.003201 -900528.000000 1 0 0
-1.860044 1.788463 2.185189 3.381333 -0.765781 0.868135 0.009151 -0.002412 309167.000000 1 0 0
-7.155844 7.183463 7.545589 12.638993 -0.787324 0.931029 0.004658 -0.004490 -187163.000000 1 0 0
5.595256 7.212563 -0.403211 9.137316 0.911008 1.614939 0.004808 -0.002824 -1480250.000000 1 0 0
-0.031044 -4.029337 7.397189 8.423475 1.563092 0.498787 0.000200 -0.000201 -102140.000000 1 0 0
6.417956 0.677063 13.129689 14.630014 0.105106 0.456845 -0.005302 -0.002274 210339.000000 1 0 0
5.742956 6.245763 -7.848711 11.558260 0.827314 2.317273 0.002092 0.002495 145322.000000 1 0 0
9.944756 5.299663 8.928389 14.377091 0.489628 0.900759 -0.005989 -0.000887 -1680180.000000 1 0 0
-1.156144 -5.049637 -8.561111 10.006404 1.345720 2.597434 0.013674 -0.005175 859491.000000 1 0 0
10.053856 -3.537437 -7.843611 13.233130 -0.338321 2.205235 0.016617 -0.005178 630011.000000 1 0 0
8.459656 -5.549137 1.374189 10.210147 -0.580549 1.435796 0.005612 -0.003017 1452810.000000 1 0 0
15.740356 3.170063 -5.037111 16.827971 0.198739 1.874786 0.013873 0.000961 -951212.000000 1 0 0
-6.893644 3.651063 1.158389 7.886345 -0.487068 1.423378 0.009300 -0.004675 396130.000000 1 0 0
-1.791644 3.764163 0.334589 4.182207 -1.126554 1.490708 0.008675 -0.005674 -1475080.000000 1 0 0
-2.557444 9.928463 6.898689 12.357459 -1.318690 0.978508 0.001663 -0.000817 -664023.000000 1 0 0
5.529956 -5.553137 -8.693311 11.704333 -0.787490 2.407954 0.001765 -0.003981 -751992.000000 1 0 0
-1.272444 -1.033537 6.271189 6.481907 0.682164 0.255681 0.004393 -0.000120 -69002.700000 1 0 0
-5.683044 4.925663 -7.878611 10.891816 -0.714127 2.379440 0.007810 -0.003380 350985.000000 1 0 0
6.868256 -1.223537 2.591789 7.442268 -0.176294 1.215090 0.000669 -0.000007 -1701870.000000 1 0 0
8.753556 7.609063 3.195189 12.030454 0.715566 1.301979 0.002998 0.000659 -327705.000000 1 0 0
-5.155044 -4.940637 -7.650211 10.464707 0.764164 2.390654 0.016175 -0.006753 -529962.000000 1 0 0
-2.271444 7.853763 -9.999711 12.916473 -1.289261 2.456219 0.006691 -0.001756 1172160.000000 1 0 0
-2.782044 -2.274537 1.574189 3.923182 0.685368 1.157912 0.006373 0.000789 370771.000000 1 0 0
6.112056 -2.033837 -9.202311 11.232821 -0.321233 2.530871 0.002480 -0.001731 961481.000000 1 0 0
1.146756 -7.702637 5.027089 9.269158 -1.423003 0.997570 0.005156 -0.000521 450215.000000 1 0 0
1.722056 11.884063 1.208389 12.068829 1.426893 1.470503 0.007573 -0.003970 274145.000000 1 0 0
-1.072644 7.000263 2.497189 7.509340 -1.418750 1.231796 0.003886 -0.001070 646613.000000 1 0 0
8.639156 7.865763 -6.610711 13.424111 0.738574 2.085700 0.012979 0.001447 338430.000000 1 0 0
3.667556 -11.295037 5.483189 13.080298 -1.256831 1.138238 0.008558 -0.002715 -170499.000000 1 0 0
8.017456 -7.085737 12.430989 16.401731 -0.723786 0.710697 0.009312 -0.007855 -85436.400000 1 0 0
-8.606944 0.010763 -4.135611 9.548972 -0.001250 2.018720 0.006493 -0.001115 -625193.000000 1 0 0
-3.203444 -5.073537 11.104289 12.621730 1.007606 0.495407 0.005436 -0.003077 694757.000000 1 0 0
-8.258444 0.133863 -11.635811 14.269265 -0.016208 2.524295 0.009788 -0.001914 -1960130.000000 1 0 0
1.472856 -5.086337 5.305389 7.495818 -1.288935 0.784446 0.002379 0.000839 -255413.000000 1 0 0
6.720456 3.856063 -7.650811 10.888924 0.520917 2.349874 0.001609 0.001239 -1470960.000000 1 0 0
16.363756 4.257463 -1.147911 16.947455 0.254533 1.638582 0.005488 0.006867 -863119.000000 1 0 0
7.905356 7.709063 -0.006611 11.041936 0.772828 1.571395 0.004490 -0.002433 -4139150.000000 1 0 0
5.611056 -10.257137 13.959989 18.209176 -1.070229 0.697196 0.012469 -0.005051 -134622.000000 1 0 0
-5.313744 -9.161337 8.928189 13.852022 1.045199 0.870374 0.000118 -0.004168 384970.000000 1 0 0
-12.644044 -3.163337 2.780389 13.327006 0.245152 1.360624 0.007137 -0.004052 -35645.600000 1 0 0
-2.073544 -1.346037 -5.949411 6.442584 0.575776 2.747775 0.013934 -0.009313 -1930250.000000 1 0 0
-2.552444 12.983563 -4.398311 13.943924 -1.376681 1.891705 0.005204 0.004920 530652.000000 1 0 0
3.942756 -0.364937 -4.986211 6.367167 -0.092296 2.470452 0.003499 -0.002307 -367961.000000 1 0 0
-8.870244 3.853563 -7.407811 12.182234 -0.409837 2.224440 0.010537 -0.003550 216274.000000 1 0 0
-4.666544 7.908463 -11.211711 14.492166 -1.037711 2.455361 0.007202 -0.001788 -1598420.000000 1 0 0
-10.046444 -6.511837 7.300589 14.022612 0.575090 1.023208 0.008908 -0.005730 -673412.000000 1 0 0
8.124756 5.269863 4.128489 10.527466 0.575403 1.167814 -0.002437 0.001658 -2804160.000000 1 0 0
-6.694544 -7.496537 4.009689 10.820933 0.841852 1.191196 0.008749 -0.001939 -815867.000000 1 0 0
-4.063044 11.785763 8.004289 14.814897 -1.238814 1.000019 0.000482 -0.003378 -535321.000000 1 0 0
-7.407644 9.942763 -7.936211 14.721249 -0.930484 2.140163 0.004001 -0.004169 -495792.000000 1 0 0
13.045156 5.552763 4.645989 14.919601 0.402427 1.254129 0.006377 -0.001000 564448.000000 1 0 0
5.497756 4.060663 -3.656411 7.751364 0.636167 2.062028 0.002430 -0.000140 343731.000000 1 0 0
-2.878444 -4.295037 5.088989 7.254694 0.980366 0.793331 0.004592 0.000048 -1562910.000000 1 0 0
12.509356 -2.386137 -5.281411 13.786622 -0.188484 1.963927 0.016193 -0.003514 -1076480.000000 1 0 0
-5.206144 9.639763 6.989189 12.995296 -1.075609 1.002942 -0.000059 -0.003457 -684000.000000 1 0 0
1.828956 3.770063 -0.462811 4.215762 1.119118 1.680799 0.002639 -0.004180 556102.000000 1 0 0
-0.071444 9.528863 7.666589 12.230328 -1.563299 0.893292 -0.001348 -0.002135 -1757990.000000 1 0 0
-5.463244 2.007963 5.812689 8.225953 -0.352215 0.786075 0.007127 -0.003686 812740.000000 1 0 0
8.723856 0.800463 10.727389 13.850028 0.091499 0.684810 0.000851 0.000374 -983262.000000 1 0 0
0.398356 -2.894537 -10.137911 10.550558 -1.434032 2.860990 0.008432 -0.006790 -1661450.000000 1 0 0
1.209056 10.653563 -2.798311 11.081099 1.457791 1.826091 0.009685 -0.004409 -466199.000000 1 0 0
2.319456 -4.248637 11.622189 12.589919 -1.071084 0.394641 -0.001949 -0.000506 -612808.000000 1 0 0
6.640056 -3.159637 9.533489 12.039978 -0.444138 0.657014 -0.003303 -0.004628 337184.000000 1 0 0
-10.688344 -8.226537 5.602589 14.604986 0.655974 1.177096 0.013328 -0.006174 -1061410.000000 1 0 0
-2.972044 0.808563 -6.797411 7.462681 -0.265627 2.716144 0.015102 -0.009615 947913.000000 1 0 0
11.111256 2.602663 -5.033711 12.472855 0.230088 1.986215 0.007259 0.001401 -3297280.000000 1 0 0
-2.055244 -4.072137 -0.067911 4.561901 1.103389 1.585683 0.009931 -0.002139 1125860.000000 1 0 0
-1.182144 -6.377637 -10.687511 12.501785 1.387519 2.596114 0.009884 -0.002989 468524.000000 1 0 0
0.316356 6.852463 -6.633011 9.542178 1.524662 2.339391 0.007946 -0.002008 -2636880.000000 1 0 0
2.076756 3.871263 -6.058611 7.483740 1.078412 2.514216 0.002972 -0.003441 -1951550.000000 1 0 0
1.614456 -14.748937 6.424189 16.168111 -1.461768 1.162183 0.010236 -0.006745 -235083.000000 1 0 0
-1.760144 5.318063 -10.584911 11.975819 -1.251170 2.654841 0.008304 -0.001877 -435479.000000 1 0 0
13.704156 4.305263 -0.800311 14.386789 0.304394 1.626453 0.003936 0.002730 -1842970.000000 1 0 0
-2.373344 3.331263 -6.223811 7.447543 -0.951766 2.560178 0.014254 -0.009229 -868092.000000 1 0 0
5.705656 7.979963 14.141489 17.210928 0.950075 0.606483 0.003463 0.000916 329956.000000 1 0 0
15.932956 0.660663 -5.891611 17.000196 0.041441 1.924699 0.015869 -0.003064 248598.000000 1 0 0
6.219156 -8.248137 10.717289 14.885226 -0.924735 0.767001 0.001843 -0.003271 -102159.000000 1 0 0
0.108756 -5.855937 -6.404511 8.678801 -1.552226 2.400822 0.007689 -0.004259 194691.000000 1 0 0
8.874956 5.437163 -7.470111 12.811329 0.549663 2.193319 0.004179 0.002587 170507.000000 1 0 0
-16.074044 -0.730637 5.346189 16.955543 0.045423 1.250017 0.020465 -0.007371 133647.000000 1 0 0
-0.291644 4.017263 -12.244911 12.890357 -1.498326 2.823802 0.006228 -0.003634 250455.000000 1 0 0
-11.531744 3.764063 5.791689 13.442207 -0.315506 1.125352 0.007641 -0.003953 459364.000000 1 0 0
5.333656 -9.555737 -9.498311 14.490615 -1.061708 2.285615 -0.008043 0.002846 15358.500000 1 0 0
1.433756 11.129463 -11.751511 16.248650 1.442677 2.379264 0.008176 -0.003762 -1416570.000000 1 0 0
5.982856 2.319263 1.232089 6.533880 0.369816 1.381091 0.002486 -0.001637 -391140.000000 1 0 0
5.762356 4.587663 4.921589 8.858523 0.672385 0.981740 -0.006806 0.002915 -155085.000000 1 0 0
0.361356 -1.540937 -6.344111 6.538564 -1.340454 2.897102 0.009036 -0.005995 421302.000000 1 0 0
12.740756 6.943863 -4.457911 15.179495 0.499005 1.868870 0.005845 -0.000272 -141806.000000 1 0 0
7.375556 3.186963 12.819389 15.129187 0.407867 0.559862 -0.002850 0.000885 -913180.000000 1 0 0
-2.278644 -0.188737 8.734589 9.028891 0.082640 0.256025 -0.003674 -0.000522 759109.000000 1 0 0
2.422456 -15.397837 13.079789 20.348036 -1.414751 0.872644 0.015548 -0.005670 639668.000000 1 0 0
18.885556 4.710163 -1.567111 19.527051 0.244419 1.651136 0.008902 -0.000002 831644.000000 1 0 0
-0.446244 -13.396637 7.258289 15.243090 1.537499 1.074503 0.007237 -0.005096 -1211980.000000 1 0 0
4.460256 1.665663 -0.528811 4.790403 0.357407 1.681411 0.003255 -0.003876 137364.000000 1 0 0
2.771756 -0.534337 -7.383411 7.904613 -0.190443 2.776424 0.003842 -0.003324 -337477.000000 1 0 0
7.317556 -11.384237 0.973289 13.568153 -0.999514 1.499001 0.004925 -0.000572 393509.000000 1 0 0
-11.880844 -7.298937 1.207589 13.995971 0.550901 1.484408 0.003862 -0.002346 358201.000000 1 0 0
0.164056 -7.143337 10.067189 12.345140 -1.547834 0.617242 0.000736 -0.001832 -1594870.000000 1 0 0
-4.605444 -7.203737 10.579889 13.602867 1.001971 0.679688 0.005855 -0.001265 -1417400.000000 1 0 0
11.927156 0.811363 -1.521711 12.051181 0.067922 1.697405 0.006035 0.001886 -172632.000000 1 0 0
6.626456 -9.685437 -7.277011 13.808422 -0.970776 2.125861 -0.002565 -0.002035 -226301.000000 1 0 0
-11.142844 4.861163 3.494089 12.649210 -0.411368 1.290927 0.001769 -0.003470 683992.000000 1 0 0
6.050156 -9.207837 2.189089 11.233021 -0.989470 1.374661 0.004045 -0.003013 4884510.000000 1 0 0
11.589556 -1.383037 5.996589 13.122107 -0.118773 1.096195 0.007028 -0.006573 -478427.000000 1 0 0
-6.633844 3.544963 4.271889 8.650068 -0.490768 1.054278 0.007418 -0.006306 -1071920.000000 1 0 0
9.556956 6.368363 -3.194711 11.920471 0.587789 1.842115 0.007688 0.001230 732107.000000 1 0 0
-2.337244 6.598863 10.858989 12.919959 -1.230395 0.572625 -0.002481 -0.001429 399738.000000 1 0 0
1.813256 9.786163 2.819189 10.344308 1.387586 1.294769 -0.000933 -0.001593 -78204.100000 1 0 0
2.861956 6.178563 -5.544811 8.781251 1.137014 2.254202 0.003103 -0.001047 -1766090.000000 1 0 0
12.101556 0.070963 -5.608211 13.338093 0.005864 2.004755 0.015458 -0.000760 372583.000000 1 0 0
-2.756344 -12.527737 6.286589 14.285056 1.354228 1.115107 0.004970 -0.003135 -218681.000000 1 0 0
10.844656 1.933463 -2.683511 11.337817 0.176433 1.809751 0.005181 0.002914 -5915.670000 1 0 0
-8.949544 5.334463 0.873489 10.455324 -0.537517 1.487154 0.004051 -0.005084 -450040.000000 1 0 0
1.153456 -10.198837 5.490789 11.640254 -1.458178 1.079571 0.006614 -0.003361 1289370.000000 1 0 0
9.515556 -5.658737 -1.123111 11.127826 -0.536501 1.671897 0.007442 -0.002392 247513.000000 1 0 0
-7.743144 8.592963 -4.467911 12.399900 -0.837372 1.939405 0.001521 -0.004004 47975.500000 1 0 0
-7.530644 -0.073237 -1.722211 7.725410 0.009725 1.795613 0.004561 -0.003369 -1156300.000000 1 0 0
4.104456 8.873663 2.657889 10.131773 1.137560 1.305358 0.002285 -0.003191 4120.490000 1 0 0
-1.353244 -10.416637 -3.748611 11.153012 1.441608 1.913577 0.012457 -0.001349 -293055.000000 1 0 0
3.114956 7.909763 -3.675211 9.261451 1.195636 1.978856 0.008924 -0.004156 187756.000000 1 0 0
-4.297944 1.601363 -11.051211 11.965197 -0.356654 2.748198 0.011210 -0.003590 -655007.000000 1 0 0
1.304056 2.783663 10.970389 11.392926 1.132691 0.273201 -0.001924 -0.000598 556148.000000 1 0 0
2.133856 5.631963 -8.068011 10.068026 1.208625 2.500345 0.005387 -0.001307 117936.000000 1 0 0
15.549556 6.097863 4.159889 17.212708 0.373727 1.326704 0.020387 -0.006471 371757.000000 1 0 0
-4.530144 8.967463 4.554389 11.030868 -1.103017 1.145186 0.003793 -0.001623 -462611.000000 1 0 0
-0.769944 -8.206837 -12.419911 14.906347 1.477253 2.555659 0.004478 -0.000531 213419.000000 1 0 0
14.447556 -4.219837 -5.252911 15.941518 -0.284175 1.906582 0.027794 -0.003861 54030.500000 1 0 0
-6.094944 -6.375637 -5.720211 10.512750 0.807903 2.146138 0.013167 -0.005299 573500.000000 1 0 0
-8.980144 2.515563 -12.344411 15.471119 -0.273125 2.494600 0.015808 -0.002358 -1018250.000000 1 0 0
10.434456 5.409163 13.757089 18.094044 0.478255 0.707006 0.006191 0.000862 524317.000000 1 0 0
-0.352944 10.757863 5.508589 12.091349 -1.538000 1.097772 0.000887 0.001915 596429.000000 1 0 0
0.395156 11.203663 -0.604311 11.226905 1.535541 1.624649 0.006944 -0.003248 -149040.000000 1 0 0
-1.513344 -0.631637 3.753789 4.096353 0.395398 0.411871 0.007616 -0.001251 330196.000000 1 0 0
-4.872444 6.646263 8.800489 12.056621 -0.938193 0.752577 0.003946 -0.002889 -433155.000000 1 0 0
3.532056 -8.612637 -11.320911 14.656602 -1.181612 2.453424 -0.007496 0.003181 1065600.000000 1 0 0
6.659156 -3.769637 12.071289 14.292325 -0.515107 0.564980 0.003400 -0.005897 -360312.000000 1 0 0
-2.524344 -1.914037 -12.556511 12.949974 0.648749 2.894455 0.011786 -0.009349 1064520.000000 1 0 0
-16.172644 -5.012537 5.315289 17.746330 0.300550 1.266612 0.035380 -0.012029 934928.000000 1 0 0
-8.963244 7.269863 5.680589 12.863115 -0.681458 1.113395 -0.002685 -0.003970 -2839150.000000 1 0 0
-12.859244 1.452663 6.048289 14.284683 -0.112490 1.133589 0.008107 -0.004555 215874.000000 1 0 0
-3.541444 3.571263 10.067789 11.254160 -0.789591 0.463297 0.001485 -0.000353 584280.000000 1 0 0
2.067756 -12.232937 -1.153011 12.459928 -1.403347 1.663466 0.010052 -0.003675 -2683150.000000 1 0 0
10.405656 -5.037737 -3.562711 12.097495 -0.450875 1.869728 0.012579 -0.002809 804081.000000 1 0 0
3.250656 -13.532337 0.944089 13.949273 -1.335049 1.503064 0.011345 -0.004334 287612.000000 1 0 0
10.137156 -1.536337 -6.056811 11.908284 -0.150410 2.104379 0.012746 -0.001564 -67673.900000 1 0 0
12.085656 -5.325837 -1.573511 13.300510 -0.415072 1.689379 0.014466 -0.001261 -1238460.000000 1 0 0
1.456056 0.885363 5.880589 6.122523 0.546321 0.282059 0.000503 -0.002351 441300.000000 1 0 0
-10.808544 11.637563 6.624989 17.208950 -0.822315 1.175617 0.002634 -0.006001 -370149.000000 1 0 0
4.762756 -14.136137 3.128989 15.241548 -1.245821 1.364033 0.011189 -0.005038 -4832040.000000 1 0 0
5.368856 -3.385737 -1.742111 6.582005 -0.562634 1.838666 0.005812 -0.003194 -1599800.000000 1 0 0
2.061856 -2.932837 -7.637911 8.437445 -0.958043 2.702740 0.005010 -0.003248 -25060.800000 1 0 0
-2.812744 14.869263 -8.941911 17.577380 -1.383840 2.104490 0.011651 -0.004862 -1333130.000000 1 0 0
-2.407444 6.006363 -8.138611 10.397556 -1.189587 2.469857 0.010716 -0.003911 154813.000000 1 0 0
2.564556 -3.469337 -11.295811 12.091675 -0.934239 2.776753 0.001994 -0.002410 -2848980.000000 1 0 0
14.743556 2.841563 -2.699211 15.255579 0.190398 1.748665 0.011013 0.004957 681312.000000 1 0 0
-3.536244 13.104263 2.325289 13.770755 -1.307220 1.401126 -0.003323 0.000646 -949204.000000 1 0 0
7.873756 -4.957637 14.021489 16.827845 -0.561929 0.585870 0.013141 -0.009518 -841014.000000 1 0 0
-11.546444 7.192063 2.899889 13.908827 -0.557074 1.360763 -0.001270 -0.000255 1102490.000000 1 0 0
-2.262444 11.897363 4.167589 12.807603 -1.382877 1.239362 0.002064 -0.000924 -84210.900000 1 0 0
1.755356 1.447163 0.726689 2.388228 0.689459 1.261614 0.004084 -0.002228 -779590.000000 1 0 0
-6.881944 8.582663 5.342289 12.229607 -0.894933 1.118722 0.002043 -0.003875 -1192040.000000 1 0 0
-1.095844 9.160263 0.998389 9.279443 -1.451732 1.462996 0.002224 0.000084 414139.000000 1 0 0
4.879856 12.911863 -8.453511 16.186138 1.209454 2.120305 0.013109 -0.016329 -3148410.000000 1 0 0
8.863256 6.929963 7.126689 13.318085 0.663591 1.006154 -0.006767 0.001324 -1674510.000000 1 0 0
7.266856 -13.677237 3.026489 15.780800 -1.082415 1.377818 0.019451 -0.007460 -64510.000000 1 0 0
4.266056 -13.305837 -1.324311 14.035610 -1.260535 1.665291 0.008295 0.000268 -2871100.000000 1 0 0
12.179856 -11.832637 -4.547311 17.579484 -0.770939 1.832443 0.032813 -0.008107 -1539120.000000 1 0 0
2.993956 0.044663 -2.002911 3.602419 0.014917 2.160351 0.005270 -0.003599 1638500.000000 1 0 0
-13.672744 -3.065337 -10.711311 17.637245 0.220546 2.223469 0.018987 -0.006838 196761.000000 1 0 0
-6.632544 13.688363 4.965189 16.000469 -1.119594 1.255272 0.003791 -0.001864 365804.000000 1 0 0
7.428756 -4.226537 -0.564211 8.565534 -0.517270 1.636714 0.003796 -0.001399 -887920.000000 1 0 0
11.743656 2.075863 -7.262011 13.962789 0.174957 2.117761 0.014792 -0.001234 227128.000000 1 0 0
-7.488344 -4.485637 9.674189 13.030202 0.539696 0.734086 0.008391 -0.007103 1040490.000000 1 0 0
1.076556 2.944863 8.504889 9.064454 1.220318 0.353207 -0.002488 -0.000420 -1609590.000000 1 0 0
1.590856 8.052463 -8.699011 11.960175 1.375747 2.385222 0.008515 -0.001879 47184.800000 1 0 0
-8.609644 -2.341037 -5.523811 10.493756 0.265490 2.125146 0.007689 -0.004262 -767359.000000 1 0 0
6.657056 -0.531137 7.087689 9.738267 -0.079617 0.755661 -0.003855 -0.001067 -21913.500000 1 0 0
-10.959544 6.380463 7.044989 14.507025 -0.527216 1.063717 0.007343 -0.005488 593879.000000 1 0 0
-5.930844 11.086763 5.070389 13.557288 -1.079583 1.187481 -0.004145 -0.001726 972563.000000 1 0 0
6.050456 -1.199237 -6.804711 9.184241 -0.195670 2.405223 0.003206 -0.000638 -1118520.000000 1 0 0
4.584556 -5.666437 11.471989 13.591659 -0.890548 0.566012 -0.000318 -0.005056 -1532930.000000 1 0 0
-8.936344 -7.311937 2.699389 11.857882 0.685755 1.341138 0.011723 -0.003380 -2277140.000000 1 0 0
-1.309444 12.740063 -9.473411 15.930140 -1.468374 2.207670 0.019221 -0.004026 566578.000000 1 0 0
-4.780544 9.065063 -2.293511 10.501864 -1.085502 1.790962 0.002078 -0.001648 744396.000000 1 0 0
-3.237544 9.741963 -0.337611 10.271393 -1.249949 1.603671 0.002188 -0.000748 -752454.000000 1 0 0
-3.586344 10.658263 -6.431711 12.954819 -1.246212 2.090327 0.007510 0.001576 853101.000000 1 0 0
4.968356 -4.792337 0.395389 6.914289 -0.767367 1.513581 0.006572 -0.003465 -1511410.000000 1 0 0
-2.200644 2.867963 -11.025811 11.603299 -0.916303 2.824772 0.011846 -0.004202 133320.000000 1 0 0
-3.732444 12.081763 -2.318411 12.855939 -1.271165 1.752126 -0.000282 0.003785 338209.000000 1 0 0
-0.158044 0.397063 0.030189 0.428425 -1.191988 1.500273 0.004889 -0.002779 -1907800.000000 1 0 0
-4.866344 -1.804537 0.095089 5.191021 0.355101 1.552477 0.004835 -0.001758 532377.000000 1 0 0
2.770556 2.601163 -2.468611 4.531674 0.753874 2.146882 -0.006184 -0.002606 1047380.000000 1 0 0
6.087156 -9.603737 8.577989 14.243143 -1.005871 0.924475 0.003972 -0.003374 -730505.000000 1 0 0
-4.307844 -5.621637 6.497289 9.611196 0.916946 0.828458 0.001195 -0.002882 99690.100000 1 0 0
-6.379144 5.340663 -12.051511 14.644285 -0.697020 2.537380 0.010243 -0.002883 408303.000000 1 0 0
-13.144444 3.061863 7.954389 15.666005 -0.228859 1.038227 0.009416 -0.003826 528466.000000 1 0 0
4.828356 -7.344637 -4.983811 10.104212 -0.989237 2.086608 0.001090 -0.003676 1507460.000000 1 0 0
-6.047644 2.495463 -1.062011 6.627910 -0.391350 1.731723 0.009125 -0.004687 -554203.000000 1 0 0
-6.930644 -2.780337 -14.610111 16.407908 0.381511 2.669088 0.019181 -0.002568 850543.000000 1 0 0
2.829556 -6.115037 0.850289 6.791396 -1.137414 1.445266 0.008780 -0.001211 -145759.000000 1 0 0
4.817456 -7.840537 12.995089 15.923387 -1.019834 0.616165 0.007992 -0.004584 -220118.000000 1 0 0
-10.034944 -1.683537 8.037489 12.966712 0.166220 0.902238 0.012025 -0.007304 -210353.000000 1 0 0
-4.502244 13.147763 -0.105011 13.897658 -1.240877 1.578352 -0.006573 0.005610 673256.000000 1 0 0
6.820356 2.258363 -4.509411 8.482467 0.319758 2.131303 0.001360 0.001723 -1543220.000000 1 0 0
5.100056 4.529463 0.030989 6.821112 0.726213 1.566253 -0.000604 -0.000513 -187496.000000 1 0 0
-5.859744 12.108363 1.895689 13.584649 -1.120078 1.430793 -0.003103 -0.001661 238427.000000 1 0 0
6.587656 -7.213437 6.569689 11.772498 -0.830710 0.978758 0.002709 -0.003115 -295356.000000 1 0 0
-0.239344 4.927263 7.620689 9.078001 -1.522259 0.574493 0.000531 -0.001348 -395244.000000 1 0 0
-5.804944 -3.466237 -1.704011 6.972505 0.538298 1.817687 0.009178 -0.003602 -335319.000000 1 0 0
2.321656 -6.610637 -5.204511 8.727975 -1.233053 2.209683 0.005074 -0.001943 -581633.000000 1 0 0
-14.409744 -4.788837 -3.796111 15.651969 0.320850 1.815772 0.013490 -0.007628 -81094.200000 1 0 0
-12.378544 -5.231237 -6.392511 14.881478 0.399841 2.014804 0.012963 -0.009782 -607580.000000 1 0 0
-14.780444 -3.736237 -1.275511 15.298624 0.247596 1.654267 0.008645 -0.006123 497732.000000 1 0 0
11.795856 2.868963 8.848589 15.022340 0.238585 0.940940 0.007968 -0.005233 -1106020.000000 1 0 0
8.915256 -6.611937 7.686089 13.500943 -0.638131 0.965142 0.005537 -0.010158 327611.000000 1 0 0
-8.855044 -1.764237 -9.824811 13.343584 0.196660 2.398374 0.005882 -0.001078 124343.000000 1 0 0
-8.847944 5.110763 -3.899011 10.936557 -0.523802 1.935328 0.006274 -0.003588 -1034230.000000 1 0 0
-4.050644 -6.263937 4.005989 8.467147 0.996772 1.077966 0.009861 -0.001258 -1677010.000000 1 0 0
-0.249344 -9.319637 3.531289 9.969344 1.544048 1.208722 0.008367 -0.004016 579856.000000 1 0 0
8.083756 -10.436437 3.443889 13.642826 -0.911755 1.315603 0.008577 -0.003622 -28531.300000 1 0 0
-0.005744 6.503163 9.602989 11.597782 -1.569913 0.595261 -0.002217 -0.002262 441095.000000 1 0 0
-0.014044 3.493963 -9.711911 10.321298 -1.566777 2.796246 0.010200 -0.005585 368901.000000 1 0 0
4.423956 -3.110237 10.871589 12.142340 -0.612766 0.461590 -0.003114 -0.002566 -1042780.000000 1 0 0
8.560056 -9.157237 1.334489 12.605968 -0.819092 1.464736 0.006983 -0.003678 -125953.000000 1 0 0
-0.290744 -0.435437 11.305189 11.317307 0.982075 0.046280 0.001275 0.000934 -499947.000000 1 0 0
10.754356 5.975763 11.311989 16.713079 0.507178 0.827342 0.000500 0.001246 -194792.000000 1 0 0
-6.341944 -2.999837 -11.941211 13.849614 0.441828 2.610404 0.015047 -0.004282 599692.000000 1 0 0
-1.588844 2.844363 8.380389 8.991426 -1.061379 0.370788 0.003863 -0.001536 -1626190.000000 1 0 0
-1.935344 13.446763 -6.997511 15.281562 -1.427852 2.046434 0.009135 -0.001879 557047.000000 1 0 0
7.638356 3.039263 9.794989 12.787627 0.378690 0.698241 -0.009453 0.002080 586324.000000 1 0 0
6.462856 8.534663 -7.961511 13.341463 0.922673 2.210240 0.011414 -0.000461 555138.000000 1 0 0
6.762556 -2.987737 -3.875111 8.347169 -0.416019 2.053576 0.004336 -0.002348 -1798450.000000 1 0 0
1.981656 8.171363 0.899189 8.456162 1.332877 1.464260 0.002546 -0.001615 801997.000000 1 0 0
-17.825744 6.360763 6.477789 20.004454 -0.342747 1.241035 0.041950 -0.000145 170143.000000 1 0 0
-14.952444 2.948563 -10.131111 18.300519 -0.194698 2.157474 0.040077 -0.007098 -287318.000000 1 0 0
-18.325644 0.081363 -4.539111 18.879602 -0.004440 1.813599 0.040232 -0.008805 354425.000000 1 0 0
-13.019344 8.029763 0.151089 15.297164 -0.552649 1.560919 0.006468 0.000677 -1777780.000000 1 0 0
-12.661944 -4.564637 -12.614211 18.446654 0.345999 2.323783 0.022036 0.001127 -395711.000000 1 0 0
-17.274544 -0.605537 -8.695411 19.349075 0.035039 2.036886 0.039258 -0.017370 -513395.000000 1 0 0
-16.672044 -2.139937 -2.125411 16.942660 0.127657 1.696575 0.021652 -0.008031 212914.000000 1 0 0
-15.476244 4.007363 1.633089 16.069849 -0.253372 1.468996 0.013364 0.003169 -697745.000000 1 0 0
-13.368244 5.889463 4.472489 15.277397 -0.414973 1.273693 0.001686 0.000523 71859.200000 1 0 0
-9.846744 14.181763 2.799689 17.490541 -0.963890 1.410036 0.008859 -0.003727 -99863.700000 1 0 0
-11.884544 2.483063 -6.509111 13.775939 -0.205969 2.062920 0.004000 -0.000943 595069.000000 1 0 0
-15.836344 10.570463 3.748789 19.405615 -0.588566 1.376394 0.017824 -0.010920 -1120290.000000 1 0 0
-12.812144 1.145963 -8.662411 15.508115 -0.089206 2.163460 0.007707 -0.001602 607204.000000 1 0 0
-12.130044 14.522163 3.925789 19.324673 -0.874911 1.366223 0.018263 -0.003142 -551227.000000 1 0 0
-10.485844 11.193663 -1.108911 15.377928 -0.818036 1.642970 0.004542 -0.004522 404618.000000 1 0 0
-17.438044 5.549163 8.911589 20.354238 -0.308089 1.117619 0.041370 -0.004393 194097.000000 1 0 0
-11.869844 12.229963 -9.019311 19.282457 -0.800340 2.057536 0.014155 -0.018359 -865824.000000 1 0 0
-17.156044 -0.567237 2.947489 17.416638 0.033051 1.400744 0.019016 -0.005673 656128.000000 1 0 0
-13.075544 15.026763 -0.694411 19.931273 -0.854720 1.605644 0.028045 -0.008122 241803.000000 1 0 0
-16.701144 4.758863 -10.312511 20.197100 -0.277586 2.106671 0.059068 -0.013924 618747.000000 1 0 0
-11.995544 7.397463 -9.157211 16.806845 -0.552597 2.147007 0.012059 -0.002112 349324.000000 1 0 0
-14.726244 13.610363 -2.277911 20.181504 -0.746039 1.683909 0.046897 -0.014746 1000520.000000 1 0 0
-11.915344 10.592063 -5.374211 16.824071 -0.726673 1.895930 0.020937 -0.008428 1150880.000000 1 0 0
-17.834644 2.932063 -1.008811 18.102188 -0.162945 1.626554 0.027538 -0.000417 201559.000000 1 0 0
-9.354344 15.402363 0.704989 18.034232 -1.025003 1.531695 0.017398 -0.001812 -328313.000000 1 0 0
-8.273644 13.196063 -3.777711 16.026863 -1.010776 1.808747 0.005513 -0.003888 -369643.000000 1 0 0
-17.764544 11.573663 2.250089 21.321153 -0.577431 1.465066 0.064650 -0.004345 -58010.100000 1 0 0
-8.254144 15.523963 -7.351511 19.056994 -1.082109 1.966833 0.045091 -0.019094 -39231.400000 1 0 0
-6.339844 15.305863 -5.453511 17.441440 -1.178100 1.888805 0.010265 0.001584 -189646.000000 1 0 0
-17.440044 5.332263 -0.223111 18.238364 -0.296722 1.583030 0.032678 0.003203 864856.000000 1 0 0
-5.561144 12.264063 -12.330311 18.258426 -1.145077 2.312197 0.002159 -0.004548 404181.000000 1 0 0
-11.243244 3.666063 -11.544011 16.526183 -0.315198 2.344135 0.016514 -0.002604 651055.000000 1 0 0
-11.783944 11.214863 1.146289 16.307926 -0.760659 1.500448 0.007177 -0.005192 87130.800000 1 0 0
-13.020744 0.189663 -11.118411 17.122932 -0.014565 2.277498 0.012998 -0.002415 1728330.000000 1 0 0
-14.078344 -2.417737 -13.192211 19.444270 0.170075 2.316464 0.029742 -0.000214 38148.900000 1 0 0
-18.727344 -2.258837 -3.801711 19.242369 0.120037 1.769675 0.030272 -0.008678 509294.000000 1 0 0
-18.207144 4.852463 -5.327411 19.581312 -0.260460 1.846336 0.036655 -0.011879 163600.000000 1 0 0
-8.397444 15.432063 -2.282211 17.716492 -1.072451 1.699974 0.019673 -0.001199 822358.000000 1 0 0
-16.160644 9.287263 -5.272811 19.370653 -0.521597 1.846481 0.041386 -0.004665 214687.000000 1 0 0
-18.411844 1.599163 2.196489 18.611230 -0.086638 1.452501 0.039870 -0.001555 447396.000000 1 0 0
-15.722144 -2.735137 -8.523411 18.091858 0.172243 2.061355 0.018603 -0.014050 -332804.000000 1 0 0
-9.818744 10.534663 -7.174711 16.089230 -0.820558 2.033012 0.008070 -0.009146 109994.000000 1 0 0
-13.985144 11.624363 -7.549311 19.690154 -0.693474 1.964277 0.039245 -0.029323 99307.900000 1 0 0
-11.024944 6.515363 -3.752811 13.344771 -0.533750 1.855861 0.000464 -0.002617 -1013950.000000 1 0 0
-13.179644 5.030263 -12.651011 18.948737 -0.364605 2.301836 0.039448 -0.011980 -406676.000000 1 0 0
-17.589744 9.031863 2.671089 19.952652 -0.474368 1.436522 0.029536 -0.009242 870220.000000 1 0 0
-13.357944 8.626863 -6.542911 17.194973 -0.573433 1.961147 0.013251 -0.008254 -164807.000000 1 0 0
-15.837744 7.118263 -3.861111 17.787972 -0.422396 1.789601 0.025989 0.002347 -356586.000000 1 0 0
-14.907144 -0.348837 -9.301611 17.574544 0.023396 2.128532 0.023010 -0.012766 -703248.000000 1 0 0
-10.133744 5.753463 -6.079911 13.143835 -0.516371 2.051685 0.004232 -0.002500 252442.000000 1 0 0
-12.775644 12.467263 -0.953111 17.876189 -0.773182 1.624139 0.021087 -0.007749 -628821.000000 1 0 0
-10.647944 3.449863 -14.056211 17.968231 -0.313321 2.469116 0.021674 -0.001755 565444.000000 1 0 0
-11.001244 6.194763 -11.956511 17.388519 -0.512843 2.328988 0.008035 -0.004435 -1163670.000000 1 0 0
-5.838244 11.458263 -14.806411 19.611392 -1.099560 2.426436 0.011847 -0.012244 21444.500000 1 0 0
-15.531244 13.289663 3.566489 20.749807 -0.707778 1.398058 0.018854 -0.012723 68101.700000 1 0 0
-15.034444 11.097563 -2.904711 18.911048 -0.635869 1.725005 0.038626 -0.006510 815720.000000 1 0 0
-18.296044 7.876563 -4.497711 20.420942 -0.406525 1.792867 0.053866 -0.008539 1698830.000000 1 0 0
-4.209344 16.109163 -10.775411 19.832629 -1.315210 2.145180 0.028487 -0.010967 -83901.900000 1 0 0
-15.736744 4.418763 -4.509811 16.956089 -0.273744 1.840006 0.025965 0.000617 -105103.000000 1 0 0
-18.842744 -1.783637 -6.387911 19.975879 0.094378 1.896295 0.046004 -0.012058 476278.000000 1 0 0
-10.758944 8.563863 -5.808111 14.927450 -0.672283 1.970439 0.006775 -0.003450 1452340.000000 1 0 0
-11.559044 13.649963 -6.828011 19.145618 -0.868152 1.935461 0.020104 -0.006156 335794.000000 1 0 0
-9.415244 10.479063 -4.457211 14.775801 -0.838821 1.877226 0.000061 -0.002796 -852691.000000 1 0 0
-11.084244 6.265363 -0.192911 12.733909 -0.514476 1.585946 -0.000315 -0.000827 -526507.000000 1 0 0
-14.741344 9.204863 -1.390311 17.434726 -0.558186 1.650625 0.030321 -0.002529 692668.000000 1 0 0
-18.688344 3.362863 4.757289 19.575363 -0.178039 1.325314 0.037092 0.002035 459482.000000 1 0 0
-14.783944 13.415763 0.336089 19.966488 -0.736919 1.553963 0.026322 0.002935 -649060.000000 1 0 0
-17.246944 2.618763 -8.912111 19.589301 -0.150688 2.043110 0.058576 -0.013311 -327087.000000 1 0 0
-9.261944 8.431363 -9.001511 15.423964 -0.738489 2.193958 0.011523 -0.002569 -2025080.000000 1 0 0
-17.538344 4.832863 -2.769711 18.401667 -0.268887 1.721885 0.018950 0.000610 522502.000000 1 0 0
-13.489144 5.939963 -4.440711 15.393507 -0.414801 1.863435 0.010285 0.000785 -673608.000000 1 0 0
-12.176444 9.679463 3.238689 15.888577 -0.671644 1.365520 0.000811 -0.000449 1381520.000000 1 0 0
-17.666344 2.615563 -4.111111 18.325995 -0.146986 1.797054 0.035406 -0.004138 947115.000000 1 0 0
-11.333144 1.407363 -12.760011 17.124214 -0.123549 2.411548 0.017988 0.002454 -86299.200000 1 0 0
-11.103644 12.035463 3.510889 16.747227 -0.825647 1.359590 0.003712 -0.004395 397214.000000 1 0 0
-16.590844 12.911563 -3.800711 21.363753 -0.661328 1.749653 0.070162 -0.018827 -578911.000000 1 0 0
-11.204244 4.094963 -4.472411 12.739947 -0.350401 1.929493 -0.002016 -0.000794 -505546.000000 1 0 0
-11.445844 14.857363 -9.051711 20.825034 -0.914378 2.020452 0.036339 -0.015599 257939.000000 1 0 0
-15.520844 7.148763 -0.004611 17.088049 -0.431627 1.571066 0.024254 0.005283 -146085.000000 1 0 0
-12.729844 8.429463 -4.015411 15.786966 -0.584891 1.827972 0.010822 -0.002517 556800.000000 1 0 0
-19.223744 1.984163 -6.079111 20.259438 -0.102850 1.875555 0.052656 -0.011983 640559.000000 1 0 0
-12.749244 9.868263 -8.950311 18.440008 -0.658702 2.077588 0.018024 -0.016776 788905.000000 1 0 0
-16.672544 10.872563 -0.772711 19.919423 -0.577867 1.609598 0.042446 -0.005958 386531.000000 1 0 0
-10.905744 6.384663 -14.585811 19.298835 -0.529645 2.427652 0.032885 -0.011324 211480.000000 1 0 0
-14.080244 12.833763 -4.613911 19.602217 -0.739118 1.808403 0.046015 -0.010943 -63534.300000 1 0 0
-18.023144 7.838563 -0.098811 19.654173 -0.410240 1.575824 0.047985 -0.000818 193060.000000 1 0 0
-12.869244 6.663963 -2.034311 14.634352 -0.477802 1.710257 0.001126 0.002218 416676.000000 1 0 0
-14.013144 8.275463 -10.671311 19.460944 -0.533442 2.151180 0.026536 -0.010994 535509.000000 1 0 0
-14.941644 1.421363 -0.980511 15.041090 -0.094842 1.636031 0.008556 -0.001151 -713379.000000 1 0 0
-13.333344 2.794363 -2.429911 13.838027 -0.206587 1.747308 0.001484 0.000567 132118.000000 1 0 0
-11.428244 8.983063 -10.952611 18.200546 -0.666171 2.216517 0.010250 -0.011175 -333440.000000 1 0 0
-15.589944 4.346063 -7.935711 18.025263 -0.271871 2.026679 0.035955 -0.006203 505190.000000 1 0 0
-18.381844 10.561463 4.559289 21.684644 -0.521503 1.358961 0.074430 -0.019494 1086020.000000 1 0 0
-15.365344 6.244563 -6.196711 17.705580 -0.386016 1.928353 0.026986 -0.002802 711682.000000 1 0 0
-7.841144 11.130863 -13.025811 18.842807 -0.957090 2.334067 0.005655 -0.007181 -665920.000000 1 0 0
-16.942544 9.320963 -2.864611 19.548302 -0.502959 1.717866 0.049295 -0.005816 830789.000000 1 0 0
-20.710744 -0.833537 -4.794311 21.274753 0.040225 1.798101 0.056745 -0.014024 1028040.000000 1 0 0
-15.528144 4.270163 4.146289 16.629770 -0.268362 1.318809 0.013288 0.004790 -397035.000000 1 0 0
-7.047044 12.639363 -9.399611 17.255927 -1.062177 2.146849 0.007314 -0.004954 -2176340.000000 1 0 0
-17.148144 1.564963 5.955389 18.220170 -0.091009 1.237820 0.025534 -0.005951 598635.000000 1 0 0
-10.570744 14.237563 -3.296811 18.036568 -0.932142 1.754615 0.027370 -0.012978 529846.000000 1 0 0
-10.136244 8.327163 -13.031311 18.490542 -0.687728 2.352875 0.007099 -0.005589 156975.000000 1 0 0
-13.593844 11.805563 2.749189 18.213235 -0.715108 1.419273 0.016698 -0.005582 -203073.000000 1 0 0
-17.091144 6.682263 2.022689 18.462153 -0.372705 1.461017 0.031301 0.004397 957925.000000 1 0 0
-9.505244 13.180263 -8.434011 18.308510 -0.946001 2.049536 0.022165 -0.012389 -977175.000000 1 0 0
-5.618944 9.766463 -12.879611 17.112589 -1.048714 2.422858 0.006999 -0.003320 -792715.000000 1 0 0
-15.949844 1.753363 3.119489 16.346345 -0.109490 1.378781 0.013387 0.004536 -522181.000000 1 0 0
-18.643144 -4.881037 4.275989 19.740198 0.256067 1.352452 0.054892 -0.022835 522888.000000 1 0 0
-5.374844 14.465563 -9.131511 17.931145 -1.215044 2.105114 0.012876 -0.006333 -769528.000000 1 0 0
-15.482344 -0.751237 -6.792811 16.923640 0.048484 1.983819 0.018841 -0.006808 863133.000000 1 0 0
-9.066344 10.966363 -9.588011 17.157787 -0.879961 2.163751 0.000644 -0.008739 356969.000000 1 0 0
-16.679044 1.283663 -6.131911 17.816807 -0.076811 1.922145 0.017129 -0.006122 -810235.000000 1 0 0
-11.188244 8.690763 -1.532211 14.249695 -0.660419 1.678531 0.001730 -0.001127 -370174.000000 1 0 0
-10.935044 10.842263 -12.570311 19.878193 -0.781138 2.255401 0.022096 -0.012301 -84159.700000 1 0 0
-14.277844 11.639663 -10.047911 20.983305 -0.683956 2.070144 0.050757 -0.024323 817603.000000 1 0 0
-13.220244 5.570763 -7.585011 16.227773 -0.398802 2.057154 0.012828 0.000793 436631.000000 1 0 0
-8.911944 15.280763 -4.961111 18.372182 -1.042811 1.844225 0.020207 -0.010625 -178477.000000 1 0 0
-8.662444 6.177963 -13.011811 16.808105 -0.619523 2.456150 0.012808 -0.003252 544868.000000 1 0 0
-16.501244 7.424263 4.399389 18.621636 -0.422789 1.332290 0.026240 0.004978 -283540.000000 1 0 0
-12.733844 5.221863 -10.140611 17.095339 -0.389164 2.205799 0.013603 -0.003412 624312.000000 1 0 0
-12.662944 9.027363 -13.348611 20.494605 -0.619329 2.280123 0.043510 -0.016599 -259005.000000 1 0 0
-10.870444 5.150763 -8.509711 14.734724 -0.442495 2.186493 0.005243 -0.000131 -2103390.000000 1 0 0
-17.615444 -4.403737 -2.665411 18.352143 0.244972 1.716549 0.018155 -0.009893 59849.700000 1 0 0
-8.943744 13.244763 -10.960611 19.379094 -0.976864 2.171944 0.022512 -0.007910 201480.000000 1 0 0
-15.255144 6.010763 6.206289 17.531877 -0.375337 1.208951 0.015799 -0.002094 -977573.000000 1 0 0
-16.291844 -3.031537 -4.492411 17.169628 0.183973 1.835526 0.018148 -0.008452 -133713.000000 1 0 0
-11.235844 -1.243237 -12.607911 16.933672 0.110201 2.410652 0.007611 0.002785 663137.000000 1 0 0
-15.382544 6.864063 -8.545911 18.888372 -0.419710 2.040299 0.024290 -0.002905 -38922.600000 1 0 0
-14.808844 9.321663 1.215689 17.540614 -0.561804 1.501434 0.023197 -0.004422 2824.990000 1 0 0
-19.768844 5.225963 7.823489 21.893488 -0.258442 1.205375 0.064768 -0.004524 344540.000000 1 0 0
-16.398944 0.590363 0.812289 16.429659 -0.035985 1.521336 0.020936 -0.002545 214010.000000 1 0 0
-17.644244 3.808663 7.073189 19.386986 -0.212597 1.197333 0.030819 0.005436 928313.000000 1 0 0
-15.461944 4.045663 -1.470311 16.049950 -0.255916 1.662533 0.013548 -0.000108 -606573.000000 1 0 0
-10.722744 13.361163 0.309989 17.134585 -0.894514 1.552704 0.015441 -0.010702 -359415.000000 1 0 0
-13.542944 3.352463 0.069289 13.951886 -0.242665 1.565830 0.005986 0.002574 -404850.000000 1 0 0
-15.050244 0.221163 -4.306111 15.655713 -0.014694 1.849439 0.011387 -0.003666 -573983.000000 1 0 0
-18.971544 7.034963 3.700089 20.569415 -0.355098 1.389929 0.046492 -0.003428 -594436.000000 1 0 0
-14.176044 1.421263 -6.496711 15.658463 -0.099924 1.998630 0.013131 -0.000345 -2540370.000000 1 0 0
-14.193844 11.912263 5.233889 19.255150 -0.698223 1.295515 0.011959 -0.018057 427507.000000 1 0 0
17.631356 5.428963 6.328189 19.503444 0.298703 1.240350 0.035731 -0.010966 343748.000000 1 0 0
18.630156 7.538563 -0.293711 20.099724 0.384503 1.585410 0.035651 -0.003244 437093.000000 1 0 0
16.526156 5.085263 8.596889 19.310107 0.298515 1.109397 0.043342 -0.010665 199625.000000 1 0 0
11.549156 12.299963 11.019889 20.152172 0.816869 0.992218 0.013928 -0.003366 508275.000000 1 0 0
-2.358144 16.388863 -0.597011 16.568406 -1.427890 1.606837 0.003189 -0.000012 -26565.900000 1 0 0
14.945556 12.777263 3.596689 19.989104 0.707344 1.389879 0.046986 -0.010553 647178.000000 1 0 0
13.644256 11.840263 6.880489 19.331288 0.714728 1.206893 0.038809 0.000745 590416.000000 1 0 0
-0.719144 15.939763 8.622689 18.136812 -1.525711 1.075350 0.001122 0.001092 -206440.000000 1 0 0
0.694356 12.768863 9.402189 15.872213 1.516471 0.936802 -0.001243 -0.004307 -1004280.000000 1 0 0
0.666856 15.465863 -3.932611 15.971945 1.527705 1.819574 0.016099 -0.004239 -1496620.000000 1 0 0
5.649956 10.457663 13.558589 18.031086 1.075454 0.719772 0.008217 -0.001711 173699.000000 1 0 0
-1.423844 16.467963 -2.900811 16.782009 -1.484549 1.744521 0.009783 0.000682 -804525.000000 1 0 0
8.463556 10.166463 3.309389 13.636011 0.876551 1.325654 0.004372 0.000393 379870.000000 1 0 0
12.563556 13.843863 -4.836011 19.310165 0.833843 1.823930 0.059496 -0.016519 329271.000000 1 0 0
2.402556 11.580163 7.739389 14.134022 1.366227 0.991337 0.002059 -0.000592 556077.000000 1 0 0
-0.343344 14.814563 -8.643011 17.154906 -1.547624 2.098813 0.020569 -0.006849 -1886320.000000 1 0 0
2.312856 15.967063 0.296989 16.136437 1.426945 1.552390 0.020524 -0.007649 -388916.000000 1 0 0
1.863956 13.320163 5.299089 14.456189 1.431764 1.195485 0.006571 -0.000434 1790750.000000 1 0 0
17.441956 9.227763 -1.789511 19.813526 0.486621 1.661237 0.010590 -0.004059 220490.000000 1 0 0
-7.224344 14.860963 7.147189 18.003379 -1.118307 1.162560 0.011049 -0.011718 -1300700.000000 1 0 0
8.540556 16.146963 -0.154211 18.267164 1.084276 1.579238 0.017803 -0.011445 -867103.000000 1 0 0
15.666056 10.618563 2.324489 19.067838 0.595676 1.448586 0.038455 -0.002801 -111222.000000 1 0 0
14.112956 7.440263 8.750189 18.196122 0.485165 1.069136 0.032003 -0.006250 -1047060.000000 1 0 0
4.123756 18.341363 -1.742911 18.879849 1.349640 1.663244 0.037358 -0.026555 187376.000000 1 0 0
-0.596044 17.561763 -4.949611 18.255668 -1.536870 1.845360 0.020815 -0.000364 600040.000000 1 0 0
1.331956 13.739463 -0.772311 13.825462 1.474154 1.626687 0.010968 -0.006576 149782.000000 1 0 0
10.301856 14.805163 4.228289 18.525645 0.962875 1.340527 0.012359 -0.013082 -420347.000000 1 0 0
-1.645344 15.260963 -5.207211 16.208615 -1.463397 1.897858 0.015787 -0.001082 24914.800000 1 0 0
15.238656 8.816163 -6.130111 18.641879 0.524490 1.905867 0.041792 -0.005064 301165.000000 1 0 0
-2.537744 18.493963 0.953089 18.691580 -1.434428 1.519784 0.011563 -0.005703 -1200950.000000 1 0 0
-3.871144 19.213563 3.494289 19.908712 -1.371978 1.394367 0.017478 -0.012441 -56136.900000 1 0 0
1.722856 17.490163 -2.560811 17.760399 1.472609 1.715487 0.023844 -0.013046 92071.000000 1 0 0
2.884656 12.219463 3.240589 12.966801 1.338970 1.318205 0.004121 -0.000992 1186810.000000 1 0 0
-2.655944 16.150863 1.862189 16.473377 -1.407809 1.457512 0.003946 -0.005091 -1144680.000000 1 0 0
11.733456 12.949263 -2.578311 17.663666 0.834616 1.717287 0.020286 -0.000588 289073.000000 1 0 0
7.105656 11.726363 4.746589 14.509584 1.026009 1.237526 0.007408 -0.000743 33448.700000 1 0 0
7.221456 15.893563 2.058189 17.578137 1.144320 1.453439 0.017067 -0.010877 -430425.000000 1 0 0
5.428656 12.191263 10.358189 16.893468 1.151866 0.910757 0.001896 0.005392 366860.000000 1 0 0
-1.387244 14.129763 3.079289 14.527789 -1.472931 1.357218 0.003627 0.000375 -1610330.000000 1 0 0
4.654656 15.986663 1.595289 16.726750 1.287470 1.475278 0.019331 -0.016469 -1702100.000000 1 0 0
7.385256 13.077463 11.953789 19.195185 1.056713 0.898545 0.016735 -0.001460 42850.100000 1 0 0
0.528256 17.184263 -9.476211 19.631009 1.540065 2.074550 0.024029 -0.006434 321509.000000 1 0 0
9.813556 9.500963 15.307889 20.515985 0.769215 0.728544 0.019947 -0.010657 -533923.000000 1 0 0
13.541756 7.508363 0.020689 15.484027 0.506261 1.569460 0.003638 0.005524 294929.000000 1 0 0
12.497556 13.538063 -0.103311 18.424949 0.825342 1.576403 0.033057 -0.011695 607564.000000 1 0 0
9.341656 12.483063 3.450989 15.968805 0.928354 1.352970 0.006444 0.001456 418256.000000 1 0 0
-0.662544 12.949663 0.654389 12.983103 -1.519678 1.520372 0.005944 -0.004399 -1171930.000000 1 0 0
16.043856 7.329863 -0.828811 17.658402 0.428547 1.617749 0.016361 0.003163 -281067.000000 1 0 0
-4.289544 18.408063 -2.283211 19.038645 -1.341857 1.691011 0.018694 0.001434 -46561.000000 1 0 0
11.790256 9.480663 -3.163911 15.456502 0.677242 1.776951 0.022617 0.001950 237287.000000 1 0 0
14.802056 9.726463 7.908689 19.397224 0.581352 1.150838 0.042080 -0.003479 1248430.000000 1 0 0
4.528556 13.674663 4.702289 15.153077 1.250999 1.255268 0.010185 -0.001964 1303380.000000 1 0 0
2.185556 15.892863 5.676089 17.016983 1.434135 1.230725 0.011451 -0.003294 624819.000000 1 0 0
6.009656 18.407563 5.518489 20.134747 1.255229 1.293166 0.025928 -0.019869 -109914.000000 1 0 0
10.613256 17.371663 -1.123611 20.388192 1.022363 1.625935 0.040685 -0.021686 -718050.000000 1 0 0
9.998356 13.680463 -4.422311 17.512254 0.939665 1.826087 0.040737 -0.008925 -887887.000000 1 0 0
16.510156 8.008163 2.432189 18.510307 0.451612 1.439019 0.013933 -0.002442 -132950.000000 1 0 0
3.975156 14.022463 -0.570711 14.586193 1.294559 1.609933 0.016114 -0.009855 995042.000000 1 0 0
5.525056 13.146963 -2.566011 14.489765 1.172953 1.748827 0.015076 -0.008967 -238479.000000 1 0 0
-6.284444 16.893563 -3.027811 18.277153 -1.214656 1.737225 0.016068 0.003773 -90186.800000 1 0 0
18.207556 9.880663 2.611389 20.879702 0.497197 1.445400 0.053716 -0.018002 1298850.000000 1 0 0
7.850556 12.923363 9.375289 17.791587 1.024902 1.015788 0.009338 -0.002323 1450150.000000 1 0 0
-2.634044 15.687963 6.804789 17.301893 -1.404446 1.166581 0.000610 -0.001797 673169.000000 1 0 0
11.189856 16.058463 6.283889 20.556614 0.962208 1.260136 0.025420 -0.010811 63063.000000 1 0 0
13.594656 12.011963 1.490689 18.202310 0.723669 1.488809 0.037188 -0.006115 1212460.000000 1 0 0
17.551556 7.760563 -5.727611 20.027206 0.416313 1.860837 0.018987 0.014542 -320602.000000 1 0 0
9.472056 9.324063 7.962789 15.493999 0.777525 1.031040 0.001146 0.000933 -524834.000000 1 0 0
-2.106044 14.166363 -2.017711 14.463485 -1.423212 1.710757 0.002198 -0.000552 668180.000000 1 0 0
10.957856 11.661463 0.754689 16.019797 0.816495 1.523669 0.012102 0.001028 610125.000000 1 0 0
11.837356 9.768263 -0.626011 15.360138 0.689923 1.611563 0.011885 0.004325 -1837140.000000 1 0 0
-0.365944 15.802463 11.167489 19.353670 -1.547643 0.955719 0.006239 -0.009678 -279399.000000 1 0 0
2.108856 19.901063 -1.577411 20.074556 1.465223 1.649455 0.046718 -0.027848 -746914.000000 1 0 0
9.293256 14.428563 1.669289 17.243392 0.998589 1.473837 0.010740 -0.007870 -277204.000000 1 0 0
8.545156 11.647063 -5.084911 15.314375 0.937825 1.909257 0.026424 -0.003402 -843102.000000 1 0 0
10.535756 10.092163 10.206489 17.805233 0.763897 0.960354 0.003179 -0.000101 50994.400000 1 0 0
-5.136244 15.728863 5.729989 17.510308 -1.255164 1.237420 -0.004278 -0.003010 433092.000000 1 0 0
14.401056 9.090863 -1.875211 17.133319 0.563091 1.680464 0.022811 -0.000403 -835042.000000 1 0 0
12.239256 9.657863 7.020889 17.098731 0.668052 1.147675 0.019211 0.000187 -957656.000000 1 0 0
3.104856 12.864363 9.755889 16.441087 1.333972 0.935539 0.001742 -0.004125 -586850.000000 1 0 0
8.522756 12.687163 -2.614011 15.505951 0.979274 1.740186 0.023176 -0.005080 -557350.000000 1 0 0
9.567956 17.053563 2.065189 19.663031 1.059507 1.465573 0.013918 -0.014726 72443.800000 1 0 0
9.544456 14.485163 -7.517911 18.905967 0.988181 1.979748 0.049552 -0.014719 -1283950.000000 1 0 0
6.383456 11.506363 7.290089 15.042948 1.064294 1.064870 0.000934 -0.001361 -1050800.000000 1 0 0
5.343156 17.067863 -5.616911 18.745958 1.267407 1.875104 0.033825 -0.007017 314665.000000 1 0 0
-4.114744 17.245863 -4.656111 18.331128 -1.336582 1.827610 0.014497 0.002416 249789.000000 1 0 0
-0.424244 18.826163 -0.526911 18.838313 -1.548265 1.598770 0.012254 0.003486 -538932.000000 1 0 0
6.471256 15.708363 -2.891411 17.233400 1.180020 1.739373 0.022735 -0.010597 267110.000000 1 0 0
-1.188144 20.687063 1.042889 20.747382 -1.513425 1.520509 0.020019 -0.007331 -56991.800000 1 0 0
-1.401544 18.768063 4.266789 19.297927 -1.496258 1.347853 0.010733 -0.011002 187361.000000 1 0 0
7.232356 13.798863 -4.418211 16.193708 1.088034 1.847135 0.026052 -0.005666 374691.000000 1 0 0
-1.014644 11.943063 7.584989 14.184439 -1.486043 1.006596 0.001200 -0.000310 340548.000000 1 0 0
7.713856 10.844063 10.777289 17.124463 0.952498 0.890079 0.000733 -0.001831 598722.000000 1 0 0
1.437956 15.960063 -7.374211 17.640020 1.480942 2.002082 0.016434 -0.008995 -1145520.000000 1 0 0
8.736356 7.248563 14.695489 18.569410 0.692591 0.657731 0.002819 -0.000862 -46153.600000 1 0 0
11.426556 11.543963 -4.884311 16.961302 0.790509 1.862901 0.035992 -0.005852 -375522.000000 1 0 0
-3.251344 16.911163 4.550889 17.812053 -1.380854 1.312437 -0.003326 -0.004777 -911773.000000 1 0 0
3.861956 15.396963 -6.786311 17.263696 1.325041 1.974794 0.023101 -0.010691 -577558.000000 1 0 0
-4.481444 13.988363 9.347389 17.410666 -1.260758 1.004065 0.010452 -0.011837 246793.000000 1 0 0
6.271156 17.776363 0.495689 18.856622 1.231646 1.544506 0.018698 -0.021311 -706527.000000 1 0 0
9.817156 10.766763 -2.096311 14.720539 0.831499 1.713689 0.020317 0.000549 -473544.000000 1 0 0
7.342056 18.197363 -2.472011 19.777782 1.187304 1.696113 0.036396 -0.010936 -17799.900000 1 0 0
3.523556 10.351063 10.285489 15.011703 1.242695 0.815967 0.000668 -0.001190 815427.000000 1 0 0
-0.110944 18.584463 2.048989 18.697404 -1.564827 1.460989 0.018839 -0.010553 490884.000000 1 0 0
-0.995844 17.002763 -7.425111 18.580041 -1.512294 1.981908 0.026814 -0.006032 -330560.000000 1 0 0
10.072656 8.574663 12.851189 18.442785 0.705237 0.799851 0.008440 -0.003404 -1260120.000000 1 0 0
3.748756 11.401363 5.539089 13.218387 1.253132 1.138404 0.000935 -0.000960 660938.000000 1 0 0
12.975056 13.964463 8.281589 20.783239 0.822109 1.160943 0.035187 -0.011504 -276811.000000 1 0 0
-0.581544 17.268763 6.752689 18.551204 -1.537133 1.198234 0.006182 -0.007513 -345970.000000 1 0 0
12.255656 13.655563 5.685989 19.209528 0.839373 1.270296 0.025425 -0.011602 -725848.000000 1 0 0
4.822656 14.634463 -4.561111 16.069513 1.252463 1.858589 0.017674 -0.008771 -697987.000000 1 0 0
3.751556 17.583363 4.637389 18.567558 1.360590 1.318366 0.019190 -0.012685 -1274510.000000 1 0 0
7.007956 11.735163 2.126289 13.832809 1.032456 1.416471 0.014179 -0.001427 775788.000000 1 0 0
6.451956 8.675363 11.720689 15.945664 0.931333 0.745072 -0.001648 0.000070 620736.000000 1 0 0
-5.494544 14.773163 1.667689 15.849843 -1.214722 1.465383 0.003206 0.000787 -142616.000000 1 0 0
6.898156 13.853363 6.015289 16.603732 1.108797 1.200078 0.003225 -0.003840 -401405.000000 1 0 0
5.853356 15.899063 4.891589 17.634331 1.218038 1.289720 0.010719 -0.012157 580289.000000 1 0 0
1.231356 17.957463 4.171389 18.476666 1.502333 1.343068 0.022208 -0.009619 1569980.000000 1 0 0
7.318056 18.119063 -6.982411 20.751107 1.186943 1.913977 0.028155 -0.012748 498758.000000 1 0 0
-2.557444 18.765363 -6.268011 19.949118 -1.435345 1.890410 0.033307 0.002235 -124033.000000 1 0 0
13.658556 10.195963 -4.500011 17.628497 0.641250 1.828922 0.030887 -0.002012 -1450150.000000 1 0 0
-1.551844 18.024163 10.197289 20.766881 -1.484910 1.057518 0.007729 0.002160 -73535.500000 1 0 0
3.404456 11.838163 -1.603811 12.421941 1.290770 1.700269 0.012641 -0.007536 -526970.000000 1 0 0
4.384456 13.849563 -10.846211 18.129372 1.264201 2.212133 0.011744 -0.023157 -486017.000000 1 0 0
11.499256 13.464263 2.361089 17.863203 0.863951 1.438232 0.021782 -0.008984 179905.000000 1 0 0
15.808056 6.397263 -7.025511 18.443899 0.384538 1.961579 0.005048 0.002069 -188309.000000 1 0 0
2.553856 15.934563 3.022989 16.418615 1.411876 1.385620 0.020783 -0.011013 158532.000000 1 0 0
13.514956 10.593963 3.630789 17.551887 0.664828 1.362432 0.027509 0.002407 -1244500.000000 1 0 0
-5.051944 19.500663 -5.664411 20.925667 -1.317304 1.844908 0.019517 -0.002516 740924.000000 1 0 0
5.554556 12.134563 -0.076411 13.345657 1.141519 1.576522 0.015765 -0.008511 354377.000000 1 0 0
4.635156 15.337463 9.609289 18.683171 1.277312 1.030572 0.009935 -0.002356 -406419.000000 1 0 0
7.862356 9.450063 13.683389 18.394441 0.876851 0.731928 0.008961 -0.005522 -3850040.000000 1 0 0
-5.088744 13.513763 6.934789 16.019001 -1.210659 1.123078 -0.000947 -0.000792 -2257560.000000 1 0 0
-4.652144 17.022763 0.510089 17.654379 -1.304021 1.541899 0.014571 -0.003831 -1471470.000000 1 0 0
-0.701744 16.496963 3.503089 16.879391 -1.528284 1.361740 0.011882 -0.006610 -1344910.000000 1 0 0
7.826056 17.052063 -4.767311 19.358390 1.140524 1.819622 0.025187 -0.009672 768485.000000 1 0 0
2.984456 16.379163 -4.551711 17.259839 1.390563 1.837670 0.019666 -0.010857 -75592.000000 1 0 0
9.525756 14.472863 8.009789 19.088230 0.988692 1.137770 0.013936 -0.007319 350172.000000 1 0 0
12.782056 10.928263 9.194189 19.166142 0.707372 1.070472 0.028391 -0.006859 744124.000000 1 0 0
3.528456 12.194063 12.205289 17.610061 1.289131 0.805035 0.004932 -0.001633 559818.000000 1 0 0
-3.378644 19.112163 6.045789 20.328344 -1.395824 1.268821 0.007321 -0.009545 85592.400000 1 0 0
-2.757944 15.721463 10.201889 18.943315 -1.397138 1.002083 0.005917 -0.011254 -149607.000000 1 0 0
2.016356 14.217063 7.713489 16.299953 1.429909 1.077852 0.004537 -0.005378 544156.000000 1 0 0
4.518456 17.219663 7.861589 19.461187 1.314181 1.154952 0.026989 -0.010843 -108561.000000 1 0 0
-1.919844 13.388563 9.293289 16.410504 -1.428373 0.968785 -0.000060 -0.005549 -1595720.000000 1 0 0
5.862956 17.768763 3.073989 18.961872 1.252086 1.407964 0.019062 -0.020371 667297.000000 1 0 0
7.279056 15.511063 -6.755011 18.417598 1.132024 1.946330 0.022836 -0.006587 -33544.500000 1 0 0
11.000556 7.619863 9.425889 16.368321 0.605796 0.957139 0.003364 -0.001571 390531.000000 1 0 0
9.048256 16.219363 -2.784011 18.780026 1.061933 1.719588 0.034114 -0.020779 -976994.000000 1 0 0
14.788256 11.352763 -6.517211 19.749729 0.654725 1.907089 0.077715 -0.009820 468241.000000 1 0 0
10.865556 6.404463 16.089889 20.444119 0.532610 0.664836 0.018922 -0.009151 -257372.000000 1 0 0
8.519056 8.513663 10.093689 15.714303 0.785081 0.873268 0.000691 -0.000239 1430860.000000 1 0 0
16.487056 9.539963 4.590889 19.593626 0.524561 1.334292 0.047608 -0.005529 216572.000000 1 0 0
-3.276644 14.279963 4.712389 15.390268 -1.345243 1.259605 -0.009016 0.003632 -1007770.000000 1 0 0
4.904256 14.380963 12.729589 19.821863 1.242140 0.873432 0.016511 -0.007198 -617448.000000 1 0 0
16.218056 10.571363 -4.523411 19.880652 0.577658 1.800335 0.059287 -0.020539 -92087.900000 1 0 0
14.682956 14.192763 6.181089 21.336110 0.768424 1.276882 0.049148 -0.006968 -536405.000000 1 0 0
6.099956 9.488963 9.268189 14.599630 0.999466 0.883016 -0.005195 -0.000055 801457.000000 1 0 0
10.423856 12.120063 8.587189 18.146419 0.860497 1.077858 0.020033 -0.004098 545827.000000 1 0 0
8.090856 11.712863 -0.265211 14.238098 0.966294 1.589424 0.010841 0.000397 -52218.100000 1 0 0
7.326956 13.760963 -8.717211 17.861639 1.081531 2.080640 0.025687 -0.004532 -313590.000000 1 0 0
2.669756 15.207963 -2.306311 15.611816 1.397017 1.719068 0.020788 -0.010782 250680.000000 1 0 0
12.190456 13.851163 -7.735711 20.007578 0.849083 1.967781 0.064896 -0.024642 1729850.000000 1 0 0
-8.006744 14.633263 9.671389 19.281496 -1.070136 1.045362 0.017654 -0.022493 475907.000000 1 0 0
11.592956 9.622463 2.197189 15.225507 0.692784 1.425981 0.016822 0.001810 -1562910.000000 1 0 0
12.062456 8.823163 4.604189 15.638082 0.631527 1.271946 0.014620 0.001027 125323.000000 1 0 0
14.051456 8.044463 6.068889 17.291276 0.519954 1.212179 0.023139 -0.005093 -1671390.000000 1 0 0
16.212056 7.342263 7.326289 19.246145 0.425254 1.180284 0.048839 -0.010777 189546.000000 1 0 0
13.587156 8.241863 2.517389 16.089635 0.545253 1.413691 0.017174 0.000638 -2909700.000000 1 0 0
-4.664544 17.391463 -7.159511 19.377294 -1.308755 1.949245 0.022025 -0.006236 417485.000000 1 0 0
3.059656 19.413463 -3.866911 20.029903 1.414477 1.765073 0.041579 -0.014730 470589.000000 1 0 0
-0.171644 14.761663 6.274189 16.040623 -1.559169 1.168922 0.004998 -0.001710 -789475.000000 1 0 0
6.797056 16.149863 8.413389 19.437159 1.172426 1.123144 0.023471 -0.005173 321793.000000 1 0 0
12.899356 15.226863 -2.093711 20.065751 0.867962 1.675329 0.066213 -0.023714 86154.600000 1 0 0
12.662856 15.776663 4.194689 20.660262 0.894452 1.366343 0.037112 -0.011454 149697.000000 1 0 0
2.996956 17.981463 1.446789 18.286824 1.405645 1.491597 0.033901 -0.018343 -617838.000000 1 0 0
10.454356 14.690563 -1.120611 18.065491 0.952303 1.632867 0.026336 -0.000153 233859.000000 1 0 0
-6.485844 15.720963 -0.583311 17.016318 -1.179509 1.605083 0.006511 0.002040 -118633.000000 1 0 0
-3.934144 15.839663 -2.566611 16.521498 -1.327350 1.726778 0.010175 0.002026 -209235.000000 1 0 0
-6.914244 16.863163 1.744689 18.308931 -1.181681 1.475360 0.009708 -0.000901 -438453.000000 1 0 0
0.044756 19.246163 -6.714311 20.383787 1.568471 1.906459 0.040686 -0.007063 664924.000000 1 0 0
4.868956 14.803263 7.038589 17.099271 1.253031 1.146553 0.017001 -0.008390 -97469.700000 1 0 0
8.685656 12.323763 6.840589 16.556250 0.956863 1.144861 0.007936 -0.005996 -1979970.000000 1 0 0
-7.870844 17.492363 -5.608311 19.984646 -1.147977 1.855248 0.042079 -0.006073 124394.000000 1 0 0
-8.098744 17.713363 -1.254911 19.517368 -1.141962 1.635138 0.034681 -0.000998 691712.000000 1 0 0
-13.798244 -9.107037 9.003689 18.825410 0.583383 1.072109 0.046094 -0.023313 -931280.000000 1 0 0
-12.447844 -12.855437 7.615989 19.447734 0.801505 1.168412 0.039654 -0.009431 91705.800000 1 0 0
-4.157444 -15.075237 12.429689 19.976093 1.301705 0.899210 0.023744 -0.013954 493478.000000 1 0 0
-2.013844 -14.403037 14.736589 20.704350 1.431876 0.778791 0.029872 -0.009159 -41277.600000 1 0 0
-7.093844 -13.751237 12.846689 20.111105 1.094534 0.877877 0.036507 -0.009018 402461.000000 1 0 0
-9.911744 -11.458937 9.010789 17.627939 0.857670 1.034256 0.024432 -0.006357 537815.000000 1 0 0
-10.733744 -10.514537 11.241689 18.765509 0.775082 0.928468 0.052650 -0.016442 425180.000000 1 0 0
-5.897044 -12.293137 10.846689 17.422600 1.123519 0.898781 0.022337 -0.007958 995716.000000 1 0 0
-12.514344 -10.287737 7.208089 17.731409 0.688058 1.152160 0.029107 -0.011319 16782.600000 1 0 0
-7.535244 -11.225337 12.617889 18.493221 0.979613 0.819895 0.022964 -0.006432 55482.800000 1 0 0
-14.806544 -11.594337 7.286389 20.168140 0.664323 1.201154 0.069221 -0.011788 188065.000000 1 0 0
-11.100544 -9.156037 9.038789 16.992786 0.689698 1.009931 0.029755 -0.010618 -607900.000000 1 0 0
-5.136844 -12.039637 13.306089 18.665263 1.167520 0.777200 0.024655 -0.010870 226562.000000 1 0 0
4.162856 -12.300337 14.758489 19.658094 -1.244462 0.721586 0.007377 -0.003897 -1111640.000000 1 0 0
6.693856 -12.589637 14.083189 20.041030 -1.082115 0.791586 0.022078 -0.003953 -204201.000000 1 0 0
6.722956 -8.484237 16.279989 19.550408 -0.900703 0.586797 0.017349 -0.003313 -21482.100000 1 0 0
0.669556 -1.707937 14.430089 14.546230 -1.197183 0.126451 0.003531 -0.003873 -2986600.000000 1 0 0
-0.188644 -6.449337 15.377489 16.676232 1.541555 0.397271 0.012662 -0.013203 84889.000000 1 0 0
-1.483344 -4.604437 18.074789 18.710936 1.259140 0.261508 0.024491 -0.032136 -938841.000000 1 0 0
-5.306344 12.541063 12.806389 18.693291 -1.170521 0.816084 0.016774 -0.011637 46932.400000 1 0 0
-4.178044 8.784463 11.581989 15.124989 -1.126844 0.698587 -0.001876 -0.000651 -308249.000000 1 0 0
-0.663544 -3.939137 14.962389 15.486451 1.403914 0.260893 0.006691 -0.004603 -133322.000000 1 0 0
-4.479344 9.247863 14.133489 17.474066 -1.119735 0.628642 0.003849 -0.003540 319159.000000 1 0 0
-13.476144 -2.387237 16.817689 21.682712 0.175327 0.683089 0.017642 -0.000560 -671890.000000 1 0 0
-0.390444 0.748863 17.409389 17.429861 -1.090190 0.048472 0.013240 -0.004541 456873.000000 1 0 0
-3.462344 -7.228637 15.381989 17.344930 1.124109 0.480359 0.013606 -0.008137 351532.000000 1 0 0
-7.423344 5.377663 12.528989 15.524202 -0.626932 0.631638 0.007052 -0.009125 -2013820.000000 1 0 0
-9.901344 10.153163 13.045989 19.269695 -0.797954 0.827089 0.022794 -0.014365 -249403.000000 1 0 0
-5.579544 2.250863 11.042689 12.575320 -0.383446 0.498870 0.006487 -0.002780 -1263440.000000 1 0 0
-7.133844 -7.490137 16.701789 19.645448 0.809757 0.554506 0.018393 -0.012461 -284621.000000 1 0 0
-5.053444 2.953663 18.514489 19.417716 -0.528933 0.306205 0.018720 -0.014872 1189010.000000 1 0 0
0.989756 -8.394937 16.476789 18.518617 -1.453439 0.474017 0.012705 -0.006094 830153.000000 1 0 0
-14.972744 -3.703237 13.866989 20.741032 0.242466 0.838502 0.030268 -0.013431 266833.000000 1 0 0
-14.388744 1.997663 13.089989 19.554396 -0.137953 0.837376 0.016067 -0.001725 -901432.000000 1 0 0
-5.441644 0.936363 16.011889 16.937203 -0.170405 0.332075 0.015591 -0.011439 162338.000000 1 0 0
4.552456 5.739663 15.026489 16.717175 0.900242 0.453623 -0.002115 -0.004256 -302885.000000 1 0 0
-1.091844 -12.083137 13.768189 18.350950 1.480680 0.722324 0.002565 -0.006894 200028.000000 1 0 0
-6.043744 -4.032637 16.738789 18.247631 0.588401 0.409518 0.015696 -0.012823 270521.000000 1 0 0
-13.032244 -1.559237 9.794389 16.376833 0.119079 0.929713 0.015227 -0.008258 -613488.000000 1 0 0
-14.197544 10.488163 10.510289 20.543563 -0.636250 1.033739 0.005963 0.004937 319142.000000 1 0 0
-3.703444 -3.322337 17.644889 18.332908 0.731207 0.274832 0.019730 -0.016673 229826.000000 1 0 0
-7.898644 9.349763 11.732389 16.954515 -0.869331 0.806552 0.004108 -0.010101 -3234.640000 1 0 0
-4.182044 10.575363 16.368589 19.931344 -1.194217 0.607200 -0.000064 -0.003792 286200.000000 1 0 0
-12.460144 12.776363 8.281489 19.674188 -0.797928 1.136324 0.008617 -0.012883 213412.000000 1 0 0
-12.712144 3.090563 10.460989 16.750596 -0.238492 0.896287 0.018498 -0.006459 771209.000000 1 0 0
-10.159444 -3.420737 13.519889 17.254076 0.324782 0.670395 0.012230 -0.010732 -1190150.000000 1 0 0
-4.476344 -6.503337 17.748689 19.425422 0.967956 0.418539 0.018748 -0.010707 -478521.000000 1 0 0
0.913356 -3.681037 18.113289 18.506093 -1.327583 0.206403 0.022016 -0.012099 -1068650.000000 1 0 0
-5.891344 1.891863 13.585789 14.928521 -0.310724 0.427377 0.011153 -0.004961 -906229.000000 1 0 0
-10.562244 8.654863 10.212689 17.051881 -0.686468 0.928646 0.015248 -0.013274 7988.790000 1 0 0
4.426256 2.502963 17.390989 18.119135 0.514651 0.284460 0.003599 -0.007645 146126.000000 1 0 0
0.431956 -5.275437 13.102189 14.130965 -1.489098 0.383937 0.004025 -0.002960 -465520.000000 1 0 0
-4.319444 5.755363 20.714589 21.928885 -0.926970 0.334344 0.034652 -0.018086 398119.000000 1 0 0
-10.900444 10.794163 9.021089 17.796451 -0.780499 1.039207 0.013301 -0.010321 437142.000000 1 0 0
0.686156 4.235363 13.152589 13.834728 1.410185 0.315331 0.006742 -0.004359 -3203120.000000 1 0 0
-3.200144 7.095863 13.297289 15.408117 -1.147122 0.529607 -0.001663 0.000619 -1213820.000000 1 0 0
0.767656 8.983263 14.086389 16.724672 1.485549 0.569349 -0.000554 -0.002490 235697.000000 1 0 0
-4.170844 -6.621137 13.043389 15.210700 1.008661 0.540378 0.011815 -0.006249 -727545.000000 1 0 0
-5.062844 8.091163 16.464289 19.030820 -1.011676 0.525371 0.012070 -0.004617 30147.200000 1 0 0
1.495956 -10.862137 15.750389 19.191109 -1.433935 0.608139 0.005742 -0.001951 -120844.000000 1 0 0
-15.310144 -1.163537 14.175789 20.897543 0.075852 0.825286 0.032973 -0.008926 164431.000000 1 0 0
-13.730144 -5.321437 8.171089 16.840464 0.369748 1.064198 0.037770 -0.017553 141486.000000 1 0 0
-14.358244 -2.050637 11.968089 18.804239 0.141860 0.880900 0.026184 -0.010326 313981.000000 1 0 0
9.285556 1.018563 16.923389 19.330290 0.109256 0.504357 0.024343 -0.007743 423213.000000 1 0 0
4.918756 -6.700937 16.895289 18.829432 -0.937588 0.457225 0.020605 -0.013247 -532354.000000 1 0 0
-6.018144 -2.688937 11.114289 12.921914 0.420194 0.535308 0.008444 -0.005938 153121.000000 1 0 0
0.514756 -6.291737 17.865189 18.947715 -1.489163 0.339661 0.026179 -0.024099 -383162.000000 1 0 0
-8.376044 11.927463 12.005689 18.882771 -0.958563 0.881750 0.007880 -0.010964 68196.600000 1 0 0
-6.631044 -5.779437 14.735989 17.161643 0.716886 0.538150 0.016063 -0.014033 -1571890.000000 1 0 0
-4.269544 -9.029537 17.041789 19.753079 1.129110 0.530131 0.024312 -0.011723 663598.000000 1 0 0
2.453356 -6.244237 16.175989 17.512055 -1.196426 0.393153 0.015038 -0.013639 -638521.000000 1 0 0
2.264456 5.308963 16.065389 17.070722 1.167627 0.344905 0.009796 -0.005044 -1806890.000000 1 0 0
0.927856 -8.939237 14.002089 16.638190 -1.467371 0.570626 0.004390 -0.002342 -383514.000000 1 0 0
-9.911744 -2.751137 11.050789 15.097395 0.270748 0.749593 0.004781 -0.009136 -219235.000000 1 0 0
-1.264544 10.052063 12.292489 15.929479 -1.445654 0.689315 -0.005600 -0.000909 -584711.000000 1 0 0
-12.333844 -3.671437 11.232689 17.081465 0.289319 0.853174 0.019198 -0.012003 -339274.000000 1 0 0
-1.873244 6.603763 20.078489 21.219435 -1.294394 0.329417 0.015959 -0.012090 -906508.000000 1 0 0
0.264056 -13.493837 15.500689 20.552974 -1.551230 0.716388 0.003050 -0.013782 -1129390.000000 1 0 0
4.210156 -8.665437 15.340889 18.115134 -1.118528 0.560753 0.019335 -0.006328 154614.000000 1 0 0
4.213056 -4.449237 16.114589 17.240230 -0.812657 0.363358 0.010106 -0.009891 -428463.000000 1 0 0
7.949556 1.791263 14.930489 17.009514 0.221627 0.499603 0.000590 -0.000198 411264.000000 1 0 0
-6.201744 -0.128037 11.836789 13.363667 0.020642 0.482702 0.009746 -0.005507 196766.000000 1 0 0
-3.303944 -10.928137 18.560389 21.790554 1.277200 0.551455 0.032202 -0.012472 -428173.000000 1 0 0
3.240756 -1.469837 13.650989 14.107176 -0.425800 0.255002 -0.001810 -0.002616 677844.000000 1 0 0
-2.574744 8.573763 15.684789 18.059660 -1.279060 0.518631 0.003567 -0.009684 -363696.000000 1 0 0
-3.206244 3.989863 14.804489 15.664351 -0.893866 0.332874 0.006704 -0.004680 -1548860.000000 1 0 0
-4.919344 -9.053737 19.553889 22.102594 1.073073 0.484973 0.046973 -0.014418 -75351.400000 1 0 0
-5.919644 -3.074537 19.110189 20.240906 0.479030 0.335830 0.019456 -0.014067 -689886.000000 1 0 0
-6.657344 -8.525337 11.100289 15.498968 0.907817 0.772461 0.010942 -0.009011 -98364.800000 1 0 0
-11.797344 2.554963 12.716489 17.533232 -0.213277 0.759356 0.027947 -0.016509 48635.600000 1 0 0
-11.555444 -7.669337 11.591989 18.075431 0.585945 0.874589 0.026590 -0.011677 -1171660.000000 1 0 0
-11.085244 -6.955837 15.684889 20.427482 0.560385 0.695345 0.035884 -0.023930 612494.000000 1 0 0
0.259956 5.845663 17.761089 18.700150 1.526356 0.318254 0.007795 -0.008889 -41799.400000 1 0 0
-2.207744 -0.107537 13.180889 13.364936 0.048671 0.166148 0.005357 -0.000257 308138.000000 1 0 0
-5.849844 -10.927837 18.069189 21.911958 1.079297 0.601254 0.049180 -0.009623 -83589.500000 1 0 0
0.350756 2.725963 19.084389 19.281281 1.442827 0.143031 0.018763 -0.015494 115327.000000 1 0 0
-0.817744 10.871863 14.742989 18.336352 -1.495721 0.636753 -0.000917 -0.003823 300468.000000 1 0 0
-12.904444 -2.168937 14.217089 19.322385 0.166520 0.743974 0.018093 -0.007110 -1569340.000000 1 0 0
-13.642544 8.432563 11.845289 19.938354 -0.553628 0.934655 0.014001 -0.003789 92929.000000 1 0 0
-18.213144 -0.735437 6.717689 19.426446 0.040358 1.217704 0.057210 -0.014326 -279440.000000 1 0 0
-2.166244 -7.668237 17.693089 19.404635 1.295475 0.423157 0.012798 -0.011937 -1918710.000000 1 0 0
5.635156 2.740063 14.436789 15.737973 0.452583 0.409495 -0.005380 -0.002864 -3013280.000000 1 0 0
-13.754444 -6.639037 10.757889 18.681373 0.449698 0.957138 0.015164 -0.025813 536027.000000 1 0 0
3.208256 7.708163 16.283489 18.299199 1.176390 0.473786 0.006440 -0.013372 -126099.000000 1 0 0
0.942256 2.154063 14.648289 14.835774 1.158443 0.159148 0.001770 -0.006535 -1329170.000000 1 0 0
-14.525044 0.671263 9.752389 17.508186 -0.046181 0.980005 0.017216 -0.004197 -1380950.000000 1 0 0
-9.386544 -4.991937 15.288389 18.621532 0.488777 0.607626 0.007448 -0.011937 -1087270.000000 1 0 0
-2.799644 -0.144337 18.164589 18.379639 0.051510 0.153123 0.019442 -0.012613 54741.500000 1 0 0
6.777256 3.710563 17.609789 19.230292 0.500923 0.413471 0.015444 -0.004996 -429411.000000 1 0 0
-4.251944 -0.783437 14.805189 15.423567 0.182210 0.284126 0.014545 -0.003945 -878144.000000 1 0 0
4.721656 -9.070637 17.867089 20.586485 -1.090850 0.519830 0.023242 -0.000794 -97530.600000 1 0 0
1.979056 6.940863 13.350689 15.176730 1.293036 0.495604 0.001155 -0.002599 -1120160.000000 1 0 0
-3.743844 -1.031037 20.392889 20.759319 0.268734 0.188168 0.027921 -0.011299 -846087.000000 1 0 0
-10.623644 1.611663 16.153689 19.401055 -0.150557 0.586976 0.027915 -0.018964 -243200.000000 1 0 0
-3.752544 6.967763 18.426889 20.054464 -1.076780 0.405660 0.013355 -0.012474 -277478.000000 1 0 0
-12.704444 1.204363 14.810489 19.550037 -0.094516 0.711217 0.026017 -0.010454 -1286270.000000 1 0 0
-16.197444 -4.671537 8.413289 18.840485 0.280792 1.107886 0.050930 -0.017558 -1570440.000000 1 0 0
-2.299244 0.805163 15.722889 15.910501 -0.336840 0.153720 0.013252 -0.002648 433338.000000 1 0 0
-13.778544 -8.938337 12.188289 20.452299 0.575471 0.932364 0.044558 -0.029592 619346.000000 1 0 0
6.005856 -3.189237 14.625389 16.128966 -0.488156 0.435219 0.002972 -0.008371 736321.000000 1 0 0
-15.802744 0.088563 7.617489 17.543109 -0.005604 1.121629 0.024355 -0.006099 369423.000000 1 0 0
-14.211244 5.912263 12.220089 19.653113 -0.394246 0.899771 0.031374 -0.014609 -29185.800000 1 0 0
0.363756 9.513363 16.692489 19.216544 1.532579 0.518322 0.004845 -0.008047 -152294.000000 1 0 0
-10.368544 -5.449137 10.684489 15.854277 0.483874 0.831297 0.015699 -0.012840 123091.000000 1 0 0
-3.180244 -11.133737 15.268089 19.162166 1.292565 0.648844 0.025908 -0.004654 84430.700000 1 0 0
-3.581044 2.896463 12.491289 13.313364 -0.680103 0.353254 0.003082 -0.003031 -1596450.000000 1 0 0
-12.382144 -7.806837 7.251289 16.335403 0.562539 1.110850 0.029941 -0.014514 -184157.000000 1 0 0
-8.232244 -1.836637 13.062189 15.548757 0.219508 0.573367 0.009384 -0.009542 -213697.000000 1 0 0
-9.831044 6.351263 9.447389 15.041313 -0.573587 0.891692 0.008325 -0.004988 -614115.000000 1 0 0
-18.185744 -3.834937 6.550089 19.706133 0.207831 1.231962 0.062044 -0.022001 536612.000000 1 0 0
-1.301744 -0.110537 20.390789 20.432597 0.084712 0.063982 0.023394 -0.015437 -990159.000000 1 0 0
-2.972444 2.465763 20.232289 20.597595 -0.692496 0.188616 0.033369 -0.014907 -302098.000000 1 0 0
-3.872744 11.277263 11.031489 16.244031 -1.240003 0.824246 0.002336 -0.005961 -941736.000000 1 0 0
-4.218144 -4.710337 14.870989 16.159403 0.840469 0.402030 0.013006 -0.011551 2076570.000000 1 0 0
-0.081844 -14.403237 13.141989 19.497995 1.565114 0.831163 0.005017 -0.009633 494144.000000 1 0 0
-12.188544 0.446963 8.433389 14.828433 -0.036654 0.965834 0.013057 -0.006131 -301957.000000 1 0 0
-7.712444 2.141263 15.427789 17.380548 -0.270817 0.478586 0.009376 -0.007164 -1432620.000000 1 0 0
3.475556 -2.240337 18.442489 18.900370 -0.572568 0.220565 0.018736 -0.011493 -605074.000000 1 0 0
-2.044044 4.948463 12.648289 13.734796 -1.179077 0.400429 -0.002767 -0.000091 -531929.000000 1 0 0
-10.501144 -6.154437 13.265389 18.003379 0.530116 0.742430 0.015483 -0.011850 -809452.000000 1 0 0
2.263856 -3.739037 14.203189 14.860552 -1.026368 0.298548 0.001725 -0.005642 -666907.000000 1 0 0
6.688156 1.105963 17.200489 18.488142 0.163878 0.375423 0.002278 -0.000568 -470287.000000 1 0 0
-1.987944 -5.858837 13.743889 15.072239 1.243679 0.422985 0.003265 -0.005194 -2127240.000000 1 0 0
-13.161944 3.798763 14.540589 19.977389 -0.280981 0.755612 0.030417 -0.008173 -18474.800000 1 0 0
-13.347244 -6.550337 13.278689 19.934377 0.456231 0.841802 0.028482 -0.019671 -370892.000000 1 0 0
-9.539644 6.765363 11.968489 16.733788 -0.616863 0.773845 0.013751 -0.007032 -170892.000000 1 0 0
-1.126444 -2.421037 12.906389 13.179726 1.135314 0.204016 0.002436 -0.000976 243169.000000 1 0 0
0.168356 6.676163 15.234189 16.633701 1.545584 0.413145 0.003472 -0.006466 509340.000000 1 0 0
-16.434244 -1.155837 9.726189 19.131625 0.070215 1.037491 0.036194 -0.006447 -144579.000000 1 0 0
-1.285744 2.782863 13.730189 14.068246 -1.137990 0.219666 0.003925 -0.001537 -2166310.000000 1 0 0
-11.289544 -3.336237 15.937789 19.814070 0.287338 0.636187 0.012265 -0.011312 88207.100000 1 0 0
-5.333044 -1.416737 17.105589 17.973582 0.259655 0.312047 0.030409 -0.008877 131851.000000 1 0 0
-11.904744 6.598463 11.084189 17.553401 -0.506117 0.887368 0.021018 -0.003853 -2165060.000000 1 0 0
-2.867744 4.575063 18.748089 19.510151 -1.010889 0.280417 0.018153 -0.012104 487256.000000 1 0 0
5.046656 -1.919837 16.450189 17.313672 -0.363512 0.317153 0.006572 -0.010733 -908971.000000 1 0 0
-8.072844 -4.121437 12.020389 15.054793 0.472037 0.646092 0.011126 -0.006298 -1697460.000000 1 0 0
-11.708044 -0.738937 15.986689 19.829234 0.063030 0.633065 0.028902 -0.011682 327619.000000 1 0 0
1.953556 1.944363 17.221389 17.440561 0.783040 0.158702 0.004691 -0.012649 -1699680.000000 1 0 0
-8.931644 -7.417637 11.656789 16.452244 0.693058 0.783394 0.017949 -0.009369 -603122.000000 1 0 0
-7.166544 6.647763 14.868489 17.793933 -0.747862 0.581585 0.005691 -0.009471 -875469.000000 1 0 0
-5.581644 3.461863 15.810189 17.120202 -0.555157 0.393738 0.012119 -0.008133 -351086.000000 1 0 0
-9.413844 4.163063 11.682289 15.570081 -0.416372 0.722275 0.012831 -0.010189 22448.400000 1 0 0
-10.389444 0.194263 13.945289 17.391071 -0.018696 0.640387 0.018686 -0.014133 -108551.000000 1 0 0
7.872156 -0.796437 15.635589 17.523607 -0.100828 0.468473 0.003508 -0.011005 -17293.000000 1 0 0
-8.767044 -7.376137 14.643289 18.592858 0.699450 0.663931 0.020323 -0.010807 -2348940.000000 1 0 0
-0.075244 4.173063 15.752989 16.296526 -1.552768 0.258998 0.006936 -0.007394 74536.000000 1 0 0
-8.038944 3.013263 9.670789 12.931687 -0.358624 0.725999 0.007843 -0.006565 -220847.000000 1 0 0
-2.300344 -9.736437 13.197389 16.560823 1.338789 0.648643 0.005267 -0.002872 739852.000000 1 0 0
-6.047344 10.187963 10.334989 15.721862 -1.035113 0.853481 0.005912 -0.009081 -3301500.000000 1 0 0
-8.667544 -2.605437 15.549489 17.991699 0.292004 0.527121 0.016532 -0.014914 -243891.000000 1 0 0
4.280956 5.620263 17.593989 18.959493 0.919849 0.381847 0.011123 -0.010376 370833.000000 1 0 0
-6.901144 -0.849737 15.060589 16.588224 0.122513 0.432529 0.013830 -0.008844 30939.800000 1 0 0
-0.947844 -9.992537 15.441989 18.417498 1.476224 0.576380 0.000684 -0.002776 101886.000000 1 0 0
-4.222944 5.684063 16.271689 17.745695 -0.931826 0.410460 0.006559 -0.008178 511795.000000 1 0 0
3.692656 0.046063 17.392789 17.780521 0.012473 0.209219 0.008531 -0.009193 -574950.000000 1 0 0
1.471656 0.382363 19.239789 19.299778 0.254197 0.078866 0.014160 -0.008073 -497647.000000 1 0 0
-6.253544 6.285063 17.879089 19.956719 -0.787912 0.460359 0.012615 -0.010387 -746195.000000 1 0 0
-12.291344 0.623563 10.972789 16.488422 -0.050688 0.842654 0.018867 -0.010358 -165057.000000 1 0 0
-5.311344 5.154463 13.926189 15.770783 -0.770409 0.488501 0.004933 -0.002856 -2283420.000000 1 0 0
-8.703444 -9.369737 9.925989 16.188489 0.822248 0.910753 0.022270 -0.010839 51056.800000 1 0 0
6.721856 -3.899237 17.025089 18.714728 -0.525646 0.428197 0.008136 -0.008356 -6365.170000 1 0 0
-17.034244 1.408763 9.589489 19.598683 -0.082514 1.059518 0.039500 -0.000905 529503.000000 1 0 0
-4.247544 -9.620937 11.330789 15.459328 1.155042 0.748160 0.006956 -0.005307 1098750.000000 1 0 0
-11.165844 -3.882737 9.011089 14.864435 0.334654 0.919500 0.016856 -0.009534 -24645.400000 1 0 0
3.469956 -5.410837 18.516389 19.600368 -1.000563 0.334130 0.016353 -0.015764 -411539.000000 1 0 0
2.450056 -1.875937 16.113589 16.406391 -0.653455 0.189210 0.009910 -0.009037 -745759.000000 1 0 0
-3.198644 -4.378837 19.957889 20.681462 0.939907 0.265302 0.025528 -0.024732 -787661.000000 1 0 0
-6.383744 -3.294937 14.351089 16.048755 0.476480 0.464115 0.013342 -0.005964 408953.000000 1 0 0
-9.626144 5.046663 13.992789 17.718058 -0.482872 0.660399 0.024291 -0.012381 428879.000000 1 0 0
-5.817544 -5.194137 11.642389 14.013140 0.728845 0.590218 0.006714 -0.003273 90362.500000 1 0 0
6.002856 2.144963 19.425989 20.445151 0.343184 0.317075 0.025543 -0.014161 68004.100000 1 0 0
-2.847444 11.844663 13.365889 18.084550 -1.334874 0.739096 0.001500 -0.010048 -962784.000000 1 0 0
3.355256 1.394163 15.121889 15.552265 0.393810 0.235803 -0.001326 -0.004718 -775588.000000 1 0 0
-5.773844 7.404963 12.837689 15.905251 -0.908540 0.631513 -0.001190 -0.005393 -636873.000000 1 0 0
-1.830444 -1.662837 15.227289 15.426791 0.737455 0.160998 0.007581 -0.003804 -312394.000000 1 0 0
-7.430944 10.391463 14.028289 18.973516 -0.950007 0.738675 0.024724 -0.011086 309127.000000 1 0 0
-10.221544 2.092963 10.588789 14.865493 -0.201968 0.778017 0.013172 -0.009736 -313954.000000 1 0 0
-13.768544 5.198663 9.227189 17.370662 -0.361027 1.010787 0.015303 -0.000222 -127750.000000 1 0 0
0.101356 -5.065737 20.120189 20.748349 -1.550791 0.246695 0.033692 -0.023851 -324266.000000 1 0 0
-14.617044 -2.926937 7.409889 16.647263 0.197628 1.109498 0.031627 -0.013635 1791110.000000 1 0 0
-2.501944 2.346963 17.736989 18.065678 -0.753447 0.191047 0.014597 -0.009840 363271.000000 1 0 0
-6.445244 -8.355637 14.338989 17.803495 0.913761 0.634441 0.022061 -0.011698 36113.100000 1 0 0
-7.944244 1.926363 12.038589 14.551615 -0.237894 0.596507 0.009207 -0.009775 -966003.000000 1 0 0
-14.615844 -3.547637 9.994489 18.058195 0.238120 0.984284 0.025808 -0.013269 177789.000000 1 0 0
-0.527544 7.131663 12.762589 14.629511 -1.496959 0.510733 -0.001010 -0.000071 181717.000000 1 0 0
-1.824244 -2.247437 19.134189 19.351900 0.888962 0.150142 0.027959 -0.023782 30148.600000 1 0 0
-12.842444 10.339363 7.358489 18.054865 -0.677839 1.151013 0.009376 -0.011666 -493428.000000 1 0 0
-19.621344 2.057963 6.780689 20.861689 -0.104502 1.239752 0.053679 -0.009800 755086.000000 1 0 0
-16.172744 8.381363 6.770989 19.433249 -0.478133 1.214908 0.027996 -0.002939 315986.000000 1 0 0
-12.373044 7.164563 13.533089 19.686738 -0.524870 0.812864 0.032005 -0.009597 4199.800000 1 0 0
-15.914544 8.596663 10.526389 20.927976 -0.495270 1.043751 0.022630 0.007308 -342158.000000 1 0 0
1.834656 11.030363 15.141789 18.823088 1.405977 0.636087 0.001091 -0.003201 184602.000000 1 0 0
2.387056 14.605563 12.200489 19.180001 1.408794 0.881357 0.000059 -0.006986 -552858.000000 1 0 0
-3.237444 13.649463 11.608689 18.208529 -1.337915 0.879494 -0.004515 -0.011410 23292.300000 1 0 0
8.904056 4.807363 15.671189 18.654198 0.495061 0.573349 0.012122 -0.002093 -16520.100000 1 0 0
-0.435644 12.550863 12.837089 17.958418 -1.536100 0.774425 -0.003497 -0.003126 48365.100000 1 0 0
3.217356 13.494163 14.489389 20.059566 1.336740 0.763648 -0.001021 -0.002680 -278924.000000 1 0 0
-2.912544 -4.211437 -13.746511 14.669209 0.965744 2.785023 0.008362 -0.006059 -233954.000000 1 0 0
6.145356 -11.412637 16.284089 20.813103 -1.076849 0.672292 0.015867 -0.001215 373138.000000 1 0 0
7.689856 -13.491737 7.396789 17.200970 -1.052752 1.126280 0.003104 -0.010112 -19715.500000 1 0 0
-0.188344 15.551563 1.264489 15.604022 -1.558686 1.489671 0.010540 -0.006080 -2477090.000000 1 0 0
-13.745944 8.296563 9.165089 18.487368 -0.543036 1.052100 0.009178 0.000571 34137.500000 1 0 0
-15.471644 -9.841937 4.878089 18.974489 0.566561 1.310790 0.038971 -0.013193 -1224740.000000 1 0 0
9.575556 -11.243737 11.076189 18.460630 -0.865354 0.927308 0.017211 -0.008559 202399.000000 1 0 0
-5.435044 -10.919537 -16.635411 20.627964 1.108962 2.508919 0.051417 -0.009761 171937.000000 1 0 0
-1.851044 -12.731337 -14.686811 19.524747 1.426415 2.422214 0.035368 -0.003330 -161700.000000 1 0 0
5.874956 -15.156337 -13.023111 20.828612 -1.201004 2.246249 0.027473 -0.008620 101903.000000 1 0 0
2.732856 -11.626937 -16.504311 20.372689 -1.339941 2.515152 0.016650 -0.006350 318058.000000 1 0 0
1.956256 -14.580337 -14.729811 20.817793 -1.437422 2.356834 0.077906 0.022484 324172.000000 1 0 0
-6.540944 -5.949237 -14.683511 17.140095 0.738060 2.599588 0.031828 -0.000052 29415.900000 1 0 0
-6.159944 -8.248637 -17.242911 20.082403 0.929357 2.603344 0.033072 -0.006013 238052.000000 1 0 0
-2.101944 -16.283137 -13.126311 21.020437 1.442419 2.245230 0.040385 -0.009533 191429.000000 1 0 0
16.224056 -7.894037 -9.105311 20.209961 -0.452841 2.038162 0.044107 -0.013330 202877.000000 1 0 0
19.259556 -2.831837 -3.796611 19.833408 -0.145989 1.763410 0.044796 -0.016875 188099.000000 1 0 0
15.835756 -11.233137 -8.971211 21.387781 -0.616975 2.003641 0.049615 -0.018853 199444.000000 1 0 0
18.718756 -2.897237 -6.584711 20.053535 -0.153559 1.905360 0.156511 -0.011659 -248323.000000 1 0 0
8.846256 -9.540437 -15.688011 20.381116 -0.823135 2.449219 0.036665 -0.008645 120193.000000 1 0 0
-4.730644 9.205463 -16.286611 19.296975 -1.096094 2.575491 0.009021 -0.005033 496379.000000 1 0 0
2.751256 -9.496437 -18.439711 20.923066 -1.288802 2.649424 0.025989 -0.002945 38690.200000 1 0 0
11.168756 7.890863 -14.922311 20.240608 0.615083 2.399782 0.050228 -0.039358 409270.000000 1 0 0
18.614656 -5.484337 -8.584011 21.219534 -0.286518 1.987265 0.050240 -0.017852 246390.000000 1 0 0
12.609256 5.477863 -13.345411 19.159862 0.409832 2.341346 0.021286 -0.014634 64376.200000 1 0 0
15.888656 6.437863 -10.754011 20.237199 0.384969 2.131047 0.012951 -0.008699 300221.000000 1 0 0
3.203956 0.027263 -19.108311 19.375078 0.008509 2.975459 0.042778 -0.020295 49024.100000 1 0 0
10.214456 -1.385537 -14.900411 18.118418 -0.134822 2.536396 0.022310 -0.006754 14012.100000 1 0 0
12.246656 -6.047437 -13.866311 19.463470 -0.458678 2.363748 0.043687 -0.005148 429628.000000 1 0 0
10.192856 6.749463 -13.009111 17.851794 0.584887 2.387260 0.023911 -0.005025 477606.000000 1 0 0
10.814556 5.130763 -15.981011 19.966774 0.442984 2.498726 0.050791 -0.028359 521036.000000 1 0 0
12.110056 -10.002037 -15.128011 21.807130 -0.690352 2.337436 0.069239 -0.017570 467537.000000 1 0 0
-1.329744 2.060063 -17.845411 18.013072 -0.997600 3.005048 0.009157 -0.002554 259001.000000 1 0 0
6.531756 -1.169337 -16.945411 18.198301 -0.177147 2.768360 0.027122 -0.004909 -11293.600000 1 0 0
6.064156 -5.606237 -15.782611 17.812768 -0.746181 2.659503 -0.018972 -0.007698 117364.000000 1 0 0
-2.211244 -4.652937 -20.460511 21.099098 1.127155 2.894935 0.045678 -0.024229 291654.000000 1 0 0
16.171356 -0.113437 -13.230611 20.894370 -0.007015 2.256495 0.039241 -0.010993 106694.000000 1 0 0
-3.983344 -0.478537 -18.569411 18.997870 0.119562 2.928810 0.014751 -0.004351 90010.300000 1 0 0
4.121256 8.410663 -18.001111 20.291969 1.115178 2.661832 0.016636 -0.014770 253455.000000 1 0 0
9.695556 -0.164837 -17.453411 19.966285 -0.017000 2.634467 0.035791 -0.005714 -56394.900000 1 0 0
4.280656 4.347063 -18.117211 19.116859 0.793095 2.816774 0.023456 -0.015922 364363.000000 1 0 0
-2.110144 -11.169237 -18.248611 21.499218 1.384073 2.584514 0.042906 -0.008443 171688.000000 1 0 0
6.143856 -9.337337 -16.333811 19.792075 -0.988826 2.541477 0.014725 -0.006694 264743.000000 1 0 0
9.838556 -13.096237 -11.473411 19.998695 -0.926495 2.181822 0.014416 0.039929 45292.200000 1 0 0
6.265356 6.885963 -16.811211 19.216867 0.832553 2.635851 0.031975 -0.021822 465764.000000 1 0 0
8.755556 1.447363 -20.152711 22.020136 0.163826 2.726787 0.056177 -0.022748 48306.300000 1 0 0
-1.293544 -0.649737 -20.058111 20.110277 0.465480 3.069550 0.036329 -0.020916 180370.000000 1 0 0
-0.640844 6.542063 -19.701511 20.769179 -1.473150 2.819559 0.003237 -0.000346 -39781.000000 1 0 0
8.728556 5.856963 -18.117511 20.946024 0.591005 2.615871 0.052267 -0.025438 14306.500000 1 0 0
12.055956 -0.054637 -13.022511 17.746404 -0.004532 2.394712 0.003707 -0.001376 4971.350000 1 0 0
-3.839444 -2.724537 -19.734711 20.288501 0.617152 2.907410 0.005851 -0.008662 359503.000000 1 0 0
6.467356 -11.474637 -14.360611 19.486435 -1.057555 2.399350 0.006499 0.000194 163006.000000 1 0 0
11.513356 2.006263 -16.275911 20.037159 0.172523 2.518858 0.040191 -0.000599 -242635.000000 1 0 0
-2.763244 -4.381837 -17.183011 17.946919 1.008171 2.848778 0.011138 -0.005672 -66424.100000 1 0 0
-6.774044 -5.093237 -17.878711 19.785779 0.644700 2.698930 0.038651 0.001386 59206.000000 1 0 0
2.778556 10.580463 -15.363111 18.859792 1.313983 2.522829 -0.000383 -0.006554 325644.000000 1 0 0
17.154956 -6.256237 -10.599611 21.113616 -0.349701 2.096738 0.072267 -0.020950 -15682.100000 1 0 0
9.728956 -3.698537 -17.544711 20.399722 -0.363285 2.606157 0.022106 -0.022728 60237.400000 1 0 0
-7.410244 -1.881037 -18.203911 19.744174 0.248592 2.743983 0.031254 -0.010078 587530.000000 1 0 0
1.767156 -7.401437 -19.179211 20.633620 -1.336426 2.763886 0.026745 -0.017570 277935.000000 1 0 0
6.048956 11.010863 -14.149211 18.921658 1.068443 2.415506 0.027965 -0.008460 161285.000000 1 0 0
6.019756 -3.561137 -18.044911 19.352984 -0.534202 2.771821 0.029773 -0.019007 481664.000000 1 0 0
4.739856 12.995963 -14.982311 20.391933 1.221071 2.396047 0.018245 -0.016400 116500.000000 1 0 0
9.579056 11.136863 -15.458911 21.325243 0.860455 2.381702 0.067655 -0.030275 141984.000000 1 0 0
17.024256 0.838263 -11.251111 20.423406 0.049200 2.154230 0.040925 -0.011733 137632.000000 1 0 0
15.363056 -2.873037 -12.209411 19.832992 -0.184874 2.233958 0.057503 -0.013656 147470.000000 1 0 0
-8.702644 0.290463 -17.491411 19.538931 -0.033364 2.679694 0.027235 -0.008832 491583.000000 1 0 0
-3.167244 4.158363 -19.228011 19.925858 -0.919877 2.876155 0.015712 0.003633 6315.660000 1 0 0
3.925256 1.571663 -16.983111 17.501538 0.380849 2.897588 0.017735 -0.008507 430001.000000 1 0 0
-5.278944 14.292163 -13.782111 20.544580 -1.216980 2.306136 0.028064 -0.018781 180338.000000 1 0 0
0.775756 9.505863 -17.609711 20.026611 1.489369 2.645219 -0.004008 0.004247 433241.000000 1 0 0
0.743556 -5.212037 -20.085211 20.763765 -1.429091 2.885236 0.026714 -0.001638 410597.000000 1 0 0
3.776856 -6.169737 -17.973911 19.375030 -1.021485 2.758958 0.024438 -0.023174 44821.500000 1 0 0
-7.145644 6.984163 -15.671911 18.586219 -0.773970 2.574006 0.020627 -0.004577 2567.430000 1 0 0
-11.964044 3.114463 -16.728711 20.801154 -0.254666 2.505159 0.072924 -0.028208 244228.000000 1 0 0
-4.187044 7.008563 -17.605111 19.405958 -1.032277 2.707379 0.004929 0.024990 464945.000000 1 0 0
-7.881844 5.191163 -17.910611 20.245039 -0.582413 2.656628 0.014279 -0.000292 172339.000000 1 0 0
-8.674144 4.644463 -15.331111 18.216881 -0.491594 2.571013 0.007304 -0.006801 620841.000000 1 0 0
9.504756 13.693063 -12.755711 20.989248 0.964021 2.223990 0.056827 -0.035810 275210.000000 1 0 0
14.336456 9.689763 -11.958811 21.034226 0.594356 2.175527 0.068190 -0.016709 35741.100000 1 0 0
8.817256 15.767063 -9.913711 20.606454 1.060902 2.072702 0.047690 -0.021808 17149.600000 1 0 0
8.035356 13.803163 -14.402211 21.506230 1.043614 2.304569 0.049173 -0.029975 -16641.600000 1 0 0
4.679156 15.455463 -13.384211 20.973863 1.276818 2.262873 0.017708 -0.017223 167683.000000 1 0 0
10.798456 11.892063 -11.550711 19.785013 0.833558 2.194211 0.044728 -0.014523 137977.000000 1 0 0
15.537856 10.772563 -8.922611 20.906604 0.606222 2.011730 0.043949 -0.038107 -62172.600000 1 0 0
13.585956 11.564463 -9.312611 20.125599 0.705194 2.051863 0.085360 -0.017220 -151604.000000 1 0 0
10.827856 11.581063 -7.792711 17.666065 0.818997 2.027634 0.037192 -0.009451 141097.000000 1 0 0
4.420656 16.610963 -9.993211 19.882921 1.310696 2.097403 0.027978 -0.022107 -92076.600000 1 0 0
11.517756 14.378563 -10.259111 21.086753 0.895424 2.078898 0.088968 -0.023266 -109026.000000 1 0 0
9.020356 -19.183037 -1.285011 21.236925 -1.131251 1.631342 0.055506 -0.008567 110142.000000 1 0 0
7.556356 -16.528937 -3.874911 18.582767 -1.142005 1.780860 0.036452 -0.019757 281371.000000 1 0 0
4.019956 -18.954737 5.480289 20.136427 -1.361811 1.295161 0.043470 -0.018483 271031.000000 1 0 0
10.411356 -17.914337 -2.483311 20.868317 -1.044334 1.690078 0.046960 -0.001866 702131.000000 1 0 0
-3.419944 -14.695137 7.661789 16.921764 1.342140 1.100919 0.024677 -0.039759 19553.700000 1 0 0
-15.279844 -12.592437 -3.825911 20.166326 0.689277 1.761671 0.052771 -0.023643 115947.000000 1 0 0
-9.531344 -12.682037 -6.916411 17.306569 0.926296 1.981921 0.038915 -0.013850 196356.000000 1 0 0
-11.422444 -15.316037 6.819389 20.286875 0.929999 1.227973 0.040341 -0.009613 187575.000000 1 0 0
-15.238144 -7.157537 -7.447011 18.408947 0.439125 1.987264 0.075546 -0.032091 -397965.000000 1 0 0
5.179656 -15.381137 6.969189 17.662894 -1.245971 1.165200 0.030184 -0.013842 222435.000000 1 0 0
2.895756 -14.275237 9.129389 17.190507 -1.370660 1.010932 0.014832 -0.004549 421264.000000 1 0 0
3.128156 -17.657937 10.117889 20.590284 -1.395462 1.057110 0.021073 -0.003356 228123.000000 1 0 0
-7.473144 -17.219137 -5.410711 19.535157 1.161326 1.851439 0.000382 -0.027875 -134748.000000 1 0 0
2.408556 -19.693537 -4.031711 20.245771 -1.449099 1.771275 0.034444 -0.012567 128102.000000 1 0 0
-17.321344 -10.639337 -2.900911 20.533868 0.550819 1.712545 -0.028041 -0.026870 -267713.000000 1 0 0
-4.109144 -14.563737 2.666489 15.365470 1.295796 1.396376 0.005751 -0.007218 124724.000000 1 0 0
-11.031544 -10.177637 -14.608411 20.944807 0.745159 2.342660 0.049103 -0.004213 253136.000000 1 0 0
0.604556 -20.326237 2.573489 20.497421 -1.541062 1.444912 0.040518 -0.024849 211656.000000 1 0 0
5.945056 -18.666037 1.239689 19.629098 -1.262458 1.507599 0.027069 -0.000048 267798.000000 1 0 0
-7.611644 -18.928537 -3.652611 20.726027 1.188459 1.747955 0.032426 -0.033029 33555.200000 1 0 0
-9.598844 -15.596737 -7.576311 19.819094 1.019102 1.963052 0.059467 -0.021320 110955.000000 1 0 0
-12.014244 -11.289137 -12.449211 20.658401 0.754292 2.217579 0.044042 0.008735 367319.000000 1 0 0
-13.311044 -15.037137 -3.371911 20.363427 0.846212 1.737149 0.049500 -0.022977 251664.000000 1 0 0
-0.077744 -20.268837 -2.424011 20.413418 1.566961 1.689823 0.030571 -0.026516 490149.000000 1 0 0
-11.922244 -16.861237 -0.935211 20.671619 0.955334 1.616053 0.056593 -0.018530 81403.900000 1 0 0
0.881456 -20.305237 4.973889 20.924130 -1.527413 1.330788 0.049765 -0.024853 -2711.770000 1 0 0
-18.320344 -9.179537 2.161789 20.605150 0.464493 1.465688 0.064354 -0.007694 21169.400000 1 0 0
-15.225744 -14.828737 -0.584911 21.261628 0.772189 1.598310 0.064690 -0.017212 -63806.700000 1 0 0
10.065356 -15.864037 -4.654711 19.355759 -1.005412 1.813659 0.037768 0.003995 -9323.520000 1 0 0
0.207356 -18.994137 -7.018511 20.250426 -1.559880 1.924725 0.013093 -0.006541 223944.000000 1 0 0
-10.360144 -18.299837 -2.229911 21.146847 1.055651 1.676442 0.061840 0.018726 385339.000000 1 0 0
-14.342444 -6.665937 -11.411211 19.502722 0.435069 2.195810 0.025231 -0.014617 -178315.000000 1 0 0
-12.583244 -15.140137 1.918689 19.779867 0.877367 1.473641 0.051620 -0.022845 295231.000000 1 0 0
-2.717444 -16.475837 10.457589 19.702763 1.407333 1.011290 0.017920 -0.012576 425507.000000 1 0 0
-12.532144 -14.349737 -6.472211 20.121111 0.852909 1.898281 0.053825 -0.019821 186152.000000 1 0 0
5.224556 -16.775537 -7.690711 19.179721 -1.268878 1.983384 0.021777 -0.004380 70002.300000 1 0 0
-17.305844 -7.091437 -2.950011 18.933654 0.388901 1.727242 0.004136 -0.018382 -62305.400000 1 0 0
-11.776444 -13.830137 -9.508711 20.502998 0.865429 2.053044 0.034789 -0.017434 69767.900000 1 0 0
-7.864744 -13.750237 10.002389 18.734220 1.051241 1.007578 0.030989 -0.006761 638261.000000 1 0 0
-15.958644 -8.622737 -5.681911 19.008262 0.495379 1.874355 0.054413 -0.007953 365420.000000 1 0 0
-0.830744 -19.524537 0.381089 19.545918 1.528273 1.551298 0.026439 -0.022453 236257.000000 1 0 0
-15.262744 -11.256037 -1.677511 19.038481 0.635443 1.659022 0.043459 -0.015243 62206.800000 1 0 0
-6.982344 -18.714337 0.989289 19.998956 1.213691 1.521309 0.014970 -0.026382 26706.800000 1 0 0
-1.755144 -21.079237 -4.883411 21.708581 1.487724 1.797691 0.011727 -0.006226 55526.300000 1 0 0
-9.122044 -19.276637 -0.616611 21.334963 1.128803 1.599702 0.041426 -0.032716 -11263.900000 1 0 0
-17.967044 -7.408837 4.798089 20.018171 0.391113 1.328753 0.075203 -0.019546 -124089.000000 1 0 0
-2.977744 -15.829837 -10.811411 19.399415 1.384860 2.161934 0.029454 0.001417 98438.400000 1 0 0
-2.980444 -18.312037 -8.512911 20.412825 1.409452 2.000980 0.020491 -0.001386 237425.000000 1 0 0
4.231556 -17.703437 -5.999411 19.165351 -1.336174 1.889182 0.012770 0.022821 495389.000000 1 0 0
0.905056 -17.515437 -9.125311 19.770710 -1.519170 2.050546 0.025163 0.004101 -23207.900000 1 0 0
-7.622844 -9.995837 -14.537811 19.219065 0.919279 2.428629 0.032689 -0.007427 507340.000000 1 0 0
-5.326744 -18.948837 -1.972011 19.781847 1.296757 1.670650 0.034712 -0.035833 181927.000000 1 0 0
-8.803444 -15.895037 8.442889 20.035848 1.065003 1.135820 0.003140 -0.004962 223024.000000 1 0 0
-7.736644 -14.645537 -9.742511 19.216242 1.084798 2.102490 0.060891 -0.025521 287759.000000 1 0 0
-12.707444 -8.235337 -12.152011 19.415748 0.575019 2.247061 0.035937 -0.015287 361635.000000 1 0 0
-15.779844 -12.856337 3.503189 20.653358 0.683659 1.400354 0.056564 -0.013969 -4041.790000 1 0 0
-6.006444 -14.334237 -13.143211 20.354157 1.173995 2.272770 0.017724 0.002059 468577.000000 1 0 0
-14.205444 -11.682137 -6.761811 19.595638 0.688233 1.923107 0.055569 -0.016764 212260.000000 1 0 0
-11.853344 -10.483737 -8.031211 17.745728 0.724159 2.040443 0.037267 -0.010354 348548.000000 1 0 0
-10.050344 -14.842537 3.812789 18.326147 0.975584 1.361214 0.015245 -0.003524 548870.000000 1 0 0
4.597656 -18.470637 8.234789 20.739205 -1.326837 1.162481 0.029725 -0.017458 74231.800000 1 0 0
-5.014844 -16.918437 5.330489 18.433564 1.282634 1.277434 0.006019 0.007952 470010.000000 1 0 0
-18.230444 -7.522837 -6.586111 20.792283 0.391366 1.893105 0.049003 -0.029963 30208.800000 1 0 0
-16.984844 -4.792237 -10.747611 20.663049 0.274999 2.117807 0.061982 -0.012203 -214209.000000 1 0 0
-15.699444 -4.414137 -13.151311 20.950277 0.274089 2.249442 0.047982 -0.015836 263065.000000 1 0 0
-19.497844 -5.355837 -6.103811 21.121255 0.268077 1.863967 0.064970 -0.016999 -522827.000000 1 0 0
5.538256 -13.524037 8.736089 17.026189 -1.182117 1.032007 0.024017 -0.006412 232396.000000 1 0 0
19.724456 -3.690037 3.190189 20.318658 -0.184941 1.413136 0.030260 0.002049 -136174.000000 1 0 0
18.255556 -2.289037 0.897989 18.420408 -0.124738 1.522027 0.028853 -0.013518 246786.000000 1 0 0
14.453156 -11.285937 0.411889 18.342185 -0.662963 1.548339 0.043521 -0.001768 57262.000000 1 0 0
11.334056 -13.795137 5.230989 18.604566 -0.883024 1.285786 0.041820 -0.005215 409678.000000 1 0 0
10.249056 -12.900337 8.304389 18.450603 -0.899430 1.103933 0.038680 -0.029208 110501.000000 1 0 0
18.061556 5.162463 -4.781211 19.383777 0.278403 1.820029 0.012067 0.007098 51323.700000 1 0 0
18.971856 -6.164837 -4.689711 20.492192 -0.314183 1.801696 0.053075 -0.020901 21199.000000 1 0 0
17.895056 -9.886637 -0.280211 20.446446 -0.504744 1.584501 0.070741 -0.009299 296362.000000 1 0 0
17.440756 -8.712537 9.154489 21.538174 -0.463288 1.131795 0.077281 -0.018095 -89469.300000 1 0 0
20.078056 0.175063 -2.393811 20.221012 0.008719 1.689457 0.060530 -0.000522 133713.000000 1 0 0
7.762156 -13.123737 11.342889 19.003807 -1.036680 0.931196 0.027909 -0.010887 376970.000000 1 0 0
16.131856 -6.628837 -3.296011 17.749422 -0.389881 1.757577 0.035672 -0.011339 296803.000000 1 0 0
14.400756 -7.099237 11.193989 19.572592 -0.458013 0.961950 0.034638 -0.056496 441259.000000 1 0 0
16.479156 1.110063 10.635089 19.644336 0.067260 0.998716 0.064861 -0.019448 259260.000000 1 0 0
16.828656 -9.768137 2.780289 19.655793 -0.525918 1.428872 0.038018 -0.009256 239456.000000 1 0 0
16.703456 -7.670737 -6.058811 19.353420 -0.430503 1.889211 0.059575 -0.005749 318509.000000 1 0 0
18.695556 -4.760137 6.158989 20.251318 -0.249316 1.261774 0.130178 -0.007902 -203730.000000 1 0 0
13.566956 -13.239837 8.117089 20.621414 -0.773196 1.166226 0.058214 -0.020241 190080.000000 1 0 0
15.595756 -13.911937 -1.763411 20.973298 -0.728396 1.654975 0.057159 -0.013601 374511.000000 1 0 0
18.694856 -6.416837 8.261589 21.422589 -0.330641 1.174886 0.076086 -0.022784 359690.000000 1 0 0
19.681856 3.993063 2.967289 20.300858 0.200164 1.424105 0.055455 0.000347 404948.000000 1 0 0
15.752556 -10.777237 8.009189 20.698768 -0.600014 1.173485 0.058184 -0.032076 193896.000000 1 0 0
14.089556 -4.462437 11.025289 18.438708 -0.306724 0.929864 0.031485 -0.015579 -257719.000000 1 0 0
18.626556 -7.532037 1.448089 20.143911 -0.384269 1.498847 0.057628 -0.014879 38205.200000 1 0 0
18.631556 -4.753237 -1.628111 19.297122 -0.249789 1.655267 0.025551 -0.009124 150724.000000 1 0 0
14.849156 -13.354737 -6.056411 20.869273 -0.732461 1.865240 0.066566 -0.016736 453304.000000 1 0 0
13.812756 -9.712637 10.547289 19.909115 -0.612847 1.012465 0.020577 -0.016885 326805.000000 1 0 0
14.446956 2.603863 0.751889 14.698979 0.178322 1.519622 0.003386 0.003807 -119236.000000 1 0 0
12.777156 2.301463 13.626189 18.820879 0.178212 0.761223 0.020871 -0.008790 137111.000000 1 0 0
18.227756 -3.544537 9.124589 20.689924 -0.192061 1.114066 0.059642 -0.021197 174708.000000 1 0 0
6.945756 -18.506537 5.270489 20.457603 -1.211751 1.310228 0.039610 -0.030915 134322.000000 1 0 0
12.482656 -3.324937 14.980289 19.780823 -0.260320 0.711607 0.027803 -0.004089 289360.000000 1 0 0
11.938156 -13.724437 -7.294811 19.598317 -0.854892 1.952192 0.047374 -0.000487 214319.000000 1 0 0
10.574156 -17.475637 4.719889 20.963970 -1.026650 1.343707 0.041945 -0.014728 476013.000000 1 0 0
18.423456 -0.023937 -5.045411 19.101845 -0.001299 1.838100 0.044437 -0.016351 6393.200000 1 0 0
4.255856 -13.503737 11.723989 18.382469 -1.265489 0.879183 0.007528 -0.007236 514.023000 1 0 0
9.075656 -2.907537 14.346589 17.223412 -0.310035 0.586342 0.010930 -0.008175 178767.000000 1 0 0
8.837856 -9.096837 13.813089 18.752642 -0.799837 0.742775 0.010761 -0.022359 437601.000000 1 0 0
21.092156 5.635263 -3.113511 22.052873 0.261075 1.712454 0.081932 -0.012203 632609.000000 1 0 0
14.799756 -13.018037 1.876989 19.799626 -0.721436 1.475855 0.042622 -0.010506 235260.000000 1 0 0
10.442356 -0.069537 14.338989 17.738496 -0.006659 0.629445 0.006343 -0.024533 -5401.460000 1 0 0
19.477056 0.333863 7.799789 20.983420 0.017140 1.189944 0.087089 -0.020385 -23857.900000 1 0 0
20.218856 1.225563 0.090089 20.256166 0.060541 1.566349 0.073376 -0.001420 324836.000000 1 0 0
17.761456 0.525163 2.973789 18.016341 0.029559 1.404977 0.028927 -0.000153 -76580.400000 1 0 0
10.076156 -8.146337 16.347389 20.859743 -0.679888 0.670226 0.020543 -0.008807 226786.000000 1 0 0
18.890756 3.076263 5.689889 19.967446 0.161428 1.281833 0.043198 -0.002710 145881.000000 1 0 0
15.668256 2.424763 7.135089 17.386294 0.153538 1.147919 0.041533 -0.010780 -75866.600000 1 0 0
11.480656 -16.124337 2.006389 19.895359 -0.952057 1.469778 0.018156 0.004096 278668.000000 1 0 0
8.251656 -16.745237 7.118589 19.979167 -1.112944 1.206491 0.033159 0.001805 368943.000000 1 0 0
6.142056 6.540763 7.160989 11.479817 0.816825 0.897215 -0.003652 0.002430 -1179120.000000 1 0 0
18.434856 2.895863 -6.538711 19.773333 0.155813 1.907824 0.019557 -0.006051 341339.000000 1 0 0
14.180556 4.478663 -7.098511 16.478333 0.305917 2.016152 0.011299 -0.003017 289172.000000 1 0 0
-10.611044 -3.939937 -13.890911 17.918559 0.355528 2.457867 0.018055 -0.003717 -131209.000000 1 0 0
7.800156 -14.140837 -10.270911 19.138896 -1.066722 2.137260 0.014822 0.008033 -5606.630000 1 0 0
1.900756 -16.121737 13.405789 21.053229 -1.453438 0.880511 0.001928 -0.009753 648211.000000 1 0 0
-9.392344 -7.905537 2.114389 12.457298 0.699656 1.400240 0.013581 -0.000563 418673.000000 1 0 0
-14.116144 3.131363 -9.719211 17.422227 -0.218294 2.162605 0.027560 -0.003091 204748.000000 1 0 0
-12.920444 -5.101037 -13.354411 19.269114 0.376019 2.336504 0.027437 0.001510 263179.000000 1 0 0
-18.001144 -1.217137 -8.717011 20.037686 0.067512 2.020869 0.074090 -0.027602 532263.000000 1 0 0
-12.447244 14.834463 4.764989 19.942424 -0.872678 1.329525 0.023097 -0.016066 414692.000000 1 0 0
-17.644944 6.360463 9.360389 20.962261 -0.345971 1.107907 0.043335 -0.005599 141998.000000 1 0 0
-13.541444 15.534863 -0.040811 20.608356 -0.853849 1.572777 0.040264 -0.017847 204987.000000 1 0 0
-16.882644 5.616963 -9.947411 20.384428 -0.321186 2.080583 0.089937 -0.028479 -240791.000000 1 0 0
-18.169844 3.036863 -0.126111 18.422314 -0.165607 1.577642 0.040232 -0.003473 -8060.490000 1 0 0
-9.633044 15.530463 -0.194111 18.276446 -1.015607 1.581417 0.012842 -0.003646 -177705.000000 1 0 0
-18.713344 11.619663 2.239189 22.140907 -0.555667 1.469490 0.111974 -0.029190 -114309.000000 1 0 0
-8.641844 16.283163 -7.770811 20.005208 -1.082874 1.969734 0.058489 -0.022385 153147.000000 1 0 0
-14.797444 -1.849137 -12.942811 19.745886 0.124319 2.285599 0.034020 -0.022289 141559.000000 1 0 0
-18.840044 5.418463 -4.901211 20.207148 -0.280045 1.815788 0.043986 -0.014418 -101179.000000 1 0 0
-16.624544 9.216463 -6.098811 19.962819 -0.506207 1.881269 0.045145 -0.001074 -39351.500000 1 0 0
-19.066344 1.077363 2.645689 19.279155 -0.056446 1.433131 0.042618 -0.009570 393888.000000 1 0 0
-13.904844 12.485363 -7.156011 20.010933 -0.731662 1.936498 0.036839 0.000757 35439.700000 1 0 0
-14.086044 5.164563 -12.400111 19.464123 -0.351425 2.261494 0.079408 -0.029146 236598.000000 1 0 0
-14.162844 9.130963 -6.567011 18.085526 -0.572649 1.942398 0.028190 -0.014537 71186.300000 1 0 0
-6.596544 11.348063 -15.367911 20.210532 -1.044246 2.434712 0.023013 -0.026276 122091.000000 1 0 0
-14.930744 14.002863 3.384289 20.747546 -0.753340 1.406947 0.024175 -0.012066 -10234.900000 1 0 0
-18.686744 8.491763 -5.107111 21.151525 -0.426529 1.814660 0.064183 -0.015767 248705.000000 1 0 0
-4.988844 16.211063 -11.308811 20.385689 -1.272251 2.158850 0.024959 -0.003839 -13822.200000 1 0 0
-19.597344 -2.246637 -6.732611 20.843016 0.114142 1.899710 0.059863 -0.015570 -43506.300000 1 0 0
-10.882744 13.653563 -6.160911 18.515148 -0.897849 1.910014 0.024667 -0.021692 158434.000000 1 0 0
-19.085244 2.796863 4.105589 19.721177 -0.145510 1.361081 0.031584 -0.002441 -63762.400000 1 0 0
-15.410244 12.701963 0.312189 19.972805 -0.689356 1.555165 0.035441 -0.002497 129177.000000 1 0 0
-16.956144 1.807863 -8.511611 19.058507 -0.106219 2.033763 0.006521 -0.018414 76530.900000 1 0 0
-16.675244 13.714963 -4.300611 22.014977 -0.688295 1.767410 0.049908 0.018254 405859.000000 1 0 0
-10.704644 15.451063 -9.024211 20.850926 -0.964912 2.018389 0.035130 -0.014006 257451.000000 1 0 0
-19.230144 1.798363 -7.010711 20.547083 -0.093247 1.918992 0.068138 -0.022768 189407.000000 1 0 0
-17.095144 10.263663 -0.178511 19.940375 -0.540702 1.579749 0.042313 -0.006170 -72555.900000 1 0 0
-11.816144 6.653063 -14.626111 19.945115 -0.512806 2.393986 0.040832 -0.017921 306900.000000 1 0 0
-13.491244 12.089163 -4.649111 18.702292 -0.730642 1.822016 0.040195 -0.018674 -182964.000000 1 0 0
-18.909644 7.517263 -0.214911 20.350185 -0.378380 1.581357 0.052899 -0.004011 54291.700000 1 0 0
-14.771044 8.846163 -10.621611 20.230100 -0.539600 2.123558 0.032755 -0.003543 532841.000000 1 0 0
-18.487144 11.423963 4.943289 22.287160 -0.553507 1.347136 0.065892 -0.024115 204115.000000 1 0 0
-8.358044 11.594363 -13.674211 19.780551 -0.946200 2.334077 0.009867 -0.014578 522024.000000 1 0 0
-21.216244 -0.400037 -5.471811 21.914145 0.018853 1.823160 0.067077 -0.011828 313431.000000 1 0 0
-10.834144 13.381863 -3.614211 17.593051 -0.890221 1.777703 0.019166 -0.003120 468295.000000 1 0 0
-18.523144 -4.844837 3.334289 19.434422 0.255825 1.398377 0.034035 -0.024126 -168971.000000 1 0 0
-11.638744 11.403363 -12.266411 20.395143 -0.775183 2.216096 0.041102 -0.022655 165440.000000 1 0 0
-15.130044 11.220763 -10.074211 21.361495 -0.638117 2.061908 0.049951 -0.026160 434920.000000 1 0 0
-12.692344 9.571063 -14.127111 21.266784 -0.646108 2.297327 0.050249 -0.018150 376159.000000 1 0 0
-18.452144 -4.733737 -2.971211 19.279989 0.251126 1.725521 0.028459 -0.012967 -245542.000000 1 0 0
-9.485444 12.670763 -11.489311 19.558275 -0.928186 2.198688 0.018464 -0.007465 18900.300000 1 0 0
-15.333444 7.775663 -8.283111 19.083641 -0.469315 2.019771 0.010838 -0.002849 -110588.000000 1 0 0
-14.226244 9.048663 1.914589 16.968499 -0.566509 1.457724 0.018388 -0.003792 -225672.000000 1 0 0
-20.168844 6.085163 7.888289 22.495256 -0.293026 1.212516 0.077847 -0.004131 146877.000000 1 0 0
-19.032244 6.092663 3.803889 20.342478 -0.309815 1.382697 0.040298 0.001570 150259.000000 1 0 0
-14.755544 12.403363 5.821889 20.136133 -0.699006 1.277482 0.031844 -0.023379 105621.000000 1 0 0
18.095856 6.068563 5.801289 19.948494 0.323570 1.275719 0.042669 -0.013176 305456.000000 1 0 0
18.354056 7.849863 0.560289 19.970119 0.404148 1.542736 0.035719 -0.002353 40440.100000 1 0 0
15.848656 5.146963 9.259989 19.063539 0.314012 1.063583 0.015128 0.006403 -165280.000000 1 0 0
11.970156 13.114063 10.769989 20.766703 0.830969 1.025562 0.028269 -0.010323 179658.000000 1 0 0
14.187156 13.341563 3.690189 19.821458 0.754691 1.383532 0.024883 0.006683 124743.000000 1 0 0
5.034356 10.404763 14.280089 18.371847 1.120151 0.680464 0.011498 -0.006292 229198.000000 1 0 0
12.258756 14.512463 -5.438211 19.760132 0.869384 1.849606 0.032169 0.020322 218492.000000 1 0 0
18.007056 9.514563 -2.497311 20.518712 0.486093 1.692808 0.036164 -0.006964 -169001.000000 1 0 0
14.303456 7.806863 9.605589 18.915689 0.499615 1.038155 0.031617 -0.002974 75508.300000 1 0 0
4.773956 19.033663 -1.761711 19.702147 1.325049 1.660333 0.036997 -0.022670 608824.000000 1 0 0
-4.674044 18.750863 3.285489 19.601938 -1.326504 1.402391 0.012854 -0.025477 311495.000000 1 0 0
6.749356 12.886163 12.633289 19.266733 1.088316 0.855681 0.019393 0.003742 -186988.000000 1 0 0
0.693756 16.602163 -10.208411 19.501917 1.529034 2.121699 0.023031 -0.010703 38899.300000 1 0 0
10.720656 9.323563 15.527489 21.046715 0.715810 0.741046 0.025451 -0.008993 -382479.000000 1 0 0
-1.237844 12.318463 1.070389 12.426685 -1.470646 1.484553 0.000054 -0.001580 516187.000000 1 0 0
-4.922844 18.999563 -1.894011 19.718140 -1.317269 1.666999 0.023823 0.006308 -97161.500000 1 0 0
6.240156 18.260463 6.428289 20.339787 1.241507 1.249238 0.031247 -0.020422 55694.800000 1 0 0
11.280556 17.417963 -1.798311 20.829554 0.996082 1.657239 0.051732 -0.017302 454951.000000 1 0 0
18.497456 10.596663 3.164389 21.551300 0.520233 1.423433 0.053794 -0.018309 288599.000000 1 0 0
11.459556 16.945563 6.077289 21.340266 0.976184 1.282019 0.031936 -0.004646 -210689.000000 1 0 0
17.772456 8.203563 -4.916811 20.182509 0.432449 1.816890 -0.002992 0.024819 344438.000000 1 0 0
0.236356 15.119963 10.895489 18.638155 1.555166 0.946434 -0.001006 -0.011365 333811.000000 1 0 0
1.256656 20.146363 -1.918111 20.276446 1.508501 1.665536 0.043144 -0.016342 283065.000000 1 0 0
14.305256 9.731863 -1.180611 17.341954 0.597382 1.638927 0.027161 -0.009466 -100739.000000 1 0 0
10.495956 16.963863 1.882789 20.037032 1.016723 1.476692 0.044363 -0.033097 247984.000000 1 0 0
0.010756 17.990063 -0.646111 18.001665 1.570198 1.606696 0.017417 0.004003 105954.000000 1 0 0
-0.362844 21.080763 1.300889 21.123980 -1.553586 1.509174 0.030324 -0.008603 293527.000000 1 0 0
5.990456 17.493363 -0.366611 18.494262 1.240871 1.590621 0.023499 -0.023046 -120552.000000 1 0 0
7.966756 18.912363 -2.503311 20.673975 1.172110 1.692179 0.034610 -0.018118 -38751.600000 1 0 0
10.098256 9.435963 12.451089 18.602198 0.751507 0.837484 0.008276 -0.007316 23679.500000 1 0 0
12.473456 14.771263 8.275989 21.030200 0.869539 1.166329 0.035297 -0.016693 305451.000000 1 0 0
0.320156 17.510563 6.928589 18.834215 1.552515 1.194076 0.006884 -0.008141 273711.000000 1 0 0
7.434756 17.836063 -7.881711 20.869166 1.175859 1.958078 0.037935 -0.023122 -12043.200000 1 0 0
-0.879144 18.565863 9.801689 21.012788 -1.523479 1.085508 0.017441 -0.000553 -4484.140000 1 0 0
16.088956 6.773263 -7.851411 19.140958 0.398468 1.993458 0.037543 0.005543 -29503.700000 1 0 0
-4.963344 20.290263 -6.185111 21.784975 -1.330890 1.858672 0.003461 0.009910 205131.000000 1 0 0
3.693756 15.444063 9.679189 18.597032 1.336036 1.023396 0.010392 -0.005710 158075.000000 1 0 0
8.812956 14.985463 7.646889 18.992293 1.039172 1.156407 0.009592 -0.003294 39102.500000 1 0 0
-2.713444 19.173863 6.721189 20.498150 -1.430212 1.236724 0.009995 -0.008717 -29940.100000 1 0 0
4.842656 17.966063 8.351689 20.395623 1.307509 1.148908 0.027283 -0.009309 92670.500000 1 0 0
15.056356 12.234663 -6.287311 20.393899 0.682371 1.884195 0.067909 -0.009554 114207.000000 1 0 0
11.546456 6.950463 15.714689 20.702199 0.541857 0.708893 0.024878 -0.003051 210742.000000 1 0 0
17.303356 9.649763 5.064389 20.449257 0.508722 1.320536 0.058161 -0.012094 147666.000000 1 0 0
4.885756 15.096663 12.105289 19.957902 1.257803 0.919093 0.007151 -0.006112 316946.000000 1 0 0
15.970156 10.579063 -3.606411 19.492785 0.585062 1.756881 0.056834 -0.024192 172599.000000 1 0 0
15.443656 13.636563 6.301589 21.544660 0.723336 1.273967 0.063240 -0.007608 297481.000000 1 0 0
12.801956 14.458763 -8.134911 20.955254 0.846100 1.969478 0.103468 -0.036302 332445.000000 1 0 0
-8.139244 15.545163 9.440489 19.925416 -1.088458 1.077205 0.023232 -0.018967 202577.000000 1 0 0
-4.619644 17.830663 -8.000611 20.081918 -1.317286 1.980567 0.015204 0.045121 108790.000000 1 0 0
2.296756 19.644363 -4.383711 20.258159 1.454408 1.788914 0.037477 -0.016388 86327.100000 1 0 0
7.015956 16.440463 9.290989 20.145345 1.167445 1.091452 0.023342 -0.006680 507569.000000 1 0 0
13.766956 15.214063 -1.707011 20.589091 0.835290 1.653800 0.093525 -0.032710 106708.000000 1 0 0
12.888256 16.645863 4.504589 21.528660 0.911948 1.360002 0.052069 -0.019755 152188.000000 1 0 0
2.314056 18.353663 0.901289 18.520910 1.445377 1.522114 0.026812 -0.019472 -28980.000000 1 0 0
-7.608144 17.230663 1.209989 18.874418 -1.154994 1.506645 0.012848 0.003687 211419.000000 1 0 0
-0.002444 19.904963 -6.031411 20.798689 -1.570674 1.865013 0.042954 -0.002225 204660.000000 1 0 0
-7.291244 17.919963 -6.227711 20.324165 -1.184375 1.882225 0.041197 -0.014823 132528.000000 1 0 0
-7.609144 18.460563 -0.931611 19.988980 -1.179831 1.617419 0.033962 0.002937 112101.000000 1 0 0
-14.540144 -8.836637 8.475489 19.008836 0.546092 1.108649 0.051894 -0.029446 357955.000000 1 0 0
-12.863644 -13.708137 7.565689 20.263909 0.817169 1.188170 0.044918 -0.006958 105380.000000 1 0 0
-3.579644 -15.588737 12.981889 20.599806 1.345079 0.888992 0.030159 -0.007943 225684.000000 1 0 0
-1.779544 -15.253837 15.088389 21.529185 1.454659 0.794230 0.020552 -0.007152 486387.000000 1 0 0
-7.085544 -13.782837 13.796189 20.748647 1.095945 0.843410 0.025828 -0.004459 208886.000000 1 0 0
-10.061744 -10.691837 11.889289 18.892042 0.815750 0.890108 0.052079 -0.011843 144165.000000 1 0 0
-7.290744 -10.545537 13.234789 18.426148 0.965894 0.769496 0.023952 -0.001013 219467.000000 1 0 0
-15.014444 -11.945937 8.144089 20.843827 0.672070 1.169383 0.070329 0.002295 412809.000000 1 0 0
-4.364544 -12.559637 13.117289 18.677714 1.236345 0.792178 0.026862 -0.014772 292210.000000 1 0 0
3.942356 -12.411837 13.841189 19.004589 -1.263246 0.754947 0.010109 -0.003323 424177.000000 1 0 0
7.053956 -13.246737 14.667289 20.984845 -1.081484 0.796873 0.040663 -0.003847 380336.000000 1 0 0
7.114856 -8.875037 17.052089 20.497834 -0.895038 0.588279 0.016274 0.002572 422997.000000 1 0 0
-5.373144 13.301363 13.371989 19.611400 -1.186886 0.820511 0.014739 -0.010193 551578.000000 1 0 0
-13.598444 -1.574837 17.294689 22.056837 0.115296 0.669557 0.030708 -0.016623 192403.000000 1 0 0
-10.196544 9.262063 12.900489 18.872676 -0.737411 0.818176 0.020786 -0.013326 530095.000000 1 0 0
-7.479844 -8.348437 16.916589 20.293236 0.840219 0.585190 0.034419 -0.016941 261030.000000 1 0 0
-5.418044 2.087163 18.377089 19.272489 -0.367704 0.306021 0.032344 -0.010549 607658.000000 1 0 0
-15.920544 -3.703437 13.931089 21.476834 0.228555 0.864978 0.051146 -0.020535 94268.000000 1 0 0
-14.557144 2.294463 12.203389 19.133679 -0.156332 0.879163 0.026230 -0.008756 65854.300000 1 0 0
-14.059744 10.941463 9.686789 20.278705 -0.661314 1.072781 -0.025687 0.012032 -211353.000000 1 0 0
-3.926044 11.335263 15.859189 19.885066 -1.237371 0.647586 -0.011968 0.002450 214919.000000 1 0 0
-12.565444 13.390063 7.563989 19.859458 -0.817158 1.180053 0.001327 -0.022089 -10311.600000 1 0 0
-4.042244 -6.188837 18.532989 19.952772 0.992209 0.379519 0.020121 -0.014793 261202.000000 1 0 0
0.506756 -2.823037 18.146589 18.371854 -1.393180 0.156758 0.019205 -0.017094 -12678.300000 1 0 0
-4.697944 6.531663 21.110089 22.591351 -0.947263 0.364135 0.027979 -0.013556 365477.000000 1 0 0
2.210356 -10.660037 16.343089 19.637175 -1.366344 0.587638 0.014627 -0.008719 282724.000000 1 0 0
-14.991744 -0.273037 14.086089 20.572915 0.018210 0.816617 0.003963 -0.000268 51679.700000 1 0 0
-14.155344 -5.862337 7.515989 17.065487 0.392639 1.114729 0.035086 -0.014808 133628.000000 1 0 0
10.072556 0.561163 16.651389 19.468951 0.055655 0.544707 0.026028 0.006429 714511.000000 1 0 0
-7.847344 12.639363 12.346489 19.333134 -1.015176 0.878095 0.017572 0.006672 66546.400000 1 0 0
-2.076944 7.413963 20.530689 21.926918 -1.297658 0.358787 0.013969 -0.007209 491307.000000 1 0 0
1.152956 -13.746137 15.279689 20.585298 -1.487117 0.734356 -0.008067 -0.009946 484295.000000 1 0 0
-2.855244 -11.159437 17.755589 21.164744 1.320311 0.575495 0.029971 -0.026388 522714.000000 1 0 0
-2.184944 8.730463 16.536789 18.827117 -1.325567 0.498398 0.006205 -0.016639 419418.000000 1 0 0
-5.831744 -8.853837 19.727289 22.395660 0.988351 0.493135 0.091385 -0.038105 81524.300000 1 0 0
-6.835044 -3.328137 19.127889 20.583257 0.453131 0.378301 0.018052 -0.014305 237714.000000 1 0 0
-10.983644 -7.887637 15.839689 20.826689 0.622788 0.706640 0.069837 -0.022986 123566.000000 1 0 0
-0.305044 6.602363 17.864189 19.047664 -1.524627 0.354363 0.016779 -0.007905 215687.000000 1 0 0
-5.978544 -11.514937 18.804789 22.846375 1.091908 0.603953 0.067832 -0.019357 401403.000000 1 0 0
0.641156 3.544963 18.700389 19.044222 1.391867 0.190310 0.017219 -0.015351 198139.000000 1 0 0
-18.107344 -1.421937 7.365789 19.599812 0.078367 1.185527 0.027969 -0.003403 262711.000000 1 0 0
-1.779144 -8.529937 17.592489 19.632138 1.365168 0.459878 0.009104 -0.008512 352412.000000 1 0 0
5.891656 3.472163 14.985089 16.471807 0.532541 0.428135 -0.005120 -0.004771 490772.000000 1 0 0
-13.140244 -6.350937 10.092889 17.744487 0.450214 0.965762 0.001368 -0.022954 -233122.000000 1 0 0
3.238256 8.102063 17.147389 19.239612 1.190563 0.470693 0.017382 -0.000302 138328.000000 1 0 0
6.429656 4.343263 16.992289 18.679997 0.594096 0.428352 0.021841 -0.041392 226573.000000 1 0 0
4.539156 -9.995437 17.749489 20.870004 -1.144519 0.553902 0.005368 -0.005239 391759.000000 1 0 0
-4.464144 -0.724737 19.854389 20.362971 0.160942 0.223966 0.024076 -0.013904 557709.000000 1 0 0
-11.165144 2.183763 16.684689 20.194259 -0.193149 0.598451 0.044370 -0.023654 91961.500000 1 0 0
-16.848844 -4.281537 8.984389 19.568708 0.248847 1.093792 0.051301 -0.013917 418448.000000 1 0 0
-13.153644 -9.643437 12.066589 20.288341 0.632622 0.933836 0.045961 -0.029167 81099.100000 1 0 0
-14.787844 5.916163 12.975089 20.543472 -0.380566 0.887192 0.032378 -0.012652 472126.000000 1 0 0
1.157156 9.026763 16.882589 19.179240 1.443300 0.494401 0.008941 -0.025100 98437.100000 1 0 0
-3.880644 -10.533537 15.040789 18.768061 1.217817 0.641158 0.029219 -0.007873 488842.000000 1 0 0
-18.330044 -4.640537 7.032489 20.173770 0.247956 1.214724 0.093086 -0.010232 -158426.000000 1 0 0
-0.576744 -0.618437 20.735689 20.752925 0.820269 0.040759 0.034067 -0.024066 547190.000000 1 0 0
-2.023744 2.499463 20.269689 20.523234 -0.890186 0.157350 0.021103 -0.019806 287098.000000 1 0 0
-7.993144 2.168563 16.334889 18.314519 -0.264926 0.469247 0.011948 0.000353 647507.000000 1 0 0
2.633356 -2.222637 18.881689 19.193563 -0.701019 0.180516 0.014187 -0.009559 -217566.000000 1 0 0
-12.620244 4.425263 14.075189 19.415572 -0.337252 0.759844 0.020634 -0.013027 243920.000000 1 0 0
-13.247344 -5.623337 13.096789 19.458672 0.401437 0.832462 0.017075 -0.017565 895.971000 1 0 0
-17.297744 -1.304737 10.093189 20.069547 0.075286 1.043833 0.043331 -0.011704 176529.000000 1 0 0
-7.113944 7.585863 15.008389 18.259388 -0.817491 0.605962 0.013133 -0.006206 -139054.000000 1 0 0
-9.479544 0.451263 14.037689 16.944677 -0.047568 0.594475 0.015969 -0.012132 298618.000000 1 0 0
7.224456 -1.027237 14.980089 16.662864 -0.141242 0.453292 0.000514 -0.010738 84224.900000 1 0 0
3.940356 6.112363 18.331789 19.721609 0.998189 0.377665 0.013307 -0.013939 218392.000000 1 0 0
2.185956 0.751663 19.745589 19.880435 0.331194 0.116538 0.024248 -0.018419 346875.000000 1 0 0
-6.865244 5.863063 17.287389 19.502843 -0.706824 0.481279 0.011126 -0.023521 352523.000000 1 0 0
7.514656 -3.403237 16.858089 18.768251 -0.425246 0.455085 0.007760 0.001002 441754.000000 1 0 0
-16.747644 2.291563 9.386889 19.335162 -0.135985 1.063881 0.039399 0.000122 347045.000000 1 0 0
3.618656 -6.166537 19.072589 20.368714 -1.040123 0.358663 0.024099 -0.023755 137590.000000 1 0 0
-3.865144 -3.811437 20.326989 21.039317 0.778402 0.260959 0.021651 -0.021181 314896.000000 1 0 0
-9.526244 5.830463 14.520189 18.318829 -0.549227 0.655674 0.022688 -0.010760 -58507.300000 1 0 0
6.407256 2.906863 19.823989 21.035525 0.425912 0.341046 0.039979 -0.020811 155414.000000 1 0 0
-7.267844 11.214863 14.472989 19.699292 -0.995790 0.745578 0.014271 -0.014557 211815.000000 1 0 0
-14.494844 4.939063 9.781689 18.170753 -0.328407 1.002353 0.017870 0.001596 298666.000000 1 0 0
0.692656 -5.783537 20.313789 21.132418 -1.451601 0.279252 0.038825 -0.021266 252407.000000 1 0 0
-5.965644 -8.109137 13.556889 16.885978 0.936530 0.638738 0.013073 -0.008717 63823.500000 1 0 0
-12.813944 10.038163 6.457889 17.511887 -0.664523 1.193109 -0.003094 -0.016821 101646.000000 1 0 0
-19.415644 1.800263 7.671589 20.953793 -0.092458 1.195961 0.018895 -0.003053 53026.300000 1 0 0
-15.479644 8.957163 6.470189 19.018766 -0.524567 1.223666 0.006736 -0.009507 121991.000000 1 0 0
-12.713344 7.798363 14.153489 20.561245 -0.550214 0.811574 0.023070 -0.008324 97146.500000 1 0 0
-16.360544 9.411063 10.727389 21.709730 -0.522007 1.053965 0.026792 -0.001073 339008.000000 1 0 0
2.597356 10.477463 15.019189 18.495932 1.327796 0.623180 0.004979 -0.026272 301747.000000 1 0 0
1.588056 14.555063 12.711789 19.389723 1.462119 0.855827 0.000272 -0.025122 437953.000000 1 0 0
8.909256 4.844763 16.620489 19.470162 0.498063 0.547864 0.019002 -0.008011 47264.300000 1 0 0
-0.751044 13.307063 13.317789 18.841589 -1.514417 0.785790 -0.002595 0.006799 218933.000000 1 0 0
3.881456 12.966063 14.916589 20.141726 1.279931 0.736861 0.012602 0.005708 239738.000000 1 0 0
-3.757644 -4.636637 -13.834011 15.066458 0.889731 2.734307 0.012745 -0.004589 148461.000000 1 0 0
6.316756 -12.253637 16.691189 21.648298 -1.094825 0.690361 0.006773 0.013410 198920.000000 1 0 0
8.332456 -14.116037 7.080889 17.855849 -1.037552 1.163031 0.013839 -0.005398 189638.000000 1 0 0
-0.418644 15.348663 0.365389 15.358718 -1.543528 1.547004 0.009006 -0.003885 -409601.000000 1 0 0
-14.335244 7.721863 8.690789 18.456874 -0.494097 1.080520 0.020307 -0.001298 80665.700000 1 0 0
-16.268944 -9.838537 4.361689 19.506401 0.543900 1.345287 0.057623 -0.013685 174339.000000 1 0 0
9.021656 -10.538337 11.389489 17.949019 -0.862783 0.883375 0.003737 -0.002544 121402.000000 1 0 0
-25.538724 6.199063 31.074120 40.697122 -0.238126 0.702010 0.053193 -0.027794 -994265.000000 0 0 1
-24.420844 5.509563 30.680450 39.598269 -0.221894 0.684409 0.041852 -0.024579 -723901.000000 0 0 1
-23.798044 4.824763 31.766000 39.983796 -0.200027 0.652659 0.028381 -0.007619 232835.000000 0 0 1
-22.457544 4.197363 31.323480 38.770085 -0.184770 0.630167 0.016686 -0.014591 -124260.000000 0 0 1
-22.739944 3.128563 30.422470 38.110623 -0.136722 0.646383 0.025571 -0.027273 243635.000000 0 0 1
-21.579044 2.392463 30.073640 37.091816 -0.110419 0.625297 0.018829 -0.028181 302200.000000 0 0 1
-20.857244 1.447963 31.086410 37.463130 -0.069311 0.592071 0.012580 -0.022708 8156.170000 0 0 1
-21.511544 0.222163 31.274960 37.959439 -0.010327 0.602530 0.015883 -0.007078 -155634.000000 0 0 1
-21.168944 -0.448337 32.459970 38.755320 0.021176 0.577992 0.016479 -0.008610 -206867.000000 0 0 1
-21.573344 -1.925237 32.628068 39.162565 0.089006 0.586027 0.040909 -0.025454 -309225.000000 0 0 1
-20.863644 -2.866437 31.854690 38.186769 0.136534 0.584150 0.044606 -0.035612 130201.000000 0 0 1
-21.332844 -4.194937 32.103525 38.772723 0.194165 0.595278 0.059755 -0.039153 1187520.000000 0 0 1
-22.802344 -4.726237 31.760680 39.383055 0.204376 0.632663 0.047542 -0.030814 1876010.000000 0 0 1
-23.940044 -4.338437 32.549954 40.638002 0.179275 0.641877 0.041059 -0.024691 973039.000000 0 0 1
-23.933344 -4.819037 33.880842 41.760502 0.198696 0.624402 0.040196 -0.021133 -283766.000000 0 0 1
-25.232994 -4.349637 -33.508061 42.171240 0.170701 2.489098 0.036385 -0.016751 318440.000000 0 0 1
-25.427664 -4.969437 -32.218261 41.343412 0.193002 2.464319 0.039115 -0.016074 477457.000000 0 0 1
-26.709884 -4.763537 -31.646791 41.684872 0.176488 2.432866 0.049323 -0.018500 89818.500000 0 0 1
-26.683844 -5.288337 -30.224921 40.663742 0.195650 2.408770 0.037570 -0.002225 -484651.000000 0 0 1
-26.821694 -6.701737 -30.181641 40.929793 0.244849 2.400010 0.031520 -0.012783 512619.000000 0 0 1
-26.515274 -7.134637 -28.890381 39.857457 0.262851 2.381602 0.021293 0.001325 -283527.000000 0 0 1
-26.609814 -8.657737 -28.716721 40.095993 0.314556 2.369137 0.029152 -0.004727 -623935.000000 0 0 1
-27.938814 -9.076937 -28.704611 41.072166 0.314129 2.344630 0.039871 -0.003221 -579754.000000 0 0 1
-28.015374 -10.334737 -28.158521 41.043517 0.353408 2.326863 0.044950 -0.006325 497357.000000 0 0 1
-29.494134 -10.637637 -27.782361 41.891799 0.346148 2.295874 0.100391 -0.012993 527999.000000 0 0 1
-29.625454 -11.703437 -26.862701 41.668245 0.376229 2.271401 0.115043 -0.017431 491025.000000 0 0 1
-30.982474 -11.854937 -26.413631 42.404400 0.365446 2.243239 0.108694 -0.019026 771162.000000 0 0 1
-30.985464 -12.593337 -25.010741 41.763959 0.386035 2.212872 0.098244 -0.017491 -97932.800000 0 0 1
-30.662104 -11.866837 -23.852811 40.619491 0.369267 2.198423 0.103608 -0.015693 -10954.700000 0 0 1
-30.602584 -12.501837 -22.611011 40.050866 0.387832 2.170693 0.100246 -0.016863 -200843.000000 0 0 1
-30.282744 -11.544337 -21.388411 38.830148 0.364211 2.154142 0.108313 -0.018920 82822.300000 0 0 1
-30.144074 -12.151937 -20.094511 38.211571 0.383201 2.124540 0.106144 -0.014799 117342.000000 0 0 1
-29.087304 -13.071537 -19.945111 37.613080 0.422346 2.129716 0.097020 -0.014009 -420438.000000 0 0 1
-28.622374 -13.328137 -18.538411 36.613552 0.435796 2.101716 0.082312 -0.022523 -101658.000000 0 0 1
-28.041594 -12.167037 -17.950911 35.448596 0.409379 2.101793 0.067863 -0.024904 176006.000000 0 0 1
-27.721284 -12.493937 -16.616911 34.650971 0.423435 2.070939 0.074224 -0.034270 -113071.000000 0 0 1
-27.210234 -11.279237 -15.796911 33.423950 0.392962 2.063061 0.065077 -0.026875 392669.000000 0 0 1
-25.903234 -10.737237 -16.010911 32.289550 0.392955 2.089615 0.054709 -0.027477 758067.000000 0 0 1
-25.830294 -9.547637 -15.260311 31.483941 0.354054 2.076818 0.054002 -0.035908 419803.000000 0 0 1
-24.433444 -8.824137 -15.357711 30.178102 0.346573 2.104706 0.059777 -0.032583 1172000.000000 0 0 1
-23.510644 -9.346037 -14.387611 29.105019 0.378370 2.087865 0.054917 -0.024338 693961.000000 0 0 1
-22.206344 -8.799737 -14.505311 27.945682 0.377288 2.116540 0.095314 -0.047894 875567.000000 0 0 1
-21.051244 -9.314237 -13.579411 26.726584 0.416562 2.103758 0.073098 -0.031959 245433.000000 0 0 1
-20.419544 -10.503137 -14.069211 26.929841 0.475075 2.120506 0.072065 -0.023889 249469.000000 0 0 1
-19.244444 -10.605037 -13.282011 25.675421 0.503664 2.114495 0.084267 -0.020849 542096.000000 0 0 1
-18.082744 -11.478737 -13.889911 25.527958 0.565608 2.146119 0.084239 -0.011956 446990.000000 0 0 1
-17.521444 -10.934137 -15.069311 25.566394 0.557911 2.201135 0.093679 -0.023394 -82326.800000 0 0 1
-18.331644 -11.110137 -16.185411 26.859856 0.544866 2.217536 0.084423 -0.029021 -639667.000000 0 0 1
-17.681044 -10.605137 -17.443811 27.006940 0.540274 2.272999 0.092067 -0.034876 -665247.000000 0 0 1
-18.430044 -10.967837 -18.540511 28.349789 0.536814 2.283645 0.061435 -0.023957 -381530.000000 0 0 1
-17.934044 -10.648037 -19.812611 28.767172 0.535799 2.330522 0.068522 -0.032033 -211483.000000 0 0 1
-18.888444 -10.865237 -21.038211 30.289157 0.522009 2.338631 0.082464 -0.027205 372061.000000 0 0 1
-19.934444 -9.891637 -21.110911 30.674046 0.460610 2.329848 0.064286 -0.031071 522589.000000 0 0 1
-21.030644 -10.402437 -21.851611 32.062308 0.459344 2.320656 0.074027 -0.013963 254621.000000 0 0 1
-22.124344 -9.398137 -22.207611 32.725977 0.401690 2.316641 0.060035 -0.015774 43601.200000 0 0 1
-21.645744 -8.485037 -23.211311 32.852687 0.373587 2.355375 0.067554 -0.034693 752431.000000 0 0 1
-22.727144 -8.023937 -24.002111 34.014820 0.339394 2.354118 0.061140 -0.028422 456820.000000 0 0 1
-22.061544 -7.434537 -25.255891 34.348859 0.325039 2.396870 0.062304 -0.029466 382729.000000 0 0 1
-21.170044 -8.299237 -25.937631 34.493605 0.373615 2.421819 0.065157 -0.036148 72825.400000 0 0 1
-20.503144 -7.648837 -26.960271 34.723765 0.357066 2.459764 0.057104 -0.045318 477263.000000 0 0 1
-19.195844 -8.368737 -27.498111 34.563887 0.411122 2.490750 0.059708 -0.041771 680109.000000 0 0 1
-19.429344 -9.404037 -28.439271 35.703326 0.450776 2.492354 0.049237 -0.035227 842453.000000 0 0 1
-18.201344 -10.002237 -28.872451 35.566165 0.502485 2.518017 0.036679 -0.024500 485495.000000 0 0 1
-18.503144 -11.274937 -29.740661 36.796704 0.547268 2.511958 0.032875 -0.019739 -320368.000000 0 0 1
-19.147244 -11.061737 -30.956551 38.043226 0.523876 2.521321 0.038500 -0.019417 118118.000000 0 0 1
-19.417244 -12.251637 -31.661711 39.110049 0.562879 2.514189 0.038794 -0.019072 50492.600000 0 0 1
-20.106544 -12.020837 -33.016501 40.482873 0.538842 2.524505 0.044535 -0.018367 149953.000000 0 0 1
-19.308044 -11.129337 -33.808881 40.493248 0.522893 2.558795 0.033441 -0.017861 253122.000000 0 0 1
-19.652144 -11.174637 32.912485 39.928823 0.517028 0.601869 0.036355 -0.021990 43671.200000 0 0 1
-19.114344 -12.376237 32.023810 39.294450 0.574605 0.618118 0.044322 -0.021984 -731142.000000 0 0 1
-17.803944 -12.105237 31.615190 38.249672 0.597121 0.597849 0.046940 -0.021415 -65453.000000 0 0 1
-17.272944 -12.934537 30.559800 37.410670 0.642753 0.614826 0.053052 -0.021722 164788.000000 0 0 1
-17.262444 -14.441137 30.742490 38.100382 0.696642 0.631943 0.049864 -0.013782 -925687.000000 0 0 1
-18.498644 -15.088037 30.484270 38.718722 0.684199 0.664336 0.041667 -0.014232 179913.000000 0 0 1
-18.531344 -16.450437 30.750000 39.491646 0.725983 0.678292 0.049561 -0.016537 -168209.000000 0 0 1
-18.916144 -16.748737 32.261173 40.977115 0.724701 0.664383 0.027403 -0.016538 -438152.000000 0 0 1
-17.897244 -16.463937 33.172206 41.131105 0.743709 0.632589 0.041915 -0.018818 -600270.000000 0 0 1
-18.425344 -16.048837 -33.725771 41.647162 0.716571 2.514603 0.032552 -0.016260 -70.169800 0 0 1
-17.360144 -15.546537 -32.735091 40.182777 0.730340 2.522930 0.045236 -0.017510 38496.500000 0 0 1
-16.687544 -14.362737 -33.188531 39.827640 0.710665 2.555854 0.030140 -0.014333 153251.000000 0 0 1
-15.428644 -14.157537 -32.568431 38.719267 0.742462 2.570189 0.038786 -0.014056 -27816.500000 0 0 1
-15.452044 -13.669037 -31.060411 37.287496 0.724247 2.555301 0.055960 -0.020084 -528158.000000 0 0 1
-15.860844 -14.719337 -30.207261 37.157824 0.748087 2.519988 0.050727 -0.022594 -129684.000000 0 0 1
-16.084944 -14.298937 -28.857351 35.999052 0.726684 2.500787 0.045259 -0.018886 -189205.000000 0 0 1
-16.232644 -15.489437 -27.868501 35.778132 0.761974 2.463747 0.074505 -0.016102 1507480.000000 0 0 1
-14.988944 -16.145137 -27.422171 35.175408 0.822517 2.464797 0.078928 -0.028008 1121200.000000 0 0 1
-14.383044 -16.897037 -28.443011 36.074738 0.865596 2.479076 0.075062 -0.027612 -303722.000000 0 0 1
-12.929844 -17.293637 -28.049931 35.398438 0.928791 2.485539 0.080648 -0.030500 346717.000000 0 0 1
-12.067844 -16.157037 -28.204471 34.672394 0.929276 2.520866 0.072110 -0.027150 -339439.000000 0 0 1
-10.765044 -16.468037 -27.765571 34.029537 0.991829 2.525125 0.082057 -0.029379 -113968.000000 0 0 1
-9.705144 -15.765837 -28.639351 34.102256 1.018999 2.567726 0.066772 -0.038876 -343001.000000 0 0 1
-9.597944 -14.361137 -28.432121 33.267827 0.981645 2.595660 0.068904 -0.029355 -150123.000000 0 0 1
-8.601644 -14.023237 -27.494631 32.040509 1.020593 2.602395 0.087048 -0.029766 -240478.000000 0 0 1
-8.346144 -12.515837 -27.507041 31.351900 0.982669 2.641138 0.072111 -0.030885 -398579.000000 0 0 1
-7.753044 -12.154337 -28.703721 32.120729 1.002987 2.676143 0.088957 -0.032412 -58492.700000 0 0 1
-7.810044 -10.763237 -28.979101 31.884673 0.943080 2.711369 0.090247 -0.031726 -157563.000000 0 0 1
-6.905544 -10.308837 -30.155491 32.608470 0.980582 2.751240 0.096297 -0.025418 548876.000000 0 0 1
-5.506444 -10.488037 -29.801241 32.069204 1.087333 2.763253 0.104760 -0.032261 1158790.000000 0 0 1
-4.653644 -10.165737 -30.869571 32.831830 1.141494 2.794110 0.100315 -0.033949 -175103.000000 0 0 1
-4.524644 -8.694137 -31.248541 32.749530 1.090943 2.837662 0.088496 -0.039382 -1156950.000000 0 0 1
-3.206844 -8.404637 -31.672741 32.925436 1.206290 2.864861 0.082448 -0.041765 289460.000000 0 0 1
-3.188944 -7.079537 -32.106561 33.032113 1.147572 2.904310 0.071527 -0.038469 858746.000000 0 0 1
-1.802044 -6.589537 -32.680851 33.387234 1.303853 2.935523 0.080593 -0.040278 770383.000000 0 0 1
-1.479344 -7.096537 -33.929931 34.695670 1.365280 2.931108 0.078278 -0.038050 -50580.200000 0 0 1
-0.264544 -6.500737 33.747477 34.368907 1.530124 0.190452 0.073519 -0.029255 117335.000000 0 0 1
0.224656 -7.110837 32.424182 33.195513 -1.539213 0.215993 0.051903 -0.023192 -148768.000000 0 0 1
-0.416744 -6.733637 31.228220 31.948666 1.508985 0.212769 0.052084 -0.019715 -312993.000000 0 0 1
0.161356 -7.326737 30.135400 31.013698 -1.548777 0.238555 0.044827 -0.024058 -210613.000000 0 0 1
-0.334944 -6.850637 28.740320 29.547410 1.521943 0.234266 0.037925 -0.009589 148676.000000 0 0 1
0.224156 -5.597637 28.292620 28.841916 -1.530773 0.195478 0.042707 -0.012443 76769.500000 0 0 1
-0.109244 -5.284637 26.970310 27.483394 1.550127 0.193532 0.049545 -0.005311 -143265.000000 0 0 1
-1.291244 -4.293537 26.809930 27.182239 1.278660 0.165699 0.032563 0.007429 969501.000000 0 0 1
-2.561344 -4.803537 27.208890 27.748120 1.080927 0.197465 0.026558 0.013069 -882958.000000 0 0 1
-3.629244 -4.012837 26.855690 27.395298 0.835551 0.198807 0.007909 0.001058 -1027710.000000 0 0 1
-4.858244 -4.821237 27.247060 28.093578 0.781575 0.246108 0.006812 0.005997 -654149.000000 0 0 1
-5.312244 -5.726437 26.282030 27.418190 0.822903 0.288886 0.009084 0.012048 168583.000000 0 0 1
-6.581044 -6.256337 26.678030 28.181007 0.760110 0.328067 -0.000610 0.013464 808186.000000 0 0 1
-6.662944 -7.827837 26.504550 28.428173 0.865614 0.369982 0.008523 0.015796 467549.000000 0 0 1
-5.774144 -8.457137 27.450790 29.298631 0.971739 0.357053 0.014142 0.009002 346445.000000 0 0 1
-5.934544 -9.851337 27.473950 29.783982 1.028607 0.396443 0.016399 0.007161 17351.900000 0 0 1
-5.195144 -10.462637 28.664320 30.953183 1.109919 0.386977 0.025246 -0.005409 -35319.700000 0 0 1
-5.334344 -11.842137 28.730900 31.530240 1.147565 0.424567 0.049148 -0.014935 -53237.700000 0 0 1
-4.779044 -12.398637 29.890580 32.711041 1.202896 0.418311 0.060252 -0.021808 -144060.000000 0 0 1
-4.755644 -13.962037 29.982690 33.414313 1.242509 0.457180 0.075428 -0.031488 33892.200000 0 0 1
-6.042144 -14.544637 29.899140 33.793676 1.177067 0.484827 0.099649 -0.038450 -172036.000000 0 0 1
-6.122144 -15.954537 30.119790 34.629895 1.204399 0.516075 0.093215 -0.042125 -60543.800000 0 0 1
-6.367444 -16.355437 31.574870 36.125020 1.199534 0.507331 0.102409 -0.045326 -964346.000000 0 0 1
-7.718844 -16.405437 31.839930 36.640143 1.131022 0.517638 0.102511 -0.044908 -1140400.000000 0 0 1
-7.871044 -16.749337 33.193264 38.003768 1.131491 0.508614 0.111456 -0.041567 -441086.000000 0 0 1
-9.278944 -17.134337 33.674918 38.906097 1.074471 0.524562 0.119752 -0.042661 4567.550000 0 0 1
-9.817044 -18.379137 33.227605 39.220413 1.080211 0.560100 0.113684 -0.043246 193867.000000 0 0 1
-10.300344 -18.436737 31.897530 38.255232 1.061309 0.584826 0.112781 -0.045707 -443830.000000 0 0 1
-11.013144 -19.780837 31.632930 38.900040 1.062779 0.621192 0.124453 -0.049651 -684363.000000 0 0 1
-12.258044 -19.908237 32.249038 39.832123 1.018893 0.627285 0.120630 -0.046538 -430074.000000 0 0 1
-12.707244 -21.232737 32.265240 40.661393 1.031500 0.654240 0.110002 -0.044767 -163304.000000 0 0 1
-12.148044 -22.222237 33.357647 41.882400 1.070520 0.649378 0.118798 -0.046715 1613200.000000 0 0 1
-10.724744 -22.512837 33.153003 41.484570 1.126220 0.644892 0.101982 -0.046121 1575310.000000 0 0 1
-10.041144 -23.257837 -33.942081 42.353470 1.163238 2.500429 0.090945 -0.050467 198392.000000 0 0 1
-10.301644 -24.729237 -33.611111 42.980994 1.176081 2.468664 0.099736 -0.040267 -253578.000000 0 0 1
-9.810344 -25.469477 33.416244 43.146060 1.203130 0.684886 0.088269 -0.035031 -82224.600000 0 0 1
-9.818344 -26.859917 33.669034 44.175320 1.220346 0.704140 0.085968 -0.029727 -778027.000000 0 0 1
-9.057044 -27.565957 32.553981 43.608184 1.253349 0.727994 0.073273 -0.021358 725835.000000 0 0 1
-7.668744 -27.240777 32.403969 43.021934 1.296381 0.717888 0.072048 -0.030131 559488.000000 0 0 1
-6.833844 -28.071047 33.200762 44.011086 1.331994 0.716098 0.075905 -0.028483 -624188.000000 0 0 1
-5.340444 -27.753497 33.119419 43.539326 1.380696 0.706439 0.082178 -0.030479 -145847.000000 0 0 1
-4.987544 -26.538977 33.818921 43.277157 1.385030 0.673811 0.080698 -0.029890 -110355.000000 0 0 1
-4.865644 -25.475917 32.917478 41.907723 1.382079 0.667333 0.092311 -0.025330 -59063.000000 0 0 1
-4.513044 -24.160737 33.648181 41.669040 1.386132 0.630877 0.080202 -0.028973 907093.000000 0 0 1
-3.162844 -24.098037 -33.957151 41.758916 1.440293 2.520377 0.065880 -0.022727 715282.000000 0 0 1
-2.981244 -22.842837 -33.381641 40.558809 1.441019 2.537544 0.055535 -0.018571 -74375.600000 0 0 1
34.704488 -15.788437 2.348889 38.199391 -0.426954 1.509267 0.116640 -0.056899 -169438.000000 0 0 1
35.538008 -15.702137 3.458589 39.006012 -0.416048 1.482012 0.107467 -0.052773 20454.300000 0 0 1
34.902338 -16.314237 4.570189 38.797089 -0.437250 1.452725 0.112805 -0.056774 79691.600000 0 0 1
35.754138 -16.487537 5.879889 39.809174 -0.432076 1.422552 0.094049 -0.038782 54262.200000 0 0 1
-36.769054 -17.344937 5.639689 41.044077 0.440774 1.432955 0.104166 -0.036194 -339055.000000 0 0 1
-35.914850 -17.213237 6.741889 40.393378 0.446934 1.403106 0.086602 -0.028274 -15551.800000 0 0 1
-34.562827 -17.931537 6.496889 39.475797 0.478582 1.405465 0.069830 -0.028625 -9327.040000 0 0 1
-34.656316 -19.366137 6.522389 40.232438 0.509578 1.407960 0.075968 -0.036021 1100160.000000 0 0 1
-33.391064 -19.932337 6.958989 39.505553 0.538164 1.393720 0.052878 -0.025762 1018300.000000 0 0 1
-33.494284 -21.478837 7.112289 40.420195 0.570213 1.393917 0.039453 -0.023032 -321216.000000 0 0 1
-33.361854 -22.288037 5.961289 40.562382 0.588973 1.423296 0.062610 -0.023297 271890.000000 0 0 1
-33.761734 -23.663837 6.168789 41.687958 0.611334 1.422276 0.077544 -0.027932 -183358.000000 0 0 1
-33.413234 -24.596137 4.985189 41.788351 0.634558 1.451215 0.071758 -0.021930 -418503.000000 0 0 1
-34.006104 -24.325737 3.762789 41.979937 0.620944 1.481043 0.073198 -0.025915 -236977.000000 0 0 1
-33.482264 -25.097097 2.730289 41.933051 0.643222 1.505640 0.078619 -0.021072 -227567.000000 0 0 1
-34.118706 -24.870037 1.349889 42.242479 0.629877 1.538835 0.076762 -0.023971 -904983.000000 0 0 1
-35.208071 -25.628367 0.957689 43.558450 0.629214 1.548808 0.077078 -0.020972 -462822.000000 0 0 1
-35.822138 -25.118017 -0.214811 43.751417 0.611522 1.575706 0.081777 -0.021292 315013.000000 0 0 1
36.784158 -23.948837 -0.045111 43.893315 -0.577123 1.571824 0.093147 -0.025073 -418996.000000 0 0 1
35.465078 -24.295037 0.291789 42.989600 -0.600616 1.564009 0.068029 -0.010153 -239445.000000 0 0 1
34.706978 -23.109637 0.495389 41.699821 -0.587437 1.558916 0.094875 -0.022544 -68523.500000 0 0 1
33.188868 -23.282137 0.403489 40.542837 -0.611735 1.560844 0.062430 -0.013346 -106097.000000 0 0 1
32.743758 -23.434437 -0.943811 40.276759 -0.621180 1.594232 0.069181 -0.020756 791518.000000 0 0 1
31.310768 -23.412137 -1.063611 39.110403 -0.642050 1.597995 0.064726 -0.012263 926793.000000 0 0 1
30.882408 -23.175737 -2.514811 38.693180 -0.643790 1.635836 0.055698 -0.008675 -143362.000000 0 0 1
31.312798 -21.950837 -3.043411 38.361347 -0.611409 1.650215 0.073777 -0.020902 84350.400000 0 0 1
30.926938 -21.745537 -4.368011 38.058158 -0.612821 1.685822 0.069779 -0.037497 14907.300000 0 0 1
31.062208 -20.245037 -4.657811 37.368670 -0.577610 1.695766 0.080090 -0.040363 855544.000000 0 0 1
29.985168 -19.527437 -4.002011 36.006210 -0.577244 1.682174 0.078620 -0.042146 820595.000000 0 0 1
30.011628 -18.100037 -4.174511 35.294981 -0.542696 1.689349 0.084236 -0.041857 -143542.000000 0 0 1
29.005318 -17.528437 -3.156611 34.037020 -0.543588 1.663670 0.085053 -0.036324 -268918.000000 0 0 1
29.389948 -17.349837 -1.797611 34.176268 -0.533281 1.623419 0.090813 -0.030824 44114.400000 0 0 1
29.885868 -18.430337 -1.012911 35.126463 -0.552602 1.599636 0.085578 -0.030277 -381493.000000 0 0 1
28.926548 -19.620637 -0.850111 34.963370 -0.596008 1.595113 0.073342 -0.019233 -783222.000000 0 0 1
27.959818 -19.299837 0.074889 33.974119 -0.604166 1.568592 0.077132 -0.007907 -753473.000000 0 0 1
27.168218 -20.410737 0.388889 33.983253 -0.644315 1.559353 0.057525 -0.003881 45712.400000 0 0 1
25.951818 -19.973437 1.284489 32.773235 -0.655950 1.531593 0.059708 0.004006 -402511.000000 0 0 1
25.171518 -21.058737 1.706489 32.863168 -0.696669 1.518846 0.053823 0.011873 117107.000000 0 0 1
24.359018 -20.670437 2.824189 32.071869 -0.703666 1.482624 0.037404 0.011872 243824.000000 0 0 1
22.965418 -20.064637 2.550689 30.602387 -0.718087 1.487350 0.012262 0.015677 -749404.000000 0 0 1
22.976118 -18.705537 2.120289 29.703447 -0.683297 1.499354 0.055677 -0.009415 193117.000000 0 0 1
23.299818 -17.774437 3.153789 29.474710 -0.651679 1.463591 0.069190 -0.006672 -245670.000000 0 0 1
23.062718 -16.384237 2.611689 28.410440 -0.617686 1.478739 0.065633 -0.002143 -495073.000000 0 0 1
21.761418 -16.130637 2.192289 27.176514 -0.637877 1.490040 0.049578 0.005662 -784769.000000 0 0 1
21.635118 -14.792137 1.709889 26.264222 -0.599709 1.505647 0.065446 -0.007576 619468.000000 0 0 1
20.315918 -14.520637 0.886489 24.987422 -0.620551 1.535311 0.055551 -0.007691 328811.000000 0 1 0
19.181718 -14.586037 1.721189 24.158917 -0.650133 1.499491 0.043761 -0.008634 302144.000000 0 1 0
18.252018 -13.515837 1.404789 22.754943 -0.637401 1.509021 0.054034 -0.012705 -32308.500000 0 1 0
18.604018 -12.063837 1.883689 22.252953 -0.575287 1.486046 0.074861 -0.013703 -1206810.000000 0 1 0
19.636218 -11.517237 1.153889 22.793843 -0.530456 1.520152 0.077065 -0.017327 -465764.000000 0 1 0
20.122118 -10.401137 1.831589 22.725272 -0.477077 1.490112 0.074917 -0.017302 -158567.000000 0 1 0
21.041118 -9.636437 0.833889 23.157826 -0.429471 1.534780 0.084653 -0.022028 158790.000000 0 1 0
20.339018 -9.215937 -0.329111 22.331983 -0.425442 1.585534 0.086087 -0.017946 860088.000000 0 1 0
21.253918 -8.564537 -1.193611 22.945697 -0.383058 1.622839 0.090162 -0.018406 -102728.000000 0 1 0
20.676918 -8.257637 -2.603811 22.416586 -0.379959 1.687215 0.101109 -0.020573 -596539.000000 0 1 0
21.545118 -7.713737 -3.535811 23.155902 -0.343808 1.724092 0.106269 -0.021872 617760.000000 0 1 0
22.605118 -8.561437 -4.041111 24.507553 -0.362045 1.736445 0.097037 -0.020261 305562.000000 0 1 0
22.160118 -9.692237 -5.075511 24.713783 -0.412304 1.777640 0.083500 -0.020076 -172740.000000 0 1 0
21.561318 -9.344737 -6.301811 24.329557 -0.408966 1.832802 0.075051 -0.024398 165641.000000 0 1 0
20.195018 -9.001637 -6.312611 22.993853 -0.419302 1.848902 0.076287 -0.021163 -445045.000000 0 1 0
19.601618 -9.010437 -7.702011 22.907038 -0.430873 1.913706 0.077411 -0.014293 -368286.000000 0 1 0
19.461918 -10.318137 -8.286211 23.534899 -0.487492 1.930591 0.072089 -0.014482 1054810.000000 0 1 0
20.639718 -10.712637 -9.007711 24.937871 -0.478756 1.940357 0.056607 -0.010564 327797.000000 0 1 0
20.504518 -12.152637 -9.585011 25.690354 -0.535020 1.953142 0.039662 -0.009222 311354.000000 0 0 1
19.376418 -12.299537 -10.455311 25.219788 -0.565593 1.998264 0.052292 -0.012595 529535.000000 0 0 1
19.351318 -13.638137 -10.955711 26.086393 -0.613917 2.004217 0.054076 -0.008581 -133070.000000 0 0 1
18.126018 -14.018737 -11.822111 25.784488 -0.658312 2.047100 0.061399 -0.015605 152605.000000 0 0 1
18.257718 -15.353937 -12.255611 26.819539 -0.699220 2.045377 0.056039 -0.020340 712451.000000 0 0 1
17.186018 -15.679637 -13.159411 26.727894 -0.739596 2.085581 0.068306 -0.020716 261329.000000 0 0 1
17.270318 -17.150037 -13.654411 27.907537 -0.781904 2.082053 0.053515 -0.019658 -758880.000000 0 0 1
16.723718 -17.996537 -12.698311 27.655112 -0.822041 2.047853 0.050797 -0.017996 34468.600000 0 0 1
16.865418 -19.340937 -13.007411 28.769896 -0.853664 2.039936 0.058754 -0.021108 -381321.000000 0 0 1
15.924018 -20.307937 -12.233611 28.559550 -0.905809 2.013467 0.067554 -0.019207 358786.000000 0 0 1
14.583318 -20.046737 -12.593011 27.805193 -0.941874 2.040813 0.072724 -0.027820 -32603.500000 0 0 1
13.588218 -20.685837 -11.814511 27.424919 -0.989596 2.016170 0.071252 -0.024565 1419540.000000 0 0 1
12.137118 -20.668537 -12.465211 27.016283 -1.039822 2.050365 0.085394 -0.025505 1814720.000000 0 0 1
11.180318 -21.094437 -11.464211 26.484013 -1.083428 2.018474 0.084208 -0.023743 312599.000000 0 0 1
9.812618 -20.971037 -11.816311 25.994174 -1.133146 2.042692 0.081520 -0.027431 144112.000000 0 0 1
8.914418 -21.273837 -10.640111 25.401869 -1.173992 2.002998 0.066718 -0.024812 -545546.000000 0 0 1
8.715418 -22.657137 -10.432611 26.422410 -1.203579 1.976689 0.080485 -0.023058 -163214.000000 0 0 1
7.870518 -22.885237 -9.335511 25.938984 -1.239555 1.938960 0.063360 -0.024522 -12483.600000 0 0 1
7.431718 -24.369337 -9.145511 27.069086 -1.274794 1.915437 0.056654 -0.019135 692099.000000 0 0 1
8.591418 -25.124307 -8.789811 27.969699 -1.241305 1.890475 0.055841 -0.006488 167806.000000 0 0 1
8.793218 -26.320757 -9.499911 29.331745 -1.248375 1.900622 0.035396 -0.008056 715518.000000 0 0 1
10.263118 -26.855277 -9.395111 30.245754 -1.205760 1.886648 0.042081 -0.001507 792228.000000 0 0 1
10.611118 -27.232387 -8.056311 30.316710 -1.199244 1.839766 0.043715 -0.000197 -679953.000000 0 0 1
11.985318 -27.449777 -7.973011 30.995274 -1.159119 1.830954 0.054522 0.005240 -519555.000000 0 0 1
12.400218 -27.927897 -6.511311 31.243080 -1.152936 1.780743 0.057491 -0.000673 -13232.700000 0 0 1
11.835018 -29.128857 -6.022611 32.012963 -1.184872 1.760055 0.051080 -0.004736 -818824.000000 0 0 1
10.486718 -29.131657 -5.725511 31.486603 -1.225261 1.753653 0.043917 -0.000834 -964647.000000 0 0 1
10.129418 -30.163137 -4.610211 32.150801 -1.246808 1.714686 0.045454 -0.009360 63767.900000 0 0 1
10.396518 -31.543187 -4.916011 33.574208 -1.252413 1.717747 0.062258 -0.012624 -103191.000000 0 0 1
9.628418 -32.118097 -5.962611 34.056297 -1.279540 1.746784 0.063808 -0.017109 82563.800000 0 0 1
9.732418 -33.607737 -6.119211 35.519638 -1.288918 1.743937 0.060047 -0.014517 -225406.000000 0 0 1
9.218718 33.774217 -5.023711 35.368349 1.304336 1.713318 0.059728 -0.020940 46657.300000 0 0 1
9.771818 32.504325 -4.930211 34.297617 1.278760 1.715044 0.058545 -0.018257 -463517.000000 0 0 1
9.110318 31.736824 -3.823211 33.239146 1.291255 1.686073 0.044805 -0.008194 -31412.700000 0 0 1
7.940318 31.046484 -4.192711 32.318905 1.320408 1.700892 0.045808 -0.010972 -532718.000000 0 0 1
7.384618 30.202714 -3.215511 31.258215 1.330999 1.673848 0.027159 -0.008161 -760804.000000 0 0 1
6.019518 29.669144 -3.569111 30.483294 1.370625 1.688150 0.038724 -0.011629 -775877.000000 0 0 1
5.896118 28.969564 -4.789711 29.948976 1.370011 1.731415 0.043859 -0.018543 -73632.300000 0 0 1
5.627718 29.811024 -5.927811 30.911281 1.384212 1.763760 0.050818 -0.021829 -197375.000000 0 0 1
5.749418 29.105964 -7.298411 30.552900 1.375773 1.812006 0.073209 -0.028799 490943.000000 0 0 1
4.804918 28.057024 -7.599911 29.462560 1.401186 1.831698 0.092779 -0.029798 148160.000000 0 0 1
5.211518 26.782654 -7.049711 28.181002 1.378612 1.823640 0.083325 -0.023203 -322558.000000 0 0 1
4.232118 25.683054 -7.438011 27.071278 1.407481 1.849133 0.080760 -0.033638 356456.000000 0 0 1
2.876418 25.819094 -6.956811 26.894174 1.459847 1.832445 0.085604 -0.028355 1010190.000000 0 0 1
2.006518 26.455494 -7.921711 27.688856 1.495096 1.860948 0.089673 -0.029301 311097.000000 0 0 1
1.554318 25.546404 -9.112411 27.167456 1.510028 1.912844 0.094480 -0.030601 -638742.000000 0 0 1
2.622418 25.210244 -9.972411 27.237519 1.467147 1.945641 0.081972 -0.031650 -36504.100000 0 0 1
2.282318 24.526254 -11.198311 27.058238 1.478007 1.997486 0.092156 -0.027691 -282139.000000 0 0 1
1.794818 23.045564 -11.220411 25.694688 1.493072 2.022704 0.090788 -0.029029 852493.000000 0 0 1
0.513118 22.790964 -10.614111 25.146584 1.548286 2.006545 0.094976 -0.020628 279259.000000 0 0 1
0.578818 21.429264 -10.306311 23.785887 1.543792 2.018942 0.069660 -0.017901 -857552.000000 0 1 0
-0.548982 20.838364 -9.479411 22.899738 -1.544458 1.997588 0.071225 -0.011561 -1930110.000000 0 1 0
-1.688882 20.737664 -10.189411 23.167372 -1.489535 2.026192 0.076518 -0.024580 -1954120.000000 0 1 0
-2.591182 19.906164 -9.528111 22.220587 -1.441354 2.013957 0.060113 -0.011458 1085320.000000 0 1 0
-4.052982 19.988664 -10.160811 22.786299 -1.370744 2.032995 0.062837 -0.022418 1486160.000000 0 1 0
-5.088582 19.301964 -9.461111 22.090090 -1.313031 2.013403 0.059505 -0.021607 -507899.000000 0 1 0
-6.188482 19.245664 -10.294711 22.686427 -1.259686 2.041802 0.069950 -0.019217 -1290080.000000 0 1 0
-7.119382 18.051664 -9.945111 21.804894 -1.195136 2.044399 0.069890 -0.015112 -373146.000000 0 1 0
-8.047882 18.394464 -8.958311 21.985814 -1.158372 1.990466 0.074198 -0.015478 -865297.000000 0 1 0
-9.291782 18.609064 -9.571411 22.896427 -1.107697 2.002073 0.075218 -0.019692 -521955.000000 0 1 0
-10.383382 18.772964 -8.473711 23.066048 -1.065574 1.946973 0.091514 -0.029511 208091.000000 0 1 0
-10.503782 17.652664 -7.663611 21.924345 -1.034043 1.927885 0.072123 -0.030021 -392153.000000 0 1 0
-11.462182 17.991064 -6.681311 22.353969 -1.003540 1.874322 0.087712 -0.021223 64957.600000 0 1 0
-11.905682 16.856764 -5.700411 21.410055 -0.955865 1.840296 0.060652 -0.030101 -370597.000000 0 1 0
-12.943482 17.279264 -4.884011 22.135046 -0.927887 1.793273 0.076240 -0.017141 -382014.000000 0 1 0
-13.425382 16.247664 -4.046511 21.461634 -0.880226 1.760478 0.070088 -0.018921 -231061.000000 0 1 0
-14.597282 16.671564 -3.152611 22.382150 -0.851638 1.712120 0.062205 -0.017574 123080.000000 0 1 0
-15.840782 16.820864 -3.851111 23.424408 -0.815396 1.735952 0.101570 -0.031420 -64931.900000 0 1 0
-16.749382 17.315764 -2.920011 24.267343 -0.802023 1.691415 0.099190 -0.019941 -1371670.000000 0 1 0
-18.116382 17.472564 -3.535111 25.416349 -0.767310 1.710337 0.106377 -0.033645 -1060220.000000 0 0 1
-18.232182 18.333764 -4.614011 26.264586 -0.788176 1.747387 0.096653 -0.030524 758455.000000 0 0 1
-19.599182 18.508464 -5.035211 27.423430 -0.756784 1.755454 0.084806 -0.032266 984249.000000 0 0 1
-19.726982 19.246864 -6.388111 28.291404 -0.773080 1.798557 0.069896 -0.013763 -34503.400000 0 0 1
-19.425382 20.576864 -6.250711 28.979720 -0.814176 1.788197 0.070251 -0.016968 69197.300000 0 0 1
-19.595982 21.248964 -7.491511 29.860404 -0.825846 1.824390 0.063527 -0.006236 40549.200000 0 0 1
-19.570782 22.783564 -7.269511 30.902299 -0.861108 1.808264 0.051974 -0.004206 -871210.000000 0 0 1
-18.293682 23.248524 -7.045311 30.410345 -0.904110 1.804595 0.068006 -0.007747 -759752.000000 0 0 1
-18.156282 23.922984 -5.787511 30.585209 -0.921594 1.761170 0.042912 -0.009537 -855869.000000 0 0 1
-16.737882 24.337944 -5.494011 30.044573 -0.968354 1.754693 0.059716 -0.009464 -1008890.000000 0 0 1
-16.724882 25.314394 -4.444711 30.664241 -0.986945 1.716256 0.050703 -0.016662 -48222.900000 0 0 1
-15.440982 25.696624 -4.016011 30.246797 -1.029719 1.703964 0.064325 -0.020498 42484.100000 0 0 1
-14.862082 26.973894 -4.734411 31.159061 -1.067201 1.723330 0.065976 -0.017373 425746.000000 0 0 1
-15.568782 28.168694 -4.308311 32.471893 -1.065884 1.703867 0.070660 -0.015568 420775.000000 0 0 1
-15.026382 29.287844 -4.965411 33.290017 -1.096756 1.720511 0.064675 -0.018239 -176312.000000 0 0 1
-15.666282 30.562144 -4.488711 34.635611 -1.097116 1.700760 0.071802 -0.020179 -734617.000000 0 0 1
-17.011082 30.760224 -4.776011 35.473632 -1.065636 1.705842 0.075453 -0.017566 -661901.000000 0 0 1
-17.410782 32.033864 -4.301611 36.712499 -1.072948 1.688236 0.091274 -0.021577 29960.800000 0 0 1
12.727156 -8.589037 19.214890 24.596017 -0.593653 0.674179 0.076815 -0.001390 -307692.000000 0 1 0
13.309456 -9.823137 19.590190 25.640031 -0.635814 0.701233 0.075385 -0.004800 189873.000000 0 0 1
13.663356 -10.649037 18.464890 25.318797 -0.662045 0.753504 0.080820 -0.008135 -165502.000000 0 0 1
14.264856 -12.006237 18.826290 26.496510 -0.699636 0.780560 0.111286 -0.017539 185405.000000 0 0 1
15.600356 -11.986837 19.352890 27.596915 -0.655154 0.793619 0.097006 -0.017512 852560.000000 0 0 1
15.905656 -13.109437 20.132790 28.812783 -0.689324 0.797155 0.097327 -0.025179 -221377.000000 0 0 1
16.205056 -14.403737 19.360090 29.066898 -0.726616 0.841892 0.100148 -0.023389 -760389.000000 0 0 1
15.221056 -14.813637 18.438690 28.126672 -0.771834 0.855874 0.110611 -0.030182 -69137.600000 0 0 1
15.563256 -15.960137 17.701190 28.465296 -0.797988 0.899691 0.116795 -0.032715 -308492.000000 0 0 1
14.931356 -16.052337 16.276890 27.304946 -0.821562 0.932143 0.102528 -0.031106 509898.000000 0 0 1
13.503856 -15.875637 16.288190 26.451751 -0.865953 0.907434 0.110241 -0.028399 719568.000000 0 0 1
12.977756 -15.926337 14.978690 25.425018 -0.887059 0.940812 0.119398 -0.033440 -234008.000000 0 0 1
12.644656 -17.290037 14.359590 25.788186 -0.939354 0.980234 0.090912 -0.021263 -132748.000000 0 0 1
13.770256 -18.073537 13.984090 26.680095 -0.919722 1.019092 0.092497 -0.018928 372120.000000 0 0 1
13.327556 -19.290137 13.354590 26.982925 -0.966204 1.053045 0.089310 -0.021122 -408319.000000 0 0 1
14.414956 -20.277637 12.946690 28.046218 -0.952806 1.090976 0.098086 -0.022758 -871187.000000 0 0 1
14.987956 -20.914537 14.012390 29.298529 -0.948997 1.072121 0.073463 -0.018367 -387254.000000 0 0 1
15.407356 -22.201637 13.600190 30.253339 -0.964126 1.104542 0.052971 -0.016916 -139829.000000 0 0 1
16.201356 -22.952237 14.696890 31.706273 -0.956140 1.088819 0.044148 -0.022535 660200.000000 0 0 1
17.602256 -22.685037 14.764890 32.287030 -0.910898 1.095838 0.040698 -0.019722 282904.000000 0 0 1
18.211756 -23.121637 15.932890 33.468420 -0.903631 1.074630 0.036891 -0.021423 93435.400000 0 0 1
19.639056 -22.512637 16.012290 33.895498 -0.853465 1.078783 0.041944 -0.017758 -143078.000000 0 0 1
20.537856 -23.083937 15.119590 34.398746 -0.843699 1.115711 0.037265 -0.029685 -123897.000000 0 0 1
21.836956 -22.529637 15.438890 34.968508 -0.801010 1.113517 0.047899 -0.020146 730820.000000 0 0 1
22.867856 -23.182737 14.480590 35.637980 -0.792236 1.152368 0.039203 -0.020489 -171411.000000 0 0 1
23.189456 -24.395837 14.992890 36.846906 -0.810745 1.151742 0.040250 -0.019572 -893409.000000 0 0 1
24.382456 -24.879537 14.499090 37.732203 -0.795488 1.176387 0.045078 -0.024627 -642985.000000 0 0 1
24.873156 -26.181297 15.207790 39.184322 -0.811015 1.172217 0.058462 -0.015519 -417897.000000 0 0 1
25.241556 -25.971577 16.531290 39.811337 -0.799652 1.142589 0.055382 -0.013293 -84864.800000 0 0 1
25.733356 -27.135637 17.049190 41.100162 -0.811916 1.143051 0.051786 0.000489 -206427.000000 0 0 1
26.494756 -26.855527 18.366790 41.958675 -0.792160 1.117718 0.035957 0.007347 -340913.000000 0 0 1
25.620456 -26.521127 19.394890 41.664610 -0.802670 1.086596 0.047252 0.006173 -189970.000000 0 0 1
26.234356 -26.432237 20.687690 42.601469 -0.789155 1.063736 0.040114 0.002799 -565040.000000 0 0 1
25.248856 -26.165717 21.787490 42.389199 -0.803229 1.030970 0.028833 -0.007006 -749834.000000 0 0 1
24.454856 -27.299987 21.943690 42.718320 -0.840316 1.031324 0.043689 0.000310 -514272.000000 0 0 1
23.500756 -27.013957 22.936890 42.522234 -0.854834 1.001061 0.047404 0.002262 217869.000000 0 0 1
22.533756 -28.165967 23.298710 42.940910 -0.896034 0.997296 0.091960 -0.004598 -13319.800000 0 0 1
23.305256 -29.102747 23.987000 44.333746 -0.895572 0.999105 0.057101 0.000351 447016.000000 0 0 1
23.237256 -30.369697 23.359080 44.809990 -0.917672 1.022432 0.066037 -0.005024 -237192.000000 0 0 1
24.229956 -31.328187 24.056290 46.338442 -0.912472 1.024948 0.025139 -0.005686 -103194.000000 0 0 1
24.011256 -31.412277 25.432500 47.011527 -0.918149 0.999189 0.026730 -0.010438 1014770.000000 0 0 1
25.160056 -31.996167 26.096540 48.350931 -0.904437 1.000678 0.035221 -0.009327 416748.000000 0 0 1
24.822356 -32.510437 27.532630 49.306426 -0.918699 0.978342 0.029619 -0.017605 488873.000000 0 0 1
24.013856 -33.668297 27.774040 49.815829 -0.951234 0.979384 0.013974 -0.009065 393828.000000 0 0 1
22.684856 -33.674097 27.298000 48.925743 -0.977969 0.978886 0.019892 -0.011115 -268097.000000 0 0 1
21.973256 33.147904 27.683090 48.455763 0.985416 0.962700 0.055057 -0.027255 -146470.000000 0 0 1
21.533056 33.288556 29.027310 49.136394 0.996631 0.938809 0.054411 -0.019886 244474.000000 0 0 1
21.027956 32.062374 29.546190 48.406075 0.990323 0.914254 0.063164 -0.032230 -1082.710000 0 0 1
20.625056 32.266104 31.011040 49.276556 1.002038 0.890110 0.050701 -0.032420 -596529.000000 0 0 1
21.755856 32.448922 31.795500 50.370662 0.980169 0.887658 0.040054 -0.017089 -312769.000000 0 0 1
21.490856 32.673484 33.159079 51.273170 0.988995 0.867528 0.034375 -0.014576 -839762.000000 0 0 1
22.739656 32.492756 33.981983 52.226873 0.960179 0.862342 0.014764 -0.000752 -549891.000000 0 0 1
22.999656 31.110644 -33.925611 51.456811 0.934188 2.290687 0.017999 -0.002880 125965.000000 0 0 1
24.178156 30.947934 -33.157431 51.398182 0.907592 2.271962 0.002335 0.008593 -60344.700000 0 0 1
24.540856 29.443714 -32.957911 50.551061 0.875969 2.280980 0.021061 -0.003828 -34603.100000 0 0 1
24.842556 28.825104 33.883145 50.952004 0.859470 0.843301 0.032273 -0.006557 278971.000000 0 0 1
24.364356 27.511744 33.868886 49.976188 0.845995 0.826165 0.040339 -0.015674 -131301.000000 0 0 1
24.492956 26.721264 32.497272 48.682682 0.828880 0.839906 0.066592 -0.026078 898974.000000 0 0 1
25.864356 26.465274 32.143795 49.016316 0.796881 0.855584 0.060226 -0.032910 1253260.000000 0 0 1
25.789956 25.487264 31.109020 47.775450 0.779495 0.861697 0.082668 -0.043390 424792.000000 0 0 1
27.143556 24.718764 30.979850 48.036872 0.738678 0.869880 0.061751 -0.034836 344987.000000 0 0 1
27.365456 23.739264 32.042730 48.364836 0.714561 0.846617 0.081548 -0.043192 -640541.000000 0 0 1
28.520356 23.887384 32.756905 49.568464 0.697225 0.848857 0.092980 -0.052073 -1662240.000000 0 0 1
28.470556 23.045964 -33.993341 49.972355 0.680487 2.318890 0.075804 -0.050792 -719950.000000 0 0 1
27.631156 23.475714 -32.956391 48.997078 0.704268 2.308539 0.081022 -0.039861 1521830.000000 0 0 1
26.195556 23.403174 -33.170141 48.313290 0.729158 2.327548 0.074705 -0.035213 1121610.000000 0 0 1
25.584956 21.983064 -33.196331 47.326964 0.709821 2.348192 0.068044 -0.035205 -816356.000000 0 0 1
25.561156 21.229364 -32.020431 46.145060 0.693083 2.337699 0.055940 -0.033459 277592.000000 0 0 1
24.931556 20.000764 -32.257871 45.411268 0.676097 2.360791 0.061099 -0.027530 -135640.000000 0 0 1
24.697756 19.160064 -30.955811 43.992607 0.659798 2.351331 0.061855 -0.023887 191194.000000 0 0 1
23.642856 19.618464 -30.096941 43.008076 0.692640 2.345910 0.053248 -0.020681 515190.000000 0 0 1
23.658856 19.013164 -28.854791 41.878883 0.676955 2.330913 0.059221 -0.018784 644397.000000 0 0 1
22.356356 19.273264 -27.995561 40.681898 0.711473 2.329743 0.084547 -0.021140 675580.000000 0 0 1
22.268256 18.630264 -26.748651 39.477238 0.696680 2.315252 0.084620 -0.017121 499735.000000 0 0 1
23.215156 19.184664 -25.793851 39.652460 0.690624 2.279036 0.069401 -0.016967 500738.000000 0 0 1
23.257856 18.404564 -24.510311 38.476112 0.669430 2.261431 0.081616 -0.009181 -153136.000000 0 0 1
23.831856 17.158964 -24.742611 38.400315 0.624024 2.270948 0.084325 -0.025810 74894.600000 0 0 1
23.824056 16.451164 -23.555111 37.323849 0.604340 2.253768 0.095259 -0.023906 -80660.000000 0 0 1
24.811356 15.253564 -23.535611 37.445956 0.551217 2.250448 0.107728 -0.025912 771406.000000 0 0 1
26.208456 15.612564 -23.489611 38.501911 0.537257 2.226970 0.121307 -0.028244 1429830.000000 0 0 1
27.152156 14.547964 -23.320411 38.635792 0.491871 2.218800 0.125678 -0.035294 369254.000000 0 0 1
27.128556 13.779264 -21.972911 37.531793 0.469967 2.196229 0.115984 -0.031829 -81889.100000 0 0 1
25.935056 12.984064 -21.870011 36.325066 0.464158 2.216880 0.110698 -0.029778 689254.000000 0 0 1
25.689656 12.460364 -20.561011 35.184859 0.451603 2.194901 0.091725 -0.027751 -1350190.000000 0 0 1
24.320256 11.866164 -20.470811 33.931325 0.453931 2.218430 0.097273 -0.021785 -1701720.000000 0 0 1
23.397856 12.877064 -20.294411 33.543130 0.503114 2.220593 0.113072 -0.024492 -1075570.000000 0 0 1
22.165856 12.476264 -20.802811 32.859387 0.512663 2.256329 0.103129 -0.033378 -118444.000000 0 0 1
20.971156 13.468464 -20.796311 32.460368 0.570899 2.266164 0.102457 -0.031548 -198512.000000 0 0 1
21.076756 14.524964 -21.719211 33.569754 0.603404 2.274423 0.094573 -0.023399 431586.000000 0 0 1
20.221556 15.667264 -21.493111 33.411500 0.659173 2.269577 0.085372 -0.022788 438351.000000 0 0 1
18.943556 15.662264 -22.405311 33.259026 0.690862 2.309948 0.083226 -0.012499 243821.000000 0 0 1
17.953356 14.820164 -21.836911 31.918818 0.690086 2.324219 0.076972 -0.023147 282246.000000 0 0 1
16.832756 14.750764 -22.703911 31.880939 0.719573 2.363348 0.083972 -0.031394 220118.000000 0 0 1
15.582856 14.101164 -22.064611 30.471549 0.735524 2.380533 0.057900 -0.028348 -10328.300000 0 0 1
14.387056 14.316064 -22.766711 30.500167 0.782925 2.413501 0.052803 -0.027381 -365242.000000 0 0 1
13.318656 13.657364 -22.133511 29.219899 0.797953 2.430242 0.064453 -0.027823 -16440.900000 0 0 1
12.038956 13.521964 -23.004711 29.274506 0.843352 2.474829 0.058557 -0.023053 -3111.180000 0 0 1
11.481656 14.816464 -23.014611 29.682122 0.911533 2.458096 0.037654 -0.015471 -5140.040000 0 0 1
11.037856 15.283964 -24.284111 30.743322 0.945335 2.481440 0.050419 -0.020864 -641607.000000 0 0 1
10.878856 16.845464 -24.452111 31.623170 0.997377 2.454722 0.044470 -0.019770 115192.000000 0 0 1
12.093056 17.559764 -24.279111 32.311957 0.967708 2.420973 0.058445 -0.021350 262459.000000 0 0 1
13.218656 17.320264 -25.094451 33.233355 0.918907 2.426600 0.067494 -0.029990 -515521.000000 0 0 1
13.089856 17.544564 -26.613871 34.459457 0.929801 2.453288 0.068978 -0.036896 -591816.000000 0 0 1
14.227656 17.334964 -27.423331 35.425503 0.883531 2.456109 0.054730 -0.036660 -93331.700000 0 0 1
13.835756 17.005164 -28.713761 36.125944 0.887805 2.489514 0.061706 -0.040990 -71506.700000 0 0 1
14.883356 17.268964 -29.819121 37.535468 0.859459 2.488857 0.056336 -0.032220 42278.500000 0 0 1
16.028056 16.457664 -29.735861 37.576252 0.798622 2.483806 0.034726 -0.026451 301222.000000 0 0 1
16.933856 16.734364 -30.822021 38.946006 0.779473 2.483899 0.039556 -0.013204 105721.000000 0 0 1
18.212756 15.911864 -30.896821 39.236532 0.718074 2.477458 0.054930 -0.010591 -1330350.000000 0 0 1
19.234256 16.288664 -30.061911 39.230035 0.702667 2.443856 0.070202 -0.014095 -396315.000000 0 0 1
20.313156 15.370964 -30.073711 39.412168 0.647775 2.438825 0.076420 -0.010403 483538.000000 0 0 1
21.553456 15.889064 -30.870911 40.865964 0.635254 2.427089 0.079782 -0.016440 26951.500000 0 0 1
21.333456 15.944264 -32.224721 41.806322 0.641824 2.450908 0.081702 -0.012372 133721.000000 0 0 1
22.468756 16.620464 -32.697581 43.014145 0.636886 2.434354 0.085682 -0.014357 -73460.500000 0 0 1
22.496856 16.802764 33.881151 44.004248 0.641510 0.692031 0.073006 -0.013299 -255939.000000 0 0 1
23.491156 17.723464 33.513777 44.599651 0.646358 0.720561 0.078471 -0.024406 -73971.200000 0 0 1
23.214356 18.482564 32.354828 43.901553 0.672401 0.742196 0.101091 -0.027772 25848.000000 0 0 1
24.174156 19.711964 32.183995 44.819202 0.684070 0.769750 0.105419 -0.025589 738656.000000 0 0 1
25.446756 19.459464 31.606280 45.001834 0.652851 0.792127 0.082508 -0.028708 -57557.900000 0 0 1
26.192056 20.619964 31.479810 45.849593 0.666924 0.814010 0.073471 -0.037802 -11673.300000 0 0 1
27.700956 20.396964 31.206000 46.445598 0.634693 0.834048 0.052788 -0.039926 253445.000000 0 0 1
28.327456 19.608264 32.210846 47.164260 0.605472 0.819002 0.052174 -0.042795 -987700.000000 0 0 1
29.689556 19.616464 31.979290 47.842976 0.583874 0.838711 0.041082 -0.037261 -903274.000000 0 0 1
30.555556 19.084064 33.147824 48.955304 0.558290 0.826976 0.031974 -0.036996 -108743.000000 0 0 1
30.494856 19.887964 -33.758511 49.649818 0.577902 2.318467 0.024159 -0.038931 -459856.000000 0 0 1
29.473156 19.560764 -32.888441 48.300517 0.585933 2.319805 0.029606 -0.038909 -781597.000000 0 0 1
29.703556 20.094764 -31.471331 47.713158 0.594787 2.291075 0.038384 -0.030942 -296233.000000 0 0 1
30.509156 19.181064 -30.800531 47.406693 0.561255 2.277997 0.038160 -0.034563 -306455.000000 0 0 1
31.052456 19.705464 -29.641821 47.235558 0.565463 2.249176 0.018098 -0.027763 -634404.000000 0 0 1
32.316156 19.037264 -29.115891 47.481433 0.532362 2.230909 0.071765 -0.014646 -396101.000000 0 0 1
33.435956 19.387364 -29.898231 48.864479 0.525461 2.229207 0.024305 -0.014132 322824.000000 0 0 1
34.663356 19.047064 -29.246881 49.190639 0.502449 2.207517 0.049423 -0.006740 661673.000000 0 0 1
35.869456 19.958864 -29.555331 50.581536 0.507767 2.194827 0.041241 0.000626 374585.000000 0 0 1
36.571856 19.642164 -30.779291 51.678623 0.492873 2.208797 0.027534 -0.006690 1124690.000000 0 0 1
-35.897405 20.501164 -30.977271 51.657649 -0.518902 2.213878 0.031860 -0.011123 1040840.000000 0 0 1
-34.896205 20.114764 -32.090591 51.499076 -0.522898 2.243534 0.021048 -0.019470 51193.600000 0 0 1
-33.862405 19.222164 -31.767951 50.252928 -0.516297 2.255136 0.040637 -0.011850 382158.000000 0 0 1
-33.085005 18.800564 -32.902181 50.305390 -0.516747 2.283721 0.041781 -0.002399 406321.000000 0 0 1
-32.196405 17.569364 -32.565891 49.049243 -0.499531 2.296875 0.026523 0.006479 13368.200000 0 0 1
-32.989505 16.406664 -32.428681 49.082638 -0.461509 2.292541 0.028737 0.005599 215008.000000 0 0 1
-32.272205 15.184964 -32.618691 48.332777 -0.439793 2.311595 0.026837 0.010025 -71596.800000 0 0 1
-33.190005 13.991164 -33.010971 48.857479 -0.398943 2.312654 0.035916 0.006015 138709.000000 0 0 1
-32.554005 12.758864 -33.500841 48.423736 -0.373529 2.334812 0.055286 -0.002521 212817.000000 0 0 1
-33.556205 11.860364 -33.888521 49.143860 -0.339743 2.331702 0.069094 -0.005895 -225438.000000 0 0 1
-33.174505 10.386064 -33.838951 48.512810 -0.303407 2.342736 0.076857 -0.016436 -329422.000000 0 0 1
-32.328905 9.936464 33.250536 47.428784 -0.298191 0.793910 0.067272 -0.014993 -160334.000000 0 0 1
-32.374405 8.555564 33.067923 47.061527 -0.258363 0.791677 0.106026 -0.024193 -584778.000000 0 0 1
-31.440005 7.956464 32.059130 45.602270 -0.247864 0.791167 0.124761 -0.021389 -15251.100000 0 0 1
-30.312805 7.346164 32.677577 45.173624 -0.237761 0.762115 0.081193 -0.007081 908015.000000 0 0 1
-29.172905 7.228364 31.798570 43.754505 -0.242885 0.757218 0.082156 -0.017121 740258.000000 0 0 1
20.976556 -4.207637 -31.187211 37.820131 -0.197961 2.540325 0.059033 -0.024558 -694686.000000 0 0 1
22.157856 -4.418337 -31.932351 39.117354 -0.196821 2.525810 0.053632 -0.028788 -211772.000000 0 0 1
23.203956 -3.614337 -31.466441 39.263519 -0.154522 2.500456 0.047294 -0.022076 -301904.000000 0 0 1
23.136156 -2.169637 -31.906501 39.471685 -0.093503 2.512122 0.037661 -0.022118 -1461920.000000 0 0 1
24.202656 -1.398037 -31.491971 39.742513 -0.057700 2.485530 0.038706 -0.020094 -190659.000000 0 0 1
23.953256 -0.064037 -31.949751 39.931807 -0.002673 2.498271 0.026208 -0.024080 -246231.000000 0 0 1
24.884956 1.000963 -31.364541 40.049937 0.040202 2.470489 0.029127 -0.016781 -500452.000000 0 0 1
26.185756 0.886363 -31.860761 41.250304 0.033836 2.453370 0.037412 -0.018940 -874293.000000 0 0 1
27.063056 1.779763 -31.259551 41.385216 0.065669 2.426956 0.049903 -0.015462 -397877.000000 0 0 1
28.511256 1.657263 -31.743921 42.700290 0.058061 2.408954 0.040825 -0.017439 -383664.000000 0 0 1
28.841956 2.285363 -32.958601 43.856023 0.079072 2.421157 0.051493 -0.019093 -11846.000000 0 0 1
29.186956 1.346463 -33.983951 44.817411 0.046100 2.431460 0.040897 -0.021722 -367164.000000 0 0 1
29.635156 1.943663 32.801063 44.248503 0.065493 0.735803 0.041801 -0.023306 -273774.000000 0 0 1
28.751456 2.820763 32.153477 43.225560 0.097796 0.731979 0.037548 -0.013639 -212507.000000 0 0 1
29.113756 4.147163 32.429176 43.777405 0.141495 0.736574 0.043625 -0.006818 27319.000000 0 0 1
28.428656 5.195363 31.536610 42.775438 0.180756 0.741791 0.045692 -0.002757 10840.600000 0 0 1
28.539656 6.473363 32.077050 43.420658 0.223046 0.739581 0.053494 -0.003645 176731.000000 0 0 1
27.733156 7.344263 31.281840 42.445491 0.258876 0.742192 0.050926 -0.001282 93016.000000 0 0 1
28.019556 8.853563 31.417050 43.017580 0.306050 0.751991 0.050428 0.005377 1063380.000000 0 0 1
29.361556 9.131163 30.951720 43.628982 0.301509 0.782107 0.054229 0.007488 884737.000000 0 0 1
29.728956 10.438563 31.411600 44.491157 0.337676 0.786935 0.050532 0.007869 338528.000000 0 0 1
31.094356 10.889963 30.818460 45.113499 0.336874 0.818754 0.061498 0.009977 -483478.000000 0 0 1
32.160956 10.372063 31.523560 46.213003 0.311973 0.820116 0.076702 -0.002027 865263.000000 0 0 1
33.507656 10.613563 31.021820 46.880316 0.306752 0.847681 0.091710 -0.005637 1737180.000000 0 0 1
34.080856 12.080163 31.100690 47.693690 0.340639 0.860455 0.090704 -0.007779 -548835.000000 0 0 1
34.161156 12.544563 32.444864 48.754691 0.351930 0.842671 0.101871 -0.001172 46325.600000 0 0 1
34.648356 13.806563 32.737837 49.627570 0.379192 0.850416 0.101863 -0.001183 66812.500000 0 0 1
33.802756 15.053163 32.297496 49.115703 0.418958 0.853194 0.077673 -0.018899 -472629.000000 0 0 1
33.596556 15.277763 30.926600 48.151773 0.426790 0.873336 0.077482 -0.023622 430495.000000 0 0 1
32.620856 16.260863 30.614840 47.600466 0.462431 0.872175 0.068996 -0.028967 1339340.000000 0 0 1
31.093256 15.993663 30.927770 46.680990 0.475083 0.846599 0.060756 -0.024997 835940.000000 0 0 1
30.392956 15.229863 29.931310 45.294192 0.464526 0.848885 0.059060 -0.015932 497082.000000 0 0 1
29.200156 14.637963 30.437640 44.647161 0.464685 0.820661 0.053920 -0.020052 480573.000000 0 0 1
28.254256 14.015463 29.367570 43.095132 0.460481 0.821042 0.053320 -0.008281 283049.000000 0 0 1
28.720156 12.813663 28.737270 42.601268 0.419652 0.830423 0.053622 -0.003646 527705.000000 0 0 1
27.753656 12.403963 27.748640 41.159577 0.420299 0.830953 0.060405 -0.008747 508637.000000 0 0 1
27.666656 10.853863 27.590480 40.552248 0.373858 0.822531 0.054012 0.005681 551385.000000 0 0 1
28.786256 10.188363 26.964430 40.737351 0.340173 0.847433 0.068438 0.004857 662832.000000 0 0 1
28.498156 8.835663 26.957590 40.211012 0.300645 0.836044 0.066248 0.013982 506710.000000 0 0 1
29.712256 7.878863 26.644590 40.679587 0.259207 0.856631 0.059768 0.008932 337091.000000 0 0 1
30.077656 8.029963 25.295520 40.112455 0.260890 0.888451 0.063784 0.011350 80525.600000 0 0 1
31.211056 7.237463 24.987470 40.631079 0.227861 0.908430 0.076066 0.011416 93992.800000 0 0 1
31.564356 7.501963 23.530150 40.078124 0.233343 0.943316 0.087070 0.012268 -211589.000000 0 0 1
32.282356 8.687563 23.245150 40.718071 0.262884 0.963219 0.084442 0.003320 72336.500000 0 0 1
31.519256 9.867963 23.095990 40.302171 0.303411 0.960548 0.085174 0.000044 -65715.500000 0 0 1
30.766556 10.154763 21.768190 39.032734 0.318800 0.979195 0.074023 0.018904 386717.000000 0 0 1
31.715756 10.378263 20.716190 39.277959 0.316245 1.015229 0.098393 -0.003654 320928.000000 0 0 1
31.168056 10.429063 19.412190 38.171275 0.322897 1.037291 0.081710 -0.005808 -328445.000000 0 0 1
32.192556 11.001963 18.360490 38.658912 0.329311 1.075906 0.102909 -0.038252 1145720.000000 0 0 1
33.322156 10.161863 18.053390 39.237157 0.295999 1.092678 0.109896 -0.031471 403441.000000 0 0 1
34.364856 10.272763 18.987490 40.583221 0.290477 1.083922 0.136722 -0.027016 -1330920.000000 0 0 1
35.680456 9.773563 18.423990 41.328694 0.267361 1.108738 0.168994 -0.037809 -804236.000000 0 0 1
35.679156 8.373763 18.185390 40.912474 0.230524 1.110186 0.144273 -0.021431 174490.000000 0 0 1
36.705656 7.930863 17.326690 41.357200 0.212795 1.138505 0.168954 -0.021129 -426193.000000 0 0 1
36.586556 6.400563 17.115590 40.896048 0.173190 1.138987 0.173072 -0.021811 -464215.000000 0 0 1
35.304456 6.065863 16.662690 39.507526 0.170154 1.135411 0.121459 -0.021917 -102375.000000 0 0 1
35.305456 4.842163 16.044890 39.081457 0.136300 1.147739 0.134868 -0.027529 -557740.000000 0 0 1
33.983156 4.083563 16.069090 37.811983 0.119591 1.131864 0.078982 -0.017135 -430836.000000 0 0 1
34.071256 2.961663 16.912590 38.153082 0.086708 1.111539 0.089499 -0.005226 19834.900000 0 0 1
32.819856 2.340363 17.058190 37.062139 0.071189 1.092509 0.066520 0.005735 -89221.300000 0 0 1
32.820656 1.611663 18.427990 37.674710 0.049066 1.059699 0.050337 -0.002076 -86101.600000 0 0 1
33.639556 0.482463 18.537190 38.411977 0.014341 1.067188 0.058656 -0.004970 -170763.000000 0 0 1
33.495156 -0.119037 19.810090 38.915027 -0.003554 1.036704 0.057951 -0.009964 48108.100000 0 0 1
34.266756 -1.441937 19.955290 39.680012 -0.042055 1.043839 0.063256 -0.014421 -21515.300000 0 0 1
33.811356 -2.225337 20.987890 39.857891 -0.065721 1.016238 0.069313 -0.005469 -163295.000000 0 0 1
34.289156 -3.540337 20.839190 40.280915 -0.102885 1.027049 0.062301 -0.009196 -148978.000000 0 0 1
33.782156 -4.545737 21.934090 40.533963 -0.133757 0.999018 0.058653 -0.000456 43680.400000 0 0 1
34.227056 -4.175437 23.245300 41.584488 -0.121392 0.977629 0.077129 -0.014036 44740.400000 0 0 1
33.746256 -4.946937 24.272820 41.862296 -0.145555 0.952282 0.086999 -0.018749 -510665.000000 0 0 1
34.289256 -4.518137 25.630250 43.047374 -0.131011 0.933037 0.086542 -0.020924 -304412.000000 0 0 1
33.635256 -4.959937 26.766370 43.270891 -0.146407 0.903866 0.087841 -0.024190 -317137.000000 0 0 1
34.198056 -4.364737 27.948640 44.381127 -0.126945 0.889576 0.091496 -0.022294 2070.580000 0 0 1
33.373956 -4.633637 29.245120 44.615789 -0.137958 0.855968 0.095485 -0.026493 55330.700000 0 0 1
33.370456 -5.893237 29.818190 45.138033 -0.174798 0.849178 0.097551 -0.038866 -11840.400000 0 0 1
32.390656 -5.930937 30.839120 45.115208 -0.181100 0.818162 0.103277 -0.048555 -34007.900000 0 0 1
32.263056 -7.293437 31.546430 45.708602 -0.222325 0.809081 0.102637 -0.040394 2853.020000 0 0 1
33.413556 -7.682237 32.267399 47.081499 -0.225987 0.815709 0.093021 -0.041378 77531.700000 0 0 1
34.143056 -8.769337 31.632380 47.363035 -0.251407 0.839452 0.086237 -0.028244 776942.000000 0 0 1
35.539456 -8.953337 32.298887 48.851134 -0.246791 0.848420 0.083787 -0.020690 480358.000000 0 0 1
35.333056 -9.384437 33.616125 49.664237 -0.259606 0.827297 0.060657 -0.022252 222813.000000 0 0 1
36.573756 -9.671137 -33.876231 50.781587 -0.258511 2.301101 0.042766 -0.019410 2626.600000 0 0 1
36.445656 -9.973237 -32.364751 49.751668 -0.267108 2.279073 0.057435 -0.026217 -78422.900000 0 0 1
35.902456 -8.895537 -31.573781 48.631478 -0.242878 2.277389 0.048255 -0.029117 432650.000000 0 0 1
36.623056 -7.656537 -31.533931 48.931173 -0.206095 2.271106 0.047488 -0.023069 -120637.000000 0 0 1
36.006256 -6.574937 -30.659561 47.746089 -0.180615 2.268080 0.060684 -0.024781 -358286.000000 0 0 1
36.101656 -6.857137 -29.253551 46.969354 -0.187704 2.243141 0.051051 -0.011037 -35987.800000 0 0 1
35.298256 -5.989437 -28.544801 45.789147 -0.168080 2.243876 0.063060 -0.012129 -552028.000000 0 0 1
35.744956 -5.914137 -27.092841 45.240479 -0.163968 2.212877 0.055547 -0.011876 -363598.000000 0 0 1
-36.601705 -5.367237 -26.994531 45.795161 0.145601 2.201190 0.054573 -0.011868 -654026.000000 0 0 1
-36.166705 -5.000137 -25.736381 44.669825 0.137382 2.184803 0.050365 -0.007737 435138.000000 0 0 1
-34.619405 -4.880237 -25.613591 43.340235 0.140045 2.203080 0.094809 -0.004937 -157224.000000 0 0 1
-34.328105 -4.371737 -24.297511 42.283566 0.126670 2.182951 0.104138 -0.005383 911807.000000 0 0 1
-32.929405 -4.262537 -23.985511 40.961197 0.128729 2.196375 0.112512 -0.007135 981676.000000 0 0 1
-32.057805 -3.248037 -24.782111 40.649792 0.100974 2.226414 0.117512 -0.007461 -440932.000000 0 0 1
-31.595505 -3.814037 -26.016971 41.106029 0.120133 2.256120 0.113987 0.002789 193235.000000 0 0 1
-30.782205 -2.815337 -26.661421 40.820358 0.091206 2.282520 0.114762 -0.005126 167112.000000 0 0 1
-30.031605 -3.376237 -27.830341 41.083137 0.111953 2.315039 0.110685 0.001288 -43407.000000 0 0 1
-30.958205 -3.850737 -28.796111 42.455325 0.123749 2.316200 0.116808 0.000210 259341.000000 0 0 1
-30.366005 -4.833137 -29.618521 42.693211 0.157839 2.337483 0.096087 0.003446 -766860.000000 0 0 1
-31.250505 -5.230137 -30.844811 44.219348 0.165825 2.342756 0.079876 -0.007148 688335.000000 0 0 1
-32.423205 -6.054937 -30.596681 44.989814 0.184620 2.318668 0.067996 -0.009881 1555500.000000 0 0 1
-33.473805 -5.461137 -29.814121 45.157518 0.161722 2.291915 0.080095 -0.004344 69620.900000 0 0 1
-34.430805 -4.599937 -30.745851 46.389084 0.132813 2.295324 0.101615 -0.009051 -533653.000000 0 0 1
-33.958005 -3.355437 -31.271961 46.285425 0.098492 2.312619 0.123628 -0.007784 -40052.000000 0 0 1
-33.911005 -2.305737 -30.296711 45.532004 0.067889 2.298817 0.134411 -0.003469 -151216.000000 0 0 1
-33.607405 -0.810337 -30.797781 45.591859 0.024107 2.312453 0.127702 -0.005904 146583.000000 0 0 1
-34.693605 -0.224237 -31.487121 46.852271 0.006463 2.307772 0.153108 -0.013237 -46825.500000 0 0 1
-34.494705 1.151063 -31.645441 46.825672 -0.033357 2.312865 0.160126 -0.008476 181834.000000 0 0 1
-35.817805 1.892963 -31.962551 48.042722 -0.052801 2.298684 0.133319 -0.008678 183817.000000 0 0 1
-36.325005 1.633163 -33.251041 49.272761 -0.044929 2.311539 0.128881 -0.014442 -406275.000000 0 0 1
36.140956 2.358063 -33.527701 49.354189 0.065154 2.317643 0.095826 -0.009812 -616401.000000 0 0 1
35.358656 1.908763 33.323701 48.624552 0.053931 0.815744 0.065895 -0.006409 -193176.000000 0 0 1
35.867456 2.228563 32.027070 48.137035 0.062054 0.842859 0.089536 -0.013985 107804.000000 0 0 1
-36.675005 1.440563 31.590430 48.426093 -0.039259 0.860124 0.099744 -0.012768 -330705.000000 0 0 1
-36.491205 1.628363 30.040440 47.293632 -0.044594 0.882542 0.112216 -0.016848 -125392.000000 0 0 1
-36.036605 2.881163 29.660990 46.762296 -0.079781 0.883703 0.120666 -0.023573 -237.440000 0 0 1
-35.684405 2.916963 28.306720 45.641602 -0.081562 0.901804 0.112812 -0.024275 147227.000000 0 0 1
-35.144305 4.248163 27.749250 44.979883 -0.120294 0.905966 0.103992 -0.022944 49500.500000 0 0 1
-34.706005 4.352563 26.382500 43.811960 -0.124761 0.924573 0.099636 -0.018515 333641.000000 0 0 1
-34.025105 5.575263 26.187880 43.296609 -0.162414 0.921221 0.102522 -0.014923 -234896.000000 0 0 1
-33.131605 5.634763 24.955630 41.859733 -0.168460 0.932071 0.106746 -0.017036 94948.700000 0 0 1
-31.949005 4.829563 24.932960 40.813185 -0.150029 0.913594 0.090231 -0.011663 1043060.000000 0 0 1
-31.201105 5.032763 23.699290 39.503088 -0.159923 0.927376 0.086059 -0.014474 475022.000000 0 0 1
-31.847205 4.363563 22.443990 39.204819 -0.136168 0.961268 0.109215 -0.023488 -35042.900000 0 0 1
-31.699005 2.982563 22.383490 38.919702 -0.093814 0.958046 0.118258 -0.023488 77663.100000 0 0 1
-32.430605 2.587763 21.244890 38.855965 -0.079625 0.992307 0.150022 -0.024049 -85738.800000 0 0 1
-31.934005 1.145063 20.895990 38.180286 -0.035842 0.991664 0.146906 -0.029301 949605.000000 0 0 1
-30.619105 0.999463 20.326990 36.765677 -0.032630 0.984980 0.137523 -0.027257 871493.000000 0 0 1
-30.643205 1.422663 18.998390 36.082805 -0.046393 1.016292 0.166568 -0.031944 66376.700000 0 0 1
-29.459405 0.834463 18.180190 34.627621 -0.028318 1.018058 0.162109 -0.039527 133753.000000 0 0 1
-29.709605 -0.544437 17.855690 34.666738 0.018323 1.029711 0.179816 -0.032234 -18162.800000 0 0 1
-28.668605 -1.129237 17.115290 33.408041 0.039369 1.032923 0.189280 -0.038402 -318225.000000 0 0 1
-28.466205 -0.647337 15.688390 32.509528 0.022737 1.067200 0.183781 -0.041684 -27710.200000 0 0 1
-27.888505 0.651763 15.567290 31.945798 -0.023366 1.061798 0.206559 -0.039017 144902.000000 0 0 1
-27.801805 1.145563 14.236490 31.255884 -0.041181 1.097883 0.191639 -0.038284 -159000.000000 0 0 1
-27.054405 2.468463 14.049690 30.584766 -0.090989 1.093512 0.181148 -0.031822 -521282.000000 0 0 1
-25.661705 2.352563 13.882290 29.270730 -0.091420 1.076659 0.157404 -0.033605 -70144.800000 0 0 1
-25.221505 3.504763 13.216790 28.689566 -0.138075 1.092032 0.147871 -0.029046 -473015.000000 0 0 1
-23.725705 3.542963 12.887290 27.231304 -0.148235 1.077817 0.107655 -0.023966 -708623.000000 0 0 1
-22.912505 3.628063 14.004190 27.097289 -0.157040 1.027674 0.069668 -0.011124 -436400.000000 0 0 1
-21.627205 4.023663 13.582890 25.853834 -0.183943 1.017644 0.038357 -0.008080 -334881.000000 0 0 1
-20.775805 4.532463 14.737890 25.872431 -0.214795 0.964732 0.017661 -0.010309 -423195.000000 0 0 1
-21.232205 5.777663 15.213390 26.751358 -0.265685 0.965877 0.015417 -0.001443 315015.000000 0 0 1
-20.388305 6.274963 16.237390 26.808785 -0.298572 0.920183 0.005028 0.006909 -360582.000000 0 0 1
-20.535505 7.717063 16.741890 27.596212 -0.359464 0.918927 0.003658 0.003752 -655733.000000 0 0 1
-20.026305 8.617763 15.830490 26.942961 -0.406370 0.942762 0.028800 -0.004420 150187.000000 0 0 1
-20.352005 10.009163 16.076190 27.799844 -0.457068 0.954173 0.035872 -0.000166 -196972.000000 0 0 1
-19.734705 10.658863 17.356990 28.360801 -0.495217 0.912201 0.042636 -0.004310 -15994.300000 0 0 1
-20.525405 10.385063 18.487290 29.511382 -0.468405 0.893811 0.041397 -0.012483 246639.000000 0 0 1
-20.080305 11.106463 19.600190 30.178463 -0.505222 0.863901 0.060297 -0.016456 -183350.000000 0 0 1
-12.468144 -33.716538 -20.323011 41.295088 1.216598 2.085344 0.091844 -0.036807 448047.000000 0 0 1
-13.636144 33.994863 -19.604411 41.544290 -1.189322 2.062232 0.113341 -0.032771 -521569.000000 0 0 1
-14.661944 -33.294038 -19.872111 41.453183 1.155973 2.070752 0.094627 -0.037701 -665454.000000 0 0 1
-15.955744 -33.824338 -19.174511 42.027770 1.130025 2.044555 0.086489 -0.036125 -994046.000000 0 0 1
-16.433444 33.239063 -19.897111 42.080737 -1.111638 2.063298 0.076630 -0.035397 196705.000000 0 0 1
-17.266644 32.280663 -19.223211 41.348640 -1.079627 2.054324 0.079065 -0.024751 2026040.000000 0 0 1
-18.655444 32.793363 -18.566111 42.049146 -1.053575 2.028104 0.079362 -0.022291 839991.000000 0 0 1
-18.452444 33.731063 -17.514111 42.249513 -1.070224 1.998234 0.084564 -0.021596 457256.000000 0 0 1
-19.597744 33.890463 -16.645911 42.540820 -1.046510 1.972832 0.048717 -0.013748 576360.000000 0 0 1
-19.689244 33.228063 -15.278311 41.535494 -1.035874 1.947479 0.049528 -0.016090 -315841.000000 0 0 1
-19.791444 31.794663 -15.311811 40.460516 -1.014013 1.958905 0.051464 -0.017209 143079.000000 0 0 1
-20.464544 31.278563 -14.173011 39.975246 -0.991427 1.933223 0.062688 -0.013163 79833.000000 0 0 1
-20.515844 29.701263 -14.203911 38.791957 -0.966312 1.945671 0.056696 -0.018808 875063.000000 0 0 1
-19.347544 29.164563 -13.534411 37.524385 -0.985064 1.939797 0.058596 -0.026139 831546.000000 0 0 1
-19.297044 27.746063 -13.696011 36.466431 -0.963105 1.955817 0.061304 -0.032552 240316.000000 0 0 1
-17.935844 27.158263 -13.203511 35.122620 -0.987131 1.956192 0.079399 -0.024852 222760.000000 0 0 1
-16.845644 27.687663 -13.884311 35.258424 -1.024211 1.975544 0.082174 -0.030007 -778761.000000 0 0 1
-15.595944 27.148663 -13.500311 34.096066 -1.049365 1.977898 0.095236 -0.035875 428583.000000 0 0 1
-14.494144 27.894163 -14.299611 34.534669 -1.091582 1.997712 0.088480 -0.039412 -204751.000000 0 0 1
-14.664444 27.631063 -15.653511 34.979336 -1.082873 2.034772 0.069762 -0.033534 -381567.000000 0 0 1
-13.638544 28.143363 -16.451611 35.337151 -1.119537 2.055065 0.089317 -0.041148 -420800.000000 0 0 1
-13.825344 28.119763 -17.956511 36.115059 -1.113843 2.091168 0.103271 -0.057422 -348975.000000 0 0 1
-13.793244 26.789163 -18.455911 35.334593 -1.095315 2.120364 0.081256 -0.054983 178420.000000 0 0 1
-13.971144 26.746063 -19.865211 36.127155 -1.089419 2.153004 0.075407 -0.056737 -237646.000000 0 0 1
-13.130844 25.617063 -20.461011 35.317219 -1.097134 2.188727 0.047253 -0.040806 -277900.000000 0 0 1
-11.738144 25.810063 -20.442511 34.954822 -1.143967 2.195463 0.036928 -0.041079 -451323.000000 0 0 1
-11.080644 24.857063 -21.233511 34.518346 -1.151462 2.233356 0.050546 -0.038385 -364887.000000 0 0 1
-9.833944 25.441463 -21.874111 34.963570 -1.201954 2.246730 0.069300 -0.045552 -665695.000000 0 0 1
-10.111644 26.092563 -23.053211 36.256278 -1.201086 2.259893 0.071756 -0.039793 7596.600000 0 0 1
-8.952344 26.324063 -23.834011 36.621863 -1.242984 2.279452 0.060246 -0.042653 -324241.000000 0 0 1
-9.244444 26.984863 -25.190911 38.055546 -1.240748 2.294215 0.073017 -0.036766 271935.000000 0 0 1
-10.212644 26.235163 -25.976641 38.306236 -1.199571 2.316013 0.070441 -0.032545 455197.000000 0 0 1
-10.508944 26.904563 -27.185271 39.665254 -1.198419 2.325904 0.093997 -0.028031 497972.000000 0 0 1
-11.721044 26.254263 -27.929211 40.083787 -1.150904 2.341682 0.070097 -0.027148 249418.000000 0 0 1
-12.190244 26.821963 -29.083401 41.398840 -1.144217 2.349725 0.087818 -0.025467 -1818690.000000 0 0 1
-13.467144 26.428063 -29.293201 41.688105 -1.099516 2.349947 0.080323 -0.023949 -1428210.000000 0 0 1
-14.032544 26.734063 -30.741411 43.088940 -1.087433 2.365193 0.072818 -0.031867 -58311.700000 0 0 1
-13.301944 26.299363 -31.875081 43.412199 -1.102528 2.395347 0.083520 -0.027460 35136.600000 0 0 1
-13.511844 24.910763 -32.109941 42.827145 -1.073799 2.418491 0.062915 -0.030643 475438.000000 0 0 1
-12.488744 24.381263 -33.196331 43.039646 -1.097415 2.451672 0.066231 -0.022113 388976.000000 0 0 1
-12.866044 24.633463 33.628274 43.625719 -1.089469 0.690644 0.061453 -0.014144 30862.500000 0 0 1
-12.127044 23.842563 32.696350 42.244340 -1.100269 0.685691 0.057624 -0.010510 -109891.000000 0 0 1
-12.695944 23.888963 31.254500 41.336585 -1.082301 0.713466 0.051293 0.001786 212307.000000 0 0 1
-14.010444 23.352263 31.189940 41.405713 -1.030406 0.717767 0.056989 -0.004893 180435.000000 0 0 1
-14.402744 23.225163 29.811980 40.442569 -1.015703 0.741963 0.052318 -0.002428 595173.000000 0 0 1
-15.708844 22.376763 29.637660 40.322180 -0.958719 0.745098 0.041162 -0.002434 503718.000000 0 0 1
-15.544944 21.015263 29.946150 39.749949 -0.933921 0.717635 0.030909 -0.004196 -887281.000000 0 0 1
-16.705044 20.280363 29.921470 39.820170 -0.881767 0.720592 0.033671 -0.011682 -767839.000000 0 0 1
-16.387244 18.737563 30.093560 39.054582 -0.852212 0.691091 0.022357 -0.014346 87823.900000 0 0 1
-15.967744 18.126863 28.875800 37.647893 -0.848641 0.696649 0.030840 -0.016490 140440.000000 0 0 1
-15.590244 16.795963 29.146050 37.076304 -0.822610 0.666307 0.022948 -0.026381 -74981.200000 0 0 1
-15.362944 16.031563 27.844800 35.614097 -0.806692 0.673172 0.017197 -0.028208 -750021.000000 0 0 1
-14.155144 16.389863 27.284220 34.834241 -0.858430 0.670906 0.018971 -0.013770 -1048660.000000 0 0 1
-13.796544 15.539363 26.234250 33.467182 -0.844737 0.669906 0.024921 -0.016151 509593.000000 0 0 1
-12.578944 16.231463 25.530030 32.763892 -0.911503 0.677388 0.020793 -0.016665 256495.000000 0 0 1
-12.909044 17.183863 24.541930 32.622613 -0.926508 0.719253 0.021943 -0.021468 -364668.000000 0 0 1
-13.369044 18.432063 24.921750 33.757457 -0.943282 0.740311 0.020013 -0.018135 267045.000000 0 0 1
-12.309544 19.419163 25.568040 34.385366 -1.005832 0.732398 0.035463 -0.008875 557800.000000 0 0 1
-11.826944 19.168563 26.861620 35.055057 -1.017973 0.697782 0.041417 -0.012109 101725.000000 0 0 1
-12.726144 19.645963 27.866350 36.393022 -0.995988 0.698658 0.038147 -0.003632 118967.000000 0 0 1
-12.392644 19.298863 29.309600 37.216614 -0.999964 0.663988 0.035647 -0.004722 35370.400000 0 0 1
-11.253344 19.993363 29.797080 37.606359 -1.058138 0.656159 0.045933 -0.007251 95937.400000 0 0 1
-11.209044 19.962963 31.217730 38.713166 -1.059173 0.632782 0.039195 -0.005645 -209660.000000 0 0 1
-10.051944 20.720263 31.851070 39.304726 -1.119118 0.626026 0.036589 -0.008808 174842.000000 0 0 1
-8.751444 20.163163 31.748350 38.614746 -1.161301 0.605563 0.038529 -0.011383 421547.000000 0 0 1
-7.756444 21.008263 32.320705 39.320955 -1.217112 0.605932 0.038931 -0.009583 -43254.100000 0 0 1
-6.520844 20.191863 32.702345 38.983023 -1.258425 0.575561 0.043481 -0.009661 -664461.000000 0 0 1
-6.666944 19.324363 33.809156 39.508710 -1.238581 0.543818 0.039274 -0.008760 -148460.000000 0 0 1
-5.437244 18.761763 -33.920051 39.142525 -1.288719 2.619100 0.035292 -0.007389 120388.000000 0 0 1
-4.825644 17.641263 33.337757 38.025084 -1.303785 0.501774 0.029397 -0.014117 375174.000000 0 0 1
-5.658744 16.468463 33.444328 37.706163 -1.239825 0.480049 0.025537 -0.010741 257625.000000 0 0 1
-5.307544 15.643563 32.388906 36.358387 -1.243704 0.471642 0.041244 -0.010027 -31395.000000 0 0 1
-5.796944 14.188363 32.518210 35.949244 -1.182924 0.440452 0.043896 -0.021365 93945.200000 0 0 1
-5.027044 13.395863 33.440815 36.373183 -1.211790 0.404292 0.057432 -0.021291 57224.900000 0 0 1
-5.454644 12.052963 33.367986 35.894979 -1.145819 0.377469 0.056581 -0.018666 145408.000000 0 0 1
-4.527544 10.952463 33.986077 35.993173 -1.178808 0.335528 0.069522 -0.028332 160623.000000 0 0 1
-4.402744 11.027863 -32.771341 34.856258 -1.190947 2.793970 0.099403 -0.037364 77092.700000 0 0 1
-3.505244 10.000763 -32.331081 34.023533 -1.233678 2.824855 0.118450 -0.037646 389210.000000 0 0 1
-3.721344 9.564363 -30.876591 32.537506 -1.199735 2.820699 0.124166 -0.043348 655263.000000 0 0 1
-4.944444 8.869963 -30.611471 32.251914 -1.062261 2.821279 0.125969 -0.043824 438880.000000 0 0 1
-5.382644 8.940363 -29.291351 31.094794 -1.028863 2.799342 0.144836 -0.045212 194921.000000 0 0 1
-6.487044 7.883963 -28.996131 30.741084 -0.882298 2.803042 0.129700 -0.043923 315595.000000 0 0 1
-5.972944 6.617663 -28.657291 30.011829 -0.836560 2.840007 0.117755 -0.029611 1169350.000000 0 0 1
-7.087644 5.768763 -28.235931 29.677957 -0.683170 2.828582 0.125558 -0.048622 651085.000000 0 0 1
-7.053744 5.385463 -26.729391 28.164141 -0.652079 2.821028 0.117303 -0.046366 -185270.000000 0 0 1
-7.060244 6.373363 -25.734611 27.436053 -0.734311 2.787568 0.075211 -0.026333 -18247.900000 0 0 1
-5.838544 7.004663 -25.437421 27.022514 -0.875946 2.797381 0.087023 -0.030444 -267164.000000 0 0 1
-6.077644 8.133963 -24.409511 26.437158 -0.929094 2.747390 0.053324 -0.006345 -23385.300000 0 0 1
-6.177544 7.736863 -23.057811 25.093500 -0.896998 2.736018 0.039747 0.000211 -517307.000000 0 0 1
-7.466244 7.637663 -22.536311 24.939206 -0.796747 2.699013 0.051908 -0.005989 -486582.000000 0 1 0
-7.394544 7.790263 -21.025311 23.609980 -0.811452 2.669297 0.043728 -0.005673 -126949.000000 0 1 0
-7.001044 9.090563 -20.620611 23.597935 -0.914527 2.633823 0.038859 -0.000805 83700.600000 0 1 0
-6.852544 9.231263 -19.196411 22.375785 -0.932229 2.601984 0.032133 0.001856 -925762.000000 0 1 0
-8.127544 9.356663 -18.408211 22.191583 -0.855582 2.549032 0.040728 -0.000323 -1376400.000000 0 1 0
-7.981544 9.403063 -17.014111 21.014343 -0.866985 2.514340 0.034464 0.003189 -531460.000000 0 1 0
-9.139544 9.685663 -16.277411 21.030869 -0.814400 2.455894 0.033116 -0.001557 -389059.000000 0 1 0
-9.696944 11.130163 -16.427611 22.085689 -0.854105 2.409553 0.051046 -0.013678 -698002.000000 0 1 0
-8.745844 12.077063 -16.045211 21.904201 -0.944033 2.392809 0.034608 -0.013441 -137115.000000 0 1 0
-9.155044 13.429063 -16.362311 23.062519 -0.972435 2.359551 0.056597 -0.015229 -472749.000000 0 1 0
-8.020944 14.400763 -16.170111 23.090907 -1.062610 2.346587 0.058090 -0.017609 -907588.000000 0 1 0
-7.508044 14.474163 -14.871111 22.068576 -1.092285 2.310216 0.057702 -0.011850 136866.000000 0 1 0
-8.309444 15.085463 -13.831711 22.089234 -1.067320 2.247433 0.046375 -0.028570 -394281.000000 0 1 0
-7.534044 15.874763 -12.733111 21.700277 -1.127681 2.197863 0.035221 -0.023913 -179894.000000 0 1 0
-7.087144 17.184863 -13.000311 22.683809 -1.179641 2.181092 0.051291 -0.027419 581102.000000 0 1 0
-6.144244 17.421063 -14.080411 23.227207 -1.231727 2.222074 0.065342 -0.022297 451083.000000 0 1 0
-6.090744 18.880863 -14.592811 24.627917 -1.258747 2.204994 0.095874 -0.018201 139279.000000 0 1 0
-5.595244 19.765263 -13.619311 24.646663 -1.294929 2.156256 0.096581 -0.022247 -113114.000000 0 1 0
-5.622544 21.102563 -14.062111 25.974490 -1.310407 2.142876 0.089779 -0.025185 -102805.000000 0 0 1
-5.310044 22.056163 -12.886811 26.091010 -1.334541 2.087386 0.098575 -0.025516 -952956.000000 0 0 1
-5.447944 23.452363 -13.140111 27.429107 -1.342546 2.070377 0.080151 -0.023841 115101.000000 0 0 1
-6.799744 23.850163 -13.252411 28.119267 -1.293062 2.061552 0.083522 -0.026923 180944.000000 0 0 1
-7.667944 23.807963 -11.943111 27.717402 -1.259212 2.016274 0.061089 -0.026282 -489417.000000 0 0 1
-7.917544 22.445163 -11.539211 26.450448 -1.231673 2.022232 0.069320 -0.021296 -542168.000000 0 0 1
-8.497444 22.326463 -10.261811 25.999659 -1.207125 1.976527 0.068268 -0.020910 243327.000000 0 0 1
-7.658244 22.699263 -8.938811 25.569661 -1.245410 1.927926 0.065996 -0.018289 394174.000000 0 0 1
-7.427044 24.100863 -8.823811 26.718387 -1.271866 1.907367 0.057539 -0.011372 -166419.000000 0 0 1
-7.145844 24.496463 -7.477011 26.590326 -1.286963 1.855833 0.062230 -0.014760 89932.200000 0 0 1
-7.142644 26.062363 -7.366911 28.009561 -1.303305 1.836941 0.064295 -0.014136 128521.000000 0 0 1
-6.197344 26.818963 -8.112811 28.696368 -1.343702 1.857417 0.057462 -0.013961 -60040.400000 0 0 1
-6.301144 26.770263 -9.535211 29.107931 -1.339626 1.904539 0.057022 -0.007872 3668.050000 0 0 1
-5.616544 28.031963 -10.230611 30.364484 -1.373053 1.914447 0.052923 -0.008941 375112.000000 0 0 1
-6.337444 29.252263 -10.210611 31.624589 -1.357446 1.899556 0.045931 -0.007757 -108749.000000 0 0 1
-7.409944 29.212163 -11.122711 32.124327 -1.322376 1.924356 0.056635 -0.011053 -626784.000000 0 0 1
-8.431844 30.309463 -11.129911 33.371162 -1.299465 1.910830 0.066436 -0.014277 -806818.000000 0 0 1
-9.437144 30.171263 -10.179611 33.211282 -1.267651 1.882321 0.079269 -0.018940 -677651.000000 0 0 1
-10.415744 31.161363 -10.215411 34.407454 -1.248219 1.872236 0.068924 -0.030374 372565.000000 0 0 1
-11.585444 30.879363 -9.213411 34.243897 -1.211864 1.843206 0.084848 -0.027500 372725.000000 0 0 1
-12.414244 29.796763 -9.536011 33.658521 -1.176036 1.858047 0.086378 -0.032281 278339.000000 0 0 1
-13.604944 29.848663 -8.709111 33.939443 -1.143132 1.830307 0.089022 -0.023944 893762.000000 0 0 1
-14.547144 28.683063 -9.160911 33.440391 -1.101430 1.848291 0.088996 -0.030970 -166720.000000 0 0 1
-14.468444 27.346663 -8.698411 32.137800 -1.084160 1.844875 0.086582 -0.022620 14787.300000 0 0 1
-15.422144 26.549763 -9.415011 32.115025 -1.044557 1.868332 0.101078 -0.021932 355723.000000 0 0 1
-15.558044 25.137863 -8.832611 30.854171 -1.016589 1.861128 0.090688 -0.020390 -254108.000000 0 0 1
-14.597444 24.161663 -9.170611 29.681163 -1.027326 1.884907 0.092012 -0.014546 -98194.500000 0 0 1
-14.881644 22.897363 -8.707911 28.663221 -0.994472 1.879476 0.096737 -0.016300 -324966.000000 0 0 1
-13.930044 21.825263 -9.236111 27.489888 -1.002723 1.913444 0.101788 -0.015231 -319043.000000 0 0 1
-14.111344 21.481263 -10.583211 27.795306 -0.989576 1.961409 0.102010 -0.006606 -166730.000000 0 0 1
-13.377444 20.344663 -10.958911 26.701293 -0.989138 1.993718 0.098976 -0.010117 -220572.000000 0 0 1
-13.509644 19.863563 -12.395411 27.031793 -0.973536 2.047158 0.092617 -0.012866 -101658.000000 0 0 1
-14.748944 19.268763 -12.683211 27.380292 -0.917491 2.052426 0.104913 -0.013127 -342151.000000 0 0 1
-14.779644 18.782163 -14.008511 27.702814 -0.904096 2.100956 0.107628 -0.015920 -207871.000000 0 0 1
-16.185444 18.481863 -14.532811 28.543834 -0.851543 2.104982 0.087149 -0.008418 -134650.000000 0 0 1
-16.884044 19.668763 -14.850811 29.874366 -0.861435 2.091060 0.066074 -0.012245 -577248.000000 0 0 1
-18.231744 19.382963 -15.083011 30.587464 -0.815994 2.086458 0.060628 -0.010570 -174148.000000 0 0 1
-19.080744 20.549363 -15.737911 32.156382 -0.822439 2.082219 0.053056 -0.013996 257788.000000 0 0 1
-19.448644 21.546663 -14.784111 32.574198 -0.836531 2.041888 0.063083 -0.024506 175273.000000 0 0 1
-19.815544 22.720463 -15.479211 33.889249 -0.853585 2.045145 0.075761 -0.027729 -182489.000000 0 0 1
-20.333644 23.894563 -14.612611 34.611206 -0.865737 2.006660 0.072371 -0.016678 21359.500000 0 0 1
-21.645744 23.735663 -14.109111 35.085423 -0.831418 1.984645 0.089727 -0.015929 235381.000000 0 0 1
-22.082244 24.994663 -13.628311 36.029009 -0.847185 1.958712 0.088627 -0.018928 -80730.900000 0 0 1
-26.153364 -0.660037 3.748689 26.428900 0.025232 1.428476 0.144607 -0.044467 -11758.100000 0 0 1
-26.469354 -0.140437 5.031189 26.943631 0.005306 1.382964 0.147631 -0.037916 510453.000000 0 0 1
-27.821374 -0.354637 5.410189 28.344748 0.012746 1.378747 0.140276 -0.032942 143140.000000 0 0 1
-28.115064 0.540263 6.649789 28.895819 -0.019214 1.338585 0.138935 -0.019494 -339778.000000 0 0 1
-28.167964 1.946663 6.384389 28.947955 -0.068999 1.348421 0.145210 -0.019015 35518.700000 0 0 1
-28.484144 2.755763 7.493789 29.582047 -0.096447 1.314683 0.161184 -0.019897 442457.000000 0 0 1
-27.405104 2.833763 8.669289 28.882979 -0.103037 1.265944 0.164603 -0.019782 467885.000000 0 0 1
-27.101084 1.533263 9.155689 28.646924 -0.056515 1.245484 0.170218 -0.032998 430921.000000 0 0 1
-26.016164 1.575863 10.090189 27.948811 -0.060499 1.201431 0.174826 -0.045226 -146541.000000 0 0 1
-25.621574 0.158663 10.481789 27.683174 -0.006192 1.182476 0.165501 -0.040648 -1350340.000000 0 0 1
-24.545144 -0.351737 9.811489 26.435830 0.014329 1.190556 0.144524 -0.042324 -472433.000000 0 0 1
-24.901444 -1.197837 8.729689 26.414469 0.048066 1.233975 0.122593 -0.038665 91925.200000 0 0 1
-23.606144 -1.580337 7.946789 24.957943 0.066846 1.246748 0.103061 -0.041863 114854.000000 0 1 0
-22.658244 -2.104737 8.825289 24.407205 0.092625 1.200829 0.111880 -0.050582 -805043.000000 0 1 0
-21.535644 -2.569037 8.131289 23.162507 0.118731 1.212100 0.124983 -0.047218 -96547.300000 0 1 0
-20.316244 -2.715037 9.093689 22.423567 0.132852 1.153225 0.098577 -0.038308 384070.000000 0 1 0
-19.707944 -1.502637 9.612589 21.978690 0.076098 1.118136 0.080509 -0.030715 947618.000000 0 1 0
-20.547144 -0.945537 10.594889 23.137217 0.045986 1.095147 0.097225 -0.033216 -659286.000000 0 1 0
-20.240344 0.547263 10.787489 22.942121 -0.027032 1.081274 0.065673 -0.016476 -125377.000000 0 1 0
-20.578644 1.596363 9.840189 22.866094 -0.077419 1.125927 0.062792 -0.012854 1752150.000000 0 1 0
-22.005044 1.740363 9.619989 24.078932 -0.078925 1.159804 0.089930 -0.006259 878189.000000 0 1 0
-22.504844 3.020663 8.920289 24.395982 -0.133425 1.196470 0.088415 -0.023143 -233349.000000 0 1 0
-22.235244 4.201863 9.707489 24.623100 -0.186771 1.165552 0.075847 -0.019325 695300.000000 0 1 0
-22.718044 5.475263 9.181889 25.107670 -0.236499 1.196411 0.075752 -0.010132 -335173.000000 0 0 1
-22.537344 6.609863 10.235589 25.620098 -0.285285 1.159810 0.062188 -0.013678 616997.000000 0 0 1
-23.545544 6.511263 11.266189 26.901973 -0.269797 1.138688 0.073395 -0.012699 540234.000000 0 0 1
-23.315844 7.400363 12.293589 27.377477 -0.307339 1.105105 0.072419 -0.009767 -165377.000000 0 0 1
-24.096544 7.200263 13.599589 28.590838 -0.290364 1.075079 0.097029 -0.017774 -1324980.000000 0 0 1
-25.424714 6.928463 13.447289 29.584611 -0.266049 1.098944 0.124915 -0.019730 -1416740.000000 0 0 1
-26.147194 6.999063 14.660089 30.782801 -0.261548 1.074419 0.138689 -0.027244 -556537.000000 0 0 1
-27.638444 6.863563 14.404489 31.913655 -0.243410 1.102510 0.174257 -0.027936 -729853.000000 0 0 1
-27.982674 5.716763 13.592789 31.630291 -0.201523 1.126592 0.188341 -0.028188 9671.030000 0 0 1
-29.348304 5.369163 13.716489 32.837370 -0.180945 1.139873 0.205731 -0.042299 97304.300000 0 0 1
-29.837044 4.334963 12.655689 32.698739 -0.144278 1.173378 0.202475 -0.029287 153464.000000 0 0 1
-31.061574 3.660063 12.927789 33.842948 -0.117292 1.178844 0.198538 -0.039718 521864.000000 0 0 1
-31.426044 2.778363 11.885689 33.713278 -0.088180 1.210499 0.198308 -0.019649 -26167.600000 0 0 1
-32.728954 2.007163 12.182389 34.980333 -0.061250 1.215078 0.164976 -0.013661 -269680.000000 0 0 1
-32.617334 0.984863 13.158089 35.185163 -0.030185 1.187514 0.179322 -0.017984 -1021690.000000 0 0 1
-33.732084 0.276363 13.509889 36.337954 -0.008193 1.189866 0.140664 -0.014466 -888408.000000 0 0 1
-33.365244 -0.767437 14.570989 36.416235 0.022997 1.159145 0.119858 -0.027220 231150.000000 0 0 1
-32.808744 -1.992037 14.106789 35.768469 0.060642 1.165390 0.115439 -0.024244 178373.000000 0 0 1
-32.749224 -2.916437 15.174489 36.211633 0.088819 1.138397 0.113764 -0.023802 58056.700000 0 0 1
-32.513834 -4.364337 14.717089 35.955382 0.133433 1.149093 0.104467 -0.026158 2712.070000 0 0 1
-33.666924 -4.813737 14.048789 36.796770 0.142019 1.179060 0.068403 -0.016843 61521.700000 0 0 1
-33.626644 -6.212137 13.889389 36.908765 0.182679 1.184979 0.075571 -0.020040 -309701.000000 0 0 1
-34.687548 -6.825837 12.907389 37.635338 0.194298 1.220731 0.068105 -0.025293 2278720.000000 0 0 1
-36.112734 -6.761137 13.234189 39.051072 0.185080 1.225055 0.061274 -0.024334 1677130.000000 0 0 1
-36.656554 -5.475937 13.371889 39.401729 0.148288 1.224546 0.071474 -0.023542 -389909.000000 0 0 1
35.504818 -5.448637 12.833689 38.144243 -0.152274 1.227650 0.097602 -0.021357 276889.000000 0 0 1
34.566878 -6.019737 13.689389 37.663054 -0.172418 1.198806 0.082939 -0.022791 602136.000000 0 0 1
33.228188 -5.932637 13.149589 36.224582 -0.176681 1.199309 0.103007 -0.020922 1277980.000000 0 0 1
32.166588 -6.937437 13.645889 35.623415 -0.212419 1.177690 0.082535 -0.013468 -55326.100000 0 0 1
31.836628 -6.880837 15.010989 35.864280 -0.212856 1.138948 0.071065 -0.007300 -14425.700000 0 0 1
30.864428 -7.887737 15.220689 35.305788 -0.250205 1.125073 0.055892 -0.009533 -161636.000000 0 0 1
30.243248 -7.945137 16.634089 35.418528 -0.256903 1.081909 0.057692 -0.013152 544115.000000 0 0 1
31.263538 -8.213837 17.617389 36.813697 -0.256923 1.071788 0.024919 -0.004271 630536.000000 0 0 1
30.667568 -8.260837 18.916489 36.967211 -0.263122 1.033622 0.036996 -0.013488 -393029.000000 0 0 1
31.521648 -8.862137 19.988489 38.362631 -0.274070 1.022727 0.040994 -0.013270 -59054.400000 0 0 1
32.691658 -8.156737 20.355189 39.365093 -0.244513 1.027352 0.043466 -0.007818 -217088.000000 0 0 1
33.872588 -8.815837 20.000589 40.312464 -0.254616 1.051650 0.012226 0.010612 -388438.000000 0 0 1
35.168438 -8.128237 20.455289 41.488626 -0.227135 1.055223 0.008535 0.000512 -30912.900000 0 0 1
35.356548 -8.258537 21.852589 42.377170 -0.229465 1.029008 0.020130 -0.004419 -488919.000000 0 0 1
36.696098 -8.254137 22.244489 43.698417 -0.221250 1.036721 0.043751 -0.005511 -416741.000000 0 0 1
-36.614444 -8.861737 23.636689 44.472923 0.237462 1.010444 0.055320 -0.007810 -82632.500000 0 0 1
36.623328 -8.003437 24.700089 44.893402 -0.215151 0.988200 0.054548 -0.008249 33552.800000 0 0 1
36.217298 -8.741637 25.837289 45.339545 -0.236837 0.964458 0.051443 -0.010042 140332.000000 0 0 1
35.930778 -7.857037 27.072889 45.669411 -0.215283 0.936263 0.062185 -0.009387 637034.000000 0 0 1
-36.484344 -7.398437 27.664289 46.380568 0.200071 0.931709 0.048552 -0.023848 228088.000000 0 0 1
36.794228 -6.673237 28.840889 47.224402 -0.179416 0.913827 0.050921 -0.032986 -876245.000000 0 0 1
-35.671783 -6.221537 29.661789 46.808176 0.172674 0.884485 0.076648 -0.029613 -667741.000000 0 0 1
-35.331714 -7.234537 30.550289 47.265089 0.201969 0.867991 0.064558 -0.023762 -12596.000000 0 0 1
-34.106662 -6.970037 31.222389 46.761986 0.201584 0.839698 0.072724 -0.035517 323414.000000 0 0 1
-33.797694 -7.897637 32.455989 47.518922 0.229555 0.818918 0.055304 -0.023922 -71247.600000 0 0 1
-33.638874 -9.254037 32.106489 47.413475 0.268459 0.826901 0.051296 -0.018126 199182.000000 0 0 1
-33.233914 -10.024937 33.213089 48.042706 0.292968 0.807476 0.039022 -0.012455 -109266.000000 0 0 1
-33.518564 -11.556737 33.019989 48.449685 0.332022 0.820943 0.041544 -0.008786 252936.000000 0 0 1
-34.861681 -11.916637 33.306189 49.665332 0.329375 0.835762 0.035177 -0.008824 152628.000000 0 0 1
-35.023239 -13.326237 33.293389 50.126496 0.363581 0.844390 0.035144 -0.013533 718679.000000 0 0 1
-36.540154 -13.703637 33.357589 51.339081 0.358797 0.863540 0.044657 -0.010141 656110.000000 0 0 1
-36.714054 -15.129337 33.438489 51.912919 0.390881 0.870915 0.042860 -0.015882 -57810.900000 0 0 1
35.553108 -15.352037 33.739389 51.361998 -0.407621 0.854104 0.038799 -0.015882 -65039.600000 0 0 1
35.044198 -16.800837 33.993989 51.632889 -0.447047 0.852134 0.029612 -0.019475 -142517.000000 0 0 1
35.492458 -17.197537 -32.830812 51.316002 -0.451204 2.265005 0.035501 -0.019811 118193.000000 0 0 1
35.432078 -18.578137 -32.714212 51.679774 -0.482922 2.256242 0.035038 -0.033551 -268103.000000 0 0 1
35.986768 -19.249437 -31.428812 51.510761 -0.491179 2.227035 0.034477 -0.031022 -141222.000000 0 0 1
35.266938 -18.922037 -30.261812 50.175469 -0.492449 2.218203 0.024881 -0.025902 -338936.000000 0 0 1
35.594088 -19.830737 -29.252812 50.158990 -0.508305 2.193461 0.022442 -0.019257 -1369080.000000 0 0 1
34.517048 -20.017837 -28.187912 48.853851 -0.525539 2.185828 0.015304 -0.019669 19225.000000 0 0 1
33.366578 -20.708137 -28.662712 48.617965 -0.555447 2.201298 0.021610 -0.020106 297593.000000 0 0 1
32.461358 -19.884137 -29.387112 48.090758 -0.549595 2.228216 0.011044 -0.017509 -907201.000000 0 0 1
31.127958 -20.599137 -29.687112 47.692755 -0.584596 2.242686 0.013723 -0.014654 748198.000000 0 0 1
30.129068 -19.762237 -30.323012 47.093437 -0.580525 2.270368 0.004133 -0.008260 1462260.000000 0 0 1
28.832138 -20.381537 -30.393512 46.588248 -0.615344 2.281525 0.011708 -0.005876 902745.000000 0 0 1
27.874018 -19.835937 -31.468312 46.483115 -0.618488 2.314453 0.019657 0.000590 422085.000000 0 0 1
28.329418 -20.177737 -32.796212 47.804692 -0.618903 2.326837 0.001861 0.001387 699023.000000 0 0 1
27.264518 -19.838537 -33.711812 47.680266 -0.629031 2.356099 0.057018 0.002332 704903.000000 0 0 1
27.638918 -19.755937 32.907989 47.298441 -0.620581 0.801330 0.058658 0.002642 -268053.000000 0 0 1
28.611058 -18.796237 32.588689 47.264297 -0.581250 0.809999 0.036097 -0.000756 -114246.000000 0 0 1
28.918238 -18.719437 31.195689 46.474217 -0.574491 0.834906 0.041112 -0.002205 -66558.700000 0 0 1
27.887918 -17.983237 30.292489 44.930698 -0.572739 0.830909 0.053622 -0.000901 -76443.700000 0 0 1
27.796618 -16.606437 30.617889 44.563223 -0.538525 0.813353 0.074218 -0.006600 484839.000000 0 0 1
27.010218 -15.931637 29.623689 43.138520 -0.532914 0.813842 0.091900 -0.005611 214257.000000 0 0 1
26.575418 -14.503737 29.992489 42.616436 -0.499580 0.790095 0.108377 -0.020151 -59387.200000 0 0 1
27.688518 -13.636937 30.017889 43.054544 -0.457640 0.799304 0.111907 -0.011212 93829.300000 0 0 1
27.491818 -12.362837 30.566589 42.929665 -0.422597 0.778432 0.131114 -0.022316 25660.200000 0 0 1
28.815808 -11.567937 30.704189 43.668240 -0.381751 0.791015 0.123943 -0.026143 -79595.200000 0 0 1
29.325588 -11.070737 29.557989 43.083942 -0.360970 0.814742 0.123118 -0.027941 -1714420.000000 0 0 1
30.618198 -10.711637 29.812689 44.056891 -0.336537 0.827544 0.113396 -0.025610 -1170790.000000 0 0 1
31.262328 -10.038437 28.591689 43.538351 -0.310703 0.854360 0.116035 -0.029431 -22055.200000 0 0 1
30.691948 -8.760837 28.393689 42.719428 -0.278050 0.843764 0.123715 -0.033816 -102737.000000 0 0 1
31.383608 -8.047537 27.401589 42.432779 -0.251016 0.868772 0.124719 -0.030625 76540.500000 0 0 1
30.943168 -6.571337 27.211289 41.726686 -0.209259 0.860404 0.112793 -0.038191 129240.000000 0 0 1
29.592018 -6.461037 26.788089 40.435556 -0.214964 0.846660 0.126502 -0.030606 -134974.000000 0 0 1
29.366888 -5.081337 26.679989 40.000699 -0.171333 0.840637 0.117327 -0.023478 -509824.000000 0 0 1
27.938418 -4.627937 26.458889 38.756235 -0.164157 0.819345 0.096230 -0.017985 -567829.000000 0 0 1
27.407718 -4.937437 25.174689 37.540994 -0.178236 0.835790 0.099848 -0.019674 35670.100000 0 0 1
26.014218 -4.719937 25.127289 36.474621 -0.179484 0.810829 0.098981 -0.018173 276638.000000 0 0 1
25.357618 -5.049537 23.704189 35.076989 -0.196562 0.828779 0.091582 -0.014381 159263.000000 0 0 1
25.734618 -4.110337 22.699889 34.560821 -0.158382 0.854216 0.100442 -0.000664 130691.000000 0 0 1
25.536018 -4.625137 21.417889 33.648270 -0.179180 0.880815 0.098288 -0.002297 27587.500000 0 0 1
25.821818 -3.661637 20.269189 33.030499 -0.140865 0.910120 0.103246 -0.005113 132514.000000 0 0 1
24.913118 -2.593737 20.230389 32.197198 -0.103738 0.891395 0.088640 0.003083 -178585.000000 0 0 1
25.253518 -1.735137 19.166289 31.750551 -0.068601 0.922722 0.094432 -0.006103 686805.000000 0 0 1
24.031918 -0.802937 18.755389 30.494957 -0.033399 0.908369 0.070633 -0.010000 392639.000000 0 0 1
23.063918 -1.624637 18.148289 29.392927 -0.070324 0.905316 0.079818 -0.009971 -995636.000000 0 0 1
22.065218 -0.796437 17.635489 28.258072 -0.036079 0.896834 0.081111 -0.011822 7760.590000 0 0 1
20.873418 -1.611837 17.053289 27.002079 -0.077067 0.887240 0.071768 -0.016245 157135.000000 0 0 1
21.266918 -2.292337 15.891589 26.647311 -0.107374 0.931828 0.098754 -0.030658 -263121.000000 0 0 1
20.191918 -3.012537 15.393689 25.568625 -0.148103 0.924725 0.104547 -0.041222 -625529.000000 0 0 1
20.375718 -3.426637 13.900389 24.902460 -0.166614 0.978590 0.117093 -0.051871 -613731.000000 0 1 0
19.417318 -4.388837 13.622589 24.121962 -0.222292 0.970681 0.109005 -0.048425 190643.000000 0 1 0
19.437418 -4.745437 12.257189 23.464251 -0.239455 1.021160 0.097504 -0.046749 -411642.000000 0 1 0
18.348118 -5.789537 11.972989 22.661082 -0.305651 1.014140 0.062870 -0.041637 -462273.000000 0 1 0
18.631518 -7.117837 12.444989 23.509037 -0.364921 1.012938 0.102301 -0.052860 1006700.000000 0 1 0
17.439018 -7.912437 12.477189 22.856208 -0.425943 0.993334 0.067532 -0.029756 206975.000000 0 1 0
17.631918 -9.380337 12.867589 23.758158 -0.488926 0.998449 0.106567 -0.051074 -587029.000000 0 1 0
18.430218 -10.090237 11.950189 24.172150 -0.500909 1.053677 0.085250 -0.055734 499664.000000 0 1 0
18.231118 -11.482437 11.975889 24.650394 -0.562062 1.063484 0.094903 -0.039361 149508.000000 0 1 0
19.009818 -12.062737 10.722789 24.937141 -0.565439 1.126312 0.105094 -0.038920 392062.000000 0 1 0
18.524018 -11.497537 9.495789 23.780299 -0.555489 1.160029 0.101629 -0.032854 -100323.000000 0 1 0
19.402618 -11.648637 8.446489 24.155651 -0.540687 1.213578 0.112367 -0.037936 -744930.000000 0 1 0
18.909618 -11.180737 7.036689 23.067239 -0.533978 1.260804 0.090248 -0.023438 -188224.000000 0 1 0
19.178218 -9.803137 6.812589 22.590195 -0.472536 1.264454 0.090456 -0.022609 693725.000000 0 1 0
19.816918 -9.585137 5.565489 22.705941 -0.450510 1.323162 0.084218 -0.018804 -144209.000000 0 1 0
20.108718 -8.074837 5.339689 22.317612 -0.381850 1.329194 0.088142 -0.017277 -174947.000000 0 1 0
20.771618 -7.854037 4.109089 22.583857 -0.361498 1.387829 0.095800 -0.017399 641142.000000 0 1 0
21.108318 -6.496837 3.923389 22.431294 -0.298584 1.394985 0.105027 -0.016659 -163157.000000 0 1 0
21.739618 -6.091537 2.557689 22.721346 -0.273198 1.457990 0.106641 -0.015813 304668.000000 0 1 0
20.793218 -5.959837 1.488789 21.681652 -0.279141 1.502076 0.072637 -0.025157 565254.000000 0 1 0
21.342418 -5.380537 0.358389 22.013119 -0.246959 1.554515 0.073732 -0.018178 -28656.500000 0 1 0
-26.082014 -15.348637 0.261189 30.264175 0.531903 1.562166 0.088034 -0.015172 -31222.700000 0 0 1
-25.071244 -14.886337 -0.657311 29.165088 0.535820 1.593336 0.076621 -0.008424 1057280.000000 0 0 1
-23.784944 -15.463937 -0.455511 28.373657 0.576485 1.586851 0.086127 -0.006635 454848.000000 0 0 1
-22.918744 -15.004037 0.710589 27.402461 0.579646 1.544862 0.100256 -0.013994 -1252690.000000 0 0 1
-23.400244 -15.396937 1.955789 28.079569 0.581966 1.501088 0.089918 -0.001664 -127684.000000 0 0 1
-22.595144 -15.095837 3.101189 27.350360 0.588995 1.457164 0.099267 -0.001201 131742.000000 0 0 1
-23.138344 -15.714437 4.431189 28.318932 0.596596 1.413676 0.108669 -0.001721 -128505.000000 0 0 1
-23.070644 -17.153537 4.390089 29.082148 0.639342 1.419262 0.125563 -0.012618 176687.000000 0 0 1
-23.525144 -17.695537 5.593489 29.964171 0.644906 1.383022 0.121545 -0.014802 -31928.400000 0 0 1
-23.779344 -19.268437 5.497889 31.095926 0.680991 1.393058 0.105657 -0.011791 185682.000000 0 0 1
-24.460744 -19.841837 6.596889 32.179892 0.681515 1.364332 0.095634 -0.013312 53221.000000 0 0 1
-24.665644 -21.187537 6.324489 33.125592 0.709690 1.378692 0.102520 -0.019510 111738.000000 0 0 1
-25.201004 -21.955137 7.584689 34.273111 0.716674 1.347648 0.103370 -0.019681 777124.000000 0 0 1
-24.167644 -22.173637 8.575389 33.901069 0.742396 1.315065 0.110088 -0.019228 598160.000000 0 0 1
-24.602444 -23.143337 9.565289 35.105399 0.754848 1.294834 0.105428 -0.019503 691640.000000 0 0 1
-23.545744 -23.423237 10.703289 34.894276 0.782790 1.259036 0.114365 -0.021267 513894.000000 0 0 1
-23.678444 -22.354637 11.646689 34.583867 0.756648 1.227316 0.099487 -0.016042 188128.000000 0 0 1
-22.856744 -22.561837 12.776989 34.564703 0.778905 1.192159 0.101509 -0.015037 -223778.000000 0 0 1
-23.367644 -21.829037 14.107089 34.950874 0.751369 1.155320 0.085145 -0.010375 202921.000000 0 0 1
-24.584644 -22.340237 14.629389 36.297519 0.737605 1.155959 0.071103 -0.009606 343693.000000 0 0 1
-25.128614 -21.522937 15.680689 36.613769 0.708262 1.128216 0.081834 -0.007704 610107.000000 0 0 1
-26.592304 -21.904437 16.086789 38.022885 0.689034 1.133953 0.041224 -0.001180 949182.000000 0 0 1
-27.678824 -21.657237 15.182189 38.283835 0.663946 1.163020 0.047196 0.002820 654923.000000 0 0 1
-27.785744 -22.652437 14.168389 38.547681 0.683973 1.194418 0.043730 -0.000567 -608874.000000 0 0 1
-28.712634 -23.841237 14.486089 40.033320 0.692969 1.200544 0.033149 -0.001421 -464830.000000 0 0 1
-28.318484 -24.747537 15.467789 40.664845 0.718207 1.180597 0.032787 0.001710 -270383.000000 0 0 1
-29.370954 -25.556737 15.952989 42.074904 0.716069 1.181911 0.041215 0.000739 78911.500000 0 0 1
-29.721404 -26.878797 15.246089 42.875107 0.735218 1.207248 0.069303 0.001786 -107232.000000 0 0 1
-30.309054 -26.653767 13.989689 42.717367 0.721316 1.237146 0.085387 -0.013805 185196.000000 0 0 1
-31.552304 -27.352567 14.011689 44.045865 0.714222 1.247055 0.078481 -0.013921 277663.000000 0 0 1
-32.122514 -27.718387 12.592589 44.257634 0.711933 1.282281 0.088766 -0.019994 -28545.600000 0 0 1
-31.375204 -28.717227 11.918889 44.171738 0.741196 1.297579 0.108727 -0.030305 73032.000000 0 0 1
-31.822404 -29.100107 10.600289 44.405492 0.740743 1.329753 0.086931 -0.016603 116920.000000 0 0 1
-31.175924 -30.388677 9.990589 44.667905 0.772612 1.345225 0.086241 -0.033322 21353.100000 0 0 1
-31.554884 -31.589587 10.651689 45.902845 0.785948 1.336613 0.069282 -0.022700 305027.000000 0 0 1
-30.723474 -32.713597 10.332289 46.052877 0.816759 1.344513 0.076293 -0.024156 108008.000000 0 0 1
-30.989324 -33.902677 11.278589 47.296261 0.830263 1.330010 0.062202 -0.022543 368927.000000 0 0 1
-32.217024 33.551131 11.040389 47.806957 -0.805680 1.337756 0.055405 -0.021002 349593.000000 0 0 1
-32.286194 32.305299 11.662689 47.138614 -0.785694 1.320787 0.065696 -0.027016 3815.680000 0 0 1
-33.676214 31.978664 12.312889 48.045078 -0.759548 1.311627 0.072034 -0.022377 989287.000000 0 0 1
-34.807592 31.850274 11.460289 48.552514 -0.741062 1.332509 0.036868 -0.019452 389657.000000 0 0 1
-35.268524 33.100598 10.913389 49.584477 -0.753700 1.348883 0.059731 -0.017835 -1798830.000000 0 0 1
-36.648304 32.976148 10.343289 50.373684 -0.732705 1.363994 0.058383 -0.000812 -1011360.000000 0 0 1
-36.731394 32.146163 9.192689 49.669675 -0.718925 1.384647 0.048355 -0.003830 -393385.000000 0 0 1
35.563148 31.933974 8.819389 48.603475 0.731682 1.388330 0.040920 0.003992 -465274.000000 0 0 1
35.331958 31.485734 7.338789 47.891090 0.727899 1.416951 0.047062 -0.005183 -57032.200000 0 0 1
35.555328 30.113994 7.212289 47.149242 0.702727 1.417226 0.068529 -0.014160 61413.900000 0 0 1
35.561498 29.681484 5.852989 46.689057 0.695516 1.445105 0.096748 -0.023239 -54742.300000 0 0 1
35.758138 28.153374 5.726289 45.869895 0.666966 1.445632 0.114181 -0.026471 -112336.000000 0 0 1
34.758868 27.318454 6.243589 44.648171 0.666110 1.430497 0.104454 -0.025163 -257908.000000 0 0 1
34.980358 26.986084 7.603889 44.829602 0.657097 1.400355 0.089275 -0.017347 92069.600000 0 0 1
33.946338 25.925084 8.073989 43.470140 0.652217 1.383975 0.085250 -0.016041 278332.000000 0 0 1
34.071938 24.740194 7.351489 42.743637 0.628040 1.397947 0.090105 -0.022373 -83105.300000 0 0 1
32.951708 23.934134 7.625389 41.434338 0.628186 1.385706 0.078935 -0.018701 -379012.000000 0 0 1
33.139638 22.501264 7.102489 40.681541 0.596481 1.395310 0.070427 -0.014162 530355.000000 0 0 1
34.152708 21.636764 7.612589 41.140108 0.564710 1.384683 0.090500 -0.013057 -239520.000000 0 0 1
35.481208 21.933264 7.292289 42.345739 0.553670 1.397725 0.095017 -0.017200 -535515.000000 0 0 1
36.428088 20.745864 7.355789 42.561768 0.517692 1.397098 0.076588 -0.013133 -268717.000000 0 0 1
36.287338 19.944664 6.175189 41.865182 0.502560 1.422754 0.089644 -0.025888 -109772.000000 0 0 1
-36.754264 18.685464 6.336289 41.715357 -0.470336 1.418313 0.096697 -0.028770 -493041.000000 0 0 1
36.224618 17.520764 5.663589 40.635899 0.450499 1.430967 0.098325 -0.030084 -447216.000000 0 0 1
36.716358 17.400964 4.323089 40.860415 0.442575 1.464797 0.114297 -0.029918 219328.000000 0 0 1
36.198348 16.288864 3.627289 39.859813 0.422845 1.479669 0.090179 -0.029244 -850664.000000 0 0 1
-36.564234 15.882764 2.417189 39.938054 -0.409789 1.510236 0.100939 -0.015443 134649.000000 0 0 1
-35.346193 15.211464 2.651389 38.571645 -0.406399 1.502003 0.106240 -0.027330 -95423.600000 0 0 1
-34.291055 16.075064 2.951789 37.986802 -0.438364 1.493012 0.115036 -0.031349 -818953.000000 0 0 1
-32.876664 15.462464 2.936889 36.449802 -0.439621 1.490135 0.108908 -0.032521 9899.610000 0 0 1
-32.741954 14.642064 4.062189 36.096079 -0.420519 1.458019 0.122716 -0.039113 690163.000000 0 0 1
-31.376044 14.223964 4.179389 34.702227 -0.425627 1.450068 0.112345 -0.041057 398875.000000 0 0 1
-31.010314 13.492664 5.467489 34.257626 -0.410396 1.410512 0.126965 -0.039584 -146002.000000 0 0 1
-31.481094 12.170664 5.681989 34.226734 -0.368904 1.404014 0.129027 -0.032859 146199.000000 0 0 1
-31.038824 11.698864 6.906789 33.881790 -0.360445 1.365508 0.116932 -0.023755 -145826.000000 0 0 1
-31.098824 10.145464 6.995889 33.451603 -0.315347 1.360106 0.134404 -0.015639 658044.000000 0 0 1
-32.415064 9.648264 7.245789 34.587957 -0.289297 1.359744 0.128524 -0.013655 493582.000000 0 0 1
-32.351704 8.194464 7.184989 34.138044 -0.248076 1.358742 0.138047 -0.007084 437508.000000 0 0 1
-33.758064 7.556464 7.006389 35.295842 -0.220212 1.370964 0.135012 0.001289 709619.000000 0 0 1
-34.608370 7.549464 8.175989 36.353548 -0.214775 1.343954 0.131821 -0.007141 713052.000000 0 0 1
-35.785270 6.798264 7.863989 37.264517 -0.187737 1.358166 0.088812 -0.008664 431590.000000 0 0 1
-36.577914 6.213864 9.035289 38.186284 -0.168274 1.331920 0.088722 -0.010110 34238.900000 0 0 1
36.369968 7.135464 9.899889 38.362706 0.193730 1.309782 0.091119 -0.014898 -141775.000000 0 0 1
-36.437364 7.860564 10.754189 38.795908 -0.212472 1.289919 0.115137 -0.024033 -262660.000000 0 0 1
36.447788 8.782964 11.817789 39.309564 0.236466 1.265439 0.104690 -0.033399 -118949.000000 0 0 1
35.712958 8.104764 12.796589 38.792464 0.223162 1.234627 0.093695 -0.026805 289285.000000 0 0 1
35.174268 9.093864 13.650589 38.810643 0.252998 1.211385 0.117902 -0.036645 -305857.000000 0 0 1
34.315908 8.633064 14.866089 38.381140 0.246462 1.173065 0.102201 -0.028491 -399976.000000 0 0 1
33.014258 8.230464 14.496489 36.984185 0.244320 1.168030 0.088620 -0.029368 -238374.000000 0 0 1
32.387298 7.782164 15.642989 36.799487 0.235814 1.131738 0.079658 -0.018562 -679013.000000 0 0 1
30.917228 7.443864 15.432089 35.347354 0.236271 1.118998 0.061971 -0.009034 -532340.000000 0 0 1
29.978038 8.488764 15.564489 34.828080 0.275942 1.107505 0.054698 -0.009618 446295.000000 0 0 1
28.631988 8.093564 15.771989 33.675690 0.275488 1.083375 0.054608 -0.004571 517283.000000 0 0 1
28.130618 7.450264 17.139389 33.772722 0.258901 1.038525 0.051038 0.000754 -265368.000000 0 0 1
27.877718 8.398764 18.227289 34.350261 0.292623 1.011452 0.074409 -0.007567 284923.000000 0 0 1
27.189718 7.882164 19.393489 34.314963 0.282161 0.970168 0.069937 -0.000165 -29449.400000 0 0 1
27.892318 6.930764 20.365689 35.224681 0.243550 0.954318 0.063465 0.004662 380721.000000 0 0 1
27.081018 6.689064 21.581189 35.268581 0.242155 0.912323 0.047750 0.019834 676945.000000 0 0 1
27.672018 5.778464 22.502989 36.131921 0.205862 0.898479 0.048737 0.021913 -131583.000000 0 0 1
26.836118 5.533664 23.814789 36.303482 0.203352 0.855300 0.063874 0.021936 1044830.000000 0 0 1
25.563518 4.900464 23.646789 35.166441 0.189400 0.833316 0.033159 0.020722 -376051.000000 0 0 1
24.532218 5.785164 23.562189 34.503254 0.231588 0.819075 0.058290 0.023335 -1469550.000000 0 0 1
23.192518 5.162764 23.171689 33.188464 0.219033 0.797937 0.062130 0.003159 -1042900.000000 0 0 1
22.964018 4.990164 21.727189 32.004977 0.213977 0.824575 0.065047 0.002095 346957.000000 0 0 1
21.588618 4.933964 21.395389 30.792452 0.224686 0.802619 0.067094 -0.003739 -1400200.000000 0 0 1
20.839618 3.696464 21.883689 30.444201 0.175551 0.768703 0.078962 -0.006375 -622797.000000 0 0 1
19.650318 3.466064 21.137189 29.067668 0.174591 0.756603 0.079000 -0.014432 604710.000000 0 0 1
18.565518 4.348364 21.422289 28.679281 0.230070 0.727318 0.089766 -0.014577 -1413550.000000 0 0 1
17.403118 3.998964 20.521089 27.202487 0.225864 0.716083 0.118363 -0.019845 -658978.000000 0 0 1
16.478518 3.043264 20.984089 26.853957 0.182623 0.673866 0.094160 -0.014964 44715.000000 0 0 1
15.463718 2.731964 20.067589 25.481333 0.174865 0.663988 0.107214 -0.023776 -267300.000000 0 0 1
14.509018 1.636364 20.597589 25.247771 0.112308 0.616654 0.103247 -0.023234 -378112.000000 0 0 1
14.978518 0.325564 20.649689 25.512186 0.021732 0.627658 0.076272 -0.028918 -124599.000000 0 0 1
14.263718 -0.357036 21.662089 25.938913 -0.025026 0.582447 0.083596 -0.023961 -854.915000 0 0 1
14.400118 -1.875136 21.646089 26.065930 -0.129488 0.590906 0.055770 -0.020673 -59609.300000 0 0 1
13.770818 -2.551436 20.590389 24.901995 -0.183201 0.597300 0.053741 -0.009821 13444.100000 0 1 0
14.031218 -3.952736 20.608589 25.243081 -0.274594 0.615638 0.037891 -0.000531 -45240.400000 0 0 1
13.683018 -4.635236 19.250389 24.068400 -0.326625 0.643801 0.040480 -0.004952 -68965.800000 0 1 0
12.315418 -4.418036 18.991889 23.062532 -0.344440 0.603251 0.050577 -0.010731 -343421.000000 0 1 0
12.122418 -5.223836 17.852889 22.202863 -0.406877 0.636669 0.055406 -0.004257 353760.000000 0 1 0
10.611918 -5.284736 17.483889 21.124100 -0.462046 0.595844 0.050649 -0.005343 543023.000000 0 1 0
9.954718 -6.135336 18.417889 21.816448 -0.552336 0.565687 0.049163 0.002094 447563.000000 0 1 0
8.530518 -6.169236 18.243689 21.063271 -0.626125 0.523375 0.034101 -0.009911 961300.000000 0 1 0
7.809618 -7.142336 19.269289 21.984281 -0.740799 0.502247 0.033318 -0.014577 -260500.000000 0 1 0
7.966918 -8.528236 19.048389 22.339286 -0.819414 0.549692 0.030260 -0.010524 223888.000000 0 1 0
9.234418 -9.035836 19.460189 23.358505 -0.774529 0.586091 0.063136 -0.016005 55616.200000 0 1 0
9.476618 -10.462136 18.929789 23.613545 -0.834785 0.640747 0.068119 -0.017226 27899.500000 0 1 0
9.741818 -10.540736 17.529789 22.656205 -0.824767 0.686088 0.064754 -0.014654 6805.720000 0 1 0
10.270918 -11.780336 17.113489 23.176272 -0.853742 0.740093 0.063190 -0.014691 90612.500000 0 1 0
10.317118 -11.869936 15.565389 22.127350 -0.855272 0.790562 0.063768 -0.019843 186106.000000 0 1 0
10.519518 -13.132236 15.003689 22.543881 -0.895418 0.842589 0.051085 -0.015492 -64865.300000 0 1 0
10.263018 -13.080836 13.612489 21.488082 -0.905526 0.884741 0.047138 -0.018106 -754730.000000 0 1 0
10.824518 -14.177136 12.748189 21.924363 -0.918699 0.950272 0.058717 -0.024763 -208468.000000 0 1 0
12.208118 -14.040336 12.525289 22.428822 -0.855088 0.978285 0.049636 -0.028455 -231397.000000 0 1 0
12.494718 -13.228136 11.409389 21.477330 -0.813903 1.010745 0.030575 -0.025609 702085.000000 0 1 0
14.031018 -13.095336 10.990589 22.116743 -0.750918 1.050733 0.063153 -0.034077 1455970.000000 0 1 0
14.586618 -14.291436 10.514089 22.968688 -0.775177 1.095325 0.080773 -0.029064 -872951.000000 0 1 0
15.778318 -14.050136 9.850189 23.310681 -0.727526 1.134527 0.078731 -0.036609 -569725.000000 0 1 0
16.559218 -15.398936 9.589389 24.561989 -0.749108 1.169713 0.079625 -0.034976 292577.000000 0 1 0
17.074618 -15.960736 10.783289 25.740377 -0.751693 1.138535 0.081286 -0.034323 322697.000000 0 0 1
16.217918 -17.006036 11.240289 26.049380 -0.809115 1.124642 0.112458 -0.026658 247736.000000 0 0 1
16.876518 -17.859536 12.344189 27.498343 -0.813690 1.105255 0.095923 -0.025823 -260679.000000 0 0 1
17.906118 -18.687036 11.839489 28.460637 -0.806735 1.141759 0.120273 -0.024690 -208930.000000 0 0 1
18.320318 -19.517836 12.886189 29.709154 -0.817036 1.122152 0.101236 -0.016309 202003.000000 0 0 1
19.819818 -19.896436 12.663589 30.806815 -0.787327 1.147175 0.066390 -0.023248 690428.000000 0 0 1
20.693018 -18.766436 12.887089 30.764544 -0.736613 1.138569 0.071593 -0.033376 693855.000000 0 0 1
22.069718 -19.176436 12.825689 31.926579 -0.715366 1.157397 0.057592 -0.033582 917833.000000 0 0 1
22.884818 -18.339436 11.833689 31.624136 -0.675582 1.187265 0.061698 -0.031641 -810224.000000 0 0 1
22.702118 -18.670936 10.448089 31.195394 -0.688270 1.229272 0.044839 -0.021677 571372.000000 0 0 1
21.448118 -18.324236 9.827889 29.872844 -0.707015 1.235562 0.062838 -0.027679 751093.000000 0 0 1
21.116318 -16.780336 9.811889 28.701075 -0.671478 1.221896 0.117541 -0.045867 12919.500000 0 0 1
22.008718 -15.965536 9.040189 28.653220 -0.627583 1.249809 0.104540 -0.033811 75581.300000 0 0 1
21.996518 -14.596736 9.385289 28.017765 -0.585872 1.229216 0.122236 -0.037583 2850.120000 0 0 1
-35.745255 24.928563 8.257789 44.354792 -0.608976 1.383528 0.096111 -0.021224 -678005.000000 0 0 1
-34.789974 24.252863 8.953089 43.343989 -0.608792 1.362740 0.091386 -0.018964 -1333610.000000 0 0 1
-33.700834 25.024863 9.245589 42.982215 -0.638722 1.353999 0.094182 -0.019560 -944591.000000 0 0 1
-32.491854 24.400963 9.937689 41.831629 -0.644133 1.330939 0.112036 -0.021560 -62227.700000 0 0 1
-31.741634 23.461263 9.165389 40.521186 -0.636509 1.342634 0.120733 -0.020409 -59759.200000 0 0 1
-30.975724 22.660563 10.023289 39.666899 -0.631594 1.315340 0.116863 -0.019626 -248208.000000 0 0 1
-30.002084 21.735063 9.255089 38.186315 -0.626949 1.325992 0.101574 -0.020215 -440623.000000 0 0 1
-30.630564 20.914863 8.324489 38.012630 -0.599096 1.350014 0.115457 -0.027753 -287509.000000 0 0 1
-29.831404 19.897963 7.793789 36.695840 -0.588243 1.356777 0.114278 -0.030261 252637.000000 0 0 1
-30.658394 19.077963 6.692089 36.724512 -0.556638 1.387548 0.112205 -0.030038 289416.000000 0 0 1
-31.510204 18.092963 7.210489 37.043749 -0.521228 1.374898 0.122255 -0.033891 -407754.000000 0 0 1
-32.357564 17.662263 6.215189 37.384435 -0.499649 1.403770 0.095963 -0.026621 -397226.000000 0 0 1
-33.173794 16.435063 6.728289 37.628204 -0.459979 1.391020 0.098170 -0.025123 -140872.000000 0 0 1
-34.284715 16.700663 7.554389 38.877019 -0.453288 1.375237 0.085477 -0.029386 164289.000000 0 0 1
-35.064116 15.536063 7.719589 39.121011 -0.417081 1.372167 0.092362 -0.032415 -177286.000000 0 0 1
-36.086244 15.696963 8.855489 40.336476 -0.410297 1.349453 0.100523 -0.036292 310019.000000 0 0 1
36.448338 16.595663 8.627989 40.967542 0.427269 1.358602 0.110565 -0.034502 420875.000000 0 0 1
35.877768 17.052463 9.810489 40.917556 0.443688 1.328675 0.126366 -0.032512 -289274.000000 0 0 1
34.858378 18.170463 9.734289 40.497266 0.480515 1.328050 0.103888 -0.022541 984177.000000 0 0 1
33.651918 17.865763 8.962389 39.140279 0.488060 1.339765 0.106421 -0.027630 1566410.000000 0 0 1
32.779578 19.024063 8.988289 38.951316 0.525856 1.337941 0.090545 -0.017420 320340.000000 0 0 1
31.507198 18.994963 8.122489 37.676079 0.542532 1.353503 0.084146 -0.019084 -535995.000000 0 0 1
30.845318 20.231763 8.414689 37.836026 0.580519 1.346522 0.079083 -0.014183 370720.000000 0 0 1
29.502518 20.310263 7.923989 36.683715 0.602915 1.353072 0.059271 -0.014200 676142.000000 0 0 1
29.113518 19.976163 6.444889 35.891233 0.601368 1.390250 0.043515 -0.002309 -1060030.000000 0 0 1
29.200598 18.625263 6.013989 35.153142 0.567778 1.398871 0.048597 -0.007189 83682.300000 0 0 1
28.913318 18.344263 4.668089 34.558399 0.565371 1.435304 0.049205 -0.009936 -809457.000000 0 0 1
27.591618 18.718263 4.044389 33.586125 0.596084 1.450085 0.053960 -0.007817 -1626490.000000 0 0 1
26.470618 18.114663 4.624189 32.407063 0.600132 1.427617 0.051812 -0.016138 520943.000000 0 0 1
25.211618 18.541963 4.097089 31.562893 0.634126 1.440622 0.072976 -0.020160 506665.000000 0 0 1
24.637418 19.936663 4.453989 32.004857 0.680327 1.431177 0.084052 -0.019767 -491220.000000 0 0 1
25.420618 20.954463 3.847989 33.167821 0.689389 1.454519 0.074127 -0.016720 393374.000000 0 0 1
24.840318 22.213663 4.074789 33.572192 0.729634 1.449122 0.075561 -0.008423 -566706.000000 0 0 1
25.775118 23.394863 3.850089 35.021415 0.737027 1.460638 0.049698 0.000669 -715216.000000 0 0 1
26.905818 23.241263 4.660289 35.858020 0.712452 1.440463 0.049553 0.001858 -595611.000000 0 0 1
27.669118 24.388263 4.716089 37.183450 0.722458 1.443621 0.042634 -0.003023 -762670.000000 0 0 1
28.919768 24.247363 5.629889 38.157348 0.697742 1.422712 0.050874 -0.006769 843934.000000 0 0 1
29.873778 23.212963 5.193189 38.187085 0.660580 1.434380 0.045684 -0.009734 1113150.000000 0 0 1
30.415998 23.107463 3.850989 38.391638 0.649689 1.470319 0.048101 -0.013479 -329168.000000 0 0 1
31.418888 24.185563 3.439789 39.798494 0.656039 1.484258 0.081563 -0.024378 -439740.000000 0 0 1
30.788008 25.456763 3.488789 40.101369 0.690894 1.483687 0.060949 -0.021710 10380.000000 0 0 1
31.482768 26.420563 2.712089 41.189395 0.698195 1.504904 0.101967 -0.022985 -953.391000 0 0 1
30.733778 27.809963 2.679689 41.534803 0.735497 1.506235 0.080482 -0.013737 550487.000000 0 0 1
29.495738 27.944063 2.038589 40.681999 0.758391 1.520665 0.104702 -0.019431 441620.000000 0 0 1
28.295118 27.430763 2.630989 39.496614 0.769889 1.504134 0.076700 -0.016486 229929.000000 0 0 1
27.094118 28.240463 2.146689 39.194684 0.806112 1.515999 0.027271 -0.012429 -543338.000000 0 0 1
27.011118 29.572963 2.664689 40.140518 0.830642 1.504363 0.023434 -0.013593 612858.000000 0 0 1
25.861918 30.264063 2.149389 39.866931 0.863671 1.516856 0.020868 -0.006991 608000.000000 0 0 1
25.676018 31.723763 2.652289 40.898529 0.890373 1.505900 0.028010 -0.012816 -211237.000000 0 0 1
25.404918 31.785363 4.034389 40.890041 0.896504 1.471971 0.017474 -0.023946 -36948.400000 0 0 1
26.549518 31.664863 4.842689 41.605193 0.873044 1.454136 0.020037 -0.023214 -141436.000000 0 0 1
26.215218 31.473863 6.391389 41.457105 0.876302 1.416010 0.018011 -0.022019 139943.000000 0 0 1
25.667518 30.176363 6.667989 40.173330 0.865964 1.404044 0.030440 -0.026040 -209383.000000 0 0 1
26.564618 29.127663 6.515689 39.956900 0.831387 1.406997 0.043078 -0.029770 -590398.000000 0 0 1
26.142418 27.754063 7.034489 38.771098 0.815292 1.388349 0.064021 -0.028414 -568267.000000 0 0 1
24.999618 27.349063 6.351289 37.593763 0.830249 1.401037 0.040887 -0.028447 -373022.000000 0 0 1
24.547518 26.093363 6.724289 36.450792 0.815914 1.385258 0.053836 -0.026074 150797.000000 0 0 1
23.258818 25.711663 5.907689 35.170485 0.835445 1.402023 0.065157 -0.010099 380622.000000 0 0 1
23.473418 25.521263 4.482789 34.963289 0.827171 1.442228 0.042230 -0.011466 106755.000000 0 0 1
23.527218 26.687463 3.674089 35.766598 0.848250 1.467891 0.041710 -0.014951 -193221.000000 0 0 1
23.498818 26.438563 2.157589 35.437935 0.844199 1.509875 0.051687 -0.007171 -200274.000000 0 0 1
24.618018 25.687063 1.768789 35.623035 0.806646 1.521123 0.026889 0.006042 -21679.300000 0 0 1
24.689518 25.688863 0.318689 35.631328 0.805232 1.561852 0.041798 -0.002006 435253.000000 0 0 1
25.942018 24.928763 -0.245811 35.979048 0.765483 1.577628 0.052286 -0.007238 67881.700000 0 0 1
27.144518 25.696763 -0.206211 37.379018 0.758007 1.576313 0.056939 -0.002563 1095460.000000 0 0 1
28.280718 25.052663 -0.818711 37.790279 0.724946 1.592463 0.058832 -0.004712 597834.000000 0 0 1
28.882538 23.745563 -0.267111 37.391497 0.688097 1.577940 0.047046 -0.013017 -672747.000000 0 0 1
27.986018 22.643163 -0.245111 35.999862 0.680258 1.577605 0.040359 -0.010432 516707.000000 0 0 1
28.603578 21.582163 0.472089 35.835419 0.646392 1.557622 0.041667 -0.010379 672162.000000 0 0 1
27.500218 20.585263 0.986889 34.365520 0.642572 1.542075 0.045432 -0.009928 555567.000000 0 0 1
26.883618 19.743163 -0.000411 33.354481 0.633438 1.570809 0.061484 -0.028665 -204902.000000 0 0 1
25.688518 19.309663 0.559889 32.141507 0.644578 1.553376 0.054145 -0.018555 -1037530.000000 0 0 1
25.039118 18.232263 -0.312811 30.975324 0.629371 1.580895 0.062134 -0.027558 -1091240.000000 0 0 1
23.900418 17.698863 0.268689 29.741417 0.637410 1.561762 0.062585 -0.023810 -415816.000000 0 0 1
23.439118 16.552763 -0.491511 28.698916 0.614877 1.587924 0.082073 -0.053869 -235579.000000 0 0 1
22.035718 16.156963 -0.016511 27.324359 0.632673 1.571401 0.100438 -0.038721 -761735.000000 0 0 1
21.498018 15.116663 -0.847211 26.294410 0.612847 1.603022 0.110569 -0.048992 1027260.000000 0 0 1
20.074118 15.009763 -0.730111 25.075810 0.642039 1.599917 0.123461 -0.045300 1066670.000000 0 0 1
19.124418 16.095463 -1.380311 25.034227 0.699608 1.625961 0.141175 -0.045048 -194109.000000 0 0 1
19.141418 17.353163 -0.722311 25.846622 0.736437 1.598746 0.112441 -0.034029 57093.400000 0 0 1
18.225418 18.239363 -1.318111 25.818165 0.785781 1.621872 0.099873 -0.035737 16349.900000 0 0 1
18.194018 19.654563 -0.637411 26.790491 0.823968 1.594591 0.096659 -0.018712 77218.500000 0 0 1
17.584118 19.640563 0.662989 26.370295 0.840586 1.545652 0.084912 -0.012608 107808.000000 0 0 1
17.661118 20.887863 1.379089 27.388315 0.868909 1.520422 0.099288 -0.012288 71023.700000 0 0 1
16.776718 22.088063 0.913389 27.752028 0.921219 1.537878 0.094187 -0.019306 1390200.000000 0 0 1
15.382418 21.945663 1.298089 26.831249 0.959445 1.522398 0.063161 -0.017860 1017330.000000 0 0 1
14.616518 22.983363 0.745389 27.247627 1.004354 1.543437 0.045312 -0.015146 1444210.000000 0 0 1
13.083518 23.006763 1.178989 26.493010 1.053724 1.526280 0.027643 -0.021958 1500390.000000 0 0 1
12.950918 23.376463 2.549789 26.845609 1.064876 1.475673 0.033044 -0.001275 -399926.000000 0 0 1
11.665618 23.105563 3.033789 26.060651 1.103250 1.454119 0.020850 -0.010805 -68668.000000 0 0 1
11.391318 23.451563 4.526389 26.461786 1.118623 1.398897 0.043140 -0.014942 18152.500000 0 0 1
12.107818 22.682463 5.442889 26.281522 1.080479 1.362187 0.040051 -0.029233 93189.800000 0 0 1
11.457418 22.792163 6.676589 26.369147 1.104998 1.314813 0.043906 -0.010115 -185483.000000 0 0 1
11.929918 21.607863 7.590189 25.823122 1.066335 1.272461 0.045123 -0.017779 686562.000000 0 0 1
13.137318 21.765563 8.342189 26.756699 1.027747 1.253731 0.059164 -0.013873 451731.000000 0 0 1
14.307918 21.463863 7.620889 26.897804 0.982836 1.283534 0.049384 -0.016090 65409.400000 0 0 1
15.667518 21.577263 8.353289 27.943278 0.942759 1.267217 0.068772 -0.020400 -11646.700000 0 0 1
15.793018 20.575363 9.338889 27.567731 0.916145 1.225196 0.074803 -0.028531 1382850.000000 0 0 1
17.130918 20.511063 9.923589 28.507011 0.874955 1.215242 0.070954 -0.027580 1428910.000000 0 0 1
17.312518 21.558963 11.040689 29.772621 0.894210 1.190890 0.047460 -0.015530 -486885.000000 0 0 1
16.641018 21.185463 12.234289 29.587584 0.904964 1.144508 0.056005 -0.023451 -20762.600000 0 0 1
16.968418 21.896863 13.380289 30.764134 0.911533 1.120834 0.054771 -0.022212 -63796.300000 0 0 1
18.023018 21.180263 14.260889 31.253890 0.865760 1.096973 0.051248 -0.013871 1240230.000000 0 0 1
19.365318 21.210063 13.726289 31.832268 0.830832 1.124966 0.064757 -0.011537 984871.000000 0 0 1
20.319818 20.832463 14.747989 32.624985 0.797855 1.101739 0.062802 -0.010101 496401.000000 0 0 1
21.738318 21.270663 14.353389 33.630571 0.774525 1.129850 0.073424 -0.016457 -249701.000000 0 0 1
22.389018 20.739663 13.240389 33.267245 0.747174 1.161460 0.072896 -0.015184 696357.000000 0 0 1
23.624618 21.451363 12.974889 34.447515 0.737222 1.184612 0.082967 -0.016261 817859.000000 0 0 1
24.356818 20.933463 11.712289 34.185408 0.709955 1.221102 0.082455 -0.004423 -156041.000000 0 0 1
23.769318 21.253963 10.458389 33.557254 0.729588 1.253859 0.081742 -0.007406 46680.700000 0 0 1
24.461518 20.690863 9.389089 33.386114 0.702082 1.285723 0.089972 -0.015762 -744919.000000 0 0 1
24.404018 21.667563 8.171189 33.642350 0.726072 1.325459 0.088142 -0.018950 145879.000000 0 0 1
24.945018 22.966563 8.434789 34.940844 0.744128 1.326986 0.079261 -0.013891 -422764.000000 0 0 1
26.329318 23.051563 8.476989 36.006483 0.719118 1.333136 0.068878 -0.025250 -1062890.000000 0 0 1
26.720818 24.383963 9.202589 37.326497 0.739703 1.321685 0.088743 -0.030896 490395.000000 0 0 1
28.112918 24.700663 9.085789 38.509875 0.720878 1.332617 0.077806 -0.022568 740273.000000 0 0 1
28.365218 25.914863 9.785889 39.647564 0.740286 1.321397 0.093252 -0.024910 329645.000000 0 0 1
29.624978 26.695163 9.335189 40.956279 0.733424 1.340845 0.085308 -0.028170 262123.000000 0 0 1
29.473148 27.247363 8.042289 40.936092 0.746177 1.373050 0.076042 -0.029415 578723.000000 0 0 1
30.700898 27.821663 7.578289 42.119123 0.736239 1.389886 0.087489 -0.024206 357356.000000 0 0 1
30.633638 28.609263 6.306089 42.387220 0.751241 1.421469 0.117143 -0.015656 -5224.860000 0 0 1
30.463458 29.965563 6.533089 43.227751 0.777159 1.419083 0.107734 -0.016941 64644.800000 0 0 1
30.605548 30.644163 5.315189 43.635026 0.786029 1.448683 0.101559 -0.020383 50211.500000 0 0 1
30.814238 32.153863 5.490289 44.872390 0.806670 1.448136 0.048952 -0.007788 -310163.000000 0 0 1
29.707238 32.799063 6.038989 44.662824 0.834822 1.435168 0.044837 -0.012717 -366051.000000 0 0 1
29.818028 -33.921138 6.236589 45.592252 -0.849683 1.433576 0.027035 -0.003649 -482982.000000 0 0 1
28.490018 -33.385838 6.746889 44.405133 -0.864357 1.418266 0.055585 -0.016685 -549004.000000 0 0 1
27.413318 -33.478438 5.875689 43.667145 -0.884676 1.435831 0.041352 -0.015337 -923595.000000 0 0 1
26.293718 -32.813638 6.403589 42.533521 -0.895260 1.419668 0.034807 -0.024505 384589.000000 0 0 1
25.035118 -32.911938 5.475989 41.712579 -0.920501 1.439137 0.049300 -0.016510 335335.000000 0 0 1
25.232218 -32.176238 4.299889 41.115255 -0.905772 1.466023 0.023349 0.003042 13496.100000 0 0 1
24.098018 -32.203338 3.457789 40.369862 -0.928379 1.485039 0.033168 -0.011158 -115381.000000 0 0 1
24.426218 -31.651938 2.084489 40.035364 -0.913543 1.518707 0.027899 0.010776 -61046.300000 0 0 1
24.708518 -30.262438 2.167089 39.128280 -0.886090 1.515384 0.037090 0.020443 66141.800000 0 0 1
25.012818 -29.685838 0.922689 38.829646 -0.870623 1.547032 0.021181 0.028463 -50031.400000 0 0 1
25.368218 -28.144438 0.968789 37.902433 -0.837231 1.545233 0.036690 0.025559 1022570.000000 0 0 1
24.244718 -27.221738 1.048289 36.468182 -0.843178 1.542047 0.017802 0.028443 1039340.000000 0 0 1
23.605018 -26.863138 -0.197711 35.761210 -0.849867 1.576325 0.032907 0.018352 72643.400000 0 0 1
22.531718 -25.777638 -0.163211 34.237283 -0.852488 1.575563 0.029161 0.027899 -474217.000000 0 0 1
22.975918 -24.414038 -0.004111 33.525186 -0.815735 1.570919 0.040850 0.010850 -128344.000000 0 0 1
23.296418 -23.976138 1.332789 33.456757 -0.799776 1.530950 0.024295 0.019840 364291.000000 0 0 1
22.103818 -23.763038 2.334689 32.537847 -0.821557 1.498982 0.016020 0.015080 193799.000000 0 0 1
22.401418 -23.323338 3.633289 32.542317 -0.805558 1.458915 0.012358 0.005682 -661281.000000 0 0 1
21.320118 -23.341938 4.525089 31.935402 -0.830637 1.428623 0.033751 0.000719 -331802.000000 0 0 1
21.417518 -22.446238 5.769289 31.556748 -0.808846 1.386940 0.031659 -0.006622 -217251.000000 0 0 1
21.420018 -21.017538 5.580089 30.523621 -0.775914 1.386950 0.050410 -0.004507 90684.300000 0 0 1
20.232718 -20.387238 5.111189 29.174074 -0.789202 1.394691 0.036336 -0.000667 -385347.000000 0 0 1
19.984918 -18.918138 5.491689 28.061567 -0.757984 1.373824 0.041185 -0.002975 -37917.200000 0 0 1
19.605918 -18.775638 6.828289 27.991822 -0.763769 1.324371 0.073632 -0.012278 -399604.000000 0 0 1
18.211318 -18.688638 6.959789 27.006591 -0.798333 1.310148 0.054651 -0.004242 -305456.000000 0 0 1
19.229556 -26.405917 -11.627111 34.673304 -0.941375 1.912755 0.088556 -0.020977 271330.000000 0 0 1
19.576956 -25.205967 -12.303611 34.204924 -0.910438 1.938746 0.073416 -0.022336 282622.000000 0 0 1
18.363556 -24.560637 -12.684011 33.186281 -0.928780 1.962979 0.075436 -0.030623 336728.000000 0 0 1
18.573256 -23.172937 -13.365611 32.566708 -0.895138 1.993697 0.061199 -0.033254 -25421.600000 0 0 1
18.760156 -22.047137 -12.518811 31.539505 -0.865773 1.978960 0.060305 -0.026870 355898.000000 0 0 1
19.918356 -21.850137 -11.676011 31.788342 -0.831615 1.946906 0.052714 -0.028621 -139930.000000 0 0 1
20.043856 -22.717837 -10.410711 32.034969 -0.847849 1.901786 0.057245 -0.020286 208645.000000 0 0 1
19.130556 -22.539337 -9.292111 30.989405 -0.867021 1.875330 0.053257 -0.016906 1092480.000000 0 0 1
17.754356 -22.795937 -9.605511 30.448937 -0.909093 1.891741 0.069890 -0.018929 -125832.000000 0 0 1
16.703156 -22.121737 -8.799611 29.082638 -0.924067 1.878187 0.061215 -0.012053 -944118.000000 0 0 1
16.656556 -20.658237 -8.821911 27.964795 -0.892231 1.891743 0.056702 -0.018367 361572.000000 0 0 1
15.677256 -20.137937 -7.932211 26.725135 -0.909307 1.872144 0.058805 -0.017684 1192960.000000 0 0 1
14.151556 -20.073337 -8.303911 25.926056 -0.956727 1.896834 0.075327 -0.014819 827658.000000 0 0 1
13.525156 -21.327437 -8.437311 26.626634 -1.005632 1.893229 0.068971 -0.012303 -493472.000000 0 0 1
12.133156 -21.110537 -8.519111 25.796192 -1.049154 1.907361 0.067731 -0.011850 -404579.000000 0 0 1
11.335356 -22.306637 -8.072011 26.291324 -1.100641 1.882858 0.063669 -0.008798 -637235.000000 0 0 1
11.467056 -22.625337 -6.702911 26.236011 -1.101705 1.829146 0.056601 -0.010325 275266.000000 0 0 1
10.704956 -23.811337 -6.419411 26.884656 -1.148297 1.811902 0.040071 -0.006345 284787.000000 0 0 1
11.081756 -24.413037 -5.028411 27.277951 -1.144681 1.756196 0.048560 -0.010128 -157649.000000 0 0 1
10.227356 -25.343077 -4.463011 27.690953 -1.187228 1.732675 0.047560 -0.010200 -853481.000000 0 0 1
10.918556 -25.884367 -3.382411 28.295866 -1.171622 1.690620 0.036363 -0.011825 -525328.000000 0 0 1
10.184756 -26.809127 -2.420611 28.780513 -1.207738 1.655002 0.046276 -0.016634 -226955.000000 0 0 1
9.444356 -26.016167 -1.510111 27.718536 -1.222571 1.625304 0.034196 -0.013101 -221424.000000 0 0 1
8.688556 -26.860567 -0.651011 28.238359 -1.257950 1.593853 0.033077 -0.019210 -182598.000000 0 0 1
7.967256 -26.149027 0.426089 27.339173 -1.275046 1.555210 0.050632 -0.020774 -412777.000000 0 0 1
6.668056 -25.699627 0.129989 26.550908 -1.316933 1.565900 0.049472 -0.030307 -272414.000000 0 0 1
6.057656 -25.169537 1.290089 25.920361 -1.334614 1.521005 0.056195 -0.032272 -564794.000000 0 0 1
4.655956 -24.595237 1.188389 25.060245 -1.383707 1.523357 0.064840 -0.040783 -303656.000000 0 0 1
3.735056 -25.576887 0.746089 25.858934 -1.425789 1.541940 0.073589 -0.044003 -943505.000000 0 0 1
2.442756 -25.068807 0.787089 25.199835 -1.473661 1.539557 0.073060 -0.044930 -1247890.000000 0 0 1
1.420856 -26.032817 0.254889 26.072809 -1.516271 1.561020 0.076797 -0.036210 -499988.000000 0 0 1
0.933956 -27.020207 1.174689 27.061851 -1.536245 1.527375 0.077088 -0.030906 -44350.300000 0 0 1
1.569156 -28.232677 1.009389 28.294261 -1.515274 1.535114 0.057142 -0.033979 -255917.000000 0 0 1
0.729456 -29.338057 1.701789 29.396425 -1.545938 1.512873 0.084764 -0.027147 321638.000000 0 0 1
0.929956 -29.372987 3.129089 29.553822 -1.539147 1.464720 0.076605 -0.021262 320404.000000 0 0 1
0.111456 -30.371857 3.744389 30.602003 -1.567127 1.448131 0.095503 -0.012594 184552.000000 0 0 1
0.508756 -30.368377 5.196389 30.813952 -1.554045 1.401349 0.080913 -0.009515 60428.200000 0 0 1
1.834556 -30.706957 5.553889 31.259055 -1.511123 1.392175 0.048339 0.003707 2802.120000 0 0 1
1.940356 -30.668417 6.961789 31.508464 -1.507612 1.348008 0.050325 0.001348 719816.000000 0 0 1
3.384556 -31.033267 7.446389 32.093108 -1.462163 1.336638 0.036093 0.005193 779194.000000 0 0 1
3.873656 -32.323857 7.241689 33.350847 -1.451526 1.351916 0.040128 0.000959 37809.700000 0 0 1
5.213856 -32.546647 7.653689 33.838551 -1.411950 1.342639 0.029318 -0.002011 434296.000000 0 0 1
5.374156 34.029640 7.565789 35.272356 1.414164 1.354620 0.034150 -0.000466 -105289.000000 0 0 1
5.360556 33.574620 6.187589 34.558312 1.412472 1.390778 0.025771 -0.004523 -27582.200000 0 0 1
5.366456 32.164324 6.209389 33.194865 1.405474 1.382629 0.024330 -0.012781 -256586.000000 0 0 1
5.691756 31.646944 4.796089 32.510423 1.392847 1.422731 0.036216 -0.018770 -800623.000000 0 0 1
6.998156 31.781964 4.376089 32.836223 1.354062 1.437128 0.032119 -0.015317 -739271.000000 0 0 1
7.724656 30.546164 4.553789 31.835129 1.323105 1.427261 0.032565 -0.013191 -821276.000000 0 0 1
9.188756 30.596384 4.215789 32.223358 1.279044 1.439590 0.006071 -0.001912 -715014.000000 0 0 1
10.044756 31.391694 5.042389 33.343084 1.261110 1.418986 0.013361 -0.016568 -447166.000000 0 0 1
11.234656 31.735614 4.426489 33.955272 1.230556 1.440062 0.018077 -0.013911 -111552.000000 0 0 1
12.422456 31.972984 5.412089 34.725780 1.200217 1.414306 0.030930 -0.028524 305645.000000 0 0 1
12.783256 30.841934 6.188089 33.954808 1.177873 1.387527 0.032341 -0.019070 875520.000000 0 0 1
13.986856 31.145994 6.958489 34.844306 1.148713 1.369742 0.050617 -0.021502 1079300.000000 0 0 1
14.509356 29.995404 7.863689 34.235702 1.120258 1.339034 0.040598 -0.011606 -33795.800000 0 0 1
13.785856 29.750104 9.045889 34.013918 1.136864 1.301610 0.035391 -0.007145 470926.000000 0 0 1
14.392356 28.569194 9.614689 33.403308 1.104136 1.278829 0.024373 -0.005296 328707.000000 0 0 1
14.222856 28.534034 11.149989 33.775775 1.108388 1.234368 0.023534 -0.007573 -127690.000000 0 0 1
14.953556 29.573324 11.740189 35.157110 1.102644 1.230321 0.029031 -0.009933 33229.500000 0 0 1
14.491156 29.865674 13.021089 35.658110 1.119050 1.196986 0.034019 -0.008265 -415825.000000 0 0 1
15.287356 30.953744 13.671889 37.131631 1.112059 1.193723 0.032572 -0.011720 374897.000000 0 0 1
16.467356 30.512234 14.371689 37.532861 1.075898 1.177853 0.029347 -0.014344 389248.000000 0 0 1
17.135856 31.664824 14.822289 38.935830 1.074762 1.180259 0.032341 -0.013740 -415367.000000 0 0 1
18.359556 31.304594 15.692889 39.538812 1.040376 1.162661 0.048904 -0.012598 -975746.000000 0 0 1
19.462556 30.895774 15.003689 39.477216 1.008651 1.180936 0.033863 -0.011940 -927148.000000 0 0 1
19.651356 29.513564 15.048389 38.518570 0.983365 1.169427 0.032031 -0.012255 592759.000000 0 0 1
20.983256 28.976684 14.404989 38.567460 0.944050 1.188016 0.059277 -0.025037 2206450.000000 0 0 1
22.224056 29.049884 15.174789 39.598973 0.917745 1.177525 0.082800 -0.025460 1790970.000000 0 0 1
23.414356 28.901654 14.394089 39.883925 0.889904 1.201564 0.090105 -0.025077 -80899.500000 0 0 1
24.707356 29.088234 15.154589 41.063857 0.866654 1.192810 0.100088 -0.023748 -664959.000000 0 0 1
25.019656 27.962144 15.940489 40.767191 0.840879 1.169065 0.101941 -0.020422 -570355.000000 0 0 1
25.976756 28.248024 16.889289 41.928401 0.827260 1.156209 0.086347 -0.023687 -498682.000000 0 0 1
26.897956 27.070324 17.325989 41.910528 0.788592 1.144607 0.057296 -0.012889 119417.000000 0 0 1
26.253756 25.960124 17.965189 41.060148 0.779775 1.117943 0.064901 -0.015930 1774.890000 0 0 1
26.217256 26.018494 19.410389 41.726128 0.781593 1.086952 0.086664 -0.012560 83581.600000 0 0 1
25.508156 24.819104 20.056389 40.852328 0.771708 1.057618 0.081171 -0.011713 63404.000000 0 0 1
26.313656 23.662194 19.978489 40.638011 0.732393 1.056846 0.060237 -0.010780 99823.000000 0 0 1
25.542856 22.517064 20.075789 39.528382 0.722522 1.038071 0.058091 -0.009986 12974.200000 0 0 1
26.483256 21.314464 20.057889 39.471358 0.677678 1.037746 0.037857 -0.014536 38002.600000 0 0 1
25.733856 20.127964 20.198589 38.410276 0.663767 1.017066 0.021803 0.003711 3312.850000 0 0 1
26.496256 18.946164 20.171989 38.313416 0.620756 1.016319 0.035423 -0.016254 157685.000000 0 0 1
27.172156 18.534864 21.517989 39.305103 0.598630 0.991470 0.055441 -0.009963 -50981.400000 0 0 1
26.214856 18.052264 22.409589 38.926759 0.603052 0.957354 0.030769 0.003931 99958.300000 0 0 1
26.851256 17.551864 23.585389 39.816183 0.578951 0.936815 0.063934 0.001578 -99885.900000 0 0 1
25.822756 16.947064 24.527589 39.441353 0.580780 0.899662 0.042234 0.007785 -63258.300000 0 0 1
25.403956 15.645264 24.078089 38.339140 0.551999 0.891779 0.045307 -0.002859 54596.700000 0 0 1
24.332856 15.133964 24.814089 37.905986 0.556407 0.857114 0.043401 -0.007139 -256616.000000 0 0 1
23.886256 13.736764 24.284289 36.728444 0.521902 0.848399 0.048834 -0.004373 -93670.500000 0 0 1
22.680656 13.270264 24.836789 36.157685 0.529385 0.813579 0.029120 -0.006195 -91461.300000 0 0 1
22.335956 11.966164 24.395189 35.173986 0.491826 0.804380 0.047652 -0.008136 1117000.000000 0 0 1
20.882456 11.636964 24.937789 34.545466 0.508400 0.764277 0.055111 -0.016731 614317.000000 0 0 1
19.845856 12.431864 24.493589 33.887242 0.559621 0.762955 0.076801 -0.023887 -327826.000000 0 0 1
18.622156 11.716264 24.580289 32.988576 0.561583 0.730089 0.085898 -0.024452 -270250.000000 0 0 1
17.367856 12.568964 24.669789 32.683631 0.626450 0.715439 0.085087 -0.034495 -542428.000000 0 0 1
17.260356 13.232464 25.905289 33.824577 0.654065 0.698400 0.089561 -0.016060 246479.000000 0 0 1
16.010456 13.889264 26.037289 33.573602 0.714573 0.683244 0.098039 -0.020737 133620.000000 0 0 1
15.673356 14.253164 27.503889 34.717008 0.737978 0.656340 0.086094 -0.006771 -75386.200000 0 0 1
15.209856 13.135964 28.262089 34.679085 0.712364 0.618135 0.084375 -0.004406 64908.400000 0 0 1
15.442256 13.232964 29.650789 35.954748 0.708505 0.601178 0.069854 -0.003919 -1081330.000000 0 0 1
16.818956 12.923464 30.188889 36.895287 0.655165 0.612468 0.066826 0.007918 -725091.000000 0 0 1
17.745756 13.945964 29.890889 37.454866 0.666069 0.646743 0.089770 -0.010527 324915.000000 0 0 1
19.106456 13.560264 30.053889 38.107396 0.617221 0.662165 0.074787 -0.000152 553040.000000 0 0 1
20.042856 14.788764 29.748289 38.799282 0.635684 0.697076 0.073268 -0.004113 -212600.000000 0 0 1
19.888956 15.440564 28.476089 38.011435 0.660146 0.724025 0.086339 -0.015230 242334.000000 0 0 1
20.234956 14.715164 27.343989 37.063233 0.628759 0.741042 0.077246 -0.014278 -671699.000000 0 0 1
19.911256 15.512264 26.062189 36.281209 0.661848 0.769385 0.061845 -0.021148 -142203.000000 0 0 1
20.757956 16.608264 25.742389 37.005375 0.674797 0.801487 0.052823 -0.015738 325591.000000 0 0 1
20.688656 16.921264 24.385089 36.179859 0.685561 0.831191 0.041215 -0.017466 -343728.000000 0 0 1
21.815256 17.934664 24.082789 37.115203 0.688081 0.864703 0.032360 -0.010705 -248178.000000 0 0 1
21.917056 18.351064 22.758989 36.538890 0.697072 0.898390 0.037318 -0.011206 -305580.000000 0 0 1
23.139856 18.940264 22.394789 37.359244 0.685928 0.927990 0.040188 -0.006809 -244263.000000 0 0 1
23.349956 20.403564 22.962889 38.585232 0.718159 0.933380 0.050357 -0.016117 -251145.000000 0 0 1
22.261856 21.181964 22.532589 38.104900 0.760546 0.938089 0.049427 -0.011536 72215.500000 0 0 1
22.234456 22.329464 23.352789 39.221534 0.787530 0.933024 0.068001 -0.018524 -20729.800000 0 0 1
21.414256 23.457924 22.637189 39.003678 0.830911 0.951594 0.082795 -0.030285 -295226.000000 0 0 1
22.055356 24.222884 21.710789 39.300702 0.832201 0.985523 0.087661 -0.023892 -132395.000000 0 0 1
21.295556 25.411744 21.440489 39.483566 0.873298 0.996763 0.088492 -0.027724 139043.000000 0 0 1
21.919456 26.273414 20.292589 39.781201 0.875498 1.035489 0.087791 -0.026438 7554.150000 0 0 1
21.765756 25.699174 19.012489 38.673898 0.868079 1.056858 0.084660 -0.027393 -23332.300000 0 0 1
22.044456 26.577484 18.011389 38.945228 0.878360 1.090006 0.080451 -0.029705 -352877.000000 0 0 1
21.840856 26.003894 16.616789 37.806655 0.872191 1.115732 0.063558 -0.015219 -116915.000000 0 0 1
20.540156 25.733444 16.171489 36.682764 0.897161 1.114254 0.059064 -0.014377 -418645.000000 0 0 1
20.688456 25.395554 14.802389 35.945196 0.887187 1.146363 0.066200 -0.010460 74891.900000 0 0 1
19.418756 24.786004 14.112889 34.505184 0.906225 1.149430 0.055001 -0.013461 602383.000000 0 0 1
18.327156 25.613904 13.808589 34.389444 0.949733 1.157603 0.043636 -0.008136 -164461.000000 0 0 1
17.561556 25.966764 14.970789 34.739108 0.976148 1.125252 0.052377 -0.016618 367443.000000 0 0 1
16.047856 26.205444 14.581989 34.013135 1.021319 1.127725 0.046440 -0.015441 1046690.000000 0 0 1
15.084556 25.170634 14.443289 32.706471 1.030898 1.113411 0.059352 -0.017070 570208.000000 0 0 1
14.784156 24.262454 15.526489 32.377612 1.023535 1.070661 0.075214 -0.023297 -137466.000000 0 0 1
13.873956 24.823014 16.624389 32.939930 1.061134 1.041776 0.089989 -0.030645 -541426.000000 0 0 1
14.605956 25.756044 17.350789 34.318473 1.054928 1.040740 0.082972 -0.029149 34780.000000 0 0 1
13.821856 26.473524 18.265889 35.007626 1.089625 1.021873 0.086950 -0.039145 -333426.000000 0 0 1
14.450256 27.798614 18.823289 36.549816 1.091419 1.029784 0.099841 -0.040671 -294690.000000 0 0 1
14.663356 28.802244 17.826389 36.910207 1.099892 1.066757 0.089299 -0.041649 288965.000000 0 0 1
15.197856 29.988514 18.378389 38.315153 1.101732 1.070525 0.057278 -0.039185 -293647.000000 0 0 1
14.755756 31.229814 17.630289 38.779643 1.129398 1.098842 0.052665 -0.025034 709887.000000 0 0 1
13.361656 31.542154 17.789689 38.599409 1.170101 1.091810 0.061911 -0.033374 736626.000000 0 0 1
13.239756 32.815220 17.196689 39.342800 1.187307 1.118426 0.053315 -0.028883 421480.000000 0 0 1
11.863656 33.451940 17.571789 39.604878 1.229987 1.111098 0.072179 -0.035173 111965.000000 0 0 1
11.505756 -33.422547 17.103289 39.267946 -1.239252 1.120143 0.072852 -0.024229 -254764.000000 0 0 1
12.257456 -32.297797 17.549989 38.747839 -1.208074 1.100749 0.061489 -0.029978 -116993.000000 0 0 1
12.413556 -31.977847 19.030189 39.227888 -1.200510 1.064297 0.074865 -0.044002 -461407.000000 0 0 1
13.375956 -32.790117 19.627689 40.488939 -1.183476 1.064700 0.083175 -0.037563 62518.300000 0 0 1
13.122356 -32.818647 21.018489 41.122217 -1.190424 1.034306 0.081691 -0.038968 -369016.000000 0 0 1
14.265156 -33.552357 21.717589 42.437119 -1.168789 1.033565 0.085931 -0.040459 -330958.000000 0 0 1
15.412556 -32.738867 21.701989 42.194273 -1.130803 1.030564 0.099273 -0.041401 -1122220.000000 0 0 1
16.523956 -33.343817 22.258389 43.362278 -1.110705 1.031756 0.112922 -0.037790 -189260.000000 0 0 1
17.781156 -32.555857 21.768889 43.010904 -1.070895 1.040111 0.119665 -0.039426 141085.000000 0 0 1
17.967756 -31.308637 22.345889 42.454797 -1.049796 1.016500 0.131453 -0.033139 857816.000000 0 0 1
19.178556 -30.598217 21.967589 42.268699 -1.010913 1.024281 0.126030 -0.030190 792261.000000 0 0 1
-4.653844 13.416863 18.501990 23.323681 -1.236917 0.654634 0.009451 0.007927 -597434.000000 0 1 0
-4.383244 14.663663 17.937690 23.579579 -1.280332 0.706359 0.009344 0.001093 927252.000000 0 1 0
-5.595744 15.312363 17.453390 23.883082 -1.220434 0.751326 0.005782 -0.009730 968877.000000 0 1 0
-5.441044 16.823663 17.298290 24.736035 -1.257998 0.796357 0.012405 -0.012773 -199848.000000 0 1 0
-5.272344 17.404263 18.572990 25.993498 -1.276650 0.774852 0.020548 -0.003048 238887.000000 0 0 1
-4.754044 18.734263 18.502290 26.756462 -1.322280 0.807223 0.029093 -0.009629 -136107.000000 0 0 1
-4.057444 19.202063 19.788790 27.870742 -1.362557 0.781269 0.025280 -0.009949 163380.000000 0 0 1
-5.071044 19.417163 20.769690 28.881165 -1.315339 0.768228 0.027906 -0.010263 -143956.000000 0 0 1
-4.583844 19.932263 22.019390 30.052625 -1.344755 0.748524 0.028134 -0.007206 -359353.000000 0 0 1
-5.483944 20.332263 23.224210 31.350255 -1.307349 0.736539 0.033926 -0.003907 120983.000000 0 0 1
-6.103344 19.213663 23.919590 31.281982 -1.263221 0.700307 0.028067 -0.008765 -46464.800000 0 0 1
-6.693544 19.441363 25.166250 32.497850 -1.239214 0.685034 0.021766 -0.007454 -284006.000000 0 0 1
-5.805344 19.966963 26.278670 33.510448 -1.287850 0.669401 0.021779 -0.010151 -732934.000000 0 0 1
-5.512944 21.340463 26.175940 34.219698 -1.317990 0.699852 0.030627 -0.012202 -180146.000000 0 0 1
-4.442744 21.907663 26.899790 34.975454 -1.370716 0.693357 0.038676 -0.015499 -148485.000000 0 0 1
-3.046944 21.630363 26.330260 34.211680 -1.430853 0.692538 0.039360 -0.008723 -596343.000000 0 0 1
-2.571144 20.316863 26.647510 33.607670 -1.444913 0.655243 0.043887 -0.009394 212107.000000 0 0 1
-1.273044 20.106063 26.096230 32.967979 -1.507564 0.657434 0.040656 -0.004779 678260.000000 0 0 1
-0.583544 18.888063 26.794280 32.787694 -1.539911 0.614251 0.043329 -0.005112 73815.400000 0 0 1
-1.133744 17.671263 26.274520 31.684528 -1.506727 0.593025 0.046091 -0.004911 49163.000000 0 0 1
-0.496044 16.537063 26.825430 31.517046 -1.540809 0.552642 0.045562 -0.002368 -47455.600000 0 0 1
0.948556 16.211963 26.387800 30.984568 1.512353 0.551684 0.042417 0.003899 -330773.000000 0 0 1
1.113856 15.908263 25.018060 29.668448 1.500893 0.567486 0.032695 0.001796 -178654.000000 0 0 1
0.542656 14.692163 24.534180 28.602100 1.533878 0.539870 0.037186 -0.000265 -301651.000000 0 0 1
0.892256 14.323363 23.056490 27.157993 1.508583 0.556751 0.025484 -0.004121 -378141.000000 0 0 1
2.253856 14.225863 22.748690 26.925043 1.413669 0.564437 0.027669 -0.004725 -503854.000000 0 0 1
2.447156 13.628563 21.486090 25.561267 1.393129 0.572458 0.024004 -0.012457 -251779.000000 0 0 1
3.934756 13.596063 21.133490 25.435401 1.289089 0.590129 0.024440 -0.011767 -163502.000000 0 0 1
4.406856 14.771263 20.484690 25.636558 1.280863 0.645096 0.024970 -0.007801 -259057.000000 0 0 1
5.768256 14.656163 20.140090 25.567540 1.195844 0.663696 0.031729 -0.010496 68184.900000 0 0 1
6.289056 15.815563 19.255190 25.699156 1.192318 0.723862 0.045549 -0.019645 79647.900000 0 0 1
5.766656 15.725863 17.941890 24.545234 1.219323 0.751050 0.046937 -0.027545 218300.000000 0 1 0
6.402056 16.680163 17.065190 24.706980 1.204322 0.808335 0.044851 -0.016206 298034.000000 0 1 0
6.658256 16.136863 15.656690 23.449150 1.179465 0.839699 0.041699 -0.014865 384430.000000 0 1 0
7.817756 15.314863 15.540990 23.177245 1.098809 0.835876 0.040403 -0.001897 262141.000000 0 1 0
7.750056 13.955863 15.959290 22.572736 1.063873 0.785526 0.036492 -0.010316 -248405.000000 0 1 0
8.851356 13.145063 15.246990 21.991132 0.978174 0.804704 0.035427 -0.012562 497846.000000 0 1 0
10.176556 13.562563 15.573790 23.022779 0.927077 0.827863 0.033741 -0.012286 371279.000000 0 1 0
11.078756 12.938163 14.669390 22.479455 0.862665 0.859827 0.036113 -0.002110 86572.600000 0 1 0
12.487256 13.556763 14.597190 23.511600 0.826440 0.900969 0.031947 0.000042 -1148220.000000 0 1 0
13.066656 13.565863 15.901990 24.650424 0.804140 0.869642 0.028755 -0.001500 -170308.000000 0 1 0
14.382856 14.060863 15.834190 25.598750 0.774078 0.903896 0.026701 -0.001480 56655.600000 0 0 1
15.472656 13.221763 15.147490 25.370545 0.707115 0.930977 0.031095 -0.002265 -1099340.000000 0 0 1
16.798056 13.704763 15.163790 26.456299 0.684334 0.960435 0.037266 -0.018242 294690.000000 0 0 1
17.596456 13.106963 14.176190 26.122636 0.640206 0.997174 0.044000 -0.012868 1587170.000000 0 0 1
19.125356 13.615063 14.106790 27.388879 0.618658 1.029724 0.055033 -0.018285 1716840.000000 0 0 1
19.748256 13.148463 15.253190 28.205239 0.587405 0.999417 0.035143 -0.019862 -213082.000000 0 0 1
21.076356 13.619263 15.382790 29.433439 0.573690 1.020864 0.061818 -0.020461 377844.000000 0 0 1
21.814556 13.118163 16.665990 30.425586 0.541411 0.991109 0.070936 -0.013073 165298.000000 0 0 1
22.153956 11.734863 16.711890 30.129588 0.487121 0.982834 0.071640 -0.011247 272171.000000 0 0 1
23.340856 11.549963 17.452490 31.349428 0.459510 0.980378 0.060016 -0.013520 -64345.500000 0 0 1
23.713356 10.101863 17.690190 31.262017 0.402716 0.969310 0.075264 -0.007487 304846.000000 0 0 1
22.610756 9.327163 18.193790 30.483705 0.391244 0.931244 0.056042 -0.006612 788922.000000 0 0 1
22.606056 8.077763 17.592090 29.761816 0.343188 0.938379 0.045116 0.007211 -393823.000000 0 0 1
21.346356 7.315663 17.991890 28.859902 0.330168 0.897685 0.081474 0.006121 -409628.000000 0 0 1
21.329956 5.927763 17.493690 28.215857 0.271068 0.902060 0.087668 -0.010029 -24895.100000 0 0 1
20.175556 5.265763 17.903290 27.482888 0.255302 0.861323 0.085432 -0.010627 -667295.000000 0 0 1
20.016456 3.795963 17.390590 26.786199 0.187416 0.864216 0.118949 0.001048 -765344.000000 0 0 1
19.049556 3.754263 16.369390 25.395610 0.194585 0.870328 0.109108 -0.013092 264400.000000 0 0 1
18.859956 2.451563 15.897190 24.787674 0.129263 0.874560 0.077446 -0.024957 -234216.000000 0 1 0
17.841256 1.592863 16.656090 24.459619 0.089044 0.821720 0.091577 -0.017057 -314638.000000 0 1 0
18.493756 0.868763 17.668790 25.592185 0.046941 0.808757 0.105027 -0.026273 -36579.800000 0 0 1
17.547656 0.191363 18.445490 25.459634 0.010905 0.760488 0.092710 -0.022228 -479662.000000 0 0 1
17.971256 -0.471637 19.784590 26.732349 -0.026238 0.737578 0.099479 -0.020020 -270709.000000 0 0 1
18.682356 -1.676037 19.609990 27.136530 -0.089473 0.763180 0.093421 -0.012586 -300016.000000 0 0 1
17.996456 -2.750437 20.137290 27.146782 -0.151659 0.735056 0.064655 -0.020185 -191656.000000 0 0 1
18.153656 -4.009437 19.250590 26.762213 -0.217372 0.767974 0.061784 -0.006018 76240.800000 0 0 1
17.708456 -3.902237 17.906390 25.484421 -0.216894 0.791694 0.069392 -0.013357 226726.000000 0 0 1
17.548156 -5.180237 17.304590 25.183754 -0.287048 0.813261 0.086825 -0.022413 -303980.000000 0 0 1
17.198256 -5.135137 15.804890 23.915355 -0.290158 0.848822 0.060880 -0.023702 -80839.600000 0 1 0
15.865156 -4.669837 15.612590 22.743428 -0.286261 0.814179 0.053595 -0.024861 440848.000000 0 1 0
15.436656 -4.821337 14.283090 21.576430 -0.302730 0.847344 0.045723 -0.026576 221910.000000 0 1 0
15.875256 -3.610237 13.356590 21.058397 -0.223610 0.883740 0.045800 -0.026891 -407619.000000 0 1 0
14.981556 -2.548637 13.484090 20.316576 -0.168505 0.845043 0.038543 -0.022651 175835.000000 0 1 0
15.594656 -1.330137 13.100690 20.410553 -0.085088 0.873877 0.051644 -0.015291 362483.000000 0 1 0
14.563956 -0.158837 13.124090 19.605504 -0.010906 0.837384 0.054476 -0.010626 146189.000000 0 1 0
15.036756 1.088263 12.562690 19.624208 0.072248 0.876086 0.058971 -0.011633 175260.000000 0 1 0
15.876356 1.832763 13.394790 20.852772 0.114931 0.873235 0.073771 -0.021509 -153553.000000 0 1 0
16.160256 3.228863 12.942290 20.954291 0.197206 0.905053 0.075065 -0.020350 -196930.000000 0 1 0
15.110056 4.059663 13.350490 20.567699 0.262474 0.864396 0.062286 -0.013135 84824.700000 0 1 0
15.226256 5.355363 12.841590 20.625839 0.338205 0.898739 0.067251 -0.012572 -1154280.000000 0 1 0
14.059056 6.238263 13.035690 20.161900 0.417618 0.867742 0.043141 -0.006223 -1324150.000000 0 1 0
14.176756 7.426063 12.263190 20.162159 0.482521 0.916970 0.034658 -0.012466 280746.000000 0 1 0
13.102356 8.346863 12.291590 19.809721 0.567218 0.901438 0.013393 -0.010654 -856211.000000 0 1 0
13.254056 9.327963 13.493690 21.089347 0.613260 0.876514 0.007803 -0.011072 -194025.000000 0 1 0
13.035256 8.717063 14.743090 21.523564 0.589429 0.816228 0.025705 -0.009216 564338.000000 0 1 0
13.491056 9.697463 15.674290 22.841470 0.623237 0.814516 0.042847 -0.017762 -282769.000000 0 1 0
13.100156 9.421963 17.155790 23.552253 0.623513 0.754792 0.050590 -0.014653 400299.000000 0 1 0
11.731256 9.697263 17.454290 23.158401 0.690762 0.717135 0.029334 -0.024851 398383.000000 0 1 0
11.139456 8.992463 18.583390 23.458352 0.679153 0.656413 0.045218 -0.013911 284465.000000 0 1 0
11.693456 9.180763 20.063890 24.971644 0.665601 0.637700 0.079229 -0.018059 352705.000000 0 1 0
13.081156 8.844663 20.151290 25.601156 0.594531 0.664664 0.101944 -0.024966 523056.000000 0 0 1
13.583856 8.926763 21.490990 26.945703 0.581392 0.647546 0.102422 -0.014467 -1677150.000000 0 0 1
15.024456 8.623363 21.572590 27.667188 0.521049 0.676582 0.109909 -0.018462 -1927470.000000 0 0 1
15.843656 9.640763 21.083490 28.079874 0.546641 0.721463 0.098111 -0.015776 569363.000000 0 0 1
17.061156 9.020863 20.597290 28.226005 0.486372 0.752873 0.091477 -0.017303 261224.000000 0 0 1
17.945356 9.888963 19.763690 28.468067 0.503656 0.803432 0.086243 -0.012632 -609730.000000 0 0 1
18.705156 10.790663 20.515490 29.786014 0.523247 0.811016 0.086728 -0.023635 -215173.000000 0 0 1
19.598456 11.461963 19.665890 30.037032 0.529198 0.856982 0.077269 -0.022618 -74372.600000 0 0 1
20.601156 12.339663 20.406590 31.513550 0.539669 0.866432 0.062596 -0.016313 -585727.000000 0 0 1
19.912156 13.462463 20.846890 31.817050 0.594500 0.856334 0.051752 -0.017851 355552.000000 0 0 1
20.692756 14.275663 21.682190 33.197923 0.603906 0.859101 0.040927 -0.013578 543327.000000 0 0 1
21.997656 15.000963 21.188190 34.027418 0.598498 0.898633 0.024426 -0.009609 991909.000000 0 0 1
23.109056 14.182863 20.845390 34.201058 0.550458 0.915372 -0.001178 0.004223 -345817.000000 0 0 1
24.263456 14.918963 20.615690 35.161022 0.551284 0.944285 0.006331 -0.000761 -261486.000000 0 0 1
25.548256 14.067263 20.558090 35.682438 0.503316 0.956798 0.013807 -0.008597 58324.400000 0 0 1
25.878556 13.345763 19.346390 34.958431 0.476134 0.984342 0.026189 -0.012766 159290.000000 0 0 1
27.027356 12.533663 19.526090 35.620765 0.434221 0.990627 0.056203 -0.020984 334885.000000 0 0 1
27.478956 11.849463 18.181290 35.015170 0.407127 1.024834 0.083259 -0.024972 -301983.000000 0 0 1
27.888956 12.698163 17.130890 35.107045 0.427262 1.061043 0.095084 -0.037070 253195.000000 0 0 1
28.228856 11.918563 15.966290 34.552032 0.399507 1.090441 0.122558 -0.044689 670566.000000 0 0 1
26.995456 11.529163 15.049190 32.987185 0.403629 1.097061 0.104601 -0.041459 613696.000000 0 0 1
26.522456 12.600263 14.278390 32.650877 0.443513 1.118197 0.119521 -0.039347 -225133.000000 0 0 1
25.460556 12.164863 13.475190 31.269867 0.445724 1.125271 0.109275 -0.031563 -53611.300000 0 0 1
24.863156 13.220663 12.509490 30.813143 0.488714 1.152746 0.100271 -0.031546 -133082.000000 0 0 1
24.145956 14.237663 13.113990 30.946971 0.532774 1.133207 0.076063 -0.021032 -23927.800000 0 0 1
23.670656 15.166463 12.188490 30.641163 0.569830 1.161699 0.053197 -0.014895 -137778.000000 0 0 1
22.887856 16.362763 12.729490 30.880963 0.620663 1.145916 0.052696 -0.007262 -318176.000000 0 0 1
21.560156 16.073963 13.159490 29.939686 0.640641 1.115717 0.058229 -0.018684 318088.000000 0 0 1
20.869656 17.266463 13.472390 30.251919 0.691195 1.109242 0.047982 -0.014456 -881882.000000 0 0 1
20.366356 18.085463 12.262490 29.870405 0.726149 1.147769 0.064155 -0.015758 -460829.000000 0 0 1
19.201356 17.609863 11.586290 28.513882 0.742191 1.152353 0.061947 -0.019842 1013460.000000 0 0 1
18.015656 17.861363 12.400190 28.237508 0.781098 1.116156 0.047299 -0.026882 -8320.530000 0 0 1
16.722656 17.374163 11.721090 26.812175 0.804503 1.118363 0.055109 -0.010097 -529089.000000 0 0 1
16.458056 16.027563 12.123190 25.975414 0.772147 1.085220 0.046203 0.004315 1072560.000000 0 0 1
15.317156 15.510763 11.374390 24.588123 0.791678 1.089874 0.049265 0.000025 896788.000000 0 1 0
15.611356 14.332363 10.478790 23.641830 0.742711 1.111597 0.063587 -0.006880 -244407.000000 0 1 0
15.887056 13.175663 11.209190 23.487073 0.692373 1.073274 0.060267 -0.002005 286672.000000 0 1 0
16.250556 12.139563 10.334090 22.764951 0.641594 1.099606 0.063964 0.006871 -120031.000000 0 1 0
16.599156 10.873963 11.165690 22.769446 0.579946 1.058270 0.067138 0.001103 -227310.000000 0 1 0
17.163156 9.808863 10.382590 22.329037 0.519205 1.087183 0.064429 -0.002047 503603.000000 0 1 0
17.369256 8.549963 11.006590 22.269664 0.457426 1.053834 0.040532 -0.005785 -469308.000000 0 1 0
18.638556 8.438563 11.829590 23.633542 0.425137 1.046571 0.058737 -0.013173 -682298.000000 0 1 0
18.516756 9.077163 13.098990 24.430487 0.455788 1.004898 0.067294 -0.014207 568579.000000 0 1 0
19.686956 8.887963 13.892390 25.682107 0.424071 0.999246 0.078841 -0.015445 -649329.000000 0 0 1
19.446856 9.434563 15.362690 26.517983 0.451694 0.952889 0.072980 0.004447 126287.000000 0 0 1
18.681656 8.658063 16.288890 26.254414 0.433985 0.901512 0.081606 0.000247 1095520.000000 0 0 1
17.341756 8.434063 15.823590 24.945058 0.452663 0.883645 0.077822 -0.013289 -189179.000000 0 1 0
16.676156 7.229163 16.543890 24.577536 0.409051 0.832362 0.075586 -0.005150 -1329550.000000 0 1 0
15.965756 7.472363 17.740290 25.009188 0.437741 0.782219 0.088344 -0.007223 179864.000000 0 0 1
15.234156 6.363263 18.162290 24.544641 0.395669 0.737771 0.080861 0.010339 228691.000000 0 1 0
14.206256 5.696063 17.185090 23.012826 0.381329 0.727617 0.074328 -0.020101 -1212470.000000 0 1 0
13.754156 4.446763 17.583190 22.762229 0.312696 0.688071 0.075243 -0.011862 124661.000000 0 1 0
13.267456 3.817463 16.399290 21.436771 0.280163 0.699743 0.066756 -0.015282 -184839.000000 0 1 0
13.048056 2.327763 16.714790 21.332006 0.176542 0.670430 0.059031 -0.016760 125875.000000 0 1 0
14.207156 1.506163 16.880490 22.114763 0.105620 0.702370 0.067227 -0.010737 215759.000000 0 1 0
14.085056 0.099763 16.682990 21.833940 0.007083 0.701174 0.061948 -0.013859 -252099.000000 0 1 0
13.283456 -0.738437 17.703590 22.145261 -0.055534 0.644450 0.054586 -0.012880 805322.000000 0 1 0
11.868856 -0.544937 17.671590 21.294408 -0.045881 0.591922 0.045367 -0.007610 332107.000000 0 1 0
11.163856 -1.552137 18.334190 21.521695 -0.138147 0.551206 0.044268 -0.018301 -69389.400000 0 1 0
-25.879604 13.843263 28.527530 40.929327 -0.491184 0.799598 0.059241 0.001266 -446872.000000 0 0 1
-25.083244 13.997263 29.674690 41.299875 -0.508989 0.769128 0.056974 -0.000085 292663.000000 0 0 1
-24.390144 12.761063 29.872220 40.621095 -0.482039 0.744559 0.044199 -0.005818 311057.000000 0 0 1
-23.210744 12.812763 30.900230 40.715227 -0.504392 0.709120 0.037076 -0.009431 11475.600000 0 0 1
-23.606144 12.840563 32.262587 41.988148 -0.498186 0.694500 0.031275 -0.008477 199846.000000 0 0 1
-22.543744 12.977563 33.165079 42.149258 -0.522331 0.665111 0.028285 -0.006402 -476112.000000 0 0 1
-23.226844 13.310363 -33.592791 42.954949 -0.520375 2.468740 0.042370 -0.011800 233481.000000 0 0 1
-23.788944 12.186963 -32.960351 42.436077 -0.473435 2.460215 0.020741 0.002224 208631.000000 0 0 1
-24.460544 12.592263 -31.767651 42.024599 -0.475417 2.427870 0.029057 -0.002582 -192915.000000 0 0 1
-25.201764 11.429563 -31.066441 41.603937 -0.425779 2.413912 0.023028 -0.008879 -482940.000000 0 0 1
-24.449644 10.415163 -30.474711 40.434746 -0.402704 2.424434 0.051068 -0.019991 -51273.600000 0 0 1
-23.879544 9.456263 -31.325781 40.508741 -0.377052 2.454840 0.033850 -0.018693 -370423.000000 0 0 1
-23.084344 8.396263 -30.546161 39.197603 -0.348846 2.464323 0.038384 -0.001154 -525861.000000 0 0 1
-23.800644 7.596163 -29.649081 38.771643 -0.308939 2.441388 0.048548 -0.005041 -2454.340000 0 0 1
-22.935044 6.749363 -28.937461 37.535940 -0.286202 2.451091 0.041993 -0.002853 -371248.000000 0 0 1
-23.583344 5.885863 -27.821541 36.943952 -0.244581 2.423519 0.046109 -0.010768 82610.800000 0 0 1
-24.257044 4.727763 -28.381971 37.633658 -0.192490 2.425177 0.072344 -0.025502 668619.000000 0 0 1
-24.642744 3.791363 -27.366401 37.021064 -0.152656 2.402695 0.111959 -0.018266 6521.910000 0 0 1
-25.404024 2.504563 -27.905011 37.819663 -0.098272 2.400667 0.122731 -0.018390 1771890.000000 0 0 1
-26.812854 2.547363 -28.263211 39.041353 -0.094721 2.380279 0.140824 -0.028696 1650680.000000 0 0 1
-27.172694 3.439663 -29.338341 40.136328 -0.125916 2.390535 0.127477 -0.027523 -27020.600000 0 0 1
-28.522974 3.099663 -30.033271 41.535109 -0.108248 2.379049 0.147301 -0.028616 118464.000000 0 0 1
-29.700224 3.080463 -29.221451 41.779011 -0.103349 2.345395 0.128358 -0.043021 402805.000000 0 0 1
-30.858934 3.023563 -30.012311 43.152689 -0.097668 2.339899 0.124880 -0.032772 105393.000000 0 0 1
-31.352494 4.425763 -30.585551 44.023200 -0.140235 2.338882 0.131801 -0.035277 -1052010.000000 0 0 1
-30.638454 4.763163 -31.721581 44.358328 -0.154229 2.367594 0.143804 -0.037237 -16614.300000 0 0 1
-30.929554 5.978563 -32.386111 45.180092 -0.190941 2.370031 0.133692 -0.033861 -813341.000000 0 0 1
-30.578254 7.269663 -31.611161 44.577383 -0.233407 2.359060 0.085139 -0.026313 -557191.000000 0 0 1
-29.198514 7.462663 -31.382881 43.510111 -0.250227 2.376442 0.059829 -0.022998 266807.000000 0 0 1
-28.702044 7.106063 -30.116061 42.205220 -0.242700 2.365366 0.041336 -0.026123 -779117.000000 0 0 1
-28.906324 8.157363 -28.996411 41.748173 -0.275048 2.338598 0.030555 -0.018623 -74362.600000 0 0 1
-30.213044 8.404763 -28.507921 42.381241 -0.271323 2.308586 0.043254 -0.029310 218083.000000 0 0 1
-30.654544 7.317363 -27.723391 41.974174 -0.234319 2.292263 0.060359 -0.010836 622740.000000 0 0 1
-31.911524 7.535763 -26.744111 42.312889 -0.231897 2.255000 0.042204 -0.011810 1154000.000000 0 0 1
-31.723384 8.446563 -25.661981 41.668390 -0.260220 2.234276 -0.010648 -0.000697 -65663.200000 0 0 1
-31.573174 7.706563 -24.432711 40.659732 -0.239405 2.215431 0.000449 -0.000909 -2943.230000 0 0 1
-31.091244 8.651663 -23.274311 39.789575 -0.271401 2.195596 -0.006673 0.000342 517774.000000 0 0 1
-32.089124 9.642863 -22.922911 40.597494 -0.291918 2.170792 -0.004873 0.004858 1121780.000000 0 0 1
-31.370234 10.680463 -22.258511 39.919984 -0.328155 2.162262 -0.001115 0.006216 158377.000000 0 0 1
-32.149584 11.440463 -21.170311 40.157963 -0.341878 2.126070 -0.007665 0.008194 -161558.000000 0 0 1
-32.343324 10.772663 -19.928411 39.487750 -0.321516 2.099800 -0.012420 -0.000322 469351.000000 0 0 1
-33.151944 11.550463 -19.029811 39.932421 -0.335257 2.067523 0.006849 0.005240 867451.000000 0 0 1
-32.288994 12.520563 -18.068111 39.061493 -0.369915 2.051672 0.002294 -0.001822 436615.000000 0 0 1
-31.693994 11.989863 -16.895711 37.864642 -0.361661 2.033326 0.019418 -0.005229 -5268.010000 0 0 1
-32.506914 11.651563 -15.804211 37.976722 -0.344168 2.000009 0.021037 -0.010019 -483048.000000 0 0 1
-33.015324 12.838663 -14.935511 38.443626 -0.370875 1.969804 0.027315 -0.001567 -67818.500000 0 0 1
-33.887834 13.715863 -15.628611 39.758818 -0.384588 1.974781 0.019512 0.002447 134298.000000 0 0 1
-34.387700 14.711263 -14.755911 40.207860 -0.404245 1.946568 0.022200 0.004165 389441.000000 0 0 1
-35.282293 15.822163 -15.410711 41.625365 -0.421560 1.950047 0.013361 0.003562 544722.000000 0 0 1
-36.477004 15.414663 -16.056611 42.731702 -0.399824 1.956007 0.015280 -0.000538 562530.000000 0 0 1
36.430548 16.490663 -16.625911 43.307594 0.425064 1.964816 0.017124 -0.006573 -500688.000000 0 0 1
36.085358 16.413863 -18.109311 43.583427 0.426890 1.999299 0.020277 -0.005729 -240079.000000 0 0 1
35.069618 15.506263 -18.476811 42.564243 0.416312 2.019827 0.063231 -0.012316 170002.000000 0 0 1
33.821588 16.169063 -18.476111 41.793601 0.445950 2.028712 0.105226 -0.021487 -1082660.000000 0 0 1
32.648728 15.252663 -18.764711 40.628777 0.437044 2.050885 0.121284 -0.026680 -669598.000000 0 0 1
32.549478 14.811263 -20.098811 41.021997 0.427036 2.082831 0.112140 -0.024197 122414.000000 0 0 1
31.590988 13.782863 -20.223011 39.961581 0.411395 2.101408 0.082642 -0.016200 -120502.000000 0 0 1
31.986398 12.292963 -19.861111 39.606948 0.366915 2.096076 0.082132 -0.001239 -65385.900000 0 0 1
32.059788 12.089863 -18.464811 38.922282 0.360614 2.065081 0.101942 -0.008943 -78433.400000 0 0 1
32.613548 10.853163 -18.218211 38.901643 0.321253 2.058179 0.099249 -0.011964 -223827.000000 0 0 1
32.853928 10.561863 -16.729211 38.351011 0.311044 2.022182 0.089265 -0.012502 -185046.000000 0 0 1
31.684358 10.360563 -15.973011 36.964535 0.316033 2.017635 0.099899 -0.018876 -179586.000000 0 0 1
31.915388 10.195663 -14.572711 36.536385 0.309212 1.981064 0.081234 -0.018357 -52131.300000 0 0 1
31.146378 11.193063 -13.635111 35.795220 0.344997 1.961587 0.104680 -0.021704 737360.000000 0 0 1
29.735408 11.113463 -13.892711 34.651276 0.357670 1.983327 0.098873 -0.015563 1061200.000000 0 0 1
28.988918 12.116763 -13.193911 34.077156 0.395909 1.968365 0.124590 -0.012979 580699.000000 0 0 1
27.438618 12.081063 -13.192511 32.754727 0.414753 1.985334 0.110864 -0.005046 -163913.000000 0 0 1
27.069118 10.986163 -12.363811 31.722180 0.385544 1.971160 0.100257 -0.016079 663727.000000 0 0 1
25.667718 10.678363 -12.416311 30.447068 0.394243 1.990840 0.104293 -0.002798 692568.000000 0 0 1
25.180318 9.933663 -13.724211 30.349300 0.375757 2.040036 0.093920 -0.014033 -1011150.000000 0 0 1
25.590018 8.582663 -13.858011 30.340659 0.323601 2.045132 0.092444 -0.012364 -494850.000000 0 0 1
26.903618 8.440463 -14.267811 31.600894 0.304005 2.039242 0.096421 -0.024245 -747915.000000 0 0 1
27.761618 7.556763 -13.293011 31.694104 0.265763 2.003598 0.102491 -0.026458 -208827.000000 0 0 1
27.588218 6.166663 -13.358211 31.266264 0.219910 2.012235 0.096180 -0.037245 827293.000000 0 0 1
26.554918 5.741963 -12.449311 29.885099 0.212951 2.000468 0.114027 -0.036135 427976.000000 0 0 1
26.044718 4.241063 -12.630011 29.254591 0.161421 2.017203 0.116976 -0.039049 -484112.000000 0 0 1
25.306718 3.817463 -11.559511 28.082473 0.149719 1.995035 0.119020 -0.042540 -120313.000000 0 0 1
24.891718 2.486563 -11.696311 27.614929 0.099565 2.008157 0.109851 -0.044934 166665.000000 0 0 1
23.920718 2.179763 -10.501411 26.215105 0.090873 1.982953 0.101170 -0.044850 -91490.000000 0 0 1
24.704618 1.990563 -9.370311 26.496853 0.080401 1.932255 0.106758 -0.038474 544976.000000 0 0 1
24.000518 2.034663 -8.132511 25.422479 0.084574 1.896414 0.115628 -0.031424 -13838.100000 0 0 1
24.941018 1.556963 -6.941711 25.935802 0.062345 1.841749 0.129406 -0.033019 272908.000000 0 0 1
25.115418 0.179563 -6.740911 26.004929 0.007149 1.833007 0.102476 -0.037908 -60335.100000 0 0 1
25.855018 -0.426237 -7.727911 26.988594 -0.016484 1.861201 0.094178 -0.033592 -915810.000000 0 0 1
25.998818 -1.913337 -7.453511 27.113727 -0.073461 1.849280 0.097889 -0.044252 -644839.000000 0 0 1
26.866218 -2.104837 -6.397711 27.697558 -0.078185 1.803886 0.110645 -0.045219 -31322.000000 0 0 1
26.931018 -3.457137 -5.946111 27.795463 -0.127672 1.786386 0.117215 -0.047052 -533049.000000 0 0 1
28.121218 -3.857537 -5.057811 28.831665 -0.136325 1.747134 0.106964 -0.037841 163107.000000 0 0 1
29.338668 -3.905837 -5.807311 30.161861 -0.132351 1.764544 0.123162 -0.028948 -43668.200000 0 0 1
30.380438 -4.381237 -5.036111 31.105123 -0.143225 1.733418 0.157031 -0.035213 -933974.000000 0 0 1
31.601418 -4.753237 -5.872811 32.492042 -0.149293 1.752541 0.156279 -0.029863 -649239.000000 0 0 1
31.312688 -5.751037 -6.820011 32.558738 -0.181640 1.781827 0.124750 -0.025518 -442705.000000 0 0 1
32.122318 -5.778237 -7.929611 33.587350 -0.177979 1.809136 0.117619 -0.035910 -1506820.000000 0 0 1
31.654928 -6.581337 -9.159211 33.604160 -0.204988 1.846851 0.102964 -0.031206 -228857.000000 0 0 1
30.406428 -6.195637 -9.652711 32.497871 -0.201009 1.872373 0.109589 -0.022571 105127.000000 0 0 1
29.282808 -6.710837 -8.944411 31.345186 -0.225283 1.860170 0.121586 -0.017178 432998.000000 0 0 1
28.008518 -5.774437 -9.049611 29.995277 -0.203318 1.877273 0.101777 -0.018785 340370.000000 0 0 1
27.234518 -5.774237 -10.232711 29.660903 -0.208925 1.923024 0.079278 -0.013880 398112.000000 0 0 1
26.014918 -5.094337 -10.031911 28.343738 -0.193377 1.932574 0.067066 -0.017183 689944.000000 0 0 1
24.777618 -5.989137 -9.656211 27.258806 -0.237167 1.932900 0.082994 -0.012569 -525049.000000 0 0 1
24.784818 -6.438437 -8.282811 26.913670 -0.254156 1.883629 0.084365 -0.021341 87296.800000 0 0 1
23.584918 -6.935037 -7.774611 25.783477 -0.285985 1.877098 0.075205 -0.023697 -261220.000000 0 0 1
22.611618 -5.839037 -7.180511 24.432342 -0.252711 1.869094 0.086959 -0.023199 -100931.000000 0 1 0
22.072518 -5.068737 -8.178411 24.078508 -0.225727 1.917348 0.082687 -0.020282 163355.000000 0 1 0
21.894118 -3.752037 -7.711611 23.513807 -0.169723 1.904941 0.080792 -0.027752 -190642.000000 0 1 0
21.910218 -2.737537 -8.919111 23.813910 -0.124299 1.954690 0.090538 -0.023866 -946671.000000 0 1 0
23.124518 -2.680037 -9.562011 25.166604 -0.115381 1.960537 0.082520 -0.024004 -317009.000000 0 0 1
23.036318 -1.890437 -10.721411 25.479292 -0.081880 2.005111 0.092646 -0.027808 -552114.000000 0 0 1
24.333918 -1.943937 -11.514211 26.990656 -0.079717 2.011526 0.084538 -0.029522 -195785.000000 0 0 1
25.360918 -1.102537 -10.982711 27.658845 -0.043447 1.979127 0.088921 -0.036830 927950.000000 0 0 1
26.567818 -1.255637 -11.714311 29.062874 -0.047226 1.985663 0.080749 -0.029955 -76991.800000 0 0 1
27.609918 -0.158237 -11.415411 29.877152 -0.005731 1.962840 0.066626 -0.022842 815255.000000 0 0 1
28.901738 -0.573137 -11.937011 31.275089 -0.019828 1.962407 0.081683 -0.025081 1449860.000000 0 0 1
30.014948 0.291863 -11.807511 32.255226 0.009724 1.945573 0.090116 -0.023801 220113.000000 0 0 1
30.006438 1.644763 -12.633011 32.598842 0.054759 1.968746 0.090282 -0.026768 -615270.000000 0 0 1
30.211938 1.337563 -14.004811 33.326941 0.044244 2.004490 0.083769 -0.030780 487423.000000 0 0 1
30.201848 2.531063 -14.691611 33.680875 0.083610 2.022168 0.086484 -0.028811 -209069.000000 0 0 1
30.463018 2.282963 -16.218211 34.586670 0.074802 2.058858 0.095052 -0.037555 52352.400000 0 0 1
29.377928 1.685263 -16.938011 33.952893 0.057302 2.093088 0.068757 -0.024504 543295.000000 0 0 1
29.578428 1.633163 -18.389511 34.867244 0.055159 2.126352 0.052972 -0.019899 97178.100000 0 0 1
28.313618 0.965763 -19.009111 34.116564 0.034096 2.161784 0.024982 -0.012225 127045.000000 0 0 1
28.214518 -0.428037 -18.795411 33.904420 -0.015170 2.158396 0.045270 -0.012277 238745.000000 0 0 1
28.259618 -1.097237 -20.064011 34.675272 -0.038808 2.187839 0.034171 -0.008117 -65082.900000 0 0 1
28.096918 -2.616837 -19.878711 34.517355 -0.092868 2.184507 0.039201 -0.015889 764083.000000 0 0 1
26.742218 -2.838537 -19.427711 33.175887 -0.105748 2.196413 0.039379 -0.013600 1202820.000000 0 0 1
26.335918 -4.216537 -19.635011 33.119381 -0.158759 2.205397 0.044994 -0.021348 -453206.000000 0 0 1
26.831118 -5.244737 -18.602311 33.067539 -0.193038 2.168269 0.048061 -0.018525 -250338.000000 0 0 1
28.238818 -5.307737 -18.587011 34.221044 -0.185791 2.144975 0.052382 -0.029334 -138824.000000 0 0 1
28.717448 -5.519237 -17.269311 33.961491 -0.189876 2.104235 0.053164 -0.025670 852366.000000 0 0 1
30.279848 -5.364037 -17.117111 35.194283 -0.175330 2.078716 0.083082 -0.027352 1116510.000000 0 0 1
30.993538 -6.341237 -17.897911 36.347571 -0.201813 2.085653 0.054902 -0.022902 289982.000000 0 0 1
32.263718 -5.819437 -18.236011 37.514869 -0.178452 2.078419 0.062826 -0.022409 -310604.000000 0 0 1
33.185758 -6.734137 -19.025811 38.841017 -0.200204 2.082700 0.056512 -0.018514 -397693.000000 0 0 1
33.892758 -7.561337 -18.128711 39.173244 -0.219501 2.051928 0.071637 -0.024887 255850.000000 0 0 1
34.730268 -8.482837 -18.864111 40.422824 -0.239559 2.056318 0.061085 -0.018319 12886.400000 0 0 1
35.626398 -9.252937 -17.914511 40.936375 -0.254107 2.023745 0.064086 -0.016250 -991643.000000 0 0 1
34.888058 -10.106937 -17.057911 40.128532 -0.281977 2.009849 0.059731 -0.017975 506166.000000 0 0 1
35.741318 -10.906737 -16.238311 40.744097 -0.296182 1.980725 0.075226 -0.011087 330907.000000 0 0 1
36.775388 -10.221437 -15.259811 41.106797 -0.271100 1.951123 0.084960 -0.023595 -73566.300000 0 0 1
-36.441744 -10.922337 -14.099911 40.572227 0.291200 1.925728 0.078788 -0.028078 373911.000000 0 0 1
-35.793966 -12.201537 -14.296311 40.428579 0.328529 1.932234 0.062501 -0.019444 -199332.000000 0 0 1
-34.342604 -12.282337 -14.815811 39.367226 0.343466 1.956649 0.073477 -0.028560 -198311.000000 0 0 1
-34.330697 -11.940137 -16.201711 39.795214 0.334712 1.990103 0.076182 -0.020473 -17674.900000 0 0 1
-33.014144 -12.039937 -16.711611 38.912359 0.349702 2.014700 0.100183 -0.025697 49312.100000 0 0 1
-32.711234 -11.238437 -18.023011 39.002003 0.330931 2.051163 0.137134 -0.030485 172696.000000 0 0 1
-32.856674 -9.823737 -17.736911 38.609129 0.290528 2.048112 0.128731 -0.030728 829354.000000 0 0 1
-34.177176 -9.337837 -18.023411 39.750697 0.266709 2.041385 0.108592 -0.031306 250336.000000 0 0 1
-34.326302 -7.870737 -17.556211 39.350528 0.225396 2.033254 0.122334 -0.031764 -540148.000000 0 0 1
-35.640973 -7.509037 -17.241111 40.297897 0.207649 2.012900 0.120876 -0.037828 -512355.000000 0 0 1
-35.774531 -6.139037 -17.105311 40.126008 0.169948 2.011184 0.118041 -0.036308 -123057.000000 0 0 1
24.898656 27.746663 -27.221331 46.160819 0.839443 2.201492 0.047477 0.000075 -39311.300000 0 0 1
25.262556 26.660763 -26.394881 45.229225 0.812320 2.193927 0.028795 -0.005677 95933.900000 0 0 1
26.520456 26.136663 -26.797131 45.875331 0.778110 2.194603 0.033597 -0.007604 283356.000000 0 0 1
27.179056 25.168563 -25.791471 45.137098 0.747010 2.179011 0.028598 -0.002985 -476444.000000 0 0 1
27.599656 25.746263 -24.573511 45.038523 0.750669 2.147914 0.027105 0.000017 258165.000000 0 0 1
28.034756 24.727763 -23.660911 44.240802 0.722803 2.135092 0.028155 0.001249 -98756.200000 0 0 1
28.687256 25.322563 -22.381211 44.329555 0.723181 2.100042 0.023782 0.007611 -477794.000000 0 0 1
27.859056 26.024363 -21.534011 43.784793 0.751362 2.084969 0.022985 0.004280 -421612.000000 0 0 1
28.628356 26.809563 -20.643011 44.322335 0.752602 2.055275 0.004803 0.008162 -18734.000000 0 0 1
27.776956 27.834463 -19.894911 44.069537 0.786432 2.039179 0.014599 0.004057 -891687.000000 0 0 1
26.836156 27.227463 -19.084511 42.728592 0.792636 2.033808 0.029709 -0.005071 -369001.000000 0 0 1
25.999356 28.227063 -18.491111 42.598765 0.826457 2.019809 0.032811 -0.009450 412153.000000 0 0 1
25.071756 27.632963 -17.398711 41.169027 0.833955 2.007127 0.040439 -0.011863 14355.900000 0 0 1
24.064056 26.780863 -17.886511 40.202247 0.838781 2.031874 0.046688 -0.009776 253265.000000 0 0 1
22.981456 26.695963 -16.951311 39.091799 0.860032 2.019312 0.044793 -0.001438 701733.000000 0 0 1
21.858056 25.768063 -17.507211 38.056144 0.867312 2.048833 0.045604 0.002111 341969.000000 0 0 1
21.157356 26.177663 -18.695411 38.502236 0.891062 2.077808 0.046779 -0.000551 135153.000000 0 0 1
20.223156 25.204863 -19.098511 37.536839 0.894623 2.104579 0.048145 0.008614 158021.000000 0 0 1
19.532956 25.529963 -20.445111 38.096167 0.917701 2.137283 0.041602 0.006334 276954.000000 0 0 1
18.591956 26.590063 -20.348111 38.298014 0.960603 2.130942 0.033725 0.009088 -691330.000000 0 0 1
17.564456 26.396963 -21.265211 38.177467 0.983673 2.161577 0.031087 -0.001744 -576834.000000 0 0 1
16.480856 27.468663 -21.115711 38.366904 1.030386 2.153595 0.033734 0.003481 -336887.000000 0 0 1
15.743456 27.302463 -19.934811 37.291790 1.047737 2.134787 0.040610 0.005733 -612621.000000 0 0 1
14.911256 28.369863 -19.643111 37.590511 1.086878 2.120641 0.033561 -0.003452 -230374.000000 0 0 1
14.440056 28.328163 -18.155911 36.614712 1.099385 2.089626 0.040183 -0.002406 -34908.900000 0 0 1
13.542456 27.258263 -17.971911 35.346861 1.109696 2.104174 0.039426 -0.004680 -121551.000000 0 0 1
13.147256 27.208163 -16.564011 34.460135 1.120671 2.072217 0.069954 -0.006830 109411.000000 0 0 1
12.124656 26.123063 -16.215611 33.050987 1.136249 2.083602 0.086001 -0.008832 -22118.400000 0 0 1
12.723056 24.857763 -16.082711 32.224806 1.097726 2.093331 0.058783 -0.006943 -507878.000000 0 0 1
11.783056 23.858663 -16.256011 31.182272 1.112065 2.119196 0.099221 -0.014226 -604568.000000 0 0 1
12.406956 22.492063 -16.315411 30.430545 1.066714 2.136669 0.074440 -0.018061 -373591.000000 0 0 1
13.277656 22.370063 -17.385611 31.288582 1.035136 2.159945 0.067286 -0.011139 -712971.000000 0 0 1
14.078256 21.214663 -17.393911 30.835164 0.984913 2.170131 0.071866 -0.009413 -437648.000000 0 0 1
13.411356 19.939963 -17.890611 29.958981 0.978706 2.210765 0.078540 -0.014962 -10811.000000 0 0 1
12.571056 19.421063 -16.845611 28.617892 0.996329 2.200171 0.070771 -0.025294 -124575.000000 0 0 1
12.181556 18.089363 -16.999111 27.651133 0.978140 2.232892 0.068532 -0.031934 -341550.000000 0 0 1
13.291256 17.029463 -16.956311 27.462276 0.908068 2.236281 0.079095 -0.031594 -253832.000000 0 0 1
13.930156 16.881963 -15.713511 26.943726 0.880907 2.193456 0.087810 -0.044564 575692.000000 0 0 1
14.809756 15.733063 -15.775811 26.753212 0.815619 2.201458 0.082600 -0.041051 -404470.000000 0 0 1
15.417356 15.248563 -14.426411 26.044863 0.779894 2.157845 0.118494 -0.040286 -138680.000000 0 0 1
16.413056 16.074463 -13.775611 26.787016 0.774976 2.110946 0.107342 -0.028391 1237240.000000 0 0 1
17.649456 16.268363 -14.456711 28.020697 0.744702 2.112889 0.089095 -0.017616 -112623.000000 0 0 1
18.486356 14.961963 -14.807511 28.015497 0.680417 2.127685 0.080252 -0.019590 -910310.000000 0 0 1
18.879256 14.074663 -13.811211 27.299670 0.640621 2.101234 0.095079 -0.025492 420478.000000 0 0 1
19.836156 14.596263 -12.916711 27.809448 0.634378 2.053835 0.090711 -0.019677 -751764.000000 0 0 1
20.732356 13.565863 -12.245511 27.637217 0.579415 2.029828 0.110669 -0.027068 -631077.000000 0 0 1
20.252756 12.953663 -11.061911 26.463889 0.569029 2.002039 0.168470 -0.032572 737948.000000 0 0 1
21.133056 11.960463 -10.475711 26.446158 0.515014 1.978078 0.183545 -0.014770 173436.000000 0 0 1
21.215256 10.583263 -11.163211 26.205149 0.462728 2.010856 0.142580 -0.015265 -257972.000000 0 0 1
21.861256 10.563663 -12.434911 27.278792 0.450129 2.044118 0.115005 -0.001332 458312.000000 0 0 1
21.597856 9.475163 -13.323211 27.087895 0.413424 2.085011 0.112579 -0.001455 -429533.000000 0 0 1
22.179456 8.085763 -12.904811 26.904312 0.349587 2.071059 0.111568 0.012264 -453101.000000 0 0 1
21.560256 7.555063 -11.776411 25.702286 0.337046 2.046749 0.111467 -0.008431 644606.000000 0 0 1
22.280156 6.397863 -11.265211 25.772912 0.279631 2.023163 0.117574 0.007213 -472883.000000 0 0 1
21.970056 5.078163 -11.949011 25.519600 0.227151 2.058082 0.107545 -0.007395 216732.000000 0 0 1
20.631356 4.607163 -11.901711 24.259628 0.219704 2.083572 0.062503 -0.019727 545820.000000 0 1 0
19.663756 5.259563 -12.692111 23.987830 0.261357 2.128343 0.020514 -0.023870 -908997.000000 0 1 0
18.628856 4.249863 -13.109011 23.172005 0.224295 2.172110 0.009284 -0.032481 -635702.000000 0 1 0
19.278456 3.371163 -14.003711 24.065069 0.173116 2.191872 0.023331 -0.037036 501797.000000 0 1 0
18.769256 2.090663 -14.014911 23.517517 0.110930 2.209226 0.033035 -0.029861 -874765.000000 0 1 0
19.856956 1.106663 -14.481311 24.601459 0.055674 2.200167 0.065800 -0.027187 -124281.000000 0 1 0
20.955756 0.962563 -13.599611 25.000394 0.045901 2.145964 0.075982 -0.025340 768934.000000 0 0 1
22.232456 0.658063 -14.135811 26.354057 0.029591 2.136939 0.068739 -0.030058 489273.000000 0 0 1
22.422656 -0.765937 -14.709511 26.827820 -0.034146 2.151118 0.076412 -0.021182 -688372.000000 0 0 1
21.600156 -1.087137 -15.797911 26.782879 -0.050288 2.201671 0.065774 -0.012960 -215774.000000 0 0 1
22.174056 -2.106237 -16.523411 27.733520 -0.094702 2.209048 0.066659 -0.014324 -333449.000000 0 0 1
21.219356 -2.877337 -17.471011 27.636505 -0.134778 2.255149 0.063416 -0.013949 -278024.000000 0 0 1
20.432856 -3.774737 -16.759811 26.695347 -0.182679 2.249543 0.078935 -0.017214 -148050.000000 0 0 1
19.550356 -4.541837 -17.530511 26.648894 -0.228266 2.288734 0.070529 -0.017518 -116423.000000 0 0 1
18.833956 -5.648237 -16.669011 25.777440 -0.291362 2.273982 0.074238 -0.024560 -255462.000000 0 0 1
19.596556 -6.730937 -16.229311 26.319595 -0.330851 2.235244 0.082989 -0.018351 458625.000000 0 0 1
18.744456 -7.787537 -15.782111 25.711387 -0.393761 2.231684 0.091909 -0.015019 139789.000000 0 0 1
19.579756 -8.873337 -15.116011 26.279208 -0.425503 2.183655 0.099802 -0.020296 221703.000000 0 0 1
20.245156 -9.714737 -16.089411 27.624475 -0.447402 2.192515 0.103609 -0.022071 792215.000000 0 0 1
21.137556 -10.656637 -15.510811 28.300980 -0.466967 2.150847 0.098083 -0.028514 -301810.000000 0 0 1
21.800556 -11.536237 -16.561811 29.709302 -0.486712 2.162122 0.089611 -0.021408 -397998.000000 0 0 1
22.836056 -11.016437 -17.357011 30.726425 -0.449480 2.171095 0.091793 -0.016736 165693.000000 0 0 1
23.356756 -11.847637 -18.382511 31.997208 -0.469428 2.182794 0.087071 -0.017203 -239872.000000 0 0 1
22.581356 -11.982037 -19.717511 32.284162 -0.487840 2.227802 0.099564 -0.017979 912410.000000 0 0 1
21.215156 -12.436737 -19.652211 31.479592 -0.530225 2.245011 0.105349 -0.026148 934187.000000 0 0 1
20.938756 -13.808137 -19.508311 31.775311 -0.582992 2.231846 0.083469 -0.015121 -53237.700000 0 0 1
19.418356 -14.114537 -19.454111 30.899113 -0.628530 2.251836 0.079382 -0.017334 307377.000000 0 0 1
18.769256 -13.670337 -20.634711 31.063715 -0.629492 2.297314 0.081725 -0.007750 -36594.100000 0 0 1
17.389756 -13.987237 -20.601311 30.372034 -0.677380 2.316241 0.064079 -0.002502 226822.000000 0 0 1
16.617856 -13.376137 -21.797611 30.499345 -0.677737 2.366979 0.062495 -0.003734 -358667.000000 0 0 1
16.879956 -14.064837 -22.997011 31.805897 -0.694676 2.378993 0.060465 0.001899 326600.000000 0 0 1
16.426856 -13.313737 -24.098611 32.059948 -0.681102 2.421392 0.067187 -0.005250 -118425.000000 0 0 1
16.519356 -14.141037 -25.370051 33.414033 -0.707983 2.432977 0.061603 -0.011584 -378260.000000 0 0 1
15.598356 -15.212937 -25.384891 33.453473 -0.772890 2.432283 0.062968 -0.016197 204865.000000 0 0 1
15.484756 -15.973837 -26.601771 34.678457 -0.800944 2.445101 0.073022 -0.016147 43599.500000 0 0 1
16.445156 -17.218937 -26.700961 35.775359 -0.808379 2.413358 0.071173 -0.018305 250859.000000 0 0 1
17.793956 -16.824537 -26.876381 36.359728 -0.757403 2.402648 0.072097 -0.015858 28601.900000 0 0 1
18.590956 -17.984737 -26.717661 37.187469 -0.768825 2.372380 0.083173 -0.020842 936263.000000 0 0 1
20.146656 -17.751237 -26.826001 37.955613 -0.722275 2.355723 0.083532 -0.017323 1113560.000000 0 0 1
20.737056 -17.306937 -25.594391 37.210596 -0.695479 2.329285 0.083792 -0.016688 -421842.000000 0 0 1
22.085656 -17.050037 -25.850431 38.035836 -0.657431 2.318059 0.085536 -0.013755 -350060.000000 0 0 1
22.859056 -16.329937 -24.682211 37.395386 -0.620309 2.291660 0.078791 -0.008784 212087.000000 0 0 1
22.636056 -14.934937 -24.465711 36.524162 -0.583223 2.304803 0.092863 -0.016486 622275.000000 0 0 1
21.330156 -14.656437 -23.917711 35.239802 -0.602031 2.316805 0.103088 -0.011435 859419.000000 0 0 1
21.175656 -13.309337 -23.186311 34.105013 -0.561127 2.318355 0.095998 -0.008272 56954.100000 0 0 1
21.409256 -12.216137 -24.029611 34.424010 -0.518522 2.343464 0.108118 -0.015922 250425.000000 0 0 1
20.829156 -11.028337 -23.466611 33.258981 -0.486942 2.354027 0.106260 -0.010892 176927.000000 0 0 1
20.992156 -9.791437 -24.388311 33.635288 -0.436435 2.381948 0.113828 -0.014618 -124467.000000 0 0 1
20.689356 -8.638537 -23.658811 32.594680 -0.395531 2.383064 0.113013 -0.009933 59098.300000 0 0 1
20.373656 -7.508337 -24.434111 32.687716 -0.353088 2.415089 0.093780 -0.010030 -142323.000000 0 0 1
19.670656 -6.360437 -23.627611 31.395125 -0.312736 2.422781 0.090909 -0.013685 1298850.000000 0 0 1
18.425756 -6.864237 -23.030911 30.282819 -0.356608 2.434921 0.096944 -0.012048 941636.000000 0 0 1
17.849356 -5.953337 -22.145511 29.059687 -0.321930 2.437300 0.079843 -0.010288 -114848.000000 0 0 1
18.412656 -5.868337 -20.661911 28.290950 -0.308534 2.389611 0.083549 -0.017891 -395367.000000 0 0 1
18.188156 -6.918237 -19.793811 27.757269 -0.363471 2.364712 0.090831 -0.018031 123504.000000 0 0 1
18.532456 -8.252637 -20.153911 28.596120 -0.418945 2.352906 0.103895 -0.006946 -180929.000000 0 0 1
18.007056 -9.281137 -19.091011 27.836313 -0.475905 2.326542 0.090111 -0.013505 396474.000000 0 0 1
16.587756 -9.267037 -19.045411 26.902776 -0.509473 2.357366 0.075398 -0.018818 -181693.000000 0 0 1
16.162756 -10.264537 -18.208311 26.422302 -0.565810 2.331079 0.083176 -0.020353 -416145.000000 0 0 1
14.621456 -10.455337 -18.133511 25.532828 -0.620767 2.360584 0.069791 -0.014574 495310.000000 0 0 1
13.857956 -9.534837 -17.351711 24.166877 -0.602654 2.371715 0.065952 -0.015503 338558.000000 0 1 0
14.084656 -8.163137 -17.635511 24.000534 -0.525267 2.396163 0.074556 -0.030847 -1240210.000000 0 1 0
12.943256 -7.242337 -17.185511 22.700686 -0.510142 2.429580 0.072709 -0.013750 -1464610.000000 0 1 0
11.791056 -7.445937 -17.867811 22.665605 -0.563253 2.478874 0.056977 -0.024729 -2112330.000000 0 1 0
10.840856 -6.553437 -17.457811 21.569582 -0.543731 2.513878 0.045226 -0.020986 -460249.000000 0 1 0
9.390356 -6.961337 -17.837311 21.326244 -0.637928 2.561482 0.028693 -0.018888 326570.000000 0 1 0
9.097056 -6.833837 -19.233411 22.346854 -0.644278 2.607393 0.028849 -0.022758 -112650.000000 0 1 0
7.919956 -6.111737 -19.484411 21.902541 -0.657238 2.667256 0.035150 -0.025492 -121933.000000 0 1 0
7.724556 -5.858837 -20.984711 23.116073 -0.648899 2.708798 0.045827 -0.030942 95738.600000 0 1 0
7.487256 -7.062037 -21.723111 24.037989 -0.756180 2.699128 0.039865 -0.024840 69794.700000 0 1 0
6.917356 -6.773237 -22.979811 24.935883 -0.774872 2.742866 0.051656 -0.025544 -238769.000000 0 1 0
6.981656 -8.018537 -23.929711 26.185331 -0.854413 2.723486 0.044568 -0.018401 -392096.000000 0 0 1
6.186456 -9.069937 -23.484511 25.924087 -0.972196 2.704286 0.053517 -0.018171 -111125.000000 0 0 1
6.196156 -10.069837 -24.492711 27.197185 -1.019189 2.691853 0.056769 -0.008107 -262940.000000 0 0 1
5.417156 -11.333837 -24.129711 27.203757 -1.124933 2.661602 0.062119 -0.012460 -83073.400000 0 0 1
6.064456 -12.315337 -23.330611 27.069588 -1.113222 2.609753 0.055000 -0.008739 -168864.000000 0 0 1
5.281256 -13.478237 -23.165811 27.316833 -1.197348 2.583075 0.074494 -0.009916 -395476.000000 0 0 1
5.970956 -14.471437 -22.185811 27.152993 -1.179473 2.527101 0.077096 -0.015310 -202677.000000 0 0 1
7.099056 -15.220537 -22.661911 28.206800 -1.134377 2.503814 0.070903 -0.016120 -91880.400000 0 0 1
8.294356 -14.504437 -22.728411 28.209143 -1.051333 2.507671 0.084889 -0.017474 -502394.000000 0 0 1
8.887056 -13.953837 -21.375311 27.029489 -1.003693 2.482935 0.065498 -0.017116 -647719.000000 0 0 1
9.546456 -14.948837 -20.573911 27.164101 -1.002471 2.430108 0.068887 -0.011177 499413.000000 0 0 1
8.570256 -15.612037 -19.823611 26.648838 -1.068758 2.409658 0.075188 -0.009279 -30549.400000 0 0 1
9.214556 -16.132537 -18.548811 26.253099 -1.051839 2.355390 0.073206 -0.008572 309849.000000 0 0 1
9.980256 -17.329937 -18.580311 27.297623 -1.048288 2.319455 0.084068 -0.001672 102258.000000 0 0 1
10.538056 -17.744537 -17.354111 26.964503 -1.034892 2.269977 0.076275 -0.004722 220546.000000 0 0 1
9.423256 -18.313737 -16.385611 26.318795 -1.095580 2.242834 0.088383 -0.023687 242744.000000 0 0 1
8.878256 -19.619337 -16.592811 27.185717 -1.145844 2.227299 0.096371 -0.027677 325391.000000 0 0 1
8.024756 -19.729237 -17.737111 27.717226 -1.184489 2.265205 0.094047 -0.023220 -734832.000000 0 0 1
6.572656 -19.365437 -17.457011 26.888050 -1.243594 2.277392 0.086652 -0.013578 -993201.000000 0 0 1
6.324956 -18.004237 -17.138511 25.649292 -1.232960 2.302565 0.077131 -0.011150 -1060500.000000 0 0 1
5.008856 -17.701137 -17.416811 25.333066 -1.295037 2.328855 0.054500 -0.017791 -748619.000000 0 0 1
4.617756 -16.209837 -17.306811 24.157984 -1.293274 2.369427 0.040586 -0.006825 85093.400000 0 1 0
4.728256 -15.724837 -15.997511 22.924818 -1.278709 2.343153 0.019180 -0.013021 201159.000000 0 1 0
4.899256 -14.338237 -16.031711 22.059092 -1.241542 2.384393 0.016708 -0.003925 -90469.900000 0 1 0
10.743356 29.641263 -18.120511 36.364503 1.223077 2.092436 0.087839 -0.031953 -1250870.000000 0 0 1
9.639656 29.271563 -18.808211 36.103963 1.252664 2.118755 0.120189 -0.035202 -1558160.000000 0 0 1
8.812756 28.476163 -18.001711 34.822667 1.270667 2.114085 0.118686 -0.030980 -121697.000000 0 0 1
7.696956 27.817363 -18.854311 34.475119 1.300854 2.149449 0.116024 -0.033384 190423.000000 0 0 1
6.891456 28.817263 -19.491111 35.465902 1.336062 2.152650 0.127853 -0.047186 -297238.000000 0 0 1
6.001456 28.043163 -20.270611 35.118857 1.359969 2.186092 0.112406 -0.052170 36955.800000 0 0 1
4.981456 28.832963 -21.082111 36.063972 1.399716 2.195153 0.097202 -0.047148 202741.000000 0 0 1
3.832456 29.408963 -20.487711 36.046097 1.441211 2.175326 0.080849 -0.034480 -67812.200000 0 0 1
3.198456 30.318163 -21.310411 37.196166 1.465689 2.180860 0.064078 -0.039618 -1275080.000000 0 0 1
1.729356 30.481763 -20.929011 37.015565 1.514123 2.171728 0.085612 -0.036466 -130555.000000 0 0 1
0.849556 29.355863 -20.954111 36.077184 1.541864 2.190524 0.088888 -0.049365 302645.000000 0 0 1
0.511656 29.001763 -22.271811 36.570447 1.553156 2.225610 0.116187 -0.067775 -467740.000000 0 0 1
-0.161744 27.565563 -22.319911 35.469210 -1.564929 2.251417 0.116042 -0.060630 380838.000000 0 0 1
-1.446144 27.559563 -21.739211 35.131384 -1.518371 2.238007 0.116519 -0.062574 150108.000000 0 0 1
-2.021044 26.226263 -21.776511 34.148469 -1.493887 2.262306 0.131092 -0.073135 230895.000000 0 0 1
-3.122944 25.799863 -20.789011 33.280154 -1.450337 2.245501 0.091687 -0.069667 311343.000000 0 0 1
-4.334344 26.495563 -21.026611 34.101609 -1.408645 2.235197 0.092159 -0.068546 680249.000000 0 0 1
-5.452344 25.991263 -20.264911 33.405694 -1.364019 2.222612 0.084064 -0.066926 928609.000000 0 0 1
-6.655944 26.979563 -20.264711 34.392687 -1.328923 2.200884 0.092320 -0.081543 446484.000000 0 0 1
-7.814344 26.410663 -19.670311 33.845357 -1.283125 2.190977 0.084114 -0.061682 91412.700000 0 0 1
-8.527744 27.216463 -18.722911 34.117527 -1.267155 2.151697 0.081339 -0.070282 225222.000000 0 0 1
-9.796944 26.602663 -18.118511 33.644646 -1.217940 2.139483 0.079851 -0.050583 -105144.000000 0 0 1
-9.626244 25.723463 -17.012011 32.307424 -1.212709 2.125353 0.089106 -0.057247 -356284.000000 0 0 1
-10.810344 24.982063 -16.873111 32.026065 -1.162401 2.125693 0.046883 -0.044688 -224714.000000 0 0 1
-10.794444 24.174963 -15.537611 30.697984 -1.150846 2.101505 0.056736 -0.028710 -486049.000000 0 0 1
-9.970144 23.037863 -15.594211 29.552095 -1.162361 2.126670 0.067936 -0.032540 -230653.000000 0 0 1
-10.110744 22.346263 -14.352911 28.418104 -1.145900 2.100250 0.086100 -0.015777 -121410.000000 0 0 1
-9.472944 20.934163 -14.176311 26.998956 -1.145856 2.123592 0.099563 -0.012675 102470.000000 0 0 1
-10.255044 19.813063 -14.576311 26.649432 -1.093176 2.149531 0.076795 -0.013937 -164190.000000 0 0 1
-10.696944 19.632963 -15.913211 27.442815 -1.071919 2.189363 0.090416 -0.010641 272519.000000 0 0 1
-9.637644 19.724363 -17.064711 27.805378 -1.116297 2.231560 0.099088 -0.025940 210637.000000 0 0 1
-8.762244 18.614663 -17.099211 26.751927 -1.130848 2.264224 0.091226 -0.022480 -350573.000000 0 0 1
-7.816244 18.808563 -18.117111 27.259593 -1.176941 2.297774 0.104246 -0.026771 -254141.000000 0 0 1
-7.060644 17.503463 -18.379311 26.344316 -1.187375 2.342919 0.091085 -0.021270 -123347.000000 0 0 1
-7.946044 16.453963 -18.711311 26.153120 -1.120901 2.368068 0.089788 -0.025585 -155994.000000 0 0 1
-7.465344 15.658163 -19.728711 26.270353 -1.125905 2.420353 0.092913 -0.032388 498201.000000 0 0 1
-6.164444 14.793563 -19.659811 25.364503 -1.175979 2.457656 0.084079 -0.020452 63553.200000 0 0 1
-6.349644 13.615663 -18.915011 24.155370 -1.134430 2.470361 0.061227 -0.015687 236892.000000 0 1 0
-5.130944 12.936663 -18.589311 23.221678 -1.193207 2.498951 0.067075 -0.006629 464064.000000 0 1 0
-4.450044 13.451163 -17.324911 22.380554 -1.251301 2.456097 0.041511 0.002759 -398797.000000 0 1 0
-3.840644 14.703263 -17.462211 23.148764 -1.315295 2.425456 0.054470 -0.012778 -684779.000000 0 1 0
-3.372944 15.117963 -16.214211 22.423875 -1.351283 2.379044 0.044240 -0.013570 -354107.000000 0 1 0
-2.593344 16.425963 -16.231711 23.238032 -1.414208 2.344092 0.076486 -0.012877 31641.400000 0 1 0
-3.327244 17.556163 -16.688111 24.449590 -1.383498 2.322045 0.074268 -0.025309 -375928.000000 0 1 0
-2.487344 18.645163 -16.820011 25.233742 -1.438175 2.300392 0.084443 -0.028463 -316322.000000 0 0 1
-3.245544 19.899063 -17.287211 26.558500 -1.409120 2.279580 0.090512 -0.034346 159235.000000 0 0 1
-3.543044 19.850063 -18.654711 27.469554 -1.394166 2.317339 0.105816 -0.038969 69236.400000 0 0 1
-4.224444 20.970063 -19.229811 28.764129 -1.372006 2.303033 0.125701 -0.043566 353582.000000 0 0 1
-3.296744 22.176263 -19.573611 29.762080 -1.423216 2.288517 0.103014 -0.051743 220135.000000 0 0 1
-2.296344 21.871063 -20.550711 30.098975 -1.466185 2.322345 0.121212 -0.051939 -163255.000000 0 0 1
-1.108444 22.587163 -20.528911 30.542507 -1.521762 2.307895 0.102384 -0.050508 283864.000000 0 0 1
-0.090744 22.099863 -19.413811 29.416122 -1.566690 2.291578 0.108987 -0.044421 1636.060000 0 0 1
-0.456544 22.373063 -18.067511 28.761038 -1.550393 2.250026 0.099845 -0.036585 -638057.000000 0 0 1
0.543656 21.772063 -17.314211 27.822656 1.545831 2.242482 0.098474 -0.032061 -185118.000000 0 0 1
0.452956 21.785363 -15.732511 26.875995 1.550008 2.196138 0.096409 -0.034729 -537420.000000 0 0 1
-0.528244 20.916963 -15.270811 25.903591 -1.545547 2.201267 0.100517 -0.027312 -450337.000000 0 0 1
-0.369944 20.816363 -13.879911 25.022185 -1.553026 2.158804 0.094178 -0.023824 283153.000000 0 0 1
-1.268544 19.779963 -13.132011 23.776161 -1.506751 2.155939 0.082515 -0.022754 95645.800000 0 1 0
-1.011744 18.455263 -13.419411 22.840774 -1.516030 2.198787 0.069148 -0.023289 -344206.000000 0 1 0
-1.852344 17.560863 -12.751411 21.781037 -1.465704 2.196215 0.051583 -0.018524 -178770.000000 0 1 0
-1.410344 16.090463 -12.897211 20.669546 -1.483369 2.244611 0.030688 -0.015264 -97200.500000 0 1 0
-0.199444 15.791063 -12.189311 19.949355 -1.558167 2.228136 0.033975 -0.014036 688449.000000 0 1 0
0.164456 14.379963 -12.230611 18.878512 1.559360 2.275567 0.033586 -0.010507 209649.000000 0 1 0
0.775856 13.933063 -13.566311 19.462194 1.515169 2.342085 0.015692 -0.004780 -746535.000000 0 1 0
-0.146144 13.714963 -14.602611 20.033917 -1.560141 2.387502 0.017899 -0.011190 -210328.000000 0 1 0
0.239556 12.770263 -15.571711 20.139890 1.552040 2.454633 0.014976 -0.007020 -392915.000000 0 1 0
-0.564044 12.918863 -16.883611 21.266675 -1.527164 2.487993 0.016775 0.003355 -159594.000000 0 1 0
-0.399144 14.152063 -17.487411 22.499994 -1.542600 2.461029 0.024800 -0.002320 -44887.700000 0 1 0
-0.741444 14.025163 -18.853311 23.509621 -1.517980 2.501332 0.032835 -0.001251 -120860.000000 0 1 0
-1.113144 15.377063 -19.491011 24.851412 -1.498533 2.472366 0.052513 -0.011684 99439.700000 0 1 0
-0.024944 16.279363 -19.559111 25.447536 -1.569264 2.447454 0.046286 -0.019469 91949.800000 0 0 1
-0.505644 17.556663 -19.882811 26.529573 -1.542004 2.418040 0.101621 -0.031605 -39994.500000 0 0 1
0.650756 18.552763 -20.022911 27.304678 1.535735 2.393980 0.125344 -0.038765 30537.600000 0 0 1
1.214356 18.439263 -21.317311 28.211856 1.505034 2.427389 0.112894 -0.050282 -644719.000000 0 0 1
2.224556 19.350263 -21.546611 29.045443 1.456336 2.406583 0.129266 -0.053712 -464349.000000 0 0 1
2.681856 19.225863 -23.063211 30.145279 1.432199 2.441944 0.144666 -0.064647 80392.500000 0 0 1
3.580556 18.135763 -23.167111 29.638511 1.375872 2.468112 0.098371 -0.049002 -135116.000000 0 0 1
3.807656 17.875263 -24.550611 30.606466 1.360921 2.501663 0.098309 -0.060009 138312.000000 0 0 1
4.693656 16.645163 -24.829411 30.258743 1.295950 2.533204 0.056144 -0.037539 267224.000000 0 0 1
6.053856 16.818663 -24.418611 30.261943 1.225286 2.509695 0.036992 -0.022132 398168.000000 0 0 1
6.942956 15.829963 -24.859711 30.278666 1.157466 2.534010 0.031604 -0.020689 47444.700000 0 0 1
7.373256 16.005063 -26.349961 31.699328 1.139094 2.552143 0.033198 -0.027344 -1183890.000000 0 0 1
8.345956 17.003863 -26.601991 32.656581 1.114514 2.522832 0.013900 -0.021703 349913.000000 0 0 1
8.908756 17.064663 -27.904581 33.900358 1.089658 2.537707 0.032207 -0.032552 154678.000000 0 0 1
9.503956 15.764063 -28.539171 33.960494 1.028256 2.568750 0.042477 -0.034408 -1441960.000000 0 0 1
10.716856 15.470963 -27.962191 33.705872 0.964981 2.549177 0.052682 -0.031594 -776936.000000 0 0 1
11.206256 14.155763 -28.212751 33.495151 0.901174 2.572321 0.051383 -0.025632 -111419.000000 0 0 1
10.757656 13.051663 -27.229451 32.054892 0.881451 2.585763 0.049999 -0.030964 561842.000000 0 0 1
9.370856 12.720263 -27.399161 31.628027 0.935870 2.618531 0.050160 -0.032607 576374.000000 0 0 1
8.908156 12.110663 -26.167711 30.179008 0.936599 2.620113 0.048611 -0.030220 7144.390000 0 0 1
7.470956 11.587663 -26.311271 29.704749 0.998132 2.658925 0.062360 -0.042277 -696736.000000 0 0 1
6.537256 12.535763 -26.554961 30.084000 1.090106 2.652360 0.069483 -0.040410 -1351790.000000 0 0 1
5.244756 12.095263 -26.274951 29.396869 1.161647 2.676547 0.078711 -0.039670 81236.500000 0 0 1
4.087356 13.120763 -26.393721 29.757174 1.268806 2.661539 0.101738 -0.041293 -98403.800000 0 0 1
3.609456 13.454463 -27.685591 30.992623 1.308696 2.675422 0.106044 -0.048343 278217.000000 0 0 1
4.373956 14.405163 -28.409131 32.151500 1.276005 2.654296 0.118548 -0.052709 -35844.000000 0 0 1
4.159356 14.237063 -29.928541 33.402272 1.286557 2.681482 0.133722 -0.056786 -407065.000000 0 0 1
5.012156 13.314763 -30.511751 33.665584 1.210767 2.705286 0.122836 -0.055639 -622165.000000 0 0 1
4.995856 13.293563 -31.871341 34.892116 1.211316 2.722418 0.117003 -0.051797 -400320.000000 0 0 1
6.133056 12.362063 -32.443691 35.256603 1.110258 2.739428 0.108732 -0.042591 1301750.000000 0 0 1
7.495656 12.790963 -32.250441 35.494852 1.040726 2.710704 0.116493 -0.036363 876377.000000 0 0 1
7.972156 12.958263 -30.925101 34.464964 1.019262 2.684390 0.099785 -0.035735 -1132130.000000 0 0 1
8.091356 11.668363 -30.122931 33.301828 0.964484 2.701103 0.108526 -0.037599 -1321.650000 0 0 1
9.139656 10.744263 -30.452341 33.560655 0.865922 2.707810 0.085670 -0.028434 199543.000000 0 0 1
8.969656 9.557863 -29.751271 32.510700 0.817135 2.726608 0.087158 -0.030628 -130271.000000 0 0 1
10.056756 8.482863 -29.947961 32.710513 0.700708 2.727658 0.066018 -0.026013 479918.000000 0 0 1
11.314256 8.762963 -29.332931 32.637751 0.659002 2.687689 0.054649 -0.029345 358397.000000 0 0 1
12.110656 7.599263 -29.272721 32.577738 0.560385 2.687250 0.025264 -0.011896 -1318370.000000 0 0 1
13.443356 7.844863 -28.592151 32.554213 0.528236 2.643077 0.026298 -0.012889 -641743.000000 0 0 1
14.145156 6.689163 -28.295741 32.333873 0.441729 2.636462 0.039711 -0.012799 -343805.000000 0 0 1
14.908756 6.118263 -29.283881 33.425288 0.389423 2.638508 0.038614 -0.008333 -1122310.000000 0 0 1
15.585956 4.811563 -28.846201 33.138746 0.299430 2.626948 0.036513 -0.010835 -140288.000000 0 0 1
16.436156 4.944363 -27.731541 32.613377 0.292211 2.587374 0.029383 -0.023923 376833.000000 0 0 1
17.295456 3.818263 -27.576171 32.774337 0.217282 2.570656 0.035059 -0.012242 -224159.000000 0 0 1
18.096956 3.925063 -26.288111 32.155415 0.213583 2.527910 0.038727 -0.023945 -438687.000000 0 0 1
19.163256 4.840463 -26.385211 32.967254 0.247416 2.498668 0.063855 -0.036201 10061.300000 0 0 1
19.667356 5.150463 -25.109441 32.308145 0.256127 2.460978 0.075184 -0.039222 124479.000000 0 0 1
20.812456 6.187963 -25.116101 33.200418 0.288996 2.428740 0.070962 -0.034032 -10993.800000 0 0 1
20.286656 7.488263 -25.327391 33.303142 0.353608 2.434895 0.078705 -0.034276 416160.000000 0 0 1
21.216356 8.370063 -25.926701 34.530936 0.375765 2.420107 0.080661 -0.039675 -540494.000000 0 0 1
21.451056 8.189763 -27.466831 35.800096 0.364709 2.445304 0.083664 -0.033049 -65344.000000 0 0 1
20.361956 8.398863 -28.334711 35.888801 0.391217 2.480813 0.073109 -0.022536 -115710.000000 0 0 1
19.308756 7.454963 -28.275201 35.041283 0.368460 2.509700 0.064004 -0.021479 122611.000000 0 0 1
18.031256 8.092063 -28.957781 35.059389 0.421839 2.542706 0.048373 -0.014543 111104.000000 0 0 1
18.071056 8.240763 -30.401091 36.313904 0.427849 2.562894 0.041907 -0.008339 1333240.000000 0 0 1
16.948456 9.047563 -30.891041 36.378084 0.490342 2.585201 0.023623 -0.004750 475601.000000 0 0 1
16.605256 8.826863 -32.368491 37.434840 0.488584 2.615274 0.015546 0.011222 78632.300000 0 0 1
15.858856 7.625963 -32.607431 37.052708 0.448222 2.646718 0.027821 0.008813 761617.000000 0 0 1
14.441656 7.810363 -32.531461 36.439802 0.495769 2.674198 0.023069 0.007056 538302.000000 0 0 1
13.649156 6.595563 -33.117891 36.422461 0.450135 2.712326 0.026829 -0.000789 40092.900000 0 0 1
13.580956 5.471863 -32.261251 35.428406 0.383010 2.715540 0.041711 -0.001293 -32007.700000 0 0 1
12.718756 4.539963 -32.854491 35.521763 0.342853 2.751599 0.052418 -0.011135 -200902.000000 0 0 1
12.350656 3.457963 -31.841021 34.327057 0.272992 2.758674 0.058482 -0.009934 523522.000000 0 0 1
13.410756 2.568263 -31.423321 34.261779 0.189217 2.731675 0.060330 -0.014108 965479.000000 0 0 1
12.871756 1.584363 -30.529151 33.169585 0.122472 2.739888 0.059997 -0.007779 102466.000000 0 0 1
12.166856 0.319963 -31.099421 33.396239 0.026292 2.768557 0.064990 -0.002196 604930.000000 0 0 1
12.999256 -0.721737 -31.693971 34.263820 -0.055464 2.751827 0.062967 0.001303 822946.000000 0 0 1
14.008556 -1.353837 -30.907191 33.960668 -0.096344 2.714292 0.061798 -0.002575 475387.000000 0 0 1
14.480956 -2.704837 -31.548871 34.818752 -0.184658 2.704742 0.061019 -0.006437 151244.000000 0 0 1
13.623556 -3.789137 -31.234121 34.285991 -0.271275 2.716469 0.072542 -0.006692 229131.000000 0 0 1
13.878156 -4.899837 -32.065961 35.282255 -0.339399 2.711294 0.079984 -0.008633 -375988.000000 0 0 1
13.029056 -6.096237 -31.795691 34.898229 -0.437636 2.716735 0.070808 -0.010824 -291554.000000 0 0 1
13.495756 -6.749037 -30.560971 34.083103 -0.463716 2.682964 0.071126 -0.002362 463013.000000 0 0 1
12.854956 -7.983537 -30.425641 33.980971 -0.555752 2.680064 0.075878 -0.016118 -79442.100000 0 0 1
13.325356 -8.746537 -29.179451 33.249172 -0.580849 2.641628 0.059719 -0.008685 285343.000000 0 0 1
14.728756 -9.007137 -29.182191 33.906711 -0.548857 2.607363 0.077645 -0.012474 524456.000000 0 0 1
15.180256 -9.812637 -28.068391 33.385066 -0.573846 2.569458 0.086031 -0.018959 78104.300000 0 0 1
14.862256 -11.337237 -28.054371 33.711532 -0.651656 2.553840 0.071475 -0.010345 -520977.000000 0 0 1
13.510456 -11.683537 -27.991941 33.205214 -0.713011 2.573629 0.056473 -0.011904 -447382.000000 0 0 1
13.200256 -13.006037 -28.309441 33.835310 -0.777987 2.561996 0.053289 -0.016672 166017.000000 0 0 1
-10.845944 -3.606837 -17.975411 21.301624 0.321047 2.575218 0.060961 0.011170 229739.000000 0 1 0
-11.630144 -2.834837 -18.859011 22.337387 0.239087 2.576017 0.079693 -0.005362 566096.000000 0 1 0
-12.751444 -3.569137 -19.379611 23.471416 0.272917 2.542183 0.082280 -0.005699 -129.875000 0 1 0
-13.432844 -2.807537 -20.508111 24.676024 0.206039 2.551869 0.071143 -0.027296 -730631.000000 0 1 0
-14.228144 -1.831737 -19.997011 24.610481 0.128036 2.519294 0.053587 -0.023172 -746911.000000 0 1 0
-15.115944 -1.383537 -20.988911 25.902516 0.091274 2.515467 0.061749 -0.023442 186148.000000 0 0 1
-15.772644 0.039663 -20.697111 26.022073 -0.002515 2.490410 0.066447 -0.012246 18699.800000 0 0 1
-14.942544 1.150663 -20.838511 25.668019 -0.076854 2.518105 0.070381 -0.019961 -119347.000000 0 0 1
-15.582244 2.352263 -20.417611 25.791826 -0.149827 2.484270 0.071948 -0.005577 84346.500000 0 0 1
-14.979844 3.576763 -21.113511 26.133681 -0.234383 2.511383 0.086665 -0.031894 -154737.000000 0 0 1
-13.671344 3.926163 -20.755111 25.161380 -0.279656 2.540786 0.094928 -0.032285 98327.100000 0 0 1
-13.140444 4.989163 -21.560911 25.737830 -0.362867 2.563878 0.107813 -0.046771 303430.000000 0 0 1
-11.815644 5.498363 -20.912311 24.640742 -0.435542 2.584297 0.077853 -0.037978 195379.000000 0 1 0
-12.051244 6.218363 -19.649811 23.874999 -0.476360 2.537519 0.087646 -0.044471 -777263.000000 0 1 0
-10.842344 6.504763 -19.109311 22.913623 -0.540376 2.557063 0.067665 -0.031554 -1353600.000000 0 1 0
-10.957344 7.106863 -17.693911 21.991939 -0.575386 2.505736 0.059663 -0.030270 -44279.200000 0 1 0
-11.643444 8.368563 -17.654411 22.743809 -0.623190 2.459459 0.066774 -0.037071 -592873.000000 0 1 0
-12.798744 8.285763 -16.903011 22.763424 -0.574537 2.407668 0.091596 -0.028866 -1048800.000000 0 1 0
-13.648544 9.531663 -16.947211 23.755911 -0.609628 2.365119 0.098064 -0.034637 -806901.000000 0 1 0
-12.912044 10.580863 -16.438611 23.428689 -0.686493 2.348499 0.058367 -0.016754 -217464.000000 0 1 0
-13.613344 11.786863 -16.517411 24.435182 -0.713614 2.313074 0.061063 -0.023046 -337313.000000 0 1 0
-12.946144 12.963463 -15.820711 24.206381 -0.786067 2.283096 0.068538 -0.016397 -601917.000000 0 1 0
-12.896144 12.843563 -14.373011 23.191616 -0.783355 2.239221 0.082670 -0.023487 -12583.900000 0 1 0
-12.353144 14.019763 -13.805711 23.232554 -0.848509 2.207117 0.078344 -0.023661 -1157810.000000 0 1 0
-12.779444 14.206863 -12.336811 22.745242 -0.838243 2.144077 0.066103 -0.022883 -176249.000000 0 1 0
-14.074544 14.640563 -12.051411 23.615151 -0.805107 2.106359 0.052633 -0.020561 -625869.000000 0 1 0
-15.093044 13.767763 -12.446011 23.921840 -0.739511 2.117973 0.057715 -0.021190 -1525410.000000 0 1 0
-16.402144 14.077563 -11.698611 24.577746 -0.709279 2.066879 0.035596 -0.014266 -1018370.000000 0 1 0
-17.472044 13.333563 -12.151111 25.113855 -0.651856 2.075835 0.035211 -0.018212 -1291810.000000 0 0 1
-18.541444 13.625563 -11.308211 25.638189 -0.633748 2.027586 0.099028 -0.016741 -186489.000000 0 0 1
-19.905044 13.222063 -11.959511 26.721969 -0.586332 2.034824 0.073792 -0.028348 62830.900000 0 0 1
-20.177144 11.820563 -11.936611 26.255009 -0.529942 2.042766 0.087469 -0.027696 -573542.000000 0 0 1
-21.351544 11.532363 -12.587711 27.337415 -0.495225 2.049307 0.110907 -0.026272 -1052520.000000 0 0 1
-22.063644 10.348263 -11.935511 27.135721 -0.438557 2.026222 0.094199 -0.026261 -321084.000000 0 0 1
-21.459944 9.128363 -12.248211 26.341505 -0.402182 2.054406 0.097072 -0.026507 677290.000000 0 0 1
-22.164944 8.089663 -11.533711 26.263165 -0.349953 2.025459 0.097082 -0.022259 -50585.400000 0 0 1
-21.406744 6.783563 -11.440411 25.202151 -0.306878 2.041985 0.121661 -0.027511 -392585.000000 0 0 1
-21.191244 6.117163 -12.637111 25.420170 -0.281025 2.091083 0.121515 -0.022721 326744.000000 0 0 1
-20.039344 5.309563 -12.655511 24.288448 -0.259005 2.118878 0.122778 -0.030294 -187492.000000 0 1 0
-20.158844 4.059063 -13.550611 24.626693 -0.198697 2.153449 0.137950 -0.038105 -502682.000000 0 1 0
-20.968344 2.997263 -13.165411 24.939588 -0.141980 2.126913 0.138338 -0.037660 -35793.700000 0 1 0
-20.677644 1.827463 -13.907111 24.986242 -0.088150 2.161073 0.130075 -0.041161 -42351.000000 0 1 0
-21.564244 0.542563 -13.736011 25.573208 -0.025155 2.137821 0.145855 -0.034318 1021110.000000 0 0 1
-22.823044 0.583763 -14.450111 27.019212 -0.025572 2.135078 0.116221 -0.023579 1148360.000000 0 0 1
-23.459144 -0.681437 -14.448311 27.559925 0.029040 2.122631 0.100409 -0.036204 -267761.000000 0 0 1
-24.819344 -0.633537 -15.182811 29.101872 0.025520 2.119653 0.087801 -0.024652 297524.000000 0 0 1
-25.823604 -0.084237 -14.327511 29.532070 0.003262 2.077332 0.120366 -0.029534 -104393.000000 0 0 1
-27.122684 -0.231637 -14.796511 30.897093 0.008540 2.070194 0.086416 -0.011237 178468.000000 0 0 1
-28.296654 0.316363 -13.910911 31.532747 -0.011180 2.027685 0.080369 -0.003444 429011.000000 0 0 1
-28.562514 -0.532637 -12.832311 31.317233 0.018646 1.992979 0.096224 -0.011542 186548.000000 0 0 1
-29.802494 -0.309537 -12.182911 32.197947 0.010386 1.958837 0.122238 -0.017962 218557.000000 0 0 1
-29.915374 -1.023437 -10.787211 31.817305 0.034198 1.916688 0.124401 -0.032670 -491088.000000 0 0 1
-30.119024 -2.406337 -10.713311 32.058089 0.079725 1.911536 0.130756 -0.034857 392111.000000 0 0 1
-29.103694 -3.292237 -11.183111 31.351647 0.112642 1.935529 0.135763 -0.030950 -314480.000000 0 0 1
-29.289634 -4.703337 -10.647311 31.517761 0.159221 1.915395 0.133013 -0.038848 -313490.000000 0 0 1
-30.385244 -5.375037 -11.221011 32.833902 0.175085 1.919576 0.120759 -0.035577 103462.000000 0 0 1
-30.585184 -6.702237 -10.743811 33.102914 0.215724 1.901341 0.132743 -0.038853 513.287000 0 0 1
-29.747624 -7.785937 -11.499411 32.829535 0.255991 1.928663 0.133307 -0.042772 872139.000000 0 0 1
-28.362624 -7.747137 -11.141011 31.441671 0.266642 1.933003 0.084717 -0.037512 470976.000000 0 0 1
-27.584004 -8.626437 -11.889211 31.251336 0.303097 1.961067 0.089664 -0.033536 -1182160.000000 0 0 1
-26.153824 -8.828837 -11.481411 29.896382 0.325562 1.964964 0.102406 -0.045669 -1361060.000000 0 0 1
-25.386754 -7.720837 -11.839111 29.056207 0.295240 1.990462 0.073652 -0.039112 521044.000000 0 0 1
-24.032844 -7.669637 -11.388011 27.678289 0.308915 1.994832 0.077574 -0.045607 388206.000000 0 0 1
-23.769344 -7.360937 -9.831611 26.754919 0.300316 1.947083 0.078564 -0.048023 -565660.000000 0 0 1
-24.097144 -6.037737 -9.420911 26.568405 0.245504 1.933273 0.083651 -0.036829 792925.000000 0 0 1
-25.504874 -5.888637 -9.228211 27.754901 0.226907 1.909738 0.091410 -0.041889 233061.000000 0 0 1
-25.894964 -4.505037 -8.548211 27.639038 0.172249 1.885233 0.093394 -0.045100 -272979.000000 0 0 1
-25.573814 -4.440037 -7.213111 26.939986 0.171903 1.841851 0.085945 -0.039740 369854.000000 0 0 1
-25.876914 -3.107337 -6.806511 26.936941 0.119509 1.826249 0.127221 -0.039000 -80937.300000 0 0 1
-25.721594 -2.879937 -5.294511 26.418294 0.111501 1.772574 0.121027 -0.034487 251440.000000 0 0 1
-24.405744 -3.080737 -4.794911 25.062371 0.125566 1.763302 0.086091 -0.027103 332675.000000 0 0 1
-24.346144 -2.895237 -3.390111 24.750959 0.118364 1.708197 0.074519 -0.021608 624582.000000 0 1 0
-23.002944 -3.364937 -2.718511 23.406164 0.145253 1.687204 0.067469 -0.011077 618252.000000 0 1 0
-22.851744 -4.747637 -2.844711 23.512436 0.204844 1.692081 0.081707 -0.014246 291488.000000 0 1 0
-21.632544 -5.273137 -2.382611 22.393074 0.239097 1.677398 0.072841 -0.016892 -160804.000000 0 1 0
-21.761544 -6.813637 -2.449311 22.934462 0.303435 1.677796 0.098364 -0.019397 159918.000000 0 1 0
-22.484844 -7.298537 -1.321711 23.676650 0.313868 1.626649 0.105831 -0.009304 714161.000000 0 1 0
-23.243344 -8.463437 -1.627811 24.789767 0.349201 1.636508 0.119395 -0.018274 222754.000000 0 1 0
-23.545744 -9.268037 -0.284211 25.305717 0.374993 1.582028 0.118770 -0.027658 -7884.740000 0 0 1
-22.331044 -9.846337 0.136589 24.405830 0.415282 1.565200 0.097866 -0.018379 423751.000000 0 1 0
-22.521244 -10.635537 1.297989 24.940045 0.441198 1.518728 0.078895 -0.020103 -229959.000000 0 1 0
-21.192644 -11.169537 1.830589 24.025773 0.485051 1.494530 0.071635 -0.017096 -307096.000000 0 1 0
-20.671744 -12.245737 1.104489 24.052005 0.534805 1.524859 0.082212 -0.015824 275566.000000 0 1 0
-19.428044 -12.645037 1.646289 23.239107 0.576983 1.499896 0.067070 -0.019468 -28.660500 0 1 0
-18.825644 -13.933337 1.031589 23.443697 0.637151 1.526779 0.074977 -0.006707 -304691.000000 0 1 0
-19.692844 -15.056437 1.025389 24.810397 0.652757 1.529456 0.089970 -0.004104 242339.000000 0 1 0
-19.168744 -16.248837 0.366689 25.131651 0.703142 1.556205 0.082729 -0.010886 796420.000000 0 0 1
-17.855144 -16.908237 0.965389 24.609482 0.758166 1.531558 0.077790 -0.007962 676701.000000 0 1 0
-16.680744 -16.150637 0.693789 23.228681 0.769253 1.540924 0.081806 -0.010691 645208.000000 0 1 0
-15.534744 -16.606837 1.425189 22.784786 0.818741 1.508205 0.084098 -0.026502 569387.000000 0 1 0
-15.453644 -16.261437 2.946789 22.625937 0.810863 1.440186 0.097449 -0.032013 -542383.000000 0 1 0
-14.957844 -14.990737 3.293989 21.431511 0.786497 1.416486 0.064597 -0.030044 365745.000000 0 1 0
-14.134644 -14.951437 4.491189 21.059544 0.813473 1.355884 0.043357 -0.025325 226634.000000 0 1 0
-14.652144 -15.451737 5.858289 22.085313 0.811953 1.302326 0.095728 -0.023173 -369535.000000 0 1 0
-15.690644 -14.699837 6.478689 22.455621 0.752807 1.278125 0.090790 -0.021526 294307.000000 0 1 0
-15.741144 -15.016237 7.850489 23.127930 0.761834 1.224477 0.090629 -0.024831 18334.400000 0 1 0
-16.689144 -16.188137 8.274389 24.678914 0.770161 1.228892 0.092197 -0.013173 18527.300000 0 1 0
-16.182144 -17.483037 7.927389 25.107008 0.824021 1.249556 0.092140 -0.007473 291522.000000 0 0 1
-16.846344 -18.586237 8.595589 26.516630 0.834463 1.240674 0.081757 -0.007024 -50440.900000 0 0 1
-16.603344 -18.784237 10.140189 27.043336 0.846949 1.186442 0.100955 -0.014437 745372.000000 0 0 1
-15.309444 -19.396237 10.272589 26.760403 0.902614 1.176810 0.079902 -0.014387 585978.000000 0 0 1
-15.036244 -19.546037 11.646089 27.272103 0.915074 1.129587 0.088120 -0.012906 106634.000000 0 0 1
-13.670144 -20.227237 11.901389 27.159842 0.976478 1.117203 0.071621 -0.007549 179691.000000 0 0 1
-12.549344 -19.366837 11.836089 25.935563 0.995842 1.096890 0.056551 -0.008583 -581524.000000 0 0 1
-11.400644 -20.164137 11.946189 26.062972 1.056213 1.094649 0.052984 -0.008018 -509025.000000 0 0 1
-10.162044 -19.345837 12.308089 25.080223 1.087127 1.057847 0.069740 -0.013981 -414485.000000 0 0 1
-9.546244 -18.715437 11.215489 23.815658 1.099123 1.080453 0.057023 -0.016991 -672501.000000 0 1 0
-8.433144 -18.049437 11.734089 23.121179 1.133711 1.038511 0.056820 -0.015840 -308295.000000 0 1 0
-7.490944 -17.397437 10.725789 21.767582 1.164211 1.055559 0.036295 -0.013946 81919.000000 0 1 0
-6.573844 -18.281937 10.098389 21.895710 1.225611 1.091445 0.027330 -0.014639 132167.000000 0 1 0
-5.892244 -17.532437 9.076789 20.603228 1.246579 1.114583 0.024392 -0.007995 231830.000000 0 1 0
-4.761444 -18.237837 8.291889 20.592364 1.315422 1.156366 0.018500 -0.015606 649739.000000 0 1 0
-3.578844 -18.454137 9.058889 20.866882 1.379242 1.121727 0.031636 -0.011336 354551.000000 0 1 0
-2.464444 -18.742437 8.226189 20.616077 1.440056 1.160351 0.040790 -0.024794 134489.000000 0 1 0
-1.175544 -19.123937 8.954189 21.149099 1.509404 1.133619 0.046501 -0.025509 -463020.000000 0 1 0
-0.217544 -19.702237 8.122689 21.312052 1.559755 1.179777 0.047244 -0.016840 -766650.000000 0 1 0
0.921956 -19.925737 8.899789 21.842419 -1.524560 1.151132 0.050550 -0.022447 562335.000000 0 1 0
2.254156 -20.380937 8.168289 22.072262 -1.460643 1.191712 0.054766 -0.035804 749804.000000 0 1 0
2.364856 -21.711037 7.671889 23.147777 -1.462300 1.232977 0.070549 -0.032077 -257963.000000 0 1 0
2.287356 -22.754337 8.676689 24.459697 -1.470609 1.208167 0.073694 -0.032381 -83068.700000 0 1 0
2.165356 -24.201337 8.134589 25.623525 -1.481561 1.247741 0.086204 -0.033561 -116833.000000 0 0 1
2.238356 -25.097817 9.181689 26.818167 -1.481846 1.221360 0.077777 -0.028389 -180135.000000 0 0 1
1.987456 -26.403507 8.842489 27.915673 -1.495666 1.248488 0.083105 -0.023173 -1021730.000000 0 0 1
2.170056 -27.342367 10.101689 29.229408 -1.491596 1.217918 0.070125 -0.017705 306114.000000 0 0 1
1.277956 -27.064867 11.193089 29.315959 -1.523613 1.179044 0.072221 -0.022403 665972.000000 0 0 1
-0.116944 -27.210017 10.927789 29.322607 1.566499 1.188907 0.064416 -0.012272 -9022.060000 0 0 1
-0.937044 -27.340437 12.187889 29.948659 1.536537 1.151673 0.064915 -0.019245 -149782.000000 0 0 1
-0.565244 -28.488847 12.915389 31.284840 1.550958 1.145235 0.068440 -0.024603 -144688.000000 0 0 1
-0.975644 -28.348227 14.263189 31.749211 1.536394 1.104876 0.078507 -0.031497 -163484.000000 0 0 1
-0.511044 -29.481677 15.157289 33.153791 1.553464 1.095973 0.055362 -0.018938 -10878.300000 0 0 1
-0.735444 -29.208587 16.563889 33.586379 1.545623 1.055063 0.060122 -0.015343 -287133.000000 0 0 1
-0.370744 -30.258637 17.415489 34.914493 1.558544 1.048578 0.046843 -0.012665 -100191.000000 0 0 1
-0.812044 -30.020377 18.890589 35.478681 1.543753 1.009305 0.046349 -0.016231 -79097.800000 0 0 1
-2.209544 -30.144517 18.938089 35.668266 1.497629 1.011074 0.037406 -0.014323 -312290.000000 0 0 1
-2.684844 -30.026777 20.280489 36.333373 1.481619 0.978608 0.053508 -0.020153 632529.000000 0 0 1
-4.214444 -30.174397 20.557989 36.754410 1.432025 0.977214 0.075296 -0.023321 564805.000000 0 0 1
-5.044144 -29.161987 19.987989 35.712527 1.399521 0.976783 0.071428 -0.028538 700657.000000 0 0 1
-6.259644 -28.890307 20.686689 36.080079 1.357425 0.960202 0.075784 -0.028903 634437.000000 0 0 1
-6.067244 -27.850917 21.820589 35.897397 1.356300 0.917434 0.080819 -0.034841 -308090.000000 0 0 1
-5.305544 -28.298397 22.923989 36.802953 1.385462 0.898372 0.080595 -0.034738 49424.900000 0 0 1
-4.999944 -27.191177 23.793889 36.476139 1.388947 0.860163 0.080371 -0.032446 241358.000000 0 0 1
-3.770544 -27.387807 24.753089 37.108279 1.433984 0.840554 0.084943 -0.029685 331325.000000 0 0 1
-3.834244 -28.388897 25.721089 38.499420 1.436547 0.839157 0.081967 -0.021795 -95410.600000 0 0 1
-3.298944 -29.597157 25.278189 39.062278 1.459793 0.866989 0.072706 -0.023230 -60439.200000 0 0 1
-3.764344 -30.815657 26.137789 40.582743 1.449242 0.871000 0.073940 -0.016624 -5522.530000 0 0 1
-3.198344 -30.798417 27.398389 41.345418 1.467320 0.846417 0.080897 -0.025625 62716.900000 0 0 1
-3.678144 -31.876357 28.199989 42.718500 1.455917 0.849797 0.083501 -0.027708 -123753.000000 0 0 1
-3.137944 -31.867627 29.668189 43.653107 1.472645 0.823531 0.103091 -0.027424 -200096.000000 0 0 1
-1.740944 -31.983017 29.722289 43.696210 1.516417 0.822757 0.095920 -0.030282 -309544.000000 0 0 1
-1.231744 -31.952567 31.019989 44.550235 1.532266 0.800577 0.097086 -0.040319 -103256.000000 0 0 1
-28.758884 3.464963 -9.738711 30.560135 -0.119905 1.895126 0.131407 -0.025547 -603782.000000 0 0 1
-29.805874 3.123663 -10.579411 31.781619 -0.104419 1.910151 0.105736 -0.025197 -891742.000000 0 0 1
-30.662004 4.179863 -10.727811 32.752338 -0.135485 1.904499 0.079109 -0.015765 -366550.000000 0 0 1
-31.790514 3.941363 -11.779911 34.131179 -0.123350 1.923180 0.083028 -0.025023 487584.000000 0 0 1
-32.779964 2.959163 -11.387511 34.827547 -0.090029 1.903890 0.120963 -0.035256 827029.000000 0 0 1
-33.525834 2.720263 -12.611911 35.922718 -0.080962 1.929525 0.129522 -0.028388 503529.000000 0 0 1
-34.776587 1.810563 -12.395511 36.964007 -0.052016 1.912762 0.132036 -0.022450 359225.000000 0 0 1
-34.373450 0.528363 -12.083111 36.439193 -0.015370 1.908792 0.127069 -0.019363 41518.400000 0 0 1
-35.456601 -0.346937 -12.227211 37.507274 0.009785 1.902861 0.115568 -0.018515 -151019.000000 0 0 1
-35.013721 -1.821737 -12.194211 37.121129 0.051982 1.905509 0.120469 -0.023013 -154218.000000 0 0 1
-34.109339 -2.147737 -13.210811 36.641306 0.062883 1.939648 0.113864 -0.018053 61707.600000 0 0 1
-33.536404 -3.445537 -13.091611 36.165624 0.102381 1.941199 0.118175 -0.030340 156614.000000 0 0 1
-34.486506 -4.584037 -13.504111 37.318809 0.132148 1.941057 0.115501 -0.032634 132963.000000 0 0 1
-33.889684 -5.814937 -13.120111 36.803009 0.169930 1.935311 0.119909 -0.039958 61702.700000 0 0 1
-34.561457 -6.953837 -13.615411 37.791924 0.198551 1.939357 0.118730 -0.038830 -189916.000000 0 0 1
-34.080904 -8.328937 -12.975811 37.406562 0.239689 1.925045 0.098664 -0.035742 1466090.000000 0 0 1
-32.695214 -8.777337 -13.057411 36.283807 0.262275 1.938924 0.093686 -0.035943 1724820.000000 0 0 1
-32.222414 -9.201337 -14.344711 36.451602 0.278154 1.975262 0.091054 -0.034057 -196685.000000 0 0 1
-30.967784 -10.094237 -14.200211 35.532284 0.315099 1.981923 0.092130 -0.041235 -300568.000000 0 0 1
-31.264684 -11.310137 -13.656011 35.942820 0.347108 1.960525 0.087931 -0.038488 -490602.000000 0 0 1
-30.196834 -12.161237 -13.446411 35.221448 0.382860 1.962504 0.085693 -0.032165 -705109.000000 0 0 1
-30.557824 -13.625837 -13.802811 36.193392 0.419442 1.962066 0.093441 -0.030512 -6708.750000 0 0 1
-30.411844 -13.676737 -15.263211 36.672864 0.422619 2.000057 0.084320 -0.034218 52636.400000 0 0 1
-30.779544 -14.947137 -15.791611 37.685172 0.452077 2.003185 0.086557 -0.030615 377505.000000 0 0 1
-29.737934 -16.136937 -15.592711 37.254236 0.497174 2.002643 0.062474 -0.018925 -165228.000000 0 0 1
-28.521144 -15.862637 -16.181011 36.426694 0.507569 2.031086 0.064587 -0.025270 -1319050.000000 0 0 1
-27.701064 -16.990737 -16.133511 36.281183 0.550185 2.031613 0.071378 -0.027037 404827.000000 0 0 1
-26.236734 -16.683837 -16.575911 35.234606 0.566396 2.060590 0.069674 -0.034694 549711.000000 0 0 1
-26.232964 -16.261037 -17.956211 35.707355 0.554902 2.097714 0.059185 -0.028459 507745.000000 0 0 1
-24.923244 -15.827237 -18.329611 34.751175 0.565786 2.126396 0.043376 -0.017556 266995.000000 0 0 1
-24.926644 -15.338237 -19.801711 35.337046 0.551619 2.165625 0.044132 -0.011884 -10018.200000 0 0 1
-25.335514 -16.246337 -20.814311 36.593268 0.570198 2.175844 0.043453 -0.017578 -335000.000000 0 0 1
-26.707774 -16.230237 -21.046311 37.678548 0.546060 2.163464 0.048555 -0.024459 -788729.000000 0 0 1
-27.321694 -17.546037 -21.608011 39.003135 0.570874 2.157966 0.057403 -0.023683 -155191.000000 0 0 1
-26.928434 -17.676737 -22.935111 39.542722 0.580885 2.189535 0.058883 -0.017290 -93547.400000 0 0 1
-27.648784 -18.664337 -23.609111 40.868115 0.593785 2.186692 0.047478 -0.017791 -529398.000000 0 0 1
-27.072194 -18.995637 -24.983711 41.447843 0.611843 2.217770 0.052688 -0.024226 -469823.000000 0 0 1
-25.787924 -19.517837 -25.046581 40.905919 0.647877 2.229759 0.058616 -0.024491 -613466.000000 0 0 1
-25.758664 -20.858537 -24.770911 41.378562 0.680669 2.212600 0.049315 -0.027220 -801256.000000 0 0 1
-24.331744 -21.322037 -24.486611 40.574095 0.719569 2.218684 0.038859 -0.017164 -492844.000000 0 0 1
-23.562344 -21.533337 -25.620991 40.930476 0.740435 2.247163 0.042282 -0.017304 -603208.000000 0 0 1
-22.220344 -21.755737 -25.243741 40.053742 0.774834 2.252667 0.055794 -0.024608 -331544.000000 0 0 1
-21.242944 -21.544237 -26.363081 40.130149 0.792440 2.287549 0.062833 -0.032670 -800072.000000 0 0 1
-21.205244 -22.528337 -27.363271 41.302990 0.815642 2.294949 0.079648 -0.032385 -536436.000000 0 0 1
-21.664744 -22.121337 -28.602451 42.152282 0.795826 2.316584 0.073313 -0.030687 -849782.000000 0 0 1
-20.697944 -22.322837 -29.725021 42.547512 0.823150 2.344279 0.068538 -0.037147 -672008.000000 0 0 1
-20.573144 -23.617237 -30.132911 43.462863 0.854175 2.336858 0.065863 -0.046878 -101007.000000 0 0 1
-19.674544 -23.549437 -31.230791 43.783855 0.874806 2.364984 0.056416 -0.048658 -201485.000000 0 0 1
-19.294144 -24.886637 -31.892031 44.818638 0.911311 2.362540 0.061503 -0.039024 -226522.000000 0 0 1
-18.745044 -24.863337 -33.217571 45.529872 0.924789 2.388500 0.066895 -0.036751 -331974.000000 0 0 1
-19.588344 -24.482237 33.826243 46.122639 0.895992 0.747489 0.049115 -0.023041 -308193.000000 0 0 1
-18.946644 -24.543637 32.406028 44.849928 0.913390 0.763322 0.055900 -0.016699 -166440.000000 0 0 1
-17.993344 -23.546837 32.160097 43.731977 0.918300 0.744553 0.058005 -0.020867 -485206.000000 0 0 1
-17.577144 -23.582637 30.838800 42.616057 0.930283 0.761731 0.062521 -0.009005 55383.900000 0 0 1
-16.721444 -22.351237 30.480410 41.330859 0.928498 0.741475 0.068971 -0.008367 58088.100000 0 0 1
-17.544344 -21.227037 30.427700 41.039445 0.880099 0.735604 0.062500 -0.013371 101752.000000 0 0 1
-16.799744 -20.051837 30.084020 39.866726 0.873419 0.715729 0.059940 -0.019383 19183.700000 0 0 1
-15.945644 -19.456337 31.249100 40.116317 0.884242 0.677787 0.068628 -0.026385 227218.000000 0 0 1
-15.361644 -18.224737 30.858940 38.992247 0.870438 0.657681 0.070892 -0.031554 -238527.000000 0 0 1
-14.845544 -17.533837 31.973810 39.371946 0.868233 0.623061 0.067846 -0.031611 70613.500000 0 0 1
-14.226344 -16.161337 31.622720 38.256687 0.848989 0.597769 0.082167 -0.033180 -235249.000000 0 0 1
-12.880644 -16.115337 31.225150 37.424926 0.896495 0.583860 0.092861 -0.038289 -195019.000000 0 0 1
-12.498144 -14.879937 30.672160 36.309744 0.872176 0.564724 0.081456 -0.032605 143973.000000 0 0 1
-10.978544 -14.790337 30.392560 35.538573 0.932256 0.544861 0.101006 -0.035240 235668.000000 0 0 1
-10.570644 -13.456037 30.106620 34.629641 0.904917 0.516832 0.102901 -0.027846 -380743.000000 0 0 1
-9.309444 -13.137637 30.618720 34.594353 0.954316 0.484134 0.091339 -0.027536 -206482.000000 0 0 1
-8.865644 -11.654837 30.610550 33.932884 0.920493 0.446206 0.084282 -0.022434 143930.000000 0 0 1
-9.639344 -10.880037 31.520890 34.711074 0.845789 0.432088 0.079935 -0.020438 208720.000000 0 0 1
-9.386044 -9.519937 31.334530 34.067283 0.792480 0.403268 0.061793 -0.017883 -13754.600000 0 0 1
-10.155544 -8.584937 32.327472 34.955710 0.701785 0.390254 0.046379 -0.019032 1063240.000000 0 0 1
-11.565144 -8.429537 32.088540 35.135225 0.629843 0.419514 0.049557 -0.022220 987435.000000 0 0 1
-12.383044 -7.685837 32.994027 36.069623 0.555483 0.415953 0.039981 -0.021487 330712.000000 0 0 1
-11.960244 -6.230637 33.465245 36.080339 0.480263 0.383073 0.028961 -0.016041 -414914.000000 0 0 1
-12.024744 -5.304437 32.405248 34.969009 0.415451 0.385303 0.045470 -0.017257 277984.000000 0 0 1
-12.506244 -4.014137 32.769444 35.303766 0.310583 0.381214 0.037301 -0.017364 -116588.000000 0 0 1
-12.032444 -2.904537 31.768030 34.094336 0.236861 0.371542 0.032314 -0.007564 735850.000000 0 0 1
-10.623944 -2.655737 31.774070 33.608223 0.244957 0.331898 0.036224 -0.015327 799937.000000 0 0 1
-10.192544 -1.612537 30.912240 32.589182 0.156907 0.322194 0.033275 -0.006940 79681.200000 0 0 1
-8.721244 -1.138737 30.996290 32.219975 0.129836 0.276485 0.038398 -0.007014 182573.000000 0 0 1
-8.424344 -0.488437 32.203521 33.290763 0.057914 0.256274 0.053300 -0.022919 -21557.600000 0 0 1
-7.126544 0.064363 32.199631 32.978902 -0.009031 0.217821 0.062096 -0.023901 -275072.000000 0 0 1
-6.740144 0.668063 33.541477 34.218511 -0.098794 0.199255 0.108080 -0.042295 -376084.000000 0 0 1
-7.385144 1.816863 34.034331 34.873730 -0.241225 0.219849 0.099070 -0.039529 -262301.000000 0 0 1
-6.850144 2.991663 33.403837 34.229970 -0.411764 0.220148 0.108895 -0.033507 95646.300000 0 0 1
-7.697644 4.306963 33.494410 34.636385 -0.510121 0.257500 0.127576 -0.037578 -191034.000000 0 0 1
-8.865844 4.075363 32.748350 34.171131 -0.430866 0.289583 0.095359 -0.022607 -422066.000000 0 0 1
-9.605944 5.272763 32.692936 34.480491 -0.502003 0.323409 0.080010 -0.015240 -741417.000000 0 0 1
-10.955844 5.084563 32.027920 34.229679 -0.434514 0.360624 0.059219 -0.003919 -152134.000000 0 0 1
-11.865844 6.175763 32.261791 34.925083 -0.479886 0.393056 0.055774 -0.006273 117055.000000 0 0 1
-13.071944 5.972863 31.586410 34.702336 -0.428596 0.427006 0.017504 -0.001999 -237543.000000 0 0 1
-14.177644 7.046963 31.731100 35.461641 -0.461283 0.462812 0.024636 -0.005207 242480.000000 0 0 1
-14.773344 7.122763 33.052788 36.898133 -0.449255 0.460603 0.033782 -0.010670 444875.000000 0 0 1
-15.205144 8.486963 33.245217 37.529580 -0.509089 0.482494 0.029801 -0.008342 93761.800000 0 0 1
-16.002544 8.913063 -33.570221 38.242435 -0.508185 2.642102 0.025707 0.000172 -387924.000000 0 0 1
-15.266744 9.100863 -32.435421 36.985885 -0.537564 2.640311 0.021470 -0.004517 -801763.000000 0 0 1
-15.921944 9.754863 -31.389051 36.523118 -0.549682 2.604949 0.024640 0.000259 -1147030.000000 0 0 1
-14.977544 10.067463 -30.158711 35.145817 -0.591803 2.602359 0.030362 -0.008817 923265.000000 0 0 1
-14.139444 11.242763 -30.371961 35.338076 -0.671767 2.605025 0.046564 -0.009482 1032670.000000 0 0 1
-13.097544 11.021663 -31.355771 35.724041 -0.699542 2.641883 0.052640 -0.019128 -429140.000000 0 0 1
-12.131244 12.229063 -31.436131 35.846163 -0.789414 2.640324 0.064019 -0.017718 -605074.000000 0 0 1
-12.730244 13.407363 -31.927471 36.894172 -0.811298 2.616704 0.058743 -0.020454 254097.000000 0 0 1
-11.862544 14.557663 -31.937561 37.049336 -0.887056 2.610053 0.060181 -0.022652 206586.000000 0 0 1
-12.192044 15.668963 -30.935571 36.758290 -0.909551 2.571025 0.063709 -0.019985 -144473.000000 0 0 1
-13.358444 16.394663 -31.231591 37.717970 -0.887093 2.546380 0.072206 -0.025622 -69878.100000 0 0 1
-13.626244 17.336063 -30.231071 37.418328 -0.904647 2.511413 0.064099 -0.023179 -527530.000000 0 0 1
-15.073344 17.829063 -30.186271 38.161396 -0.868957 2.483264 0.057873 -0.027990 -991736.000000 0 0 1
-15.429744 18.441863 -31.387971 39.539651 -0.874092 2.487886 0.064365 -0.028422 464453.000000 0 0 1
-16.769944 18.944063 -31.327911 40.268431 -0.846199 2.462236 0.062473 -0.030308 683399.000000 0 0 1
-16.987444 20.179063 -30.422541 40.265355 -0.871062 2.427292 0.034813 -0.038529 -909620.000000 0 0 1
-16.451144 21.413463 -30.937961 41.064997 -0.915710 2.423999 0.046022 -0.035215 366202.000000 0 0 1
-16.968944 22.622063 -30.380111 41.504866 -0.927227 2.391998 0.025359 -0.035823 481786.000000 0 0 1
-18.385044 23.063163 -30.886501 42.707087 -0.897789 2.379246 0.030088 -0.036527 1234860.000000 0 0 1
-19.478144 22.222063 -30.442911 42.426277 -0.851105 2.371073 0.032183 -0.036181 758073.000000 0 0 1
-20.463144 22.042363 -31.424321 43.498206 -0.822534 2.378104 0.054746 -0.037017 -398302.000000 0 0 1
-21.828444 21.410463 -31.043541 43.572816 -0.775732 2.363783 0.072890 -0.042044 -81816.400000 0 0 1
-22.652344 22.258863 -30.280091 43.880173 -0.776637 2.332373 0.092544 -0.036125 635532.000000 0 0 1
-23.421144 23.237463 -31.041921 45.300447 -0.781461 2.325737 0.094170 -0.035205 -602122.000000 0 0 1
-24.828744 22.804963 -31.405811 46.074481 -0.742937 2.320786 0.108097 -0.044978 -809333.000000 0 0 1
-24.713844 21.839763 -32.477501 46.287551 -0.723739 2.348502 0.118765 -0.044288 680511.000000 0 0 1
-26.021704 21.517163 -32.941541 47.172688 -0.690925 2.343841 0.126564 -0.041004 472011.000000 0 0 1
-25.918404 20.549263 33.953399 47.401151 -0.670363 0.772312 0.124839 -0.030818 -105499.000000 0 0 1
-25.520224 19.262563 -33.805681 46.531196 -0.646563 2.384035 0.118375 -0.030505 267454.000000 0 0 1
-25.352114 18.448863 33.134694 45.617959 -0.629079 0.757797 0.100406 -0.039243 -104105.000000 0 0 1
-24.922344 16.998963 33.455231 45.048201 -0.598596 0.733771 0.076096 -0.023943 -863280.000000 0 0 1
-25.978534 16.143963 33.657681 45.479130 -0.556031 0.737624 0.063942 -0.014667 -232113.000000 0 0 1
-26.208694 15.132263 32.641374 44.512249 -0.523618 0.747615 0.070976 -0.013383 -273728.000000 0 0 1
-27.028624 13.892663 33.014980 44.872502 -0.474783 0.744022 0.038960 -0.001354 346724.000000 0 0 1
-28.405014 14.177063 33.317017 46.020186 -0.462931 0.761263 0.045391 0.001249 631661.000000 0 0 1
-29.149644 12.945263 33.244313 46.070228 -0.417934 0.764685 0.049971 0.007603 95879.400000 0 0 1
-29.022574 11.818963 -33.766391 46.066982 -0.386727 2.393496 0.038656 -0.005074 -457076.000000 0 0 1
-27.803564 11.135963 -33.917711 45.248856 -0.380957 2.418226 0.051624 -0.018756 -232323.000000 0 0 1
-27.963844 9.757463 -33.623421 44.807578 -0.335723 2.419457 0.062152 -0.011663 759836.000000 0 0 1
-26.617554 8.932963 -33.774281 43.920315 -0.323793 2.448056 0.055926 -0.015556 822285.000000 0 0 1
-26.037544 8.975063 33.022539 42.999924 -0.331943 0.695135 0.034776 -0.013947 68791.000000 0 0 1
-24.844244 9.728163 33.067479 42.489196 -0.373215 0.678912 0.021536 -0.014109 -137055.000000 0 0 1
-23.691844 9.124963 32.225656 41.025130 -0.367641 0.667276 0.013664 -0.004879 -329594.000000 0 0 1
-23.851044 9.253763 30.829240 40.061783 -0.370103 0.692672 0.008993 -0.003718 32702.000000 0 0 1
-22.759944 8.782863 30.071160 38.722453 -0.368285 0.681574 0.013658 -0.004849 53890.100000 0 0 1
-23.066144 8.896463 28.557660 37.772132 -0.368113 0.713538 0.032079 -0.018730 -91472.000000 0 0 1
-23.270544 10.234163 28.098030 37.891365 -0.414331 0.735431 0.035124 -0.012895 101375.000000 0 0 1
-23.256344 10.288763 26.640580 36.829834 -0.416521 0.762166 0.037899 -0.021693 -685396.000000 0 0 1
-23.866844 11.568963 26.027930 37.160735 -0.451357 0.794818 0.044716 -0.020081 533482.000000 0 0 1
-25.263424 11.687063 26.285380 38.285104 -0.433289 0.814036 0.051059 -0.016677 100796.000000 0 0 1
-25.982534 11.306363 25.123880 37.869978 -0.410438 0.845410 0.055753 -0.014926 144331.000000 0 0 1
-27.460674 11.790563 25.173790 39.074617 -0.405559 0.870755 0.059422 -0.018058 324423.000000 0 0 1
-27.467644 13.179363 25.006080 39.414097 -0.447369 0.883506 0.067585 -0.018579 273283.000000 0 0 1
-28.759414 13.749563 25.166430 40.614081 -0.445966 0.902502 0.072097 -0.020317 339003.000000 0 0 1
-28.868804 15.138363 24.484930 40.768734 -0.482965 0.926569 0.093994 -0.019886 -148913.000000 0 0 1
-28.056704 16.193263 24.931970 40.877910 -0.523458 0.914845 0.097690 -0.016757 -237768.000000 0 0 1
-28.241004 17.331663 24.166500 41.011712 -0.550436 0.940656 0.087605 -0.019201 -197484.000000 0 0 1
-22.901944 -8.842337 31.950030 40.292560 0.368463 0.655159 0.059038 -0.019434 188546.000000 0 0 1
-21.868244 -8.785437 30.978820 38.924173 0.382009 0.650343 0.049614 -0.026581 129769.000000 0 0 1
-22.367144 -9.118137 29.690910 38.275053 0.387090 0.682933 0.048239 -0.022589 -173948.000000 0 0 1
-21.377444 -8.855237 28.559060 36.756363 0.392715 0.680938 0.062613 -0.025264 -637517.000000 0 0 1
-20.983144 -7.525137 28.248200 35.984452 0.344340 0.668082 0.058126 -0.028995 -710898.000000 0 0 1
-19.946544 -7.001237 28.979360 35.870395 0.337565 0.630232 0.052003 -0.028300 -178349.000000 0 0 1
-18.500644 -7.334537 28.429890 34.703428 0.377440 0.610739 0.058709 -0.023190 -287792.000000 0 0 1
-18.162144 -8.682337 28.386130 34.799696 0.445931 0.616857 0.058977 -0.025738 -155891.000000 0 0 1
-17.801544 -9.290937 29.588260 35.758658 0.481027 0.596257 0.064961 -0.025600 -1354630.000000 0 0 1
-16.408144 -8.938337 30.045870 35.381851 0.498804 0.556349 0.064341 -0.023421 -847899.000000 0 0 1
-15.335544 -9.681137 29.452480 34.588320 0.563108 0.551928 0.059473 -0.023589 1626060.000000 0 0 1
-14.035044 -9.254637 29.969780 34.363039 0.582951 0.511213 0.062729 -0.025509 1210300.000000 0 0 1
-12.823644 -10.058037 29.549160 33.745560 0.665116 0.504025 0.068172 -0.022868 -469013.000000 0 0 1
-12.442144 -9.904737 28.221150 32.393581 0.672336 0.513164 0.091622 -0.019765 72774.000000 0 0 1
-11.362044 -10.762937 27.862530 31.957119 0.758327 0.511784 0.091564 -0.021187 67951.500000 0 0 1
-10.834744 -10.534937 26.436100 30.450681 0.771370 0.519311 0.079752 -0.015824 313542.000000 0 0 1
-11.784944 -10.799337 25.408230 30.018140 0.741785 0.561553 0.082241 -0.018082 39828.600000 0 0 1
-11.150044 -10.601737 24.183190 28.662641 0.760196 0.566624 0.069923 -0.007320 308594.000000 0 0 1
-12.063144 -10.923337 22.955490 28.138821 0.735853 0.616695 0.076805 -0.013861 -572132.000000 0 0 1
-12.163844 -12.297337 22.757190 28.584494 0.790855 0.649911 0.084125 -0.016052 47272.600000 0 0 1
-13.406244 -12.689937 22.231490 28.896384 0.757956 0.692970 0.089707 -0.016196 364082.000000 0 0 1
-14.680744 -12.540937 23.123370 30.124568 0.706953 0.695721 0.094305 -0.017968 -899316.000000 0 0 1
-15.782844 -13.268537 22.687890 30.657668 0.699066 0.737667 0.064911 -0.009846 -684991.000000 0 0 1
-16.855244 -12.934237 23.534230 31.705736 0.654527 0.734344 0.052905 -0.006463 437101.000000 0 0 1
-18.215244 -13.566537 23.030990 32.346136 0.640159 0.778430 0.057350 -0.007758 306554.000000 0 0 1
-18.326344 -14.980737 23.054990 33.042547 0.685287 0.798564 0.054903 -0.004370 -865119.000000 0 0 1
-19.593144 -15.510237 22.969190 33.941750 0.669608 0.827493 0.056949 -0.002828 -777255.000000 0 0 1
-20.371544 -15.588237 24.307360 35.338940 0.653156 0.812294 0.051824 -0.004212 -237207.000000 0 0 1
-19.797744 -16.454837 25.254320 36.062349 0.693447 0.794984 0.056712 -0.001111 227836.000000 0 0 1
-20.565344 -16.422937 26.446400 37.310297 0.673870 0.782968 0.044773 -0.000503 -351144.000000 0 0 1
-20.027644 -17.340137 27.538330 38.211863 0.713601 0.766021 0.052059 -0.001059 -194628.000000 0 0 1
-20.173744 -18.728737 27.261140 38.741648 0.748271 0.790254 0.059962 0.007810 157607.000000 0 0 1
-19.999244 -19.493937 28.403470 39.833911 0.772604 0.776961 0.053360 0.002601 -522998.000000 0 0 1
-19.966844 -20.994137 28.138350 40.388060 0.810473 0.800010 0.058240 0.007512 -204309.000000 0 0 1
-21.202644 -21.574237 27.774480 41.066063 0.794085 0.828019 0.053839 0.009528 123123.000000 0 0 1
-20.952044 -22.919737 27.303860 41.349767 0.830219 0.849559 0.064785 0.010854 1871140.000000 0 0 1
-22.305244 -23.751037 26.975480 42.300262 0.816780 0.879269 0.058179 0.011205 1613370.000000 0 0 1
-23.176144 -24.024537 28.036430 43.593043 0.803370 0.872205 0.047898 0.014337 369299.000000 0 0 1
-24.334944 -24.679837 27.488030 44.236587 0.792435 0.900285 0.039519 0.014778 763352.000000 0 0 1
-25.127664 -25.500787 28.565160 45.800196 0.792768 0.897341 0.026881 0.010479 113010.000000 0 0 1
-25.838604 -24.712537 29.531910 46.373232 0.763126 0.880415 0.027933 0.011209 312856.000000 0 0 1
-26.395044 -25.591367 30.511950 47.776516 0.769940 0.878068 0.023229 0.008649 -544684.000000 0 0 1
-27.465554 -24.902337 31.329310 48.538734 0.736491 0.869184 0.034791 0.005115 91371.900000 0 0 1
-28.615734 -24.516437 30.577060 48.527029 0.708398 0.889110 0.037909 0.003216 437445.000000 0 0 1
-29.609584 -23.902837 31.353380 49.306262 0.679156 0.881635 0.051938 -0.013004 351759.000000 0 0 1
-30.949884 -23.521037 30.623760 49.486858 0.649853 0.903549 0.064152 -0.015349 478456.000000 0 0 1
-31.826634 -24.626937 30.489270 50.487783 0.658550 0.922419 0.067954 -0.017151 -242983.000000 0 0 1
-32.748984 -24.386937 29.469710 50.355560 0.640076 0.945630 0.063426 -0.022627 -245314.000000 0 0 1
-34.129400 -24.980537 29.840630 51.762017 0.631840 0.956362 0.072873 -0.019800 -77156.200000 0 0 1
-34.158477 -26.422327 29.705240 52.415095 0.658386 0.968264 0.078113 -0.023754 671642.000000 0 0 1
-35.309645 -26.941497 30.391820 53.817079 0.651774 0.970697 0.074404 -0.020818 649720.000000 0 0 1
-35.028562 -28.412547 30.718410 54.570081 0.681488 0.972886 0.072037 -0.023448 699997.000000 0 0 1
-34.064174 -28.590727 31.785670 54.663758 0.698261 0.950254 0.072360 -0.027124 489031.000000 0 0 1
-33.586674 -29.891977 31.908070 55.133655 0.727260 0.953613 0.078145 -0.035847 -415668.000000 0 0 1
-32.599824 -29.921077 33.055644 55.233097 0.742579 0.929200 0.066859 -0.030347 -330429.000000 0 0 1
-33.224214 -29.879397 -33.753411 55.999281 0.732443 2.217736 0.056224 -0.028080 -124175.000000 0 0 1
-32.309804 -30.339707 -32.813971 55.146876 0.753962 2.208098 0.051010 -0.023351 -174492.000000 0 0 1
-32.762414 -30.034117 -31.379251 54.406630 0.741979 2.185546 0.050313 -0.025756 197276.000000 0 0 1
-32.848214 -28.664757 -31.040211 53.517924 0.717493 2.189521 0.039513 -0.019923 -174443.000000 0 0 1
-31.582974 -28.142247 -30.691221 52.263002 0.727853 2.198448 0.046205 -0.018141 45335.700000 0 0 1
-31.679584 -26.578367 -30.675591 51.487839 0.698058 2.209037 0.033621 -0.010247 324526.000000 0 0 1
-32.635254 -26.075927 -29.709411 51.260734 0.674138 2.189003 0.024453 -0.016886 346655.000000 0 0 1
-32.669294 -24.683237 -29.625601 50.539303 0.647043 2.197144 0.034566 -0.016802 135591.000000 0 0 1
-31.541004 -24.109637 -28.734121 49.007747 0.652647 2.197302 0.031345 -0.020618 99770.400000 0 0 1
-31.426374 -22.708237 -28.797571 48.296802 0.625724 2.209634 0.034329 -0.019484 190640.000000 0 0 1
-30.298364 -22.331937 -28.021461 46.924498 0.635173 2.210753 0.052640 -0.019057 266191.000000 0 0 1
-29.958874 -20.827837 -28.148661 46.083403 0.607507 2.227892 0.068417 -0.025612 41751.200000 0 0 1
-29.728794 -20.468037 -29.500081 46.615411 0.602961 2.256012 0.070734 -0.019391 123756.000000 0 0 1
-29.376094 -19.107437 -29.590821 45.865736 0.576686 2.272031 0.066892 -0.027107 -138553.000000 0 0 1
-28.870764 -18.758437 -30.982861 46.317790 0.576191 2.303550 0.084349 -0.020483 502432.000000 0 0 1
-29.888794 -18.512137 -31.965271 47.516500 0.554538 2.308674 0.087689 -0.027685 698453.000000 0 0 1
-30.473644 -17.178037 -31.877771 47.327795 0.513302 2.309801 0.085032 -0.028375 -199620.000000 0 0 1
-31.092394 -16.688437 -33.199021 48.450138 0.492603 2.325703 0.082202 -0.032892 -29330.500000 0 0 1
-32.106074 -17.384937 -33.885141 49.812035 0.496282 2.318914 0.079113 -0.033680 1176220.000000 0 0 1
-33.425814 -17.017937 -33.388101 50.216138 0.470921 2.298140 0.075366 -0.028786 603244.000000 0 0 1
-34.522115 -17.707037 33.916941 51.533236 0.473929 0.852429 0.078861 -0.032772 -587652.000000 0 0 1
-34.755773 -19.073437 -34.043480 52.256275 0.501910 2.280319 0.057365 -0.035905 -24507.600000 0 0 1
-35.606184 -19.574137 33.056211 52.379960 0.502643 0.887845 0.070900 -0.035148 -459403.000000 0 0 1
-35.925937 -21.107237 33.299848 53.339181 0.531193 0.896556 0.063041 -0.037450 47914.800000 0 0 1
-34.823003 -21.944537 33.010080 52.762388 0.562311 0.894849 0.069848 -0.035541 58739.900000 0 0 1
-35.045882 -23.254037 33.348109 53.675511 0.585829 0.900407 0.067333 -0.037410 -636442.000000 0 0 1
-33.735624 -24.038637 33.561143 53.313213 0.619105 0.889875 0.064815 -0.029633 121175.000000 0 0 1
-32.934274 -23.817837 -33.407951 52.612232 0.626123 2.258785 0.037727 -0.030489 -253622.000000 0 0 1
-32.125344 -22.685637 -33.492351 51.656688 0.614848 2.276230 0.049866 -0.029273 -193098.000000 0 0 1
-30.809004 -22.856937 -32.630811 50.362725 0.638291 2.275642 0.050825 -0.021049 391123.000000 0 0 1
-29.968254 -23.917637 -33.097481 50.651682 0.673581 2.282907 0.040334 -0.019686 480319.000000 0 0 1
-28.595524 -23.788937 -32.745771 49.557068 0.693898 2.292639 0.046373 -0.020673 743324.000000 0 0 1
-28.310984 -24.118837 -31.235161 48.568152 0.705611 2.269362 0.047099 -0.009809 -569037.000000 0 0 1
-28.460394 -25.490987 -31.017591 49.212553 0.730415 2.252708 0.037577 -0.021129 -157105.000000 0 0 1
-28.095254 -25.786587 -29.701881 48.337285 0.742578 2.232512 0.026844 -0.018502 27268.800000 0 0 1
-27.529984 -27.223057 -29.461841 48.651772 0.779793 2.221273 0.027212 -0.019845 18202.400000 0 0 1
-28.521024 -28.208797 -29.538261 49.816603 0.779894 2.205501 0.017016 -0.005939 18445.000000 0 0 1
-28.013254 -29.471187 -29.112461 50.008286 0.810755 2.192170 0.012271 -0.004342 234005.000000 0 0 1
-28.849224 -30.672247 -29.698741 51.527465 0.816017 2.185073 0.029461 0.006677 133132.000000 0 0 1
-28.757344 -30.733857 -31.123941 52.347440 0.818610 2.207521 0.041990 -0.018515 355182.000000 0 0 1
-29.065214 -31.993857 -31.702551 53.604527 0.833326 2.203610 0.067270 -0.005618 -293894.000000 0 0 1
-28.426334 -32.085697 -33.093951 54.154944 0.845798 2.228243 0.061903 -0.023561 353889.000000 0 0 1
-27.013314 -32.264737 -33.066751 53.517683 0.873757 2.236822 0.052883 -0.028434 322435.000000 0 0 1
-26.542374 -32.745487 33.808023 54.034683 0.889646 0.894803 0.078099 -0.038107 359427.000000 0 0 1
-25.148264 -33.439867 33.856508 53.823071 0.925988 0.890487 0.065089 -0.033391 447375.000000 0 0 1
-24.725244 -34.059147 32.643970 53.263420 0.942866 0.911099 0.068539 -0.027029 384877.000000 0 0 1
-23.553744 33.300977 32.769457 52.321804 -0.955189 0.893991 0.053238 -0.016457 78807.400000 0 0 1
-23.567244 32.376697 31.529060 50.968099 -0.941585 0.903832 0.055015 -0.021377 -29665.800000 0 0 1
-24.707944 31.530684 31.528160 50.977361 -0.906126 0.903997 0.108571 -0.039111 269340.000000 0 0 1
-24.725044 30.705974 30.368990 49.764045 -0.892881 0.914408 0.100189 -0.028026 -203427.000000 0 0 1
-26.131754 30.112044 30.183010 50.006178 -0.856049 0.922806 0.116772 -0.025942 -29701.900000 0 0 1
-26.638734 29.165844 31.125890 50.290055 -0.830652 0.903420 0.106447 -0.024715 502667.000000 0 0 1
-27.879764 28.626374 30.680050 50.378725 -0.798610 0.916012 0.104704 -0.020826 292496.000000 0 0 1
-28.533204 27.598824 31.591870 50.733470 -0.768754 0.898604 0.082715 -0.043184 -244614.000000 0 0 1
-27.722314 26.423614 31.781500 49.767437 -0.761418 0.878118 0.087407 -0.048678 236128.000000 0 0 1
-28.409504 25.216604 32.084720 49.723297 -0.725928 0.869426 0.077434 -0.026695 890665.000000 0 0 1
-29.532474 24.779064 31.044850 49.496987 -0.698099 0.892835 0.080205 -0.022368 966562.000000 0 0 1
-28.957534 24.408424 29.785660 48.181899 -0.700360 0.904356 0.074252 -0.014838 394834.000000 0 0 1
-29.905404 23.679764 28.965310 47.896279 -0.669735 0.921343 0.084218 -0.005505 483450.000000 0 0 1
-29.476114 23.436404 27.511690 46.636888 -0.671745 0.939846 0.092021 -0.021400 -263205.000000 0 0 1
-28.295414 22.688664 27.450520 45.485568 -0.675868 0.922914 0.081967 -0.016163 -297294.000000 0 0 1
-27.822134 22.242164 26.209720 44.223686 -0.674400 0.936436 0.080065 -0.014892 -54299.000000 0 0 1
-26.434244 21.575664 26.286680 43.072822 -0.684542 0.914377 0.086719 -0.015510 13239.100000 0 0 1
-26.489354 20.331264 26.945930 42.908382 -0.654624 0.891832 0.093210 -0.019650 436603.000000 0 0 1
-25.182924 19.987264 27.370720 42.223532 -0.670877 0.865534 0.090367 -0.018800 143782.000000 0 0 1
-25.185514 18.749764 28.241140 42.230625 -0.639950 0.838289 0.096104 -0.011058 -1026090.000000 0 0 1
-23.916344 18.268864 28.423900 41.396388 -0.652316 0.813956 0.094190 -0.012163 -624999.000000 0 0 1
-24.034044 17.174264 29.267660 41.583488 -0.620445 0.790023 0.083619 -0.014528 -576635.000000 0 0 1
-22.775144 16.350064 29.209890 40.487645 -0.622632 0.764900 0.070727 -0.016963 -995338.000000 0 0 1
-21.740244 16.743964 30.049280 40.693461 -0.656294 0.740057 0.103190 -0.018934 159195.000000 0 0 1
-20.595344 15.899364 29.966450 39.685590 -0.657426 0.714995 0.077240 -0.018536 880635.000000 0 0 1
-19.344544 16.353264 30.784720 39.866522 -0.701799 0.688508 0.057407 -0.021399 208705.000000 0 0 1
-19.574644 16.236364 32.167348 41.006395 -0.692447 0.668992 0.053129 -0.017637 245834.000000 0 0 1
-18.495344 16.726464 32.918709 41.297624 -0.735219 0.648304 0.051453 -0.020296 -578906.000000 0 0 1
-18.790744 16.587364 -33.674951 41.978983 -0.723198 2.501744 0.050679 -0.026898 263317.000000 0 0 1
-19.765444 17.388864 -33.032981 42.240066 -0.721520 2.468712 0.062460 -0.031975 1451400.000000 0 0 1
-21.164244 17.109664 -33.278181 42.989570 -0.679856 2.456087 0.065800 -0.031918 928774.000000 0 0 1
-22.139044 17.967464 -32.445551 43.193527 -0.681758 2.420624 0.077241 -0.032498 -120810.000000 0 0 1
-22.171544 17.504164 -31.135911 42.040671 -0.668298 2.404780 0.074181 -0.026357 644983.000000 0 0 1
-23.257644 18.057564 -30.387041 42.312715 -0.660193 2.371942 0.060226 -0.024417 -119807.000000 0 0 1
-23.387144 17.658464 -28.837601 41.114317 -0.646725 2.348157 0.066719 -0.030212 -49636.700000 0 0 1
-23.858644 16.377764 -28.444381 40.577689 -0.601574 2.347575 0.064470 -0.034010 -245830.000000 0 0 1
-25.171394 16.153264 -28.886011 41.580387 -0.570540 2.338803 0.069631 -0.032486 -794082.000000 0 0 1
-25.873754 15.089564 -28.037441 41.027359 -0.527975 2.323184 0.070619 -0.028865 -164097.000000 0 0 1
-25.497214 13.731164 -28.267171 40.468330 -0.493999 2.344097 0.050978 -0.021915 532160.000000 0 0 1
-26.434334 12.850464 -27.637261 40.345094 -0.452488 2.325430 0.033252 -0.015524 322341.000000 0 0 1
-25.923734 11.418164 -27.687651 39.610863 -0.414886 2.344782 0.048409 -0.017708 453855.000000 0 0 1
-24.832044 11.223864 -26.769671 38.199749 -0.424509 2.347289 0.058674 -0.016931 423817.000000 0 0 1
-24.209744 9.995864 -27.051141 37.653595 -0.391565 2.372326 0.051707 -0.011711 -237146.000000 0 0 1
-23.155644 9.538464 -26.033661 36.123644 -0.390747 2.375582 0.080528 -0.018660 295421.000000 0 0 1
-23.658544 8.520564 -25.186541 35.590568 -0.345686 2.356998 0.090775 -0.018699 368756.000000 0 0 1
-22.492044 7.989864 -24.613511 34.286366 -0.341327 2.371549 0.115829 -0.023044 -2265.890000 0 0 1
-22.734144 6.809864 -23.739211 33.567330 -0.291038 2.356343 0.113825 -0.019146 -55304.600000 0 0 1
-23.289344 5.710864 -24.397011 34.208502 -0.240469 2.364829 0.115160 -0.028737 261357.000000 0 0 1
-23.610344 4.604564 -23.683611 33.757425 -0.192606 2.348412 0.100848 -0.018058 -335856.000000 0 0 1
35.586188 24.236963 -10.377911 44.288917 0.597913 1.807318 0.035098 -0.000313 359526.000000 0 0 1
36.263868 23.529463 -9.319011 44.221575 0.575560 1.783123 0.032778 -0.007132 -605479.000000 0 0 1
-36.122934 23.046863 -9.719911 43.937466 -0.567902 1.793863 0.041567 -0.003434 -656787.000000 0 0 1
-35.371219 22.591363 -8.459511 42.814204 -0.568386 1.769692 0.029990 -0.001109 -451236.000000 0 0 1
-35.860116 21.441763 -7.831811 42.509227 -0.538894 1.756093 0.035266 -0.006278 -696814.000000 0 0 1
-35.203907 21.137163 -6.686711 41.602966 -0.540729 1.732223 0.054448 -0.008717 -605926.000000 0 0 1
-35.794352 20.085863 -5.686111 41.436811 -0.511360 1.708454 0.050564 -0.004533 -304130.000000 0 0 1
-35.802397 18.750363 -6.200611 40.888082 -0.482442 1.723032 0.042390 -0.002518 294725.000000 0 0 1
-36.247804 17.819763 -5.238811 40.729502 -0.456913 1.699778 0.046576 -0.013419 -473490.000000 0 0 1
36.647138 16.720963 -5.971111 40.721708 0.428055 1.717959 0.048292 -0.003468 -303340.000000 0 0 1
35.491568 17.173063 -6.655411 39.985747 0.450655 1.738019 0.049626 -0.014374 -113100.000000 0 0 1
35.132318 16.213563 -7.603911 39.433220 0.432376 1.764842 0.062862 -0.007113 792658.000000 0 0 1
33.737288 16.534563 -8.271211 38.470889 0.455694 1.787487 0.052389 -0.017505 856914.000000 0 0 1
33.231848 15.428263 -9.020711 37.732747 0.434650 1.812203 0.071833 -0.023487 253673.000000 0 0 1
32.460828 15.889263 -10.125611 37.532679 0.455205 1.843962 0.074344 -0.015018 -643126.000000 0 0 1
31.752768 14.834563 -10.947211 36.717080 0.437056 1.873551 0.081222 -0.016889 246087.000000 0 0 1
30.560808 14.216663 -10.451311 35.288899 0.435416 1.871471 0.085193 -0.012628 840413.000000 0 0 1
30.661888 13.615263 -9.187711 34.784203 0.417891 1.838103 0.079949 -0.019305 -715023.000000 0 0 1
29.589658 12.521163 -9.003311 33.367454 0.400311 1.844006 0.095369 -0.015240 172759.000000 0 0 1
29.984508 11.373063 -9.761611 33.521729 0.362533 1.866280 0.100774 -0.018596 62873.500000 0 0 1
28.968968 10.433763 -9.739011 32.294161 0.345706 1.877137 0.106862 -0.016116 -707701.000000 0 0 1
29.522838 9.065563 -10.089811 32.489793 0.297930 1.886571 0.118974 -0.017916 -313857.000000 0 0 1
30.453738 8.644263 -9.118611 32.943929 0.276574 1.851250 0.108081 -0.021516 26521.000000 0 0 1
30.462668 7.260563 -8.957811 32.571955 0.233978 1.849403 0.117757 -0.024410 -64495.900000 0 0 1
31.681028 6.778863 -8.124411 33.401296 0.210794 1.816497 0.123976 -0.023898 484666.000000 0 0 1
32.928758 7.079163 -8.723111 34.792388 0.211761 1.824219 0.112409 -0.027806 505011.000000 0 0 1
34.022458 7.025163 -7.800411 35.605153 0.203624 1.791669 0.112947 -0.029270 635376.000000 0 0 1
35.400998 7.215263 -8.485211 37.111851 0.201061 1.801476 0.108613 -0.028577 169710.000000 0 0 1
35.755148 6.306063 -9.509511 37.531691 0.174573 1.826962 0.112903 -0.031108 814441.000000 0 0 1
-36.460104 6.263263 -9.765011 38.261247 -0.170124 1.828871 0.124860 -0.034312 -269105.000000 0 0 1
-36.156394 5.552363 -11.093711 38.225436 -0.152375 1.865251 0.123143 -0.029771 61883.200000 0 0 1
-34.775103 5.546963 -11.415511 37.018785 -0.158177 1.884276 0.124454 -0.028090 581524.000000 0 0 1
-34.202292 6.751063 -11.926111 36.845702 -0.194881 1.900410 0.099041 -0.024986 -265138.000000 0 0 1
-33.320224 7.527263 -10.897711 35.856061 -0.222177 1.879611 0.087520 -0.022322 140716.000000 0 0 1
-34.131047 8.340863 -9.972011 36.523134 -0.239680 1.847340 0.098982 -0.029838 934664.000000 0 0 1
-34.650417 9.528463 -10.611311 37.470560 -0.268355 1.857916 0.098531 -0.031831 147059.000000 0 0 1
-35.486867 10.393863 -9.635411 38.212449 -0.284924 1.825702 0.100069 -0.021961 131966.000000 0 0 1
-34.718893 10.922263 -8.597311 37.398009 -0.304789 1.802758 0.078325 -0.019017 -49421.300000 0 0 1
-35.574768 11.572163 -7.708911 38.195633 -0.314495 1.774019 0.086736 -0.016948 169745.000000 0 0 1
-34.790108 12.583663 -6.765811 37.609525 -0.347062 1.751677 0.092879 -0.018034 275363.000000 0 0 1
-34.204972 13.595663 -7.512111 37.566660 -0.378329 1.772121 0.067899 -0.018520 242639.000000 0 0 1
-33.431624 14.563063 -6.772611 37.089412 -0.410821 1.754429 0.065818 -0.017914 833806.000000 0 0 1
-32.474984 15.512463 -7.559411 36.775070 -0.445628 1.777830 0.039473 -0.011475 -5941.040000 0 0 1
-33.308604 16.358363 -8.308611 38.027518 -0.456515 1.791063 0.024207 -0.008221 -45578.300000 0 0 1
-32.924894 17.690863 -8.442411 38.318266 -0.493048 1.792942 0.015647 -0.001840 -42622.900000 0 0 1
-33.680044 18.463963 -9.533011 39.574506 -0.501473 1.814077 0.006975 -0.002171 305770.000000 0 0 1
-33.136614 18.201663 -10.818811 39.324068 -0.502299 1.849510 0.000055 -0.007633 -195554.000000 0 0 1
-34.077284 18.607263 -11.760911 40.568590 -0.499791 1.864921 0.001877 -0.006001 -721923.000000 0 0 1
-33.739194 18.536663 -13.283911 40.723499 -0.502390 1.903075 -0.001176 0.009375 -360928.000000 0 0 1
-33.009884 19.661163 -13.656611 40.776424 -0.537189 1.912311 -0.003893 0.007880 143800.000000 0 0 1
-32.500734 19.656363 -15.013911 40.842231 -0.543940 1.947231 -0.014390 0.007481 -162785.000000 0 0 1
-31.677114 20.929963 -15.375611 40.962328 -0.583880 1.955581 0.002925 0.006496 566143.000000 0 0 1
-30.414544 20.967363 -14.665611 39.746131 -0.603567 1.948710 0.008892 0.005175 1209490.000000 0 0 1
-29.727174 22.203963 -14.489711 39.833058 -0.641530 1.943099 0.010341 0.002195 414355.000000 0 0 1
-29.106114 22.764463 -15.814611 40.193140 -0.663743 1.975194 0.022294 -0.005246 -394716.000000 0 0 1
-30.120224 23.439463 -16.565411 41.605878 -0.661304 1.980296 0.017778 0.003584 348109.000000 0 0 1
-29.741224 23.982663 -17.795311 42.147142 -0.678618 2.006688 0.019837 -0.001612 291598.000000 0 0 1
-28.751764 25.241663 -17.713811 42.161411 -0.720480 2.004399 0.025411 -0.001277 855690.000000 0 0 1
-29.346884 26.385663 -17.155311 43.031935 -0.732315 1.980857 0.045309 -0.005480 -535721.000000 0 0 1
-28.417234 27.410863 -17.062711 43.011983 -0.767374 1.978712 0.051267 -0.010800 -283121.000000 0 0 1
-28.935574 28.896863 -16.940111 44.263568 -0.784729 1.963524 0.048225 -0.014584 -57458.500000 0 0 1
-29.284014 29.377363 -15.628311 44.326369 -0.786989 1.931116 0.050551 -0.019971 463748.000000 0 0 1
-28.146894 29.495763 -14.784411 43.368496 -0.808794 1.918673 0.055922 -0.017468 260928.000000 0 0 1
-28.509374 30.111963 -13.392911 43.576195 -0.812729 1.883198 0.058060 -0.012492 -51195.900000 0 0 1
-28.591564 31.510263 -13.461811 44.627284 -0.833923 1.877219 0.063538 -0.011891 67491.900000 0 0 1
-28.733764 32.050663 -12.191811 44.738288 -0.839912 1.846801 0.064370 -0.013064 -204247.000000 0 0 1
-28.145264 33.482063 -12.181911 45.404882 -0.871781 1.842419 0.044467 -0.015062 121848.000000 0 0 1
-28.544524 -33.733938 -13.179511 46.113641 0.868532 1.860643 0.028696 -0.022006 -147520.000000 0 0 1
-27.560924 -32.734438 -13.292911 44.809033 0.870991 1.871986 0.048916 -0.022123 4388.510000 0 0 1
-27.628674 -32.039938 -14.670911 44.778755 0.859193 1.904591 0.045751 -0.022856 40354.300000 0 0 1
-27.120164 -32.818738 -15.735311 45.389127 0.880186 1.924821 0.044200 -0.022198 -168333.000000 0 0 1
-27.427134 -32.165438 -16.938111 45.538584 0.864743 1.951906 0.043768 -0.010508 111078.000000 0 0 1
-26.706654 -32.716538 -18.212211 45.992411 0.886192 1.977934 0.044972 -0.016117 -155906.000000 0 0 1
-27.136574 -33.988038 -18.686611 47.336770 0.897022 1.976602 0.041699 -0.008335 274.687000 0 0 1
-26.619034 33.055963 -17.932311 46.074260 -0.892849 1.970564 0.035689 -0.021263 -778759.000000 0 0 1
-26.642304 31.702663 -18.655711 45.419233 -0.871913 1.994067 0.042794 -0.025137 544545.000000 0 0 1
-27.858884 31.025063 -19.036211 45.837204 -0.839116 1.999069 0.055520 -0.018325 470298.000000 0 0 1
-28.603334 31.724663 -20.029011 47.178027 -0.837091 2.009251 0.053828 -0.010816 377536.000000 0 0 1
-30.119844 31.358563 -20.109511 47.905708 -0.805544 2.003991 0.058744 -0.026378 552612.000000 0 0 1
-30.381794 30.004263 -20.367711 47.309120 -0.779146 2.015870 0.053422 -0.029714 806285.000000 0 0 1
-31.799854 29.783263 -20.399611 48.108394 -0.752664 2.008692 0.058379 -0.032098 631399.000000 0 0 1
-32.245834 28.457663 -21.018611 47.868720 -0.723074 2.025380 0.067390 -0.027677 843871.000000 0 0 1
-33.675024 28.422163 -21.257611 48.925582 -0.701008 2.020267 0.067716 -0.031625 1244120.000000 0 0 1
-33.909664 27.182063 -21.819211 48.629289 -0.675717 2.036089 0.064692 -0.015137 540650.000000 0 0 1
-35.433171 26.830363 -21.912611 49.553410 -0.648100 2.028848 0.066810 -0.009277 737667.000000 0 0 1
-36.111194 27.385563 -23.026811 50.835238 -0.648835 2.040890 0.058833 -0.006521 308387.000000 0 0 1
36.251048 26.735063 -23.237711 50.684251 0.635451 2.047080 0.061754 0.001477 1068250.000000 0 0 1
35.435978 27.367763 -24.424211 51.002402 0.657631 2.070179 0.063773 -0.005252 197042.000000 0 0 1
36.132778 27.281963 -25.638241 52.030784 0.646724 2.086045 0.066529 -0.006254 -292384.000000 0 0 1
35.308438 27.403063 -26.790491 52.108963 0.660000 2.110783 0.080863 -0.013360 515503.000000 0 0 1
36.141298 27.834763 -28.085261 53.570041 0.656282 2.122656 0.081518 -0.013955 363275.000000 0 0 1
36.781108 26.751063 -28.687491 53.772125 0.628817 2.133531 0.056886 0.010522 -118192.000000 0 0 1
-35.989979 27.318563 -29.695961 54.068776 -0.649275 2.152234 0.029074 0.011427 132101.000000 0 0 1
-35.380506 26.295563 -30.697781 53.717693 -0.639149 2.179086 0.017086 0.012335 460965.000000 0 0 1
-34.545931 25.237763 -30.339371 52.448484 -0.630941 2.187636 0.018532 0.013787 -237643.000000 0 0 1
-33.240754 25.542163 -29.899431 51.491026 -0.655173 2.190351 0.022186 0.028737 -153279.000000 0 0 1
-32.771504 24.581163 -28.811181 50.082823 -0.643551 2.183731 0.004446 0.017100 -316245.000000 0 0 1
-32.508404 23.267763 -29.297011 49.563091 -0.621216 2.203225 0.020408 0.008738 98966.300000 0 0 1
-33.004934 22.283163 -28.394981 48.909508 -0.593850 2.190215 0.023169 0.006927 -163503.000000 0 0 1
-32.738364 20.892363 -28.938551 48.432747 -0.568008 2.211176 0.016408 0.000237 -884142.000000 0 0 1
-31.388624 20.595963 -28.893771 47.373931 -0.580694 2.226742 0.067958 -0.008212 -848230.000000 0 0 1
-31.227994 19.228363 -29.413091 47.011142 -0.551914 2.246776 0.056681 -0.017003 -74814.500000 0 0 1
-29.801884 18.618763 -29.472251 45.863103 -0.558420 2.268701 0.088588 -0.029871 -442275.000000 0 0 1
-29.130474 19.257063 -30.496411 46.362162 -0.584113 2.288673 0.099915 -0.028259 763372.000000 0 0 1
-27.827864 18.703863 -30.825311 45.545848 -0.591773 2.314200 0.101146 -0.037321 1066500.000000 0 0 1
-27.756964 17.328563 -31.593661 45.485025 -0.558093 2.338653 0.097961 -0.033099 -426110.000000 0 0 1
-28.036974 16.243163 -30.701631 44.637455 -0.525096 2.329250 0.072054 -0.025824 256029.000000 0 0 1
-28.012434 15.069963 -31.457751 44.736901 -0.493563 2.350646 0.044820 -0.013228 -129251.000000 0 0 1
-28.460934 13.860463 -30.590851 44.022010 -0.453193 2.339076 0.033548 -0.006015 402287.000000 0 0 1
-29.887454 13.740763 -30.573821 44.909097 -0.430933 2.319642 0.016893 -0.012221 730973.000000 0 0 1
-30.469074 12.461363 -30.530061 44.896934 -0.388227 2.318563 0.010546 -0.006581 -98578.800000 0 0 1
-30.282024 11.609463 -29.264651 43.682953 -0.366095 2.304915 0.009269 -0.018502 -413515.000000 0 0 1
-30.788364 12.311763 -28.107491 43.468769 -0.380406 2.273933 -0.001010 -0.018372 420963.000000 0 0 1
-30.797594 11.393063 -27.070241 42.556922 -0.354321 2.260223 0.000786 -0.007825 -2407.320000 0 0 1
-30.464454 11.961363 -25.642401 41.577516 -0.374140 2.235387 -0.009337 -0.011755 352797.000000 0 0 1
-29.101474 12.326063 -25.474011 40.592522 -0.400646 2.249204 0.007574 -0.014563 136109.000000 0 0 1
-28.953164 12.925563 -24.213411 39.895427 -0.419881 2.222978 0.004923 -0.010968 -818680.000000 0 0 1
-27.528404 13.249863 -23.845911 38.755636 -0.448589 2.233549 0.022625 -0.007306 -2102310.000000 0 0 1
-26.820824 14.205663 -24.601411 39.069001 -0.487086 2.251952 0.039815 -0.017076 1022900.000000 0 0 1
-25.419904 14.222763 -24.248211 37.900320 -0.510117 2.265020 0.049823 -0.020271 1052500.000000 0 0 1
-25.082844 14.552263 -22.772511 36.871461 -0.525709 2.236508 0.046805 -0.012062 -1669630.000000 0 0 1
-25.402244 15.896263 -22.508211 37.477790 -0.559161 2.215016 0.061846 -0.019327 165580.000000 0 0 1
-25.489564 16.256563 -21.138211 36.889262 -0.567732 2.180980 0.052953 -0.009627 -193489.000000 0 0 1
-26.930264 16.628763 -20.731411 37.835780 -0.553170 2.150686 0.038160 -0.012263 63353.300000 0 0 1
-27.802994 15.493863 -20.705411 37.970782 -0.508410 2.147542 0.037048 -0.008489 72664.300000 0 0 1
-29.014494 15.871363 -20.085011 38.693005 -0.500549 2.116578 0.031959 -0.004205 -840082.000000 0 0 1
-30.012104 14.672963 -20.181911 39.029883 -0.454729 2.114242 -0.001513 -0.008238 20676.600000 0 0 1
-30.627374 14.462363 -21.441611 40.086639 -0.441164 2.135164 -0.006394 -0.002559 715919.000000 0 0 1
-31.514744 15.529163 -21.880811 41.389659 -0.457838 2.127810 -0.000422 0.002935 -161502.000000 0 0 1
-31.942824 15.453863 -23.330911 42.467603 -0.450602 2.152420 0.003671 0.001708 237577.000000 0 0 1
-32.946304 14.452263 -23.609511 43.031800 -0.413385 2.151548 0.007050 -0.002099 653770.000000 0 0 1
-33.375754 14.669563 -24.967311 44.187143 -0.414111 2.171273 0.014716 -0.015181 -294372.000000 0 0 1
-34.636799 13.927263 -25.426491 45.168384 -0.382311 2.168719 0.002694 -0.013298 -179314.000000 0 0 1
-34.551288 12.537563 -25.690361 44.843914 -0.348092 2.180817 0.016483 -0.016236 17491.000000 0 0 1
-34.451069 11.712463 -24.565011 43.903276 -0.327715 2.164610 0.008324 -0.012517 -267079.000000 0 0 1
-34.641494 10.241563 -24.937211 43.895184 -0.287456 2.175001 0.014305 -0.013150 804963.000000 0 0 1
-35.988625 9.916563 -25.334761 45.115069 -0.268875 2.167065 0.035020 -0.014632 708275.000000 0 0 1
-36.063389 8.951063 -26.346711 45.550397 -0.243287 2.187572 0.021362 0.002414 -155913.000000 0 0 1
36.141058 8.461263 -26.705831 45.727130 0.229976 2.194476 0.053557 -0.001320 -99251.200000 0 0 1
35.590368 7.877063 -25.545201 44.511568 0.217814 2.182057 0.044898 0.004729 -348750.000000 0 0 1
34.433088 7.171663 -25.934091 43.699512 0.205343 2.206152 0.057424 0.003196 -155467.000000 0 0 1
33.668068 6.571563 -24.748611 42.299149 0.192763 2.195782 0.056475 -0.006820 29781.500000 0 0 1
34.313238 5.418463 -24.174211 42.321986 0.156618 2.178760 0.049754 -0.012646 273877.000000 0 0 1
33.577098 4.807263 -23.128511 41.054346 0.142205 2.169247 0.044661 -0.011722 -5484.110000 0 0 1
34.426798 3.861963 -22.267811 41.182212 0.111712 2.142082 0.040851 -0.016305 -5706.810000 0 0 1
34.905258 2.740963 -22.983711 41.882465 0.078365 2.151685 0.045390 -0.022194 -147278.000000 0 0 1
36.081128 2.232963 -22.412111 42.533947 0.061808 2.125772 0.084648 -0.018845 -348706.000000 0 0 1
36.525928 1.077063 -23.334511 43.356693 0.029479 2.139095 0.090967 -0.011600 -60668.700000 0 0 1
35.827018 -0.138937 -23.169511 42.666389 -0.003878 2.144848 0.055973 -0.006369 457376.000000 0 0 1
36.617798 -1.135537 -23.804311 43.689790 -0.031001 2.147005 0.070900 -0.013293 449081.000000 0 0 1
-23.407044 29.218663 26.970200 46.141214 -0.895386 0.946515 0.064712 -0.016136 -538387.000000 0 0 1
-24.748944 29.486063 26.630790 46.809583 -0.872521 0.965607 0.066084 -0.015678 451054.000000 0 0 1
-25.244484 29.042163 25.388960 46.101306 -0.855240 0.987568 0.058947 -0.004355 -210744.000000 0 0 1
-25.384484 27.513563 25.202850 45.128171 -0.825625 0.978253 0.063008 -0.003073 -75563.100000 0 0 1
-26.569484 26.947563 25.781220 45.790609 -0.792463 0.972756 0.072979 -0.004531 508655.000000 0 0 1
-26.639124 26.673463 27.187650 46.478864 -0.786042 0.945982 0.081814 -0.012022 -637570.000000 0 0 1
-25.953674 25.382663 27.712120 45.670935 -0.774276 0.918795 0.078319 -0.012500 1582720.000000 0 0 1
-24.506344 25.427863 27.855630 44.978586 -0.803851 0.902934 0.071706 -0.012818 1348700.000000 0 0 1
-24.095744 25.843663 29.167690 45.817616 -0.820385 0.880709 0.062215 -0.017307 -775263.000000 0 0 1
-22.667744 25.674063 29.613560 45.276341 -0.847507 0.857854 0.057061 -0.016625 -955898.000000 0 0 1
-21.640044 26.466163 28.957530 44.802765 -0.885386 0.868027 0.064373 -0.019319 912054.000000 0 0 1
-20.382844 26.356963 29.588620 44.560478 -0.912525 0.844627 0.067059 -0.027016 227973.000000 0 0 1
-19.646144 24.982263 29.460530 43.335981 -0.904401 0.823283 0.075816 -0.017945 -1007430.000000 0 0 1
-19.135244 24.802563 28.135160 42.105960 -0.913675 0.839011 0.080030 -0.014215 -76929.800000 0 0 1
-19.831644 23.948363 27.249890 41.344584 -0.879154 0.851185 0.085893 -0.019394 -438445.000000 0 0 1
-19.816444 22.419363 27.440010 40.598934 -0.846949 0.828638 0.072671 -0.011926 13016.400000 0 0 1
-20.604144 21.972063 28.509010 41.473677 -0.817516 0.812893 0.074668 -0.010907 118089.000000 0 0 1
-20.419644 20.582963 28.537390 40.681726 -0.789381 0.793325 0.076492 -0.018048 180197.000000 0 0 1
-20.950744 19.939263 29.839590 41.556094 -0.760667 0.769792 0.087279 -0.027911 318310.000000 0 0 1
-20.065044 20.199463 30.934720 42.042611 -0.788737 0.743957 0.073389 -0.025808 464076.000000 0 0 1
-20.641844 19.883863 32.164688 43.081560 -0.766697 0.727860 0.071234 -0.022001 -312400.000000 0 0 1
-19.802244 20.490263 33.296299 43.824916 -0.802472 0.707857 0.069656 -0.028831 -585100.000000 0 0 1
-19.930344 21.857963 33.413380 44.625588 -0.831494 0.724623 0.044720 -0.031751 673485.000000 0 0 1
-18.897744 22.633363 32.753600 44.070309 -0.875104 0.732937 0.060301 -0.017871 223709.000000 0 0 1
-17.507344 22.668063 33.404560 44.002418 -0.913153 0.708786 0.050128 -0.012142 -659219.000000 0 0 1
-16.791244 21.511863 33.317987 43.067324 -0.908024 0.686253 0.061737 -0.017929 -671849.000000 0 0 1
-15.453144 21.694063 33.716571 42.967885 -0.951849 0.668597 0.058056 -0.015575 -533922.000000 0 0 1
-14.647744 20.376663 33.759355 42.064936 -0.947532 0.639233 0.056440 -0.010249 -523023.000000 0 0 1
-13.302544 20.385963 -33.990391 41.807796 -0.992641 2.520109 0.049032 -0.012245 -376017.000000 0 0 1
-13.047144 20.728463 -32.621571 40.792941 -1.009017 2.497570 0.063301 -0.025260 475901.000000 0 0 1
-11.520644 20.526663 -32.302021 39.968609 -1.059355 2.511860 0.052824 -0.021525 1276510.000000 0 0 1
-10.648944 21.606363 -32.697711 40.612501 -1.112876 2.506665 0.053180 -0.026181 707948.000000 0 0 1
-9.325744 21.290363 -32.248421 39.751852 -1.157944 2.517072 0.045958 -0.017667 1127430.000000 0 0 1
-8.277744 22.507163 -32.426071 40.330429 -1.218368 2.504805 0.055037 -0.016879 891074.000000 0 0 1
-8.159944 23.507363 -31.415301 40.076202 -1.236687 2.471701 0.060913 -0.017813 -24156.500000 0 0 1
-7.805944 22.983563 -30.150921 38.707298 -1.243388 2.463781 0.050526 -0.019641 -308665.000000 0 0 1
-7.331644 24.019363 -29.093671 38.433377 -1.274540 2.429490 0.065237 -0.021967 484299.000000 0 0 1
-6.090844 24.613063 -29.476541 38.881457 -1.328206 2.431211 0.066086 -0.017306 464608.000000 0 0 1
-5.702944 25.724463 -28.651691 38.925454 -1.352631 2.398036 0.088385 -0.016502 -84180.300000 0 0 1
-4.340644 26.314263 -29.055391 39.439794 -1.407314 2.398977 0.048526 -0.018021 -282401.000000 0 0 1
-3.243144 25.485663 -28.639491 38.474114 -1.444223 2.410407 0.068142 -0.013138 1391710.000000 0 0 1
-1.957844 25.764563 -29.225371 39.009847 -1.494952 2.417619 0.095645 -0.015794 828029.000000 0 0 1
-1.306144 27.118063 -29.001351 39.726234 -1.522668 2.389162 0.099581 -0.029571 -970138.000000 0 0 1
-0.905144 27.231063 -27.623971 38.799921 -1.537569 2.363081 0.100793 -0.043204 442991.000000 0 0 1
-0.253544 28.498563 -27.393611 39.530271 -1.561900 2.336408 0.108493 -0.041233 -592237.000000 0 0 1
0.364556 28.649463 -25.963491 38.665585 1.558072 2.307012 0.117691 -0.053137 886919.000000 0 0 1
1.512356 27.839263 -25.644821 37.880980 1.516525 2.314454 0.142238 -0.064076 1407050.000000 0 0 1
2.699156 28.145963 -26.406121 38.688033 1.475190 2.322028 0.137485 -0.062957 277004.000000 0 0 1
4.028656 28.261463 -25.619591 38.357578 1.429201 2.302200 0.144887 -0.066812 -30134.400000 0 0 1
4.448056 27.051863 -24.986711 37.093452 1.407828 2.309886 0.139701 -0.063666 388650.000000 0 0 1
5.626756 27.220363 -24.211311 36.861852 1.366956 2.287380 0.110465 -0.054948 296456.000000 0 0 1
6.198756 25.879763 -23.576511 35.553320 1.335704 2.295790 0.106218 -0.055392 368699.000000 0 0 1
7.535956 26.076263 -23.170311 35.687889 1.289465 2.277392 0.100658 -0.051910 -607436.000000 0 0 1
8.168156 24.899663 -22.810711 34.742489 1.253815 2.287052 0.092124 -0.035737 949968.000000 0 0 1
9.625056 25.083463 -22.222211 34.866151 1.204402 2.261861 0.086583 -0.020201 692609.000000 0 0 1
9.802256 25.533063 -20.868911 34.402514 1.204242 2.222586 0.098611 -0.026260 219066.000000 0 0 1
11.162056 25.848263 -20.598511 34.885855 1.163155 2.202418 0.117476 -0.029115 386105.000000 0 0 1
12.045756 24.739163 -20.044711 34.042868 1.117675 2.200380 0.075887 -0.014357 -359320.000000 0 0 1
12.437356 23.835663 -21.034711 34.136282 1.089864 2.234703 0.071688 -0.015914 -68563.100000 0 0 1
12.409856 22.527463 -20.585711 32.943324 1.067280 2.245778 0.046699 -0.007310 -251147.000000 0 0 1
12.464356 21.496763 -21.703811 32.992824 1.045344 2.288736 0.060536 -0.012282 543890.000000 0 0 1
11.356456 21.624563 -22.607511 33.281983 1.087220 2.317566 0.063817 -0.027933 657344.000000 0 0 1
11.555656 20.716663 -23.608311 33.467382 1.061988 2.353801 0.049817 -0.032758 -12490.400000 0 0 1
10.681156 21.043063 -24.807311 34.238871 1.101099 2.381158 0.062813 -0.034946 -259969.000000 0 0 1
9.290056 20.935263 -24.673811 33.665818 1.153151 2.393377 0.048896 -0.041049 -436949.000000 0 0 1
8.668456 20.587563 -25.903481 34.204974 1.172274 2.429968 0.047938 -0.041288 -1155990.000000 0 0 1
7.182556 20.334863 -25.806841 33.631664 1.231261 2.445475 0.055334 -0.051274 -627055.000000 0 0 1
6.404956 21.483463 -25.416811 33.890661 1.281052 2.418806 0.094095 -0.057811 98042.300000 0 0 1
6.472856 21.848963 -24.067511 33.143931 1.282779 2.383504 0.098595 -0.057364 -1655950.000000 0 0 1
5.083756 22.018563 -23.516911 32.614518 1.343888 2.376122 0.123080 -0.059496 -67002.200000 0 0 1
4.248356 22.964363 -24.269111 33.680859 1.387867 2.375407 0.128143 -0.059023 -669929.000000 0 0 1
2.905356 22.881863 -23.988911 33.278951 1.444500 2.375815 0.145379 -0.059159 -783717.000000 0 0 1
2.129856 24.138363 -24.535411 34.484536 1.482789 2.362413 0.136917 -0.050857 430854.000000 0 0 1
0.729956 23.916263 -24.457811 34.215566 1.540284 2.367156 0.142330 -0.069947 -138751.000000 0 0 1
0.083456 24.580063 -25.503751 35.420725 1.567401 2.374632 0.124636 -0.064710 1266170.000000 0 0 1
-1.498744 24.389963 -25.463461 35.291704 -1.509424 2.376783 0.132855 -0.057823 1391750.000000 0 0 1
-1.835944 23.084263 -25.839941 34.698075 -1.491431 2.410894 0.155987 -0.058291 -1191230.000000 0 0 1
-3.056944 23.078363 -26.447961 35.234222 -1.439104 2.419816 0.139352 -0.040893 -1290580.000000 0 0 1
-3.561644 21.773663 -27.029531 34.890876 -1.408657 2.457017 0.105897 -0.039160 -719497.000000 0 0 1
-2.849944 21.444663 -28.204881 35.545901 -1.438673 2.487299 0.134981 -0.045190 107847.000000 0 0 1
-3.428244 20.333963 -28.815711 35.433996 -1.403770 2.520464 0.093348 -0.036592 600424.000000 0 0 1
-4.568944 20.722163 -29.864361 36.635548 -1.353783 2.523827 0.067899 -0.032086 467208.000000 0 0 1
-4.247844 20.988163 -31.181961 37.826735 -1.371101 2.539826 0.066553 -0.029105 41511.300000 0 0 1
-3.581444 22.249363 -31.387881 38.640134 -1.411197 2.518903 0.075900 -0.026519 188044.000000 0 0 1
-3.116444 22.418363 -32.863751 39.903901 -1.432669 2.538477 0.063355 -0.019687 101901.000000 0 0 1
-2.082144 21.496463 -33.182571 39.591871 -1.474238 2.564616 0.067558 -0.019329 272515.000000 0 0 1
-1.647144 21.644863 33.607257 40.008260 -1.494844 0.573498 0.065746 -0.013234 30774.600000 0 0 1
-0.657244 20.593063 33.065664 38.959522 -1.538891 0.557239 0.078300 -0.014335 151482.000000 0 0 1
-1.265244 19.316363 32.819023 38.102637 -1.505389 0.532911 0.071130 0.004941 -394879.000000 0 0 1
-0.382444 18.395063 32.291613 37.165479 -1.550009 0.517901 0.086797 -0.008404 -723136.000000 0 0 1
-0.947044 17.145563 31.744540 36.091315 -1.515617 0.495856 0.064982 -0.005922 -177720.000000 0 0 1
-1.673144 17.272863 30.529540 35.117005 -1.474232 0.516878 0.059344 -0.006603 199648.000000 0 0 1
-2.204044 16.047263 30.059430 34.145890 -1.434303 0.494253 0.046197 -0.005175 -239692.000000 0 0 1
-3.367044 16.112463 29.073240 33.409605 -1.364790 0.515176 0.054257 -0.008817 -792142.000000 0 0 1
-4.589744 16.569263 29.541900 34.180844 -1.300568 0.527074 0.043853 -0.011953 -643428.000000 0 0 1
-4.887444 17.890563 29.112290 34.517891 -1.304118 0.567221 0.051641 -0.012887 -625673.000000 0 0 1
-6.353944 18.242363 29.282360 35.080094 -1.235630 0.583156 0.036982 -0.015960 -371742.000000 0 0 1
-7.217244 17.537763 28.409840 34.158172 -1.180393 0.588608 0.031014 -0.012469 1115890.000000 0 0 1
-8.609144 17.787063 28.739840 34.878007 -1.120021 0.602343 0.030269 0.001672 533700.000000 0 0 1
-9.673244 17.090363 27.913490 34.129387 -1.055748 0.613092 0.027000 -0.006002 -519914.000000 0 0 1
-10.025844 15.773263 28.042410 33.700002 -1.004595 0.587879 0.033333 -0.012278 -80282.600000 0 0 1
-10.511344 15.478763 29.310800 34.773603 -0.974248 0.568139 0.028847 -0.011502 -768221.000000 0 0 1
-11.009344 13.978763 29.554330 34.497389 -0.903677 0.541935 0.038489 -0.017773 168459.000000 0 0 1
-10.011944 12.981563 29.740070 33.959266 -0.913838 0.503794 0.051483 -0.016609 643958.000000 0 0 1
-9.127844 13.152263 30.863870 34.768923 -0.964100 0.478502 0.052917 -0.018290 203535.000000 0 0 1
-9.761944 12.829663 32.253297 36.057883 -0.920363 0.463515 0.062152 -0.020463 -168458.000000 0 0 1
-10.142744 11.444363 32.297854 35.735138 -0.845621 0.442200 0.070556 -0.018708 569363.000000 0 0 1
-10.757344 11.077163 33.535558 36.919610 -0.800045 0.431499 0.086967 -0.023418 -515175.000000 0 0 1
-10.967644 9.559363 33.595127 36.610151 -0.716899 0.408683 0.085176 -0.020792 -801133.000000 0 0 1
-9.863044 8.736163 33.822569 36.298297 -0.724885 0.371470 0.096833 -0.025393 -288865.000000 0 0 1
-9.821444 8.218163 -32.970071 35.369825 -0.696755 2.771109 0.121819 -0.038831 -32489.700000 0 0 1
-9.037844 9.045863 -31.914831 34.381197 -0.785842 2.760514 0.104005 -0.041747 -228461.000000 0 0 1
-9.694844 10.226863 -31.580021 34.581447 -0.812097 2.721882 0.087791 -0.038314 197105.000000 0 0 1
-8.905244 10.948063 -30.640171 33.734011 -0.887933 2.709968 0.079072 -0.035972 -160680.000000 0 0 1
-7.891544 11.898463 -31.287041 34.390825 -0.985169 2.713477 0.066710 -0.030402 -193597.000000 0 0 1
-8.398744 13.153263 -31.582641 35.227978 -1.002527 2.682650 0.057508 -0.022955 -435711.000000 0 0 1
-7.392544 13.916263 -32.162291 35.815151 -1.082489 2.686017 0.044083 -0.016490 -423960.000000 0 0 1
-7.711444 15.320963 -32.580111 36.819314 -1.104491 2.657000 0.043495 -0.008506 -36358.500000 0 0 1
-8.497544 15.406163 -33.774391 38.082379 -1.066750 2.661338 0.037511 -0.013176 107620.000000 0 0 1
-8.992544 16.708063 -33.987141 38.924940 -1.077045 2.632415 0.052275 -0.012632 -866809.000000 0 0 1
-9.571044 16.914663 32.725934 38.061758 -1.055871 0.535896 0.044677 -0.010799 1644550.000000 0 0 1
-10.789644 16.169063 32.380475 37.767051 -0.982354 0.540651 0.043356 -0.016926 1769170.000000 0 0 1
-11.991644 16.511263 33.064410 38.854556 -0.942656 0.552950 0.047369 -0.020784 201093.000000 0 0 1
-13.248944 15.763663 32.530858 38.500445 -0.871859 0.564329 0.045878 -0.023595 154268.000000 0 0 1
-13.103044 14.355363 32.529046 37.893337 -0.830974 0.538582 0.046749 -0.025440 891369.000000 0 0 1
-14.369244 13.740663 32.842439 38.391493 -0.763040 0.544355 0.036493 -0.018108 715411.000000 0 0 1
-14.563644 12.228563 32.740018 37.862201 -0.698463 0.526213 0.045703 -0.018527 -129147.000000 0 0 1
-14.651344 11.641163 31.459600 36.604439 -0.671406 0.536608 0.028633 -0.014835 26437.100000 0 0 1
-13.391844 11.120463 31.099240 35.639429 -0.692999 0.510280 0.039699 -0.017460 -241855.000000 0 0 1
-13.425544 10.678563 29.657440 34.261358 -0.671925 0.524402 0.037999 -0.016428 24428.900000 0 0 1
-14.317344 9.586863 29.504170 34.167094 -0.590029 0.528576 0.029694 -0.011324 152589.000000 0 0 1
-14.465444 9.083663 28.155590 32.931736 -0.560722 0.545307 0.021025 -0.008568 -367388.000000 0 0 1
-15.270644 7.830063 28.052850 32.885633 -0.473798 0.549008 0.031161 -0.001715 -311095.000000 0 0 1
-14.653744 6.643663 28.509330 32.736102 -0.425658 0.513799 0.017759 0.004578 301345.000000 0 0 1
-15.448144 5.488863 28.196930 32.616554 -0.341396 0.526647 0.031642 0.003359 1038320.000000 0 0 1
-14.436244 4.255263 28.079040 31.858199 -0.286645 0.492030 0.035555 0.006685 1054210.000000 0 0 1
-13.446944 4.328063 27.059260 30.524678 -0.311391 0.481132 0.032859 0.003897 209507.000000 0 0 1
-13.956144 4.191463 25.720300 29.561396 -0.291760 0.515465 0.036713 0.001596 -15668.600000 0 0 1
-12.815144 4.177463 24.665380 28.108007 -0.315117 0.500127 0.034113 0.001381 500053.000000 0 0 1
-11.896544 3.091163 24.763500 27.646229 -0.254215 0.460730 0.027212 -0.002842 158909.000000 0 0 1
-11.430844 2.627363 23.534650 26.295379 -0.225925 0.462341 0.033995 -0.006245 -118719.000000 0 0 1
-10.438244 1.461263 23.785930 26.016585 -0.139087 0.417118 0.040253 -0.008960 665327.000000 0 0 1
-9.145344 1.901463 24.214180 25.953408 -0.204995 0.368173 0.033167 -0.014652 1118670.000000 0 0 1
-8.238844 0.813363 24.530840 25.890195 -0.098404 0.325486 0.023661 -0.007812 1010150.000000 0 0 1
-6.718944 1.085363 24.372470 25.304931 -0.160154 0.272314 0.028998 -0.019405 41560.800000 0 0 1
-6.408644 1.451463 23.036290 23.955127 -0.222728 0.277864 0.029263 -0.022279 -464936.000000 0 1 0
-5.125244 1.975163 22.858190 23.508854 -0.367839 0.235822 0.033801 -0.020294 -387117.000000 0 1 0
-4.699844 3.307163 23.500080 24.192553 -0.613188 0.239837 0.050092 -0.019944 -713938.000000 0 1 0
-4.296344 3.231563 24.844870 25.419857 -0.644886 0.213098 0.044216 -0.018569 -36978.500000 0 0 1
-3.712244 4.401363 25.331750 25.977881 -0.870129 0.223500 0.048582 -0.017977 -334305.000000 0 0 1
4.928056 -23.308037 13.205089 27.238295 -1.362433 1.064663 0.068888 -0.025323 258453.000000 0 0 1
4.449556 -24.620637 13.452189 28.406614 -1.392002 1.077470 0.082624 -0.035836 321.712000 0 0 1
3.026356 -24.643837 13.458189 28.241820 -1.448604 1.074088 0.072559 -0.029966 139745.000000 0 0 1
2.391056 -25.942367 13.924989 29.540293 -1.478888 1.079930 0.059442 -0.033049 -175736.000000 0 0 1
2.323756 -26.011147 15.332889 30.283281 -1.481696 1.039890 0.064273 -0.034392 -17744.300000 0 0 1
2.379056 -27.348497 15.892489 31.720205 -1.484024 1.046018 0.052217 -0.029928 -260067.000000 0 0 1
2.077756 -27.390207 17.421789 32.527823 -1.495084 1.005582 0.049656 -0.028186 -163483.000000 0 0 1
3.159356 -26.935487 18.183489 32.651819 -1.454036 0.980159 0.059134 -0.033201 11188.100000 0 0 1
2.895856 -27.140287 19.536689 33.565807 -1.464499 0.949559 0.058074 -0.028485 -180061.000000 0 0 1
3.647356 -26.241197 20.496289 33.496291 -1.432688 0.912339 0.058104 -0.025249 -432179.000000 0 0 1
2.989556 -25.019337 20.724489 32.625283 -1.451870 0.882493 0.059814 -0.023988 -29463.300000 0 0 1
3.676656 -24.172137 21.623689 32.640373 -1.419850 0.846668 0.066685 -0.023610 -206367.000000 0 0 1
2.942256 -22.936637 22.221089 32.070594 -1.443215 0.805320 0.073449 -0.028351 -326064.000000 0 0 1
2.471856 -21.991437 21.302289 30.716785 -1.458865 0.804452 0.078633 -0.028689 650181.000000 0 0 1
3.479156 -21.323137 20.481889 29.770598 -1.409058 0.812080 0.066690 -0.017894 517378.000000 0 0 1
2.946356 -20.127637 19.664989 28.293366 -1.425445 0.802322 0.051357 -0.020719 -107613.000000 0 0 1
2.613456 -19.067837 20.547889 28.153655 -1.434584 0.752697 0.034906 -0.022875 -94872.400000 0 0 1
1.590856 -18.284437 19.974989 27.126586 -1.484009 0.743119 0.023123 -0.027131 64649.000000 0 0 1
1.281156 -17.010237 20.844889 26.935087 -1.495621 0.685830 0.035459 -0.019736 666016.000000 0 0 1
2.389656 -16.110537 20.741789 26.371987 -1.423541 0.665662 0.001247 -0.002581 782971.000000 0 0 1
1.846056 -14.856237 21.040589 25.822899 -1.447169 0.618406 0.014953 -0.003443 419218.000000 0 0 1
2.949956 -13.794837 20.811889 25.142285 -1.360124 0.595685 -0.012576 0.003827 -163238.000000 0 0 1
3.291656 -13.286437 19.505389 23.829071 -1.327941 0.611907 -0.025947 0.001413 325162.000000 0 1 0
2.202256 -12.871037 18.655489 22.771491 -1.401336 0.610699 -0.006599 0.000049 302875.000000 0 1 0
1.404056 -11.663937 19.166189 22.480249 -1.450997 0.549896 -0.002559 -0.001990 -463896.000000 0 1 0
2.097556 -10.421437 19.171289 21.921323 -1.372177 0.506290 0.008653 0.007946 -273944.000000 0 1 0
1.630356 -9.558637 20.164489 22.374812 -1.401858 0.448234 0.016278 -0.008349 1708150.000000 0 1 0
0.096156 -9.082137 20.144489 22.097396 -1.560209 0.423581 0.014008 -0.010363 1706220.000000 0 1 0
-0.287044 -8.264537 21.202389 22.757993 1.536078 0.371880 0.020848 -0.017111 -350763.000000 0 1 0
-1.677244 -8.047337 21.143789 22.685515 1.365316 0.370796 0.021672 -0.014505 144392.000000 0 1 0
-2.377944 -7.186437 22.219889 23.473878 1.251243 0.328339 0.020483 -0.017870 -130590.000000 0 1 0
-2.508244 -8.035737 23.352089 24.823062 1.268243 0.345986 0.016704 -0.002545 -61972.200000 0 1 0
-2.565544 -7.338337 24.610789 25.809381 1.234471 0.305955 0.018143 0.002919 -77473.600000 0 0 1
-2.525944 -8.331037 25.774589 27.205073 1.276409 0.325727 0.018679 0.005850 650725.000000 0 0 1
-1.248944 -8.952437 25.945189 27.474694 1.432182 0.335243 0.024317 -0.001761 362172.000000 0 0 1
-1.344744 -9.994037 26.922189 28.748798 1.437045 0.358389 0.038333 -0.004768 -234133.000000 0 0 1
-0.129144 -10.900337 27.065989 29.178790 1.558949 0.382884 0.040475 -0.008241 -1256810.000000 0 0 1
0.918756 -10.464737 27.815089 29.732709 -1.483225 0.361112 0.037140 -0.006772 -1654770.000000 0 0 1
1.842556 -11.503737 27.842289 30.181518 -1.411975 0.396302 0.046278 -0.011146 -314477.000000 0 0 1
3.040256 -11.133137 28.749189 30.979118 -1.304214 0.381739 0.064117 -0.015898 16576.800000 0 0 1
2.619256 -11.061837 30.093289 32.168786 -1.338295 0.361178 0.059656 -0.026314 129460.000000 0 0 1
3.624356 -10.544137 30.956889 32.903552 -1.239716 0.345704 0.070345 -0.013536 -53929.900000 0 0 1
3.073456 -10.152837 32.332489 34.028166 -1.276847 0.317021 0.063865 -0.018271 -104607.000000 0 0 1
2.655856 -11.231537 33.132389 35.084985 -1.338597 0.335194 0.060511 -0.021541 88716.100000 0 0 1
2.322656 -10.830337 -33.621312 35.398921 -1.359538 2.823340 0.056925 -0.031535 104944.000000 0 0 1
3.536756 -10.690537 -32.624612 34.513209 -1.251300 2.809245 0.050457 -0.013603 300486.000000 0 0 1
4.247656 -9.494737 -32.813512 34.422656 -1.150132 2.834622 0.038672 -0.023720 96067.000000 0 0 1
4.290156 -8.798837 -31.553812 33.037374 -1.117132 2.840775 0.058570 -0.014757 -7641.390000 0 0 1
3.201056 -7.709837 -31.362212 32.454225 -1.177263 2.881446 0.040027 -0.012994 36735.600000 0 0 1
3.537556 -6.574537 -32.069312 32.926883 -1.077159 2.912863 0.062868 -0.016200 52702.200000 0 0 1
2.719156 -5.494637 -31.675512 32.263337 -1.111257 2.950411 0.055240 -0.010303 60270.200000 0 0 1
2.889956 -4.270637 -32.583612 32.989119 -0.975877 2.984638 0.066571 -0.012365 -163705.000000 0 0 1
2.342356 -4.328737 -33.848712 34.204677 -1.074798 2.997197 0.065276 -0.021605 -318513.000000 0 0 1
2.539556 -3.117437 33.580189 33.820066 -0.887198 0.119173 0.078026 -0.005548 -59431.600000 0 0 1
1.889356 -3.129337 32.203389 32.410194 -1.027620 0.113028 0.082458 -0.012263 850734.000000 0 0 1
0.454556 -3.146237 32.210789 32.367273 -1.427313 0.098372 0.071481 -0.016351 368132.000000 0 0 1
0.012956 -3.600037 30.952089 31.160748 -1.567197 0.115790 0.070937 -0.010066 -82178.300000 0 0 1
-1.520644 -3.664737 30.871389 31.125316 1.177478 0.127823 0.051962 -0.016789 55049.800000 0 0 1
-2.255444 -2.469937 30.591089 30.773403 0.830759 0.108906 0.051502 -0.014716 -305612.000000 0 0 1
-3.609344 -2.841137 30.540889 30.884386 0.666864 0.149283 0.027078 -0.013010 -362049.000000 0 0 1
-4.530244 -1.746237 30.040789 30.430600 0.367911 0.160233 0.038560 -0.009726 -543357.000000 0 0 1
-4.368644 -1.560137 28.661389 29.034364 0.343005 0.160459 0.032330 -0.008123 730892.000000 0 0 1
-5.417244 -0.864937 27.897289 28.431556 0.158327 0.194167 0.021221 -0.011156 966887.000000 0 0 1
-5.867644 0.567263 28.144689 28.755426 -0.096377 0.206469 0.040978 -0.012134 1108940.000000 0 0 1
-7.126944 0.723263 28.846489 29.722657 -0.101137 0.243410 0.034866 -0.007823 619153.000000 0 0 1
-7.497644 2.074263 28.797789 29.830016 -0.269904 0.263837 0.047202 -0.010028 1001380.000000 0 0 1
-8.940644 2.317163 29.419589 30.835313 -0.253592 0.304198 0.048649 -0.012069 565695.000000 0 0 1
-9.901844 1.861563 28.538489 30.264786 -0.185832 0.339383 0.034585 -0.001812 -571727.000000 0 0 1
-11.207044 2.296863 28.892689 31.075084 -0.202149 0.377008 0.026058 -0.001786 421451.000000 0 0 1
-12.233744 1.346763 28.165189 30.736885 -0.109644 0.411975 0.023664 0.003783 -39402.100000 0 0 1
-12.297144 0.052663 28.635689 31.164486 -0.004282 0.405624 0.028628 0.009498 60252.000000 0 0 1
-12.416344 -0.793537 27.510089 30.192719 0.063824 0.424731 0.033916 0.011917 -927735.000000 0 0 1
-12.063644 -2.300537 27.774889 30.368872 0.188438 0.416318 0.038700 0.008993 387834.000000 0 0 1
-10.695244 -2.573337 28.068689 30.147331 0.236118 0.373515 0.037474 0.001446 903114.000000 0 0 1
-9.664244 -2.209037 27.167889 28.920090 0.224718 0.349885 0.045274 -0.000689 -516151.000000 0 0 1
-9.634044 -2.855937 25.802489 27.690063 0.288190 0.371367 0.027483 0.006854 -806660.000000 0 0 1
-10.603944 -2.316137 24.926889 27.187458 0.215045 0.410673 0.019808 0.003769 271176.000000 0 0 1
-10.581844 -2.895937 23.637489 26.059408 0.267130 0.434545 0.029500 0.006279 -155623.000000 0 0 1
-9.661344 -2.256237 22.556289 24.641800 0.229421 0.414378 0.028462 -0.005151 -186715.000000 0 1 0
-8.345744 -2.436937 22.970189 24.560531 0.284099 0.361837 0.027822 -0.005291 -920850.000000 0 1 0
-7.365744 -2.216837 21.983589 23.290486 0.292343 0.336588 0.010668 -0.007723 66663.300000 0 1 0
-5.918144 -2.341037 22.497889 23.380759 0.376681 0.275683 0.007848 -0.009140 -81443.300000 0 1 0
-5.356844 -3.634437 22.494489 23.407412 0.596127 0.280206 0.009719 -0.010630 -91038.000000 0 1 0
-5.809744 -4.520637 23.506989 24.632657 0.661252 0.303482 0.007039 0.000732 -165374.000000 0 1 0
-5.695844 -5.995937 23.042789 24.481912 0.811060 0.344582 0.019735 0.000777 107692.000000 0 1 0
-6.668444 -6.415137 22.030089 23.894496 0.766040 0.397651 0.028777 -0.008925 306037.000000 0 1 0
-6.362944 -6.083937 20.680989 22.476758 0.762986 0.402447 0.027087 -0.016224 -479201.000000 0 1 0
-7.493344 -6.173037 19.645389 21.913418 0.689087 0.458990 0.023876 -0.015013 37214.900000 0 1 0
-8.343144 -5.023937 19.688489 21.965532 0.542009 0.459362 0.022505 -0.021312 -769286.000000 0 1 0
-9.409944 -5.038037 18.815389 21.632099 0.491561 0.516019 0.035491 -0.017275 -132893.000000 0 1 0
-10.052144 -3.604037 18.969589 21.768784 0.344257 0.512722 0.029610 -0.018463 329256.000000 0 1 0
-9.049344 -2.677437 18.585589 20.844265 0.287664 0.469841 0.021446 -0.019248 219707.000000 0 1 0
-9.495444 -1.339337 18.609589 20.934996 0.140126 0.475809 0.017773 -0.016853 -336717.000000 0 1 0
-8.416544 -0.343737 18.188289 20.044206 0.040818 0.433720 0.008173 -0.016763 781878.000000 0 1 0
-7.372044 -0.043337 19.201889 20.568457 0.005879 0.366576 0.018204 -0.006075 1348390.000000 0 1 0
-7.808844 0.782963 20.266589 21.733055 -0.099932 0.369457 0.031852 -0.009298 -239344.000000 0 1 0
-7.832344 2.305363 20.059889 21.657780 -0.286255 0.386535 0.036545 -0.020425 67823.300000 0 1 0
-8.734044 2.697163 19.007489 21.091298 -0.299520 0.448265 0.029340 -0.030452 485012.000000 0 1 0
-8.607644 4.090263 18.758089 21.040144 -0.443603 0.470067 0.028344 -0.028042 -74471.000000 0 1 0
-9.555244 4.550163 17.630689 20.563265 -0.444423 0.540624 0.030383 -0.020542 -1290880.000000 0 1 0
-10.889344 4.479263 17.997089 21.506669 -0.390247 0.579358 0.035375 -0.015465 -478962.000000 0 1 0
-11.825844 5.038663 17.067389 21.366667 -0.402778 0.645522 0.036344 -0.002777 359915.000000 0 1 0
-11.832344 6.594863 17.078689 21.798582 -0.508476 0.670555 0.043437 0.000800 -331957.000000 0 1 0
-10.626144 7.189763 16.607989 20.986493 -0.594855 0.657757 0.041688 -0.006658 359773.000000 0 1 0
-10.721044 8.585363 16.770089 21.676833 -0.675226 0.686229 0.039404 -0.009159 -687218.000000 0 1 0
-9.413944 9.299863 16.522389 21.168352 -0.779302 0.675294 0.029678 -0.009431 -649825.000000 0 1 0
-8.689844 9.441063 17.749389 21.901777 -0.826808 0.625947 0.033932 -0.001765 545884.000000 0 1 0
-7.574844 10.368763 17.698189 21.865850 -0.939863 0.627669 0.023296 -0.009938 689755.000000 0 1 0
-7.876144 11.910563 17.494289 22.581968 -0.986537 0.684553 0.006663 -0.006436 -284336.000000 0 1 0
-8.185244 12.316063 16.152989 21.899832 -0.984227 0.741309 0.014950 -0.016154 144790.000000 0 1 0
-9.085944 13.409863 16.000989 22.768628 -0.975292 0.791520 0.033543 -0.024277 199443.000000 0 1 0
-8.941244 14.188963 14.624389 22.251859 -1.008499 0.853671 0.028077 -0.017088 474486.000000 0 1 0
-7.680744 14.828863 14.471289 22.097674 -1.092885 0.856775 0.027403 -0.012772 152191.000000 0 1 0
-7.614344 15.600463 13.266789 21.848578 -1.116727 0.918245 0.015263 -0.019162 -526559.000000 0 1 0
-6.552644 16.671763 13.390489 22.364928 -1.196306 0.928885 -0.004328 -0.010616 -233449.000000 0 1 0
-5.247044 16.197963 13.617889 21.802577 -1.257530 0.896177 -0.000636 -0.016270 -108705.000000 0 1 0
-4.350244 17.331363 13.650489 22.486365 -1.324873 0.918445 0.006190 -0.019616 616840.000000 0 1 0
-2.820244 17.112563 13.505989 21.981931 -1.407459 0.909154 0.012582 -0.020285 728225.000000 0 1 0
-2.105544 16.519563 14.654189 22.182753 -1.444022 0.849163 0.014358 -0.020254 297506.000000 0 1 0
-2.622644 15.301163 15.110689 21.664181 -1.401044 0.798899 0.006419 -0.009966 -787145.000000 0 1 0
-1.639244 14.739163 16.141689 21.919949 -1.460035 0.743074 0.006218 -0.003225 -699812.000000 0 1 0
-0.479644 14.290763 15.519989 21.102749 -1.537246 0.744468 0.000975 -0.011663 129805.000000 0 1 0
0.537756 13.771763 16.465589 21.472453 1.531768 0.696918 0.001404 0.001188 1367120.000000 0 1 0
1.500856 14.840863 17.069389 22.668653 1.470009 0.718194 0.003023 -0.007390 -354227.000000 0 1 0
0.998656 15.600063 18.103789 23.918747 1.506867 0.712260 -0.002528 -0.007576 -359752.000000 0 1 0
1.974256 16.531963 18.541189 24.919454 1.451939 0.731692 0.018732 -0.011022 -161359.000000 0 1 0
1.392256 17.880863 19.026589 26.147174 1.493090 0.755873 0.013989 -0.011181 159444.000000 0 0 1
0.712456 18.646463 18.049489 25.961167 1.532606 0.802029 0.013752 -0.009409 -71988.600000 0 0 1
-0.618444 18.272163 17.784889 25.506012 -1.536963 0.799197 0.017588 -0.011161 -454331.000000 0 0 1
-1.437244 19.104563 16.786289 25.472131 -1.495707 0.851300 0.012414 -0.010498 -126943.000000 0 0 1
-1.990944 20.242563 17.382789 26.756056 -1.472757 0.863637 0.017500 -0.007804 -137225.000000 0 0 1
-2.644144 21.113163 16.470489 26.907882 -1.446208 0.912075 0.030864 -0.019561 -166828.000000 0 0 1
-3.300344 22.361763 17.138789 28.366861 -1.424265 0.922056 0.030227 -0.009935 882205.000000 0 0 1
-4.552444 22.015263 17.778289 28.661195 -1.366885 0.901682 0.036571 -0.006580 939240.000000 0 0 1
-5.014744 23.118763 18.601589 30.093919 -1.357193 0.904450 0.035106 -0.004519 -348568.000000 0 0 1
-6.000644 22.750163 19.700289 30.686789 -1.312907 0.873719 0.033050 -0.003871 -10278.600000 0 0 1
-7.305144 22.635763 19.130689 30.524189 -1.258623 0.893436 0.025738 -0.009343 52415.500000 0 0 1
-8.177444 22.230263 20.152889 31.099744 -1.218307 0.865830 0.018649 -0.006230 -1154570.000000 0 0 1
-9.667844 22.182363 19.950189 31.361353 -1.159784 0.881312 0.018086 -0.003466 -951138.000000 0 0 1
-10.096244 23.483663 19.655189 32.245046 -1.164760 0.915295 0.024489 -0.004786 -559388.000000 0 0 1
-11.401244 23.538463 19.158189 32.420422 -1.119734 0.938586 0.015627 -0.003926 -437953.000000 0 0 1
-11.926944 24.996263 19.087289 33.636137 -1.125596 0.967374 0.018741 -0.002763 -213290.000000 0 0 1
-12.447544 25.280863 20.385989 34.780050 -1.113271 0.944510 0.020987 -0.004226 6352.290000 0 0 1
-13.080544 26.523263 20.437389 35.948170 -1.112626 0.966086 0.027479 -0.002245 -245862.000000 0 0 1
-13.816744 26.766463 21.796289 37.180965 -1.094276 0.944409 0.038256 -0.002428 477474.000000 0 0 1
-15.154044 26.257763 21.906189 37.403158 -1.047366 0.945081 0.045060 -0.007610 620874.000000 0 0 1
-15.675644 26.523663 23.178489 38.554803 -1.037016 0.925816 0.045677 -0.000770 232505.000000 0 0 1
-17.213744 26.291463 23.189389 39.055111 -0.991105 0.935072 0.064614 -0.007168 272464.000000 0 0 1
-17.458944 24.955563 22.993589 38.161498 -0.960338 0.924124 0.067612 -0.010778 295676.000000 0 0 1
-18.863344 24.715263 23.059889 38.709539 -0.918884 0.932640 0.088358 -0.011299 536683.000000 0 0 1
27.795256 24.222563 23.506920 43.725097 0.716824 1.003200 0.066468 -0.021175 -53154.600000 0 0 1
27.334456 23.396663 24.512690 43.536747 0.707933 0.972743 0.075613 -0.028549 36320.700000 0 0 1
26.990456 22.092563 24.055820 42.370373 0.685939 0.967025 0.078760 -0.021046 -269764.000000 0 0 1
26.927156 21.113863 25.239850 42.519607 0.664977 0.935265 0.105594 -0.026980 665815.000000 0 0 1
25.714056 21.395263 25.967050 42.346873 0.693978 0.910693 0.085627 -0.028021 923409.000000 0 0 1
25.780856 20.847163 27.266010 42.926589 0.679981 0.882558 0.097912 -0.032326 -571772.000000 0 0 1
24.456156 20.953463 27.989080 42.667784 0.708415 0.855320 0.093665 -0.031997 -700964.000000 0 0 1
24.181456 22.228363 28.473440 43.469296 0.743339 0.856582 0.093485 -0.042140 944245.000000 0 0 1
22.919256 22.170663 29.180130 43.223958 0.768797 0.829708 0.128276 -0.047236 649276.000000 0 0 1
22.510856 23.527963 29.889270 44.200364 0.807487 0.828174 0.112875 -0.048790 -244101.000000 0 0 1
22.210856 24.546363 28.996060 44.007017 0.835306 0.851446 0.098169 -0.043893 -16704.800000 0 0 1
21.896656 25.843263 29.463360 44.893511 0.867880 0.854899 0.102383 -0.045037 495741.000000 0 0 1
20.463156 26.121263 30.018200 44.745430 0.906265 0.835420 0.117049 -0.042277 426889.000000 0 0 1
19.353856 26.132063 29.103020 43.639916 0.933327 0.840769 0.117788 -0.046736 972959.000000 0 0 1
18.222756 26.668363 29.796150 43.944066 0.971360 0.825694 0.107313 -0.037813 527768.000000 0 0 1
17.222456 25.740863 30.552340 43.504603 0.981131 0.792204 0.095767 -0.025744 -129214.000000 0 0 1
17.733056 25.035663 31.636430 44.069370 0.954514 0.770047 0.090429 -0.035095 784947.000000 0 0 1
16.601456 24.560863 32.413647 43.925947 0.976407 0.740820 0.078601 -0.027485 1060510.000000 0 0 1
17.023256 24.029363 33.794893 44.825175 0.954431 0.716778 0.091338 -0.023057 20219.300000 0 0 1
17.556856 25.061063 -33.504261 45.374394 0.959693 2.401485 0.103023 -0.028494 97030.100000 0 0 1
17.846856 24.586663 -32.210791 44.278091 0.942915 2.385417 0.066998 -0.011799 -9975.390000 0 0 1
18.160956 25.737463 -31.171321 44.315783 0.956306 2.350953 0.070045 0.000862 583865.000000 0 0 1
17.007656 26.607663 -31.000991 44.252565 1.002050 2.346960 0.077730 -0.012373 1020870.000000 0 0 1
17.278556 27.893563 -30.421521 44.744478 1.016201 2.318415 0.085654 -0.016163 -293820.000000 0 0 1
16.798556 28.033463 -28.980121 43.679674 1.030941 2.296242 0.104849 -0.024107 -546200.000000 0 0 1
17.426556 27.230363 -28.026391 42.786167 1.001506 2.285024 0.073665 -0.017857 84461.100000 0 0 1
17.047256 27.645563 -26.697601 42.043406 1.018234 2.258806 0.059208 -0.008428 -132062.000000 0 0 1
17.769556 26.816663 -25.588061 41.105224 0.985593 2.242731 0.045481 -0.011272 347162.000000 0 0 1
19.160356 27.071663 -25.670751 41.940215 0.954878 2.229484 0.062804 -0.012255 -323335.000000 0 0 1
19.924356 26.448363 -24.657211 41.285275 0.925167 2.210852 0.058231 -0.010474 349263.000000 0 0 1
21.444756 26.737963 -24.759811 42.282910 0.894816 2.196385 0.052493 -0.013612 427471.000000 0 0 1
22.104656 26.346663 -23.557311 41.685842 0.872727 2.171369 0.043792 -0.007199 -921563.000000 0 0 1
23.476556 26.404063 -23.728311 42.560028 0.844021 2.162199 0.044302 -0.001302 -741149.000000 0 0 1
24.327456 26.148863 -22.484911 42.203784 0.821467 2.132667 0.055568 0.001572 182076.000000 0 0 1
23.928856 24.932663 -21.880511 40.902135 0.805939 2.135242 0.060671 -0.002324 172676.000000 0 0 1
24.702256 24.779463 -20.704311 40.655771 0.786958 2.105120 0.057455 0.003189 128090.000000 0 0 1
24.079756 23.834863 -19.586911 39.135437 0.780287 2.094961 0.054367 0.000005 -479328.000000 0 0 1
24.361156 22.453163 -19.843711 38.618433 0.744664 2.110452 0.049360 0.006548 271568.000000 0 0 1
24.242456 21.654063 -18.684811 37.492897 0.729062 2.092498 0.067144 0.005399 -841692.000000 0 0 1
24.321856 20.145563 -19.031611 36.872735 0.691755 2.113138 0.080194 0.001310 265356.000000 0 0 1
23.460956 19.592763 -20.026411 36.542441 0.695793 2.150805 0.066760 -0.001818 -447052.000000 0 0 1
22.096656 19.687663 -19.792211 35.603341 0.727809 2.160252 0.060694 -0.006314 -642991.000000 0 0 1
21.195356 19.554263 -21.082311 35.722208 0.745147 2.202070 0.077629 -0.009698 243162.000000 0 0 1
21.385056 20.438163 -22.183211 36.974775 0.762762 2.214242 0.069355 -0.005191 -29984.000000 0 0 1
21.422756 21.801463 -21.872911 37.585403 0.794159 2.191924 0.058686 0.003743 -240873.000000 0 0 1
20.919356 22.685963 -22.988811 38.480616 0.825890 2.211067 0.060320 -0.004500 48997.400000 0 0 1
19.540456 22.531563 -23.232911 37.805673 0.856374 2.232593 0.087638 -0.008444 -396984.000000 0 0 1
19.214056 22.913563 -24.517711 38.669490 0.872990 2.257553 0.068673 -0.011991 -495868.000000 0 0 1
17.724056 22.903763 -24.837611 38.152738 0.912206 2.279704 0.063680 -0.014972 -531535.000000 0 0 1
17.022156 23.933263 -24.183411 38.044609 0.952570 2.259659 0.055646 -0.019553 139971.000000 0 0 1
15.622256 23.703263 -24.304511 37.371230 0.988067 2.278846 0.058553 -0.019603 388446.000000 0 0 1
14.762556 24.714563 -23.541011 37.187658 1.032348 2.256261 0.044328 -0.017778 -117697.000000 0 0 1
14.714956 25.991563 -24.115511 38.388138 1.055643 2.250037 0.035253 -0.013974 331665.000000 0 0 1
13.689756 26.792863 -23.516611 38.187667 1.098429 2.234219 0.055192 -0.020049 426118.000000 0 0 1
13.781656 28.207863 -24.139111 39.601948 1.116330 2.226281 0.056944 -0.022320 210645.000000 0 0 1
13.311256 28.335963 -25.497291 40.376084 1.131628 2.254276 0.064381 -0.033241 53282.700000 0 0 1
12.810756 29.661263 -25.759621 41.321472 1.163094 2.243874 0.106799 -0.040605 732142.000000 0 0 1
13.902756 30.829163 -25.764191 42.514909 1.147143 2.221823 0.122842 -0.037009 236894.000000 0 0 1
15.039556 30.632763 -26.534051 43.227425 1.114404 2.231692 0.094658 -0.031924 -619786.000000 0 0 1
15.698956 31.847663 -26.758601 44.460697 1.112813 2.216610 0.100073 -0.030601 1289190.000000 0 0 1
17.136056 31.702463 -27.455491 45.304465 1.075255 2.221846 0.082185 -0.012649 1151780.000000 0 0 1
18.097956 31.169463 -26.609931 44.801338 1.044740 2.206761 0.037529 -0.005068 -172512.000000 0 0 1
19.366856 31.077163 -27.230241 45.632787 1.013502 2.210210 0.051544 0.000723 -26012.100000 0 0 1
20.402356 30.219863 -26.459231 45.050940 0.976957 2.198538 0.030400 0.009702 -118110.000000 0 0 1
20.898556 30.836663 -25.266011 45.011340 0.975182 2.166783 0.038405 0.008770 56432.300000 0 0 1
21.869056 31.844963 -25.326911 46.193178 0.969029 2.151105 0.037689 0.004033 -620768.000000 0 0 1
23.340056 31.406163 -25.406791 46.654157 0.931682 2.146681 0.020989 0.007400 -353185.000000 0 0 1
23.604156 31.016663 -26.735721 47.265086 0.920283 2.172023 0.020747 0.008963 -187589.000000 0 0 1
24.686156 31.753763 -27.258801 48.587550 0.909973 2.166419 -0.004166 0.021378 -737029.000000 0 0 1
24.996556 31.388663 -28.713841 49.341267 0.898281 2.191913 0.009908 0.018937 123400.000000 0 0 1
24.045856 31.808363 -29.699101 49.719330 0.923492 2.210970 0.032201 0.004267 13728.800000 0 0 1
22.830256 31.097263 -29.655491 48.659105 0.937512 2.226168 0.023159 -0.002198 -469854.000000 0 0 1
21.779656 31.767563 -30.575491 49.177151 0.969804 2.241761 0.034330 0.002432 -656886.000000 0 0 1
21.296156 33.024663 -30.123491 49.513426 0.998046 2.224827 0.064237 0.000705 -296608.000000 0 0 1
20.432356 33.586663 -31.029381 50.083606 1.024262 2.238968 0.071448 -0.013475 -1273780.000000 0 0 1
18.943156 33.420963 -30.762871 49.215426 1.055143 2.246012 0.064027 -0.020464 -1009960.000000 0 0 1
18.349056 32.159063 -30.971451 48.271358 1.052296 2.267394 0.104837 -0.029195 194409.000000 0 0 1
18.396656 31.478763 -32.200041 48.643521 1.041915 2.294226 0.112896 -0.028482 -843849.000000 0 0 1
17.655356 32.071963 -33.396531 49.554522 1.067576 2.310319 0.129388 -0.039272 -685849.000000 0 0 1
18.118656 33.339963 -33.866831 50.860604 1.072995 2.299463 0.107178 -0.034004 -41673.300000 0 0 1
17.753956 33.782863 32.954013 50.422731 1.086933 0.858525 0.093084 -0.032148 1289280.000000 0 0 1
16.206656 -34.021338 32.774445 49.942681 -1.126233 0.854970 0.105423 -0.035513 820894.000000 0 0 1
15.295456 33.028863 32.809696 49.003397 1.137107 0.837208 0.114704 -0.030385 129856.000000 0 0 1
13.930856 33.392163 32.812107 48.844034 1.175560 0.834197 0.089915 -0.033344 528306.000000 0 0 1
13.364056 33.936763 31.463800 48.169208 1.195652 0.859002 0.082322 -0.033921 -1107960.000000 0 0 1
13.894156 -32.974138 31.229380 47.493321 -1.172008 0.853230 0.093768 -0.021195 -290442.000000 0 0 1
13.243056 -32.299038 30.172710 46.141075 -1.181687 0.858038 0.088049 -0.025446 -231887.000000 0 0 1
13.649256 -30.863738 29.728080 44.973673 -1.154412 0.848631 0.083924 -0.018576 -203677.000000 0 0 1
13.226856 -29.856138 30.641110 44.779642 -1.153762 0.817202 0.077769 -0.017171 483928.000000 0 0 1
13.861656 -28.613338 30.351730 43.955616 -1.119668 0.808604 0.087361 -0.027132 -229879.000000 0 0 1
13.337056 -27.516738 31.333700 43.781831 -1.119472 0.773202 0.075758 -0.028663 732551.000000 0 0 1
11.926956 -27.322438 31.157120 43.122315 -1.159204 0.763343 0.053323 -0.031392 659844.000000 0 0 1
11.707256 -26.190838 30.321090 41.741926 -1.150442 0.757736 0.046894 -0.027141 -421790.000000 0 0 1
11.783556 -24.728938 30.780890 41.204803 -1.126118 0.727225 0.039182 -0.024335 -484990.000000 0 0 1
10.755756 -24.337738 31.624900 41.329724 -1.154667 0.699467 0.048028 -0.029896 -179511.000000 0 0 1
11.215556 -23.203438 32.268293 41.296864 -1.120551 0.673932 0.040635 -0.025554 97309.200000 0 0 1
10.361256 -22.864338 33.494334 41.856947 -1.145316 0.643152 0.054169 -0.027027 -308336.000000 0 0 1
10.596656 -23.732938 -33.460231 42.368957 -1.150860 2.481173 0.059650 -0.028542 6742.810000 0 0 1
11.840856 -23.887838 -32.819861 42.284489 -1.110606 2.459362 0.057322 -0.025618 23532.400000 0 0 1
12.441956 -22.675438 -32.078731 41.207072 -1.068954 2.463031 0.059730 -0.030950 -97492.400000 0 0 1
12.986956 -21.610638 -32.867641 41.424178 -1.029677 2.487238 0.041984 -0.017268 315408.000000 0 0 1
13.758556 -20.725138 -32.082941 40.597344 -0.984740 2.482049 0.044605 -0.023041 -76418.400000 0 0 1
14.271856 -19.429938 -32.802731 40.709060 -0.937270 2.507795 0.029627 -0.017623 -138116.000000 0 0 1
15.153556 -19.659038 -33.890171 42.007758 -0.914104 2.509444 0.040340 -0.009821 202862.000000 0 0 1
14.771956 -18.962938 33.033144 40.853302 -0.908998 0.629062 0.017762 -0.003970 -298702.000000 0 0 1
15.444456 -17.651738 32.633231 40.187596 -0.851992 0.623187 0.038083 -0.009201 -729412.000000 0 0 1
15.045356 -16.611638 33.512350 40.316087 -0.834834 0.589462 0.028537 -0.002842 112257.000000 0 0 1
15.540456 -15.339238 33.193617 39.731779 -0.778882 0.581859 0.050672 -0.017678 -373200.000000 0 0 1
16.981756 -15.057938 33.683802 40.616746 -0.725425 0.592928 0.066611 -0.011221 -150694.000000 0 0 1
17.886556 -15.811038 32.897415 40.646743 -0.723883 0.627753 0.075404 -0.012991 -374389.000000 0 0 1
19.191056 -15.615538 33.417058 41.579339 -0.683032 0.637319 0.112064 -0.012202 -236613.000000 0 0 1
20.242356 -16.290438 32.544812 41.644882 -0.677643 0.673755 0.136717 -0.021890 -439355.000000 0 0 1
20.273856 -15.746238 31.243790 40.436959 -0.660357 0.687785 0.114886 -0.017005 33632.900000 0 0 1
21.351956 -16.349638 30.570290 40.715591 -0.653487 0.721486 0.102460 -0.017204 -282556.000000 0 0 1
21.557356 -15.926038 29.155410 39.602983 -0.636278 0.743370 0.098724 -0.011359 -293628.000000 0 0 1
22.119556 -14.617538 29.167280 39.416715 -0.583959 0.737767 0.096141 -0.019036 321403.000000 0 0 1
22.511356 -14.111538 27.878710 38.511286 -0.559938 0.761343 0.066311 -0.018858 236443.000000 0 0 1
23.221256 -12.695438 28.076260 38.583381 -0.500319 0.755866 0.058577 -0.010194 279540.000000 0 0 1
22.363156 -11.664838 28.510300 38.065948 -0.480785 0.724288 0.054827 -0.018363 -114307.000000 0 0 1
23.087556 -10.467438 28.662090 38.263794 -0.425661 0.724146 0.072840 -0.021461 70975.900000 0 0 1
22.244856 -9.167738 28.742990 37.483870 -0.390918 0.696941 0.063368 -0.024483 -503608.000000 0 0 1
21.350056 -9.192738 29.781650 37.779333 -0.406581 0.662746 0.061970 -0.033519 -486776.000000 0 0 1
20.304056 -8.232338 29.556520 36.791493 -0.385198 0.637893 0.040680 -0.029096 104516.000000 0 0 1
19.202156 -8.330138 30.610910 37.082905 -0.409311 0.599758 0.029718 -0.018257 -598840.000000 0 0 1
19.452656 -7.851338 31.942670 38.214965 -0.383617 0.581084 0.034945 -0.019086 83331.500000 0 0 1
19.811956 -8.908938 32.785155 39.328732 -0.422583 0.585170 0.040346 -0.024416 -622597.000000 0 0 1
20.020756 -8.556938 -33.851401 40.248841 -0.403905 2.570023 0.055139 -0.029506 -1084400.000000 0 0 1
18.860456 -8.196638 -33.229941 39.078519 -0.409969 2.587423 0.045723 -0.023792 -896177.000000 0 0 1
19.132256 -7.554938 -32.029401 38.065770 -0.376084 2.570707 0.051650 -0.027472 -595446.000000 0 0 1
17.875256 -7.238738 -31.251171 36.722743 -0.384774 2.588689 0.051390 -0.020093 -463714.000000 0 0 1
18.117356 -6.421538 -30.133211 35.741925 -0.340626 2.573777 0.059926 -0.018076 159466.000000 0 0 1
16.909356 -6.156638 -29.449491 34.512361 -0.349177 2.593083 0.072359 -0.006210 76785.700000 0 0 1
16.906356 -4.974238 -28.421611 33.441829 -0.286148 2.586558 0.065783 -0.005444 -306084.000000 0 0 1
17.619856 -5.193938 -27.213201 32.832829 -0.286659 2.547830 0.059080 -0.005114 287916.000000 0 0 1
17.066156 -6.135538 -26.258101 31.912167 -0.345126 2.537159 0.076952 -0.013096 -130083.000000 0 0 1
15.658256 -5.855238 -25.693901 30.653570 -0.357840 2.564775 0.068318 -0.007617 -52847.900000 0 0 1
15.501856 -4.643738 -24.952311 29.740371 -0.291053 2.566248 0.061103 0.003035 -160018.000000 0 0 1
14.149056 -4.451038 -24.583111 28.711268 -0.304780 2.598701 0.038384 -0.007897 124277.000000 0 0 1
13.894756 -3.256938 -23.641411 27.615000 -0.230244 2.598487 0.045695 -0.005103 20808.900000 0 0 1
14.066856 -2.007338 -24.275711 28.128562 -0.141743 2.612028 0.030395 -0.006294 74941.600000 0 0 1
13.843056 -0.939338 -23.382811 27.189491 -0.067752 2.606055 0.039948 -0.016336 -141506.000000 0 0 1
14.279056 0.450662 -23.900811 27.844987 0.031551 2.602846 0.030678 -0.019543 -618014.000000 0 0 1
13.556656 0.970662 -24.961011 28.421421 0.071478 2.642979 0.038416 -0.018501 -35797.000000 0 0 1
14.119056 2.202662 -25.421031 29.162104 0.154759 2.629487 0.040283 -0.007788 126052.000000 0 0 1
13.462556 2.798662 -26.747511 30.074945 0.204966 2.666744 0.047348 -0.011139 -504850.000000 0 0 1
12.349456 3.565662 -26.442021 29.400740 0.281086 2.689113 0.048397 -0.024895 -486016.000000 0 0 1
11.647256 3.973662 -27.615581 30.233572 0.328784 2.722375 0.051579 -0.012825 272042.000000 0 0 1
10.316956 4.683662 -27.246811 29.508727 0.426156 2.747506 0.057620 -0.015278 125767.000000 0 0 1
10.499356 5.948662 -26.657621 29.261781 0.515479 2.716510 0.044278 -0.034060 -653015.000000 0 0 1
9.298956 6.628662 -26.685661 29.026441 0.619291 2.737239 0.056823 -0.040956 -641963.000000 0 0 1
7.932956 5.191463 -30.640761 32.073967 0.579474 2.841522 0.063380 -0.010997 -119658.000000 0 0 1
7.857656 4.093763 -29.801251 31.090452 0.480298 2.852608 0.060472 0.000301 505002.000000 0 0 1
8.322556 2.930963 -30.510801 31.761053 0.338608 2.860078 0.048451 0.007933 -39198.000000 0 0 1
8.319356 1.709263 -29.593891 30.788499 0.202636 2.862115 0.051296 0.006784 -256330.000000 0 0 1
9.344356 1.670563 -28.623841 30.156791 0.176909 2.821376 0.057054 -0.001895 195681.000000 0 0 1
9.114056 0.648863 -27.674831 29.144182 0.071074 2.822701 0.049893 -0.003638 -492013.000000 0 0 1
10.389756 0.252363 -26.937971 28.873258 0.024285 2.773382 0.049702 -0.016492 -437879.000000 0 0 1
11.105156 -0.639237 -27.758441 29.904250 -0.057499 2.760460 0.059804 -0.003758 -180466.000000 0 0 1
12.189556 -1.196137 -27.046521 29.690577 -0.097815 2.716369 0.053889 -0.009125 -63489.000000 0 0 1
12.753956 -2.521337 -27.645371 30.549748 -0.195174 2.702011 0.056868 -0.003403 324009.000000 0 0 1
11.843956 -3.626637 -27.523361 30.182233 -0.297136 2.718701 0.064682 0.001540 512469.000000 0 0 1
12.435256 -4.887937 -27.809801 30.853080 -0.374519 2.693701 0.059810 0.002895 17537.200000 0 0 1
11.534656 -6.000037 -27.239301 30.183245 -0.479657 2.696253 0.038455 -0.010537 48179.900000 0 0 1
11.601556 -5.934537 -25.838331 28.938455 -0.472829 2.674479 0.046540 -0.008108 118003.000000 0 0 1
10.783956 -6.896937 -25.183311 28.249967 -0.568998 2.671322 0.047448 -0.015616 28.622300 0 0 1
10.629856 -6.693237 -23.670511 26.797134 -0.561946 2.653700 0.042839 -0.015955 -329608.000000 0 0 1
11.888856 -6.612637 -23.047811 26.763286 -0.507594 2.608369 0.035726 -0.013388 -48497.500000 0 0 1
11.704356 -6.673337 -21.665811 25.513384 -0.518188 2.585253 0.044972 -0.020503 31631.500000 0 0 1
13.029656 -6.621737 -20.878011 25.485500 -0.470190 2.530831 0.058077 -0.026291 68137.900000 0 0 1
13.488456 -5.290437 -20.777311 25.330295 -0.373781 2.532654 0.051733 -0.028244 -438045.000000 0 0 1
14.627556 -5.313537 -19.968311 25.316645 -0.348434 2.479557 0.058573 -0.024503 -412141.000000 0 0 1
15.262256 -4.017337 -19.412111 25.018104 -0.257382 2.458973 0.070185 -0.024085 -36753.000000 0 0 1
15.931056 -3.355237 -20.489511 26.170140 -0.207576 2.470166 0.061123 -0.017558 304525.000000 0 0 1
16.317356 -2.021237 -20.118211 25.982378 -0.123243 2.456408 0.057327 -0.008213 -165962.000000 0 0 1
17.387956 -1.349337 -20.982011 27.283815 -0.077447 2.448115 0.039859 -0.003393 -5896.260000 0 0 1
18.628756 -2.005537 -20.887711 28.059744 -0.107245 2.410434 0.047990 -0.009910 1733730.000000 0 0 1
19.758856 -1.269537 -21.544011 29.260358 -0.064163 2.398363 0.053704 -0.006047 2402300.000000 0 0 1
21.123056 -2.017637 -21.647011 30.312497 -0.095229 2.366174 0.052835 -0.006170 -688157.000000 0 0 1
22.000556 -1.994637 -20.531111 30.158408 -0.090416 2.319617 0.040511 -0.006594 -398133.000000 0 0 1
23.197156 -2.645437 -20.733311 31.224615 -0.113551 2.296959 0.040492 -0.006864 -99309.900000 0 0 1
24.206656 -1.975937 -21.774111 32.618683 -0.081447 2.301690 0.040882 -0.007876 -1199510.000000 0 0 1
23.735556 -2.009437 -23.118611 33.194648 -0.084458 2.341243 0.045145 -0.008360 -8845.940000 0 0 1
24.645456 -1.520237 -24.071211 34.483806 -0.061606 2.343458 0.042568 -0.002933 668065.000000 0 0 1
26.046256 -2.192937 -24.281311 35.676302 -0.083996 2.319378 0.043866 -0.015590 -223953.000000 0 0 1
27.005356 -1.899737 -23.295711 35.715381 -0.070231 2.281358 0.031974 -0.010696 -338751.000000 0 0 1
28.193156 -2.614537 -23.468711 36.775947 -0.092472 2.262894 0.019799 -0.012048 311035.000000 0 0 1
29.273756 -2.013737 -24.453111 38.196369 -0.068682 2.265548 0.027220 -0.011222 -419262.000000 0 0 1
28.890156 -1.943337 -25.794431 38.778478 -0.067165 2.298523 0.039262 -0.007746 -110991.000000 0 0 1
29.494056 -0.883537 -26.432191 39.614905 -0.029947 2.301278 0.031853 -0.010305 -850226.000000 0 0 1
28.885356 -0.501837 -27.847151 40.125796 -0.017372 2.337821 0.044338 -0.017126 -587430.000000 0 0 1
27.575456 -0.100637 -28.018951 39.312562 -0.003650 2.364168 0.036182 -0.011231 -667333.000000 0 0 1
27.342356 1.160063 -27.371941 38.706245 0.042402 2.356286 0.026619 -0.004206 397194.000000 0 0 1
25.886056 1.719963 -27.618041 37.891983 0.066346 2.387455 0.032062 -0.011859 1498670.000000 0 0 1
24.822256 1.083863 -26.894261 36.614484 0.043637 2.395763 0.033928 -0.008172 1745510.000000 0 0 1
23.495656 1.484363 -27.325581 36.068499 0.063092 2.430428 0.033698 -0.008592 1275380.000000 0 0 1
22.424456 1.300363 -26.217731 34.524145 0.057924 2.433191 0.044776 -0.014260 -86099.200000 0 0 1
22.619456 2.112663 -25.016331 33.792307 0.093130 2.404308 0.049182 -0.016953 193402.000000 0 0 1
21.706156 1.771463 -24.002711 32.410268 0.081431 2.404744 0.050532 -0.022897 -226880.000000 0 0 1
21.958256 2.481163 -22.667111 31.656265 0.112517 2.368907 0.048895 -0.020180 -331253.000000 0 0 1
21.698456 3.863163 -22.653811 31.606047 0.176192 2.369935 0.058624 -0.028499 422367.000000 0 0 1
21.951756 4.230163 -21.301711 30.879391 0.190369 2.332059 0.057014 -0.025427 -365031.000000 0 0 1
21.460156 5.571363 -20.909811 30.476197 0.254007 2.326915 0.072920 -0.024975 11611.200000 0 0 1
22.311356 6.626163 -21.430211 31.637898 0.288689 2.314963 0.060023 -0.023482 655122.000000 0 0 1
22.022656 7.986163 -21.109711 31.534047 0.347885 2.304232 0.055067 -0.023877 -829738.000000 0 0 1
22.362256 8.379963 -19.706911 30.962181 0.358540 2.260726 0.061046 -0.023599 1110840.000000 0 0 1
23.792456 8.416063 -19.418511 31.843204 0.339992 2.226625 0.046985 -0.013822 1642130.000000 0 0 1
24.113256 8.531363 -18.057711 31.309970 0.340060 2.185529 0.071862 -0.024255 -132476.000000 0 0 1
23.777556 9.824963 -17.282311 30.993231 0.391836 2.162307 0.076707 -0.032775 1176380.000000 0 0 1
22.361856 10.111863 -17.091811 29.907063 0.424676 2.179126 0.085206 -0.042445 1532140.000000 0 0 1
22.081656 11.501163 -16.892011 30.086813 0.480186 2.166924 0.065013 -0.033643 663645.000000 0 0 1
20.563156 11.902763 -16.739311 29.064131 0.524715 2.184555 0.065918 -0.039722 1082900.000000 0 0 1
19.684456 11.737563 -17.822311 29.032447 0.537684 2.231757 0.066841 -0.043509 269215.000000 0 0 1
19.183456 10.441963 -17.990711 28.296736 0.498473 2.259825 0.070932 -0.042101 -214809.000000 0 0 1
18.307556 10.234563 -19.246611 28.466558 0.509753 2.313271 0.085442 -0.036189 505240.000000 0 0 1
19.171256 10.358663 -20.379611 29.835675 0.495383 2.322743 0.095323 -0.040312 1110200.000000 0 0 1
18.561456 9.633663 -21.436611 29.947678 0.478743 2.368568 0.081116 -0.041528 57849.100000 0 0 1
19.485856 9.743863 -22.663311 31.436716 0.463686 2.375923 0.091330 -0.041425 -550332.000000 0 0 1
19.580856 11.089063 -23.089311 32.241178 0.515288 2.369057 0.086582 -0.042493 404938.000000 0 0 1
20.381256 11.295863 -24.238011 33.622512 0.506083 2.375877 0.089692 -0.037093 -59431.700000 0 0 1
20.406356 12.818563 -24.487211 34.356345 0.560872 2.364196 0.106984 -0.031942 440507.000000 0 0 1
21.213856 13.255163 -25.625011 35.810170 0.558481 2.368249 0.099546 -0.030385 686718.000000 0 0 1
21.278156 14.666963 -25.711191 36.454699 0.603506 2.353631 0.104148 -0.027042 -165229.000000 0 0 1
20.067756 15.251363 -26.455901 36.540849 0.649866 2.380393 0.089928 -0.020237 127592.000000 0 0 1
18.832756 15.158763 -25.768161 35.333538 0.677731 2.388070 0.084663 -0.024643 97713.600000 0 0 1
17.798356 15.485463 -26.685901 35.619073 0.716020 2.417654 0.073093 -0.024431 228291.000000 0 0 1
16.370356 15.089963 -26.243241 34.415160 0.744722 2.438040 0.070164 -0.027710 41855.200000 0 0 1
16.210056 13.651663 -26.256031 33.741858 0.699932 2.462502 0.061908 -0.024206 192541.000000 0 0 1
14.886456 13.345963 -25.864871 32.691174 0.730888 2.483546 0.051152 -0.028261 -12343.900000 0 0 1
14.594356 11.820063 -25.740681 31.863644 0.680752 2.511272 0.048839 -0.036975 -66426.500000 0 0 1
13.246256 11.444263 -25.580861 30.997015 0.712544 2.541474 0.046342 -0.032608 -76691.600000 0 0 1
13.205256 10.037363 -25.398101 30.334650 0.649936 2.563056 0.057361 -0.038106 -37472.900000 0 0 1
11.787356 9.504563 -25.133321 29.342159 0.678592 2.599363 0.073444 -0.050629 -35034.900000 0 0 1
11.059856 10.031363 -24.055211 28.312574 0.736673 2.586080 0.086175 -0.050629 303762.000000 0 0 1
9.852056 9.309763 -23.814311 27.401754 0.757105 2.624135 0.079891 -0.049223 627686.000000 0 0 1
8.932756 9.960063 -22.727211 26.372772 0.839720 2.609541 0.060710 -0.043701 54026.200000 0 0 1
8.309756 11.164563 -23.135411 26.999014 0.930955 2.600019 0.053074 -0.039781 409098.000000 0 0 1
7.506956 11.807263 -22.136411 26.187527 1.004474 2.577930 0.043884 -0.022899 467717.000000 0 0 1
8.389856 12.676863 -21.222011 26.104909 0.986154 2.519998 0.047051 -0.022150 557894.000000 0 0 1
9.247256 11.865363 -20.401811 25.348224 0.908775 2.506238 0.051589 -0.035399 441432.000000 0 0 1
10.110356 12.607063 -19.525611 25.345746 0.894862 2.450218 0.067147 -0.035592 -84691.700000 0 0 1
11.126956 11.709363 -18.805311 24.790282 0.810896 2.431921 0.081831 -0.043192 400968.000000 0 1 0
12.310256 11.271663 -19.480111 25.652827 0.741385 2.433148 0.094720 -0.044083 549717.000000 0 0 1
12.036856 10.393363 -20.566311 25.997713 0.712257 2.483371 0.097957 -0.043441 -579892.000000 0 0 1
13.230756 9.865163 -21.419011 27.039756 0.640694 2.485088 0.088822 -0.042031 -3814.040000 0 0 1
13.950856 8.905063 -20.699411 26.502682 0.568118 2.467111 0.107976 -0.050427 270972.000000 0 0 1
14.876556 8.254463 -21.585811 27.484456 0.506570 2.474110 0.098057 -0.053777 29194.000000 0 0 1
15.377656 6.944563 -20.902111 26.862567 0.424184 2.462452 0.106674 -0.051399 175002.000000 0 0 1
16.460256 7.178263 -20.004811 26.882336 0.411232 2.410076 0.089186 -0.042974 398295.000000 0 0 1
16.712156 6.064663 -19.141611 26.124272 0.348111 2.393097 0.070874 -0.046516 -211245.000000 0 0 1
17.659756 6.435563 -18.014911 26.034986 0.349463 2.334983 0.075944 -0.038551 -563751.000000 0 0 1
19.020156 6.594863 -18.351711 27.240482 0.333759 2.309990 0.081495 -0.051225 525836.000000 0 0 1
19.829356 6.849463 -17.177911 27.114556 0.332589 2.256905 0.077061 -0.053370 412200.000000 0 0 1
20.409556 5.559263 -16.466711 26.806864 0.265934 2.232260 0.073890 -0.049180 -327485.000000 0 0 1
21.679356 5.164863 -16.952411 28.000974 0.233879 2.221093 0.070011 -0.045862 360483.000000 0 0 1
22.159956 4.042463 -16.221011 27.758357 0.180438 2.194894 0.088602 -0.049632 499096.000000 0 0 1
23.651456 3.713663 -16.534411 29.095866 0.155745 2.175202 0.050944 -0.011706 632721.000000 0 0 1
24.384656 2.889463 -15.610411 29.097172 0.117945 2.137072 0.054448 -0.012796 -222532.000000 0 0 1
25.543356 2.431363 -16.223611 30.357538 0.094900 2.134615 0.053088 -0.017914 -168248.000000 0 0 1
26.313956 1.339963 -15.375411 30.506115 0.050878 2.099033 0.077270 -0.032539 180734.000000 0 0 1
25.711356 0.088663 -15.470611 30.007025 0.003448 2.112465 0.087773 -0.029326 497400.000000 0 0 1
26.700756 -0.948737 -15.549311 30.912968 -0.035517 2.097866 0.073161 -0.020975 221418.000000 0 0 1
26.113056 -2.293637 -16.005711 30.713764 -0.087610 2.118965 0.053534 -0.022251 -75688.500000 0 0 1
25.482856 -2.923237 -14.895311 29.661281 -0.114215 2.096915 0.057894 -0.015299 461071.000000 0 0 1
25.256356 -4.312137 -15.142411 29.761900 -0.169104 2.104569 0.056179 -0.012092 -1130180.000000 0 0 1
24.785256 -5.115037 -13.922911 28.884598 -0.203517 2.073753 0.056496 -0.013540 196295.000000 0 0 1
23.501756 -4.804437 -13.402311 27.477939 -0.201650 2.080305 0.064891 -0.004725 759672.000000 0 0 1
22.416656 -5.174337 -14.246811 27.060153 -0.226852 2.125259 0.071012 -0.007670 -688092.000000 0 0 1
21.009356 -5.122537 -13.647011 25.570967 -0.239155 2.133756 0.086622 -0.016991 -449110.000000 0 0 1
20.641956 -6.106137 -12.703511 24.995089 -0.287610 2.103937 0.092830 -0.023199 332986.000000 0 1 0
20.917756 -5.745537 -11.371311 24.492253 -0.268062 2.053620 0.103697 -0.018847 -404711.000000 0 1 0
20.650956 -6.926437 -10.423611 24.147240 -0.323614 2.017138 0.101514 -0.019163 -106236.000000 0 1 0
19.371656 -7.535137 -10.407411 23.245507 -0.370968 2.035007 0.098226 -0.022174 511405.000000 0 1 0
19.244156 -8.535337 -11.407611 23.944167 -0.417459 2.067381 0.098079 -0.024805 -501497.000000 0 1 0
17.872956 -9.252437 -11.456511 23.158191 -0.477690 2.088294 0.108743 -0.024589 -281286.000000 0 1 0
16.864856 -8.314737 -11.769111 22.182656 -0.458049 2.130051 0.100471 -0.021859 -1491180.000000 0 1 0
15.665456 -8.945737 -11.916611 21.620323 -0.518860 2.154570 0.096351 -0.023602 -1120600.000000 0 1 0
14.502056 -7.960037 -12.131511 20.514517 -0.501991 2.203543 0.068934 -0.019548 -514843.000000 0 1 0
14.412656 -7.238737 -13.375811 20.953193 -0.465445 2.263170 0.068320 -0.019587 284810.000000 0 1 0
15.455656 -6.320437 -13.670311 21.580145 -0.388190 2.256822 0.068413 -0.017708 12013.100000 0 1 0
15.061256 -5.272037 -14.739111 21.722735 -0.336710 2.316530 0.045742 -0.015773 -455821.000000 0 1 0
14.012956 -4.430337 -14.373611 20.557031 -0.306216 2.345083 0.054759 -0.016629 -413895.000000 0 1 0
13.782756 -3.257337 -15.159011 20.745367 -0.232076 2.390169 0.045687 -0.027144 -61196.400000 0 1 0
14.917556 -2.200737 -15.308111 21.487555 -0.146470 2.363734 0.053646 -0.026421 -449972.000000 0 1 0
15.934556 -2.561037 -16.212911 22.876352 -0.159359 2.358477 0.046538 -0.020881 -448222.000000 0 1 0
17.005156 -1.689137 -16.212511 23.555765 -0.099006 2.329885 0.051514 -0.015965 -182266.000000 0 1 0
18.172856 -1.986837 -15.238011 23.799101 -0.108897 2.265655 0.068761 -0.014336 -578599.000000 0 1 0
17.778156 -1.893437 -13.863911 22.624234 -0.106104 2.230383 0.062215 -0.010347 -237054.000000 0 1 0
18.800856 -2.298437 -13.006811 22.976774 -0.121648 2.172545 0.063250 -0.005383 -456975.000000 0 1 0
18.421756 -2.460837 -11.481911 21.846078 -0.132797 2.124196 0.062167 -0.009256 -293995.000000 0 1 0
18.354156 -1.283337 -10.691411 21.279762 -0.069807 2.097194 0.069603 -0.014526 394086.000000 0 1 0
17.803856 -1.595237 -9.472311 20.229848 -0.089362 2.058088 0.060963 -0.013178 -1101050.000000 0 1 0
17.954956 -0.505337 -8.329811 19.799535 -0.028137 2.005021 0.065903 -0.015141 -76004.900000 0 1 0
19.310156 -0.210637 -8.037311 20.917095 -0.010908 1.965187 0.075882 -0.012513 1459740.000000 0 1 0
20.185256 0.466763 -9.008611 22.109218 0.023120 1.990467 0.074270 -0.010764 269408.000000 0 1 0
19.620756 1.781663 -9.646711 21.936441 0.090557 2.026125 0.063834 -0.014766 -519684.000000 0 1 0
19.398756 2.853863 -8.769211 21.479184 0.146068 1.991350 0.050157 -0.012691 658603.000000 0 1 0
18.755556 3.923463 -9.456511 21.367968 0.206216 2.029243 0.042999 -0.017852 -235539.000000 0 1 0
18.711556 5.279663 -8.743711 21.317825 0.275011 1.993425 0.045635 -0.007402 -180951.000000 0 1 0
18.106656 6.228663 -9.592411 21.416386 0.331318 2.035212 0.045588 -0.006511 392337.000000 0 1 0
18.539256 7.562063 -9.297711 22.075694 0.387293 2.005536 0.072630 -0.000487 156400.000000 0 1 0
-26.748274 -29.469487 6.059489 40.257151 0.833765 1.419703 0.082963 -0.015701 18658.300000 0 0 1
-26.904274 -28.266337 6.710789 39.596218 0.810081 1.400494 0.099386 -0.015311 -224989.000000 0 0 1
-25.815804 -27.351257 6.592689 38.183904 0.814270 1.397271 0.090125 -0.016041 -464183.000000 0 0 1
-25.845234 -26.151877 7.574789 37.540301 0.791295 1.367624 0.097867 -0.011157 410761.000000 0 0 1
-26.969004 -25.267447 7.348789 37.679912 0.752836 1.374506 0.087819 -0.019464 1001930.000000 0 0 1
-28.279244 -25.743277 7.620189 38.993579 0.738490 1.374109 0.082723 -0.017098 -18661.100000 0 0 1
-28.632884 -25.830927 9.128489 39.628375 0.733997 1.338357 0.061823 -0.013954 -942848.000000 0 0 1
-27.973284 -26.810707 9.788389 39.964124 0.764180 1.323349 0.071611 -0.013625 -619459.000000 0 0 1
-28.207554 -26.674647 11.156989 40.394075 0.757475 1.290955 0.062699 -0.011537 -461648.000000 0 0 1
-27.260374 -27.503957 12.032689 40.550971 0.789846 1.269530 0.056718 -0.020649 1377940.000000 0 0 1
-25.939504 -26.918877 12.220489 39.329685 0.803924 1.254847 0.067297 -0.012573 1142310.000000 0 0 1
-25.949994 -25.910707 13.210789 38.978095 0.784641 1.225019 0.071401 -0.002677 -359877.000000 0 0 1
-24.496844 -25.605007 13.658889 37.977322 0.807513 1.202894 0.082429 -0.011360 192935.000000 0 0 1
-23.925544 -26.651457 14.405489 38.603755 0.839242 1.188380 0.081523 -0.019242 569264.000000 0 0 1
-22.797744 -26.204987 15.207389 37.917056 0.854818 1.158112 0.102346 -0.023625 726461.000000 0 0 1
-22.081644 -27.373627 15.888689 38.592290 0.891998 1.146471 0.096833 -0.027595 181778.000000 0 0 1
-22.961944 -28.170447 16.725489 40.007086 0.886911 1.139484 0.104044 -0.017069 800281.000000 0 0 1
-22.209844 -29.173537 17.342989 40.560470 0.920102 1.128978 0.095824 -0.014634 400190.000000 0 0 1
-23.122644 -30.099457 18.243489 42.112455 0.915744 1.122746 0.111019 -0.025766 976550.000000 0 0 1
-24.115844 -30.887477 17.544989 42.935263 0.907895 1.149835 0.072743 -0.016560 788113.000000 0 0 1
-24.839944 -31.723727 18.451689 44.315714 0.906502 1.141348 0.080680 -0.018457 102122.000000 0 0 1
-26.044144 -32.436427 17.788689 45.242200 0.894272 1.166700 0.076169 -0.026268 -99837.700000 0 0 1
-25.608754 -33.282197 16.742789 45.208781 0.914967 1.191417 0.083710 -0.034937 -168890.000000 0 0 1
-26.425474 33.789146 16.508189 45.962292 -0.907084 1.203420 0.075755 -0.034549 -1201140.000000 0 0 1
-25.881074 32.980157 15.295089 44.625782 -0.905426 1.220963 0.068659 -0.040729 387586.000000 0 0 1
-24.537344 32.522351 15.430989 43.564893 -0.924437 1.208730 0.057331 -0.042013 581316.000000 0 0 1
-23.632844 33.491318 14.906689 43.616385 -0.956295 1.221999 0.058992 -0.041759 -552023.000000 0 0 1
-22.144344 33.092622 14.934889 42.526985 -0.981068 1.211959 0.080898 -0.042579 148407.000000 0 0 1
-21.825244 32.082744 13.935289 41.229067 -0.973428 1.226009 0.067050 -0.033136 -151455.000000 0 0 1
-20.477944 31.687654 14.055989 40.261947 -0.997066 1.214171 0.073448 -0.026269 -493165.000000 0 0 1
-20.047844 30.717774 12.948989 38.899537 -0.992563 1.231437 0.063618 -0.028384 -65913.700000 0 0 1
-19.868944 31.318204 11.683389 38.885812 -1.005451 1.265628 0.054793 -0.022465 -161048.000000 0 0 1
-20.141644 30.399564 10.689689 38.001167 -0.985640 1.285649 0.057381 -0.016649 70207.200000 0 0 1
-19.713144 30.815324 9.188089 37.717545 -1.001683 1.324718 0.046392 -0.012027 115031.000000 0 0 1
-18.351544 30.621534 8.881889 36.787843 -1.030890 1.326952 0.053221 -0.024564 -337981.000000 0 0 1
-18.000544 31.145614 7.596789 36.766561 -1.046749 1.362675 0.079742 -0.025942 361565.000000 0 0 1
-17.177844 30.120524 6.780889 35.331356 -1.052499 1.377675 0.080978 -0.022644 243999.000000 0 0 1
-18.017144 29.096314 6.245189 34.788149 -1.016361 1.390297 0.062296 -0.012238 278034.000000 0 0 1
-18.311044 28.013884 7.173689 34.227676 -0.991865 1.359643 0.039116 -0.007417 -180844.000000 0 0 1
-19.439944 27.180544 6.552289 34.053279 -0.949932 1.377176 0.026042 0.001325 -115098.000000 0 0 1
-19.067044 26.307764 5.477089 32.949189 -0.943640 1.403793 0.040037 -0.002127 -45319.300000 0 0 1
-20.209944 25.706164 4.942089 33.070726 -0.904533 1.420794 0.024293 -0.003100 -1126020.000000 0 0 1
-19.958544 24.820904 3.710789 32.065412 -0.893559 1.454811 0.036147 -0.013615 -1142270.000000 0 0 1
-19.607944 25.418514 2.432389 32.194546 -0.913737 1.495171 0.039680 -0.012932 530103.000000 0 0 1
-18.448444 26.251504 2.363789 32.172566 -0.958222 1.497258 0.055144 -0.011339 -371165.000000 0 0 1
-17.071844 25.604054 2.618589 30.884825 -0.982727 1.485909 0.058676 -0.016482 -642230.000000 0 0 1
-16.754844 24.568484 1.701689 29.786422 -0.972277 1.513636 0.079000 -0.018499 64211.200000 0 0 1
-16.550844 24.927804 0.382189 29.924436 -0.984676 1.558024 0.072831 -0.015525 -606637.000000 0 0 1
-16.194744 23.607784 -0.399211 28.631391 -0.969534 1.584740 0.073952 -0.014107 -299429.000000 0 0 1
-17.225844 22.713564 -0.640711 28.513964 -0.921944 1.593268 0.075827 -0.027339 -346357.000000 0 0 1
-16.789744 21.739464 -1.525611 27.510494 -0.913165 1.626280 0.080539 -0.022450 -156932.000000 0 0 1
-15.835644 20.630064 -1.063511 26.028795 -0.916126 1.611667 0.083415 -0.029099 -445943.000000 0 0 1
-16.332144 19.619564 -0.285911 25.529354 -0.876584 1.581996 0.100072 -0.031935 -349289.000000 0 0 1
-15.365744 18.751264 0.292789 24.244622 -0.884307 1.558720 0.110653 -0.036914 -389432.000000 0 1 0
-15.892544 17.531464 1.124189 23.689427 -0.834393 1.523323 0.095942 -0.033209 55165.600000 0 1 0
-16.519644 16.456964 0.409089 23.321613 -0.783497 1.553254 0.091242 -0.032751 188842.000000 0 1 0
-17.089644 15.596464 1.327989 23.174752 -0.739747 1.513462 0.103746 -0.048680 -141737.000000 0 1 0
-17.833844 14.490964 0.495989 22.984343 -0.682349 1.549215 0.104737 -0.041383 -183133.000000 0 1 0
-18.991444 14.884164 -0.223311 24.130129 -0.664741 1.580051 0.135532 -0.045718 465246.000000 0 1 0
-19.706144 13.680164 -0.565611 23.995810 -0.606828 1.594370 0.137754 -0.036681 -159107.000000 0 1 0
-20.797344 14.003164 -1.621111 25.124611 -0.592591 1.635364 0.126769 -0.027944 219464.000000 0 0 1
-21.740544 12.998764 -2.050611 25.413069 -0.538877 1.651575 0.114572 -0.029385 1038500.000000 0 0 1
-22.684544 12.600464 -1.075611 25.971468 -0.507029 1.612223 0.122127 -0.031916 -968350.000000 0 0 1
-23.971844 13.406364 -0.979211 27.483426 -0.509921 1.606433 0.117847 -0.030949 -1083060.000000 0 0 1
-23.844844 14.703364 -0.415411 28.016746 -0.552555 1.585624 0.132281 -0.033269 -91395.400000 0 0 1
-25.059944 15.335764 -0.102711 29.380214 -0.549170 1.574292 0.122995 -0.025118 -375647.000000 0 0 1
-24.892744 16.516864 0.845889 29.885966 -0.585822 1.542489 0.122016 -0.033647 -41260.200000 0 0 1
-24.723644 16.193464 2.208289 29.637195 -0.579867 1.496216 0.131133 -0.029203 218175.000000 0 0 1
-24.418044 17.275464 3.116989 30.073213 -0.615734 1.466963 0.103467 -0.028224 229271.000000 0 0 1
-25.685284 18.107664 3.457989 31.616119 -0.614062 1.461203 0.098389 -0.029884 -65675.800000 0 0 1
-26.657704 17.350264 4.227789 32.086430 -0.576975 1.438650 0.110312 -0.028587 1563030.000000 0 0 1
-27.895184 18.100264 4.350989 33.536427 -0.575578 1.440690 0.108902 -0.031636 1068840.000000 0 0 1
-28.833664 18.168064 3.120689 34.222761 -0.562258 1.479482 0.085812 -0.029985 -1449170.000000 0 0 1
-29.994714 18.882264 3.294189 35.595988 -0.561843 1.478120 0.076115 -0.028892 -495667.000000 0 0 1
-30.748694 18.929364 2.088389 36.168554 -0.551822 1.513024 0.069492 -0.029033 88505.700000 0 0 1
-32.033864 19.779664 2.209489 37.713199 -0.553160 1.512176 0.080590 -0.034709 24127.500000 0 0 1
-33.219494 19.050964 2.516589 38.377170 -0.520697 1.505174 0.082026 -0.026027 386484.000000 0 0 1
-34.343728 19.880164 2.712389 39.775238 -0.524729 1.502550 0.100579 -0.030160 -14999.400000 0 0 1
-34.610211 20.524864 4.091889 40.446017 -0.535278 1.469454 0.098276 -0.036138 -251369.000000 0 0 1
-33.692644 21.596364 4.379289 40.258854 -0.570009 1.461802 0.101181 -0.039250 650971.000000 0 0 1
-33.538164 21.883164 5.762389 40.458453 -0.578120 1.427883 0.103541 -0.034255 363126.000000 0 0 1
-32.324534 22.825864 6.090789 40.037398 -0.614839 1.418076 0.100083 -0.032549 265926.000000 0 0 1
-32.479094 24.149904 5.713289 40.874821 -0.639362 1.430562 0.094541 -0.034108 797279.000000 0 0 1
-31.267464 24.920134 5.737489 40.392897 -0.672908 1.428272 0.082224 -0.037935 480804.000000 0 0 1
-31.554664 26.403284 5.415289 41.498862 -0.696750 1.439931 0.077956 -0.032919 -16823.000000 0 0 1
-32.522344 26.897584 6.338089 42.677327 -0.691018 1.421733 0.084236 -0.027085 216084.000000 0 0 1
-32.725994 28.292384 6.234189 43.707147 -0.712865 1.427673 0.077729 -0.022228 532764.000000 0 0 1
-34.004134 28.697004 7.057089 45.051100 -0.700958 1.413502 0.078503 -0.022676 -4895.500000 0 0 1
-33.649934 28.792164 8.411389 45.078356 -0.707758 1.383101 0.073042 -0.018176 -284004.000000 0 0 1
-34.544905 29.508054 9.175589 46.349402 -0.706924 1.371514 0.077369 -0.016716 -3548.330000 0 0 1
-35.891501 28.786554 9.500689 46.980087 -0.675986 1.367164 0.079056 -0.015781 137862.000000 0 0 1
-35.527424 27.684774 10.372989 46.219513 -0.661960 1.344440 0.081885 -0.018787 92477.400000 0 0 1
-36.551404 27.338034 11.258889 47.012081 -0.642177 1.328957 0.077896 -0.017744 -301032.000000 0 0 1
-36.222744 26.105384 12.075889 46.253706 -0.624478 1.306656 0.099604 -0.012132 577899.000000 0 0 1
-35.142130 26.331814 13.024989 45.803756 -0.643050 1.282452 0.098933 -0.020181 677767.000000 0 0 1
-34.862527 25.182314 13.767789 45.156358 -0.625557 1.260972 0.108933 -0.018813 89057.900000 0 0 1
-33.584124 25.309714 14.611589 44.519361 -0.645815 1.236391 0.107164 -0.018934 -95914.400000 0 0 1
-33.866594 26.213934 15.626189 45.588313 -0.658707 1.220935 0.112791 -0.022590 487437.000000 0 0 1
-32.700834 26.782944 16.249889 45.284981 -0.686237 1.203776 0.130225 -0.019287 554334.000000 0 0 1
-33.084604 28.052754 17.075289 46.616665 -0.703279 1.195776 0.141896 -0.029226 32405.100000 0 0 1
-33.076254 29.175284 16.308289 47.023356 -0.722815 1.216626 0.141222 -0.026993 67198.400000 0 0 1
-33.398894 30.338894 17.063289 48.239925 -0.737426 1.209254 0.129530 -0.021819 -114459.000000 0 0 1
-32.988564 31.693854 16.492489 48.628673 -0.765384 1.224782 0.102834 -0.025211 -50430.600000 0 0 1
-31.586574 31.807314 16.479389 47.759680 -0.788880 1.218506 0.090095 -0.013925 -442662.000000 0 0 1
-31.085094 32.982085 15.945689 48.045457 -0.814999 1.232492 0.078440 -0.016183 -602646.000000 0 0 1
-29.722504 32.942090 15.261989 46.920537 -0.836731 1.239496 0.100259 -0.022500 -677717.000000 0 0 1
-29.730074 31.981854 14.210989 45.920240 -0.821871 1.256160 0.084475 -0.020129 24703.400000 0 0 1
-29.399164 30.625864 14.613389 44.897722 -0.805832 1.239275 0.092278 -0.023579 -263119.000000 0 0 1
-30.331964 29.528274 14.081489 44.612053 -0.771973 1.249662 0.107791 -0.024325 82770.800000 0 0 1
-30.253144 29.413974 12.670989 44.056651 -0.771335 1.279069 0.112401 -0.031423 557264.000000 0 0 1
-31.328334 28.561104 12.224389 44.120707 -0.739225 1.290056 0.119196 -0.030773 811247.000000 0 0 1
-31.273594 28.354744 10.681589 43.544523 -0.736486 1.322964 0.106454 -0.024631 85068.600000 0 0 1
-30.191814 27.568724 10.230389 42.145474 -0.740016 1.325607 0.101712 -0.018096 -125880.000000 0 0 1
-30.062964 27.675774 8.828289 41.805130 -0.744077 1.358017 0.090678 -0.023755 -318515.000000 0 0 1
-29.136894 26.636674 8.238289 40.327910 -0.740600 1.365066 0.086163 -0.021152 -147910.000000 0 0 1
-28.642354 27.085074 6.963889 40.031005 -0.757461 1.395944 0.076141 -0.027505 -1096060.000000 0 0 1
-27.537334 26.359364 6.596589 38.686377 -0.763546 1.399445 0.066143 -0.021353 -924328.000000 0 0 1
-27.124754 26.537594 5.108389 38.289578 -0.774457 1.436983 0.058374 -0.023201 -528099.000000 0 0 1
-26.551004 27.768444 4.788189 38.716521 -0.807807 1.446806 0.027926 -0.009001 97649.900000 0 0 1
-26.119214 27.823954 3.432089 38.316641 -0.816990 1.481104 0.018051 -0.005103 -70790.400000 0 0 1
-25.243064 29.082334 3.121989 38.636009 -0.855953 1.489903 0.017150 -0.003830 1500260.000000 0 0 1
-23.822444 28.871374 3.292489 37.575331 -0.880923 1.483060 0.005784 0.001246 1069830.000000 0 0 1
-22.976344 29.964344 2.929489 37.872895 -0.916636 1.493368 0.004679 0.006682 187700.000000 0 0 1
-21.511544 29.534524 3.145089 36.673235 -0.941294 1.484931 0.018704 -0.003537 -143005.000000 0 0 1
-20.685244 30.648884 2.938689 37.092712 -0.977108 1.491488 0.041970 -0.011260 -1296030.000000 0 0 1
-19.348944 30.300354 2.832689 36.062684 -1.002497 1.492166 0.062759 -0.012175 -367012.000000 0 0 1
-18.374644 31.459594 2.497489 36.518091 -1.042171 1.502352 0.066399 -0.018701 178635.000000 0 0 1
-18.122544 32.303878 3.574989 37.212197 -1.059545 1.474578 0.086006 -0.025452 -162378.000000 0 0 1
-17.112344 33.232698 3.254189 37.521117 -1.095280 1.483958 0.101005 -0.029530 69262.500000 0 0 1
-17.097344 -33.637467 4.129689 37.958565 1.100545 1.461786 0.095621 -0.028445 -2185.250000 0 0 1
-18.254544 -32.842307 3.981489 37.784888 1.063493 1.465228 0.092463 -0.032235 -54562.100000 0 0 1
-18.041044 -31.624127 4.660689 36.705404 1.052363 1.443477 0.072604 -0.037724 -469406.000000 0 0 1
-19.280144 -30.762947 4.598489 36.595477 1.010952 1.444806 0.073566 -0.027345 -697554.000000 0 0 1
-19.374944 -30.055787 3.350289 35.916058 0.998204 1.477379 0.077686 -0.036125 8992.730000 0 0 1
-20.266644 -28.995977 3.590789 35.558365 0.960778 1.469641 0.079326 -0.036672 -591321.000000 0 0 1
-20.504444 -28.121867 2.363889 34.883515 0.940788 1.502979 0.079091 -0.037554 26154.300000 0 0 1
-19.507644 -27.131827 2.200189 33.489178 0.947436 1.505050 0.074144 -0.028615 137719.000000 0 0 1
-19.783944 -26.246747 1.119289 32.886912 0.924888 1.536755 0.065686 -0.032215 -125911.000000 0 0 1
-18.838344 -25.028437 1.168789 31.347598 0.925584 1.533503 0.068389 -0.036638 -27527.600000 0 0 1
-17.569244 -25.353137 0.643289 30.852451 0.964797 1.549944 0.076122 -0.035172 -347398.000000 0 0 1
-16.654644 -24.290537 0.965589 29.467605 0.969771 1.538023 0.077922 -0.026669 310801.000000 0 0 1
-15.218344 -24.581137 0.486389 28.914821 1.016446 1.553974 0.081706 -0.028395 -347203.000000 0 0 1
-14.950044 -24.607337 -0.910211 28.807175 1.024848 1.602398 0.076130 -0.023086 -51304.300000 0 0 1
-15.108944 -23.385637 -1.629211 27.889470 0.997183 1.629246 0.080546 -0.030161 -287045.000000 0 0 1
-15.229344 -23.653037 -3.171511 28.310026 0.998747 1.683060 0.055369 -0.017840 273134.000000 0 0 1
-14.037044 -24.125337 -3.767011 28.164887 1.043838 1.704947 0.067029 -0.018058 -6467.050000 0 0 1
-14.289944 -24.109737 -5.144711 28.494736 1.035759 1.752341 0.060924 -0.013106 162779.000000 0 0 1
-13.166944 -24.623537 -6.056311 28.572117 1.079752 1.784382 0.078656 -0.015142 -91911.000000 0 0 1
-13.073244 -26.048397 -5.986911 29.753517 1.105644 1.773396 0.059823 -0.017509 -555844.000000 0 0 1
-12.054844 -26.524357 -6.794011 29.916874 1.144221 1.799891 0.078293 -0.015454 -351304.000000 0 0 1
23.346556 13.443463 28.270720 39.051530 0.522452 0.761309 0.056809 -0.004326 508478.000000 0 0 1
24.457556 12.491963 28.394890 39.503050 0.472219 0.768718 0.048368 -0.008856 1330390.000000 0 0 1
24.063856 11.276763 28.976530 39.317602 0.438229 0.742196 0.053559 -0.009855 -285312.000000 0 0 1
23.943956 11.268863 30.535020 40.406531 0.439881 0.714081 0.069054 -0.009809 189362.000000 0 0 1
22.895856 12.141263 30.919280 40.343926 0.487579 0.697590 0.069554 -0.009631 272545.000000 0 0 1
23.064556 12.335663 32.301110 41.563254 0.491123 0.680663 0.068939 -0.010432 284236.000000 0 0 1
22.054456 13.311463 32.973812 41.843355 0.543042 0.663194 0.060844 -0.004219 76683.100000 0 0 1
20.745156 12.841163 33.173339 41.179211 0.554270 0.634135 0.058800 0.001154 -65720.100000 0 0 1
20.021356 13.737963 33.973647 41.758772 0.601381 0.620532 0.060023 0.003265 -784772.000000 0 0 1
18.769756 13.208063 -33.473301 40.585941 0.613197 2.540558 0.049918 0.012456 -230934.000000 0 0 1
17.661656 12.990363 33.736073 40.234391 0.634164 0.576293 0.045466 0.011956 475090.000000 0 0 1
16.650156 12.418063 -33.549521 39.458920 0.640822 2.587236 0.036489 0.007976 557039.000000 0 0 1
15.352256 11.962463 33.800607 39.003504 0.661928 0.522440 0.035899 0.009767 834352.000000 0 0 1
15.607256 10.936263 32.927331 38.044677 0.611207 0.524666 0.029917 0.021479 -263735.000000 0 0 1
14.351056 10.512763 32.476049 37.029242 0.632235 0.501135 0.036064 0.015483 -206586.000000 0 0 1
14.363256 9.421663 31.373240 35.768017 0.580551 0.500941 0.044994 0.015815 -270728.000000 0 0 1
14.666156 8.145963 31.832170 35.982494 0.506999 0.485038 0.027640 0.013048 53388.300000 0 0 1
15.249956 7.320263 30.819940 35.157021 0.447535 0.501969 0.027077 -0.005427 294290.000000 0 0 1
15.708756 5.969063 31.466950 35.673011 0.363132 0.490507 0.058451 -0.017997 -86999.700000 0 0 1
14.705056 4.986963 31.484810 35.105580 0.326961 0.458176 0.058589 -0.013486 -115914.000000 0 0 1
15.108856 3.821763 32.190176 35.764380 0.247752 0.450883 0.068607 -0.019811 -121324.000000 0 0 1
13.982256 2.810363 32.126550 35.149920 0.198352 0.417793 0.048811 -0.013520 -116228.000000 0 0 1
14.400256 1.576863 32.706477 35.771043 0.109068 0.416950 0.058416 -0.020125 238126.000000 0 0 1
13.284756 0.783763 33.030385 35.610467 0.058929 0.383002 0.060169 -0.017103 -210684.000000 0 0 1
13.816156 -0.592737 33.426749 36.174370 -0.042875 0.392266 0.042459 -0.014171 99877.700000 0 0 1
14.238956 -1.430337 32.361636 35.384590 -0.100117 0.416356 0.042511 -0.013561 95388.000000 0 0 1
14.453456 -2.709737 32.864001 36.003995 -0.185329 0.420738 0.058149 -0.014260 -500638.000000 0 0 1
14.506256 -3.744037 31.714490 35.075036 -0.252586 0.441317 0.055827 -0.013619 -743827.000000 0 0 1
14.920456 -5.060637 32.054000 35.716789 -0.326998 0.456844 0.057800 -0.010042 1531480.000000 0 0 1
16.257856 -5.318137 32.590255 36.806592 -0.316141 0.483343 0.033070 -0.016076 1233170.000000 0 0 1
17.477456 -4.862237 31.789690 36.601738 -0.271339 0.518569 0.038878 -0.022394 -887574.000000 0 0 1
17.676256 -3.489837 32.068030 36.782979 -0.194924 0.511897 0.053270 -0.019231 121342.000000 0 0 1
18.805156 -3.001637 31.360640 36.689692 -0.158283 0.545721 0.075990 -0.033794 144833.000000 0 0 1
18.994456 -1.494537 31.410450 36.737438 -0.078521 0.545249 0.085243 -0.037952 -433007.000000 0 0 1
19.500656 -0.916437 32.583909 37.984557 -0.046961 0.539784 0.068546 -0.028870 16829.900000 0 0 1
19.436056 0.509863 32.393027 37.780001 0.026227 0.540577 0.065564 -0.021595 -461567.000000 0 0 1
20.590056 1.258863 31.743180 37.857161 0.061063 0.576274 0.077539 -0.026270 -711125.000000 0 0 1
20.701456 1.056363 30.309600 36.719723 0.050984 0.599831 0.085419 -0.033563 456437.000000 0 0 1
21.613956 1.936563 29.620380 36.718937 0.089359 0.632286 0.066252 -0.023041 443594.000000 0 0 1
21.066056 3.379163 29.528400 36.429712 0.159053 0.625692 0.061439 -0.011954 -59929.600000 0 0 1
21.067056 4.090163 30.753920 37.501385 0.191764 0.609256 0.060278 -0.020331 246338.000000 0 0 1
20.077856 5.080763 30.722250 37.051196 0.247850 0.593150 0.061717 -0.016056 -292729.000000 0 0 1
19.822856 5.593463 32.137986 38.171751 0.275022 0.569944 0.062502 -0.009978 371449.000000 0 0 1
18.726156 4.988063 32.853042 38.142785 0.260324 0.532940 0.061254 -0.008419 733546.000000 0 0 1
18.655456 5.595263 -33.952751 39.142334 0.291389 2.620785 0.056407 -0.005779 12012.600000 0 0 1
17.537856 4.940763 -33.119601 37.800734 0.274603 2.638639 0.066870 -0.009442 -36616.600000 0 0 1
17.889256 3.587463 -32.952481 37.666449 0.197912 2.635922 0.058395 -0.014328 -136307.000000 0 0 1
16.831356 2.797863 -32.520821 36.725011 0.164723 2.658414 0.052941 -0.012495 -374928.000000 0 0 1
17.127156 1.364663 -32.855311 37.076586 0.079510 2.659760 0.061178 -0.019424 481757.000000 0 0 1
18.217156 0.900963 -32.046291 36.873314 0.049417 2.624159 0.033999 -0.015820 499186.000000 0 0 1
18.453556 -0.494337 -32.185021 37.103284 -0.026782 2.620838 0.061706 -0.014297 423678.000000 0 0 1
19.612656 -0.953737 -31.218511 36.880365 -0.048590 2.580136 0.088609 -0.014878 227281.000000 0 0 1
19.292856 -0.915237 -29.815401 35.524782 -0.047404 2.566762 0.083099 -0.014261 335776.000000 0 0 1
19.050356 0.352963 -29.189701 34.857988 0.018526 2.563285 0.066257 -0.007001 -128174.000000 0 0 1
18.652256 0.185763 -27.685581 33.383118 0.009959 2.548702 0.047921 -0.003380 204451.000000 0 0 1
17.307056 -0.250737 -27.527631 32.517189 -0.014487 2.580278 0.049334 -0.008645 445815.000000 0 0 1
16.888356 -0.653837 -26.221751 31.196543 -0.038696 2.569064 0.052399 -0.010053 99003.400000 0 0 1
17.536756 -2.017337 -25.727741 31.201348 -0.114531 2.540241 0.059780 -0.005636 -199361.000000 0 0 1
18.788656 -1.754537 -25.104231 31.405643 -0.093113 2.497016 0.056728 -0.007314 26330.200000 0 0 1
19.712256 -2.802837 -25.076621 32.019773 -0.141241 2.470529 0.060726 -0.004080 85017.100000 0 0 1
20.342856 -3.185537 -26.411071 33.489164 -0.155331 2.479399 0.065869 -0.011389 -435221.000000 0 0 1
21.569956 -2.479137 -26.640571 34.367560 -0.114433 2.457774 0.061268 -0.003414 385465.000000 0 0 1
22.071056 -2.778637 -27.941361 35.715151 -0.125236 2.469209 0.052980 -0.007887 629725.000000 0 0 1
23.573856 -2.402237 -28.123941 36.775719 -0.101552 2.441437 0.041038 -0.014380 583294.000000 0 0 1
24.525656 -3.357437 -27.643561 37.107232 -0.136049 2.411278 0.043019 -0.017170 209057.000000 0 0 1
25.776056 -2.854037 -28.104361 38.241414 -0.110275 2.396344 0.025616 -0.014864 -848407.000000 0 0 1
26.945056 -3.741537 -27.819871 38.909901 -0.137976 2.367394 0.034641 -0.014444 -1005800.000000 0 0 1
27.077656 -4.817537 -28.740551 39.779736 -0.176073 2.378197 0.063814 -0.028071 167144.000000 0 0 1
28.121756 -5.714737 -28.409111 40.380305 -0.200484 2.351161 0.058931 -0.026900 -91881.300000 0 0 1
27.917356 -6.740937 -27.257071 39.595037 -0.236925 2.330072 0.054724 -0.015587 -258988.000000 0 0 1
28.103456 -6.242437 -25.944751 38.754386 -0.218575 2.304286 0.044481 -0.008027 247087.000000 0 0 1
27.785756 -7.263937 -25.064861 38.119028 -0.255704 2.288348 0.021744 -0.001075 -385901.000000 0 0 1
27.790056 -6.909537 -23.561811 37.083526 -0.243692 2.259286 0.002560 -0.001427 -276498.000000 0 0 1
29.024256 -6.568237 -22.980711 37.598701 -0.222553 2.228385 -0.002015 0.000849 54836.600000 0 0 1
28.908756 -5.986637 -21.717211 36.649601 -0.204201 2.205034 0.003591 -0.008873 49596.700000 0 0 1
30.258556 -5.361837 -21.262111 37.368528 -0.175380 2.176067 0.025433 -0.014294 -128803.000000 0 0 1
30.789856 -4.277637 -21.937711 38.047032 -0.138046 2.185351 0.030680 -0.017619 -359759.000000 0 0 1
31.984456 -3.880937 -21.341311 38.646070 -0.120748 2.155827 0.040752 -0.016100 -346912.000000 0 0 1
32.541356 -2.544637 -21.903311 39.308652 -0.078038 2.161823 0.050133 -0.025026 -277859.000000 0 0 1
31.726456 -1.464937 -21.650011 38.437444 -0.046141 2.169114 0.034084 -0.022306 250031.000000 0 0 1
32.425656 -0.250637 -22.019811 39.196404 -0.007729 2.167334 0.032915 -0.018325 225888.000000 0 0 1
31.526556 0.983463 -22.086111 38.505678 0.031185 2.181667 0.036589 -0.014849 -419691.000000 0 0 1
30.438156 0.844663 -22.954711 38.132841 0.027743 2.216758 0.023066 -0.008523 -277372.000000 0 0 1
29.403356 1.719963 -22.591611 37.120029 0.058429 2.225104 0.016192 -0.007582 804818.000000 0 0 1
28.114556 1.629263 -23.529611 36.697757 0.057886 2.266822 0.009676 -0.002676 681969.000000 0 0 1
27.169956 2.608463 -23.218611 35.834544 0.095712 2.275672 0.017197 -0.003084 16952.400000 0 0 1
26.274656 2.823163 -24.301711 35.901267 0.107037 2.314345 0.033981 -0.003045 -1709.810000 0 0 1
25.157156 3.823963 -24.054211 35.015858 0.150848 2.328083 0.038297 -0.003893 -444029.000000 0 0 1
25.757856 5.071563 -23.817311 35.446470 0.194407 2.307599 0.032635 -0.003903 79103.700000 0 0 1
24.809856 6.012263 -23.468411 34.676254 0.237750 2.314185 0.051404 -0.020705 -262829.000000 0 0 1
25.562656 7.188863 -22.809111 35.005495 0.274144 2.280470 0.072790 -0.018056 73232.800000 0 0 1
26.355956 7.968263 -23.654611 36.299728 0.293595 2.280550 0.054887 -0.014754 -64930.800000 0 0 1
26.513756 9.243263 -23.070511 36.340964 0.335446 2.258591 0.073442 -0.018176 -83710.700000 0 0 1
27.241056 10.326563 -23.968211 37.725167 0.362344 2.259242 0.098533 -0.013476 171908.000000 0 0 1
26.697556 10.645463 -25.279651 38.277228 0.379422 2.292195 0.095836 -0.023696 1268890.000000 0 0 1
25.358756 11.198063 -25.255351 37.500612 0.415835 2.309683 0.100197 -0.029615 1117100.000000 0 0 1
24.757856 11.420463 -26.676031 38.144319 0.432200 2.345277 0.084866 -0.032197 112888.000000 0 0 1
24.413456 10.286663 -27.518561 38.198213 0.398777 2.375197 0.076159 -0.025938 1180060.000000 0 0 1
25.546656 9.427563 -27.812931 38.923897 0.353529 2.366772 0.070799 -0.032265 473909.000000 0 0 1
26.486456 9.807063 -28.938311 40.436824 0.354615 2.368340 0.068425 -0.019957 -883102.000000 0 0 1
27.401456 10.851363 -28.639491 41.095162 0.377066 2.341871 0.060710 -0.015256 1263980.000000 0 0 1
28.271956 11.300363 -29.724801 42.550741 0.380250 2.344198 0.059566 -0.007508 580442.000000 0 0 1
29.319556 10.365663 -30.303151 43.420782 0.339826 2.343251 0.047195 -0.007429 -995328.000000 0 0 1
28.690656 9.387763 -31.052261 43.307353 0.316226 2.370315 0.048454 -0.010453 201045.000000 0 0 1
29.548456 8.299463 -31.305041 43.840597 0.273821 2.366084 0.039927 -0.007737 24165.900000 0 0 1
28.875856 7.251063 -32.253591 43.894044 0.246025 2.396176 0.037876 -0.012266 467663.000000 0 0 1
27.738156 6.579163 -31.719081 42.647284 0.232885 2.409465 0.049737 -0.016162 230956.000000 0 0 1
27.254956 5.734563 -32.751291 42.992615 0.207379 2.436866 0.061860 -0.013373 262198.000000 0 0 1
25.870256 5.063963 -32.414661 41.780667 0.193300 2.458825 0.054432 -0.013624 796955.000000 0 0 1
24.736656 5.889963 -32.622231 41.361864 0.233754 2.479493 0.062251 -0.016617 157343.000000 0 0 1
24.398756 6.729163 -31.522151 40.425573 0.269109 2.465075 0.072766 -0.016458 281884.000000 0 0 1
22.890856 7.125263 -31.365871 39.478837 0.301765 2.488977 0.070221 -0.017472 573381.000000 0 0 1
22.348656 7.923363 -32.388081 40.140129 0.340708 2.509640 0.073893 -0.012529 -324941.000000 0 0 1
20.988856 8.215163 -32.195811 39.301288 0.373076 2.530820 0.064148 -0.007304 -194895.000000 0 0 1
20.463756 9.252763 -33.221481 40.100446 0.424643 2.547143 0.059228 -0.001116 -291788.000000 0 0 1
20.237756 8.722663 33.548837 40.139458 0.406950 0.581195 0.059205 -0.001894 122706.000000 0 0 1
19.804456 9.756863 32.654307 39.417212 0.457758 0.594502 0.055391 0.005716 -116263.000000 0 0 1
19.044656 9.285063 31.391450 37.872608 0.453631 0.593712 0.050806 0.004683 -117705.000000 0 0 1
19.672356 8.396963 30.481960 37.237890 0.403429 0.611873 0.061061 -0.006609 -359586.000000 0 0 1
20.659056 8.867863 29.615350 37.182046 0.405463 0.649319 0.069654 -0.008450 -303235.000000 0 0 1
20.167256 9.901163 28.522360 36.308075 0.456383 0.667187 0.076572 -0.008067 1947.460000 0 0 1
19.101156 9.447663 27.716160 34.961379 0.459328 0.655464 0.062572 -0.002246 661911.000000 0 0 1
17.910256 10.229263 27.876030 34.676911 0.518928 0.637008 0.069750 -0.018392 1142120.000000 0 0 1
16.601656 9.600163 27.270290 33.338369 0.524285 0.612897 0.088517 -0.018010 343524.000000 0 0 1
16.592856 9.691863 25.853280 32.212531 0.528645 0.639181 0.096696 -0.019220 -122896.000000 0 0 1
15.336156 9.363663 25.324750 31.051873 0.548149 0.617095 0.110672 -0.021120 -105237.000000 0 0 1
15.036356 7.845663 25.184650 30.363021 0.480919 0.592672 0.106053 -0.018240 -186692.000000 0 0 1
14.925056 7.027563 26.337610 31.077543 0.440062 0.559576 0.084695 -0.016596 -33377.100000 0 0 1
14.561056 5.716963 26.027190 30.366472 0.374128 0.541177 0.090925 -0.014185 -150881.000000 0 0 1
14.493156 4.666163 27.106870 31.090305 0.311476 0.511778 0.088901 -0.011904 739598.000000 0 0 1
15.786256 4.056163 27.288550 31.785583 0.251502 0.538420 0.064423 -0.009876 942831.000000 0 0 1
16.037856 3.662563 28.614100 33.005968 0.224520 0.521772 0.051855 -0.012014 -152253.000000 0 0 1
17.198256 2.670463 28.750890 33.608408 0.154045 0.544344 0.077322 -0.019248 -151356.000000 0 0 1
16.887356 1.228163 28.626800 33.259358 0.072599 0.534125 0.070622 -0.025973 -387815.000000 0 0 1
16.146656 0.716563 29.658080 33.776170 0.044349 0.498968 0.053091 -0.021723 -404855.000000 0 0 1
15.829756 -0.797637 29.560340 33.541483 -0.050346 0.492176 0.071883 -0.027675 -607819.000000 0 0 1
14.886256 -1.113637 28.574650 32.238974 -0.074671 0.481419 0.053763 -0.025190 197592.000000 0 0 1
15.400656 -1.118937 27.225980 31.299940 -0.072528 0.515916 0.063327 -0.025139 -1381070.000000 0 0 1
16.406456 -2.244037 26.823440 31.523078 -0.135934 0.553073 0.057900 -0.028799 369523.000000 0 0 1
17.669456 -2.299537 27.471470 32.744148 -0.129415 0.575402 0.061657 -0.031285 208588.000000 0 0 1
18.411156 -1.136037 27.138330 32.813872 -0.061626 0.596978 0.064769 -0.026068 -1696340.000000 0 0 1
19.855756 -1.073237 27.688980 34.089331 -0.053999 0.622801 0.093241 -0.020337 560086.000000 0 0 1
20.817756 -1.842237 26.985950 34.132306 -0.088264 0.658963 0.065552 -0.023691 -353848.000000 0 0 1
22.131356 -1.438437 27.243440 35.129348 -0.064904 0.683261 0.063265 -0.022838 150737.000000 0 0 1
23.150156 -2.132037 26.269200 35.079142 -0.091837 0.724463 0.070526 -0.016196 107699.000000 0 0 1
23.278456 -1.497837 24.945460 34.152687 -0.064256 0.751874 0.075366 -0.004338 236812.000000 0 0 1
22.634856 -2.336937 24.003540 33.075186 -0.102881 0.758706 0.083130 -0.001037 29352.000000 0 0 1
22.585956 -1.754837 22.571690 31.979463 -0.077540 0.787219 0.073779 -0.014924 410866.000000 0 0 1
21.774956 -0.554037 22.707990 31.465990 -0.025438 0.764588 0.062764 -0.010522 528996.000000 0 0 1
21.730856 0.165763 21.454690 30.537867 0.007628 0.791808 0.050136 -0.004438 84216.700000 0 0 1
-30.759614 -27.240538 -10.284011 42.355184 0.724799 1.816052 0.014819 0.007119 52693.400000 0 0 1
-30.779524 -26.143038 -9.422511 41.468316 0.704125 1.800020 0.018325 0.006593 -54628.200000 0 0 1
-31.257004 -26.486338 -8.095711 41.762027 0.702967 1.765885 0.042402 -0.010552 -516773.000000 0 0 1
-31.704174 -25.274938 -7.211911 41.182384 0.673038 1.746825 0.066694 -0.018263 -140017.000000 0 0 1
-30.741174 -24.401638 -6.692811 39.815241 0.670935 1.739695 0.052796 -0.016880 -918675.000000 0 0 1
-29.819134 -24.952838 -5.801311 39.312594 0.696784 1.718906 0.046911 -0.018864 186956.000000 0 0 1
-28.608994 -24.031538 -5.440011 37.756894 0.698659 1.715379 0.047973 -0.020995 45872.900000 0 0 1
-28.855584 -23.126438 -4.424011 37.243103 0.675627 1.689865 0.068102 -0.025658 -25422.900000 0 0 1
-29.586274 -21.961838 -4.790311 37.156655 0.638554 1.700078 0.082012 -0.030751 5136.400000 0 0 1
-29.240644 -20.762038 -3.930611 36.076685 0.617433 1.679965 0.084413 -0.032925 833499.000000 0 0 1
-27.992244 -20.069738 -4.159311 34.693803 0.622028 1.690972 0.084825 -0.033521 973825.000000 0 0 1
-27.865494 -19.054038 -3.236611 33.911912 0.599761 1.666384 0.108206 -0.025780 351442.000000 0 0 1
-26.721054 -18.063638 -3.636411 32.458176 0.594442 1.683066 0.107248 -0.024924 360139.000000 0 0 1
-27.143904 -17.172038 -4.618011 32.449906 0.564067 1.713593 0.100411 -0.036409 109834.000000 0 0 1
-26.320744 -16.043138 -4.637211 31.171582 0.547393 1.720115 0.106671 -0.041404 -295482.000000 0 0 1
-26.908334 -14.977938 -5.587111 31.298768 0.507918 1.750267 0.098696 -0.052169 598088.000000 0 0 1
-28.197804 -14.453938 -5.254711 32.119222 0.473670 1.735135 0.091435 -0.044007 581490.000000 0 0 1
-28.427174 -13.216338 -5.872811 31.894603 0.435191 1.755985 0.122926 -0.054777 1161530.000000 0 0 1
-29.899294 -12.645238 -5.689611 32.958178 0.400114 1.744297 0.128080 -0.043458 1376590.000000 0 0 1
-30.948754 -13.301438 -6.382111 34.285346 0.405920 1.758035 0.121847 -0.040308 122934.000000 0 0 1
-32.190034 -12.805438 -5.947711 35.150431 0.378615 1.740822 0.100278 -0.043747 -371138.000000 0 0 1
-33.389914 -13.344938 -6.736711 36.583562 0.380222 1.755999 0.061309 -0.032993 -315407.000000 0 0 1
-33.888424 -14.518938 -6.140711 37.375569 0.404775 1.735842 0.074224 -0.033267 161141.000000 0 0 1
-34.042784 -15.530738 -7.127411 38.090877 0.428008 1.759022 0.078042 -0.035911 -631097.000000 0 0 1
-34.763700 -16.863238 -6.636311 39.203625 0.451642 1.740893 0.063088 -0.026470 1050370.000000 0 0 1
-36.176654 -16.684038 -6.464811 40.359648 0.432114 1.731669 0.057283 -0.026606 756110.000000 0 0 1
-36.638334 -15.921938 -5.387311 40.310032 0.409949 1.704844 0.079632 -0.028207 -393871.000000 0 0 1
35.443118 -15.989838 -5.201511 39.229392 -0.423802 1.703780 0.099262 -0.031782 -175949.000000 0 0 1
34.790928 -15.169038 -6.191011 38.455650 -0.411155 1.732491 0.093013 -0.036968 1078430.000000 0 0 1
33.372438 -15.429138 -6.171711 37.280932 -0.433062 1.737108 0.090401 -0.035121 1072920.000000 0 0 1
32.517368 -14.680638 -5.110111 36.041831 -0.424076 1.713058 0.110995 -0.038357 -623051.000000 0 0 1
32.594528 -15.206438 -3.790811 36.166410 -0.436518 1.675805 0.104488 -0.039462 343175.000000 0 0 1
31.868888 -14.420638 -2.864111 35.096780 -0.424930 1.652493 0.104121 -0.040876 -1114670.000000 0 0 1
31.890618 -14.991038 -1.406711 35.266437 -0.439424 1.610695 0.110971 -0.041753 198662.000000 0 0 1
33.152448 -14.975338 -0.728211 36.385105 -0.424276 1.590812 0.126478 -0.040602 837140.000000 0 0 1
34.205348 -15.785838 -1.264811 37.693477 -0.432378 1.604358 0.114298 -0.041317 -473792.000000 0 0 1
33.989388 -17.257238 -1.683411 38.156580 -0.469808 1.614929 0.107662 -0.042851 -1036010.000000 0 0 1
33.816548 -18.161638 -0.610711 38.389803 -0.492857 1.586705 0.127351 -0.037429 34453.400000 0 0 1
33.553518 -19.469138 -1.056911 38.807254 -0.525764 1.598035 0.108866 -0.040227 -574661.000000 0 0 1
34.592098 -20.288538 -1.839411 40.145005 -0.530440 1.616632 0.107182 -0.049172 -249967.000000 0 0 1
34.993598 -19.685938 -3.027911 40.264827 -0.512434 1.646067 0.085247 -0.043128 -192091.000000 0 0 1
35.449728 -20.628338 -3.951911 41.204722 -0.527007 1.666853 0.107988 -0.036005 90229.600000 0 0 1
35.810998 -20.096038 -5.370511 41.414016 -0.511378 1.700841 0.107417 -0.032776 619528.000000 0 0 1
34.657668 -20.087338 -6.217311 40.537761 -0.525279 1.724775 0.103457 -0.037139 631530.000000 0 0 1
34.809838 -19.121738 -7.212511 40.365654 -0.502321 1.750440 0.099418 -0.034628 509382.000000 0 0 1
33.760878 -19.279838 -8.373411 39.769625 -0.518876 1.782932 0.099391 -0.042907 475471.000000 0 0 1
33.991518 -20.484238 -9.135311 40.724455 -0.542350 1.797042 0.103289 -0.042427 228400.000000 0 0 1
32.969788 -20.722638 -10.083211 40.225686 -0.561137 1.824164 0.110005 -0.048595 -31424.000000 0 0 1
32.895158 -22.177538 -10.620711 41.069869 -0.593192 1.832370 0.114802 -0.043406 -171283.000000 0 0 1
32.443158 -23.138838 -9.692611 41.011109 -0.619538 1.809395 0.105775 -0.039359 -136486.000000 0 0 1
32.187058 -24.348438 -10.320111 41.657626 -0.647627 1.821139 0.083026 -0.022598 -346843.000000 0 0 1
31.305238 -25.337838 -9.564111 41.394398 -0.680434 1.803951 0.073535 -0.020802 -713472.000000 0 0 1
30.027138 -24.866438 -9.305811 40.082002 -0.691661 1.805104 0.068115 -0.022080 -62880.600000 0 0 1
29.100368 -25.901138 -8.929911 39.968033 -0.727297 1.796125 0.039253 -0.012997 308794.000000 0 0 1
27.641818 -25.611638 -8.570411 38.645544 -0.747294 1.794425 0.034446 -0.019429 -10481.500000 0 0 1
26.952418 -24.955538 -9.589011 37.962624 -0.746947 1.826153 0.025329 -0.006773 652.659000 0 0 1
25.567818 -24.739238 -9.385111 36.794341 -0.768929 1.828716 0.032122 -0.018596 21122.400000 0 0 1
24.953818 -24.239338 -10.653811 36.383268 -0.770875 1.867973 0.055075 -0.019091 -396436.000000 0 0 1
24.617018 -25.209338 -11.655711 37.112853 -0.797285 1.890264 0.053622 -0.014649 177979.000000 0 0 1
23.695418 -24.778038 -12.631111 36.537227 -0.807729 1.923787 0.062505 -0.002941 -276105.000000 0 0 1
23.045318 -26.003938 -13.219711 37.175963 -0.845645 1.934351 0.070465 -0.010338 -23138.300000 0 0 1
23.875118 -26.753338 -14.111711 38.534436 -0.842187 1.945730 0.057450 -0.010671 346084.000000 0 0 1
23.449818 -28.143138 -13.968311 39.205151 -0.876117 1.935088 0.084078 -0.010807 -59769.900000 0 0 1
24.434818 -29.166638 -14.523211 40.726855 -0.873448 1.935423 0.083915 -0.014959 -367952.000000 0 0 1
24.535818 -29.073538 -15.925411 41.241917 -0.869841 1.967246 0.076531 -0.014954 180031.000000 0 0 1
24.582218 -30.381938 -16.447411 42.401237 -0.890527 1.969148 0.071217 -0.021493 -233586.000000 0 0 1
24.420518 -30.351538 -17.948811 42.892160 -0.893263 2.002549 0.064428 -0.015712 652102.000000 0 0 1
23.097418 -29.954438 -18.335611 42.035148 -0.913937 2.022165 0.072562 -0.017501 549395.000000 0 0 1
22.860318 -30.261738 -19.694111 42.734353 -0.923836 2.049749 0.055424 -0.008555 309044.000000 0 0 1
21.407018 -29.981238 -20.175011 42.001978 -0.950727 2.071833 0.049905 -0.003478 251987.000000 0 0 1
21.315718 -29.983438 -21.570711 42.645773 -0.952781 2.101118 0.020685 0.004670 -413151.000000 0 0 1
20.019418 -29.700238 -22.001911 42.035287 -0.977700 2.121651 0.035770 -0.007801 -690988.000000 0 0 1
19.735418 -29.788138 -23.581211 42.812304 -0.985666 2.154124 0.031378 -0.004485 -551358.000000 0 0 1
20.144918 -28.720838 -24.354111 42.706287 -0.959129 2.177631 0.038555 -0.010587 138340.000000 0 0 1
20.455618 -29.190138 -25.642241 43.909236 -0.959553 2.194423 0.042334 -0.012466 -272061.000000 0 0 1
21.080918 -28.144238 -26.603821 44.093838 -0.927915 2.218486 0.050985 -0.022684 65092.000000 0 0 1
20.258218 -27.019138 -26.825431 43.128099 -0.927441 2.242083 0.075783 -0.037026 198781.000000 0 0 1
19.172718 -27.206338 -27.727721 43.319793 -0.956913 2.265386 0.096418 -0.044901 -310984.000000 0 0 1
18.384518 -25.961638 -27.997161 42.377331 -0.954627 2.292499 0.092610 -0.045522 -492262.000000 0 0 1
17.556818 -25.669838 -26.882711 41.107938 -0.970925 2.283596 0.071408 -0.027590 -192974.000000 0 0 1
17.033118 -24.364538 -27.042711 40.187884 -0.960678 2.308928 0.062290 -0.020874 -830575.000000 0 0 1
15.898418 -23.996738 -26.139641 38.882952 -0.985667 2.308060 0.066226 -0.018643 -840569.000000 0 0 1
14.722918 -24.747638 -26.373711 39.048464 -1.034119 2.312316 0.091091 -0.032861 878745.000000 0 0 1
13.555218 -24.368438 -25.558551 37.825973 -1.063159 2.312694 0.080347 -0.023629 1575500.000000 0 0 1
13.569418 -24.702838 -24.039011 37.043668 -1.068486 2.276983 0.076063 -0.020757 -471399.000000 0 0 1
14.503218 -23.957638 -23.310211 36.437312 -1.026438 2.264949 0.049005 -0.015197 -395886.000000 0 0 1
14.336718 -24.267938 -21.928411 35.711756 -1.037193 2.231964 0.060165 -0.018588 -496569.000000 0 0 1
15.566418 -23.905338 -21.150211 35.512110 -0.993600 2.208781 0.034460 -0.023931 -616540.000000 0 0 1
15.764818 -22.530638 -21.152811 34.692947 -0.960268 2.226497 0.041534 -0.026410 232635.000000 0 0 1
16.951918 -22.054738 -20.521411 34.567431 -0.915479 2.206400 0.050789 -0.023708 115069.000000 0 0 1
16.836918 -20.636238 -19.933311 33.266695 -0.886441 2.213294 0.058362 -0.011269 148213.000000 0 0 1
16.104018 -20.688638 -18.683511 32.193675 -0.909366 2.189951 0.056404 -0.017126 307207.000000 0 0 1
14.891018 -19.986438 -18.875411 31.264697 -0.930467 2.218967 0.060626 -0.022461 91514.200000 0 0 1
13.998918 -19.826838 -17.602711 29.982139 -0.956015 2.198276 0.068149 -0.023486 43290.700000 0 0 1
14.253018 -18.680838 -16.794711 28.882253 -0.919043 2.191354 0.065665 -0.025497 152674.000000 0 0 1
13.931718 -18.887038 -15.439211 28.092387 -0.935257 2.152666 0.062345 -0.027231 -405306.000000 0 0 1
13.715418 -17.576838 -14.710011 26.710342 -0.908176 2.154027 0.080201 -0.023276 -583012.000000 0 0 1
12.508818 -16.937438 -15.031611 25.870769 -0.934676 2.190786 0.074640 -0.024980 -149694.000000 0 0 1
12.484718 -15.701338 -14.383811 24.683886 -0.899028 2.192869 0.062834 -0.021758 -108146.000000 0 1 0
11.144218 -14.966838 -14.171011 23.431120 -0.930764 2.220304 0.069391 -0.015289 -364899.000000 0 1 0
10.527918 -14.448538 -15.309611 23.536812 -0.941100 2.278978 0.080417 -0.008738 57835.200000 0 1 0
9.276218 -13.909138 -14.919211 22.407481 -0.982622 2.299380 0.068976 -0.009954 160076.000000 0 1 0
8.549518 -13.307838 -16.188011 22.632819 -0.999752 2.367771 0.051329 -0.003140 -145230.000000 0 1 0
8.950018 -12.076838 -16.734611 22.494445 -0.933022 2.409750 0.044607 -0.000897 -265149.000000 0 1 0
10.203718 -12.028738 -17.361111 23.456653 -0.867303 2.404069 0.065321 -0.009905 -221061.000000 0 1 0
10.362518 -10.890038 -18.403911 23.762968 -0.810215 2.456687 0.054928 -0.007498 104891.000000 0 1 0
9.427918 -11.071738 -19.455011 24.289226 -0.865415 2.499715 0.052299 -0.009124 386183.000000 0 1 0
9.284318 -9.855538 -20.132311 24.261907 -0.815234 2.549529 0.031230 -0.015653 -51109.700000 0 1 0
9.034818 -10.010638 -21.595811 25.460162 -0.836590 2.583411 0.037459 -0.011002 -67617.300000 0 0 1
10.203918 -10.276738 -22.335411 26.619577 -0.788954 2.566349 0.038390 -0.003568 -253733.000000 0 0 1
9.950518 -10.460238 -23.716611 27.765213 -0.810366 2.594777 0.042572 -0.001260 483123.000000 0 0 1
11.147818 -11.172838 -24.439011 29.092463 -0.786519 2.568165 0.060207 -0.006601 484824.000000 0 0 1
11.151018 -12.551038 -24.106511 29.376821 -0.844397 2.533250 0.060752 -0.009294 -80566.100000 0 0 1
12.278918 -13.218038 -24.649811 30.546711 -0.822214 2.509774 0.052339 -0.011849 -50689.700000 0 0 1
12.369218 -14.765538 -24.532011 31.190355 -0.873481 2.475959 0.049822 -0.011219 119706.000000 0 0 1
11.368218 -15.507638 -25.234401 31.725356 -0.938217 2.490466 0.053444 -0.012725 -29628.700000 0 0 1
11.430418 -16.889438 -24.868311 32.161164 -0.975825 2.454732 0.063693 -0.016057 237943.000000 0 0 1
10.155818 -17.707738 -25.173561 32.410073 -1.050072 2.460238 0.067245 -0.011362 252805.000000 0 0 1
10.290118 -18.324638 -26.412521 33.753521 -1.059132 2.469486 0.072626 -0.024181 -159408.000000 0 0 1
9.085318 -18.943738 -26.800321 34.053861 -1.123606 2.476724 0.079256 -0.021536 -27777.500000 0 0 1
9.237318 -19.972038 -27.939701 35.564550 -1.137586 2.474470 0.080159 -0.029798 -230713.000000 0 0 1
9.805218 -21.215438 -27.552131 36.129725 -1.137865 2.438102 0.078699 -0.033124 -22968.800000 0 0 1
9.996518 -22.084738 -28.618581 37.505856 -1.145746 2.438804 0.084877 -0.031872 3196.550000 0 0 1
10.876318 -23.332338 -28.391071 38.324212 -1.134595 2.405076 0.074048 -0.029046 -33952.000000 0 0 1
10.640418 -24.309338 -29.394931 39.600813 -1.158210 2.407264 0.069500 -0.031799 171397.000000 0 0 1
11.355918 -25.547938 -29.407141 40.576273 -1.152530 2.381449 0.086864 -0.027831 366764.000000 0 0 1
10.691518 -26.533238 -28.351451 40.275626 -1.187751 2.351720 0.087659 -0.025005 478440.000000 0 0 1
11.116318 -26.228038 -27.019571 39.262447 -1.169914 2.329772 0.095964 -0.024438 -510890.000000 0 0 1
10.321618 -26.770238 -26.001711 38.720414 -1.202797 2.307061 0.087682 -0.017505 71864.000000 0 0 1
9.316518 -25.795138 -25.400631 37.381529 -1.224202 2.317873 0.077795 -0.017659 -360281.000000 0 0 1
10.016218 -24.775338 -24.793211 36.453331 -1.186604 2.318744 0.079233 -0.020692 -530816.000000 0 0 1
9.175218 -23.737038 -24.327611 35.206026 -1.201951 2.333678 0.073353 -0.022618 185416.000000 0 0 1
9.831318 -22.326238 -24.320411 34.447033 -1.155998 2.354664 0.084014 -0.020932 333924.000000 0 0 1
10.767418 -22.058538 -23.296611 33.841520 -1.116690 2.330082 0.083049 -0.013527 22396.900000 0 0 1
11.387218 -20.779438 -23.451611 33.338144 -1.069487 2.351032 0.063822 -0.010142 104037.000000 0 0 1
12.194318 -20.440038 -22.180711 32.534297 -1.032888 2.320967 0.055967 -0.008316 203391.000000 0 0 1
11.389418 -19.953438 -21.094511 31.190334 -1.052124 2.313546 0.069730 -0.006005 454206.000000 0 0 1
10.926318 -18.568138 -21.263111 30.270118 -1.038917 2.349624 0.075800 -0.011445 -259966.000000 0 0 1
11.990518 -17.501638 -21.042711 29.881023 -0.970135 2.352115 0.058053 -0.011752 -443111.000000 0 0 1
12.966318 -17.468038 -22.045611 30.972031 -0.932249 2.362841 0.052370 -0.000873 -335340.000000 0 0 1
14.227018 -17.183738 -21.460211 30.955283 -0.879252 2.336806 0.050137 -0.003924 728873.000000 0 0 1
15.404518 -17.069638 -22.520911 32.184828 -0.836629 2.345825 0.041316 -0.000521 -634370.000000 0 0 1
16.561718 -17.619138 -22.033711 32.714048 -0.816324 2.309763 0.044705 0.000983 -1063060.000000 0 0 1
17.576918 -17.258538 -22.938711 33.659912 -0.776259 2.320586 0.053160 -0.008327 -687873.000000 0 0 1
18.979818 -17.336638 -22.344811 34.059992 -0.740183 2.286360 0.056517 -0.005901 -437894.000000 0 0 1
19.400318 -18.670638 -22.076011 34.818319 -0.766234 2.257556 0.063669 -0.008290 -229159.000000 0 0 1
20.783718 -18.762638 -21.874111 35.531342 -0.734336 2.233980 0.052463 -0.019172 -184886.000000 0 0 1
21.243718 -20.185338 -21.470411 36.327978 -0.759857 2.203114 0.056481 -0.023725 -178822.000000 0 0 1
20.972618 -20.655538 -20.208111 35.705318 -0.777781 2.172405 0.059250 -0.026779 109353.000000 0 0 1
21.396718 -21.999638 -20.012311 36.637361 -0.799291 2.148649 0.062260 -0.024516 -8587.500000 0 0 1
-16.374244 12.648063 28.632070 35.325413 -0.657706 0.625751 0.040519 -0.024181 -193065.000000 0 0 1
-17.467444 13.510163 28.410240 35.983021 -0.658340 0.660728 0.052055 -0.024832 -108649.000000 0 0 1
-17.882344 13.342763 27.029800 35.048789 -0.641027 0.690064 0.045758 -0.030261 982309.000000 0 0 1
-19.294644 13.948263 26.643950 35.731462 -0.625936 0.729254 0.061770 -0.029912 980963.000000 0 0 1
-19.278444 15.369963 26.644500 36.301839 -0.673069 0.746646 0.059395 -0.033659 -405297.000000 0 0 1
-20.423744 15.875763 26.035370 36.701630 -0.660757 0.782179 0.072038 -0.032137 -905069.000000 0 0 1
-20.496244 17.412563 26.172390 37.527155 -0.704232 0.798998 0.068200 -0.025884 238884.000000 0 0 1
-19.396144 18.142963 25.652020 36.924296 -0.752027 0.802767 0.050804 -0.025778 173293.000000 0 0 1
-18.289444 18.225363 26.537930 37.026063 -0.783643 0.771685 0.043916 -0.014310 -717618.000000 0 0 1
-17.079744 18.932563 25.971420 36.396074 -0.836802 0.776205 0.046373 -0.013138 -656956.000000 0 0 1
-17.244144 20.338863 25.834080 37.127207 -0.867556 0.801227 0.055829 -0.016247 -595271.000000 0 0 1
-16.033344 20.996363 25.674530 36.838795 -0.918632 0.799671 0.069785 -0.019334 -659686.000000 0 0 1
-16.086944 22.548463 25.495080 37.646009 -0.951108 0.826802 0.062119 -0.014735 -35321.500000 0 0 1
-16.247844 23.292263 26.648120 38.944117 -0.961707 0.817200 0.060393 -0.008559 20672.300000 0 0 1
-16.310644 24.622863 26.262240 39.522496 -0.985740 0.843987 0.061018 -0.013841 -447992.000000 0 0 1
-15.690644 25.552263 27.285710 40.541638 -1.020102 0.832499 0.040767 -0.005047 140768.000000 0 0 1
-14.283644 25.698463 27.158140 40.024968 -1.063498 0.825037 0.055456 -0.010056 125011.000000 0 0 1
-13.826244 26.603763 28.147500 41.124287 -1.091505 0.816948 0.055091 -0.012679 175490.000000 0 0 1
-12.297344 26.611363 28.379400 40.801711 -1.137919 0.801619 0.069471 -0.015839 397139.000000 0 0 1
-11.557644 27.194363 27.323190 40.245114 -1.168924 0.824506 0.070160 -0.015569 -1119220.000000 0 0 1
-10.202844 27.227063 27.542260 40.049807 -1.212261 0.812480 0.064792 -0.005095 -1170150.000000 0 0 1
-9.398644 27.813263 26.393000 39.477874 -1.244924 0.838537 0.062101 -0.012817 636093.000000 0 0 1
-7.975144 27.602963 26.467790 39.064951 -1.289532 0.826393 0.068899 -0.014904 915467.000000 0 0 1
-7.374144 28.192163 25.344550 38.620231 -1.314961 0.854957 0.074661 -0.015688 -2093270.000000 0 0 1
-5.908044 28.103463 25.389420 38.331870 -1.363589 0.846835 0.053254 -0.019478 -2238230.000000 0 0 1
-5.242744 28.815763 26.421490 39.445274 -1.390825 0.836821 0.061720 -0.021763 142573.000000 0 0 1
-3.838344 28.668463 26.399960 39.160842 -1.437701 0.830994 0.042715 -0.015080 465392.000000 0 0 1
-3.041544 29.613163 25.422350 39.146983 -1.468446 0.863991 0.027551 -0.004925 -317927.000000 0 0 1
-3.280244 29.290863 24.060660 38.047733 -1.459272 0.886173 0.024749 0.002440 -121648.000000 0 0 1
-2.683244 30.191663 23.161250 38.146819 -1.482156 0.918314 0.020372 -0.005353 -279454.000000 0 0 1
-2.926244 29.715363 21.697190 36.909805 -1.472637 0.942406 0.029309 0.002156 1073750.000000 0 0 1
-4.286944 29.823763 21.239890 36.864178 -1.428032 0.956766 0.022000 0.007509 958376.000000 0 0 1
-5.085744 28.658863 21.534490 36.206760 -1.395167 0.933824 0.023471 0.004585 481586.000000 0 0 1
-6.594644 28.745063 21.173690 36.305552 -1.345280 0.948124 0.025028 -0.000733 220344.000000 0 0 1
-6.728644 28.939063 19.731190 35.666004 -1.342345 0.984570 0.016352 0.001023 150018.000000 0 0 1
-7.601944 27.991863 19.102990 34.731227 -1.305615 0.988404 0.016642 -0.002589 -906414.000000 0 0 1
-7.137344 26.545563 18.729290 33.262515 -1.308137 0.972694 0.012001 0.001058 257651.000000 0 0 1
-6.114244 26.371763 17.740690 32.366432 -1.342973 0.990681 0.016391 0.002177 1248810.000000 0 0 1
-4.825944 26.884663 18.158090 32.799254 -1.393182 0.984100 0.020908 0.006275 -149124.000000 0 0 1
-3.864544 26.898263 16.980890 32.043749 -1.428100 1.012280 0.020802 0.002481 -396063.000000 0 0 1
-3.409244 25.652163 16.443790 30.660310 -1.438668 1.004723 0.030517 -0.000507 -203572.000000 0 0 1
-2.825544 25.985363 15.230290 30.252017 -1.462486 1.043213 0.039548 -0.013987 -319865.000000 0 0 1
-2.267644 24.775763 14.479190 28.785892 -1.479524 1.043735 0.036982 -0.016511 513774.000000 0 0 1
-1.085244 24.367763 15.174190 28.726671 -1.526290 1.014286 0.037894 -0.019675 531442.000000 0 0 1
-0.364944 23.274663 14.574290 27.463668 -1.555118 1.011399 0.029019 -0.028169 614683.000000 0 0 1
0.938756 22.839963 15.321490 27.518961 1.529718 0.980315 0.025942 -0.025062 124701.000000 0 0 1
1.990556 23.723463 15.102390 28.193034 1.487086 1.005486 0.035572 -0.028852 4304.210000 0 0 1
3.213556 23.248763 15.674990 28.222991 1.433442 0.981955 0.039111 -0.021197 141346.000000 0 0 1
4.395156 24.191563 15.363990 28.993125 1.391075 1.012292 0.054418 -0.028162 -1609250.000000 0 0 1
5.529756 23.452463 15.505090 28.653168 1.339240 0.999016 0.062160 -0.025224 -1992910.000000 0 0 1
6.573256 24.378363 15.446690 29.599198 1.307425 1.021764 0.075389 -0.028532 -1524820.000000 0 0 1
7.957356 23.815063 15.787990 29.660367 1.248328 1.009490 0.097104 -0.025797 -225897.000000 0 0 1
8.602656 23.222563 14.653390 28.775249 1.216026 1.036500 0.083907 -0.020170 27898.900000 0 0 1
9.149056 24.166063 13.744090 29.267795 1.208881 1.081961 0.091308 -0.023595 -668158.000000 0 0 1
9.842656 23.477863 12.513690 28.366888 1.173822 1.113931 0.082086 -0.017530 502327.000000 0 0 1
10.952256 22.640363 12.876890 28.255128 1.120234 1.097597 0.081421 -0.019371 376827.000000 0 0 1
11.536956 22.230163 11.657590 27.625729 1.092082 1.135165 0.082526 -0.017337 -264498.000000 0 0 1
12.770656 21.334963 11.778590 27.513733 1.031422 1.128409 0.070101 -0.026822 -78039.500000 0 0 1
12.514256 19.985863 12.205290 26.552032 1.011367 1.093168 0.067849 -0.012596 -334688.000000 0 0 1
13.749456 19.358163 12.412390 26.792787 0.953213 1.089111 0.052750 -0.020076 -329096.000000 0 0 1
14.036756 19.080563 13.936090 27.482959 0.936538 1.039001 0.063912 -0.019834 -165206.000000 0 0 1
15.241556 18.375263 14.144390 27.749218 0.878348 1.035935 0.051587 -0.025545 -29771.500000 0 0 1
15.399156 18.041963 15.487590 28.328641 0.864263 0.992365 0.043934 -0.022931 328036.000000 0 0 1
16.717956 17.228163 15.700690 28.684688 0.800427 0.991597 0.023420 -0.021934 305892.000000 0 0 1
17.048256 16.832963 17.029290 29.393680 0.779044 0.952863 0.029835 -0.025376 -235521.000000 0 0 1
18.061656 15.876763 16.906390 29.395936 0.721109 0.958037 0.017574 -0.018144 20158.700000 0 0 1
18.703056 15.452663 18.330790 30.407351 0.690520 0.923740 0.031797 -0.021284 736792.000000 0 0 1
19.533956 16.339163 19.103190 31.835131 0.696574 0.927212 0.042696 -0.023566 941930.000000 0 0 1
18.731356 17.380963 19.667790 32.245675 0.748021 0.914817 0.030845 -0.018689 22323.800000 0 0 1
19.478356 18.357163 20.541590 33.739424 0.755773 0.916211 0.018243 -0.016305 -80914.000000 0 0 1
18.558256 19.251563 21.191690 34.119192 0.803733 0.900641 0.061085 -0.014169 452673.000000 0 0 1
19.219056 20.273863 21.895090 35.493614 0.812101 0.906031 0.058822 -0.015126 459174.000000 0 0 1
18.206956 21.316263 22.552890 35.979288 0.863907 0.893319 0.079176 -0.017777 543852.000000 0 0 1
17.389756 20.874463 23.601060 35.988288 0.876217 0.855557 0.073300 -0.017080 -81413.500000 0 0 1
16.673656 21.998463 24.059320 36.616855 0.922229 0.853890 0.071153 -0.028882 -249706.000000 0 0 1
15.898256 21.815063 25.336870 37.021730 0.941019 0.817046 0.091369 -0.033239 132783.000000 0 0 1
14.915756 20.791063 25.268720 35.961873 0.948480 0.791677 0.086863 -0.033195 272647.000000 0 0 1
13.977156 20.815263 26.356070 36.376895 0.979465 0.760447 0.086911 -0.030439 686118.000000 0 0 1
12.763356 19.853063 26.185600 35.252419 0.999435 0.733549 0.105731 -0.028783 204494.000000 0 0 1
13.142356 18.493163 26.225190 34.676782 0.952952 0.713195 0.101637 -0.033193 54121.700000 0 0 1
13.730256 17.923163 25.061490 33.731854 0.917094 0.733311 0.106974 -0.034229 269129.000000 0 0 1
12.787956 17.746363 23.814290 32.335517 0.946381 0.742952 0.114935 -0.035099 -274162.000000 0 0 1
12.641356 18.919863 22.973490 32.334909 0.981766 0.780608 0.110311 -0.030747 552498.000000 0 0 1
13.807656 19.389063 22.251490 32.583983 0.951972 0.819076 0.094664 -0.025564 929819.000000 0 0 1
14.481956 18.311663 21.296790 31.600590 0.901654 0.831272 0.091388 -0.029610 376465.000000 0 0 1
13.626256 17.943463 20.184290 30.249765 0.921307 0.840280 0.096614 -0.022823 315445.000000 0 0 1
14.233456 16.988063 19.408290 29.459587 0.873398 0.851560 0.076806 -0.022757 239154.000000 0 0 1
13.307656 16.411863 18.274390 27.935574 0.889471 0.857722 0.072455 -0.019726 351487.000000 0 0 1
12.780756 17.307663 17.310790 27.614604 0.934732 0.893266 0.081305 -0.023791 -459050.000000 0 0 1
11.694756 16.616863 16.774490 26.349022 0.957532 0.880680 0.056392 -0.018613 -276067.000000 0 0 1
11.062156 17.128063 15.461090 25.588809 0.997344 0.922019 0.051390 -0.011878 315447.000000 0 0 1
10.317056 18.344463 15.568390 26.178918 1.058477 0.933914 0.058021 -0.020485 214236.000000 0 0 1
9.787956 18.748563 14.314090 25.538322 1.089653 0.975813 0.053134 -0.008165 279735.000000 0 0 1
8.638256 19.776763 14.478290 25.987703 1.158983 0.979882 0.066058 -0.006750 -44594.000000 0 0 1
7.432756 19.344863 15.010890 25.588990 1.203964 0.943923 0.042705 -0.008332 -97450.100000 0 0 1
6.433556 20.351563 15.153790 26.176595 1.264616 0.953410 0.048874 -0.014894 597112.000000 0 0 1
5.065656 20.059863 15.789290 26.026153 1.323441 0.918931 0.040368 -0.014099 253383.000000 0 0 1
4.120156 19.452563 14.916290 24.857063 1.362076 0.927192 0.032488 -0.014235 -345939.000000 0 1 0
2.993456 19.040563 15.665590 24.837764 1.414858 0.888320 0.023570 -0.016102 -83045.600000 0 1 0
1.887856 18.567663 14.723990 23.772210 1.469470 0.902846 0.017022 -0.016043 165886.000000 0 1 0
1.071556 19.577463 14.098890 24.149617 1.516117 0.947378 0.020518 -0.022845 216649.000000 0 1 0
0.087156 19.079963 13.219290 23.212113 1.566228 0.964899 0.015438 -0.024059 -33442.700000 0 1 0
-0.805744 20.184363 12.538990 23.775702 -1.530898 1.015274 0.022401 -0.025803 -168447.000000 0 1 0
-1.976544 20.328063 13.284890 24.364424 -1.473869 0.994100 0.031109 -0.037465 -62797.800000 0 1 0
-3.041044 20.726363 12.364090 24.324900 -1.425112 1.037599 0.035624 -0.038741 371590.000000 0 1 0
-4.198044 21.374763 13.095290 25.416347 -1.376863 1.029519 0.037454 -0.033925 -301034.000000 0 0 1
-4.931944 20.415263 13.893190 25.181893 -1.333757 0.986379 0.033372 -0.040113 -348762.000000 0 0 1
-5.988944 21.117263 14.454090 26.281685 -1.294449 0.988470 0.034989 -0.036882 -705276.000000 0 0 1
-6.734344 20.356663 15.624590 26.530603 -1.251312 0.941066 0.024916 -0.029146 -381718.000000 0 0 1
-7.655044 19.361163 15.155790 25.751743 -1.194278 0.941551 0.022087 -0.027460 172819.000000 0 0 1
-8.396944 18.785363 16.206090 26.192286 -1.150445 0.903665 0.011631 -0.017365 179486.000000 0 0 1
-9.404444 19.725063 17.013990 27.694720 -1.125900 0.909246 0.014925 -0.009629 -102906.000000 0 0 1
-10.523444 20.102663 16.239190 27.902889 -1.088538 0.949623 0.009415 -0.013832 732303.000000 0 0 1
-11.680944 19.269863 16.530490 27.946899 -1.025847 0.937883 -0.000015 -0.009776 1252020.000000 0 0 1
-12.904944 19.408363 15.558590 28.023059 -0.984006 0.982185 0.005758 -0.010258 405486.000000 0 0 1
-13.573544 20.654163 15.496890 29.171718 -0.989389 1.010745 0.000459 -0.004192 -23802.800000 0 0 1
-14.504144 20.632063 14.440690 29.061757 -0.958066 1.050777 0.004695 -0.009444 -173562.000000 0 0 1
-15.536944 21.793863 14.495890 30.438461 -0.951462 1.074427 0.013311 -0.010932 512109.000000 0 0 1
-16.698544 21.488563 15.285690 31.213010 -0.910182 1.059026 0.019421 -0.012548 400259.000000 0 0 1
-17.572544 22.612863 15.271690 32.455514 -0.910173 1.080891 0.033095 -0.019121 743336.000000 0 0 1
-18.902644 22.283263 16.038890 33.333162 -0.867297 1.068808 0.057272 -0.016527 -111200.000000 0 0 1
-19.840044 21.421163 15.436190 33.026800 -0.823699 1.084467 0.060274 -0.013153 1080040.000000 0 0 1
-21.061344 21.181163 16.187890 33.974544 -0.788235 1.074160 0.070104 -0.018638 1677210.000000 0 0 1
-22.031944 22.454463 16.136290 35.355188 -0.794896 1.096846 0.062767 -0.020572 -667472.000000 0 0 1
-22.575044 22.655763 14.846590 35.260990 -0.787183 1.136195 0.069319 -0.014113 -34790.400000 0 0 1
-23.488144 23.707163 14.866490 36.534025 -0.790039 1.151715 0.079364 -0.018948 -91149.600000 0 0 1
-22.941444 24.939263 14.098690 36.702176 -0.827099 1.176523 0.061207 -0.007789 488921.000000 0 0 1
-21.718344 25.474563 14.606890 36.523979 -0.864824 1.159360 0.036230 -0.004703 547415.000000 0 0 1
-21.278444 26.597063 13.833390 36.763278 -0.896037 1.185015 0.040583 -0.007587 761387.000000 0 0 1
-19.749244 26.958663 13.917590 36.200848 -0.938541 1.176179 0.030203 -0.006663 663480.000000 0 0 1
-18.915444 26.098863 13.203590 34.832161 -0.943645 1.182013 0.031461 -0.001594 63720.200000 0 0 1
-17.558844 26.510363 13.355290 34.488782 -0.985796 1.173165 0.012238 -0.005238 227612.000000 0 0 1
-16.509044 25.783963 12.461190 33.055143 -1.001282 1.184261 0.022218 -0.009069 -846578.000000 0 0 1
-15.343744 26.467263 12.699090 33.124211 -1.045418 1.177345 0.025476 -0.009359 -1773780.000000 0 0 1
-14.291244 25.876763 12.003290 31.904944 -1.066204 1.185083 0.023684 -0.008210 -530938.000000 0 0 1
-12.947744 26.578663 12.302090 32.022036 -1.117483 1.176481 0.016179 -0.006056 -156275.000000 0 0 1
-11.857044 25.793163 11.775590 30.733390 -1.139908 1.177589 0.010872 -0.010121 409169.000000 0 0 1
-10.564344 26.292063 11.980290 30.763700 -1.188733 1.170784 0.023058 -0.014115 -70091.900000 0 0 1
-10.181644 27.617963 11.234690 31.506126 -1.217595 1.206184 0.026356 -0.024520 -574168.000000 0 0 1
-8.944644 28.145363 11.680890 31.758641 -1.263089 1.194152 0.041674 -0.033379 166501.000000 0 0 1
-8.616044 29.256663 10.888890 32.384509 -1.284394 1.227877 0.046630 -0.029085 -751184.000000 0 0 1
-7.406344 30.064063 11.342590 32.975084 -1.329254 1.219650 0.039026 -0.024981 -94887.300000 0 0 1
-6.245244 29.256663 11.133790 31.920474 -1.360489 1.214508 0.046953 -0.029237 97053.200000 0 0 1
-5.125244 29.754663 11.854090 32.436515 -1.400220 1.196675 0.068472 -0.032404 782185.000000 0 0 1
-3.741844 29.177063 11.406590 31.550161 -1.443246 1.200879 0.065822 -0.039040 466288.000000 0 0 1
-3.333844 29.716663 10.182890 31.589331 -1.459076 1.242583 0.079732 -0.041250 -563170.000000 0 0 1
-2.122444 29.195863 9.748890 30.853590 -1.498227 1.249315 0.086772 -0.043513 -342571.000000 0 0 1
-1.541344 29.869163 8.474290 31.086270 -1.519239 1.294696 0.086571 -0.038880 192894.000000 0 0 1
-2.445844 29.895463 7.379090 30.889672 -1.489165 1.329579 0.087804 -0.033806 48127.900000 0 0 1
-1.962744 30.670363 6.320390 31.376278 -1.506889 1.367970 0.093834 -0.030844 -6987.820000 0 0 1
11.795556 33.712663 -26.324751 44.369712 1.234224 2.205954 0.147957 -0.048091 -167697.000000 0 0 1
12.197756 -33.837138 -25.125241 43.874992 -1.224812 2.180537 0.140797 -0.040874 425424.000000 0 0 1
13.275156 -32.914538 -25.248081 43.555278 -1.187429 2.189131 0.133956 -0.032362 482817.000000 0 0 1
14.253656 -32.893038 -24.042611 43.164405 -1.161888 2.161567 0.116269 -0.024320 -221468.000000 0 0 1
13.612756 -32.340138 -22.893711 41.896464 -1.172383 2.148898 0.123294 -0.032388 376878.000000 0 0 1
14.195556 -32.531738 -21.592511 41.545931 -1.159343 2.117327 0.089159 -0.022585 -765753.000000 0 0 1
15.625756 -32.175538 -21.246311 41.603308 -1.118702 2.106781 0.052328 -0.006647 -370977.000000 0 0 1
16.578856 -33.100738 -21.751511 42.937694 -1.106460 2.102013 0.058758 -0.003921 536962.000000 0 0 1
17.930956 -32.740538 -21.472911 43.064463 -1.069745 2.092805 0.035458 -0.003333 911436.000000 0 0 1
18.955056 -33.872838 -21.852511 44.544310 -1.060617 2.083551 0.016434 0.011036 -68130.400000 0 0 1
20.279256 -33.665938 -21.453711 44.776170 -1.028638 2.070462 0.018344 0.024866 -153076.000000 0 0 1
20.993156 33.272963 -21.634911 44.898464 1.007939 2.073576 0.023685 0.023113 -570581.000000 0 0 1
22.424356 33.366063 -21.122011 45.412391 0.979062 2.054562 0.035746 0.018798 -616134.000000 0 0 1
23.205756 -33.935738 -21.913311 46.586851 -0.971016 2.060513 0.031543 0.019103 -405436.000000 0 0 1
24.537956 -33.763638 -21.500211 46.950545 -0.942338 2.046465 0.023112 0.017384 -7166.220000 0 0 1
25.285756 -33.038938 -22.656611 47.373652 -0.917555 2.069461 0.037456 0.009981 -121064.000000 0 0 1
25.151856 -31.609238 -22.810811 46.390656 -0.898675 2.084850 0.044563 0.001721 92527.200000 0 0 1
23.947956 -31.178038 -23.445011 45.773827 -0.915809 2.108532 0.027689 0.006947 379207.000000 0 0 1
23.737556 -29.680838 -23.436511 44.650798 -0.896202 2.123376 0.036634 -0.013580 -89008.500000 0 0 1
24.541056 -29.042638 -24.440811 45.200570 -0.869212 2.142088 0.032688 -0.017419 180135.000000 0 0 1
24.959756 -27.766038 -24.032011 44.401350 -0.838572 2.142713 0.065650 -0.015338 13783.400000 0 0 1
25.637956 -26.976838 -25.120351 44.900854 -0.810840 2.164534 0.063521 -0.021117 -352322.000000 0 0 1
24.709556 -26.575038 -26.066191 44.679315 -0.821757 2.193713 0.059557 -0.024921 -791422.000000 0 0 1
25.290956 -26.050938 -27.221741 45.379588 -0.800199 2.214132 0.048324 -0.022388 -192382.000000 0 0 1
24.235556 -25.741838 -28.316191 45.296922 -0.815528 2.246087 0.048076 -0.020294 360237.000000 0 0 1
23.636656 -24.483038 -28.129091 44.151517 -0.802985 2.261531 0.065636 -0.021011 -223294.000000 0 0 1
22.326756 -24.573438 -27.585651 43.166029 -0.833265 2.264071 0.064160 -0.025263 -148195.000000 0 0 1
21.724956 -23.195938 -27.399561 41.961426 -0.818133 2.282296 0.069247 -0.021359 124941.000000 0 0 1
21.019056 -22.750938 -28.591331 42.152937 -0.824945 2.316210 0.085664 -0.025650 212171.000000 0 0 1
20.482656 -21.483238 -28.501891 41.151264 -0.809236 2.335901 0.077536 -0.009186 -122314.000000 0 0 1
19.421056 -21.263938 -29.611661 41.305968 -0.830664 2.370122 0.099091 -0.028813 437694.000000 0 0 1
18.208156 -21.958738 -29.358461 40.934611 -0.878503 2.370578 0.078061 -0.031780 253365.000000 0 0 1
17.059456 -21.348038 -29.903971 40.509397 -0.896598 2.401192 0.067663 -0.034311 49107.100000 0 0 1
15.809256 -22.223938 -29.680071 40.308096 -0.952486 2.398427 0.062794 -0.036278 -363380.000000 0 0 1
15.936456 -23.391238 -30.444231 41.568881 -0.972731 2.392608 0.064194 -0.032690 -42013.100000 0 0 1
14.960756 -24.321638 -30.093411 41.484692 -1.019332 2.382426 0.081048 -0.038460 -470711.000000 0 0 1
15.315056 -25.780638 -30.655091 42.882711 -1.034761 2.367219 0.104972 -0.037065 -108417.000000 0 0 1
14.336156 -26.733138 -30.359821 42.917418 -1.078556 2.356611 0.122129 -0.038630 -312367.000000 0 0 1
14.633756 -28.041538 -30.846621 44.181316 -1.089814 2.343652 0.165388 -0.041202 60174.800000 0 0 1
13.983756 -29.138838 -29.995921 44.095041 -1.123357 2.318908 0.151826 -0.046972 -71326.100000 0 0 1
14.521856 -29.405038 -28.682541 43.568667 -1.112076 2.289394 0.172671 -0.047723 -165880.000000 0 0 1
14.455656 -28.353538 -27.719531 42.204994 -1.099311 2.287341 0.137576 -0.038987 154608.000000 0 0 1
15.560556 -28.292938 -26.623001 41.849796 -1.067968 2.260302 0.093568 -0.023931 78764.900000 0 0 1
15.417056 -29.247138 -25.575921 41.799623 -1.085681 2.229219 0.104553 -0.032236 11191.300000 0 0 1
16.265356 -28.927038 -24.473911 41.234787 -1.058567 2.206229 0.105728 -0.032099 -882476.000000 0 0 1
15.723456 -27.948638 -23.386611 39.689886 -1.058343 2.200906 0.087278 -0.030063 550630.000000 0 0 1
14.590756 -28.306438 -22.605011 39.052927 -1.094860 2.188090 0.080081 -0.029652 -226170.000000 0 0 1
13.388256 -28.422338 -23.306811 39.118821 -1.130578 2.209052 0.098464 -0.027001 -886308.000000 0 0 1
12.166656 -28.372338 -22.359211 38.117600 -1.165694 2.197632 0.087489 -0.020206 63403.600000 0 0 1
11.888456 -27.019938 -21.914011 36.764607 -1.156299 2.209385 0.071685 -0.021463 296814.000000 0 0 1
10.651956 -26.813638 -21.241911 35.828120 -1.192655 2.205432 0.069381 -0.020589 -67158.100000 0 0 1
10.324356 -25.312338 -21.076111 34.518245 -1.183517 2.227588 0.079364 -0.021362 -522111.000000 0 0 1
10.970756 -24.609638 -20.100211 33.615625 -1.151448 2.211728 0.068691 -0.020591 -156619.000000 0 0 1
10.605056 -23.235838 -20.153511 32.535141 -1.142625 2.238823 0.071629 -0.024701 115588.000000 0 0 1
11.071756 -22.550238 -18.858311 31.412305 -1.114389 2.214732 0.068079 -0.027287 29997.400000 0 0 1
10.159156 -22.849038 -17.851811 30.724163 -1.152425 2.190796 0.069463 -0.032604 83443.400000 0 0 1
10.616456 -22.261538 -16.612011 29.736243 -1.125802 2.163548 0.072219 -0.030033 -111796.000000 0 0 1
9.766856 -22.588838 -15.375211 29.017998 -1.162695 2.129221 0.067054 -0.028527 -240880.000000 0 0 1
9.839856 -23.952038 -15.030311 29.940494 -1.181002 2.096713 0.065483 -0.027467 -56168.300000 0 0 1
9.179856 -24.354738 -13.839311 29.477951 -1.210341 2.059498 0.061473 -0.023470 71453.700000 0 0 1
9.318956 -25.844138 -13.540011 30.628326 -1.224725 2.028707 0.055532 -0.020140 1029940.000000 0 0 1
10.637056 -26.254838 -13.116911 31.217252 -1.185861 2.004442 0.045801 -0.016189 527323.000000 0 0 1
10.838656 -27.640238 -13.132811 32.464288 -1.197090 1.987262 0.038762 -0.014303 164658.000000 0 0 1
12.190856 -28.130738 -12.478611 33.100924 -1.161862 1.957337 0.052631 -0.016196 1435950.000000 0 0 1
13.429756 -27.760738 -13.083611 33.499221 -1.120218 1.972041 0.061232 -0.017833 324730.000000 0 0 1
13.615956 -28.225538 -14.398911 34.487736 -1.121329 2.001498 0.063023 -0.022682 -719871.000000 0 0 1
14.933356 -27.729138 -15.048211 34.904998 -1.076791 2.016529 0.054722 -0.022840 579622.000000 0 0 1
16.137656 -28.251638 -14.503011 35.621852 -1.051814 1.990115 0.095289 -0.023994 595228.000000 0 0 1
17.280856 -27.622738 -15.130211 35.924462 -1.011764 2.005528 0.104590 -0.024148 1155260.000000 0 0 1
18.592156 -28.397638 -14.829711 37.040714 -0.991119 1.982709 0.094820 -0.024803 327752.000000 0 0 1
18.800156 -29.482838 -15.679911 38.321577 -1.003142 1.992337 0.090773 -0.015816 -116468.000000 0 0 1
20.150156 -29.893638 -15.598011 39.280483 -0.977692 1.979144 0.095056 -0.009742 265865.000000 0 0 1
20.397656 -30.972938 -16.687811 40.667805 -0.988424 1.993628 0.076665 -0.016130 -107232.000000 0 0 1
20.164756 -32.269138 -16.274311 41.385600 -1.012274 1.974945 0.075070 -0.001572 -79079.800000 0 0 1
20.403256 -33.148038 -17.361911 42.620667 -1.019044 1.990357 0.061772 -0.001947 15722.500000 0 0 1
20.210156 33.516463 -17.100211 42.710899 1.028180 1.982718 0.044199 0.004288 -132605.000000 0 0 1
21.143756 33.070063 -16.145411 42.442453 1.001936 1.961033 0.067211 -0.009705 -135291.000000 0 0 1
20.851956 31.762963 -15.634911 41.086985 0.989875 1.961168 0.052876 -0.013581 -763309.000000 0 0 1
21.967056 31.121163 -14.832411 40.878830 0.956151 1.942108 0.045085 -0.020932 68253.400000 0 0 1
23.129756 30.637063 -15.582811 41.429932 0.924128 1.956406 0.046363 -0.015938 1446250.000000 0 0 1
24.249656 30.293663 -14.766611 41.518726 0.895759 1.934418 0.057988 -0.026458 308782.000000 0 0 1
23.984656 29.274063 -13.637111 40.226923 0.884389 1.916655 0.055414 -0.021566 -1383160.000000 0 0 1
24.073456 27.949763 -14.091911 39.488005 0.859772 1.935707 0.055127 -0.014978 -1816.810000 0 0 1
23.669656 26.991263 -13.160211 38.235743 0.850870 1.922168 0.030468 -0.011619 -534604.000000 0 0 1
22.191156 26.770963 -12.842311 37.068272 0.878665 1.924581 0.027631 -0.008975 -591872.000000 0 0 1
21.445656 26.377063 -14.021811 36.773317 0.888153 1.962003 0.032032 -0.004064 374894.000000 0 0 1
20.037856 26.321163 -13.905611 35.884333 0.920113 1.968728 0.030726 -0.006509 -202490.000000 0 0 1
19.319556 27.644963 -13.975211 36.507475 0.960846 1.963626 0.032565 -0.010920 -830895.000000 0 0 1
19.331956 28.245763 -15.208111 37.454430 0.970604 1.988916 0.039668 -0.010210 -3819.920000 0 0 1
18.487456 27.633363 -16.162711 36.967851 0.981162 2.023290 0.036590 0.000527 -287171.000000 0 0 1
18.474856 28.447463 -17.497911 38.167465 0.994816 2.047048 0.038487 0.001348 168998.000000 0 0 1
17.723656 29.654263 -17.407211 38.684807 1.032087 2.037534 0.037168 -0.004489 -22315.000000 0 0 1
17.907356 30.430363 -18.576611 39.897003 1.038898 2.055125 0.030291 0.001786 -370864.000000 0 0 1
16.889656 31.537763 -18.809011 40.418682 1.079124 2.054831 0.024899 0.003454 -228582.000000 0 0 1
17.044356 32.681363 -17.973411 41.007622 1.090072 2.024497 0.046055 -0.017367 -172034.000000 0 0 1
16.073956 33.605063 -18.409311 41.552076 1.124643 2.029785 0.049412 -0.013713 -112372.000000 0 0 1
15.913456 -33.253138 -17.557411 40.832242 -1.124451 2.015277 0.054313 -0.006096 -484292.000000 0 0 1
14.949256 -32.439038 -18.100211 40.042341 -1.138963 2.039833 0.050534 -0.008586 -674297.000000 0 0 1
14.480756 -31.458238 -17.195711 38.665301 -1.139396 2.031672 0.055240 -0.019313 -775187.000000 0 0 1
13.302556 -30.727738 -17.769611 37.906609 -1.162239 2.058698 0.041884 -0.022195 -1460130.000000 0 0 1
12.117556 -31.395838 -17.534611 37.947285 -1.202451 2.051133 0.048179 -0.017458 -461161.000000 0 0 1
10.997156 -30.573238 -17.928811 37.109333 -1.225507 2.075028 0.032587 -0.009633 1255560.000000 0 0 1
9.735556 -31.447138 -18.246111 37.638068 -1.270569 2.076906 0.047166 -0.020009 -624498.000000 0 0 1
8.906456 -31.861938 -17.144611 37.261854 -1.298221 2.048917 0.047466 -0.018632 1554160.000000 0 0 1
7.653456 -32.488238 -17.554411 37.712311 -1.339438 2.054976 0.059599 -0.014979 1473320.000000 0 0 1
6.624256 -31.562038 -18.268311 37.064460 -1.363919 2.086192 0.067205 -0.006837 -1182750.000000 0 0 1
6.923656 -31.101038 -19.559711 37.387082 -1.351750 2.121360 0.060351 -0.004725 -232488.000000 0 0 1
6.881756 -32.041038 -20.588411 38.702317 -1.359231 2.131720 0.080157 -0.014650 -969166.000000 0 0 1
7.411256 -31.495438 -21.961411 39.104896 -1.339689 2.167118 0.093192 -0.008666 428252.000000 0 0 1
8.828756 -31.292738 -21.968711 39.240370 -1.295810 2.165001 0.085507 -0.014932 900277.000000 0 0 1
9.711456 -32.406338 -22.023411 40.367236 -1.279635 2.147873 0.094215 -0.017483 -118792.000000 0 0 1
9.395556 -33.501638 -23.148311 41.790915 -1.297370 2.157847 0.118363 -0.032162 -191154.000000 0 0 1
8.144056 34.052163 -22.832511 41.799510 1.336042 2.148664 0.115777 -0.042454 186343.000000 0 0 1
7.857356 32.857863 -23.575611 41.196925 1.336073 2.180063 0.115708 -0.053428 453805.000000 0 0 1
6.566956 32.061863 -23.117311 40.068666 1.368769 2.185777 0.120521 -0.063587 1555840.000000 0 0 1
5.312156 32.606963 -23.556111 40.574911 1.409300 2.190211 0.120844 -0.058021 565730.000000 0 0 1
4.761756 33.383863 -22.530111 40.555672 1.429116 2.159803 0.090052 -0.046723 -114418.000000 0 0 1
3.411356 34.052363 -22.950511 41.205906 1.470950 2.161531 0.080581 -0.039724 989654.000000 0 0 1
2.268956 33.183463 -22.850411 40.353831 1.502526 2.172747 0.077742 -0.049439 279635.000000 0 0 1
1.125656 33.777663 -23.385911 41.098643 1.537483 2.176109 0.077382 -0.036590 -1192940.000000 0 0 1
-0.125044 33.319463 -22.687711 40.310476 -1.567043 2.168595 0.067192 -0.042765 -999836.000000 0 0 1
-0.324544 33.877963 -21.413811 40.079583 -1.561217 2.134455 0.044587 -0.039383 -325108.000000 0 0 1
-1.511244 33.346363 -20.888911 39.377790 -1.525508 2.129956 0.042361 -0.043230 -76696.500000 0 0 1
-1.794344 33.804263 -19.437711 39.035528 -1.517766 2.092029 0.053079 -0.040184 -213361.000000 0 0 1
-0.928944 33.196263 -18.538611 38.033339 -1.542820 2.079941 0.046165 -0.036242 -155608.000000 0 0 1
-1.449544 33.184763 -17.203111 37.406907 -1.527143 2.048669 0.025235 -0.019199 34768.000000 0 0 1
-0.753544 32.160763 -16.327811 36.076029 -1.547370 2.040469 0.016104 0.001305 480958.000000 0 0 1
0.555256 32.461063 -15.856311 36.131032 1.553693 2.025121 0.009980 -0.001083 91250.900000 0 0 1
1.000356 31.261563 -15.247111 34.795983 1.538808 2.024376 0.024176 0.004546 296073.000000 0 0 1
2.049756 31.525263 -14.129211 34.607489 1.505868 1.991355 0.046122 -0.004983 81773.700000 0 0 1
3.211656 32.180863 -14.567511 35.470199 1.471326 1.994015 0.053378 -0.014029 -361659.000000 0 0 1
3.989156 32.603563 -13.464511 35.499278 1.449048 1.959825 0.066899 -0.021054 -634889.000000 0 0 1
5.359056 33.050763 -13.957211 36.275007 1.410049 1.965745 0.066688 -0.029888 -608853.000000 0 0 1
6.169556 31.965063 -14.282711 35.550309 1.380131 1.984235 0.077317 -0.028432 -582481.000000 0 0 1
7.123456 32.188063 -15.298111 36.343462 1.352999 2.005268 0.078153 -0.023957 59767.100000 0 0 1
8.113556 30.997563 -15.420511 35.559399 1.314791 2.019341 0.076981 -0.034610 78636.200000 0 0 1
9.038156 31.103663 -14.339911 35.422580 1.288002 1.987583 0.071364 -0.041236 76362.500000 0 0 1
10.099856 30.159063 -14.318711 34.879817 1.247649 1.993816 0.078519 -0.035167 464765.000000 0 0 1
9.682056 28.720863 -13.886911 33.338813 1.245652 2.000431 0.097348 -0.033339 -416583.000000 0 0 1
8.995856 27.982463 -14.851911 32.932096 1.259750 2.038666 0.110661 -0.033606 -134142.000000 0 0 1
8.560156 26.749063 -14.346211 31.537318 1.261078 2.043052 0.098059 -0.026601 -368476.000000 0 0 1
7.804056 25.904163 -15.356311 31.108604 1.278178 2.087061 0.108268 -0.028315 -482919.000000 0 0 1
8.517456 25.520963 -16.476711 31.549146 1.248677 2.120290 0.110505 -0.024947 -546822.000000 0 0 1
7.820256 24.570363 -17.252211 31.024151 1.262654 2.160470 0.090840 -0.016385 -93428.200000 0 0 1
8.727556 23.731863 -18.180211 31.143083 1.218391 2.194153 0.097540 -0.014820 -249384.000000 0 0 1
8.041956 22.827563 -19.072711 30.814591 1.232082 2.238202 0.100072 -0.018783 -129835.000000 0 0 1
8.911256 21.984163 -19.787811 30.891283 1.185687 2.266027 0.076917 -0.017147 -394192.000000 0 0 1
8.224556 21.112263 -20.877511 30.809762 1.199320 2.315327 0.055261 -0.018648 837885.000000 0 0 1
7.183056 20.225763 -20.378711 29.596784 1.229546 2.330277 0.056218 -0.015715 789715.000000 0 0 1
6.623556 19.375863 -21.397811 29.616919 1.241404 2.378188 0.047818 -0.015279 275259.000000 0 0 1
25.281056 -12.432237 -9.320111 29.674178 -0.457035 1.890285 0.072572 -0.002264 -70455.800000 0 0 1
25.826056 -11.700437 -8.233911 29.524273 -0.425386 1.853430 0.077033 -0.007553 335864.000000 0 0 1
25.030156 -11.843337 -7.069511 28.578862 -0.441948 1.820760 0.058898 -0.000553 -409928.000000 0 0 1
25.609256 -11.202037 -5.778611 28.543160 -0.412344 1.774657 0.043386 -0.004538 -293455.000000 0 0 1
25.718956 -9.822637 -5.673511 28.109387 -0.364825 1.774029 0.050187 -0.012861 1021020.000000 0 0 1
26.768256 -9.248737 -6.486411 29.054298 -0.332670 1.795945 0.053162 -0.013019 -403623.000000 0 0 1
26.967556 -7.806637 -5.925011 28.693178 -0.281780 1.778788 0.091459 -0.020505 -79667.000000 0 0 1
27.619056 -7.739337 -4.660511 29.059078 -0.273210 1.731873 0.109412 -0.036046 1208770.000000 0 0 1
29.032956 -8.011037 -4.717611 30.485163 -0.269230 1.726172 0.119951 -0.034830 598846.000000 0 0 1
29.742856 -7.898237 -3.317811 30.952020 -0.259560 1.678195 0.125385 -0.035274 -104973.000000 0 0 1
29.750856 -6.619237 -2.735911 30.600866 -0.218923 1.660322 0.136486 -0.034989 278467.000000 0 0 1
30.345556 -6.683237 -1.431511 31.105750 -0.216777 1.616833 0.132164 -0.030483 149462.000000 0 0 1
30.533056 -5.254237 -0.740411 30.990688 -0.170415 1.594690 0.135804 -0.040402 542422.000000 0 0 1
29.283956 -4.581337 -0.528611 29.644868 -0.155187 1.588629 0.133893 -0.038448 407000.000000 0 0 1
29.408056 -3.324037 0.041689 29.595350 -0.112554 1.569388 0.142059 -0.031012 -255917.000000 0 0 1
30.031556 -3.222637 1.485289 30.240467 -0.106899 1.521661 0.133955 -0.021984 292940.000000 0 0 1
29.066256 -3.221337 2.544289 29.354688 -0.110377 1.484013 0.132293 -0.028546 764029.000000 0 0 1
29.723356 -2.969237 3.784189 30.110038 -0.099565 1.444784 0.136491 -0.026345 144403.000000 0 0 1
29.377256 -4.085537 4.819789 30.049046 -0.138185 1.409703 0.137246 -0.036966 -11175.500000 0 0 1
30.064656 -5.332137 4.594689 30.877604 -0.175530 1.421438 0.126716 -0.043703 503493.000000 0 0 1
29.975056 -6.219337 5.714989 31.142339 -0.204581 1.386239 0.115392 -0.042115 -373824.000000 0 0 1
30.795056 -7.456737 5.433089 32.147424 -0.237568 1.400976 0.095993 -0.040059 -108731.000000 0 0 1
32.190456 -7.344737 5.623989 33.493281 -0.224325 1.402083 0.105325 -0.033537 -37950.300000 0 0 1
32.848156 -8.586737 5.528289 34.399061 -0.255685 1.409386 0.093952 -0.030267 130245.000000 0 0 1
34.381056 -8.491537 5.738089 35.876021 -0.242137 1.410164 0.103520 -0.031336 36706.600000 0 0 1
34.996756 -7.976837 4.586789 36.186206 -0.224102 1.443699 0.108215 -0.031590 -309589.000000 0 0 1
36.282256 -7.510237 4.954289 37.381155 -0.204112 1.437871 0.129475 -0.027943 132809.000000 0 0 1
-36.506105 -7.158637 3.712989 37.386201 0.193637 1.471318 0.132843 -0.027974 -134733.000000 0 0 1
-36.348505 -8.243937 2.817589 37.378003 0.223030 1.495344 0.130451 -0.025972 612449.000000 0 0 1
-35.227105 -8.070637 1.943189 36.191989 0.225216 1.517079 0.164895 -0.033677 299526.000000 0 0 1
-34.854905 -9.345937 1.111489 36.103273 0.261976 1.540005 0.143709 -0.029514 -356938.000000 0 0 1
-34.240305 -10.357837 1.839989 35.819950 0.293753 1.519406 0.141208 -0.030344 162830.000000 0 0 1
-34.379005 -11.581237 1.163989 36.295949 0.324930 1.538721 0.119216 -0.036116 -1112710.000000 0 0 1
-34.068705 -12.809637 2.045189 36.454715 0.359642 1.514665 0.122450 -0.044586 422128.000000 0 0 1
-32.734905 -13.046037 2.456389 35.324311 0.379244 1.501202 0.113684 -0.034565 436840.000000 0 0 1
-31.791905 -13.406337 1.454089 34.533599 0.399064 1.528677 0.107660 -0.021853 260800.000000 0 0 1
-30.436605 -13.907337 2.037689 33.525410 0.428600 1.509978 0.110027 -0.018771 376955.000000 0 0 1
-29.642205 -12.930837 2.645989 32.447929 0.411344 1.489160 0.109828 -0.018618 -86279.500000 0 0 1
-28.310605 -13.302137 2.873389 31.411679 0.439250 1.479193 0.108596 -0.014819 -43344.900000 0 0 1
-27.545305 -12.187237 3.662989 30.342875 0.416552 1.449781 0.110702 -0.014582 -180027.000000 0 0 1
-26.189605 -12.463237 3.940789 29.270420 0.444170 1.435752 0.104100 -0.004654 136516.000000 0 0 1
-25.608005 -11.418837 4.650589 28.421607 0.419447 1.406429 0.101260 -0.001081 -726817.000000 0 0 1
-24.172305 -11.681637 5.068989 27.321340 0.450170 1.384183 0.101996 0.003537 -597431.000000 0 0 1
-24.002905 -12.582237 6.137089 27.786975 0.482817 1.348098 0.091751 0.003769 -326758.000000 0 0 1
-22.654105 -12.810637 6.433889 26.808876 0.514657 1.328440 0.097040 0.002968 -21841.500000 0 0 1
-22.171705 -12.206637 7.834889 26.494754 0.503266 1.270593 0.106774 -0.009452 -358436.000000 0 0 1
-21.988305 -10.782837 7.795989 25.700828 0.455930 1.262605 0.105289 -0.007522 1017920.000000 0 0 1
-23.190305 -10.036137 8.072889 26.527077 0.408436 1.261565 0.101957 -0.013828 143652.000000 0 0 1
-23.600805 -9.953837 9.598289 27.353318 0.399122 1.212264 0.083273 -0.007067 -447592.000000 0 0 1
-23.977605 -11.236537 10.124489 28.349437 0.438235 1.205601 0.068792 -0.005136 342015.000000 0 0 1
-25.333705 -11.569737 9.894789 29.556087 0.428406 1.229425 0.052494 0.000274 -312603.000000 0 0 1
-26.303505 -11.136737 10.995989 30.607402 0.400509 1.203322 0.055486 -0.003039 -715031.000000 0 0 1
-26.206905 -11.789537 12.248189 31.238009 0.422741 1.167891 0.056645 -0.001900 642261.000000 0 0 1
-27.348005 -11.432237 13.045589 32.385132 0.395951 1.156193 0.049179 -0.005292 581225.000000 0 0 1
-27.461905 -12.134937 14.442889 33.316812 0.416083 1.122422 0.056858 -0.003492 -78938.000000 0 0 1
-27.749205 -13.526437 14.389789 34.059491 0.453560 1.134606 0.035810 -0.005629 470358.000000 0 0 1
-27.417205 -14.115837 15.673789 34.592306 0.475459 1.100556 0.042651 -0.013555 -312526.000000 0 0 1
-27.350805 -15.678537 15.648289 35.195909 0.520510 1.110063 0.042198 0.003671 -31410.700000 0 0 1
-28.528505 -16.426237 15.883189 36.550958 0.522423 1.121259 0.033700 0.006264 216742.000000 0 0 1
-28.130605 -17.760437 15.876989 36.862485 0.563157 1.125519 0.030252 0.001614 -277404.000000 0 0 1
-29.187805 -18.733637 16.392589 38.361362 0.570611 1.129270 0.012749 0.015524 -312122.000000 0 0 1
-29.379305 -18.625637 17.808689 39.079500 0.565025 1.097633 0.030446 0.011977 197554.000000 0 0 1
-30.111505 -19.706537 18.408589 40.421856 0.579499 1.097962 0.037425 0.012811 321119.000000 0 0 1
-29.248605 -20.998137 18.648589 40.548397 0.622651 1.092903 0.027082 0.009371 474014.000000 0 0 1
-28.088705 -20.808537 19.454089 40.005401 0.637597 1.062961 0.044824 0.003690 246512.000000 0 0 1
-27.367405 -21.987337 19.573189 40.193626 0.676819 1.062176 0.053683 0.002676 132471.000000 0 0 1
-25.942605 -21.855837 20.181989 39.471623 0.700106 1.034095 0.066016 0.004218 -21978.200000 0 0 1
-24.940005 -21.360537 19.339789 38.109104 0.708242 1.038533 0.060598 0.001071 594513.000000 0 0 1
-23.692505 -21.477537 20.076889 37.758454 0.736401 1.010167 0.068068 0.003155 249495.000000 0 0 1
-22.478005 -21.108437 19.263889 36.358276 0.753987 1.012390 0.076167 -0.001441 -623186.000000 0 0 1
-22.135005 -21.918537 18.129889 36.042663 0.780484 1.043716 0.080186 -0.015956 1049350.000000 0 0 1
-20.871605 -21.611037 17.504789 34.771805 0.802802 1.043245 0.091054 -0.013124 780731.000000 0 0 1
-20.565805 -22.466437 16.312189 34.551131 0.829537 1.079105 0.093582 -0.006141 -437641.000000 0 0 1
-20.566105 -23.874137 16.411489 35.528525 0.859699 1.090633 0.086634 -0.013387 717420.000000 0 0 1
-19.570705 -24.487837 17.269789 35.789835 0.896543 1.067252 0.090152 -0.019064 1060350.000000 0 0 1
-18.135305 -24.697837 16.653389 34.874171 0.937428 1.072957 0.075223 -0.016493 895542.000000 0 0 1
-17.467305 -23.443137 16.456289 33.548426 0.930443 1.058106 0.081538 -0.017548 -629627.000000 0 0 1
-16.169805 -23.632537 15.999089 32.801376 0.970741 1.061278 0.088048 -0.020181 -449842.000000 0 0 1
-15.294905 -22.358737 15.892489 31.407299 0.970843 1.040241 0.082189 -0.014133 -224621.000000 0 0 1
-15.717905 -21.391337 14.889489 30.435813 0.937108 1.059613 0.094227 -0.006947 236736.000000 0 0 1
-16.660405 -20.380837 15.323289 30.459002 0.885503 1.043638 0.103850 -0.011059 161346.000000 0 0 1
-16.280505 -19.182637 16.274889 29.964986 0.867051 0.996636 0.082969 -0.015977 -243965.000000 0 0 1
-15.538805 -18.201037 15.509089 28.517785 0.864140 0.995791 0.073154 -0.011849 304781.000000 0 0 1
-15.452405 -16.989237 16.248989 28.132555 0.832735 0.955027 0.056984 -0.009587 -396251.000000 0 0 1
-14.959205 -15.765637 15.505089 26.697208 0.811639 0.951115 0.062946 -0.004075 14853.800000 0 0 1
-15.800105 -15.221537 14.506389 26.301594 0.766750 0.986587 0.080808 -0.015917 63770.100000 0 0 1
-16.041305 -15.930437 13.312389 26.235891 0.781931 1.038618 0.112745 -0.015181 259283.000000 0 0 1
-16.991205 -15.150837 12.300589 25.875730 0.728203 1.075410 0.096171 -0.010213 1124700.000000 0 0 1
-18.352005 -15.288537 12.737889 27.070081 0.694584 1.080880 0.081798 -0.013388 951955.000000 0 0 1
-19.246105 -14.475937 11.967089 26.891942 0.644875 1.109615 0.117046 -0.015697 987117.000000 0 0 1
-20.796105 -14.691637 12.150089 28.212530 0.615049 1.125569 0.082501 -0.019504 1061320.000000 0 0 1
-21.431705 -15.838037 11.579389 29.055871 0.636424 1.160892 0.082439 -0.020825 285622.000000 0 0 1
-21.661305 -15.673237 10.207689 28.619214 0.626363 1.206093 0.103986 -0.014184 -317751.000000 0 0 1
-22.285605 -16.998637 9.601989 29.627690 0.651620 1.240748 0.106127 -0.006872 -115960.000000 0 0 1
-21.451005 -18.103137 9.486889 29.628875 0.700959 1.244866 0.114225 -0.001838 -509274.000000 0 0 1
-22.179405 -19.245537 9.100689 30.743117 0.714693 1.270269 0.121567 -0.007119 -44646.300000 0 0 1
-21.359805 -20.532737 8.998889 30.964731 0.765658 1.275924 0.118293 -0.007525 447966.000000 0 0 1
-20.265205 -20.610637 8.067689 30.009407 0.793849 1.298609 0.127176 -0.009595 400011.000000 0 0 1
-19.780905 -21.946637 8.165289 30.653075 0.837253 1.301164 0.127288 -0.016934 232286.000000 0 0 1
-18.461705 -22.264437 7.410689 29.857294 0.878501 1.319971 0.109008 -0.020760 -12000.400000 0 0 1
-17.303905 -21.751237 8.011489 28.926206 0.898783 1.290164 0.090568 -0.019548 -452036.000000 0 0 1
-16.167805 -22.089437 7.250689 28.318080 0.938964 1.311868 0.091055 -0.016302 550904.000000 0 0 1
-14.875205 -21.380937 7.817189 27.194202 0.962947 1.279225 0.051647 -0.015005 760242.000000 0 0 1
-13.660505 -21.920137 7.289089 26.837150 1.013497 1.295737 0.046543 -0.007519 991649.000000 0 0 1
-12.580505 -21.662237 8.231189 26.368051 1.044646 1.253325 0.043707 -0.006552 1381170.000000 0 0 1
-11.171705 -22.067437 7.694589 25.903387 1.102159 1.269195 0.032841 -0.006106 478920.000000 0 0 1
-10.948705 -23.463137 7.763989 27.030954 1.134196 1.279467 0.027762 -0.002198 656081.000000 0 0 1
-9.646005 -23.876737 7.278889 26.760535 1.186854 1.295325 0.042546 -0.006929 1123030.000000 0 0 1
-9.500705 -25.409627 7.338989 28.102906 1.212989 1.306586 0.047275 0.001576 -245853.000000 0 0 1
-10.240205 -26.090607 6.350689 28.738699 1.196784 1.347977 0.048054 -0.002577 -153202.000000 0 0 1
-10.144405 -27.484547 6.492389 30.007672 1.217213 1.352714 0.072679 -0.001709 255603.000000 0 0 1
-9.017405 -28.189527 5.680489 30.136871 1.261198 1.381172 0.072453 -0.003612 350236.000000 0 0 1
-7.714405 -28.027697 6.210189 29.725920 1.302205 1.360331 0.076353 -0.003766 732601.000000 0 0 1
-6.673405 -28.815057 5.574189 30.098396 1.343214 1.384522 0.085412 0.001494 1042420.000000 0 0 1
-6.585405 -30.298177 6.119989 31.603819 1.356772 1.375918 0.094266 -0.008229 -210956.000000 0 0 1
-6.703405 -30.302117 7.534289 31.936178 1.353084 1.332634 0.090607 -0.006691 99375.700000 0 0 1
-6.678405 -31.573827 8.169489 33.290362 1.362352 1.322863 0.130793 -0.019731 -102011.000000 0 0 1
-7.078405 -31.702617 9.689689 33.897637 1.351124 1.280901 0.112125 -0.022467 -196073.000000 0 0 1
-6.231405 -30.945047 10.519289 33.272839 1.372084 1.249125 0.104602 -0.013557 122562.000000 0 0 1
-6.184405 -31.329277 11.847089 34.060593 1.375902 1.215547 0.090763 -0.018827 -173551.000000 0 0 1
-5.359405 -30.397667 12.805789 33.417505 1.396280 1.177532 0.089425 -0.018946 322195.000000 0 0 1
-5.950405 -29.165577 13.076489 32.512040 1.369537 1.156873 0.085802 -0.007455 180020.000000 0 0 1
-5.026405 -28.469117 13.886089 32.071465 1.396041 1.123008 0.078664 -0.019272 323936.000000 0 0 1
-5.646405 -27.861497 15.216889 32.244358 1.370845 1.079324 0.078812 -0.014645 -62542.400000 0 0 1
-6.234405 -28.773947 16.137489 33.574192 1.357426 1.069399 0.072221 -0.022608 352880.000000 0 0 1
-5.358405 -29.675387 16.821289 34.529652 1.392154 1.061967 0.061823 -0.028660 52834.700000 0 0 1
-6.119405 -30.951047 17.165789 35.917666 1.375601 1.072511 0.051690 -0.024279 23789.800000 0 0 1
-6.267405 -31.763907 16.019089 36.122533 1.375987 1.111335 0.054250 -0.020087 247486.000000 0 0 1
-7.088405 -32.901857 16.199989 37.352608 1.358599 1.122196 0.052857 -0.023537 -79745.000000 0 0 1
-6.486405 34.001790 15.543589 37.944674 -1.382295 1.148739 0.044408 -0.024572 -196387.000000 0 0 1
-6.345405 33.948407 14.100189 37.303804 -1.386015 1.183180 0.061068 -0.027446 -171140.000000 0 0 1
-5.519405 32.904424 13.708689 36.070668 -1.404603 1.180945 0.070784 -0.030887 -992934.000000 0 0 1
-4.301405 33.456629 13.011489 36.154487 -1.442931 1.202651 0.084646 -0.038007 -1055680.000000 0 0 1
-4.584405 33.936724 11.755289 36.206419 -1.436522 1.240129 0.098004 -0.036724 963686.000000 0 0 1
-3.419405 -33.853447 10.959389 35.747118 1.470132 1.259197 0.108576 -0.036414 690946.000000 0 0 1
-3.912405 -33.565377 9.490289 35.099958 1.454759 1.297010 0.101250 -0.035765 -648850.000000 0 0 1
-3.937405 33.554416 8.523889 34.843344 -1.453987 1.323653 0.112366 -0.045728 134081.000000 0 0 1
-4.618405 32.302578 8.741989 33.781778 -1.428785 1.309039 0.113218 -0.047111 59523.400000 0 0 1
-6.114405 32.429777 9.090989 34.230431 -1.384441 1.301989 0.119321 -0.035636 -440845.000000 0 0 1
-6.922405 33.020617 8.095089 34.695984 -1.364150 1.335311 0.120775 -0.034352 227161.000000 0 0 1
-8.289405 33.081570 8.522289 35.153007 -1.325277 1.325922 0.090527 -0.032944 618383.000000 0 0 1
-9.305305 33.349496 7.413289 35.408112 -1.298693 1.359869 0.097288 -0.044477 -240444.000000 0 0 1
-9.354205 -33.467367 6.904489 35.429335 1.298249 1.374661 0.129430 -0.035056 -146344.000000 0 0 1
-10.237805 -33.447067 5.812689 35.458515 1.273762 1.406124 0.115667 -0.023850 -33246.000000 0 0 1
-10.571305 -32.054247 5.230189 34.155265 1.252234 1.417062 0.104935 -0.018429 183870.000000 0 0 1
-11.457305 -31.271877 6.001889 33.841141 1.219607 1.392498 0.116492 -0.019421 -445110.000000 0 0 1
-12.296405 -30.541187 5.159389 33.325440 1.188036 1.415353 0.124508 -0.018392 234750.000000 0 0 1
-13.322705 -29.693087 5.998489 33.093138 1.149040 1.388528 0.116470 -0.023870 196289.000000 0 0 1
-14.112405 -30.443747 6.868489 34.251392 1.136726 1.368896 0.111431 -0.028880 -445879.000000 0 0 1
-15.037405 -29.684057 7.570789 34.125997 1.101897 1.347087 0.100697 -0.026779 -287888.000000 0 0 1
34.605978 -12.855937 -12.651811 39.024571 -0.355694 1.900963 0.087066 -0.017882 204055.000000 0 0 1
33.344858 -12.850837 -11.986611 37.692206 -0.367850 1.894429 0.089130 -0.011898 403520.000000 0 0 1
32.819358 -14.031337 -11.446911 37.483602 -0.404014 1.881139 0.093719 -0.017676 -101150.000000 0 0 1
33.607658 -14.730537 -10.331711 38.120961 -0.413089 1.845253 0.073198 -0.016407 747874.000000 0 0 1
34.860758 -15.351037 -10.726911 39.572634 -0.414803 1.845300 0.088568 -0.020645 750787.000000 0 0 1
35.680498 -15.422737 -9.569411 40.031642 -0.407992 1.812180 0.077445 -0.021712 -706809.000000 0 0 1
-36.475714 -15.522937 -9.921311 40.864063 0.402353 1.816035 0.055971 -0.024148 -467396.000000 0 0 1
-35.824149 -14.316137 -10.427411 39.963137 0.380181 1.834777 0.047856 -0.021132 682266.000000 0 0 1
-34.409669 -14.377937 -10.476411 38.736360 0.395795 1.844661 0.043546 -0.023326 355960.000000 0 0 1
-33.731994 -13.046637 -10.918611 37.779336 0.369052 1.863989 0.056902 -0.031656 -41980.400000 0 0 1
-33.989904 -11.985037 -10.034511 37.411844 0.338994 1.842339 0.063857 -0.026618 453280.000000 0 0 1
-33.199544 -10.805737 -10.303211 36.402332 0.314665 1.857756 0.078744 -0.032512 164651.000000 0 0 1
-33.552194 -9.612637 -9.394811 36.144363 0.279024 1.833741 0.079564 -0.032893 -47240.800000 0 0 1
-32.985424 -9.753537 -8.099511 35.337965 0.287500 1.802053 0.096730 -0.031570 304899.000000 0 0 1
-33.544414 -8.742637 -7.301311 35.425563 0.254957 1.778387 0.132431 -0.038435 -354935.000000 0 0 1
-33.050124 -8.705737 -5.875411 34.678826 0.257560 1.741041 0.121229 -0.029883 1090130.000000 0 0 1
-31.742244 -8.010937 -5.862311 33.258260 0.247212 1.747988 0.129689 -0.042789 1732180.000000 0 0 1
-31.147974 -7.968037 -4.581011 32.475707 0.250442 1.712328 0.131591 -0.035283 -224474.000000 0 0 1
-30.556154 -9.296637 -4.010211 32.189871 0.295349 1.695701 0.119187 -0.026778 -280441.000000 0 0 1
-31.451844 -10.368137 -3.635711 33.315689 0.318433 1.680143 0.114223 -0.026754 447914.000000 0 0 1
-31.893894 -10.360237 -2.314011 33.614128 0.314082 1.639691 0.111594 -0.028360 -211783.000000 0 0 1
-32.363354 -11.786837 -1.977111 34.499640 0.349272 1.628136 0.114869 -0.024396 717908.000000 0 0 1
-33.679574 -12.028137 -2.521911 35.851775 0.343017 1.641197 0.106704 -0.033539 1032740.000000 0 0 1
-34.100883 -13.331637 -2.178211 36.678977 0.372678 1.630217 0.113807 -0.042213 -53345.300000 0 0 1
-35.632358 -13.501437 -2.372011 38.178268 0.362194 1.632966 0.087500 -0.034906 97937.500000 0 0 1
-36.249714 -12.753137 -1.369211 38.452035 0.338289 1.606412 0.093406 -0.036918 -148329.000000 0 0 1
36.009978 -12.856637 -1.038811 38.250369 -0.342924 1.597958 0.106835 -0.037828 66662.900000 0 0 1
35.593878 -11.761937 -0.005911 37.486895 -0.319152 1.570954 0.088327 -0.038141 -164437.000000 0 0 1
36.047638 -12.158737 1.242389 38.063245 -0.325313 1.538150 0.096364 -0.036248 165663.000000 0 0 1
35.676378 -11.172737 2.214089 37.450450 -0.303494 1.511641 0.098615 -0.035003 -338222.000000 0 0 1
35.942158 -11.631037 3.635989 37.951813 -0.312969 1.474844 0.107845 -0.044595 405501.000000 0 0 1
34.774988 -11.973637 4.397989 37.040654 -0.331604 1.451781 0.097734 -0.047233 432733.000000 0 0 1
35.128148 -12.278637 5.732589 37.651219 -0.336264 1.417947 0.100777 -0.037808 74913.900000 0 0 1
33.940848 -12.496537 6.710589 36.785549 -0.352783 1.387344 0.096388 -0.033953 86338.600000 0 0 1
33.296618 -11.287437 7.145989 35.876680 -0.326839 1.370273 0.075525 -0.033087 98973.500000 0 0 1
33.369338 -11.082537 8.534389 36.182470 -0.320656 1.332682 0.061671 -0.020104 -236113.000000 0 0 1
32.474678 -9.892737 8.984789 35.116910 -0.295698 1.312066 0.059941 -0.029482 -957277.000000 0 0 1
31.184538 -9.967337 8.487189 33.820934 -0.309362 1.317140 0.079828 -0.027208 -1043120.000000 0 0 1
30.377618 -9.136037 9.274589 33.049733 -0.292144 1.286351 0.094038 -0.016268 -842686.000000 0 0 1
28.917098 -9.247937 8.844389 31.621924 -0.309529 1.287323 0.090743 -0.019673 -575321.000000 0 0 1
28.531718 -8.703337 7.584589 30.778775 -0.296075 1.321809 0.108225 -0.025950 109624.000000 0 0 1
27.814418 -9.678637 6.838389 30.233779 -0.334867 1.342638 0.122138 -0.040291 -410095.000000 0 0 1
26.843318 -9.002037 5.865089 28.913658 -0.323569 1.366530 0.134688 -0.039301 -266896.000000 0 0 1
25.696218 -8.504537 6.563889 27.851524 -0.319617 1.332884 0.153002 -0.039089 552175.000000 0 0 1
24.622018 -8.160837 5.722789 26.563007 -0.320050 1.353652 0.153280 -0.038134 -99732.700000 0 0 1
24.787418 -6.769337 5.068889 26.190335 -0.266595 1.376027 0.138269 -0.034965 -720490.000000 0 0 1
25.382618 -6.774837 3.791789 26.543424 -0.260828 1.427454 0.115455 -0.037238 243246.000000 0 0 1
25.881618 -5.475537 3.489889 26.683684 -0.208487 1.439633 0.123319 -0.035123 148813.000000 0 0 1
26.606018 -5.392537 2.119989 27.229653 -0.199972 1.492862 0.134512 -0.044058 196233.000000 0 0 1
25.698618 -5.657137 1.088489 26.336419 -0.216678 1.529454 0.134787 -0.041826 265981.000000 0 0 1
26.350218 -5.218537 -0.092411 26.862160 -0.195515 1.574237 0.140119 -0.044902 -154351.000000 0 0 1
25.573818 -5.591137 -1.398211 26.215186 -0.215241 1.624158 0.127147 -0.036167 138805.000000 0 0 1
24.423318 -4.832237 -1.644711 24.951033 -0.195331 1.636762 0.114770 -0.035748 -318131.000000 0 1 0
23.909118 -5.059337 -2.917011 24.612025 -0.208531 1.689595 0.103732 -0.032039 462838.000000 0 1 0
22.671818 -4.118537 -3.153511 23.257650 -0.179699 1.706806 0.084074 -0.030389 477662.000000 0 1 0
23.064818 -2.705237 -3.021511 23.418660 -0.116755 1.700179 0.081685 -0.030596 362180.000000 0 1 0
23.540018 -2.173937 -4.219011 24.013715 -0.092090 1.747405 0.089533 -0.031008 185619.000000 0 1 0
22.425818 -1.499637 -5.109911 23.049456 -0.066772 1.794347 0.071607 -0.024930 515716.000000 0 1 0
21.985018 -0.278637 -4.542811 22.451186 -0.012673 1.774545 0.056757 -0.018776 269200.000000 0 1 0
21.185818 0.487063 -5.429011 21.875792 0.022986 1.821592 0.065778 -0.013709 -530339.000000 0 1 0
20.838318 1.931163 -4.946511 21.504252 0.092410 1.802899 0.056323 -0.003230 -961514.000000 0 1 0
21.907118 2.869963 -4.921511 22.635807 0.130264 1.789968 0.083619 -0.011447 355883.000000 0 1 0
22.632718 2.708263 -3.704211 23.093198 0.119095 1.731895 0.104513 -0.010700 149608.000000 0 1 0
23.905818 3.604263 -3.629111 24.446866 0.149642 1.719796 0.130905 -0.024355 312869.000000 0 1 0
23.605218 4.953463 -3.497311 24.371588 0.206845 1.714793 0.112456 -0.011937 462820.000000 0 1 0
24.602318 5.571963 -2.717911 25.371398 0.222724 1.678127 0.115067 -0.024473 1201.490000 0 0 1
24.294018 7.066563 -2.620411 25.436237 0.283066 1.673998 0.112604 -0.030003 147049.000000 0 0 1
23.222418 7.410563 -1.769411 24.440293 0.308898 1.643257 0.131128 -0.033223 880497.000000 0 1 0
22.425818 8.550463 -2.112711 24.093386 0.364263 1.658598 0.110526 -0.028261 56674.900000 0 1 0
21.438118 8.927863 -1.019511 23.245194 0.394605 1.614669 0.088793 -0.026954 -499187.000000 0 1 0
22.123418 9.575963 0.023689 24.106954 0.408495 1.569814 0.076186 -0.031712 1928680.000000 0 1 0
21.096518 10.021463 0.970989 23.375962 0.443472 1.529246 0.057854 -0.028386 791947.000000 0 1 0
21.744418 10.284963 2.342889 24.167939 0.441810 1.473702 0.088266 -0.029436 -508705.000000 0 1 0
22.657718 11.340563 2.428389 25.453440 0.464061 1.475246 0.101826 -0.042891 201830.000000 0 0 1
22.187118 12.625863 2.083289 25.612901 0.517361 1.489369 0.101882 -0.035375 -739224.000000 0 0 1
21.033918 13.264963 2.867489 25.032128 0.562649 1.455992 0.083933 -0.023942 772015.000000 0 0 1
19.689018 12.750363 2.546689 23.594804 0.574677 1.462651 0.122522 -0.026522 1354890.000000 0 1 0
18.660918 13.397763 3.183189 23.191865 0.622677 1.433107 0.109521 -0.027935 -558878.000000 0 1 0
18.649218 13.276763 4.746189 23.379308 0.618682 1.366367 0.097190 -0.020989 -921995.000000 0 1 0
18.559618 12.009163 5.290889 22.730440 0.574305 1.335875 0.104721 -0.015935 357094.000000 0 1 0
18.832818 12.113963 6.656589 23.360935 0.571606 1.281847 0.105513 -0.019000 -118389.000000 0 1 0
18.840518 10.759363 7.407289 22.925901 0.518880 1.241796 0.082027 -0.013361 -64115.200000 0 1 0
19.886218 9.885763 7.017089 23.290116 0.461338 1.264751 0.075448 -0.022338 393915.000000 0 1 0
19.775518 8.557963 7.561289 22.836000 0.408421 1.233314 0.072380 -0.016243 -9288.350000 0 1 0
20.628618 7.523863 6.833889 22.996748 0.349736 1.269071 0.076207 -0.023819 144699.000000 0 1 0
20.090918 7.321263 5.514589 22.082947 0.349451 1.318404 0.055449 -0.030375 465834.000000 0 1 0
21.075818 6.746963 4.719989 22.627194 0.309819 1.360655 0.068441 -0.032893 -265356.000000 0 1 0
20.732418 6.884163 3.192089 22.077461 0.320594 1.425702 0.063829 -0.021274 -534607.000000 0 1 0
21.569618 6.090363 2.460889 22.547658 0.275194 1.461437 0.060697 -0.022849 -25539.500000 0 1 0
21.132018 5.861063 1.167189 21.960796 0.270554 1.517623 0.052292 -0.011766 -324384.000000 0 1 0
22.137718 4.940663 0.440389 22.686618 0.219580 1.551383 0.095354 -0.019958 126371.000000 0 1 0
22.075718 3.633263 0.796089 22.386864 0.163120 1.535228 0.079434 -0.014941 1088710.000000 0 1 0
23.353318 3.102763 0.409089 23.562087 0.132088 1.553433 0.111264 -0.017884 750577.000000 0 1 0
23.456518 1.587763 0.229989 23.511319 0.067587 1.561014 0.132029 -0.022240 -438986.000000 0 1 0
22.579618 1.109063 -0.754211 22.619416 0.049078 1.604146 0.098064 -0.018493 388802.000000 0 1 0
22.704518 -0.269237 -1.134011 22.734414 -0.011858 1.620698 0.101987 -0.021243 -1066710.000000 0 1 0
22.427318 -1.351237 -0.041511 22.468025 -0.060177 1.572644 0.102518 -0.012039 345125.000000 0 1 0
23.472518 -1.551237 0.892889 23.540660 -0.065991 1.532858 0.119100 -0.009726 2384370.000000 0 1 0
24.864118 -1.759537 0.475589 24.930834 -0.070648 1.551719 0.145918 -0.025882 1654010.000000 0 1 0
25.931318 -1.539137 1.598889 26.026114 -0.059285 1.509324 0.156063 -0.029006 139199.000000 0 0 1
26.062018 -0.150237 1.884889 26.130521 -0.005765 1.498600 0.155421 -0.028236 158982.000000 0 0 1
26.880818 0.068963 2.992689 27.046983 0.002565 1.459922 0.148082 -0.032796 -177877.000000 0 0 1
26.441218 1.409963 3.698189 26.735792 0.053274 1.432028 0.157532 -0.033196 91946.900000 0 0 1
26.686118 2.622563 2.979989 26.979753 0.097960 1.460118 0.176533 -0.034595 -271933.000000 0 0 1
28.003418 3.013163 2.723589 28.296439 0.107187 1.474395 0.173161 -0.036952 -298478.000000 0 0 1
28.300718 3.923163 1.455989 28.608421 0.137746 1.519881 0.189982 -0.044612 -26438.800000 0 0 1
27.931618 3.218963 0.259889 28.117691 0.114738 1.561553 0.207065 -0.035047 294894.000000 0 0 1
28.380318 3.922563 -0.880311 28.663633 0.137344 1.601513 0.204512 -0.032654 1935470.000000 0 0 1
29.913478 3.707963 -1.323911 30.171475 0.123327 1.614690 0.180080 -0.024843 1659590.000000 0 0 1
30.955728 4.178063 -0.482411 31.240135 0.134158 1.586239 0.167485 -0.024729 -553611.000000 0 0 1
32.143008 3.748663 -1.060011 32.378219 0.116100 1.603541 0.140554 -0.022905 -396141.000000 0 0 1
33.399808 4.045263 -0.193511 33.644446 0.120529 1.576548 0.091399 -0.022471 -28662.600000 0 0 1
33.496708 3.206563 0.954089 33.663359 0.095437 1.542450 0.094065 -0.026966 -39427.600000 0 0 1
32.911808 3.708463 2.117489 33.187702 0.112206 1.506950 0.096031 -0.018162 -59107.400000 0 0 1
32.981588 2.703663 3.331789 33.259521 0.081792 1.470453 0.099818 -0.017648 -258467.000000 0 0 1
32.092358 1.641763 3.118789 32.285316 0.051113 1.474045 0.128491 -0.024598 28538.300000 0 0 1
32.219508 0.654163 4.137989 32.490730 0.020301 1.443090 0.128006 -0.026268 -72769.300000 0 0 1
33.457458 -0.273437 4.126789 33.712114 -0.008173 1.448076 0.116452 -0.016790 -824931.000000 0 0 1
34.610908 0.364163 4.523989 34.907220 0.010521 1.440830 0.116748 -0.017749 -1044520.000000 0 0 1
35.676418 -0.542937 4.442989 35.956108 -0.015217 1.446913 0.116094 -0.022491 -1190040.000000 0 0 1
-36.605604 0.057963 4.881189 36.929657 -0.001583 1.438233 0.135013 -0.032311 -147046.000000 0 0 1
-36.104204 1.078763 3.978789 36.338795 -0.029870 1.461085 0.116017 -0.027182 235378.000000 0 0 1
-35.702291 0.651063 2.715589 35.811337 -0.018234 1.494893 0.141368 -0.029385 -687953.000000 0 0 1
-35.822245 1.739863 1.658389 35.902793 -0.048531 1.524589 0.115687 -0.032180 -236030.000000 0 0 1
-34.968923 2.811463 1.914389 35.133954 -0.080226 1.516281 0.139541 -0.036682 -40928.800000 0 0 1
-33.982864 2.863363 0.875289 34.114513 -0.084060 1.545136 0.185546 -0.023776 348020.000000 0 0 1
-32.706364 3.600963 1.397489 32.933662 -0.109658 1.528350 0.185780 -0.024818 216015.000000 0 0 1
-31.936584 2.896563 2.382489 32.156052 -0.090450 1.496637 0.166704 -0.034142 327332.000000 0 0 1
-31.070414 3.798763 3.051089 31.450125 -0.121659 1.473630 0.169004 -0.017471 -541257.000000 0 0 1
-31.296814 3.966263 4.561689 31.875238 -0.126059 1.427193 0.160855 -0.014260 -619494.000000 0 0 1
-32.486804 4.585363 4.929589 33.177082 -0.140219 1.421660 0.159426 0.011434 -619420.000000 0 0 1
-33.637674 3.801063 4.985889 34.216958 -0.112523 1.424562 0.146987 0.007547 -913426.000000 0 0 1
-33.845474 3.017163 6.311789 34.560932 -0.088910 1.387138 0.129270 0.004507 -793945.000000 0 0 1
-34.207757 3.835163 7.392089 35.206847 -0.111648 1.359261 0.133757 0.005064 170430.000000 0 0 1
-34.106221 3.265863 8.705089 35.350795 -0.095465 1.321988 0.133768 -0.005305 119642.000000 0 0 1
-34.964313 1.971863 9.010989 36.160604 -0.056337 1.318949 0.123863 -0.011401 254247.000000 0 0 1
-34.532721 0.787563 8.294589 35.523643 -0.022802 1.335126 0.124347 -0.014106 6342.210000 0 0 1
-35.414377 -0.252137 8.558589 36.434751 0.007120 1.333679 0.112753 -0.011979 -223657.000000 0 0 1
-35.258155 -0.981537 9.911889 36.638046 0.027831 1.296847 0.130854 -0.011150 1732180.000000 0 0 1
-34.017844 -1.790437 10.054989 35.517913 0.052584 1.283775 0.105208 -0.011850 1839260.000000 0 0 1
-33.958144 -2.606637 11.223089 35.859557 0.076610 1.252474 0.085444 -0.006884 -116429.000000 0 0 1
-32.802164 -3.622337 11.147689 34.833522 0.109984 1.245038 0.101575 -0.004273 -141042.000000 0 0 1
-32.984054 -4.596237 10.113489 34.804538 0.138456 1.275964 0.088197 -0.005226 -259013.000000 0 0 1
-31.851654 -5.394637 9.994589 33.815998 0.167775 1.270757 0.070552 -0.013278 -467936.000000 0 0 1
-31.955854 -6.486737 8.905589 33.801832 0.200269 1.304184 0.082513 -0.002836 187176.000000 0 0 1
-32.832384 -7.545937 9.268289 34.940059 0.225909 1.302320 0.092436 -0.007675 77750.200000 0 0 1
-32.927664 -8.383237 8.139789 34.939460 0.249299 1.335667 0.110799 -0.015143 -570921.000000 0 0 1
-33.994764 -9.452237 8.268789 36.240331 0.271199 1.340603 0.110731 -0.019651 -275024.000000 0 0 1
-35.272459 -8.849037 8.207989 37.280328 0.245804 1.348808 0.123506 -0.024920 243432.000000 0 0 1
-36.311274 -9.827837 8.317789 38.526362 0.264322 1.353184 0.110129 -0.032185 283753.000000 0 0 1
8.244656 -23.911137 10.685189 27.457059 -1.238758 1.171077 0.097347 -0.033929 -50366.300000 0 0 1
7.591756 -24.579737 9.638989 27.471956 -1.271229 1.212300 0.097786 -0.032918 42384.500000 0 0 1
6.281556 -25.014337 9.966289 27.649628 -1.324765 1.202047 0.091917 -0.031101 539256.000000 0 0 1
5.612056 -25.883597 8.901289 27.940808 -1.357282 1.246569 0.073697 -0.016893 -327401.000000 0 0 1
5.308656 -25.160987 7.678789 26.836932 -1.362858 1.280613 0.081334 -0.022683 -218698.000000 0 0 1
4.921456 -26.124027 6.695989 27.413898 -1.384591 1.324045 0.075232 -0.017406 -494203.000000 0 0 1
4.379156 -25.680887 5.297489 26.584739 -1.401899 1.370185 0.075865 -0.022252 778895.000000 0 0 1
2.982856 -25.492817 5.054089 26.159606 -1.454318 1.376372 0.079275 -0.029477 229078.000000 0 0 1
2.310756 -26.728037 4.900689 27.271676 -1.484556 1.390116 0.076511 -0.020986 397759.000000 0 0 1
0.752956 -26.590207 4.778189 27.026601 -1.542487 1.393066 0.089421 -0.027341 638990.000000 0 0 1
0.152156 -26.026337 5.958889 26.700220 -1.564950 1.345723 0.077453 -0.023153 670256.000000 0 0 1
-1.243444 -26.252807 6.201789 27.004041 1.523467 1.339066 0.074278 -0.019799 1145240.000000 0 0 1
-1.722944 -27.734837 6.449089 28.526838 1.508754 1.342754 0.076494 -0.008990 -391930.000000 0 0 1
-1.348944 -28.441327 7.621389 29.475656 1.523403 1.309259 0.063098 -0.011656 -53564.200000 0 0 1
-2.040044 -29.667897 7.753289 30.732058 1.502142 1.315754 0.084318 -0.007511 -17974.800000 0 0 1
-1.805244 -30.374837 9.103289 31.760975 1.511434 1.280101 0.078847 -0.007291 1292500.000000 0 0 1
-0.392944 -30.650347 9.271989 32.024490 1.557977 1.277063 0.072313 -0.005076 928347.000000 0 0 1
-0.163644 -30.985637 10.610989 32.752551 1.565515 1.240869 0.069983 -0.003709 162186.000000 0 0 1
1.320856 -31.196847 10.992389 33.103180 -1.528482 1.232305 0.041325 -0.005076 -102198.000000 0 0 1
1.754956 -32.462457 10.644789 34.208223 -1.516788 1.254366 0.049037 -0.009212 543200.000000 0 0 1
3.091356 -32.733067 11.120089 34.708307 -1.476634 1.244658 0.036361 -0.002864 628917.000000 0 0 1
3.209756 -33.328347 12.585789 35.769867 -1.474785 1.211245 0.042416 -0.006279 -858172.000000 0 0 1
2.792556 -32.534097 13.653589 35.393309 -1.485171 1.174757 0.022352 -0.004616 -33120.000000 0 0 1
3.329256 -32.950067 14.910189 36.319480 -1.470099 1.147763 0.035375 -0.011286 -693300.000000 0 0 1
2.920456 -31.999497 16.013489 35.901653 -1.479783 1.108463 0.043485 -0.012301 -35705.400000 0 0 1
3.480656 -30.706077 15.959089 34.780320 -1.457924 1.094091 0.037684 -0.015762 -288510.000000 0 0 1
4.875156 -30.652687 16.084989 34.958279 -1.413072 1.092666 0.034278 -0.007448 -476279.000000 0 0 1
5.602756 -29.434947 15.456089 33.714947 -1.382703 1.094564 0.044614 -0.012144 -112227.000000 0 0 1
5.729356 -29.303997 14.066889 33.006471 -1.377717 1.130524 0.047329 -0.006713 -544322.000000 0 0 1
4.545056 -29.286257 13.314689 32.490358 -1.416830 1.148557 0.034576 0.003336 -706096.000000 0 0 1
4.690456 -29.361467 11.751189 31.971653 -1.412386 1.194423 0.030255 0.003826 -55335.900000 0 0 1
5.181756 -30.603727 11.176089 32.990054 -1.403069 1.225185 0.039412 0.000910 1007150.000000 0 0 1
6.595456 -30.803527 11.436389 33.513405 -1.359867 1.222552 0.042111 -0.002795 876244.000000 0 0 1
7.101156 -32.117547 10.777089 34.613710 -1.353198 1.254180 0.042613 -0.000879 -113105.000000 0 0 1
6.778656 -33.167017 11.597589 35.784149 -1.369193 1.240738 0.025524 -0.010202 107436.000000 0 0 1
7.013256 33.779491 10.887989 36.177176 1.366086 1.265094 0.043420 -0.013610 -93922.100000 0 0 1
6.640556 32.512657 11.662789 35.173718 1.369322 1.232822 0.051271 -0.014989 -69534.700000 0 0 1
5.278756 32.318006 11.944589 34.856735 1.408888 1.221032 0.050328 -0.018140 -328208.000000 0 0 1
5.015356 31.154984 12.568689 33.967024 1.411185 1.191759 0.066190 -0.018036 -323404.000000 0 0 1
3.843356 31.220264 13.542589 34.247306 1.448308 1.164255 0.071074 -0.029491 -235859.000000 0 0 1
4.152756 31.662324 14.866189 35.224305 1.440383 1.135098 0.074443 -0.028854 -246362.000000 0 0 1
3.136956 31.363934 15.779189 35.249392 1.471110 1.106667 0.068465 -0.027613 -212000.000000 0 0 1
3.614556 31.541114 17.202189 36.108478 1.456696 1.074237 0.069629 -0.030113 -4026.430000 0 0 1
3.867056 32.899451 17.522989 37.475100 1.453792 1.084234 0.073352 -0.024896 71202.200000 0 0 1
4.272056 32.984802 18.893889 38.252145 1.441997 1.054192 0.068848 -0.024126 90587.800000 0 0 1
4.467956 -33.697097 19.393989 39.135455 -1.438974 1.052316 0.063543 -0.026893 -126296.000000 0 0 1
3.278156 -33.055527 19.732789 38.636733 -1.471948 1.034767 0.063681 -0.024879 -610035.000000 0 0 1
3.517956 -32.113677 20.742789 38.391764 -1.461684 1.000011 0.059202 -0.025307 -541381.000000 0 0 1
2.295956 -31.500157 21.365489 38.131554 -1.498038 0.976036 0.051570 -0.024673 -565073.000000 0 0 1
1.327356 -32.374857 21.924089 39.122358 -1.529820 0.975930 0.054618 -0.018385 6191.510000 0 0 1
0.336456 -31.584267 22.556489 38.813327 -1.560144 0.950651 0.043077 -0.011053 658847.000000 0 0 1
-0.944344 -32.361617 23.045989 39.740202 1.541624 0.952170 0.038058 -0.010819 1017830.000000 0 0 1
-1.901344 -32.740597 22.015989 39.500197 1.512789 0.979589 0.032025 -0.013307 752245.000000 0 0 1
-2.663644 -33.898957 22.295889 40.661296 1.492381 0.990428 0.040485 -0.009772 -196622.000000 0 0 1
-4.050344 -33.695277 22.884289 40.932477 1.451165 0.977528 0.059486 -0.010238 -653409.000000 0 0 1
-5.021144 -33.196507 22.015589 40.148551 1.420679 0.990403 0.054286 -0.017194 -731817.000000 0 0 1
-6.181144 -32.789327 22.687389 40.349277 1.384472 0.973662 0.063018 -0.013165 -876876.000000 0 0 1
-7.269044 -32.472317 21.711289 39.732486 1.350573 0.992693 0.054991 -0.014086 -809867.000000 0 0 1
-8.069444 -33.561417 21.305189 40.563478 1.334837 1.017810 0.035371 0.001267 8074.240000 0 0 1
-9.188944 -33.062907 20.602289 40.025577 1.299715 1.030106 0.040338 -0.015331 -113427.000000 0 0 1
-10.374644 -34.044727 20.469989 41.057242 1.275001 1.048846 0.051407 -0.021865 -90205.400000 0 0 1
-10.995844 33.940153 21.699089 41.757550 -1.257490 1.024361 0.059211 -0.022614 126501.000000 0 0 1
-12.396844 33.689142 21.548089 41.868367 -1.218197 1.030182 0.040764 -0.015264 22319.100000 0 0 1
-12.933744 33.526740 22.968489 42.648276 -1.202614 1.002074 0.042199 -0.010877 -426446.000000 0 0 1
-13.021444 -33.509637 23.881289 43.159816 1.200166 0.984449 0.035902 -0.010660 46692.100000 0 0 1
-11.787144 -33.134227 24.455989 42.835840 1.229018 0.963166 0.041438 -0.012848 -33685.300000 0 0 1
-11.855344 -31.836977 25.282589 42.347982 1.214328 0.931015 0.043974 -0.015961 26332.900000 0 0 1
-12.511544 -31.908297 26.538189 43.346899 1.197111 0.911921 0.037090 -0.006148 105186.000000 0 0 1
-13.034444 -30.668437 26.831189 42.782736 1.168916 0.892908 0.047105 -0.008889 -135397.000000 0 0 1
-13.776344 -30.493107 28.180689 43.746639 1.146459 0.870846 0.040374 -0.011186 -54459.600000 0 0 1
-12.942744 -30.286747 29.286089 44.073537 1.166945 0.843995 0.049268 -0.000322 23780.500000 0 0 1
-13.719944 -29.727547 30.329989 44.630395 1.138401 0.823604 0.048411 -0.008486 -335935.000000 0 0 1
-13.045044 -29.371717 31.666389 45.117969 1.152829 0.792794 0.053620 -0.010895 -884080.000000 0 0 1
-13.877744 -28.841397 32.659289 45.727969 1.122322 0.775304 0.059071 -0.014825 -77988.200000 0 0 1
-13.312844 -28.457717 33.903189 46.222286 1.133230 0.747366 0.059058 -0.015275 -626896.000000 0 0 1
-12.683144 -29.602727 -33.394412 46.393646 1.166011 2.374319 0.066063 -0.009636 245279.000000 0 0 1
-11.291044 -29.767287 -33.650112 46.323958 1.208252 2.383878 0.054913 -0.008750 238459.000000 0 0 1
-10.849844 -30.955337 -33.015212 46.539835 1.233676 2.359438 0.054917 -0.001463 -447857.000000 0 0 1
-9.377744 -31.236147 -33.309912 46.617478 1.279137 2.366758 0.061268 -0.000995 -686505.000000 0 0 1
-8.530644 -30.389997 -32.577712 45.361119 1.297133 2.371988 0.074584 -0.017783 -1278650.000000 0 0 1
-7.252144 -30.918877 -32.710712 45.591241 1.340407 2.370971 0.084232 -0.026922 -872354.000000 0 0 1
-6.298444 -30.122917 -31.819712 44.266857 1.364674 2.372894 0.089554 -0.031677 -280343.000000 0 0 1
-6.698944 -30.247997 -30.433412 43.428214 1.352847 2.347280 0.098920 -0.039964 -29978.900000 0 0 1
-5.982444 -29.411657 -29.557412 42.124528 1.370130 2.348531 0.090421 -0.041336 -166983.000000 0 0 1
-6.371244 -29.584587 -28.065712 41.273778 1.358679 2.318544 0.080651 -0.043361 -177205.000000 0 0 1
-6.006044 -30.835407 -27.521812 41.765357 1.378427 2.290235 0.078806 -0.041497 -476691.000000 0 0 1
-7.031544 -31.359087 -26.742312 41.808925 1.350218 2.264815 0.086311 -0.040352 -589492.000000 0 0 1
-6.716044 -32.648107 -25.908612 42.216825 1.367916 2.231539 0.077775 -0.042506 339752.000000 0 0 1
-5.866944 -32.392547 -24.790712 41.210163 1.391619 2.216259 0.051435 -0.043282 5653.250000 0 0 1
-5.613644 -33.638997 -24.126212 41.775223 1.405441 2.186489 0.059167 -0.048865 -252826.000000 0 0 1
-4.716444 -33.634787 -22.886312 40.955183 1.431480 2.163751 0.076074 -0.057243 -207967.000000 0 0 1
-5.200044 -33.021017 -21.677512 39.841468 1.414602 2.146105 0.081209 -0.045201 103253.000000 0 0 1
-5.242944 -31.597457 -21.833012 38.762974 1.406365 2.169103 0.054889 -0.028467 -115531.000000 0 0 1
-5.643644 -30.802267 -20.550912 37.456246 1.389585 2.151562 0.095123 -0.030408 431693.000000 0 0 1
-7.060444 -30.752077 -20.337512 37.538707 1.345115 2.143343 0.108078 -0.037703 828093.000000 0 0 1
-7.581244 -29.417267 -20.140112 36.448251 1.318571 2.156238 0.105210 -0.026616 -61486.900000 0 0 1
-7.641244 -28.522237 -21.367112 36.448047 1.309038 2.197200 0.116142 -0.038728 -450276.000000 0 0 1
-6.455444 -27.982207 -21.911812 36.122074 1.344065 2.222579 0.115710 -0.021670 -514241.000000 0 0 1
-6.630844 -27.706507 -23.288112 36.796125 1.335890 2.256084 0.137173 -0.037241 -24366.100000 0 0 1
-5.428944 -28.323837 -24.125012 37.599593 1.381419 2.267417 0.129942 -0.033582 920726.000000 0 0 1
-4.153144 -27.743137 -24.024812 36.934021 1.422200 2.279012 0.116126 -0.023794 15451.600000 0 0 1
-3.583344 -27.754027 -22.689812 36.027128 1.442396 2.252089 0.079085 -0.025914 -441264.000000 0 0 1
-2.067244 -27.315007 -22.636712 35.535952 1.495259 2.261408 0.067096 -0.027242 873467.000000 0 0 1
-1.795944 -25.967227 -22.985412 34.725372 1.501744 2.294173 0.070926 -0.024178 -122379.000000 0 0 1
-2.201444 -25.020437 -22.075512 33.439451 1.483037 2.291833 0.085866 -0.022682 -719073.000000 0 0 1
-2.213644 -23.536737 -22.597012 32.703260 1.477022 2.333628 0.087443 -0.014725 -110286.000000 0 0 1
-3.189644 -23.203937 -23.536312 33.204737 1.434191 2.358626 0.094365 -0.022522 -263714.000000 0 0 1
-4.496644 -23.023637 -23.040012 32.880843 1.377919 2.347192 0.104340 -0.020108 787686.000000 0 0 1
-5.619344 -23.096337 -24.210312 33.928705 1.332133 2.365369 0.090395 -0.019250 1015020.000000 0 0 1
-5.489744 -21.991337 -25.019912 33.760216 1.326164 2.405513 0.098666 -0.018361 129771.000000 0 0 1
-5.797444 -22.311337 -26.363412 35.020503 1.316575 2.423101 0.099632 -0.015990 59699.400000 0 0 1
-5.897344 -21.077137 -27.230012 34.935626 1.297975 2.464558 0.097118 -0.014154 32861.800000 0 0 1
-6.179444 -21.376937 -28.584912 36.225077 1.289396 2.480125 0.093208 -0.019754 123471.000000 0 0 1
-5.049244 -21.653637 -29.390612 36.853534 1.341708 2.493933 0.084207 -0.021395 167071.000000 0 0 1
-5.539644 -22.056237 -30.830112 38.310065 1.324726 2.506054 0.093027 -0.030958 84604.500000 0 0 1
-6.048444 -20.911337 -31.459612 38.256698 1.289238 2.536289 0.102505 -0.036704 -389396.000000 0 0 1
-6.760344 -21.310737 -32.584012 39.516675 1.263611 2.540227 0.108966 -0.040874 -277641.000000 0 0 1
-6.737944 -20.303337 -33.774712 39.979452 1.250369 2.576991 0.098466 -0.039212 259604.000000 0 0 1
-5.506644 -20.427937 33.649589 39.748190 1.307491 0.561290 0.089078 -0.028458 -268477.000000 0 0 1
-5.508244 -19.870237 32.362689 38.373307 1.300376 0.567282 0.087960 -0.023856 -640596.000000 0 0 1
-4.347244 -20.248537 31.494689 37.693729 1.359312 0.581678 0.064296 -0.018695 -1735760.000000 0 0 1
-4.309544 -21.698337 31.250489 38.288158 1.374736 0.616007 0.073447 -0.023890 493334.000000 0 0 1
-3.115844 -22.064937 30.554089 37.816958 1.430511 0.630137 0.068257 -0.025111 436437.000000 0 0 1
-1.783544 -21.983837 31.292989 38.284740 1.489844 0.613957 0.050549 -0.027436 -733331.000000 0 0 1
-1.066444 -20.754637 31.146989 37.443653 1.519458 0.588388 0.039608 -0.028184 -21612.900000 0 0 1
-0.189744 -20.388637 32.171489 38.088545 1.561490 0.564885 0.042853 -0.021006 -237077.000000 0 0 1
-0.884944 -19.905437 33.463389 38.946219 1.526368 0.537052 0.035961 -0.018695 -22263.100000 0 0 1
-1.571744 -18.649437 33.373089 38.262710 1.486717 0.511095 0.034860 -0.021775 -96952.200000 0 0 1
-2.156744 -18.360437 -33.467712 38.234081 1.453865 2.636929 0.045076 -0.021817 126746.000000 0 0 1
-3.157144 -17.189437 -33.437512 37.729452 1.389153 2.659970 0.048514 -0.027396 10494.500000 0 0 1
-2.611844 -15.900837 -33.633812 37.294660 1.407992 2.694805 0.057481 -0.032740 141536.000000 0 0 1
-3.571144 -14.837737 -33.430112 36.748931 1.334609 2.713332 0.074200 -0.034138 604812.000000 0 0 1
-3.085844 -13.421437 -33.852412 36.546453 1.344805 2.755226 0.079103 -0.037427 477733.000000 0 0 1
-2.100044 -12.811537 -32.972112 35.435940 1.408323 2.766492 0.081142 -0.031956 556455.000000 0 0 1
-1.940944 -11.411037 -33.109912 35.074853 1.402315 2.805282 0.078094 -0.029987 -52526.900000 0 0 1
-1.209044 -10.948537 33.727789 35.480924 1.460812 0.315668 0.077757 -0.029145 -579623.000000 0 0 1
-2.125144 -10.894937 32.639489 34.475384 1.378157 0.327816 0.073999 -0.026357 -112246.000000 0 0 1
-1.597844 -10.597737 31.357989 33.138929 1.421151 0.329333 0.075308 -0.018837 -213845.000000 0 0 1
-0.666444 -11.719237 30.765089 32.928337 1.513990 0.364494 0.054203 -0.022229 276605.000000 0 0 1
-1.273344 -12.936937 30.428389 33.088859 1.472685 0.403745 0.061704 -0.023434 -168325.000000 0 0 1
-0.334344 -13.797837 29.823189 32.862055 1.546569 0.433439 0.045408 -0.029541 6254.750000 0 0 1
-0.577044 -15.266537 30.265489 33.902802 1.533016 0.467465 0.049001 -0.031653 -534277.000000 0 0 1
-1.599044 -15.844137 29.549689 33.567510 1.470214 0.494289 0.051552 -0.035194 -393445.000000 0 0 1
-2.089744 -16.960437 30.321889 34.805752 1.448201 0.513207 0.056345 -0.031502 -18657.300000 0 0 1
-2.592444 -18.158737 29.502989 34.740277 1.428989 0.556244 0.059053 -0.022134 292.701000 0 0 1
-3.692344 -17.778137 28.676189 33.941411 1.366017 0.564468 0.077028 -0.025507 136989.000000 0 0 1
-4.162844 -18.994137 28.097289 34.169638 1.355043 0.605376 0.085340 -0.030056 -73519.900000 0 0 1
-5.184644 -18.865337 26.977989 33.325566 1.302594 0.627448 0.070683 -0.035566 -697385.000000 0 0 1
-5.609644 -20.087837 26.456189 33.688562 1.298478 0.667589 0.084383 -0.032070 -470871.000000 0 0 1
-4.696344 -20.908637 25.772789 33.518106 1.349851 0.693644 0.083400 -0.031236 -514951.000000 0 0 1
-29.949624 -33.169538 -0.837311 44.697867 0.836367 1.589530 0.032336 -0.010637 23254.900000 0 0 1
-29.120094 -32.198438 -0.206211 43.413843 0.835559 1.575546 0.044380 -0.025160 74494.000000 0 0 1
-29.611604 -31.892838 1.053489 43.532861 0.822472 1.546594 0.029621 -0.013497 -86084.000000 0 0 1
-28.904404 -30.651438 1.572589 42.159794 0.814724 1.533487 0.053133 -0.020077 6848.210000 0 0 1
-27.540324 -30.812038 1.866189 41.368270 0.841408 1.525669 0.059762 -0.027915 -455116.000000 0 0 1
-26.917184 -29.605638 2.279489 40.077733 0.832926 1.513889 0.066312 -0.026894 528121.000000 0 0 1
-25.367904 -29.665738 2.359189 39.104377 0.863335 1.510429 0.059268 -0.024633 320437.000000 0 0 1
-24.984344 -30.588738 3.365689 39.638569 0.885906 1.485785 0.052205 -0.016650 -852134.000000 0 0 1
-23.608844 -30.537738 3.534089 38.761072 0.912672 1.479493 0.052333 -0.010379 -756532.000000 0 0 1
-23.021544 -31.102038 4.848889 38.997948 0.933601 1.446137 0.057898 -0.017477 -299187.000000 0 0 1
-23.455244 -30.306938 5.913689 38.776677 0.912159 1.417693 0.057234 -0.016466 -46371.300000 0 0 1
-23.178844 -31.010238 7.103689 39.361860 0.928924 1.389331 0.058971 -0.017556 -441252.000000 0 0 1
-23.668144 -30.416338 8.440389 39.453451 0.909528 1.355197 0.057053 -0.007848 -454646.000000 0 0 1
-23.122444 -29.183238 8.768789 38.251803 0.900756 1.339501 0.075194 -0.011913 -149543.000000 0 0 1
-23.547544 -28.704938 10.003589 38.451685 0.883781 1.307608 0.067911 -0.015222 -221318.000000 0 0 1
-22.755844 -27.462638 10.352989 37.137707 0.878851 1.288280 0.085091 -0.017834 -986236.000000 0 0 1
-21.455744 -27.692338 10.713489 36.633228 0.911618 1.274006 0.074530 -0.021612 -1443730.000000 0 0 1
-20.773944 -26.493738 11.044989 35.432565 0.905821 1.253795 0.088689 -0.022144 105457.000000 0 0 1
-19.495844 -26.812538 11.851289 35.205868 0.942102 1.227462 0.088787 -0.023047 -379590.000000 0 0 1
-19.669044 -27.568938 12.990089 36.272028 0.951101 1.204532 0.091716 -0.014889 -541446.000000 0 0 1
-18.577444 -27.530138 13.872889 35.992874 0.977181 1.175118 0.092672 -0.028481 -209468.000000 0 0 1
-18.678044 -28.713438 14.880989 37.346682 0.994071 1.160964 0.118676 -0.033567 107080.000000 0 0 1
-18.361444 -29.968038 14.345289 37.960680 1.021090 1.183271 0.122096 -0.036422 -46171.500000 0 0 1
-18.203244 -30.948738 15.329489 39.040693 1.039118 1.167281 0.128533 -0.040708 134993.000000 0 0 1
-17.958944 -32.384538 14.797389 39.877872 1.064464 1.190638 0.119703 -0.052810 110828.000000 0 0 1
-17.816644 -33.356938 15.804589 40.986621 1.080226 1.174934 0.127349 -0.043063 179282.000000 0 0 1
-17.564744 33.504263 15.269189 40.794656 -1.087934 1.187161 0.101770 -0.040229 -478597.000000 0 0 1
-17.623844 32.348763 16.355589 40.305677 -1.071949 1.152955 0.098761 -0.029317 -377946.000000 0 0 1
-18.871944 31.739863 16.564189 40.471490 -1.034370 1.149131 0.101919 -0.033780 -200151.000000 0 0 1
-18.765444 30.769363 17.573389 40.096378 -1.023148 1.117114 0.073073 -0.016693 60825.700000 0 0 1
-19.336544 31.214363 18.965989 41.327316 -1.016179 1.094016 0.076648 -0.027376 -388840.000000 0 0 1
-18.591944 32.118063 19.656689 41.995425 -1.046064 1.083694 0.070804 -0.019629 -424661.000000 0 0 1
-19.352544 32.352963 20.817289 43.065005 -1.031724 1.066271 0.075747 -0.026018 353789.000000 0 0 1
-18.742344 33.426263 21.841789 44.109571 -1.059770 1.052764 0.059761 -0.001535 -57799.000000 0 0 1
-17.562944 33.038463 22.486889 43.653833 -1.082197 1.029651 0.039043 -0.008484 -348673.000000 0 0 1
-17.316044 33.633263 23.768989 44.676689 -1.095340 1.009809 0.037910 -0.009249 77376.300000 0 0 1
-17.972044 32.937063 25.026689 45.101880 -1.071300 0.982563 0.024240 -0.013968 -374885.000000 0 0 1
-19.347744 33.132763 25.100889 45.849425 -1.042265 0.991466 0.010669 -0.014817 -736010.000000 0 0 1
-20.039144 32.105763 25.732489 45.765798 -1.012801 0.973675 0.026154 -0.008487 567693.000000 0 0 1
-21.560244 32.250663 25.361089 46.347968 -0.981511 0.991794 0.093093 -0.016947 466281.000000 0 0 1
-21.916044 31.860763 24.059489 45.544266 -0.968258 1.014239 0.086243 -0.003938 1529000.000000 0 0 1
-23.345344 32.040263 23.868589 46.274108 -0.941116 1.028845 0.070010 -0.006970 1079180.000000 0 0 1
-23.893444 31.754263 22.487989 45.661138 -0.925730 1.055839 0.055579 -0.015836 -225791.000000 0 0 1
-23.369044 32.611063 21.487789 45.511742 -0.949017 1.079083 0.057530 -0.017233 242298.000000 0 0 1
-23.642344 32.080863 20.232389 44.693307 -0.935693 1.101012 0.040978 -0.010491 -25615.400000 0 0 1
-23.184244 33.061063 19.105689 44.671807 -0.959228 1.128861 0.062302 -0.015381 -600077.000000 0 0 1
-21.843444 33.437963 19.103389 44.273839 -0.992138 1.124661 0.072812 -0.017382 -590146.000000 0 0 1
-21.592244 -33.880838 18.076789 44.055720 1.003401 1.147995 0.098577 -0.018190 -142328.000000 0 0 1
-20.338644 -33.013038 18.305789 42.879168 1.018638 1.129717 0.098634 -0.021278 -11670.900000 0 0 1
-20.429544 -32.010938 19.260889 42.579904 1.002758 1.101401 0.105709 -0.037298 235733.000000 0 0 1
-19.113844 -31.550638 19.482189 41.717352 1.026112 1.084896 0.094462 -0.038778 12344.100000 0 0 1
-19.006144 -30.473238 20.544289 41.375349 1.013133 1.051195 0.091092 -0.025393 57837.100000 0 0 1
-19.804144 -29.324338 20.220089 40.755035 0.976807 1.051652 0.123447 -0.032570 488775.000000 0 0 1
-20.235644 -28.743638 21.421189 41.164856 0.957388 1.023506 0.112358 -0.021180 81481.800000 0 0 1
-21.195844 -27.537038 21.161389 40.686074 0.914793 1.023812 0.100918 -0.022421 -61538.400000 0 0 1
-20.518944 -26.388438 20.617889 39.274343 0.909881 1.018115 0.097721 -0.017380 1029940.000000 0 0 1
-21.376444 -25.235338 20.401089 38.858449 0.867998 1.018069 0.098687 -0.012091 495230.000000 0 0 1
-22.515144 -25.330438 19.329489 39.015278 0.844172 1.052462 0.097477 -0.016795 -147855.000000 0 0 1
-23.749044 -25.821038 19.823889 40.295529 0.827173 1.056454 0.091604 -0.019511 -29516.400000 0 0 1
-24.684744 -25.383338 18.840789 40.107677 0.799350 1.081783 0.078148 -0.003864 -411096.000000 0 0 1
-26.125284 -25.671538 19.339289 41.419396 0.776638 1.084999 0.057783 -0.011803 4239.820000 0 0 1
-26.574794 -27.018538 19.404989 42.576691 0.793678 1.097564 0.045877 -0.008971 41902.600000 0 0 1
-26.855094 -27.601138 18.147189 42.571579 0.799097 1.130426 0.060289 -0.018752 -279858.000000 0 0 1
-27.790164 -28.842238 18.178089 43.984211 0.803973 1.144736 0.065055 -0.026493 -566687.000000 0 0 1
-29.100824 -28.508238 18.446689 44.719771 0.775112 1.145605 0.047013 -0.021370 -1054100.000000 0 0 1
-30.020954 -29.436738 17.900289 45.696822 0.775573 1.168298 0.047901 -0.002139 365795.000000 0 0 1
-31.500724 -29.060438 18.175789 46.552808 0.745125 1.169694 0.055968 -0.003042 360830.000000 0 0 1
-31.821754 -27.695538 17.800089 45.787662 0.716181 1.171519 0.067060 0.003971 -971467.000000 0 0 1
-33.184474 -27.501738 17.903689 46.670086 0.692029 1.177081 0.068588 0.008580 -881726.000000 0 0 1
-33.714334 -26.054438 17.440089 46.039621 0.657934 1.182290 0.066165 0.004595 16083.100000 0 0 1
-33.783094 -25.948438 15.988389 45.499972 0.654978 1.211737 0.076382 -0.006705 -2762.120000 0 0 1
-34.533042 -24.860838 15.534689 45.298110 0.623967 1.220748 0.069110 -0.002679 -505391.000000 0 0 1
-33.785404 -23.609338 15.121389 43.903425 0.609922 1.219171 0.054222 0.003178 -195049.000000 0 0 1
-33.216504 -22.975538 16.256589 43.537204 0.605127 1.188130 0.050531 0.007390 494741.000000 0 0 1
-32.624024 -21.679638 16.014089 42.317664 0.586522 1.182701 0.046178 0.008337 540542.000000 0 0 1
-33.675404 -20.605538 16.442189 42.766419 0.549114 1.176168 0.051219 -0.002955 411847.000000 0 0 1
-33.970804 -20.621538 17.837089 43.559443 0.545578 1.148903 0.061644 0.005648 684903.000000 0 0 1
-34.680239 -19.364238 18.088989 43.645208 0.509243 1.143452 0.069459 0.006018 286768.000000 0 0 1
-35.227504 -19.074738 19.518189 44.562118 0.496273 1.117424 0.063010 -0.010247 171175.000000 0 0 1
-36.351734 -19.854438 19.916589 45.959958 0.499902 1.122594 0.067740 -0.007823 284191.000000 0 0 1
-36.639174 -19.624438 21.273489 46.691637 0.491731 1.097731 0.085861 -0.004691 -327696.000000 0 0 1
35.551198 -19.852538 21.808689 46.191231 -0.509286 1.079080 0.095745 -0.006561 94079.100000 0 0 1
34.999938 -21.151638 21.889889 46.384854 -0.543600 1.079330 0.087133 -0.009572 116076.000000 0 0 1
35.725588 -22.078638 22.700889 47.740069 -0.553554 1.075252 0.074306 0.002688 -153096.000000 0 0 1
34.894588 -23.355838 22.982589 47.867806 -0.589841 1.069998 0.093770 0.006391 275170.000000 0 0 1
33.879528 -23.111638 23.951189 47.493470 -0.598660 1.042220 0.097398 -0.007964 191293.000000 0 0 1
33.674678 -24.335038 24.713189 48.341697 -0.625767 1.034194 0.091722 -0.021029 107987.000000 0 0 1
32.725478 -24.149538 25.939489 48.239135 -0.635740 1.003057 0.099591 -0.021455 1201120.000000 0 0 1
31.336248 -23.991538 25.619389 47.052177 -0.653421 0.995017 0.078476 -0.011559 616055.000000 0 0 1
30.510378 -24.314838 26.720789 47.287367 -0.672870 0.970275 0.039857 -0.006829 1138210.000000 0 0 1
29.068888 -24.818038 26.273789 46.381540 -0.706677 0.968579 0.030399 -0.009214 1213870.000000 0 0 1
28.288318 -23.769638 25.682889 44.998171 -0.698814 0.963372 0.027051 -0.001983 464012.000000 0 0 1
26.997118 -24.315538 25.398989 44.330558 -0.733186 0.960701 0.022579 -0.000536 293219.000000 0 0 1
25.982818 -23.411038 24.700689 42.817141 -0.733378 0.955883 0.015565 0.007873 -495702.000000 0 0 1
26.091018 -23.075638 23.320989 41.917715 -0.724145 0.980808 0.032410 0.003076 288504.000000 0 0 1
27.093718 -22.064338 23.038589 41.853090 -0.683443 0.987877 0.021218 0.011695 612113.000000 0 0 1
27.099218 -21.496838 21.616089 40.788932 -0.670620 1.012255 0.031875 0.007744 -425703.000000 0 0 1
26.174318 -20.477638 21.513889 39.588837 -0.663890 0.996275 0.025940 0.005438 -403618.000000 0 0 1
26.280918 -19.736538 20.305289 38.633176 -0.644130 1.017385 0.026585 0.003888 -502030.000000 0 0 1
25.351418 -18.554338 20.250689 37.377109 -0.631807 0.998226 0.039330 0.005751 -533606.000000 0 0 1
25.680218 -17.413038 21.008589 37.470632 -0.595857 0.975604 0.046209 -0.011666 -65634.600000 0 0 1
25.546018 -17.431838 22.400689 38.187156 -0.598796 0.943939 0.048504 -0.004858 21787.400000 0 0 1
25.820518 -16.033938 23.003189 38.117358 -0.555701 0.922934 0.060614 -0.002354 460571.000000 0 0 1
24.582418 -15.335238 22.921189 36.943818 -0.557757 0.901501 0.018416 -0.006737 214448.000000 0 0 1
24.765718 -14.070338 23.505589 36.930041 -0.516662 0.880858 0.030456 -0.006919 -142380.000000 0 0 1
23.567318 -13.121638 23.646189 35.871132 -0.508028 0.851044 0.017019 -0.006208 16699.100000 0 0 1
22.525918 -13.698538 24.413089 35.931404 -0.546371 0.823803 0.035960 -0.007578 79829.000000 0 0 1
21.292918 -13.017638 24.256589 34.802720 -0.548731 0.799627 0.042912 -0.012921 930466.000000 0 0 1
20.060918 -13.871038 24.786989 34.774142 -0.604962 0.777315 0.046816 -0.014217 570770.000000 0 0 1
19.654218 -14.850638 23.800089 34.253087 -0.647073 0.802612 0.045998 -0.011987 -1076910.000000 0 0 1
18.462818 -15.367638 24.203689 34.100711 -0.694161 0.781624 0.057156 -0.010209 -1164340.000000 0 0 1
17.871418 -16.367538 23.162089 33.522623 -0.741503 0.808009 0.070985 -0.010741 -11438.100000 0 0 1
18.577018 -17.561938 23.253989 34.558288 -0.757317 0.832685 0.059491 -0.005524 33566.200000 0 0 1
18.104218 -18.401338 22.237789 34.071853 -0.793537 0.859689 0.079835 -0.000332 -52678.600000 0 0 1
18.458018 -19.877638 22.440589 35.205098 -0.822413 0.879645 0.061320 0.008194 -217447.000000 0 0 1
17.773218 -20.399038 23.557989 35.874599 -0.854079 0.854394 0.077126 0.005927 258477.000000 0 0 1
18.232418 -21.661838 23.965189 37.094293 -0.871150 0.868383 0.089730 0.001393 -193536.000000 0 0 1
17.708518 -22.848238 23.102289 37.004720 -0.911455 0.896553 0.090203 -0.002217 70391.600000 0 0 1
18.421118 -23.108738 21.895289 36.779818 -0.897796 0.933148 0.084904 0.004151 -154616.000000 0 0 1
19.440018 -24.058138 22.074189 37.999712 -0.891170 0.950957 0.076045 0.001008 -542553.000000 0 0 1
20.451418 -24.192538 20.960689 37.985390 -0.869002 0.986264 0.058215 0.004173 -511739.000000 0 0 1
19.864718 -24.651838 19.781889 37.331532 -0.892522 1.012317 0.065576 -0.010675 173295.000000 0 0 1
20.829018 -25.127838 18.877389 37.704271 -0.878667 1.046424 0.058761 -0.006602 283363.000000 0 0 1
20.078818 -25.911638 17.737589 37.271892 -0.911551 1.074812 0.062912 -0.014790 -44040.900000 0 0 1
19.429018 -26.957538 18.316289 37.943142 -0.946295 1.067027 0.079300 -0.027920 -541258.000000 0 0 1
18.697918 -27.506138 17.240489 37.462437 -0.973775 1.092568 0.080784 -0.030156 -382036.000000 0 0 1
17.918418 -28.787138 17.597489 38.202626 -1.014036 1.092085 0.070953 -0.024738 -308893.000000 0 0 1
16.808318 -28.617738 18.418989 37.957261 -1.039738 1.064140 0.097458 -0.030492 -519922.000000 0 0 1
16.088018 -29.813238 18.708789 38.699771 -1.075952 1.066223 0.108656 -0.031993 -525299.000000 0 0 1
14.964218 -29.492138 19.651989 38.469659 -1.101249 1.034630 0.100500 -0.031161 -1401460.000000 0 0 1
13.956318 -28.826538 18.995589 37.236816 -1.119910 1.035461 0.093194 -0.033021 -615586.000000 0 0 1
12.824618 -28.538038 19.816489 37.034898 -1.148452 1.006199 0.067238 -0.030539 204509.000000 0 0 1
11.703618 -27.953938 18.950389 35.742336 -1.174295 1.011966 0.069975 -0.031542 -261918.000000 0 0 1
11.480218 -28.783538 17.819589 35.746681 -1.191285 1.048933 0.074737 -0.039036 -473826.000000 0 0 1
10.582818 -28.229238 16.931089 34.576693 -1.212123 1.059088 0.083281 -0.033439 -420197.000000 0 0 1
10.289918 -29.016738 15.674489 34.547693 -1.230012 1.099877 0.090054 -0.031034 -315511.000000 0 0 1
9.390518 -30.057038 15.853589 35.255406 -1.267981 1.104391 0.082183 -0.026697 -340421.000000 0 0 1
9.561518 -30.985738 14.810589 35.649574 -1.271488 1.142360 0.078615 -0.022724 605984.000000 0 0 1
8.320418 -31.925838 14.541689 36.054808 -1.315850 1.155652 0.063625 -0.020838 500880.000000 0 0 1
8.138018 -32.891838 15.541089 37.277685 -1.328250 1.140764 0.076175 -0.025427 -183675.000000 0 0 1
7.207718 -33.876438 15.179189 37.814971 -1.361157 1.157744 0.046098 -0.017864 -25644.300000 0 0 1
7.137318 33.139963 16.247489 37.592277 1.358668 1.123862 0.085113 -0.030081 618914.000000 0 0 1
8.381118 32.428163 16.280289 37.240793 1.317879 1.118355 0.089684 -0.034738 528688.000000 0 0 1
8.269218 31.313063 17.146589 36.645509 1.312609 1.083878 0.105532 -0.042225 -32764.000000 0 0 1
9.641718 30.639563 17.338389 36.501579 1.265925 1.075828 0.082830 -0.042703 -271172.000000 0 0 1
10.100618 29.912663 16.239989 35.503903 1.245148 1.095711 0.089679 -0.039071 -91038.500000 0 0 1
10.970618 28.877563 16.672289 35.103181 1.207736 1.075888 0.078537 -0.038180 44185.500000 0 0 1
11.766118 28.103863 15.604189 34.230970 1.174303 1.097469 0.075509 -0.034537 -637692.000000 0 0 1
11.018018 27.494763 14.663389 33.051077 1.189659 1.111120 0.092099 -0.036369 -1070780.000000 0 0 1
11.805018 27.004663 13.645989 32.478043 1.158682 1.137174 0.087953 -0.030513 -321566.000000 0 0 1
-9.547044 -9.542637 19.199990 23.470142 0.785167 0.612766 0.062460 -0.014963 124828.000000 0 1 0
-9.508744 -9.418537 17.834990 22.298249 0.780632 0.643771 0.049118 -0.024629 20805.200000 0 1 0
-9.346744 -10.675737 17.229690 22.320287 0.851676 0.688925 0.061335 -0.035791 -67268.700000 0 1 0
-9.775744 -10.694337 15.782590 21.424849 0.830243 0.742695 0.067303 -0.035506 85295.500000 0 1 0
-11.169444 -10.417237 15.656790 21.872594 0.750566 0.773002 0.079162 -0.032350 669770.000000 0 1 0
-11.867644 -11.008237 14.547890 21.763808 0.747848 0.838681 0.098187 -0.021427 389738.000000 0 1 0
-12.024844 -12.524937 14.642790 22.713041 0.805766 0.870183 0.081179 -0.017895 -873374.000000 0 1 0
-10.881844 -13.211637 14.188190 22.232108 0.881797 0.878658 0.106706 -0.022426 -86354.800000 0 1 0
-10.724444 -14.608737 14.461990 23.185729 0.937542 0.897271 0.112577 -0.025631 184374.000000 0 1 0
-10.283744 -14.958837 15.871490 24.112785 0.968530 0.852346 0.124221 -0.031369 -134141.000000 0 1 0
-11.388444 -14.834737 16.729490 25.092667 0.916071 0.841013 0.113547 -0.026059 -47788.800000 0 0 1
-10.993244 -14.752337 18.115390 25.819570 0.930383 0.793135 0.142373 -0.027195 757931.000000 0 0 1
-12.197644 -14.524037 19.141990 26.947095 0.872239 0.780795 0.083148 -0.028557 1191580.000000 0 0 1
-12.991544 -13.332237 19.093790 26.666488 0.798340 0.772709 0.084924 -0.021550 135203.000000 0 0 1
-13.928844 -13.176737 18.059890 26.340059 0.757658 0.815309 0.112882 -0.027275 319022.000000 0 0 1
-15.391644 -13.390237 18.581690 27.594933 0.715973 0.832034 0.073071 -0.016260 284812.000000 0 0 1
-15.734644 -14.755037 18.722690 28.562725 0.753280 0.855960 0.069082 -0.015094 117935.000000 0 0 1
-16.285744 -15.004537 20.018490 29.851324 0.744475 0.835770 0.061796 -0.011630 -30739.100000 0 0 1
-16.859444 -16.442637 20.082690 30.950212 0.772883 0.864697 0.052379 -0.016563 657027.000000 0 0 1
-18.100744 -16.629437 19.374190 31.297513 0.743060 0.903286 0.051805 -0.007728 518369.000000 0 0 1
-18.685444 -17.853337 19.617490 32.445853 0.762629 0.921505 0.070244 -0.014088 87573.500000 0 0 1
-20.037844 -18.020337 18.890190 32.910287 0.732437 0.959426 0.071538 -0.014950 -179555.000000 0 0 1
-19.905144 -18.376437 17.494090 32.248277 0.745486 0.997408 0.075924 -0.017244 203087.000000 0 0 1
-20.009444 -17.233137 16.639090 31.212468 0.710989 1.008546 0.069578 -0.014529 -294002.000000 0 0 1
-19.478544 -17.558837 15.224590 30.323499 0.733613 1.044803 0.083563 -0.022193 -261857.000000 0 0 1
-20.093744 -18.680237 14.694390 31.122900 0.748959 1.079079 0.092715 -0.017351 271020.000000 0 0 1
-19.588444 -18.797437 13.341790 30.249862 0.764794 1.114025 0.098925 -0.021689 417029.000000 0 0 1
-19.934244 -20.131437 12.651290 31.027471 0.790320 1.150813 0.113423 -0.022427 -869811.000000 0 0 1
-19.038144 -21.007437 13.128290 31.242844 0.834535 1.137129 0.111169 -0.012156 -747240.000000 0 0 1
-19.144344 -22.249337 12.408390 31.867021 0.860269 1.170838 0.102149 -0.007946 576693.000000 0 0 1
-17.916844 -23.217137 12.740490 31.974503 0.913546 1.160962 0.096140 -0.007185 917477.000000 0 0 1
-17.841944 -24.321837 11.839790 32.404743 0.937889 1.196764 0.092411 -0.023839 99298.900000 0 0 1
-16.890944 -24.033037 10.821990 31.305053 0.958179 1.217817 0.085014 -0.020507 -155059.000000 0 0 1
-17.016444 -25.061337 9.675890 31.800202 0.974309 1.261623 0.077494 -0.024231 901403.000000 0 0 1
-18.258744 -25.139727 8.922190 32.326353 0.942643 1.291163 0.078178 -0.018419 852981.000000 0 0 1
-18.198944 -26.298047 8.059590 32.980992 0.965442 1.323926 0.090152 -0.021684 -89478.700000 0 0 1
-19.435244 -26.337187 7.168190 33.507597 0.935059 1.355203 0.081253 -0.024934 -7558.570000 0 0 1
-19.399844 -25.188757 6.308090 32.413260 0.914505 1.374932 0.077246 -0.025308 -110480.000000 0 0 1
-20.570844 -25.180907 5.531290 32.982311 0.885822 1.402295 0.088116 -0.024641 -124390.000000 0 0 1
-20.725144 -23.870137 4.753290 31.967308 0.855805 1.421551 0.094012 -0.025728 560245.000000 0 0 1
-21.882744 -23.818037 3.901490 32.578751 0.827720 1.450753 0.095787 -0.028830 584118.000000 0 0 1
-21.849044 -22.697237 3.046390 31.651631 0.804437 1.474400 0.097972 -0.027267 202517.000000 0 0 1
-22.520244 -22.901737 1.647590 32.161553 0.793797 1.519545 0.070521 -0.019578 -280860.000000 0 0 1
-21.811944 -23.703637 0.793690 32.221937 0.826936 1.546162 0.067423 -0.034300 -288238.000000 0 0 1
-22.239444 -23.418537 -0.522110 32.300052 0.811217 1.586961 0.062586 -0.031355 -356081.000000 0 0 1
-21.436544 -24.117337 -1.646310 32.309158 0.844179 1.621773 0.068828 -0.031918 -565369.000000 0 0 1
-20.053944 -23.845737 -1.538610 31.195307 0.871558 1.620138 0.071294 -0.033240 -53393.800000 0 0 1
-19.223644 -24.452437 -2.520110 31.206107 0.904549 1.651641 0.067236 -0.023422 305694.000000 0 0 1
-19.153344 -25.979937 -2.603310 32.381861 0.935514 1.651277 0.072737 -0.029727 -992678.000000 0 0 1
-20.283844 -26.531717 -3.223210 33.552279 0.918071 1.667010 0.111006 -0.041868 -229595.000000 0 0 1
-19.927844 -27.817327 -3.685610 34.416658 0.949160 1.678090 0.105626 -0.035145 -286553.000000 0 0 1
-21.058644 -28.591077 -4.358810 35.775905 0.935962 1.692936 0.111673 -0.033410 -203104.000000 0 0 1
-21.606944 -27.909107 -5.488510 35.719771 0.911993 1.725062 0.100129 -0.030331 -252813.000000 0 0 1
-22.563244 -28.699847 -6.103810 37.014020 0.904539 1.736458 0.101811 -0.040369 -344580.000000 0 0 1
-23.208044 -28.178267 -7.421010 37.251838 0.881821 1.771350 0.093272 -0.015571 -181052.000000 0 0 1
-22.329844 -28.146867 -8.507210 36.922089 0.900134 1.803295 0.105014 -0.015393 120313.000000 0 0 1
-22.987144 -28.135497 -9.792010 37.628426 0.885766 1.834056 0.105312 -0.007701 148420.000000 0 0 1
-23.907244 -26.978667 -10.207710 37.464678 0.845684 1.846747 0.079524 -0.000336 -240119.000000 0 0 1
-23.326644 -25.713347 -10.496810 36.269706 0.834028 1.864407 0.074955 -0.001268 100595.000000 0 0 1
-22.772544 -25.025637 -9.367810 35.108790 0.832501 1.840891 0.068330 -0.005711 74090.800000 0 0 1
-22.362744 -23.559137 -9.748110 33.913875 0.811445 1.862346 0.066840 -0.010504 234059.000000 0 0 1
-23.448744 -22.721437 -10.117610 34.182939 0.769647 1.871282 0.062095 -0.015761 388880.000000 0 0 1
-22.996644 -21.383537 -10.265210 33.037491 0.749067 1.886740 0.075596 -0.008162 487558.000000 0 0 1
-24.222044 -20.455737 -10.479810 33.391181 0.701298 1.890041 0.085341 -0.011544 -275738.000000 0 0 1
-24.964644 -20.710137 -11.649110 34.465127 0.692518 1.915584 0.064974 -0.005112 267791.000000 0 0 1
-26.216284 -20.042337 -11.692410 35.010017 0.652716 1.911312 0.055638 -0.008347 113000.000000 0 0 1
-26.300504 -18.524737 -11.768110 34.254500 0.613639 1.921490 0.056792 -0.018905 -1234280.000000 0 0 1
-25.819824 -17.947437 -12.971310 34.015124 0.607432 1.962041 0.062029 -0.011996 497235.000000 0 0 1
-25.382144 -16.586437 -12.879310 32.942977 0.578810 1.972468 0.080599 -0.026103 1310050.000000 0 0 1
-24.049144 -16.327937 -12.027310 31.458211 0.596452 1.963109 0.069955 -0.020306 565736.000000 0 0 1
-24.355844 -16.367037 -10.651310 31.217582 0.591683 1.918985 0.095956 -0.029182 272674.000000 0 0 1
-23.206044 -16.578237 -9.855810 30.174416 0.620321 1.903530 0.089034 -0.029483 -210278.000000 0 0 1
-23.510844 -16.868137 -8.381110 30.125352 0.622350 1.852724 0.064899 -0.037509 -296962.000000 0 0 1
-23.983244 -18.164537 -8.175110 31.176575 0.648210 1.836118 0.078126 -0.029379 314826.000000 0 0 1
-24.754344 -18.160937 -6.945010 31.477458 0.632952 1.793261 0.084249 -0.020671 38723.500000 0 0 1
-25.505794 -19.486637 -6.792110 32.808647 0.652406 1.779326 0.083254 -0.016064 -523628.000000 0 0 1
-26.736924 -19.510737 -7.451210 33.927164 0.630402 1.792225 0.064771 -0.023130 -369710.000000 0 0 1
-27.399004 -20.742637 -7.533610 35.181212 0.648003 1.786605 0.054704 -0.009651 -559.657000 0 0 1
-26.646114 -21.877037 -8.295010 35.460222 0.687428 1.806908 0.040129 -0.012133 -206423.000000 0 0 1
-27.334214 -23.090637 -8.126210 36.692943 0.701440 1.794113 0.038357 -0.005576 -374639.000000 0 0 1
-26.739204 -24.122837 -8.864410 37.087384 0.734003 1.812147 0.038663 0.000609 60094.500000 0 0 1
-27.322674 -25.547067 -8.751310 38.415707 0.751826 1.800620 0.021852 -0.001979 -98495.700000 0 0 1
-27.080994 -26.001197 -7.427710 38.270267 0.765059 1.766122 0.048034 -0.023609 -10172.700000 0 0 1
-27.561634 -27.351687 -7.227710 39.496813 0.781575 1.754828 0.047029 -0.028975 -29546.600000 0 0 1
-27.062554 -28.102247 -5.976210 39.469396 0.804243 1.722795 0.063191 -0.034095 -208759.000000 0 0 1
-27.620094 -27.520807 -4.820110 39.287375 0.783598 1.693795 0.051782 -0.029191 341160.000000 0 0 1
-26.919174 -27.804787 -3.593010 38.867182 0.801580 1.663372 0.069477 -0.041974 140548.000000 0 0 1
-27.331654 -29.181907 -2.899210 40.087509 0.818126 1.643182 0.065623 -0.033631 -103291.000000 0 0 1
-26.934684 -30.365897 -3.630310 40.752228 0.845208 1.659997 0.076790 -0.034179 109112.000000 0 0 1
-27.047254 -31.627237 -2.971210 41.721267 0.863298 1.642072 0.071876 -0.038524 -395763.000000 0 0 1
-26.233834 -31.829137 -1.702710 41.282045 0.881468 1.612054 0.068267 -0.039372 475603.000000 0 0 1
-24.809644 -31.797927 -1.849510 40.373844 0.908228 1.616622 0.080225 -0.047379 704061.000000 0 0 1
-24.092644 -31.973227 -0.626110 40.039165 0.925043 1.586434 0.121374 -0.041906 1338560.000000 0 0 1
-22.820144 -31.008667 -0.470210 38.503474 0.936362 1.583009 0.112044 -0.043090 991705.000000 0 0 1
-23.008044 -29.600407 -0.212210 37.491322 0.910058 1.576457 0.084071 -0.040579 -287899.000000 0 0 1
-23.454844 -28.909497 -1.361710 37.252422 0.889191 1.607358 0.098289 -0.043467 -88315.700000 0 0 1
-24.004144 -27.489037 -1.054710 36.509704 0.852972 1.599689 0.063453 -0.038522 -165078.000000 0 0 1
-25.243404 -27.548627 -0.390810 37.367219 0.829037 1.581255 0.079235 -0.041331 -157470.000000 0 0 1
-25.781394 -26.282447 -0.007710 36.816401 0.795022 1.571006 0.086864 -0.040248 211764.000000 0 0 1
-24.965644 -25.626507 1.142490 35.795342 0.798460 1.538874 0.091909 -0.030021 -110260.000000 0 0 1
-25.058844 -26.270207 2.411690 36.385240 0.808994 1.504466 0.085252 -0.023838 -319558.000000 0 0 1
-24.689244 -25.419837 3.475190 35.606233 0.799977 1.473040 0.091558 -0.023141 -293218.000000 0 0 1
-25.694434 -24.401237 4.048290 35.665291 0.759589 1.457043 0.101430 -0.022973 -122341.000000 0 0 1
-25.896594 -23.313737 3.158790 34.987739 0.732960 1.480390 0.086838 -0.024499 -545056.000000 0 0 1
-26.805604 -22.370037 3.582990 35.096962 0.695443 1.468530 0.071416 -0.018437 -541403.000000 0 0 1
-26.993284 -21.126037 2.641090 34.379095 0.664066 1.493898 0.059973 -0.012943 -156597.000000 0 0 1
-25.843694 -20.333137 2.655090 32.990642 0.666624 1.490229 0.063515 -0.006180 -309202.000000 0 0 1
-25.893114 -19.403537 1.617790 32.397034 0.643098 1.520839 0.054816 -0.007073 1382410.000000 0 0 1
-24.512344 -18.616337 1.717290 30.828105 0.649533 1.515062 0.071183 -0.008426 2014990.000000 0 0 1
-23.330644 -19.367937 1.332390 30.351461 0.692857 1.526884 0.068458 -0.011571 1163780.000000 0 0 1
-22.172944 -18.613837 1.714790 29.000946 0.698357 1.511633 0.075490 -0.007911 -29054.700000 0 0 1
-20.868044 -19.374937 1.548590 28.517741 0.748313 1.516467 0.071664 -0.023252 -524226.000000 0 0 1
-20.589444 -19.791837 0.217290 28.560274 0.765649 1.563188 0.044074 -0.012492 77440.800000 0 0 1
-19.434444 -20.597637 0.110790 28.319120 0.814447 1.566884 0.083053 -0.015005 46238.600000 0 0 1
-19.018044 -21.037737 -1.317610 28.390288 0.835778 1.617224 0.087488 -0.018765 -184263.000000 0 0 1
-18.254744 -20.086437 -1.987010 27.214864 0.833135 1.643873 0.079546 -0.024567 -204587.000000 0 0 1
-17.949844 -20.431137 -3.291710 27.394591 0.849957 1.691246 0.072612 -0.021564 203972.000000 0 0 1
-17.317144 -19.243137 -4.091810 26.209248 0.838029 1.727558 0.086121 -0.015753 1193710.000000 0 0 1
-15.934444 -18.956037 -3.812810 25.055446 0.871785 1.723565 0.118130 -0.036416 699903.000000 0 0 1
-15.309444 -18.181237 -4.754710 24.239301 0.870938 1.768234 0.123902 -0.035110 -1564980.000000 0 1 0
-13.822144 -18.090637 -4.763210 23.259643 0.918364 1.777040 0.144177 -0.043574 -1507580.000000 0 1 0
-13.211244 -19.269137 -5.246510 23.944989 0.969789 1.791695 0.115336 -0.039944 -602312.000000 0 1 0
-11.985144 -18.916837 -5.806810 23.134594 1.006058 1.824511 0.105439 -0.047138 -620803.000000 0 1 0
-10.848244 -19.930437 -5.840910 23.431239 1.072336 1.822732 0.100655 -0.052335 -49896.300000 0 1 0
-11.117044 -20.999537 -6.646210 24.672684 1.083910 1.843541 0.088239 -0.042881 675128.000000 0 1 0
-9.948144 -21.850237 -6.808010 24.954908 1.143554 1.847112 0.096661 -0.031018 1126990.000000 0 1 0
-10.237344 -23.066837 -7.739210 26.396544 1.153100 1.868358 0.097140 -0.017646 -101332.000000 0 0 1
-10.686744 -22.750437 -9.052910 26.715989 1.131650 1.916498 0.087393 -0.023643 -9773.790000 0 0 1
-10.993044 -24.012037 -9.675110 28.125303 1.141463 1.921970 0.088989 -0.016223 151704.000000 0 0 1
-11.776344 -23.674937 -10.990010 28.635035 1.109216 1.964700 0.095014 -0.023259 -37272.300000 0 0 1
-11.058244 -22.931437 -11.959710 28.127748 1.121465 2.009971 0.088308 -0.016738 -108879.000000 0 0 1
-11.843344 -22.522537 -13.056610 28.600779 1.086688 2.044868 0.098084 -0.024252 -430196.000000 0 0 1
-11.179344 -21.437837 -13.954010 27.915461 1.090115 2.094241 0.086532 -0.010187 6248.130000 0 0 1
-11.048444 -20.241437 -13.209710 26.575935 1.071158 2.090998 0.083300 -0.009296 -183600.000000 0 0 1
-10.992144 -19.126737 -14.113110 26.188531 1.049187 2.139932 0.076363 0.003203 15715.200000 0 0 1
-10.534944 -17.817437 -13.418610 24.667898 1.036820 2.145958 0.091725 0.008287 63467.900000 0 1 0
-11.466344 -17.384837 -12.413910 24.244891 0.987730 2.108333 0.092671 -0.004694 159107.000000 0 1 0
-11.009644 -16.326337 -11.551010 22.829529 0.977494 2.101300 0.087004 -0.011725 -8908.830000 0 1 0
-10.787844 -14.866837 -12.172510 22.035662 0.943074 2.156038 0.091469 -0.003610 443929.000000 0 1 0
-11.972544 -14.258637 -12.675010 22.523464 0.872330 2.168501 0.084470 0.008240 155062.000000 0 1 0
-12.176844 -14.424037 -14.064910 23.540392 0.869676 2.211151 0.102201 -0.002109 -101591.000000 0 1 0
-13.260544 -13.444637 -14.571210 23.852053 0.792292 2.227993 0.092922 -0.007319 -384818.000000 0 1 0
-13.023644 -12.060237 -14.428910 22.874835 0.747010 2.253350 0.062167 0.010650 959810.000000 0 1 0
-14.143344 -11.315237 -15.024410 23.532991 0.674765 2.263266 0.068960 -0.010484 997200.000000 0 1 0
-14.272644 -9.904037 -14.427210 22.581911 0.606632 2.263842 0.055530 -0.015620 86799.500000 0 1 0
-13.216244 -8.968237 -14.644010 21.668996 0.596203 2.312852 0.043588 -0.008663 172088.000000 0 1 0
-13.336844 -8.072937 -15.749910 22.160852 0.544315 2.361301 0.050276 -0.013456 187730.000000 0 1 0
-12.161644 -7.042437 -15.829810 21.168004 0.524887 2.415565 0.039914 -0.005326 223408.000000 0 1 0
-10.977944 -7.614537 -16.333110 21.101348 0.606432 2.455980 0.048798 0.003138 -615743.000000 0 1 0
-9.907844 -6.798437 -15.974310 19.989064 0.601382 2.496680 0.034516 0.008181 -272564.000000 0 1 0
11.309956 22.121663 16.027090 29.566039 1.098180 0.997889 0.095582 -0.017423 -663455.000000 0 0 1
12.231656 21.999463 17.050590 30.402506 1.063360 0.975410 0.104659 -0.028338 -355368.000000 0 0 1
12.712656 20.659463 17.151290 29.708446 1.019172 0.955353 0.089083 -0.020044 -749859.000000 0 0 1
13.768756 20.501263 18.186290 30.669554 0.979382 0.936047 0.086158 -0.025132 672379.000000 0 0 1
15.030756 21.158863 17.826490 31.486582 0.953140 0.968955 0.067357 -0.021961 1293540.000000 0 0 1
16.117556 20.688663 18.600490 32.152366 0.908959 0.953895 0.074177 -0.021745 -116781.000000 0 0 1
17.474356 21.277063 18.242890 33.028315 0.883216 0.985627 0.066090 -0.012743 -1498630.000000 0 0 1
17.685756 22.643763 18.517190 34.182046 0.907722 0.998311 0.078562 -0.018240 -65481.200000 0 0 1
18.741556 23.201663 17.748490 34.706944 0.891337 1.034005 0.080298 -0.012764 -350758.000000 0 0 1
20.150556 22.863763 18.193890 35.493861 0.848392 1.032595 0.067058 -0.018749 -1276240.000000 0 0 1
20.500556 21.486563 18.097990 34.777614 0.808877 1.023486 0.069248 -0.010384 -303025.000000 0 0 1
21.796656 21.243863 18.604490 35.672440 0.772555 1.022145 0.082675 -0.013518 98725.800000 0 0 1
22.206356 19.748163 18.523690 35.017700 0.726873 1.013397 0.068960 -0.010814 -80580.500000 0 0 1
22.274256 19.261863 17.207090 34.106389 0.713000 1.041979 0.039720 -0.002787 -36496.800000 0 0 1
21.983156 17.840063 17.085490 33.067219 0.681734 1.027816 0.044495 -0.000117 -282709.000000 0 0 1
23.037156 16.748063 17.348190 33.349181 0.628619 1.023713 0.032372 -0.001320 -137940.000000 0 0 1
24.134856 16.815563 16.461190 33.707940 0.608530 1.060601 0.042734 -0.011461 393591.000000 0 0 1
25.036356 15.712563 16.629990 33.915488 0.560459 1.058321 0.036465 -0.004571 -519286.000000 0 0 1
26.332456 15.827463 15.859390 34.574949 0.541201 1.094269 0.145117 -0.037366 -999043.000000 0 0 1
27.221356 16.905363 16.199090 35.905488 0.555742 1.102733 0.128509 -0.037766 304541.000000 0 0 1
28.198456 16.683063 17.185390 36.997502 0.534243 1.087725 0.134350 -0.049368 -42876.700000 0 0 1
29.284156 15.629063 16.791890 37.199422 0.490246 1.102461 0.126855 -0.058783 -710147.000000 0 0 1
30.123256 16.123263 15.747990 37.621395 0.491443 1.138903 0.178638 -0.051394 55523.900000 0 0 1
30.637056 15.132563 14.919590 37.285625 0.458780 1.159123 0.188806 -0.057062 26842.900000 0 0 1
29.740256 14.981263 13.659690 35.993169 0.466633 1.181532 0.160961 -0.040212 -78913.000000 0 0 1
30.015456 15.854963 12.637990 36.221903 0.485973 1.214394 0.164590 -0.026808 366867.000000 0 0 1
29.118256 15.813663 11.509690 35.077311 0.497518 1.236480 0.141426 -0.021791 1653190.000000 0 0 1
27.678556 16.484363 11.627790 34.249704 0.537152 1.224411 0.124893 -0.025416 936223.000000 0 0 1
27.489856 17.842563 11.398690 34.698406 0.575714 1.236073 0.109832 -0.012583 -89771.200000 0 0 1
28.168756 18.740363 12.250690 35.982766 0.587048 1.223390 0.106081 -0.018234 -368584.000000 0 0 1
27.685856 18.893263 13.658190 36.194035 0.598827 1.183852 0.110297 -0.018310 -481018.000000 0 0 1
26.452156 19.531463 13.814690 35.665674 0.636016 1.173053 0.100291 -0.009248 -245306.000000 0 0 1
25.886756 19.474463 15.132590 35.754358 0.644968 1.133781 0.091439 -0.013159 8984.970000 0 0 1
26.626856 20.249963 16.234790 37.183583 0.650193 1.118967 0.091101 -0.023055 -299979.000000 0 0 1
26.553856 21.707163 16.132990 37.902263 0.685307 1.131119 0.069122 -0.012354 844919.000000 0 0 1
25.272956 22.360463 16.281790 37.467443 0.724330 1.121248 0.075689 -0.011280 696205.000000 0 0 1
25.286456 23.869263 15.907790 38.238781 0.756575 1.141741 0.076513 -0.008412 -194450.000000 0 0 1
25.363256 24.121663 14.556390 37.908282 0.760313 1.176683 0.105542 -0.018853 177667.000000 0 0 1
25.500456 25.493363 14.225390 38.762695 0.785259 1.195029 0.110364 -0.028331 -269861.000000 0 0 1
25.018456 25.773663 12.770090 38.121910 0.800266 1.229212 0.100982 -0.032585 108174.000000 0 0 1
23.617756 25.579363 12.645390 37.040628 0.825249 1.222398 0.093317 -0.020152 282761.000000 0 0 1
23.256856 25.888663 11.291890 36.587033 0.838898 1.257043 0.076649 -0.028612 -280700.000000 0 0 1
22.671056 24.677663 10.550590 35.132304 0.827752 1.265778 0.076884 -0.024375 209830.000000 0 0 1
21.323856 24.449463 10.991790 34.253504 0.853577 1.244122 0.086625 -0.023160 735735.000000 0 0 1
20.853456 23.063263 10.826890 32.924190 0.835674 1.235718 0.089740 -0.018226 163843.000000 0 0 1
20.653956 22.396763 9.448690 31.897941 0.825859 1.270068 0.094608 -0.014288 -127267.000000 0 0 1
19.463656 22.857163 8.818390 31.289740 0.865412 1.285095 0.085741 -0.014365 171397.000000 0 0 1
19.679456 23.374863 7.547590 31.474296 0.871020 1.328635 0.077335 -0.015930 41853.100000 0 0 1
18.427256 23.833563 6.744690 30.872210 0.912634 1.350549 0.067899 -0.007440 -551031.000000 0 0 1
17.744556 22.746763 6.138490 29.495179 0.908313 1.361145 0.080303 -0.000711 623126.000000 0 0 1
16.875756 22.996963 5.014790 28.962037 0.937728 1.396769 0.107493 -0.011262 1228860.000000 0 0 1
15.637356 23.953563 5.244090 29.082651 0.992441 1.389488 0.064823 -0.006648 246187.000000 0 0 1
16.020156 25.323363 5.168590 30.407769 1.006734 1.399991 0.077559 -0.011037 497901.000000 0 0 1
14.929356 26.053663 5.688090 30.561960 1.050449 1.383588 0.061512 -0.014970 90747.500000 0 0 1
14.771456 27.418463 4.978190 31.539664 1.076638 1.412294 0.057094 -0.020905 -563289.000000 0 0 1
14.185556 27.443663 3.714690 31.115648 1.093722 1.451128 0.056223 -0.013876 170649.000000 0 0 1
13.927156 28.759663 3.277790 32.122076 1.119820 1.468577 0.051691 -0.017229 -239826.000000 0 0 1
13.250656 28.769763 1.861090 31.729211 1.139182 1.512107 0.061516 -0.016870 -229548.000000 0 0 1
14.066856 28.465863 0.750090 31.760737 1.111827 1.547177 0.099952 -0.020041 -266468.000000 0 0 1
14.169756 27.061463 0.488990 30.550677 1.088437 1.554790 0.067895 -0.014081 -171604.000000 0 0 1
15.357556 26.879663 -0.456310 30.960927 1.051713 1.585535 0.080040 -0.020513 -63132.000000 0 0 1
15.094356 27.463463 -1.729010 31.385838 1.068248 1.625913 0.076221 -0.010197 294482.000000 0 0 1
16.010756 26.857663 -2.671410 31.381759 1.033225 1.656026 0.085126 -0.007854 630472.000000 0 0 1
15.749856 27.301663 -4.107410 31.785367 1.047548 1.700382 0.098561 -0.014461 478646.000000 0 0 1
14.659356 26.589863 -4.725410 30.728603 1.066945 1.725188 0.099996 -0.016280 159969.000000 0 0 1
14.613756 27.009263 -6.045010 31.298631 1.074839 1.765157 0.077713 -0.010274 253844.000000 0 0 1
13.381556 26.572263 -6.861210 30.532399 1.104280 1.797451 0.068121 -0.020109 222291.000000 0 0 1
13.326456 25.161363 -7.155010 29.357840 1.083719 1.816993 0.090084 -0.022806 -361066.000000 0 0 1
12.111656 24.808363 -7.777610 28.681672 1.116626 1.845405 0.077599 -0.019292 44424.600000 0 0 1
12.046456 23.335663 -8.266510 27.531899 1.094253 1.875753 0.081719 -0.022265 64623.500000 0 0 1
12.717456 23.101663 -9.517310 28.035686 1.067570 1.917151 0.080502 -0.022235 95284.100000 0 0 1
12.447156 21.860163 -10.075410 27.098197 1.053181 1.951756 0.082488 -0.025564 -302729.000000 0 0 1
12.926656 21.434963 -11.461610 27.530430 1.028127 2.000196 0.086707 -0.026597 -70743.800000 0 0 1
12.287556 20.216763 -11.799210 26.437150 1.024668 2.033436 0.097128 -0.034201 -68405.600000 0 0 1
12.254356 19.825563 -13.171910 26.771653 1.017168 2.085193 0.095193 -0.037072 42519.900000 0 0 1
13.560656 19.134763 -13.644110 27.132864 0.954260 2.097704 0.097002 -0.045564 192892.000000 0 0 1
14.684556 19.967063 -13.482610 28.215254 0.936680 2.069000 0.087746 -0.028834 -1256960.000000 0 0 1
15.834656 19.414363 -14.023710 28.710943 0.886606 2.081103 0.079123 -0.025171 -938112.000000 0 0 1
17.020456 20.258563 -13.576610 29.739362 0.872042 2.044876 0.084740 -0.011712 -643414.000000 0 0 1
17.363456 21.472663 -14.221610 31.061537 0.890815 2.046375 0.075028 -0.006330 -148358.000000 0 0 1
16.357256 22.460963 -14.141210 31.177372 0.941359 2.041567 0.066153 -0.009665 -185644.000000 0 0 1
16.746656 23.877363 -14.621310 32.624556 0.959157 2.035512 0.062691 -0.005396 -17991.600000 0 0 1
17.011456 23.991863 -16.032910 33.497065 0.954022 2.069897 0.059027 -0.000144 -750377.000000 0 0 1
15.905056 24.240963 -16.836710 33.527152 0.990129 2.096916 0.056931 -0.002979 -604774.000000 0 0 1
16.217756 24.242863 -18.362710 34.466232 0.981201 2.132671 0.050607 0.001376 111861.000000 0 0 1
16.502256 22.962863 -18.905810 34.015396 0.947663 2.160123 0.061924 -0.000298 -232980.000000 0 0 1
16.585156 23.025963 -20.317610 34.900826 0.946588 2.192170 0.060705 -0.001491 -47723.600000 0 0 1
16.913856 21.639763 -20.969710 34.555558 0.907370 2.222876 0.070350 -0.000931 -227939.000000 0 0 1
15.842956 20.743263 -21.013110 33.508701 0.918544 2.248613 0.075595 -0.001372 -276199.000000 0 0 1
16.123656 19.547163 -21.695410 33.357978 0.881080 2.278883 0.081175 -0.007997 -338874.000000 0 0 1
14.901156 18.632163 -21.749710 32.283925 0.896205 2.310002 0.080585 -0.008852 -600657.000000 0 0 1
14.461556 18.111063 -20.463010 30.917341 0.896975 2.294096 0.088513 -0.017751 -38438.900000 0 0 1
13.575956 17.061663 -20.600110 29.996191 0.898683 2.327815 0.074278 -0.019715 215538.000000 0 0 1
12.067856 17.305563 -20.935510 29.722235 0.961858 2.352334 0.058156 -0.013445 21636.900000 0 0 1
11.292556 17.498663 -19.779210 28.721807 0.997705 2.330419 0.056527 -0.018946 -718018.000000 0 0 1
9.951056 17.440963 -20.152810 28.449015 1.052308 2.358002 0.032707 -0.011908 -285464.000000 0 0 1
8.902956 17.012563 -19.098510 27.082153 1.088670 2.353511 0.040347 -0.017732 -137216.000000 0 0 1
8.763156 15.645463 -18.827810 26.001151 1.060225 2.380546 0.046531 -0.027267 696093.000000 0 0 1
7.459356 15.201963 -18.413210 25.015754 1.114629 2.398034 0.041376 -0.023585 733162.000000 0 0 1
6.980856 15.580563 -16.982010 24.080593 1.149566 2.353524 0.056184 -0.029715 -204798.000000 0 1 0
6.911956 16.912463 -16.622610 24.700561 1.182821 2.309006 0.069810 -0.027310 -240099.000000 0 1 0
6.427556 17.068063 -15.317810 23.817379 1.210638 2.269383 0.056401 -0.034461 -134008.000000 0 1 0
6.079256 18.523963 -14.835910 24.498955 1.253688 2.221282 0.055310 -0.037036 -48373.600000 0 1 0
7.189756 19.393263 -14.608310 25.321808 1.215770 2.185732 0.055787 -0.032236 109608.000000 0 0 1
7.645656 20.071663 -15.783010 26.653914 1.206847 2.204516 0.079351 -0.029082 113673.000000 0 0 1
8.977856 20.829763 -15.537010 27.493265 1.163845 2.171376 0.077557 -0.022259 174396.000000 0 0 1
8.852556 22.002463 -14.788810 27.949687 1.188271 2.128363 0.087054 -0.023278 -9315.260000 0 0 1
8.767956 21.761863 -13.374510 27.006171 1.187788 2.088906 0.069674 -0.026889 -335043.000000 0 0 1
8.299856 23.009263 -12.604710 27.517131 1.224605 2.046617 0.081128 -0.025823 -200841.000000 0 0 1
6.891856 23.168963 -12.726510 27.317807 1.281671 2.055412 0.074488 -0.026059 44270.600000 0 0 1
6.340356 24.165763 -11.909310 27.676992 1.314210 2.015617 0.066142 -0.026201 -154043.000000 0 0 1
6.126556 23.721163 -10.506010 26.657166 1.318046 1.975902 0.056144 -0.030129 -709678.000000 0 0 1
7.180556 23.814363 -9.571610 26.651454 1.277944 1.938143 0.059126 -0.026739 -118005.000000 0 0 1
6.873056 23.100463 -8.464510 25.544436 1.281608 1.908545 0.054691 -0.034750 -248439.000000 0 0 1
7.909956 23.265963 -7.345910 25.648291 1.243076 1.861273 0.054513 -0.028120 -150403.000000 0 0 1
7.767456 24.483963 -6.659410 26.535741 1.263593 1.824468 0.041951 -0.025724 -243693.000000 0 0 1
8.719856 24.560663 -5.668910 26.672056 1.229644 1.784971 0.042648 -0.022806 -474328.000000 0 0 1
8.791056 25.999863 -5.121510 27.919624 1.244745 1.755279 0.026222 -0.014704 142700.000000 0 0 1
9.400756 26.903763 -6.043010 29.132536 1.234637 1.779745 0.037793 -0.020397 -70104.700000 0 0 1
9.705756 28.105363 -5.423510 30.224619 1.238284 1.751214 0.033102 -0.019760 72073.200000 0 0 1
9.849256 29.161463 -6.518810 31.462575 1.245077 1.779501 0.036899 -0.011412 -60705.800000 0 0 1
11.006256 28.990763 -7.289410 31.854945 1.207958 1.801673 0.047136 -0.014778 -621155.000000 0 0 1
11.297756 30.118063 -8.037610 33.156299 1.211924 1.815651 0.049035 -0.017717 -264749.000000 0 0 1
12.675056 30.156063 -8.686410 33.845220 1.172900 1.830352 0.062806 -0.025632 340845.000000 0 0 1
13.810256 30.182863 -7.821310 34.101338 1.141679 1.802211 0.052206 -0.010145 -580833.000000 0 0 1
14.988356 30.315963 -8.541410 34.880713 1.111635 1.818187 0.057380 -0.011544 -64806.000000 0 0 1
16.223156 30.646663 -7.648910 35.509359 1.083937 1.787903 0.061687 -0.014631 181441.000000 0 0 1
16.744256 29.513763 -7.048510 34.657089 1.054740 1.775604 0.065511 -0.016156 58057.800000 0 0 1
17.907356 29.840563 -6.282510 35.363859 1.030302 1.749398 0.079359 -0.014138 547353.000000 0 0 1
18.997656 28.796463 -6.045410 35.024194 0.987617 1.744272 0.080843 -0.013436 -315584.000000 0 0 1
18.727956 27.806163 -4.994010 33.894825 0.978065 1.718673 0.093434 -0.019702 -100705.000000 0 0 1
19.760556 26.854463 -4.787610 33.683274 0.936420 1.713415 0.091083 -0.018170 -21431.400000 0 0 1
19.839456 25.725363 -5.854910 33.010276 0.913863 1.749106 0.082496 -0.004284 -336172.000000 0 0 1
20.407356 26.209463 -6.997610 33.946468 0.909225 1.778421 0.067868 -0.001604 -37487.800000 0 0 1
20.299256 25.230763 -7.996010 33.355470 0.893291 1.812875 0.062752 -0.014996 -677584.000000 0 0 1
20.951156 25.662263 -9.322910 34.415394 0.886124 1.845118 0.061953 -0.013818 1340170.000000 0 0 1
22.398556 25.679263 -9.424310 35.354455 0.853530 1.840625 0.049969 -0.013411 1090210.000000 0 0 1
22.959356 24.426363 -9.554110 34.857715 0.816347 1.848438 0.047923 -0.010689 -537639.000000 0 0 1
24.497356 24.518663 -9.359510 35.901055 0.785833 1.834547 0.021883 -0.006270 47587.700000 0 0 1
25.061356 25.006863 -10.535110 36.937830 0.784310 1.860024 0.023651 -0.007387 -109149.000000 0 0 1
26.463356 25.184163 -10.472910 38.003067 0.760635 1.849990 0.024677 -0.001217 321069.000000 0 0 1
27.192856 25.232263 -11.832310 38.937412 0.748018 1.879559 0.035603 -0.007228 16780.600000 0 0 1
27.136356 26.483963 -12.532810 39.935616 0.773232 1.890016 0.039607 -0.010937 -521628.000000 0 0 1
27.846256 26.509663 -13.713310 40.819494 0.760813 1.913410 0.043652 -0.014737 -208876.000000 0 0 1
27.588056 27.752163 -14.598310 41.765944 0.788364 1.927862 0.046896 -0.020278 -4097.210000 0 0 1
28.136156 28.982063 -14.128410 42.792701 0.800207 1.907269 0.057242 -0.023692 68183.100000 0 0 1
28.005056 30.002463 -15.109410 43.734714 0.819818 1.923545 0.047190 -0.017170 -118344.000000 0 0 1
28.478956 31.428063 -14.700310 44.887339 0.834587 1.904446 0.044861 -0.022093 319556.000000 0 0 1
29.880556 31.567863 -14.521810 45.828600 0.812850 1.893226 0.060088 -0.024740 283293.000000 0 0 1
30.190256 32.964363 -14.504910 46.994608 0.829296 1.884570 0.051438 -0.027642 -89986.500000 0 0 1
16.343856 -32.577138 -28.119831 46.033862 -1.105792 2.227931 0.108216 -0.039322 105632.000000 0 0 1
17.389756 -33.176938 -27.372071 46.393352 -1.088014 2.201855 0.094103 -0.030081 387508.000000 0 0 1
17.764956 -32.414738 -26.231731 45.325629 -1.069450 2.187978 0.085047 -0.032051 550446.000000 0 0 1
19.149856 -32.794238 -25.553131 45.772716 -1.042270 2.163085 0.014888 -0.013614 2048980.000000 0 0 1
20.337156 -32.220338 -26.171771 46.224579 -1.007758 2.172669 0.038479 -0.021009 1226190.000000 0 0 1
20.812756 -32.894838 -27.344571 47.570650 -1.006675 2.183181 0.050580 -0.014103 -1237840.000000 0 0 1
22.235756 -32.625838 -27.757811 48.263550 -0.972569 2.183559 0.067374 -0.009938 -831915.000000 0 0 1
22.369056 -31.245138 -28.102401 47.606494 -0.949465 2.202234 0.064380 -0.025320 1117410.000000 0 0 1
23.661956 -30.728138 -27.697751 47.657865 -0.914591 2.190973 0.030177 -0.009460 974880.000000 0 0 1
24.259856 -29.467638 -28.416251 47.585351 -0.882026 2.210757 0.017542 -0.001600 143877.000000 0 0 1
24.589256 -29.809838 -29.748791 48.767290 -0.881073 2.226876 0.012978 -0.009807 -164562.000000 0 0 1
25.305156 -28.713638 -30.288261 48.807814 -0.848413 2.240255 0.019865 -0.023998 122005.000000 0 0 1
25.559656 -29.072438 -31.782981 50.086531 -0.849609 2.258237 0.031637 -0.017072 -405778.000000 0 0 1
26.547456 -30.017538 -31.931501 51.239055 -0.846668 2.243607 0.039508 -0.027093 -833560.000000 0 0 1
26.581856 -30.468538 -33.237161 52.341530 -0.853420 2.258812 0.033566 -0.025969 -1088950.000000 0 0 1
27.838656 -31.252938 -33.439221 53.571620 -0.843113 2.244899 0.018447 -0.024123 -289348.000000 0 0 1
28.978056 -30.386838 -33.408441 53.658286 -0.809125 2.242876 0.031300 -0.024567 1142850.000000 0 0 1
30.187256 -31.015638 -33.933651 54.997572 -0.798932 2.235725 0.032218 -0.015075 1789790.000000 0 0 1
31.504156 -30.195338 -33.984261 55.310038 -0.764189 2.232462 0.056723 -0.025582 519388.000000 0 0 1
31.325056 -29.099738 33.272705 54.176811 -0.748587 0.909487 0.070733 -0.026568 293726.000000 0 0 1
32.586556 -28.526438 32.947347 54.416624 -0.719059 0.920447 0.086839 -0.029729 248068.000000 0 0 1
32.565056 -27.433938 31.827590 53.161070 -0.700086 0.928918 0.073621 -0.031291 -64706.000000 0 0 1
33.810656 -27.271538 31.150270 53.453125 -0.678750 0.948677 0.076104 -0.036130 567206.000000 0 0 1
33.831856 -26.165138 30.230250 52.374392 -0.658302 0.955506 0.088468 -0.028788 -226031.000000 0 0 1
34.566056 -26.573938 28.934430 52.327695 -0.655417 0.984900 0.093748 -0.020669 -70775.400000 0 0 1
33.954656 -27.588838 28.160940 52.029811 -0.682329 0.998878 0.090273 -0.025049 -49934.200000 0 0 1
32.784056 -27.279138 27.467170 50.728603 -0.694001 0.998632 0.081886 -0.023805 -429887.000000 0 0 1
32.063356 -28.421638 26.753520 50.513356 -0.725262 1.012629 0.066097 -0.013206 408516.000000 0 0 1
30.969956 -27.983138 25.932890 49.139689 -0.734777 1.014861 0.033271 -0.005521 623733.000000 0 0 1
30.251356 -29.072638 25.377600 49.034533 -0.765532 1.026816 0.017419 -0.001491 -461582.000000 0 0 1
28.925056 -28.702838 24.715130 47.658677 -0.781542 1.025600 0.007193 0.005923 -397341.000000 0 0 1
27.942456 -28.495638 25.704790 47.471239 -0.795199 0.998598 0.006535 0.003301 -756402.000000 0 0 1
26.692956 -28.214238 25.183590 46.290068 -0.813097 0.995553 0.010912 0.009888 -533062.000000 0 0 1
25.545156 -28.116238 26.195280 46.144020 -0.833275 0.967105 0.016536 0.009743 -89648.800000 0 0 1
25.446356 -26.859438 26.801800 45.686792 -0.812407 0.943890 0.013935 -0.000773 367595.000000 0 0 1
24.132456 -26.577438 27.262680 45.077593 -0.833576 0.921289 0.032698 -0.011793 191385.000000 0 0 1
24.162756 -25.528438 28.358830 45.163738 -0.812875 0.891930 0.040688 0.005436 92152.300000 0 0 1
22.896156 -25.441638 29.010390 44.867735 -0.838010 0.867709 0.066975 0.004520 649493.000000 0 0 1
22.829256 -24.340338 29.887100 44.798055 -0.817422 0.840418 0.071494 0.005599 -94793.600000 0 0 1
22.268756 -22.995038 29.307390 43.400373 -0.801442 0.829453 0.071828 0.002332 -135855.000000 0 0 1
23.074256 -22.521638 28.232010 42.856643 -0.773279 0.851634 0.079940 0.001805 389252.000000 0 0 1
22.878856 -21.133038 28.049000 41.914124 -0.745752 0.837662 0.099509 0.010590 105311.000000 0 0 1
23.777256 -20.129338 28.833520 42.449029 -0.702505 0.824056 0.096892 0.007508 -312260.000000 0 0 1
23.384556 -20.003738 30.165100 43.091998 -0.707635 0.795376 0.117593 0.007559 -858.289000 0 0 1
24.292856 -19.227438 30.903960 43.759479 -0.669527 0.786647 0.108201 0.000102 -165888.000000 0 0 1
23.714056 -18.884938 32.287338 44.288481 -0.672518 0.753902 0.140235 -0.008264 -27598.700000 0 0 1
23.898156 -19.962238 33.187423 45.508438 -0.695900 0.753558 0.108410 -0.003750 380011.000000 0 0 1
23.158456 -19.699338 -33.728671 45.409264 -0.704861 2.407995 0.108812 -0.010601 188442.000000 0 0 1
23.069756 -20.917938 -32.739091 45.184310 -0.736518 2.381203 0.088773 -0.003998 184499.000000 0 0 1
24.285656 -21.173438 -32.065041 45.456292 -0.717043 2.353789 0.071335 -0.000728 16716.000000 0 0 1
24.037756 -22.122138 -31.059341 45.076440 -0.743922 2.330956 0.062604 -0.005030 -308094.000000 0 0 1
25.192856 -22.439638 -30.134951 45.236409 -0.727661 2.299852 0.049295 -0.008544 131035.000000 0 0 1
26.299256 -23.195038 -30.645501 46.570457 -0.722761 2.289017 0.037051 -0.006487 74466.100000 0 0 1
27.187456 -23.473538 -29.604791 46.546841 -0.712220 2.260128 0.029715 -0.015847 531685.000000 0 0 1
28.466456 -24.362238 -29.915981 47.946050 -0.707865 2.244585 0.023475 -0.014758 1654790.000000 0 0 1
29.475156 -23.697238 -30.749591 48.743013 -0.677159 2.253446 0.026746 -0.016192 756916.000000 0 0 1
29.160256 -23.598538 -32.144591 49.401278 -0.680368 2.279280 0.026426 -0.015422 -336190.000000 0 0 1
29.506556 -24.875338 -32.978191 50.763968 -0.700442 2.277904 0.031728 -0.028892 -366207.000000 0 0 1
28.780356 -26.001138 -32.567951 50.646219 -0.734709 2.269268 0.052290 -0.030098 -106553.000000 0 0 1
29.005556 -27.175938 -33.340591 51.879176 -0.752843 2.268759 0.046146 -0.030246 -278015.000000 0 0 1
28.515556 -27.113138 33.334981 51.570148 -0.760193 0.867939 0.045462 -0.023071 -361503.000000 0 0 1
29.352656 -26.406138 32.445537 51.103576 -0.732603 0.882920 0.025807 -0.023061 -40915.200000 0 0 1
28.898756 -26.588938 31.134870 50.114767 -0.743795 0.900432 0.022338 -0.011275 -411198.000000 0 0 1
29.798556 -25.907638 30.085980 49.641977 -0.715664 0.919699 0.034191 -0.020674 -301511.000000 0 0 1
29.671056 -24.476238 30.027360 48.796518 -0.689752 0.907955 0.022832 -0.020244 190705.000000 0 0 1
30.028856 -23.772938 31.232520 49.420189 -0.669641 0.886692 0.024464 -0.019274 -1284660.000000 0 0 1
30.561956 -22.266938 31.087480 48.951825 -0.629653 0.882707 0.017934 -0.012312 998696.000000 0 0 1
31.858456 -22.031838 30.520670 49.314039 -0.605035 0.903449 0.035106 -0.014357 381405.000000 0 0 1
32.873956 -22.574438 31.320100 50.707504 -0.601742 0.905030 0.043131 -0.022692 -1369790.000000 0 0 1
34.295256 -22.090738 31.027720 51.253144 -0.572240 0.920551 0.059813 -0.032668 -81871.300000 0 0 1
34.876056 -22.456138 29.779360 51.062978 -0.572064 0.948148 0.067833 -0.032367 -33107.500000 0 0 1
36.181456 -21.969638 29.605310 51.654982 -0.545702 0.960469 0.072986 -0.033567 35805.500000 0 0 1
36.703756 -22.236338 28.148860 51.322303 -0.544697 0.990260 0.085824 -0.031072 -93227.400000 0 0 1
-36.652505 -23.601138 27.855610 51.733498 0.572086 1.002206 0.090035 -0.026653 234008.000000 0 0 1
-36.283205 -23.757238 26.503230 50.826160 0.579723 1.022249 0.093682 -0.018946 118298.000000 0 0 1
-35.999905 -25.244638 26.096780 51.130488 0.611559 1.035151 0.085050 -0.027094 592852.000000 0 0 1
36.372256 -25.931138 25.995530 51.683001 -0.619356 1.043753 0.090416 -0.025573 706713.000000 0 0 1
36.490956 -27.213638 25.442110 52.148566 -0.640784 1.061140 0.094890 -0.016204 195589.000000 0 0 1
-36.391305 -28.273338 26.336600 53.078482 0.660512 1.051600 0.089373 -0.026613 -564857.000000 0 0 1
-36.158705 -29.478638 25.601980 53.215631 0.683975 1.068889 0.079156 -0.025804 555837.000000 0 0 1
-35.215005 -30.333838 26.260200 53.383859 0.711069 1.056511 0.082154 -0.031572 156289.000000 0 0 1
-33.757405 -29.869238 26.314780 52.193883 0.724365 1.042372 0.104773 -0.024780 -1520570.000000 0 0 1
-33.083205 -29.802138 25.099250 51.113973 0.733270 1.057508 0.094399 -0.020752 -828502.000000 0 0 1
-31.841505 -29.196038 25.212010 50.019351 0.742084 1.042520 0.073577 -0.016718 -751237.000000 0 0 1
-31.036705 -29.172838 23.921360 48.852461 0.754452 1.059090 0.071634 -0.014802 -612399.000000 0 0 1
-30.469105 -30.355338 23.523630 49.022179 0.783528 1.070305 0.082476 -0.016439 -105189.000000 0 0 1
-29.968205 -30.186338 22.272190 48.014152 0.789024 1.088441 0.073318 -0.011759 -754567.000000 0 0 1
-30.154805 -31.456838 21.376490 48.536576 0.806528 1.114730 0.080590 -0.016857 127893.000000 0 0 1
-29.358605 -32.565338 21.733490 48.936423 0.837137 1.110608 0.083260 -0.020408 -312009.000000 0 0 1
-28.010505 -32.471738 21.383490 47.919263 0.859026 1.108237 0.098666 -0.019605 -464841.000000 0 0 1
-27.184705 -33.789438 21.454390 48.384142 0.893298 1.111388 0.087757 -0.004102 -131294.000000 0 0 1
-27.425305 33.485563 20.363390 47.834066 -0.884566 1.131051 0.079805 -0.007647 373252.000000 0 0 1
-28.657705 32.803763 20.140390 47.989438 -0.852754 1.137699 0.091252 -0.005923 253308.000000 0 0 1
-28.775905 31.580963 21.099990 47.651018 -0.831839 1.112074 0.098697 -0.005906 -138826.000000 0 0 1
-27.758005 30.626363 20.954890 46.342080 -0.834488 1.101590 0.081248 -0.008986 -157659.000000 0 0 1
-27.727105 29.789363 22.078190 46.299513 -0.821238 1.073722 0.084286 -0.012083 290209.000000 0 0 1
-26.790105 28.582363 21.827390 44.845246 -0.817754 1.062457 0.076864 -0.007251 -93741.600000 0 0 1
-25.417505 28.820363 21.754790 44.158054 -0.848056 1.055656 0.073225 -0.008565 -188716.000000 0 0 1
-24.645605 27.750563 21.174590 42.730116 -0.844588 1.052337 0.060616 -0.012680 226612.000000 0 0 1
-23.158205 28.146163 21.084790 42.107924 -0.882316 1.046352 0.046197 0.001825 -318106.000000 0 0 1
-22.646505 28.143463 22.403290 42.506777 -0.893208 1.015668 0.054708 -0.005886 1235990.000000 0 0 1
-21.233205 28.433863 22.436890 41.985087 -0.929374 1.006997 0.067943 -0.010879 834340.000000 0 0 1
-20.713805 28.605063 23.874250 42.629698 -0.944058 0.976365 0.060840 -0.007466 -546713.000000 0 0 1
-20.502505 27.351563 24.575970 42.100344 -0.927557 0.947460 0.067369 -0.012904 487655.000000 0 0 1
-20.162305 27.468763 25.970320 42.842840 -0.937609 0.919552 0.065904 -0.012604 -526944.000000 0 0 1
-18.695305 27.741063 26.288360 42.545962 -0.977788 0.904751 0.060171 -0.004768 -862973.000000 0 0 1
-18.418505 29.139863 26.426590 43.436593 -1.007127 0.916760 0.032483 -0.005942 -323703.000000 0 0 1
-17.051605 29.361863 26.580830 43.120955 -1.044659 0.906602 0.027534 -0.003612 -455612.000000 0 0 1
-16.663905 29.687563 28.088870 44.136399 -1.059312 0.880961 0.017290 0.002483 -244226.000000 0 0 1
-16.871305 28.579663 28.914950 44.017183 -1.037521 0.854095 0.023596 -0.002621 323699.000000 0 0 1
-16.999005 28.911163 30.348220 45.230918 -1.039267 0.835291 0.021278 -0.000859 -330867.000000 0 0 1
-17.104705 27.701663 31.260200 45.134833 -1.017636 0.805715 0.027629 -0.000578 465773.000000 0 0 1
-15.844605 27.079963 31.556770 44.499501 -1.041401 0.782506 0.036993 0.002527 558039.000000 0 0 1
-15.852805 25.967463 32.451983 44.483162 -1.022701 0.753156 0.050669 0.002549 -135767.000000 0 0 1
-16.308705 26.192663 33.931793 45.862795 -1.013893 0.737942 0.030477 0.001364 -783922.000000 0 0 1
-17.685305 26.106463 34.028262 46.392241 -0.975379 0.747353 0.024452 -0.007760 -980799.000000 0 0 1
-18.159305 26.542063 -32.752141 45.901462 -0.970773 2.365322 0.034296 -0.011579 1487310.000000 0 0 1
-19.637505 26.036263 -32.440721 45.999119 -0.924589 2.353567 0.020874 -0.012021 1251860.000000 0 0 1
-20.534505 26.466363 -33.431231 47.326329 -0.910942 2.355193 0.027681 -0.008146 -1160450.000000 0 0 1
-21.851305 26.217963 -33.138201 47.571015 -0.875990 2.341451 0.059727 -0.018738 -784154.000000 0 0 1
-22.847005 26.048663 33.776580 48.387765 -0.850784 0.798140 0.058098 -0.035377 -194500.000000 0 0 1
-22.633905 25.055563 32.766076 47.049874 -0.836134 0.800411 0.068202 -0.024129 -132469.000000 0 0 1
-22.599705 23.677863 33.232922 46.645632 -0.808692 0.777805 0.072904 -0.030676 -187401.000000 0 0 1
-23.128405 22.702563 32.160185 45.657496 -0.776107 0.789248 0.076410 -0.033696 -197981.000000 0 0 1
-24.515805 22.734063 31.952310 46.247296 -0.747707 0.808062 0.093037 -0.035310 -373000.000000 0 0 1
-24.818005 22.189263 30.661900 45.259793 -0.729534 0.826486 0.105780 -0.031416 464581.000000 0 0 1
-26.326205 22.037863 30.317300 45.802567 -0.696962 0.847429 0.102004 -0.022701 50655.200000 0 0 1
-26.913705 20.928063 30.905790 46.016292 -0.660932 0.834394 0.112743 -0.027913 967490.000000 0 0 1
-28.267505 20.678963 30.450550 46.410207 -0.631585 0.855134 0.096842 -0.019810 921291.000000 0 0 1
-28.703105 19.249063 30.801980 46.294239 -0.590739 0.842831 0.109523 -0.022232 -376108.000000 0 0 1
-29.213105 19.110163 32.111698 47.431687 -0.579297 0.827105 0.098949 -0.017062 9984.120000 0 0 1
-29.273005 17.747463 32.616060 47.283069 -0.545020 0.809578 0.084800 -0.007734 132087.000000 0 0 1
-30.098505 16.635863 31.839660 46.866148 -0.504924 0.823887 0.063938 -0.003721 128396.000000 0 0 1
-31.490705 16.793563 31.899700 47.867307 -0.489921 0.841400 0.061809 -0.006489 -269572.000000 0 0 1
-32.248505 15.700663 31.427430 47.688156 -0.453084 0.851282 0.061773 0.004617 -147665.000000 0 0 1
-33.749105 16.021563 31.371670 48.783955 -0.443224 0.872291 0.050739 -0.000168 -350031.000000 0 0 1
-34.239505 16.105363 32.704051 50.012812 -0.439667 0.858051 0.050147 -0.000402 -161871.000000 0 0 1
-35.618205 16.396263 32.660225 51.031208 -0.431414 0.876292 0.063281 -0.010686 -149263.000000 0 0 1
-36.119305 16.661863 -34.001401 52.328932 -0.432212 2.278069 0.069728 -0.002306 -836256.000000 0 0 1
36.156156 16.966463 -33.955751 52.422529 0.438751 2.275400 0.057572 -0.008938 -925079.000000 0 0 1
35.764256 17.521563 -32.709431 51.536338 0.455550 2.258399 0.047476 -0.016679 797772.000000 0 0 1
34.209356 17.720463 -32.658401 50.506099 0.477944 2.273945 0.043000 -0.024477 783149.000000 0 0 1
33.483056 16.505663 -32.635201 49.584356 0.457996 2.289189 0.050256 -0.013178 1335770.000000 0 0 1
32.066856 16.753163 -32.390261 48.560074 0.481442 2.300990 0.038661 -0.012013 1511180.000000 0 0 1
31.230756 15.436563 -32.495671 47.640490 0.459057 2.321430 0.033286 -0.003841 19448.500000 0 0 1
31.079256 14.919763 -33.814131 48.289905 0.447565 2.346519 0.054311 -0.021898 762475.000000 0 0 1
30.062556 13.889363 -33.816341 47.330927 0.432801 2.366657 0.050650 -0.014782 821050.000000 0 0 1
30.742456 12.486363 -33.710021 47.300882 0.385806 2.364096 0.047046 -0.007501 476128.000000 0 0 1
31.377756 12.238563 -32.459981 46.776024 0.371890 2.337750 0.054638 -0.002673 624370.000000 0 0 1
32.341356 11.169963 -32.594891 47.256305 0.332550 2.331936 0.078255 -0.008050 364931.000000 0 0 1
18.070656 -21.288137 9.557989 29.514210 -0.866964 1.241007 0.063636 -0.027146 -41123.600000 0 0 1
17.683756 -22.338637 10.386189 30.324955 -0.901185 1.221224 0.060688 -0.030487 46150.100000 0 0 1
18.794356 -23.138937 10.754289 31.690582 -0.888637 1.224568 0.044733 -0.031999 -218211.000000 0 0 1
18.523556 -24.373537 11.633289 32.749426 -0.920935 1.207646 0.046112 -0.025270 -262879.000000 0 0 1
17.855156 -25.426747 11.011189 32.963197 -0.958582 1.230205 0.040977 -0.023613 461429.000000 0 0 1
16.445456 -25.398877 11.277889 32.291590 -0.996189 1.214024 0.058948 -0.022248 630454.000000 0 0 1
15.608356 -26.293307 10.307489 32.267679 -1.035078 1.245661 0.055601 -0.019701 23017.400000 0 0 1
15.316856 -25.628587 9.112989 31.216616 -1.032109 1.274555 0.055627 -0.021044 238732.000000 0 0 1
14.684356 -26.444937 8.126789 31.321075 -1.063908 1.308326 0.066394 -0.020417 -7322.280000 0 0 1
14.632056 -25.780617 6.738689 30.399790 -1.054571 1.347271 0.078273 -0.019822 -315339.000000 0 0 1
13.695056 -24.751837 6.857189 29.107199 -1.065427 1.332977 0.087785 -0.029229 -42604.100000 0 0 1
13.519256 -24.033337 5.602089 28.138141 -1.058391 1.370365 0.086241 -0.017559 -54124.900000 0 0 1
12.874656 -22.637237 5.828889 26.686649 -1.053681 1.350602 0.099378 -0.026974 -87680.100000 0 0 1
12.142356 -22.190537 4.725489 25.732995 -1.070116 1.386113 0.090294 -0.024944 309505.000000 0 0 1
11.439656 -20.928037 5.005189 24.370072 -1.070553 1.363942 0.102753 -0.025311 862663.000000 0 1 0
10.480056 -20.471337 3.846189 23.317384 -1.097644 1.405090 0.084018 -0.027774 496172.000000 0 1 0
11.248956 -20.202737 2.646989 23.274367 -1.062745 1.456820 0.065397 -0.019334 371548.000000 0 1 0
10.514556 -19.465437 1.683089 22.187653 -1.075535 1.494866 0.051194 -0.006541 -494200.000000 0 1 0
11.332156 -19.133837 0.485389 22.243136 -1.036089 1.548973 0.044467 -0.001495 -725927.000000 0 1 0
11.990656 -17.939237 0.692989 21.588708 -0.981592 1.538691 0.042695 -0.003994 -578431.000000 0 1 0
12.652156 -17.506937 -0.447011 21.604854 -0.945001 1.591488 0.046987 -0.005441 -299532.000000 0 1 0
13.876056 -16.608937 -0.144411 21.643073 -0.874806 1.577469 0.046371 -0.004033 -398260.000000 0 1 0
14.895356 -17.168037 0.590389 22.736792 -0.856161 1.544827 0.046336 -0.008376 -1138520.000000 0 1 0
16.092556 -16.471037 0.417989 23.031286 -0.797020 1.552647 0.053032 -0.011227 -333821.000000 0 1 0
17.178656 -17.119937 1.297789 24.287502 -0.783686 1.517336 0.032000 0.003355 -421137.000000 0 1 0
17.726156 -18.285037 0.794889 25.479228 -0.800917 1.539594 0.037242 0.000395 -177532.000000 0 0 1
18.732456 -18.738837 1.670689 26.548826 -0.785568 1.507826 0.027649 0.007222 -102883.000000 0 0 1
19.464856 -19.999037 1.248489 27.935656 -0.798933 1.526090 0.011669 -0.001584 -714527.000000 0 0 1
18.688256 -21.123737 1.389189 28.238149 -0.846497 1.521581 0.019877 0.012725 -234964.000000 0 0 1
19.023856 -22.218837 0.497389 29.254593 -0.862712 1.553793 0.031640 0.008110 -86269.700000 0 0 1
17.891256 -23.256537 0.436089 29.345421 -0.915057 1.555935 0.032031 0.010062 -90723.500000 0 0 1
17.789756 -23.966037 1.627989 29.891416 -0.932248 1.516306 0.020224 0.013465 -151766.000000 0 0 1
16.762856 -24.920337 1.496389 30.070845 -0.978658 1.521014 0.033730 0.009442 -247674.000000 0 0 1
16.520356 -25.770887 2.783589 30.737748 -1.000741 1.480113 0.036372 0.005510 1105940.000000 0 0 1
17.581556 -26.747877 3.036989 32.152502 -0.989302 1.476200 0.046727 0.001822 308402.000000 0 0 1
18.662056 -26.192717 3.704489 32.373663 -0.951737 1.456116 0.027104 0.007649 -685804.000000 0 0 1
19.842856 -27.148427 3.959989 33.859379 -0.939630 1.453574 0.029307 0.010767 -218628.000000 0 0 1
20.438756 -27.594247 2.773389 34.451080 -0.933281 1.490207 0.034141 0.019334 22150.400000 0 0 1
21.519756 -28.513557 2.967289 35.845888 -0.924281 1.487922 0.042728 0.024327 472830.000000 0 0 1
21.105756 -30.041737 3.108989 36.845960 -0.958362 1.486318 0.049920 0.013925 -61023.700000 0 0 1
20.755256 -30.394137 4.465789 37.074621 -0.971659 1.450049 0.080996 0.005387 42671.500000 0 0 1
20.386856 -31.773717 4.588489 38.029558 -1.000330 1.449846 0.069578 -0.012127 -119872.000000 0 0 1
20.041356 -32.279787 5.994489 38.465238 -1.015177 1.414317 0.084717 -0.021726 -285382.000000 0 0 1
21.100356 -32.909167 6.675789 39.658599 -1.000654 1.401660 0.068785 -0.030081 -169512.000000 0 0 1
20.754256 -33.492787 7.950089 40.195894 -1.016044 1.371700 0.060214 -0.025606 234359.000000 0 0 1
21.945856 33.912709 8.622289 41.304192 0.996443 1.360499 0.070487 -0.029630 256958.000000 0 0 1
22.868856 -33.353997 9.214089 41.477381 -0.969773 1.346780 0.078197 -0.031017 -750969.000000 0 0 1
23.846756 34.017686 9.799889 42.683821 0.959392 1.339137 0.100715 -0.033624 -1101030.000000 0 0 1
24.929356 -33.318417 10.474589 42.910450 -0.928438 1.324201 0.103652 -0.032246 -161406.000000 0 0 1
25.828856 -32.674747 9.546289 42.730558 -0.901885 1.345488 0.087508 -0.021689 139721.000000 0 0 1
26.715756 -31.840417 10.214489 42.800463 -0.872693 1.329817 0.072343 -0.018213 -287629.000000 0 0 1
27.501356 -30.935097 9.284889 42.420679 -0.844091 1.350133 0.067162 -0.019780 -589156.000000 0 0 1
26.656256 -29.899557 8.883089 41.029853 -0.842682 1.352565 0.046998 -0.021155 -42294.700000 0 0 1
27.223856 -29.081117 7.912189 40.613452 -0.818372 1.374726 0.056866 -0.021744 -133606.000000 0 0 1
26.754856 -27.636097 8.049389 39.298459 -0.801599 1.364509 0.049160 -0.024214 -90576.600000 0 0 1
27.205556 -27.079177 9.263389 39.487144 -0.783070 1.333997 0.048200 -0.028496 -36212.800000 0 0 1
26.736856 -25.760757 9.403689 38.300202 -0.766807 1.322734 0.050659 -0.025884 -669978.000000 0 0 1
27.423256 -24.930237 10.453689 38.507549 -0.737815 1.295875 0.056357 -0.029004 -250709.000000 0 0 1
28.788956 -24.754137 10.152889 39.302067 -0.710184 1.309504 0.043472 -0.030650 -485724.000000 0 0 1
29.404356 -23.910937 11.078289 39.485157 -0.682724 1.286410 0.031199 -0.035649 -351145.000000 0 0 1
30.879156 -23.591337 10.839089 40.343021 -0.652394 1.298781 0.034381 -0.035505 -71557.000000 0 0 1
30.955356 -22.781937 9.647289 39.627275 -0.634455 1.324874 0.039575 -0.030961 59927.000000 0 0 1
32.255056 -22.802037 9.072189 40.529325 -0.615361 1.345041 0.046774 -0.038754 457737.000000 0 0 1
32.236156 -22.094637 7.663189 39.825460 -0.600859 1.377169 0.056561 -0.025099 -9137.430000 0 0 1
31.835256 -20.691937 7.629089 38.727804 -0.576354 1.372507 0.062382 -0.014267 61021.700000 0 0 1
32.093156 -20.257137 6.351189 38.479344 -0.563044 1.404983 0.061491 -0.016040 -2858.680000 0 0 1
31.698956 -18.756237 6.188789 37.348646 -0.534293 1.404325 0.075952 -0.012963 204252.000000 0 0 1
32.407156 -17.867237 7.032389 37.668507 -0.503868 1.383003 0.075020 -0.009706 383887.000000 0 0 1
31.856156 -16.524037 6.863489 36.537186 -0.478502 1.381824 0.078440 -0.007405 271051.000000 0 0 1
32.175356 -15.660737 8.138689 36.698100 -0.452976 1.347163 0.072083 -0.041231 124407.000000 0 0 1
33.557456 -15.413637 8.310189 37.851583 -0.430578 1.349447 0.078166 -0.029148 -10169.700000 0 0 1
33.763956 -14.732337 9.511289 38.046171 -0.411431 1.318123 0.071806 -0.033870 681279.000000 0 0 1
35.263256 -14.676037 9.967589 39.474500 -0.394381 1.315526 0.053974 -0.034277 1010820.000000 0 0 1
36.094756 -13.887237 9.098289 39.729909 -0.367286 1.339742 0.083067 -0.026923 292094.000000 0 0 1
-36.234405 -14.442037 8.989089 40.028843 0.379275 1.344299 0.084106 -0.036527 361819.000000 0 0 1
-35.198405 -13.591037 8.218589 38.615919 0.368490 1.356327 0.084189 -0.036774 -509521.000000 0 0 1
-35.564605 -13.269637 6.929889 38.586886 0.357116 1.390225 0.101044 -0.041147 20218.500000 0 0 1
-34.564205 -12.717337 6.065189 37.325614 0.352561 1.407579 0.109441 -0.032961 220791.000000 0 0 1
-33.476405 -13.696337 5.616989 36.603414 0.388356 1.416732 0.096885 -0.025684 -450453.000000 0 0 1
-32.552905 -14.181037 6.534789 36.103973 0.410840 1.388794 0.093018 -0.024832 -79698.700000 0 0 1
-31.612705 -15.066037 5.975089 35.525347 0.444738 1.401801 0.085336 -0.012390 210578.000000 0 0 1
-30.736705 -15.777737 7.051489 35.261956 0.474246 1.369465 0.059595 -0.016907 80917.800000 0 0 1
-31.384205 -16.924137 7.610689 36.459804 0.494557 1.360508 0.082524 -0.027465 31367.600000 0 0 1
-31.019805 -17.041937 8.944089 36.505515 0.502374 1.323270 0.035845 -0.023935 -17671.400000 0 0 1
-32.146705 -17.620137 9.833089 37.954835 0.501396 1.308734 0.021040 -0.026629 -1202760.000000 0 0 1
-33.216405 -16.737337 10.069689 38.533967 0.466753 1.306407 0.044627 -0.025430 113336.000000 0 0 1
-34.230405 -17.308937 10.886089 39.872633 0.468165 1.294264 0.047920 -0.029587 572027.000000 0 0 1
-35.023005 -18.566837 10.265689 40.947804 0.487462 1.317391 0.062701 -0.036571 -819229.000000 0 0 1
-34.406405 -19.880537 10.230989 41.033030 0.523947 1.318802 0.062279 -0.031971 -370016.000000 0 0 1
-33.924705 -20.413737 11.407389 41.203577 0.541695 1.290277 0.059643 -0.030940 -300262.000000 0 0 1
-34.953705 -20.930537 12.489289 42.612571 0.539542 1.273340 0.064983 -0.030267 626593.000000 0 0 1
-35.645405 -22.155437 12.232789 43.716123 0.556115 1.287186 0.055786 -0.028821 385080.000000 0 0 1
36.780256 -21.970137 11.485589 44.355303 -0.538458 1.308866 0.062091 -0.033227 50755.900000 0 0 1
36.045756 -23.308237 11.166589 44.353841 -0.574002 1.316296 0.063202 -0.021093 232223.000000 0 0 1
35.391256 -23.871337 12.310289 44.428876 -0.593405 1.290044 0.121610 -0.012002 78759.000000 0 0 1
34.960956 -25.189627 11.962989 44.720229 -0.624357 1.299991 0.054281 0.000613 35957.400000 0 0 1
34.373956 -25.884137 13.211489 45.012230 -0.645429 1.272901 0.053894 -0.021223 514522.000000 0 0 1
33.107056 -25.352517 13.608989 43.863788 -0.653520 1.255334 0.049636 -0.016214 323231.000000 0 0 1
32.978056 -25.463867 15.019089 44.289206 -0.657524 1.224821 0.046970 -0.001024 -232509.000000 0 0 1
32.670956 -24.102337 15.727989 43.539450 -0.635602 1.201204 0.046759 -0.007689 -150219.000000 0 0 1
33.732356 -23.155637 15.823189 43.868311 -0.601575 1.201781 0.056086 -0.007877 63092.700000 0 0 1
34.003956 -22.384437 14.656689 43.268356 -0.582180 1.225220 0.058540 -0.011510 -136095.000000 0 0 1
35.308856 -21.586837 14.838989 43.964787 -0.548739 1.226515 0.059611 -0.020436 -147804.000000 0 0 1
35.274256 -20.347437 15.592189 43.605134 -0.523212 1.205124 0.074776 -0.009139 4880.570000 0 0 1
34.759356 -20.396737 16.910689 43.705962 -0.530656 1.173508 0.064665 -0.010929 -92407.300000 0 0 1
34.870356 -19.050337 17.659789 43.482471 -0.500013 1.152575 0.058230 -0.003183 77276.400000 0 0 1
34.333656 -17.851837 16.971489 42.255408 -0.479481 1.157489 0.051107 -0.006426 383220.000000 0 0 1
34.272456 -16.707737 17.844989 42.097427 -0.453596 1.133052 0.043780 -0.003820 238584.000000 0 0 1
35.581156 -15.974437 18.278689 43.073331 -0.421987 1.132539 0.052951 -0.008967 187830.000000 0 0 1
36.216656 -16.439537 19.457589 44.277560 -0.426111 1.115815 0.065230 0.001361 160098.000000 0 0 1
-36.326805 -15.595737 19.769589 44.200683 0.405522 1.107087 0.050606 0.001591 -241750.000000 0 0 1
-35.945805 -15.612837 21.278789 44.594264 0.409758 1.073371 0.050965 0.008028 -155486.000000 0 0 1
-35.048205 -16.650837 21.585289 44.402159 0.443517 1.063139 0.061835 0.003246 89872.900000 0 0 1
-34.679405 -16.696537 22.981989 44.828644 0.448701 1.032513 0.062315 0.003410 61199.400000 0 0 1
-33.704705 -17.846137 23.301189 44.692697 0.486956 1.022347 0.061809 -0.001173 -639831.000000 0 0 1
-34.278705 -19.141837 23.100789 45.553112 0.509283 1.038959 0.061858 -0.001490 30431.400000 0 0 1
-33.578005 -20.225737 23.662789 45.787448 0.542146 1.027692 0.052094 0.002125 -597358.000000 0 0 1
-32.308105 -20.612237 22.902889 44.645496 0.567886 1.032127 0.051498 0.003759 -462279.000000 0 0 1
-31.246705 -19.684237 22.991389 43.502066 0.562160 1.013949 0.054934 0.011423 -531238.000000 0 0 1
-30.094105 -20.299537 22.468389 42.691391 0.593430 1.016556 0.055995 0.007824 -429702.000000 0 0 1
-28.931505 -19.302037 22.587489 41.470414 0.588346 0.994807 0.061247 0.013677 -157569.000000 0 0 1
-28.343005 -19.102237 23.885789 41.698349 0.593039 0.960850 0.048768 0.014545 411193.000000 0 0 1
-27.254305 -18.209037 23.826489 40.522435 0.589005 0.942234 0.071162 0.010036 56906.200000 0 0 1
-26.623805 -17.719237 25.153189 40.687606 0.587223 0.904342 0.062007 0.002005 -579225.000000 0 0 1
-25.629705 -16.735037 24.994689 39.518068 0.578450 0.886036 0.064238 0.000094 102113.000000 0 0 1
-25.079305 -16.308337 26.238089 39.791591 0.576566 0.850792 0.059602 -0.002060 462541.000000 0 0 1
-23.988105 -17.171037 26.907689 39.928654 0.621261 0.831329 0.053524 0.001672 -603726.000000 0 0 1
-24.603405 -18.390737 27.289889 41.088743 0.641891 0.844414 0.057575 0.003063 -303768.000000 0 0 1
-23.720205 -19.174837 28.017489 41.416207 0.679827 0.827816 0.045051 0.005520 -452914.000000 0 0 1
-24.381605 -20.392037 28.692589 42.820118 0.696528 0.836490 0.042181 0.009536 573155.000000 0 0 1
-25.437205 -20.156237 29.642289 43.954415 0.670085 0.830662 0.043548 0.002859 751817.000000 0 0 1
-26.041705 -21.355937 30.110889 45.176455 0.686858 0.841269 0.034202 -0.000408 38081.200000 0 0 1
-27.214105 -21.150737 31.110489 46.430849 0.660682 0.836535 0.044908 -0.005262 -546330.000000 0 0 1
-26.866305 -20.642737 32.406089 46.883638 0.655142 0.807645 0.054455 -0.011506 -102626.000000 0 0 1
-27.864605 -20.664737 33.392189 48.150865 0.638111 0.804473 0.064144 -0.020779 244946.000000 0 0 1
-29.064605 -19.667637 33.206889 48.314228 0.594908 0.813016 0.053587 -0.025686 642789.000000 0 0 1
-29.964905 -20.056637 32.142789 48.304483 0.589849 0.842739 0.060836 -0.025532 566355.000000 0 0 1
-31.247705 -19.497437 32.341389 49.015656 0.557854 0.850220 0.070599 -0.034552 206519.000000 0 0 1
-32.367705 -19.918537 31.358089 49.272164 0.551654 0.880940 0.073854 -0.006999 -155543.000000 0 0 1
-32.387505 -19.346637 30.016689 48.210418 0.538468 0.898712 0.062253 -0.022839 141442.000000 0 0 1
-33.476205 -19.890037 29.306789 48.735590 0.536110 0.925616 0.073354 -0.021733 -19057.100000 0 0 1
-34.072105 -19.090337 28.144389 48.139962 0.510711 0.946364 0.069251 -0.014784 243070.000000 0 0 1
-35.222005 -19.675637 27.541089 48.849073 0.509435 0.971817 0.061914 -0.016975 401701.000000 0 0 1
-35.866805 -18.787837 26.636089 48.465366 0.482523 0.988923 0.073303 -0.006170 290697.000000 0 0 1
36.563756 -19.368637 25.827989 48.776402 -0.487142 1.012764 0.062391 -0.002546 -129694.000000 0 0 1
35.404756 -19.469837 26.585589 48.366981 -0.502783 0.988834 0.073544 -0.007978 -581468.000000 0 0 1
34.339256 -20.016337 25.837889 47.407118 -0.527751 0.994382 0.099466 -0.014760 181823.000000 0 0 1
33.151656 -20.497637 26.720289 47.256315 -0.553766 0.969838 0.084464 -0.017942 -165826.000000 0 0 1
32.574756 -19.421937 27.352489 46.759866 -0.537640 0.945970 0.073243 -0.010364 -623836.000000 0 0 1
31.517356 -19.891037 28.121189 46.688311 -0.562984 0.924395 0.052071 -0.002552 -421923.000000 0 0 1
-30.212534 -5.772537 33.920413 45.789887 0.188789 0.736560 0.060316 -0.022566 -14391.700000 0 0 1
-31.195364 -5.556537 32.951372 45.714535 0.176272 0.765830 0.065986 -0.017554 208680.000000 0 0 1
-30.720414 -4.527237 32.148522 44.696389 0.146316 0.768053 0.076557 -0.019641 326675.000000 0 0 1
-31.419134 -4.535137 30.720170 44.175313 0.143353 0.801799 0.071702 -0.022921 236890.000000 0 0 1
-31.117734 -5.606937 29.800740 43.449225 0.178272 0.814991 0.068888 -0.023555 202729.000000 0 0 1
-29.774734 -5.500837 29.346000 42.166120 0.182689 0.801038 0.057474 -0.024152 308514.000000 0 0 1
-29.407534 -6.450837 28.187050 41.242286 0.215940 0.818318 0.052072 -0.025972 -86585.000000 0 0 1
-30.007064 -6.060637 26.995040 40.815284 0.199293 0.848119 0.067490 -0.028901 -399902.000000 0 0 1
-29.416734 -6.810737 26.014650 39.855895 0.227517 0.859630 0.088245 -0.025775 -222295.000000 0 0 1
-29.999774 -6.659037 24.593180 39.359290 0.218428 0.895872 0.080141 -0.028192 -229490.000000 0 0 1
-29.756924 -5.394737 24.003650 38.610269 0.179346 0.899897 0.092199 -0.025599 404773.000000 0 0 1
-30.419804 -5.086337 22.717290 38.305490 0.165672 0.935948 0.102418 -0.026383 469462.000000 0 0 1
-29.980504 -3.675337 22.208390 37.490683 0.121982 0.936798 0.106501 -0.030664 908214.000000 0 0 1
-28.690014 -3.707837 21.577290 36.089394 0.128526 0.929937 0.125697 -0.028880 423973.000000 0 0 1
-28.350964 -2.490237 20.971990 35.352550 0.087611 0.935738 0.138274 -0.027974 518797.000000 0 0 1
-26.885184 -2.545737 20.438690 33.867889 0.094408 0.922935 0.139101 -0.024444 141165.000000 0 0 1
-26.759534 -3.288637 19.301690 33.157850 0.122283 0.949469 0.156152 -0.031991 112639.000000 0 0 1
-25.684584 -2.833837 18.481590 31.769445 0.109888 0.949929 0.126605 -0.027277 -227763.000000 0 0 1
-25.545854 -3.707037 17.198490 31.018072 0.144107 0.983074 0.132230 -0.040150 118378.000000 0 0 1
-26.666354 -3.738037 16.327390 31.490491 0.139271 1.025716 0.147381 -0.035102 245096.000000 0 0 1
-26.355844 -4.390937 15.145390 30.713086 0.165086 1.055118 0.154798 -0.038070 449858.000000 0 0 1
-27.620724 -4.366037 14.227990 31.375187 0.156774 1.100131 0.164683 -0.041905 570959.000000 0 0 1
-28.002264 -3.069437 13.861490 31.395686 0.109178 1.113516 0.165597 -0.046081 20341.900000 0 0 1
-29.167144 -3.144737 13.060390 32.112076 0.107403 1.151943 0.146741 -0.044344 -29214.400000 0 0 1
-29.666384 -1.830037 12.383090 32.199135 0.061609 1.176045 0.142311 -0.029172 33387.200000 0 0 1
-28.832984 -1.304437 11.319790 31.002905 0.045210 1.197034 0.135877 -0.030515 203612.000000 0 0 1
-29.278744 -0.184437 10.577990 31.131539 0.006299 1.224109 0.135325 -0.020215 -744666.000000 0 0 1
-30.493344 -0.499637 9.683190 31.997778 0.016384 1.263355 0.137255 -0.010934 87029.900000 0 0 1
-30.199204 -1.334637 8.594090 31.426606 0.044166 1.293802 0.113132 -0.016559 131151.000000 0 0 1
-31.391464 -1.875737 8.037890 32.458436 0.059682 1.320556 0.107438 -0.012695 258666.000000 0 0 1
-31.172614 -2.638237 6.689690 31.991313 0.084432 1.360132 0.120950 -0.020078 -290724.000000 0 0 1
-30.738414 -1.971537 5.506790 31.289963 0.064051 1.393883 0.145232 -0.033299 724581.000000 0 0 1
-31.716794 -1.098037 4.905290 32.112654 0.034606 1.417443 0.151416 -0.023801 109396.000000 0 0 1
-31.380134 -0.518237 3.519690 31.581158 0.016513 1.459115 0.136495 -0.023503 -229969.000000 0 0 1
-31.662704 -1.457237 2.491390 31.793983 0.045991 1.492355 0.158516 -0.044622 428713.000000 0 0 1
-31.240184 -0.938437 1.195990 31.277150 0.030030 1.532549 0.151629 -0.052176 -219634.000000 0 0 1
-32.111914 -1.370737 0.006490 32.141157 0.042660 1.570594 0.152783 -0.052326 315572.000000 0 0 1
-33.405674 -0.775037 0.065090 33.414726 0.023197 1.568848 0.143362 -0.043016 327825.000000 0 0 1
-34.254213 -1.249537 -0.923510 34.289434 0.036462 1.597732 0.149133 -0.047557 -724932.000000 0 0 1
-35.738932 -0.921437 -0.856610 35.761069 0.025777 1.594752 0.147860 -0.038076 -37116.000000 0 0 1
-36.565904 -1.862837 -0.141010 36.613595 0.050901 1.574648 0.148925 -0.035321 1234060.000000 0 0 1
35.657988 -1.610237 -0.323610 35.695793 -0.045127 1.579862 0.141682 -0.030668 494767.000000 0 0 1
34.780348 -2.742537 0.154590 34.888651 -0.078690 1.566365 0.135136 -0.027051 -756589.000000 0 0 1
34.757438 -2.964037 1.565790 34.918715 -0.085072 1.525940 0.132774 -0.029459 614963.000000 0 0 1
33.813418 -4.019637 1.833990 34.100854 -0.118322 1.516989 0.132261 -0.023160 327558.000000 0 0 1
33.675638 -4.439537 3.290290 34.126003 -0.131076 1.474230 0.137858 -0.028084 99336.600000 0 0 1
33.185848 -3.408537 4.106790 33.612265 -0.102352 1.448309 0.137876 -0.032998 141526.000000 0 0 1
33.343768 -3.860137 5.441790 34.004714 -0.115255 1.410075 0.140253 -0.034547 -68766.000000 0 0 1
32.975368 -2.823537 6.507190 33.729672 -0.085417 1.376657 0.148400 -0.033823 -469416.000000 0 0 1
31.605278 -2.643037 6.704990 32.416602 -0.083432 1.362454 0.152233 -0.033413 -462477.000000 0 0 1
31.383398 -1.600337 7.539490 32.315981 -0.050949 1.335321 0.157364 -0.033589 380544.000000 0 0 1
29.927828 -1.619037 8.099490 31.046705 -0.054045 1.306862 0.151174 -0.029273 629153.000000 0 0 1
28.876958 -1.045437 7.283090 29.799581 -0.036187 1.323893 0.153665 -0.031796 952259.000000 0 0 1
27.625318 -1.063937 7.958790 28.768602 -0.038494 1.290492 0.143966 -0.021138 357682.000000 0 0 1
26.758418 -2.262137 7.489590 27.878740 -0.084339 1.298806 0.161200 -0.034935 -652729.000000 0 0 1
27.329918 -3.463237 7.895190 28.657502 -0.126048 1.291685 0.143887 -0.038306 393181.000000 0 0 1
26.502718 -4.561537 7.559790 27.934783 -0.170446 1.296756 0.150684 -0.053959 -205646.000000 0 0 1
26.545618 -5.752337 8.571690 28.482154 -0.213397 1.265108 0.142717 -0.037851 -238289.000000 0 0 1
26.156118 -5.382537 9.890590 28.476973 -0.202952 1.216086 0.142983 -0.035776 496082.000000 0 0 1
26.489818 -6.421337 10.786390 29.313652 -0.237820 1.193977 0.134713 -0.032502 -71987.000000 0 0 1
25.731118 -6.264937 12.149790 29.136871 -0.238830 1.140665 0.131588 -0.035601 1601440.000000 0 0 1
24.344318 -6.636937 11.914990 27.904511 -0.266159 1.129633 0.152790 -0.047526 1396710.000000 0 0 1
23.417218 -6.327937 12.964490 27.504306 -0.263922 1.079962 0.151567 -0.052228 351264.000000 0 0 1
22.217118 -7.249837 12.946090 26.716319 -0.315423 1.064918 0.134856 -0.061372 -155475.000000 0 0 1
22.671718 -8.478537 13.529290 27.729660 -0.357867 1.061114 0.119794 -0.055550 120277.000000 0 0 1
21.649018 -9.410437 13.436890 27.162222 -0.410043 1.053318 0.158911 -0.082577 -324243.000000 0 0 1
22.049818 -10.712337 14.128990 28.294469 -0.452243 1.047942 0.139395 -0.071577 -80386.300000 0 0 1
22.325018 -10.436837 15.530590 29.129593 -0.437307 1.008471 0.122553 -0.064214 382190.000000 0 0 1
22.616118 -11.652837 16.209290 30.166513 -0.475769 1.003532 0.103527 -0.057430 -294496.000000 0 0 1
22.621918 -11.429137 17.736590 30.934818 -0.467818 0.960203 0.106224 -0.050898 796955.000000 0 0 1
21.325518 -11.691437 18.314490 30.444835 -0.501489 0.925340 0.103548 -0.045739 895211.000000 0 0 1
21.475718 -12.195237 19.653990 31.562788 -0.516453 0.898614 0.142538 -0.027849 110592.000000 0 0 1
21.787318 -11.096537 20.704290 32.038851 -0.471069 0.868170 0.099838 -0.028727 300940.000000 0 0 1
20.672618 -10.234037 20.994090 31.190455 -0.459682 0.832413 0.090653 -0.032512 548108.000000 0 0 1
20.610018 -9.021337 20.208590 30.241436 -0.412592 0.838953 0.094442 -0.021401 -1298100.000000 0 0 1
21.417318 -7.867337 20.895790 30.939142 -0.352034 0.829312 0.080153 -0.006638 669533.000000 0 0 1
22.822818 -8.062737 21.009690 32.051456 -0.339590 0.855953 0.097038 -0.021301 327358.000000 0 0 1
23.428918 -7.982837 19.726390 31.650756 -0.328389 0.897902 0.098305 -0.034001 -994176.000000 0 0 1
24.884618 -8.516537 19.711490 32.868198 -0.329746 0.927654 0.099719 -0.026480 159355.000000 0 0 1
24.886718 -9.827537 20.200290 33.525825 -0.376094 0.924130 0.081178 -0.026975 117500.000000 0 0 1
26.166718 -10.427937 20.085390 34.595692 -0.379229 0.951362 0.072818 -0.034882 266665.000000 0 0 1
26.117618 -11.917637 20.404090 35.220547 -0.428086 0.952898 0.036184 -0.029657 65868.800000 0 0 1
25.258018 -12.646437 19.534790 34.343964 -0.464199 0.965752 0.075096 -0.043983 162827.000000 0 0 1
25.185518 -14.010837 19.844190 34.991510 -0.507671 0.967798 0.044721 -0.037424 79191.500000 0 0 1
24.217218 -14.854837 18.936590 34.142851 -0.550214 0.982880 0.076644 -0.033444 72530.900000 0 0 1
24.587618 -14.884237 17.570090 33.686786 -0.544348 1.022104 0.067636 -0.034981 118366.000000 0 0 1
23.596718 -15.361737 16.678690 32.725628 -0.577086 1.036016 0.057645 -0.025759 -140552.000000 0 0 1
23.267218 -16.916737 16.717990 33.272070 -0.628659 1.044351 0.054147 -0.020781 287432.000000 0 0 1
24.266018 -17.755637 16.121390 34.117466 -0.631691 1.078642 0.066510 -0.020376 322793.000000 0 0 1
23.959218 -19.079837 16.368090 34.727492 -0.672509 1.079999 0.055970 -0.006089 60998.800000 0 0 1
25.117218 -20.076137 16.093190 35.957151 -0.674313 1.106755 0.040778 -0.000891 -33795.200000 0 0 1
25.515118 -20.083437 14.778990 35.676102 -0.666837 1.143673 0.051406 -0.018632 57791.000000 0 0 1
26.560018 -21.022837 14.586690 36.880425 -0.669550 1.164170 0.038869 -0.018947 72943.500000 0 0 1
27.199918 -20.914237 13.204490 36.764105 -0.655493 1.203420 0.041770 -0.031338 -240423.000000 0 0 1
26.335118 -21.388337 12.174690 36.044729 -0.682112 1.226254 0.040850 -0.027932 108914.000000 0 0 1
26.904018 -21.183737 10.927290 35.944159 -0.666999 1.261900 0.052773 -0.032791 -827211.000000 0 0 1
25.950018 -21.174537 9.719790 34.874615 -0.684406 1.288349 0.032468 -0.032006 -71078.500000 0 0 1
25.171418 -22.319837 9.438690 34.940868 -0.725426 1.297265 0.023435 -0.029112 173539.000000 0 0 1
23.973818 -22.443037 10.196490 34.386077 -0.752431 1.269740 0.024512 -0.017949 -360280.000000 0 0 1
23.027918 -23.386837 9.476990 34.162004 -0.793131 1.289696 0.033961 -0.018055 -397351.000000 0 0 1
23.667618 -24.672237 9.266490 35.422355 -0.806178 1.306117 0.033554 -0.016215 112070.000000 0 0 1
23.287418 -25.331827 8.099490 35.349781 -0.827423 1.339618 0.041540 -0.006125 97672.900000 0 0 1
21.865618 -25.973007 8.062590 34.895669 -0.871047 1.337641 0.050523 0.004097 971821.000000 0 0 1
20.796918 -25.012937 8.025690 33.504783 -0.877173 1.328906 0.033889 0.005376 -80076.600000 0 0 1
19.574018 -25.675547 7.815490 33.218335 -0.919431 1.333293 0.059691 -0.015954 -164044.000000 0 0 1
18.358018 -24.770037 7.618990 31.758787 -0.932991 1.328532 0.055029 -0.029504 -323474.000000 0 0 1
18.226118 -24.115537 6.376790 30.893591 -0.923604 1.362890 0.064802 -0.023117 491094.000000 0 0 1
17.153218 -23.156937 6.432190 29.527101 -0.933249 1.351195 0.079963 -0.022232 253178.000000 0 0 1
17.008918 -22.340837 5.127390 28.543063 -0.920079 1.390179 0.081380 -0.009465 -173744.000000 0 0 1
16.254918 -21.139137 5.258690 27.179759 -0.915278 1.376090 0.129057 -0.017394 134231.000000 0 0 1
16.077218 -20.401137 4.041890 26.287263 -0.903381 1.416425 0.123103 -0.012639 129562.000000 0 0 1
14.983118 -19.325337 4.134390 24.800316 -0.911293 1.403307 0.122587 -0.001202 58178.300000 0 1 0
15.561618 -18.192137 4.731590 24.402986 -0.863174 1.375667 0.093019 -0.005319 94552.200000 0 1 0
14.728318 -17.078037 4.664990 23.029217 -0.859140 1.366816 0.065978 0.008817 -191386.000000 0 1 0
15.475618 -15.692437 4.744090 22.544483 -0.792355 1.358779 0.040748 0.000934 -294466.000000 0 1 0
16.166918 -15.565037 5.959190 23.219637 -0.766433 1.311248 0.069173 -0.008857 -45347.900000 0 1 0
17.169918 -14.578537 5.915590 23.288066 -0.703956 1.313964 0.054782 -0.011059 762826.000000 0 1 0
18.617418 -15.099137 5.612190 24.618872 -0.681426 1.340811 0.067740 -0.023500 633849.000000 0 1 0
19.561018 -14.053437 5.503690 24.706742 -0.622996 1.346151 0.098106 -0.022639 488536.000000 0 1 0
20.931618 -14.407037 5.434390 25.985148 -0.602824 1.360107 0.113236 -0.024998 602032.000000 0 0 1
21.916418 -13.210037 5.464490 26.166679 -0.542436 1.360414 0.117753 -0.027182 -112520.000000 0 0 1
22.057818 -12.563837 6.736090 26.263515 -0.517756 1.311417 0.138668 -0.034789 -58643.400000 0 0 1
22.924618 -11.473037 6.685890 26.492826 -0.464022 1.315672 0.136001 -0.036869 -444015.000000 0 0 1
23.118718 -10.786637 8.047790 26.750581 -0.436553 1.265217 0.149243 -0.041550 -184342.000000 0 0 1
23.851918 -11.532937 8.988890 27.977183 -0.450379 1.243701 0.143376 -0.038408 208634.000000 0 0 1
23.968218 -10.931337 10.218390 28.255709 -0.427896 1.200770 0.163805 -0.053808 -28329.900000 0 0 1
24.570318 -11.808537 11.292690 29.507065 -0.448009 1.178067 0.129159 -0.046120 161292.000000 0 0 1
23.607118 -12.780237 11.738790 29.298970 -0.496195 1.158564 0.134814 -0.049471 852694.000000 0 0 1
24.093418 -13.731537 12.729290 30.513648 -0.518015 1.140470 0.115484 -0.045290 -424372.000000 0 0 1
23.011318 -14.752837 12.990990 30.264381 -0.570102 1.127134 0.099128 -0.044559 -747828.000000 0 0 1
21.927218 -14.263537 13.711990 29.534218 -0.576723 1.087981 0.102012 -0.058178 -406512.000000 0 0 1
20.922818 -15.262937 13.828590 29.359010 -0.630243 1.080353 0.090195 -0.052290 189276.000000 0 0 1
19.575518 -14.693237 14.328090 28.361704 -0.643880 1.041193 0.079283 -0.051865 -785454.000000 0 0 1
19.605118 -14.299837 15.700590 28.902500 -0.630182 0.996522 0.087254 -0.047110 -32748.300000 0 0 1
19.116718 -13.077137 16.090590 28.202261 -0.599953 0.963630 0.103607 -0.059674 -394531.000000 0 0 1
17.588018 -12.909137 15.991290 27.050056 -0.633165 0.938283 0.107308 -0.050453 -407771.000000 0 0 1
17.127118 -13.016737 14.617490 26.008549 -0.649875 0.973963 0.104814 -0.063772 1277800.000000 0 0 1
15.668918 -13.097437 14.634190 25.124040 -0.696243 0.949023 0.120811 -0.048253 1499150.000000 0 0 1
15.002818 -11.793537 14.143290 23.752994 -0.666200 0.932993 0.088857 -0.048710 -474453.000000 0 1 0
14.997718 -10.806537 15.177990 23.918281 -0.624382 0.883335 0.081955 -0.038592 -39171.400000 0 1 0
14.521218 -9.570837 14.811690 22.844099 -0.582741 0.865340 0.060079 -0.037622 -1095720.000000 0 1 0
14.931118 -8.357937 15.683590 23.211385 -0.510310 0.828902 0.064892 -0.037294 73952.600000 0 1 0
16.340218 -8.224837 15.738990 24.132270 -0.466323 0.860317 0.064520 -0.045832 178696.000000 0 1 0
16.893518 -8.983237 16.812990 25.470888 -0.488729 0.849862 0.089559 -0.040646 -1731050.000000 0 0 1
18.390418 -9.068537 16.694890 26.441732 -0.458122 0.887460 0.097381 -0.044458 -1356610.000000 0 0 1
18.954018 -7.821737 16.821190 26.521440 -0.391380 0.883760 0.075223 -0.031043 -492943.000000 0 0 1
20.277418 -7.819337 16.368490 27.207410 -0.368047 0.925270 0.066682 -0.030753 -387075.000000 0 0 1
21.107718 -6.519537 16.435990 27.535103 -0.299574 0.931152 0.062618 -0.013794 -12326.400000 0 0 1
21.424718 -6.081937 17.770090 28.491834 -0.276598 0.897341 0.089251 -0.020721 372890.000000 0 0 1
22.156418 -4.876137 17.820590 28.848865 -0.216625 0.904953 0.092751 -0.018334 -83482.900000 0 0 1
-5.573944 -33.103938 -6.322011 34.160026 1.403984 1.756940 0.065584 -0.022822 -261590.000000 0 0 1
-6.431844 -31.996238 -6.390911 33.256151 1.372421 1.764172 0.066075 -0.024818 -62366.700000 0 0 1
-6.186144 -31.085638 -5.345311 32.142769 1.374359 1.737872 0.081213 -0.029224 -591227.000000 0 0 1
-6.924344 -29.744338 -5.486911 31.028670 1.342075 1.748565 0.085313 -0.028110 230953.000000 0 0 1
-8.285244 -29.655238 -5.141011 31.217117 1.298358 1.736236 0.083356 -0.023337 -9080.050000 0 0 1
-9.183144 -30.238338 -6.068211 32.179347 1.275956 1.760507 0.075824 -0.022093 -570717.000000 0 0 1
-10.660444 -30.064338 -5.687611 32.401519 1.230040 1.747246 0.052310 -0.020723 -489379.000000 0 0 1
-11.502044 -30.635238 -6.608511 33.383937 1.211630 1.770067 0.047949 -0.022501 308305.000000 0 0 1
-12.888344 -30.338638 -6.308911 33.561060 1.169081 1.759905 0.048133 -0.016132 1227810.000000 0 0 1
-13.901144 -30.855738 -7.335911 34.628514 1.147510 1.784260 0.058183 -0.025063 -59999.300000 0 0 1
-13.873144 -30.161938 -8.538311 34.279868 1.139694 1.822523 0.073362 -0.034039 -298478.000000 0 0 1
-14.887544 -30.545338 -9.416611 35.260873 1.117286 1.841133 0.084282 -0.030567 -194310.000000 0 0 1
-15.038344 -29.532638 -10.609911 34.797970 1.099807 1.880630 0.105360 -0.029662 -535136.000000 0 0 1
-15.592644 -28.277238 -10.309011 33.897027 1.066863 1.879819 0.111856 -0.034589 -105819.000000 0 0 1
-14.718144 -27.392638 -9.659211 32.561952 1.077754 1.871970 0.103850 -0.028975 -365234.000000 0 0 1
-15.301044 -25.989738 -9.379011 31.584083 1.038702 1.872297 0.102243 -0.020972 -134292.000000 0 0 1
-15.614344 -25.168038 -10.468011 31.413646 1.015509 1.910525 0.114537 -0.029053 300795.000000 0 0 1
-16.066044 -23.889738 -10.000311 30.476935 0.978761 1.905117 0.086949 -0.015596 -71147.100000 0 0 1
-16.578744 -22.910338 -11.136011 30.393241 0.944383 1.945931 0.108105 -0.018414 769518.000000 0 0 1
-17.869044 -23.354438 -11.592411 31.608804 0.917686 1.946306 0.110718 -0.025019 360203.000000 0 0 1
-18.381344 -22.625738 -12.714911 31.803566 0.888535 1.982090 0.114714 -0.026032 -92130.200000 0 0 1
-19.774544 -23.122738 -13.158711 33.148835 0.863292 1.978997 0.098882 -0.013951 -108657.000000 0 0 1
-19.867744 -24.478838 -13.482611 34.288796 0.889004 1.974914 0.115139 -0.019058 -102135.000000 0 0 1
-19.762544 -25.372638 -12.403711 34.470001 0.909059 1.938894 0.123569 -0.024063 -1107370.000000 0 0 1
-19.900744 -26.974938 -12.599711 35.811166 0.935182 1.930330 0.120499 -0.026413 679568.000000 0 0 1
-18.882744 -27.704538 -13.299911 36.069198 0.972543 1.948442 0.120357 -0.024479 47350.200000 0 0 1
-17.529844 -27.470038 -13.014511 35.089541 1.002801 1.950768 0.121731 -0.031377 -556466.000000 0 0 1
-16.705544 -28.612938 -13.642211 35.831346 1.042340 1.961386 0.107385 -0.027719 -405040.000000 0 0 1
-16.793244 -28.754738 -15.037411 36.537265 1.042212 1.994965 0.094343 -0.022403 -2384.770000 0 0 1
-16.109844 -29.915038 -15.578311 37.378073 1.076810 2.000693 0.108546 -0.020901 246232.000000 0 0 1
-16.669044 -31.369338 -15.404411 38.719353 1.082361 1.979966 0.106465 -0.026994 -95523.100000 0 0 1
-16.607144 -31.723938 -14.061511 38.469879 1.088534 1.944988 0.107069 -0.024418 84982.800000 0 0 1
-17.001944 -33.077338 -13.865711 39.691741 1.096007 1.927658 0.074378 -0.015975 -706111.000000 0 0 1
-17.651144 -33.299438 -12.468111 39.697220 1.083381 1.890284 0.083438 -0.019544 1387720.000000 0 0 1
-19.057644 -32.935938 -12.339011 40.002762 1.046240 1.884364 0.092088 -0.018020 1287960.000000 0 0 1
-19.417544 -31.557438 -12.338711 39.053255 1.019197 1.892250 0.102942 -0.022902 -327873.000000 0 0 1
-18.706544 -30.601238 -11.337711 37.615346 1.022109 1.876969 0.109415 -0.028763 -428736.000000 0 0 1
-19.017644 -30.734738 -9.962511 37.490619 1.016692 1.839761 0.098758 -0.031779 12461.400000 0 0 1
-18.641444 -29.642438 -9.138711 36.189689 1.009414 1.826083 0.107069 -0.029887 -44413.900000 0 0 1
-19.033644 -29.874338 -7.680411 36.245612 1.003526 1.784314 0.113017 -0.037037 499422.000000 0 0 1
-18.113544 -30.793238 -7.073511 36.419206 1.039075 1.766263 0.097707 -0.037367 314753.000000 0 0 1
-18.450644 -31.099038 -5.740711 36.613279 1.035328 1.728239 0.116516 -0.041670 -303513.000000 0 0 1
-17.690444 -32.263138 -5.047711 37.139484 1.069246 1.707131 0.103442 -0.031492 960276.000000 0 0 1
-16.328344 -31.924838 -4.712611 36.166542 1.098021 1.701471 0.092381 -0.030140 883896.000000 0 0 1
-16.205344 -31.754138 -3.307611 35.803334 1.098913 1.663311 0.092472 -0.030128 -210165.000000 0 0 1
-14.909344 -31.086038 -2.827311 34.592253 1.123589 1.652620 0.094812 -0.027918 225347.000000 0 0 1
-13.739544 -31.877038 -3.047211 34.845460 1.163840 1.658357 0.061911 -0.022063 -275934.000000 0 0 1
-12.671744 -31.255438 -2.385911 33.810769 1.185622 1.641422 0.069177 -0.015146 -1375150.000000 0 0 1
-11.343644 -31.883338 -2.588211 33.940011 1.228976 1.647129 0.064728 -0.024482 -1834240.000000 0 0 1
-11.151144 -33.131338 -1.871311 35.007647 1.246132 1.624276 0.076628 -0.019396 358730.000000 0 0 1
-9.819744 -33.654138 -1.786311 35.102981 1.286894 1.621706 0.073951 -0.029003 1152650.000000 0 0 1
-8.799844 -32.772938 -0.969911 33.947657 1.308474 1.599371 0.083551 -0.024148 -97566.100000 0 0 1
-9.241644 -32.667438 0.331489 33.951132 1.295100 1.561032 0.087285 -0.025205 173436.000000 0 0 1
-8.200344 -32.155238 1.159189 33.204649 1.321095 1.535879 0.078239 -0.021014 853398.000000 0 0 1
-7.195144 -33.154938 1.810189 33.974944 1.357094 1.517491 0.086789 -0.019583 -22466.900000 0 0 1
-7.866244 34.063763 2.620989 35.058341 -1.343848 1.495966 0.102294 -0.031186 -97076.100000 0 0 1
-7.115044 32.948763 3.137389 33.853922 -1.358119 1.477989 0.092773 -0.025064 -114374.000000 0 0 1
-6.372544 33.203563 4.472089 34.104039 -1.381179 1.439287 0.104768 -0.029300 113997.000000 0 0 1
-5.232644 34.023463 4.351589 34.697448 -1.418197 1.445050 0.105389 -0.023617 -453935.000000 0 0 1
-4.723544 -33.806638 5.596289 34.590737 1.431973 1.408296 0.106915 -0.020665 584831.000000 0 0 1
-3.371644 -32.991438 5.577789 33.629075 1.468952 1.404164 0.104880 -0.012382 689165.000000 0 0 1
-3.398144 -31.721638 4.956989 32.285933 1.464079 1.416653 0.103607 -0.009962 -51482.800000 0 0 1
-3.593944 -31.750438 3.521789 32.146691 1.458083 1.461022 0.100458 -0.020670 -288608.000000 0 0 1
-4.010044 -30.413838 2.799989 30.804577 1.439703 1.479775 0.098674 -0.020192 32269.800000 0 0 1
-3.009344 -29.437738 2.919089 29.734789 1.468923 1.472467 0.091265 -0.023521 -29126.100000 0 0 1
-3.317144 -28.337238 2.066089 28.605441 1.454267 1.498506 0.090271 -0.027008 305917.000000 0 0 1
-2.995444 -26.975338 2.755289 27.280637 1.460206 1.469626 0.095606 -0.032388 110051.000000 0 0 1
-3.267044 -25.812138 1.920989 26.088891 1.444896 1.497097 0.096273 -0.036158 -251891.000000 0 0 1
-3.094344 -24.564438 2.517189 24.886197 1.445488 1.469475 0.074464 -0.035329 -499603.000000 0 1 0
-4.146844 -24.119338 3.522289 24.725398 1.400531 1.427854 0.055734 -0.025809 -632984.000000 0 1 0
-4.189044 -24.740638 4.827089 25.552848 1.403069 1.380748 0.079610 -0.027801 -268936.000000 0 0 1
-5.060344 -24.033638 5.658689 25.204039 1.363275 1.344351 0.056271 -0.014610 -204212.000000 0 0 1
-5.862944 -25.006338 6.540489 26.504133 1.340498 1.321448 0.068026 -0.006702 -286993.000000 0 0 1
-5.109144 -25.419038 7.646089 27.031343 1.372443 1.284022 0.076028 -0.016884 399578.000000 0 0 1
-5.873144 -26.380838 8.381389 28.296468 1.351740 1.270086 0.077997 -0.012613 283548.000000 0 0 1
-5.130244 -26.909438 9.615789 29.032751 1.382409 1.233216 0.063885 -0.009744 182046.000000 0 0 1
-4.646144 -25.939838 10.527689 28.377704 1.393563 1.190727 0.070299 -0.015037 261956.000000 0 0 1
-5.689844 -25.384038 11.304489 28.363977 1.350291 1.160860 0.064389 -0.017197 -41856.200000 0 0 1
-5.109644 -24.481238 12.347389 27.890814 1.365034 1.112184 0.066069 -0.016543 18100.400000 0 0 1
-4.498544 -25.182838 13.402889 28.879918 1.394026 1.088189 0.083495 -0.017538 -804492.000000 0 0 1
-3.619844 -24.341838 14.053589 28.339578 1.423169 1.051926 0.069602 -0.024282 -107576.000000 0 0 1
-2.594544 -25.164138 14.892589 29.355659 1.468055 1.038729 0.078313 -0.030579 91459.500000 0 0 1
-3.110144 -25.615838 16.104689 30.417185 1.449973 1.012832 0.066136 -0.026417 -530803.000000 0 0 1
-2.114944 -26.293838 16.781289 31.264206 1.490534 1.004207 0.069442 -0.021764 -202820.000000 0 0 1
-2.559344 -26.697938 18.202189 32.413729 1.475225 0.974529 0.072414 -0.028699 253022.000000 0 0 1
-2.998944 -25.608138 19.032789 32.047113 1.454218 0.934898 0.084733 -0.028631 5185.240000 0 0 1
-2.693744 -25.826238 20.391689 33.016235 1.466870 0.905076 0.078122 -0.030459 67416.100000 0 0 1
-3.117344 -24.684138 21.318289 32.764217 1.445172 0.862346 0.097311 -0.035792 -186359.000000 0 0 1
-2.692444 -24.846238 22.628189 33.713791 1.462853 0.834990 0.078742 -0.034041 -208848.000000 0 0 1
-2.779844 -23.742638 23.448089 33.485120 1.454245 0.795043 0.078719 -0.035126 -28916.000000 0 0 1
-1.775544 -22.587338 23.296689 32.497325 1.492350 0.771479 0.082717 -0.040929 -369285.000000 0 0 1
-2.136444 -21.692438 22.289589 31.176145 1.472625 0.774234 0.094555 -0.035446 -734462.000000 0 0 1
-1.141544 -20.920238 21.701089 30.164495 1.516284 0.767822 0.094616 -0.032471 -370747.000000 0 0 1
-1.748144 -19.741138 20.831889 28.753020 1.482473 0.760471 0.095538 -0.009671 -8899.900000 0 0 1
-2.527544 -18.711038 21.446589 28.573547 1.436526 0.721865 0.095658 -0.030628 912189.000000 0 0 1
-3.856444 -19.026738 21.872789 29.245646 1.370820 0.725905 0.117833 -0.037996 1066500.000000 0 0 1
-5.022044 -19.054738 20.793389 28.647321 1.313098 0.758541 0.109035 -0.049756 412094.000000 0 0 1
-4.974244 -20.028838 19.735489 28.554982 1.327367 0.807731 0.119620 -0.046626 -331021.000000 0 0 1
-5.344744 -21.330238 20.209889 29.866117 1.325280 0.827548 0.112209 -0.029149 105460.000000 0 0 1
-5.556944 -22.306038 18.984889 29.813838 1.326643 0.880480 0.092489 -0.022200 204949.000000 0 0 1
-6.212944 -23.550938 19.238089 31.037903 1.312864 0.902276 0.072555 -0.022138 -134666.000000 0 0 1
-6.030044 -24.443238 18.180789 31.054378 1.328930 0.945361 0.075565 -0.023455 403495.000000 0 0 1
-6.863044 -25.795338 18.282889 32.353746 1.310763 0.970250 0.061790 -0.025014 635240.000000 0 0 1
-8.261844 -25.591838 18.250889 32.500695 1.258527 0.974534 0.069863 -0.029759 -577105.000000 0 0 1
-8.867944 -26.855638 18.075689 33.564807 1.251861 1.002104 0.067498 -0.030135 91204.100000 0 0 1
-10.403844 -26.696438 18.147789 33.915808 1.199193 1.006190 0.080954 -0.031080 -804873.000000 0 0 1
-10.873144 -26.054338 16.993189 32.951817 1.175444 1.028974 0.081856 -0.031180 263405.000000 0 0 1
-12.292644 -25.898038 16.962989 33.310065 1.127629 1.036489 0.073182 -0.031005 940332.000000 0 0 1
-12.894144 -24.895438 18.040589 33.339235 1.092906 0.999026 0.071383 -0.026874 -775356.000000 0 0 1
-12.627344 -23.542238 17.757289 32.078156 1.078478 0.984160 0.066706 -0.023694 140947.000000 0 0 1
-13.059744 -22.598238 18.730589 32.125881 1.046778 0.948334 0.066772 -0.013281 -431741.000000 0 0 1
-11.912944 -22.089738 19.590489 31.838059 1.076207 0.908009 0.045066 -0.016941 272570.000000 0 0 1
-11.132844 -23.112738 20.272589 32.697350 1.121915 0.902045 0.054342 -0.019536 708186.000000 0 0 1
-9.734344 -22.869238 20.179589 32.015235 1.168373 0.888841 0.066154 -0.030754 236577.000000 0 0 1
-8.956344 -23.826538 21.054889 33.033746 1.211239 0.879709 0.063156 -0.025760 -330773.000000 0 0 1
-9.065544 -23.588938 22.418089 33.781545 1.203886 0.845150 0.058252 -0.022304 318236.000000 0 0 1
-8.139744 -24.418038 23.111289 34.592307 1.249031 0.839137 0.060724 -0.023040 218174.000000 0 0 1
-7.951344 -23.827338 24.541389 35.117598 1.248710 0.797030 0.062054 -0.026078 -55061.400000 0 0 1
-7.005244 -24.520538 25.331189 35.944393 1.292520 0.788750 0.074983 -0.030076 -22856.800000 0 0 1
-6.807344 -23.822038 26.544789 36.310539 1.292456 0.750938 0.080997 -0.028682 -512338.000000 0 0 1
-5.622544 -24.444738 27.272389 37.053224 1.344718 0.743605 0.076397 -0.025643 -51096.600000 0 0 1
-4.385944 -24.042538 26.675489 36.178196 1.390356 0.741678 0.075159 -0.022972 220952.000000 0 0 1
-3.335244 -24.395838 27.595089 36.983371 1.434925 0.728538 0.063711 -0.018516 1008690.000000 0 0 1
-1.994044 -23.716938 27.134089 36.093325 1.486917 0.720045 0.057025 -0.022553 104994.000000 0 0 1
-2.066144 -22.293338 27.160889 35.199087 1.478380 0.689387 0.068890 -0.022260 487648.000000 0 0 1
-0.897344 -21.566838 26.721789 34.350949 1.529213 0.679471 0.073868 -0.023768 1273660.000000 0 0 1
0.273556 -21.347238 27.744689 35.007816 -1.557982 0.655852 0.064324 -0.021777 519065.000000 0 0 1
0.712256 -22.594338 28.313189 36.230486 -1.539283 0.673771 0.073632 -0.027646 10967.200000 0 0 1
1.635256 -22.347338 29.359689 36.933304 -1.497752 0.651891 0.056700 -0.035415 -150867.000000 0 0 1
2.300956 -23.633438 29.837889 38.133101 -1.473742 0.672179 0.072978 -0.041810 -470187.000000 0 0 1
3.247156 -24.170338 28.912089 37.824042 -1.437251 0.700711 0.069291 -0.049492 414002.000000 0 0 1
3.934456 -25.286538 29.454089 39.018359 -1.416439 0.715329 0.060023 -0.035909 -660908.000000 0 0 1
4.997156 -25.146538 30.555289 39.886660 -1.374630 0.698119 0.048404 -0.035357 495981.000000 0 0 1
6.284156 -24.640538 30.139789 39.434168 -1.321086 0.700831 0.050646 -0.036630 1159330.000000 0 0 1
7.111056 -25.561638 29.430189 39.624493 -1.299464 0.733662 0.051048 -0.035825 16983.500000 0 0 1
8.376056 -24.991638 28.718489 38.980661 -1.247408 0.742565 0.045408 -0.027839 290802.000000 0 0 1
8.111656 -24.144338 27.618589 37.570394 -1.246679 0.744959 0.053414 -0.033366 125252.000000 0 0 1
9.200756 -24.185838 26.717189 37.194312 -1.207283 0.769421 0.032993 -0.017839 -35768.500000 0 0 1
9.273856 -22.993938 25.760189 35.753502 -1.187433 0.766282 0.050275 -0.009433 70801.700000 0 0 1
8.305256 -23.060838 24.729389 34.818418 -1.225112 0.780959 0.053039 -0.011372 130653.000000 0 0 1
8.139356 -21.892438 23.955389 33.457266 -1.214844 0.772741 0.035620 -0.007560 -267331.000000 0 0 1
7.353356 -21.983138 22.661189 32.416966 -1.247996 0.796724 0.040427 -0.001737 51774.000000 0 0 1
8.053256 -22.821738 21.722089 32.519776 -1.231561 0.839325 0.045588 -0.002192 594884.000000 0 0 1
7.373856 -22.907838 20.452489 31.582386 -1.259378 0.866377 0.056394 -0.014222 -81096.500000 0 0 1
8.048756 -23.883338 19.532889 31.886205 -1.245747 0.911474 0.066099 -0.024425 584227.000000 0 0 1
9.218056 -23.376038 18.864489 31.421023 -1.195181 0.926823 0.064207 -0.020158 301171.000000 0 0 1
9.890656 -24.370038 18.162489 31.962476 -1.185254 0.966426 0.067853 -0.027263 1010080.000000 0 0 1
11.358556 -24.023238 17.687589 31.921522 -1.129132 0.983520 0.067384 -0.023079 1222060.000000 0 0 1
11.298956 -23.361438 16.436589 30.717823 -1.120307 1.006190 0.073939 -0.006191 415827.000000 0 0 1
12.607656 -22.923938 16.052589 30.694390 -1.067970 1.020451 0.080033 -0.018317 529112.000000 0 0 1
-12.435044 22.588963 11.450789 28.213687 -1.067575 1.152877 0.017728 -0.020550 368082.000000 0 0 1
-13.570544 21.864363 10.976589 27.976696 -1.015317 1.167614 0.014285 -0.020080 615087.000000 0 0 1
-13.143644 20.565263 10.726189 26.659642 -1.002109 1.156727 0.036441 -0.025236 49279.200000 0 0 1
-14.031144 19.927363 9.657789 26.215371 -0.957314 1.193507 0.051454 -0.023702 -831800.000000 0 0 1
-14.054244 20.686963 8.481089 26.408352 -0.974046 1.243851 0.057226 -0.020589 158531.000000 0 0 1
-14.700744 19.983963 7.393789 25.887038 -0.936558 1.281146 0.050380 -0.017594 1268280.000000 0 0 1
-16.263844 19.756163 7.401389 26.638302 -0.882051 1.289244 0.043869 -0.018161 758672.000000 0 0 1
-16.710444 18.999263 8.525389 26.700059 -0.849406 1.245803 0.037005 -0.016313 -143399.000000 0 0 1
-18.110744 18.866863 8.549589 27.514596 -0.805843 1.254836 0.037634 -0.009143 -114989.000000 0 0 1
-18.726144 17.817063 9.534289 27.550297 -0.760526 1.217419 0.041080 -0.011389 25149.000000 0 0 1
-18.594844 16.551463 9.063589 26.492787 -0.727324 1.221629 0.043354 -0.016734 404302.000000 0 0 1
-19.126144 15.556763 10.017089 26.611357 -0.682845 1.184866 0.057174 -0.023541 -349541.000000 0 0 1
-18.188044 14.951063 11.048989 26.008063 -0.688028 1.132023 0.054551 -0.016584 -308768.000000 0 0 1
-17.224744 14.138463 10.404589 24.593564 -0.687309 1.133975 0.038965 -0.007172 119770.000000 0 1 0
-16.563744 13.138463 11.210589 23.930192 -0.670585 1.083238 0.027175 -0.011602 468507.000000 0 1 0
-17.438744 12.100563 12.010589 24.388268 -0.606613 1.055866 0.040654 -0.011508 -112525.000000 0 1 0
-18.182544 11.208263 11.267389 24.149205 -0.552413 1.085383 0.033799 -0.009537 -868876.000000 0 1 0
-19.170544 10.614763 12.012189 24.989510 -0.505681 1.069356 0.057450 -0.005874 -226835.000000 0 1 0
-20.203844 9.847063 11.092189 25.063850 -0.453505 1.112348 0.068460 -0.008880 280467.000000 0 0 1
-19.648744 8.817663 10.259489 23.855427 -0.421826 1.126227 0.060871 -0.009967 70033.100000 0 1 0
-18.938544 9.169963 9.123589 22.934614 -0.450924 1.161669 0.061285 -0.005370 -848523.000000 0 1 0
-19.757344 9.689463 7.920989 23.387612 -0.455957 1.225279 0.067922 -0.012756 -257557.000000 0 1 0
-20.422644 8.613963 7.292289 23.333714 -0.399144 1.252950 0.051431 -0.019535 217956.000000 0 1 0
-21.283144 9.001463 6.265089 23.942637 -0.400123 1.306043 0.065364 -0.018185 -142756.000000 0 1 0
-21.730144 7.914963 5.280389 23.721895 -0.349303 1.346320 0.080515 -0.015380 -68929.800000 0 1 0
-22.450644 6.847863 5.887989 24.199030 -0.296055 1.325014 0.086564 -0.012148 440160.000000 0 1 0
-22.273844 5.668163 5.137689 23.550966 -0.249187 1.350876 0.086536 0.000654 -257713.000000 0 1 0
-23.163244 4.471763 5.476989 24.218380 -0.190708 1.342673 0.089922 -0.008028 738346.000000 0 1 0
-24.567244 4.671663 5.248989 25.552412 -0.187915 1.363903 0.130208 -0.001700 1249510.000000 0 0 1
-25.352704 3.481863 5.357389 26.145450 -0.136483 1.364428 0.142512 -0.015187 564182.000000 0 0 1
-26.455684 3.420963 4.241689 27.011074 -0.128596 1.413108 0.144076 -0.015153 67774.000000 0 0 1
-25.847554 3.234663 2.997989 26.221118 -0.124497 1.456211 0.138891 -0.016278 164130.000000 0 0 1
-26.776064 3.031963 1.986889 27.020328 -0.112754 1.497197 0.136070 -0.022322 -438638.000000 0 0 1
-26.170074 2.903263 0.551489 26.336397 -0.110486 1.549855 0.143144 -0.031906 -190422.000000 0 0 1
-25.606454 4.099863 0.019689 25.932600 -0.158763 1.570037 0.138416 -0.034958 533005.000000 0 0 1
-25.599784 4.226263 -1.392011 25.983608 -0.163614 1.624395 0.142333 -0.036986 131469.000000 0 0 1
-26.937584 4.844763 -1.933411 27.437988 -0.177949 1.641320 0.155439 -0.050238 1074250.000000 0 0 1
-28.022104 3.906363 -1.869111 28.354744 -0.138510 1.636763 0.146386 -0.051387 315894.000000 0 0 1
-29.270184 4.545763 -1.705611 29.670132 -0.154073 1.628314 0.128878 -0.033000 109149.000000 0 0 1
-30.415934 3.491663 -1.689711 30.662287 -0.114297 1.625931 0.123752 -0.026503 -132961.000000 0 0 1
-30.794344 2.926663 -2.909911 31.069672 -0.094754 1.664591 0.130516 -0.037423 523392.000000 0 0 1
-31.755964 1.879463 -2.842011 31.938231 -0.059116 1.659899 0.148789 -0.041505 13579.500000 0 0 1
-31.941234 1.177863 -4.179611 32.235057 -0.036859 1.700823 0.142149 -0.058827 -620896.000000 0 0 1
-30.746894 0.716463 -4.745111 31.119140 -0.023298 1.723876 0.153703 -0.054070 -217181.000000 0 0 1
-30.801184 0.132163 -6.038311 31.387762 -0.004291 1.764381 0.144908 -0.052653 -395079.000000 0 0 1
-31.335534 0.900063 -7.259611 32.178063 -0.028715 1.798363 0.139001 -0.046814 478788.000000 0 0 1
-32.758294 1.046863 -7.221111 33.561081 -0.031946 1.787655 0.144446 -0.051738 864308.000000 0 0 1
-33.247384 1.751563 -8.339511 34.322062 -0.052634 1.816231 0.139922 -0.042338 -64127.100000 0 0 1
-34.754384 2.081063 -8.344411 35.802614 -0.059808 1.806027 0.156251 -0.036328 139570.000000 0 0 1
-35.162075 3.065063 -7.359811 36.054583 -0.086950 1.776371 0.133954 -0.031993 -1090380.000000 0 0 1
-36.516054 3.151363 -7.247711 37.361512 -0.086087 1.766023 0.126357 -0.019656 -1547580.000000 0 0 1
36.422338 4.112063 -6.260211 37.184486 0.112423 1.739957 0.148177 -0.036817 -312372.000000 0 0 1
35.037128 3.892063 -6.342411 35.818635 0.110630 1.748805 0.149661 -0.040376 254177.000000 0 0 1
34.360048 4.576363 -5.246611 35.058279 0.132409 1.721015 0.139919 -0.036043 -66106.100000 0 0 1
33.026638 4.017363 -4.766111 33.609728 0.121045 1.713083 0.145728 -0.041875 -484694.000000 0 0 1
33.111748 2.763463 -4.156111 33.485785 0.083266 1.695233 0.152931 -0.043520 478149.000000 0 0 1
31.849848 2.078763 -4.203211 32.193183 0.065175 1.701732 0.162885 -0.045050 550130.000000 0 0 1
31.810778 0.675663 -3.507111 32.010653 0.021237 1.680577 0.177241 -0.039937 136105.000000 0 0 1
32.747108 -0.191237 -4.140211 33.008347 -0.005840 1.696557 0.144394 -0.044073 246529.000000 0 0 1
32.737198 -1.454837 -3.578411 32.964309 -0.044411 1.679565 0.147096 -0.031193 223270.000000 0 0 1
33.955098 -2.352637 -3.942611 34.264088 -0.069176 1.686117 0.140867 -0.033797 127238.000000 0 0 1
33.867478 -3.653037 -3.375911 34.230798 -0.107447 1.669579 0.126299 -0.029968 -512290.000000 0 0 1
35.027588 -4.425137 -3.444811 35.473659 -0.125667 1.668059 0.144317 -0.028490 -539654.000000 0 0 1
34.944718 -5.899937 -3.008611 35.566758 -0.167259 1.655488 0.132274 -0.023423 -77000.000000 0 0 1
34.702398 -6.072637 -1.659511 35.268787 -0.173238 1.617867 0.144494 -0.015530 -17966.100000 0 0 1
34.557268 -7.484837 -1.309111 35.382783 -0.213298 1.607803 0.130899 -0.024710 46463.200000 0 0 1
34.214098 -7.761537 0.148689 35.083729 -0.223077 1.566558 0.119982 -0.014367 -12243.000000 0 0 1
32.893878 -7.399737 0.509489 33.719770 -0.221274 1.555686 0.098081 -0.024906 42904.000000 0 0 1
32.620718 -7.641737 1.882889 33.556708 -0.230111 1.514656 0.087782 -0.031163 -445395.000000 0 0 1
32.168658 -9.109837 2.201189 33.506073 -0.275964 1.505054 0.103125 -0.035607 -10737.500000 0 0 1
31.068128 -9.603637 1.448489 32.550830 -0.299798 1.526282 0.098581 -0.040951 -532325.000000 0 0 1
29.840898 -9.271037 1.972689 31.310107 -0.301228 1.507750 0.087554 -0.047123 -1381620.000000 0 0 1
28.742758 -10.406937 1.829989 30.623509 -0.347388 1.511003 0.113953 -0.039834 885525.000000 0 0 1
27.464818 -10.104737 2.412289 29.363942 -0.352545 1.488552 0.150664 -0.046554 1332760.000000 0 0 1
26.666318 -9.019137 1.933089 28.216558 -0.326144 1.502234 0.146596 -0.043019 -416839.000000 0 0 1
25.987418 -9.249637 0.559289 27.590115 -0.341946 1.550524 0.138507 -0.036582 -241263.000000 0 0 1
26.873618 -9.184237 -0.589111 28.405785 -0.329312 1.591537 0.124455 -0.042222 831363.000000 0 0 1
26.201918 -9.065937 -1.853411 27.787890 -0.333109 1.637544 0.104880 -0.039301 113210.000000 0 0 1
25.533418 -10.399237 -2.326311 27.667874 -0.386766 1.654976 0.093065 -0.026562 -13887.600000 0 0 1
24.362818 -10.832437 -1.679411 26.715333 -0.418379 1.633701 0.119014 -0.023007 -42315.700000 0 0 1
24.063918 -12.130737 -2.110011 27.031076 -0.466926 1.648935 0.098041 -0.014634 212402.000000 0 0 1
22.659018 -12.604837 -1.617011 25.979371 -0.507655 1.633079 0.116281 -0.011450 610004.000000 0 0 1
21.622518 -12.047237 -2.424611 24.870624 -0.508325 1.668440 0.097038 -0.013682 -1178660.000000 0 1 0
20.393418 -12.288237 -1.901911 23.885341 -0.542299 1.650507 0.117783 -0.015406 -1208590.000000 0 1 0
19.263618 -11.720737 -2.796311 22.721840 -0.546602 1.694176 0.107402 -0.016428 -25970.200000 0 1 0
19.020918 -12.370437 -4.060511 23.050180 -0.576628 1.747880 0.080842 -0.021059 547100.000000 0 1 0
17.823918 -11.913737 -4.680011 21.943830 -0.589211 1.785719 0.066991 -0.023466 238453.000000 0 1 0
17.687118 -12.189637 -6.174811 22.350608 -0.603428 1.850708 0.066795 -0.030861 -371628.000000 0 1 0
17.365918 -13.523337 -6.411111 22.925054 -0.661635 1.854231 0.077205 -0.025878 250933.000000 0 1 0
17.555518 -13.810037 -7.792311 23.656573 -0.666547 1.906457 0.070180 -0.029557 -380329.000000 0 1 0
17.061418 -15.179437 -8.286111 24.293352 -0.727092 1.918868 0.080970 -0.022930 -870268.000000 0 1 0
15.669618 -15.214437 -8.204811 23.330987 -0.770661 1.930151 0.089396 -0.018298 -301875.000000 0 1 0
15.086818 -16.312537 -8.895211 23.933987 -0.824415 1.951589 0.082443 -0.018430 -135503.000000 0 1 0
14.744118 -16.179537 -10.373611 24.223506 -0.831783 2.013347 0.079288 -0.023687 -19914.500000 0 1 0
13.573718 -15.420737 -10.703311 23.164754 -0.849015 2.051103 0.072518 -0.012165 670517.000000 0 1 0
13.622718 -14.037337 -10.431311 22.168390 -0.800387 2.060709 0.064686 -0.012242 -477276.000000 0 1 0
13.455118 -13.161737 -11.669911 22.146294 -0.774376 2.125800 0.065289 0.003770 -805994.000000 0 1 0
14.593118 -12.980237 -12.428711 23.149914 -0.726971 2.137530 0.070314 -0.007287 -463652.000000 0 1 0
14.302118 -12.298937 -13.635411 23.275284 -0.710235 2.196703 0.083739 -0.016266 474382.000000 0 1 0
15.597718 -11.869837 -14.404611 24.324363 -0.650503 2.204569 0.085436 -0.027440 679263.000000 0 1 0
16.528618 -12.889537 -14.688411 25.594624 -0.662322 2.182040 0.084014 -0.023552 140154.000000 0 0 1
17.526518 -12.456337 -15.597511 26.563537 -0.617880 2.198364 0.080294 -0.025056 -265795.000000 0 0 1
18.572518 -13.522737 -15.911611 27.946059 -0.629340 2.176534 0.071445 -0.018834 -583647.000000 0 0 1
19.466718 -13.708337 -14.831011 28.050499 -0.613535 2.127895 0.067489 -0.033878 -458972.000000 0 0 1
20.398818 -14.713437 -15.045711 29.308197 -0.624871 2.109894 0.062171 -0.028692 -1255940.000000 0 0 1
21.489318 -14.582137 -14.029711 29.517153 -0.596202 2.066109 0.055199 -0.030992 -1003120.000000 0 0 1
22.433518 -13.588337 -14.342711 29.893461 -0.544612 2.071217 0.059900 -0.024715 -346033.000000 0 0 1
23.334218 -13.468937 -13.279811 30.037499 -0.523500 2.028744 0.049342 -0.020311 -18928.600000 0 0 1
24.157218 -12.163437 -13.334711 30.155180 -0.466453 2.028850 0.066654 -0.015970 -295934.000000 0 0 1
23.413718 -11.078337 -12.843911 28.911897 -0.441943 2.031126 0.063912 -0.010857 250597.000000 0 0 1
24.034918 -9.825537 -13.032811 29.052928 -0.388072 2.035982 0.078895 -0.013237 392263.000000 0 0 1
25.074918 -9.367637 -11.936411 29.308395 -0.357530 1.990259 0.077676 -0.011266 600458.000000 0 0 1
26.231118 -10.187537 -11.851611 30.533885 -0.370446 1.969416 0.082341 -0.010214 310937.000000 0 0 1
27.179118 -9.571237 -10.989011 30.839445 -0.338593 1.935133 0.089019 -0.006283 -579774.000000 0 0 1
28.573238 -10.142737 -11.172911 32.313139 -0.341099 1.923856 0.106111 -0.003064 -573028.000000 0 0 1
29.263578 -9.724837 -12.317411 33.206145 -0.320837 1.950815 0.095849 -0.008095 -836462.000000 0 0 1
30.605328 -10.040937 -12.381911 34.508234 -0.317013 1.937789 0.088328 -0.009935 -704080.000000 0 0 1
31.224108 -9.539737 -13.700511 35.406998 -0.296518 1.968111 0.075177 -0.004141 -7109.070000 0 0 1
30.679818 -10.155537 -14.887211 35.581107 -0.319664 2.002482 0.068461 -0.006618 554674.000000 0 0 1
31.419748 -9.706837 -16.010411 36.575354 -0.299639 2.023877 0.053296 -0.010461 95793.900000 0 0 1
31.118928 -10.651637 -17.233111 37.132535 -0.329788 2.053412 0.019436 -0.002979 178360.000000 0 0 1
29.919698 -10.403837 -17.942611 36.405569 -0.334647 2.086162 0.036631 -0.007784 221192.000000 0 0 1
29.747718 -9.196937 -18.672211 36.306498 -0.299843 2.110980 0.015358 -0.005269 -529002.000000 0 0 1
28.294218 -8.825237 -19.034411 35.224372 -0.302347 2.141680 -0.010056 -0.004549 -109218.000000 0 0 1
27.831818 -9.439037 -20.236911 35.682462 -0.326972 2.173824 -0.015649 0.008250 -307931.000000 0 0 1
26.453718 -9.635537 -20.148411 34.620821 -0.349305 2.191950 0.032750 0.018840 -496775.000000 0 0 1
25.801918 -9.936837 -21.509611 35.030602 -0.367613 2.231944 0.051325 -0.004647 -199525.000000 0 0 1
25.877918 -11.342837 -21.782611 35.676445 -0.413099 2.227564 0.051509 -0.003153 95613.600000 0 0 1
25.087318 -11.841737 -22.845411 35.937627 -0.441015 2.259706 0.068102 -0.012641 -671477.000000 0 0 1
25.480118 -13.262437 -23.369311 37.030438 -0.479914 2.253746 0.066342 -0.007476 296635.000000 0 0 1
26.671418 -13.459837 -24.112511 38.391991 -0.467364 2.249855 0.053334 -0.005979 95674.600000 0 0 1
27.848618 -13.308937 -23.347111 38.700916 -0.445814 2.218392 0.029453 0.003490 64882.200000 0 0 1
29.126388 -13.968437 -23.978711 40.229868 -0.447179 2.209360 0.013117 0.005548 591920.000000 0 0 1
29.533928 -13.350137 -25.175681 41.040151 -0.424538 2.231206 0.015236 -0.009277 -188967.000000 0 0 1
30.887088 -13.646537 -25.415651 42.263406 -0.416031 2.216002 -0.013491 -0.003798 -36325.700000 0 0 1
31.626568 -13.109237 -26.644091 43.382018 -0.392944 2.232135 0.008687 -0.006573 -86027.400000 0 0 1
31.399538 -13.935537 -27.776661 44.177744 -0.417697 2.250738 0.014964 -0.015589 31848.500000 0 0 1
32.045558 -13.395037 -28.889671 45.176962 -0.395927 2.264615 0.014772 -0.012091 22111.700000 0 0 1
31.799838 -14.162537 -30.226301 46.102456 -0.418993 2.285817 0.024925 -0.015947 52281.600000 0 0 1
32.324278 -15.467437 -30.057881 46.771538 -0.446307 2.268753 0.022745 -0.016716 -52126.500000 0 0 1
32.475908 -16.236037 -31.204611 47.875059 -0.463600 2.280742 0.010920 -0.013740 383485.000000 0 0 1
31.169108 -16.782737 -31.865211 47.629458 -0.493926 2.303690 0.004780 -0.010823 397344.000000 0 0 1
30.421328 -15.864537 -32.634241 47.351182 -0.480695 2.331175 0.007641 -0.010345 -298554.000000 0 0 1
29.263088 -16.545137 -33.056761 47.146785 -0.514584 2.347799 0.019395 -0.009618 -303931.000000 0 0 1
28.416918 -15.770437 34.039900 47.063178 -0.506648 0.762255 0.055157 -0.011715 -511411.000000 0 0 1
27.808618 -14.601537 -33.585271 45.983633 -0.483504 2.389666 0.068753 -0.021255 -616106.000000 0 0 1
28.624408 -13.472137 -33.492251 46.071532 -0.439895 2.384684 0.072977 -0.021089 -562338.000000 0 0 1
27.887518 -12.164837 -33.274251 45.087390 -0.411328 2.400890 0.091540 -0.028774 -549549.000000 0 0 1
27.096818 -11.691137 33.816695 44.883060 -0.407328 0.717518 0.117111 -0.037897 -465713.000000 0 0 1
26.315718 -10.652737 -33.729681 44.087291 -0.384642 2.441940 0.076732 -0.037352 -59655.700000 0 0 1
20.933556 -29.654438 8.757089 37.340140 -0.956111 1.334069 0.058622 -0.032348 -102219.000000 0 0 1
21.503656 -29.343938 7.505789 37.145805 -0.938385 1.367333 0.059004 -0.027698 1505090.000000 0 0 1
22.873356 -29.853038 7.411889 38.331846 -0.917008 1.376210 0.064541 -0.020772 1467350.000000 0 0 1
23.628256 -29.427838 6.171489 38.241070 -0.894276 1.408704 0.055490 -0.010626 -269522.000000 0 0 1
24.042956 -28.090938 6.164489 37.485537 -0.862889 1.405596 0.056362 -0.000481 -255340.000000 0 0 1
24.710156 -27.903238 4.960289 37.600359 -0.846013 1.438489 0.037225 0.011619 -295110.000000 0 0 1
24.765556 -26.422938 4.585489 36.503851 -0.817765 1.444847 0.031830 0.006394 -152553.000000 0 0 1
25.648856 -25.706538 5.384289 36.710768 -0.786521 1.423597 0.039337 -0.000134 -211020.000000 0 0 1
25.437356 -24.286938 5.174089 35.548357 -0.762266 1.424727 0.039377 0.004986 -32593.700000 0 0 1
26.309056 -23.359438 6.027989 35.695468 -0.726082 1.401111 0.041417 -0.005452 -8126.740000 0 0 1
27.676556 -23.261838 5.668689 36.595613 -0.698946 1.415269 0.029170 -0.000828 823673.000000 0 0 1
28.502656 -22.387238 6.505689 36.822735 -0.665802 1.393188 0.045489 -0.017026 724568.000000 0 0 1
28.029756 -20.896538 6.661189 35.590785 -0.640623 1.382526 0.049387 -0.014291 -570442.000000 0 0 1
28.162356 -20.204638 5.451289 35.086497 -0.622331 1.414797 0.046901 -0.002002 300763.000000 0 0 1
27.504856 -18.927038 5.482289 33.834973 -0.602718 1.408049 0.058917 -0.005468 -52196.500000 0 0 1
27.545256 -18.180138 4.134889 33.261928 -0.583380 1.446161 0.067556 -0.004259 -294934.000000 0 0 1
28.837256 -17.858838 3.702389 34.120861 -0.554488 1.462074 0.092062 -0.009462 -150621.000000 0 0 1
28.806956 -17.143538 2.497089 33.615132 -0.536822 1.496443 0.088227 -0.005455 -375253.000000 0 0 1
30.011856 -16.233838 2.370389 34.203330 -0.495841 1.501438 0.100392 -0.025216 -336836.000000 0 0 1
29.834456 -15.124238 3.162889 33.598233 -0.469183 1.476518 0.106661 -0.031028 -621603.000000 0 0 1
31.027356 -14.563038 3.577989 34.461296 -0.438838 1.466783 0.093634 -0.033884 -626498.000000 0 0 1
30.834056 -13.376338 4.618289 33.926303 -0.409315 1.434245 0.105213 -0.035942 74866.800000 0 0 1
30.325856 -13.757538 5.861889 33.812559 -0.425891 1.396552 0.086015 -0.023717 1234.360000 0 0 1
30.265256 -12.618938 6.650389 33.458198 -0.395028 1.370697 0.077919 -0.020373 -450061.000000 0 0 1
29.966356 -12.793438 8.164889 33.590475 -0.403501 1.325265 0.085834 -0.014155 1166460.000000 0 0 1
28.574956 -13.126238 8.474289 32.567466 -0.430612 1.307560 0.069013 -0.006195 1395300.000000 0 0 1
28.241456 -13.186438 9.868689 32.693318 -0.436833 1.264157 0.084271 -0.003463 98426.300000 0 0 1
28.709156 -14.440038 10.621389 33.845890 -0.466026 1.251587 0.075169 -0.010103 -668213.000000 0 0 1
29.878056 -14.277738 11.345789 35.003985 -0.445785 1.240706 0.057028 -0.002199 -467241.000000 0 0 1
30.417356 -15.486338 11.847989 36.130556 -0.470924 1.236694 0.056685 -0.008750 6943.880000 0 0 1
31.033156 -15.461838 13.250689 37.117462 -0.462235 1.205749 0.053487 -0.004992 337771.000000 0 0 1
32.366856 -14.985938 13.140889 38.011507 -0.433614 1.217803 0.041419 -0.004697 3239.200000 0 0 1
33.152156 -15.004738 14.286989 39.093806 -0.425016 1.196676 0.032000 -0.002463 9074.830000 0 0 1
34.637856 -14.742338 13.954389 40.147760 -0.402390 1.215812 0.049176 -0.008185 -131026.000000 0 0 1
35.001756 -13.418538 13.592189 39.873898 -0.366086 1.222944 0.051594 -0.010033 -298891.000000 0 0 1
36.308256 -13.458238 13.096289 40.876967 -0.354966 1.244662 0.055544 -0.008438 -550214.000000 0 0 1
-36.714505 -12.055538 12.960489 40.758620 0.317267 1.247197 0.063304 -0.015815 -1085390.000000 0 0 1
-35.487805 -12.029538 12.323089 39.445565 0.326821 1.253070 0.080249 -0.016261 -901163.000000 0 0 1
-34.777705 -10.892338 12.675089 38.584837 0.303521 1.236082 0.079974 -0.022789 187716.000000 0 0 1
-33.339705 -10.796838 12.073289 37.065778 0.313185 1.239017 0.085837 -0.020880 662798.000000 0 0 1
-32.356405 -11.770038 12.410789 36.599159 0.348882 1.224836 0.080600 -0.017114 456689.000000 0 0 1
-32.579605 -13.022038 11.790889 37.013905 0.380247 1.246594 0.076721 -0.019922 -534654.000000 0 0 1
-31.543805 -14.120238 12.155889 36.635480 0.420889 1.232578 0.043320 -0.016513 368854.000000 0 0 1
-30.296205 -13.923238 11.503989 35.271211 0.430784 1.238560 0.047742 -0.014942 -161772.000000 0 0 1
-29.446705 -14.981838 11.866489 35.105234 0.470645 1.225977 0.040776 -0.003420 -82485.000000 0 0 1
-28.042205 -14.904338 11.224289 33.682179 0.488526 1.231057 0.031033 0.008832 -85553.100000 0 0 1
-27.972105 -15.237338 9.839789 33.338215 0.498791 1.271183 0.036881 -0.000118 841444.000000 0 0 1
-26.634805 -14.981738 9.381689 31.966880 0.512380 1.272930 0.038169 0.001406 767945.000000 0 0 1
-26.662305 -14.663138 7.848889 31.424372 0.502811 1.318353 0.067737 0.003038 -9158.220000 0 0 1
-26.862705 -15.813538 7.073989 31.964265 0.532054 1.347639 0.066869 0.002543 219036.000000 0 0 1
-26.857405 -15.457338 5.717089 31.510865 0.522235 1.388354 0.080832 -0.003219 -171767.000000 0 0 1
-27.478205 -16.544338 4.822189 32.434863 0.541954 1.421570 0.070473 -0.006743 871485.000000 0 0 1
-28.896405 -16.775138 4.841589 33.761642 0.525978 1.426895 0.046059 -0.013100 679084.000000 0 0 1
-29.110605 -17.812638 3.943189 34.355001 0.549120 1.455765 0.051902 -0.007448 -307792.000000 0 0 1
-30.556105 -18.318538 3.832189 35.831970 0.540055 1.463643 0.071416 -0.017328 -248595.000000 0 0 1
-31.428205 -17.380038 3.231789 36.058872 0.505149 1.481051 0.082726 -0.019984 -614733.000000 0 0 1
-32.735905 -17.723738 3.530489 37.392977 0.496229 1.476240 0.090009 -0.025142 -477596.000000 0 0 1
-33.920605 -16.917138 2.939889 38.018942 0.462629 1.493392 0.096849 -0.036310 363402.000000 0 0 1
-34.247905 -17.273938 1.643589 38.392829 0.467145 1.527973 0.109399 -0.032970 498828.000000 0 0 1
-35.272605 -16.362138 1.161989 38.900211 0.434334 1.540921 0.127953 -0.038984 399519.000000 0 0 1
-35.698205 -16.661338 -0.268111 39.395861 0.436677 1.577602 0.120726 -0.037211 -298164.000000 0 0 1
-34.677205 -16.702838 -1.249511 38.510448 0.448873 1.603248 0.126050 -0.031787 99599.000000 0 0 1
-35.060405 -17.518538 -2.327311 39.262546 0.463381 1.630107 0.115991 -0.027730 244821.000000 0 0 1
-33.906605 -18.103038 -3.209811 38.570464 0.490405 1.654112 0.106040 -0.026059 263701.000000 0 0 1
-34.389605 -19.107638 -4.078511 39.552257 0.507150 1.674097 0.099920 -0.033434 669870.000000 0 0 1
-33.303605 -19.695438 -4.806511 38.989010 0.534065 1.694389 0.079466 -0.024994 243799.000000 0 0 1
-33.759705 -20.775638 -5.752311 40.055385 0.551664 1.714904 0.094092 -0.027735 -184600.000000 0 0 1
-34.204305 -21.933938 -5.124211 40.954727 0.570208 1.696244 0.105374 -0.035905 -78244.200000 0 0 1
-34.725905 -22.826138 -6.111011 42.003161 0.581506 1.716804 0.096203 -0.031529 181198.000000 0 0 1
-35.272305 -24.106038 -5.410811 43.064062 0.599516 1.696775 0.108556 -0.033164 -217248.000000 0 0 1
-34.306305 -24.805338 -4.690111 42.593714 0.626032 1.681133 0.103665 -0.034617 -503659.000000 0 0 1
-34.806805 -26.095238 -4.272011 43.711843 0.643320 1.668684 0.093635 -0.025612 -376609.000000 0 0 1
-33.751405 -27.080838 -3.826511 43.441585 0.676179 1.658995 0.067425 -0.022877 -1692100.000000 0 0 1
-32.868105 -27.402738 -4.911111 43.073674 0.694965 1.685061 0.065245 -0.025114 335313.000000 0 0 1
-31.967005 -28.462338 -4.702011 43.059296 0.727467 1.680213 0.061796 -0.022335 -141468.000000 0 0 1
-31.068605 -28.424038 -3.442111 42.249642 0.740975 1.652358 0.061191 -0.027238 -1341420.000000 0 0 1
-31.701705 -28.293238 -2.149511 42.545573 0.728647 1.621340 0.054281 -0.022518 -804956.000000 0 0 1
-30.784905 -28.372838 -1.133611 41.880943 0.744647 1.597867 0.055775 -0.024968 -804682.000000 0 0 1
-31.395305 -28.256638 0.259089 42.239435 0.732830 1.564662 0.055240 -0.019886 -290368.000000 0 0 1
-32.042605 -29.409138 0.674989 43.498064 0.742570 1.555278 0.049619 -0.013608 -457476.000000 0 0 1
-32.820405 -29.137438 1.804189 43.925213 0.726025 1.529711 0.064568 -0.012146 -383871.000000 0 0 1
-33.636305 -30.381438 2.214289 45.379906 0.734599 1.521982 0.035026 -0.007660 -125166.000000 0 0 1
-34.447105 -30.249538 3.440889 45.972571 0.720608 1.495880 0.039374 -0.005135 633834.000000 0 0 1
-34.866405 -31.459538 4.003889 47.131729 0.734078 1.485743 0.035453 0.002610 26494.500000 0 0 1
-35.961605 -32.214838 3.196789 48.386489 0.730496 1.504680 0.027298 0.005613 -472640.000000 0 0 1
-36.591005 -33.257938 3.853089 49.596758 0.737716 1.493030 0.050265 -0.003840 -33837.300000 0 0 1
36.138556 -33.925638 2.966689 49.656273 -0.753825 1.511016 0.056317 -0.003408 -135046.000000 0 0 1
35.041856 33.381263 3.749589 48.541733 0.761133 1.493475 0.052928 -0.001559 487348.000000 0 0 1
34.230556 -34.014838 4.653089 48.480836 -0.782237 1.474670 0.041156 0.000119 710710.000000 0 0 1
33.400756 -32.976138 4.110989 47.116202 -0.779001 1.483433 0.042471 0.005556 -187781.000000 0 0 1
32.351856 -33.142138 3.017289 46.412800 -0.797464 1.505741 0.049683 0.005421 -368897.000000 0 0 1
32.993656 -33.351638 1.728289 46.945715 -0.790794 1.533973 0.052373 -0.001584 25110.500000 0 0 1
32.120956 -33.261538 0.625189 46.243666 -0.802841 1.557276 0.054860 -0.000104 -748095.000000 0 0 1
32.647156 -33.915938 -0.672011 47.080562 -0.804457 1.585070 0.053381 -0.001646 814654.000000 0 0 1
33.746256 -33.416438 -1.434811 47.513439 -0.780487 1.600999 0.047805 0.005560 -3694.760000 0 0 1
34.959656 -33.266638 -0.758611 48.264089 -0.760589 1.586515 0.059505 0.001232 -265640.000000 0 0 1
36.254956 -33.206438 -1.640011 49.191250 -0.741538 1.604142 0.035310 0.013514 221913.000000 0 0 1
36.584556 33.723963 -2.273811 49.808691 0.744734 1.616463 0.041818 0.000204 -90573.100000 0 0 1
-36.419005 34.064863 -3.465311 49.987670 -0.752011 1.640175 0.051539 0.001437 -439054.000000 0 0 1
-35.483105 32.984263 -4.054211 48.615316 -0.748918 1.654287 0.049869 -0.003640 -26407.700000 0 0 1
-34.222505 32.830863 -3.440411 47.548731 -0.764647 1.643215 0.058655 -0.005295 -485464.000000 0 0 1
-33.516605 31.962063 -4.231311 46.506346 -0.761661 1.661906 0.074923 -0.011836 116897.000000 0 0 1
-32.251605 31.358063 -3.520111 45.120786 -0.771352 1.648891 0.086827 -0.014999 1093620.000000 0 0 1
-31.059705 32.168663 -3.519611 44.854384 -0.802935 1.649345 0.064637 -0.018290 1589990.000000 0 0 1
-29.870005 31.546963 -2.945011 43.544243 -0.812696 1.638481 0.066093 -0.017628 1428730.000000 0 0 1
-29.847605 31.352063 -1.350011 43.308820 -0.809976 1.601973 0.042260 -0.008341 4292.600000 0 0 1
-30.836905 30.467563 -0.822111 43.357386 -0.779374 1.589759 0.034596 -0.003290 131577.000000 0 0 1
-30.525905 30.137463 0.521689 42.899530 -0.778995 1.558635 0.037075 -0.006843 -41640.800000 0 0 1
-31.560005 29.198663 1.168889 43.011186 -0.746553 1.543617 0.048505 -0.010579 -331872.000000 0 0 1
-31.773205 27.945263 0.536489 42.317397 -0.721386 1.558118 0.057704 -0.021222 411921.000000 0 0 1
-32.871905 27.949063 -0.378911 43.149227 -0.704634 1.579578 0.073993 -0.021261 36914.500000 0 0 1
-33.326605 26.573863 -0.781911 42.631492 -0.673139 1.589139 0.095164 -0.021037 -79629.000000 0 0 1
-33.647905 25.743663 0.321689 42.367690 -0.653089 1.563203 0.104196 -0.027070 168180.000000 0 0 1
-34.080205 24.428263 -0.116411 41.931062 -0.621904 1.573573 0.099989 -0.018520 -130943.000000 0 0 1
-33.787205 23.281663 0.864089 41.040927 -0.603351 1.549740 0.102071 -0.025685 399614.000000 0 0 1
-32.407505 22.958263 1.020589 39.728702 -0.616357 1.545105 0.119626 -0.032326 646428.000000 0 0 1
-31.845405 23.541563 2.204189 39.663502 -0.636582 1.515195 0.108572 -0.034921 -179575.000000 0 0 1
-30.301505 23.375763 2.313389 38.340047 -0.657081 1.510421 0.094669 -0.043522 381049.000000 0 0 1
-29.452605 24.146263 1.505089 38.115131 -0.686719 1.531298 0.098610 -0.040125 -278401.000000 0 0 1
-29.494905 25.547863 1.805689 39.062811 -0.713812 1.524555 0.068208 -0.031931 -440589.000000 0 0 1
-28.750805 26.460963 0.806289 39.082495 -0.743948 1.550164 0.029579 -0.022310 -338669.000000 0 0 1
-27.393905 26.230063 0.609789 37.931702 -0.763698 1.554720 0.021721 -0.018864 -989770.000000 0 0 1
-26.836705 27.084063 -0.334711 38.129611 -0.789986 1.579575 0.017942 -0.006260 615674.000000 0 0 1
-25.662505 26.391863 -1.139811 36.829251 -0.799409 1.601750 0.020494 -0.005863 169755.000000 0 0 1
-26.027905 25.352163 -2.018211 36.390344 -0.772247 1.626285 0.051569 -0.018224 97122.500000 0 0 1
-24.925405 24.625363 -2.558711 35.131628 -0.779343 1.643693 0.040731 -0.008210 461734.000000 0 0 1
-24.186905 23.665963 -1.589111 33.876385 -0.774512 1.617723 0.015683 -0.002919 -560525.000000 0 0 1
-24.812805 22.448163 -1.380111 33.488804 -0.735406 1.612019 0.052133 -0.013728 -484457.000000 0 0 1
-23.991005 21.424663 -0.879611 32.176982 -0.728950 1.598136 0.029504 -0.020197 -913346.000000 0 0 1
-24.743905 20.110963 -0.588611 31.891348 -0.682476 1.589254 0.054138 -0.022971 -269638.000000 0 0 1
-25.603205 20.027663 0.566389 32.510801 -0.663813 1.553374 0.054569 -0.024127 1167080.000000 0 0 1
-26.847605 20.756563 0.568989 33.940426 -0.658138 1.554031 0.046609 -0.026928 770221.000000 0 0 1
-27.852605 20.289063 -0.518011 34.462762 -0.629562 1.585828 0.050851 -0.037577 -943469.000000 0 0 1
-28.314805 18.956463 -0.354711 34.076406 -0.589954 1.581206 0.051894 -0.037784 176581.000000 0 0 1
-29.318105 18.672463 -1.312811 34.784129 -0.567105 1.608547 0.063904 -0.034694 -134147.000000 0 0 1
-29.692005 17.167263 -1.247411 34.320345 -0.524219 1.607150 0.063675 -0.027014 116861.000000 0 0 1
-30.353205 16.754263 -0.035111 34.670212 -0.504360 1.571809 0.071503 -0.031661 544760.000000 0 0 1
-30.635005 15.372363 -0.064511 34.275607 -0.465079 1.572678 0.085417 -0.030774 357399.000000 0 0 1
-29.446905 14.531263 0.525289 32.841342 -0.458413 1.554801 0.103855 -0.035279 134682.000000 0 0 1
-29.262105 14.620963 1.915489 32.767551 -0.463372 1.512306 0.121357 -0.034637 -72659.600000 0 0 1
-27.925305 14.390863 2.291289 31.498723 -0.475840 1.497990 0.132043 -0.027180 -35029.300000 0 0 1
-27.429805 12.904963 2.350589 30.404893 -0.439748 1.493410 0.139346 -0.033430 -360782.000000 0 0 1
-27.273105 12.334063 1.063389 29.951330 -0.424717 1.535285 0.124623 -0.039864 347352.000000 0 0 1
-26.429305 11.197463 1.053989 28.722852 -0.400749 1.534093 0.137023 -0.032181 -24506.400000 0 0 1
-26.464605 10.437963 -0.341611 28.450713 -0.375680 1.582804 0.124067 -0.032499 67658.700000 0 0 1
-27.736205 9.926463 -0.684111 29.466926 -0.343685 1.594015 0.125030 -0.031588 302270.000000 0 0 1
-27.497205 9.146663 -1.836011 29.036678 -0.321126 1.634069 0.126593 -0.040129 561016.000000 0 0 1
-28.788505 8.645263 -2.579111 30.169030 -0.291734 1.656390 0.131291 -0.046403 264069.000000 0 0 1
-28.584805 8.329863 -3.898911 30.027973 -0.283556 1.701007 0.116682 -0.040436 -641690.000000 0 0 1
-29.787905 8.283463 -4.568011 31.253828 -0.271229 1.717480 0.117161 -0.042318 -828051.000000 0 0 1
-11.527544 17.623763 -19.511211 28.708337 -0.991551 2.318062 0.114521 -0.028240 216655.000000 0 0 1
-11.678844 16.595963 -20.492811 28.840539 -0.957581 2.361084 0.104864 -0.029940 397673.000000 0 0 1
-10.742944 16.704763 -21.596711 29.340720 -0.999282 2.398037 0.102510 -0.026243 491574.000000 0 0 1
-10.923444 15.536763 -22.636811 29.548906 -0.958012 2.443516 0.089356 -0.017566 -31596.000000 0 0 1
-10.371044 14.300063 -22.219711 28.386016 -0.943328 2.469900 0.112796 -0.029230 -21294.300000 0 0 1
-10.255444 13.344663 -23.272711 28.720606 -0.915557 2.515484 0.104637 -0.030147 -542307.000000 0 0 1
-9.407144 12.156963 -22.906511 27.586126 -0.912232 2.550556 0.100307 -0.029313 -526002.000000 0 0 1
-8.040144 12.380463 -23.155711 27.461004 -0.994828 2.574045 0.095634 -0.025806 -271185.000000 0 0 1
-7.250244 11.361263 -22.586111 26.301649 -1.002793 2.603590 0.082931 -0.020666 -403815.000000 0 0 1
-5.744244 11.556963 -22.516811 25.953160 -1.109522 2.621140 0.073971 -0.012912 -384200.000000 0 0 1
-5.086544 11.327963 -23.759411 26.808679 -1.148753 2.660000 0.062086 -0.020162 1470990.000000 0 0 1
-3.633444 11.268663 -23.534011 26.344532 -1.258884 2.675468 0.037517 -0.014848 1850300.000000 0 0 1
-2.968344 10.967063 -24.912911 27.381393 -1.306470 2.713714 0.061771 -0.031175 -340876.000000 0 0 1
-3.111344 9.611363 -25.404961 27.339912 -1.257727 2.763109 0.067636 -0.036653 181256.000000 0 0 1
-2.402944 9.407663 -26.617891 28.333556 -1.320719 2.791811 0.071146 -0.040666 -300718.000000 0 0 1
-2.344544 7.979263 -27.225571 28.467477 -1.285010 2.845126 0.071684 -0.018943 97711.900000 0 0 1
-1.340544 7.060763 -26.770611 27.718533 -1.383171 2.879315 0.073112 -0.033162 283250.000000 0 0 1
-1.390244 6.704063 -25.416851 26.322871 -1.366321 2.878462 0.072063 -0.036941 249770.000000 0 0 1
-0.213344 5.772463 -24.973811 25.633144 -1.533854 2.914291 0.008065 -0.021641 36889.300000 0 0 1
1.039556 6.338963 -24.698411 25.520083 1.408248 2.887147 0.032054 -0.003217 58258.000000 0 0 1
1.786656 5.453963 -23.847811 24.528676 1.254225 2.905426 0.020555 0.014729 39022.200000 0 1 0
1.760056 5.852463 -22.354111 23.174456 1.278663 2.874724 0.012186 0.002661 -355871.000000 0 1 0
2.404856 7.056163 -22.143511 23.364671 1.242326 2.816856 0.006106 -0.004710 -209290.000000 0 1 0
2.292856 7.449663 -20.807011 22.219054 1.272217 2.783163 0.014947 -0.007672 -83714.200000 0 1 0
2.705756 8.958163 -20.692611 22.710217 1.277466 2.716884 0.008548 -0.020205 -184270.000000 0 1 0
2.565456 9.570763 -19.413811 21.796264 1.308902 2.669667 0.017182 -0.032676 83548.000000 0 1 0
2.843556 10.966663 -19.469111 22.525536 1.317093 2.614579 0.009268 -0.017434 -10597.300000 0 1 0
3.993756 11.338563 -18.481211 22.046956 1.232138 2.564891 0.012674 -0.031400 323947.000000 0 1 0
5.234456 10.831663 -18.897211 22.401541 1.120634 2.574688 0.026733 -0.026593 -267489.000000 0 1 0
6.234856 10.733063 -17.886311 21.771362 1.044538 2.534925 0.029825 -0.030851 706656.000000 0 1 0
7.449256 9.879963 -18.381111 22.157850 0.924755 2.549103 0.064558 -0.035939 84507.900000 0 1 0
7.171556 8.518463 -18.669111 21.737781 0.871033 2.603782 0.057704 -0.027045 150776.000000 0 1 0
6.577656 8.307063 -19.949611 22.588932 0.901066 2.653350 0.039588 -0.020569 65063.800000 0 1 0
6.219356 6.795863 -20.111011 22.120509 0.829664 2.712051 0.060165 -0.025453 513397.000000 0 1 0
7.442856 6.041863 -20.170111 22.332344 0.681875 2.697915 0.062798 -0.027357 879776.000000 0 1 0
7.284856 4.699963 -20.523311 22.279252 0.572972 2.741911 0.057263 -0.021679 -228430.000000 0 1 0
7.458756 4.457663 -22.032711 23.684260 0.538684 2.765939 0.077613 -0.025768 -448160.000000 0 1 0
6.370856 4.950363 -22.763411 24.150917 0.660579 2.800975 0.069287 -0.028370 -107120.000000 0 1 0
6.614056 4.858963 -24.161311 25.517136 0.633599 2.814144 0.076095 -0.029291 -355784.000000 0 0 1
5.605056 5.619763 -25.004011 26.233547 0.786708 2.834218 0.057322 -0.027808 -389705.000000 0 0 1
5.670356 7.069463 -24.953011 26.547750 0.894781 2.793220 0.059612 -0.033182 447960.000000 0 0 1
4.912156 7.632663 -23.861011 25.529095 0.998954 2.778097 0.057784 -0.043115 -997461.000000 0 0 1
4.701956 9.164763 -23.965911 26.085746 1.096765 2.735663 0.062385 -0.042921 285462.000000 0 0 1
3.723456 9.566463 -24.920211 26.951777 1.199618 2.750839 0.068744 -0.041888 649137.000000 0 0 1
2.382056 9.318363 -24.490111 26.311055 1.320526 2.767369 0.042495 -0.034693 -622718.000000 0 0 1
1.389356 9.907163 -25.467681 27.362108 1.431467 2.767295 0.056049 -0.026872 -630985.000000 0 0 1
1.377756 11.327663 -25.447131 27.888540 1.449763 2.720049 0.085326 -0.046603 593356.000000 0 0 1
0.445656 11.732163 -26.471811 28.958575 1.532829 2.724145 0.110635 -0.049419 250912.000000 0 0 1
0.329856 13.256963 -26.578781 29.703324 1.545920 2.678798 0.112065 -0.050363 42121.900000 0 0 1
-0.237044 13.808263 -25.391621 28.904303 -1.553631 2.643451 0.100060 -0.042711 210077.000000 0 0 1
-0.464744 15.204563 -25.560401 29.744391 -1.540240 2.604765 0.106993 -0.051541 -138745.000000 0 0 1
-0.909644 15.893463 -24.218011 28.981747 -1.513625 2.560075 0.112302 -0.043671 -866016.000000 0 0 1
-2.225244 15.526663 -24.041911 28.706140 -1.428448 2.563521 0.094777 -0.035010 -1275180.000000 0 0 1
-2.636444 15.920963 -22.802411 27.935244 -1.406690 2.525703 0.090607 -0.042924 326774.000000 0 0 1
-3.907244 15.123163 -22.285911 27.214673 -1.317964 2.530276 0.088743 -0.039590 2452350.000000 0 0 1
-5.239944 15.539363 -22.749911 28.044380 -1.245566 2.517017 0.108547 -0.037279 1505290.000000 0 0 1
-5.468544 15.018363 -24.058311 28.883534 -1.221595 2.555200 0.096178 -0.036981 -647615.000000 0 0 1
-6.941544 14.995763 -24.487911 29.541762 -1.137266 2.547980 0.081932 -0.033581 -277456.000000 0 0 1
-7.461644 16.283863 -24.719811 30.527191 -1.141125 2.514546 0.071785 -0.030443 -277093.000000 0 0 1
-8.705044 16.203363 -25.371181 31.337255 -1.077805 2.514296 0.070215 -0.024480 -211747.000000 0 0 1
-9.356144 17.541363 -25.752391 32.533406 -1.080806 2.484166 0.065645 -0.021422 120874.000000 0 0 1
-9.985544 18.307563 -24.687611 32.316499 -1.071466 2.440181 0.066869 -0.021864 953406.000000 0 0 1
-10.943344 19.264363 -25.252191 33.593833 -1.054192 2.421419 0.066212 -0.013221 704274.000000 0 0 1
-11.764144 20.075663 -24.243611 33.603273 -1.040742 2.376713 0.069641 -0.015262 -273030.000000 0 0 1
-11.160844 21.185463 -23.557611 33.590911 -1.085927 2.348029 0.061890 -0.018657 3977.790000 0 0 1
-11.333744 22.559263 -24.096111 34.899809 -1.105232 2.332889 0.062734 -0.023720 -150630.000000 0 0 1
-10.774644 22.824163 -25.516611 35.890567 -1.129740 2.361653 0.060032 -0.024099 -356319.000000 0 0 1
-11.468844 22.239063 -26.602351 36.521163 -1.094662 2.386794 0.061975 -0.022519 65207.600000 0 0 1
-11.110444 22.868363 -27.794131 37.668524 -1.118538 2.400692 0.067334 -0.023825 -260303.000000 0 0 1
-11.649644 22.114563 -29.003611 38.288086 -1.085950 2.430287 0.061546 -0.024755 125478.000000 0 0 1
-10.900844 20.965763 -29.456111 37.763131 -1.091328 2.465499 0.049193 -0.020174 206667.000000 0 0 1
-10.837544 19.866563 -28.593281 36.465167 -1.071402 2.472083 0.053400 -0.018252 -524026.000000 0 0 1
-9.975444 18.821963 -29.253051 36.187246 -1.083446 2.512191 0.049316 -0.018573 -86517.700000 0 0 1
-8.600544 19.257663 -29.215311 36.032781 -1.150770 2.516311 0.049944 -0.020531 698299.000000 0 0 1
-7.705044 18.386663 -29.896451 35.933756 -1.173971 2.553478 0.049213 -0.015075 263422.000000 0 0 1
-7.421544 16.977363 -29.234081 34.611294 -1.158685 2.576689 0.057807 -0.021654 -802382.000000 0 0 1
-8.510144 16.082163 -29.230611 34.430904 -1.084089 2.584819 0.042462 -0.018731 -50044.100000 0 0 1
-8.224244 14.851063 -28.655551 33.306649 -1.065055 2.606763 0.045160 -0.026204 -12117.800000 0 0 1
-9.521244 14.017963 -28.575491 33.222222 -0.974155 2.606324 0.041691 -0.016240 15893.400000 0 0 1
-10.476044 14.510963 -27.675921 32.958643 -0.945497 2.567558 0.055209 -0.015198 94074.600000 0 0 1
-11.686344 13.747263 -27.674751 33.037096 -0.866253 2.563831 0.081650 -0.019048 823687.000000 0 0 1
-12.651644 14.285363 -26.570871 32.713099 -0.845974 2.518777 0.087851 -0.019730 226767.000000 0 0 1
-13.136944 15.602663 -26.804491 33.682386 -0.870984 2.491126 0.077997 -0.016994 -88157.700000 0 0 1
-14.099844 15.956163 -25.830371 33.475555 -0.847082 2.452179 0.073700 -0.017322 272935.000000 0 0 1
-14.967844 17.200063 -26.188011 34.723053 -0.854680 2.425226 0.053143 -0.009923 137084.000000 0 0 1
-14.293144 18.428563 -26.118241 35.015259 -0.911113 2.412697 0.057601 -0.010235 -191573.000000 0 0 1
-15.115444 19.409063 -26.670461 36.283631 -0.909127 2.396544 0.049413 -0.016075 -239265.000000 0 0 1
-14.591844 20.876963 -26.640651 36.857750 -0.960779 2.378637 0.044024 -0.013232 -216976.000000 0 0 1
-15.533144 21.834663 -27.100451 38.111225 -0.952461 2.361841 0.028088 -0.022402 241881.000000 0 0 1
-15.097244 23.214663 -27.104021 38.748875 -0.994188 2.345464 0.039201 -0.019548 -12646.500000 0 0 1
-14.851344 24.043963 -25.812011 38.274462 -1.017482 2.310938 0.019789 -0.014041 82600.600000 0 0 1
-14.360544 25.327163 -26.128951 39.120487 -1.054994 2.302193 0.043512 -0.023021 -29220.800000 0 0 1
-14.094344 25.943263 -24.907111 38.627291 -1.073130 2.271566 0.050573 -0.032082 -220032.000000 0 0 1
-13.976744 27.490563 -25.119641 39.775329 -1.100436 2.254332 0.069592 -0.039499 227256.000000 0 0 1
-15.248944 28.099063 -25.250491 40.739108 -1.073586 2.239296 0.072931 -0.041736 -166626.000000 0 0 1
-15.718944 28.523163 -23.993411 40.451697 -1.067114 2.205746 0.071452 -0.042856 -808058.000000 0 0 1
-17.103244 29.106863 -24.225211 41.552271 -1.039543 2.193220 0.064374 -0.045720 -238792.000000 0 0 1
-18.054744 28.143263 -24.631211 41.529671 -1.000399 2.205699 0.052874 -0.040168 -569912.000000 0 0 1
-19.292444 28.618963 -25.046661 42.644796 -0.977656 2.198555 0.038668 -0.033942 -358819.000000 0 0 1
-20.427744 27.591863 -25.139991 42.551413 -0.933497 2.202864 0.030061 -0.022403 -95659.600000 0 0 1
-20.792344 27.096763 -23.849211 41.657424 -0.916292 2.180358 0.039753 -0.031975 -656872.000000 0 0 1
-21.846444 26.203663 -23.893111 41.650688 -0.875832 2.181757 0.053037 -0.035146 -732833.000000 0 0 1
-22.519844 26.092163 -22.508711 41.165354 -0.858753 2.149319 0.045791 -0.030988 -299244.000000 0 0 1
-23.354944 27.196463 -22.271111 42.203120 -0.861245 2.126702 0.051181 -0.025638 -249754.000000 0 0 1
-23.714844 27.226263 -20.881811 41.709870 -0.854220 2.095139 0.035873 -0.021314 -34875.600000 0 0 1
-24.993444 28.041463 -20.559611 42.821647 -0.842807 2.071590 0.024411 -0.012408 -242714.000000 0 0 1
-26.160874 27.373463 -20.902711 43.250677 -0.808045 2.075208 0.025586 -0.012859 -542176.000000 0 0 1
-27.322104 28.169063 -20.672311 44.354683 -0.800660 2.055638 0.033340 -0.006352 368555.000000 0 0 1
-28.558694 27.328363 -21.063011 44.789383 -0.763387 2.060391 0.031105 -0.011326 -295744.000000 0 0 1
-28.531684 26.884263 -22.443311 45.172146 -0.755679 2.090750 0.028843 -0.007078 150284.000000 0 0 1
-29.840794 26.544263 -22.892611 46.034145 -0.727000 2.091276 0.025108 -0.003100 330588.000000 0 0 1
-30.020744 26.153163 -24.388611 46.690870 -0.716657 2.120392 0.027144 0.009483 -12632.900000 0 0 1
-29.617384 24.810363 -24.711911 45.863079 -0.697307 2.139831 0.043215 0.006628 5227.240000 0 0 1
-29.689184 24.553663 -26.085461 46.527210 -0.691003 2.165966 0.051471 0.005757 -105959.000000 0 0 1
-29.721474 23.034563 -26.421941 45.957329 -0.659319 2.183307 0.062924 -0.000134 39724.800000 0 0 1
-28.503154 22.401363 -26.091631 44.665692 -0.666100 2.194633 0.066878 -0.000981 27575.200000 0 0 1
-28.538184 21.107963 -26.674201 44.401430 -0.636837 2.215236 0.082644 -0.014457 -70369.500000 0 0 1
-27.329004 20.203863 -26.391281 43.029876 -0.636607 2.231059 0.084180 -0.020788 -251665.000000 0 0 1
-27.129274 19.819563 -25.090661 41.932730 -0.630943 2.212243 0.088695 -0.013459 39068.700000 0 0 1
-26.862464 18.402563 -24.989011 41.045060 -0.600633 2.225367 0.060862 -0.019308 72839.100000 0 0 1
-28.074654 17.420663 -25.001711 41.433697 -0.555366 2.218573 0.058487 -0.014254 149481.000000 0 0 1
-28.794784 17.319963 -26.230961 42.628441 -0.541519 2.233613 0.063723 -0.020348 83645.000000 0 0 1
-29.417174 16.056963 -26.270021 42.582980 -0.499641 2.235611 0.033218 -0.019216 -333301.000000 0 0 1
-30.144494 15.695463 -27.589751 43.774792 -0.480050 2.252692 0.030387 -0.021980 -104881.000000 0 0 1
-31.499174 16.068463 -27.475641 44.780624 -0.471713 2.231359 0.022046 -0.023880 -58170.200000 0 0 1
-32.194254 15.615463 -28.644981 45.835004 -0.451607 2.245875 0.027147 -0.019779 1162130.000000 0 0 1
-33.579104 16.300663 -28.966551 47.247528 -0.451932 2.230751 0.034286 -0.022148 785212.000000 0 0 1
-34.633757 16.126963 -28.057691 47.400528 -0.435786 2.204245 0.022357 -0.020276 -467371.000000 0 0 1
-35.833023 16.478363 -28.676491 48.763543 -0.431028 2.199470 0.022637 -0.020199 183561.000000 0 0 1
36.494078 16.093463 -27.886001 48.666686 0.415335 2.180958 0.032956 -0.013790 323009.000000 0 0 1
36.207858 17.020263 -26.871641 48.195263 0.439419 2.162237 0.025994 -0.014876 -192098.000000 0 0 1
35.073918 16.698263 -26.105221 46.802716 0.444335 2.162495 0.032620 -0.012553 -134383.000000 0 0 1
34.682408 17.794863 -25.105971 46.366328 0.474057 2.142981 0.040082 -0.004540 -3667.220000 0 0 1
33.951738 18.772263 -25.832281 46.609281 0.505075 2.158234 0.034398 -0.013615 135559.000000 0 0 1
33.683088 19.906863 -25.036071 46.450387 0.533779 2.140028 0.043119 -0.004948 -895104.000000 0 0 1
33.087028 21.162463 -25.782931 46.982558 0.569029 2.151696 0.041637 -0.005422 1580820.000000 0 0 1
31.704138 21.075863 -26.235721 46.234807 0.586686 2.174196 0.040439 -0.009892 1592560.000000 0 0 1
30.801768 21.075763 -25.104581 44.979736 0.600069 2.162928 0.060578 -0.003704 -1401570.000000 0 0 1
29.346318 20.974863 -25.463331 44.153510 0.620547 2.185480 0.028448 -0.014058 -898889.000000 0 0 1
28.983608 19.747063 -26.079951 43.705376 0.598078 2.210206 0.034017 -0.021528 -574842.000000 0 0 1
27.737218 19.850263 -26.703941 43.318433 0.621155 2.235031 0.028005 -0.020863 -555791.000000 0 0 1
27.132718 18.460863 -26.970331 42.478072 0.597444 2.258706 0.066120 -0.023003 -313093.000000 0 0 1
27.901518 17.611063 -27.808011 43.150083 0.563036 2.271098 0.060875 -0.028712 614708.000000 0 0 1
28.901288 16.925063 -27.008711 43.025721 0.529776 2.249435 0.055983 -0.022482 105016.000000 0 0 1
29.753648 15.951163 -27.831501 43.752847 0.492115 2.260239 0.044854 -0.015051 -507410.000000 0 0 1
29.341818 14.642963 -28.254351 43.285875 0.462885 2.281990 0.056370 -0.016583 -207139.000000 0 0 1
28.745938 13.706763 -27.339621 41.972124 0.444936 2.280192 0.066421 -0.016034 -223454.000000 0 0 1
29.563248 13.151363 -26.175591 41.618572 0.418567 2.250986 0.061680 -0.012475 -325324.000000 0 0 1
30.022418 14.146663 -25.284841 41.722857 0.440346 2.221843 0.062237 -0.020454 95491.100000 0 0 1
30.826928 13.473463 -24.322011 41.513780 0.412048 2.196759 0.054358 -0.014087 42025.100000 0 0 1
-14.946944 -31.372938 -23.826311 42.135086 1.126184 2.171805 0.089021 -0.013180 120374.000000 0 0 1
-14.137144 -30.376638 -24.447911 41.476491 1.135214 2.201162 0.093436 -0.021616 247679.000000 0 0 1
-14.459044 -30.214138 -25.791141 42.274591 1.124454 2.226966 0.072397 -0.017316 7854.360000 0 0 1
-13.705144 -29.030138 -26.431401 41.583637 1.129716 2.259608 0.087836 -0.026823 23385.200000 0 0 1
-14.185644 -27.802138 -25.979161 40.609213 1.098994 2.264951 0.087602 -0.009565 138293.000000 0 0 1
-13.434144 -26.723638 -26.522581 39.975947 1.104986 2.296235 0.078553 -0.016832 -99127.200000 0 0 1
-13.900144 -25.338238 -26.047921 38.906741 1.069041 2.304327 0.067893 -0.011208 -246388.000000 0 0 1
-13.557244 -25.000438 -24.747711 37.699734 1.073899 2.286890 0.075355 -0.021940 -47680.400000 0 0 1
-13.838044 -23.587738 -24.482911 36.705392 1.040241 2.300986 0.079965 -0.021423 -172269.000000 0 0 1
-13.581044 -23.119338 -23.048111 35.357658 1.039669 2.280826 0.072507 -0.014151 -344535.000000 0 0 1
-12.226644 -22.973738 -22.734711 34.556483 1.081721 2.288823 0.085489 -0.023685 -447654.000000 0 0 1
-11.973644 -21.880238 -21.822811 33.141334 1.070078 2.289590 0.072577 -0.012333 1418900.000000 0 0 1
-10.416944 -21.568738 -21.715811 32.331094 1.120869 2.307256 0.081835 -0.009149 1381060.000000 0 0 1
-9.887144 -20.844738 -22.788811 32.428207 1.127900 2.350047 0.094688 -0.012468 1076060.000000 0 0 1
-8.456144 -20.647138 -22.790411 31.893785 1.182080 2.366809 0.102587 -0.007012 1107140.000000 0 0 1
-8.120244 -19.427038 -23.678411 31.686201 1.174881 2.414753 0.105044 -0.005951 -76704.000000 0 0 1
-8.626444 -18.187938 -23.139911 30.670378 1.127924 2.425644 0.089640 -0.007051 -89372.700000 0 0 1
-8.665644 -17.037338 -24.004611 30.685267 1.100271 2.469121 0.093935 -0.007189 138092.000000 0 0 1
-7.350744 -16.534538 -24.700111 30.618946 1.152468 2.509332 0.096155 -0.012712 405138.000000 0 0 1
-6.992844 -17.345338 -25.834681 31.893438 1.187574 2.515002 0.087783 -0.017480 -493004.000000 0 0 1
-5.925744 -16.649238 -26.387861 31.758948 1.228860 2.551483 0.076281 -0.019078 -595705.000000 0 0 1
-5.642444 -17.284638 -27.764701 33.188470 1.255260 2.561801 0.066915 -0.012974 -22610.300000 0 0 1
-6.763244 -17.215338 -28.615281 34.072623 1.196459 2.567770 0.083680 -0.016655 139059.000000 0 0 1
-6.532744 -18.083438 -29.738841 35.413079 1.224130 2.567656 0.080504 -0.023112 -163181.000000 0 0 1
-7.283144 -17.617138 -30.960371 36.358662 1.178781 2.589687 0.094661 -0.028581 -126459.000000 0 0 1
-6.756044 -16.476838 -31.683321 36.345057 1.181671 2.629532 0.095564 -0.035072 -13781.100000 0 0 1
-6.783744 -15.225538 -31.023021 35.217382 1.151649 2.648558 0.090083 -0.033222 41953.900000 0 0 1
-7.614944 -14.111438 -31.726011 35.547993 1.075950 2.673618 0.079824 -0.035124 188964.000000 0 0 1
-7.179944 -13.937238 -33.053721 36.583421 1.095092 2.698701 0.095045 -0.043961 -226929.000000 0 0 1
-7.895144 -12.991938 -33.814511 37.074856 1.024738 2.719078 0.100733 -0.040071 -461232.000000 0 0 1
-7.766544 -11.468938 -33.434831 36.190381 0.975550 2.748842 0.084704 -0.040248 255602.000000 0 0 1
-6.463744 -10.934638 -33.582371 35.904344 1.036928 2.779984 0.084679 -0.034631 -7634.340000 0 0 1
-6.165544 -10.518238 33.158152 35.328605 1.040603 0.352351 0.061452 -0.033513 256670.000000 0 0 1
-4.883844 -9.628538 33.111646 34.827314 1.101385 0.315189 0.064853 -0.027093 2743.720000 0 0 1
-4.729344 -8.959938 31.842050 33.415017 1.085132 0.308051 0.048815 -0.019939 -156777.000000 0 0 1
-3.848644 -7.874538 32.007330 33.185683 1.116193 0.267283 0.055464 -0.030410 -989897.000000 0 0 1
-4.068644 -6.820038 30.931820 31.935001 1.032901 0.251313 0.040398 -0.019060 -82017.600000 0 0 1
-5.255244 -6.083738 30.925790 31.953622 0.858335 0.254324 0.015116 -0.017662 -971480.000000 0 0 1
-6.398244 -6.755838 30.531110 31.917512 0.812577 0.295821 0.028923 -0.012901 -1650510.000000 0 0 1
-7.612344 -5.862638 30.448390 31.928400 0.656272 0.305669 0.022278 -0.011026 -1639290.000000 0 0 1
-8.705744 -6.557138 30.044550 31.960304 0.645544 0.347995 0.024350 0.001415 -950114.000000 0 0 1
-9.866244 -5.709938 30.030940 32.121698 0.524637 0.362787 0.036194 -0.005779 51860.700000 0 0 1
-10.950444 -6.239938 29.137230 31.746294 0.517943 0.408255 0.052276 -0.007925 -699420.000000 0 0 1
-10.481944 -6.079138 27.823240 30.347319 0.525556 0.410737 0.037279 -0.001719 344884.000000 0 0 1
-11.264544 -6.759938 26.885230 29.923273 0.540499 0.454519 0.051737 -0.007644 -154878.000000 0 0 1
-10.817444 -6.333138 25.482660 28.398797 0.529657 0.457149 0.043065 -0.004419 842309.000000 0 0 1
-9.644144 -7.043638 25.009190 27.714291 0.630809 0.445505 0.036346 0.003414 687383.000000 0 0 1
-9.209044 -6.685438 23.695580 26.286538 0.627940 0.447726 0.025716 0.000422 -99381.400000 0 0 1
-10.136344 -6.970638 22.412290 25.566501 0.602415 0.501989 0.038058 -0.004709 826660.000000 0 0 1
-11.368444 -6.269038 22.408890 25.897890 0.503950 0.525090 0.037895 -0.003553 75226.400000 0 0 1
-12.041444 -6.173338 21.182790 25.135971 0.473736 0.568465 0.037834 -0.011701 414841.000000 0 0 1
-13.269444 -5.208438 21.251190 25.589432 0.374036 0.590850 0.042364 -0.004806 53051.200000 0 0 1
-12.985744 -3.902038 20.918090 24.928336 0.291903 0.575116 0.030022 -0.000459 -379856.000000 0 1 0
-14.035644 -2.958338 20.881690 25.333694 0.207733 0.601893 0.040977 -0.004539 -100471.000000 0 0 1
-13.642544 -1.590338 20.240990 24.461109 0.116048 0.596198 0.031278 -0.005128 -106879.000000 0 1 0
-12.895144 -0.680338 21.004490 24.656362 0.052710 0.551214 0.037103 -0.003818 -206668.000000 0 1 0
-13.128544 0.723662 20.800790 24.608031 -0.055066 0.563699 0.043557 -0.010709 -64290.800000 0 1 0
-12.605944 1.260662 19.378090 23.151878 -0.099674 0.579021 0.046601 -0.022864 638391.000000 0 1 0
-13.357244 0.854662 18.210890 22.600507 -0.063898 0.633816 0.047696 -0.019078 865672.000000 0 1 0
-14.674244 1.429662 18.079390 23.328988 -0.097120 0.684120 0.042207 -0.018042 829125.000000 0 1 0
-15.596244 0.576662 17.185690 23.214721 -0.036958 0.737291 0.043042 -0.009482 -180167.000000 0 1 0
-15.931844 -0.633338 17.820490 23.912227 0.039732 0.729893 0.024737 -0.005845 -71897.900000 0 1 0
-16.868144 -1.407338 17.151290 24.097336 0.083239 0.778809 0.027758 -0.004192 -395056.000000 0 1 0
-16.766744 -2.890338 17.550190 24.443545 0.170707 0.769888 0.029959 -0.006211 -224934.000000 0 1 0
-17.280044 -3.147338 18.827890 25.748691 0.180162 0.750691 0.039524 -0.009243 -35545.900000 0 0 1
-17.099044 -4.532538 19.120590 26.048381 0.259116 0.746542 0.057596 -0.008734 -41418.600000 0 0 1
-18.004344 -5.085438 20.255590 27.573665 0.275285 0.745721 0.061756 -0.001101 185817.000000 0 0 1
-17.605644 -4.579438 21.548590 28.200561 0.254473 0.701122 0.061989 0.001675 715144.000000 0 0 1
-18.626544 -4.861738 22.519490 29.626205 0.255315 0.707298 0.062729 -0.006152 -36367.800000 0 0 1
-18.721844 -6.332938 22.992290 30.319283 0.326182 0.710035 0.072296 -0.010294 303890.000000 0 0 1
-17.594044 -6.815338 23.710900 30.301914 0.369568 0.672144 0.062606 -0.011013 400593.000000 0 0 1
-16.429944 -7.064438 22.975590 29.115753 0.406076 0.661434 0.070342 -0.010853 -433016.000000 0 0 1
-15.220844 -7.686538 23.706300 29.201808 0.467640 0.623552 0.082542 -0.010941 228360.000000 0 0 1
-15.494144 -9.049438 24.135270 30.074442 0.528613 0.639293 0.084556 -0.014729 303323.000000 0 0 1
-14.825144 -9.240938 25.365090 30.798825 0.557397 0.603114 0.093447 -0.010498 196776.000000 0 0 1
-15.765544 -9.885438 26.412470 32.309330 0.560056 0.613761 0.075911 -0.017490 -38453.500000 0 0 1
-15.864744 -11.259038 26.251270 32.673922 0.617199 0.637759 0.078982 -0.021041 28596.400000 0 0 1
-14.895044 -11.967738 27.011560 33.086454 0.676854 0.615659 0.074523 -0.020159 -40002.900000 0 0 1
-14.959044 -13.482638 26.765770 33.495686 0.733535 0.645031 0.060862 -0.018458 388040.000000 0 0 1
-16.161944 -14.067938 27.270830 34.681601 0.716239 0.665967 0.059564 -0.021761 433130.000000 0 0 1
-16.285244 -15.494538 27.142050 35.241747 0.760523 0.691693 0.069346 -0.015791 240936.000000 0 0 1
-15.214944 -16.323938 27.928360 35.748549 0.820546 0.674139 0.064246 -0.020005 1088780.000000 0 0 1
-13.935944 -16.471538 27.283570 34.783837 0.868593 0.669109 0.067033 -0.023919 1045600.000000 0 0 1
-13.046144 -17.221838 28.142180 35.479231 0.922490 0.654748 0.080045 -0.024593 448403.000000 0 0 1
-11.784544 -17.654638 27.344500 34.616230 0.982214 0.660097 0.075317 -0.028672 425073.000000 0 0 1
-10.743644 -18.217038 28.171050 35.226331 1.037942 0.643975 0.094157 -0.039681 27184.800000 0 0 1
-9.879344 -18.916538 27.355530 34.695271 1.089500 0.662509 0.081635 -0.036317 -610615.000000 0 0 1
-8.740444 -19.535138 28.211120 35.410228 1.150089 0.648991 0.094647 -0.042195 -172494.000000 0 0 1
-9.058644 -20.573038 29.069470 36.747014 1.156025 0.658240 0.092591 -0.040235 234379.000000 0 0 1
-7.888844 -20.991938 29.767880 37.269585 1.211321 0.645635 0.097378 -0.041728 389897.000000 0 0 1
-8.163644 -22.322738 30.511800 38.677121 1.220195 0.661804 0.091081 -0.032429 172617.000000 0 0 1
-8.178244 -23.439538 29.623340 38.650199 1.235095 0.697505 0.087441 -0.031806 45621.600000 0 0 1
-8.583744 -24.657138 30.247380 39.956966 1.235794 0.712088 0.080585 -0.029415 -205236.000000 0 0 1
-8.742044 -25.787038 29.226730 39.944917 1.243946 0.750019 0.076148 -0.020922 -416815.000000 0 0 1
-9.922444 -25.768238 28.470750 39.661576 1.203231 0.770098 0.074505 -0.022735 -197066.000000 0 0 1
-10.152844 -27.044438 27.902330 40.162444 1.211663 0.802742 0.068719 -0.018985 88329.600000 0 0 1
-11.458044 -27.121638 27.052320 39.983722 1.171072 0.827684 0.057614 -0.013235 186754.000000 0 0 1
-11.487444 -26.442638 25.826970 38.706677 1.160967 0.840288 0.059866 -0.015732 125686.000000 0 0 1
-11.693944 -25.046438 25.845360 37.842503 1.133985 0.818973 0.054886 -0.012677 -229160.000000 0 0 1
-11.925744 -24.495438 24.410980 36.580675 1.117719 0.840193 0.053857 -0.024308 90094.400000 0 0 1
-13.214344 -24.761038 23.877120 36.848945 1.080573 0.865876 0.037112 -0.015035 319741.000000 0 0 1
-13.244044 -24.308138 22.509990 35.678984 1.071923 0.888079 0.049882 -0.022705 17088.000000 0 0 1
-14.615144 -24.447738 21.816490 35.878316 1.031987 0.917170 0.050319 -0.019276 -38450.600000 0 0 1
-14.991544 -25.809738 21.539690 36.808249 1.044578 0.945686 0.053767 -0.019755 1155880.000000 0 0 1
-16.225844 -25.846038 20.769690 36.914438 1.010194 0.973216 0.067924 -0.019361 936718.000000 0 0 1
-16.523344 -27.261538 20.187590 37.732627 1.025900 1.006269 0.078553 -0.026904 262501.000000 0 0 1
-15.590444 -27.692038 19.197390 37.127492 1.058032 1.027376 0.074652 -0.026005 254331.000000 0 0 1
-15.773144 -29.069038 18.847890 38.066310 1.073645 1.052808 0.090078 -0.015002 -99465.900000 0 0 1
-14.853444 -29.516638 17.710090 37.490052 1.104574 1.078791 0.079905 -0.025941 -44220.100000 0 0 1
-15.157444 -28.946438 16.443590 36.579175 1.088418 1.104553 0.093977 -0.036726 -73489.600000 0 0 1
-14.264944 -29.417838 15.475190 36.171526 1.119295 1.128708 0.086837 -0.037096 -121538.000000 0 0 1
-14.565644 -28.777038 14.134890 35.214642 1.102237 1.157760 0.077682 -0.034597 -76640.400000 0 0 1
-14.605444 -27.328838 14.149890 34.064700 1.079983 1.142433 0.075859 -0.029250 -194387.000000 0 0 1
-14.747644 -26.784838 12.808890 33.150991 1.067495 1.174092 0.082436 -0.026180 -160424.000000 0 0 1
-13.596844 -26.869638 11.796690 32.342132 1.102336 1.197435 0.063016 -0.021082 -174520.000000 0 0 1
-13.875144 -26.064238 10.653590 31.390494 1.081609 1.224529 0.058618 -0.017249 275775.000000 0 0 1
-12.937044 -26.342138 9.604990 30.879300 1.114281 1.254499 0.057225 -0.016775 157057.000000 0 0 1
-13.286544 -25.669838 8.310790 30.075606 1.093173 1.290823 0.063629 -0.013741 -524992.000000 0 0 1
-14.411244 -26.137438 7.635990 30.808407 1.066906 1.320332 0.079815 -0.020008 -447942.000000 0 0 1
-14.531444 -25.414938 6.427490 29.973231 1.051395 1.354677 0.070773 -0.021342 -17125.200000 0 0 1
-15.570944 -25.844638 5.371990 30.647314 1.028553 1.394602 0.065805 -0.017175 -88466.000000 0 0 1
-15.277844 -27.057438 4.669990 31.421748 1.056779 1.421621 0.082706 -0.021318 322982.000000 0 0 1
-16.124044 -27.151038 3.513290 31.772738 1.034900 1.459994 0.101881 -0.021024 336795.000000 0 0 1
-15.865844 -28.452038 2.788190 32.695833 1.062110 1.485416 0.098605 -0.015299 1035510.000000 0 0 1
-14.542044 -28.542738 2.210890 32.109920 1.099591 1.501888 0.103490 -0.002411 724530.000000 0 0 1
-14.307244 -29.760938 1.519990 33.056331 1.122676 1.524798 0.106211 -0.007032 -1313010.000000 0 0 1
-12.926544 -29.733738 0.959290 32.436260 1.160702 1.541217 0.072505 -0.006292 -1120550.000000 0 0 1
-12.741944 -29.027338 -0.255710 31.701875 1.157158 1.578862 0.078833 -0.002735 -131308.000000 0 0 1
-12.718344 -27.608438 -0.213810 30.397826 1.139106 1.577830 0.070817 -0.008828 -383719.000000 0 0 1
-12.374644 -26.847238 -1.516310 29.600763 1.138892 1.622044 0.069509 -0.011364 1183410.000000 0 0 1
-11.086644 -27.155938 -2.109010 29.407594 1.183191 1.642574 0.086947 -0.010048 836257.000000 0 0 1
-10.517644 -26.111038 -2.859110 28.294552 1.187875 1.672017 0.105393 -0.016234 1082710.000000 0 0 1
-9.336544 -26.602938 -3.799310 28.448587 1.233267 1.704747 0.097735 -0.016604 581761.000000 0 0 1
-8.686944 -25.552638 -4.379710 27.341949 1.243091 1.731672 0.103341 -0.024207 -821467.000000 0 0 1
-7.586744 -26.002938 -5.118810 27.566532 1.286912 1.757570 0.109719 -0.015351 -10284.200000 0 0 1
-6.786844 -24.878538 -5.781010 26.427693 1.304477 1.791328 0.085792 -0.019381 15860.700000 0 0 1
-7.199544 -24.646238 -7.117610 26.644528 1.286589 1.841212 0.098191 -0.017098 34469.000000 0 0 1
-6.411244 -23.578938 -7.592710 25.587489 1.305309 1.872068 0.083654 -0.015718 -66734.200000 0 0 1
-6.503644 -23.454938 -9.098410 25.984853 1.300309 1.928520 0.082350 -0.018251 69817.400000 0 0 1
-5.804344 -24.496338 -9.782810 27.008598 1.338140 1.941435 0.064709 -0.019390 -22715.500000 0 0 1
-6.083044 -24.580238 -11.134010 27.661484 1.328194 1.985053 0.052061 -0.009620 -117637.000000 0 0 1
-7.425044 -25.136638 -11.655510 28.685062 1.283577 1.989227 0.060470 -0.012981 140712.000000 0 0 1
-7.513444 -25.252938 -13.051510 29.402460 1.281609 2.030733 0.072845 -0.008613 1184480.000000 0 0 1
-8.816544 -25.799938 -13.430510 30.393204 1.241510 2.028503 0.086042 -0.016006 925602.000000 0 0 1
-9.166244 -25.760338 -14.924110 31.150347 1.228939 2.070425 0.088031 -0.019824 -226638.000000 0 0 1
-8.311044 -26.506738 -15.750710 31.933767 1.266960 2.086596 0.087850 -0.020016 586694.000000 0 0 1
-7.020344 -25.947738 -15.999410 31.281807 1.306565 2.107680 0.080169 -0.014574 687999.000000 0 0 1
-5.937944 -26.833038 -16.697210 32.156927 1.353014 2.116759 0.075314 -0.007767 251861.000000 0 0 1
-6.044344 -26.916438 -18.070610 32.978412 1.349901 2.150711 0.108670 -0.008728 312658.000000 0 0 1
-4.888744 -27.532738 -18.627010 33.599360 1.395067 2.158421 0.100594 -0.014087 183333.000000 0 0 1
-25.411104 14.365163 -5.003111 29.616097 -0.514522 1.740542 0.084217 -0.036905 2679.960000 0 0 1
-25.310514 13.060863 -4.558611 28.844222 -0.476385 1.729504 0.078091 -0.031205 333823.000000 0 0 1
-24.061044 12.473263 -4.882411 27.538229 -0.478260 1.749034 0.097417 -0.033346 -265283.000000 0 0 1
-24.006444 10.996463 -4.337111 26.758962 -0.429539 1.733595 0.104599 -0.042018 167117.000000 0 0 1
-24.724944 9.976763 -5.056011 27.137094 -0.383529 1.758205 0.095015 -0.041198 162052.000000 0 0 1
-26.126914 10.098963 -5.073311 28.466527 -0.368845 1.749974 0.091781 -0.037648 -749282.000000 0 0 1
-26.630494 9.517463 -6.360411 28.986551 -0.343243 1.792023 0.106566 -0.034345 -441773.000000 0 0 1
-26.339754 10.371363 -7.431411 29.267280 -0.375110 1.827522 0.128819 -0.033861 112856.000000 0 0 1
-26.585824 9.689263 -8.687911 29.600129 -0.349491 1.868692 0.122736 -0.037110 -427029.000000 0 0 1
-27.005764 10.535163 -9.924011 30.639630 -0.371950 1.900639 0.100020 -0.035126 -344185.000000 0 0 1
-26.090614 11.475663 -10.426011 30.349838 -0.414372 1.921467 0.096421 -0.022648 202667.000000 0 0 1
-26.549184 11.964863 -11.680411 31.375932 -0.423409 1.952253 0.087288 -0.024058 -376328.000000 0 0 1
-25.704654 13.111263 -12.200011 31.328497 -0.471674 1.970800 0.062993 -0.017072 -382530.000000 0 0 1
-25.646454 14.386363 -11.508311 31.577670 -0.511211 1.943833 0.073042 -0.016047 244149.000000 0 0 1
-24.977244 15.421363 -12.233511 31.801571 -0.553127 1.965660 0.059215 -0.013009 3854.910000 0 0 1
-25.016344 16.775763 -11.484811 32.235765 -0.590715 1.935075 0.089437 -0.009687 -460419.000000 0 0 1
-24.131544 16.806263 -10.413111 31.196390 -0.608335 1.911120 0.085434 -0.003558 -157066.000000 0 0 1
-23.965644 18.123163 -9.987511 31.663093 -0.647466 1.891707 0.049587 0.000393 127156.000000 0 0 1
-22.809844 18.227663 -8.958311 30.541578 -0.674200 1.868489 0.052549 -0.005910 29180.100000 0 0 1
-23.141644 17.693963 -7.675211 30.125087 -0.652776 1.828415 0.068299 -0.018997 445676.000000 0 0 1
-23.861044 18.646563 -6.864311 31.050966 -0.663336 1.793704 0.053808 -0.018152 244693.000000 0 0 1
-24.252444 18.047163 -5.480211 30.723180 -0.639739 1.750130 0.057131 -0.018607 -334705.000000 0 0 1
-23.140244 17.705463 -4.725211 29.517485 -0.653119 1.731570 0.074071 -0.024299 -443211.000000 0 0 1
-23.537644 17.303963 -3.451711 29.417038 -0.633936 1.688404 0.071916 -0.027718 -38390.400000 0 0 1
-22.464144 17.135263 -2.340611 28.350193 -0.651632 1.653451 0.088000 -0.033756 -103625.000000 0 0 1
-21.737544 18.306263 -1.977811 28.487748 -0.699919 1.640279 0.076438 -0.033633 81008.100000 0 0 1
-20.791244 18.076963 -0.993211 27.568802 -0.715678 1.606831 0.137260 -0.049174 -21118.600000 0 0 1
-20.009044 19.309263 -0.404811 27.809590 -0.767602 1.585353 0.097950 -0.037886 96074.900000 0 0 1
-20.837544 20.121463 0.383589 28.969357 -0.767917 1.557555 0.081296 -0.028275 81822.300000 0 0 1
-20.351144 21.413063 0.652489 29.548503 -0.810819 1.548713 0.077113 -0.028409 -473412.000000 0 0 1
-21.366644 22.143263 1.490989 30.807152 -0.803246 1.522380 0.048940 -0.017681 -516070.000000 0 0 1
-21.194444 21.828763 2.855689 30.559029 -0.800141 1.477211 0.068169 -0.020423 160407.000000 0 0 1
-22.402044 21.814163 3.574689 31.472014 -0.772103 1.456968 0.047436 -0.024129 -211853.000000 0 0 1
-22.113344 21.321863 5.043289 31.129673 -0.767178 1.408070 0.051588 -0.012184 -292218.000000 0 0 1
-21.253544 22.206163 5.701689 31.262374 -0.807314 1.387388 0.051118 -0.013924 149364.000000 0 0 1
-20.545244 21.622063 6.805789 30.593127 -0.810929 1.346458 0.045592 -0.006226 -7058.150000 0 0 1
-21.281444 21.506763 8.188189 31.344651 -0.790664 1.306499 0.043610 -0.008503 -648560.000000 0 0 1
-22.486544 20.789163 8.209989 31.705486 -0.746196 1.308866 0.053101 -0.002264 262569.000000 0 0 1
-22.954844 20.462563 9.527489 32.193390 -0.728058 1.270351 0.066193 -0.004940 -135583.000000 0 0 1
-23.428944 21.615063 10.412389 33.534224 -0.745151 1.255077 0.078012 -0.001862 108752.000000 0 0 1
-24.843744 21.872363 10.278689 34.659245 -0.721879 1.269703 0.091442 -0.003617 1052480.000000 0 0 1
-25.276074 22.917163 11.127489 35.887285 -0.736490 1.255532 0.099571 -0.000603 177195.000000 0 0 1
-26.817984 23.088863 10.931089 37.037664 -0.710815 1.271200 0.101722 -0.013917 332214.000000 0 0 1
-27.429114 23.864663 11.943289 38.269055 -0.716019 1.253407 0.103165 -0.017632 18096.600000 0 0 1
-27.090964 25.258663 12.019689 38.940895 -0.750411 1.257007 0.094423 -0.020380 -294081.000000 0 0 1
-27.617394 25.822563 13.327389 40.089206 -0.751825 1.231903 0.115326 -0.024206 408859.000000 0 0 1
-26.796014 25.421563 14.419889 39.651171 -0.759083 1.198593 0.087658 -0.023052 336473.000000 0 0 1
-27.330384 26.038963 15.558189 40.829336 -0.761205 1.179860 0.099829 -0.020311 75614.700000 0 0 1
-26.279514 26.223363 16.666089 40.694423 -0.784329 1.148844 0.078193 -0.021937 -160997.000000 0 0 1
-25.979424 24.963663 17.265889 39.952795 -0.765462 1.123913 0.084482 -0.020359 -585905.000000 0 0 1
-24.846644 25.105463 18.045989 39.664816 -0.790579 1.098467 0.064009 -0.014825 -820505.000000 0 0 1
-24.453944 23.834063 18.713389 38.939040 -0.772562 1.069478 0.062719 -0.013460 -330393.000000 0 0 1
-23.203344 23.939363 19.371089 38.558103 -0.801009 1.044439 0.074212 -0.023685 447906.000000 0 0 1
-22.949444 22.644463 19.886489 37.880352 -0.778709 1.018103 0.075678 -0.030084 428904.000000 0 0 1
-21.456444 22.386363 20.312889 37.069417 -0.806605 0.990862 0.084171 -0.026618 -173698.000000 0 0 1
-20.567244 22.474763 19.262589 36.044054 -0.829687 1.006977 0.082635 -0.027249 1002070.000000 0 0 1
-19.198144 22.120363 19.616689 35.251860 -0.856005 0.980662 0.071404 -0.022136 1438390.000000 0 0 1
-18.873644 20.602063 19.711589 34.193656 -0.829155 0.956395 0.084317 -0.023050 -573331.000000 0 0 1
-19.362444 19.915463 20.880389 34.749396 -0.799477 0.926189 0.076741 -0.026573 327958.000000 0 0 1
-18.681644 20.220163 22.085789 35.293638 -0.824926 0.894675 0.067532 -0.029487 -355351.000000 0 0 1
-19.634544 19.939063 23.224389 36.365557 -0.793093 0.878071 0.065248 -0.024756 -432668.000000 0 0 1
-20.653044 20.905363 23.299089 37.502399 -0.791470 0.900435 0.075398 -0.025137 -226654.000000 0 0 1
-21.325244 20.743663 24.528389 38.557845 -0.771575 0.881304 0.075326 -0.023919 598698.000000 0 0 1
-22.598544 21.649963 24.654289 39.840294 -0.763964 0.903547 0.081012 -0.021598 187664.000000 0 0 1
-22.128744 22.959163 24.826689 40.412485 -0.803814 0.909257 0.091671 -0.027591 117377.000000 0 0 1
-23.059544 23.980663 25.074989 41.660170 -0.804977 0.924926 0.086785 -0.024908 -526997.000000 0 0 1
-23.851744 24.554163 23.909689 41.755069 -0.799908 0.961101 0.071539 -0.022741 -252629.000000 0 0 1
-24.814244 23.676763 23.402689 41.521339 -0.761945 0.972022 0.064399 -0.024104 -237294.000000 0 0 1
-25.553994 24.264563 22.349289 41.728483 -0.759521 1.005592 0.057299 -0.019988 117801.000000 0 0 1
-26.597784 23.264363 21.785989 41.512672 -0.718645 1.018312 0.062648 -0.021226 -1060220.000000 0 0 1
-27.726634 23.130263 22.528589 42.559518 -0.695265 1.012970 0.072026 -0.020139 -1010730.000000 0 0 1
-28.670024 22.268063 21.923389 42.408394 -0.660372 1.027502 0.071904 -0.018266 375892.000000 0 0 1
-30.124584 22.414163 22.431389 43.738455 -0.639682 1.032292 0.079246 -0.010514 -266685.000000 0 0 1
-30.846174 23.503363 21.841989 44.508055 -0.651108 1.057855 0.088220 -0.013801 -914397.000000 0 0 1
-32.131674 23.670663 22.274289 45.704362 -0.634920 1.061737 0.094733 -0.013534 -1169230.000000 0 0 1
-33.188794 22.875163 21.503789 45.685687 -0.603470 1.080724 0.090023 -0.016905 -1240840.000000 0 0 1
-33.017514 21.486963 21.771289 45.009274 -0.576920 1.065911 0.072883 -0.014446 176165.000000 0 0 1
-33.578534 20.700163 20.739489 44.566142 -0.552442 1.086750 0.092747 -0.023699 -705220.000000 0 0 1
-35.091117 20.644063 20.619989 45.637131 -0.531771 1.101987 0.119970 -0.026181 -1051810.000000 0 0 1
-35.559165 19.950863 19.478289 45.187331 -0.511296 1.125133 0.114056 -0.025786 59675.000000 0 0 1
36.650888 19.894663 19.559389 46.061425 0.497310 1.132235 0.136936 -0.032840 441355.000000 0 0 1
35.964998 19.015563 18.441689 44.667310 0.486362 1.145196 0.130553 -0.043077 46617.600000 0 0 1
36.113198 17.671063 18.606189 44.301465 0.455071 1.137362 0.146559 -0.049396 161169.000000 0 0 1
35.640438 16.998463 17.475389 43.180757 0.445033 1.154142 0.163049 -0.063198 12778.200000 0 0 1
35.913418 15.474663 17.504989 42.844642 0.406847 1.149911 0.177789 -0.070476 -746946.000000 0 0 1
34.955158 14.755463 16.860589 41.519468 0.399433 1.152626 0.208090 -0.071087 -818199.000000 0 0 1
35.351658 13.415063 16.620889 41.303239 0.362688 1.156647 0.180118 -0.054501 -570758.000000 0 0 1
34.327868 12.626463 15.812489 39.848022 0.352461 1.162747 0.164083 -0.059320 -232881.000000 0 0 1
34.245278 13.055163 14.441989 39.392225 0.364217 1.195423 0.151992 -0.058411 -101111.000000 0 0 1
33.407118 12.224963 13.688989 38.116580 0.350803 1.203456 0.156662 -0.045239 -337433.000000 0 0 1
33.264088 12.577763 12.147689 37.580128 0.361502 1.241637 0.166614 -0.049047 565640.000000 0 0 1
34.550358 12.393963 11.536289 38.476272 0.344423 1.266283 0.146449 -0.047646 814644.000000 0 0 1
34.516198 12.527163 10.155089 38.097553 0.348152 1.300980 0.127423 -0.037095 -460113.000000 0 0 1
35.910208 12.565763 9.494189 39.212001 0.336605 1.326241 0.103332 -0.032783 -215264.000000 0 0 1
36.602048 11.334263 9.612989 39.504240 0.300297 1.324988 0.103151 -0.033745 -115889.000000 0 0 1
-35.646317 11.410463 9.361289 38.580983 -0.309796 1.325710 0.104596 -0.024557 -158232.000000 0 0 1
-35.133110 11.300963 7.887589 37.739386 -0.311209 1.360243 0.112382 -0.042414 -301757.000000 0 0 1
-35.502902 12.401563 7.082789 38.267750 -0.336061 1.384638 0.105671 -0.045440 285369.000000 0 0 1
-35.062495 12.162363 5.706589 37.548192 -0.333890 1.418225 0.117829 -0.041540 116079.000000 0 0 1
-36.086514 12.773263 4.725189 38.570975 -0.340200 1.447981 0.111904 -0.042236 104727.000000 0 0 1
36.269318 12.101663 4.769089 38.531258 0.322046 1.446706 0.112236 -0.044268 426975.000000 0 0 1
35.218108 13.036263 4.616089 37.836061 0.354519 1.448489 0.090881 -0.038573 87930.800000 0 0 1
34.781658 13.826163 5.877489 37.887615 0.378361 1.415038 0.114271 -0.038656 -1425500.000000 0 0 1
33.806218 14.784663 5.635489 37.325666 0.412272 1.419235 0.102386 -0.025224 -72334.500000 0 0 1
33.241128 15.370463 6.823089 37.252896 0.433112 1.386601 0.104112 -0.027090 262539.000000 0 0 1
32.072918 14.588663 7.476489 36.019426 0.426888 1.361708 0.120967 -0.038530 -379907.000000 0 0 1
32.416248 13.402263 8.169689 36.016352 0.392041 1.341972 0.135087 -0.030777 585308.000000 0 0 1
31.325358 12.446363 8.168589 34.683077 0.378199 1.333042 0.152661 -0.031738 541736.000000 0 0 1
31.464298 11.349863 7.073489 34.188531 0.346195 1.362395 0.146121 -0.031773 -235213.000000 0 0 1
31.153398 11.798863 5.769089 33.808723 0.362041 1.399318 0.128652 -0.039359 157335.000000 0 0 1
31.276948 10.777763 4.784789 33.426065 0.331848 1.427157 0.137376 -0.047771 -288312.000000 0 0 1
30.734228 11.101063 3.405089 32.854543 0.346613 1.466969 0.110683 -0.053476 -107383.000000 0 0 1
29.347328 10.881263 3.264789 31.469451 0.355062 1.466865 0.103424 -0.050985 -71176.000000 0 0 1
28.801848 11.391063 2.098489 31.043621 0.376619 1.503147 0.110311 -0.048670 945316.000000 0 0 1
27.242518 11.117963 2.064689 29.496217 0.387479 1.500741 0.133678 -0.042065 1071370.000000 0 0 1
26.919018 9.813763 1.655589 28.699903 0.349592 1.513078 0.112475 -0.045325 285409.000000 0 0 1
25.553718 9.448863 1.817989 27.305285 0.354173 1.504167 0.118308 -0.042869 -36770.500000 0 0 1
25.435018 7.875363 1.850989 26.690591 0.300265 1.501391 0.131811 -0.040201 137120.000000 0 0 1
25.922918 7.163563 3.015789 27.063061 0.269612 1.459129 0.144226 -0.036310 1785010.000000 0 0 1
27.381518 7.201063 3.012189 28.472374 0.257167 1.464805 0.180159 -0.044512 991721.000000 0 0 1
28.009018 6.382963 4.132889 29.022888 0.224063 1.427910 0.184498 -0.050125 -264709.000000 0 0 1
29.410858 6.242963 4.106489 30.345286 0.209163 1.435054 0.197815 -0.044952 97043.100000 0 0 1
29.808998 5.391163 5.144289 30.726287 0.178923 1.402581 0.182454 -0.038072 74491.200000 0 0 1
31.330808 5.450363 5.416389 32.259312 0.172238 1.402096 0.167625 -0.039828 132455.000000 0 0 1
31.745408 6.638963 6.052289 32.992074 0.206160 1.386305 0.154747 -0.037275 -327661.000000 0 0 1
33.112948 6.635063 6.383489 34.369176 0.197758 1.383979 0.107842 -0.029921 -43711.800000 0 0 1
33.554848 7.916263 7.097489 35.198997 0.231684 1.367765 0.108941 -0.034587 62758.800000 0 0 1
32.944468 7.984663 8.381089 34.918984 0.237782 1.328415 0.121214 -0.039270 221987.000000 0 0 1
33.432888 9.085463 9.136589 35.829888 0.265344 1.312950 0.121384 -0.043538 -36981.400000 0 0 1
32.860188 9.037863 10.553889 35.677156 0.268403 1.270486 0.130989 -0.039789 -948446.000000 0 0 1
31.555318 9.452163 10.721589 34.641506 0.291037 1.256128 0.137988 -0.041904 -872559.000000 0 0 1
31.094378 9.101063 12.005389 34.551686 0.284738 1.215934 0.120673 -0.036820 -762234.000000 0 0 1
29.631738 9.450363 12.250689 33.427962 0.308729 1.195573 0.115221 -0.041591 -715480.000000 0 0 1
29.227798 10.810363 12.322089 33.510625 0.354262 1.194254 0.147869 -0.044795 244690.000000 0 0 1
29.142598 11.541463 11.133289 33.263290 0.377083 1.229507 0.154439 -0.052839 -347783.000000 0 0 1
27.805018 11.463563 10.357889 31.809089 0.391051 1.239122 0.126965 -0.040123 -166291.000000 0 0 1
27.646218 12.580663 9.524089 31.832290 0.427053 1.266947 0.115383 -0.021732 127305.000000 0 0 1
26.611618 12.480163 8.569689 30.616535 0.438520 1.287102 0.093049 -0.023533 -212993.000000 0 0 1
26.601818 13.671963 7.621889 30.865393 0.474744 1.321276 0.077438 -0.022825 -44182.200000 0 0 1
26.305418 14.922963 8.238689 31.345587 0.516025 1.304838 0.072532 -0.009706 164638.000000 0 0 1
26.668418 16.058963 7.503989 32.021940 0.542015 1.334258 0.072486 -0.008325 -1004140.000000 0 0 1
26.164118 17.451263 8.064889 32.467677 0.588228 1.319771 0.084559 -0.011091 463788.000000 0 0 1
24.794618 17.816063 8.131489 31.595985 0.623065 1.310509 0.092310 -0.011122 189520.000000 0 0 1
23.947218 16.852063 8.735289 30.557594 0.613216 1.280889 0.083080 -0.004586 -913424.000000 0 0 1
22.608418 17.544363 9.114489 30.033633 0.659941 1.262458 0.079134 -0.013947 -249679.000000 0 0 1
22.007218 17.917563 7.898089 29.457367 0.683320 1.299356 0.087298 -0.019887 91612.800000 0 0 1
21.096418 19.015863 8.129289 29.542295 0.733576 1.292025 0.122555 -0.022486 391672.000000 0 0 1
20.461118 19.513363 6.815589 29.084032 0.761694 1.334255 0.114186 -0.019607 332191.000000 0 0 1
21.400318 20.150563 5.960989 29.992535 0.755330 1.370715 0.074737 -0.003908 302417.000000 0 0 1
20.684418 20.773963 4.933889 29.727864 0.787558 1.404056 0.093336 -0.009727 172042.000000 0 0 1
17.384856 16.613463 32.943607 40.786292 0.762713 0.630534 0.097510 -0.017126 55326.800000 0 0 1
16.932756 17.536863 31.925810 40.168609 0.802922 0.652127 0.082655 -0.022555 415356.000000 0 0 1
16.566456 16.862463 30.719220 38.761587 0.794253 0.655871 0.082079 -0.023366 119320.000000 0 0 1
16.062556 17.757463 29.583540 38.059415 0.835472 0.680435 0.089893 -0.029046 137982.000000 0 0 1
17.173156 18.362463 28.952750 38.345261 0.818854 0.715060 0.100729 -0.030344 287281.000000 0 0 1
16.807656 18.715063 27.635350 37.369285 0.839042 0.738439 0.102877 -0.035996 323915.000000 0 0 1
18.083456 18.922463 26.754980 37.428598 0.808066 0.774419 0.089415 -0.026976 320965.000000 0 0 1
18.738156 20.136163 27.084230 38.602319 0.821345 0.793125 0.100358 -0.031234 -438470.000000 0 0 1
19.667556 20.461063 26.116440 38.568592 0.805170 0.826924 0.070203 -0.018900 -449703.000000 0 0 1
20.344856 21.851563 26.458120 39.892808 0.821090 0.845670 0.077003 -0.026155 70988.200000 0 0 1
19.496056 22.931463 26.124870 39.855452 0.866193 0.855964 0.085967 -0.035332 228555.000000 0 0 1
19.970656 24.135363 26.555680 41.067591 0.879544 0.867634 0.077542 -0.032096 113068.000000 0 0 1
19.099256 25.293263 25.930240 40.950068 0.924031 0.885095 0.104192 -0.037832 396278.000000 0 0 1
19.181256 25.460563 24.510530 40.211030 0.925141 0.915307 0.108439 -0.040719 -155546.000000 0 0 1
18.455956 26.625263 24.287050 40.489353 0.964666 0.927498 0.117238 -0.046105 -414760.000000 0 0 1
18.828556 27.447963 23.095590 40.513102 0.969547 0.964197 0.097863 -0.047320 487121.000000 0 0 1
20.123856 28.058663 23.246780 41.625364 0.948615 0.978248 0.094924 -0.044375 675015.000000 0 0 1
20.206656 29.250563 22.526990 42.087643 0.966263 1.006004 0.076521 -0.038875 -382414.000000 0 0 1
21.650456 29.748063 22.470190 43.111471 0.941659 1.022527 0.083354 -0.031460 -505991.000000 0 0 1
22.435056 29.116963 21.499490 42.583534 0.914294 1.041556 0.097811 -0.037764 -779892.000000 0 0 1
23.610156 29.778363 21.189590 43.510793 0.900423 1.062149 0.090815 -0.043055 -543774.000000 0 0 1
23.675156 29.955763 19.641890 42.937916 0.901975 1.095672 0.080407 -0.036637 440855.000000 0 0 1
22.653956 30.824863 19.121490 42.766871 0.937013 1.107265 0.063103 -0.024176 517039.000000 0 0 1
22.722156 30.918863 17.709190 42.259767 0.937032 1.138391 0.075229 -0.012600 288967.000000 0 0 1
21.899856 32.078663 17.008190 42.401920 0.971781 1.158059 0.088826 -0.022074 -376613.000000 0 0 1
22.545256 33.296263 17.242090 43.751793 0.975598 1.165720 0.089349 -0.016548 197569.000000 0 0 1
22.633456 -33.978338 16.111290 43.890483 -0.983176 1.194929 0.088182 -0.016007 -10391.000000 0 0 1
23.708356 33.719663 15.075590 43.890491 0.957992 1.220174 0.075843 -0.018488 -257334.000000 0 0 1
23.417356 32.671263 14.180490 42.624761 0.948912 1.231650 0.100368 -0.021824 -168365.000000 0 0 1
22.495656 33.032963 13.176690 42.081544 0.972932 1.252317 0.080864 -0.018728 5337.010000 0 0 1
22.039556 31.790663 12.297690 40.590904 0.964601 1.262992 0.077375 -0.027350 -252136.000000 0 0 1
23.037856 31.342863 11.413690 40.538749 0.936947 1.285387 0.105489 -0.042866 -56642.000000 0 0 1
22.588656 30.235263 10.668690 39.220396 0.929156 1.295306 0.087003 -0.037099 241981.000000 0 0 1
23.803756 29.648063 9.852090 39.277094 0.894303 1.317253 0.085770 -0.034818 1039520.000000 0 0 1
24.911456 29.017763 10.455890 39.647659 0.861394 1.303919 0.095627 -0.033735 154008.000000 0 0 1
25.752756 29.883963 11.164390 40.998772 0.859515 1.295003 0.094745 -0.041417 -860206.000000 0 0 1
27.210156 29.415063 11.330390 41.641521 0.824317 1.295228 0.106478 -0.039492 166651.000000 0 0 1
27.273656 28.372163 12.287190 41.228716 0.805137 1.268173 0.108088 -0.035940 307465.000000 0 0 1
28.644956 28.339063 12.675790 42.241113 0.780030 1.266018 0.097015 -0.017464 522784.000000 0 0 1
29.008456 27.294263 13.729590 42.130381 0.754962 1.238850 0.084196 -0.032863 139474.000000 0 0 1
30.185256 27.371363 14.513890 43.254991 0.736548 1.228615 0.056843 -0.032322 143579.000000 0 0 1
30.435956 26.133663 15.186690 42.894654 0.709491 1.208902 0.060371 -0.033714 -101181.000000 0 0 1
31.511456 26.265963 16.284590 44.136839 0.694858 1.192910 0.051881 -0.036804 408440.000000 0 0 1
32.806156 26.448463 15.706890 44.971896 0.678513 1.214015 0.066493 -0.028216 190349.000000 0 0 1
33.801056 26.327963 16.712390 45.988879 0.661748 1.198881 0.047084 -0.029047 799217.000000 0 0 1
35.283556 26.450963 16.249090 46.995912 0.643289 1.217753 0.067733 -0.033521 587769.000000 0 0 1
35.514156 27.694363 15.657890 47.680211 0.662309 1.236194 0.066943 -0.026589 -463282.000000 0 0 1
-36.760905 28.085763 15.700790 48.853751 -0.652408 1.243606 0.087865 -0.028187 -55242.900000 0 0 1
-36.449305 29.331263 14.825490 49.078202 -0.677609 1.263924 0.062503 -0.024493 229096.000000 0 0 1
36.506556 30.532363 15.255190 49.976741 0.696518 1.260600 0.061523 -0.030743 243231.000000 0 0 1
36.609856 31.487163 14.235390 50.342520 0.710313 1.284115 0.047627 -0.009728 -50448.700000 0 0 1
35.613356 32.596563 14.580890 50.432622 0.741199 1.277493 0.027315 -0.008174 -1081480.000000 0 0 1
35.407456 33.504863 13.612490 50.611893 0.757796 1.298485 -0.000054 -0.007010 15609.500000 0 0 1
34.344356 -33.759538 13.842390 50.108412 -0.776811 1.290907 -0.006121 0.003467 247459.000000 0 0 1
32.909656 33.866363 13.560690 49.131134 0.799724 1.291156 0.030467 0.005635 -223125.000000 0 0 1
32.512156 32.848763 14.455790 48.425731 0.790548 1.267660 0.028666 -0.012457 114064.000000 0 0 1
31.786056 31.799963 13.781290 47.026747 0.785617 1.273379 0.057108 -0.007969 57636.200000 0 0 1
31.375356 30.624363 14.656490 46.228533 0.773286 1.248185 0.087750 -0.021508 55528.900000 0 0 1
30.385856 31.019763 15.594590 46.138023 0.795721 1.226007 0.076895 -0.024513 108103.000000 0 0 1
30.093356 30.088463 16.551990 45.660640 0.785317 1.199847 0.077964 -0.023330 120282.000000 0 0 1
28.890656 30.507563 17.440290 45.492253 0.812613 1.177356 0.062404 -0.021262 171661.000000 0 0 1
28.535956 29.515663 18.428890 45.001102 0.802273 1.148868 0.051011 -0.018717 93135.500000 0 0 1
29.026156 29.953663 19.711390 46.133270 0.801123 1.129325 0.038503 -0.017742 59584.900000 0 0 1
28.985156 28.952663 20.884690 45.984413 0.784837 1.099357 0.036130 -0.019140 -33252.700000 0 0 1
27.705456 28.683063 21.413990 45.264438 0.802733 1.078006 0.046898 -0.028461 -92460.600000 0 0 1
27.766356 27.875763 22.568790 45.358340 0.787364 1.050005 0.031499 -0.027150 -325009.000000 0 0 1
26.450556 27.694663 23.322600 44.839379 0.808371 1.023786 0.049229 -0.032785 -798087.000000 0 0 1
25.515856 26.891763 22.638990 43.436732 0.811646 1.022546 0.088993 -0.036795 215781.000000 0 0 1
24.266456 26.891863 23.327200 43.083540 0.836672 0.998646 0.095637 -0.045764 201892.000000 0 0 1
24.077456 25.759263 24.324020 42.835983 0.819132 0.966916 0.090747 -0.044103 -591809.000000 0 0 1
24.887156 25.964963 25.450700 44.060050 0.806590 0.954966 0.056701 -0.041579 91266.500000 0 0 1
24.742056 24.848263 26.280720 43.821020 0.787540 0.927634 0.067459 -0.044568 843121.000000 0 0 1
26.064456 24.627163 27.148930 44.976854 0.757052 0.922762 0.072394 -0.047105 971349.000000 0 0 1
26.445056 25.731763 27.873400 46.242741 0.771728 0.923837 0.096637 -0.048390 291322.000000 0 0 1
27.324456 26.687263 27.301740 46.949131 0.773601 0.950204 0.057491 -0.030399 -423602.000000 0 0 1
27.644856 27.934063 28.178740 48.358984 0.790602 0.948750 0.030820 -0.025038 -193705.000000 0 0 1
28.360656 27.660663 29.377490 49.320138 0.772904 0.932723 0.047906 -0.021260 110140.000000 0 0 1
28.568456 28.885263 30.103200 50.563997 0.790912 0.933097 0.051755 -0.020559 -208249.000000 0 0 1
30.050756 29.196863 30.373680 51.750026 0.770987 0.943534 0.043247 -0.017767 -213160.000000 0 0 1
30.686356 29.402863 29.140370 51.530010 0.764042 0.969753 0.019584 -0.015443 -816237.000000 0 0 1
32.064556 29.538663 29.338130 52.548970 0.744418 0.978460 0.049280 -0.019400 -238211.000000 0 0 1
32.832556 29.985363 28.060130 52.578224 0.740105 1.007846 0.041758 -0.013368 -339476.000000 0 0 1
32.573056 31.313563 27.615320 52.954217 0.765686 1.022195 0.042983 -0.013590 135654.000000 0 0 1
33.394756 31.605063 26.510900 53.074641 0.757871 1.047772 0.044917 -0.017173 -92640.100000 0 0 1
33.117656 33.030463 26.113630 53.569696 0.784080 1.061606 0.042567 -0.017442 -146933.000000 0 0 1
33.681856 33.988963 26.986340 54.936141 0.789936 1.057294 0.059199 -0.017368 104085.000000 0 0 1
33.289956 -32.881038 26.640950 53.843515 -0.779219 1.053209 0.062635 -0.014126 -338620.000000 0 0 1
34.182556 -31.796338 27.262680 54.062075 -0.749248 1.042243 0.070958 -0.017315 -191173.000000 0 0 1
34.113156 -31.578238 28.668980 54.615044 -0.746829 1.018165 0.077093 -0.019619 899500.000000 0 0 1
35.164156 -30.704438 29.130270 55.025931 -0.717795 1.012913 0.079309 -0.025637 369769.000000 0 0 1
35.050256 -30.311738 30.620920 55.542440 -0.713028 0.986867 0.080988 -0.021230 -256877.000000 0 0 1
35.095156 -31.281538 31.662320 56.680748 -0.728007 0.978090 0.084186 -0.019580 496891.000000 0 0 1
34.050056 -32.245938 31.654000 56.578994 -0.758192 0.977055 0.074892 -0.019588 -146713.000000 0 0 1
34.174156 -33.230538 32.817407 57.871615 -0.771400 0.967849 0.087521 -0.021580 -751493.000000 0 0 1
33.835456 -32.657938 -34.020805 58.041315 -0.767691 2.197093 0.073007 -0.023409 357071.000000 0 0 1
33.943156 -33.557538 -32.885111 57.962719 -0.779685 2.174080 0.071181 -0.021786 39430.900000 0 0 1
32.951956 33.380363 -32.858051 57.268941 0.791857 2.181873 0.058720 -0.021399 32397.600000 0 0 1
33.231056 32.347163 -33.781351 57.374400 0.771921 2.200355 0.075770 -0.028077 150675.000000 0 0 1
32.409456 31.225363 -33.543711 56.129998 0.766793 2.211310 0.082901 -0.022761 41946.500000 0 0 1
32.727356 30.239563 33.401308 55.688045 0.745909 0.927554 0.064236 -0.012798 425343.000000 0 0 1
34.014156 29.644363 33.539919 56.219901 0.716861 0.931558 0.076117 -0.027115 319772.000000 0 0 1
34.387656 29.105363 32.275809 55.419860 0.702394 0.949134 0.062231 -0.023129 521790.000000 0 0 1
35.798656 28.429063 32.370503 56.014327 0.671156 0.954647 0.056620 -0.016897 645980.000000 0 0 1
35.688456 27.155063 33.025317 55.693221 0.650436 0.936034 0.055062 -0.012117 -161657.000000 0 0 1
-36.701505 26.516463 32.945602 55.995856 -0.625661 0.941770 0.031453 -0.004792 -220287.000000 0 0 1
-36.716205 25.104263 33.686923 55.795273 -0.599728 0.922588 0.016037 0.005306 163736.000000 0 0 1
36.500856 24.041463 32.826937 54.661799 0.582435 0.926612 0.018214 0.005030 56784.900000 0 0 1
36.383356 22.891563 33.570902 54.541523 0.561597 0.907762 0.019889 -0.003757 -171854.000000 0 0 1
35.913556 21.732163 32.702661 53.212165 0.544179 0.908954 0.015823 -0.016258 -365091.000000 0 0 1
-36.743405 21.245163 31.803720 53.036887 -0.524238 0.927729 0.022472 -0.007197 -154621.000000 0 0 1
36.559156 19.996663 31.243730 52.082714 0.500512 0.927437 0.029938 -0.010649 -595954.000000 0 0 1
-35.918505 19.302663 30.532040 50.940526 -0.493119 0.928087 0.023765 -0.016655 -549511.000000 0 0 1
-35.638105 20.032663 29.384360 50.347023 -0.512096 0.947596 0.025094 -0.007525 -149589.000000 0 0 1
-34.531405 19.468763 28.718830 48.951219 -0.513375 0.943840 0.033503 -0.001004 -118347.000000 0 0 1
-34.914605 18.491363 27.573570 48.179476 -0.487059 0.961477 0.058765 -0.000186 -52711.800000 0 0 1
-35.716605 17.461263 28.134150 48.704229 -0.454715 0.954946 0.053270 0.001745 436036.000000 0 0 1
-36.323705 16.618163 27.152160 48.299220 -0.429075 0.973794 0.076946 -0.008732 -20246.200000 0 0 1
36.801356 15.243963 27.652630 48.491094 0.392707 0.963972 0.074452 -0.032176 -273388.000000 0 0 1
-35.790005 14.336163 27.905920 47.594016 -0.380992 0.944272 0.077261 -0.025561 -357122.000000 0 0 1
-36.155405 13.303863 28.821210 48.113077 -0.352587 0.928506 0.087505 -0.027775 -40021.800000 0 0 1
-35.059205 12.255263 29.131100 47.201274 -0.336282 0.905658 0.092957 -0.015825 -241215.000000 0 0 1
-33.934805 12.774463 29.761670 46.909646 -0.360034 0.883504 0.095833 -0.007298 -161347.000000 0 0 1
-33.094705 11.817463 30.383490 46.455015 -0.342968 0.857882 0.086838 -0.008359 166849.000000 0 0 1
-31.608405 12.165863 30.575300 45.628373 -0.367416 0.836461 0.094546 -0.000963 -595630.000000 0 0 1
-30.860605 12.298363 29.393340 44.357582 -0.379224 0.846451 0.085837 -0.001647 802959.000000 0 0 1
-29.493905 12.720463 29.540240 43.638588 -0.407187 0.827214 0.057334 -0.002937 1176640.000000 0 0 1
-28.498305 11.594463 29.956810 42.941768 -0.386395 0.798733 0.060683 -0.006704 -423417.000000 0 0 1
-28.281805 10.587363 28.990770 41.861886 -0.358203 0.805801 0.067926 -0.017468 -347560.000000 0 0 1
-27.226205 9.792363 29.439190 41.277385 -0.345261 0.776738 0.059786 -0.012448 -310720.000000 0 0 1
-26.844505 8.544563 28.544120 40.104910 -0.308159 0.778829 0.050387 -0.017423 144066.000000 0 0 1
-27.690705 7.396563 28.528280 40.439424 -0.261020 0.787728 0.066627 -0.020423 992125.000000 0 0 1
-28.954605 7.497963 27.842050 40.862799 -0.253390 0.821185 0.074467 -0.019944 719209.000000 0 0 1
-29.920305 6.318363 27.906120 41.399250 -0.208115 0.831087 0.079922 -0.017237 9776.680000 0 0 1
-30.654705 6.074063 29.095070 42.698106 -0.195611 0.821104 0.091319 -0.017228 40262.600000 0 0 1
-31.373205 4.890863 29.063420 43.045103 -0.154648 0.829580 0.115108 -0.020987 -403069.000000 0 0 1
-32.032305 4.568363 30.392590 44.391981 -0.141662 0.816685 0.105089 -0.024496 915216.000000 0 0 1
-33.292005 5.271663 30.609930 45.531482 -0.157042 0.833511 0.115003 -0.026596 657473.000000 0 0 1
-34.045005 4.627163 31.594170 46.676167 -0.135085 0.827280 0.125515 -0.029835 1492890.000000 0 0 1
-35.577405 5.081663 31.642880 47.883681 -0.141874 0.848875 0.113671 -0.022458 1583950.000000 0 0 1
-35.750905 6.422063 32.134699 48.497515 -0.177738 0.846505 0.111202 -0.016999 1054160.000000 0 0 1
36.480856 6.811263 32.206114 49.137358 0.184583 0.856044 0.113573 -0.015676 1245880.000000 0 0 1
36.353456 8.307063 32.656221 49.568234 0.224651 0.851556 0.094903 -0.005540 -31942.200000 0 0 1
36.392956 8.414663 -34.043085 50.538950 0.227224 2.309866 0.093718 -0.001647 194054.000000 0 0 1
36.184756 9.727363 -33.591381 50.322352 0.262616 2.301675 0.092296 -0.003776 -7952.290000 0 0 1
36.135656 9.887263 -32.107221 49.339814 0.267078 2.279350 0.082524 -0.006574 346563.000000 0 0 1
34.967456 9.265863 -31.575871 48.016819 0.259032 2.288425 0.094693 -0.005878 304799.000000 0 0 1
34.756256 9.539163 -30.255761 47.057455 0.267863 2.269145 0.061141 -0.004195 585181.000000 0 0 1
33.472156 8.820963 -29.698611 45.609233 0.257673 2.279900 0.062690 0.003451 705123.000000 0 0 1
33.756256 7.465163 -29.351231 45.350946 0.217646 2.274705 0.056865 -0.000677 -510456.000000 0 0 1
32.567856 6.799163 -29.142001 44.228386 0.205813 2.290149 0.056844 0.004079 -924946.000000 0 0 1
35.713028 5.512263 -19.190311 40.915442 0.153140 2.058981 0.084192 -0.023849 -547364.000000 0 0 1
35.013288 6.532863 -18.449711 40.112348 0.184461 2.048736 0.076659 -0.023264 745101.000000 0 0 1
35.652918 7.822763 -18.474211 40.909933 0.215992 2.039335 0.056115 -0.014963 401378.000000 0 0 1
-36.461314 8.035163 -18.119911 41.500872 -0.216908 2.022629 0.068646 -0.027106 801525.000000 0 0 1
-35.511435 7.323963 -18.920311 40.898418 -0.203391 2.051741 0.073053 -0.039371 54937.600000 0 0 1
-35.061305 8.189463 -19.912811 41.144653 -0.229462 2.075983 0.058118 -0.026794 -846793.000000 0 0 1
-34.087127 7.541563 -20.898711 40.688616 -0.217736 2.110201 0.025484 -0.010414 -441348.000000 0 0 1
-34.508984 6.521163 -21.788711 41.329692 -0.186768 2.126090 0.028978 -0.007330 -56716.400000 0 0 1
-35.245863 6.989963 -22.908211 42.613572 -0.195780 2.138361 0.025931 0.000289 60157.100000 0 0 1
-35.370497 5.934663 -24.002311 43.155570 -0.166237 2.160580 0.060138 -0.008908 -100109.000000 0 0 1
-34.219941 5.661663 -24.757311 42.614355 -0.163964 2.190706 0.057080 -0.016028 -275336.000000 0 0 1
-34.280670 4.346963 -25.259391 42.803005 -0.126132 2.202018 0.077591 -0.014746 -1064940.000000 0 0 1
-33.141304 3.964863 -26.134581 42.392010 -0.119069 2.235083 0.096758 -0.010896 -340329.000000 0 0 1
-31.907224 3.936263 -25.395961 40.969744 -0.122746 2.239375 0.085332 -0.016079 398062.000000 0 0 1
-30.854714 3.429863 -26.207071 40.627428 -0.110707 2.271896 0.101598 -0.016273 -16282.200000 0 0 1
-29.476524 3.848463 -25.677251 39.281005 -0.129826 2.283235 0.098836 -0.031183 -400480.000000 0 0 1
-29.149134 5.203363 -25.656091 39.178846 -0.176648 2.284775 0.071032 -0.015451 147298.000000 0 0 1
-27.912084 5.449563 -25.015311 37.875427 -0.192815 2.292231 0.066045 -0.017213 184648.000000 0 0 1
-27.334454 6.883563 -25.043421 37.705818 -0.246698 2.297192 0.056152 -0.016318 -7170.040000 0 0 1
-28.069274 7.783663 -24.260011 37.908016 -0.270505 2.265256 0.054786 -0.014202 -385911.000000 0 0 1
-27.853684 9.126963 -24.603511 38.268288 -0.316650 2.269103 0.029610 -0.012374 -351736.000000 0 0 1
-26.541774 9.770263 -24.124811 37.174323 -0.352716 2.277019 0.079533 -0.015708 -83624.600000 0 0 1
-26.645854 9.974663 -22.791211 36.454557 -0.358194 2.246178 0.033825 -0.011908 -112616.000000 0 0 1
-25.351904 10.201563 -22.291711 35.266291 -0.382572 2.255053 0.081895 -0.022992 -282493.000000 0 0 1
-25.228844 10.444663 -20.764511 34.303796 -0.392514 2.220955 0.099686 -0.040716 -874021.000000 0 0 1
-25.473004 11.737563 -20.248511 34.592579 -0.431786 2.196099 0.072277 -0.033143 14625.400000 0 0 1
-26.782244 12.244663 -20.159311 35.687787 -0.428820 2.171084 0.061056 -0.012129 -353603.000000 0 0 1
-27.661834 11.531663 -19.105911 35.541414 -0.394973 2.138346 0.035171 -0.011470 -649354.000000 0 0 1
-27.170784 11.783763 -17.787711 34.547232 -0.409210 2.111665 0.038889 -0.021549 129546.000000 0 0 1
-28.010494 11.282463 -16.784311 34.548442 -0.382913 2.078097 0.017146 -0.024840 -734935.000000 0 0 1
-27.362334 11.288463 -15.395111 33.363695 -0.391282 2.050406 0.046362 -0.027564 759643.000000 0 0 1
-26.322714 10.316563 -15.146711 32.073970 -0.373527 2.062630 0.062548 -0.033810 2100770.000000 0 0 1
-25.036344 10.508563 -15.796211 31.412874 -0.397400 2.097698 0.075586 -0.024335 389830.000000 0 0 1
-24.131344 9.289863 -15.579211 30.188327 -0.367483 2.113050 0.069186 -0.021559 -856721.000000 0 0 1
-22.765444 9.540463 -15.713811 29.261061 -0.396843 2.137698 0.092172 -0.023941 30605.100000 0 0 1
-22.029244 8.343763 -15.409011 28.148598 -0.362062 2.150070 0.101793 -0.024182 -929372.000000 0 0 1
-20.538044 8.510263 -15.348311 27.014930 -0.392829 2.175042 0.126156 -0.035641 -1135800.000000 0 0 1
-19.917744 8.835863 -16.569111 27.373791 -0.417534 2.220928 0.132127 -0.050500 -242770.000000 0 0 1
-18.557544 9.115263 -16.393111 26.385688 -0.456574 2.241182 0.120359 -0.051236 -1028880.000000 0 0 1
-17.908944 9.508163 -17.725211 26.931738 -0.488074 2.289160 0.095675 -0.036006 -300513.000000 0 0 1
-17.685844 8.522363 -18.703311 27.115191 -0.449043 2.331971 0.134465 -0.056176 558968.000000 0 0 1
-16.740744 7.484063 -18.376211 25.960524 -0.420404 2.357249 0.135623 -0.053044 -210728.000000 0 0 1
-16.216644 6.735563 -19.662011 26.361753 -0.393668 2.412612 0.117510 -0.052893 346783.000000 0 0 1
-17.172444 5.935263 -20.337411 27.271422 -0.332774 2.412442 0.115722 -0.047108 -183933.000000 0 0 1
-18.233844 6.600663 -20.944711 28.543348 -0.347326 2.394674 0.122617 -0.053075 101524.000000 0 0 1
-19.328544 5.722763 -21.678211 29.602153 -0.287855 2.392517 0.113665 -0.040013 834992.000000 0 0 1
-20.175644 4.976963 -20.784511 29.390860 -0.241853 2.356292 0.129607 -0.040037 514449.000000 0 0 1
-20.859944 3.945863 -21.442711 30.174442 -0.186951 2.361182 0.095249 -0.013154 -304453.000000 0 0 1
-21.768644 3.155063 -20.476911 30.052157 -0.143934 2.320441 0.105068 -0.020169 89743.000000 0 0 1
-22.621044 2.171763 -21.052811 30.978202 -0.095713 2.318015 0.101701 -0.018680 546515.000000 0 0 1
-23.368844 1.538063 -20.049111 30.829131 -0.065722 2.278815 0.095921 -0.020620 -165399.000000 0 0 1
-24.022644 0.141663 -20.380511 31.503535 -0.005897 2.274345 0.086699 -0.009268 234923.000000 0 0 1
-23.086344 -0.937737 -20.414411 30.831912 0.040596 2.294440 0.098706 -0.017882 226751.000000 0 0 1
-23.670744 -2.180337 -20.539011 31.415107 0.091852 2.283384 0.088167 -0.022777 -584945.000000 0 0 1
-24.310044 -2.497437 -21.932311 32.836591 0.102374 2.302211 0.102173 -0.024468 17033.300000 0 0 1
-23.493544 -2.678137 -23.074211 33.038436 0.113505 2.343963 0.086191 -0.023527 -87568.000000 0 0 1
-22.609744 -3.783937 -23.061911 32.517233 0.165822 2.359189 0.082897 -0.035585 410185.000000 0 0 1
-21.529244 -3.716037 -24.211611 32.611645 0.170920 2.407475 0.075639 -0.026282 276456.000000 0 0 1
-21.980644 -3.897137 -25.546591 33.925871 0.175475 2.423424 0.077913 -0.024059 -200263.000000 0 0 1
-20.980644 -3.776737 -26.508771 34.017144 0.178103 2.464307 0.079139 -0.028920 -138522.000000 0 0 1
-21.640444 -3.945037 -27.899581 35.528281 0.180319 2.473942 0.068123 -0.033310 403192.000000 0 0 1
-22.206544 -5.243437 -28.096721 36.194612 0.231874 2.459520 0.074218 -0.028959 115736.000000 0 0 1
-22.973444 -5.503337 -29.207181 37.564947 0.235121 2.461495 0.047993 -0.020446 -394405.000000 0 0 1
-22.405544 -6.759137 -29.898471 37.968578 0.292991 2.477462 0.058689 -0.027400 -278085.000000 0 0 1
-21.155744 -6.554237 -30.486741 37.682422 0.300431 2.513320 0.056636 -0.033883 -155612.000000 0 0 1
-20.579044 -7.754137 -31.015631 38.020955 0.360346 2.524823 0.051062 -0.033173 -81575.900000 0 0 1
-19.177844 -7.611937 -31.649051 37.780864 0.377842 2.563855 0.057021 -0.029478 -339273.000000 0 0 1
-19.103944 -7.054337 -32.967811 38.750496 0.353730 2.588248 0.059385 -0.032154 385763.000000 0 0 1
-19.585944 -7.936137 -33.974601 40.010811 0.384977 2.585143 0.053841 -0.030398 -585238.000000 0 0 1
-19.343144 -7.370737 32.727827 38.724613 0.364066 0.563964 0.049200 -0.025710 1140450.000000 0 0 1
-17.957444 -7.215837 32.321817 37.672775 0.382083 0.539507 0.055503 -0.025553 1134570.000000 0 0 1
-17.287944 -6.097937 32.726243 37.510863 0.339103 0.510609 0.042637 -0.024571 -1190370.000000 0 0 1
-16.029144 -5.821237 31.952630 36.218653 0.348355 0.490251 0.046456 -0.027085 -705830.000000 0 0 1
-16.309844 -5.532837 30.605500 35.118655 0.327051 0.512567 0.048740 -0.023045 249320.000000 0 0 1
-15.128544 -5.159137 29.943930 33.943018 0.328653 0.490320 0.052331 -0.019376 -5227.550000 0 0 1
-15.375944 -5.308937 28.406950 32.734680 0.332460 0.520051 0.059138 -0.010948 -4723.240000 0 0 1
-16.256544 -4.290637 28.011820 32.670274 0.258048 0.540581 0.050399 -0.015762 94704.300000 0 0 1
-16.952544 -4.471637 26.783110 32.011236 0.257900 0.579606 0.075236 -0.011046 118925.000000 0 0 1
-16.167744 -4.050537 25.505250 30.468353 0.245479 0.578824 0.073082 -0.009405 44689.800000 0 0 1
-15.917444 -2.678637 25.424540 30.115566 0.166721 0.565665 0.072796 0.001758 67218.900000 0 0 1
-15.121844 -2.413437 24.283610 28.708684 0.158265 0.562616 0.051079 0.002774 91787.000000 0 0 1
-14.715044 -0.964337 24.197070 28.336560 0.065441 0.547330 0.052785 -0.000501 -133589.000000 0 0 1
-15.782644 -0.160837 23.772670 28.535198 0.010190 0.586108 0.046596 -0.006918 -261000.000000 0 0 1
-15.637144 1.170763 24.215770 28.849514 -0.074731 0.574651 0.034843 -0.002672 3563.890000 0 0 1
-16.407244 2.189963 23.317340 28.595313 -0.132691 0.617333 0.040613 -0.008060 -115667.000000 0 0 1
-15.710944 2.605563 22.173690 27.300096 -0.164348 0.622848 0.038737 -0.007339 274720.000000 0 0 1
-16.424444 3.595863 21.410490 27.223182 -0.215533 0.665707 0.025944 -0.006311 -760946.000000 0 0 1
-15.527744 4.276263 20.449490 26.030345 -0.268733 0.667128 0.025380 -0.005673 -476021.000000 0 0 1
-14.659744 5.184963 21.145490 26.247355 -0.339956 0.634069 0.041366 -0.007424 -548587.000000 0 0 1
-13.584244 5.368263 20.314690 25.020722 -0.376347 0.623372 0.048877 -0.011188 -1060280.000000 0 0 1
-12.506944 6.357763 20.730090 25.031608 -0.470296 0.594986 0.044666 -0.011506 32412.800000 0 0 1
-12.935244 7.727963 20.646590 25.560196 -0.538531 0.630448 0.049086 -0.014668 132695.000000 0 0 1
-11.806744 8.567363 20.643790 25.277756 -0.627723 0.615165 0.043718 -0.010954 -163093.000000 0 0 1
-12.113744 10.046763 20.824290 26.102323 -0.692394 0.647168 0.039516 0.001600 -277787.000000 0 0 1
-12.696444 10.618563 19.693090 25.724917 -0.696511 0.698938 0.051342 -0.002931 135818.000000 0 0 1
-12.961644 11.967563 19.868990 26.570727 -0.745543 0.726088 0.033995 0.001113 -573520.000000 0 0 1
-13.606044 12.751863 18.692590 26.403548 -0.753002 0.784194 0.037410 -0.000363 64211.200000 0 0 1
-12.716444 13.216563 17.646890 25.451880 -0.804681 0.804678 0.033174 -0.010215 442863.000000 0 0 1
-11.941544 14.337463 18.041990 25.955283 -0.876319 0.802212 0.025349 -0.016747 -471252.000000 0 0 1
-12.438044 15.795863 17.686190 26.777146 -0.903771 0.849318 0.009616 -0.010089 -88625.400000 0 0 1
-12.462744 16.084163 16.300490 26.071560 -0.911583 0.895381 -0.001046 -0.013016 250482.000000 0 0 1
-13.486844 15.432063 15.562390 25.733859 -0.852562 0.921352 0.020630 -0.009979 -185463.000000 0 0 1
-13.941644 15.936963 14.188990 25.488893 -0.852080 0.980420 0.015092 -0.014350 -773854.000000 0 0 1
-14.784044 17.020563 14.165490 26.625713 -0.855603 1.009808 0.016924 -0.017485 -384249.000000 0 0 1
-15.277444 17.242263 12.844490 26.375686 -0.845744 1.062165 0.001421 -0.017052 324278.000000 0 0 1
-16.423544 18.318063 12.782090 27.724827 -0.839876 1.091636 0.030878 -0.016051 669701.000000 0 0 1
-17.660044 17.707963 13.196490 28.277136 -0.786753 1.085258 0.044984 -0.015268 204414.000000 0 0 1
-18.635844 18.716063 13.371090 29.603576 -0.787546 1.102158 0.063730 -0.019663 264457.000000 0 0 1
-20.014244 18.074563 13.692090 30.244555 -0.734517 1.100991 0.071029 -0.012869 355719.000000 0 0 1
-20.766144 17.542463 12.616890 29.969261 -0.701446 1.136255 0.065396 -0.012557 -507403.000000 0 0 1
-22.023544 17.101663 13.027690 30.777005 -0.660257 1.133719 0.112103 -0.023062 -312976.000000 0 0 1
-22.857944 16.589863 11.849190 30.628621 -0.627820 1.173565 0.103383 -0.019963 -160809.000000 0 0 1
-22.381844 15.313663 11.487490 29.451954 -0.600043 1.170119 0.102466 -0.015855 47032.800000 0 0 1
-23.217944 14.757663 10.506690 29.449143 -0.566196 1.205984 0.114401 -0.021123 -273021.000000 0 0 1
-22.765544 13.471163 9.746990 28.191240 -0.534320 1.217763 0.125269 -0.022001 -562104.000000 0 0 1
-22.875844 12.301963 10.510090 28.019716 -0.493406 1.186296 0.117798 -0.026726 979172.000000 0 0 1
-24.193844 11.743663 10.678090 28.935744 -0.451899 1.192834 0.129683 -0.033267 728856.000000 0 0 1
-24.900544 11.103163 9.457290 28.857540 -0.419439 1.236903 0.141574 -0.021720 -311153.000000 0 0 1
-25.250924 12.028763 8.457890 29.220475 -0.444565 1.277143 0.151391 -0.025979 577835.000000 0 0 1
-26.391854 11.623163 7.689590 29.845563 -0.414848 1.310211 0.168872 -0.030165 88639.300000 0 0 1
-26.845014 12.762663 6.724990 30.475659 -0.443791 1.348297 0.146070 -0.025579 33042.100000 0 0 1
-26.020144 13.041563 5.555690 29.630996 -0.464615 1.382184 0.145051 -0.026024 1864820.000000 0 0 1
-24.635844 13.445163 5.613490 28.621818 -0.499579 1.373390 0.146193 -0.028131 871299.000000 0 0 1
-24.402344 14.768463 6.453190 29.244239 -0.544239 1.348300 0.139465 -0.029613 393871.000000 0 0 1
-23.079544 15.305663 6.157490 28.369761 -0.585578 1.352011 0.110797 -0.020595 1493720.000000 0 0 1
-22.886644 16.586963 6.732090 29.055926 -0.627141 1.336977 0.100124 -0.015136 32876.100000 0 0 1
-21.448044 17.128263 6.558790 28.220802 -0.673883 1.336242 0.075721 -0.009027 -63992.100000 0 0 1
-21.125544 17.729163 5.335490 28.090555 -0.698207 1.379696 0.089188 -0.022160 -280583.000000 0 0 1
-19.743444 17.901063 5.310590 27.174510 -0.736496 1.374105 0.085366 -0.018366 -747642.000000 0 0 1
-19.351444 18.792663 4.084490 27.282331 -0.770750 1.420519 0.085902 -0.020442 84847.000000 0 0 1
-17.946944 19.042763 4.039090 26.477044 -0.815014 1.417648 0.071411 -0.021453 620038.000000 0 0 1
-17.687744 20.276763 3.385790 27.119494 -0.853489 1.445623 0.077576 -0.011736 -25114.400000 0 0 1
-18.085544 21.555163 4.150690 28.441873 -0.872702 1.424337 0.061782 -0.020304 -597720.000000 0 0 1
-17.289944 21.917863 5.252090 28.406325 -0.902890 1.384835 0.089711 -0.023096 -102064.000000 0 0 1
-17.416444 23.277663 5.585890 29.603788 -0.928446 1.380970 0.061637 -0.019948 -224962.000000 0 0 1
-16.751044 23.682363 6.976390 29.834909 -0.955174 1.334778 0.048674 -0.005828 276884.000000 0 0 1
-17.421044 23.174863 8.114390 30.106650 -0.926194 1.297900 0.033364 -0.008217 107243.000000 0 0 1
-16.541344 23.069163 9.222090 29.847098 -0.948730 1.256678 0.034716 -0.008833 -36069.900000 0 0 1
-17.024844 22.362763 10.506090 30.005273 -0.920100 1.213074 0.025792 -0.008457 308131.000000 0 0 1
-18.084244 23.131463 11.082990 31.383708 -0.907250 1.209866 0.021797 0.003423 651509.000000 0 0 1
-19.061744 22.315563 11.772690 31.621680 -0.863874 1.189312 0.019338 0.002022 327455.000000 0 0 1
-20.217144 23.169063 12.316090 33.124378 -0.853332 1.189835 0.024317 0.001553 315453.000000 0 0 1
-21.245744 23.635363 11.406690 33.765731 -0.838591 1.226198 0.024303 0.006248 642661.000000 0 0 1
-20.788044 24.608763 10.516190 33.886933 -0.869363 1.255254 0.024487 0.001204 -256418.000000 0 0 1
-21.905044 25.515663 9.906090 35.057247 -0.861392 1.284325 0.036900 0.000736 284910.000000 0 0 1
-22.382144 26.463263 10.852490 36.318606 -0.868756 1.267347 0.043368 -0.011163 1171.140000 0 0 1
-23.341244 27.300663 10.246990 37.351581 -0.863424 1.292894 0.063534 -0.014359 57555.900000 0 0 1
-24.064744 28.243163 11.280090 38.781807 -0.865110 1.275670 0.065303 -0.011468 -440804.000000 0 0 1
-23.234844 29.190663 11.857990 39.147984 -0.898519 1.263060 0.078952 -0.026456 1884.930000 0 0 1
-23.937544 30.075363 12.712590 40.486336 -0.898549 1.251396 0.073246 -0.025999 -152906.000000 0 0 1
9.224156 -32.718738 28.256400 44.204355 -1.296006 0.877310 0.046046 -0.023384 -1269080.000000 0 0 1
10.470056 -32.534238 27.714160 44.001970 -1.259446 0.889450 0.049095 -0.031462 -748327.000000 0 0 1
10.528056 -32.305238 26.316490 42.977041 -1.255757 0.911781 0.058091 -0.031029 -977452.000000 0 0 1
11.933856 -32.459338 25.801980 43.148207 -1.218480 0.929812 0.044368 -0.027381 -632852.000000 0 0 1
12.587356 -33.725138 25.928050 44.363163 -1.213575 0.946594 0.052891 -0.029541 599348.000000 0 0 1
13.992556 -33.664038 25.742730 44.628996 -1.176869 0.955971 0.069732 -0.026202 484412.000000 0 0 1
14.752156 33.164263 25.541140 44.382928 1.152258 0.957615 0.098153 -0.023945 -67783.800000 0 0 1
14.588956 32.646863 24.222530 43.190118 1.150547 0.975402 0.088715 -0.037735 201195.000000 0 0 1
15.566656 31.638063 24.113920 42.717314 1.113551 0.970969 0.104787 -0.036534 -355920.000000 0 0 1
15.790156 30.976363 22.746990 41.548642 1.099380 0.991448 0.104884 -0.048744 572604.000000 0 0 1
14.682756 30.158463 22.278890 40.267420 1.117721 0.984508 0.094078 -0.044002 509668.000000 0 0 1
14.873656 28.756563 22.328690 39.328564 1.093463 0.967029 0.099566 -0.040707 -228494.000000 0 0 1
14.565156 28.028063 23.678570 39.476458 1.091542 0.927527 0.111850 -0.037720 -400481.000000 0 0 1
15.323556 28.444763 24.775800 40.715552 1.076660 0.916615 0.110436 -0.034299 -55310.400000 0 0 1
14.948356 27.865463 26.026650 40.955145 1.078418 0.882151 0.108516 -0.032515 -625015.000000 0 0 1
15.704856 28.347463 27.213890 42.318045 1.064878 0.872283 0.114899 -0.035149 -307867.000000 0 0 1
15.478556 29.705963 27.540760 43.365002 1.090444 0.882669 0.109461 -0.035836 158448.000000 0 0 1
16.404156 30.087063 28.531890 44.591439 1.071628 0.876492 0.130408 -0.038401 50554.100000 0 0 1
16.354956 31.577563 28.928210 45.841776 1.092908 0.887897 0.128740 -0.039559 83621.600000 0 0 1
17.054356 32.405563 28.008690 46.102693 1.086347 0.917851 0.111407 -0.036386 43245.900000 0 0 1
17.034156 33.728563 28.448900 47.298185 1.103128 0.925444 0.115839 -0.023940 299496.000000 0 0 1
17.977256 -33.424038 27.716620 46.995309 -1.077326 0.940017 0.104867 -0.022879 -120807.000000 0 0 1
17.452456 -33.268638 26.397540 45.915364 -1.087669 0.958293 0.104714 -0.020982 96120.200000 0 0 1
17.818556 -32.001838 25.857460 44.835553 -1.062749 0.956091 0.109935 -0.025463 1667760.000000 0 0 1
19.362856 -31.588438 25.663730 45.070796 -1.020892 0.965009 0.099389 -0.016018 1688480.000000 0 0 1
20.001656 -31.179438 26.854640 45.753637 -1.000419 0.943522 0.087853 -0.015144 -17713.400000 0 0 1
20.940656 -30.139138 26.704040 45.387052 -0.963569 0.941764 0.085833 -0.014936 13216.400000 0 0 1
21.134656 -29.367938 27.987530 45.743320 -0.947003 0.912413 0.084984 -0.011528 820509.000000 0 0 1
19.946556 -28.599338 28.302320 44.908892 -0.961785 0.888964 0.093116 -0.006266 943306.000000 0 0 1
20.248756 -27.605838 29.251050 45.030194 -0.937942 0.863755 0.108297 -0.009627 495610.000000 0 0 1
18.968156 -27.042038 29.952060 44.589109 -0.959110 0.834248 0.099764 -0.009553 148381.000000 0 0 1
18.060856 -26.432138 29.105180 43.266199 -0.971372 0.832944 0.120957 -0.005016 -975371.000000 0 0 1
16.895856 -26.175038 29.801770 43.113201 -0.997595 0.807586 0.095882 -0.002215 -711174.000000 0 0 1
15.816556 -25.439138 28.959280 41.664771 -1.014544 0.802301 0.082131 0.007662 -282268.000000 0 0 1
15.336556 -26.314438 27.912000 41.312702 -1.043106 0.828981 0.082908 0.002691 146694.000000 0 0 1
14.892056 -25.711238 26.706750 39.951115 -1.045808 0.838625 0.080231 -0.018679 626802.000000 0 0 1
13.466356 -25.005838 26.802150 39.051120 -1.076803 0.814359 0.053033 -0.008422 1235410.000000 0 0 1
12.370856 -25.886938 27.033710 39.420720 -1.125001 0.815130 0.048327 -0.011199 421605.000000 0 0 1
11.913856 -26.527138 25.883910 38.930783 -1.148675 0.843477 0.047267 -0.019127 -836265.000000 0 0 1
11.000856 -27.757138 26.010330 39.598167 -1.193462 0.854154 0.056873 -0.026065 189004.000000 0 0 1
9.657356 -27.490938 26.378390 39.304398 -1.232971 0.835063 0.041345 -0.034964 237545.000000 0 0 1
8.896356 -28.702238 26.486060 40.055899 -1.270233 0.848343 0.040987 -0.035102 67926.000000 0 0 1
7.465656 -28.391638 27.031410 39.906369 -1.313665 0.826614 0.040927 -0.034777 42316.000000 0 0 1
6.451856 -28.178538 26.096440 38.944584 -1.345713 0.836464 0.056468 -0.038210 -222993.000000 0 0 1
6.619656 -26.954338 25.381750 37.611028 -1.329975 0.830037 0.061333 -0.039283 -1307790.000000 0 0 1
5.532456 -26.518238 24.400990 36.458652 -1.365118 0.837559 0.072883 -0.035826 -758167.000000 0 0 1
5.394156 -27.254038 23.233020 36.216747 -1.375400 0.874345 0.056212 -0.028345 383750.000000 0 0 1
4.576656 -28.439838 23.333330 37.070399 -1.411240 0.889973 0.060268 -0.033040 167256.000000 0 0 1
3.065356 -28.390438 23.597320 37.043851 -1.463242 0.880183 0.053857 -0.032443 -397644.000000 0 0 1
2.141156 -28.197038 22.522790 36.151536 -1.495006 0.898211 0.052405 -0.028120 1527670.000000 0 0 1
0.830656 -27.701338 22.884190 35.940788 -1.540819 0.880560 0.059122 -0.024790 1107180.000000 0 0 1
0.749756 -26.238538 23.346850 35.129737 -1.542229 0.843852 0.066890 -0.028698 -478366.000000 0 0 1
1.421756 -26.000238 24.573040 35.803185 -1.516168 0.814356 0.059953 -0.027632 59418.300000 0 0 1
1.142956 -24.718438 25.075080 35.228783 -1.524590 0.778770 0.073265 -0.029818 -1031360.000000 0 0 1
2.219956 -24.305938 26.015550 35.672338 -1.479715 0.753510 0.069062 -0.027915 -232850.000000 0 0 1
3.460556 -24.109938 25.295400 35.115834 -1.428238 0.766501 0.070809 -0.028063 997338.000000 0 0 1
4.526156 -23.479838 26.016640 35.336305 -1.380364 0.743272 0.063928 -0.025601 568133.000000 0 0 1
4.338856 -21.989738 26.410620 34.639502 -1.375986 0.703717 0.054868 -0.016454 -660987.000000 0 0 1
4.435956 -21.157038 25.273470 33.257274 -1.364122 0.707578 0.049983 -0.014001 466321.000000 0 0 1
3.673456 -19.943338 25.276790 32.405974 -1.388643 0.676124 0.061755 -0.020990 106991.000000 0 0 1
3.650856 -19.270338 23.891490 30.910807 -1.383561 0.687371 0.062497 -0.023501 -322927.000000 0 0 1
4.876856 -18.630838 23.703910 30.541238 -1.314778 0.682294 0.054199 -0.013516 -323361.000000 0 0 1
4.832456 -17.790338 22.549790 29.126308 -1.305562 0.685335 0.050529 -0.008738 -15209.200000 0 0 1
6.218356 -17.267438 22.100790 28.727640 -1.225134 0.693018 0.040602 -0.003135 -259730.000000 0 0 1
7.012756 -18.311738 21.584290 29.161277 -1.205061 0.737474 0.025483 0.000024 -191645.000000 0 0 1
8.269456 -17.780638 21.193090 28.873553 -1.135471 0.746608 0.021756 0.001417 733506.000000 0 0 1
9.472356 -17.842238 22.188090 30.006372 -1.082739 0.738549 0.044439 0.004127 231743.000000 0 0 1
9.306056 -16.926738 23.288930 30.257089 -1.068119 0.692423 0.053977 0.009710 452564.000000 0 0 1
10.402756 -17.174538 24.171980 31.423983 -1.026190 0.693176 0.064982 0.006110 390790.000000 0 0 1
10.343256 -16.358538 25.440780 31.965888 -1.006976 0.650349 0.085224 -0.014336 -286766.000000 0 0 1
10.698556 -15.032838 25.268090 31.287724 -0.952275 0.630719 0.096797 -0.011406 113965.000000 0 0 1
10.882756 -14.350238 26.534490 32.069345 -0.921961 0.596317 0.089953 -0.015235 252347.000000 0 0 1
11.380056 -12.847238 26.382640 31.473813 -0.845883 0.576747 0.095930 -0.017293 401896.000000 0 0 1
10.287056 -12.012438 26.015690 30.445662 -0.862617 0.546217 0.097115 -0.012112 218646.000000 0 0 1
10.514656 -10.611038 26.106400 30.078169 -0.789960 0.519733 0.099081 -0.016485 177861.000000 0 0 1
9.572756 -9.771538 25.162850 28.640699 -0.795674 0.497937 0.095918 -0.012516 542783.000000 0 0 1
8.234856 -9.722738 25.661500 28.650603 -0.868065 0.460860 0.079358 -0.012390 -21677.500000 0 0 1
7.473956 -9.108238 24.641750 27.313657 -0.883637 0.446007 0.070860 -0.007332 -8867.490000 0 0 1
5.958656 -9.196038 24.940910 27.241911 -0.995857 0.413962 0.060190 -0.014138 -610065.000000 0 0 1
5.509156 -8.233338 25.888110 27.718819 -0.981092 0.365474 0.079148 -0.012415 386556.000000 0 0 1
4.216556 -8.391138 26.463250 28.080138 -1.105150 0.341006 0.066594 -0.009765 924332.000000 0 0 1
2.960556 -8.481738 25.568320 27.100623 -1.234967 0.337882 0.048833 -0.014849 -342076.000000 0 0 1
2.863056 -7.248538 24.842400 26.036191 -1.194622 0.303993 0.061340 -0.014752 241987.000000 0 0 1
1.656556 -7.153138 24.077500 25.172159 -1.343223 0.295992 0.052323 -0.016002 694756.000000 0 0 1
1.433056 -5.830338 23.302570 24.063588 -1.329781 0.252164 0.052835 -0.023079 111496.000000 0 1 0
1.240656 -4.662438 24.116370 24.594244 -1.310727 0.197452 0.051011 -0.016718 741.171000 0 1 0
1.879456 -3.516638 23.531700 23.867132 -1.079972 0.167852 0.055477 -0.018195 -981509.000000 0 1 0
1.222356 -2.812338 22.359090 22.568392 -1.160788 0.136297 0.049883 -0.023962 550183.000000 0 1 0
0.168756 -1.895338 22.706590 22.786180 -1.481993 0.083606 0.044633 -0.024037 747899.000000 0 1 0
-1.060344 -2.456338 23.150930 23.305010 1.163284 0.115054 0.035729 -0.022900 21149.000000 0 1 0
-2.076944 -1.414338 23.702000 23.834824 0.597840 0.105621 0.036834 -0.030808 -65333.600000 0 1 0
-1.573744 -0.675338 24.715210 24.774470 0.405362 0.069180 0.039883 -0.026601 229135.000000 0 1 0
-2.512144 0.292662 25.214200 25.340726 -0.115976 0.099972 0.046121 -0.025612 335757.000000 0 0 1
-1.844544 1.198662 26.291900 26.383767 -0.576264 0.083474 0.054887 -0.025696 -115909.000000 0 0 1
-2.053644 0.764662 27.640370 27.727102 -0.356440 0.079116 0.067986 -0.018934 -22914.900000 0 0 1
-1.428644 -0.403338 28.128820 28.167964 0.275161 0.052726 0.068845 -0.023615 -880693.000000 0 0 1
0.006856 -0.205338 28.691600 28.692336 -1.537418 0.007161 0.083025 -0.023968 73672.100000 0 0 1
0.978456 0.147662 27.724810 27.742463 0.149783 0.035676 0.061245 -0.020760 -140343.000000 0 0 1
1.363556 -0.837338 26.803390 26.851111 -0.550711 0.059628 0.052245 -0.021988 11666.100000 0 0 1
2.541556 -1.730338 27.377120 27.549234 -0.597736 0.111839 0.066453 -0.022238 294782.000000 0 0 1
2.030156 -2.793338 28.176510 28.387321 -0.942319 0.121946 0.068804 -0.022113 142400.000000 0 0 1
3.029256 -3.688438 28.656670 29.051432 -0.883211 0.165041 0.088550 -0.012876 354680.000000 0 0 1
3.717656 -4.648338 27.653780 28.287092 -0.896188 0.212004 0.078855 -0.014106 -233119.000000 0 0 1
4.606656 -4.049438 26.799940 27.492836 -0.721114 0.224986 0.090529 -0.014532 -767438.000000 0 0 1
5.329956 -5.018338 26.053830 27.062783 -0.755294 0.273919 0.081568 -0.017170 -375473.000000 0 0 1
6.464156 -4.452338 25.179100 26.374149 -0.603151 0.302185 0.083186 -0.019985 1052200.000000 0 0 1
7.685356 -4.254338 25.977780 27.422785 -0.505576 0.326077 0.075700 -0.017926 1584330.000000 0 0 1
8.699556 -5.258838 25.851500 27.778368 -0.543718 0.374654 0.074025 -0.009449 621729.000000 0 0 1
9.567156 -5.331338 24.562130 26.893343 -0.508396 0.419442 0.068319 -0.016940 -248123.000000 0 0 1
8.843656 -5.854638 23.466020 25.751527 -0.584776 0.424493 0.067630 -0.020353 304932.000000 0 0 1
9.596356 -5.742638 22.229090 24.883737 -0.539256 0.466122 0.073396 -0.021790 607525.000000 0 1 0
9.689856 -4.315238 21.557690 24.025998 -0.418968 0.457261 0.077708 -0.023555 -219147.000000 0 1 0
8.427256 -3.973238 21.103890 23.069015 -0.440568 0.415746 0.060699 -0.026166 -834408.000000 0 1 0
8.553556 -2.718338 20.513390 22.390888 -0.307708 0.412431 0.055001 -0.019079 -264551.000000 0 1 0
7.247656 -2.110338 19.999790 21.376942 -0.283341 0.360905 0.044083 -0.023596 27800.300000 0 1 0
6.639056 -1.394338 21.083290 22.147830 -0.207012 0.311305 0.045563 -0.019828 155473.000000 0 1 0
5.297956 -0.975338 20.874890 21.558772 -0.182059 0.252551 0.031502 -0.018033 185975.000000 0 1 0
4.781756 -0.311338 22.150290 22.662689 -0.065018 0.213052 0.039101 -0.018259 1593050.000000 0 1 0
3.421456 0.227662 21.980090 22.245956 0.066442 0.154758 0.031405 -0.020085 1578520.000000 0 1 0
2.839256 0.533662 23.243640 23.422489 0.185791 0.123657 0.038883 -0.022283 -118976.000000 0 1 0
1.375356 0.979662 23.289820 23.350954 0.618931 0.072377 0.034961 -0.026010 -259114.000000 0 1 0
1.074556 2.312662 22.912690 23.054163 1.135834 0.110841 0.036718 -0.022395 417920.000000 0 1 0
-0.327244 2.514662 23.031590 23.170774 -1.441389 0.109662 0.026770 -0.015995 235527.000000 0 1 0
-0.851444 3.913662 22.694790 23.045503 -1.356578 0.174683 0.032452 -0.016567 -156771.000000 0 1 0
-0.650044 4.979662 23.603800 24.132115 -1.440991 0.209633 0.039002 -0.016047 -346664.000000 0 1 0
-1.516144 5.999662 23.213130 24.023822 -1.323274 0.260526 0.033484 -0.017334 -417155.000000 0 1 0
-1.464644 7.334662 23.903900 25.046734 -1.373701 0.303247 0.045596 -0.013007 -405733.000000 0 0 1
-0.488044 8.156662 23.372600 24.759801 -1.511034 0.336326 0.035658 -0.013807 -409717.000000 0 1 0
-0.418344 9.357662 24.121850 25.876717 -1.526120 0.370397 0.042122 -0.004520 -97154.500000 0 0 1
0.522856 10.428662 23.510950 25.725379 1.520702 0.417956 0.034885 -0.008252 352722.000000 0 0 1
1.921456 10.353662 23.526030 25.775267 1.387302 0.420863 0.036072 -0.009035 10081.700000 0 0 1
2.631556 10.387662 24.796060 27.012464 1.322681 0.407918 0.053237 -0.005127 -778894.000000 0 0 1
3.934356 11.138662 24.723340 27.400593 1.231259 0.445739 0.043572 -0.001702 -26853.000000 0 0 1
5.024956 10.510662 24.009820 26.686994 1.124836 0.451755 0.045946 -0.001225 483070.000000 0 0 1
4.902656 10.467662 22.602690 25.386799 1.132778 0.472722 0.046214 -0.010669 -541487.000000 0 0 1
6.159856 10.090662 21.751390 24.756580 1.022728 0.497852 0.045073 -0.005430 445469.000000 0 1 0
7.075756 11.157662 21.637890 25.352673 1.005636 0.548178 0.046845 -0.014001 -573805.000000 0 0 1
8.277856 10.807662 21.052590 25.070700 0.917181 0.574013 0.052583 -0.012960 -207637.000000 0 0 1
9.204456 12.005662 20.657390 25.604408 0.916708 0.632097 0.057394 -0.028205 -359604.000000 0 0 1
8.805856 12.643662 19.469290 24.828583 0.962447 0.669474 0.043987 -0.027571 417738.000000 0 1 0
9.717656 13.634662 18.993990 25.320121 0.951586 0.722501 0.062458 -0.022328 90257.800000 0 0 1
11.163856 13.295662 18.606490 25.448139 0.872335 0.750785 0.053596 -0.020597 -179762.000000 0 0 1
12.020056 13.086662 19.739490 26.559178 0.827856 0.732916 0.065672 -0.028583 -324266.000000 0 0 1
13.255156 12.593662 19.300790 26.586086 0.759813 0.758348 0.063204 -0.028717 726405.000000 0 0 1
14.383856 12.579662 20.446890 27.986042 0.718585 0.751581 0.078922 -0.030086 1004530.000000 0 0 1
14.970256 13.861662 20.724490 29.081931 0.746967 0.777564 0.080430 -0.032509 -428492.000000 0 0 1
16.136456 13.575662 21.436890 30.070319 0.699424 0.777183 0.088006 -0.032278 -204778.000000 0 0 1
16.908156 14.847662 21.814690 31.340382 0.720603 0.800905 0.092958 -0.030800 -79119.000000 0 0 1
16.425556 15.381662 23.056590 32.218019 0.752591 0.773253 0.090197 -0.031244 564339.000000 0 0 1
17.262156 16.454662 23.491730 33.475354 0.761453 0.792929 0.075497 -0.029105 -229131.000000 0 0 1
-21.193844 12.500263 -24.468011 34.700420 -0.532890 2.353391 0.043396 -0.003420 -101202.000000 0 0 1
-21.056444 12.443663 -25.875071 35.605307 -0.533751 2.384331 0.049869 -0.021406 -389680.000000 0 0 1
-21.913644 13.237063 -26.612571 36.927721 -0.543396 2.375560 0.067188 -0.026222 -582597.000000 0 0 1
-21.683544 13.363863 -28.110821 37.933984 -0.552329 2.405423 0.063151 -0.025753 593048.000000 0 0 1
-20.525844 14.138063 -28.487441 37.851412 -0.603165 2.422817 0.060063 -0.017504 504716.000000 0 0 1
-20.506744 14.477063 -29.850091 39.001793 -0.614719 2.442384 0.068579 -0.028565 -47536.700000 0 0 1
-19.179144 15.115263 -30.344741 38.950148 -0.667448 2.463971 0.057076 -0.020913 227098.000000 0 0 1
-18.219244 14.066263 -30.567041 38.264142 -0.657468 2.496166 0.051924 -0.009670 -1235890.000000 0 0 1
-16.967444 14.583763 -30.791761 38.061960 -0.709992 2.513229 0.046930 -0.008601 -1328330.000000 0 0 1
-16.028944 14.025463 -29.757851 36.594676 -0.718835 2.520382 0.068289 -0.003214 -869145.000000 0 0 1
-16.364444 14.397463 -28.458861 35.846739 -0.721543 2.487999 0.087753 -0.000974 -227438.000000 0 0 1
-16.913944 13.342063 -27.735431 35.119030 -0.667887 2.481206 0.093892 -0.004712 116552.000000 0 0 1
-17.719544 13.680463 -26.457181 34.657174 -0.657468 2.439352 0.080657 -0.019705 386672.000000 0 0 1
-16.877244 13.935863 -25.335501 33.480401 -0.690228 2.429087 0.096604 -0.019098 422826.000000 0 0 1
-17.697344 14.336663 -24.275311 33.287033 -0.680871 2.388054 0.089948 -0.014795 -117839.000000 0 0 1
-16.840844 14.807063 -23.116111 32.205865 -0.721224 2.371378 0.098600 -0.017916 11114.200000 0 0 1
-16.196844 16.049063 -23.299711 32.600409 -0.780815 2.367000 0.072349 -0.017391 -448214.000000 0 0 1
-15.629144 16.462663 -22.112311 31.689804 -0.811365 2.343081 0.084288 -0.011669 -567351.000000 0 0 1
-15.483944 18.027463 -22.058711 32.424199 -0.861153 2.318990 0.074801 -0.014172 589536.000000 0 0 1
-16.686044 18.805063 -22.111411 33.480874 -0.845033 2.292173 0.047617 -0.011783 354948.000000 0 0 1
-17.370744 18.838063 -23.305411 34.637516 -0.825900 2.308834 0.028486 -0.009794 149892.000000 0 0 1
-18.606244 19.794463 -23.419811 35.867821 -0.816331 2.282266 0.025329 -0.009306 538093.000000 0 0 1
-18.339044 21.190663 -23.431611 36.529510 -0.857412 2.267175 0.024757 -0.013382 -277301.000000 0 0 1
-19.550344 21.890063 -23.473511 37.581864 -0.841798 2.245411 0.048273 -0.023636 -407992.000000 0 0 1
-19.347444 23.405663 -23.741011 38.545872 -0.880037 2.234344 0.035821 -0.029729 -109480.000000 0 0 1
-18.647644 24.005063 -22.685011 37.928714 -0.910349 2.211920 0.038628 -0.030054 -254203.000000 0 0 1
-17.925244 25.185863 -23.029411 38.548616 -0.952249 2.211067 0.034896 -0.022639 -215391.000000 0 0 1
-16.674744 25.366863 -22.126811 37.564885 -0.989276 2.200653 0.028843 -0.028114 404847.000000 0 0 1
-15.632944 24.391663 -22.333711 36.580552 -1.000835 2.227532 0.043010 -0.037837 396226.000000 0 0 1
-15.960244 23.116863 -21.850511 35.588812 -0.966532 2.231878 0.051499 -0.021607 -1119000.000000 0 0 1
-14.761644 22.149263 -21.752111 34.375141 -0.982935 2.255942 0.069605 -0.018098 329109.000000 0 0 1
-13.915444 22.391963 -20.644911 33.485100 -1.014755 2.235137 0.073848 -0.026542 -431239.000000 0 0 1
-12.991144 21.386363 -20.392911 32.280290 -1.024917 2.254599 0.080210 -0.026851 -130347.000000 0 0 1
-12.096744 21.745863 -19.150211 31.399751 -1.063146 2.226711 0.079656 -0.028937 278899.000000 0 0 1
-12.699044 21.710463 -17.822211 30.825981 -1.041533 2.187263 0.087050 -0.026822 476256.000000 0 0 1
-13.665544 22.741463 -17.561311 31.816990 -1.029709 2.155494 0.075589 -0.030730 175778.000000 0 0 1
-14.360544 22.672063 -16.173611 31.334220 -1.006177 2.113163 0.084382 -0.028122 1648.500000 0 0 1
-13.554844 23.063063 -15.068911 30.703595 -1.039448 2.083789 0.083544 -0.031308 -219589.000000 0 0 1
-14.287344 23.251263 -13.862011 30.608900 -1.019801 2.040784 0.088368 -0.026294 568015.000000 0 0 1
-13.310144 23.713163 -12.697811 30.011805 -1.059321 2.007654 0.118871 -0.025354 502250.000000 0 0 1
-12.934044 25.061863 -12.780611 30.963373 -1.094364 1.996284 0.109934 -0.035667 -32724.500000 0 0 1
-11.979644 25.318863 -11.780011 30.386269 -1.128858 1.968905 0.075918 -0.025958 -33710.700000 0 0 1
-11.608844 26.791863 -11.615711 31.424416 -1.161919 1.949418 0.094694 -0.025249 -447036.000000 0 0 1
-10.789244 27.189163 -12.640111 31.865824 -1.193033 1.978679 0.093668 -0.029140 -526359.000000 0 0 1
-10.914844 28.563563 -12.912411 33.192488 -1.205794 1.970360 0.072039 -0.019071 -784666.000000 0 0 1
-10.184944 28.873363 -14.241211 33.767088 -1.231678 2.006169 0.103844 -0.040019 999481.000000 0 0 1
-8.750644 28.859263 -14.259211 33.357996 -1.276390 2.012478 0.088392 -0.040962 566919.000000 0 0 1
-8.250944 27.534563 -14.294011 32.102165 -1.279654 2.032268 0.093016 -0.041629 -382716.000000 0 0 1
-6.819144 27.457063 -14.880711 31.966022 -1.327365 2.055014 0.091778 -0.046678 693999.000000 0 0 1
-5.817644 28.102163 -14.097311 31.973594 -1.366662 2.027403 0.075043 -0.036058 653963.000000 0 0 1
-4.542644 28.125763 -14.765211 32.089026 -1.410667 2.048941 0.089001 -0.034204 891742.000000 0 0 1
-3.575144 29.256463 -14.247511 32.737041 -1.449199 2.021069 0.060594 -0.021530 216927.000000 0 0 1
-3.850544 30.669563 -14.445011 34.119014 -1.445900 2.007960 0.047827 -0.014655 -272863.000000 0 0 1
-4.853844 31.235463 -13.640811 34.427978 -1.416634 1.978185 0.046130 -0.016690 -12809.400000 0 0 1
-4.851144 32.816263 -13.845511 35.946333 -1.424032 1.966190 0.047110 -0.018362 820166.000000 0 0 1
-3.694244 33.441363 -13.244211 36.157728 -1.460773 1.945815 0.019581 -0.015137 558484.000000 0 0 1
-3.815144 -33.357438 -13.457411 36.171479 1.456920 1.952007 0.029207 -0.012343 652788.000000 0 0 1
-2.950044 -32.391838 -12.551211 34.863546 1.479973 1.939075 0.040744 -0.016805 682470.000000 0 0 1
-3.403744 -32.409738 -11.222911 34.466365 1.466158 1.902463 0.046638 -0.021064 1046130.000000 0 0 1
-2.302344 -31.854738 -10.475311 33.611862 1.498645 1.887731 0.042337 -0.023084 923609.000000 0 0 1
-2.714144 -31.967938 -8.971811 33.313797 1.486097 1.843475 0.046468 -0.025019 299042.000000 0 0 1
-1.821644 -31.252238 -8.112311 32.339301 1.512574 1.824354 0.049238 -0.022261 49368.900000 0 0 1
-2.172444 -31.398638 -6.766811 32.192914 1.501717 1.782571 0.052668 -0.026934 274857.000000 0 0 1
-1.033144 -30.852738 -5.844911 31.418495 1.537323 1.757921 0.065819 -0.024679 412504.000000 0 0 1
-1.198244 -30.919138 -4.449111 31.260574 1.532062 1.713605 0.075775 -0.031016 -188121.000000 0 0 1
-0.166544 -30.221238 -3.771311 30.456096 1.565286 1.694943 0.067526 -0.026760 -185241.000000 0 0 1
-0.047644 -30.391838 -2.259411 30.475745 1.569229 1.645002 0.076524 -0.020108 -225379.000000 0 0 1
0.272856 -31.713338 -1.776711 31.764240 -1.562193 1.626760 0.070947 -0.023357 616528.000000 0 0 1
1.484156 -32.336838 -2.227711 32.447442 -1.524932 1.639506 0.062560 -0.023725 141887.000000 0 0 1
2.821056 -31.862238 -1.685311 32.031248 -1.482487 1.623435 0.051819 -0.020671 -1164020.000000 0 0 1
3.169956 -32.397038 -0.386811 32.554052 -1.473260 1.582679 0.059234 -0.017426 986805.000000 0 0 1
4.488556 -32.047538 0.089389 32.360467 -1.431642 1.568034 0.043367 -0.017617 946365.000000 0 0 1
4.807156 -30.565638 0.420589 30.944206 -1.414801 1.557204 0.038149 -0.023035 -946491.000000 0 0 1
5.065456 -29.861638 -0.730111 30.297019 -1.402765 1.594897 0.021603 -0.026512 -26841.200000 0 0 1
4.909156 -28.500838 -0.456811 28.924147 -1.400224 1.586590 0.050557 -0.026308 -250837.000000 0 0 1
4.333456 -27.741138 -1.692011 28.128500 -1.415838 1.630986 0.042381 -0.026499 539209.000000 0 0 1
3.048456 -28.196638 -2.134311 28.441146 -1.463100 1.645910 0.054598 -0.020169 674320.000000 0 0 1
2.373056 -27.387338 -3.105011 27.664757 -1.484364 1.683270 0.049122 -0.016637 91953.900000 0 0 1
2.858556 -27.437938 -4.590311 27.965742 -1.466988 1.735683 0.028161 -0.017473 -296454.000000 0 0 1
2.392556 -28.488638 -5.419611 29.098093 -1.487010 1.758143 0.029375 -0.017473 -11471.800000 0 0 1
3.000456 -28.418938 -6.690011 29.349532 -1.465607 1.800761 0.037553 -0.022441 -346537.000000 0 0 1
2.261156 -29.299938 -7.710311 30.381707 -1.493776 1.827384 0.038376 -0.012454 1482060.000000 0 0 1
0.894256 -28.849338 -7.956111 29.939668 -1.539809 1.839766 0.041682 -0.009163 953157.000000 0 0 1
0.506556 -28.920938 -9.310911 30.387009 -1.553283 1.882217 0.043766 -0.003086 -767741.000000 0 0 1
-0.840144 -28.273738 -9.464611 29.827655 1.541090 1.893688 0.036797 -0.009906 -1572950.000000 0 0 1
-0.915844 -26.855738 -9.149811 28.386414 1.536707 1.898987 0.031182 -0.007200 -823146.000000 0 0 1
-2.231044 -26.425038 -9.024011 28.012372 1.486567 1.898789 0.050306 -0.014142 -68595.900000 0 0 1
-3.074844 -26.995038 -7.845811 28.279737 1.457381 1.851920 0.059028 -0.007524 -353261.000000 0 0 1
-2.701544 -26.482638 -6.567011 27.418134 1.469136 1.812661 0.063685 -0.012415 126693.000000 0 0 1
-1.502644 -27.010238 -5.998511 27.709079 1.515221 1.789006 0.050170 -0.018158 570548.000000 0 0 1
-1.133144 -26.485138 -4.573111 26.900928 1.528038 1.741624 0.071032 -0.020040 -65935.300000 0 0 1
-2.009344 -26.960038 -3.567311 27.269155 1.496403 1.701991 0.091787 -0.027335 -25606.700000 0 0 1
-1.677544 -26.417238 -2.313211 26.571330 1.507380 1.657963 0.098723 -0.028897 563750.000000 0 0 1
-2.820844 -26.660638 -1.220211 26.837207 1.465383 1.616279 0.085004 -0.024107 1192830.000000 0 0 1
-3.958044 -25.897838 -1.599211 26.247316 1.419137 1.631763 0.083063 -0.019233 467617.000000 0 0 1
-4.987144 -25.760038 -0.607411 26.245383 1.379562 1.593942 0.097492 -0.028768 343070.000000 0 0 1
-6.241244 -24.948738 -0.920111 25.734010 1.325665 1.606559 0.090715 -0.021181 20068.500000 0 0 1
-5.992144 -23.581538 -0.736611 24.342089 1.321960 1.601062 0.078711 -0.030373 239187.000000 0 1 0
-6.839544 -23.121738 0.303289 24.114023 1.283192 1.558219 0.076033 -0.022370 92963.100000 0 1 0
-6.390144 -21.684438 0.663489 22.616123 1.284220 1.541455 0.051794 -0.026094 -6744.210000 0 1 0
-5.182044 -21.694738 1.359689 22.346454 1.336328 1.509913 0.043531 -0.028862 -273950.000000 0 1 0
-4.469044 -20.455838 1.358489 20.982353 1.355703 1.506007 0.015332 -0.021374 -340089.000000 0 1 0
-3.427944 -20.357238 2.427589 20.786080 1.403972 1.453740 0.023982 -0.015289 -1240130.000000 0 1 0
-3.971444 -20.157438 3.670089 20.870176 1.376267 1.394024 0.020638 -0.012625 -342806.000000 0 1 0
-3.130344 -20.139638 4.820489 20.943762 1.416598 1.338551 0.047551 -0.014593 128456.000000 0 1 0
-2.264744 -21.385538 5.104889 22.102719 1.465289 1.337730 0.054822 -0.026248 -145910.000000 0 1 0
-1.201044 -21.653338 4.249289 22.099005 1.515386 1.377307 0.067239 -0.028437 -329869.000000 0 1 0
-0.472044 -22.814538 4.615289 23.281470 1.550109 1.371236 0.079599 -0.031103 -369626.000000 0 1 0
0.525756 -23.244338 3.498689 23.512050 -1.548181 1.421438 0.080728 -0.041689 576911.000000 0 1 0
1.641856 -22.381638 3.361289 22.692106 -1.497570 1.422123 0.056894 -0.042510 644616.000000 0 1 0
2.716956 -22.568238 4.288189 23.132138 -1.450984 1.384340 0.072913 -0.046905 485126.000000 0 1 0
3.957256 -21.604438 4.234489 22.368337 -1.389636 1.380340 0.070865 -0.041553 998973.000000 0 1 0
4.901256 -21.904338 3.200089 22.672956 -1.350665 1.429182 0.048593 -0.027074 48567.800000 0 1 0
6.172656 -21.415538 3.566089 22.570865 -1.290170 1.412136 0.064833 -0.017834 864850.000000 0 1 0
7.130556 -20.873338 2.423489 22.190412 -1.241615 1.461365 0.073677 -0.012885 258910.000000 0 1 0
7.685456 -21.855438 1.586289 23.221600 -1.232653 1.502432 0.070738 -0.012013 -163107.000000 0 1 0
7.339556 -21.695738 0.196689 22.904428 -1.244587 1.562209 0.057699 -0.022871 -391856.000000 0 1 0
8.195456 -22.536638 -0.708511 23.990989 -1.222013 1.600333 0.049157 -0.012096 337210.000000 0 1 0
9.525656 -22.006838 -0.805211 23.993487 -1.162296 1.604362 0.047317 -0.001764 -528054.000000 0 1 0
10.254456 -22.807838 -1.623811 25.059691 -1.148273 1.635639 0.042886 -0.000372 -1343030.000000 0 0 1
11.617256 -22.222938 -1.854111 25.144728 -1.089107 1.644601 0.044648 0.000248 -1042570.000000 0 0 1
11.570056 -21.053938 -2.714111 24.176454 -1.068304 1.683296 0.045149 0.001112 -554812.000000 0 1 0
12.855356 -20.779438 -3.184611 24.641164 -1.016771 1.700398 0.046320 -0.005251 -520981.000000 0 1 0
12.921156 -19.704938 -4.281611 23.949385 -0.990402 1.750540 0.052014 -0.011970 -22673.300000 0 1 0
12.709956 -18.444738 -3.699411 22.703238 -0.967435 1.734473 0.062792 -0.009165 197507.000000 0 1 0
12.839456 -17.394738 -4.677511 22.120300 -0.934940 1.783863 0.063301 -0.014535 -992252.000000 0 1 0
13.332356 -16.110538 -4.009111 21.292584 -0.879478 1.760214 0.070659 -0.012835 1468900.000000 0 1 0
14.716256 -15.957938 -3.611011 22.005985 -0.825856 1.735634 0.065552 -0.010282 902724.000000 0 1 0
15.688756 -16.155538 -4.581111 22.980972 -0.800055 1.771484 0.059902 -0.007898 -803488.000000 0 1 0
17.113456 -15.705938 -4.190011 23.603031 -0.742538 1.749262 0.058919 -0.007809 302920.000000 0 1 0
17.726456 -16.436338 -3.149811 24.378306 -0.747652 1.700364 0.059072 -0.016566 766163.000000 0 1 0
19.149256 -16.309738 -3.164911 25.351888 -0.705490 1.695962 0.046397 -0.002666 667107.000000 0 0 1
19.933856 -17.147538 -2.108911 26.378859 -0.710399 1.650829 0.039261 -0.010007 651531.000000 0 0 1
21.343756 -16.982838 -2.265711 27.369804 -0.672102 1.653673 0.033870 -0.006846 475333.000000 0 0 1
22.014656 -17.746238 -1.297411 28.306489 -0.678456 1.616647 0.031418 -0.006061 778562.000000 0 0 1
23.584156 -17.711838 -1.345311 29.525100 -0.644145 1.616377 0.045851 -0.011946 1038400.000000 0 0 1
24.151556 -16.402938 -1.072111 29.214782 -0.596607 1.607502 0.054503 -0.013110 -507022.000000 0 0 1
25.500656 -16.522538 -0.776811 30.395414 -0.574916 1.596356 0.079138 -0.012412 -474823.000000 0 0 1
26.211956 -15.247938 -0.241211 30.325311 -0.526868 1.578751 0.074246 -0.017171 -50838.400000 0 0 1
25.753356 -14.905938 1.013489 29.773302 -0.524682 1.536750 0.084424 -0.015463 -218045.000000 0 0 1
26.080556 -13.599238 1.397989 29.446376 -0.480646 1.523303 0.064111 -0.017790 -158045.000000 0 0 1
25.102456 -12.859538 2.334189 28.301051 -0.473425 1.488225 0.067272 -0.030033 -337237.000000 0 0 1
24.821356 -13.518038 3.590889 28.490903 -0.498698 1.444424 0.096326 -0.015718 881096.000000 0 0 1
25.939756 -13.931938 4.434889 29.776469 -0.492876 1.421301 0.109858 -0.011074 871102.000000 0 0 1
25.454756 -14.670738 5.685289 29.924867 -0.522845 1.379649 0.098584 -0.006611 184733.000000 0 0 1
24.807356 -15.931138 5.538989 29.998108 -0.570868 1.385086 0.105860 -0.014347 204533.000000 0 0 1
24.220756 -16.309338 6.772189 29.975025 -0.592624 1.342901 0.085499 -0.010473 -235845.000000 0 0 1
23.624156 -17.713838 6.670989 30.271817 -0.643385 1.348603 0.072888 -0.013960 77878.200000 0 0 1
24.613856 -18.743938 6.709589 31.657475 -0.650833 1.357233 0.072172 -0.013753 116083.000000 0 0 1
24.031456 -19.985438 6.995589 32.029157 -0.693736 1.350608 0.039532 -0.004782 -248886.000000 0 0 1
1.435556 23.868563 -2.882711 24.084832 1.510724 1.690774 0.074516 -0.010615 335785.000000 0 1 0
2.477256 24.764463 -2.534311 25.016757 1.471095 1.672275 0.078663 -0.018636 -310010.000000 0 0 1
3.417056 24.941263 -3.535811 25.421346 1.434640 1.710337 0.088389 -0.017266 -510315.000000 0 0 1
4.605956 25.814863 -3.130411 26.408738 1.394232 1.689613 0.070706 -0.018445 -505344.000000 0 0 1
5.437256 25.175363 -2.206311 25.850154 1.358088 1.656250 0.052376 -0.021461 -584206.000000 0 0 1
6.195056 26.203063 -1.588211 26.972238 1.338634 1.629714 0.043222 -0.021305 244086.000000 0 0 1
7.364456 25.563563 -0.738011 26.613448 1.290307 1.598531 0.023994 -0.030182 30627.800000 0 0 1
8.308756 25.064063 -1.622911 26.455179 1.250696 1.632181 0.018602 -0.029504 -819246.000000 0 0 1
9.231356 24.225163 -0.959311 25.942180 1.206719 1.607784 0.012090 -0.026286 -518342.000000 0 0 1
10.370556 23.798363 -1.872611 26.027239 1.159841 1.642807 0.023328 -0.022567 -1305420.000000 0 0 1
11.308756 24.839263 -1.912511 27.359361 1.143562 1.640757 0.026367 -0.015102 -568494.000000 0 0 1
12.027656 24.896963 -3.110111 27.824379 1.120762 1.682807 0.060321 -0.017896 417888.000000 0 0 1
13.238656 23.920963 -3.274511 27.535376 1.065321 1.689999 0.052242 -0.018821 -288707.000000 0 0 1
12.862456 22.588663 -3.442311 26.220983 1.053165 1.702457 0.062922 -0.023531 -228595.000000 0 0 1
12.859456 22.157363 -4.793711 26.063269 1.044936 1.755775 0.090014 -0.031076 48072.700000 0 0 1
12.009856 20.877663 -5.127511 24.625288 1.048775 1.780552 0.084080 -0.034900 1012150.000000 0 1 0
10.623456 21.118863 -4.883711 24.139487 1.104726 1.774515 0.067661 -0.035182 74139.000000 0 1 0
9.744656 20.027063 -4.780711 22.779306 1.117947 1.782239 0.054012 -0.031127 -29750.400000 0 1 0
8.328656 20.634563 -4.748911 22.753106 1.187168 1.781057 0.046690 -0.018920 -160766.000000 0 1 0
7.911556 21.111163 -3.441411 22.806079 1.212239 1.722274 0.048068 -0.023564 495163.000000 0 1 0
6.573456 21.599463 -3.520911 22.850469 1.275368 1.725498 0.050105 -0.011392 544783.000000 0 1 0
6.011856 22.257363 -2.253611 23.164874 1.306985 1.668236 0.048110 -0.017701 93659.100000 0 1 0
5.629856 21.391563 -1.181411 22.151523 1.313451 1.624155 0.045007 -0.023131 61092.400000 0 1 0
4.793856 22.034063 -0.239411 22.550794 1.356569 1.581413 0.057909 -0.020711 343029.000000 0 1 0
4.364056 21.102763 0.979289 21.571523 1.366871 1.525383 0.040493 -0.022182 79442.600000 0 1 0
3.626056 21.849463 1.937589 22.232894 1.406339 1.483536 0.045861 -0.014650 192313.000000 0 1 0
3.157056 20.958063 2.948489 21.398621 1.421284 1.432568 0.042268 -0.014753 -250677.000000 0 1 0
2.179756 21.570463 3.946489 22.036583 1.470085 1.390737 0.033510 -0.010480 202397.000000 0 1 0
0.863256 21.768263 3.440689 22.055403 1.531160 1.414154 0.032117 -0.006694 -347837.000000 0 1 0
0.014256 22.184863 4.451389 22.627046 1.570154 1.372776 0.033629 -0.018240 -7805.910000 0 1 0
-1.455744 22.224063 3.977989 22.624158 -1.505387 1.394048 0.025568 -0.020596 599091.000000 0 1 0
-2.472644 22.479963 4.961189 23.153317 -1.461243 1.354846 0.036054 -0.029733 -519570.000000 0 1 0
-3.710544 22.545663 4.361289 23.261468 -1.407680 1.382190 0.039340 -0.024483 -856680.000000 0 1 0
-4.911744 22.756763 5.280389 23.872117 -1.358221 1.347757 0.046371 -0.037365 -339427.000000 0 1 0
-4.998144 23.954563 6.008489 25.197310 -1.365097 1.330019 0.054438 -0.032817 210804.000000 0 0 1
-6.354744 24.098763 6.422489 25.736773 -1.312970 1.318586 0.062235 -0.029935 646786.000000 0 0 1
-6.706244 25.534163 6.948089 27.299141 -1.313959 1.313448 0.067524 -0.029170 -316593.000000 0 0 1
-6.003744 25.850263 8.107889 27.749214 -1.342591 1.274286 0.049621 -0.038157 -303477.000000 0 0 1
-6.308944 27.095163 8.710689 29.151787 -1.342029 1.267357 0.079202 -0.028422 -257109.000000 0 0 1
-6.352744 28.463363 7.894989 30.213428 -1.351205 1.306420 0.090696 -0.025707 -110955.000000 0 0 1
-7.387644 28.441763 6.960389 30.198645 -1.316666 1.338218 0.072791 -0.033955 -601376.000000 0 0 1
-7.317844 29.577663 6.120289 31.078077 -1.328256 1.372568 0.093080 -0.038786 304055.000000 0 0 1
-8.698844 30.033963 5.516889 31.751297 -1.288877 1.396157 0.075556 -0.037461 1257150.000000 0 0 1
-9.595744 30.491263 6.540589 32.627821 -1.265904 1.368968 0.079684 -0.030799 -136744.000000 0 0 1
-10.550244 29.585563 7.030489 32.187590 -1.228253 1.350599 0.070015 -0.028691 167593.000000 0 0 1
-11.536644 30.314663 8.053089 33.420430 -1.207157 1.327438 0.054671 -0.031473 446917.000000 0 0 1
-10.871944 30.924363 9.129289 34.027331 -1.232727 1.299176 0.061765 -0.029524 202030.000000 0 0 1
-11.871044 31.509263 9.963289 35.114419 -1.210494 1.283106 0.069141 -0.025658 585984.000000 0 0 1
-11.277744 31.936163 11.374489 35.727930 -1.231332 1.246793 0.055505 -0.027770 271624.000000 0 0 1
-10.461544 33.105663 11.200589 36.481255 -1.264722 1.258733 0.050702 -0.029994 30245.900000 0 0 1
-9.732244 33.294063 12.362089 36.824345 -1.286408 1.228444 0.053280 -0.035341 -101957.000000 0 0 1
-9.331944 -33.391438 12.543589 36.870245 1.298278 1.223657 0.061072 -0.033573 718920.000000 0 0 1
-10.417244 -32.625538 13.102989 36.669238 1.261731 1.205390 0.057815 -0.027082 745918.000000 0 0 1
-10.010744 -31.249138 13.143489 35.347913 1.260774 1.189814 0.057189 -0.022826 297967.000000 0 0 1
-10.983844 -30.310338 13.889389 35.103797 1.223136 1.164003 0.054685 -0.019436 -218973.000000 0 0 1
-11.123944 -30.583738 15.297589 35.960025 1.221951 1.131387 0.043892 -0.031476 294898.000000 0 0 1
-10.057844 -30.124838 16.125889 35.618961 1.248561 1.100968 0.050794 -0.030114 375131.000000 0 0 1
-10.246844 -30.709038 17.597889 36.847368 1.248738 1.072888 0.047002 -0.036945 -153410.000000 0 0 1
-10.894044 -29.765138 18.410489 36.655010 1.219939 1.044581 0.053088 -0.030294 286761.000000 0 0 1
-11.509944 -30.436538 19.527589 37.949814 1.209256 1.030298 0.040942 -0.031799 2052.040000 0 0 1
-11.729844 -29.518538 20.733389 37.931606 1.192557 0.992499 0.044058 -0.028752 53054.300000 0 0 1
-10.536044 -29.096638 21.345989 37.593534 1.223378 0.966953 0.048844 -0.027498 414632.000000 0 0 1
-10.931144 -28.415538 22.553189 37.889036 1.203558 0.933228 0.041366 -0.024398 346217.000000 0 0 1
-9.728044 -28.264638 23.504189 38.025932 1.239318 0.904461 0.059833 -0.028022 117448.000000 0 0 1
-9.409244 -29.474338 24.199989 39.279892 1.261787 0.907026 0.064734 -0.015531 618073.000000 0 0 1
-8.126644 -29.399338 24.827089 39.328714 1.301108 0.887605 0.075952 -0.012735 556689.000000 0 0 1
-7.955644 -30.499938 25.884689 40.786709 1.315640 0.883260 0.084445 -0.017450 -63798.900000 0 0 1
-7.875344 -31.811538 25.356889 41.436298 1.328113 0.912274 0.097936 -0.008732 290760.000000 0 0 1
-7.839244 -32.823038 26.283789 42.774328 1.336355 0.909075 0.099022 -0.009423 -307913.000000 0 0 1
-7.700144 33.944163 25.674389 43.251273 -1.347724 0.935259 0.089213 -0.015525 212097.000000 0 0 1
-6.401544 33.462363 25.314889 42.444706 -1.381774 0.931762 0.096556 -0.011638 425757.000000 0 0 1
-6.352444 32.120463 24.790689 41.068917 -1.375547 0.922742 0.085541 -0.008152 -60313.500000 0 0 1
-7.209144 31.752763 23.532989 40.174759 -1.347541 0.944972 0.075931 -0.008218 1200500.000000 0 0 1
-8.391244 30.983563 23.877289 40.006488 -1.306312 0.931245 0.066694 -0.006781 527539.000000 0 0 1
-9.365844 30.964563 22.897389 39.633491 -1.277075 0.954854 0.044584 0.001849 -429187.000000 0 0 1
-10.219544 29.701163 22.984789 38.921699 -1.239406 0.939070 0.046286 -0.013737 -555585.000000 0 0 1
-9.492144 28.519963 22.679689 37.654447 -1.249504 0.924403 0.049377 -0.007381 341759.000000 0 0 1
-10.234344 27.302063 22.873289 37.058491 -1.212152 0.905590 0.038587 -0.006485 -73874.300000 0 0 1
-9.413144 26.032963 22.456389 35.645642 -1.223838 0.889256 0.036989 -0.006764 293786.000000 0 0 1
-8.242644 25.898463 23.254589 35.769365 -1.262666 0.863046 0.030882 -0.012558 278674.000000 0 0 1
-7.683944 24.605563 23.162889 34.655391 -1.268108 0.838771 0.033272 -0.015424 114012.000000 0 0 1
-6.274344 24.495763 23.801189 34.726163 -1.320047 0.815648 0.031995 -0.017286 333485.000000 0 0 1
-5.236244 24.994363 22.974389 34.350531 -1.364286 0.838173 0.020880 -0.012366 330507.000000 0 0 1
-3.983544 24.889563 23.665289 34.574627 -1.412094 0.816920 0.029797 -0.012866 616861.000000 0 0 1
-2.827344 25.462763 22.797889 34.294167 -1.460211 0.843604 0.022995 0.000626 -77587.300000 0 0 1
-2.407044 24.598063 21.746289 32.920505 -1.473252 0.849219 0.025007 -0.000078 -94468.900000 0 0 1
-1.880444 25.284863 20.647189 32.698115 -1.496563 0.887376 0.035015 0.001440 -126093.000000 0 0 1
-1.449244 24.233563 19.634189 31.222864 -1.511064 0.890736 0.025106 0.002415 186868.000000 0 0 1
-0.311844 23.462863 20.051589 30.865343 -1.557506 0.863676 0.027468 -0.003929 291579.000000 0 0 1
0.003556 22.429763 19.163589 29.501481 1.570638 0.863764 0.023022 -0.002776 480074.000000 0 0 1
1.226356 21.505163 19.552589 29.090887 1.513832 0.833727 0.016298 0.001237 385700.000000 0 0 1
2.452556 22.126263 19.318989 29.475581 1.460403 0.856053 0.024379 -0.008109 -55488.900000 0 0 1
3.541556 21.192063 19.347089 28.912904 1.405209 0.837731 0.024547 -0.001154 1469310.000000 0 0 1
4.973056 21.776963 19.043989 29.353720 1.346283 0.864821 0.034978 -0.008449 1529580.000000 0 0 1
6.000256 20.768163 19.075189 28.830236 1.289539 0.847795 0.051551 -0.012228 484790.000000 0 0 1
7.273656 21.256663 18.681789 29.219189 1.241103 0.877121 0.068352 -0.015538 -162657.000000 0 0 1
8.359956 20.219463 18.509489 28.658624 1.178740 0.868646 0.066716 -0.010328 -542874.000000 0 0 1
8.764956 19.597163 19.652289 29.104737 1.150226 0.829525 0.068437 -0.015736 176692.000000 0 0 1
9.899456 18.748463 19.460489 28.778720 1.084989 0.828189 0.074540 -0.019118 535537.000000 0 0 1
10.173156 18.015663 20.813689 29.347348 1.056749 0.782407 0.093389 -0.023782 -368043.000000 0 0 1
9.258656 17.025363 21.167089 28.698978 1.072714 0.741353 0.077448 -0.018713 -487164.000000 0 0 1
9.615756 16.347963 22.342389 29.307013 1.039104 0.703850 0.081610 -0.020944 49533.600000 0 0 1
8.566756 15.353063 22.904889 28.874553 1.061844 0.654660 0.068061 -0.014663 1210530.000000 0 0 1
7.399956 15.888663 23.618989 29.411997 1.134932 0.638418 0.048676 -0.003807 1287010.000000 0 0 1
6.353256 14.954463 23.819489 28.833451 1.169061 0.598634 0.044611 0.000962 321020.000000 0 0 1
6.616856 13.788463 24.819989 29.153668 1.123371 0.552242 0.054273 0.004494 -376364.000000 0 0 1
7.108356 14.273563 26.073089 30.562547 1.108743 0.548887 0.061505 -0.003056 -46851.300000 0 0 1
7.342856 13.192763 26.981989 30.919157 1.062914 0.510168 0.076564 -0.011737 -683713.000000 0 0 1
8.215256 13.724963 28.124689 32.355265 1.031434 0.517121 0.059812 -0.006656 1477080.000000 0 0 1
9.615956 13.915563 27.743689 32.493411 0.966121 0.547507 0.100156 -0.010760 1486910.000000 0 0 1
9.868256 15.182063 27.116089 32.606131 0.994425 0.588768 0.087129 -0.010732 -354568.000000 0 0 1
11.244956 15.058063 26.424189 32.425793 0.929364 0.618218 0.112995 -0.025742 250684.000000 0 0 1
11.082256 14.166663 25.317289 31.056012 0.906956 0.617698 0.100887 -0.028437 52661.800000 0 0 1
12.285956 13.931263 24.612789 30.835275 0.848073 0.646491 0.124573 -0.037809 -172507.000000 0 0 1
12.155456 12.815963 23.552789 29.440412 0.811842 0.643475 0.100003 -0.033165 57646.000000 0 0 1
11.923856 11.511363 24.089989 29.240680 0.767799 0.602623 0.103419 -0.026517 354765.000000 0 0 1
10.573656 11.252463 24.457889 28.924185 0.816489 0.563134 0.099191 -0.019409 189986.000000 0 0 1
10.307556 9.791463 24.871589 28.648113 0.759726 0.519283 0.093988 -0.015915 13395.500000 0 0 1
10.466156 8.945663 23.750989 27.453138 0.707230 0.525354 0.095736 -0.011501 98218.200000 0 0 1
10.020756 7.631763 24.025589 27.127261 0.650881 0.482878 0.092252 -0.019643 -26045.200000 0 0 1
10.619756 6.590763 23.101189 26.265611 0.555439 0.495939 0.086369 -0.021535 843551.000000 0 0 1
12.040256 6.373163 23.224689 26.925288 0.486828 0.530488 0.095962 -0.016071 1000270.000000 0 0 1
12.611656 5.458263 22.337889 26.226471 0.408455 0.551517 0.097482 -0.024959 -72460.000000 0 0 1
12.405856 3.917063 22.550389 26.033991 0.305837 0.523269 0.076517 -0.027556 -580847.000000 0 0 1
13.158356 3.474363 23.600389 27.243199 0.258151 0.523078 0.088242 -0.015719 -261894.000000 0 0 1
12.707456 2.200263 24.007689 27.252334 0.171448 0.492950 0.077099 -0.020234 -681828.000000 0 0 1
13.621856 1.589163 25.042089 28.551473 0.116138 0.501035 0.061066 -0.012249 -45768.100000 0 0 1
14.747756 0.993263 24.400289 28.528179 0.067249 0.544657 0.077970 -0.012204 -126180.000000 0 0 1
15.951156 1.589963 24.820289 29.546812 0.099349 0.573453 0.069459 -0.011871 -96814.000000 0 0 1
17.171756 0.917463 24.103889 29.609262 0.053378 0.619677 0.066229 -0.024171 139466.000000 0 0 1
17.267556 -0.446137 24.451689 29.937479 -0.025831 0.615026 0.058784 -0.030263 103156.000000 0 0 1
18.226356 -1.038937 23.587089 29.826670 -0.056940 0.658673 0.059279 -0.015048 79671.300000 0 0 1
18.505156 -2.549737 23.867289 30.308241 -0.136923 0.664078 0.048317 -0.010419 -246859.000000 0 0 1
17.471856 -3.505137 23.712389 29.661914 -0.197988 0.644464 0.042439 -0.008606 141211.000000 0 0 1
17.899256 -4.851337 23.904689 30.254801 -0.264677 0.659804 0.049880 -0.006508 78619.700000 0 0 1
16.856656 -5.799137 23.257889 29.303690 -0.331343 0.653954 0.047815 -0.012971 84674.000000 0 0 1
16.867456 -5.891337 21.854589 28.228390 -0.336026 0.685337 0.050603 -0.009820 -541161.000000 0 0 1
16.105756 -6.940337 21.436489 27.696331 -0.406877 0.685689 0.064210 -0.014214 -554892.000000 0 0 1
16.787956 -8.360637 21.348189 28.416208 -0.462058 0.720815 0.071609 -0.016100 -1221.450000 0 0 1
17.096656 -8.941237 22.590289 29.707954 -0.481863 0.706849 0.060070 -0.012169 8082.850000 0 0 1
17.626656 -10.211037 22.273289 30.183832 -0.525056 0.740811 0.046583 -0.018250 -132276.000000 0 0 1
17.422856 -11.186937 23.456389 31.287468 -0.570790 0.723179 0.050142 -0.020163 1026400.000000 0 0 1
16.172756 -11.926737 23.372989 30.823720 -0.635426 0.710127 0.090269 -0.027193 944362.000000 0 0 1
15.979656 -12.710937 24.493789 31.888290 -0.671957 0.694908 0.088147 -0.020590 161392.000000 0 0 1
14.757556 -13.684337 24.487189 31.696514 -0.747682 0.687947 0.103033 -0.017557 305792.000000 0 0 1
14.851756 -14.652137 23.471089 31.403054 -0.778632 0.726635 0.107021 -0.025505 650504.000000 0 0 1
13.647256 -15.425937 23.398289 31.171896 -0.846501 0.721794 0.104117 -0.026616 260479.000000 0 0 1
13.616056 -16.229037 22.119589 30.627681 -0.872727 0.763806 0.097054 -0.027474 -96689.400000 0 0 1
14.627256 -17.206437 22.123789 31.614556 -0.866242 0.795682 0.115982 -0.027232 81453.700000 0 0 1
14.734656 -17.837337 20.853689 31.147344 -0.880368 0.837237 0.100243 -0.013481 -46254.900000 0 0 1
-24.615844 -32.589138 26.176320 48.509704 0.923887 1.000823 0.063082 -0.027563 -677107.000000 0 0 1
-24.297844 -33.957538 26.225930 49.308204 0.949719 1.009980 0.086472 -0.020964 778594.000000 0 0 1
-25.293944 33.263763 26.747880 49.615628 -0.920669 1.001426 0.099000 -0.031755 466811.000000 0 0 1
-25.632544 33.503363 28.251960 50.770817 -0.917718 0.980676 0.096125 -0.024211 -707329.000000 0 0 1
-26.600624 -33.720338 28.543330 51.569139 0.902885 0.984240 0.130448 -0.032707 -452316.000000 0 0 1
-26.675194 -33.437838 29.945290 52.214704 0.897426 0.960021 0.102257 -0.036167 77910.200000 0 0 1
-27.946054 -32.716138 30.475590 52.726551 0.863870 0.954529 0.088528 -0.044136 14271.200000 0 0 1
-27.834294 -31.301838 30.481130 51.803979 0.843968 0.941726 0.079218 -0.041766 797.017000 0 0 1
-28.750544 -30.741438 31.355230 52.486000 0.818851 0.930539 0.064468 -0.025579 -512075.000000 0 0 1
-29.013064 -29.231138 31.125150 51.623563 0.789142 0.923634 0.064528 -0.029272 -180462.000000 0 0 1
-29.475804 -28.870638 29.855610 50.928324 0.775027 0.944401 0.065937 -0.018683 -16125.100000 0 0 1
-30.206444 -27.691738 29.874710 50.712522 0.741992 0.940853 0.076168 -0.011756 -309759.000000 0 0 1
-30.914454 -27.467738 28.493800 50.220282 0.726430 0.967480 0.072099 -0.021889 -41164.200000 0 0 1
-30.138564 -27.305738 27.298350 48.980979 0.736124 0.979635 0.069037 -0.016322 70840.000000 0 0 1
-29.449584 -26.065138 27.202360 47.818802 0.724509 0.965673 0.060047 -0.014983 252221.000000 0 0 1
-28.404564 -26.019638 26.031310 46.491611 0.741605 0.976514 0.048325 -0.001258 -25254.700000 0 0 1
-28.905464 -26.362738 24.775430 46.307037 0.739424 1.006259 0.046096 -0.014461 -319126.000000 0 0 1
-27.997674 -26.163538 23.745330 45.080385 0.751547 1.016044 0.054977 0.002490 -526457.000000 0 0 1
-28.623934 -26.489838 22.395990 44.973564 0.746696 1.049527 0.037146 0.002953 275748.000000 0 0 1
-29.441304 -25.459838 21.804490 44.614230 0.713004 1.060158 0.033594 -0.006410 929596.000000 0 0 1
-30.180924 -25.873138 20.639590 44.791741 0.708698 1.091911 0.025319 0.004484 205283.000000 0 0 1
-30.810044 -24.808438 19.715790 44.197622 0.677907 1.108413 0.038205 0.005590 -263437.000000 0 0 1
-32.001854 -24.290438 20.222890 44.978987 0.649257 1.104470 0.052947 0.000981 -338449.000000 0 0 1
-32.579654 -23.226038 19.526390 44.521484 0.619331 1.116774 0.058134 0.008311 -430255.000000 0 0 1
-34.041664 -22.969138 19.879890 45.624842 0.593568 1.119953 0.070332 0.009720 -719889.000000 0 0 1
-35.003490 -23.744238 19.243690 46.468837 0.596040 1.143820 0.058156 0.006959 587117.000000 0 0 1
-36.313244 -23.142638 19.354390 47.210441 0.567399 1.148386 0.057217 -0.000701 566716.000000 0 0 1
36.260058 -23.968738 18.642890 47.295344 -0.584085 1.165621 0.054429 -0.002364 -284284.000000 0 0 1
35.841758 -25.156638 19.338990 47.869453 -0.611987 1.154917 0.050434 -0.001450 117415.000000 0 0 1
35.288358 -26.168438 18.495090 47.666799 -0.638078 1.172327 0.048911 0.003650 184008.000000 0 0 1
34.929888 -27.560538 19.174290 48.449290 -0.668013 1.163901 0.045413 -0.002601 265345.000000 0 0 1
33.767248 -27.650438 19.993190 48.005223 -0.686132 1.141227 0.042047 -0.004162 58163.200000 0 0 1
33.837538 -26.995538 21.247290 48.220176 -0.673397 1.114495 0.052774 -0.009756 99406.800000 0 0 1
32.499768 -26.948738 22.028290 47.620531 -0.692293 1.089894 0.045390 -0.009570 -24700.400000 0 0 1
31.433628 -26.241938 21.482490 46.240779 -0.695625 1.087637 0.042640 -0.003678 -376849.000000 0 0 1
30.577738 -25.755438 22.492390 45.872086 -0.700003 1.058330 0.031320 -0.001357 -212921.000000 0 0 1
29.583368 -24.679938 22.078290 44.404120 -0.695279 1.050413 0.037616 0.008514 -125553.000000 0 0 1
30.240268 -23.578738 21.440290 43.933094 -0.662248 1.060975 0.034326 0.013741 87957.400000 0 0 1
30.957888 -22.663338 22.228090 44.340790 -0.631927 1.045694 0.051819 0.002537 -67875.700000 0 0 1
31.795288 -21.755338 21.342690 44.042542 -0.600065 1.064899 0.058489 0.000531 -158602.000000 0 0 1
30.959838 -20.714038 20.906190 42.715942 -0.589659 1.059368 0.050623 -0.001895 190552.000000 0 0 1
31.749688 -19.599138 20.548590 42.595932 -0.553044 1.067395 0.058444 -0.002470 -336549.000000 0 0 1
30.912098 -18.273438 20.420390 41.309426 -0.533881 1.053735 0.035281 0.008056 285752.000000 0 0 1
30.480048 -17.765038 21.650490 41.392917 -0.527707 1.020373 0.068651 0.001094 714002.000000 0 0 1
29.421658 -18.531438 22.276190 41.294997 -0.562084 1.001024 0.069351 -0.007305 -178788.000000 0 0 1
29.278118 -18.270938 23.750090 41.893939 -0.557914 0.968046 0.059293 -0.007092 29800.800000 0 0 1
28.941898 -16.915638 24.034810 41.248568 -0.528921 0.948771 0.068311 -0.004506 141847.000000 0 0 1
29.469818 -16.659338 25.302520 42.263710 -0.514515 0.928942 0.071453 -0.005889 -168345.000000 0 0 1
29.419318 -15.149238 25.717300 41.909130 -0.475530 0.910128 0.080832 -0.009676 -221148.000000 0 0 1
28.121618 -14.639138 25.893240 40.933967 -0.479964 0.885941 0.089822 -0.013683 -195828.000000 0 0 1
28.018718 -13.291938 26.383320 40.716136 -0.442955 0.865864 0.084034 -0.021307 84815.300000 0 0 1
28.634158 -12.135638 25.533400 40.238579 -0.400868 0.883370 0.096415 -0.031010 -252224.000000 0 0 1
27.954418 -11.927638 24.322030 38.926587 -0.403294 0.895898 0.083351 -0.020405 64644.100000 0 0 1
28.604608 -11.104438 23.355610 38.561855 -0.370297 0.920194 0.086963 -0.014940 877181.000000 0 0 1
29.896418 -11.673638 22.627690 39.269352 -0.372263 0.956703 0.075052 -0.022708 593904.000000 0 0 1
29.607748 -12.618238 21.595790 38.758442 -0.402870 0.979799 0.056768 -0.023391 25089.700000 0 0 1
29.416348 -13.972938 22.030790 39.318192 -0.443453 0.976024 0.076740 -0.024292 -846518.000000 0 0 1
28.698188 -14.716538 20.950190 38.458717 -0.473838 0.994711 0.068428 -0.024875 -921424.000000 0 0 1
29.269808 -14.780638 19.691090 38.248241 -0.467623 1.029995 0.057537 -0.018642 -319604.000000 0 0 1
28.596128 -15.702438 18.851490 37.678691 -0.502160 1.046825 0.058283 -0.025523 -135335.000000 0 0 1
29.289908 -15.794138 17.452190 37.575689 -0.494541 1.087778 0.061855 -0.027834 279065.000000 0 0 1
28.651448 -16.597338 16.447790 36.971704 -0.525048 1.109762 0.060291 -0.030883 -695660.000000 0 0 1
27.322118 -16.329638 16.152790 35.694087 -0.538705 1.101191 0.063212 -0.029911 -1048030.000000 0 0 1
27.102018 -15.359538 14.972090 34.562961 -0.515597 1.122775 0.062677 -0.029997 -354356.000000 0 0 1
27.345518 -15.820838 13.670290 34.423148 -0.524501 1.162414 0.065161 -0.028966 725194.000000 0 0 1
26.317818 -16.766038 13.308390 33.924045 -0.567225 1.167666 0.064769 -0.037695 337080.000000 0 0 1
26.571018 -17.392238 11.937490 33.926577 -0.579572 1.211236 0.069611 -0.027851 -145025.000000 0 0 1
26.181018 -16.480138 10.877490 32.792689 -0.561807 1.232686 0.079074 -0.024915 -264872.000000 0 0 1
26.225918 -17.203638 9.646090 32.814798 -0.580567 1.272434 0.067986 -0.033599 736815.000000 0 0 1
27.569418 -17.673138 8.942190 33.946655 -0.570052 1.304232 0.069163 -0.017600 878491.000000 0 0 1
28.299618 -18.636938 9.655790 35.234048 -0.582368 1.293198 0.061171 -0.011477 -1119780.000000 0 0 1
29.638418 -18.633038 9.280290 36.218085 -0.561240 1.311673 0.063600 -0.009745 -671508.000000 0 0 1
30.441158 -19.589538 10.190990 37.606786 -0.571807 1.296377 0.064036 -0.029829 -526944.000000 0 0 1
30.497888 -19.009138 11.466590 37.722025 -0.557371 1.261933 0.064277 -0.030795 71431.700000 0 0 1
30.726858 -20.040238 12.398890 38.723164 -0.577924 1.244863 0.031506 -0.030227 -140497.000000 0 0 1
30.620028 -19.499038 13.822990 38.844223 -0.567044 1.206965 0.052958 -0.024335 4022.440000 0 0 1
30.670488 -20.517438 14.823890 39.766717 -0.589591 1.188803 0.060400 -0.025571 21620.600000 0 0 1
30.469228 -19.966738 16.113990 39.833468 -0.580098 1.154327 0.070276 -0.021986 113012.000000 0 0 1
30.161488 -21.098238 17.167890 40.615113 -0.610396 1.134377 0.065337 -0.017669 -454063.000000 0 0 1
28.918978 -21.659738 16.898890 39.887642 -0.642848 1.133312 0.025023 -0.004289 -788499.000000 0 0 1
28.561148 -22.384538 18.008690 40.510735 -0.664748 1.110134 0.033556 -0.002980 -279565.000000 0 0 1
27.220318 -23.111838 17.841090 39.917506 -0.703951 1.107445 0.033763 0.000379 -225352.000000 0 0 1
26.113618 -22.310538 18.187690 38.864807 -0.707022 1.083800 0.053126 0.000548 -44898.800000 0 0 1
24.929018 -23.082838 18.167890 38.527206 -0.746965 1.079737 0.049698 0.000534 220451.000000 0 0 1
23.757318 -22.550938 19.021990 37.878636 -0.759353 1.044676 0.053111 -0.001991 85398.300000 0 0 1
23.071418 -21.407938 18.494090 36.505089 -0.748017 1.039540 0.049197 -0.002706 417342.000000 0 0 1
21.850018 -20.986538 19.081390 35.804434 -0.765243 1.008732 0.051789 -0.005330 464937.000000 0 0 1
21.918018 -20.486338 20.539790 36.358940 -0.751648 0.970463 0.048710 -0.000767 -462503.000000 0 0 1
22.147718 -21.484938 21.506990 37.612160 -0.770209 0.962087 0.049889 0.005254 -174165.000000 0 0 1
22.197818 -20.942138 22.782590 38.083627 -0.756299 0.929512 0.039625 0.007838 65420.000000 0 0 1
22.646818 -21.945538 23.862430 39.546183 -0.769673 0.923030 0.037348 0.005549 205385.000000 0 0 1
21.599618 -22.847138 24.194900 39.672766 -0.813459 0.914910 0.056106 0.014029 453866.000000 0 0 1
21.991918 -23.566538 25.359190 41.013591 -0.819947 0.904203 0.060660 0.016885 -251466.000000 0 0 1
20.914218 -24.497738 25.926470 41.348827 -0.864146 0.893077 0.080952 0.010992 -250398.000000 0 0 1
20.609718 -25.585438 25.108390 41.349805 -0.892695 0.918241 0.095808 0.003676 349181.000000 0 0 1
19.600218 -26.382138 25.718550 41.732836 -0.931832 0.906803 0.104081 -0.000054 43777.800000 0 0 1
18.936618 -27.428238 24.771620 41.527544 -0.966538 0.931650 0.113204 -0.011469 279986.000000 0 0 1
17.892518 -26.764838 24.032520 40.175375 -0.981520 0.929555 0.116666 -0.014108 427569.000000 0 0 1
17.386718 -27.671438 23.102880 40.021863 -1.009808 0.955431 0.113355 -0.019383 322091.000000 0 0 1
16.213418 -27.042438 22.247690 38.589222 -1.030704 0.956326 0.114405 -0.029643 442810.000000 0 0 1
15.056818 -26.659538 22.966390 38.273931 -1.056675 0.927229 0.085389 -0.025661 174317.000000 0 0 1
14.287118 -25.926338 22.010690 36.888578 -1.067135 0.931438 0.054453 -0.025207 -285713.000000 0 0 1
12.895118 -25.437938 22.367290 36.244564 -1.101624 0.905717 0.047198 -0.018945 -85668.200000 0 0 1
11.776218 -26.300538 22.346990 36.466225 -1.149810 0.911180 0.049378 -0.031300 395819.000000 0 0 1
10.578318 -25.569138 22.561890 35.703228 -1.178523 0.886757 0.041668 -0.022498 547735.000000 0 0 1
9.264618 -26.386238 22.496390 35.890866 -1.233128 0.893357 0.045606 -0.026937 171906.000000 0 0 1
9.135818 -26.969838 21.199590 35.500112 -1.244186 0.930828 0.056253 -0.033205 394497.000000 0 0 1
7.881618 -27.632738 21.090090 35.643793 -1.292947 0.937642 0.052991 -0.029836 229141.000000 0 0 1
7.631218 -28.511438 19.816090 35.550176 -1.309272 0.979531 0.068343 -0.030887 -268360.000000 0 0 1
8.269118 -29.725738 19.823490 36.673813 -1.299476 0.999723 0.070399 -0.032062 87248.000000 0 0 1
7.780818 -30.528338 18.735190 36.654166 -1.321238 1.034293 0.061669 -0.027856 128729.000000 0 0 1
8.415818 -31.925738 18.716890 37.952611 -1.313054 1.055072 0.064081 -0.033420 -95984.900000 0 0 1
8.057618 -32.748438 19.816090 39.116017 -1.329543 1.039562 0.075528 -0.039949 297720.000000 0 0 1
8.996318 -33.799238 19.939490 40.260471 -1.310658 1.052660 0.079464 -0.045736 -5154.050000 0 0 1
8.505018 33.166663 20.849590 40.088256 1.319773 1.023837 0.093950 -0.047706 86911.200000 0 0 1
7.547918 32.312663 20.219090 38.857314 1.341321 1.023545 0.093696 -0.053226 187565.000000 0 0 1
7.412218 31.119163 20.911590 38.218292 1.336965 0.991827 0.094211 -0.056847 -162836.000000 0 0 1
6.373318 30.043363 20.558090 36.957515 1.361758 0.980915 0.097782 -0.049750 713848.000000 0 0 1
5.018618 30.389563 20.883790 37.213502 1.407131 0.974975 0.087745 -0.045865 917474.000000 0 0 1
4.089218 29.360563 20.484090 36.032795 1.432411 0.966134 0.081741 -0.039978 967825.000000 0 0 1
2.656418 29.578563 21.056990 36.405285 1.481228 0.954025 0.060589 -0.028143 370002.000000 0 0 1
2.475818 29.264663 22.406090 36.940263 1.486396 0.919083 0.054397 -0.024676 -525786.000000 0 0 1
1.116618 29.045963 22.659590 36.856096 1.532372 0.908648 0.034785 -0.012208 -311021.000000 0 0 1
0.836118 28.242563 23.995900 37.069457 1.541200 0.866730 0.042743 -0.010539 -70243.200000 0 0 1
0.942018 29.046063 25.086820 38.391532 1.538376 0.858668 0.051316 -0.022336 50230.300000 0 0 1
0.720418 28.362163 26.289190 38.678842 1.545401 0.823472 0.041609 -0.020571 512434.000000 0 0 1
1.991018 27.945763 27.144450 39.009627 1.499671 0.801208 0.027299 -0.019492 296404.000000 0 0 1
2.650018 26.897763 26.527710 37.871251 1.472591 0.794739 0.033415 -0.022777 17718.600000 0 0 1
3.595218 26.349463 27.444050 38.215123 1.435190 0.769661 0.013282 -0.008833 -35261.000000 0 0 1
4.106818 24.926963 27.127080 37.068826 1.407509 0.749832 0.011792 0.003876 -586035.000000 0 0 1
3.158818 23.919063 27.040680 36.239455 1.439493 0.728511 0.029228 -0.001450 -363625.000000 0 0 1
3.730618 22.611763 26.848950 35.299794 1.407284 0.706563 0.041651 0.001777 125070.000000 0 0 1
2.644818 21.727663 26.228230 34.161476 1.449666 0.695440 0.038668 0.001305 12558.400000 0 0 1
2.923418 20.378663 26.474640 33.537186 1.428314 0.660947 0.043651 0.004195 265889.000000 0 0 1
3.608318 19.695663 25.387960 32.334001 1.389602 0.667812 0.044160 0.005301 6554.000000 0 0 1
3.964018 18.253863 25.622070 31.708160 1.356956 0.629946 0.043503 0.000730 972091.000000 0 0 1
5.072118 18.027563 26.547600 32.488374 1.296533 0.614362 0.041095 0.001727 758336.000000 0 0 1
6.324618 17.929463 25.908580 32.135976 1.231674 0.633066 0.047978 0.004365 -1195500.000000 0 0 1
7.471318 18.034163 26.876030 33.217053 1.178035 0.628172 0.038899 -0.007675 -771148.000000 0 0 1
7.714118 19.356863 27.369960 34.399280 1.191566 0.650708 0.043293 -0.016665 65489.100000 0 0 1
8.585418 20.143463 26.566470 34.427399 1.167898 0.689339 0.038189 -0.016396 -278686.000000 0 0 1
9.128718 21.381163 27.255390 35.823789 1.167274 0.706223 0.031174 -0.012804 -573750.000000 0 0 1
10.086318 21.033763 28.184710 36.585938 1.123659 0.691375 0.047784 -0.035628 -614655.000000 0 0 1
10.406018 22.072263 29.085380 37.966160 1.130247 0.698066 0.060345 -0.040682 -58077.500000 0 0 1
11.461818 21.785963 30.162230 38.932783 1.086479 0.684515 0.083234 -0.045379 684693.000000 0 0 1
12.809518 21.717963 29.692720 38.953963 1.037902 0.704012 0.083925 -0.045531 61965.000000 0 0 1
13.730718 21.406363 30.694570 39.861279 1.000468 0.691901 0.088103 -0.036743 646257.000000 0 0 1
15.193218 21.353563 30.125220 39.929155 0.952389 0.715955 0.077541 -0.040905 634269.000000 0 0 1
15.694318 22.632463 29.867850 40.627927 0.964485 0.744900 0.073459 -0.053907 -293419.000000 0 0 1
16.867018 22.537963 29.087880 40.479140 0.928331 0.769025 0.120162 -0.030452 82641.000000 0 0 1
-8.833144 16.766063 4.542689 19.487465 -1.085903 1.335524 0.024725 -0.011055 -95925.000000 0 1 0
-8.652544 18.038063 5.182789 20.666386 -1.123534 1.317307 0.035212 -0.014525 118787.000000 0 1 0
-7.289144 18.317063 5.417789 20.445020 -1.192065 1.302600 0.031387 -0.010598 -439666.000000 0 1 0
-6.993844 19.682263 6.024989 21.739499 -1.229375 1.289975 0.032803 -0.012935 -118373.000000 0 1 0
-7.305744 20.891263 5.330289 22.764682 -1.234386 1.334455 0.038139 -0.013253 366378.000000 0 1 0
-8.685644 21.031763 4.951589 23.287200 -1.179153 1.356529 0.046357 -0.020047 728748.000000 0 1 0
-8.844944 22.278463 4.015689 24.304088 -1.192864 1.404808 0.076719 -0.017340 258400.000000 0 1 0
-8.176744 22.187763 2.740189 23.804718 -1.217714 1.455429 0.053057 -0.014346 97744.300000 0 1 0
-8.609044 21.133163 1.915489 22.899679 -1.183952 1.487052 0.061576 -0.014699 -371303.000000 0 1 0
-8.015144 21.252763 0.451589 22.718415 -1.210156 1.550917 0.044424 0.000030 642424.000000 0 1 0
-6.719044 20.732563 0.221889 21.795273 -1.257395 1.560616 0.037193 0.001656 189086.000000 0 1 0
-5.646844 21.558563 0.683389 22.296311 -1.314621 1.540141 0.047816 -0.012478 -808631.000000 0 1 0
-4.388044 21.168063 -0.073311 21.618214 -1.366396 1.574188 0.040607 -0.008883 -919143.000000 0 1 0
-4.318744 21.554963 -1.441311 22.030555 -1.373055 1.636266 0.038020 -0.009453 380451.000000 0 1 0
-2.969044 21.490763 -1.892011 21.777231 -1.433511 1.657786 0.042530 -0.009802 354418.000000 0 1 0
-2.842544 21.508963 -3.437711 21.966643 -1.439402 1.727939 0.045675 -0.004591 -89420.100000 0 1 0
-1.564444 21.852763 -3.910611 22.254968 -1.499328 1.747432 0.057465 -0.009575 -208283.000000 0 1 0
-1.634444 22.239063 -5.270611 22.913460 -1.497434 1.802897 0.067676 -0.015399 -342127.000000 0 1 0
-0.420944 22.937063 -5.902211 23.688017 -1.552446 1.822614 0.080263 -0.021047 -461829.000000 0 1 0
0.689656 22.065463 -5.907211 22.852908 1.539551 1.832253 0.067907 -0.013628 -680205.000000 0 1 0
1.746256 22.772063 -6.487711 23.742507 1.494262 1.847569 0.080231 -0.012809 -558080.000000 0 1 0
3.072156 22.007463 -6.576911 23.173742 1.432097 1.858560 0.061273 -0.000706 -188238.000000 0 1 0
3.029856 20.894863 -7.490711 22.402814 1.426795 1.911727 0.060577 -0.016473 -1323780.000000 0 1 0
4.144256 20.135463 -7.442611 21.863307 1.367812 1.918155 0.050597 -0.013022 -1136530.000000 0 1 0
4.053356 18.820463 -8.321911 20.973643 1.358667 1.978802 0.036453 -0.019241 47123.800000 0 1 0
4.266656 18.986863 -9.714811 21.750468 1.349752 2.033812 0.036500 -0.026143 54097.400000 0 1 0
3.064756 18.962763 -10.481511 21.882440 1.410562 2.070302 0.040490 -0.027084 -151849.000000 0 1 0
3.305356 19.321063 -11.962511 22.963678 1.401361 2.118739 0.035170 -0.030042 37531.200000 0 1 0
3.552656 20.689763 -12.252911 24.306820 1.400744 2.099128 0.068262 -0.031340 -8890.050000 0 1 0
3.898556 20.794963 -13.633211 25.169300 1.385472 2.143207 0.072099 -0.027307 -201174.000000 0 0 1
4.193956 22.198863 -14.153311 26.658863 1.384071 2.130464 0.082985 -0.033511 -663390.000000 0 0 1
3.071056 22.972263 -14.406911 27.289473 1.437899 2.126957 0.099571 -0.035168 -951507.000000 0 0 1
3.357556 24.262663 -14.912711 28.676453 1.433286 2.117686 0.093598 -0.034970 85059.200000 0 0 1
2.119556 25.042763 -15.466311 29.509986 1.486360 2.122459 0.087248 -0.023500 546920.000000 0 0 1
1.180056 25.349563 -14.428311 29.191934 1.524279 2.087776 0.092811 -0.024445 161090.000000 0 0 1
1.263356 26.689763 -13.963311 30.148193 1.523497 2.052349 0.069189 -0.017056 -697087.000000 0 0 1
0.292556 27.039363 -12.804811 29.919491 1.559977 2.013048 0.077709 -0.025032 622930.000000 0 0 1
-1.113644 27.108863 -13.075111 30.117921 -1.529739 2.019869 0.058981 -0.026504 709181.000000 0 0 1
-1.774044 25.877963 -13.300811 29.150090 -1.502349 2.044614 0.058816 -0.029495 -527960.000000 0 0 1
-1.704844 24.767063 -12.206911 27.664464 -1.502070 2.027786 0.091047 -0.030523 -380912.000000 0 0 1
-2.256044 25.170163 -10.929811 27.533391 -1.481404 1.979005 0.080848 -0.024809 102124.000000 0 0 1
-2.161044 24.024063 -10.101211 26.150720 -1.481084 1.967379 0.090579 -0.022922 145318.000000 0 0 1
-3.364044 23.818463 -9.094311 25.716579 -1.430488 1.932252 0.083511 -0.020657 643095.000000 0 0 1
-3.178044 24.369363 -7.778511 25.777336 -1.441117 1.877332 0.092611 -0.021844 -47463.700000 0 0 1
-3.074944 25.725763 -7.623711 27.007242 -1.451833 1.856970 0.095509 -0.021336 -214001.000000 0 0 1
-3.061744 26.080063 -6.102911 26.959033 -1.453933 1.799153 0.086276 -0.019207 277003.000000 0 0 1
-1.853844 25.699263 -5.458611 26.337906 -1.498785 1.779563 0.086169 -0.019370 70281.100000 0 0 1
-1.668644 26.314863 -4.186411 26.697985 -1.507470 1.728252 0.096898 -0.021505 -248113.000000 0 0 1
-2.443644 25.666763 -3.030211 25.960283 -1.475876 1.687788 0.086764 -0.021747 -660478.000000 0 0 1
-3.806144 25.630063 -3.288111 26.118930 -1.423371 1.697021 0.071682 -0.021428 -1026910.000000 0 0 1
-4.558344 25.056663 -2.241511 25.566369 -1.390843 1.658583 0.068073 -0.020162 19085.800000 0 0 1
-5.834444 24.403563 -2.810911 25.248284 -1.336120 1.682358 0.050370 -0.015162 -115345.000000 0 0 1
-6.829844 25.310563 -3.216911 26.412494 -1.307232 1.692895 0.049912 -0.013690 -17201.200000 0 0 1
-7.978944 24.643263 -3.722511 26.168894 -1.257670 1.713530 0.055509 -0.003550 -180829.000000 0 0 1
-9.172044 25.488963 -4.065611 27.392386 -1.225379 1.719768 0.040609 -0.008904 -891532.000000 0 0 1
-9.898544 25.788363 -2.925111 27.777277 -1.204300 1.676298 0.053889 -0.009164 156977.000000 0 0 1
-11.270844 26.054163 -3.269511 28.575182 -1.162512 1.685465 0.062569 -0.009424 972096.000000 0 0 1
-12.149744 26.278463 -1.996411 29.019985 -1.137723 1.639645 0.073197 -0.008135 -10217.900000 0 0 1
-12.356444 25.152163 -1.088911 28.044584 -1.114159 1.609634 0.067490 -0.001911 728692.000000 0 0 1
-11.189444 24.757363 -0.340811 27.170698 -1.146310 1.583340 0.073917 -0.009368 499710.000000 0 0 1
-11.347544 23.320663 0.193589 25.935642 -1.117936 1.563332 0.062666 -0.005681 15939.000000 0 0 1
-12.263944 23.309563 1.281089 26.370082 -1.086461 1.522196 0.077171 -0.006736 88951.700000 0 0 1
-12.695644 21.976263 1.389589 25.417837 -1.046937 1.516099 0.086013 -0.013664 -326451.000000 0 0 1
-13.795644 21.660563 2.413589 25.793898 -1.003684 1.477087 0.091672 -0.019352 -215144.000000 0 0 1
-13.475244 21.647463 3.772389 25.776457 -1.014007 1.423919 0.093059 -0.025125 -67539.700000 0 0 1
-13.123044 22.923863 4.376489 26.774454 -1.050871 1.406602 0.089067 -0.030604 75625.600000 0 0 1
-12.884444 22.972563 5.881989 26.987873 -1.059652 1.351084 0.090609 -0.030401 956264.000000 0 0 1
-11.591544 22.424063 6.225289 25.999167 -1.093701 1.329005 0.083945 -0.025285 908306.000000 0 0 1
-11.667744 22.427863 7.659189 26.416064 -1.091093 1.276628 0.068642 -0.025926 -439279.000000 0 0 1
-10.437044 21.963963 8.458089 25.746588 -1.127193 1.236068 0.053537 -0.031259 -211800.000000 0 0 1
-9.536144 23.048363 8.691289 26.414079 -1.178497 1.235510 0.052405 -0.034895 135811.000000 0 0 1
-8.395844 22.762763 9.488189 26.051090 -1.217436 1.198007 0.044794 -0.034080 122580.000000 0 0 1
-8.549344 22.393763 11.006189 26.376279 -1.206101 1.140350 0.039296 -0.042131 -395573.000000 0 0 1
-9.186044 21.125863 11.227889 25.627153 -1.160634 1.117285 0.044208 -0.039815 427250.000000 0 0 1
-8.890444 20.710463 12.595789 25.818930 -1.165312 1.061170 0.032184 -0.033899 235734.000000 0 0 1
-10.019544 19.709363 13.051189 25.674574 -1.100479 1.037550 0.029427 -0.032930 264167.000000 0 0 1
-9.972744 18.524163 12.288189 24.363904 -1.076931 1.042155 0.035930 -0.038643 -307383.000000 0 1 0
-10.782544 17.488763 12.742789 24.176409 -1.018303 1.015641 0.028778 -0.034318 -506689.000000 0 1 0
-10.938644 16.351563 11.711689 22.895222 -0.981203 1.033827 0.030572 -0.033180 -276269.000000 0 1 0
-11.174244 15.082763 12.278689 22.430329 -0.933169 0.991525 0.025122 -0.029602 -192989.000000 0 1 0
-11.758244 14.224663 11.364789 21.673849 -0.880039 1.018839 0.020414 -0.020123 -243422.000000 0 1 0
-12.076544 12.862463 11.992989 21.333486 -0.816901 0.973792 0.021245 -0.021223 144778.000000 0 1 0
-13.080044 12.952463 12.983489 22.526092 -0.780497 0.956510 0.039509 -0.013361 -53045.000000 0 1 0
-13.307844 11.655163 13.428989 22.209891 -0.719289 0.921482 0.032384 -0.005081 402308.000000 0 1 0
-14.200444 11.665063 14.723489 23.547981 -0.687689 0.895338 0.037146 -0.005304 967150.000000 0 1 0
-15.510944 12.214663 14.606789 24.559023 -0.667064 0.933826 0.040820 -0.011263 443436.000000 0 1 0
-16.089844 12.599763 15.855989 25.865991 -0.664343 0.910938 0.038265 -0.002166 924976.000000 0 0 1
-17.240844 13.673363 15.685089 27.022760 -0.670507 0.951527 0.058583 -0.008919 551057.000000 0 0 1
-18.372944 13.288663 14.975989 27.174139 -0.626176 0.987100 0.062751 -0.007179 -551966.000000 0 0 1
-19.359044 14.275663 14.931989 28.311330 -0.635398 1.015234 0.085844 -0.017400 -523230.000000 0 0 1
-20.599644 13.929263 14.123289 28.597849 -0.594566 1.054275 0.085569 -0.017320 -827453.000000 0 0 1
-21.318744 12.946263 14.769089 28.986558 -0.545749 1.036175 0.086331 -0.010195 -1259590.000000 0 0 1
-22.474144 12.756163 14.043189 29.411188 -0.516250 1.073014 0.075877 -0.010909 -1152480.000000 0 0 1
-23.318944 11.618463 14.561789 29.846398 -0.462240 1.061124 0.075042 -0.005324 47800.700000 0 0 1
-24.096844 11.989963 15.739989 31.179550 -0.461705 1.041626 0.083782 -0.013861 308844.000000 0 0 1
-25.144364 11.113463 16.019389 31.817745 -0.416170 1.043182 0.073661 -0.016115 -128352.000000 0 0 1
-26.106564 11.603863 17.137289 33.314996 -0.418255 1.030487 0.071919 -0.017195 63176.600000 0 0 1
-26.790944 12.760063 16.702789 34.052269 -0.444494 1.058128 0.090032 -0.021519 -64504.000000 0 0 1
-27.690704 13.280563 17.628689 35.410720 -0.447198 1.049696 0.080011 -0.016662 536290.000000 0 0 1
-28.799354 14.299163 17.124689 36.429710 -0.460852 1.081421 0.085241 -0.014657 744092.000000 0 0 1
-28.366394 15.622163 17.011789 36.580120 -0.503402 1.087099 0.092992 -0.015602 -360848.000000 0 0 1
-29.476374 16.475863 16.964089 37.790091 -0.509690 1.105259 0.082948 -0.011869 -479639.000000 0 0 1
-29.020414 17.977563 16.945989 38.112251 -0.554620 1.110031 0.084956 -0.008313 -373652.000000 0 0 1
-28.426744 18.490863 18.125889 38.451783 -0.576708 1.079927 0.066879 -0.015315 -251050.000000 0 0 1
-29.137954 18.646963 19.341289 39.633509 -0.569281 1.060995 0.071451 -0.018550 -1163660.000000 0 0 1
-28.224664 18.628363 20.581889 39.588656 -0.583375 1.024070 0.067749 -0.022092 -96462.000000 0 0 1
-27.736294 17.391663 20.976289 38.881572 -0.560062 1.000963 0.068740 -0.016580 411002.000000 0 0 1
-26.718734 16.849263 20.108489 37.445156 -0.562628 1.003906 0.068093 -0.011513 -268249.000000 0 0 1
-26.203194 15.486063 20.539389 36.719096 -0.533775 0.977176 0.060092 -0.018610 236696.000000 0 0 1
-27.342134 14.676563 20.770789 37.341926 -0.492633 0.980951 0.069991 -0.027273 437786.000000 0 0 1
-26.972024 13.454263 21.438689 36.988169 -0.462705 0.952547 0.057651 -0.025436 313832.000000 0 0 1
-28.211294 12.578063 21.787089 37.798968 -0.419399 0.956488 0.067557 -0.028539 385657.000000 0 0 1
-28.983424 12.148563 20.657189 37.607790 -0.396910 0.989295 0.076824 -0.022885 -518018.000000 0 0 1
-30.083814 11.428663 21.084489 38.473443 -0.363054 0.990793 0.105191 -0.023636 -1017320.000000 0 0 1
-31.047324 11.112563 19.951289 38.541916 -0.343716 1.026692 0.122691 -0.030883 -379867.000000 0 0 1
-30.422734 10.629063 18.758389 37.288025 -0.336121 1.043652 0.147928 -0.036206 99636.600000 0 0 1
-29.864864 9.334163 18.918889 36.564478 -0.302927 1.026973 0.174776 -0.038307 -238103.000000 0 0 1
-28.927034 8.883763 17.782689 35.098697 -0.297966 1.039504 0.194485 -0.039234 -90308.900000 0 0 1
-29.537484 8.560863 16.536489 34.917141 -0.282101 1.077431 0.195409 -0.037085 353278.000000 0 0 1
-30.291194 9.524963 15.792789 35.463975 -0.304657 1.109266 0.176227 -0.035270 -36492.600000 0 0 1
-29.484114 10.543763 14.966789 34.705744 -0.343437 1.124921 0.153550 -0.023064 -439180.000000 0 0 1
-28.916284 10.021263 13.831389 33.583991 -0.333608 1.146319 0.142911 -0.029766 287824.000000 0 0 1
-28.089614 11.033163 13.240689 32.955620 -0.374271 1.157344 0.109476 -0.017087 12019.400000 0 0 1
-28.127964 11.078363 11.690789 32.412760 -0.375198 1.201794 0.124731 -0.013147 -224473.000000 0 0 1
-27.436304 10.022463 10.994889 31.210384 -0.350239 1.210787 0.155042 -0.012393 281847.000000 0 0 1
-28.142724 8.827663 10.930389 31.454951 -0.303955 1.215900 0.146310 -0.016806 -317125.000000 0 0 1
-27.339724 7.631263 10.338589 30.208990 -0.272199 1.221501 0.149552 -0.015232 25760.500000 0 0 1
-27.016514 8.036863 9.015389 29.593249 -0.289143 1.261232 0.147169 -0.009389 25756.200000 0 0 1
-26.382144 7.089563 8.233589 28.531936 -0.262524 1.278059 0.157422 -0.009221 -321096.000000 0 0 1
-25.642694 7.659563 6.998989 27.662293 -0.290267 1.315000 0.138894 -0.004191 14696.700000 0 0 1
-26.476384 8.183663 5.987589 28.351763 -0.299778 1.358005 0.145460 -0.009477 3981.960000 0 0 1
-25.670934 8.644763 4.957589 27.537364 -0.324825 1.389778 0.136559 -0.021852 -63700.100000 0 0 1
-26.515444 9.116863 3.730289 28.286056 -0.331170 1.438534 0.121136 -0.015856 245285.000000 0 0 1
-27.396844 8.157663 3.104489 28.753649 -0.289400 1.462617 0.152172 -0.024847 349505.000000 0 0 1
-26.969414 6.843463 2.695689 27.954409 -0.248504 1.474215 0.155534 -0.016323 -28060.300000 0 0 1
-25.862374 6.922863 1.585689 26.819821 -0.261549 1.511638 0.151430 -0.016151 941946.000000 0 0 1
-24.631444 7.593663 1.808089 25.838748 -0.299046 1.500763 0.132422 -0.016951 505778.000000 0 0 1
-23.631244 7.463063 0.827089 24.795505 -0.305901 1.537434 0.132376 -0.012039 -41805.200000 0 1 0
-22.381644 8.235463 1.294989 23.883840 -0.352581 1.516549 0.112355 -0.012166 -313182.000000 0 1 0
-22.649144 9.661163 1.423689 24.664725 -0.403189 1.513043 0.107033 -0.021038 879637.000000 0 1 0
-21.564244 10.387563 2.014689 24.020346 -0.448903 1.486823 0.121084 -0.020653 -74150.000000 0 1 0
-21.945544 11.597163 2.749689 24.973223 -0.486149 1.460467 0.122695 -0.030191 -730087.000000 0 1 0
-20.864644 12.413063 3.100189 24.475062 -0.536685 1.443788 0.122694 -0.025407 -116289.000000 0 1 0
-21.179744 13.616363 3.677589 25.446248 -0.571365 1.425765 0.124806 -0.033384 30517.700000 0 0 1
-19.989644 14.216163 4.492889 24.937345 -0.618188 1.389640 0.089464 -0.022658 381079.000000 0 1 0
-19.677944 13.422463 5.630689 24.476287 -0.598616 1.338671 0.093910 -0.029915 -5403.070000 0 1 0
-18.922044 14.092063 6.611989 24.502007 -0.640128 1.297554 0.093781 -0.023968 -161601.000000 0 1 0
-18.180744 13.130763 7.599389 23.679254 -0.625493 1.244085 0.055046 -0.027083 -62416.000000 0 1 0
-17.209744 12.323263 6.974989 22.286510 -0.621425 1.252479 0.056878 -0.017726 39891.400000 0 1 0
-16.613644 11.533163 7.921789 21.720537 -0.606822 1.197470 0.040298 -0.017221 -668953.000000 0 1 0
10.041556 -33.429138 -14.477011 37.787881 -1.278988 1.963960 0.033649 -0.015730 -733565.000000 0 0 1
11.226656 -33.123738 -13.813111 37.603482 -1.244017 1.946939 0.041667 -0.023477 -389314.000000 0 0 1
11.831056 -31.913138 -14.155511 36.861915 -1.215777 1.964937 0.053930 -0.029547 129676.000000 0 0 1
13.197956 -31.764638 -13.402911 36.916342 -1.177006 1.942348 0.054438 -0.030269 -6349.510000 0 0 1
14.276256 -32.389638 -14.023011 38.072891 -1.155648 1.947998 0.069218 -0.032877 -749534.000000 0 0 1
15.427756 -32.035738 -13.317611 37.969237 -1.121993 1.929165 0.060185 -0.028638 369017.000000 0 0 1
16.824756 -32.591038 -13.755111 39.172073 -1.094242 1.929591 0.090509 -0.027130 878944.000000 0 0 1
16.978756 -33.927138 -13.289011 40.198591 -1.106791 1.907719 0.087419 -0.027665 -875526.000000 0 0 1
18.015656 33.605263 -13.936711 40.596915 1.078690 1.921219 0.092241 -0.015443 -701650.000000 0 0 1
18.213856 32.218963 -13.380211 39.355256 1.056271 1.917698 0.071344 -0.022002 -596134.000000 0 0 1
18.909756 32.056963 -12.204711 39.168645 1.037851 1.887666 0.064727 -0.028504 -349666.000000 0 0 1
18.637556 30.780363 -11.663411 37.826240 1.026341 1.884246 0.056450 -0.022582 -114787.000000 0 0 1
19.464556 30.406663 -10.467711 37.589986 1.001383 1.852998 0.050352 -0.024825 847409.000000 0 0 1
20.790956 29.867763 -10.682711 37.927133 0.962692 1.856324 0.044337 -0.021508 1244450.000000 0 0 1
21.521056 29.912263 -9.430511 38.037270 0.947121 1.821337 0.049929 -0.024313 300039.000000 0 0 1
22.793756 29.039163 -9.436511 38.103491 0.905311 1.821055 0.045988 -0.016763 -140238.000000 0 0 1
23.813356 29.527663 -10.249211 39.293831 0.892119 1.834683 0.054606 -0.024271 -13517.200000 0 0 1
25.034256 28.818263 -10.097711 39.486327 0.855549 1.829396 0.051578 -0.018487 1104760.000000 0 0 1
26.286856 29.238163 -10.944911 40.812499 0.838501 1.842295 0.038177 -0.024200 791756.000000 0 0 1
26.835256 30.547463 -10.607311 42.021346 0.850000 1.825984 0.053144 -0.033091 826404.000000 0 0 1
28.147756 30.691863 -11.179011 43.119102 0.828609 1.833051 0.060416 -0.028344 880072.000000 0 0 1
28.756356 32.105463 -10.965211 44.473865 0.840371 1.819919 0.049357 -0.030983 -175478.000000 0 0 1
28.117856 33.108163 -11.774611 45.004508 0.866725 1.835509 0.049173 -0.029229 16983.700000 0 0 1
28.569456 -33.751738 -11.415211 45.669472 -0.868362 1.823428 0.050044 -0.024576 506644.000000 0 0 1
27.500756 -32.608838 -11.657511 44.221324 -0.870174 1.837567 0.041340 -0.018003 336970.000000 0 0 1
26.387056 -32.724938 -10.807711 43.405126 -0.892208 1.822440 0.060865 -0.026754 -439521.000000 0 0 1
25.335256 -31.793338 -11.036811 42.124847 -0.897965 1.835893 0.064305 -0.023576 349397.000000 0 0 1
25.513056 -30.274538 -10.804611 41.039046 -0.870542 1.837213 0.035687 -0.012244 -762803.000000 0 0 1
26.275056 -29.632138 -11.766011 41.314419 -0.845374 1.859586 0.030348 -0.006499 -546004.000000 0 0 1
26.642756 -28.381438 -11.242211 40.518265 -0.816986 1.851946 0.020498 0.002907 -298868.000000 0 0 1
27.490556 -27.473838 -12.183211 40.730494 -0.785094 1.874564 0.040671 0.001432 -531770.000000 0 0 1
28.713756 -27.990338 -12.558411 42.019668 -0.772641 1.874304 0.033491 0.002295 -896149.000000 0 0 1
28.667556 -29.085138 -13.478111 43.005041 -0.792629 1.889576 0.047414 -0.004990 -1197020.000000 0 0 1
29.980556 -29.702838 -13.936711 44.444620 -0.780745 1.889752 0.039298 -0.003597 -276925.000000 0 0 1
30.559256 -30.679738 -13.076511 45.233943 -0.787366 1.864069 0.042279 -0.009620 303473.000000 0 0 1
31.687056 -31.333938 -13.627511 46.600368 -0.779795 1.867567 0.044098 -0.014553 -36578.800000 0 0 1
32.385856 -32.328738 -12.714111 47.493575 -0.784516 1.841803 0.056501 -0.015941 -201541.000000 0 0 1
33.436056 -33.064238 -13.298711 48.867877 -0.779807 1.846408 0.049233 -0.017283 -347591.000000 0 0 1
34.181956 -33.852138 -12.416811 49.684511 -0.780550 1.823387 0.054010 -0.013032 -178103.000000 0 0 1
33.521856 33.201763 -11.574811 48.580327 0.780601 1.811372 0.055010 -0.025492 -494042.000000 0 0 1
32.889856 33.503663 -10.398711 48.087122 0.794643 1.788766 0.044082 -0.025456 -279700.000000 0 0 1
32.392556 32.311463 -9.789911 46.788361 0.784145 1.781592 0.053434 -0.028352 -445960.000000 0 0 1
31.565556 32.487863 -8.530211 46.093493 0.799796 1.756933 0.030153 -0.023980 -264280.000000 0 0 1
30.531456 33.422263 -8.802811 46.116233 0.830569 1.762858 0.034388 -0.025142 -215540.000000 0 0 1
29.748856 33.629663 -7.624411 45.542072 0.846554 1.739003 0.023336 -0.018172 709676.000000 0 0 1
28.732856 -33.350138 -7.694611 44.687983 -0.859634 1.743844 0.016351 -0.023310 -158073.000000 0 0 1
29.429356 -32.134138 -7.798311 44.266280 -0.829305 1.747889 0.010672 -0.021977 367371.000000 0 0 1
28.570256 -31.001938 -7.957411 42.903381 -0.826195 1.757349 0.017790 -0.012502 625281.000000 0 0 1
27.352456 -30.695238 -7.034111 41.711308 -0.842921 1.740244 0.018370 -0.008524 636439.000000 0 0 1
26.476656 -29.719038 -7.593711 40.520353 -0.843032 1.759316 0.019651 -0.015180 -72507.600000 0 0 1
25.342256 -29.513738 -6.795211 39.490070 -0.861296 1.743731 0.034802 -0.025851 -123279.000000 0 0 1
24.283856 -28.570038 -7.402111 38.219681 -0.866316 1.765701 0.053924 -0.026275 -343634.000000 0 0 1
23.421556 -29.195838 -8.304511 38.339681 -0.894702 1.789130 0.076964 -0.025069 -8879.910000 0 0 1
22.535756 -28.330038 -8.975911 37.296359 -0.898822 1.813847 0.082302 -0.028320 277369.000000 0 0 1
21.366856 -29.019138 -9.727811 37.326710 -0.936120 1.834453 0.098324 -0.024773 157283.000000 0 0 1
21.818256 -29.602738 -10.939711 38.367117 -0.935645 1.859941 0.107968 -0.024827 300043.000000 0 0 1
20.866956 -30.459838 -11.576511 38.694279 -0.970165 1.874628 0.107999 -0.028218 299942.000000 0 0 1
20.568456 -31.793138 -10.887411 39.400517 -0.996571 1.850766 0.109537 -0.039255 -180477.000000 0 0 1
21.661756 -32.655138 -10.777011 40.641527 -0.985094 1.839179 0.094581 -0.035415 -378174.000000 0 0 1
21.234256 -33.974738 -10.528111 41.424843 -1.012196 1.827765 0.074561 -0.031737 -58978.800000 0 0 1
22.392456 33.192963 -10.528211 41.400943 0.977311 1.827919 0.074184 -0.031539 31502.400000 0 0 1
23.402656 33.454363 -9.562711 41.932376 0.960379 1.800872 0.084487 -0.035833 598933.000000 0 0 1
24.576556 32.645063 -9.793211 42.019213 0.925479 1.806025 0.075503 -0.034575 1242140.000000 0 0 1
25.754556 33.169163 -8.838111 42.913899 0.910574 1.778231 0.062564 -0.036817 228885.000000 0 0 1
25.705356 32.820163 -7.472411 42.352867 0.906372 1.748157 0.055001 -0.045100 17728.800000 0 0 1
25.999356 31.428563 -7.277011 41.432789 0.879657 1.747346 0.043925 -0.033989 -353188.000000 0 0 1
26.147956 31.041563 -5.834811 41.004137 0.870758 1.713579 0.047743 -0.027988 -1275100.000000 0 0 1
27.188956 31.696563 -5.237111 42.087276 0.861798 1.695554 0.033880 -0.028593 15193.200000 0 0 1
28.337056 30.871163 -4.876411 42.187638 0.828172 1.686644 0.046622 -0.029617 755914.000000 0 0 1
28.098756 29.684163 -3.876111 41.057446 0.812829 1.665344 0.059350 -0.023311 -1208140.000000 0 0 1
27.606356 30.196863 -2.677211 41.001572 0.830184 1.636138 0.046270 -0.018244 -103275.000000 0 0 1
27.222856 29.105663 -1.840811 39.895013 0.818811 1.616954 0.038830 -0.016359 -68656.100000 0 0 1
25.801556 28.563363 -2.075511 38.547292 0.836156 1.624666 0.044547 -0.011162 136982.000000 0 0 1
24.728056 29.261363 -1.454711 38.338236 0.869168 1.608750 0.048128 -0.010567 194025.000000 0 0 1
23.431456 28.777863 -1.702711 37.149667 0.887446 1.616646 0.065353 -0.006758 724197.000000 0 0 1
22.296456 29.453463 -0.857611 36.950967 0.922826 1.594008 0.096423 -0.013459 436998.000000 0 0 1
22.050856 28.995363 0.456989 36.430484 0.920612 1.558252 0.093773 -0.024061 -468489.000000 0 0 1
20.890656 29.621263 0.913389 36.258420 0.956550 1.545603 0.084457 -0.024724 -457754.000000 0 0 1
20.292556 28.856063 2.118589 35.340467 0.957903 1.510812 0.079119 -0.034160 -242621.000000 0 0 1
19.549956 27.729963 1.705289 33.971453 0.956715 1.520578 0.095845 -0.022238 48800.800000 0 0 1
18.971456 26.985163 2.718289 33.098403 0.958038 1.488576 0.098527 -0.018898 16762.700000 0 0 1
18.237256 25.704463 2.166989 31.591340 0.953724 1.502148 0.110660 -0.009774 445.690000 0 0 1
19.092656 24.730163 1.639289 31.285743 0.913339 1.518375 0.117753 -0.017405 -434402.000000 0 0 1
19.882356 24.123463 2.597989 31.368760 0.881477 1.487880 0.102184 -0.002144 -494391.000000 0 0 1
21.152456 23.464763 2.020189 31.656005 0.837177 1.506936 0.093482 -0.004390 -197828.000000 0 0 1
20.930056 22.299063 1.275489 30.609514 0.817056 1.529115 0.099350 -0.001405 577893.000000 0 0 1
22.179456 21.741463 0.873089 31.070593 0.775426 1.542692 0.074486 -0.008446 338155.000000 0 0 1
22.082756 20.530463 -0.086011 30.152204 0.748987 1.573649 0.089760 -0.016160 -301784.000000 0 0 1
21.748456 20.933563 -1.429211 30.220060 0.766308 1.618107 0.077406 -0.010615 443249.000000 0 0 1
22.115356 19.953063 -2.411411 29.883584 0.734044 1.651578 0.101387 -0.024534 113003.000000 0 0 1
21.935756 20.614563 -3.786811 30.339373 0.754358 1.695938 0.085936 -0.023483 335766.000000 0 0 1
22.874656 21.675463 -3.952111 31.759956 0.758487 1.695557 0.080324 -0.018192 486711.000000 0 0 1
22.623656 22.286363 -5.167111 32.174692 0.777888 1.732090 0.077575 -0.019887 -40644.600000 0 0 1
23.521456 23.536963 -5.469811 33.721897 0.785728 1.733720 0.070533 -0.011640 45614.400000 0 0 1
23.377456 24.732763 -4.694511 34.354817 0.813562 1.707873 0.068126 -0.009370 64906.700000 0 0 1
23.730956 24.671363 -3.309511 34.391675 0.804825 1.667175 0.072040 -0.007809 201462.000000 0 0 1
22.534656 24.362263 -2.349111 33.269339 0.824349 1.641464 0.074497 -0.013254 -107100.000000 0 0 1
21.574556 25.423363 -2.233711 33.418533 0.867109 1.637687 0.089753 -0.009394 1209200.000000 0 0 1
20.438356 25.163763 -1.398911 32.448395 0.888652 1.613922 0.105738 -0.006193 826055.000000 0 0 1
19.457856 24.012563 -1.787511 30.958142 0.889794 1.628568 0.121723 -0.017190 -801002.000000 0 0 1
18.702556 24.310963 -2.924911 30.811745 0.915054 1.665868 0.106560 -0.017316 -190893.000000 0 0 1
18.040556 23.214963 -3.478711 29.605702 0.910170 1.688570 0.108448 -0.025959 244299.000000 0 0 1
17.016456 23.598563 -4.597511 29.454865 0.946062 1.727524 0.103523 -0.027354 126258.000000 0 0 1
16.570356 22.514763 -5.393711 28.470746 0.936330 1.761396 0.110667 -0.031937 57688.400000 0 0 1
16.327556 22.945863 -6.710111 28.950428 0.952348 1.804703 0.097534 -0.024651 418293.000000 0 0 1
15.536456 21.890663 -7.590211 27.896127 0.953570 1.846359 0.102144 -0.029057 619891.000000 0 0 1
16.387756 20.746063 -7.810911 27.567517 0.902231 1.858069 0.113530 -0.032754 766714.000000 0 0 1
15.835656 19.933363 -8.827111 26.944848 0.899461 1.904558 0.141042 -0.041465 -241930.000000 0 0 1
16.569356 18.623363 -9.098111 26.535803 0.843697 1.920758 0.129102 -0.044109 1827.200000 0 0 1
17.761756 18.749263 -9.859611 27.644652 0.812438 1.935482 0.125543 -0.040002 276200.000000 0 0 1
18.239156 17.474163 -10.203611 27.242006 0.763981 1.954712 0.120930 -0.043909 -706887.000000 0 0 1
19.667656 17.562363 -10.720311 28.463632 0.728910 1.956954 0.100119 -0.036362 -682354.000000 0 0 1
19.826656 17.934263 -12.041511 29.321188 0.735325 1.993992 0.100079 -0.031242 327282.000000 0 0 1
21.176956 18.288263 -12.295411 30.563069 0.712333 1.984820 0.085063 -0.017750 176996.000000 0 0 1
21.375856 18.560963 -13.820711 31.503153 0.715031 2.024958 0.077812 -0.011219 -115677.000000 0 0 1
21.535356 17.440363 -14.611211 31.327709 0.680717 2.056012 0.075082 -0.009078 366423.000000 0 0 1
21.466056 17.805063 -15.975111 32.140567 0.692443 2.090979 0.071870 -0.007592 73532.300000 0 0 1
21.372756 16.688463 -17.016011 32.013187 0.662941 2.131204 0.076160 -0.016422 -228731.000000 0 0 1
22.595456 16.000863 -17.079211 32.531242 0.616172 2.123523 0.079677 -0.005530 -43762.000000 0 0 1
22.766456 15.267963 -18.301311 32.959979 0.590744 2.159470 0.087183 -0.024976 -556074.000000 0 0 1
23.569556 15.947263 -19.429011 34.457592 0.594851 2.169840 0.094101 -0.017644 -1203760.000000 0 0 1
24.851356 16.160263 -18.933211 35.174003 0.576570 2.139183 0.096281 -0.011614 -490351.000000 0 0 1
25.671456 16.646563 -19.987311 36.546195 0.575282 2.149460 0.120533 -0.017053 937393.000000 0 0 1
27.154156 16.923663 -19.491011 37.465425 0.557336 2.117928 0.096077 -0.015631 1065900.000000 0 0 1
27.245556 18.169063 -18.785611 37.753601 0.588139 2.091608 0.072889 -0.008977 638351.000000 0 0 1
28.576756 18.363663 -18.290611 38.579808 0.571161 2.064736 0.062651 -0.015868 356613.000000 0 0 1
28.680156 19.409263 -17.137411 38.638863 0.594950 2.030327 0.058766 -0.013240 132508.000000 0 0 1
28.037256 19.012363 -15.929011 37.433823 0.595884 2.010338 0.053657 -0.015501 -495293.000000 0 0 1
26.710556 19.419663 -15.881411 36.644186 0.628645 2.019053 0.056422 -0.005494 -771323.000000 0 0 1
25.873956 19.033063 -14.654211 35.305311 0.634226 1.998817 0.050992 -0.009542 -86834.800000 0 0 1
26.410256 19.607463 -13.483211 35.549279 0.638631 1.959817 0.040480 -0.009017 -49719.400000 0 0 1
25.793256 19.199763 -12.325711 34.436117 0.639889 1.936846 0.054916 -0.009836 -246849.000000 0 0 1
26.577356 19.731563 -11.083211 34.907421 0.638632 1.893891 0.040331 -0.016099 -177227.000000 0 0 1
26.443756 21.122863 -10.826211 35.533849 0.673999 1.880392 0.046189 -0.018269 -86953.700000 0 0 1
26.911056 21.488663 -9.515711 35.728369 0.673830 1.840385 0.050569 -0.016862 -3781.700000 0 0 1
26.049256 21.147863 -8.261711 34.555054 0.681920 1.812223 0.055497 -0.021117 -301594.000000 0 0 1
26.073356 19.775363 -7.931511 33.671854 0.648888 1.808584 0.059941 -0.029388 67702.400000 0 0 1
25.215356 19.496763 -6.857711 32.603162 0.658191 1.782718 0.076409 -0.033674 274746.000000 0 0 1
23.756356 19.086663 -7.215911 31.316681 0.676831 1.803303 0.115624 -0.037600 -52068.300000 0 0 1
22.939356 20.130163 -7.596611 31.450692 0.720266 1.814749 0.090286 -0.031984 789222.000000 0 0 1
21.577456 19.747363 -7.877811 30.291993 0.741141 1.833883 0.077831 -0.035837 1432750.000000 0 0 1
20.510956 20.898163 -7.912211 30.332089 0.794749 1.834702 0.101830 -0.027814 37499.200000 0 0 1
20.826056 21.840163 -8.914811 31.467304 0.809162 1.858034 0.086302 -0.020910 11359.100000 0 0 1
20.283156 21.719663 -10.212511 31.423647 0.819585 1.901802 0.096152 -0.022824 -346453.000000 0 0 1
18.800256 22.107463 -10.356911 30.813230 0.866068 1.913589 0.095157 -0.023621 -399096.000000 0 0 1
18.504456 23.435963 -9.986211 31.486246 0.902444 1.893531 0.079494 -0.021113 -435683.000000 0 0 1
17.277056 23.813463 -10.524611 31.246522 0.943150 1.914339 0.072574 -0.020587 -382647.000000 0 0 1
16.749756 25.162963 -9.950611 31.823634 0.983497 1.888809 0.066255 -0.011336 336208.000000 0 0 1
17.570056 26.252663 -10.354611 33.243453 0.980995 1.887545 0.088961 -0.002181 251729.000000 0 0 1
17.152356 27.361063 -9.599411 33.689461 1.010840 1.859738 0.077326 -0.019362 226141.000000 0 0 1
20.156756 29.033863 33.147944 48.456643 0.963940 0.817462 0.065970 0.002438 -199258.000000 0 0 1
18.796856 29.327663 33.033331 48.006610 1.000827 0.811929 0.087016 -0.016091 -449341.000000 0 0 1
18.008356 28.138163 33.205018 47.102339 1.001485 0.788437 0.088630 -0.019331 198291.000000 0 0 1
16.508856 28.445363 33.388666 46.866662 1.044935 0.777858 0.128044 -0.033672 2631.420000 0 0 1
15.807156 28.846263 32.242497 46.060305 1.069506 0.795390 0.128385 -0.031631 -486011.000000 0 0 1
14.541956 29.373663 32.561809 46.201212 1.111102 0.788680 0.123905 -0.034829 104571.000000 0 0 1
13.613156 29.412463 31.302060 45.058073 1.137319 0.802787 0.113336 -0.036949 41948.200000 0 0 1
13.236456 28.077463 31.007340 43.874854 1.130268 0.785942 0.106690 -0.042991 298382.000000 0 0 1
11.826856 27.900063 30.933350 43.303120 1.169857 0.775109 0.102432 -0.029144 137105.000000 0 0 1
11.459456 26.396063 30.798690 42.150096 1.161214 0.751463 0.073426 -0.024227 -81618.500000 0 0 1
11.725456 25.751263 29.548810 40.911441 1.143515 0.763728 0.078924 -0.020765 565696.000000 0 0 1
13.088056 25.658963 29.141290 40.974314 1.099119 0.779580 0.070596 -0.025932 172212.000000 0 0 1
13.217856 24.773963 27.868330 39.561405 1.080679 0.789173 0.087368 -0.025525 -318938.000000 0 0 1
12.842056 25.480663 26.717190 39.089523 1.103960 0.818267 0.079849 -0.023552 207987.000000 0 0 1
12.840956 24.734663 25.511660 37.782780 1.091948 0.829534 0.097131 -0.028223 293942.000000 0 0 1
11.867556 23.504263 25.351280 36.551014 1.103228 0.804341 0.083179 -0.017701 -7392.920000 0 0 1
11.784456 23.133763 23.959180 35.328271 1.099653 0.825503 0.102122 -0.025188 425129.000000 0 0 1
10.639756 22.319763 23.690090 34.243198 1.125965 0.806791 0.095577 -0.018446 543305.000000 0 0 1
10.523356 22.004263 22.107890 32.919408 1.124706 0.834462 0.107424 -0.027491 39387.500000 0 0 1
10.380456 23.181963 21.298990 33.148216 1.149789 0.872990 0.107675 -0.027401 82591.600000 0 0 1
10.321856 22.803263 19.947990 32.007059 1.145742 0.897921 0.105378 -0.022692 -599626.000000 0 0 1
10.197156 24.029463 18.964890 32.265525 1.169467 0.942490 0.098819 -0.024193 273776.000000 0 0 1
8.879856 24.510863 18.765890 32.121533 1.223222 0.946883 0.094155 -0.029968 -78970.000000 0 0 1
8.319356 25.344463 19.729790 33.178579 1.253626 0.933961 0.094441 -0.038772 285166.000000 0 0 1
6.782156 25.600663 19.560090 32.923984 1.311824 0.934652 0.096187 -0.033076 828309.000000 0 0 1
6.653756 26.432763 18.422990 32.899392 1.324196 0.976435 0.094147 -0.042955 -415371.000000 0 0 1
5.286156 26.598963 18.174290 32.645874 1.374617 0.980376 0.081226 -0.043047 -564800.000000 0 0 1
5.123156 27.877863 17.274190 33.193668 1.389053 1.023470 0.088874 -0.041862 -50279.400000 0 0 1
5.610156 27.635863 15.993890 32.419428 1.370515 1.054868 0.090357 -0.036611 519995.000000 0 0 1
6.661956 28.570363 15.632990 33.242107 1.341712 1.081192 0.091273 -0.038691 1406070.000000 0 0 1
7.625256 28.133463 14.434390 32.526726 1.306117 1.110995 0.085804 -0.037570 569904.000000 0 0 1
7.012956 28.206663 13.189190 31.917896 1.327110 1.144806 0.090816 -0.037208 -333839.000000 0 0 1
6.563656 27.002463 12.651390 30.533134 1.332345 1.143568 0.069403 -0.032749 -336848.000000 0 0 1
5.930056 27.080063 11.275590 29.927150 1.355217 1.184492 0.068828 -0.034282 -235310.000000 0 0 1
6.688356 27.429663 10.090490 29.982303 1.331627 1.227547 0.056790 -0.027817 270532.000000 0 0 1
7.116456 28.821163 10.131290 31.367920 1.328721 1.241917 0.047901 -0.026668 58159.500000 0 0 1
7.487656 29.342563 8.664090 31.497896 1.320948 1.292135 0.038800 -0.018041 -561390.000000 0 0 1
6.354656 29.479463 7.843290 31.159871 1.358483 1.316348 0.045273 -0.031763 -151014.000000 0 0 1
6.153056 28.262563 7.166690 29.799228 1.356431 1.327916 0.043115 -0.018775 -279579.000000 0 0 1
4.653356 28.039863 6.922090 29.254110 1.406340 1.331911 0.048109 -0.026078 -262339.000000 0 0 1
4.079356 28.847263 5.922490 29.730146 1.430316 1.370246 0.039948 -0.026040 -12142.000000 0 0 1
2.668156 28.723963 6.006190 29.466242 1.478173 1.365525 0.070862 -0.029385 299824.000000 0 0 1
1.900656 29.717663 5.120590 30.215433 1.506926 1.400505 0.085855 -0.031238 -291112.000000 0 0 1
2.119856 29.411463 3.734790 29.723334 1.498845 1.444812 0.069557 -0.035398 100569.000000 0 0 1
1.519056 30.403263 2.917790 30.580703 1.520874 1.475238 0.060470 -0.038047 50267.600000 0 0 1
0.045556 30.169963 2.541790 30.276879 1.569286 1.486746 0.097351 -0.035837 -358542.000000 0 0 1
-0.050244 29.247063 1.480890 29.284573 -1.569078 1.520206 0.090463 -0.037874 71456.100000 0 0 1
-1.120944 28.318063 1.643290 28.387842 -1.531233 1.512877 0.090427 -0.031887 378107.000000 0 0 1
-1.616244 27.711963 0.340890 27.761148 -1.512539 1.558517 0.089527 -0.035472 -48071.000000 0 0 1
-2.309444 28.646863 -0.485910 28.743910 -1.490353 1.587702 0.098858 -0.040720 56303.400000 0 0 1
-1.508944 29.330163 -1.423210 29.403416 -1.519395 1.619218 0.085893 -0.037074 239712.000000 0 0 1
-2.404944 30.426163 -2.139510 30.595958 -1.491918 1.640781 0.097943 -0.037719 958967.000000 0 0 1
-3.666244 30.090663 -2.705210 30.433657 -1.449554 1.659803 0.083269 -0.030913 382079.000000 0 0 1
-3.585144 29.259963 -3.838210 29.727605 -1.448877 1.700270 0.072799 -0.024303 247213.000000 0 0 1
-5.005644 29.023063 -4.453210 29.786334 -1.400005 1.720864 0.071504 -0.014802 927083.000000 0 0 1
-5.624544 30.029963 -5.298010 31.008113 -1.385644 1.742498 0.064233 -0.020419 -318636.000000 0 0 1
-6.623044 29.500963 -6.098210 30.844119 -1.349955 1.769818 0.053845 -0.018719 -411105.000000 0 0 1
-7.402444 30.649563 -6.786710 32.252927 -1.333816 1.782802 0.057320 -0.019068 -173990.000000 0 0 1
-8.277644 31.374563 -5.960210 32.991009 -1.312841 1.752455 0.056529 -0.024111 -91925.900000 0 0 1
-8.599944 32.626563 -6.586810 34.377866 -1.313071 1.763589 0.053942 -0.025232 41585.400000 0 0 1
-9.759944 33.457963 -6.004310 35.365852 -1.286964 1.741400 0.050287 -0.027010 183516.000000 0 0 1
-11.052844 32.888763 -6.130010 35.233692 -1.246587 1.745668 0.060962 -0.029296 -368324.000000 0 0 1
-11.963644 33.715163 -5.470810 36.190755 -1.229812 1.722544 0.055111 -0.026546 28297.300000 0 0 1
-13.449544 33.340663 -5.703010 36.400746 -1.187364 1.728117 0.079388 -0.024814 265159.000000 0 0 1
-13.843444 33.732663 -7.007210 37.129967 -1.181368 1.760656 0.068073 -0.023557 -876931.000000 0 0 1
-15.196844 33.553963 -7.234810 37.538713 -1.145527 1.764739 0.066362 -0.025677 -1349310.000000 0 0 1
-15.551544 33.900263 -8.754310 38.310785 -1.140695 1.801341 0.079369 -0.019828 127065.000000 0 0 1
-16.871944 33.697163 -9.220310 38.796590 -1.106594 1.810750 0.095956 -0.024241 -253866.000000 0 0 1
-17.775444 -33.529938 -8.726410 38.940639 1.083331 1.796811 0.091766 -0.027556 -1253500.000000 0 0 1
-19.256744 -33.889038 -8.957310 39.994031 1.054065 1.796678 0.081522 -0.017759 52237.100000 0 0 1
-19.877844 33.318363 -8.090510 39.632036 -1.032878 1.776382 0.076066 -0.020115 314189.000000 0 0 1
-20.119344 33.872263 -6.797810 39.979099 -1.034817 1.741661 0.076535 -0.024007 -1006790.000000 0 0 1
-20.756444 33.031263 -5.774010 39.436448 -1.009765 1.717738 0.077502 -0.022998 -714610.000000 0 0 1
-20.604944 33.496563 -4.417310 39.573931 -1.019322 1.682651 0.074451 -0.026329 -149897.000000 0 0 1
-21.746544 33.439563 -3.613010 40.052095 -0.994194 1.661127 0.070391 -0.024909 -981860.000000 0 0 1
-22.607244 -33.512438 -3.597610 40.584649 0.977327 1.659557 0.092509 -0.030522 -511679.000000 0 0 1
-23.235544 -33.316938 -4.895310 40.912992 0.961811 1.690735 0.096245 -0.036064 136950.000000 0 0 1
-23.963044 -32.120738 -4.990310 40.384062 0.929841 1.694684 0.094809 -0.039014 -420764.000000 0 0 1
-24.475544 -31.981838 -6.420410 40.781269 0.917578 1.728889 0.105278 -0.033949 -290198.000000 0 0 1
-23.542844 -31.605038 -7.438310 40.105765 0.930562 1.757344 0.120104 -0.030000 -39411.900000 0 0 1
-23.698644 -32.144038 -8.790410 40.891762 0.935496 1.787455 0.104754 -0.026633 743991.000000 0 0 1
-24.998544 -31.595638 -9.523210 41.399312 0.901443 1.802908 0.089236 -0.023138 1300780.000000 0 0 1
-26.207684 -32.061738 -8.876110 42.350715 0.885527 1.781948 0.076139 -0.017661 592378.000000 0 0 1
-27.440974 -31.657738 -9.427010 42.942845 0.856629 1.792123 0.045562 -0.010534 314612.000000 0 0 1
-27.773154 -30.114638 -9.208710 41.988568 0.825825 1.791908 0.035069 -0.001609 -598002.000000 0 0 1
-27.052784 -29.204638 -10.029710 41.053125 0.823630 1.817605 0.029359 -0.000461 -128935.000000 0 0 1
-27.533784 -29.143838 -11.363010 41.672419 0.813798 1.846968 0.020250 0.003656 328604.000000 0 0 1
-26.548474 -28.488038 -12.409610 40.870383 0.820625 1.879300 0.055508 0.005354 -14740.100000 0 0 1
-25.309084 -29.121738 -12.509410 40.559964 0.855330 1.884326 0.057624 -0.006864 -739844.000000 0 0 1
-24.449944 -28.467238 -13.402410 39.847308 0.861169 1.913829 0.055554 -0.007785 832911.000000 0 0 1
-23.013244 -29.138238 -13.398210 39.473514 0.902309 1.917100 0.079091 -0.017815 731770.000000 0 0 1
-22.913744 -30.399738 -14.039410 40.574484 0.924901 1.924118 0.083252 -0.018039 -246659.000000 0 0 1
-23.591444 -31.484638 -13.463510 41.582505 0.927743 1.900516 0.072518 -0.017257 -230655.000000 0 0 1
-23.652344 -32.770938 -14.354510 42.888456 0.945623 1.912077 0.071377 -0.015529 -68378.700000 0 0 1
-23.994144 -33.927138 -13.689610 43.751286 0.955237 1.889037 0.064687 -0.021314 -260216.000000 0 0 1
-24.166144 33.098563 -14.458810 43.457733 -0.940136 1.909972 0.065665 -0.017204 27445.500000 0 0 1
-24.490944 31.857063 -13.614610 42.426835 -0.915387 1.897472 0.052150 -0.017156 25988.000000 0 0 1
-23.522544 31.572763 -12.607310 41.341186 -0.930486 1.880690 0.039278 -0.016888 217867.000000 0 0 1
-23.384944 32.409663 -11.471010 41.579152 -0.945758 1.850305 0.070238 -0.010882 -76577.300000 0 0 1
-22.545544 31.799363 -10.362810 40.334710 -0.954060 1.830631 0.063815 -0.006068 283112.000000 0 0 1
-23.328944 30.882363 -9.614910 39.879900 -0.923840 1.814292 0.067513 -0.009147 584442.000000 0 0 1
-22.541444 30.462963 -8.537610 38.845844 -0.933750 1.792387 0.070798 -0.003448 90144.200000 0 0 1
-23.403044 29.586363 -7.624510 38.486211 -0.901563 1.770226 0.067218 0.000395 140170.000000 0 0 1
-23.710444 28.312863 -8.231510 37.835976 -0.873637 1.790108 0.075420 0.004564 463253.000000 0 0 1
-24.550744 27.449663 -7.445910 37.572125 -0.841089 1.770293 0.058678 0.010177 322128.000000 0 0 1
-23.746744 26.697563 -6.387610 36.296959 -0.843828 1.747700 0.051926 0.009960 -38090.800000 0 0 1
-23.475744 27.527163 -5.291510 36.563032 -0.864667 1.716029 0.049495 0.019086 425617.000000 0 0 1
-22.550344 27.012963 -4.313510 35.451721 -0.875195 1.692771 0.032560 0.019278 525444.000000 0 0 1
-21.193744 27.776763 -4.317410 35.204593 -0.919025 1.693744 0.020316 0.013454 147912.000000 0 0 1
-20.588144 27.707563 -5.605710 34.971484 -0.931757 1.731785 0.030610 0.005540 -876032.000000 0 0 1
-19.235944 27.979563 -5.446610 34.388123 -0.968509 1.729853 0.049930 -0.002587 -859609.000000 0 0 1
-18.449044 27.662563 -6.721210 33.922843 -0.982610 1.770248 0.059244 -0.010909 -350788.000000 0 0 1
-18.732344 28.421463 -7.868510 34.936996 -0.988056 1.797965 0.070425 -0.009982 65451.700000 0 0 1
-18.187144 29.738763 -7.750910 35.710542 -1.021918 1.789586 0.062204 -0.014260 -121910.000000 0 0 1
-18.203444 30.566463 -8.974510 36.690814 -1.033665 1.817902 0.067813 -0.022234 -250557.000000 0 0 1
-17.389244 30.150363 -10.040910 36.224992 -1.047647 1.851656 0.075465 -0.025619 -80298.400000 0 0 1
-17.577244 30.893063 -11.236810 37.277429 -1.053505 1.876996 0.075200 -0.021550 519163.000000 0 0 1
-16.223244 31.342663 -11.918310 37.250534 -1.093161 1.896473 0.075596 -0.025406 724530.000000 0 0 1
-16.235644 32.016563 -13.166110 38.236146 -1.101484 1.922329 0.085649 -0.022722 -259759.000000 0 0 1
-16.452244 31.081963 -14.205810 37.928482 -1.083970 1.954699 0.078778 -0.027591 -354345.000000 0 0 1
-15.833644 31.604463 -15.480710 38.590138 -1.106354 1.983576 0.124685 -0.030134 1308960.000000 0 0 1
-14.381944 31.599963 -15.488610 38.017035 -1.143688 1.990415 0.109392 -0.039637 1126070.000000 0 0 1
-13.946244 32.027463 -16.771010 38.749488 -1.160111 2.018399 0.080718 -0.041100 -1053030.000000 0 0 1
-12.469044 32.060363 -17.025910 38.382620 -1.199875 2.030390 0.105377 -0.049885 -1104910.000000 0 0 1
-11.829544 30.817163 -17.209910 37.226558 -1.204279 2.051386 0.111708 -0.062739 -221604.000000 0 0 1
-10.516744 30.804363 -17.699910 37.051282 -1.241800 2.068847 0.118019 -0.062142 39550.900000 0 0 1
-10.483844 30.844063 -19.206710 37.817521 -1.243149 2.103517 0.128423 -0.072656 -93024.900000 0 0 1
-11.093644 29.655863 -19.786010 37.336648 -1.212833 2.129321 0.106022 -0.080075 484168.000000 0 0 1
-10.628744 29.450563 -21.117810 37.765960 -1.224443 2.164188 0.107689 -0.084534 -625342.000000 0 0 1
-11.768344 28.995263 -22.058610 38.285786 -1.185239 2.184815 0.098635 -0.072814 626478.000000 0 0 1
-12.725044 30.015963 -22.369510 39.538332 -1.169822 2.172160 0.098175 -0.072551 289189.000000 0 0 1
-13.731144 30.272063 -21.410210 39.539084 -1.144960 2.143010 0.092629 -0.068205 -567601.000000 0 0 1
-14.448744 31.598563 -21.725310 40.978341 -1.141922 2.129592 0.109808 -0.062316 56201.000000 0 0 1
-15.267844 31.577863 -22.892410 41.884733 -1.120437 2.149044 0.088950 -0.053869 167234.000000 0 0 1
-16.000044 32.791463 -23.050110 43.157722 -1.116849 2.134227 0.076757 -0.048839 340852.000000 0 0 1
-16.446144 32.971463 -24.498410 44.246639 -1.108110 2.157571 0.072651 -0.040158 -169989.000000 0 0 1
-15.370144 33.333263 -25.320410 44.592274 -1.138746 2.174652 0.086762 -0.037729 -160682.000000 0 0 1
-15.691544 33.354063 -26.695910 45.512522 -1.131064 2.197604 0.091494 -0.026402 -48098.800000 0 0 1
-16.305544 -33.543738 -27.329510 46.238028 1.118332 2.203170 0.070887 -0.016654 -137711.000000 0 0 1
-17.636544 -33.343638 -26.938710 46.352346 1.084271 2.190965 0.063815 -0.010774 -445000.000000 0 0 1
-18.253944 -32.393338 -27.771610 46.409020 1.057641 2.212311 0.038555 -0.000906 34914.700000 0 0 1
-19.704744 -32.078338 -27.361610 46.539815 1.019951 2.199279 0.032255 -0.010307 324207.000000 0 0 1
-20.598244 -33.181438 -27.342210 47.674856 1.015240 2.181586 0.035693 -0.008873 -462005.000000 0 0 1
-21.928344 -32.749038 -27.153810 47.861061 0.980774 2.174076 0.032514 -0.006920 -135394.000000 0 0 1
-22.948044 -33.863738 -27.247510 49.150710 0.975223 2.158398 0.014903 0.003312 -476320.000000 0 0 1
-22.838744 33.376263 -26.167910 48.169935 -0.970698 2.145090 0.033543 -0.008943 -667059.000000 0 0 1
-23.891244 32.447863 -26.260110 48.096244 -0.936123 2.148368 0.017015 -0.002730 -38063.800000 0 0 1
-23.651744 31.034463 -26.818910 47.347616 -0.919588 2.172959 0.025982 -0.009002 -82554.300000 0 0 1
-22.899444 30.179063 -25.992410 45.943070 -0.921696 2.172142 0.029515 -0.025079 31212.100000 0 0 1
-23.764144 29.252963 -25.340210 45.415819 -0.888560 2.162722 0.027184 -0.025921 98204.900000 0 0 1
31.367118 10.017763 -26.511211 42.274058 0.309133 2.248656 0.055714 -0.013355 87638.200000 0 0 1
31.084228 8.621763 -26.462311 41.723110 0.270566 2.257817 0.027485 -0.003383 -400670.000000 0 0 1
29.766848 8.401363 -26.062531 40.446306 0.275084 2.271000 0.026149 -0.009551 -426595.000000 0 0 1
29.415118 6.996163 -25.544771 39.581950 0.233504 2.272296 0.012371 0.001968 -40054.100000 0 0 1
29.674288 6.775363 -24.160411 38.861219 0.224476 2.241720 0.008312 -0.000826 22332.500000 0 0 1
29.187188 5.547263 -23.760611 38.042485 0.187818 2.245391 0.007525 -0.003041 -113348.000000 0 0 1
29.053638 5.470263 -22.240211 36.995468 0.186103 2.215749 0.012508 -0.000109 613118.000000 0 0 1
30.338618 5.313563 -21.616211 37.628796 0.173383 2.182740 0.027016 -0.003617 1054580.000000 0 0 1
30.143648 4.916363 -20.282611 36.663257 0.161674 2.157013 0.045715 -0.014502 224699.000000 0 0 1
31.509098 4.618563 -19.591111 37.389383 0.145542 2.122308 0.053776 -0.020396 166931.000000 0 0 1
32.007188 3.343363 -19.834811 37.802882 0.104079 2.123148 0.070646 -0.021412 910076.000000 0 0 1
33.028478 3.013763 -18.840111 38.143320 0.090995 2.087400 0.081861 -0.031575 214058.000000 0 0 1
33.596118 1.576363 -18.937711 38.598199 0.046887 2.083617 0.086418 -0.032118 -613316.000000 0 0 1
32.797778 0.493063 -18.572811 37.694650 0.015032 2.086006 0.091854 -0.030398 -208129.000000 0 0 1
33.535518 -0.728037 -18.489411 38.301688 -0.021706 2.074567 0.113302 -0.027843 -312188.000000 0 0 1
32.642488 -1.962337 -18.207011 37.428305 -0.060044 2.078819 0.091300 -0.019082 51979.100000 0 0 1
32.278458 -2.202237 -16.832211 36.470152 -0.068121 2.050520 0.104107 -0.022021 1047430.000000 0 0 1
31.121178 -1.416137 -16.416611 35.214177 -0.045473 2.055779 0.089225 -0.031815 623615.000000 0 0 1
30.810288 -1.555137 -14.946011 34.279375 -0.050432 2.021952 0.097307 -0.031242 -52857.600000 0 0 1
30.534438 -2.945637 -14.594611 33.971037 -0.096172 2.014867 0.094765 -0.025116 503836.000000 0 0 1
29.399598 -3.160037 -13.772711 32.619162 -0.107075 2.006698 0.087748 -0.023906 -48191.800000 0 0 1
29.311438 -4.639937 -13.170611 32.467744 -0.156995 1.988489 0.087676 -0.024854 -148070.000000 0 0 1
28.800248 -5.568537 -14.097711 32.545481 -0.190994 2.018803 0.070763 -0.024200 255147.000000 0 0 1
28.337118 -6.715337 -13.464611 32.084011 -0.232688 2.003875 0.078614 -0.018213 -322136.000000 0 0 1
27.864918 -7.780737 -14.483611 32.353802 -0.272295 2.034947 0.061107 -0.011999 91639.900000 0 0 1
26.584718 -7.485937 -15.034311 31.445460 -0.274481 2.069295 0.066067 -0.014575 203632.000000 0 0 1
26.303018 -8.364937 -16.099111 31.953127 -0.307908 2.098829 0.055138 -0.014805 607372.000000 0 0 1
24.805218 -8.418237 -16.571311 30.996353 -0.327177 2.134856 0.046105 -0.015235 677272.000000 0 0 1
24.420618 -7.207537 -17.214911 30.735457 -0.286993 2.165302 0.046951 -0.013079 -661264.000000 0 0 1
23.083218 -7.227937 -17.590211 29.908085 -0.303454 2.199556 0.082167 -0.013234 -484779.000000 0 0 1
22.814418 -7.517337 -19.069911 30.670336 -0.318296 2.241798 0.070550 -0.008428 117195.000000 0 0 1
23.469318 -6.528437 -19.912111 31.463019 -0.271310 2.256055 0.053615 -0.008375 653135.000000 0 0 1
23.249718 -6.954537 -21.277711 32.274695 -0.290652 2.290643 0.072544 -0.012871 55658.400000 0 0 1
23.518018 -5.902337 -22.340911 32.970457 -0.245892 2.315296 0.063351 -0.012708 -78392.800000 0 0 1
23.617418 -6.418937 -23.640411 34.027257 -0.265378 2.338868 0.075337 -0.018842 192860.000000 0 0 1
23.895318 -5.435137 -24.548811 34.686756 -0.223651 2.357074 0.062951 -0.017049 -93411.600000 0 0 1
24.040718 -5.919637 -26.011241 35.910763 -0.241431 2.380858 0.079805 -0.019570 265763.000000 0 0 1
22.774518 -6.348337 -26.487991 35.504841 -0.271847 2.412890 0.088713 -0.012359 267344.000000 0 0 1
22.811318 -6.477437 -27.860581 36.585863 -0.276674 2.436439 0.078850 -0.018974 218339.000000 0 0 1
21.570818 -7.154837 -28.486761 36.441562 -0.320271 2.468201 0.070107 -0.023285 158782.000000 0 0 1
21.554618 -8.513937 -28.069121 36.400058 -0.376183 2.451408 0.066314 -0.020483 611975.000000 0 0 1
20.316218 -9.182837 -28.309421 36.034657 -0.424512 2.474488 0.068991 -0.032114 323422.000000 0 0 1
20.426918 -10.707837 -28.098901 36.351960 -0.482821 2.454302 0.086095 -0.026259 -324503.000000 0 0 1
19.354418 -11.193437 -27.307631 35.292963 -0.524341 2.455522 0.094751 -0.021218 355106.000000 0 0 1
19.341118 -12.557237 -26.903121 35.433614 -0.575848 2.432963 0.099227 -0.024250 -421663.000000 0 0 1
19.215618 -13.606537 -28.043271 36.616975 -0.616140 2.443165 0.094789 -0.019184 192454.000000 0 0 1
17.924418 -13.760937 -28.620921 36.466495 -0.654746 2.473259 0.087698 -0.018297 577347.000000 0 0 1
17.969418 -14.761837 -29.572611 37.621153 -0.687713 2.475211 0.072513 -0.020265 -127883.000000 0 0 1
16.746718 -14.877537 -30.534401 37.870085 -0.726361 2.508655 0.056950 -0.018547 686170.000000 0 0 1
15.715418 -15.687937 -29.907131 37.249459 -0.784523 2.502920 0.045125 -0.019432 307079.000000 0 0 1
14.660018 -15.881237 -30.805751 37.631425 -0.825363 2.529796 0.038243 -0.023739 -302846.000000 0 0 1
13.445918 -16.586037 -30.155971 36.949586 -0.889579 2.525493 0.049750 -0.024153 50494.600000 0 0 1
13.680518 -17.909337 -29.815691 37.374809 -0.918473 2.494348 0.041908 -0.027227 -235682.000000 0 0 1
12.688618 -18.300937 -28.917611 36.498679 -0.964560 2.485353 0.054412 -0.026545 -212515.000000 0 0 1
12.999518 -19.665537 -28.268521 36.808017 -0.986706 2.446507 0.058966 -0.029098 -181822.000000 0 0 1
14.057118 -19.632437 -27.335601 36.472870 -0.949403 2.418069 0.050748 -0.023288 -79300.400000 0 0 1
14.034518 -20.668037 -26.377491 36.330531 -0.974273 2.383345 0.049233 -0.020927 -24193.500000 0 0 1
15.082718 -20.505537 -25.257341 35.859430 -0.936612 2.352294 0.044318 -0.012653 -599302.000000 0 0 1
16.388818 -20.876137 -25.561971 36.848620 -0.905238 2.337413 0.062518 -0.017331 -296138.000000 0 0 1
17.173118 -20.740737 -24.369511 36.317588 -0.879220 2.306368 0.070806 -0.010855 741381.000000 0 0 1
18.712518 -21.021037 -24.539611 37.339454 -0.843433 2.287898 0.059925 -0.013789 733746.000000 0 0 1
19.149718 -22.282137 -24.954311 38.547671 -0.860859 2.274915 0.065048 -0.023691 158081.000000 0 0 1
18.913418 -23.306837 -23.969311 38.411638 -0.889085 2.244662 0.059454 -0.034383 -657884.000000 0 0 1
19.589318 -24.664537 -24.214411 39.729315 -0.899584 2.226207 0.045341 -0.031170 477268.000000 0 0 1
21.006718 -24.598837 -23.971811 40.262051 -0.864001 2.208553 0.059528 -0.027795 729957.000000 0 0 1
21.577818 -25.817767 -23.585311 41.090464 -0.874619 2.182160 0.069103 -0.038788 -135528.000000 0 0 1
21.379918 -26.093447 -22.055211 40.303861 -0.884362 2.149839 0.073534 -0.036066 -1208000.000000 0 0 1
20.083718 -26.308817 -21.610111 39.528553 -0.918785 2.149210 0.058264 -0.030615 -595449.000000 0 0 1
20.080318 -26.165557 -20.187311 38.670183 -0.916231 2.120035 0.056569 -0.030239 -49849.300000 0 0 1
18.772318 -26.591007 -19.493911 37.940666 -0.956078 2.110405 0.056452 -0.022366 -589675.000000 0 0 1
18.706018 -28.012017 -19.485811 38.913816 -0.982020 2.095253 0.060545 -0.019257 70511.900000 0 0 1
17.622218 -28.608897 -18.809611 38.507311 -1.018717 2.081130 0.057937 -0.014596 25181.600000 0 0 1
16.172818 -28.406447 -19.260011 37.939878 -1.053229 2.103246 0.056890 -0.020819 -588482.000000 0 0 1
15.537118 -27.273837 -18.757511 36.566494 -1.052976 2.109437 0.065175 -0.016487 -345558.000000 0 0 1
14.245518 -27.174097 -19.336511 36.266610 -1.087952 2.133147 0.052534 -0.009167 326323.000000 0 0 1
13.254818 -26.379597 -18.452011 34.814509 -1.105179 2.129408 0.049352 -0.016300 -424043.000000 0 0 1
12.671118 -27.063947 -17.368011 34.563887 -1.132918 2.097273 0.039362 -0.018809 182147.000000 0 0 1
11.628818 -26.317287 -16.750911 33.292973 -1.154724 2.098021 0.053344 -0.026744 169858.000000 0 0 1
10.196618 -26.472827 -17.264411 33.209057 -1.203137 2.117496 0.051646 -0.018143 -936908.000000 0 0 1
9.471418 -27.577857 -16.770211 33.637568 -1.239975 2.092729 0.050117 -0.009609 247098.000000 0 0 1
8.071718 -27.378087 -16.965211 33.204377 -1.284095 2.107066 0.048024 0.004901 708595.000000 0 0 1
7.582918 -28.013977 -18.292511 34.305969 -1.306448 2.133195 0.063224 -0.004020 -397217.000000 0 0 1
7.726718 -27.222267 -19.469011 34.348164 -1.294232 2.173429 0.072721 -0.013191 -20328.600000 0 0 1
7.119718 -27.902487 -20.554411 35.379698 -1.320963 2.190712 0.065304 -0.009065 -80882.000000 0 0 1
6.834318 -26.911457 -21.693611 35.235596 -1.322098 2.234036 0.071223 -0.007774 -311078.000000 0 0 1
5.709318 -26.096857 -21.469411 34.272115 -1.355416 2.247773 0.077777 -0.012336 -335735.000000 0 0 1
5.634218 -25.303647 -22.633011 34.413256 -1.351706 2.288535 0.077397 -0.017971 -1233080.000000 0 0 1
4.256818 -24.854137 -22.960011 34.102943 -1.401170 2.309400 0.059848 -0.013407 -908656.000000 0 0 1
3.261718 -25.825397 -23.241311 34.896253 -1.445163 2.299646 0.049373 -0.010557 659644.000000 0 0 1
2.180818 -25.329937 -24.041911 34.991073 -1.484912 2.328269 0.052300 -0.011714 634529.000000 0 0 1
1.314018 -26.415197 -24.710111 36.195012 -1.521093 2.322239 0.046402 -0.018696 -84461.700000 0 0 1
1.879218 -27.037857 -25.817841 37.431779 -1.501405 2.331913 0.033708 -0.015362 -197578.000000 0 0 1
0.940718 -27.763397 -26.521761 38.406965 -1.536926 2.333039 0.035366 -0.023695 36917.700000 0 0 1
1.763618 -28.617407 -27.528981 39.748096 -1.509247 2.335864 0.028269 -0.019150 67227.100000 0 0 1
2.295118 -27.886347 -28.662601 40.055719 -1.488679 2.368234 0.032637 -0.018974 199997.000000 0 0 1
2.888618 -28.721557 -29.656851 41.385997 -1.470560 2.369699 0.048766 -0.025795 613780.000000 0 0 1
4.342018 -29.250977 -29.433711 41.723089 -1.423432 2.353860 0.046285 -0.025687 -58476.500000 0 0 1
4.472418 -30.178227 -28.349241 41.646217 -1.423667 2.319536 0.053747 -0.031621 -134770.000000 0 0 1
5.703718 -30.859267 -28.479011 42.377834 -1.388029 2.307738 0.075218 -0.033915 183759.000000 0 0 1
5.829118 -32.053057 -27.490901 42.627770 -1.390904 2.271697 0.094721 -0.040446 233585.000000 0 0 1
5.008618 -33.169387 -27.883361 43.620825 -1.420927 2.264282 0.087171 -0.045977 318944.000000 0 0 1
5.266418 33.866788 -27.048721 43.661514 1.416528 2.238914 0.092262 -0.053731 -115085.000000 0 0 1
4.012718 33.095143 -26.572431 42.631966 1.450137 2.243750 0.110325 -0.054401 -299214.000000 0 0 1
3.340218 32.565615 -27.672721 42.865555 1.468585 2.272566 0.092235 -0.056367 19034.000000 0 0 1
2.096718 31.989784 -27.301841 42.108586 1.505347 2.276235 0.072321 -0.055905 417721.000000 0 0 1
1.031518 32.110001 -28.440831 42.906841 1.538683 2.295416 0.067454 -0.041730 38207.200000 0 0 1
0.955318 31.038414 -29.337571 42.719888 1.540027 2.327795 0.076763 -0.043672 120290.000000 0 0 1
0.121418 31.390764 -30.425591 43.716260 1.566928 2.340578 0.077119 -0.039685 47801.500000 0 0 1
-0.194182 30.365404 -31.515181 43.764164 -1.564402 2.374763 0.064793 -0.035022 -913726.000000 0 0 1
0.887518 30.025364 -32.292621 44.103555 1.541246 2.392343 0.071201 -0.030044 -780589.000000 0 0 1
0.604418 29.247964 -33.416841 44.412768 1.550134 2.422517 0.085554 -0.029614 332549.000000 0 0 1
1.932418 29.008064 33.902350 44.660624 1.504278 0.708851 0.066643 -0.019795 588758.000000 0 0 1
2.346618 29.994894 32.982126 44.643263 1.492721 0.739519 0.059391 -0.022056 -568983.000000 0 0 1
3.442318 29.652574 32.184105 43.896939 1.455225 0.747818 0.032491 -0.016622 -569449.000000 0 0 1
3.172818 28.732914 30.978830 42.371394 1.460817 0.750825 0.032980 -0.016044 -240978.000000 0 0 1
2.853418 27.373224 31.208930 41.610488 1.466930 0.722696 0.051646 -0.023584 1371.090000 0 0 1
3.987718 26.539434 31.212700 41.164014 1.421656 0.710168 0.043798 -0.017739 -151685.000000 0 0 1
3.610618 25.054594 31.615380 40.500635 1.427672 0.675148 0.067693 -0.029467 -192821.000000 0 0 1
2.835218 24.424274 30.630540 39.278666 1.455232 0.676408 0.062063 -0.011661 40901.000000 0 0 1
2.786318 23.072564 30.876250 38.645175 1.450615 0.645220 0.053400 -0.012993 -412984.000000 0 0 1
1.854918 22.421664 29.856310 37.384100 1.488255 0.645770 0.046054 -0.004105 134258.000000 0 0 1
0.480718 22.433164 30.214790 37.635242 1.549371 0.638766 0.052451 -0.007759 154855.000000 0 0 1
-0.326582 21.767564 29.252620 36.464356 -1.555794 0.639783 0.061473 -0.004941 -49124.000000 0 0 1
-1.708582 21.385464 29.771580 36.696107 -1.491071 0.624423 0.064456 -0.007079 -528536.000000 0 0 1
-2.608182 22.443664 30.002110 37.558584 -1.455105 0.645485 0.073597 -0.009561 -91405.900000 0 0 1
-3.834882 21.913364 30.458070 37.717315 -1.397549 0.630835 0.055347 -0.008347 82180.100000 0 0 1
-4.838682 23.047864 30.812070 38.781446 -1.363861 0.652604 0.032629 -0.015444 291364.000000 0 0 1
-4.568882 23.516934 32.124013 40.073346 -1.378906 0.640779 0.042876 -0.010742 -162683.000000 0 0 1
-5.653382 24.329374 32.406363 40.915175 -1.342480 0.656657 0.031919 -0.022753 -301468.000000 0 0 1
-5.598482 24.991924 33.814806 42.419104 -1.350423 0.648220 0.063241 -0.016783 -292741.000000 0 0 1
-6.734482 25.772694 -34.012745 43.202452 -1.315208 2.477193 0.065267 -0.012941 -196843.000000 0 0 1
-6.767682 26.143364 -32.662391 42.380524 -1.317489 2.450725 0.062140 -0.010053 399745.000000 0 0 1
-8.224382 26.439584 -32.179491 42.452464 -1.269221 2.431057 0.086861 -0.007572 552292.000000 0 0 1
-8.699382 27.682504 -32.735291 43.744709 -1.266313 2.416331 0.091923 -0.016202 1370950.000000 0 0 1
-10.015482 28.089874 -32.215141 43.899501 -1.228297 2.394752 0.092740 -0.018560 1742460.000000 0 0 1
-10.182882 28.590644 -30.716581 43.181296 -1.228643 2.362199 0.088669 -0.019778 -261303.000000 0 0 1
-9.409282 29.734784 -30.438801 43.579956 -1.264326 2.344038 0.098225 -0.012591 58162.400000 0 0 1
-9.385882 29.972884 -29.020471 42.762791 -1.267323 2.316703 0.102719 -0.018444 -168794.000000 0 0 1
-8.703882 31.258954 -28.567441 43.231683 -1.299231 2.292679 0.083590 -0.016712 886371.000000 0 0 1
-7.265882 31.206224 -28.639261 42.974745 -1.342038 2.300194 0.067357 -0.015665 711546.000000 0 0 1
-6.714282 32.478110 -28.355351 43.634105 -1.366936 2.278175 0.070416 -0.012677 -19038.400000 0 0 1
-5.184482 32.554237 -28.547311 43.607409 -1.412866 2.284507 0.078072 -0.017856 -584552.000000 0 0 1
-4.668382 33.792558 -28.155411 44.231865 -1.433517 2.260802 0.083072 -0.020782 -182342.000000 0 0 1
-4.496982 -33.407777 -29.166811 44.575838 1.436992 2.284078 0.083051 -0.031784 -107731.000000 0 0 1
-3.317482 -33.738887 -30.129031 45.355008 1.472783 2.297344 0.082340 -0.038875 -317698.000000 0 0 1
-3.644782 33.533532 -31.220481 45.961948 -1.462531 2.317561 0.073039 -0.028977 465160.000000 0 0 1
-4.577182 34.017293 -32.202451 47.065111 -1.437045 2.324317 0.083467 -0.027211 415654.000000 0 0 1
-3.984782 -33.137717 -33.224511 47.094107 1.451122 2.353913 0.058810 -0.031517 -60694.400000 0 0 1
-3.586382 -31.873137 -32.756451 45.844783 1.458747 2.366717 0.070075 -0.033063 -42099.200000 0 0 1
-2.814982 -31.169977 -33.663641 45.964468 1.480730 2.392613 0.055737 -0.041532 -220068.000000 0 0 1
32.602468 18.237863 12.883890 39.516264 0.510032 1.238685 0.148618 -0.034111 719985.000000 0 0 1
33.960108 17.787563 12.837590 40.428827 0.482489 1.247667 0.133170 -0.044964 502521.000000 0 0 1
34.000318 16.400463 13.103090 39.958575 0.449438 1.236699 0.143350 -0.027016 -797977.000000 0 0 1
35.245368 16.073163 13.913890 41.160404 0.427862 1.225962 0.144942 -0.048202 173364.000000 0 0 1
36.514788 15.863863 13.313290 41.978989 0.409848 1.248082 0.120957 -0.025101 374452.000000 0 0 1
36.534688 14.662063 12.569690 41.325012 0.381643 1.261733 0.145143 -0.046771 -708674.000000 0 0 1
-35.655890 14.084763 12.447590 40.307140 -0.376205 1.256846 0.142644 -0.035267 329604.000000 0 0 1
-35.058463 13.435863 13.561990 39.919241 -0.365977 1.224160 0.123936 -0.036074 -256994.000000 0 0 1
-35.610149 12.201263 13.888390 40.122822 -0.330098 1.217335 0.124260 -0.035900 -169018.000000 0 0 1
-34.965412 11.552963 15.139290 39.815186 -0.319118 1.180742 0.141853 -0.038440 173289.000000 0 0 1
-35.356542 12.271563 16.260490 40.805390 -0.334071 1.160928 0.156468 -0.034058 -350273.000000 0 0 1
-34.552053 11.922263 17.315290 40.445073 -0.332260 1.128386 0.151395 -0.027626 -318131.000000 0 0 1
-34.648171 12.893163 18.521790 41.349560 -0.356240 1.106345 0.143007 -0.031853 669947.000000 0 0 1
-35.922201 12.910663 19.187490 42.722939 -0.345030 1.105022 0.164868 -0.045272 636108.000000 0 0 1
-35.867161 13.700863 20.386790 43.471693 -0.364884 1.082675 0.171722 -0.036848 -709252.000000 0 0 1
36.461518 13.574663 21.131790 44.274895 0.356402 1.073233 0.172809 -0.053076 -754136.000000 0 0 1
36.333758 12.235963 21.594790 44.002224 0.324836 1.057828 0.144877 -0.044787 152355.000000 0 0 1
35.262818 12.057363 22.510090 43.537920 0.329466 1.027427 0.145989 -0.051955 169225.000000 0 0 1
35.122558 10.550563 22.967590 43.271453 0.291817 1.011277 0.110145 -0.033757 791381.000000 0 0 1
36.359158 10.104063 23.581780 44.499222 0.271057 1.012270 0.102019 -0.023275 881285.000000 0 0 1
36.464768 10.350363 25.013240 45.414441 0.276571 0.987501 0.114066 -0.019491 -1049190.000000 0 0 1
-35.748606 10.497663 25.583110 45.195788 -0.285623 0.969089 0.111111 -0.022601 -617458.000000 0 0 1
-35.145193 11.663963 25.191900 44.786878 -0.320441 0.973409 0.100302 -0.030437 -893538.000000 0 0 1
-34.197005 11.462863 24.211210 43.439786 -0.323430 0.979604 0.110913 -0.039458 -695299.000000 0 0 1
-33.304334 12.709363 23.937100 42.938226 -0.364556 0.979452 0.113463 -0.043430 86503.000000 0 0 1
-32.474054 13.125963 25.011680 43.039972 -0.384120 0.950684 0.097037 -0.041017 -116123.000000 0 0 1
-33.129934 13.719563 26.150510 44.380943 -0.392614 0.940693 0.091976 -0.034841 -435028.000000 0 0 1
-32.212364 14.440463 27.143390 44.530068 -0.421431 0.915301 0.083561 -0.019665 -63039.500000 0 0 1
-31.599984 15.605763 26.627040 44.171236 -0.458718 0.923773 0.086182 -0.017734 -205307.000000 0 0 1
-31.331084 16.498163 27.640630 44.920269 -0.484681 0.907996 0.078084 -0.005963 -301095.000000 0 0 1
-30.726234 17.800363 27.195470 44.727485 -0.525076 0.917225 0.071544 -0.002426 -279437.000000 0 0 1
-31.570424 18.688363 26.506850 45.261017 -0.534485 0.945122 0.074921 -0.027984 226641.000000 0 0 1
-30.961414 19.968963 26.370790 45.307694 -0.572826 0.949564 0.080424 -0.025535 435049.000000 0 0 1
-31.950364 20.893463 25.585940 45.956532 -0.579137 0.980338 0.083817 -0.008995 296373.000000 0 0 1
-33.140624 21.224763 26.284100 47.324892 -0.569629 0.981956 0.064819 -0.010403 471986.000000 0 0 1
-34.017714 21.941263 25.418450 47.798760 -0.572849 1.010095 0.060827 -0.005514 -296743.000000 0 0 1
-33.972264 23.465963 25.635060 48.599613 -0.604483 1.015171 0.068606 -0.008034 -419702.000000 0 0 1
-34.694441 24.183563 24.665550 48.958536 -0.608740 1.042798 0.079315 -0.010649 15172.400000 0 0 1
-34.772499 25.578063 24.931110 49.849014 -0.634210 1.047045 0.085349 -0.008400 179927.000000 0 0 1
-35.684325 26.304563 23.913860 50.370366 -0.635224 1.076104 0.096176 -0.009948 116288.000000 0 0 1
-35.222163 26.175063 22.590990 49.356737 -0.639097 1.095380 0.101587 -0.019302 458955.000000 0 0 1
-36.197604 26.745863 21.704090 49.966741 -0.636349 1.121457 0.099743 -0.029509 554029.000000 0 0 1
-35.787922 26.638163 20.220590 48.982030 -0.639865 1.145252 0.120133 -0.043491 157534.000000 0 0 1
-36.001034 25.366863 19.698090 48.244864 -0.613816 1.150212 0.109917 -0.040503 -54970.100000 0 0 1
-35.275491 25.179063 18.517290 47.129985 -0.619917 1.167015 0.115323 -0.039600 -162397.000000 0 0 1
-35.432634 23.763363 17.930090 46.278041 -0.590764 1.172940 0.110682 -0.027443 37865.600000 0 0 1
-36.712184 23.486963 17.415490 46.933156 -0.569142 1.190635 0.110466 -0.030341 -367188.000000 0 0 1
-36.642904 22.350963 16.534190 45.996167 -0.547716 1.203098 0.109016 -0.026428 -660146.000000 0 0 1
35.740308 22.034363 15.750790 44.843841 0.552473 1.211905 0.085179 -0.019014 -787080.000000 0 0 1
34.660398 21.337363 16.313290 43.849169 0.551820 1.189599 0.112024 -0.035515 138432.000000 0 0 1
33.646488 21.334163 15.282490 42.670682 0.565094 1.204511 0.118002 -0.033311 -17788.200000 0 0 1
32.413348 20.518263 15.726290 41.460106 0.564345 1.181744 0.129509 -0.039131 766607.000000 0 0 1
31.368598 21.071463 16.540890 41.250412 0.591505 1.158202 0.109801 -0.039313 469366.000000 0 0 1
30.569568 22.093963 16.004090 40.972827 0.625828 1.169510 0.100485 -0.027226 -235999.000000 0 0 1
29.657908 22.734263 17.056090 41.077346 0.654009 1.142613 0.087219 -0.025800 22522.100000 0 0 1
30.394998 23.437463 18.006690 42.395889 0.656866 1.132136 0.042561 -0.021688 -342841.000000 0 0 1
29.531018 23.938663 18.990290 42.494372 0.681188 1.107511 0.037643 -0.008036 243518.000000 0 0 1
30.296558 24.777963 20.052790 43.976621 0.685529 1.097315 0.036043 -0.019450 881596.000000 0 0 1
31.019908 25.951063 19.548490 44.920327 0.696659 1.120557 0.041922 -0.021075 255382.000000 0 0 1
31.912298 26.400963 20.527590 46.225399 0.691166 1.110654 0.037559 -0.017253 -279085.000000 0 0 1
32.902688 27.495463 20.111790 47.361075 0.696110 1.132223 0.051290 -0.023934 -584147.000000 0 0 1
33.834628 27.961563 21.014390 48.664521 0.690643 1.124285 0.052643 -0.020957 60481.600000 0 0 1
33.294268 28.568063 22.230890 49.181856 0.709148 1.101774 0.035281 -0.010440 -181793.000000 0 0 1
34.280578 28.538763 23.459960 50.398301 0.694249 1.086607 0.030066 -0.011439 1026340.000000 0 0 1
35.462918 29.335963 23.233600 51.555964 0.691125 1.103305 0.063222 -0.013817 277408.000000 0 0 1
36.101778 29.580563 24.444820 52.686785 0.686438 1.088331 0.078166 -0.006399 -336583.000000 0 0 1
-36.327704 30.534263 24.244210 53.290008 -0.698966 1.098482 0.077104 -0.005820 174187.000000 0 0 1
-35.093847 29.887663 24.027960 51.982625 -0.705451 1.090287 0.093552 -0.011138 291887.000000 0 0 1
-33.977114 30.730063 24.252150 51.835777 -0.735260 1.083923 0.106147 -0.008918 2034300.000000 0 0 1
-32.467324 30.266563 23.996540 50.458159 -0.750332 1.075181 0.143073 -0.016419 1698840.000000 0 0 1
-32.030954 29.944363 22.679490 49.366042 -0.751743 1.093460 0.124519 -0.010331 251141.000000 0 0 1
-32.537244 28.735263 22.055390 48.691147 -0.723427 1.100708 0.122429 -0.011504 -122644.000000 0 0 1
-31.927714 27.498163 22.714090 47.869173 -0.710997 1.076396 0.105635 -0.006965 264910.000000 0 0 1
-30.532914 27.359063 22.368190 46.702388 -0.730629 1.071336 0.086004 -0.008065 883520.000000 0 0 1
-29.938454 26.341663 23.136460 46.103037 -0.721576 1.045069 0.082364 -0.004775 -108819.000000 0 0 1
-29.594564 26.709263 24.620300 46.854905 -0.734198 1.017543 0.095407 0.002420 -467981.000000 0 0 1
-30.767214 26.947663 25.380710 48.135002 -0.719315 1.015398 0.091069 -0.000628 204590.000000 0 0 1
-30.430524 27.307163 26.705960 48.835501 -0.731355 0.992193 0.108899 -0.011446 -79767.700000 0 0 1
-31.657374 27.492563 27.615750 50.206174 -0.715103 0.988376 0.110741 -0.013857 227384.000000 0 0 1
-32.312604 26.295763 28.098790 50.250507 -0.683095 0.977407 0.090014 -0.012426 430407.000000 0 0 1
-33.413244 26.670663 28.925400 51.618290 -0.673646 0.975962 0.085550 -0.002510 465672.000000 0 0 1
-34.216403 25.358063 29.262400 51.672832 -0.637786 0.968785 0.063977 -0.008705 40402.300000 0 0 1
-33.598704 24.593763 30.244680 51.463256 -0.631872 0.942590 0.062108 -0.004122 -261103.000000 0 0 1
-34.202772 23.348563 30.335890 51.334698 -0.598987 0.938569 0.030034 -0.017519 -165940.000000 0 0 1
-33.588344 22.485363 31.419840 51.195456 -0.589920 0.910029 0.052238 -0.024582 587171.000000 0 0 1
-32.297124 21.904463 31.171470 49.945673 -0.595957 0.896808 0.056264 -0.021000 582111.000000 0 0 1
-31.824154 21.031163 32.172725 49.901611 -0.583969 0.870135 0.060027 -0.020575 1059620.000000 0 0 1
-30.654694 21.697063 33.075795 50.044790 -0.615935 0.848747 0.060471 -0.027200 853462.000000 0 0 1
-31.090124 22.613063 -33.998321 51.320875 -0.628840 2.294902 0.076945 -0.030579 150679.000000 0 0 1
-31.289644 22.034763 -32.730611 50.357377 -0.613552 2.278337 0.069746 -0.022324 720220.000000 0 0 1
-30.010754 22.148763 -31.800191 49.014948 -0.635795 2.276784 0.079331 -0.018593 785662.000000 0 0 1
-29.771644 23.481563 -31.374921 49.215041 -0.667826 2.262054 0.057736 -0.013648 -627180.000000 0 0 1
-28.696454 23.659663 -30.529321 48.117622 -0.689491 2.258123 0.087964 -0.013130 -559432.000000 0 0 1
-28.911594 24.918863 -29.625781 48.316838 -0.711361 2.230846 0.048194 -0.007525 -866.096000 0 0 1
-28.730534 26.183563 -30.217281 49.235217 -0.739050 2.231577 0.051384 -0.019699 -18157.000000 0 0 1
-29.772454 26.585563 -31.079331 50.587706 -0.728911 2.232378 0.039290 -0.004925 -181727.000000 0 0 1
-29.364254 27.918863 -31.762161 51.483562 -0.760171 2.235642 0.061887 -0.010303 -160968.000000 0 0 1
-29.613624 29.031763 -30.957471 51.751087 -0.775477 2.212049 0.055014 -0.015435 49710.900000 0 0 1
-29.120954 30.231763 -31.521581 52.493804 -0.804111 2.214900 0.066631 -0.030223 -329595.000000 0 0 1
-29.345044 31.560363 -30.723961 52.925890 -0.821755 2.190150 0.059289 -0.014353 30679.700000 0 0 1
-28.455574 31.854963 -29.665051 52.004553 -0.841703 2.177828 0.032304 -0.009176 221109.000000 0 0 1
-28.897604 33.035063 -29.020201 52.617097 -0.852105 2.155000 0.028470 -0.011360 -376988.000000 0 0 1
-28.394994 33.153463 -27.530411 51.607667 -0.862557 2.133477 0.019229 -0.009545 735963.000000 0 0 1
-26.995934 33.451963 -27.484381 51.021617 -0.891798 2.139667 0.013318 -0.003487 592670.000000 0 0 1
-26.583374 -33.348438 -27.771121 50.892330 0.897802 2.148001 0.015957 0.010464 -855330.000000 0 0 1
-26.879944 -32.253138 -26.727791 49.771187 0.876015 2.137689 0.008970 0.016392 -176597.000000 0 0 1
-28.245824 -31.921038 -26.626481 50.256828 0.846406 2.129171 0.011523 0.000709 -216844.000000 0 0 1
-28.424654 -31.049938 -25.514811 49.224640 0.829511 2.115698 0.001866 0.001178 1214090.000000 0 0 1
-29.960644 -30.760938 -25.273471 49.825935 0.798577 2.102770 -0.008374 -0.002698 1179000.000000 0 0 1
-30.534684 -29.840938 -26.186421 50.085698 0.773908 2.120967 0.008444 -0.000247 879910.000000 0 0 1
-31.970784 -29.893738 -26.112711 50.967051 0.751837 2.108709 0.009381 -0.001370 957870.000000 0 0 1
-32.649274 -28.759038 -26.939341 51.174070 0.722132 2.125187 0.023206 -0.010443 -263409.000000 0 0 1
-34.048094 -28.735838 -26.837721 52.012348 0.700988 2.112956 0.033465 -0.012501 -269247.000000 0 0 1
-34.514775 -27.693038 -27.702811 52.207469 0.676174 2.130139 0.040682 -0.021609 393422.000000 0 0 1
-36.030942 -27.739638 -28.023651 53.413868 0.656106 2.123102 0.032305 -0.024349 309476.000000 0 0 1
36.694988 -27.639938 -26.956281 53.264711 -0.645568 2.101432 0.028626 -0.015998 -316008.000000 0 0 1
35.380008 -27.808838 -27.451501 52.713009 -0.666149 2.118552 0.033842 -0.015984 -669557.000000 0 0 1
34.310328 -27.370738 -26.528251 51.284540 -0.673362 2.114461 0.028975 -0.007917 -961321.000000 0 0 1
34.185168 -28.115238 -25.313091 50.988674 -0.688275 2.090295 0.026265 -0.003618 346722.000000 0 0 1
33.222148 -27.489438 -24.462211 49.576003 -0.691252 2.086823 0.036523 -0.004122 307937.000000 0 0 1
32.802728 -28.213438 -23.167011 49.078788 -0.710325 2.062396 0.032627 -0.005811 105608.000000 0 0 1
32.289208 -29.513038 -23.420411 49.619835 -0.740508 2.062351 0.050155 -0.012611 -86926.200000 0 0 1
31.809368 -30.216538 -22.278511 49.205763 -0.759724 2.040657 0.058989 -0.017976 115083.000000 0 0 1
32.738438 -30.469538 -21.016711 49.415587 -0.749518 2.010096 0.045908 -0.008779 -167967.000000 0 0 1
33.824338 -31.351838 -21.292811 50.797710 -0.747481 2.003326 0.027700 -0.009871 801594.000000 0 0 1
34.865748 -31.336038 -20.286911 51.079609 -0.732131 1.979219 0.012634 -0.005860 1716440.000000 0 0 1
35.875558 -30.103038 -20.429211 51.094043 -0.698130 1.982134 0.007054 -0.001693 251172.000000 0 0 1
35.207428 -28.901738 -20.012711 49.753211 -0.687355 1.984758 0.006163 0.005618 500594.000000 0 0 1
35.984418 -27.698038 -20.155911 49.682194 -0.656005 1.988537 -0.003775 0.008754 -30624.900000 0 0 1
35.120898 -26.546938 -19.626811 48.201962 -0.647249 1.990159 -0.001756 0.012735 287260.000000 0 0 1
34.073218 -26.272538 -20.558111 47.685075 -0.656845 2.016533 0.016364 0.006995 -100041.000000 0 0 1
33.047948 -25.628138 -19.837611 46.287138 -0.659612 2.013714 0.046452 0.005563 33923.600000 0 0 1
31.785098 -25.335638 -20.707711 45.617938 -0.672965 2.041976 0.053459 -0.006859 233583.000000 0 0 1
30.997998 -26.465038 -20.974611 45.838940 -0.706676 2.046059 0.073895 -0.011301 372575.000000 0 0 1
29.784558 -26.071838 -21.649111 45.117010 -0.719027 2.071273 0.069764 -0.022075 985684.000000 0 0 1
29.040768 -27.294338 -22.313311 45.675277 -0.754407 2.081190 0.083305 -0.026523 305385.000000 0 0 1
28.445718 -28.073438 -21.257211 45.267492 -0.778811 2.059624 0.083853 -0.024957 73562.700000 0 0 1
27.814218 -29.233738 -21.804711 45.865974 -0.810276 2.066216 0.080854 -0.024311 -334315.000000 0 0 1
27.183518 -30.144038 -20.786611 45.603617 -0.836995 2.044079 0.076307 -0.013404 -619285.000000 0 0 1
27.923318 -30.711138 -19.747911 45.965919 -0.832908 2.014869 0.080194 -0.021371 -454239.000000 0 0 1
28.702938 -31.845238 -20.117911 47.357240 -0.837249 2.009550 0.087316 -0.018804 168445.000000 0 0 1
29.534388 -32.373638 -18.932211 47.736371 -0.831228 1.978606 0.061808 -0.023709 -337862.000000 0 0 1
28.787058 -32.930538 -17.890411 47.256553 -0.852434 1.959059 0.057821 -0.024736 -360717.000000 0 0 1
28.416418 -31.970538 -16.939111 46.005886 -0.844186 1.947863 0.047830 -0.022967 71606.900000 0 0 1
27.791418 -32.667538 -15.699611 45.672845 -0.865876 1.921694 0.047056 -0.016146 -1049820.000000 0 0 1
26.569718 -33.261238 -15.886411 45.438287 -0.896776 1.927968 0.046928 -0.015582 -956346.000000 0 0 1
26.161518 -33.814038 -14.639711 45.189991 -0.912306 1.900708 0.056363 -0.019654 -1570770.000000 0 0 1
24.689418 -33.949638 -14.446311 44.394157 -0.942024 1.902242 0.064655 -0.017054 -1314630.000000 0 0 1
24.014718 -32.712238 -14.322611 43.034107 -0.937536 1.910089 0.065200 -0.012414 -469298.000000 0 0 1
22.640618 -32.957638 -14.385111 42.493940 -0.968875 1.916141 0.082955 -0.018797 -720099.000000 0 0 1
-0.106544 -6.956537 -29.064831 29.885936 1.555482 2.906640 0.097877 -0.034475 142890.000000 0 0 1
0.236756 -8.313237 -28.862861 30.037156 -1.542325 2.861050 0.093829 -0.026270 -159359.000000 0 0 1
0.026856 -9.077337 -30.018521 31.360969 -1.567838 2.847942 0.081135 -0.028468 -142884.000000 0 0 1
0.196856 -10.603137 -29.906031 31.730679 -1.552233 2.800817 0.099917 -0.021084 681818.000000 0 0 1
1.565156 -10.961537 -29.694971 31.692212 -1.428969 2.784680 0.040321 -0.014038 432060.000000 0 0 1
1.701656 -12.330137 -29.357331 31.887001 -1.433655 2.740584 0.043835 -0.015984 -561771.000000 0 0 1
3.062256 -12.678537 -28.786941 31.603967 -1.333804 2.716171 0.053945 -0.010997 -318641.000000 0 0 1
4.047456 -12.936137 -29.823641 32.759352 -1.267565 2.715011 0.058576 -0.021838 498149.000000 0 0 1
5.340756 -13.251737 -29.352231 32.644842 -1.187687 2.688593 0.069688 -0.020786 217071.000000 0 0 1
5.568556 -14.652737 -28.796091 32.786070 -1.207619 2.643097 0.080225 -0.021034 -1322400.000000 0 0 1
4.866356 -15.014437 -27.652691 31.840008 -1.257368 2.622942 0.084373 -0.017263 -195622.000000 0 0 1
5.460756 -16.134937 -27.006861 31.930027 -1.244454 2.578885 0.100951 -0.010674 45733.800000 0 0 1
5.171156 -17.603437 -27.545921 33.096822 -1.285076 2.554010 0.085157 -0.019765 -294019.000000 0 0 1
5.783356 -17.871037 -28.791971 34.377301 -1.257817 2.563541 0.091402 -0.037690 123671.000000 0 0 1
5.432956 -19.167337 -29.230121 35.373773 -1.294593 2.543342 0.088187 -0.030061 -186994.000000 0 0 1
5.917156 -19.530637 -30.645421 36.818479 -1.276619 2.554109 0.094649 -0.043470 -604238.000000 0 0 1
7.309256 -19.561337 -30.742281 37.163948 -1.213202 2.544915 0.090902 -0.035146 -466228.000000 0 0 1
7.701156 -20.316137 -31.860311 38.563359 -1.208466 2.543091 0.097959 -0.033104 -304243.000000 0 0 1
9.169556 -20.148537 -32.256241 39.121726 -1.143711 2.540131 0.084808 -0.033577 -263071.000000 0 0 1
9.425956 -18.852537 -32.829571 39.013428 -1.107162 2.570839 0.081723 -0.034483 -184515.000000 0 0 1
10.634756 -18.755137 -33.531781 39.865192 -1.054971 2.570164 0.069595 -0.027282 -387292.000000 0 0 1
10.830356 -17.374537 33.993598 39.682942 -1.013387 0.542094 0.061316 -0.019902 233806.000000 0 0 1
9.919456 -17.057837 32.933583 38.392529 -1.044077 0.539798 0.078352 -0.015101 86472.900000 0 0 1
9.893056 -15.727737 32.428545 37.374387 -1.009312 0.520305 0.072048 -0.010172 -640265.000000 0 0 1
8.765056 -15.367637 31.502080 36.129926 -1.052458 0.511705 0.079590 -0.020948 -549282.000000 0 0 1
8.886656 -16.061237 30.304440 35.430144 -1.065424 0.544610 0.075491 -0.014562 -455402.000000 0 0 1
8.044256 -15.541837 29.360210 34.180121 -1.093178 0.537512 0.078377 -0.016495 -640627.000000 0 0 1
8.082556 -16.466537 28.124470 33.577677 -1.114498 0.577932 0.061725 -0.015425 -674093.000000 0 0 1
7.374456 -17.650037 28.279470 34.141395 -1.175027 0.594722 0.060761 -0.019980 -148795.000000 0 0 1
7.634556 -18.583637 27.288480 33.886563 -1.180996 0.634633 0.044798 -0.020535 -231869.000000 0 0 1
7.105856 -19.928237 27.735340 34.883763 -1.228279 0.651659 0.045641 -0.023014 -590292.000000 0 0 1
7.710156 -20.412937 28.908630 36.219379 -1.209652 0.646572 0.057882 -0.021489 158044.000000 0 0 1
7.138856 -21.544937 29.491930 37.214534 -1.250834 0.655925 0.054760 -0.021744 -151903.000000 0 0 1
7.814056 -21.777937 30.881470 38.587604 -1.226298 0.643009 0.057806 -0.028866 -77669.900000 0 0 1
7.378256 -20.880537 31.873060 38.811435 -1.231135 0.607235 0.084250 -0.037946 65157.800000 0 0 1
7.474456 -19.466837 31.784990 38.014614 -1.204195 0.580615 0.077324 -0.031898 -393594.000000 0 0 1
6.695556 -18.720837 32.887793 38.430550 -1.227320 0.543755 0.083495 -0.033612 -9824.940000 0 0 1
5.327056 -19.032237 32.831871 38.321474 -1.297884 0.541864 0.080958 -0.038605 -595839.000000 0 0 1
4.506256 -18.007437 33.320506 38.142237 -1.325588 0.508275 0.080154 -0.030138 -374113.000000 0 0 1
3.008656 -18.308937 33.394658 38.203042 -1.407925 0.507142 0.075098 -0.028646 -261499.000000 0 0 1
2.646456 -19.326737 -33.796391 39.022078 -1.434710 2.618111 0.069318 -0.036358 -34122.300000 0 0 1
2.330256 -18.846037 -32.508961 37.648848 -1.447774 2.612922 0.071410 -0.044516 -382210.000000 0 0 1
1.759556 -19.903437 -31.569311 37.361267 -1.482621 2.577313 0.068749 -0.024868 -628140.000000 0 0 1
0.548056 -20.450037 -32.052721 38.024746 -1.544003 2.573528 0.043850 -0.013437 114162.000000 0 0 1
-0.124044 -21.318937 -31.149471 37.746550 1.564978 2.541400 0.044765 -0.015892 279339.000000 0 0 1
-0.735844 -20.631837 -29.885431 36.322901 1.535146 2.537066 0.050330 -0.016438 -796329.000000 0 0 1
-1.952744 -19.964837 -30.131131 36.197970 1.473297 2.554218 0.048017 -0.017985 -140615.000000 0 0 1
-2.251144 -18.894237 -29.231651 34.879067 1.452211 2.564561 0.066195 -0.017328 79227.100000 0 0 1
-1.839044 -17.479037 -29.737271 34.542787 1.465968 2.607797 0.060374 -0.019467 -246434.000000 0 0 1
-2.440944 -16.438837 -28.993471 33.418781 1.423387 2.621112 0.069285 -0.020668 -327932.000000 0 0 1
-2.165944 -15.184837 -29.528581 33.274731 1.429113 2.662509 0.074202 -0.022821 150680.000000 0 0 1
-3.234844 -14.085137 -29.230151 32.607622 1.345047 2.682423 0.091676 -0.022484 419411.000000 0 0 1
-3.293444 -13.745337 -27.831931 31.215340 1.335625 2.671686 0.087082 -0.025202 -203253.000000 0 0 1
-4.415144 -12.927637 -27.655281 30.845289 1.241689 2.682783 0.098713 -0.031990 -153106.000000 0 0 1
-4.692144 -12.465037 -26.165591 29.360373 1.210777 2.670752 0.096823 -0.025897 -316069.000000 0 0 1
-4.894444 -13.539137 -25.296181 29.106023 1.223911 2.624186 0.085954 -0.019010 139946.000000 0 0 1
-4.907744 -13.200437 -23.940311 27.775457 1.214846 2.609847 0.073533 -0.015675 -77892.000000 0 0 1
-6.054344 -12.317837 -23.359911 27.093720 1.113964 2.610372 0.079943 -0.021038 539554.000000 0 0 1
-7.300544 -13.037337 -23.381011 27.747825 1.060329 2.572936 0.080533 -0.020346 1175460.000000 0 0 1
-8.371244 -12.167537 -22.891311 27.242225 0.968171 2.568610 0.079389 -0.021067 -279425.000000 0 0 1
-9.716144 -12.743637 -23.178711 28.179006 0.919387 2.536681 0.079457 -0.024366 -1220570.000000 0 0 1
-10.134244 -13.811537 -22.366411 28.172998 0.937775 2.487985 0.075161 -0.021190 -467180.000000 0 0 1
-11.391644 -14.267437 -22.780311 29.193696 0.897009 2.465967 0.079788 -0.020686 -107775.000000 0 0 1
-12.056644 -15.373537 -21.957811 29.391389 0.905735 2.414459 0.082361 -0.020883 88626.700000 0 0 1
-11.253144 -16.533037 -22.141411 29.836499 0.973178 2.406982 0.093647 -0.020590 -188197.000000 0 0 1
-11.825344 -17.808237 -21.927811 30.623536 0.984616 2.368915 0.096993 -0.018797 696312.000000 0 0 1
-12.769544 -18.276637 -23.145711 32.137527 0.960956 2.374899 0.078466 -0.010775 1856540.000000 0 0 1
-14.003644 -17.587637 -23.431111 32.472203 0.898364 2.376870 0.079988 -0.011063 678523.000000 0 0 1
-14.621344 -18.042137 -24.614811 33.840676 0.889746 2.385283 0.057922 -0.014901 770356.000000 0 0 1
-15.988744 -17.372437 -24.963711 34.360273 0.826851 2.384052 0.072688 -0.015295 426847.000000 0 0 1
-17.135944 -17.736937 -24.227011 34.571485 0.802630 2.347287 0.081196 -0.014788 187210.000000 0 0 1
-18.341544 -17.281637 -24.801811 35.358126 0.755654 2.348220 0.068620 -0.019179 44117.200000 0 0 1
-18.982244 -15.969237 -24.409911 34.802096 0.699405 2.348145 0.084218 -0.014792 -682669.000000 0 0 1
-19.669144 -15.919437 -23.212611 34.338448 0.680423 2.313110 0.064551 -0.010714 10750.300000 0 0 1
-20.125244 -14.619337 -22.913411 33.819741 0.628237 2.315176 0.061382 -0.011637 304886.000000 0 0 1
-20.848444 -14.426737 -21.544911 33.271182 0.605324 2.275167 0.049000 -0.012322 746143.000000 0 0 1
-19.886944 -14.199737 -20.493011 31.891795 0.620076 2.268656 0.058849 -0.011505 746194.000000 0 0 1
-20.442244 -14.344737 -19.208011 31.505627 0.611880 2.226440 0.050464 -0.011713 -86201.900000 0 0 1
-21.080344 -13.087237 -18.569111 30.991427 0.555593 2.213259 0.049783 -0.016300 200508.000000 0 0 1
-22.356444 -12.767237 -19.100711 32.056982 0.518881 2.209103 0.049532 -0.019438 12030.000000 0 0 1
-22.978344 -11.813937 -18.317611 31.671884 0.474890 2.187508 0.055374 -0.012702 -237123.000000 0 0 1
-24.454644 -11.583537 -18.683811 32.883016 0.442366 2.175101 0.064921 -0.017429 -196217.000000 0 0 1
-24.603244 -10.796937 -19.847911 33.404087 0.413536 2.207037 0.060222 -0.015917 -1363390.000000 0 0 1
-25.878674 -10.361637 -20.008511 34.313405 0.380845 2.193349 0.061431 -0.017512 -1929340.000000 0 0 1
-26.040644 -9.508937 -21.260611 34.936351 0.350114 2.225032 0.067175 -0.013367 -478261.000000 0 0 1
-25.862664 -10.146737 -22.524511 35.765727 0.373878 2.252065 0.047737 -0.010488 203419.000000 0 0 1
-26.681194 -9.613337 -23.535911 36.854328 0.345825 2.263500 0.038163 -0.007717 -249524.000000 0 0 1
-26.531934 -10.202137 -24.957811 37.827496 0.367093 2.291322 0.036422 -0.003709 282012.000000 0 0 1
-25.363784 -9.815337 -25.691921 37.413062 0.369234 2.327750 0.022934 -0.008544 375322.000000 0 0 1
-24.577444 -10.963837 -25.962541 37.393984 0.419601 2.338239 0.038041 -0.008358 156592.000000 0 0 1
-23.479844 -10.644137 -27.021791 37.346726 0.425620 2.379711 0.049362 -0.015359 10283.600000 0 0 1
-23.924444 -10.695437 -28.357211 38.612211 0.420399 2.395594 0.053690 -0.010383 -467789.000000 0 0 1
-22.925844 -10.501337 -29.281251 38.642775 0.429534 2.430642 0.061071 -0.006137 -173862.000000 0 0 1
-23.538144 -10.952137 -30.640831 40.160354 0.435499 2.438679 0.051392 -0.012746 489413.000000 0 0 1
-24.518344 -10.127237 -31.263031 41.001064 0.391703 2.437954 0.042372 -0.017709 233039.000000 0 0 1
-24.092044 -9.173237 -32.256781 41.292551 0.363809 2.467345 0.041393 -0.018685 -354965.000000 0 0 1
-25.277714 -8.250037 -32.685461 42.135084 0.315476 2.458668 0.045757 -0.020209 9027.130000 0 0 1
-26.197554 -8.948137 -33.556971 43.502314 0.329140 2.451809 0.051704 -0.029515 1446200.000000 0 0 1
-27.271514 -9.748237 -33.027911 43.927286 0.343297 2.421701 0.055877 -0.026852 468554.000000 0 0 1
-28.268674 -8.943137 -32.134631 43.723359 0.306399 2.396394 0.050501 -0.012043 -1191890.000000 0 0 1
-29.589524 -9.386537 -32.115051 44.665686 0.307184 2.373172 0.056003 -0.015751 -397040.000000 0 0 1
-30.360904 -8.720637 -31.144751 44.360224 0.279703 2.349121 0.064898 -0.008799 -208651.000000 0 0 1
-31.822824 -9.152837 -31.030651 45.380258 0.280059 2.323743 0.063305 -0.013490 -313776.000000 0 0 1
-32.046344 -10.528537 -30.835791 45.701906 0.317431 2.311376 0.058574 -0.016667 144328.000000 0 0 1
-33.433494 -10.793737 -30.710101 46.662764 0.312279 2.289127 0.053765 -0.015648 199033.000000 0 0 1
-33.807844 -12.271637 -30.631651 47.242581 0.348193 2.276265 0.052122 -0.017488 -136539.000000 0 0 1
-35.164840 -12.575237 -30.875921 48.456425 0.343437 2.261642 0.032967 -0.011957 -99617.500000 0 0 1
-35.380648 -13.993037 -30.975531 49.061990 0.376621 2.254096 0.025669 -0.015181 1194650.000000 0 0 1
36.766938 -14.532637 -30.754791 50.088546 -0.376417 2.231925 0.031809 -0.023707 1117830.000000 0 0 1
36.387348 -14.406437 -29.442231 48.973763 -0.376983 2.215778 0.021371 -0.023545 -216998.000000 0 0 1
36.018268 -15.666037 -29.019191 48.834965 -0.410266 2.207104 0.023762 -0.019366 -165383.000000 0 0 1
36.134668 -15.809637 -27.494481 48.079157 -0.412427 2.179566 0.028788 -0.015250 892503.000000 0 0 1
-36.147354 -15.777737 -26.976461 47.783864 0.411557 2.170686 0.038341 -0.025487 971092.000000 0 0 1
-36.177484 -16.290637 -25.671451 47.256942 0.423101 2.145077 0.043186 -0.027621 648441.000000 0 0 1
-34.838156 -15.935737 -24.925811 45.704933 0.429009 2.147619 0.075779 -0.026658 925646.000000 0 0 1
-33.701634 -16.710537 -25.264561 45.313797 0.460312 2.162224 0.064490 -0.023859 -41091.400000 0 0 1
-32.555044 -16.189037 -24.632311 43.916586 0.461471 2.166255 0.077548 -0.008411 548135.000000 0 0 1
-31.255944 -16.999537 -24.974511 43.470041 0.498134 2.182817 0.068709 -0.012044 391425.000000 0 0 1
-30.984994 -18.117537 -24.229911 43.305930 0.529108 2.164586 0.064751 -0.020709 49613.200000 0 0 1
-31.590894 -19.339137 -24.718111 44.530572 0.549323 2.159258 0.059196 -0.025699 5481.830000 0 0 1
-31.340014 -20.635337 -23.879711 44.477570 0.582282 2.137547 0.052261 -0.026631 -959073.000000 0 0 1
-30.047694 -21.101237 -23.888911 43.804180 0.612240 2.147611 0.052267 -0.017298 -1095930.000000 0 0 1
-29.913494 -22.278137 -23.093311 43.868366 0.640134 2.125184 0.044440 -0.012198 -721257.000000 0 0 1
-28.530324 -22.888137 -23.188711 43.307765 0.676105 2.135825 0.042159 -0.016093 60006.700000 0 0 1
-27.334704 -22.299037 -22.671211 41.933482 0.684288 2.142002 0.035852 -0.017346 456742.000000 0 0 1
-27.279144 -22.106437 -21.265811 41.049738 0.681037 2.115366 0.043985 -0.020196 -382804.000000 0 0 1
-27.100624 -23.307437 -20.327011 41.120163 0.710290 2.087862 0.047519 -0.008063 -51417.600000 0 0 1
-27.293804 -22.841137 -18.976711 40.333421 0.696817 2.060649 0.051595 -0.010809 50307.800000 0 0 1
-27.354844 -23.968037 -18.067511 40.610211 0.719504 2.031860 0.055053 0.013381 47535.400000 0 0 1
-27.447294 -23.594937 -16.555011 39.801299 0.710067 1.999774 0.050976 0.009036 342874.000000 0 0 1
-28.634374 -22.881937 -16.232911 40.087627 0.674196 1.987705 0.046675 0.002775 34534.100000 0 0 1
-28.375984 -21.800137 -15.332411 38.929748 0.655086 1.975611 0.046617 0.002085 272456.000000 0 0 1
-29.623884 -21.034237 -14.801911 39.231495 0.617435 1.957672 0.041666 0.007561 196569.000000 0 0 1
-30.253194 -20.132137 -15.681211 39.578518 0.587163 1.978176 0.039797 0.013389 269414.000000 0 0 1
-31.448754 -19.669337 -15.061211 40.034323 0.558916 1.956496 0.043401 0.011216 633336.000000 0 0 1
-32.537084 -19.034937 -15.991911 40.947917 0.529334 1.972017 0.050007 -0.009418 638313.000000 0 0 1
-33.465744 -19.968937 -16.571311 42.347642 0.537988 1.972858 0.031610 0.007398 277763.000000 0 0 1
-34.196860 -19.340437 -17.620811 43.057760 0.514712 1.992414 0.035471 0.003435 105599.000000 0 0 1
-34.977575 -20.371337 -18.518311 44.512357 0.527386 1.999867 0.021582 0.008587 1194110.000000 0 0 1
-36.156284 -21.016137 -17.991811 45.526477 0.526525 1.977076 0.011669 0.009678 745030.000000 0 0 1
-35.936479 -21.799137 -16.790911 45.261104 0.545260 1.950859 0.024578 0.008033 -484667.000000 0 0 1
-36.781594 -23.061437 -16.943011 46.602373 0.560024 1.942889 0.016304 0.026532 -606778.000000 0 0 1
35.476588 -22.865937 -16.802911 45.428814 -0.572524 1.949669 0.024351 0.008257 -875082.000000 0 0 1
34.800448 -24.086037 -16.783611 45.529089 -0.605417 1.948336 0.027698 0.006459 -136151.000000 0 0 1
33.401578 -24.102437 -16.135811 44.237510 -0.625073 1.944165 0.038628 -0.003503 642891.000000 0 0 1
32.370158 -23.792437 -17.095211 43.659517 -0.633839 1.973120 0.033810 -0.009761 731033.000000 0 0 1
31.094018 -24.271437 -16.683511 42.828497 -0.662788 1.970931 0.055024 -0.013815 145508.000000 0 0 1
29.886048 -24.041037 -17.556111 42.182512 -0.677432 2.000052 0.069176 -0.020734 -308876.000000 0 0 1
29.473358 -22.690037 -17.654811 41.172915 -0.656084 2.013957 0.062315 -0.021829 -4192.600000 0 0 1
28.176918 -22.480537 -18.158711 40.361517 -0.673420 2.037451 0.072093 -0.035522 -402811.000000 0 0 1
34.873348 29.478263 -18.280211 49.186222 0.701756 1.951585 0.069487 -0.022810 -243469.000000 0 0 1
33.926098 29.674363 -19.252411 49.012276 0.718647 1.974479 0.061596 -0.029034 -363356.000000 0 0 1
34.425568 29.180763 -20.471011 49.555009 0.703127 1.996648 0.059988 -0.018727 139895.000000 0 0 1
33.377798 29.493063 -21.567111 49.487962 0.723688 2.021729 0.053701 -0.011067 357364.000000 0 0 1
32.292038 28.529363 -21.569211 48.186420 0.723613 2.034898 0.048578 -0.011187 1117480.000000 0 0 1
31.321348 28.762663 -22.596411 48.155118 0.742839 2.059229 0.063192 -0.000044 416414.000000 0 0 1
30.330508 29.940063 -22.463911 48.176492 0.778920 2.055881 0.046136 -0.005988 -875932.000000 0 0 1
30.860398 31.256863 -22.437111 49.323215 0.791781 2.043056 0.061269 -0.009991 -381401.000000 0 0 1
29.863818 32.220263 -22.711411 49.455042 0.823336 2.047928 0.053919 -0.008120 -568498.000000 0 0 1
30.350038 33.672563 -22.745111 50.717910 0.837248 2.035841 0.056146 -0.007714 199423.000000 0 0 1
30.967238 -34.009438 -21.553711 50.795415 -0.832184 2.009011 0.055950 -0.012571 -499276.000000 0 0 1
32.289618 33.726363 -21.412311 51.367052 0.807158 2.000772 0.045952 -0.015666 -1096370.000000 0 0 1
32.461308 33.296363 -19.924311 50.590142 0.798096 1.975599 0.048722 -0.029110 -192080.000000 0 0 1
32.468008 -33.717238 -19.017811 50.524260 -0.804271 1.956714 0.045100 -0.025645 24056.300000 0 0 1
32.774738 34.052963 -17.711611 50.472655 0.804523 1.929344 0.051711 -0.034224 -146331.000000 0 0 1
32.849118 -32.870638 -16.760711 49.401061 -0.785726 1.916946 0.052337 -0.027471 985775.000000 0 0 1
34.032988 -32.051038 -16.899611 49.710262 -0.755416 1.917673 0.055810 -0.015797 934438.000000 0 0 1
35.058408 -32.212238 -15.925811 50.203104 -0.743114 1.893601 0.056097 -0.016768 249039.000000 0 0 1
36.308378 -31.371038 -16.207811 50.647147 -0.712575 1.896541 0.056744 -0.004477 48961.800000 0 0 1
-36.524354 -31.850138 -17.287511 51.452092 0.717142 1.913455 0.044554 -0.012989 -380759.000000 0 0 1
-35.339742 -31.100638 -17.432511 50.199995 0.721681 1.925445 0.030506 0.000856 256345.000000 0 0 1
-34.442802 -31.691238 -18.575511 50.355643 0.743816 1.948607 0.045716 -0.008865 -1032480.000000 0 0 1
-33.945224 -32.925738 -18.126111 50.645220 0.770154 1.936818 0.049334 -0.018022 313441.000000 0 0 1
-32.873684 -33.466838 -18.915711 50.581740 0.794339 1.954075 0.063989 -0.018630 1354510.000000 0 0 1
-31.530584 -32.640938 -18.893111 49.158501 0.802699 1.965279 0.039243 -0.017497 -1199810.000000 0 0 1
-31.447464 -31.543638 -19.826211 48.754720 0.786925 1.989583 0.036222 -0.011765 943776.000000 0 0 1
-30.130724 -31.142338 -20.300311 47.851942 0.801907 2.008910 0.040818 -0.007695 908771.000000 0 0 1
-29.367164 -32.255038 -20.998611 48.412389 0.832228 2.019441 0.035675 -0.002841 -1094700.000000 0 0 1
-29.988254 -32.851438 -22.096011 49.666347 0.830930 2.031847 0.030298 0.005252 -550964.000000 0 0 1
-29.207794 -33.852638 -22.668411 50.129364 0.858922 2.040025 0.023858 0.003055 -240573.000000 0 0 1
-29.970254 33.521663 -23.752811 50.853849 -0.841275 2.056782 0.024341 0.002679 -1308470.000000 0 0 1
-31.077684 32.876863 -23.258611 50.869180 -0.813523 2.045668 0.026942 -0.018433 -773867.000000 0 0 1
-31.676094 32.058563 -24.266711 51.185932 -0.791399 2.064726 0.029634 -0.009595 324588.000000 0 0 1
-32.495214 32.733863 -25.414191 52.662375 -0.789057 2.074403 0.043451 -0.023651 -537345.000000 0 0 1
-31.733354 33.386463 -26.371021 53.076288 -0.810778 2.090763 0.035654 -0.015275 -546678.000000 0 0 1
-32.602894 -33.902938 -27.053051 54.260717 0.804944 2.092751 0.034772 -0.016428 508039.000000 0 0 1
-31.948534 -33.060738 -28.245571 53.958628 0.802505 2.121711 0.033080 -0.017023 149038.000000 0 0 1
-31.848984 -33.717338 -29.517911 54.977484 0.813886 2.137565 0.041705 -0.021080 38099.200000 0 0 1
-32.988634 -33.576138 -30.348951 56.005945 0.794224 2.143478 0.056856 -0.019689 -44820.600000 0 0 1
-32.929614 33.871163 -31.724341 56.903857 -0.799492 2.162177 0.068776 -0.023977 3558.010000 0 0 1
-32.002224 -33.821738 -32.681531 56.887035 0.813033 2.182788 0.073430 -0.036929 165503.000000 0 0 1
-32.354734 33.809263 -33.957791 57.818912 -0.807378 2.198531 0.075833 -0.047297 175394.000000 0 0 1
-31.261884 -33.893638 33.130935 56.778014 0.825768 0.947744 0.087992 -0.048875 910861.000000 0 0 1
-29.907594 33.851363 33.085436 55.991294 -0.847174 0.938618 0.088877 -0.052119 452224.000000 0 0 1
-29.793014 32.494563 32.775285 54.933956 -0.828743 0.931500 0.100594 -0.052972 -68391.500000 0 0 1
-28.346734 31.929263 32.894994 53.898940 -0.844764 0.914346 0.096913 -0.045050 -47883.800000 0 0 1
-27.949754 31.784363 -33.867861 54.207624 -0.849505 2.245647 0.089459 -0.051099 -95133.400000 0 0 1
-26.596234 31.386263 -33.817891 53.255111 -0.867823 2.258827 0.088865 -0.046313 -285647.000000 0 0 1
-26.143194 29.967863 33.914988 52.266297 -0.853455 0.864674 0.081374 -0.033445 -804159.000000 0 0 1
-26.336744 29.017363 -33.189421 51.353375 -0.833787 2.273515 0.074052 -0.028668 168649.000000 0 0 1
-26.011674 27.718563 -33.596481 50.731148 -0.817155 2.294608 0.076536 -0.031047 -597400.000000 0 0 1
-26.012594 26.653763 -32.397781 49.362884 -0.797572 2.286725 0.087294 -0.039444 317443.000000 0 0 1
-24.877444 26.665363 -31.484501 48.178860 -0.820072 2.282985 0.071055 -0.033237 715231.000000 0 0 1
-24.866344 27.761863 -30.647761 48.252889 -0.840361 2.258997 0.051612 -0.033241 -129416.000000 0 0 1
-23.684344 27.828363 -29.656961 47.062737 -0.865672 2.252553 0.061305 -0.023873 -740714.000000 0 0 1
-22.473744 27.964663 -30.354681 46.994661 -0.893835 2.273021 0.052752 -0.025401 -1078280.000000 0 0 1
-21.382244 27.849163 -29.510301 45.865391 -0.916008 2.269742 0.026666 -0.025459 -423631.000000 0 0 1
-20.973144 29.062263 -28.657731 45.888489 -0.945679 2.245298 0.023066 -0.016290 -772658.000000 0 0 1
-20.467344 30.127563 -29.457881 46.843878 -0.974060 2.250873 0.018486 -0.011726 67131.000000 0 0 1
-20.208644 31.253763 -28.575051 46.922495 -0.996816 2.225575 0.018786 -0.014328 -26980.900000 0 0 1
-19.722944 32.529263 -29.361071 48.054344 -1.025747 2.228116 0.019688 -0.002797 838016.000000 0 0 1
-18.448744 32.312663 -29.997521 47.794514 -1.052015 2.249308 0.025320 -0.008170 399948.000000 0 0 1
-18.204044 33.291363 -30.933971 48.955210 -1.070406 2.254777 0.024236 0.003919 418322.000000 0 0 1
-16.721944 33.462763 -31.414331 48.849156 -1.107374 2.269321 0.029635 0.004796 -400065.000000 0 0 1
-15.888644 -34.037238 -30.494881 48.383059 1.134058 2.252710 0.042014 -0.005982 -999007.000000 0 0 1
-14.568744 -33.928738 -30.902831 48.149689 1.165211 2.267649 0.071411 -0.000927 -129981.000000 0 0 1
-13.790644 32.844263 -30.736481 47.049535 -1.173270 2.282704 0.075423 -0.006745 -1132240.000000 0 0 1
-13.755844 32.458263 -29.373301 45.886304 -1.169942 2.265467 0.093081 -0.024072 -45790.000000 0 0 1
-13.443344 31.134163 -29.199371 44.751121 -1.163191 2.281653 0.083775 -0.022962 -124844.000000 0 0 1
-13.181144 30.663063 -27.757031 43.409892 -1.164808 2.264536 0.077889 -0.035710 -465250.000000 0 0 1
-12.011544 31.123663 -27.169431 43.024848 -1.202478 2.254260 0.084484 -0.030058 -717604.000000 0 0 1
-11.948644 30.784263 -25.795441 41.902813 -1.200555 2.233946 0.063256 -0.031432 504559.000000 0 0 1
-10.614344 31.002163 -25.012031 41.223781 -1.240931 2.222747 0.070312 -0.034939 874286.000000 0 0 1
-9.536644 30.132463 -25.368131 40.527213 -1.264280 2.247149 0.095435 -0.024668 -159340.000000 0 0 1
-8.325644 30.792563 -25.075781 40.574537 -1.306732 2.237015 0.103453 -0.034344 67444.800000 0 0 1
-7.083144 29.950663 -25.429781 39.923513 -1.338569 2.261348 0.086695 -0.031657 -198378.000000 0 0 1
-6.835844 28.746563 -24.739811 38.537668 -1.337335 2.267854 0.081830 -0.045731 -353646.000000 0 0 1
-5.588744 28.210963 -25.132661 38.193496 -1.375223 2.289003 0.072882 -0.051341 -19793.600000 0 0 1
-5.126744 26.989963 -24.274211 36.660318 -1.383083 2.294465 0.083786 -0.042904 -727568.000000 0 0 1
-5.951344 25.944763 -24.456511 36.147893 -1.345312 2.313888 0.094362 -0.047780 -911061.000000 0 0 1
-5.290544 24.776463 -24.059111 34.938572 -1.360425 2.330369 0.097079 -0.056630 -458552.000000 0 0 1
-6.127144 23.507263 -23.881111 34.065243 -1.315820 2.347652 0.080607 -0.046745 -325942.000000 0 0 1
-6.225144 22.894763 -25.135211 34.564453 -1.305312 2.385028 0.079637 -0.043525 351713.000000 0 0 1
-7.245044 21.909463 -25.045161 34.055474 -1.251435 2.397086 0.064904 -0.045611 -189498.000000 0 0 1
-7.204744 20.909863 -26.254451 34.328223 -1.238974 2.441537 0.060123 -0.028726 14555.300000 0 0 1
-6.021044 20.155263 -26.478281 33.816963 -1.280502 2.470252 0.081434 -0.039259 -299267.000000 0 0 1
-6.002744 18.941663 -25.754271 32.528480 -1.263902 2.484457 0.082067 -0.039440 -199957.000000 0 0 1
-4.703944 18.128763 -26.010971 32.052297 -1.316921 2.517539 0.104422 -0.052046 353702.000000 0 0 1
-4.574444 17.565463 -27.307641 32.789911 -1.316032 2.554954 0.081284 -0.044291 -450403.000000 0 0 1
-3.427044 16.786863 -27.464681 32.370544 -1.369413 2.583840 0.096625 -0.046662 -471157.000000 0 0 1
-3.049844 16.464063 -28.936641 33.431962 -1.387630 2.617020 0.087926 -0.037921 -266523.000000 0 0 1
-2.351444 17.515763 -29.554381 34.435341 -1.437347 2.602661 0.091829 -0.039434 35073.200000 0 0 1
-2.273544 17.342763 -30.947251 35.548175 -1.440445 2.627160 0.087247 -0.035794 -73992.900000 0 0 1
-1.450544 18.479463 -31.652191 36.680456 -1.492462 2.611810 0.094112 -0.026647 489609.000000 0 0 1
-0.089544 18.359263 -31.221631 36.219619 -1.565919 2.610016 0.117838 -0.035023 817335.000000 0 0 1
0.751056 19.491663 -31.570941 37.110825 1.532283 2.588151 0.118394 -0.022852 681946.000000 0 0 1
0.497356 20.768063 -30.695691 37.064609 1.546853 2.546626 0.103516 -0.028020 -484259.000000 0 0 1
1.215456 20.868263 -29.516201 36.168603 1.512618 2.525379 0.128787 -0.057848 -491462.000000 0 0 1
1.021156 22.106863 -28.806491 36.325887 1.524637 2.486517 0.117791 -0.062620 334712.000000 0 0 1
2.287356 22.346963 -27.943291 35.853121 1.468795 2.464476 0.130397 -0.059734 69643.300000 0 0 1
3.472156 22.455963 -28.710851 36.614739 1.417390 2.472095 0.111468 -0.061240 166557.000000 0 0 1
4.631056 22.468463 -27.869381 36.096827 1.367529 2.452893 0.104963 -0.066140 358615.000000 0 0 1
5.044956 23.860763 -27.326311 36.626696 1.362432 2.412946 0.114912 -0.067310 -853231.000000 0 0 1
5.646156 24.587063 -28.327361 37.932073 1.345071 2.414021 0.097739 -0.067197 -64756.400000 0 0 1
6.121856 25.842063 -27.870341 38.497341 1.338189 2.380315 0.097125 -0.065135 12445.400000 0 0 1
6.900256 26.628863 -28.946031 39.932225 1.317246 2.381655 0.096589 -0.056526 492225.000000 0 0 1
8.224456 26.138363 -29.161661 40.015724 1.265953 2.387298 0.077480 -0.053050 243466.000000 0 0 1
8.970356 26.971163 -30.023981 41.344291 1.249714 2.383566 0.083411 -0.045029 8607.610000 0 0 1
10.427456 26.994263 -29.510751 41.331665 1.202170 2.365989 0.090118 -0.042014 -169603.000000 0 0 1
11.206956 27.975963 -30.136471 42.619916 1.189779 2.356183 0.087589 -0.029138 282268.000000 0 0 1
12.503756 28.164763 -29.577831 42.713533 1.152985 2.335703 0.093653 -0.033014 420109.000000 0 0 1
13.375456 29.132563 -30.418901 44.191839 1.140381 2.329991 0.105711 -0.032967 -306312.000000 0 0 1
12.977656 30.504163 -30.419581 44.991937 1.168554 2.313269 0.112253 -0.030303 497416.000000 0 0 1
13.840556 31.342863 -31.216851 46.351136 1.154962 2.309711 0.145836 -0.042096 303265.000000 0 0 1
13.382856 32.832363 -31.425491 47.377488 1.183745 2.296016 0.142272 -0.050053 -114985.000000 0 0 1
12.271656 32.918263 -32.290451 47.716651 1.213963 2.314084 0.112868 -0.048120 -228579.000000 0 0 1
11.591956 -34.048638 -31.936481 48.100125 -1.242652 2.296896 0.102956 -0.043034 377767.000000 0 0 1
10.295956 -33.779338 -32.789871 48.189481 -1.274941 2.319154 0.064897 -0.036531 493549.000000 0 0 1
10.564856 -33.499238 33.952989 48.853051 -1.265293 0.802373 0.054632 -0.021786 695063.000000 0 0 1
9.340756 -33.123638 33.290632 47.882056 -1.295937 0.802010 0.050091 -0.024755 855341.000000 0 0 1
9.499756 -32.311638 31.970430 46.437008 -1.284849 0.811421 0.059684 -0.022583 -59717.200000 0 0 1
9.621556 -30.890238 32.073600 45.557623 -1.268845 0.789750 0.044661 -0.024314 -117080.000000 0 0 1
9.837656 -30.354938 30.816260 44.360384 -1.257390 0.802822 0.070200 -0.031156 -660770.000000 0 0 1
9.212556 -28.987138 30.648670 43.179467 -1.263076 0.781586 0.062636 -0.043056 636403.000000 0 0 1
7.779356 -28.927338 30.570820 42.800518 -1.308084 0.775226 0.043912 -0.033241 540822.000000 0 0 1
7.206956 -28.713438 31.855520 43.487652 -1.324881 0.748782 0.041372 -0.026740 384842.000000 0 0 1
5.651656 -28.580838 31.779490 43.113125 -1.375572 0.742000 0.041883 -0.027204 1225720.000000 0 0 1
4.747856 -29.631438 31.329830 43.383436 -1.411916 0.763875 0.048548 -0.036724 571668.000000 0 0 1
4.867356 -30.116038 30.005350 42.790045 -1.410562 0.793685 0.052521 -0.031141 -585624.000000 0 0 1
4.329156 -29.247338 28.909370 41.350938 -1.423845 0.796627 0.041868 -0.032339 240646.000000 0 0 1
2.913556 -29.091438 28.818620 41.052569 -1.470977 0.792604 0.055756 -0.034295 601450.000000 0 0 1
2.561656 -28.263438 27.740470 39.685233 -1.480408 0.796781 0.062569 -0.038586 68957.000000 0 0 1
1.129456 -28.558838 27.207630 39.460588 -1.531269 0.810013 0.058622 -0.035099 314064.000000 0 0 1
0.917856 -29.782738 26.501700 39.877237 -1.539988 0.843862 0.068560 -0.033810 76094.600000 0 0 1
0.553756 -30.854438 27.318380 41.214037 -1.552851 0.846189 0.091854 -0.039709 -584916.000000 0 0 1
0.976056 -32.252838 26.777670 41.931395 -1.540543 0.878110 0.083528 -0.037557 872097.000000 0 0 1
2.373456 -32.584238 26.804360 42.259195 -1.498084 0.883713 0.065261 -0.030220 1155670.000000 0 0 1
3.127056 -32.049438 25.683280 41.189511 -1.473534 0.897535 0.065222 -0.030774 -113694.000000 0 0 1
4.650156 -32.023738 25.857740 41.421812 -1.426595 0.896620 0.077808 -0.016247 -106038.000000 0 0 1
5.327656 -31.780438 24.627550 40.557322 -1.404701 0.918229 0.089542 -0.039374 94770.900000 0 0 1
6.704656 -31.567238 24.872060 40.743862 -1.361513 0.914169 0.072633 -0.040112 -201187.000000 0 0 1
7.447456 -31.237538 23.560540 39.828977 -1.336752 0.937825 0.071980 -0.040383 -666747.000000 0 0 1
8.792056 -30.944538 23.802860 40.018006 -1.293968 0.933775 0.065597 -0.034454 -539603.000000 0 0 1
9.446156 -30.839438 22.578790 39.371342 -1.273569 0.960045 0.060517 -0.039633 121586.000000 0 0 1
10.672456 -29.884338 22.588690 38.951558 -1.227788 0.952169 0.059472 -0.031896 455691.000000 0 0 1
11.854056 -30.318238 23.257680 40.007923 -1.198083 0.950438 0.068295 -0.029575 -108739.000000 0 0 1
12.759856 -29.259938 23.275460 39.505758 -1.159573 0.940770 0.079572 -0.021357 33122.500000 0 0 1
14.024856 -29.633938 24.119250 40.701414 -1.128760 0.936526 0.102154 -0.023194 263706.000000 0 0 1
13.710856 -29.691938 25.483100 41.460670 -1.138197 0.908876 0.078533 -0.022289 619501.000000 0 0 1
14.886856 -29.462338 26.260850 42.181514 -1.102930 0.898777 0.091013 -0.014171 452430.000000 0 0 1
-10.488044 -14.070237 26.096530 31.448363 0.930242 0.592008 0.094716 -0.032653 1324690.000000 0 0 1
-9.081944 -14.232437 25.778640 30.815292 1.002821 0.579834 0.083433 -0.026719 925615.000000 0 0 1
-8.381444 -14.813037 26.881650 31.816627 1.055892 0.564431 0.104179 -0.036129 1061210.000000 0 0 1
-6.836144 -14.963637 26.597350 31.273988 1.142260 0.553933 0.092739 -0.024979 806361.000000 0 0 1
-6.543444 -15.830537 25.551750 30.762225 1.178840 0.590574 0.093047 -0.018942 -61955.700000 0 0 1
-6.821044 -15.454137 24.190870 29.505172 1.155139 0.609585 0.104675 -0.027717 -563650.000000 0 0 1
-6.344144 -16.595437 23.267310 29.274979 1.205656 0.652143 0.105605 -0.028916 -174840.000000 0 0 1
-7.123144 -17.759037 23.042290 29.951122 1.189342 0.693005 0.112820 -0.039306 -261914.000000 0 0 1
-7.320044 -18.549437 24.224570 31.376655 1.194933 0.688725 0.107651 -0.035330 -229067.000000 0 0 1
-8.188944 -19.829037 24.011290 32.199248 1.179153 0.729197 0.089512 -0.036510 543829.000000 0 0 1
-9.573444 -19.526637 23.863920 32.286639 1.114958 0.739023 0.063785 -0.032981 -393339.000000 0 0 1
-10.220244 -20.676337 23.512230 32.936139 1.111722 0.775782 0.050212 -0.024137 240759.000000 0 0 1
-11.767544 -20.517737 23.711680 33.491736 1.050067 0.784154 0.036568 -0.018800 481099.000000 0 0 1
-12.040844 -20.419937 25.126730 34.544295 1.038014 0.756304 0.046896 -0.023856 -403305.000000 0 0 1
-13.386244 -20.633637 25.439530 35.385141 0.995294 0.768531 0.047042 -0.018541 -605435.000000 0 0 1
-13.671344 -20.755937 26.910600 36.631884 0.988349 0.745686 0.049662 -0.017158 -242763.000000 0 0 1
-13.222644 -21.978437 27.472380 37.584860 1.029187 0.751094 0.056885 -0.016456 63592.300000 0 0 1
-12.191644 -21.796537 28.409900 37.826547 1.060812 0.721134 0.073280 -0.026383 -76405.600000 0 0 1
-11.781544 -23.110937 29.129280 39.005578 1.099354 0.727562 0.081683 -0.026387 -121762.000000 0 0 1
-12.894644 -23.689237 29.778180 40.177006 1.072321 0.735978 0.079985 -0.015700 241940.000000 0 0 1
-12.545744 -24.943137 30.354120 41.242313 1.104773 0.743662 0.072433 -0.011497 81144.200000 0 0 1
-13.797044 -25.404587 31.110970 42.469329 1.073272 0.748734 0.073158 -0.031053 250031.000000 0 0 1
-13.816244 -24.849637 32.415549 43.117988 1.063363 0.720028 0.103992 -0.043117 40400.800000 0 0 1
-14.972444 -25.283047 33.114135 44.271351 1.036137 0.725781 0.095647 -0.045252 -6524.760000 0 0 1
-14.905144 -24.845437 -33.458281 44.259639 1.030440 2.427908 0.093672 -0.045903 78695.300000 0 0 1
-15.029644 -23.431137 -33.118511 43.263659 1.000463 2.442621 0.099221 -0.049908 505087.000000 0 0 1
-16.263844 -22.844637 -33.566711 43.739160 0.952107 2.445618 0.084794 -0.046732 101748.000000 0 0 1
-16.433644 -21.357937 -33.247471 42.797435 0.914969 2.460455 0.083465 -0.042908 -82604.000000 0 0 1
-16.766844 -21.052937 -31.948021 41.773547 0.898246 2.441513 0.079224 -0.039005 105633.000000 0 0 1
-16.877844 -19.674237 -31.793861 41.021785 0.861754 2.457588 0.061830 -0.037616 -343398.000000 0 0 1
-16.793944 -19.222737 -30.369571 39.671917 0.852731 2.442643 0.060690 -0.028262 -56965.300000 0 0 1
-17.946144 -19.583337 -29.646761 39.805799 0.828995 2.411009 0.069137 -0.027834 27215.300000 0 0 1
-17.789244 -19.277237 -28.251361 38.551374 0.825521 2.393259 0.072319 -0.025967 355344.000000 0 0 1
-16.844244 -20.189237 -27.393291 37.970070 0.875477 2.376682 0.077259 -0.023414 496010.000000 0 0 1
-15.471144 -20.108537 -27.725251 37.581899 0.915006 2.400496 0.078263 -0.026345 -107754.000000 0 0 1
-14.783044 -21.180237 -27.110251 37.444713 0.961438 2.380391 0.072972 -0.024253 1369320.000000 0 0 1
-13.236844 -21.247037 -27.472071 37.166723 1.013639 2.402615 0.082609 -0.026060 960348.000000 0 0 1
-12.446644 -20.316737 -26.750361 35.822766 1.021142 2.413946 0.084064 -0.028769 715438.000000 0 0 1
-11.047544 -20.460337 -27.041451 35.663899 1.075702 2.431391 0.079913 -0.037775 1009700.000000 0 0 1
-10.304144 -21.485637 -26.123631 35.358904 1.123615 2.402104 0.087253 -0.028728 -517800.000000 0 0 1
-10.523944 -22.828737 -26.439391 36.482133 1.138836 2.381427 0.083768 -0.034774 155168.000000 0 0 1
-9.925744 -23.622237 -25.438911 36.106352 1.173010 2.352592 0.102290 -0.033236 15529.100000 0 0 1
-10.011844 -25.147887 -25.751231 37.360128 1.191913 2.331278 0.100458 -0.034711 -175368.000000 0 0 1
-9.218444 -25.556367 -26.845501 38.194090 1.224612 2.350221 0.099020 -0.037485 101673.000000 0 0 1
-9.478844 -26.923107 -27.275031 39.479482 1.232278 2.333482 0.097687 -0.036423 41610.000000 0 0 1
-9.221344 -28.134977 -26.304491 39.604752 1.254076 2.297186 0.111465 -0.034663 -732214.000000 0 0 1
-10.293544 -28.212547 -25.447881 39.363683 1.220948 2.273759 0.095642 -0.033198 -614997.000000 0 0 1
-10.084344 -29.262987 -24.515811 39.484698 1.238931 2.240679 0.114482 -0.035080 89369.000000 0 0 1
-11.181744 -29.527357 -23.428411 39.316494 1.208794 2.209173 0.110660 -0.028948 191684.000000 0 0 1
-11.382144 -28.417397 -22.551311 38.021879 1.189829 2.205718 0.112241 -0.031910 695985.000000 0 0 1
-12.318244 -27.390237 -22.993311 37.824021 1.148166 2.224212 0.088405 -0.026275 222202.000000 0 0 1
-12.266844 -26.227127 -21.953011 36.335552 1.133308 2.219526 0.094653 -0.020237 -114002.000000 0 0 1
-12.897144 -26.429887 -20.690211 35.957754 1.116814 2.183894 0.077583 -0.020421 356707.000000 0 0 1
-12.635644 -25.256357 -19.847911 34.517860 1.106912 2.183405 0.072363 -0.015514 -181606.000000 0 0 1
-13.023344 -25.511417 -18.406911 34.047823 1.098791 2.141969 0.087139 -0.016868 -677836.000000 0 0 1
-14.401744 -25.710727 -18.436211 34.761266 1.060197 2.129829 0.099770 -0.018676 -693639.000000 0 0 1
-14.855144 -26.118907 -17.169711 34.607392 1.053671 2.089930 0.091771 -0.019773 108737.000000 0 0 1
-16.384144 -26.309667 -17.022011 35.360820 1.013822 2.073025 0.089712 -0.022016 -649130.000000 0 0 1
-17.126744 -25.110307 -16.909011 34.781713 0.972212 2.078471 0.084303 -0.017469 1077040.000000 0 0 1
-18.544044 -25.194677 -16.635811 35.431674 0.936296 2.059541 0.093735 -0.016290 1829790.000000 0 0 1
-19.417244 -25.958927 -17.758411 36.962906 0.928577 2.071951 0.089240 -0.009925 -708277.000000 0 0 1
-19.184144 -27.336687 -18.079211 37.976094 0.958882 2.066975 0.091911 -0.010035 -261187.000000 0 0 1
-19.489444 -28.290957 -17.082711 38.367117 0.967564 2.032243 0.089942 -0.017252 -232984.000000 0 0 1
-20.961844 -28.648357 -16.746211 39.250004 0.939114 2.011587 0.086910 -0.011421 -228291.000000 0 0 1
-21.529044 -29.326277 -17.772911 40.489587 0.937535 2.025226 0.081983 -0.008223 -829493.000000 0 0 1
-22.715644 -29.872797 -17.266711 41.310093 0.920665 2.002015 0.076486 -0.004669 -453507.000000 0 0 1
-23.414144 -30.849677 -18.176111 42.781956 0.921576 2.009598 0.058822 -0.012329 -381073.000000 0 0 1
-22.829944 -32.135917 -18.174511 43.407791 0.953112 2.002801 0.055785 -0.016665 -71043.700000 0 0 1
-23.126944 -32.847867 -19.323811 44.578555 0.957349 2.019145 0.040880 0.003029 -147886.000000 0 0 1
-22.556344 33.864897 -19.398911 45.077019 -0.983208 2.015677 0.034561 -0.007558 37541.700000 0 0 1
-23.210944 32.891653 -18.657911 44.370332 -0.956269 2.004797 0.034425 -0.004503 11301.300000 0 0 1
-22.288944 31.827214 -18.546411 43.055057 -0.959862 2.016131 0.026879 -0.009128 106865.000000 0 0 1
-22.933644 30.484134 -18.160411 42.249674 -0.925816 2.015107 0.043375 -0.017316 -12842.500000 0 0 1
-23.595744 30.465144 -16.913811 42.082789 -0.911789 1.984406 0.036122 -0.022711 -280422.000000 0 0 1
-24.287444 29.282224 -16.672611 41.536785 -0.878368 1.983835 0.049780 -0.020132 -330835.000000 0 0 1
-23.493144 27.985944 -16.310811 40.014790 -0.872452 1.990642 0.060724 -0.029480 -318868.000000 0 0 1
-22.778244 27.513914 -17.396011 39.730153 -0.879285 2.024007 0.052945 -0.032187 -346494.000000 0 0 1
-22.003644 26.397604 -17.019411 38.349109 -0.875932 2.030633 0.070392 -0.030490 42662.300000 0 0 1
-21.656344 25.638474 -18.309911 38.230634 -0.869398 2.070235 0.062035 -0.034078 -543680.000000 0 0 1
-21.188344 24.332034 -18.015811 36.953528 -0.854350 2.080050 0.078330 -0.037623 243811.000000 0 0 1
-20.542444 23.595614 -19.060911 36.634182 -0.854461 2.118003 0.064018 -0.029567 -248321.000000 0 0 1
-19.100744 24.014984 -19.357411 36.280397 -0.898886 2.133589 0.056009 -0.035737 -1238360.000000 0 0 1
-18.242144 23.613934 -18.316911 35.012896 -0.913040 2.121336 0.075475 -0.038333 -205837.000000 0 0 1
-17.059844 24.373494 -18.334411 34.946475 -0.960114 2.123092 0.083183 -0.046135 -320811.000000 0 0 1
-17.129744 25.596604 -17.336211 35.343436 -0.981029 2.083468 0.075352 -0.042063 50090.000000 0 0 1
-18.045944 26.595714 -17.744311 36.713058 -0.974627 2.075244 0.056083 -0.039052 87239.700000 0 0 1
-17.437644 27.792204 -17.516011 37.192588 -1.010452 2.061169 0.059605 -0.044818 -703026.000000 0 0 1
-18.385744 28.933274 -17.878811 38.662925 -1.004715 2.051528 0.051725 -0.036972 20104.000000 0 0 1
-18.491644 29.220504 -19.260811 39.582288 -1.006585 2.078992 0.018099 -0.036907 364043.000000 0 0 1
-19.666544 28.604944 -19.775711 39.951151 -0.968494 2.088628 0.035991 -0.027533 -67921.100000 0 0 1
-19.942844 29.075364 -21.196011 41.138360 -0.969595 2.112081 0.040776 -0.032310 89132.200000 0 0 1
-20.629044 30.333694 -21.289411 42.413788 -0.973572 2.096643 0.039813 -0.030869 208960.000000 0 0 1
-20.999844 30.444114 -22.645411 43.366486 -0.966960 2.120210 0.045178 -0.032009 -52913.300000 0 0 1
-21.524344 31.869124 -23.072211 44.847133 -0.976773 2.111178 0.042133 -0.027294 -149413.000000 0 0 1
-20.570044 32.892467 -23.037411 45.119434 -1.011929 2.106664 0.031782 -0.018796 -224176.000000 0 0 1
-21.005444 34.006970 -23.787911 46.514163 -1.017478 2.107624 0.037975 -0.014603 413025.000000 0 0 1
-19.845344 -33.063067 -23.850511 45.341493 1.030210 2.124710 0.060254 -0.009824 844130.000000 0 0 1
-19.630144 -32.271117 -22.651711 44.043928 1.024305 2.110985 0.057855 -0.009068 5597.270000 0 0 1
-19.144844 -32.964227 -21.558011 43.793985 1.044632 2.085480 0.063644 -0.017408 -636032.000000 0 0 1
-18.936544 -31.941577 -20.422611 42.378533 1.035651 2.073629 0.080576 -0.014863 -85310.000000 0 0 1
-17.760244 -31.178887 -20.612311 41.381356 1.053012 2.092210 0.071740 -0.015121 171058.000000 0 0 1
-17.631644 -30.179337 -19.597111 40.071362 1.042054 2.081803 0.075657 -0.011383 282122.000000 0 0 1
-16.405144 -29.225537 -19.771911 38.912585 1.059297 2.103786 0.101792 -0.017720 174770.000000 0 0 1
-15.183744 -29.877187 -19.582811 38.815962 1.100606 2.099604 0.105754 -0.020769 -911527.000000 0 0 1
-14.128944 -28.996707 -19.747311 37.820529 1.117392 2.120145 0.090000 -0.024390 -1284490.000000 0 0 1
-12.769444 -29.619297 -20.015611 37.960323 1.163754 2.126189 0.115196 -0.031470 -199768.000000 0 0 1
-12.003344 -30.260427 -18.994911 37.690587 1.193166 2.098985 0.116517 -0.022953 455115.000000 0 0 1
-11.345244 -29.377107 -18.092711 36.319075 1.202249 2.092272 0.107089 -0.014616 -185151.000000 0 0 1
-10.641844 -30.148357 -16.933011 36.178711 1.231467 2.057866 0.107609 -0.003497 222620.000000 0 0 1
-11.506344 -30.802937 -15.999811 36.567894 1.213300 2.023654 0.120552 -0.015841 62957.500000 0 0 1
-11.848644 -32.124947 -16.377711 37.955659 1.217446 2.016947 0.123153 -0.015790 3805.880000 0 0 1
-12.810944 -32.762477 -15.351511 38.381885 1.198051 1.982278 0.123478 -0.024425 -254475.000000 0 0 1
-12.280544 -32.991957 -14.075011 37.912886 1.214458 1.951147 0.111987 -0.028203 -412625.000000 0 0 1
-13.233944 -33.412087 -13.109811 38.254045 1.193672 1.920590 0.108698 -0.026866 -217580.000000 0 0 1
-12.734344 -33.860747 -11.729611 38.030218 1.211079 1.884337 0.087441 -0.024891 -245549.000000 0 0 1
-12.373244 -32.824577 -10.930611 36.742731 1.210317 1.872859 0.076826 -0.023955 -151485.000000 0 0 1
-11.995744 -33.250957 -9.657411 36.644094 1.224565 1.837493 0.080919 -0.024637 -1137530.000000 0 0 1
-10.726244 -32.620887 -9.178211 35.544538 1.253118 1.831973 0.070621 -0.025313 -1085660.000000 0 0 1
-9.579144 -33.096977 -9.797111 35.821129 1.289068 1.847827 0.059212 -0.025703 -624929.000000 0 0 1
-8.374644 -32.587347 -9.266611 34.898996 1.319249 1.839546 0.050291 -0.027924 400592.000000 0 0 1
-7.094444 -33.159947 -9.915811 35.330391 1.360028 1.855278 0.051006 -0.029780 145912.000000 0 0 1
-6.598644 33.815467 -9.243711 35.671755 -1.378081 1.832920 0.043097 -0.017329 -669658.000000 0 0 1
-5.533544 33.336221 -9.985311 35.236773 -1.406304 1.858111 0.048620 -0.014194 -475174.000000 0 0 1
-4.695544 32.350037 -9.145711 33.944322 -1.426655 1.843600 0.049491 -0.018642 -80352.800000 0 0 1
-4.072644 32.896757 -8.019911 34.104281 -1.447622 1.808178 0.064364 -0.020350 -103450.000000 0 0 1
-3.390044 31.881464 -7.275411 32.876309 -1.464862 1.793940 0.064337 -0.022443 129312.000000 0 0 1
-2.987544 32.439249 -5.903511 33.107125 -1.478959 1.750071 0.071200 -0.021632 -187093.000000 0 0 1
-1.847544 33.275603 -6.010211 33.864462 -1.515331 1.749220 0.068822 -0.026377 40911.900000 0 0 1
-1.433744 33.835052 -4.749811 34.196886 -1.528447 1.710143 0.069836 -0.033567 91566.300000 0 0 1
-0.428044 33.033508 -3.892611 33.264821 -1.557839 1.688084 0.077619 -0.032835 154996.000000 0 0 1
0.903056 33.168006 -4.413411 33.472531 1.543576 1.703033 0.078485 -0.030744 408422.000000 0 0 1
1.757156 32.448283 -3.502411 32.684025 1.516697 1.678162 0.070325 -0.027179 622884.000000 0 0 1
3.251256 32.536587 -3.946611 32.935936 1.471201 1.690912 0.060258 -0.019808 370595.000000 0 0 1
3.862456 33.752958 -3.649411 34.168683 1.456859 1.677806 0.048634 -0.018632 -745280.000000 0 0 1
5.212856 33.778032 -4.004611 34.411716 1.417677 1.687434 0.053539 -0.013244 -305169.000000 0 0 1
5.939356 -33.079577 -3.667111 33.808018 -1.393142 1.679479 0.051165 -0.009719 -187087.000000 0 0 1
5.590256 -31.949227 -4.411411 32.733234 -1.397577 1.705976 0.052975 -0.007900 -259816.000000 0 0 1
5.980756 -30.765477 -3.801911 31.571167 -1.378793 1.691513 0.041612 -0.010668 38895.900000 0 0 1
5.778156 -29.548717 -4.685611 30.470785 -1.377686 1.725183 0.037751 -0.006851 -139145.000000 0 0 1
6.842156 -29.456207 -5.634311 30.760831 -1.342561 1.755001 0.055334 -0.005566 188796.000000 0 0 1
6.740356 -28.375027 -6.558411 29.892931 -1.337574 1.791992 0.052381 0.000507 -124768.000000 0 0 1
7.201456 -27.013257 -6.001211 28.593558 -1.310266 1.782248 0.053442 -0.003080 45849.300000 0 0 1
6.568556 -26.683227 -4.779411 27.892352 -1.329427 1.742998 0.040115 -0.015732 -368443.000000 0 0 1
7.120656 -25.539597 -4.190811 26.842833 -1.298893 1.727562 0.033872 -0.015942 -101378.000000 0 0 1
6.170456 -24.941637 -3.120511 25.882376 -1.328270 1.691655 0.029625 -0.020318 926416.000000 0 0 1
4.959856 -24.311337 -3.568711 25.067449 -1.369544 1.713646 0.030534 -0.024681 345372.000000 0 0 1
4.179356 -23.853937 -2.481211 24.344070 -1.397351 1.672896 0.039187 -0.025828 312030.000000 0 1 0
2.916556 -23.130637 -3.019811 23.508550 -1.445368 1.699608 0.049453 -0.026402 526981.000000 0 1 0
1.864356 -23.979537 -3.473811 24.301469 -1.493205 1.714234 0.046947 -0.020902 35139.700000 0 1 0
0.712356 -23.159837 -3.664911 23.458838 -1.540048 1.727666 0.033512 -0.017209 275439.000000 0 1 0
-15.250044 23.245863 18.103590 33.176406 -0.990192 0.993600 0.018564 -0.008024 -153054.000000 0 0 1
-15.624244 22.619363 19.360790 33.624288 -0.966308 0.957217 0.024826 -0.005555 465451.000000 0 0 1
-15.443444 23.453863 20.494390 34.764977 -0.988496 0.940341 0.035027 -0.009340 -888346.000000 0 0 1
-15.435844 22.629763 21.808490 35.014021 -0.972183 0.898416 0.047521 -0.017004 153715.000000 0 0 1
-14.402944 21.692063 22.228890 34.236149 -0.984661 0.864157 0.043110 -0.017159 1145470.000000 0 0 1
-13.040344 22.092163 22.101890 33.861597 -1.037562 0.859637 0.034983 -0.014703 271106.000000 0 0 1
-12.548744 23.239963 23.005290 35.025850 -1.075691 0.854217 0.046826 -0.002306 -779297.000000 0 0 1
-12.504744 22.898563 24.432390 35.744293 -1.070958 0.818205 0.036076 -0.007406 138756.000000 0 0 1
-12.143044 24.030963 25.204320 36.880868 -1.102911 0.818389 0.055451 -0.004443 -107717.000000 0 0 1
-11.786444 23.537763 26.581560 37.410237 -1.106552 0.780528 0.059593 -0.007746 363686.000000 0 0 1
-10.385544 23.354163 26.747610 36.996095 -1.152360 0.762684 0.034256 -0.004461 215201.000000 0 0 1
-10.021644 22.631263 27.887100 37.286697 -1.153927 0.725888 0.036056 -0.005467 348562.000000 0 0 1
-8.494344 22.364463 28.056850 36.871532 -1.207812 0.706043 0.037108 -0.016232 837675.000000 0 0 1
-7.642644 23.409363 28.482650 37.651954 -1.255228 0.712894 0.042285 -0.017786 236781.000000 0 0 1
-7.210044 24.341963 27.456510 37.394864 -1.282831 0.746261 0.035716 -0.009195 -197406.000000 0 0 1
-6.099844 25.344063 27.845010 38.142813 -1.334607 0.752445 0.036501 -0.018926 102434.000000 0 0 1
-4.811244 24.792563 27.926480 37.652457 -1.379119 0.735209 0.026302 -0.018721 -402860.000000 0 0 1
-3.805844 25.700063 28.329710 38.438914 -1.423778 0.742166 0.036148 -0.013272 469757.000000 0 0 1
-2.385544 25.140963 28.081040 37.766435 -1.476193 0.732440 0.050092 -0.014462 -131573.000000 0 0 1
-1.864644 25.047563 26.806220 36.734598 -1.496489 0.752874 0.043354 -0.020587 939890.000000 0 0 1
-0.453944 24.710763 26.856840 36.498188 -1.552428 0.743889 0.049579 -0.012148 1313430.000000 0 0 1
0.164156 24.412463 25.515150 35.313144 1.564072 0.763327 0.031844 -0.020973 -176632.000000 0 0 1
-0.317444 23.198163 24.941740 34.063851 -1.557113 0.749242 0.031227 -0.012736 -80341.300000 0 0 1
0.026456 23.209463 23.587680 33.091668 1.569656 0.777317 0.030797 -0.005519 -99539.800000 0 0 1
-0.427444 21.971763 22.816490 31.678593 -1.551345 0.766634 0.017536 -0.000176 287120.000000 0 0 1
0.287056 20.780263 23.198570 31.146033 1.556983 0.730513 0.032800 -0.001628 361815.000000 0 0 1
-0.213144 19.612263 22.497390 29.846588 -1.559929 0.717020 0.025360 0.000207 475840.000000 0 0 1
0.806656 18.447563 22.719390 29.276850 1.527097 0.682467 0.027849 0.010828 207868.000000 0 0 1
2.047456 18.706563 22.104490 29.029916 1.461779 0.705267 0.031867 0.003544 -361924.000000 0 0 1
2.897756 17.552163 22.304290 28.529927 1.407178 0.673272 0.019878 0.006455 -621724.000000 0 0 1
4.195656 17.857163 21.589890 28.330287 1.340026 0.704280 0.025058 0.000869 -957163.000000 0 0 1
4.939656 18.773263 22.359090 29.610209 1.313506 0.714968 0.025612 0.008561 -291378.000000 0 0 1
6.216256 19.059863 21.813290 29.626674 1.255530 0.743252 0.051798 -0.006643 374352.000000 0 0 1
7.257456 19.608063 22.833890 30.960189 1.216305 0.741399 0.061639 -0.008984 -117077.000000 0 0 1
7.009856 20.828363 23.576260 32.230402 1.246151 0.750290 0.045279 -0.005054 -163880.000000 0 0 1
6.584056 21.972263 22.865990 32.388017 1.279658 0.786960 0.051784 -0.011318 678766.000000 0 0 1
5.453056 22.889063 23.494910 33.251403 1.336918 0.786137 0.031062 -0.006073 524439.000000 0 0 1
5.393256 24.182363 22.912490 33.746942 1.351363 0.824465 0.033856 -0.015062 190481.000000 0 0 1
4.247156 24.975363 23.175440 34.335231 1.402354 0.829865 0.015836 0.000891 -287310.000000 0 0 1
3.984856 26.261763 22.356390 34.718402 1.420209 0.871166 0.033238 -0.004041 -74792.800000 0 0 1
3.644356 26.057663 20.992990 33.659898 1.431840 0.897355 0.037127 -0.016289 960587.000000 0 0 1
2.436756 25.307963 20.683590 32.775626 1.474808 0.887869 0.027612 -0.015812 519693.000000 0 0 1
1.981256 25.626963 19.233490 32.102862 1.493638 0.928394 0.027636 -0.016669 -706525.000000 0 0 1
1.504356 26.956763 19.160490 33.106714 1.515048 0.953602 0.034328 -0.024753 344400.000000 0 0 1
0.897956 27.254863 17.901490 32.620503 1.537862 0.989892 0.039636 -0.021513 213109.000000 0 0 1
-0.200644 28.360363 17.978790 33.579567 -1.563722 1.005805 0.025089 -0.009601 106237.000000 0 0 1
0.205356 29.670663 18.326090 34.874575 1.563875 1.017510 0.043557 -0.012012 -194191.000000 0 0 1
-0.921644 30.451263 18.590490 35.689426 -1.540539 1.022896 0.028157 -0.010498 -32694.700000 0 0 1
-0.517244 31.938163 19.025290 37.178965 -1.554603 1.033609 0.032303 -0.000828 202680.000000 0 0 1
-0.225944 31.951463 20.402290 37.910427 -1.563725 1.002531 0.035287 -0.005247 147998.000000 0 0 1
0.690256 32.968463 20.831390 39.004395 1.549863 1.007379 0.048128 -0.011851 164801.000000 0 0 1
1.210356 32.642063 22.266690 39.531945 1.533734 0.972473 0.059470 -0.023079 720186.000000 0 0 1
0.197756 32.518163 23.327160 40.020325 1.564715 0.948524 0.054431 -0.010908 550101.000000 0 0 1
0.755056 32.637063 24.582170 40.866013 1.547666 0.925380 0.064047 -0.016820 -608091.000000 0 0 1
-0.110244 32.236063 25.753900 41.260626 -1.567376 0.896720 0.053800 -0.012728 -917521.000000 0 0 1
-1.288744 32.981263 25.912880 41.963102 -1.531741 0.905216 0.053793 -0.011444 -282874.000000 0 0 1
-1.925844 32.704463 27.137580 42.541027 -1.511978 0.879008 0.068950 -0.012675 -421306.000000 0 0 1
-1.338344 33.317763 28.392240 43.794792 -1.530649 0.865444 0.087729 -0.025238 -1010590.000000 0 0 1
-0.215744 32.574363 28.756440 43.451910 -1.564173 0.847580 0.077707 -0.021388 -469898.000000 0 0 1
0.243056 33.000763 30.021710 44.614039 1.563431 0.832646 0.067856 -0.024432 -573808.000000 0 0 1
1.446556 32.140763 30.486880 44.323481 1.525820 0.812305 0.055663 -0.016219 184046.000000 0 0 1
2.630856 32.470863 29.769100 44.130235 1.489951 0.830409 0.035847 -0.018936 156352.000000 0 0 1
2.852456 31.839263 28.497690 42.825150 1.481446 0.842709 0.035311 -0.019295 -1461120.000000 0 0 1
4.332356 31.659963 28.298500 42.684044 1.434801 0.846009 0.010561 -0.014635 -889727.000000 0 0 1
4.942256 30.587463 28.970700 42.418395 1.410603 0.818969 0.016935 -0.015137 57509.500000 0 0 1
6.345056 30.527863 28.781910 42.433577 1.365869 0.825375 0.018039 -0.022224 118938.000000 0 0 1
6.896356 29.330663 29.506580 42.172097 1.339866 0.795860 0.016052 -0.013651 -332890.000000 0 0 1
6.886056 29.393863 30.869450 43.178002 1.340678 0.774266 0.024695 -0.017283 -34354.900000 0 0 1
7.404556 28.258463 31.479170 42.945388 1.314528 0.748068 0.021215 -0.013086 -163541.000000 0 0 1
7.346156 28.445263 33.067743 44.233185 1.318063 0.726389 0.046452 -0.031602 -739370.000000 0 0 1
6.021556 28.464163 33.503384 44.372789 1.362321 0.715076 0.050602 -0.031097 -755590.000000 0 0 1
5.806456 28.010963 -33.266321 43.874561 1.366399 2.431366 0.079174 -0.035133 -91901.400000 0 0 1
5.923856 26.488263 -32.918001 42.665149 1.350776 2.452060 0.073898 -0.035308 -947227.000000 0 0 1
7.180756 26.081263 -33.314361 42.914359 1.302130 2.459569 0.053024 -0.033427 -896302.000000 0 0 1
7.347856 24.740163 -32.932931 41.840705 1.282093 2.476894 0.063333 -0.037346 57635.200000 0 0 1
8.814156 24.317163 -33.164541 42.058299 1.223059 2.479223 0.055730 -0.037034 -143772.000000 0 0 1
9.183256 24.067263 33.560901 42.307203 1.206281 0.654641 0.037235 -0.024310 163533.000000 0 0 1
10.393456 23.370763 33.304905 41.993252 1.152342 0.654912 0.053771 -0.040429 39112.700000 0 0 1
10.592756 21.903763 33.742336 41.599598 1.120351 0.624729 0.053915 -0.045608 -708283.000000 0 0 1
10.050456 20.969163 32.821559 40.224025 1.123848 0.616393 0.042883 -0.044586 560384.000000 0 0 1
9.465256 19.727763 33.381266 39.913464 1.123444 0.580222 0.034857 -0.032820 1164580.000000 0 0 1
8.133256 19.859863 -33.873581 40.099670 1.182100 2.576866 0.062188 -0.044491 285660.000000 0 0 1
8.189956 20.388563 -32.566051 39.285068 1.188831 2.548056 0.062738 -0.045712 683892.000000 0 0 1
6.964156 21.061063 -32.225181 39.121990 1.251449 2.538720 0.078898 -0.045056 617440.000000 0 0 1
7.087256 21.509763 -30.732121 38.175416 1.252509 2.506512 0.089883 -0.058629 627936.000000 0 0 1
8.278156 22.297863 -30.605891 38.761361 1.215314 2.480950 0.090484 -0.056040 525839.000000 0 0 1
8.366856 22.901363 -29.339981 38.148541 1.220519 2.448226 0.063970 -0.053226 -1337550.000000 0 0 1
9.810056 23.079063 -29.013411 38.349164 1.168872 2.428831 0.073733 -0.056598 -1112770.000000 0 0 1
10.478156 21.887763 -28.648441 37.544628 1.124315 2.438816 0.068300 -0.051582 107303.000000 0 0 1
11.898356 21.990863 -28.611591 37.997264 1.074843 2.423392 0.069017 -0.053450 481703.000000 0 0 1
12.462556 20.530263 -28.669021 37.399462 1.025221 2.444267 0.077583 -0.058230 -268697.000000 0 0 1
12.318756 19.809163 -29.859601 37.891298 1.014450 2.478404 0.063870 -0.049176 740297.000000 0 0 1
10.999156 19.440563 -30.323431 37.662015 1.055916 2.506718 0.069416 -0.047201 776005.000000 0 0 1
11.056756 18.607663 -31.545551 38.257271 1.034649 2.540227 0.064249 -0.041890 -582612.000000 0 0 1
11.474256 17.299763 -31.308831 37.565719 0.985155 2.556103 0.069882 -0.033229 190741.000000 0 0 1
11.492556 16.576163 -32.521371 38.268624 0.964569 2.586436 0.051232 -0.020431 -501773.000000 0 0 1
12.683156 16.749263 -33.464461 39.512915 0.922680 2.580971 0.041724 -0.000154 -629434.000000 0 0 1
12.716956 18.043463 -34.046326 40.576346 0.956859 2.566365 0.046440 -0.011074 78640.100000 0 0 1
13.418556 18.132563 32.821139 39.825553 0.933710 0.602145 0.056884 -0.012241 336556.000000 0 0 1
12.698556 17.321563 31.654650 38.253193 0.938195 0.596150 0.068802 -0.027988 -381709.000000 0 0 1
13.008856 17.891863 30.387980 37.586945 0.942125 0.629246 0.058503 -0.025672 -71810.800000 0 0 1
12.124456 17.591863 29.315170 36.274719 0.967350 0.629804 0.062602 -0.028385 310120.000000 0 0 1
10.661256 18.112863 29.421770 36.157693 1.038800 0.620295 0.048675 -0.025223 156030.000000 0 0 1
9.944456 17.241663 30.321230 36.270431 1.047634 0.580886 0.050525 -0.021108 -590047.000000 0 0 1
8.674156 17.786263 30.547010 36.396593 1.117046 0.574835 0.054628 -0.025288 -342901.000000 0 0 1
7.720456 16.913763 31.352520 36.450807 1.142583 0.535267 0.068318 -0.021488 17691.000000 0 0 1
8.144856 16.890463 32.703771 37.698316 1.121477 0.520616 0.082861 -0.025085 -150991.000000 0 0 1
7.431856 15.983763 33.449721 37.810012 1.135569 0.484991 0.103746 -0.030456 -506164.000000 0 0 1
7.645256 16.162563 -33.120701 37.638534 1.128963 2.646591 0.111877 -0.037112 -246157.000000 0 0 1
6.690256 17.003163 -32.532201 37.312346 1.195931 2.629842 0.114556 -0.040571 -65693.100000 0 0 1
6.684756 16.819863 -31.184911 36.056795 1.192505 2.615714 0.109820 -0.050862 -223080.000000 0 0 1
5.841456 17.855863 -30.450341 35.779571 1.254626 2.588785 0.110141 -0.056050 -456603.000000 0 0 1
5.814056 17.743963 -29.049871 34.533266 1.254157 2.570321 0.100712 -0.059813 261435.000000 0 0 1
4.966456 18.703963 -28.402601 34.368760 1.311256 2.543494 0.113631 -0.060736 2131050.000000 0 0 1
3.375056 18.636163 -28.502051 34.220820 1.391636 2.555099 0.132604 -0.068073 1067070.000000 0 0 1
2.732356 17.694363 -27.669161 32.956619 1.417587 2.567275 0.143403 -0.064910 1265070.000000 0 0 1
1.337556 17.413163 -27.944011 32.952618 1.494134 2.583007 0.137083 -0.061801 2112750.000000 0 0 1
0.226356 18.489763 -27.602581 33.223863 1.558555 2.551350 0.131312 -0.067691 190485.000000 0 0 1
-0.072144 18.693563 -26.237561 32.215898 -1.566937 2.522541 0.143392 -0.075245 -88851.000000 0 0 1
-0.497244 20.005563 -26.042101 32.842972 -1.545946 2.486395 0.151007 -0.068535 -307994.000000 0 0 1
-0.960144 20.245163 -24.576311 31.855668 -1.523406 2.451975 0.133073 -0.069358 132069.000000 0 0 1
-2.112544 19.525763 -24.185711 31.155527 -1.463023 2.459555 0.131784 -0.061761 121566.000000 0 0 1
-2.610644 19.930563 -22.948711 30.507149 -1.440551 2.422252 0.130216 -0.059719 -214665.000000 0 0 1
-3.728444 19.127263 -22.279111 29.599194 -1.378282 2.422940 0.102062 -0.048464 673977.000000 0 0 1
-5.049344 19.570563 -22.660411 30.364404 -1.318296 2.413255 0.083873 -0.042063 934911.000000 0 0 1
-6.016544 18.617363 -22.219011 29.605564 -1.258222 2.419616 0.084921 -0.040097 -305709.000000 0 0 1
-7.479644 19.035763 -22.148211 30.147116 -1.196403 2.395978 0.095340 -0.032919 -339384.000000 0 0 1
-7.738744 19.895263 -21.094311 30.011324 -1.199831 2.350232 0.068481 -0.035696 -20717.800000 0 0 1
-7.678044 21.196163 -21.530911 31.173864 -1.223261 2.333214 0.072559 -0.040482 -174533.000000 0 0 1
-8.171544 22.231963 -20.454411 31.295642 -1.218566 2.283110 0.065059 -0.045870 -62232.700000 0 0 1
-7.274744 22.486763 -19.397611 30.575214 -1.257911 2.258058 0.085417 -0.048302 40787.400000 0 0 1
-7.776244 23.465763 -18.544111 30.903010 -1.250799 2.214391 0.094894 -0.051934 -116771.000000 0 0 1
-6.905944 23.567263 -17.255011 30.014052 -1.285745 2.183276 0.104183 -0.044494 530598.000000 0 0 1
-5.556044 23.913363 -17.518511 30.159854 -1.342506 2.190575 0.103244 -0.048900 -329858.000000 0 0 1
-4.854144 23.949163 -16.299611 29.373499 -1.370820 2.159050 0.095925 -0.036284 -426246.000000 0 0 1
-3.363144 24.231163 -16.478611 29.495841 -1.432883 2.163585 0.089114 -0.031703 -241523.000000 0 0 1
-3.087044 25.585963 -16.704011 30.711485 -1.450723 2.145875 0.066382 -0.026330 -822652.000000 0 0 1
-1.716744 25.798263 -16.725511 30.793511 -1.504349 2.144981 0.064066 -0.034249 -527504.000000 0 0 1
-1.226144 27.242363 -17.043411 32.157855 -1.525818 2.129388 0.046368 -0.042209 -255358.000000 0 0 1
-1.728644 27.710863 -18.264811 33.233770 -1.508496 2.152665 0.054004 -0.045745 -9932.780000 0 0 1
-1.269544 29.017563 -18.543911 34.460228 -1.527073 2.139007 0.067161 -0.057979 -999414.000000 0 0 1
-2.304944 29.816463 -19.292111 35.588197 -1.493645 2.143722 0.110400 -0.064828 62077.600000 0 0 1
-3.412544 30.319163 -18.561011 35.712858 -1.458714 2.117330 0.094314 -0.054499 1179790.000000 0 0 1
-4.512244 29.383463 -18.323411 34.921277 -1.418423 2.123166 0.063157 -0.053378 1349280.000000 0 0 1
-5.794844 30.013063 -17.647911 35.296075 -1.380066 2.094391 0.090437 -0.037081 1083790.000000 0 0 1
-6.384444 31.174463 -18.318611 36.717567 -1.368792 2.093132 0.114760 -0.035170 338806.000000 0 0 1
-5.924544 32.451063 -17.864811 37.514306 -1.390217 2.067140 0.104989 -0.060631 -546767.000000 0 0 1
-6.630644 33.675863 -18.360111 38.924579 -1.376387 2.061996 0.096612 -0.034237 -38406.100000 0 0 1
-7.984444 33.682763 -17.914111 38.976855 -1.338044 2.048351 0.116980 -0.047628 296859.000000 0 0 1
-8.611644 -33.286938 -18.353411 38.974714 1.317638 2.061113 0.156742 -0.040973 -15241.700000 0 0 1
29.607856 -20.313937 -26.343161 44.533620 -0.601336 2.203757 0.046996 -0.014587 205007.000000 0 0 1
29.258956 -21.482637 -25.564861 44.397662 -0.633328 2.184398 0.062521 -0.019407 -72651.000000 0 0 1
27.879256 -21.770637 -25.715701 43.732264 -0.662980 2.199412 0.050970 -0.024628 263786.000000 0 0 1
27.451556 -23.260637 -25.434781 44.063287 -0.702944 2.186132 0.058259 -0.023534 -11747.200000 0 0 1
27.920256 -24.168637 -26.380821 45.382943 -0.713499 2.191114 0.050957 -0.010055 226270.000000 0 0 1
29.257756 -24.530737 -25.992391 46.188503 -0.697742 2.168500 0.057769 -0.010360 284048.000000 0 0 1
29.716956 -25.866487 -26.618091 47.546771 -0.716235 2.164976 0.059302 -0.013464 221171.000000 0 0 1
29.035356 -26.942587 -25.951051 47.354113 -0.748030 2.150793 0.070418 -0.018579 -44380.900000 0 0 1
29.469356 -28.194507 -26.355361 48.559018 -0.763293 2.144503 0.058646 -0.012018 676648.000000 0 0 1
28.392556 -28.826217 -27.313141 48.816962 -0.792977 2.164580 0.056826 -0.013506 277512.000000 0 0 1
28.254256 -28.201757 -28.575031 49.093528 -0.784468 2.192047 0.033055 -0.013056 294336.000000 0 0 1
29.346856 -28.351317 -29.494791 50.348564 -0.768146 2.196678 0.012386 -0.013631 201602.000000 0 0 1
29.625256 -29.836337 -29.989471 51.645244 -0.788948 2.190363 0.024116 -0.008494 -536764.000000 0 0 1
30.310456 -30.693927 -29.098561 52.034289 -0.791684 2.164240 0.030975 -0.009109 1488570.000000 0 0 1
31.735756 -30.540317 -28.815251 52.632575 -0.766205 2.150145 0.042997 -0.008907 1974640.000000 0 0 1
32.711556 -30.501547 -30.031081 53.872592 -0.750451 2.162103 0.040058 -0.013246 -503660.000000 0 0 1
32.779056 -29.163737 -30.447181 53.404316 -0.727099 2.177455 0.050779 -0.019486 -349849.000000 0 0 1
33.972556 -28.824797 -31.106111 54.337774 -0.703607 2.180297 0.046887 -0.018486 -310351.000000 0 0 1
33.892356 -27.429697 -31.751481 53.937340 -0.680397 2.200213 0.037932 -0.021452 128884.000000 0 0 1
33.782956 -26.301627 -30.831001 52.759969 -0.661522 2.194892 0.028519 -0.015620 -537182.000000 0 0 1
32.474356 -26.214287 -30.345261 51.600461 -0.679134 2.199481 0.046254 -0.016818 -434290.000000 0 0 1
32.244556 -24.852537 -29.599031 50.333514 -0.656650 2.199452 0.045217 -0.022965 -194008.000000 0 0 1
32.919456 -24.770737 -28.380461 50.027299 -0.645077 2.174019 0.043111 -0.011051 106701.000000 0 0 1
32.543456 -23.549437 -27.839031 48.873963 -0.626410 2.176826 0.031223 -0.012789 -80447.500000 0 0 1
33.501356 -23.310237 -26.678121 48.758899 -0.607901 2.149744 0.019964 -0.012981 -203902.000000 0 0 1
33.290956 -24.131237 -25.569061 48.418811 -0.627216 2.127136 0.034987 -0.018219 769530.000000 0 0 1
32.319156 -23.682537 -24.582311 47.007238 -0.632383 2.121101 0.042072 -0.011707 290491.000000 0 0 1
32.850756 -22.571837 -23.614111 46.328029 -0.602017 2.105650 0.037888 -0.005550 18018.000000 0 0 1
33.356356 -21.411637 -24.252411 46.468098 -0.570664 2.119891 0.036316 -0.009688 54167.100000 0 0 1
33.289056 -20.245637 -23.425311 45.461988 -0.546410 2.112122 0.008337 -0.014701 34191.100000 0 0 1
33.528456 -18.996837 -24.246211 45.529287 -0.515490 2.132396 0.000244 -0.010263 -460514.000000 0 0 1
32.447856 -18.676937 -25.036491 45.039064 -0.522284 2.160222 0.006418 -0.016237 -420483.000000 0 0 1
32.667156 -17.455737 -25.590451 45.019074 -0.490750 2.175400 0.004025 -0.017190 -90728.500000 0 0 1
31.852156 -17.280237 -26.878411 45.117795 -0.497078 2.208981 0.005422 -0.009459 -1050350.000000 0 0 1
30.550856 -16.891037 -26.667311 43.929574 -0.505054 2.223135 0.020806 -0.007511 -1337630.000000 0 0 1
29.858956 -16.792037 -27.852651 44.150877 -0.512297 2.253447 0.030462 -0.012939 -477376.000000 0 0 1
28.370556 -16.408037 -27.705461 42.915088 -0.524346 2.272589 0.044108 -0.008048 648452.000000 0 0 1
27.560356 -17.409537 -27.014621 42.337395 -0.563394 2.262798 0.027994 -0.007062 453330.000000 0 0 1
27.364156 -16.969137 -25.712921 41.205618 -0.555084 2.244667 0.043573 -0.008408 58031.700000 0 0 1
26.641956 -18.077737 -24.856111 40.674620 -0.596180 2.228241 0.054047 -0.016698 322327.000000 0 0 1
26.138856 -17.778237 -23.550911 39.420185 -0.597276 2.211092 0.054094 -0.004275 481291.000000 0 0 1
25.404756 -18.813137 -22.902011 39.036366 -0.637417 2.197754 0.066168 -0.009398 179496.000000 0 0 1
25.212256 -18.596237 -21.337811 37.904882 -0.635509 2.168723 0.059503 -0.018818 -142464.000000 0 0 1
24.399656 -17.542537 -20.855911 36.579405 -0.623342 2.177490 0.053900 -0.020962 154090.000000 0 0 1
24.842456 -16.199837 -21.115711 36.406807 -0.577852 2.189517 0.061244 -0.015435 155184.000000 0 0 1
26.213856 -15.770037 -20.520011 36.836547 -0.541589 2.161633 0.048138 -0.005927 89748.200000 0 0 1
26.276356 -15.020737 -19.330411 35.912870 -0.519309 2.139166 0.047386 -0.010717 576449.000000 0 0 1
27.353256 -14.066237 -19.300111 36.311898 -0.474977 2.131178 0.028386 -0.003256 103836.000000 0 0 1
27.304056 -12.982737 -18.185711 35.281483 -0.443846 2.112325 0.049350 -0.009127 -93039.600000 0 0 1
27.740156 -13.436337 -16.916111 35.159725 -0.451061 2.072730 0.050587 -0.009731 262097.000000 0 0 1
27.587956 -12.352737 -15.979811 34.191224 -0.420988 2.057105 0.043484 -0.013652 13535.500000 0 0 1
27.967856 -12.834937 -14.512911 34.022951 -0.430245 2.011485 0.058811 -0.014134 -384191.000000 0 0 1
27.229256 -13.848337 -13.941311 33.579294 -0.470490 1.998932 0.079916 -0.019759 -131809.000000 0 0 1
27.623956 -14.020337 -12.578711 33.434665 -0.469664 1.956507 0.084300 -0.019965 -58130.100000 0 0 1
27.131756 -15.324037 -11.881511 33.348593 -0.514136 1.935082 0.085014 -0.029452 -30033.200000 0 0 1
25.758356 -15.243137 -11.571411 32.089620 -0.534349 1.939704 0.073488 -0.033229 148617.000000 0 0 1
25.227556 -16.506937 -11.112611 32.130962 -0.579407 1.923945 0.051079 -0.033290 120551.000000 0 0 1
23.750956 -16.332337 -10.702211 30.747203 -0.602389 1.926309 0.044077 -0.032812 -165072.000000 0 0 1
23.444356 -15.631737 -9.482111 29.730447 -0.588067 1.895403 0.032701 -0.028444 1082160.000000 0 0 1
22.054756 -15.549837 -9.129811 28.487948 -0.614111 1.897032 0.023939 -0.019689 516426.000000 0 0 1
21.883456 -15.423537 -7.596511 27.829448 -0.613943 1.847272 0.029440 -0.011934 -391938.000000 0 0 1
22.241956 -14.153437 -7.144211 27.314175 -0.566712 1.835431 0.046805 -0.006085 378407.000000 0 0 1
21.985956 -13.852837 -5.792211 26.623920 -0.562242 1.790107 0.055051 -0.005683 -376774.000000 0 0 1
22.871356 -14.644637 -4.822011 27.582896 -0.569529 1.746518 0.051307 -0.005389 -455519.000000 0 0 1
24.203856 -14.192637 -4.856511 28.475311 -0.530344 1.742186 0.050595 -0.008194 -418191.000000 0 0 1
25.025356 -14.987037 -4.090411 29.455241 -0.539591 1.710115 0.052371 -0.014810 -1529080.000000 0 0 1
26.488356 -14.784237 -4.343511 30.644295 -0.509072 1.713015 0.059207 -0.014902 -1131420.000000 0 0 1
27.026056 -13.586537 -3.792811 30.485851 -0.465821 1.695532 0.069161 -0.017152 1116740.000000 0 0 1
28.440156 -13.403637 -3.991511 31.692778 -0.440419 1.697076 0.078543 -0.031233 820835.000000 0 0 1
29.085556 -12.153237 -3.381411 31.703386 -0.395794 1.677657 0.092483 -0.035813 -875704.000000 0 0 1
29.347056 -12.195137 -1.971811 31.841155 -0.393838 1.632762 0.102133 -0.043561 490827.000000 0 0 1
30.047656 -11.110537 -1.354611 32.064633 -0.354172 1.613055 0.104722 -0.037959 928452.000000 0 0 1
31.541556 -10.895337 -1.789511 33.418266 -0.332596 1.624371 0.101482 -0.032603 208473.000000 0 0 1
31.706556 -10.238637 -3.059811 33.458898 -0.312348 1.662374 0.107520 -0.029474 -16183.900000 0 0 1
32.726656 -10.747737 -3.881011 34.664249 -0.317312 1.682992 0.123866 -0.031167 -452241.000000 0 0 1
32.339156 -10.540137 -5.396811 34.438948 -0.315068 1.728152 0.123879 -0.025050 -220520.000000 0 0 1
31.347556 -11.430737 -5.822811 33.870875 -0.349662 1.743567 0.109018 -0.026202 -97589.200000 0 0 1
31.059656 -11.344037 -7.208811 33.843115 -0.350181 1.785448 0.113049 -0.016716 -655817.000000 0 0 1
29.785456 -12.046637 -7.615111 33.019461 -0.384334 1.803516 0.086195 -0.014950 -615884.000000 0 0 1
29.806756 -13.408337 -7.426011 33.516740 -0.422723 1.794212 0.088226 -0.014873 -585261.000000 0 0 1
28.606156 -13.988737 -7.791911 32.782783 -0.454818 1.810776 0.090771 -0.013505 -731543.000000 0 0 1
28.695656 -15.474537 -8.064611 33.584817 -0.494563 1.813293 0.088423 -0.021243 -153693.000000 0 0 1
29.230656 -15.903037 -9.279511 34.546305 -0.498266 1.842747 0.100147 -0.029943 5083.820000 0 0 1
29.576456 -17.233237 -9.170611 35.437993 -0.527577 1.832554 0.103662 -0.031454 -216161.000000 0 0 1
29.981756 -17.668337 -10.588811 36.375799 -0.532517 1.866167 0.097506 -0.035614 929438.000000 0 0 1
31.212256 -17.011437 -11.035711 37.220705 -0.499015 1.871816 0.107539 -0.027339 1215910.000000 0 0 1
31.679856 -17.672437 -12.179011 38.265607 -0.508846 1.894706 0.097513 -0.020238 -66216.500000 0 0 1
31.068956 -17.124337 -13.490411 37.954106 -0.503743 1.934181 0.085243 -0.019836 -135269.000000 0 0 1
31.560756 -15.855737 -13.911211 37.960605 -0.465556 1.946003 0.085275 -0.018124 -818.549000 0 0 1
30.863456 -15.299537 -15.006811 37.574368 -0.460215 1.981647 0.074693 -0.020427 -903214.000000 0 0 1
31.543556 -14.129437 -15.745211 37.980898 -0.421135 1.998251 0.061593 -0.005249 228230.000000 0 0 1
32.649856 -14.344437 -16.620511 39.344852 -0.413955 2.006923 0.035327 -0.007009 341461.000000 0 0 1
33.846756 -14.496237 -15.881811 40.099573 -0.404654 1.978018 0.050250 -0.016340 -1192690.000000 0 0 1
34.900056 -15.055837 -16.823211 41.565762 -0.407278 1.987488 0.045738 -0.010400 -780280.000000 0 0 1
36.189856 -15.074237 -16.249811 42.438128 -0.394676 1.963736 0.052822 -0.014183 500350.000000 0 0 1
-36.556805 -15.748037 -17.192411 43.358732 0.406758 1.978514 0.048944 -0.017330 1063580.000000 0 0 1
-35.010905 -15.586537 -16.986511 41.919508 0.418848 1.988013 0.061537 -0.017216 837609.000000 0 0 1
-34.359505 -16.220537 -15.845811 41.167598 0.441066 1.965906 0.053762 -0.021528 336293.000000 0 0 1
-34.749405 -15.946237 -14.538411 40.904389 0.430224 1.934164 0.041020 -0.017834 -564997.000000 0 0 1
-34.163405 -16.969637 -13.517311 40.470045 0.461020 1.911349 0.036563 -0.012081 -1019020.000000 0 0 1
-32.801805 -16.782937 -13.358111 39.192659 0.472922 1.918598 0.049223 -0.017123 -885763.000000 0 0 1
-32.422505 -17.402937 -12.152011 38.752450 0.492617 1.889758 0.058457 -0.008550 343704.000000 0 0 1
-31.079005 -16.973537 -11.492211 37.230047 0.499876 1.884602 0.085998 -0.013747 170360.000000 0 0 1
-31.077705 -15.586537 -11.166511 36.516501 0.464874 1.881568 0.073304 -0.029019 940623.000000 0 0 1
-29.982805 -15.126537 -10.314911 35.130871 0.467247 1.868801 0.102213 -0.045787 393564.000000 0 0 1
-30.120005 -15.286437 -8.807011 34.906350 0.469644 1.825857 0.091641 -0.037422 -267454.000000 0 0 1
-30.093705 -16.667037 -8.563011 35.450619 0.505785 1.814757 0.066731 -0.029893 -35584.000000 0 0 1
-30.200905 -16.874237 -7.177511 35.332014 0.509523 1.775365 0.100965 -0.030766 -125841.000000 0 0 1
-30.197705 -18.397437 -6.790811 36.006696 0.547181 1.760531 0.089121 -0.033557 287305.000000 0 0 1
-31.297005 -19.158937 -7.292011 37.413110 0.549317 1.766957 0.078538 -0.026555 118520.000000 0 0 1
-31.358105 -19.353837 -8.721411 37.867727 0.552962 1.803195 0.066882 -0.019240 -529646.000000 0 0 1
-32.564805 -20.195637 -9.148811 39.395825 0.555117 1.805164 0.055728 -0.015584 -1223040.000000 0 0 1
-33.685905 -19.428537 -9.316111 39.987475 0.523153 1.805933 0.047084 -0.016853 -1586600.000000 0 0 1
-34.729105 -20.253637 -9.691611 41.355143 0.527967 1.807347 0.037191 -0.014768 -502617.000000 0 0 1
-35.989205 -19.471537 -10.137911 42.156149 0.495937 1.813662 0.046067 -0.023040 118227.000000 0 0 1
-35.958505 -18.940437 -11.417511 42.215090 0.484803 1.844668 0.034266 -0.022689 375671.000000 0 0 1
36.341756 -18.457537 -11.584411 42.374550 -0.469938 1.847703 0.077920 -0.031982 306753.000000 0 0 1
35.871856 -18.190737 -12.999911 42.269264 -0.469314 1.883413 0.068105 -0.021942 -285711.000000 0 0 1
35.529656 -19.353237 -13.646511 42.698145 -0.498770 1.896108 0.048812 -0.015338 -157900.000000 0 0 1
34.853256 -19.121337 -14.831711 42.430587 -0.501786 1.927890 0.041635 -0.011300 195255.000000 0 0 1
33.718456 -20.106037 -15.243111 42.113412 -0.537688 1.941159 0.065647 -0.023111 28599.800000 0 0 1
32.566856 -20.040437 -14.420811 40.867824 -0.551639 1.931427 0.083505 -0.027669 -84650.500000 0 0 1
31.534856 -20.884837 -14.856411 40.636641 -0.584958 1.945065 0.089709 -0.027311 531519.000000 0 0 1
30.609456 -20.420237 -16.026911 40.134608 -0.588318 1.981581 0.077649 -0.025506 -23966.400000 0 0 1
29.837656 -19.202437 -15.825511 38.851849 -0.571837 1.990325 0.065768 -0.026280 566811.000000 0 0 1
29.050156 -19.007537 -16.980311 38.646203 -0.579393 2.025703 0.050610 -0.024798 -65112.500000 0 0 1
28.168556 -17.739037 -16.923311 37.343533 -0.562005 2.041125 0.045518 -0.018985 -79617.100000 0 0 1
27.087356 -17.818437 -16.024111 36.166196 -0.581849 2.029815 0.062390 -0.029556 -107519.000000 0 0 1
26.638356 -16.489137 -15.762511 35.070649 -0.554273 2.036946 0.051497 -0.018660 450032.000000 0 0 1
25.209856 -16.500337 -15.078811 33.692262 -0.579546 2.034815 0.049441 -0.030732 2015730.000000 0 0 1
24.077956 -16.926637 -15.891911 33.448645 -0.612732 2.065890 0.048814 -0.034785 1214430.000000 0 0 1
23.643756 -16.114837 -16.974911 33.269548 -0.598248 2.106241 0.047070 -0.030988 -610524.000000 0 0 1
22.757956 -16.896037 -17.946611 33.548197 -0.638634 2.135245 0.047847 -0.024778 499269.000000 0 0 1
21.500056 -17.215337 -17.315411 32.533732 -0.675174 2.132028 0.048748 -0.016431 614246.000000 0 0 1
20.620956 -17.619337 -18.374111 32.760843 -0.707065 2.166216 0.047855 -0.016208 585984.000000 0 0 1
19.136656 -17.891837 -18.001611 31.786593 -0.751793 2.172839 0.051472 -0.012153 356873.000000 0 0 1
18.467956 -16.712837 -17.625111 30.512766 -0.735551 2.186620 0.064322 -0.016992 26974.000000 0 0 1
17.106656 -17.030437 -17.387011 29.748641 -0.783165 2.195016 0.064742 -0.017166 128504.000000 0 0 1
16.157956 -15.843037 -17.130911 28.382204 -0.775558 2.218779 0.061954 -0.010344 -464968.000000 0 0 1
15.481156 -15.409237 -18.268111 28.475159 -0.783070 2.267308 0.066301 -0.000978 144787.000000 0 0 1
14.278356 -14.779337 -17.854311 27.222724 -0.802637 2.286118 0.068425 -0.000908 674670.000000 0 0 1
13.287556 -14.323837 -18.983611 27.241677 -0.822911 2.341805 0.052983 -0.003396 624001.000000 0 0 1
13.880556 -13.346537 -19.786611 27.609960 -0.765787 2.369780 0.068948 -0.016112 138918.000000 0 0 1
12.998356 -13.192837 -20.870911 27.903461 -0.792823 2.415792 0.058750 -0.007443 176392.000000 0 0 1
12.949456 -11.749937 -21.305111 27.561880 -0.736872 2.454340 0.058027 -0.010759 -359776.000000 0 0 1
14.167856 -11.312837 -21.826411 28.374296 -0.673817 2.448434 0.067440 -0.007751 -665286.000000 0 0 1
14.046656 -9.954437 -22.217911 28.107560 -0.616521 2.482356 0.050587 -0.013146 509034.000000 0 0 1
15.307556 -9.317537 -22.884511 29.066108 -0.546784 2.477257 0.064057 -0.003096 564645.000000 0 0 1
15.820156 -9.980637 -24.042911 30.462305 -0.562817 2.480412 0.082227 -0.003223 375283.000000 0 0 1
17.099656 -9.448137 -24.362411 31.228074 -0.504786 2.465693 0.085067 -0.012733 151425.000000 0 0 1
22.269656 5.334763 -7.093211 23.973129 0.235122 1.871175 0.126848 0.008780 -132897.000000 0 1 0
22.054556 6.709563 -7.276011 24.173581 0.295329 1.876527 0.117443 0.002092 582343.000000 0 1 0
21.881856 7.344463 -6.066711 23.865493 0.323827 1.827821 0.116475 0.003434 -198556.000000 0 1 0
21.495456 8.858663 -6.249611 24.074638 0.390909 1.833397 0.099911 0.009406 1055030.000000 0 1 0
20.105156 9.011563 -6.670311 23.019962 0.421374 1.864775 0.044630 -0.009705 1738020.000000 0 1 0
19.619056 10.349763 -6.616811 23.147509 0.485433 1.860694 0.045797 -0.005865 -13445.800000 0 1 0
19.441256 11.033863 -5.201511 22.951346 0.516217 1.799415 0.082270 -0.008996 235425.000000 0 1 0
20.687456 11.293463 -4.504011 23.995818 0.499697 1.759616 0.104716 -0.007655 1013880.000000 0 1 0
20.660456 12.485363 -3.717311 24.424519 0.543584 1.723586 0.140577 -0.029402 120018.000000 0 1 0
21.805556 12.413363 -2.703411 25.236527 0.517521 1.678125 0.119786 -0.048562 -584486.000000 0 0 1
23.122256 12.773563 -3.064511 26.593117 0.504711 1.686290 0.109857 -0.058082 939953.000000 0 0 1
23.937156 12.935163 -1.869811 27.272735 0.495427 1.639410 0.117367 -0.061789 109395.000000 0 0 1
24.616156 11.616663 -1.356911 27.253316 0.440926 1.620606 0.097646 -0.064031 -1261980.000000 0 0 1
25.757556 11.369663 -2.110611 28.234299 0.415688 1.645620 0.077646 -0.042686 -445978.000000 0 0 1
26.378756 10.188263 -1.658011 28.326463 0.368579 1.629362 0.108099 -0.049455 -162292.000000 0 0 1
27.820756 10.008063 -2.159211 29.644865 0.345320 1.643697 0.104390 -0.037964 -96850.400000 0 0 1
28.658856 11.148763 -1.947211 30.812604 0.371002 1.634034 0.087987 -0.041814 1371900.000000 0 0 1
30.023256 10.734563 -2.260311 31.964602 0.343378 1.641568 0.095205 -0.034050 875898.000000 0 0 1
31.034256 11.794863 -1.854511 33.251813 0.363199 1.626597 0.077830 -0.034736 -618122.000000 0 0 1
31.111156 12.042763 -0.485511 33.364171 0.369326 1.585349 0.089796 -0.039526 209153.000000 0 0 1
31.871456 13.196163 -0.142911 34.495636 0.392554 1.574939 0.081818 -0.036190 1265080.000000 0 0 1
33.412256 12.895763 0.193389 35.815038 0.368344 1.565397 0.091808 -0.030762 1384620.000000 0 0 1
34.041656 14.121463 0.501489 36.857856 0.393224 1.557190 0.078760 -0.031089 175198.000000 0 0 1
34.938056 14.544763 -0.538311 37.848483 0.394480 1.585020 0.097475 -0.025417 -151940.000000 0 0 1
34.360956 15.563763 -1.501711 37.751307 0.425304 1.610586 0.041408 0.000802 457254.000000 0 0 1
33.261756 15.024063 -2.273311 36.568222 0.424260 1.633003 0.065204 -0.006917 348074.000000 0 0 1
32.684156 16.064063 -3.006811 36.542429 0.456820 1.653172 0.042870 0.007939 -244236.000000 0 0 1
31.322556 15.664063 -3.602211 35.205700 0.463719 1.673295 0.057556 -0.014920 -972090.000000 0 0 1
31.345556 14.659963 -4.609711 34.909996 0.437466 1.703229 0.048942 -0.014264 424243.000000 0 0 1
30.138556 14.351163 -5.302511 33.799483 0.444405 1.728329 0.038586 -0.023598 -123852.000000 0 0 1
28.961556 13.816863 -4.502211 32.402891 0.445141 1.710192 0.057388 -0.040080 -1006170.000000 0 0 1
27.870256 13.537763 -5.346511 31.442128 0.452177 1.741670 0.072053 -0.040943 -410385.000000 0 0 1
26.801156 12.959863 -4.663711 30.133208 0.450406 1.726191 0.077669 -0.027096 -836514.000000 0 0 1
25.656856 12.768863 -5.642611 29.208855 0.461789 1.765200 0.072170 -0.019045 -917812.000000 0 0 1
25.963956 11.755163 -6.595811 29.254326 0.425138 1.798216 0.072149 -0.008697 353297.000000 0 0 1
25.164656 11.623963 -7.778711 28.790359 0.432719 1.844381 0.077498 -0.009744 -135244.000000 0 0 1
25.048456 12.856463 -8.710511 29.471797 0.474202 1.870832 0.092702 -0.005462 -36192.000000 0 0 1
24.101656 13.755563 -8.161711 28.926093 0.518620 1.856838 0.095221 -0.022358 -8126.100000 0 0 1
23.991856 14.910063 -8.935911 29.627178 0.556052 1.877179 0.094354 -0.022535 -612836.000000 0 0 1
22.969156 15.921363 -8.300411 29.154224 0.606122 1.859497 0.091309 -0.018925 1575780.000000 0 0 1
21.584856 15.488663 -8.342011 27.845895 0.622421 1.875046 0.122623 -0.032890 1436370.000000 0 0 1
21.268356 14.374063 -7.530211 26.751836 0.594328 1.856137 0.139607 -0.035921 -1033640.000000 0 0 1
19.805356 13.892563 -7.742611 25.400856 0.611702 1.880543 0.150002 -0.043103 912521.000000 0 0 1
18.794356 14.827763 -7.335911 25.038090 0.667965 1.868149 0.188537 -0.065403 285529.000000 0 0 1
17.468856 14.472763 -7.592611 23.922156 0.691873 1.893770 0.191871 -0.067461 -804983.000000 0 1 0
16.526056 14.987263 -6.549911 23.251450 0.736607 1.856361 0.168937 -0.044777 -628169.000000 0 1 0
16.724056 14.278563 -5.351211 22.631988 0.706681 1.809501 0.149058 -0.044237 392225.000000 0 1 0
16.497656 14.979063 -4.156911 22.667706 0.737191 1.755225 0.149990 -0.029160 -393923.000000 0 1 0
16.098956 14.047763 -3.041011 21.581561 0.717463 1.712175 0.099160 -0.016207 -428730.000000 0 1 0
17.122456 13.200163 -2.541811 21.768868 0.656760 1.687827 0.091804 -0.025410 382516.000000 0 1 0
16.749356 12.334763 -1.526811 20.857096 0.634761 1.644065 0.073432 -0.024721 -171525.000000 0 1 0
16.883556 13.074963 -0.136811 21.354808 0.658948 1.577203 0.093312 -0.029192 337080.000000 0 1 0
15.816756 14.038463 -0.082111 21.148403 0.725905 1.574679 0.086481 -0.034377 810074.000000 0 1 0
15.982156 14.918663 0.984689 21.885279 0.750995 1.525788 0.085507 -0.023389 89949.400000 0 1 0
14.708656 15.717463 1.410789 21.572518 0.818542 1.505352 0.075765 -0.018129 -34939.200000 0 1 0
14.322756 16.755263 0.535589 22.049196 0.863510 1.546503 0.068065 -0.021932 -29668.400000 0 1 0
13.433556 17.627963 1.158489 22.193414 0.919622 1.518573 0.047584 -0.027741 -245442.000000 0 1 0
13.459256 19.011263 0.492189 23.298540 0.954747 1.549669 0.048935 -0.029407 -83596.200000 0 1 0
13.051956 18.987063 -0.873211 23.056986 0.968568 1.608677 0.061655 -0.036140 -184094.000000 0 1 0
12.646256 20.294963 -1.231211 23.944294 1.013548 1.622239 0.058864 -0.032923 140605.000000 0 1 0
11.116356 20.519763 -1.222211 23.369378 1.074318 1.623120 0.048430 -0.033079 -60076.800000 0 1 0
10.565556 20.485663 0.071389 23.049912 1.094625 1.567699 0.043918 -0.037491 -503744.000000 0 1 0
9.165556 20.375663 -0.038611 22.342259 1.148085 1.572524 0.037145 -0.035907 135957.000000 0 1 0
8.429856 20.391763 1.332189 22.105682 1.178796 1.510495 0.027558 -0.031524 35061.800000 0 1 0
8.256556 21.634063 1.950589 23.238076 1.206212 1.486758 0.027804 -0.024454 187229.000000 0 1 0
7.479356 21.332163 3.112089 22.818568 1.233575 1.433986 0.035710 -0.031140 -109154.000000 0 1 0
6.938856 22.554063 3.775689 23.897475 1.272332 1.412136 0.036676 -0.026603 -65790.500000 0 1 0
7.937356 23.349463 4.410189 25.052920 1.243114 1.393839 0.041390 -0.025916 244472.000000 0 0 1
7.434256 24.590763 4.865189 26.146584 1.277213 1.383632 0.034134 -0.023911 -198716.000000 0 0 1
7.854056 25.021363 6.286589 26.968055 1.266642 1.335519 0.039140 -0.018774 42465.600000 0 0 1
7.251156 24.270163 7.345089 26.373669 1.280470 1.288563 0.053145 -0.021281 194084.000000 0 0 1
7.564656 24.796463 8.643389 27.327582 1.274695 1.248982 0.053725 -0.015912 -146249.000000 0 0 1
7.236156 23.932663 9.884589 26.885673 1.277181 1.194313 0.061852 -0.018372 -455043.000000 0 0 1
5.858456 23.996363 10.101789 26.686946 1.331341 1.182590 0.063406 -0.021203 -518602.000000 0 0 1
5.419856 23.073063 11.073989 26.160548 1.340079 1.133702 0.059013 -0.024768 437330.000000 0 0 1
4.022356 23.354563 11.695189 26.427115 1.400240 1.112362 0.051408 -0.028877 472719.000000 0 0 1
2.924756 23.309663 10.811389 25.860795 1.445975 1.139487 0.038550 -0.022756 -391462.000000 0 0 1
1.718556 23.376763 11.512189 26.114306 1.497413 1.114264 0.038137 -0.026274 -212766.000000 0 0 1
0.502656 23.687463 10.601289 25.956423 1.549579 1.150067 0.052050 -0.027599 -323984.000000 0 0 1
0.583056 24.952063 9.988789 26.883476 1.547434 1.190109 0.053101 -0.025361 -86542.300000 0 0 1
-0.376244 25.119663 8.967989 26.675154 -1.555819 1.227925 0.054660 -0.025851 780622.000000 0 0 1
-1.758244 25.659163 9.484689 27.412467 -1.502380 1.217493 0.059575 -0.032770 408305.000000 0 0 1
-2.495944 24.728363 10.238889 26.880411 -1.470203 1.180021 0.052853 -0.030208 568929.000000 0 0 1
-3.866444 25.157563 10.295689 27.456394 -1.418300 1.186418 0.060669 -0.034776 339393.000000 0 0 1
-4.927944 24.147863 10.815489 26.914284 -1.369487 1.157261 0.052747 -0.039850 -2613.950000 0 0 1
-5.284644 24.326663 12.149889 27.700790 -1.356883 1.116743 0.049056 -0.029631 28938.300000 0 0 1
-6.244044 25.316463 12.412089 28.878561 -1.328983 1.126522 0.047560 -0.026184 -502379.000000 0 0 1
-6.695744 25.333663 13.905289 29.664533 -1.312403 1.082920 0.043219 -0.017826 169022.000000 0 0 1
-7.663644 24.327463 14.180689 29.183023 -1.265617 1.063378 0.029681 -0.023935 229032.000000 0 0 1
-8.106844 24.413863 15.573989 30.071693 -1.250193 1.026408 0.024251 -0.002925 289.945000 0 0 1
-9.403844 23.622763 15.800889 29.935519 -1.191943 1.014752 0.019116 -0.007577 73004.300000 0 0 1
-10.507444 24.217863 15.152189 30.438464 -1.161435 1.049739 0.016615 0.005101 188124.000000 0 0 1
-11.743644 23.564763 15.391289 30.497590 -1.108465 1.041794 0.010229 -0.003527 138479.000000 0 0 1
-12.996444 24.396763 15.143889 31.518993 -1.081323 1.069607 0.010088 -0.007555 -546256.000000 0 0 1
-13.240444 25.338863 16.168989 32.845144 -1.089284 1.056090 0.018676 -0.002252 -6223.350000 0 0 1
-14.245844 26.254463 15.791489 33.787749 -1.073647 1.084479 0.015603 0.000931 -66778.400000 0 0 1
-14.773944 27.195463 16.924389 35.274602 -1.073150 1.070381 0.025987 0.003115 -11703.000000 0 0 1
-15.784144 26.615263 17.714689 35.655597 -1.035504 1.050857 0.027629 0.000047 -136219.000000 0 0 1
-16.251944 27.566063 18.644389 37.035479 -1.038086 1.043244 0.045196 -0.000069 -60534.800000 0 0 1
-17.567644 27.166163 19.342189 37.692742 -0.996763 1.031941 0.043604 -0.001468 876621.000000 0 0 1
-18.751344 27.147663 18.516489 37.834757 -0.966328 1.059390 0.045049 -0.007633 75714.200000 0 0 1
-19.783444 26.463463 19.114089 38.171297 -0.928849 1.046337 0.053526 -0.009687 -388369.000000 0 0 1
-21.079244 26.420763 18.260989 38.416857 -0.897381 1.075448 0.048926 -0.011256 -117715.000000 0 0 1
-21.640744 27.687963 18.130189 39.542999 -0.907380 1.094498 0.044555 -0.017852 26298.600000 0 0 1
-22.334944 27.886363 16.926089 39.534686 -0.895490 1.128371 0.046441 -0.023557 -513470.000000 0 0 1
-23.222844 29.136563 16.936189 40.927671 -0.897866 1.144164 0.052582 -0.025736 -467379.000000 0 0 1
-24.509144 28.845363 17.417589 41.666839 -0.866492 1.139531 0.049354 -0.028950 -405503.000000 0 0 1
-25.268804 30.038863 17.444089 42.955115 -0.871431 1.152614 0.057695 -0.034251 -219937.000000 0 0 1
-26.657634 29.751163 18.041789 43.832263 -0.840185 1.146577 0.065458 -0.021612 -260590.000000 0 0 1
-27.627694 29.170163 17.185089 43.697999 -0.812549 1.166611 0.083602 -0.019700 527897.000000 0 0 1
-28.925134 28.950363 17.731289 44.600285 -0.785834 1.161940 0.118727 -0.020647 623539.000000 0 0 1
-29.134474 27.899963 18.856989 44.528772 -0.763757 1.133514 0.108903 -0.027038 -594392.000000 0 0 1
-29.098844 26.609163 18.309289 43.474364 -0.740736 1.136082 0.108083 -0.024274 31672.600000 0 0 1
-29.666134 25.572063 19.096289 43.573824 -0.711417 1.117144 0.106615 -0.023396 39258.200000 0 0 1
-29.923184 24.269063 18.336789 42.668749 -0.681440 1.126583 0.100261 -0.021123 -218476.000000 0 0 1
-30.948924 24.437863 17.387289 43.097132 -0.668379 1.155518 0.102826 -0.024896 -122349.000000 0 0 1
-30.953514 23.383963 16.452689 42.138114 -0.646983 1.169680 0.095427 -0.018861 55908.700000 0 0 1
-31.536714 21.960863 16.896889 41.980336 -0.608278 1.156555 0.095272 -0.011268 -1424780.000000 0 0 1
-32.875194 21.750863 17.007089 42.931567 -0.584500 1.163483 0.105111 -0.005176 -1498870.000000 0 0 1
-33.122034 20.316563 17.033589 42.426112 -0.550203 1.157655 0.085677 -0.008716 374759.000000 0 0 1
-34.367819 19.761363 16.286289 42.859090 -0.521831 1.181004 0.090569 -0.014899 -87254.700000 0 0 1
-34.289527 19.740563 14.887089 42.273950 -0.522362 1.210921 0.074651 -0.012503 59039.000000 0 0 1
-35.528275 19.262363 14.406289 42.904989 -0.496812 1.228372 0.099010 -0.021691 222526.000000 0 0 1
-35.717449 19.692763 12.943689 42.791122 -0.503878 1.263497 0.096840 -0.015879 -117728.000000 0 0 1
-35.754822 21.139863 12.821289 43.470525 -0.533957 1.271401 0.086618 -0.023347 -48827.500000 0 0 1
-35.757964 21.626063 11.473189 43.335351 -0.543934 1.302848 0.054403 -0.014971 594187.000000 0 0 1
-34.537452 21.252863 10.529089 41.897273 -0.551635 1.316766 0.084114 -0.016640 375019.000000 0 0 1
-34.715472 19.954263 9.902089 41.247884 -0.521680 1.328366 0.099085 -0.014722 -1112730.000000 0 0 1
-33.551454 19.461563 9.415789 39.913776 -0.525622 1.332648 0.128839 -0.018069 -1438610.000000 0 0 1
-32.830224 18.471763 10.312289 39.056023 -0.512500 1.303590 0.113555 -0.024665 -190177.000000 0 0 1
-32.036344 19.037363 11.341889 38.953651 -0.536175 1.275353 0.120987 -0.020224 240282.000000 0 0 1
-31.630624 17.997763 12.262889 38.403050 -0.517312 1.245784 0.094290 -0.028960 -41900.500000 0 0 1
-31.229154 18.524463 13.611589 38.777456 -0.535389 1.212138 0.078327 -0.012572 327575.000000 0 0 1
-29.992744 19.215863 13.695089 38.162410 -0.569798 1.203747 0.082987 -0.013821 118323.000000 0 0 1
-30.129364 20.600863 13.365589 38.869179 -0.599734 1.219771 0.078792 -0.009195 223829.000000 0 0 1
-28.842274 21.404063 13.693889 38.438694 -0.638431 1.206542 0.095203 -0.012875 200508.000000 0 0 1
-28.605674 21.366063 15.048589 38.746009 -0.641525 1.171912 0.081207 -0.013514 313477.000000 0 0 1
-27.497674 22.169863 15.466789 38.559648 -0.678537 1.158064 0.102695 -0.016871 139607.000000 0 0 1
-27.071404 21.942963 16.909289 38.733429 -0.681146 1.119030 0.090103 -0.019683 -143503.000000 0 0 1
-26.399364 20.678463 17.054589 37.621592 -0.664471 1.100311 0.095415 -0.026870 406408.000000 0 0 1
-25.844244 20.420563 18.355889 37.707598 -0.668700 1.062379 0.078736 -0.018370 423771.000000 0 0 1
-24.732244 19.295863 18.343889 36.338856 -0.662545 1.041645 0.091628 -0.025623 481372.000000 0 0 1
-24.080344 19.134263 19.577889 36.459247 -0.671440 1.003943 0.093301 -0.035256 -800752.000000 0 0 1
-23.088844 18.204763 19.514389 35.289084 -0.667668 0.984852 0.082455 -0.032230 -1046860.000000 0 0 1
-22.371944 18.020663 20.865789 35.505342 -0.678087 0.942608 0.084261 -0.027294 -378120.000000 0 0 1
-23.048044 17.251463 21.804089 36.114312 -0.642540 0.922597 0.095377 -0.021084 23753.100000 0 0 1
-23.875744 18.008763 22.683489 37.535414 -0.646228 0.921881 0.087884 -0.031665 379419.000000 0 0 1
-24.629244 17.100063 23.673089 38.202446 -0.606890 0.902468 0.084352 -0.023742 22825.500000 0 0 1
-23.718244 16.700063 24.673989 38.082186 -0.613474 0.865953 0.085729 -0.030437 289910.000000 0 0 1
-24.285044 15.649863 25.433689 38.490961 -0.572445 0.848952 0.085117 -0.025353 232483.000000 0 0 1
20.891156 24.944763 33.728196 46.864409 0.873606 0.767430 0.086856 -0.016950 -271668.000000 0 0 1
21.872856 24.138863 33.154168 46.479086 0.834607 0.776581 0.097864 -0.028320 -275326.000000 0 0 1
21.691056 22.753063 33.493383 45.934851 0.809289 0.753718 0.099365 -0.026182 483309.000000 0 0 1
20.527056 21.954963 32.813730 44.498554 0.818998 0.741567 0.089033 -0.031315 337539.000000 0 0 1
20.948256 21.228063 31.688150 43.515502 0.792032 0.755099 0.096928 -0.029916 258498.000000 0 0 1
19.903156 20.410463 31.174760 42.244388 0.797981 0.740751 0.098248 -0.029054 97440.600000 0 0 1
20.229456 19.766063 29.795070 41.081314 0.773813 0.759369 0.092127 -0.022532 197735.000000 0 0 1
21.374156 18.916263 29.897700 41.334635 0.724469 0.762214 0.081642 -0.018931 49225.700000 0 0 1
21.593456 18.282063 28.649570 40.265482 0.702545 0.779142 0.069109 -0.013162 -348974.000000 0 0 1
22.790256 17.362663 28.790860 40.617379 0.651039 0.782957 0.082698 -0.013148 76683.400000 0 0 1
24.076756 17.956163 28.957080 41.720816 0.640800 0.803672 0.089800 -0.020889 102672.000000 0 0 1
25.009456 16.947463 29.207380 42.020953 0.595563 0.802283 0.079702 -0.011394 -892612.000000 0 0 1
26.453056 17.390263 29.110860 43.007297 0.581560 0.827278 0.072137 -0.027029 -814563.000000 0 0 1
27.113856 17.526063 27.878980 42.656320 0.573832 0.858502 0.066999 -0.020560 1016290.000000 0 0 1
28.508856 17.812563 28.156040 43.849799 0.558461 0.873559 0.067373 -0.022691 947982.000000 0 0 1
29.357156 17.653163 26.913110 43.563658 0.541392 0.904870 0.052329 -0.004922 -313366.000000 0 0 1
29.354156 18.719563 25.997880 43.450872 0.567690 0.929383 0.073416 -0.009488 575623.000000 0 0 1
30.472756 18.569363 25.101110 43.628842 0.547285 0.957785 0.060114 -0.006579 746911.000000 0 0 1
30.692956 19.881063 24.259570 43.884405 0.574785 0.985068 0.069584 -0.008053 -81271.500000 0 0 1
29.659956 20.066263 23.334310 42.741759 0.594810 0.993289 0.065510 -0.009606 -132481.000000 0 0 1
30.014156 21.030163 22.410190 42.957350 0.611179 1.021972 0.067836 -0.020249 -192389.000000 0 0 1
30.726456 20.604563 21.125990 42.602472 0.590707 1.051941 0.091822 -0.024183 255836.000000 0 0 1
29.815556 19.947663 20.203890 41.171274 0.589641 1.057871 0.097127 -0.031647 357312.000000 0 0 1
30.320056 19.542163 18.955890 40.749573 0.572520 1.086958 0.104465 -0.036880 -623554.000000 0 0 1
31.491656 18.584563 18.950290 41.185239 0.533140 1.092662 0.132317 -0.058347 -97170.000000 0 0 1
31.021156 17.254663 19.162590 40.339068 0.507608 1.075789 0.127168 -0.052590 887778.000000 0 0 1
32.177056 16.424763 19.369890 40.991809 0.471972 1.078636 0.132815 -0.037558 -33481.000000 0 0 1
31.869656 14.871163 19.680690 40.300819 0.436593 1.060604 0.130457 -0.032403 37782.700000 0 0 1
31.230856 14.544963 20.864790 40.277311 0.435853 1.026252 0.109498 -0.038576 222890.000000 0 0 1
29.966656 15.151963 21.123690 39.671057 0.468139 1.009279 0.103256 -0.020911 -124284.000000 0 0 1
29.458056 14.643963 22.499390 39.855304 0.461335 0.970936 0.074182 -0.015899 129112.000000 0 0 1
28.849356 13.348963 22.464190 38.924542 0.433375 0.955597 0.065111 -0.010984 -207134.000000 0 0 1
28.331256 13.056763 23.709000 39.182341 0.431849 0.920912 0.066356 0.001003 -30153.600000 0 0 1
27.839556 11.598863 23.706330 38.360978 0.394762 0.904625 0.065359 0.003096 -709977.000000 0 0 1
26.739256 11.361063 22.916290 37.002945 0.401772 0.902933 0.076518 0.004758 -784995.000000 0 0 1
26.504856 10.010163 22.805590 36.370396 0.361112 0.893052 0.061738 0.012392 92626.100000 0 0 1
25.252156 9.536463 22.019090 34.834693 0.361091 0.886533 0.050521 -0.001625 -120980.000000 0 0 1
24.003556 9.818863 22.613090 34.408322 0.388291 0.853701 0.058772 -0.004030 23336.200000 0 0 1
23.076756 9.138163 21.791290 33.028821 0.377045 0.850289 0.052953 0.007000 424966.000000 0 0 1
21.576456 9.082163 22.228590 32.282183 0.398418 0.811279 0.042967 -0.006984 669262.000000 0 0 1
21.136456 8.355563 23.358680 32.591305 0.376461 0.771716 0.041281 0.004079 1453710.000000 0 0 1
19.701556 8.419163 23.545080 31.834014 0.403847 0.738290 0.088614 -0.008791 1331280.000000 0 0 1
19.118456 7.685363 24.820870 32.259197 0.382218 0.692864 0.082246 -0.005465 -48049.600000 0 0 1
19.228356 6.276963 24.653690 31.889409 0.315537 0.687083 0.073119 -0.008547 311959.000000 0 0 1
18.695856 5.563163 25.765120 32.316021 0.289218 0.648010 0.073950 -0.018720 80900.300000 0 0 1
19.032756 4.069863 25.525350 32.099114 0.210662 0.651452 0.070509 -0.016494 526111.000000 0 0 1
20.425256 3.772563 25.570540 32.943525 0.182643 0.682191 0.069839 -0.011463 404073.000000 0 0 1
20.642056 2.417563 25.353440 32.783167 0.116587 0.686660 0.062449 -0.012452 1320190.000000 0 0 1
22.171756 1.977263 25.417750 33.786956 0.088944 0.719258 0.057100 -0.010005 1186530.000000 0 0 1
22.918756 2.469763 26.529260 35.144996 0.107347 0.715368 0.056265 -0.016857 1185230.000000 0 0 1
24.259156 1.962463 26.227600 35.780511 0.080720 0.748055 0.063043 -0.016108 1028220.000000 0 0 1
25.302156 2.435463 27.259850 37.272376 0.095960 0.750470 0.043313 -0.011755 -981834.000000 0 0 1
25.335556 1.606163 28.405860 38.096759 0.063311 0.729325 0.047720 -0.013188 909608.000000 0 0 1
26.219856 2.116163 29.472290 39.504112 0.080534 0.728677 0.046877 -0.006073 1168340.000000 0 0 1
27.734656 2.227563 29.163760 40.307544 0.080145 0.761892 0.048741 -0.009970 -697653.000000 0 0 1
28.040056 3.402163 28.380640 40.040982 0.120742 0.783015 0.056851 0.006059 750946.000000 0 0 1
29.378656 3.426563 27.847740 40.624419 0.116110 0.815516 0.061683 0.005667 903541.000000 0 0 1
29.772656 2.410463 26.746940 40.095139 0.080786 0.840505 0.090262 0.006054 -281965.000000 0 0 1
29.324156 2.795663 25.481320 38.948935 0.095049 0.857640 0.072583 0.011244 40006.800000 0 0 1
29.870256 1.825263 24.589330 38.732402 0.061030 0.882980 0.084147 0.011315 39467.600000 0 0 1
29.648256 2.051063 23.072790 37.624189 0.069070 0.910636 0.071093 0.005907 -37897.900000 0 0 1
30.303356 3.124863 22.503390 37.874275 0.102756 0.934575 0.075156 0.018875 -832104.000000 0 0 1
31.612756 2.822063 22.103790 38.676969 0.089034 0.962467 0.069285 0.013205 -144794.000000 0 0 1
32.345656 4.060863 21.537790 39.071838 0.124892 0.986952 0.086222 0.005277 -180127.000000 0 0 1
31.901756 4.371563 20.183390 38.002656 0.136184 1.010892 0.072020 0.004814 74473.800000 0 0 1
32.282456 5.651163 19.693990 38.235401 0.173298 1.029705 0.089357 0.007333 85745.200000 0 0 1
33.799356 5.849263 19.463790 39.439187 0.171361 1.054671 0.076029 0.001560 -377932.000000 0 0 1
34.769256 5.877563 20.458790 40.767745 0.167462 1.045074 0.092670 -0.000302 148577.000000 0 0 1
34.735656 7.011063 21.302290 41.346202 0.199165 1.029535 0.097597 -0.002557 -225648.000000 0 0 1
35.582956 6.727663 22.590490 42.681828 0.186864 1.013049 0.111809 -0.010677 46261.300000 0 0 1
34.964956 5.848263 23.451670 42.505661 0.165727 0.986359 0.104384 -0.000908 222321.000000 0 0 1
35.726656 5.662763 24.646570 43.771158 0.157195 0.972691 0.113959 -0.009216 382656.000000 0 0 1
34.923756 4.791163 25.661830 43.602219 0.136338 0.941539 0.110506 -0.003163 301686.000000 0 0 1
34.798356 3.473363 25.269830 43.145732 0.099484 0.945071 0.103102 -0.005277 64884.000000 0 0 1
33.852156 2.871563 26.122890 42.855802 0.084624 0.915300 0.098333 0.001293 -95606.000000 0 0 1
33.956356 1.335763 26.046840 42.816542 0.039317 0.916834 0.095208 0.001929 106830.000000 0 0 1
33.332756 0.714663 24.919100 41.623851 0.021437 0.928952 0.093831 -0.006356 -29211.600000 0 0 1
33.428156 -0.677037 25.007550 41.752576 -0.020251 0.928612 0.094364 -0.020402 25089.800000 0 0 1
32.564956 -1.469937 23.987330 40.472572 -0.045108 0.936413 0.099342 -0.000492 -122574.000000 0 0 1
31.186256 -1.340537 24.205950 39.500730 -0.042958 0.911200 0.086159 -0.005259 -814999.000000 0 0 1
30.480456 -2.108237 23.272360 38.407104 -0.069057 0.919851 0.086199 -0.006634 1726480.000000 0 0 1
28.906356 -2.129737 23.519290 37.326535 -0.073544 0.889120 0.082821 0.003701 1816120.000000 0 0 1
28.177056 -0.913037 23.392740 36.633324 -0.032392 0.878165 0.067913 0.003551 -721342.000000 0 0 1
26.816656 -1.172437 23.284250 35.533983 -0.043693 0.856260 0.066753 0.001029 -1086120.000000 0 0 1
25.951656 0.014363 23.136560 34.767644 0.000553 0.842683 0.068042 0.001821 -692131.000000 0 0 1
26.021256 0.791063 21.945290 34.048896 0.030391 0.870397 0.055475 0.000095 -360340.000000 0 0 1
25.133256 1.849363 22.030590 33.473088 0.073450 0.852426 0.052344 0.007893 -340784.000000 0 0 1
25.038956 2.781263 20.768490 32.649884 0.110624 0.881367 0.043689 0.007487 -235833.000000 0 0 1
24.405556 2.199663 19.660090 31.416379 0.089887 0.894651 0.048574 0.001217 144249.000000 0 0 1
24.067756 3.242563 18.789290 30.705187 0.133920 0.912303 0.053514 0.007338 -30332.300000 0 0 1
23.735456 2.827963 17.370990 29.548613 0.118586 0.942363 0.060816 -0.003717 -858528.000000 0 0 1
24.877156 2.734363 16.592990 30.027936 0.109475 0.985334 0.051846 -0.012698 -425811.000000 0 0 1
24.763356 3.210963 15.285290 29.277537 0.128946 1.021506 0.051520 -0.011111 -371205.000000 0 0 1
24.230756 2.155163 14.279490 28.207767 0.088710 1.039994 0.055961 0.000701 882732.000000 0 0 1
22.811056 1.968263 14.438190 27.068057 0.086072 1.008177 0.074926 0.001025 1021160.000000 0 0 1
22.392256 0.891663 13.599090 26.213421 0.039799 1.025369 0.077646 -0.008266 -1167370.000000 0 0 1
20.948556 0.534363 13.891790 25.141786 0.025503 0.985390 0.087911 -0.017498 -742165.000000 0 0 1
19.925356 1.263063 13.196490 23.932457 0.063305 0.986748 0.101312 -0.014775 973388.000000 0 1 0
19.705656 1.016363 11.804690 22.993403 0.051532 1.031660 0.096391 -0.012212 -974912.000000 0 1 0
19.334256 -0.407237 11.349790 22.423136 -0.021060 1.040065 0.082293 -0.011267 -4284.570000 0 1 0
20.385956 -1.373337 11.426490 23.410210 -0.067265 1.060886 0.091332 -0.030479 624532.000000 0 1 0
21.425256 -1.218037 10.468090 23.876895 -0.056789 1.116957 0.098591 -0.031819 -493467.000000 0 1 0
22.570356 -2.171037 10.785290 25.108900 -0.095895 1.126812 0.119750 -0.038598 -418136.000000 0 0 1
23.041656 -1.912037 12.111090 26.100811 -0.082792 1.088277 0.108414 -0.043517 84644.900000 0 0 1
24.039856 -2.845437 12.468690 27.230120 -0.117815 1.095164 0.100811 -0.032645 -140019.000000 0 0 1
24.442056 -2.675537 13.960290 28.274765 -0.109030 1.054415 0.136192 -0.030708 -214143.000000 0 0 1
25.318256 -1.627337 14.203490 29.075788 -0.064187 1.060428 0.103108 -0.024846 -374583.000000 0 0 1
25.537656 -1.354637 15.574590 29.942859 -0.052995 1.023777 0.068545 -0.019378 352508.000000 0 0 1
26.769356 -0.429837 15.812390 31.093647 -0.016056 1.037307 0.092559 -0.009675 -93795.600000 0 0 1
28.014356 -1.041137 15.729390 32.145013 -0.037147 1.059480 0.096808 -0.018550 -892130.000000 0 0 1
29.018056 -0.093737 15.645790 32.967365 -0.003230 1.076305 0.074168 -0.012576 498671.000000 0 0 1
30.503956 -0.584537 15.756390 34.337980 -0.019160 1.094082 0.065355 -0.011781 948716.000000 0 0 1
31.113056 -1.295537 14.686690 34.429632 -0.041616 1.130098 0.090796 -0.010528 1097850.000000 0 0 1
32.526656 -1.465437 14.939990 35.823654 -0.045023 1.140607 0.099813 -0.021394 748898.000000 0 0 1
33.186656 -2.203637 13.786690 36.003930 -0.066304 1.177839 0.107828 -0.030807 -332564.000000 0 0 1
33.255756 -1.493037 12.557190 35.578891 -0.044865 1.210086 0.113576 -0.027664 -11806.300000 0 0 1
34.082256 -2.199537 11.684190 36.096516 -0.064447 1.241166 0.108424 -0.031022 -253909.000000 0 0 1
34.008956 -1.647537 10.228890 35.552126 -0.048406 1.278956 0.148317 -0.031202 133624.000000 0 0 1
34.543256 -0.301337 10.099490 35.990653 -0.008723 1.286362 0.109187 -0.025426 455540.000000 0 0 1
33.495556 0.573963 9.796490 34.903481 0.017134 1.286300 0.121316 -0.032043 -517945.000000 0 0 1
33.970756 1.992463 9.503990 35.331403 0.058585 1.298446 0.115047 -0.032113 69196.500000 0 0 1
34.717756 1.895663 8.282390 35.742330 0.054548 1.336946 0.113207 -0.027432 417701.000000 0 0 1
35.044456 3.207463 7.825090 36.050434 0.091271 1.351995 0.104981 -0.024676 -47966.200000 0 0 1
35.608756 3.181263 6.383390 36.315997 0.089103 1.394105 0.097423 -0.022627 -28896.200000 0 0 1
35.872956 4.504263 5.981290 36.646053 0.124908 1.406845 0.077697 -0.008287 188815.000000 0 0 1
36.408756 4.599063 4.650690 36.991592 0.125652 1.444740 0.090625 0.003487 -406242.000000 0 0 1
36.660256 6.092963 4.285290 37.409388 0.164695 1.455993 0.095699 -0.007437 -8895.200000 0 0 1
35.594356 7.036963 4.240190 36.530210 0.195182 1.454461 0.102893 -0.022702 54621.300000 0 0 1
36.069056 8.290363 3.793090 37.203420 0.225923 1.468663 0.093491 -0.025746 -545869.000000 0 0 1
34.898856 9.303163 3.675690 36.304128 0.260517 1.469375 0.126227 -0.042227 466263.000000 0 0 1
33.969256 9.123263 2.619890 35.270499 0.262382 1.496448 0.139357 -0.044481 -54065.400000 0 0 1
33.110956 8.050263 2.762590 34.187338 0.238502 1.489901 0.149100 -0.034974 -1251610.000000 0 0 1
31.929756 7.964963 1.768290 32.955680 0.244463 1.517114 0.166084 -0.051346 167467.000000 0 0 1
32.258456 7.673363 0.449090 33.161577 0.233531 1.557253 0.177888 -0.051293 -195190.000000 0 0 1
31.064856 7.679263 -0.271510 32.001095 0.242343 1.579281 0.190824 -0.048950 -430247.000000 0 0 1
31.286456 7.286863 -1.738910 32.170865 0.228828 1.624875 0.159731 -0.043422 -128303.000000 0 0 1
30.166256 6.868563 -2.501410 31.039285 0.223874 1.651472 0.170247 -0.045454 641541.000000 0 0 1
30.599156 6.683263 -3.805910 31.550901 0.215036 1.691718 0.155804 -0.036454 -215730.000000 0 0 1
29.535256 5.949763 -4.653610 30.485851 0.198786 1.724044 0.163306 -0.035908 -195799.000000 0 0 1
29.402156 4.543163 -4.416410 30.077098 0.153306 1.718165 0.169297 -0.038476 47826.000000 0 0 1
28.370356 4.088963 -5.212510 29.133606 0.143142 1.750682 0.163082 -0.039088 -743477.000000 0 0 1
27.991456 2.563963 -5.070610 28.562329 0.091343 1.749270 0.173330 -0.032033 -313250.000000 0 0 1
27.452856 2.151863 -3.839910 27.803502 0.078224 1.709348 0.166216 -0.043743 510001.000000 0 0 1
27.456256 0.717963 -4.045010 27.761909 0.026143 1.717020 0.145883 -0.038903 -102662.000000 0 0 1
27.478456 0.103463 -2.625810 27.603825 0.003765 1.666065 0.151136 -0.039923 -476423.000000 0 0 1
28.635856 0.429263 -1.934710 28.704349 0.014989 1.638249 0.165197 -0.040569 -291750.000000 0 0 1
28.455356 0.250563 -0.529210 28.461380 0.008805 1.589391 0.171595 -0.032058 -262591.000000 0 0 1
29.706156 0.563863 0.317990 29.713209 0.018979 1.560094 0.176212 -0.027699 361269.000000 0 0 1
30.787556 -0.304537 -0.024910 30.789073 -0.009891 1.571605 0.162391 -0.023149 493176.000000 0 0 1
32.015456 0.112363 0.551190 32.020398 0.003510 1.553582 0.123840 -0.026140 238221.000000 0 0 1
-2.931744 -21.496037 -8.357811 23.249253 1.435247 1.938515 0.022514 0.012296 124310.000000 0 1 0
-3.470044 -22.037037 -7.212311 23.445461 1.414615 1.883488 0.034496 0.003471 -178197.000000 0 1 0
-2.589844 -23.055437 -6.740911 24.159892 1.458934 1.853562 0.037379 0.001155 270162.000000 0 1 0
-3.022744 -23.729837 -5.442111 24.532809 1.444097 1.794487 0.042812 0.004912 -462894.000000 0 1 0
-2.846344 -22.869937 -4.353811 23.454027 1.446975 1.757511 0.040955 -0.006541 -261770.000000 0 1 0
-3.355044 -23.431537 -3.177011 23.882769 1.428578 1.704217 0.053687 -0.019497 -435276.000000 0 1 0
-2.918744 -22.660237 -1.904411 22.926670 1.442697 1.653957 0.052526 -0.035257 -395248.000000 0 1 0
-1.566644 -22.729737 -1.583911 22.838654 1.501980 1.640204 0.053438 -0.031328 -1246720.000000 0 1 0
-1.249844 -22.360437 -0.297311 22.397314 1.514959 1.584071 0.056310 -0.040961 967218.000000 0 1 0
0.285556 -22.410237 0.049889 22.412112 -1.558055 1.568570 0.057227 -0.043271 1389300.000000 0 1 0
1.041056 -21.356237 -0.617811 21.390520 -1.522088 1.599683 0.046444 -0.035901 -241830.000000 0 1 0
2.225556 -21.010437 0.035289 21.128010 -1.465264 1.569126 0.040098 -0.036348 -145426.000000 0 1 0
3.008156 -19.882537 -0.713011 20.121448 -1.420639 1.606239 0.037849 -0.033852 371799.000000 0 1 0
3.573856 -20.294537 -1.938311 20.697771 -1.396484 1.664582 0.036433 -0.025615 -343758.000000 0 1 0
4.781956 -19.580337 -2.123411 20.267353 -1.331263 1.675759 0.041503 -0.017321 247039.000000 0 1 0
5.570956 -20.077337 -3.373911 21.107305 -1.300131 1.731331 0.040227 -0.009597 -721179.000000 0 1 0
6.273156 -21.252837 -3.125811 22.378701 -1.283778 1.710932 0.038196 -0.009091 322265.000000 0 1 0
7.195356 -21.733537 -4.137811 23.264593 -1.251083 1.749606 0.042383 -0.009364 1538370.000000 0 1 0
8.436556 -20.856537 -4.548511 22.953422 -1.186413 1.770279 0.054263 -0.012690 283366.000000 0 1 0
8.105456 -19.824337 -5.465311 22.103674 -1.182672 1.820646 0.052535 -0.007229 396800.000000 0 1 0
9.275456 -19.116337 -5.899111 22.051484 -1.119050 1.841610 0.063355 -0.016958 684850.000000 0 1 0
8.931656 -17.968437 -6.847111 21.201938 -1.109492 1.899638 0.050622 -0.008108 -345216.000000 0 1 0
10.119456 -17.648537 -7.504311 21.683841 -1.050174 1.924184 0.063419 -0.006640 -61814.100000 0 1 0
9.959556 -16.464737 -8.224911 20.926765 -1.026780 1.974724 0.058944 -0.003488 13997.700000 0 1 0
10.454656 -16.578437 -9.663911 21.852588 -1.008167 2.028882 0.061855 -0.005393 673483.000000 0 1 0
9.621356 -17.342937 -10.606311 22.490927 -1.064298 2.061880 0.058181 -0.008576 806723.000000 0 1 0
8.828956 -16.551037 -11.506911 22.006733 -1.080757 2.121024 0.044656 -0.014660 246116.000000 0 1 0
8.300856 -17.283837 -12.727511 23.013578 -1.123059 2.156809 0.061568 -0.021329 481968.000000 0 1 0
7.288656 -18.293637 -12.516511 23.333339 -1.191648 2.136988 0.050276 -0.011902 627662.000000 0 1 0
6.988756 -18.957537 -13.717211 24.421155 -1.217602 2.167228 0.059840 -0.009096 137861.000000 0 1 0
5.801256 -19.945837 -13.489711 24.768191 -1.287755 2.146754 0.048699 0.001900 384531.000000 0 1 0
6.109956 -21.125837 -12.794411 25.442671 -1.289261 2.097715 0.060538 -0.015010 382664.000000 0 0 1
4.897656 -21.786137 -12.415811 25.549465 -1.349666 2.078248 0.067594 -0.007505 808999.000000 0 0 1
5.112156 -23.318837 -12.464211 26.930631 -1.354982 2.051978 0.054459 -0.016411 -379657.000000 0 0 1
5.496056 -23.818137 -13.724011 28.033173 -1.344015 2.082385 0.070492 -0.020126 -139578.000000 0 0 1
5.035856 -25.138777 -14.032611 29.227250 -1.373091 2.071589 0.055127 -0.007139 810338.000000 0 0 1
3.489856 -25.329097 -14.162011 29.228493 -1.433878 2.076619 0.062231 -0.011266 -140282.000000 0 0 1
2.700756 -25.008537 -13.025811 28.326538 -1.463220 2.048617 0.069694 -0.014543 -394996.000000 0 0 1
1.328456 -24.993837 -13.369611 28.376103 -1.517695 2.061399 0.059506 -0.018138 103298.000000 0 0 1
0.677756 -26.339757 -12.993111 29.377936 -1.545071 2.028929 0.051381 -0.008948 -1013340.000000 0 0 1
1.182856 -27.346487 -13.835711 30.670123 -1.527569 2.038809 0.055963 -0.007304 45761.600000 0 0 1
0.812556 -28.613807 -13.362011 31.590403 -1.542407 2.007524 0.046027 0.000137 1189700.000000 0 0 1
-0.706544 -29.043147 -13.440111 32.010002 1.546474 2.004101 0.041839 -0.011003 1772430.000000 0 0 1
-1.730244 -28.396297 -12.634911 31.128515 1.509940 1.988754 0.038431 -0.014289 775811.000000 0 0 1
-2.984544 -28.507147 -13.297611 31.597332 1.466482 2.005174 0.046067 -0.009323 -543186.000000 0 0 1
-4.079944 -27.696037 -12.629611 30.711944 1.424537 1.994597 0.043999 -0.010033 -344985.000000 0 0 1
-4.514544 -28.031617 -11.330211 30.570024 1.411116 1.950485 0.056298 -0.021041 24149.400000 0 0 1
-5.031944 -29.352597 -11.181211 31.810610 1.401016 1.929962 0.044484 -0.021989 -892516.000000 0 0 1
-5.703544 -29.647967 -9.837211 31.753789 1.380743 1.885775 0.061142 -0.027781 665870.000000 0 0 1
-6.999944 -29.095057 -9.550311 31.412259 1.334695 1.879718 0.065541 -0.026476 553300.000000 0 0 1
-7.174244 -27.687587 -9.468711 30.128537 1.317258 1.890491 0.072064 -0.024449 -296454.000000 0 0 1
-8.542744 -27.289787 -8.827311 29.927118 1.267421 1.870210 0.072200 -0.023116 1550090.000000 0 0 1
-9.788744 -27.367767 -9.539611 30.591149 1.227301 1.887928 0.077751 -0.024539 649262.000000 0 0 1
-10.160144 -28.638247 -9.973011 31.981849 1.229874 1.887918 0.086758 -0.030232 374198.000000 0 0 1
-11.484944 -28.700407 -10.852811 32.762796 1.190146 1.908429 0.082275 -0.032991 630713.000000 0 0 1
-11.344044 -27.982737 -12.078711 32.521011 1.185648 1.951326 0.094934 -0.035397 -82335.200000 0 0 1
-11.767244 -28.742947 -13.169711 33.735239 1.182216 1.971845 0.099629 -0.036241 -272394.000000 0 0 1
-12.007144 -27.810067 -14.433211 33.554268 1.163218 2.015450 0.103492 -0.029298 339089.000000 0 0 1
-13.182044 -26.977457 -14.385311 33.293943 1.116285 2.017583 0.081980 -0.034263 648038.000000 0 0 1
-13.233244 -25.966727 -13.391711 32.073784 1.099480 2.001520 0.095974 -0.029868 436765.000000 0 0 1
-14.362644 -24.875837 -13.650211 31.802847 1.047180 2.014418 0.110087 -0.026117 572917.000000 0 0 1
-14.070944 -24.021037 -14.823911 31.539658 1.040901 2.060097 0.106714 -0.025022 119333.000000 0 0 1
-15.139644 -23.149637 -15.090311 31.509237 0.991621 2.070217 0.117197 -0.024480 -224246.000000 0 0 1
-14.893744 -22.402637 -16.423311 31.518675 0.984073 2.118896 0.111016 -0.021647 -537920.000000 0 0 1
-13.766344 -21.609737 -16.309111 30.372357 1.003583 2.137640 0.103312 -0.017595 -392011.000000 0 0 1
-13.548844 -20.897437 -17.531111 30.456755 0.995582 2.184142 0.088502 -0.014364 -167091.000000 0 0 1
-13.608144 -19.313137 -17.476811 29.387374 0.956986 2.207695 0.092558 -0.011711 253705.000000 0 0 1
-12.331944 -18.690237 -17.431611 28.377154 0.987558 2.232274 0.079606 -0.004306 348412.000000 0 0 1
-12.491144 -17.329937 -17.774711 27.790210 0.946257 2.264778 0.082853 -0.005985 139435.000000 0 0 1
-11.180344 -16.530037 -17.920511 26.821390 0.976109 2.302506 0.087505 -0.010757 58723.000000 0 0 1
-10.524344 -16.152337 -16.725811 25.522785 0.993320 2.285414 0.095300 -0.006066 246936.000000 0 0 1
-9.239844 -15.607237 -16.976411 24.842687 1.036263 2.323147 0.092976 -0.005260 -534048.000000 0 1 0
-8.652044 -14.938537 -15.760011 23.375109 1.045829 2.310707 0.076680 -0.004170 -208562.000000 0 1 0
-8.321844 -15.829837 -14.710711 23.156896 1.086796 2.259145 0.083553 0.003734 334386.000000 0 1 0
-7.135844 -16.591537 -14.928611 23.432089 1.164623 2.261528 0.088298 0.001293 -207063.000000 0 1 0
-6.684644 -17.425537 -13.661611 23.129493 1.204497 2.202670 0.068913 -0.001719 -398273.000000 0 1 0
-5.866244 -16.802537 -12.703211 21.865719 1.234898 2.190710 0.054535 -0.003585 118147.000000 0 1 0
-5.739944 -17.626937 -11.579111 21.857074 1.255990 2.129120 0.052875 -0.004051 -73038.800000 0 1 0
-4.624844 -18.703037 -11.595511 22.486633 1.328381 2.112577 0.058748 -0.006871 1132380.000000 0 1 0
-3.291644 -18.093637 -11.687111 21.789979 1.390842 2.136906 0.050721 -0.003631 903386.000000 0 1 0
-2.320644 -19.116637 -11.697011 22.531118 1.449993 2.116651 0.040480 0.006841 -310258.000000 0 1 0
-0.911244 -18.591937 -11.899611 22.092787 1.521823 2.139594 0.037724 0.007984 -880315.000000 0 1 0
-0.699044 -18.253437 -13.284211 22.586432 1.532518 2.199566 0.049931 -0.000272 -444896.000000 0 1 0
0.488856 -17.640637 -13.717511 22.351760 -1.543091 2.231548 0.041409 -0.000854 -141899.000000 0 1 0
1.693856 -18.595137 -13.952311 23.309124 -1.479956 2.212520 0.036512 -0.003722 -88599.500000 0 1 0
1.505156 -19.585537 -14.966211 24.695065 -1.494097 2.221870 0.045598 -0.002838 247233.000000 0 1 0
0.836756 -20.766537 -14.484211 25.332619 -1.530525 2.179447 0.050602 -0.004895 -199117.000000 0 0 1
0.794556 -21.905137 -15.547911 26.873852 -1.534540 2.187748 0.055003 -0.004717 1215220.000000 0 0 1
2.041256 -22.632537 -15.764511 27.657156 -1.480848 2.177299 0.075131 -0.014171 944623.000000 0 0 1
2.961256 -21.961037 -16.595111 27.684904 -1.436763 2.213583 0.077686 -0.017058 -320937.000000 0 0 1
4.356356 -22.596537 -16.629911 28.392522 -1.380344 2.196558 0.075955 -0.019658 -203683.000000 0 0 1
4.474056 -23.798537 -17.430511 29.836392 -1.384968 2.194694 0.071161 -0.012824 -183696.000000 0 0 1
5.811756 -24.147237 -17.687411 30.491148 -1.334609 2.189628 0.082072 -0.018818 28309.600000 0 0 1
6.319056 -23.902337 -19.104511 31.244752 -1.312340 2.228684 0.086769 -0.015209 -17380.000000 0 0 1
6.362056 -22.530637 -19.383411 30.394440 -1.295588 2.262342 0.098930 -0.027234 5578.090000 0 0 1
6.863156 -22.401037 -20.699511 31.263064 -1.273500 2.294424 0.106280 -0.018300 -106721.000000 0 0 1
7.053456 -20.935837 -21.028211 30.499938 -1.245832 2.331527 0.095555 -0.010333 -698231.000000 0 0 1
5.930556 -20.177037 -21.272011 29.912920 -1.284921 2.361902 0.092702 -0.019248 -895335.000000 0 0 1
6.221656 -18.846437 -21.629311 29.355141 -1.251937 2.399144 0.093174 -0.016505 492826.000000 0 0 1
4.964456 -18.058237 -22.137211 28.996584 -1.302510 2.439422 0.090156 -0.015409 -144458.000000 0 0 1
4.450556 -18.534237 -23.380111 30.165460 -1.335132 2.457610 0.090319 -0.017965 378756.000000 0 0 1
3.531256 -17.658637 -24.045011 30.040969 -1.373426 2.498771 0.083067 -0.012263 1279430.000000 0 0 1
2.143156 -17.307737 -23.379211 29.167420 -1.447597 2.500683 0.083642 -0.003007 311560.000000 0 0 1
2.202256 -16.624437 -22.176011 27.802829 -1.439092 2.494130 0.077787 -0.000825 -398069.000000 0 0 1
1.009556 -15.941437 -21.844411 27.061540 -1.507552 2.510210 0.076253 -0.008044 39745.400000 0 0 1
1.130656 -15.070137 -20.598011 25.547319 -1.495910 2.508614 0.074114 -0.013630 -199854.000000 0 0 1
1.844156 -13.872237 -20.821411 25.087269 -1.438633 2.549831 0.063905 -0.013251 -126832.000000 0 0 1
2.158556 -13.289837 -19.589411 23.770237 -1.409781 2.539434 0.061588 -0.018734 475026.000000 0 1 0
3.424556 -12.383137 -19.556311 23.399124 -1.300990 2.560332 0.053706 -0.018041 -362342.000000 0 1 0
4.688656 -12.976537 -19.609011 23.976808 -1.224074 2.528430 0.046337 -0.010658 -909321.000000 0 1 0
5.772256 -12.119037 -19.619811 23.772400 -1.126291 2.541563 0.054428 -0.003970 -245945.000000 0 1 0
6.015956 -11.065337 -18.466011 22.352337 -1.072821 2.543007 0.048140 -0.009400 -657741.000000 0 1 0
5.126056 -9.950137 -18.308311 21.458703 -1.095083 2.592864 0.022969 -0.002326 -78322.000000 0 1 0
5.351056 -8.835937 -19.154511 21.762419 -1.026268 2.647005 0.038882 -0.010798 -495039.000000 0 1 0
4.790456 -8.816837 -20.580511 22.896343 -1.073088 2.687948 0.053511 -0.019216 -443631.000000 0 1 0
3.388156 -8.842537 -20.552411 22.629001 -1.204886 2.709839 0.047713 -0.020817 -703853.000000 0 1 0
2.896156 -8.813537 -21.881011 23.766464 -1.253309 2.740583 0.055735 -0.029055 657828.000000 0 1 0
1.336856 -8.783137 -21.913311 23.645801 -1.419748 2.756415 0.049992 -0.028411 547550.000000 0 1 0
0.784556 -7.601337 -21.289811 22.619724 -1.467948 2.796978 0.040530 -0.030995 -533214.000000 0 1 0
-0.561844 -7.337437 -21.540611 22.762943 1.494373 2.812394 0.048626 -0.028170 -324061.000000 0 1 0
-0.875244 -6.489637 -22.780211 23.702731 1.436737 2.861680 0.065107 -0.025817 -151993.000000 0 1 0
-0.400744 -7.029337 -24.029411 25.039664 1.513848 2.856565 0.066369 -0.027586 -65671.800000 0 0 1
-0.853844 -6.380437 -25.215031 26.023774 1.437765 2.891635 0.066570 -0.028408 -113210.000000 0 0 1
-0.519144 -4.907937 -25.486031 25.959490 1.465412 2.950312 0.080263 -0.033137 68409.200000 0 0 1
-0.982644 -4.360737 -26.751141 27.122042 1.349159 2.976024 0.072040 -0.029646 132732.000000 0 0 1
-0.482344 -3.057237 -27.143381 27.319270 1.414315 3.028057 0.060834 -0.026186 -376204.000000 0 0 1
-1.012944 -1.820037 -26.335621 26.417864 1.062937 3.062665 0.058296 -0.027789 710298.000000 0 0 1
-2.428744 -1.632437 -26.246771 26.409404 0.591777 3.030557 0.058059 -0.026664 446022.000000 0 0 1
-2.919344 -1.013037 -27.402651 27.576332 0.334007 3.029300 0.070150 -0.025742 -968340.000000 0 0 1
-4.439844 -1.123437 -27.466711 27.845907 0.247833 2.976374 0.077148 -0.022376 -630472.000000 0 0 1
-5.060044 -0.355837 -26.488541 26.969862 0.070207 2.952384 0.073666 -0.023470 -122588.000000 0 0 1
-6.460344 -0.491337 -26.601041 27.378693 0.075908 2.902682 0.085250 -0.037054 28957.200000 0 0 1
-7.413244 0.455063 -25.816051 26.863205 -0.061308 2.861461 0.079045 -0.021730 -899016.000000 0 0 1
-7.565444 1.757963 -26.344751 27.465838 -0.228316 2.854893 0.085971 -0.035380 492458.000000 0 0 1
-8.628444 2.006563 -27.274091 28.676687 -0.228491 2.827540 0.111288 -0.048038 739629.000000 0 0 1
-10.055044 1.573663 -26.826641 28.692316 -0.155245 2.778989 0.109252 -0.043577 263345.000000 0 0 1
-11.158944 2.078163 -27.628701 29.869481 -0.184124 2.751782 0.105660 -0.054199 1650290.000000 0 0 1
-12.442144 1.603163 -27.250831 29.999748 -0.128143 2.710163 0.064206 -0.038958 505118.000000 0 0 1
-13.700344 2.267863 -27.842941 31.113855 -0.164046 2.678942 0.041443 -0.032781 -699398.000000 0 0 1
-14.895644 1.700663 -27.355311 31.194318 -0.113680 2.640238 0.041903 -0.030135 683867.000000 0 0 1
-16.093944 2.193463 -27.977751 32.350902 -0.135457 2.615591 0.039212 -0.023822 820277.000000 0 0 1
-16.514444 3.593863 -27.478411 32.259972 -0.214278 2.590171 0.026469 -0.017909 -949558.000000 0 0 1
-15.671744 4.649063 -27.986531 32.410851 -0.288383 2.612950 0.040294 -0.018172 194169.000000 0 0 1
-15.672644 4.972663 -29.383871 33.671516 -0.307236 2.631425 0.031142 -0.022563 55136.800000 0 0 1
-17.006144 5.390363 -30.120841 35.007571 -0.306948 2.606869 0.014880 -0.003586 573780.000000 0 0 1
-17.584744 6.510563 -29.460421 34.921727 -0.354590 2.574773 0.017513 0.006370 766590.000000 0 0 1
-18.577144 7.195463 -30.268891 36.236594 -0.369535 2.559498 0.007346 0.013052 260900.000000 0 0 1
-19.344044 8.219363 -29.440761 36.173310 -0.401789 2.521597 0.012154 -0.004474 -557633.000000 0 0 1
-18.598344 9.379763 -29.090741 35.779178 -0.467108 2.520191 0.017011 -0.002515 178624.000000 0 0 1
-19.319344 10.329063 -28.370501 35.844273 -0.490981 2.484045 0.048595 0.002418 -303352.000000 0 0 1
-9.078444 25.120463 30.677640 40.676447 -1.224005 0.716381 0.064667 -0.013453 -810916.000000 0 0 1
-9.784644 26.272963 31.023950 41.814989 -1.214287 0.734846 0.070680 -0.012431 -137209.000000 0 0 1
-9.213444 27.143463 31.998140 42.959703 -1.243564 0.730500 0.076548 -0.015779 -310297.000000 0 0 1
-7.822944 27.726363 31.721000 42.850571 -1.295797 0.737324 0.074132 -0.015276 -351203.000000 0 0 1
-7.754144 28.785963 30.755080 42.832620 -1.307670 0.769829 0.082436 -0.011625 -914679.000000 0 0 1
-6.444844 28.967763 30.361870 42.455982 -1.351879 0.773975 0.078986 -0.010106 -808367.000000 0 0 1
-6.247644 29.970463 29.196850 42.305056 -1.365280 0.809099 0.092729 -0.014860 -187186.000000 0 0 1
-6.370244 31.272663 29.638490 43.554558 -1.369846 0.822364 0.101530 -0.017364 356067.000000 0 0 1
-5.794744 32.265263 28.785320 43.625920 -1.393094 0.850215 0.121794 -0.017380 30827.600000 0 0 1
-6.047444 33.648363 29.337200 45.049475 -1.392970 0.861603 0.106386 -0.015814 -406910.000000 0 0 1
-5.554444 33.856763 30.640090 45.999428 -1.408188 0.841832 0.109692 -0.018995 -344236.000000 0 0 1
-6.404044 -33.658538 31.544150 46.571905 1.382779 0.826681 0.105165 -0.019514 -327313.000000 0 0 1
-7.444944 33.622163 32.278187 47.199135 -1.352883 0.817739 0.085305 -0.017897 -23982.000000 0 0 1
-6.935244 32.820163 33.306900 47.271665 -1.362549 0.788958 0.102820 -0.017699 -55937.300000 0 0 1
-7.144344 31.453763 33.142156 46.246982 -1.347448 0.771832 0.099024 -0.005554 30646.900000 0 0 1
-7.109444 30.727063 -33.568611 46.060267 -1.343423 2.387361 0.098813 -0.008093 -67499.300000 0 0 1
-5.769444 30.513163 -33.212321 45.468647 -1.383922 2.389769 0.089087 -0.008933 -337666.000000 0 0 1
-5.761244 30.194063 -31.859601 44.270843 -1.382255 2.374097 0.085059 -0.012097 635311.000000 0 0 1
-4.325144 29.986563 -31.212711 43.498668 -1.427548 2.371083 0.072818 -0.015800 1179580.000000 0 0 1
-3.698444 28.750663 -31.452771 42.773308 -1.442860 2.396959 0.075996 -0.007807 174711.000000 0 0 1
-3.355644 28.484463 -32.845291 43.605483 -1.453531 2.423767 0.069277 -0.013163 -693994.000000 0 0 1
-2.765744 27.063563 -33.035101 42.794902 -1.468956 2.452684 0.060492 -0.016791 -329151.000000 0 0 1
-1.524044 26.894663 -32.362911 42.107049 -1.514190 2.447425 0.075887 -0.017351 468504.000000 0 0 1
-0.855144 25.661763 -32.627121 41.518506 -1.537485 2.474858 0.086096 -0.017110 561199.000000 0 0 1
-0.236244 25.381663 34.046419 42.466967 -1.561489 0.640637 0.062200 -0.011951 -54015.300000 0 0 1
-1.291344 25.197363 33.116574 41.632705 -1.519592 0.651053 0.068766 -0.009378 122870.000000 0 0 1
-0.906944 24.948963 31.770600 40.405993 -1.534460 0.666024 0.084637 -0.011943 75283.200000 0 0 1
-0.409144 26.195563 30.976140 40.569646 -1.555179 0.702034 0.065026 -0.011363 284629.000000 0 0 1
-1.412644 27.187663 30.788160 41.098362 -1.518884 0.724043 0.071088 -0.016703 308549.000000 0 0 1
-0.862044 28.389163 30.200060 41.457584 -1.540440 0.754730 0.076078 -0.014637 397911.000000 0 0 1
-1.837844 29.596663 30.293670 42.391586 -1.508780 0.774723 0.087265 -0.015947 270095.000000 0 0 1
-1.927944 30.109463 31.570170 43.668894 -1.506852 0.762742 0.101165 -0.022666 -159561.000000 0 0 1
-2.898644 31.099963 31.736170 44.528578 -1.477861 0.777436 0.093312 -0.019866 3799.120000 0 0 1
-2.506144 31.854763 33.020992 45.949892 -1.492284 0.768965 0.114911 -0.016658 1005440.000000 0 0 1
-1.242644 32.512163 32.816919 46.211850 -1.532594 0.781098 0.102129 -0.028943 456851.000000 0 0 1
-0.718144 32.982863 34.046578 47.408379 -1.549027 0.769649 0.079653 -0.024225 48651.000000 0 0 1
0.733256 33.502263 34.004812 47.741664 1.548913 0.778074 0.085907 -0.029819 -2103.370000 0 0 1
0.789956 -33.526838 33.175849 47.173190 -1.547239 0.790799 0.104291 -0.035662 745458.000000 0 0 1
2.161456 -33.118638 33.061739 46.846501 -1.505625 0.787321 0.076337 -0.036216 596720.000000 0 0 1
2.367756 -31.711138 32.537163 45.495819 -1.496268 0.773932 0.080690 -0.040204 -160097.000000 0 0 1
1.850256 -30.889238 33.553993 45.644703 -1.510968 0.744964 0.078964 -0.034461 274376.000000 0 0 1
1.983556 -29.492538 33.251232 44.490322 -1.503641 0.726685 0.058792 -0.036712 -110160.000000 0 0 1
1.522556 -28.638038 -33.660141 44.220589 -1.517681 2.435938 0.058820 -0.031304 -103358.000000 0 0 1
0.129056 -28.658438 -33.506551 44.090948 -1.566293 2.434020 0.051590 -0.029704 23861.100000 0 0 1
-0.436544 -28.166038 -32.273751 42.838199 1.555299 2.423994 0.058123 -0.030861 -107476.000000 0 0 1
-1.913244 -27.779838 -32.282251 42.632425 1.502033 2.429847 0.071383 -0.026668 -328815.000000 0 0 1
-2.317844 -27.245538 -31.059631 41.381064 1.485928 2.419730 0.069881 -0.032517 -64545.600000 0 0 1
-3.556844 -26.573438 -31.126221 41.080901 1.437738 2.430549 0.075271 -0.032423 -91425.400000 0 0 1
-3.884344 -25.852638 -29.808841 39.648632 1.421662 2.421622 0.082743 -0.035856 -82569.400000 0 0 1
-4.527444 -26.734938 -28.901741 39.630358 1.403042 2.388070 0.085369 -0.038989 -172212.000000 0 0 1
-4.830644 -26.221838 -27.638761 38.403399 1.388617 2.374160 0.088815 -0.033031 -522042.000000 0 0 1
-3.693144 -26.041338 -26.634771 37.432628 1.429917 2.362482 0.079669 -0.031988 -345064.000000 0 0 1
-3.034944 -24.832438 -27.026091 36.827578 1.449183 2.394775 0.078665 -0.023923 -247026.000000 0 0 1
-1.931344 -24.548838 -26.223801 35.973091 1.492285 2.387633 0.075819 -0.017716 -1202550.000000 0 0 1
-1.121644 -23.297038 -26.706301 35.457532 1.522688 2.423696 0.077436 -0.017457 855868.000000 0 0 1
-0.345044 -23.560138 -27.921331 36.534913 1.556152 2.440654 0.057293 -0.019113 680106.000000 0 0 1
0.684456 -24.529338 -27.860361 37.126226 -1.542900 2.419498 0.056370 -0.024479 -509188.000000 0 0 1
1.527756 -24.843838 -29.086951 38.283169 -1.509379 2.433778 0.044900 -0.028604 669522.000000 0 0 1
2.613756 -23.931738 -29.322071 37.938683 -1.462010 2.454165 0.058796 -0.026687 418997.000000 0 0 1
3.382356 -24.225038 -30.449871 39.057489 -1.432071 2.464850 0.065979 -0.023149 -154740.000000 0 0 1
4.402956 -23.067938 -30.808551 38.738645 -1.382196 2.490286 0.079499 -0.032095 677717.000000 0 0 1
5.615156 -22.924838 -30.046821 38.208502 -1.330588 2.475741 0.079431 -0.033609 1033520.000000 0 0 1
6.575856 -23.959238 -30.085681 39.018396 -1.302932 2.451307 0.070748 -0.025270 -254653.000000 0 0 1
7.266256 -24.252238 -31.437441 40.364368 -1.279696 2.463613 0.070763 -0.022834 -598277.000000 0 0 1
6.536456 -25.166038 -32.275341 41.445776 -1.316678 2.463446 0.046677 -0.025401 172678.000000 0 0 1
6.798956 -25.036538 -33.696111 42.526250 -1.305630 2.485465 0.061083 -0.026949 -12864.100000 0 0 1
6.304556 -23.694638 33.776974 41.738079 -1.310746 0.627904 0.064565 -0.027466 -1012630.000000 0 0 1
4.927756 -23.569838 33.790812 41.492638 -1.364695 0.619135 0.074341 -0.030132 -1086090.000000 0 0 1
4.518956 -22.465738 32.980577 40.160289 -1.372296 0.607244 0.080854 -0.035724 -782518.000000 0 0 1
3.046956 -22.130938 33.189004 40.007154 -1.433978 0.592447 0.060165 -0.028452 -741451.000000 0 0 1
2.075856 -23.030438 32.787339 40.121314 -1.480904 0.614252 0.054350 -0.030043 -371947.000000 0 0 1
1.874956 -24.038138 33.776606 41.499478 -1.492955 0.619955 0.052288 -0.021185 -98104.700000 0 0 1
0.480456 -24.744238 33.668666 41.786209 -1.551382 0.633879 0.043187 -0.015365 662794.000000 0 0 1
0.425156 -25.719638 32.607583 41.532337 -1.554267 0.667918 0.050737 -0.009844 -1249600.000000 0 0 1
-0.846444 -25.967338 32.154522 41.339236 1.538211 0.679605 0.045244 -0.014099 -1104810.000000 0 0 1
-0.957044 -26.996238 31.008280 41.124521 1.535360 0.716651 0.047281 -0.031445 -291878.000000 0 0 1
-2.245544 -26.982838 30.464550 40.757881 1.487766 0.726578 0.058840 -0.032196 -356142.000000 0 0 1
-2.506744 -27.955738 29.505770 40.723427 1.481367 0.760429 0.061426 -0.036786 987862.000000 0 0 1
-3.936444 -27.999338 28.821730 40.375124 1.431121 0.775818 0.070357 -0.026131 873688.000000 0 0 1
-4.967044 -28.505038 29.616880 41.404931 1.398277 0.773745 0.072519 -0.023793 514050.000000 0 0 1
-6.145944 -28.817138 28.838070 41.229047 1.360671 0.796155 0.051773 -0.018229 555635.000000 0 0 1
-7.315444 -29.331738 29.658490 42.349647 1.326379 0.794945 0.051984 -0.012357 -367141.000000 0 0 1
-8.510544 -29.662038 28.974950 42.329819 1.291385 0.816873 0.073486 -0.005527 515753.000000 0 0 1
-9.571944 -30.240338 29.723520 43.469389 1.264245 0.817865 0.080505 -0.007896 226497.000000 0 0 1
-9.282344 -31.553138 30.593320 44.918968 1.284686 0.821562 0.061811 -0.003702 -701095.000000 0 0 1
-9.096544 -32.796438 29.918510 45.315237 1.300234 0.849670 0.077646 -0.002488 -230135.000000 0 0 1
-10.220544 -33.209738 29.196180 45.384613 1.272238 0.871988 0.063935 0.003473 -360133.000000 0 0 1
-10.203044 33.426463 28.838680 45.311146 -1.274541 0.880898 0.071966 -0.000689 -133235.000000 0 0 1
-10.602744 32.568563 29.889960 45.459203 -1.256066 0.853285 0.072944 0.003134 123738.000000 0 0 1
-10.265444 31.239363 29.582650 44.231327 -1.253306 0.838180 0.083951 -0.009367 270766.000000 0 0 1
-10.892144 30.220263 30.627540 44.384111 -1.224864 0.809229 0.076540 -0.001229 -26421.300000 0 0 1
-12.301344 30.203363 30.514900 44.662348 -1.184027 0.818612 0.067626 0.007592 -215833.000000 0 0 1
-12.892644 29.071863 31.087810 44.472974 -1.153382 0.796760 0.057300 0.007664 -119454.000000 0 0 1
-12.893144 28.920063 32.625275 45.464401 -1.151424 0.770446 0.069063 -0.004704 -846246.000000 0 0 1
-13.973644 29.632663 33.131679 46.594694 -1.130157 0.779790 0.058717 -0.002279 -114184.000000 0 0 1
-14.049444 29.371763 -33.577601 46.771173 -1.124633 2.371595 0.060901 -0.010811 -508916.000000 0 0 1
-15.380044 29.813563 -32.992541 47.052120 -1.094530 2.347863 0.036276 -0.009272 -555336.000000 0 0 1
-15.562844 29.363863 -31.659041 45.899166 -1.083438 2.331943 0.028500 -0.012527 -1091210.000000 0 0 1
-16.849144 29.574763 -31.216701 46.184875 -1.052944 2.312992 0.037207 -0.015035 -847994.000000 0 0 1
-16.989244 29.356263 -29.673121 45.065715 -1.046166 2.289542 0.052133 -0.028815 -119202.000000 0 0 1
-17.155844 27.970663 -29.341321 44.018111 -1.020617 2.300399 0.049549 -0.030857 92478.800000 0 0 1
-17.155744 27.773663 -27.960631 42.982471 -1.017465 2.279055 0.054749 -0.034807 -203674.000000 0 0 1
-17.586244 26.341463 -27.653341 42.045878 -0.982130 2.288550 0.036662 -0.033590 -423367.000000 0 0 1
-18.887044 26.095463 -28.104591 42.749990 -0.944297 2.288183 0.036626 -0.032294 -595893.000000 0 0 1
-19.371344 24.846663 -27.721511 41.965316 -0.908597 2.292389 0.026242 -0.030971 -859700.000000 0 0 1
-20.781744 24.642863 -28.232981 42.851520 -0.870195 2.290093 0.032225 -0.028680 -597463.000000 0 0 1
-21.758344 25.338663 -27.475301 43.247723 -0.861272 2.259194 0.029211 -0.028510 453334.000000 0 0 1
-22.999944 24.663763 -27.434331 43.473453 -0.820291 2.253714 0.049388 -0.028949 193573.000000 0 0 1
-24.098544 24.949363 -26.433501 43.611243 -0.802743 2.221965 0.071204 -0.035080 -527649.000000 0 0 1
-24.772844 26.192163 -26.441531 44.708810 -0.813240 2.203611 0.039119 -0.017193 980184.000000 0 0 1
-25.982874 26.142963 -25.627811 44.892638 -0.788469 2.178360 0.049455 -0.017086 1005480.000000 0 0 1
-25.875194 25.810063 -24.119111 43.788315 -0.784138 2.154133 0.054431 -0.008892 -984227.000000 0 0 1
-25.566194 24.441463 -23.797811 42.630402 -0.762911 2.163054 0.060303 -0.007548 -136971.000000 0 0 1
-26.706114 23.641463 -23.571111 42.751989 -0.724603 2.154772 0.064032 -0.004026 -309887.000000 0 0 1
-27.343644 23.784263 -22.136511 42.466353 -0.715893 2.119137 0.044977 -0.008796 -84748.800000 0 0 1
-26.636964 23.253763 -21.028711 41.139665 -0.717690 2.107323 0.051732 -0.012184 186515.000000 0 0 1
-25.465304 23.956163 -20.667311 40.614248 -0.754872 2.104666 0.051769 -0.010353 -8210.590000 0 0 1
-24.730344 23.421063 -19.427711 39.211886 -0.758214 2.089154 0.061230 -0.016815 -311229.000000 0 0 1
-25.525854 23.525463 -18.284311 39.234330 -0.744639 2.055593 0.055248 -0.011584 -441789.000000 0 0 1
-24.764344 23.494963 -17.144511 38.199741 -0.759101 2.036232 0.059818 -0.020594 -820042.000000 0 0 1
-25.426994 23.611463 -15.785911 38.121230 -0.748392 1.997748 0.061066 -0.016846 -526398.000000 0 0 1
-25.781494 24.936663 -15.494211 39.071641 -0.768742 1.978562 0.077358 -0.020096 -20206.200000 0 0 1
-26.261134 24.907663 -14.151111 38.862485 -0.758953 1.943498 0.040502 -0.014620 63480.800000 0 0 1
-26.129454 26.272063 -13.380811 39.395631 -0.788120 1.917343 0.037238 -0.012525 -905631.000000 0 0 1
-24.855344 26.757063 -13.239011 38.845848 -0.822228 1.918574 0.068885 -0.015913 -1310470.000000 0 0 1
-24.731844 27.520363 -12.102311 38.929428 -0.838714 1.886913 0.059984 -0.012886 391929.000000 0 0 1
-23.334944 28.086563 -11.688511 38.340525 -0.877542 1.880588 0.066821 -0.010990 166309.000000 0 0 1
-22.522944 27.140363 -11.072011 36.965818 -0.878106 1.874986 0.062959 -0.012724 353833.000000 0 0 1
-21.311244 27.720463 -10.560711 36.525632 -0.915377 1.864116 0.048927 -0.011467 257035.000000 0 0 1
-20.363044 26.688063 -10.000311 35.027310 -0.919026 1.860325 0.069797 -0.016352 -434531.000000 0 0 1
-19.842344 25.796163 -10.968111 34.343268 -0.915122 1.895858 0.073121 -0.020778 8698.150000 0 0 1
-19.213144 24.682863 -10.364711 32.951720 -0.909366 1.890771 0.081712 -0.011170 -239654.000000 0 0 1
-18.563844 23.726963 -11.358411 32.196251 -0.906883 1.931344 0.084525 -0.015780 -203466.000000 0 0 1
-18.383744 22.467063 -10.781411 30.967237 -0.885024 1.926399 0.068478 -0.014938 313964.000000 0 0 1
-17.824644 21.482763 -11.683311 30.260978 -0.878195 1.967180 0.091691 -0.010295 270587.000000 0 0 1
-17.499544 20.104263 -11.055411 28.855459 -0.854555 1.963980 0.078200 -0.006182 -493041.000000 0 0 1
-18.605844 19.311663 -10.802111 28.910264 -0.804011 1.953729 0.068892 -0.002780 -359757.000000 0 0 1
-18.174344 17.999763 -10.582811 27.682018 -0.780572 1.963079 0.092762 -0.013349 238109.000000 0 0 1
-19.356244 16.962663 -10.707811 27.875676 -0.719589 1.965059 0.077810 -0.007527 768761.000000 0 0 1
-20.002544 16.584963 -11.921311 28.588116 -0.692260 2.000941 0.070333 -0.001827 -52230.100000 0 0 1
-20.833444 17.596063 -12.390011 29.952732 -0.701355 1.997258 0.070011 0.002037 -800723.000000 0 0 1
-21.547344 17.203663 -13.679911 30.779766 -0.673772 2.031351 0.066848 -0.002934 -744765.000000 0 0 1
-20.673344 17.055463 -14.711511 30.572937 -0.689799 2.072812 0.084305 -0.007814 -379823.000000 0 0 1
-21.348344 16.715063 -15.916511 31.440108 -0.664269 2.101626 0.063151 -0.009422 204774.000000 0 0 1
-20.356644 16.522963 -17.085311 31.293915 -0.681819 2.148334 0.089095 -0.018560 245097.000000 0 0 1
-19.543344 17.645763 -17.404411 31.563092 -0.734417 2.154858 0.071488 -0.023114 173778.000000 0 0 1
-18.716044 17.379963 -18.491711 31.532472 -0.748400 2.197446 0.068868 -0.015675 -1445150.000000 0 0 1
-17.840844 18.474463 -18.964511 31.925760 -0.802844 2.206842 0.059021 -0.011722 -1065750.000000 0 0 1
-16.711244 18.436963 -18.124411 30.784437 -0.834457 2.200311 0.071341 -0.015985 -414299.000000 0 0 1
-15.974944 19.611763 -18.255811 31.194466 -0.887241 2.195955 0.073965 -0.019266 -212003.000000 0 0 1
33.446278 30.001063 1.680089 44.961539 0.731151 1.533420 0.082908 -0.019858 -560131.000000 0 0 1
34.800288 30.302763 1.539889 46.170215 0.716425 1.537438 0.098342 -0.019485 -366055.000000 0 0 1
34.946368 31.186363 0.411289 46.840228 0.728604 1.562016 0.084203 -0.009471 -159551.000000 0 0 1
36.313318 31.037263 -0.287811 47.770823 0.707221 1.576821 0.064456 -0.009266 -324400.000000 0 0 1
-36.337064 31.759863 0.403689 48.262139 -0.718283 1.562432 0.053074 -0.004129 -365726.000000 0 0 1
-35.198240 31.935763 -0.407911 47.528680 -0.736840 1.579379 0.056093 -0.005585 139138.000000 0 0 1
-34.232740 33.099063 0.014589 47.617524 -0.768563 1.570490 0.027843 -0.006285 82404.700000 0 0 1
-33.477804 32.759663 1.129889 46.853340 -0.774557 1.546679 0.030279 0.002182 -168441.000000 0 0 1
-32.872524 33.944163 1.644589 47.281219 -0.801435 1.536006 0.014670 0.001013 -65887.500000 0 0 1
-32.211084 33.726263 3.016489 46.734504 -0.808373 1.506206 0.039306 -0.004454 -215627.000000 0 0 1
-31.794424 -33.163438 3.535589 46.078188 0.806470 1.493991 0.032897 -0.001406 45252.500000 0 0 1
-31.297044 -33.406838 4.824389 46.030387 0.817994 1.465795 0.050267 -0.009726 -698940.000000 0 0 1
-31.170314 -32.171938 5.805089 45.169914 0.801210 1.441923 0.060173 -0.007724 -149917.000000 0 0 1
-32.283614 -31.632138 6.466689 45.657879 0.775206 1.428685 0.063302 -0.005702 125617.000000 0 0 1
-33.070774 -32.504538 7.281589 46.938711 0.776763 1.415038 0.050455 -0.018801 -500838.000000 0 0 1
-34.183854 -31.936538 8.201089 47.494591 0.751423 1.397252 0.062223 -0.012960 1120500.000000 0 0 1
-35.473878 -31.653238 7.630789 48.151349 0.728543 1.411650 0.036371 -0.009323 783803.000000 0 0 1
-36.238824 -32.829838 7.378389 49.451908 0.736082 1.421034 0.029942 -0.011369 -333536.000000 0 0 1
35.876238 -32.550938 7.136089 48.965210 -0.736840 1.424537 0.034501 -0.001935 285179.000000 0 0 1
35.139298 -32.569038 8.338289 48.631672 -0.747456 1.398487 0.027631 0.004242 -452506.000000 0 0 1
33.782378 -32.341638 8.088989 47.462220 -0.763613 1.399530 0.003380 0.020731 -760924.000000 0 0 1
32.947058 -32.510438 9.315389 47.214549 -0.778728 1.372194 -0.005065 0.011119 521152.000000 0 0 1
31.533768 -32.283438 9.097889 46.036621 -0.797145 1.371864 0.010178 0.003816 1683320.000000 0 0 1
30.751708 -32.156138 10.320489 45.674908 -0.807720 1.342873 0.025124 0.005512 69631.400000 0 0 1
30.977098 -30.858138 11.223289 45.141638 -0.783474 1.319537 0.020022 0.001885 -286573.000000 0 0 1
30.391718 -29.574038 10.826489 43.766347 -0.771763 1.320831 0.013531 -0.007061 333466.000000 0 0 1
31.179628 -28.873938 9.874589 43.627755 -0.747023 1.342481 0.013427 -0.003668 25602.700000 0 0 1
30.497558 -27.620438 9.266389 42.176481 -0.735934 1.349284 0.011171 -0.005807 -324494.000000 0 0 1
31.147318 -27.136638 8.132389 42.103305 -0.716694 1.376421 0.020160 -0.015246 -173907.000000 0 0 1
30.697748 -25.819038 7.846289 40.872224 -0.699288 1.377626 0.024028 -0.012597 5742.270000 0 0 1
30.824558 -25.492538 6.360189 40.502776 -0.691001 1.413113 0.016668 -0.004545 192080.000000 0 0 1
32.137648 -25.197838 5.947789 41.269064 -0.664945 1.426170 0.026685 -0.010859 -448186.000000 0 0 1
32.070728 -24.501638 4.668189 40.628239 -0.652393 1.455642 0.045305 -0.008113 700078.000000 0 0 1
33.478068 -24.110138 4.112889 41.460772 -0.624140 1.471433 0.044634 -0.017073 588673.000000 0 0 1
34.286888 -25.201338 3.805189 42.722097 -0.633841 1.481610 0.023578 0.001205 290200.000000 0 0 1
35.689478 -24.928338 3.711089 43.691338 -0.609704 1.485755 0.037451 -0.010714 1015460.000000 0 0 1
36.495308 -26.251338 3.630289 45.102320 -0.623567 1.490219 0.034092 -0.010164 -74023.000000 0 0 1
36.234478 -27.033838 4.782189 45.460259 -0.640988 1.465406 0.012901 -0.005522 -130596.000000 0 0 1
36.699068 -28.353538 4.662789 46.609938 -0.657806 1.470590 0.015908 -0.005583 -819270.000000 0 0 1
35.806878 -29.398138 5.395289 46.642171 -0.687427 1.454863 0.022090 -0.005649 708278.000000 0 0 1
34.514708 -29.605738 4.842089 45.729756 -0.708989 1.464713 0.018100 -0.001263 922275.000000 0 0 1
33.469838 -28.688038 5.218589 44.389945 -0.708619 1.452961 0.010593 -0.001352 -193884.000000 0 0 1
32.225398 -29.304138 5.918789 43.957261 -0.737956 1.435737 0.007664 0.000933 534965.000000 0 0 1
31.443688 -30.236538 5.174989 43.928741 -0.765830 1.452718 -0.002037 0.003761 214105.000000 0 0 1
30.766868 -29.669638 4.056189 42.934138 -0.767245 1.476181 0.025563 0.001372 -406234.000000 0 0 1
29.389678 -30.248538 3.643089 42.332013 -0.799798 1.484630 0.034137 0.009072 360893.000000 0 0 1
29.464218 -31.579438 3.189089 43.307867 -0.820035 1.497092 0.034594 0.020108 -573519.000000 0 0 1
28.205218 -32.134338 2.913289 42.856006 -0.850423 1.502765 0.044939 0.012156 -273577.000000 0 0 1
28.340118 -33.529238 2.342389 43.964291 -0.869075 1.517492 0.042592 0.001383 -132823.000000 0 0 1
28.124718 -33.485138 0.961089 43.739889 -0.872186 1.548822 0.050517 -0.004443 276755.000000 0 0 1
28.285418 33.432863 0.360689 43.794420 0.868608 1.562560 0.046596 -0.007839 -173102.000000 0 0 1
28.060218 33.342663 -1.150011 43.593939 0.871216 1.597179 0.039365 -0.005289 -917683.000000 0 0 1
29.135898 33.920163 -1.860111 44.754195 0.861126 1.612371 0.034866 -0.006491 226167.000000 0 0 1
28.783648 -34.025438 -3.199611 44.681834 -0.868661 1.642466 0.043268 -0.011496 -415374.000000 0 0 1
29.927158 -33.485938 -4.035311 45.091314 -0.841460 1.660408 0.023026 -0.004678 -268082.000000 0 0 1
29.815038 -32.080738 -4.050811 43.983171 -0.821987 1.663026 0.020949 0.003434 204789.000000 0 0 1
30.908628 -31.452738 -4.677811 44.345236 -0.794123 1.676479 0.017254 0.005839 -234272.000000 0 0 1
30.891108 -29.946538 -4.430811 43.251448 -0.769873 1.673419 0.028246 0.006537 -336442.000000 0 0 1
29.810018 -29.226138 -4.970211 42.041733 -0.775508 1.689294 0.018339 -0.003126 -820.898000 0 0 1
30.153728 -27.833638 -5.076311 41.348853 -0.745409 1.693875 0.030328 -0.007099 -216464.000000 0 0 1
31.164368 -27.263238 -6.069111 41.848967 -0.718729 1.716334 0.056154 -0.012211 317195.000000 0 0 1
32.492638 -27.610538 -5.649611 43.011992 -0.704347 1.702527 0.058108 -0.005562 820943.000000 0 0 1
33.559378 -27.284538 -6.561111 43.746154 -0.682631 1.721346 0.068368 -0.015405 662265.000000 0 0 1
33.745738 -28.232038 -7.816311 44.686883 -0.696669 1.746614 0.074882 -0.017014 -91413.200000 0 0 1
32.613898 -28.279338 -8.699711 44.034898 -0.714335 1.769669 0.075435 -0.015884 379623.000000 0 0 1
32.618918 -29.426338 -9.561211 44.959092 -0.733988 1.785098 0.059882 -0.008192 247167.000000 0 0 1
32.298738 -30.825638 -8.949011 45.535845 -0.762066 1.768611 0.055209 -0.001412 -1247860.000000 0 0 1
33.420988 -31.378238 -8.425411 46.610555 -0.753884 1.752557 0.067304 -0.002151 -1735040.000000 0 0 1
33.271098 -32.661238 -7.817911 47.274117 -0.776149 1.736934 0.072083 -0.014221 30596.000000 0 0 1
34.554648 -33.398538 -7.324411 48.612067 -0.768386 1.722043 0.070244 -0.018171 30278.600000 0 0 1
34.502628 33.603363 -6.448711 48.592213 0.772195 1.703900 0.053850 -0.015835 -90887.700000 0 0 1
33.910388 33.818063 -5.141911 48.166534 0.784035 1.677753 0.061625 -0.012476 47.172200 0 0 1
33.681948 32.424263 -4.507811 46.969424 0.766375 1.666918 0.033097 -0.008497 77611.800000 0 0 1
32.779658 31.644263 -5.275511 45.866070 0.767776 1.686071 0.039934 -0.023454 99371.600000 0 0 1
32.820498 30.308363 -4.858211 44.937558 0.745625 1.679118 0.046451 -0.012506 496446.000000 0 0 1
31.588568 29.504063 -5.406611 43.560978 0.751291 1.695233 0.056600 -0.031901 147888.000000 0 0 1
31.526078 29.537063 -6.816711 43.735560 0.752837 1.727296 0.045947 -0.026459 17238.700000 0 0 1
30.456608 28.714963 -7.247911 42.481599 0.755973 1.742248 0.043834 -0.028250 -138125.000000 0 0 1
30.501128 28.422363 -8.785511 42.606745 0.750134 1.778486 0.052914 -0.018788 -99786.400000 0 0 1
31.505488 27.465463 -9.072411 42.769803 0.716996 1.784542 0.061182 -0.017355 -33851.300000 0 0 1
31.864088 27.479663 -10.441611 43.352961 0.711650 1.814039 0.063116 -0.014177 116033.000000 0 0 1
33.196178 28.196063 -10.726011 44.855897 0.704132 1.812257 0.069284 -0.017963 -721910.000000 0 0 1
34.374808 27.634863 -10.158811 45.260518 0.677131 1.797177 0.075817 -0.017532 -410867.000000 0 0 1
35.498158 28.262063 -10.631911 46.603658 0.672392 1.800958 0.078771 -0.013689 -879794.000000 0 0 1
35.830628 29.718663 -10.102311 47.634961 0.692425 1.784497 0.048754 -0.020318 -859604.000000 0 0 1
36.388158 29.749063 -8.781911 47.814503 0.685350 1.755511 0.058848 -0.015512 69184.300000 0 0 1
35.977998 30.960563 -8.148211 48.159798 0.710582 1.740805 0.048925 -0.013837 -249542.000000 0 0 1
-36.722754 31.261963 -6.904511 48.719023 -0.705246 1.712996 0.043309 -0.008666 1475000.000000 0 0 1
-35.329479 31.468063 -7.182011 47.853864 -0.727655 1.721448 0.048982 -0.007983 700189.000000 0 0 1
-34.567356 30.347863 -7.606111 46.623468 -0.720489 1.734668 0.055313 -0.007276 -580477.000000 0 0 1
-33.116274 30.690163 -8.015411 45.856521 -0.747393 1.746492 0.082144 -0.012658 316051.000000 0 0 1
-32.176884 31.160263 -7.037611 45.341391 -0.769349 1.726640 0.087852 -0.019411 413981.000000 0 0 1
-30.865994 31.387463 -7.489411 44.653932 -0.793775 1.739314 0.090009 -0.018242 -19598.100000 0 0 1
-30.558594 32.502463 -8.526211 45.419533 -0.816214 1.759638 0.065440 -0.012625 -771150.000000 0 0 1
-30.753694 33.879163 -8.206111 46.485778 -0.833718 1.748256 0.055888 -0.012264 101387.000000 0 0 1
-29.802524 -33.799738 -7.271211 45.645188 0.848163 1.730776 0.074694 -0.022635 -8465.010000 0 0 1
-30.190104 -32.423338 -6.728811 44.810625 0.821050 1.721528 0.045565 -0.024287 35959.800000 0 0 1
-31.307004 -32.271138 -5.885111 45.345224 0.800562 1.700948 0.041918 -0.025049 -27798.700000 0 0 1
-31.051604 -32.770938 -4.605911 45.380071 0.812331 1.672468 0.053201 -0.028536 87240.400000 0 0 1
-32.236634 -32.766038 -3.589711 46.105312 0.793542 1.648734 0.046624 -0.023418 -11203.800000 0 0 1
-32.679554 -31.475238 -3.134411 45.480417 0.766628 1.639769 0.032906 -0.016019 -131875.000000 0 0 1
-33.486344 -31.602638 -2.007711 46.087882 0.756466 1.614373 0.042912 -0.010556 -147684.000000 0 0 1
-34.289038 -30.318838 -1.716011 45.802999 0.724025 1.608270 0.050538 -0.010058 605317.000000 0 0 1
-35.335322 -30.343038 -0.736311 46.581403 0.709533 1.586604 0.047478 -0.004883 309506.000000 0 0 1
-35.907548 -29.067938 -0.489811 46.201049 0.680520 1.581398 0.066554 -0.012558 30830.800000 0 0 1
36.727238 -29.082438 0.694189 46.852536 -0.669751 1.555979 0.062935 -0.008227 -1010060.000000 0 0 1
35.621358 -29.882038 0.426889 46.497307 -0.698003 1.561615 0.038323 0.005557 -385874.000000 0 0 1
34.653568 -29.937138 1.447489 45.816997 -0.712507 1.539198 0.027783 0.005367 89660.700000 0 0 1
33.732538 -28.736838 1.682789 44.345482 -0.705598 1.532840 0.023772 0.025577 -454004.000000 0 0 1
32.699778 -28.595838 0.699989 43.445223 -0.718545 1.554684 0.022171 0.012690 1044420.000000 0 0 1
31.858698 -27.412738 0.827589 42.037123 -0.710528 1.551108 0.035029 0.008346 474426.000000 0 0 1
30.592128 -27.329038 -0.031711 41.021404 -0.729121 1.571569 0.031214 -0.005977 138371.000000 0 0 1
29.418798 -27.999738 0.395589 40.615360 -0.760689 1.561056 0.034984 0.018444 373809.000000 0 0 1
29.436518 -29.386138 -0.029811 41.593925 -0.784542 1.571513 0.034487 0.023785 -134604.000000 0 0 1
28.870938 -29.710138 -1.464911 41.453218 -0.799723 1.606143 0.019840 0.010267 490688.000000 0 0 1
27.489918 -29.384938 -1.658711 40.273086 -0.818705 1.611995 0.024804 0.020802 830333.000000 0 0 1
27.038018 -29.840438 -2.960011 40.376575 -0.834629 1.644172 0.026035 0.016313 176151.000000 0 0 1
25.582418 -30.345838 -3.067611 39.808796 -0.870363 1.647931 0.025200 0.001380 -78660.400000 0 0 1
24.675218 -29.308038 -3.150011 38.441514 -0.871008 1.652831 0.036616 0.011308 -679892.000000 0 0 1
23.344318 -29.710238 -3.369411 37.934264 -0.904815 1.659736 0.036560 0.004884 134791.000000 0 0 1
22.404618 -28.491438 -3.568611 36.420652 -0.904426 1.668937 0.035621 0.012329 -85468.100000 0 0 1
22.612518 -27.845638 -4.762911 36.185506 -0.888741 1.702804 0.038800 0.013204 -63910.800000 0 0 1
22.135318 -26.541538 -4.688711 34.877063 -0.875672 1.705640 0.045189 0.005313 -107803.000000 0 0 1
21.644018 -25.941538 -6.029211 34.318775 -0.875465 1.747395 0.044324 -0.019324 551838.000000 0 0 1
20.345318 -26.415938 -6.364111 33.944597 -0.914498 1.759398 0.056825 -0.012940 320722.000000 0 0 1
19.661118 -25.904538 -7.514511 33.377725 -0.921571 1.797878 0.066217 -0.014460 -399581.000000 0 0 1
18.174218 -26.137138 -7.435311 32.691528 -0.963204 1.800243 0.074964 -0.013626 -532214.000000 0 0 1
17.416718 -25.263538 -6.602511 31.387602 -0.967219 1.782733 0.069329 -0.013008 110952.000000 0 0 1
16.059018 -25.615838 -6.471711 30.918381 -1.010819 1.781672 0.072081 -0.017100 158269.000000 0 0 1
15.194118 -24.763138 -5.537911 29.576049 -1.020453 1.759151 0.061989 -0.011134 -12375.300000 0 0 1
15.289418 -25.167838 -4.183211 29.743665 -1.024882 1.711906 0.045036 -0.002436 177421.000000 0 0 1
14.755718 -24.131438 -3.333711 28.481066 -1.021984 1.688115 0.041769 0.002167 10404.500000 0 0 1
14.460218 -24.647738 -1.870611 28.637529 -1.040232 1.636163 0.035648 0.006654 111647.000000 0 0 1
13.735818 -25.871838 -1.882011 29.352456 -1.082722 1.634958 0.032784 0.004071 309529.000000 0 0 1
14.632318 -26.956138 -1.675011 30.717158 -1.073483 1.625354 0.038094 0.002330 84588.600000 0 0 1
13.943718 -28.306038 -1.838211 31.607564 -1.113082 1.628986 0.047578 -0.000717 541084.000000 0 0 1
12.957718 -28.642238 -0.830411 31.447891 -1.145949 1.597205 0.055944 -0.015521 406751.000000 0 0 1
12.303418 -29.877938 -1.104011 32.330854 -1.180168 1.604950 0.061605 -0.020588 79208.500000 0 0 1
13.065618 -31.213638 -0.749411 33.846169 -1.174370 1.592940 0.064466 -0.016550 -313074.000000 0 0 1
14.245218 -31.413838 -1.474411 34.524330 -1.145061 1.613516 0.068240 -0.013694 -622411.000000 0 0 1
14.837218 -32.654038 -1.286211 35.889881 -1.144309 1.606642 0.078581 -0.016271 223322.000000 0 0 1
16.314118 -32.679038 -1.797611 36.569131 -1.107771 1.619973 0.066907 -0.007068 205305.000000 0 0 1
17.129118 -31.843238 -1.035911 36.172802 -1.077275 1.599438 0.058053 0.005048 -801465.000000 0 0 1
18.376518 -31.703138 -1.650611 36.681193 -1.045479 1.615810 0.054730 0.004521 -555502.000000 0 0 1
19.242718 -30.678838 -0.933711 36.226304 -1.010594 1.596574 0.047010 0.006528 -360214.000000 0 0 1
18.908318 -29.326938 -1.280911 34.917539 -0.998126 1.607488 0.040788 0.010095 -7357.970000 0 0 1
19.690318 -28.341238 -0.669711 34.516415 -0.963597 1.590200 0.035348 0.015398 -541634.000000 0 0 1
19.258018 -26.877638 -0.977011 33.079196 -0.949077 1.600336 0.034481 0.021840 -415110.000000 0 0 1
19.387118 -26.429638 -2.306611 32.858889 -0.937915 1.641052 0.033752 0.018351 852762.000000 0 0 1
18.201618 -26.769438 -3.045011 32.514209 -0.973661 1.664585 0.050822 0.011972 369920.000000 0 0 1
32.882608 -29.156438 13.764089 46.052295 -0.725409 1.267278 0.002624 -0.009918 92598.000000 0 0 1
33.538638 -29.739938 14.873789 47.228527 -0.725439 1.250411 0.021076 -0.003997 129755.000000 0 0 1
32.630678 -30.225338 15.840689 47.215036 -0.747149 1.228659 0.012698 0.002238 -466905.000000 0 0 1
33.443408 -30.633438 17.108389 48.472322 -0.741573 1.210072 0.023711 -0.003316 378860.000000 0 0 1
32.658528 -31.071638 18.234889 48.626508 -0.760503 1.186401 0.015064 -0.010186 685994.000000 0 0 1
33.478778 -31.239938 19.397789 49.729634 -0.750819 1.170094 0.010665 -0.009931 294047.000000 0 0 1
34.358648 -32.527738 19.504889 51.176275 -0.758032 1.179776 0.007763 -0.009677 -331263.000000 0 0 1
35.394248 -32.550938 18.567289 51.546683 -0.743575 1.202310 0.012750 -0.005786 -473991.000000 0 0 1
36.095608 -33.772738 18.653289 52.834041 -0.752164 1.209963 0.030661 -0.015705 -1092330.000000 0 0 1
-36.509084 -33.845138 17.584089 52.797791 0.747551 1.231264 0.041960 -0.011259 -655061.000000 0 0 1
-35.376850 -33.031838 17.877689 51.596856 0.751132 1.216972 0.064113 -0.010323 456032.000000 0 0 1
-34.438177 -32.995038 16.811289 50.569556 0.764000 1.231908 0.069135 -0.004665 244299.000000 0 0 1
-33.125364 -32.221838 17.166989 49.297485 0.771573 1.215111 0.049459 -0.005555 653862.000000 0 0 1
-32.162154 -32.213838 16.096989 48.283005 0.786201 1.230901 0.071002 -0.014300 276111.000000 0 0 1
-32.292304 -31.164438 15.186589 47.377712 0.767626 1.244494 0.084606 -0.008119 -946519.000000 0 0 1
-31.183464 -31.162838 14.139889 46.297595 0.785067 1.260424 0.080204 -0.018730 -74048.500000 0 0 1
-29.970794 -31.035438 14.851189 45.628990 0.802848 1.239280 0.077017 -0.025587 -519845.000000 0 0 1
-28.864284 -30.568838 14.134489 44.355208 0.814071 1.246475 0.075015 -0.022545 -212267.000000 0 0 1
-27.561744 -30.554338 14.935689 43.775474 0.836846 1.222615 0.075659 -0.027225 -613109.000000 0 0 1
-26.462304 -30.485438 14.098589 42.759626 0.855927 1.234792 0.078560 -0.028418 -178599.000000 0 0 1
-25.245674 -30.282338 14.839289 42.125628 0.875856 1.210809 0.070133 -0.031515 -223413.000000 0 0 1
-23.998244 -30.048238 14.047889 40.940878 0.896875 1.220553 0.090162 -0.023725 -791171.000000 0 0 1
-23.432744 -31.245038 13.478189 41.315947 0.927316 1.238492 0.091692 -0.037318 961511.000000 0 0 1
-22.292044 -30.925038 12.641289 40.163359 0.946219 1.250606 0.084308 -0.037202 709103.000000 0 0 1
-21.630544 -32.234838 12.108689 40.664303 0.979779 1.268438 0.076785 -0.036196 -129300.000000 0 0 1
-22.264244 -32.981338 11.071189 41.304194 0.977008 1.299438 0.064754 -0.034341 42263.700000 0 0 1
-21.987444 33.791763 11.151889 41.829362 -0.993947 1.300928 0.074743 -0.028185 313410.000000 0 0 1
-22.895144 32.933763 10.193889 41.385211 -0.963307 1.321918 0.059219 -0.020578 363203.000000 0 0 1
-22.608744 33.182163 8.821889 41.110059 -0.972696 1.354522 0.037141 -0.020015 88042.000000 0 0 1
-23.686344 32.786463 7.997889 41.230586 -0.945166 1.375579 0.030180 -0.020541 -353038.000000 0 0 1
-23.566844 33.259963 6.519889 41.281112 -0.954345 1.412193 0.029448 -0.011655 -72170.100000 0 0 1
-22.722144 32.445563 5.685889 40.016742 -0.959858 1.428226 0.024246 -0.010870 1033560.000000 0 0 1
-21.300544 32.546163 5.855089 39.335072 -0.991284 1.421389 0.048912 -0.013093 799132.000000 0 0 1
-20.538044 33.870263 5.496489 39.990215 -1.025703 1.432914 0.064240 -0.019571 -758701.000000 0 0 1
-20.776844 -33.186538 6.373889 39.669258 1.011433 1.409421 0.063273 -0.018903 93503.000000 0 0 1
-20.066744 -33.317138 7.601889 39.629466 1.028691 1.377776 0.068296 -0.020382 -258561.000000 0 0 1
-20.138044 -32.078938 8.522389 38.823062 1.010211 1.349475 0.060564 -0.026766 -828969.000000 0 0 1
-19.312544 -31.047538 8.075889 37.445213 1.014335 1.353416 0.078817 -0.037674 -409161.000000 0 0 1
-19.276744 -29.957138 8.977589 36.737176 0.999020 1.323923 0.076968 -0.036132 216715.000000 0 0 1
-18.473144 -30.158438 10.283489 36.831217 1.021210 1.287829 0.067549 -0.031593 233804.000000 0 0 1
-17.105944 -30.473038 10.078189 36.370170 1.059283 1.290021 0.073068 -0.043519 -27963.200000 0 0 1
-16.413044 -30.686238 11.296289 36.587421 1.079646 1.256920 0.093379 -0.042392 58224.700000 0 0 1
-15.004644 -31.273338 11.104289 36.420684 1.123447 1.260974 0.091725 -0.046147 -16010.800000 0 0 1
-14.031344 -30.326138 10.712889 35.090159 1.137447 1.260547 0.087035 -0.037578 45610.500000 0 0 1
-12.904944 -31.031938 10.194289 35.120397 1.176693 1.276291 0.093391 -0.029964 113622.000000 0 0 1
-11.788044 -30.196738 9.545889 33.792380 1.198615 1.284411 0.097865 -0.020255 -217744.000000 0 0 1
-11.147144 -29.523938 10.594689 33.289175 1.209781 1.246900 0.082696 -0.020877 -399189.000000 0 0 1
-10.104544 -28.728538 10.035689 32.064712 1.232586 1.252465 0.081887 -0.016153 -191983.000000 0 0 1
-9.108244 -28.273138 11.070589 31.699974 1.259143 1.214047 0.082131 -0.008714 -363791.000000 0 0 1
-9.531744 -27.263838 11.968089 31.263496 1.234468 1.177956 0.054691 -0.013918 -517680.000000 0 0 1
-8.669944 -27.203538 13.069389 31.400786 1.262267 1.141521 0.059032 -0.009398 -191901.000000 0 0 1
-8.853044 -25.931138 13.905789 30.727370 1.241798 1.101169 0.063139 -0.014859 213652.000000 0 0 1
-8.519544 -24.681438 13.269689 29.288917 1.238422 1.100599 0.050379 -0.014628 466990.000000 0 0 1
-9.478744 -24.285938 12.257389 28.807932 1.198682 1.131297 0.038681 -0.014736 535703.000000 0 0 1
-9.004644 -23.020138 11.595489 27.303218 1.197931 1.132173 0.033197 -0.013324 110709.000000 0 0 1
-8.000744 -23.067338 10.595989 26.615577 1.236937 1.161338 0.029580 -0.018053 -131469.000000 0 0 1
-7.800544 -21.785538 10.039289 25.223907 1.226959 1.161453 0.017203 -0.013467 -193727.000000 0 0 1
-6.545344 -21.811238 9.166689 24.547909 1.279257 1.188103 0.022081 -0.014133 55955.600000 0 1 0
-5.310844 -22.087938 9.798689 24.740581 1.334835 1.163577 0.056054 -0.018071 390461.000000 0 1 0
-4.225144 -22.052838 8.834189 24.129285 1.381498 1.195961 0.049460 -0.022734 1037540.000000 0 1 0
-3.107844 -23.002938 9.367589 25.030892 1.436503 1.187218 0.069806 -0.022512 312830.000000 0 0 1
-2.335644 -22.559538 10.499189 24.992418 1.467631 1.137246 0.066204 -0.020574 -13612.100000 0 1 0
-1.386644 -23.575938 10.777289 25.959538 1.512048 1.142681 0.076289 -0.030465 166170.000000 0 0 1
-0.238944 -23.192138 11.697189 25.976077 1.560494 1.103688 0.070480 -0.029683 -313636.000000 0 0 1
-0.647844 -23.200238 13.071489 26.637090 1.542880 1.057875 0.084942 -0.024114 -432310.000000 0 0 1
0.221156 -22.635238 14.017889 26.625253 -1.561026 1.016331 0.088737 -0.028483 -531572.000000 0 0 1
0.799856 -21.212638 13.908289 25.378264 -1.533108 0.990778 0.062277 -0.029375 -329412.000000 0 0 1
1.961756 -21.127038 13.132789 24.953364 -1.478207 1.016561 0.054610 -0.034596 -569412.000000 0 1 0
2.403356 -19.798338 13.070389 23.845028 -1.449996 0.990659 0.048988 -0.025674 -244279.000000 0 1 0
3.870456 -19.750638 12.623989 23.757804 -1.377282 1.010589 0.052546 -0.019974 -254738.000000 0 1 0
4.129556 -20.206238 11.288189 23.511029 -1.369202 1.070001 0.050929 -0.019708 -709846.000000 0 1 0
5.516556 -20.131638 11.093389 23.638497 -1.303338 1.082306 0.074270 -0.028103 -74601.400000 0 1 0
5.853256 -21.143238 9.995189 24.108109 -1.300722 1.143295 0.081612 -0.036748 -462955.000000 0 1 0
5.563156 -20.616438 8.679789 23.050487 -1.307233 1.184721 0.068073 -0.030232 -309558.000000 0 1 0
5.904456 -21.583238 7.708589 23.666878 -1.303763 1.239032 0.071592 -0.030235 186142.000000 0 1 0
7.390056 -22.029438 7.540189 24.428744 -1.247131 1.257012 0.066089 -0.021777 374473.000000 0 1 0
8.270956 -21.093038 6.903989 23.685228 -1.197103 1.275013 0.077465 -0.032125 265819.000000 0 1 0
8.775956 -19.980338 7.612789 23.112462 -1.156935 1.235149 0.084291 -0.023278 293754.000000 0 1 0
9.769856 -20.141338 8.812489 24.057921 -1.119168 1.195764 0.079421 -0.017822 431849.000000 0 1 0
9.094456 -20.325838 10.045889 24.428850 -1.150079 1.146993 0.084879 -0.022902 -156651.000000 0 1 0
9.970556 -20.049438 11.123089 25.002301 -1.109312 1.109753 0.083044 -0.012393 174869.000000 0 0 1
9.248456 -19.966838 12.463389 25.289220 -1.137027 1.055452 0.087924 -0.018815 -5417.360000 0 0 1
9.123156 -21.284338 13.013289 26.563146 -1.165853 1.058821 0.072554 -0.020557 77953.000000 0 0 1
8.330556 -21.368938 14.190489 26.970348 -1.199075 1.016728 0.088768 -0.027560 66162.600000 0 0 1
8.536056 -22.728238 14.914289 28.493387 -1.211526 1.019925 0.079212 -0.028387 -138149.000000 0 0 1
8.002756 -23.803638 14.186589 28.842965 -1.246469 1.056576 0.086984 -0.026159 -421603.000000 0 0 1
8.112856 -25.046238 14.892789 30.247771 -1.257546 1.055997 0.087823 -0.030567 239961.000000 0 0 1
7.887456 -26.244238 13.921089 30.737090 -1.278844 1.100771 0.087484 -0.038104 490371.000000 0 0 1
9.043256 -26.574538 13.170489 31.007230 -1.242791 1.132105 0.086707 -0.029384 238245.000000 0 0 1
8.734356 -27.668638 12.356889 31.536252 -1.265020 1.168175 0.081434 -0.025862 1143930.000000 0 0 1
10.065356 -28.155738 11.672489 32.098349 -1.227466 1.198616 0.080742 -0.020002 1374840.000000 0 0 1
11.082556 -28.900638 12.354789 33.327327 -1.204620 1.191022 0.079621 -0.025919 1347690.000000 0 0 1
12.298856 -29.018838 11.608189 33.587273 -1.169923 1.217905 0.076061 -0.020366 1397180.000000 0 0 1
13.506156 -29.792038 12.264789 34.934322 -1.145162 1.212071 0.063595 -0.021896 73025.400000 0 0 1
14.021256 -29.220738 13.448189 35.089898 -1.123407 1.177484 0.054427 -0.021583 553334.000000 0 0 1
15.029256 -29.976238 14.132589 36.389332 -1.106051 1.171932 0.049985 -0.016895 1308120.000000 0 0 1
16.477656 -29.923638 13.550089 36.749724 -1.067449 1.193173 0.054446 -0.014896 20514.600000 0 0 1
17.180756 -28.723538 13.462689 36.075809 -1.031744 1.188364 0.049557 -0.023546 1298840.000000 0 0 1
18.462056 -28.908838 12.781889 36.605261 -1.002456 1.214099 0.043687 -0.023740 621597.000000 0 0 1
19.309756 -27.658838 12.839689 36.093429 -0.961319 1.207096 0.047315 -0.028571 -2130770.000000 0 0 1
20.543456 -28.025238 12.444789 36.909624 -0.938242 1.226888 0.035896 -0.024643 -1661350.000000 0 0 1
21.451456 -26.943738 12.393689 36.602371 -0.898403 1.225364 0.038798 -0.024748 1166970.000000 0 0 1
22.844456 -27.204838 11.679189 37.394864 -0.872300 1.253161 0.050402 -0.022216 1592250.000000 0 0 1
23.783956 -27.925038 12.521689 38.759219 -0.865312 1.241832 0.067828 -0.031969 -85374.500000 0 0 1
24.909756 -28.229838 11.764189 39.443832 -0.847796 1.267936 0.049328 -0.028058 -1338430.000000 0 0 1
25.902656 -29.078638 12.515389 40.904153 -0.843099 1.259841 0.058738 -0.021724 -71993.300000 0 0 1
26.838456 -28.281538 13.256489 41.181096 -0.811573 1.243053 0.042092 -0.021534 922569.000000 0 0 1
28.122756 -28.163638 12.622389 41.754097 -0.786124 1.263689 0.022542 -0.022145 510387.000000 0 0 1
29.180456 -27.325038 13.390089 42.159830 -0.752574 1.247596 0.026816 -0.022249 79841.700000 0 0 1
28.872856 -25.973238 13.427489 41.091950 -0.732579 1.237916 0.027797 -0.020442 -97558.100000 0 0 1
28.366956 -25.467338 14.636289 40.834917 -0.731588 1.204215 0.039375 -0.020101 -128568.000000 0 0 1
29.315556 -25.447038 15.906689 41.952072 -0.714874 1.181904 0.015836 -0.011916 -291331.000000 0 0 1
29.726456 -26.694838 16.466589 43.213715 -0.731718 1.179865 0.027378 -0.009526 752596.000000 0 0 1
30.437856 -26.388638 17.720489 44.009534 -0.714263 1.156385 0.036823 0.005911 211711.000000 0 0 1
30.822456 -27.650638 18.573989 45.382537 -0.731207 1.149136 0.026257 0.007280 -115722.000000 0 0 1
29.735856 -28.354538 19.137689 45.326065 -0.761624 1.134901 0.016740 0.001361 207104.000000 0 0 1
30.200256 -29.411338 19.968689 46.645802 -0.772165 1.128416 0.025722 -0.006952 729501.000000 0 0 1
28.942056 -30.125138 20.575789 46.567474 -0.805425 1.113138 0.022129 0.000936 -395822.000000 0 0 1
28.059556 -29.317838 21.364089 45.861734 -0.807325 1.086216 0.018058 0.012019 1082890.000000 0 0 1
26.905356 -30.029138 21.859989 45.864000 -0.840209 1.073983 0.018571 0.007328 703410.000000 0 0 1
25.905656 -30.528738 20.795589 45.117218 -0.867135 1.091761 0.054315 0.003860 -1509390.000000 0 0 1
26.358956 -31.706238 20.127889 45.882590 -0.877230 1.116664 0.049102 -0.000094 -58071.200000 0 0 1
25.649656 -32.070738 18.961489 45.232457 -0.896187 1.138231 0.068157 0.000126 -347512.000000 0 0 1
25.863856 -31.234638 17.599889 44.207440 -0.879184 1.161329 0.059058 -0.001288 1100220.000000 0 0 1
27.226956 -31.476338 17.166589 45.019538 -0.857660 1.179579 0.058777 -0.009479 1147800.000000 0 0 1
27.692856 -30.331338 16.466989 44.249815 -0.830839 1.189486 0.061315 -0.020632 613516.000000 0 0 1
29.200856 -30.440238 16.032089 45.125669 -0.806176 1.207586 0.063294 -0.010863 122314.000000 0 0 1
29.688556 -31.168238 14.926389 45.559483 -0.809708 1.237008 0.111813 -0.010833 69847.100000 0 0 1
29.634356 -32.617038 15.166789 46.605769 -0.833275 1.239333 0.118288 -0.017339 458742.000000 0 0 1
28.393656 -33.424238 14.583689 46.217566 -0.866597 1.249766 0.104218 -0.019131 798642.000000 0 0 1
28.490856 -33.592238 13.197189 45.981879 -0.867384 1.279694 0.103891 -0.012636 270993.000000 0 0 1
27.972756 33.320263 12.705989 45.322811 0.872423 1.286644 0.098812 -0.022913 16813.100000 0 0 1
28.443156 33.042563 11.230089 45.021539 0.860064 1.318696 0.100793 -0.024903 -1075480.000000 0 0 1
29.720756 32.553563 11.142089 45.466515 0.830856 1.323213 0.074187 -0.010692 -850967.000000 0 0 1
29.827856 31.876563 9.884389 44.760668 0.818588 1.348133 0.072665 -0.019054 134573.000000 0 0 1
31.239856 31.293563 9.598589 45.247636 0.786257 1.357038 0.056098 -0.011503 221517.000000 0 0 1
31.551956 30.323463 10.575089 45.020782 0.765546 1.333687 0.058987 -0.007063 582186.000000 0 0 1
32.855656 29.760263 10.417489 45.537803 0.736004 1.339987 0.062228 -0.006322 607714.000000 0 0 1
33.342756 28.832663 11.595389 45.579764 0.712987 1.313571 0.051261 -0.012162 166151.000000 0 0 1
32.983056 27.434163 11.488689 44.412895 0.693812 1.309142 0.057168 -0.013494 206975.000000 0 0 1
33.362256 26.804063 12.681389 44.635362 0.676826 1.282717 0.060131 -0.025031 -4450.270000 0 0 1
33.317556 25.233963 12.618789 43.658290 0.648206 1.277577 0.061165 -0.026735 638640.000000 0 0 1
34.443656 24.750963 11.859789 44.041233 0.623096 1.298142 0.058203 -0.015345 253900.000000 0 0 1
34.678256 23.377363 11.773989 43.447778 0.593146 1.296373 0.087369 -0.020026 -457562.000000 0 0 1
33.598956 22.472363 11.158089 41.933279 0.589506 1.301460 0.067177 -0.022171 -135745.000000 0 0 1
32.417456 22.354063 11.919189 41.141982 0.603691 1.276874 0.102504 -0.036151 -118177.000000 0 0 1
31.328856 22.180963 11.013689 39.934868 0.616078 1.291384 0.107007 -0.026907 1266470.000000 0 0 1
29.926256 22.305363 11.763989 39.134403 0.640515 1.265470 0.087020 -0.022787 1055940.000000 0 0 1
29.606856 23.583663 12.218989 39.775103 0.672640 1.258545 0.088094 -0.024511 -1006940.000000 0 0 1
28.502456 23.532863 13.024889 39.189710 0.690183 1.231997 0.130685 -0.009270 -750159.000000 0 0 1
24.790956 9.278563 25.820550 36.978156 0.358132 0.797826 0.044648 0.003501 -426780.000000 0 0 1
24.407956 8.208163 26.546000 36.983948 0.324410 0.770201 0.030980 0.004521 -95904.400000 0 0 1
23.066656 7.888563 26.257310 35.829407 0.329521 0.748306 0.045740 -0.000452 -85274.400000 0 0 1
22.624856 6.536263 26.874760 35.733172 0.281240 0.719560 0.061388 -0.001785 -40429.400000 0 0 1
22.586256 6.437263 28.285080 36.764427 0.277647 0.692958 0.054823 -0.004533 62323.400000 0 0 1
23.873256 6.095163 28.764340 37.874406 0.249973 0.708304 0.048671 -0.002152 83535.400000 0 0 1
24.129856 6.109363 30.311530 39.221973 0.247976 0.687523 0.053578 -0.012993 -145623.000000 0 0 1
24.100156 7.419963 30.864360 39.855766 0.298671 0.685028 0.064879 -0.007628 152393.000000 0 0 1
23.841056 7.307163 32.251788 40.767247 0.297405 0.658158 0.056717 -0.008830 -9741.810000 0 0 1
23.863556 8.592363 33.110344 41.708427 0.345611 0.653678 0.072629 -0.006575 586178.000000 0 0 1
25.189056 9.131663 33.196735 42.660275 0.347789 0.679057 0.058627 -0.004073 458291.000000 0 0 1
25.479256 9.618463 -33.603171 43.253676 0.360962 2.460501 0.070236 -0.000793 -80374.500000 0 0 1
26.735356 10.501363 -33.650551 44.242711 0.374275 2.435017 0.052550 -0.001921 -276964.000000 0 0 1
26.571956 11.734163 33.797316 44.564762 0.415846 0.709962 0.048204 -0.014224 272941.000000 0 0 1
26.502456 12.823463 -33.399821 44.523808 0.450652 2.419095 0.054618 -0.017596 -315471.000000 0 0 1
25.939656 14.161263 -33.991631 45.042626 0.499714 2.425924 0.056366 -0.019860 -413031.000000 0 0 1
26.851256 14.762563 33.210855 45.187212 0.502682 0.745187 0.036876 -0.025457 376324.000000 0 0 1
26.663856 16.184763 33.090872 45.474318 0.545545 0.755859 0.055938 -0.027656 -128407.000000 0 0 1
27.406956 16.907763 -33.886551 46.747321 0.552764 2.381667 0.044889 -0.032186 -327622.000000 0 0 1
26.767156 16.794563 -32.582041 45.388626 0.560346 2.371500 0.047757 -0.027553 -84943.300000 0 0 1
27.630656 16.513163 -31.537731 45.064023 0.538682 2.345974 0.043407 -0.022730 -900383.000000 0 0 1
26.990456 15.924663 -30.291241 43.584847 0.533042 2.339209 0.039012 -0.019047 -436545.000000 0 0 1
26.525356 14.617963 -30.526191 43.001485 0.503683 2.360134 0.047957 -0.009454 -48359.600000 0 0 1
25.463756 14.332963 -29.647931 41.627353 0.512676 2.363455 0.066451 -0.025262 -48748.500000 0 0 1
24.688656 13.042763 -29.997201 40.981404 0.486022 2.392007 0.074271 -0.023849 -446873.000000 0 0 1
23.908056 13.199863 -31.161871 41.435417 0.504461 2.421977 0.075532 -0.020300 533287.000000 0 0 1
23.096156 12.101463 -31.648141 41.005886 0.482631 2.452456 0.071752 -0.011805 994367.000000 0 0 1
22.031056 11.445763 -30.688491 39.473490 0.479148 2.461391 0.068978 -0.016493 -676141.000000 0 0 1
20.914356 12.173163 -30.326161 38.797838 0.527115 2.468096 0.073207 -0.014901 -630659.000000 0 0 1
20.260456 11.493763 -29.338421 37.461122 0.516028 2.470544 0.068059 -0.012436 -281230.000000 0 0 1
19.026956 12.172763 -28.688511 36.513448 0.569146 2.474619 0.067385 -0.007095 303905.000000 0 0 1
17.929056 12.204963 -29.575081 36.675572 0.597680 2.508831 0.050500 0.004497 576240.000000 0 0 1
16.807656 12.936263 -29.085041 35.996997 0.655968 2.511521 0.047595 -0.009715 1168630.000000 0 0 1
15.599156 13.289263 -30.093531 36.408224 0.705609 2.543762 0.037542 -0.009524 1101480.000000 0 0 1
15.082056 12.054463 -30.552711 36.142035 0.674289 2.578019 0.023763 0.000353 97526.400000 0 0 1
13.797456 11.862263 -29.967411 35.058933 0.710123 2.595909 0.037081 -0.012078 -315836.000000 0 0 1
12.771756 11.287563 -30.908181 35.296494 0.723787 2.637624 0.044241 -0.008695 -530132.000000 0 0 1
12.412656 12.152563 -31.951441 36.368302 0.774811 2.643618 0.049305 -0.009581 -147225.000000 0 0 1
11.323256 11.639963 -32.682731 36.494736 0.799189 2.680454 0.071724 -0.003802 255368.000000 0 0 1
10.654156 12.554463 -33.767731 37.568408 0.867095 2.687896 0.084221 -0.012278 476089.000000 0 0 1
11.533656 12.787863 33.243795 37.439345 0.836920 0.477955 0.061638 -0.002933 336732.000000 0 0 1
10.799656 13.306263 32.176108 36.455331 0.889009 0.489395 0.078604 -0.009410 -324759.000000 0 0 1
11.545256 13.203763 30.866190 35.501464 0.852311 0.516740 0.070740 -0.006096 -134395.000000 0 0 1
11.937356 11.878263 30.487580 34.829386 0.782917 0.504656 0.073379 -0.006786 116887.000000 0 0 1
11.631756 11.676163 29.127290 33.466843 0.787303 0.514919 0.096975 -0.010142 -314551.000000 0 0 1
12.378156 10.598563 28.367420 32.714810 0.708100 0.521421 0.094315 -0.006127 -354139.000000 0 0 1
11.992456 9.340063 28.802510 32.567474 0.661697 0.485600 0.094949 -0.012867 -31742.800000 0 0 1
12.431556 8.345163 27.970650 31.726055 0.591196 0.491491 0.077527 -0.018681 -520830.000000 0 0 1
11.659956 7.019663 28.146230 31.264045 0.541912 0.450396 0.086062 -0.012745 -1216220.000000 0 0 1
10.396256 7.117863 27.613080 30.351743 0.600354 0.428069 0.083873 -0.019438 -842277.000000 0 0 1
9.518356 5.995563 27.866580 30.051492 0.562111 0.383677 0.071693 -0.027097 376943.000000 0 0 1
9.822956 4.555863 27.296710 29.365911 0.434269 0.377640 0.075526 -0.021038 -501156.000000 0 0 1
10.980756 4.074263 27.921140 30.278155 0.355291 0.397182 0.065552 -0.015689 -168574.000000 0 0 1
11.162956 2.726863 27.602280 29.898716 0.239586 0.394490 0.043807 -0.010758 -104156.000000 0 0 1
11.788656 1.876663 28.735160 31.115972 0.157868 0.393727 0.037127 -0.008805 263387.000000 0 0 1
10.840756 1.648963 29.768100 31.723506 0.150951 0.352939 0.041511 -0.009806 54115.200000 0 0 1
10.912156 0.381963 30.368010 32.271304 0.034989 0.345158 0.042122 -0.006333 435607.000000 0 0 1
9.822556 0.074163 31.453940 32.952063 0.007550 0.302696 0.062223 -0.001483 432222.000000 0 0 1
10.120356 0.858263 32.541021 34.089240 0.084603 0.302538 0.051335 -0.005576 321516.000000 0 0 1
8.934056 1.271163 33.225027 34.428704 0.141334 0.265206 0.067253 -0.008242 357615.000000 0 0 1
9.181756 2.584763 33.968341 35.282203 0.274409 0.273759 0.071311 -0.011310 -29374.400000 0 0 1
9.262656 3.797963 33.184474 34.661660 0.389123 0.292996 0.065773 -0.016948 101026.000000 0 0 1
10.331756 4.038463 32.279356 34.132260 0.372618 0.331012 0.053845 -0.012871 -95202.100000 0 0 1
10.242156 5.412063 31.509980 33.571879 0.486117 0.352297 0.060091 -0.015972 162712.000000 0 0 1
10.477156 6.552763 32.342123 34.622571 0.558911 0.364971 0.048678 -0.020539 -81462.500000 0 0 1
10.649956 7.787463 31.651680 34.291325 0.631373 0.394931 0.059515 -0.014715 -383199.000000 0 0 1
10.824356 9.006163 32.548084 35.463438 0.693967 0.408311 0.092120 -0.022822 296447.000000 0 0 1
9.713056 9.530763 33.298619 35.971891 0.775926 0.387955 0.091370 -0.025678 144086.000000 0 0 1
9.078456 8.661163 -33.923461 36.169536 0.761879 2.787327 0.078037 -0.030964 -268602.000000 0 0 1
7.777456 9.226763 -33.316781 35.434868 0.870425 2.794089 0.079045 -0.030069 -103550.000000 0 0 1
7.078656 8.329363 -32.507531 34.296140 0.866393 2.817211 0.088058 -0.032669 -452178.000000 0 0 1
5.856256 8.868363 -32.072461 33.787370 0.987177 2.821620 0.084636 -0.033485 123265.000000 0 0 1
5.218156 8.147663 -30.857521 32.338834 1.001165 2.837750 0.086369 -0.032010 -261249.000000 0 0 1
5.846556 8.459663 -29.626191 31.360155 0.966062 2.807499 0.085685 -0.037143 34699.300000 0 0 1
5.553156 7.596663 -28.500061 30.013336 0.939567 2.822690 0.074340 -0.033854 253637.000000 0 0 1
4.125056 7.687363 -27.865361 29.199144 1.078297 2.838176 0.065883 -0.030441 640268.000000 0 0 1
3.115456 7.248663 -28.779911 29.841791 1.164869 2.874023 0.058055 -0.034356 -968712.000000 0 0 1
1.905756 7.212463 -28.125441 29.097972 1.312469 2.882323 0.073100 -0.025893 -1439670.000000 0 0 1
0.793356 6.736263 -29.026881 29.808832 1.453562 2.912038 0.070098 -0.031885 -893842.000000 0 0 1
0.527356 7.540263 -30.144051 31.077283 1.500971 2.895906 0.054353 -0.031927 556.515000 0 0 1
-0.035944 6.781463 -31.192011 31.920700 -1.565496 2.927511 0.080872 -0.030532 -712123.000000 0 0 1
0.079756 7.499363 -32.512201 33.366001 1.560162 2.914882 0.097707 -0.034356 144988.000000 0 0 1
1.430556 7.701963 -32.893431 33.813378 1.387150 2.907794 0.070325 -0.020887 87008.700000 0 0 1
2.078656 6.578663 -33.481721 34.185162 1.264754 2.938377 0.064230 -0.025921 -528083.000000 0 0 1
1.885856 6.148663 33.164976 33.782808 1.273195 0.191543 0.073015 -0.032284 -677215.000000 0 0 1
0.604356 5.615563 32.938080 33.418811 1.463587 0.169821 0.067728 -0.033487 -399036.000000 0 0 1
0.352756 5.428363 31.553180 32.018662 1.505904 0.170723 0.082809 -0.027152 -255537.000000 0 0 1
1.064556 4.324263 30.800560 31.120845 1.329414 0.143592 0.083692 -0.024438 -245121.000000 0 0 1
0.816156 4.386663 29.397810 29.734494 1.386846 0.150628 0.073657 -0.027929 282404.000000 0 0 1
1.660156 3.465163 28.706440 28.962444 1.124009 0.133058 0.064403 -0.019139 -193145.000000 0 0 1
1.534856 3.685563 27.156280 27.448182 1.176189 0.145970 0.058147 -0.017807 52283.400000 0 0 1
2.030356 4.921163 26.778080 27.302120 1.179495 0.196244 0.063593 -0.017420 -226081.000000 0 0 1
1.831256 5.232563 25.424510 26.021893 1.234145 0.214687 0.050352 -0.012878 -737161.000000 0 0 1
2.325256 6.655563 25.122970 26.093427 1.234683 0.273585 0.052518 -0.002575 1497080.000000 0 0 1
3.776156 6.790463 25.127900 26.301732 1.063284 0.299885 0.060061 0.004549 1240030.000000 0 0 1
4.322356 6.449063 23.870460 25.101236 0.980331 0.314447 0.057522 -0.013248 -245255.000000 0 0 1
5.872556 6.613663 23.798880 25.389253 0.844683 0.355822 0.056326 -0.013006 966700.000000 0 0 1
6.719656 5.688763 24.542000 26.073465 0.702508 0.344444 0.062244 -0.012687 565808.000000 0 0 1
6.579156 4.276063 24.382610 25.614091 0.576334 0.311347 0.070332 -0.009883 -1041140.000000 0 0 1
6.805156 3.708263 22.972490 24.244518 0.498934 0.325367 0.061813 -0.013523 117714.000000 0 1 0
5.795456 4.043663 22.039990 23.145187 0.609201 0.310276 0.039056 -0.014699 349778.000000 0 1 0
4.520156 3.415163 22.209390 22.920562 0.647038 0.249758 0.041650 -0.012543 153308.000000 0 1 0
3.609356 3.725463 21.005690 21.636671 0.801226 0.242097 0.025923 -0.018610 -320846.000000 0 1 0
3.313056 5.109263 20.988490 21.854007 0.995518 0.282378 0.023363 -0.029471 114972.000000 0 1 0
1.979556 5.289463 20.532090 21.294689 1.212687 0.268431 0.017195 -0.017067 385744.000000 0 1 0
1.458756 6.774363 20.579890 21.715244 1.358700 0.324795 0.021136 -0.014645 24543.700000 0 1 0
2.201756 7.651563 19.753890 21.298129 1.290613 0.383143 0.015455 -0.018020 -204228.000000 0 1 0
1.794156 9.007663 20.015290 22.022008 1.374188 0.430214 0.020375 -0.014728 -511022.000000 0 1 0
2.812656 10.067063 19.733990 22.331304 1.298352 0.487105 0.030703 -0.014990 -1544150.000000 0 1 0
2.823056 10.409163 18.359590 21.293071 1.305958 0.531134 0.013291 -0.010153 -101755.000000 0 1 0
3.765656 11.380563 17.946990 21.582211 1.251251 0.588879 0.019037 -0.011758 122023.000000 0 1 0
5.252656 11.011763 18.091990 21.821307 1.125714 0.593305 0.020327 -0.013065 -679189.000000 0 1 0
5.685856 10.088263 17.122890 20.671124 1.057563 0.594643 0.018607 -0.013206 11673.100000 0 1 0
7.006956 9.626163 17.343490 21.037041 0.941585 0.601609 0.017509 -0.012083 214575.000000 0 1 0
7.112456 8.114863 17.804790 20.819428 0.851133 0.544858 0.025405 -0.013688 -427923.000000 0 1 0
6.680256 7.982163 19.131090 21.779333 0.873958 0.498280 0.032029 -0.016014 -36793.600000 0 1 0
6.858956 6.685963 19.700890 21.905991 0.772627 0.452543 0.031229 -0.019729 567650.000000 0 1 0
8.312656 6.183463 19.972690 22.499863 0.639561 0.478513 0.053239 -0.017564 57380.700000 0 1 0
9.155956 6.078163 18.863990 21.831759 0.586049 0.527513 0.052669 -0.018143 -99930.700000 0 1 0
10.381456 5.413563 19.172490 22.464765 0.480672 0.548232 0.059111 -0.018217 297603.000000 0 1 0
10.296156 3.852763 19.135090 22.068219 0.358064 0.521469 0.050272 -0.016159 -484982.000000 0 1 0
9.572256 3.298363 20.183590 22.580624 0.331834 0.464947 0.056576 -0.017538 -83668.000000 0 1 0
9.784556 1.923463 20.110490 22.447028 0.194106 0.460324 0.053556 -0.028464 347500.000000 0 1 0
8.883256 1.109763 21.080390 22.902547 0.124284 0.401595 0.058844 -0.023538 136697.000000 0 1 0
9.363756 1.224463 22.378790 24.289699 0.130028 0.399313 0.063065 -0.015458 -411252.000000 0 1 0
8.661256 0.395663 23.174050 24.742888 0.045650 0.358015 0.072600 -0.023822 -943685.000000 0 1 0
9.205556 0.327963 24.634940 26.300762 0.035612 0.357820 0.079171 -0.010833 1103680.000000 0 0 1
10.532456 -0.249137 24.762540 26.910557 -0.023650 0.402258 0.067683 -0.016459 983632.000000 0 0 1
10.618756 -1.625337 24.493350 26.745540 -0.151884 0.413321 0.059216 -0.021021 -324862.000000 0 0 1
12.019556 -2.199537 24.791470 27.639188 -0.180994 0.457933 0.047097 -0.018753 84019.700000 0 0 1
12.170856 -3.560137 24.497620 27.585099 -0.284574 0.477657 0.051130 -0.014409 59073.500000 0 0 1
13.516256 -3.954937 24.714740 28.445546 -0.284660 0.517934 0.046410 -0.010814 246148.000000 0 0 1
13.609156 -5.496237 25.101640 29.077656 -0.383832 0.529099 0.048229 -0.022406 -335521.000000 0 0 1
13.268656 -6.289837 24.045370 28.174441 -0.442663 0.548234 0.065737 -0.024000 63032.000000 0 0 1
13.124056 -7.672537 24.445470 28.786971 -0.529031 0.556356 0.071842 -0.026692 37053.900000 0 0 1
12.583056 -8.579737 23.313470 27.847138 -0.598440 0.578663 0.080413 -0.032139 4564.800000 0 0 1
12.658156 -9.913537 23.565490 28.527872 -0.664397 0.598731 0.099624 -0.018646 -257055.000000 0 0 1
12.256356 -10.625937 22.393590 27.651432 -0.714266 0.626895 0.088950 -0.018351 210418.000000 0 0 1
11.694256 -12.045537 22.603690 28.156303 -0.800194 0.638831 0.096966 -0.014298 -742717.000000 0 0 1
10.354056 -12.076337 22.913290 27.893785 -0.862031 0.606851 0.094766 -0.009538 -1466440.000000 0 0 1
9.751256 -13.319337 22.650190 28.027181 -0.938842 0.629791 0.089986 -0.004397 693215.000000 0 0 1
8.197856 -13.096337 22.717490 27.473683 -1.011503 0.597256 0.064531 -0.005068 770925.000000 0 0 1
7.709156 -12.132937 21.779490 26.095698 -1.004760 0.583389 0.053260 -0.010766 -463012.000000 0 0 1
6.308156 -12.125637 21.806190 25.735847 -1.091094 0.559900 0.026200 -0.017924 132621.000000 0 0 1
5.631556 -10.905937 21.063290 24.378599 -1.094134 0.527621 0.024063 -0.017619 315513.000000 0 1 0
5.800856 -9.695937 21.752790 24.512140 -1.031645 0.479059 0.043814 -0.012661 -120211.000000 0 1 0
5.093256 -8.626037 21.144090 23.397058 -1.037427 0.442446 0.034086 -0.007740 -173951.000000 0 1 0
5.293656 -7.220737 21.830390 23.595079 -0.938187 0.389209 0.040480 -0.007229 49865.100000 0 1 0
4.464356 -6.194237 21.348490 22.672827 -0.946294 0.343478 0.020934 -0.007929 -122394.000000 0 1 0
4.993156 -4.989537 21.793690 22.908339 -0.785036 0.313231 0.045278 -0.025612 230323.000000 0 1 0
-7.885044 -15.597437 -20.794311 27.163530 1.102731 2.442650 0.079388 0.001646 178434.000000 0 0 1
-7.488544 -15.060037 -19.528911 25.773269 1.109354 2.430608 0.078687 -0.000228 -22503.200000 0 0 1
-6.944544 -13.754937 -19.621811 24.948757 1.103255 2.475892 0.078779 -0.011857 -89192.400000 0 1 0
-6.218944 -13.359037 -18.331711 23.520008 1.135108 2.464519 0.087066 -0.021798 -500962.000000 0 1 0
-5.150744 -14.208637 -18.067011 23.554881 1.223022 2.444976 0.068411 -0.011435 -456588.000000 0 1 0
-4.525844 -13.832537 -16.839211 22.257165 1.254587 2.428855 0.068670 -0.015498 -36748.300000 0 1 0
-3.409044 -14.780137 -16.442511 22.370297 1.344110 2.396486 0.057966 0.000247 -340452.000000 0 1 0
-2.168344 -14.711137 -17.118211 22.674929 1.424455 2.426359 0.045532 -0.007835 -234267.000000 0 1 0
-1.331144 -15.551737 -16.366011 22.615809 1.485410 2.379878 0.044198 -0.004714 -801435.000000 0 1 0
0.065456 -15.718637 -16.963511 23.126620 -1.566632 2.394262 0.042272 -0.003939 -401211.000000 0 1 0
0.300756 -16.539637 -18.120011 24.535380 -1.552614 2.401678 0.070788 -0.007797 -48829.800000 0 1 0
0.248356 -17.979437 -17.955211 25.410853 -1.556984 2.355473 0.061672 0.001782 -281787.000000 0 0 1
-0.228744 -18.405637 -19.310911 26.678289 1.558369 2.380153 0.065213 -0.013355 750013.000000 0 0 1
-1.660844 -18.365237 -19.467611 26.814702 1.480608 2.383291 0.078267 -0.005963 905630.000000 0 0 1
-2.037244 -18.386437 -20.801311 27.837133 1.460445 2.414711 0.082171 -0.006665 102961.000000 0 0 1
-2.972844 -17.213737 -21.283211 27.534081 1.399781 2.454317 0.091656 -0.009764 124702.000000 0 0 1
-2.459544 -15.929737 -21.473911 26.850228 1.417606 2.497702 0.091693 0.003842 49359.000000 0 0 1
-3.045344 -15.084337 -20.457111 25.598921 1.371586 2.496659 0.088321 -0.002400 365081.000000 0 0 1
-2.277344 -13.753737 -20.308911 24.633381 1.406705 2.540020 0.077355 -0.021682 -36721.400000 0 1 0
-2.409244 -13.020237 -21.536811 25.281718 1.387827 2.590347 0.079868 -0.027722 275661.000000 0 0 1
-1.478944 -11.946637 -21.627511 24.751942 1.447627 2.633698 0.055456 -0.013866 191569.000000 0 1 0
-1.686544 -11.018037 -22.803211 25.381647 1.418904 2.686939 0.060978 -0.010430 -74933.200000 0 0 1
-2.833844 -10.199937 -22.758811 25.100456 1.299801 2.706211 0.058125 -0.012782 115760.000000 0 0 1
-3.038344 -9.602237 -24.042211 26.066500 1.264344 2.744893 0.074092 -0.018820 -209085.000000 0 0 1
-4.119344 -8.530837 -24.240511 26.025882 1.120941 2.769037 0.082710 -0.019923 -235765.000000 0 0 1
-5.439244 -9.023437 -24.143211 26.342028 1.028327 2.730108 0.075915 -0.017795 198799.000000 0 0 1
-6.348544 -7.945437 -24.016711 26.081342 0.896655 2.741022 0.092639 -0.025477 -113993.000000 0 0 1
-7.827144 -8.447737 -24.051911 26.666887 0.823512 2.695035 0.069314 -0.024633 536912.000000 0 0 1
-8.521344 -8.774537 -25.241971 28.049294 0.800036 2.690370 0.064699 -0.029327 161967.000000 0 0 1
-8.752644 -7.603537 -26.016791 28.483258 0.715258 2.722372 0.059220 -0.028583 -378804.000000 0 0 1
-9.801644 -7.871237 -27.116231 29.888436 0.676600 2.707491 0.052648 -0.029619 -95970.300000 0 0 1
-10.400144 -6.774037 -27.711021 30.363650 0.577317 2.720488 0.070348 -0.035490 -252761.000000 0 0 1
-11.235744 -7.251037 -28.728971 31.688693 0.573103 2.705952 0.068946 -0.030166 -238831.000000 0 0 1
-11.939144 -6.115837 -29.469331 32.378822 0.473400 2.714423 0.059651 -0.034305 483077.000000 0 0 1
-11.017244 -5.315937 -30.237711 32.618369 0.449558 2.757169 0.052489 -0.026447 667338.000000 0 0 1
-11.799444 -4.504937 -31.084551 33.552506 0.364712 2.755653 0.053213 -0.036840 226957.000000 0 0 1
-10.974344 -3.499337 -31.918901 33.933727 0.308673 2.795262 0.041160 -0.040589 -458306.000000 0 0 1
-9.956244 -4.101137 -32.649441 34.379240 0.390737 2.823024 0.048498 -0.026943 -153591.000000 0 0 1
-9.299344 -3.069437 -33.420481 34.825677 0.318811 2.856553 0.045283 -0.019049 -2067.890000 0 0 1
-8.189944 -3.683537 33.789694 34.962652 0.422657 0.259762 0.043323 -0.022413 -182064.000000 0 0 1
-7.030144 -4.039337 -33.598791 34.563245 0.521514 2.904803 0.047371 -0.032276 -81934.100000 0 0 1
-6.036144 -4.384437 33.521548 34.341702 0.628202 0.218988 0.037515 -0.025961 -132327.000000 0 0 1
-4.589444 -4.172737 33.943395 34.505489 0.737877 0.180745 0.047930 -0.033299 -447598.000000 0 0 1
-4.383944 -2.754037 -34.017402 34.409117 0.560904 2.990558 0.071866 -0.035071 1014310.000000 0 0 1
-2.980544 -2.419737 -33.924841 34.141377 0.681921 3.028907 0.068498 -0.040275 1180920.000000 0 0 1
-2.952144 -0.906337 -33.630181 33.771670 0.297875 3.050023 0.076068 -0.041294 31330.800000 0 0 1
-3.036544 -0.542237 -32.236831 32.384069 0.176708 3.046198 0.070862 -0.046169 88259.900000 0 0 1
-3.421444 0.812963 -32.044491 32.236883 -0.233282 3.032286 0.097839 -0.044378 -706881.000000 0 0 1
-4.023144 0.941463 -30.649611 30.926861 -0.229875 3.007592 0.113613 -0.053752 -27123.000000 0 0 1
-5.121044 0.069763 -30.485461 30.912672 -0.013622 2.975148 0.100616 -0.054363 -6772.620000 0 0 1
-6.353944 0.757563 -30.648251 31.309133 -0.118667 2.935763 0.114013 -0.052455 445249.000000 0 0 1
-7.599044 -0.207137 -30.686121 31.613706 0.027252 2.898752 0.101509 -0.056009 277782.000000 0 0 1
-7.790044 -0.807737 -29.420891 30.445460 0.103319 2.881427 0.084118 -0.045374 100511.000000 0 0 1
-8.960544 -1.602837 -29.502121 30.874513 0.177005 2.842314 0.061697 -0.032256 131812.000000 0 0 1
-9.350844 -2.392137 -28.209771 29.815294 0.250449 2.811928 0.068653 -0.034461 -446330.000000 0 0 1
-10.021144 -1.634437 -27.297371 29.124580 0.161675 2.785489 0.070635 -0.033112 -149118.000000 0 0 1
-10.078244 -2.365137 -26.080211 28.059620 0.230506 2.763735 0.055404 -0.027989 -627145.000000 0 0 1
-11.010144 -1.749137 -25.072971 27.439691 0.157549 2.723213 0.063944 -0.025468 -564459.000000 0 0 1
-10.577344 -0.617437 -24.373711 26.577043 0.058307 2.731531 0.067670 -0.024239 423555.000000 0 0 1
-11.630844 -0.062437 -23.570711 26.284194 0.005368 2.683197 0.076990 -0.033366 468730.000000 0 0 1
-11.156644 1.180663 -22.847611 25.453448 -0.105434 2.685144 0.091111 -0.034846 116076.000000 0 0 1
-10.789144 2.191563 -23.745111 26.173247 -0.200400 2.707444 0.068979 -0.036488 270875.000000 0 0 1
-9.983944 3.196463 -23.107111 25.373906 -0.309848 2.715686 0.072965 -0.033141 -289150.000000 0 0 1
-9.902944 4.519863 -23.923211 26.283407 -0.428177 2.714568 0.088589 -0.046486 589446.000000 0 0 1
-11.156644 5.172363 -24.217411 27.160763 -0.434116 2.671734 0.092509 -0.044220 570246.000000 0 0 1
-11.862044 4.561563 -25.257651 28.274810 -0.367118 2.675412 0.075403 -0.046856 -280763.000000 0 0 1
-13.262444 5.188863 -25.495481 29.203361 -0.372936 2.632183 0.063642 -0.028473 157124.000000 0 0 1
-13.240144 6.518463 -25.932561 29.837719 -0.457489 2.624217 0.055239 -0.022858 -175102.000000 0 0 1
-14.537644 6.979363 -26.223921 30.785526 -0.447592 2.590258 0.053332 -0.025887 -225086.000000 0 0 1
-14.721544 8.466863 -26.555561 31.521571 -0.521935 2.572623 0.061858 -0.015463 -237627.000000 0 0 1
-14.641244 9.165263 -25.357851 30.682058 -0.559310 2.543608 0.090110 -0.023945 191809.000000 0 0 1
-15.156644 10.483963 -25.480711 31.446843 -0.605139 2.515424 0.074494 -0.016162 -87725.800000 0 0 1
-15.087844 11.270363 -24.120711 30.601843 -0.641567 2.478693 0.083059 -0.022188 81998.500000 0 0 1
-15.878844 10.764263 -23.069111 30.003182 -0.595739 2.447898 0.112267 -0.023738 71477.100000 0 0 1
-15.406044 11.369663 -21.885711 29.079198 -0.635777 2.422835 0.106155 -0.024500 41630.600000 0 0 1
-16.308044 10.971163 -20.648911 28.507827 -0.592199 2.380850 0.128333 -0.027652 641370.000000 0 0 1
-17.581644 11.588463 -20.583411 29.446281 -0.582762 2.344816 0.105073 -0.023816 207753.000000 0 0 1
-17.554644 12.858463 -19.943311 29.516796 -0.632195 2.312656 0.091404 -0.023563 26959.900000 0 0 1
-18.958444 13.507663 -19.779811 30.547021 -0.619058 2.275122 0.069767 -0.024300 379452.000000 0 0 1
-19.595744 14.107963 -20.904711 31.937982 -0.623990 2.284371 0.066196 -0.020319 1203520.000000 0 0 1
-20.886844 14.620963 -20.513511 32.723645 -0.610731 2.248327 0.035453 -0.016948 821147.000000 0 0 1
-21.289444 15.879863 -21.330011 34.064348 -0.640874 2.247425 0.048536 -0.010099 -47479.900000 0 0 1
-21.444144 15.630563 -22.738311 34.945623 -0.629858 2.279272 0.054700 -0.015945 374326.000000 0 0 1
-22.190944 16.678863 -23.330111 36.261778 -0.644529 2.269702 0.045885 -0.010896 -197299.000000 0 0 1
-22.016244 16.766463 -24.855411 37.197053 -0.650852 2.302595 0.044592 -0.002828 104212.000000 0 0 1
-20.732044 17.217863 -25.239681 36.923081 -0.693061 2.323445 0.038606 -0.005713 353806.000000 0 0 1
-20.435244 16.671363 -26.504191 37.389914 -0.684310 2.358676 0.038208 -0.014298 -828202.000000 0 0 1
-19.488844 17.460563 -27.312951 37.824378 -0.730560 2.377628 0.022231 -0.008578 -825615.000000 0 0 1
-20.031244 18.678463 -27.656241 38.923044 -0.750466 2.361057 0.023277 -0.019379 501189.000000 0 0 1
-19.019644 19.667263 -27.547201 38.825203 -0.802137 2.359611 0.009945 -0.024732 -565902.000000 0 0 1
-19.755244 21.011663 -27.506221 39.854132 -0.816208 2.332524 0.043103 -0.023004 82465.500000 0 0 1
-20.637444 21.291663 -26.469381 39.747542 -0.801000 2.299546 0.055771 -0.016752 1034930.000000 0 0 1
-21.855044 20.501863 -26.478921 39.988781 -0.753462 2.294492 0.089829 -0.028107 -346444.000000 0 0 1
-23.002244 20.974263 -25.573851 40.287030 -0.739316 2.258535 0.084165 -0.017192 -26615.500000 0 0 1
-22.837644 20.723763 -24.226511 39.216784 -0.736910 2.236686 0.040373 -0.012003 -462865.000000 0 0 1
-23.903244 21.219263 -23.497511 39.670583 -0.725986 2.204726 0.045957 -0.024987 -629042.000000 0 0 1
-23.690644 20.840763 -22.007711 38.469772 -0.721488 2.179834 0.049674 -0.014167 146525.000000 0 0 1
-22.545644 21.382963 -21.367311 37.710730 -0.758937 2.173183 0.051945 -0.014472 -86747.600000 0 0 1
-21.530944 20.487163 -21.046411 36.417809 -0.760562 2.186968 0.049294 -0.012201 -541456.000000 0 0 1
-21.756744 19.722963 -19.697111 35.359968 -0.736407 2.161620 0.053557 -0.022521 -127317.000000 0 0 1
-22.745844 18.666063 -19.849411 35.493583 -0.687198 2.164264 0.066321 -0.021818 806555.000000 0 0 1
-23.352544 18.232063 -18.675511 35.021766 -0.662881 2.133239 0.054956 -0.019054 -160160.000000 0 0 1
-24.516644 19.125463 -18.164411 36.011040 -0.662489 2.099498 0.047307 -0.011675 -328279.000000 0 0 1
-25.689924 19.069363 -18.951011 37.185395 -0.638548 2.105558 0.044809 -0.009877 509496.000000 0 0 1
-26.553774 20.198963 -18.724911 38.258637 -0.650302 2.082232 0.049482 -0.010289 -643027.000000 0 0 1
-27.963534 20.000863 -19.352811 39.452820 -0.620886 2.083495 0.038053 -0.007747 326885.000000 0 0 1
-28.731794 18.925663 -18.803611 39.208066 -0.582468 2.070978 0.027819 -0.001511 319072.000000 0 0 1
-29.077504 19.158763 -17.448611 38.948857 -0.582597 2.035310 0.012005 0.000982 -1317380.000000 0 0 1
-30.020284 18.071763 -16.850711 38.881262 -0.541878 2.019046 0.002419 -0.000158 -708884.000000 0 0 1
-29.431834 16.835463 -16.542211 37.726786 -0.519588 2.024696 0.012610 -0.010131 -200852.000000 0 0 1
-30.305364 15.863163 -16.052111 37.785252 -0.482226 2.009565 0.001816 -0.011319 -457999.000000 0 0 1
-29.463094 14.782263 -15.418711 36.391288 -0.465024 2.008314 0.033161 -0.014250 67795.800000 0 0 1
-28.796684 15.168263 -14.178111 35.501324 -0.484807 1.981624 0.042705 -0.012621 626613.000000 0 0 1
-29.641054 15.044563 -13.045711 35.708843 -0.469676 1.944790 0.009824 -0.002569 714631.000000 0 0 1
-28.803384 15.556063 -11.790311 34.794215 -0.495193 1.916500 0.027638 -0.013990 571178.000000 0 0 1
-28.524304 16.951563 -11.749311 35.199967 -0.536207 1.911115 0.021953 -0.002219 164976.000000 0 0 1
-29.693584 17.713863 -11.490311 36.435108 -0.537883 1.891636 0.005363 0.006334 156166.000000 0 0 1
-29.556764 19.203563 -11.728811 37.147599 -0.576177 1.892028 0.048744 0.003472 -160512.000000 0 0 1
-28.677254 19.808163 -10.840311 36.500144 -0.604476 1.872339 0.006140 -0.005983 -3791.340000 0 0 1
-27.644244 20.544663 -11.493311 36.309552 -0.639122 1.892873 0.015023 -0.005305 490917.000000 0 0 1
-26.809044 21.463863 -10.558511 35.929158 -0.675119 1.869070 0.038372 -0.002859 382730.000000 0 0 1
-27.595064 22.435963 -9.920111 36.922467 -0.682643 1.842813 0.032735 -0.002472 147770.000000 0 0 1
-26.806234 23.637863 -9.842811 37.070253 -0.722671 1.839537 0.042780 0.001746 386246.000000 0 0 1
-27.309934 24.779863 -8.943711 37.945540 -0.736865 1.808734 0.067212 0.012762 -54240.700000 0 0 1
-27.093754 24.447963 -7.548111 37.265914 -0.734110 1.774755 0.065266 0.005376 212147.000000 0 0 1
-28.093524 24.918063 -6.660511 38.138148 -0.725568 1.746338 0.074181 0.000827 178975.000000 0 0 1
-27.840324 24.266263 -5.299011 37.309712 -0.716914 1.713306 0.078783 0.000524 195455.000000 0 0 1
-28.087174 22.841763 -5.440111 36.609155 -0.682765 1.719948 0.081071 -0.009812 186941.000000 0 0 1
-27.546534 22.251763 -4.251611 35.665511 -0.679472 1.690288 0.068715 -0.013174 235114.000000 0 0 1
-27.554414 20.716363 -4.395711 34.752492 -0.644674 1.697622 0.079624 -0.016719 -60692.300000 0 0 1
-26.802364 20.254863 -5.506511 34.043323 -0.647147 1.733260 0.065595 -0.028438 103277.000000 0 0 1
-27.398464 20.302663 -6.837011 34.779572 -0.637726 1.768666 0.053301 -0.015045 409819.000000 0 0 1
-28.588914 19.292863 -7.052811 35.203447 -0.593638 1.772506 0.034026 -0.011229 21497.500000 0 0 1
-28.218764 17.935463 -6.945211 34.149896 -0.566176 1.775599 0.036930 -0.008989 136348.000000 0 0 1
-28.106754 17.417963 -8.270811 34.084914 -0.554784 1.815896 0.027762 -0.009038 -55594.800000 0 0 1
-27.380354 16.051663 -8.336111 32.815094 -0.530246 1.827644 0.059234 -0.006254 97736.300000 0 0 1
-28.117214 15.023563 -7.709211 32.798126 -0.490724 1.808067 0.029384 -0.008376 39866.400000 0 0 1
-27.858894 13.830463 -8.328011 32.198687 -0.460801 1.832415 0.047721 -0.025190 240845.000000 0 0 1
-28.685824 12.703163 -7.635611 32.288533 -0.416882 1.809538 0.040171 -0.029226 62492.300000 0 0 1
-30.089574 12.819563 -7.728811 33.607412 -0.402757 1.802847 0.047159 -0.022083 -215588.000000 0 0 1
-30.755374 11.982063 -6.821011 33.704436 -0.371502 1.774581 0.069784 -0.028709 -52102.000000 0 0 1
-31.285264 10.610263 -7.330611 33.839079 -0.326973 1.789159 0.066513 -0.025479 -59777.400000 0 0 1
-30.271254 9.700563 -7.738511 32.715963 -0.310115 1.809596 0.074405 -0.025273 101771.000000 0 0 1
-30.840064 8.472063 -8.142311 33.002767 -0.268096 1.820086 0.069058 -0.024007 316521.000000 0 0 1
-29.792134 7.433563 -8.699011 31.913976 -0.244521 1.846867 0.097688 -0.023068 527027.000000 0 0 1
-29.143384 7.834563 -9.908911 31.763244 -0.262619 1.888053 0.093218 -0.031577 493263.000000 0 0 1
-28.274754 6.845863 -10.443211 30.909354 -0.237548 1.915445 0.112415 -0.037329 -234233.000000 0 0 1
-27.613994 7.216363 -11.798211 30.883755 -0.255613 1.962777 0.092072 -0.028603 -895305.000000 0 0 1
-26.568784 8.100763 -11.599311 30.100941 -0.295944 1.966380 0.108382 -0.039999 -497747.000000 0 0 1
-25.956594 8.255363 -12.799811 30.095364 -0.307928 2.010099 0.084777 -0.020019 -750572.000000 0 0 1
-32.183334 25.552263 -34.000651 53.336004 -0.671047 2.262020 0.026114 0.004197 72262.600000 0 0 1
-31.988374 26.956363 33.923662 53.858299 -0.700236 0.889412 0.018472 -0.007882 16612.900000 0 0 1
-32.549364 27.344063 32.738688 53.656132 -0.698707 0.914537 0.039323 -0.016256 -251069.000000 0 0 1
-32.605924 28.873463 32.496072 54.339836 -0.724762 0.929773 0.056695 -0.023016 -101730.000000 0 0 1
-33.378224 29.325263 31.419770 54.417633 -0.720851 0.955278 0.094237 -0.022735 29497.800000 0 0 1
-33.520264 30.719063 31.401610 55.256945 -0.741820 0.966378 0.114927 -0.023479 -61292.300000 0 0 1
-33.009044 31.319963 30.083950 54.548887 -0.759147 0.986630 0.115869 -0.022269 1094330.000000 0 0 1
-31.576294 31.387663 29.938460 53.652205 -0.782402 0.978811 0.106659 -0.018793 941782.000000 0 0 1
-31.260334 32.032263 28.679450 53.158115 -0.797594 1.000939 0.109058 -0.008299 86578.800000 0 0 1
-29.763054 31.914163 28.322000 52.023925 -0.820261 0.995119 0.131628 -0.010702 -101958.000000 0 0 1
-29.436904 30.647963 27.717260 50.735347 -0.805551 0.992843 0.158501 -0.015745 453097.000000 0 0 1
-28.404224 30.755763 26.729550 49.670773 -0.825126 1.002574 0.123680 -0.002351 -22587.100000 0 0 1
-28.765254 31.371363 25.360840 49.545680 -0.828708 1.033439 0.118311 -0.011844 -318484.000000 0 0 1
-28.853484 32.821063 25.399370 50.545758 -0.849641 1.044305 0.118205 -0.018090 202132.000000 0 0 1
-29.850524 33.425863 24.605560 51.125098 -0.841842 1.068680 0.125673 -0.013678 -188296.000000 0 0 1
-30.141654 -33.318838 25.054920 51.443301 0.835422 1.062099 0.124365 -0.013890 -154732.000000 0 0 1
-30.623414 -33.266438 26.384500 52.350656 0.826743 1.042578 0.129489 -0.028237 152844.000000 0 0 1
-30.538484 -31.948638 26.943850 51.761815 0.807961 1.023319 0.117260 -0.029028 -275228.000000 0 0 1
-31.163724 -31.797238 28.327620 52.770220 0.795460 1.004144 0.134182 -0.043748 -681243.000000 0 0 1
-32.500964 -32.174038 28.447760 53.858671 0.780343 1.014326 0.107915 -0.040106 -378480.000000 0 0 1
-32.684944 -32.784238 29.728790 55.017386 0.786915 0.999940 0.103087 -0.036554 30829.500000 0 0 1
-34.168344 -32.821638 30.155030 56.161032 0.765298 1.003992 0.094224 -0.038865 1614.460000 0 0 1
-34.346120 -33.354338 31.401720 57.255880 0.770750 0.990292 0.089485 -0.043599 -125876.000000 0 0 1
-35.704330 -33.521838 31.724440 58.351974 0.753882 0.995988 0.082511 -0.042348 -357627.000000 0 0 1
-35.999054 34.076963 33.124252 59.618683 -0.757976 0.981710 0.081228 -0.033817 -428543.000000 0 0 1
-35.549884 32.722763 33.252270 58.653959 -0.744013 0.968031 0.049317 -0.024887 -122908.000000 0 0 1
-36.339154 31.977663 -33.974631 59.138655 -0.721643 2.182779 0.065015 -0.026916 -148492.000000 0 0 1
-35.707807 30.630563 -33.519451 57.765322 -0.709012 2.189856 0.049453 -0.021539 78194.400000 0 0 1
-34.632248 30.956363 -32.666671 56.787326 -0.729412 2.183701 0.049420 -0.020968 -58059.300000 0 0 1
-33.941554 29.799763 -32.146221 55.438565 -0.720511 2.189345 0.032220 -0.016990 569912.000000 0 0 1
-33.162454 30.057263 -30.820351 54.342262 -0.736320 2.173841 0.021725 -0.014341 425302.000000 0 0 1
-33.989814 30.114063 -29.652151 54.234807 -0.725011 2.149258 0.042718 -0.020799 -151300.000000 0 0 1
-34.730121 31.298863 -29.490961 55.276730 -0.733479 2.133547 0.034751 -0.017664 332677.000000 0 0 1
-35.776669 31.185363 -28.336901 55.276368 -0.716940 2.109054 0.040590 -0.015317 622229.000000 0 0 1
-35.159480 30.991963 -27.053001 54.116131 -0.722482 2.094287 0.028583 -0.021867 -181072.000000 0 0 1
-36.170484 30.969763 -26.088411 54.295813 -0.708092 2.072006 0.066930 -0.024682 -289090.000000 0 0 1
-35.779404 30.528563 -24.638411 53.096235 -0.706374 2.053339 0.066340 -0.027629 -289515.000000 0 0 1
-35.336541 31.666863 -23.913011 53.134672 -0.730684 2.037612 0.077688 -0.040652 6935.540000 0 0 1
-35.054344 31.406963 -22.536911 52.183491 -0.730573 2.017370 0.064129 -0.037456 1172440.000000 0 0 1
-36.367424 31.015163 -21.675111 52.481809 -0.706134 1.996545 0.061082 -0.034224 1441130.000000 0 0 1
36.248698 32.021263 -21.581711 52.963191 0.723555 1.990495 0.069924 -0.039615 3158.210000 0 0 1
36.511588 33.238063 -20.868711 53.603805 0.738500 1.970683 0.073728 -0.045193 -364746.000000 0 0 1
36.684578 33.188563 -19.366111 53.125184 0.735406 1.943932 0.074837 -0.042419 528828.000000 0 0 1
-35.782166 32.383863 -19.132811 51.914761 -0.735586 1.948237 0.070983 -0.045514 161375.000000 0 0 1
-35.565139 32.307663 -17.788411 51.235649 -0.737441 1.925367 0.078038 -0.032701 64885.400000 0 0 1
-34.249511 31.531163 -17.531511 49.745322 -0.744097 1.930958 0.067350 -0.028409 84931.200000 0 0 1
-34.035174 31.170263 -16.220011 48.918985 -0.741490 1.908762 0.057801 -0.019187 -198022.000000 0 0 1
-32.757754 30.586063 -16.086111 47.616600 -0.751127 1.915402 0.044767 -0.015953 -75803.300000 0 0 1
-32.336014 30.329263 -14.612111 46.679714 -0.753386 1.889177 0.046176 -0.011112 -21769.700000 0 0 1
-33.326874 29.505963 -14.026811 46.669409 -0.724662 1.876073 0.038790 -0.003820 185481.000000 0 0 1
-33.039034 29.108963 -12.700911 45.828186 -0.722245 1.851615 0.045831 0.002133 573933.000000 0 0 1
-34.119959 28.146663 -12.010211 45.832863 -0.689760 1.835936 0.050013 -0.006172 414729.000000 0 0 1
-33.609634 27.719663 -10.745611 44.871543 -0.689653 1.812621 0.054684 0.003845 2071.930000 0 0 1
-34.460920 26.984063 -9.925011 44.879845 -0.664310 1.793786 0.054610 -0.005654 -531465.000000 0 0 1
-33.739994 26.321263 -8.759111 43.679721 -0.662501 1.772696 0.057712 0.000784 -81382.700000 0 0 1
-33.397204 27.150063 -7.675411 43.719687 -0.682584 1.747271 0.068695 -0.003253 -585114.000000 0 0 1
-32.288434 26.745263 -6.977811 42.503434 -0.691774 1.735713 0.069983 -0.011333 -900108.000000 0 0 1
-31.972024 27.542463 -5.695311 42.582087 -0.711107 1.704947 0.090959 -0.019226 -635107.000000 0 0 1
-31.049054 26.826163 -4.951511 41.330427 -0.712562 1.690888 0.099099 -0.015327 -77423.800000 0 0 1
-30.826854 27.433063 -3.644111 41.426409 -0.727211 1.658876 0.092227 -0.013369 -417981.000000 0 0 1
-29.861204 26.592463 -2.843811 40.086629 -0.727561 1.641798 0.089122 -0.007018 -517628.000000 0 0 1
-30.537314 25.430663 -2.368311 39.810238 -0.694408 1.630321 0.084187 -0.003110 -119291.000000 0 0 1
-29.756824 24.322363 -1.967211 38.482669 -0.685244 1.621938 0.091456 -0.017742 -414866.000000 0 0 1
-30.492194 23.052663 -1.596911 38.258976 -0.647342 1.612548 0.095337 -0.030120 -147328.000000 0 0 1
-31.169634 22.248763 -2.568811 38.381666 -0.619925 1.637774 0.081818 -0.029257 250581.000000 0 0 1
-31.982454 21.279663 -1.948511 38.464244 -0.587093 1.621476 0.089818 -0.029208 -240205.000000 0 0 1
-32.553594 20.312563 -2.935511 38.483164 -0.557860 1.647151 0.070535 -0.017345 92442.500000 0 0 1
-31.583894 19.388763 -3.438511 37.219482 -0.550564 1.663313 0.057138 -0.017873 330340.000000 0 0 1
-32.106934 18.671263 -4.539111 37.417573 -0.526731 1.692405 0.050504 -0.011839 -24753.300000 0 0 1
-31.163554 17.623263 -5.161811 36.171684 -0.514672 1.713988 0.033976 -0.014121 -340508.000000 0 0 1
-30.875384 16.525763 -4.409711 35.296398 -0.491441 1.696057 0.062719 -0.016125 66508.800000 0 0 1
-30.003744 15.640863 -5.095211 34.217282 -0.480540 1.720260 0.055474 -0.029072 -147216.000000 0 0 1
-29.286284 14.602263 -4.186411 32.991492 -0.462530 1.698033 0.071501 -0.025772 566235.000000 0 0 1
-30.283904 13.792663 -3.529511 33.463559 -0.427373 1.676466 0.096763 -0.028772 897770.000000 0 0 1
-29.741394 12.549463 -3.199611 32.438820 -0.399287 1.669592 0.109423 -0.033413 60501.200000 0 0 1
-30.807454 11.637063 -2.558311 33.031279 -0.361167 1.648325 0.115237 -0.033981 532635.000000 0 0 1
-31.956094 11.385463 -3.369511 34.090677 -0.342263 1.669798 0.091517 -0.027566 355991.000000 0 0 1
-32.892004 10.536963 -2.790411 34.651088 -0.310021 1.651412 0.105410 -0.027168 282095.000000 0 0 1
-34.051884 10.079163 -3.750211 35.709724 -0.287778 1.676010 0.096520 -0.027002 476752.000000 0 0 1
-33.610844 9.190663 -4.758311 35.168148 -0.266918 1.706514 0.097670 -0.030710 296620.000000 0 0 1
-34.693525 8.517063 -5.355011 36.122806 -0.240734 1.719589 0.107690 -0.024575 -196026.000000 0 0 1
-34.283546 7.703463 -6.585011 35.750066 -0.221027 1.756050 0.106605 -0.034435 -236660.000000 0 0 1
-33.666304 6.540963 -6.021011 34.820350 -0.191897 1.744586 0.110966 -0.038660 346413.000000 0 0 1
-33.231124 5.640863 -7.012411 34.428198 -0.168144 1.775914 0.110811 -0.034371 -222161.000000 0 0 1
-32.086964 4.784263 -6.432611 33.073265 -0.148013 1.766540 0.105670 -0.033499 221152.000000 0 0 1
-30.763404 5.289363 -6.390811 31.862310 -0.170272 1.772742 0.104041 -0.038475 287407.000000 0 0 1
-29.902014 4.326763 -5.851411 30.774832 -0.143701 1.762097 0.092915 -0.034775 90826.500000 0 0 1
-28.423264 4.767263 -5.687011 29.376024 -0.166177 1.765620 0.118431 -0.040480 306054.000000 0 0 1
-27.695474 4.894063 -6.890811 28.956422 -0.174904 1.811073 0.125985 -0.029834 -451532.000000 0 0 1
-26.349004 4.619063 -6.685211 27.573498 -0.173540 1.815687 0.152575 -0.041700 -772510.000000 0 0 1
-25.419844 4.893663 -7.875011 27.057941 -0.190187 1.866113 0.135661 -0.033188 -292086.000000 0 0 1
-25.644394 4.077563 -8.990511 27.478914 -0.157684 1.904113 0.134246 -0.044136 342417.000000 0 0 1
-24.840144 4.467163 -10.095911 27.183004 -0.177934 1.951318 0.148137 -0.046968 -91242.900000 0 0 1
-25.252264 3.817163 -11.473711 27.998100 -0.150025 1.993035 0.131873 -0.047175 -202559.000000 0 0 1
-26.226464 4.440763 -12.262311 29.290136 -0.167733 2.002754 0.099576 -0.024834 112205.000000 0 0 1
-26.674994 3.667563 -13.334911 30.047066 -0.136634 2.030632 0.093670 -0.021235 373280.000000 0 0 1
-27.499324 4.473863 -14.387811 31.356616 -0.161277 2.047491 0.083231 -0.015217 -14039.600000 0 0 1
-26.603774 5.385763 -14.976211 31.000873 -0.199744 2.074977 0.058580 -0.012847 413563.000000 0 0 1
-27.155984 6.257163 -15.996711 32.132449 -0.226463 2.091899 0.073741 -0.013913 -176517.000000 0 0 1
-27.886874 5.641063 -17.183711 33.238219 -0.199591 2.114123 0.044738 -0.000154 -542019.000000 0 0 1
-29.120354 5.092863 -16.832111 34.018410 -0.173139 2.088394 0.052940 -0.008741 -527197.000000 0 0 1
-29.734994 4.436763 -17.922811 35.001169 -0.148117 2.108381 0.051776 0.003501 533913.000000 0 0 1
-31.160464 3.836563 -17.660511 36.022040 -0.122506 2.083195 0.058519 -0.006879 657498.000000 0 0 1
-31.142294 2.711463 -16.776311 35.477304 -0.086848 2.063347 0.068709 -0.016081 179289.000000 0 0 1
-30.852304 1.553463 -17.434311 35.471581 -0.050309 2.084609 0.097520 -0.014542 -195467.000000 0 0 1
-31.079884 0.362963 -16.514011 35.196640 -0.011678 2.059173 0.086007 -0.003377 -202579.000000 0 0 1
-30.685074 -0.937237 -17.024611 35.103982 0.030534 2.077133 0.090900 0.001718 357686.000000 0 0 1
-30.908374 -1.912837 -16.059111 34.883829 0.061809 2.049197 0.098242 -0.007018 -146391.000000 0 0 1
-30.890484 -3.250537 -16.748011 35.288580 0.104842 2.065308 0.097763 -0.008665 -100036.000000 0 0 1
-31.959074 -3.362137 -17.657811 36.667215 0.104816 2.073241 0.101296 -0.007028 88279.600000 0 0 1
-31.957634 -4.561037 -18.380011 37.147250 0.141764 2.088387 0.094661 -0.013334 -136673.000000 0 0 1
-33.064034 -4.722737 -19.435311 38.642799 0.141876 2.097802 0.105127 -0.017358 -189695.000000 0 0 1
-33.265614 -6.062237 -19.828211 39.198338 0.180259 2.101155 0.120780 -0.019639 -12260.000000 0 0 1
-34.061704 -6.044337 -20.971511 40.454146 0.175624 2.115778 0.136686 -0.018852 -747377.000000 0 0 1
-33.814274 -7.325237 -21.759211 40.872087 0.213335 2.132198 0.140486 -0.019426 1096740.000000 0 0 1
-32.446114 -7.409337 -22.232311 40.024046 0.224509 2.159729 0.125649 -0.019418 1198150.000000 0 0 1
-32.295174 -8.268837 -23.309111 40.677593 0.250655 2.180984 0.116977 -0.007120 -730853.000000 0 0 1
-30.889244 -8.282437 -23.876411 39.910239 0.261971 2.212115 0.096610 -0.001662 -664439.000000 0 0 1
-30.455044 -7.073737 -24.555811 39.755947 0.228222 2.236565 0.100283 -0.002439 -42722.300000 0 0 1
-30.345794 -7.263337 -25.984941 40.605916 0.234933 2.265203 0.084998 -0.000191 -56919.800000 0 0 1
-31.625444 -7.314337 -26.866551 42.136442 0.227284 2.262186 0.094434 -0.000222 38273.600000 0 0 1
-32.416724 -8.446137 -26.569281 42.756378 0.254882 2.241339 0.090870 -0.012236 -88968.400000 0 0 1
-33.553714 -8.544837 -27.412201 44.162141 0.249361 2.240453 0.086146 -0.016385 324575.000000 0 0 1
-34.603740 -9.560937 -26.932611 44.879793 0.269572 2.214429 0.082413 -0.018674 -583123.000000 0 0 1
-34.136685 -10.926637 -26.956371 44.848083 0.309780 2.215623 0.081484 -0.012699 -323460.000000 0 0 1
-35.028711 -11.925737 -26.554061 45.545055 0.328147 2.193248 0.055055 -0.007617 -470368.000000 0 0 1
-36.222914 -12.213437 -27.482041 47.080039 0.325203 2.194112 0.035236 0.004365 157214.000000 0 0 1
36.474728 -11.109237 -27.477231 46.998076 -0.295647 2.195240 0.030478 -0.008055 105228.000000 0 0 1
35.693878 -10.860637 -28.620001 47.022450 -0.295371 2.225149 0.034007 -0.015361 304281.000000 0 0 1
34.716198 -9.673837 -28.305061 45.825473 -0.271761 2.236574 0.032115 -0.012223 598191.000000 0 0 1
33.587428 -9.967837 -27.479581 44.526402 -0.288494 2.235915 0.008193 -0.009345 380746.000000 0 0 1
32.759148 -8.813337 -27.260571 43.519828 -0.262812 2.247715 -0.008624 0.002559 -33397.300000 0 0 1
31.438118 -9.305237 -26.681111 42.270845 -0.287770 2.253888 -0.009297 0.010708 -426769.000000 0 0 1
31.604108 -9.555037 -25.258621 41.570618 -0.293598 2.223841 -0.023238 0.021130 123922.000000 0 0 1
30.384978 -9.896237 -24.627411 40.344662 -0.314860 2.227394 -0.024787 0.022930 -100683.000000 0 0 1
30.473698 -10.044537 -23.093911 39.533122 -0.318399 2.194649 -0.027505 0.012767 235900.000000 0 0 1
31.391598 -11.053237 -22.661611 40.263570 -0.338552 2.168604 -0.044721 0.008935 495949.000000 0 0 1
31.604018 -11.004537 -21.229411 39.630817 -0.335071 2.136108 -0.026644 0.001506 108851.000000 0 0 1
32.480788 -12.126537 -20.597911 40.327762 -0.357319 2.106868 0.006408 0.003061 513442.000000 0 0 1
33.849188 -12.093137 -20.975211 41.616955 -0.343132 2.099027 0.013795 0.001871 279291.000000 0 0 1
34.683688 -12.703137 -20.002111 42.004909 -0.351083 2.067108 0.045035 0.000423 -144017.000000 0 0 1
36.179748 -12.621937 -20.347911 43.385769 -0.335666 2.058954 0.063944 -0.009952 -311841.000000 0 0 1
36.774588 -11.321937 -20.459411 43.579170 -0.298665 2.059494 0.097472 -0.015069 189794.000000 0 0 1
36.440308 -10.517637 -21.581611 43.638087 -0.280990 2.088124 0.099788 -0.013470 -913667.000000 0 0 1
-36.641574 -10.886237 -22.956711 44.588403 0.288795 2.111639 0.065847 -0.012830 -140153.000000 0 0 1
36.610398 -12.119537 -23.620911 45.223355 -0.319686 2.120362 0.051475 -0.004645 -28959.500000 0 0 1
35.301598 -12.041637 -24.139911 44.429035 -0.328731 2.145203 0.057112 0.001464 -153984.000000 0 0 1
34.949428 -13.287037 -24.909311 44.927515 -0.363303 2.158478 0.026494 -0.012400 -471436.000000 0 0 1
35.147738 -14.550537 -24.245611 45.110212 -0.392502 2.138236 0.023055 -0.019115 273207.000000 0 0 1
34.176288 -14.926437 -23.292311 43.969864 -0.411779 2.129083 -0.006474 -0.010936 -277927.000000 0 0 1
-30.548004 8.495163 -18.684111 36.802776 -0.271239 2.103289 0.019219 0.009618 -177270.000000 0 0 1
-29.466754 7.685363 -19.049511 35.919886 -0.255131 2.129790 0.015799 0.000342 -298478.000000 0 0 1
-28.756304 8.167163 -20.138711 36.044351 -0.276726 2.163638 0.038143 -0.016164 -102944.000000 0 0 1
-27.661314 7.262063 -20.735911 35.325116 -0.256741 2.198147 0.052400 -0.021659 610693.000000 0 0 1
-26.435564 7.342563 -20.002011 33.953390 -0.270924 2.200743 0.058633 -0.021933 569965.000000 0 0 1
-25.473674 6.343563 -20.350911 33.216087 -0.244060 2.230246 0.103528 -0.026956 18719.300000 0 0 1
-24.160244 6.531063 -19.592711 31.784375 -0.264013 2.234992 0.076802 -0.030683 -43737.000000 0 0 1
-23.423544 7.655963 -20.162311 31.840147 -0.315903 2.256523 0.082273 -0.034892 793914.000000 0 0 1
-22.167244 7.814063 -19.472311 30.522404 -0.338905 2.262653 0.061271 -0.030617 811940.000000 0 0 1
-21.298044 8.932063 -20.084211 30.606600 -0.397104 2.286575 0.083815 -0.017129 -61858.300000 0 0 1
-20.777244 8.677663 -21.385711 31.053894 -0.395631 2.330442 0.103033 -0.038032 -34255.600000 0 0 1
-20.203344 9.869763 -21.917911 31.400352 -0.454423 2.343418 0.084897 -0.030817 -468351.000000 0 0 1
-19.084644 9.536163 -22.892211 31.292417 -0.463389 2.391400 0.108314 -0.023495 -651382.000000 0 0 1
-19.402844 8.825963 -24.065511 32.148356 -0.426905 2.416709 0.104853 -0.028349 526403.000000 0 0 1
-18.193044 8.331763 -24.663211 31.759709 -0.429457 2.459978 0.076363 -0.023735 564992.000000 0 0 1
-18.536344 7.389163 -25.833651 32.643120 -0.379326 2.483886 0.063161 -0.019143 -46823.600000 0 0 1
-18.889644 6.085763 -25.371021 32.210928 -0.311674 2.477786 0.090469 -0.020619 189288.000000 0 0 1
-19.591444 5.269163 -26.261911 33.185490 -0.262735 2.483839 0.091581 -0.025176 -688029.000000 0 0 1
-20.073444 3.974263 -25.628751 32.795896 -0.195458 2.467802 0.084716 -0.008122 26601.200000 0 0 1
-19.120744 2.930063 -25.378401 31.910051 -0.152057 2.490316 0.075861 -0.010461 344545.000000 0 0 1
-18.202444 3.255363 -24.350811 30.575944 -0.176971 2.492122 0.074978 -0.019915 -291465.000000 0 0 1
-17.354944 2.004763 -23.927411 29.626578 -0.115006 2.510924 0.079931 -0.020551 116373.000000 0 0 1
-17.979444 1.124363 -23.026111 29.235704 -0.062455 2.477705 0.083982 -0.019866 -220770.000000 0 0 1
-19.178244 0.530763 -23.440711 30.291148 -0.027668 2.455689 0.073591 -0.011579 -413779.000000 0 0 1
-19.870044 -0.265537 -22.323011 29.886552 0.013363 2.414222 0.090432 -0.006315 135315.000000 0 0 1
-19.141444 -1.465037 -22.051011 29.236763 0.076389 2.425265 0.097051 -0.005231 427524.000000 0 0 1
-19.695144 -2.184737 -20.954511 28.840307 0.110476 2.384113 0.089152 -0.008345 -323528.000000 0 0 1
-19.079944 -3.529437 -20.543311 28.258252 0.182914 2.384716 0.077965 -0.027333 -210268.000000 0 0 1
-18.933844 -4.436837 -21.624511 29.082562 0.230180 2.409169 0.081062 -0.034739 474497.000000 0 0 1
-19.127144 -5.729837 -21.093511 29.045049 0.291058 2.383625 0.085156 -0.030664 -385063.000000 0 0 1
-19.173644 -6.779837 -22.200111 30.107138 0.339880 2.399965 0.065611 -0.043066 21736.700000 0 0 1
-17.857444 -7.086337 -22.632611 29.687364 0.377769 2.437756 0.066866 -0.032817 345256.000000 0 0 1
-17.918644 -7.884037 -23.721811 30.756465 0.414499 2.451644 0.081892 -0.039454 134016.000000 0 0 1
-16.487744 -8.043337 -24.250611 30.407780 0.453870 2.493959 0.063990 -0.041190 -703481.000000 0 0 1
-16.500244 -8.681937 -25.515041 31.601446 0.484364 2.510530 0.066627 -0.059045 157895.000000 0 0 1
-15.347544 -8.716937 -26.361091 31.724426 0.516535 2.551591 0.074926 -0.050738 271532.000000 0 0 1
-14.185644 -9.632437 -25.896481 31.058720 0.596511 2.556736 0.074476 -0.048564 -238208.000000 0 0 1
-13.552844 -9.120937 -24.754811 29.659261 0.592368 2.558276 0.062574 -0.034623 258827.000000 0 0 1
-12.582144 -9.988937 -24.143111 28.999638 0.671009 2.554458 0.048362 -0.027614 436259.000000 0 0 1
-11.934144 -9.154937 -22.986011 27.469863 0.654369 2.562157 0.071005 -0.026753 289284.000000 0 0 1
-12.747444 -8.905137 -21.833011 26.804462 0.609774 2.522713 0.067865 -0.027442 371104.000000 0 0 1
-12.020644 -8.014337 -21.035411 25.518895 0.588036 2.539774 0.078948 -0.020914 -602491.000000 0 0 1
-12.522444 -7.849637 -19.572511 24.525733 0.559925 2.494832 0.058097 -0.021164 1198290.000000 0 1 0
-13.657644 -6.955937 -19.346711 24.682211 0.471066 2.471610 0.048073 -0.017798 2024980.000000 0 1 0
-14.974444 -7.401637 -19.761311 25.875232 0.459065 2.439845 0.050880 -0.030038 1310930.000000 0 0 1
-16.056844 -6.300637 -19.458011 26.002586 0.373934 2.416308 0.066183 -0.025189 -166940.000000 0 0 1
-16.266544 -5.946737 -18.099711 25.051221 0.350487 2.378220 0.051542 -0.016644 -58720.100000 0 0 1
-15.445344 -4.931237 -17.636511 23.956675 0.309041 2.398210 0.059402 -0.019778 -918387.000000 0 1 0
-15.320344 -4.723337 -16.107711 22.726223 0.299058 2.358552 0.075429 -0.012080 -119994.000000 0 1 0
-16.456344 -4.190937 -15.450011 22.958180 0.249369 2.309004 0.099365 -0.025428 156712.000000 0 1 0
-16.594344 -2.810037 -15.563511 22.923600 0.167746 2.317100 0.050204 -0.027325 3809.780000 0 1 0
-17.614344 -2.211537 -14.552411 22.954927 0.124900 2.257454 0.046585 -0.033070 22002.900000 0 1 0
-17.265344 -2.387337 -13.215111 21.873057 0.137402 2.219524 0.071640 -0.045431 763963.000000 0 1 0
-18.151244 -1.667737 -12.340411 22.012150 0.091623 2.165928 0.071027 -0.047116 189399.000000 0 1 0
-17.608044 -0.275337 -11.935111 21.273596 0.015636 2.166425 0.057137 -0.031279 -31340.500000 0 1 0
-17.516744 0.611663 -13.065111 21.861097 -0.034905 2.211353 0.086116 -0.026502 531143.000000 0 1 0
-16.773844 1.733763 -12.628511 21.067678 -0.102995 2.213580 0.080070 -0.016711 -823287.000000 0 1 0
-16.208044 2.561663 -13.827311 21.458269 -0.156752 2.271010 0.072632 -0.004268 517444.000000 0 1 0
-15.384944 1.832863 -14.743911 21.387819 -0.118575 2.331402 0.056741 -0.017972 896340.000000 0 1 0
-14.151544 1.303463 -14.239211 20.117662 -0.091848 2.357170 0.055539 -0.017060 -771796.000000 0 1 0
-13.675944 0.288163 -15.353711 20.563339 -0.021068 2.413815 0.060479 -0.014580 29898.000000 0 1 0
-13.002044 0.825263 -16.477611 21.005853 -0.063387 2.472572 0.057987 -0.023206 360292.000000 0 1 0
-12.712344 -0.151737 -17.510911 21.639286 0.011936 2.513617 0.031533 -0.011141 -92090.900000 0 1 0
-12.111444 0.449863 -18.784711 22.355197 -0.037127 2.568603 0.055900 -0.017076 -48329.700000 0 1 0
-10.892344 1.104663 -18.498711 21.495715 -0.101071 2.607197 0.031594 -0.008801 -230133.000000 0 1 0
-10.608744 2.063063 -19.480411 22.277524 -0.192071 2.635082 0.046692 -0.012974 378690.000000 0 1 0
-9.224544 2.780263 -19.373611 21.636979 -0.292739 2.680111 0.037449 -0.010946 454943.000000 0 1 0
-8.172244 1.852063 -19.646611 21.358957 -0.222864 2.738444 0.034133 -0.004350 1091320.000000 0 1 0
-6.815144 2.232063 -19.340111 20.626880 -0.316505 2.786508 0.028471 0.000495 1275660.000000 0 1 0
-6.201944 3.303063 -20.245211 21.429953 -0.489375 2.807522 0.026551 0.002520 -959733.000000 0 1 0
-6.065544 2.915463 -21.621911 22.645039 -0.448056 2.839846 0.022350 0.004744 268869.000000 0 1 0
-5.817344 3.882963 -22.525411 23.586289 -0.588566 2.840528 0.026262 0.001645 -410651.000000 0 1 0
-5.558644 3.206463 -23.901711 24.748166 -0.523218 2.879297 0.052491 -0.014883 980532.000000 0 1 0
-4.146944 2.916063 -23.956211 24.486744 -0.612859 2.933051 0.058831 -0.014422 809611.000000 0 1 0
-3.698444 2.301563 -25.113051 25.488056 -0.556660 2.969842 0.084372 -0.024515 71300.200000 0 0 1
-2.310844 1.665963 -24.868111 25.030749 -0.624637 3.027535 0.067978 -0.026218 -484256.000000 0 0 1
-1.277744 2.587663 -24.622511 24.791061 -1.112135 3.024918 0.060942 -0.026986 -224959.000000 0 1 0
0.007856 2.119063 -24.930911 25.020808 1.567089 3.056798 0.061686 -0.028207 -193166.000000 0 0 1
0.692556 1.245063 -23.895011 23.937447 1.063173 3.082039 0.056386 -0.024889 -1215300.000000 0 1 0
0.345756 -0.120237 -23.883711 23.886516 -0.334670 3.126267 0.056720 -0.027528 -104579.000000 0 1 0
0.853756 -0.865637 -22.773111 22.805544 -0.792308 3.088255 0.053653 -0.024200 -569803.000000 0 1 0
0.288056 -2.255337 -22.530611 22.645043 -1.443762 3.041019 0.061288 -0.034727 156638.000000 0 1 0
-0.985944 -2.398637 -21.925011 22.077855 1.180806 3.023856 0.054772 -0.030203 657696.000000 0 1 0
-2.121044 -2.437137 -22.818711 23.046302 0.854634 3.000939 0.072315 -0.030113 279121.000000 0 1 0
-2.990444 -1.213037 -22.705711 22.933895 0.385357 3.000411 0.072450 -0.028559 -929392.000000 0 1 0
-3.789644 -1.207937 -21.513811 21.878404 0.308566 2.958776 0.052428 -0.020256 890937.000000 0 1 0
-4.820044 -0.203637 -21.552011 22.085368 0.042223 2.921376 0.028021 -0.017425 1438250.000000 0 1 0
-6.110544 -0.416737 -22.450811 23.271256 0.068094 2.875266 0.057250 -0.004439 474704.000000 0 1 0
-6.874144 -1.547437 -22.078011 23.175137 0.221419 2.832662 0.070956 0.003792 -815590.000000 0 1 0
-8.156944 -1.165337 -21.721711 23.232014 0.141904 2.779028 0.051207 -0.001203 -901980.000000 0 1 0
-9.001544 -2.355437 -21.242911 23.191316 0.255932 2.728754 0.057521 -0.007119 -188896.000000 0 1 0
-9.351744 -3.099337 -22.333511 24.409972 0.320026 2.726140 0.106751 -0.014661 -257788.000000 0 1 0
-9.336744 -4.452737 -22.016011 24.325016 0.445001 2.702357 0.070972 -0.012977 -445559.000000 0 1 0
-10.087344 -5.311737 -22.984311 25.656337 0.484680 2.681144 0.063649 -0.020399 652044.000000 0 0 1
-11.496244 -5.060937 -22.809711 26.039578 0.414696 2.638225 0.060699 -0.022300 1072640.000000 0 0 1
-12.362844 -5.619337 -23.819411 27.418629 0.426618 2.623431 0.047561 -0.032753 550029.000000 0 0 1
-13.847644 -5.458737 -23.426911 27.755634 0.375496 2.575572 0.066828 -0.029854 -106027.000000 0 0 1
-14.338344 -4.106737 -23.407111 27.755112 0.278949 2.574273 0.061410 -0.032119 54846.700000 0 0 1
-15.750044 -4.250337 -23.485511 28.595427 0.263583 2.534488 0.071778 -0.030306 378112.000000 0 0 1
-16.453744 -2.926737 -23.884511 29.150666 0.176035 2.531067 0.073329 -0.027378 -40103.800000 0 0 1
-16.125644 -2.633637 -25.259661 30.083599 0.161891 2.567433 0.070689 -0.031776 52883.600000 0 0 1
-16.400044 -1.317037 -25.736101 30.545751 0.080135 2.572783 0.066709 -0.023624 -324199.000000 0 0 1
-17.804244 -1.076737 -26.339961 31.811067 0.060403 2.546350 0.085584 -0.015591 -66764.100000 0 0 1
-18.098444 -1.867837 -27.418591 32.906255 0.102840 2.555726 0.079432 -0.030106 -25282.300000 0 0 1
-17.859244 -1.183537 -28.666271 33.795095 0.066174 2.583445 0.064272 -0.019401 -168133.000000 0 0 1
-18.104644 -1.993637 -29.996591 35.093421 0.109676 2.595892 0.046463 -0.007634 -254766.000000 0 0 1
-19.455644 -2.257037 -30.245461 36.033376 0.115493 2.566926 0.055323 -0.007474 -166171.000000 0 0 1
-19.545244 -2.964437 -31.455941 37.152129 0.150523 2.580510 0.058568 -0.013588 52310.300000 0 0 1
-20.990444 -3.507437 -31.775291 38.243561 0.165567 2.551459 0.042844 -0.017489 190370.000000 0 0 1
-21.843344 -2.506637 -32.184481 38.977631 0.114255 2.542268 0.036811 -0.011733 -492850.000000 0 0 1
-22.610944 -2.065337 -31.093901 38.501313 0.091090 2.510878 0.026962 0.007831 -775637.000000 0 0 1
-23.568144 -0.935037 -31.548131 39.390561 0.039653 2.499603 0.024063 0.004390 -93906.100000 0 0 1
-22.937544 0.225663 -32.039861 39.404753 -0.009838 2.520248 0.018854 -0.004942 248752.000000 0 0 1
-23.874544 0.989463 -32.773671 40.559665 -0.041421 2.511607 0.012962 -0.013521 200379.000000 0 0 1
-23.254944 2.271363 -33.372021 40.738720 -0.097363 2.530762 0.023621 -0.015715 -76695.500000 0 0 1
-22.724944 3.282363 -32.423611 39.730184 -0.143447 2.525418 0.012087 -0.006960 921770.000000 0 0 1
-23.623344 3.973763 -31.511921 39.583511 -0.166653 2.491598 0.027670 -0.014254 -429113.000000 0 0 1
-24.833044 4.778463 -31.980321 40.770758 -0.190100 2.472514 0.022220 -0.019207 -392497.000000 0 0 1
-25.886064 4.035163 -32.579231 41.806424 -0.154637 2.464325 0.044867 -0.027271 -223341.000000 0 0 1
-26.696324 4.971463 -33.201821 42.892541 -0.184114 2.456041 0.060866 -0.033231 -665050.000000 0 0 1
-27.961684 4.256163 -33.737451 44.024837 -0.151055 2.443902 0.086256 -0.033114 -446467.000000 0 0 1
-27.812124 3.169863 33.421465 43.595373 -0.113484 0.697222 0.097846 -0.035442 -872285.000000 0 0 1
-29.032244 2.833263 32.906251 43.974082 -0.097282 0.725285 0.103210 -0.039162 -1112620.000000 0 0 1
-29.106314 1.320063 32.464333 43.621703 -0.045322 0.731424 0.106619 -0.018742 -616915.000000 0 0 1
-29.322284 0.553863 33.664106 44.647230 -0.018887 0.716663 0.111519 -0.012754 361915.000000 0 0 1
-29.565424 -0.825237 33.434817 44.639470 0.027905 0.724250 0.092696 -0.011453 -592624.000000 0 0 1
-29.603624 -1.631037 -33.333511 44.611184 0.055040 2.414636 0.065728 -0.005631 202252.000000 0 0 1
-28.348814 -1.894737 -32.720651 43.334585 0.066737 2.426557 0.077060 -0.012576 746344.000000 0 0 1
-27.624994 -0.785037 -32.160631 42.403570 0.028410 2.431715 0.076602 -0.008648 -300778.000000 0 0 1
-27.797974 -0.453037 -30.690951 41.410953 0.016296 2.405550 0.105908 -0.012403 -587025.000000 0 0 1
-27.002974 -1.217737 -29.848351 40.268692 0.045066 2.405697 0.073316 -0.012172 254298.000000 0 0 1
-27.215954 -0.754537 -28.506381 39.419427 0.027717 2.379157 0.079872 -0.013254 16385.600000 0 0 1
-26.202134 -1.333137 -27.475331 37.989773 0.050835 2.379264 0.082384 -0.013787 174482.000000 0 0 1
-26.370734 -2.746437 -27.324751 38.073620 0.103773 2.371264 0.065893 -0.001559 834634.000000 0 0 1
-25.366334 -3.183637 -26.385671 36.739489 0.124854 2.371984 0.079078 -0.011078 421822.000000 0 0 1
-25.638034 -4.545137 -25.769741 36.633954 0.175458 2.351020 0.066597 -0.018097 -111161.000000 0 0 1
-26.679394 -4.418937 -24.837811 36.718305 0.164141 2.313717 0.084882 -0.012992 -189367.000000 0 0 1
-26.852544 -5.626837 -24.098411 36.516487 0.206557 2.291525 0.059669 -0.007879 681898.000000 0 0 1
-28.052114 -5.495637 -23.090311 36.746232 0.193458 2.250255 0.079195 -0.010695 596020.000000 0 0 1
-27.945524 -6.552537 -22.166211 36.266085 0.230315 2.228385 0.067339 -0.012278 -575972.000000 0 0 1
-29.024654 -6.546837 -21.310111 36.597984 0.221849 2.192321 0.097534 -0.012235 -693519.000000 0 0 1
-29.228514 -7.798737 -20.481711 36.532544 0.260745 2.165958 0.100320 -0.019700 -322309.000000 0 0 1
-28.257374 -8.035037 -19.480711 35.249668 0.277040 2.156336 0.085464 -0.027852 -82774.300000 0 0 1
-28.598434 -8.965037 -18.449911 35.194339 0.303777 2.122606 0.100500 -0.029305 -523800.000000 0 0 1
-29.359014 -8.336237 -17.291211 35.077493 0.276660 2.086266 0.091546 -0.032938 222831.000000 0 0 1
-28.476984 -7.560737 -16.503811 33.770980 0.259516 2.081393 0.069393 -0.031243 472015.000000 0 0 1
-29.246964 -6.884237 -15.543911 33.828845 0.231175 2.048214 0.074239 -0.032943 68769.600000 0 0 1
-28.419674 -5.983337 -14.587011 32.500139 0.207505 2.036251 0.084883 -0.030255 -78979.600000 0 0 1
-27.900374 -4.873837 -15.220911 32.153713 0.172942 2.063920 0.078397 -0.025096 239197.000000 0 0 1
-27.231364 -4.056537 -14.233211 30.993337 0.147878 2.047930 0.088722 -0.029241 26262.500000 0 0 1
-14.321044 21.121563 -5.063111 26.016299 -0.974968 1.766659 0.063503 -0.009437 -114137.000000 0 0 1
-14.389044 20.571263 -6.347611 25.894277 -0.960424 1.818456 0.089128 -0.012480 -2319.370000 0 0 1
-15.143444 19.382063 -6.277311 25.384895 -0.907555 1.820674 0.093122 -0.028268 53154.200000 0 0 1
-15.404444 18.757863 -7.654411 25.450821 -0.883246 1.876278 0.104072 -0.034145 -636611.000000 0 0 1
-14.298144 18.084963 -8.142011 24.449849 -0.901808 1.910289 0.101773 -0.029873 -497128.000000 0 1 0
-14.627844 17.117463 -9.132711 24.297896 -0.863663 1.956126 0.093835 -0.031947 -80083.400000 0 1 0
-15.175844 15.753663 -8.665411 23.528142 -0.804078 1.947976 0.090838 -0.037426 352722.000000 0 1 0
-16.550344 15.748763 -8.308811 24.309951 -0.760586 1.919613 0.096910 -0.029523 188099.000000 0 1 0
-16.873144 14.942863 -7.209811 23.663759 -0.724802 1.880396 0.102345 -0.018752 -34498.300000 0 1 0
-18.299344 15.298163 -6.760511 24.791214 -0.696307 1.846992 0.124057 -0.021922 -284629.000000 0 1 0
-19.311144 14.761863 -7.533511 25.447724 -0.652667 1.871339 0.124593 -0.028493 99566.200000 0 0 1
-20.637344 15.177263 -7.193411 26.608164 -0.634109 1.844549 0.104497 -0.023086 476019.000000 0 0 1
-21.707444 14.614763 -8.110411 27.396773 -0.592554 1.871336 0.101872 -0.011166 -435372.000000 0 0 1
-21.939444 13.264863 -7.926211 26.835063 -0.543804 1.870637 0.130173 -0.023577 127883.000000 0 0 1
-22.761444 12.726063 -8.957311 27.572983 -0.509808 1.901658 0.125928 -0.024124 341143.000000 0 0 1
-23.310844 11.330163 -8.598011 27.307395 -0.452423 1.891106 0.127308 -0.023591 -314820.000000 0 0 1
-22.235344 10.446763 -8.418211 25.969437 -0.439219 1.900918 0.129110 -0.028866 -147288.000000 0 0 1
-22.621544 9.409963 -7.682711 25.676948 -0.394200 1.874657 0.131903 -0.037645 44852.700000 0 0 1
-21.457144 8.433563 -7.343611 24.196335 -0.374494 1.879161 0.119351 -0.023153 230998.000000 0 1 0
-21.004544 7.437263 -8.299111 23.777699 -0.340304 1.927331 0.104757 -0.025952 695648.000000 0 1 0
-20.020444 6.608663 -7.700211 22.445174 -0.318834 1.920977 0.091666 -0.016179 -176612.000000 0 1 0
-19.693244 5.272963 -8.334111 22.024654 -0.261618 1.958863 0.075352 -0.030399 -1504050.000000 0 1 0
-20.742844 4.428263 -8.375111 22.803893 -0.210327 1.946865 0.108906 -0.033400 -669257.000000 0 1 0
-20.437344 3.384463 -9.301511 22.708098 -0.164112 1.992825 0.105079 -0.032353 -1060480.000000 0 1 0
-21.415044 2.288463 -9.379011 23.490573 -0.106458 1.981514 0.104542 -0.027940 -879153.000000 0 1 0
-21.161044 1.238863 -8.409511 22.804483 -0.058478 1.948477 0.100827 -0.028973 504109.000000 0 1 0
-22.161144 0.220463 -8.366211 23.688782 -0.009948 1.931756 0.108439 -0.022667 1487.010000 0 1 0
-21.998444 -1.053537 -9.211411 23.872402 0.047855 1.966936 0.095674 -0.040132 686851.000000 0 1 0
-20.779144 -1.795137 -8.933811 22.689388 0.086177 1.975497 0.077806 -0.025700 1408500.000000 0 1 0
-20.731144 -3.062237 -9.465111 22.994476 0.146651 1.995033 0.069050 -0.021474 10317.600000 0 1 0
-21.618144 -4.092837 -8.708211 23.662806 0.187110 1.947667 0.067105 -0.024817 -27569.800000 0 1 0
-21.175144 -4.302637 -7.352911 22.824651 0.200464 1.898794 0.061333 -0.022373 613103.000000 0 1 0
-22.105644 -4.945837 -6.475511 23.559563 0.220111 1.849237 0.070105 -0.024034 -314487.000000 0 1 0
-22.475544 -6.453137 -6.585111 24.293142 0.279597 1.845299 0.080770 -0.031263 -175132.000000 0 1 0
-21.329444 -7.201237 -6.246711 23.362885 0.325603 1.841467 0.074044 -0.034353 729837.000000 0 1 0
-21.649544 -8.567437 -6.123011 24.074779 0.376822 1.827954 0.089736 -0.035489 261708.000000 0 1 0
-20.474744 -9.447637 -5.569611 23.227000 0.432317 1.812946 0.085304 -0.036251 760801.000000 0 1 0
-19.300944 -9.507437 -6.384311 22.442754 0.457701 1.859251 0.084229 -0.031426 523059.000000 0 1 0
-18.641444 -10.684737 -5.966811 22.299549 0.520459 1.841672 0.104482 -0.013736 -181070.000000 0 1 0
-17.861744 -11.558537 -7.019111 22.403339 0.574342 1.889469 0.097020 -0.005762 -16919.000000 0 1 0
-16.561744 -11.105037 -7.308111 21.237271 0.590668 1.922095 0.079794 -0.027011 296455.000000 0 1 0
-16.586744 -10.426037 -8.540011 21.371806 0.561167 1.981868 0.057679 -0.033937 -508506.000000 0 1 0
-15.544744 -10.886437 -9.528511 21.235491 0.610947 2.036114 0.049526 -0.022817 -351830.000000 0 1 0
-15.828744 -12.188737 -10.019511 22.349609 0.656203 2.035668 0.074912 -0.021870 254592.000000 0 1 0
-14.763144 -12.706537 -10.785911 22.265273 0.710669 2.076505 0.069613 -0.010088 119775.000000 0 1 0
-15.189944 -13.992437 -11.496311 23.636579 0.744386 2.078736 0.087768 -0.008994 82671.300000 0 1 0
-15.880844 -13.779637 -12.709911 24.568709 0.714674 2.114514 0.090432 -0.013682 -89093.400000 0 1 0
-16.283444 -14.969837 -13.343211 25.831915 0.743392 2.113601 0.082434 -0.012943 -409118.000000 0 0 1
-16.913344 -14.861837 -14.725111 26.902868 0.720924 2.149983 0.101073 -0.011044 -126876.000000 0 0 1
-17.255944 -16.138237 -15.247511 28.119333 0.751941 2.143901 0.094170 -0.005683 147233.000000 0 0 1
-17.708744 -16.140137 -16.532411 29.110552 0.739090 2.174771 0.091152 -0.005330 -479513.000000 0 0 1
-18.024344 -17.510637 -17.217211 30.461972 0.770943 2.171476 0.099190 -0.018259 -63420.300000 0 0 1
-19.312244 -18.018337 -16.946311 31.381534 0.750751 2.141244 0.058871 -0.013048 -749011.000000 0 0 1
-20.170144 -17.915137 -18.025911 32.445652 0.726258 2.159848 0.055961 -0.009618 -949068.000000 0 0 1
-21.631844 -17.972837 -17.605811 33.180177 0.693271 2.130119 0.048365 -0.012939 -711465.000000 0 0 1
-22.139744 -16.795537 -16.954511 32.553245 0.648992 2.118612 0.040020 0.000013 244817.000000 0 0 1
-21.802044 -16.685137 -15.609211 31.581171 0.653222 2.087776 0.043434 -0.011542 -538979.000000 0 0 1
-21.722444 -15.275637 -15.007611 30.503082 0.612883 2.085185 0.056740 -0.018999 815422.000000 0 0 1
-22.989744 -14.587337 -14.901211 31.038119 0.565412 2.071558 0.061119 -0.013425 1125960.000000 0 0 1
-22.808944 -13.323637 -14.297111 30.036222 0.528677 2.066892 0.063608 -0.012932 -717501.000000 0 0 1
-24.094544 -12.561537 -14.023811 30.577876 0.480576 2.047245 0.073216 -0.023531 -971552.000000 0 0 1
-24.782644 -13.182837 -12.977211 30.925307 0.488871 2.003835 0.087157 -0.023432 -628493.000000 0 0 1
-25.789484 -12.379937 -12.505611 31.220996 0.447551 1.982915 0.105814 -0.032769 -1048470.000000 0 0 1
-26.323374 -12.851437 -11.159811 31.346783 0.454174 1.934792 0.122867 -0.037111 -464534.000000 0 0 1
-27.315914 -11.913737 -10.794111 31.695569 0.411274 1.918304 0.106252 -0.039141 67714.800000 0 0 1
-27.899324 -12.458337 -9.620911 32.033488 0.419978 1.875845 0.099731 -0.037322 116104.000000 0 0 1
-28.922534 -11.413437 -8.984211 32.365036 0.375861 1.852081 0.130750 -0.046567 893378.000000 0 0 1
-28.223074 -10.297937 -8.358111 31.184089 0.349866 1.842139 0.132834 -0.045747 728185.000000 0 0 1
-29.112194 -9.244637 -7.981211 31.570284 0.307481 1.826377 0.150978 -0.045829 -97703.700000 0 0 1
-28.350134 -8.082537 -7.424811 30.400416 0.277729 1.817526 0.132653 -0.036747 -345309.000000 0 0 1
-27.730484 -8.496637 -6.246511 29.668021 0.297319 1.782931 0.125375 -0.043785 239554.000000 0 0 1
-26.750194 -7.662837 -5.637211 28.391373 0.278988 1.770678 0.107135 -0.036852 305414.000000 0 0 1
-27.306624 -6.269037 -5.116411 28.480347 0.225669 1.751424 0.117376 -0.034312 -852507.000000 0 0 1
-28.300744 -6.372037 -4.175211 29.308144 0.221461 1.713742 0.125928 -0.035485 -540561.000000 0 0 1
-27.910404 -6.734537 -2.856511 28.853150 0.236766 1.669960 0.136682 -0.034841 -846085.000000 0 0 1
-27.032354 -5.768737 -2.069611 27.718401 0.210248 1.645531 0.133211 -0.032520 -550419.000000 0 0 1
-27.612574 -4.564637 -1.761011 28.042669 0.163828 1.633635 0.147905 -0.032993 445880.000000 0 0 1
-26.828034 -3.774237 -0.822411 27.104697 0.139765 1.601143 0.123330 -0.040029 524729.000000 0 0 1
-27.800224 -2.827837 0.001789 27.943677 0.101371 1.570732 0.136972 -0.047236 379417.000000 0 0 1
-28.703744 -3.394137 0.916489 28.918247 0.117701 1.539099 0.146477 -0.039930 -15515.700000 0 0 1
-28.232614 -3.734337 2.257289 28.567833 0.131507 1.491699 0.131568 -0.033267 -741394.000000 0 0 1
-29.300284 -4.150637 3.226689 29.768203 0.140722 1.462189 0.133678 -0.036217 -947937.000000 0 0 1
-29.835924 -5.390737 3.012789 30.468332 0.178751 1.471752 0.126179 -0.032624 185505.000000 0 0 1
-31.043484 -5.477737 3.763889 31.746974 0.174656 1.451958 0.152667 -0.032805 358653.000000 0 0 1
-31.854784 -6.776637 3.516889 32.756962 0.209611 1.463226 0.134575 -0.028338 -225859.000000 0 0 1
-31.222484 -7.907637 3.993489 32.454925 0.248051 1.447436 0.118433 -0.021154 157757.000000 0 0 1
-32.048094 -9.039737 3.804589 33.515251 0.274925 1.457033 0.136266 -0.025864 -132457.000000 0 0 1
-31.381754 -10.335037 4.267289 33.314219 0.318146 1.442351 0.115115 -0.017541 -77980.300000 0 0 1
-31.051034 -10.321437 5.594789 33.196392 0.320912 1.401452 0.097565 -0.010713 12163.900000 0 0 1
-30.129904 -11.321937 5.886189 32.720706 0.359446 1.389920 0.092140 -0.011593 -539612.000000 0 0 1
-30.181234 -11.732237 7.370289 33.209538 0.370750 1.347000 0.074202 -0.017634 -18830.800000 0 0 1
-29.866094 -10.616937 8.252389 32.753699 0.341553 1.316099 0.071609 -0.003032 549242.000000 0 0 1
-30.028674 -10.903937 9.630989 33.367245 0.348313 1.277994 0.078079 -0.003887 -370711.000000 0 0 1
-30.129394 -9.660637 10.501489 33.337509 0.310282 1.250334 0.078281 -0.007876 637750.000000 0 0 1
-28.933644 -8.839237 10.592789 32.054563 0.296495 1.234004 0.073795 -0.003066 1214000.000000 0 0 1
-29.173814 -7.866937 11.593389 32.363664 0.263393 1.204433 0.072289 -0.007574 384476.000000 0 0 1
-28.210744 -6.626337 11.505089 31.178862 0.230705 1.192860 0.090828 -0.015871 419430.000000 0 0 1
-28.549544 -5.848537 10.365589 30.931008 0.202060 1.229064 0.086034 -0.019238 406168.000000 0 0 1
-27.840004 -4.622837 10.378389 30.069043 0.164549 1.218396 0.099508 -0.028572 -257368.000000 0 0 1
-27.994194 -3.814637 9.077589 29.675393 0.135431 1.259917 0.086744 -0.023852 411310.000000 0 0 1
-27.113104 -4.280637 8.010189 28.593834 0.156588 1.286860 0.100279 -0.023986 915451.000000 0 0 1
-27.370784 -3.584537 6.796089 28.428780 0.130221 1.329402 0.096467 -0.038533 77607.400000 0 0 1
-26.458574 -4.146137 5.644489 27.369816 0.155439 1.363075 0.101182 -0.028571 503732.000000 0 0 1
-25.057144 -3.884337 5.837789 26.019767 0.153795 1.344510 0.123353 -0.042224 838731.000000 0 0 1
-24.580044 -4.087837 4.540489 25.327949 0.164799 1.390554 0.144712 -0.037568 -1359850.000000 0 0 1
-23.070544 -3.945837 4.588389 23.851057 0.169395 1.377213 0.149750 -0.034797 -818065.000000 0 1 0
-22.557744 -2.621437 4.570789 23.164970 0.115691 1.372178 0.107946 -0.027126 -541410.000000 0 1 0
-21.210944 -2.620837 4.237989 21.788379 0.122938 1.375042 0.093802 -0.015217 -981373.000000 0 1 0
-20.545044 -1.231137 4.454889 21.058503 0.059852 1.357638 0.055192 -0.019905 -694084.000000 0 1 0
-20.954644 -0.170337 3.598389 21.262044 0.008129 1.400738 0.071892 -0.009080 885627.000000 0 1 0
-22.075944 0.544363 4.109489 22.461779 -0.024654 1.386805 0.061271 -0.034909 185469.000000 0 1 0
-22.571244 1.663263 3.159389 22.851897 -0.073557 1.432097 0.109506 -0.022938 64086.800000 0 1 0
-21.532244 2.571363 2.872489 21.874657 -0.118856 1.439100 0.056143 -0.009046 918543.000000 0 1 0
-22.062844 3.443663 1.870289 22.408165 -0.154835 1.487235 0.102212 -0.010474 1512190.000000 0 1 0
-20.846044 4.306163 1.262989 21.323595 -0.203705 1.511532 0.073998 -0.000031 1122180.000000 0 1 0
-21.102744 5.145163 0.090689 21.721112 -0.239149 1.566621 0.089156 0.000399 423558.000000 0 1 0
-21.886444 4.608363 -0.966411 22.387214 -0.207526 1.613978 0.100251 -0.012481 -232465.000000 0 1 0
-21.245844 3.538863 -1.918311 21.623814 -0.165052 1.659626 0.083776 -0.010578 -352783.000000 0 1 0
-21.385444 2.245563 -1.405011 21.548870 -0.104621 1.636044 0.074201 -0.003923 469513.000000 0 1 0
-20.698944 1.258763 -2.111111 20.844365 -0.060738 1.672250 0.055021 -0.006790 -40412.900000 0 1 0
-19.809644 0.348963 -1.193411 19.848627 -0.017614 1.630958 0.048304 -0.009148 289852.000000 0 1 0
-20.644944 -0.463837 -0.345611 20.653045 0.022464 1.587531 0.062315 -0.013496 989085.000000 0 1 0
-19.948744 -1.202637 0.637489 19.995127 0.060213 1.538909 0.057382 -0.017346 -550601.000000 0 1 0
-19.116844 -2.381037 0.131989 19.265006 0.123914 1.563945 0.044408 -0.017823 -53776.800000 0 1 0
-18.409244 -3.029337 1.200489 18.695409 0.163094 1.506539 0.048495 -0.014388 787811.000000 0 1 0
-17.487444 -4.058037 0.900489 17.974683 0.228019 1.520678 0.027131 -0.011629 -63125.000000 0 1 0
-18.115844 -5.386537 0.359189 18.903111 0.289013 1.551794 0.006551 -0.016151 -1802.860000 0 1 0
-18.826644 -6.056437 1.397989 19.826177 0.311240 1.500225 0.027144 -0.019598 297579.000000 0 1 0
-19.935944 -6.820737 1.032089 21.095723 0.329649 1.521853 0.050968 -0.028443 -204979.000000 0 1 0
-20.818744 -7.108437 2.277389 22.116430 0.329032 1.467641 0.084427 -0.026627 -38350.100000 0 1 0
-20.180344 -8.048837 3.147789 21.953101 0.379511 1.426913 0.086634 -0.021721 562270.000000 0 1 0
-20.933544 -8.259937 4.295289 22.910463 0.375824 1.382199 0.087098 -0.032191 -197082.000000 0 1 0
-20.153944 -9.054637 5.375989 22.739155 0.422250 1.332117 0.083649 -0.023331 -175705.000000 0 1 0
-19.901944 -10.410137 5.087689 23.029175 0.481934 1.348035 0.090680 -0.010535 875246.000000 0 1 0
-18.852044 -10.930237 5.943289 22.587437 0.525427 1.304538 0.106305 -0.016642 887634.000000 0 1 0
-18.226744 -12.276237 5.491089 22.651098 0.592738 1.325936 0.086455 -0.014369 338912.000000 0 1 0
-19.099744 -13.375037 5.747789 24.015181 0.610909 1.329110 0.098133 -0.017524 507135.000000 0 1 0
-18.541444 -14.526637 5.147489 24.110267 0.664579 1.355642 0.097228 -0.017298 440892.000000 0 1 0
-19.501144 -15.744637 5.315189 25.621074 0.679219 1.361825 0.113034 -0.022859 60985.700000 0 0 1
-18.739844 -16.874637 5.048789 25.718192 0.733074 1.373201 0.108146 -0.031083 337977.000000 0 0 1
-19.409244 -18.066137 5.403489 27.061074 0.749574 1.369768 0.109953 -0.022160 748656.000000 0 0 1
-18.356444 -19.240737 5.233689 27.102703 0.808914 1.376470 0.107063 -0.028085 393565.000000 0 0 1
-18.214144 -19.637037 3.828189 27.055929 0.822972 1.428828 0.101257 -0.035745 157948.000000 0 0 1
-17.376044 -20.749137 3.690489 27.314342 0.873643 1.435270 0.091117 -0.039236 331430.000000 0 0 1
-15.831744 -20.591537 3.783589 26.248258 0.915342 1.426146 0.074718 -0.032984 -49357.100000 0 0 1
-15.212544 -21.824037 3.677089 26.855746 0.962050 1.433445 0.064356 -0.028688 -232399.000000 0 0 1
-13.804744 -21.672937 3.779289 25.972489 1.003644 1.424767 0.060098 -0.022020 368591.000000 0 0 1
-13.060144 -23.055537 3.979289 26.794774 1.055400 1.421735 0.060290 -0.010462 -19179.100000 0 0 1
-13.214444 -23.909737 2.865589 27.468321 1.065898 1.466283 0.074691 -0.012446 27548.700000 0 0 1
-12.686644 -25.194087 3.025189 28.369785 1.104308 1.463959 0.079089 -0.017240 -275009.000000 0 0 1
19.197656 19.238963 -24.335511 36.481568 0.786473 2.301056 0.099936 -0.016095 327006.000000 0 0 1
18.108356 19.389663 -25.245541 36.622520 0.819555 2.331380 0.078037 -0.024505 420567.000000 0 0 1
18.604156 19.123163 -26.562361 37.647962 0.799154 2.353989 0.081448 -0.025067 931112.000000 0 0 1
17.566956 19.405663 -27.745391 38.144258 0.835089 2.385293 0.066769 -0.022971 733397.000000 0 0 1
17.337556 20.798663 -27.989721 38.943545 0.875907 2.372764 0.065446 -0.021694 164843.000000 0 0 1
16.359356 20.955363 -28.985451 39.330804 0.907950 2.399366 0.047317 -0.019359 -190058.000000 0 0 1
15.988456 22.449263 -29.340271 40.254834 0.951927 2.387457 0.053621 -0.021450 -531761.000000 0 0 1
15.316456 23.175563 -28.393211 39.722475 0.986805 2.367120 0.054374 -0.025376 17984.000000 0 0 1
15.081056 24.513363 -28.745231 40.677162 1.019262 2.355574 0.058221 -0.019472 -153949.000000 0 0 1
14.312856 25.274163 -27.629491 40.087778 1.055522 2.331215 0.056273 -0.027234 1930180.000000 0 0 1
12.947656 24.716263 -27.451941 39.142618 1.088250 2.348060 0.064582 -0.039155 1564730.000000 0 0 1
12.382956 25.368963 -26.376141 38.634476 1.116702 2.322261 0.059724 -0.040421 -577688.000000 0 0 1
10.945756 24.852763 -26.029151 37.616301 1.155934 2.335003 0.072196 -0.039969 802071.000000 0 0 1
10.166356 25.701363 -25.218091 37.414796 1.194126 2.310425 0.069627 -0.041967 -58085.900000 0 0 1
9.743456 26.922663 -25.819541 38.554032 1.223555 2.304598 0.084560 -0.050395 -523668.000000 0 0 1
9.236256 27.985063 -24.799611 38.516138 1.252011 2.270349 0.098247 -0.049946 237662.000000 0 0 1
10.303756 28.483963 -23.981611 38.634456 1.223702 2.240471 0.092147 -0.041865 394509.000000 0 0 1
9.770756 29.273163 -22.960611 38.465249 1.248645 2.210451 0.129208 -0.047047 484817.000000 0 0 1
10.850156 29.734063 -21.911311 38.496051 1.220904 2.176309 0.094448 -0.040858 703726.000000 0 0 1
11.886656 30.593663 -22.366411 39.718020 1.200214 2.168965 0.072241 -0.043944 153476.000000 0 0 1
12.667156 31.044263 -21.294811 39.719920 1.183382 2.136635 0.060948 -0.033859 456956.000000 0 0 1
13.962256 31.822763 -21.776011 41.010090 1.157337 2.130567 0.057353 -0.016550 569861.000000 0 0 1
14.951256 30.908763 -22.196211 40.884758 1.120256 2.144679 0.048886 -0.015726 -453150.000000 0 0 1
16.029256 31.668763 -22.712911 42.139339 1.102238 2.140040 0.046395 -0.008718 -382746.000000 0 0 1
17.148756 30.790763 -23.250011 42.222197 1.062637 2.153949 0.022412 0.003874 -675070.000000 0 0 1
17.992056 30.300463 -22.267011 41.685152 1.034957 2.134323 0.031416 0.006602 -422417.000000 0 0 1
19.211556 29.881963 -22.838311 42.232737 0.999418 2.142152 0.029983 0.002868 205854.000000 0 0 1
20.196556 29.162563 -21.871211 41.673803 0.965087 2.123299 0.034972 0.004562 55144.000000 0 0 1
20.797056 29.963663 -20.911011 42.042943 0.964057 2.091364 0.035003 0.015494 -182805.000000 0 0 1
21.643356 29.175863 -20.113311 41.523621 0.932548 2.076453 0.039055 0.002317 -52114.600000 0 0 1
22.268356 29.914263 -18.928811 41.821558 0.930885 2.040485 0.044619 0.001052 679385.000000 0 0 1
23.409056 30.724263 -19.302811 43.180583 0.919718 2.034233 0.037158 0.004321 782556.000000 0 0 1
23.910856 31.459063 -18.207211 43.507519 0.920886 2.002572 0.047518 -0.000928 -187384.000000 0 0 1
25.181656 32.299163 -18.385111 44.892806 0.908595 1.992739 0.042140 -0.000450 648293.000000 0 0 1
26.387456 31.544563 -18.567011 45.123067 0.874184 1.994868 0.039317 -0.000054 576090.000000 0 0 1
27.541256 32.376763 -18.345911 46.296307 0.865926 1.978249 0.044956 -0.010324 481216.000000 0 0 1
28.782256 31.695263 -18.934911 46.813874 0.833528 1.987198 0.050709 -0.017959 -189193.000000 0 0 1
29.169356 30.525963 -18.255311 45.999371 0.808120 1.978890 0.033757 -0.012796 276046.000000 0 0 1
30.367856 29.865863 -18.683111 46.510591 0.777064 1.984164 0.037631 -0.016468 462982.000000 0 0 1
30.797856 28.744163 -17.727811 45.705690 0.750920 1.969115 0.048168 -0.022751 -183623.000000 0 0 1
31.494256 29.144363 -16.591511 46.006090 0.746665 1.939747 0.058847 -0.018666 -169850.000000 0 0 1
31.734356 28.133163 -15.619811 45.194278 0.725318 1.923690 0.068627 -0.019113 -93785.500000 0 0 1
32.103156 28.776363 -14.290811 45.419368 0.730807 1.890875 0.078112 -0.023265 718127.000000 0 0 1
33.397256 29.385263 -14.197111 46.695057 0.721582 1.879726 0.064908 -0.017659 334724.000000 0 0 1
33.478656 30.768463 -14.530411 47.735224 0.743239 1.880101 0.068422 -0.020279 649638.000000 0 0 1
34.973156 31.201763 -14.718011 49.125264 0.728468 1.875071 0.064887 -0.025784 997107.000000 0 0 1
35.725156 31.159963 -13.500911 49.290006 0.717250 1.848250 0.060649 -0.023186 -1243770.000000 0 0 1
-36.582005 31.439663 -13.779511 50.165430 -0.709943 1.849055 0.061651 -0.025742 -721248.000000 0 0 1
-35.755805 31.631563 -12.476411 49.342620 -0.724272 1.826424 0.054102 -0.021729 -187182.000000 0 0 1
-36.147005 32.837463 -11.842611 50.250894 -0.737460 1.808704 0.071430 -0.024108 96725.000000 0 0 1
-35.454905 33.098863 -10.653611 49.659686 -0.751044 1.787009 0.065351 -0.019440 -388325.000000 0 0 1
-35.840505 -33.734338 -10.096311 50.244232 0.755135 1.773119 0.071714 -0.011885 -120852.000000 0 0 1
-34.984505 -32.985638 -9.262511 48.966948 0.755999 1.761101 0.070563 -0.014326 -346632.000000 0 0 1
-35.076105 -33.515338 -7.991211 49.167779 0.762648 1.734050 0.058998 -0.012145 77831.400000 0 0 1
-34.753205 -32.645938 -6.832511 48.168721 0.754143 1.713122 0.049481 -0.016666 122088.000000 0 0 1
-35.752505 -31.677538 -6.539011 48.212723 0.725039 1.706844 0.060197 -0.010660 55747.300000 0 0 1
-35.360905 -30.828038 -5.486411 47.232004 0.717021 1.687218 0.085554 -0.019144 423007.000000 0 0 1
-36.601005 -30.034238 -4.967211 47.606325 0.687167 1.675326 0.077459 -0.013416 715560.000000 0 0 1
36.169056 -30.888438 -4.210611 47.749613 -0.706813 1.659092 0.057582 -0.005169 530225.000000 0 0 1
34.813756 -30.517338 -3.996411 46.468020 -0.719729 1.656906 0.049739 0.000654 489941.000000 0 0 1
34.480356 -29.495538 -2.874011 45.465830 -0.707638 1.634051 0.047167 0.004556 -292618.000000 0 0 1
35.069556 -28.226838 -3.118711 45.125985 -0.677710 1.639963 0.080070 -0.011543 263156.000000 0 0 1
34.532456 -27.242538 -2.283311 44.043841 -0.667934 1.622661 0.065674 -0.003725 -61251.700000 0 0 1
34.959156 -25.803438 -2.714211 43.535353 -0.635843 1.633182 0.085997 -0.027066 -83810.700000 0 0 1
34.393956 -25.414338 -3.944011 42.946339 -0.636371 1.662762 0.088332 -0.030700 125844.000000 0 0 1
34.347056 -24.037338 -4.047811 42.117677 -0.610617 1.667052 0.090874 -0.033040 -216723.000000 0 0 1
34.096556 -23.553338 -5.467211 41.799824 -0.604514 1.701967 0.091742 -0.028903 131644.000000 0 0 1
35.237656 -23.753038 -6.286911 42.958404 -0.593118 1.717673 0.101628 -0.033427 322767.000000 0 0 1
34.819056 -23.606938 -7.645711 42.756416 -0.595800 1.750584 0.087206 -0.037696 -719636.000000 0 0 1
35.933856 -23.335138 -8.603811 43.701216 -0.575947 1.768969 0.084553 -0.036807 -381156.000000 0 0 1
36.738856 -24.485938 -8.890811 45.037221 -0.587878 1.769512 0.074878 -0.022582 -276807.000000 0 0 1
-35.746405 -24.258638 -9.655711 44.266463 0.596240 1.790691 0.088991 -0.022521 -131900.000000 0 0 1
-35.058805 -25.490438 -10.247411 44.540899 0.628668 1.802943 0.092848 -0.017616 -128747.000000 0 0 1
-34.303005 -26.297338 -9.398611 44.233246 0.654053 1.784907 0.078222 -0.019042 78855.100000 0 0 1
-35.149505 -27.270238 -8.805811 45.350809 0.659832 1.766209 0.083708 -0.017933 118086.000000 0 0 1
-34.376105 -28.436538 -8.154511 45.352501 0.691118 1.751582 0.080654 -0.016641 -413168.000000 0 0 1
-33.601405 -29.042738 -9.132811 45.342511 0.712755 1.773602 0.063484 -0.015795 -180266.000000 0 0 1
-32.997505 -30.210138 -8.617911 45.560467 0.741328 1.761096 0.060351 -0.025731 -77375.300000 0 0 1
-32.340305 -31.123038 -9.713911 45.922749 0.766220 1.783934 0.049034 -0.016536 20726.700000 0 0 1
-31.097905 -30.732238 -10.257911 44.908517 0.779484 1.801249 0.025160 0.006892 129796.000000 0 0 1
-30.683305 -31.573138 -11.312411 45.456560 0.799690 1.822301 0.013506 0.005502 -209857.000000 0 0 1
-31.083805 -31.142438 -12.737211 45.807106 0.786340 1.852572 0.014245 0.007799 -217489.000000 0 0 1
-30.364305 -30.008238 -13.140411 44.667167 0.779500 1.869399 0.007503 0.011908 75515.300000 0 0 1
-30.823105 -29.611138 -14.429411 45.111985 0.765347 1.896376 0.005982 0.028052 248252.000000 0 0 1
-29.939805 -28.449938 -14.971111 43.930912 0.759888 1.918551 0.011457 0.005006 354872.000000 0 0 1
-28.718705 -28.980138 -15.469011 43.633734 0.789929 1.933197 0.028639 0.000072 21500.500000 0 0 1
-27.952505 -27.935938 -16.083511 42.666597 0.785102 1.957306 0.050584 0.006886 64040.900000 0 0 1
-26.551405 -28.380338 -16.541711 42.238003 0.818681 1.973200 0.058579 0.001546 -355657.000000 0 0 1
-26.336405 -29.100438 -17.755211 43.077712 0.835216 1.995628 0.047894 0.004501 -209183.000000 0 0 1
-26.571205 -28.408838 -18.980611 43.282267 0.818809 2.024760 0.045071 0.002130 -330779.000000 0 0 1
-25.346205 -27.677638 -19.534911 42.309508 0.829339 2.050723 0.060623 0.001973 -185909.000000 0 0 1
-24.973205 -26.653038 -18.691511 41.029477 0.817925 2.043801 0.060902 0.000532 222727.000000 0 0 1
-23.614305 -26.274538 -18.915211 40.072085 0.838671 2.062388 0.071448 -0.005750 545487.000000 0 0 1
-23.192305 -25.161138 -17.972511 38.651999 0.826093 2.054411 0.066128 -0.007164 -260809.000000 0 0 1
-23.219905 -25.436738 -16.543711 38.208455 0.830927 2.018599 0.070669 -0.007935 115748.000000 0 0 1
-22.948605 -24.250838 -15.856411 36.961702 0.812981 2.014177 0.072340 -0.011851 -215609.000000 0 0 1
-23.312505 -24.292238 -14.387311 36.613938 0.805976 1.974630 0.069181 -0.011498 -992668.000000 0 0 1
-24.643905 -24.001238 -14.176811 37.207035 0.772188 1.961701 0.041867 0.007826 -1036090.000000 0 0 1
-24.949805 -23.964038 -12.816711 36.892221 0.765248 1.925604 0.034219 0.009000 5034.430000 0 0 1
-26.491805 -23.898338 -12.704611 37.872859 0.733976 1.912884 0.023962 0.021787 -289800.000000 0 0 1
-27.128505 -25.074538 -13.189211 39.225547 0.746073 1.913718 0.028337 0.016757 1182790.000000 0 0 1
-28.436605 -25.388238 -12.622611 40.156362 0.728824 1.890554 0.005140 0.018506 1818820.000000 0 0 1
-29.640505 -24.487238 -13.118911 40.623764 0.690479 1.899627 0.008308 0.021208 -351754.000000 0 0 1
-29.883705 -23.228938 -12.467111 39.850323 0.660752 1.888987 0.016744 0.022407 31802.700000 0 0 1
-30.406505 -23.246738 -11.140111 39.863121 0.652737 1.854027 0.027826 0.013756 136881.000000 0 0 1
-31.891905 -23.703338 -10.953211 41.217893 0.639161 1.839767 0.016806 0.007155 237861.000000 0 0 1
-32.975005 -22.939438 -11.429711 41.763705 0.607808 1.848009 0.044066 -0.000516 254978.000000 0 0 1
-33.057005 -22.751938 -12.824911 42.129498 0.602806 1.880122 0.040303 0.011087 -414684.000000 0 0 1
-34.460105 -22.140738 -13.160111 43.022083 0.571087 1.881672 0.025117 -0.002318 692812.000000 0 0 1
-35.459505 -23.102338 -12.888211 44.240259 0.577438 1.866406 0.048582 0.003073 791834.000000 0 0 1
-36.807205 -22.646138 -13.159511 45.175111 0.551567 1.866382 0.073305 -0.015157 1631440.000000 0 0 1
35.736456 -23.725038 -12.783611 44.759272 -0.586077 1.860437 0.073433 -0.005899 250548.000000 0 0 1
35.839156 -24.888138 -13.577111 45.696854 -0.606985 1.872464 0.059953 0.005433 768367.000000 0 0 1
34.970356 -25.940738 -13.023311 45.447270 -0.638227 1.861429 0.061561 -0.008857 748381.000000 0 0 1
34.898656 -27.214438 -13.851111 46.372353 -0.662310 1.874119 0.050015 -0.012292 128352.000000 0 0 1
34.186956 -27.149838 -15.055011 46.179163 -0.671168 1.902879 0.051045 -0.014836 -251568.000000 0 0 1
33.905556 -28.458938 -15.578511 46.927475 -0.698284 1.909188 0.032927 0.004696 388324.000000 0 0 1
33.040356 -28.373538 -16.898911 46.715051 -0.709554 1.940935 0.031191 -0.006727 948324.000000 0 0 1
31.624756 -28.332738 -16.695911 45.624804 -0.730547 1.945438 0.073032 -0.015366 566487.000000 0 0 1
30.991456 -28.093138 -17.948511 45.517511 -0.736384 1.976125 0.069346 -0.020741 -451620.000000 0 0 1
29.477456 -28.144238 -17.973511 44.542852 -0.762265 1.986147 0.077155 -0.031430 -281365.000000 0 0 1
28.733556 -27.256738 -17.137811 43.153813 -0.759028 1.979187 0.081828 -0.029319 119535.000000 0 0 1
27.358556 -27.195138 -17.461911 42.343648 -0.782403 1.995867 0.088059 -0.027635 252489.000000 0 0 1
26.564256 -26.453838 -16.342411 40.896695 -0.783316 1.981879 0.078936 -0.030421 -111316.000000 0 0 1
26.617056 -25.066438 -16.553311 40.134849 -0.755405 1.995930 0.080058 -0.033627 -102704.000000 0 0 1
26.075856 -24.512238 -15.391011 38.957455 -0.754499 1.976943 0.064196 -0.026194 -306090.000000 0 0 1
25.948056 -22.945838 -15.495911 37.946494 -0.724072 1.991455 0.048412 -0.027615 -288486.000000 0 0 1
24.913756 -22.460538 -16.305911 37.296833 -0.733661 2.023271 0.053447 -0.028072 -153153.000000 0 0 1
24.973256 -21.047738 -16.421611 36.555986 -0.700306 2.036686 0.050394 -0.030732 594160.000000 0 0 1
23.530456 -20.456338 -16.294511 35.180325 -0.715624 2.052366 0.049229 -0.027958 522023.000000 0 0 1
22.973456 -20.491338 -15.007011 34.247409 -0.728354 2.024385 0.054313 -0.031680 312654.000000 0 0 1
21.606156 -20.096138 -15.065011 33.130580 -0.749204 2.042850 0.041435 -0.033607 429102.000000 0 0 1
21.175956 -18.817838 -14.346711 31.754689 -0.726504 2.039576 0.022511 -0.024238 -245212.000000 0 0 1
20.889456 -19.107538 -13.022011 31.161518 -0.740876 2.001915 0.021306 -0.027634 -82567.100000 0 0 1
20.595756 -17.860838 -12.395711 29.947427 -0.714401 1.997548 0.016929 -0.029617 -702331.000000 0 0 1
19.820356 -18.019238 -11.091611 28.992470 -0.737835 1.963371 0.027951 -0.024602 -384093.000000 0 0 1
20.461856 -18.571438 -9.955511 29.371723 -0.737005 1.916596 0.028120 -0.033794 526176.000000 0 0 1
19.456856 -18.769638 -8.948711 28.477149 -0.767423 1.890454 0.031034 -0.031225 777606.000000 0 0 1
20.096756 -19.408538 -7.674511 28.973593 -0.767979 1.838875 0.031693 -0.028054 -194517.000000 0 0 1
20.902356 -18.594638 -6.882211 28.810309 -0.727037 1.812009 0.028386 -0.027101 -63953.800000 0 0 1
21.370356 -19.300338 -5.730711 29.360454 -0.734545 1.767242 0.031986 -0.016323 100970.000000 0 0 1
22.795956 -18.846738 -5.315011 30.051697 -0.690845 1.748594 0.035232 -0.013925 572408.000000 0 0 1
23.740356 -18.987938 -6.396411 31.065421 -0.674629 1.778181 0.029712 -0.027803 521979.000000 0 0 1
24.741756 -17.999538 -6.385411 31.255581 -0.628943 1.776541 0.039149 -0.023655 -126764.000000 0 0 1
25.789756 -18.051938 -7.510011 32.363317 -0.610703 1.804984 0.057082 -0.040834 377427.000000 0 0 1
26.825056 -19.030038 -7.397011 33.711152 -0.617015 1.792020 0.070644 -0.048807 490640.000000 0 0 1
26.626356 -20.134538 -8.302811 34.399116 -0.647450 1.814571 0.069693 -0.052068 -534034.000000 0 0 1
27.669256 -21.267038 -8.274811 35.865682 -0.655309 1.803610 0.078137 -0.057858 124731.000000 0 0 1
28.955256 -20.806038 -8.681011 36.696840 -0.623073 1.809620 0.083612 -0.043240 -141327.000000 0 0 1
29.838056 -21.815738 -8.279911 37.878661 -0.631320 1.791166 0.076950 -0.043341 -511957.000000 0 0 1
-29.547924 29.416363 4.484689 41.934647 -0.783167 1.463647 0.032364 -0.011522 -32143.300000 0 0 1
-29.358464 30.499563 3.618089 42.488037 -0.804459 1.485538 0.028677 -0.007460 -73057.300000 0 0 1
-28.700344 31.589263 4.276289 42.893798 -0.833279 1.470936 0.024341 0.005800 268935.000000 0 0 1
-28.427134 32.704663 3.270489 43.455644 -0.855257 1.495465 0.026517 0.002055 -428647.000000 0 0 1
-27.478414 32.283363 2.290689 42.456165 -0.865627 1.516816 0.031511 0.001878 273851.000000 0 0 1
-27.076484 33.306663 1.384889 42.946335 -0.888212 1.538544 0.039901 -0.018050 -3821.210000 0 0 1
-25.925074 -34.002538 1.982689 42.804358 0.919378 1.524460 0.050039 -0.017879 148238.000000 0 0 1
-24.635044 33.553163 1.851089 41.666853 -0.937478 1.526356 0.029084 -0.019497 148443.000000 0 0 1
-23.650744 34.047263 2.723289 41.545037 -0.963674 1.505199 0.040719 -0.020844 677385.000000 0 0 1
-22.213044 33.726063 2.195089 40.443603 -0.988377 1.516494 0.051505 -0.027111 464342.000000 0 0 1
-21.803644 -33.810138 0.978889 40.242795 0.998025 1.546469 0.086489 -0.038205 -574527.000000 0 0 1
-20.483544 33.927363 0.795789 39.639308 -1.027626 1.550719 0.085259 -0.036898 -678723.000000 0 0 1
-19.885344 -33.580638 -0.534911 39.030402 1.036156 1.584502 0.091010 -0.040677 -8478.760000 0 0 1
-19.655944 -32.171838 -0.547511 37.705213 1.022352 1.585318 0.087192 -0.042482 733927.000000 0 0 1
-18.716944 -31.668638 0.439389 36.788853 1.037003 1.558853 0.100754 -0.035814 276538.000000 0 0 1
-18.406444 -30.163938 0.350189 35.338123 1.022901 1.560887 0.107382 -0.037890 -409666.000000 0 0 1
-17.509344 -29.805138 -0.660011 34.573964 1.039648 1.589887 0.112151 -0.029896 -104106.000000 0 0 1
-17.252544 -28.375938 -0.742311 33.217392 1.024516 1.593145 0.089026 -0.026291 -449419.000000 0 0 1
-16.170444 -28.038738 -1.745011 32.414490 1.047672 1.624657 0.084576 -0.021838 -503505.000000 0 0 1
-16.633744 -28.189738 -3.104311 32.878253 1.037715 1.665356 0.065870 -0.022240 428809.000000 0 0 1
-15.688144 -27.597038 -3.990311 31.994327 1.053882 1.695841 0.057147 -0.010100 370094.000000 0 0 1
-16.321444 -27.450138 -5.391511 32.387775 1.034368 1.738042 0.072621 -0.020385 -831020.000000 0 0 1
-17.358544 -26.583038 -5.423811 32.208612 0.992320 1.739999 0.078360 -0.019562 -1411780.000000 0 0 1
-17.895744 -26.496738 -6.718611 32.672228 0.976776 1.777911 0.090616 -0.025798 36687.600000 0 0 1
-18.509944 -25.133938 -7.022811 31.994573 0.936022 1.792098 0.088450 -0.020023 -115374.000000 0 0 1
-17.552144 -24.126238 -6.872911 30.616826 0.941843 1.797207 0.070001 -0.010002 -106078.000000 0 0 1
-18.101044 -22.824038 -7.088611 29.980542 0.900296 1.809497 0.051831 -0.007385 82004.700000 0 0 1
-17.054144 -21.721938 -6.800011 28.441634 0.905200 1.812221 0.068387 -0.000562 -62891.000000 0 0 1
-15.961244 -21.868438 -7.654211 28.134975 0.940300 1.846322 0.083613 -0.004578 -453669.000000 0 0 1
-14.890744 -20.993138 -7.253611 26.740624 0.953846 1.845496 0.111519 -0.028505 295429.000000 0 0 1
-13.893444 -20.827038 -8.396411 26.406306 0.982503 1.894384 0.111816 -0.025841 -396011.000000 0 0 1
-14.327744 -20.015338 -9.438111 26.362396 0.949520 1.936937 0.109613 -0.022786 -154157.000000 0 0 1
-13.335844 -19.894838 -10.433111 26.124684 0.980271 1.981613 0.103073 -0.016995 561886.000000 0 0 1
-13.936244 -19.019738 -11.627511 26.290081 0.938443 2.028933 0.112336 -0.019197 433534.000000 0 0 1
-15.032144 -19.593938 -12.326711 27.601369 0.916388 2.033756 0.094943 -0.004952 73410.300000 0 0 1
-15.434644 -18.837738 -13.476711 27.833619 0.884369 2.076232 0.099585 -0.017386 165124.000000 0 0 1
-16.666544 -19.235538 -14.308211 29.197680 0.856832 2.082939 0.109894 -0.019376 -202279.000000 0 0 1
-17.852844 -19.265238 -13.575311 29.566239 0.823431 2.047833 0.106902 -0.021483 -528593.000000 0 0 1
-18.969044 -19.547638 -14.371811 30.797463 0.800419 2.056302 0.081539 -0.011089 -272955.000000 0 0 1
-20.333344 -19.476638 -13.664511 31.297015 0.763882 2.022621 0.057375 -0.010367 -181176.000000 0 0 1
-21.316344 -20.134838 -14.404911 32.669553 0.756902 2.027428 0.061288 -0.020290 -495185.000000 0 0 1
-22.642344 -19.925438 -13.983911 33.245279 0.721659 2.004934 0.047233 -0.016236 196808.000000 0 0 1
-23.671744 -20.665138 -14.884511 34.769930 0.717689 2.013170 0.048256 -0.020218 -81853.400000 0 0 1
-23.863144 -20.024038 -16.119811 35.075063 0.698144 2.048319 0.040437 -0.028902 371217.000000 0 0 1
-24.685744 -20.732938 -17.044011 36.465586 0.698587 2.057144 0.049325 -0.029894 104267.000000 0 0 1
-24.970144 -19.982538 -18.376511 36.885038 0.674898 2.092330 0.051095 -0.022742 -707472.000000 0 0 1
-23.872544 -19.886838 -19.200311 36.524466 0.694566 2.124315 0.040943 -0.019988 -451325.000000 0 0 1
-24.266344 -19.295438 -20.408411 37.117012 0.671778 2.152969 0.040343 -0.023093 -905533.000000 0 0 1
-23.123244 -18.597838 -21.086211 36.403190 0.677352 2.188593 0.026245 -0.014428 -983762.000000 0 0 1
-22.310444 -19.469838 -21.819211 36.781904 0.717513 2.205831 0.031170 -0.014545 -597994.000000 0 0 1
-21.149744 -18.746638 -22.123711 35.891596 0.725237 2.234964 0.035926 -0.018294 218229.000000 0 0 1
-19.812944 -19.550438 -22.240611 35.628881 0.778729 2.244942 0.058014 -0.016887 351015.000000 0 0 1
-19.621644 -20.567638 -23.236211 36.714549 0.808932 2.256074 0.052575 -0.012918 -425267.000000 0 0 1
-18.394844 -21.233338 -23.091111 36.365153 0.856904 2.258778 0.072804 -0.008760 -321002.000000 0 0 1
-18.265944 -22.617738 -23.724211 37.523925 0.891442 2.255240 0.066267 -0.011737 -243301.000000 0 0 1
-18.462244 -22.537838 -25.103281 38.457552 0.884477 2.282009 0.072517 -0.019342 91928.200000 0 0 1
-18.468744 -23.891338 -25.574151 39.571805 0.912718 2.273485 0.067216 -0.022118 -166407.000000 0 0 1
-18.275544 -23.949938 -27.100371 40.521909 0.918981 2.303367 0.064940 -0.022347 366006.000000 0 0 1
-16.992044 -23.700338 -27.674941 40.203706 0.948782 2.330033 0.075446 -0.026877 293433.000000 0 0 1
-16.987844 -23.795638 -29.100231 41.250972 0.950798 2.353845 0.083429 -0.034004 -219338.000000 0 0 1
-15.615944 -23.444938 -29.739251 40.962738 0.983208 2.383295 0.063950 -0.036612 -17473.600000 0 0 1
-14.588244 -24.353338 -29.451771 40.906097 1.031094 2.374577 0.067303 -0.038772 -980531.000000 0 0 1
-13.521944 -24.128638 -30.294811 41.022064 1.059996 2.401640 0.077686 -0.042379 -499720.000000 0 0 1
-12.447044 -25.225638 -30.099511 41.197600 1.112420 2.390016 0.085187 -0.037822 -399080.000000 0 0 1
-12.912344 -26.462938 -30.656281 42.506744 1.116843 2.376344 0.079679 -0.032035 475767.000000 0 0 1
-12.179944 -27.627638 -30.240171 42.732954 1.155568 2.356970 0.080287 -0.029253 246015.000000 0 0 1
-10.811244 -27.856238 -30.924351 43.001959 1.200583 2.373358 0.074576 -0.033971 -216094.000000 0 0 1
-9.836244 -26.994338 -30.441881 41.858740 1.221367 2.385107 0.093090 -0.046959 -121726.000000 0 0 1
-8.577444 -27.034138 -31.117091 42.103332 1.263561 2.402477 0.076144 -0.036478 22978.300000 0 0 1
-7.651544 -25.920538 -30.675021 40.882482 1.283756 2.419345 0.090870 -0.037467 -686097.000000 0 0 1
-8.025444 -24.569138 -30.797561 40.206219 1.255075 2.443376 0.104621 -0.041727 242304.000000 0 0 1
-8.885444 -24.091538 -29.741281 39.292456 1.217455 2.429385 0.101653 -0.036547 259125.000000 0 0 1
-9.187344 -22.590438 -29.829861 38.529934 1.184535 2.456246 0.108952 -0.042146 -81275.600000 0 0 1
-9.832544 -22.066938 -30.977831 39.284281 1.151626 2.479253 0.100196 -0.041651 4807.440000 0 0 1
-10.160744 -20.743238 -30.765331 38.471135 1.115315 2.497590 0.113207 -0.045642 238027.000000 0 0 1
-10.932544 -20.157638 -31.999751 39.367943 1.073844 2.519804 0.093190 -0.045584 51359.000000 0 0 1
-11.505444 -18.879638 -31.790501 38.722757 1.023486 2.533917 0.094511 -0.044166 -652361.000000 0 0 1
-12.455044 -18.734638 -32.772811 39.751376 0.984078 2.540017 0.092224 -0.041252 -1003790.000000 0 0 1
-13.412044 -17.582038 -32.454801 39.272447 0.919137 2.543483 0.092066 -0.038179 -244353.000000 0 0 1
-12.947744 -16.212438 -32.542781 38.594298 0.896891 2.574008 0.099194 -0.039256 -471181.000000 0 0 1
-12.070044 -15.727938 -31.581151 37.288378 0.916235 2.581006 0.086359 -0.032829 -301415.000000 0 0 1
-11.802444 -14.207238 -31.789901 36.766032 0.877594 2.615258 0.068213 -0.031102 -319570.000000 0 0 1
-11.027244 -13.676338 -32.848421 37.251323 0.892225 2.650473 0.077795 -0.032842 -82541.300000 0 0 1
-11.575944 -13.827838 33.964298 38.454975 0.873811 0.488106 0.084919 -0.033708 -271328.000000 0 0 1
-12.153044 -12.526338 33.374291 37.662301 0.800523 0.481836 0.071033 -0.025780 -106684.000000 0 0 1
-13.203944 -11.963738 -33.990871 38.377786 0.736160 2.658777 0.059497 -0.016962 -714341.000000 0 0 1
-14.056644 -11.209738 33.318330 37.859722 0.673196 0.494835 0.037579 -0.026090 -141999.000000 0 0 1
-15.194944 -10.606438 -33.993541 38.716194 0.609399 2.642503 0.043089 -0.018925 -99411.800000 0 0 1
-14.594944 -9.664238 -33.144311 37.482733 0.584879 2.655694 0.053204 -0.019813 -194339.000000 0 0 1
-15.507544 -9.134338 -32.229681 36.914393 0.532311 2.632306 0.047063 -0.025810 -130871.000000 0 0 1
-14.908644 -8.084338 -31.295091 35.595040 0.496880 2.644973 0.054529 -0.030824 -279742.000000 0 0 1
-14.611444 -6.841438 -31.912601 35.759106 0.437906 2.673505 0.048820 -0.035561 554056.000000 0 0 1
-15.737144 -5.950238 -32.000561 36.153823 0.361487 2.657553 0.051493 -0.029891 604130.000000 0 0 1
-16.168044 -5.172138 -30.695441 35.076584 0.309611 2.636434 0.063519 -0.035373 -28950.800000 0 0 1
-16.532844 -6.039638 -29.614541 34.450445 0.350250 2.605336 0.062574 -0.042504 -84255.000000 0 0 1
-16.565044 -5.587538 -28.277541 33.245159 0.325324 2.587876 0.072535 -0.044402 733514.000000 0 0 1
-15.253944 -4.982038 -27.617281 31.940847 0.315684 2.615226 0.068037 -0.046881 820890.000000 0 0 1
-15.130944 -3.609138 -28.004541 32.034757 0.234152 2.634566 0.077073 -0.035804 -495608.000000 0 0 1
-13.905544 -3.064338 -27.609981 31.065501 0.216901 2.665444 0.072412 -0.036560 -397304.000000 0 0 1
-13.657344 -1.654338 -28.246571 31.418604 0.120544 2.688368 0.058116 -0.028315 -70635.900000 0 0 1
-13.294544 -1.849338 -29.576701 32.479935 0.138218 2.715565 0.056823 -0.025292 29027.400000 0 0 1
-13.682544 -0.699338 -30.270011 33.226114 0.051067 2.716573 0.059170 -0.032094 -19.402400 0 0 1
-13.751244 -0.820338 -31.797561 34.653348 0.059585 2.732771 0.046525 -0.027575 -117121.000000 0 0 1
-14.985744 -1.285338 -32.313781 35.642742 0.085561 2.705957 0.037058 -0.025070 202575.000000 0 0 1
-14.997144 -1.423338 -33.694001 36.908345 0.094624 2.721154 0.024462 -0.010214 -147295.000000 0 0 1
-16.364844 -1.843338 33.834606 37.629597 0.112167 0.452976 0.031957 -0.014327 -131874.000000 0 0 1
-16.340244 -1.995338 32.443583 36.380915 0.121510 0.469544 0.035231 -0.022278 1169230.000000 0 0 1
-17.631644 -2.109338 31.787400 36.411028 0.119068 0.509444 0.033040 -0.017637 752492.000000 0 0 1
-17.496944 -1.989338 30.190250 34.950704 0.113210 0.528042 0.041201 -0.017261 -183382.000000 0 0 1
-17.212544 -0.713338 29.709420 34.342832 0.041419 0.525479 0.037562 -0.006248 19243.100000 0 0 1
-17.108944 -0.655338 28.301880 33.077815 0.038285 0.544058 0.039852 -0.011041 -49552.500000 0 0 1
-16.390644 0.660662 27.817980 32.294422 -0.040285 0.532803 0.034234 -0.010603 399684.000000 0 0 1
-17.048144 1.912662 28.197720 33.006195 -0.111725 0.546563 0.028197 -0.009074 1157250.000000 0 0 1
-18.352144 2.085662 27.597920 33.208378 -0.113161 0.589798 0.034223 -0.018672 579933.000000 0 0 1
-18.405844 2.995662 26.328080 32.263243 -0.161341 0.616271 0.041393 -0.023001 -412638.000000 0 0 1
-18.204644 4.408662 26.512910 32.461974 -0.237598 0.615062 0.033831 -0.020679 73181.200000 0 0 1
-18.673844 5.062662 25.371300 31.906831 -0.264746 0.651511 0.035313 -0.014582 -631865.000000 0 0 1
-18.608944 6.637662 25.396290 32.176434 -0.342624 0.661157 0.045526 -0.011761 259154.000000 0 0 1
-17.346544 7.292662 25.351530 31.571911 -0.397977 0.638522 0.041027 -0.012743 -148356.000000 0 0 1
-16.664744 7.099662 24.168620 30.203329 -0.402742 0.643172 0.041783 -0.011709 -728509.000000 0 0 1
-15.385644 7.933662 24.030350 29.616190 -0.476092 0.624266 0.048088 -0.015027 -890351.000000 0 0 1
-14.259144 7.431662 24.642850 29.424868 -0.480452 0.578134 0.036196 -0.012408 -485951.000000 0 0 1
-13.138744 8.027662 23.978760 28.496506 -0.548462 0.570811 0.051444 -0.011083 -87012.400000 0 0 1
-11.768744 7.777662 24.611950 28.368000 -0.583982 0.520450 0.045054 -0.002665 -497457.000000 0 0 1
-10.746444 8.347662 23.812270 27.426150 -0.660423 0.519168 0.034466 -0.010143 518052.000000 0 0 1
-9.503244 8.449662 24.532130 27.632116 -0.726780 0.478227 0.028349 -0.008921 639354.000000 0 0 1
-9.403744 9.911662 25.102880 28.580168 -0.811688 0.498434 0.027212 -0.011917 -627763.000000 0 0 1
-10.215644 10.047662 26.264580 29.918941 -0.777108 0.499425 0.032383 -0.017652 265996.000000 0 0 1
-10.284144 11.315662 26.931200 30.969297 -0.833118 0.516385 0.040061 -0.018633 -342674.000000 0 0 1
-10.867544 12.512662 26.154480 30.963318 -0.855646 0.564806 0.030743 -0.024696 206727.000000 0 0 1
-12.252244 12.458662 25.828950 31.184457 -0.793751 0.594795 0.038127 -0.026758 342784.000000 0 0 1
-12.527444 11.907662 24.575680 30.044855 -0.760039 0.612929 0.037228 -0.024413 -48301.600000 0 0 1
-14.037844 11.679662 24.303170 30.399336 -0.693958 0.644394 0.041065 -0.025383 153911.000000 0 0 1
-14.745744 12.856662 24.004840 30.967129 -0.717066 0.683810 0.031233 -0.032382 1222980.000000 0 0 1
-16.118444 12.740662 23.522470 31.231959 -0.668884 0.717953 0.044291 -0.023021 1516530.000000 0 0 1
-16.326144 12.124662 22.104790 30.036180 -0.638783 0.743744 0.041783 -0.013098 -564165.000000 0 0 1
-16.397044 10.747662 22.121890 29.559318 -0.580206 0.725165 0.040286 -0.011311 83285.000000 0 0 1
-16.039244 10.148662 20.883190 28.219856 -0.564145 0.737700 0.034372 -0.009681 -253090.000000 0 0 1
-16.497044 8.727662 20.788490 27.937177 -0.486612 0.731586 0.029073 -0.007647 261462.000000 0 0 1
-17.897644 8.540662 20.777790 28.722554 -0.445238 0.762087 0.021628 -0.001111 -6674.690000 0 0 1
-18.390244 7.215662 20.638790 28.569678 -0.373906 0.763527 0.016493 0.002278 133979.000000 0 0 1
-19.845044 6.884662 21.011290 29.710245 -0.333929 0.785257 0.018849 -0.001543 23735.400000 0 0 1
-20.159744 7.198662 22.374190 30.965148 -0.342969 0.763297 0.025255 -0.009547 275260.000000 0 0 1
-21.573644 7.254662 22.518890 32.018005 -0.324395 0.790740 0.028234 -0.010051 113277.000000 0 0 1
-22.025044 8.155662 23.652490 33.332531 -0.354635 0.781878 0.040918 -0.016916 -769375.000000 0 0 1
-21.874244 9.610662 23.490750 33.506159 -0.413970 0.793875 0.047905 -0.017248 288268.000000 0 0 1
-20.577444 10.192662 23.438120 32.812604 -0.459906 0.775170 0.046630 -0.013553 368033.000000 0 0 1
-19.666544 9.987662 24.672870 33.094967 -0.469908 0.729486 0.040121 -0.019438 -324642.000000 0 0 1
-20.108744 10.724662 25.824400 34.442410 -0.489957 0.723059 0.041862 -0.021759 244178.000000 0 0 1
-19.469844 10.175662 26.964260 34.780601 -0.481593 0.683658 0.032724 -0.016771 18020.900000 0 0 1
-30.790114 -14.073437 21.048990 39.864178 0.428723 1.014532 0.075544 -0.005996 -92235.500000 0 0 1
-30.374804 -15.415937 20.880090 39.953197 0.469649 1.020883 0.084559 -0.002388 77252.800000 0 0 1
-31.172384 -16.264237 20.029190 40.464940 0.480897 1.052989 0.074316 0.004545 203995.000000 0 0 1
-31.146424 -16.012637 18.511590 39.612917 0.474871 1.084548 0.062822 0.007347 291895.000000 0 0 1
-31.786804 -14.808237 18.044490 39.437145 0.435966 1.095558 0.070944 -0.002419 56698.000000 0 0 1
-31.516284 -14.770137 16.693290 38.601801 0.438255 1.123590 0.057136 -0.005321 -457403.000000 0 0 1
-32.422894 -13.762537 15.881790 38.637840 0.401421 1.147199 0.055664 -0.001622 -472419.000000 0 0 1
-33.656254 -14.257837 15.469390 39.690444 0.400711 1.170435 0.070012 -0.004308 474370.000000 0 0 1
-34.657008 -14.300537 16.542990 40.979069 0.391347 1.155246 0.073447 -0.006345 -34001.500000 0 0 1
-35.499091 -13.007437 16.663690 41.316551 0.351224 1.155657 0.068190 -0.009207 4275.670000 0 0 1
-36.484294 -13.160937 17.704990 42.635438 0.346201 1.142563 0.034961 -0.006420 282555.000000 0 0 1
36.571128 -11.951137 18.109990 42.523509 -0.315851 1.130860 0.030840 0.001860 -195830.000000 0 0 1
35.840928 -12.111537 19.463390 42.545094 -0.325877 1.095641 0.037126 0.014163 -623477.000000 0 0 1
36.566828 -12.474237 20.589390 43.779704 -0.328756 1.081171 0.040451 0.013195 -203223.000000 0 0 1
35.855878 -12.129837 21.783590 43.672665 -0.326209 1.048592 0.042899 0.010309 -704000.000000 0 0 1
36.654628 -12.535537 23.031990 45.068548 -0.329522 1.034398 0.039003 0.002969 -111905.000000 0 0 1
-35.791383 -11.839637 23.293860 44.314828 0.319465 1.017323 0.051580 -0.001068 -95304.600000 0 0 1
-34.669324 -12.331637 22.567490 43.166224 0.341738 1.020659 0.053588 -0.005419 213003.000000 0 0 1
-33.460084 -11.309437 22.569990 41.915212 0.325943 1.002179 0.075522 -0.006601 646538.000000 0 0 1
-33.610934 -10.198537 21.764390 41.320621 0.294600 1.016059 0.088643 -0.009502 123738.000000 0 0 1
-32.403874 -9.461237 21.788790 40.178071 0.284082 0.997618 0.108380 -0.014533 -24253.000000 0 0 1
-32.575784 -8.062737 21.170090 39.678232 0.242631 1.008011 0.113763 -0.012834 74574.500000 0 0 1
-32.786934 -7.981537 19.770790 39.109744 0.238792 1.040811 0.107194 -0.013866 238947.000000 0 0 1
-34.106774 -8.336737 19.394390 40.111290 0.239730 1.066131 0.102570 -0.014826 -206948.000000 0 0 1
-34.313172 -8.394237 17.888590 39.596194 0.239924 1.102042 0.093581 -0.013781 149042.000000 0 0 1
-35.679147 -8.479937 17.519890 40.643048 0.233343 1.125121 0.024098 -0.005422 143994.000000 0 0 1
-35.854535 -8.562037 16.126290 40.235722 0.234409 1.158412 0.041925 -0.007008 -320128.000000 0 0 1
36.296618 -8.392237 15.751990 40.447488 -0.227220 1.170770 0.040151 -0.007299 -387822.000000 0 0 1
35.487148 -9.426437 16.230890 40.145201 -0.259634 1.154578 0.035845 0.012237 -1108920.000000 0 0 1
34.162638 -9.178937 15.901490 38.783967 -0.262484 1.148340 0.026770 0.005516 -838261.000000 0 0 1
33.312868 -10.481337 16.072690 38.443946 -0.304827 1.139464 0.017565 0.000399 -117627.000000 0 0 1
33.329348 -11.143437 17.276590 39.159956 -0.322659 1.113883 0.011399 0.000030 761373.000000 0 0 1
32.146778 -11.964137 17.431590 38.476177 -0.356289 1.100614 0.024505 -0.008458 600386.000000 0 0 1
31.882988 -12.594137 18.800890 39.097451 -0.376198 1.069147 0.025646 -0.008018 159875.000000 0 0 1
32.757898 -13.664637 19.177790 40.343398 -0.395195 1.075419 0.023376 0.000183 62176.500000 0 0 1
32.683068 -13.822837 20.588790 41.026236 -0.400121 1.045066 0.039899 -0.002441 -173250.000000 0 0 1
33.430798 -15.056137 21.205090 42.355181 -0.423159 1.046448 0.034885 0.007230 269573.000000 0 0 1
33.343728 -14.952837 22.609990 42.972121 -0.421560 1.016724 0.050713 -0.002631 -78580.800000 0 0 1
33.902158 -16.153437 23.103630 44.091581 -0.444649 1.019265 0.044652 0.003218 87453.800000 0 0 1
34.329228 -15.988337 24.587100 45.151393 -0.435862 0.994946 0.054850 0.002161 576685.000000 0 0 1
35.554708 -15.244537 24.619970 45.854946 -0.405053 1.004026 0.060140 0.002096 457167.000000 0 0 1
36.083738 -15.277937 25.941620 46.993820 -0.400517 0.986009 0.057076 0.001362 413761.000000 0 0 1
-36.367784 -14.306837 26.278930 47.094410 0.374798 0.978816 0.056912 -0.000795 14508.300000 0 0 1
-35.094936 -14.665437 25.814330 45.968567 0.395824 0.974521 0.041848 -0.000992 -948854.000000 0 0 1
-34.221957 -13.647337 26.118570 45.161619 0.379462 0.954109 0.047781 -0.003228 -1032950.000000 0 0 1
-32.792144 -14.169937 26.081220 44.230553 0.407881 0.940152 0.052015 0.001139 -1022700.000000 0 0 1
-32.299514 -14.361837 24.785740 43.172374 0.418392 0.959278 0.058090 0.001615 151739.000000 0 0 1
-30.964584 -14.839137 24.732420 42.316640 0.446893 0.946581 0.061796 -0.010091 209293.000000 0 0 1
-30.724224 -16.318837 24.908350 42.786777 0.488247 0.949425 0.061398 -0.003733 -552086.000000 0 0 1
-31.008234 -16.658937 26.249190 43.909574 0.492996 0.930041 0.059683 0.005790 82918.700000 0 0 1
-30.556374 -17.938937 26.565930 44.285958 0.530863 0.927455 0.065661 -0.007083 -165555.000000 0 0 1
-30.079494 -18.060937 28.020320 44.901133 0.540743 0.896888 0.061014 -0.016959 48552.200000 0 0 1
-28.832884 -17.457737 28.303880 44.013832 0.544439 0.872299 0.062215 -0.015135 28490.200000 0 0 1
-28.255954 -17.806937 29.544740 44.591228 0.562331 0.846554 0.075889 -0.021593 535829.000000 0 0 1
-26.950194 -17.040537 29.893100 43.706868 0.563830 0.817640 0.057646 -0.021368 254192.000000 0 0 1
-27.111454 -15.809937 30.542090 43.792742 0.527935 0.799000 0.081128 -0.024121 -24530.300000 0 0 1
-26.031204 -14.955237 30.223540 42.599825 0.521467 0.782042 0.069010 -0.025592 -62687.400000 0 0 1
-26.147864 -13.663337 31.068690 42.844615 0.481518 0.759547 0.070217 -0.022785 -13.745900 0 0 1
-25.558984 -13.806337 32.337022 43.469065 0.495269 0.731896 0.070876 -0.023245 205795.000000 0 0 1
-25.345544 -12.598837 33.030090 43.498438 0.461311 0.708499 0.063612 -0.018048 -527399.000000 0 0 1
-24.709944 -12.809837 -33.666601 43.681956 0.478265 2.450768 0.065596 -0.021947 -728559.000000 0 0 1
-23.321644 -12.953437 -33.819701 43.075083 0.506999 2.473708 0.045186 -0.018515 -318301.000000 0 0 1
-22.891644 -14.282137 -33.764201 43.220690 0.557809 2.467389 0.051886 -0.019662 -421824.000000 0 0 1
-22.822844 -14.938237 -32.373531 42.332950 0.579553 2.441428 0.053426 -0.017835 -805447.000000 0 0 1
-21.898244 -14.456837 -31.448461 40.957770 0.583500 2.446238 0.036198 -0.008999 -338459.000000 0 0 1
-21.740344 -15.411237 -30.447771 40.462520 0.616659 2.422636 0.051944 -0.008807 365494.000000 0 0 1
-20.369344 -15.340937 -29.696371 39.142419 0.645507 2.432073 0.045829 -0.001990 492947.000000 0 0 1
-20.054244 -14.183937 -28.971031 37.982593 0.615594 2.438343 0.035320 -0.009474 26100.300000 0 0 1
-20.757744 -14.114237 -27.728101 37.402449 0.597143 2.405868 0.043753 -0.002088 -79937.000000 0 0 1
-20.391044 -12.935237 -26.805181 36.078148 0.565301 2.408301 0.043967 -0.011236 -552305.000000 0 0 1
-19.184344 -13.129437 -26.127011 34.972016 0.600168 2.414460 0.048557 -0.018540 -332955.000000 0 0 1
-18.927944 -11.936737 -25.386551 33.841243 0.562645 2.419109 0.047442 -0.024858 -572987.000000 0 0 1
-17.547144 -11.903437 -24.769711 32.605715 0.596060 2.433608 0.069600 -0.026506 -1190800.000000 0 0 1
-17.502544 -12.723237 -23.639611 32.047637 0.628576 2.400364 0.082781 -0.024727 571309.000000 0 0 1
-16.242644 -12.853137 -22.972211 30.931361 0.669426 2.407865 0.089355 -0.029154 653153.000000 0 0 1
-15.145144 -13.699537 -23.701611 31.286084 0.735323 2.430389 0.062806 -0.024853 -502016.000000 0 0 1
-14.414444 -13.024437 -24.669111 31.400274 0.734783 2.474516 0.060759 -0.026072 -190576.000000 0 0 1
-13.788344 -13.911137 -25.530661 32.178453 0.789831 2.487185 0.068938 -0.027754 -496656.000000 0 0 1
-12.806044 -13.337237 -26.548211 32.352499 0.805714 2.533243 0.068947 -0.028300 -237327.000000 0 0 1
-13.439444 -12.481537 -27.480751 33.039357 0.748460 2.553063 0.076113 -0.032663 407717.000000 0 0 1
-12.551744 -11.925237 -28.474331 33.324842 0.759808 2.595283 0.069146 -0.028762 197941.000000 0 0 1
-13.288044 -10.876337 -29.362831 34.015330 0.685923 2.612417 0.044249 -0.027246 214656.000000 0 0 1
-12.526944 -9.938037 -30.137921 34.117198 0.670662 2.653789 0.034346 -0.024034 170367.000000 0 0 1
-11.651344 -10.430337 -31.138631 34.844800 0.730159 2.676183 0.054763 -0.023909 288923.000000 0 0 1
-11.020144 -9.273037 -31.999411 35.091240 0.699517 2.718666 0.048920 -0.022648 -226399.000000 0 0 1
-9.853544 -8.760037 -31.431301 34.084561 0.726718 2.744415 0.068521 -0.025983 -434348.000000 0 0 1
-9.410044 -7.609037 -32.170141 34.370981 0.679968 2.781795 0.057723 -0.026668 381962.000000 0 0 1
-7.853044 -7.471937 -32.207551 33.982738 0.760535 2.816942 0.077907 -0.033292 365010.000000 0 0 1
-7.115544 -7.133637 -31.045951 32.640019 0.786668 2.827775 0.067072 -0.034555 -279330.000000 0 0 1
-7.503544 -6.039637 -30.224011 31.721779 0.677724 2.833073 0.070259 -0.032150 -601605.000000 0 0 1
-6.874944 -4.721937 -30.670231 31.784031 0.601834 2.876077 0.069787 -0.034764 644993.000000 0 0 1
-5.470244 -4.662237 -30.388791 31.227210 0.705822 2.909343 0.093132 -0.040792 489867.000000 0 0 1
-5.003844 -3.367137 -30.644721 31.232595 0.592313 2.947264 0.090113 -0.046638 554449.000000 0 0 1
-3.499544 -3.257637 -30.248331 30.623856 0.749614 2.984828 0.068481 -0.032407 385927.000000 0 0 1
-2.488444 -3.972837 -30.913821 31.267237 1.011217 2.991097 0.066606 -0.035159 -893047.000000 0 0 1
-1.190144 -3.725337 -30.581791 30.830837 1.261572 3.014402 0.070815 -0.031745 -722186.000000 0 0 1
-0.455344 -2.382237 -30.950591 31.045474 1.381933 3.063390 0.060691 -0.029603 -195897.000000 0 0 1
0.917256 -2.422837 -30.578491 30.688037 -1.208884 3.057073 0.070274 -0.030878 231429.000000 0 0 1
1.569856 -1.208037 -30.874521 30.938000 -0.655878 3.077522 0.036946 -0.016111 -218291.000000 0 0 1
1.606956 -0.123037 -29.763681 29.807284 -0.076416 3.087497 0.050539 -0.030214 -1846120.000000 0 0 1
0.472556 0.465163 -29.357071 29.364559 0.777514 3.119009 0.070271 -0.034080 -1875210.000000 0 0 1
0.686256 1.765663 -28.958211 29.020105 1.200097 3.076269 0.094201 -0.046109 -1216610.000000 0 0 1
-0.488644 2.379963 -28.287311 28.391459 -1.368295 3.055913 0.080375 -0.041246 -872650.000000 0 0 1
-1.500344 2.873463 -29.142851 29.322578 -1.089596 3.030817 0.067663 -0.058037 -24086.200000 0 0 1
-2.133544 4.012963 -28.589241 28.948240 -1.082140 2.983940 0.109111 -0.050137 -592581.000000 0 0 1
-3.435244 4.341763 -29.301231 29.819691 -0.901439 2.954846 0.132707 -0.052470 -988499.000000 0 0 1
-3.289044 4.745663 -30.612601 31.152375 -0.964741 2.955168 0.127778 -0.054751 38245.200000 0 0 1
-4.418144 5.329063 -31.249101 32.006643 -0.878582 2.923592 0.148553 -0.050948 -153982.000000 0 0 1
-4.019244 6.100863 -32.592131 33.400926 -0.988260 2.921079 0.144289 -0.038071 145676.000000 0 0 1
-3.663544 5.265663 -33.712271 34.317138 -0.962934 2.953562 0.159358 -0.035315 1042250.000000 0 0 1
-2.486744 4.415063 -33.639021 34.018531 -1.057844 2.992082 0.128349 -0.037946 415462.000000 0 0 1
-2.228844 3.529663 33.250388 33.511409 -1.007565 0.124893 0.091538 -0.031618 -674605.000000 0 0 1
-3.250844 2.628063 32.925895 33.190198 -0.679857 0.126284 0.094372 -0.037176 -157155.000000 0 0 1
-3.043244 1.916763 31.691450 31.894879 -0.562074 0.113004 0.085659 -0.029155 -49039.900000 0 0 1
-2.889844 2.703563 30.362150 30.618958 -0.752107 0.129607 0.077815 -0.025114 271562.000000 0 0 1
-4.047144 3.484063 30.081070 30.551413 -0.710771 0.175697 0.073910 -0.026793 189317.000000 0 0 1
-3.796844 4.480263 29.152760 29.738396 -0.867779 0.198786 0.068576 -0.029921 -18868.200000 0 0 1
-5.068444 5.248263 28.778500 29.688978 -0.802826 0.248295 0.081475 -0.025464 78856.400000 0 0 1
-4.853444 6.109263 27.717270 28.794549 -0.899455 0.274402 0.067891 -0.012821 -806807.000000 0 0 1
-6.083744 6.578863 27.294430 28.727674 -0.824479 0.317210 0.052890 -0.010151 -777046.000000 0 0 1
-5.904944 7.291963 25.878320 27.526869 -0.890116 0.347840 0.040945 -0.012047 -207781.000000 0 0 1
-5.230244 8.492163 25.997050 27.844549 -1.018774 0.366326 0.039702 -0.004890 -359602.000000 0 0 1
-5.333444 9.317063 24.871710 27.089763 -1.050889 0.407481 0.032186 -0.009239 -67218.100000 0 0 1
-4.648944 10.687963 24.931660 27.521499 -1.160511 0.437302 0.035299 -0.011503 -938729.000000 0 0 1
-4.577644 11.420063 23.724790 26.725237 -1.189564 0.478406 0.032054 -0.013028 -85481.900000 0 0 1
-4.075844 12.727963 23.809840 27.304249 -1.260887 0.511483 0.023431 -0.006821 -1072310.000000 0 0 1
-2.553344 12.801863 23.991530 27.313015 -1.373929 0.498309 0.030037 -0.005307 -896799.000000 0 0 1
-2.028944 12.252163 25.211100 28.103944 -1.406687 0.457711 0.029602 -0.004035 -134367.000000 0 0 1
-2.431144 12.951563 26.362610 29.472710 -1.385245 0.463540 0.044670 -0.003860 -617297.000000 0 0 1
-1.586544 12.501763 27.600640 30.341498 -1.444566 0.428316 0.057904 -0.001760 927382.000000 0 0 1
-0.233344 12.972763 27.577220 30.477042 -1.552811 0.439764 0.059806 -0.006215 348249.000000 0 0 1
0.452356 12.476263 28.733520 31.328532 1.534555 0.409882 0.060172 -0.009587 1009150.000000 0 0 1
2.001756 12.735363 28.664950 31.430492 1.414891 0.422636 0.062157 -0.002043 828859.000000 0 0 1
2.432956 14.076863 28.755150 32.108192 1.399653 0.461084 0.056780 -0.008014 -449622.000000 0 0 1
3.803056 14.138163 28.458250 32.003482 1.308024 0.475151 0.064573 -0.006271 -276676.000000 0 0 1
4.240756 15.613063 28.579220 32.840882 1.305579 0.515121 0.060831 -0.007821 -306162.000000 0 0 1
4.324856 16.114663 29.910140 34.249134 1.308595 0.508839 0.072817 -0.009022 210733.000000 0 0 1
3.331256 17.063963 30.260100 34.899137 1.377999 0.521500 0.066852 -0.011451 36791.600000 0 0 1
3.516156 18.438163 29.652540 35.094192 1.382359 0.564341 0.068045 -0.010936 2160.400000 0 0 1
4.563756 19.178663 30.247910 36.105194 1.337181 0.577607 0.089758 -0.013041 55538.300000 0 0 1
4.918756 20.237963 29.356770 35.994295 1.332373 0.617039 0.063523 -0.010715 -292797.000000 0 0 1
6.131056 20.985563 29.888150 37.030868 1.286551 0.631548 0.068621 -0.010582 -249630.000000 0 0 1
5.699956 21.844363 30.974820 38.328908 1.315553 0.629822 0.059746 -0.025932 232013.000000 0 0 1
6.772856 22.571963 31.549990 39.379778 1.279288 0.641545 0.040567 -0.028385 94364.900000 0 0 1
7.103156 23.967763 30.928570 39.767888 1.282680 0.679754 0.029607 -0.015382 -196239.000000 0 0 1
7.675456 23.902763 29.644830 38.846758 1.260085 0.702665 0.013981 -0.010346 87977.700000 0 0 1
7.884256 25.236863 29.148800 39.353695 1.267993 0.736703 0.008876 -0.007037 21936.400000 0 0 1
8.411256 25.169963 27.710480 38.368567 1.248285 0.763792 0.030329 -0.007669 -233353.000000 0 0 1
7.408656 24.909263 26.763170 37.304515 1.281703 0.770698 0.029321 -0.006330 107795.000000 0 0 1
7.894956 24.975063 25.425980 36.504309 1.264623 0.800260 0.048675 -0.011607 -70858.800000 0 0 1
29.412958 1.870563 6.724089 30.229695 0.063511 1.346487 0.145776 -0.031163 -26523.200000 0 0 1
29.636418 2.760363 7.787989 30.766697 0.092873 1.314882 0.140389 -0.028672 -220540.000000 0 0 1
28.507318 2.883663 8.605789 29.917257 0.100812 1.279021 0.134696 -0.022954 -466954.000000 0 0 1
28.611398 3.883063 9.810289 30.494787 0.134893 1.243268 0.111738 -0.021450 -189139.000000 0 0 1
28.563278 5.290763 9.575189 30.586553 0.183154 1.252391 0.120951 -0.027601 224169.000000 0 0 1
29.598788 5.791063 8.749889 31.403586 0.193211 1.288432 0.129154 -0.041484 -37196.500000 0 0 1
29.419838 7.342563 8.616789 31.522835 0.244582 1.293922 0.127721 -0.040698 133500.000000 0 0 1
28.305818 7.674563 7.835589 30.356460 0.264765 1.309721 0.135147 -0.047257 -256565.000000 0 0 1
28.612378 8.895763 7.248489 30.827639 0.301432 1.333444 0.137466 -0.055553 177893.000000 0 0 1
27.604118 9.263563 6.135689 29.756471 0.323777 1.363110 0.131464 -0.051712 2194.700000 0 0 1
26.369518 9.786363 6.569389 28.883927 0.355368 1.341347 0.124996 -0.043083 36726.000000 0 0 1
25.571618 9.889163 5.403789 27.944661 0.369010 1.376196 0.135866 -0.048872 487937.000000 0 0 1
24.124418 10.469563 5.437289 26.854485 0.409454 1.366914 0.084424 -0.042665 505798.000000 0 0 1
24.100918 11.865163 5.677889 27.456780 0.457478 1.362500 0.074337 -0.043106 -6159.040000 0 0 1
22.799318 12.238063 6.047989 26.573619 0.492632 1.341190 0.083851 -0.031922 -284363.000000 0 0 1
22.551718 13.738163 6.387789 27.168381 0.547146 1.333456 0.073348 -0.022612 -166227.000000 0 0 1
22.597418 14.580863 5.244189 27.399751 0.573025 1.378213 0.067677 -0.028057 317732.000000 0 0 1
22.494318 15.980763 5.500289 28.135961 0.617695 1.374040 0.094487 -0.017684 -20568.900000 0 0 1
21.951618 16.859163 4.277089 28.007113 0.654931 1.417482 0.086045 -0.026915 -19205.000000 0 0 1
20.565118 16.646663 4.079289 26.770806 0.680483 1.417822 0.104180 -0.015799 149771.000000 0 0 1
20.075818 17.484663 3.087289 26.800807 0.716521 1.455346 0.104162 -0.020515 -598377.000000 0 0 1
18.571318 17.328663 2.872489 25.562230 0.750798 1.458186 0.090208 -0.018839 -673114.000000 0 0 1
17.861718 17.703563 4.018589 25.467747 0.780951 1.412343 0.092392 -0.024082 699585.000000 0 0 1
16.461018 17.389363 3.914989 24.262773 0.812816 1.408730 0.067260 -0.035721 672041.000000 0 1 0
15.608518 18.625263 4.295589 24.677486 0.873293 1.395836 0.078772 -0.034767 -463489.000000 0 1 0
14.233718 18.423963 4.076689 23.636000 0.913009 1.397452 0.072144 -0.039289 97470.800000 0 1 0
13.546318 19.679663 4.322389 24.279104 0.967938 1.391813 0.054045 -0.036606 564808.000000 0 1 0
12.007918 19.739663 4.120789 23.469667 1.024286 1.394302 0.040329 -0.026764 344877.000000 0 1 0
11.363518 19.075863 5.179389 22.800091 1.033544 1.341630 0.027746 -0.033117 493485.000000 0 1 0
9.946018 19.269063 5.117589 22.280255 1.094300 1.339035 0.027416 -0.019585 702549.000000 0 1 0
9.185518 18.800263 6.375189 21.873880 1.116323 1.275052 0.022407 -0.015472 -719970.000000 0 1 0
9.467318 19.605063 7.492889 23.024595 1.120921 1.239330 0.043678 -0.016588 -18987.400000 0 1 0
8.850218 19.030263 8.632489 22.693548 1.135489 1.180574 0.047517 -0.009412 -169559.000000 0 1 0
7.574118 19.764363 9.085789 23.033646 1.204838 1.165319 0.044064 -0.012974 -205517.000000 0 1 0
6.569318 19.735363 8.128589 22.331915 1.249462 1.198248 0.042594 -0.025348 -715430.000000 0 1 0
6.380018 21.013763 7.517989 23.212131 1.276030 1.240967 0.044643 -0.016603 -460656.000000 0 1 0
5.186218 21.161163 6.531789 22.745459 1.330452 1.279526 0.041304 -0.014555 952842.000000 0 1 0
3.871418 21.263363 7.125389 22.757189 1.390699 1.252336 0.034011 -0.019556 1039580.000000 0 1 0
3.514918 22.438463 7.884489 24.041722 1.415412 1.236663 0.044371 -0.023408 -505704.000000 0 1 0
3.600318 23.754063 7.151589 25.067170 1.420375 1.281480 0.061950 -0.026086 137454.000000 0 0 1
2.420318 24.022463 6.401289 24.978254 1.470383 1.311630 0.038654 -0.024501 458321.000000 0 1 0
2.628418 25.166963 5.597889 25.915651 1.466734 1.353076 0.057525 -0.027307 358160.000000 0 0 1
1.339918 25.405863 4.754389 25.881605 1.518105 1.386050 0.057527 -0.028391 496950.000000 0 0 1
0.324618 26.085663 5.481989 26.657445 1.558353 1.363673 0.069324 -0.027159 23552.700000 0 0 1
-0.823782 26.265863 4.679689 26.692202 -1.539443 1.394565 0.067796 -0.027067 -487820.000000 0 0 1
-2.034482 26.911763 5.311989 27.506350 -1.495342 1.376457 0.076081 -0.028859 136751.000000 0 0 1
-3.021782 27.112863 4.270489 27.612960 -1.459802 1.415518 0.091635 -0.030602 638584.000000 0 0 1
-4.071482 27.992463 4.674789 28.670692 -1.426360 1.407014 0.080783 -0.034161 -334785.000000 0 0 1
-4.943582 28.412363 3.532589 29.054785 -1.398527 1.448911 0.071565 -0.033538 -824203.000000 0 0 1
-4.454682 29.313963 2.614089 29.765518 -1.419986 1.482860 0.084740 -0.032493 -384468.000000 0 0 1
-5.407182 29.657063 1.636089 30.190326 -1.390454 1.516577 0.096404 -0.034359 -321513.000000 0 0 1
-4.818282 30.616263 0.556389 30.998080 -1.414700 1.552846 0.101406 -0.039685 -136388.000000 0 0 1
-4.487882 31.931563 1.018689 32.261487 -1.431164 1.539215 0.102150 -0.033003 999746.000000 0 0 1
-3.212582 31.906263 1.706889 32.112984 -1.470446 1.517619 0.097290 -0.033997 455967.000000 0 0 1
-2.496582 33.272863 1.926789 33.421981 -1.495903 1.513114 0.102152 -0.032472 -589613.000000 0 0 1
-1.891982 33.716963 0.717989 33.777636 -1.514741 1.549538 0.094300 -0.033486 -21520.600000 0 0 1
-0.860582 -33.486738 0.831889 33.508122 1.545103 1.545967 0.090295 -0.031292 86343.400000 0 0 1
0.465418 -33.973438 1.420389 34.006303 -1.557098 1.529016 0.083251 -0.028124 -970015.000000 0 0 1
0.451218 -33.985738 2.839989 34.107177 -1.557520 1.487433 0.073706 -0.023790 939068.000000 0 0 1
1.760718 33.980663 3.432389 34.198931 1.519027 1.470262 0.060356 -0.018182 1096370.000000 0 0 1
1.746518 -34.048138 4.941589 34.449170 -1.519546 1.426854 0.047484 -0.016028 363141.000000 0 0 1
0.848818 33.148763 5.498689 33.612446 1.545196 1.406467 0.083010 -0.033749 9489.620000 0 0 1
0.345318 33.483763 6.756689 34.160422 1.560484 1.371691 0.079040 -0.029109 381001.000000 0 0 1
1.330018 33.262563 7.975189 34.231136 1.530832 1.335655 0.053686 -0.020270 372239.000000 0 0 1
1.607418 31.972363 8.390789 33.094125 1.520563 1.314455 0.061017 -0.030287 434653.000000 0 0 1
2.512918 31.901863 9.524289 33.387957 1.492188 1.281517 0.064104 -0.027231 89688.000000 0 0 1
3.023418 30.440363 9.649589 32.076024 1.471798 1.265228 0.058248 -0.028260 -65326.900000 0 0 1
1.964518 29.620763 10.073689 31.348495 1.504571 1.243647 0.076872 -0.041264 363014.000000 0 0 1
2.374818 28.253363 10.030689 30.075023 1.486939 1.230759 0.077307 -0.041443 -37451.100000 0 0 1
1.985518 27.511263 11.312289 29.812409 1.498750 1.181596 0.059971 -0.045419 -560973.000000 0 0 1
2.669818 27.852363 12.484789 30.639060 1.475232 1.151104 0.060168 -0.036005 -293333.000000 0 0 1
2.512518 26.962063 13.557089 30.283002 1.477878 1.106627 0.060282 -0.029053 354479.000000 0 0 1
1.103418 26.937063 14.293789 30.514509 1.529856 1.083288 0.055280 -0.033616 757996.000000 0 0 1
0.694118 28.097063 14.812289 31.769964 1.546097 1.085766 0.052215 -0.030940 -370255.000000 0 0 1
0.086318 28.926363 13.865189 32.077802 1.567812 1.123825 0.051900 -0.035794 -463202.000000 0 0 1
-0.801082 30.068763 14.515689 33.398764 -1.544161 1.121183 0.045014 -0.028678 -249109.000000 0 0 1
-2.037282 29.709363 15.010989 33.348561 -1.502330 1.103892 0.037101 -0.021030 -649303.000000 0 0 1
-2.776882 30.884263 15.390989 34.618366 -1.481125 1.110080 0.034776 -0.011545 241637.000000 0 0 1
-4.090082 30.456163 16.102689 34.692985 -1.437301 1.088124 0.031952 0.002825 -48983.900000 0 0 1
-5.024082 29.838563 15.243989 33.881565 -1.403985 1.104121 0.029423 -0.008289 -402953.000000 0 0 1
-6.252482 29.888463 15.915089 34.434050 -1.364576 1.090333 0.033181 0.001260 -431698.000000 0 0 1
-7.382882 29.046063 15.270289 33.635731 -1.321889 1.099558 0.031969 -0.012544 -632934.000000 0 0 1
-8.545382 28.862763 15.996789 34.087826 -1.282949 1.082319 0.028115 -0.006840 -675301.000000 0 0 1
-9.434982 28.222763 15.085989 33.363607 -1.248172 1.101601 0.018086 -0.005761 -326401.000000 0 0 1
-10.702782 27.672763 15.756789 33.594758 -1.201754 1.082610 0.026047 -0.000755 -307995.000000 0 0 1
-11.561782 28.698263 16.216989 34.932160 -1.187815 1.088017 0.020940 -0.003970 225924.000000 0 0 1
-11.293682 29.181663 17.543189 35.873112 -1.201536 1.059814 0.027048 -0.008878 -830812.000000 0 0 1
-12.066082 30.453963 17.833089 37.296826 -1.193564 1.072261 0.028362 -0.010645 -712363.000000 0 0 1
-13.352682 30.131363 18.316189 37.705118 -1.153654 1.063547 0.031507 -0.000809 -33762.200000 0 0 1
-14.050582 31.304163 18.669489 39.063017 -1.148907 1.072497 0.045418 -0.010143 22997.800000 0 0 1
-15.113182 31.044963 19.751389 39.778328 -1.117751 1.051192 0.051693 -0.008407 -22931.900000 0 0 1
-14.551482 30.847163 21.040989 40.075133 -1.130021 1.018036 0.042860 -0.010391 48864.100000 0 0 1
-15.501282 30.428263 21.990289 40.617013 -1.099628 0.998688 0.031613 -0.004212 -129891.000000 0 0 1
-14.944882 30.421463 23.435889 41.207472 -1.114164 0.965836 0.023696 0.002787 -245682.000000 0 0 1
-13.773482 29.639763 23.608689 40.318662 -1.135789 0.945235 0.019144 0.000501 604381.000000 0 0 1
-13.240782 29.524463 24.902689 40.830823 -1.149217 0.914863 0.034087 0.003859 -272792.000000 0 0 1
-12.726782 30.724263 25.684689 42.019692 -1.178087 0.913153 0.038492 0.008262 -666245.000000 0 0 1
-13.790682 31.425363 26.274489 43.221350 -1.157262 0.917377 0.033532 0.006010 181102.000000 0 0 1
-13.431882 32.702063 26.742989 44.328634 -1.181070 0.923177 0.035661 0.002714 -387918.000000 0 0 1
-14.605382 33.425863 27.409889 45.627925 -1.158849 0.926387 0.044376 0.002616 -101226.000000 0 0 1
-15.225882 32.870163 28.575489 46.139285 -1.137009 0.902906 0.008382 0.001994 457374.000000 0 0 1
-14.447782 32.884463 29.780089 46.658118 -1.156834 0.878558 0.038493 0.007909 71557.300000 0 0 1
-15.134982 32.017963 30.860589 46.974393 -1.129224 0.854009 0.022464 0.002888 -36669.300000 0 0 1
-16.262082 32.655863 31.419289 48.145949 -1.108763 0.859806 0.014156 0.001395 -288512.000000 0 0 1
-16.866782 31.879563 32.444389 48.512197 -1.084158 0.838219 0.006924 0.000367 -386992.000000 0 0 1
-18.262582 32.437363 32.690089 49.541360 -1.058019 0.850171 0.003757 -0.000945 -579704.000000 0 0 1
-18.357182 33.751563 33.146489 50.742919 -1.072655 0.858962 0.005361 -0.005356 -634949.000000 0 0 1
-19.721982 34.026463 33.297589 51.531410 -1.045507 0.868253 0.028667 -0.008681 -387165.000000 0 0 1
-20.163082 -32.665238 33.546689 50.979878 1.017779 0.852586 0.036115 -0.006990 -37440.100000 0 0 1
-19.816382 -32.045838 -33.299112 50.283751 1.016974 2.294579 0.032498 -0.005843 -347128.000000 0 0 1
-20.655982 -32.517938 -32.315912 50.283239 1.004883 2.268784 0.032305 -0.004670 -375023.000000 0 0 1
-20.569382 -31.658438 -31.000312 48.850543 0.994612 2.258281 0.044898 -0.010308 150432.000000 0 0 1
-21.102282 -30.342538 -31.098712 48.302234 0.963118 2.270297 0.045581 -0.015191 -94134.400000 0 0 1
-20.526082 -29.493138 -30.156412 46.910281 0.962786 2.269013 0.047891 -0.010745 -89927.800000 0 0 1
-20.823982 -28.022238 -30.391212 46.287254 0.931711 2.287070 0.055905 -0.019854 -256309.000000 0 0 1
-22.083982 -27.643538 -29.923312 46.338667 0.896736 2.272805 0.043789 -0.014395 -529906.000000 0 0 1
-22.280882 -26.254638 -29.987912 45.662004 0.867089 2.287280 0.046706 -0.018164 -333851.000000 0 0 1
-23.536382 -25.817638 -29.230412 45.551386 0.831588 2.267512 0.057972 -0.022001 -235483.000000 0 0 1
-23.573382 -26.074438 -27.835912 44.837693 0.835732 2.240578 0.056596 -0.023634 105947.000000 0 0 1
-22.725482 -25.199038 -27.096912 43.424437 0.836966 2.244649 0.065920 -0.032493 14626.400000 0 0 1
-22.832982 -25.533438 -25.557312 42.737311 0.841174 2.211811 0.069252 -0.026150 -63813.700000 0 0 1
-24.058882 -25.222638 -24.941012 42.861001 0.809008 2.191865 0.059728 -0.026567 -309495.000000 0 0 1
-24.027282 -25.512138 -23.573612 42.236177 0.815362 2.162936 0.060715 -0.016340 -870633.000000 0 0 1
-25.379282 -25.403638 -22.853912 42.564705 0.785878 2.137580 0.056722 -0.013179 -708442.000000 0 0 1
-26.361882 -26.244738 -23.331812 43.910233 0.783171 2.130993 0.034893 -0.008319 -747759.000000 0 0 1
-26.122282 -27.659938 -23.109512 44.513991 0.813981 2.116654 0.051319 0.000526 -1024680.000000 0 0 1
-27.413382 -28.533638 -23.115712 45.825737 0.805419 2.099514 0.026547 -0.000161 912879.000000 0 0 1
-28.287782 -28.326338 -21.994612 45.676504 0.786079 2.073196 0.030042 0.006553 135280.000000 0 0 1
-29.146082 -27.229838 -22.093312 45.596849 0.751421 2.076629 0.031749 0.003229 -493759.000000 0 0 1
-29.852482 -26.808638 -20.762312 45.176846 0.731730 2.048317 0.038010 0.007689 155381.000000 0 0 1
-30.649082 -27.820938 -20.176412 46.048436 0.737067 2.024343 0.032560 0.015953 313279.000000 0 0 1
-31.181082 -27.424038 -18.904412 45.625810 0.721378 1.998009 0.035914 0.019833 -991417.000000 0 0 1
-32.139682 -28.428438 -18.239512 46.624190 0.724201 1.972734 0.024582 0.017620 -295402.000000 0 0 1
-33.465082 -28.562338 -18.705512 47.808107 0.706521 1.972799 0.023176 0.015679 306618.000000 0 0 1
-34.285082 -27.407538 -18.768812 47.737913 0.674376 1.974866 0.008830 0.025913 -1248250.000000 0 0 1
-34.885782 -27.027738 -17.382512 47.430667 0.659153 1.946022 0.020149 0.025626 -1283390.000000 0 0 1
-34.093782 -26.402138 -16.426612 46.144257 0.658934 1.934763 0.012711 0.026387 -131030.000000 0 0 1
-34.853482 -25.913938 -15.328112 46.057013 0.639335 1.910075 0.012101 0.023520 -80917.100000 0 0 1
-34.424582 -26.339538 -13.938212 45.531274 0.653119 1.881915 0.046559 0.018458 -179615.000000 0 0 1
-34.800482 -27.685338 -13.722212 46.538700 0.672018 1.870101 0.046468 0.013470 300138.000000 0 0 1
-34.470882 -28.204538 -12.457112 46.248431 0.685748 1.843517 0.047092 0.004343 -191910.000000 0 0 1
-35.029782 -29.631538 -12.329012 47.509139 0.702106 1.833309 0.061047 -0.000632 -103557.000000 0 0 1
-34.513482 -30.649638 -13.144812 47.993404 0.726173 1.848230 0.058284 -0.003402 83472.400000 0 0 1
-35.126482 -31.873838 -12.878712 49.149492 0.736890 1.835923 0.051403 -0.010846 -105527.000000 0 0 1
-34.700882 -32.867938 -14.009912 49.806930 0.758278 1.855929 0.043460 0.003380 221147.000000 0 0 1
-33.321382 -33.201538 -13.989612 49.075105 0.783597 1.859871 0.041871 -0.000005 26257.000000 0 0 1
-32.967582 -33.994938 -15.081112 49.698664 0.800739 1.879109 0.062532 -0.020259 1017930.000000 0 0 1
-31.395982 34.006763 -15.098512 48.684009 -0.825295 1.886129 0.057578 -0.017328 1185590.000000 0 0 1
-31.023082 33.235363 -16.209612 48.267717 -0.819812 1.913280 0.062631 -0.029635 -801765.000000 0 0 1
-29.653382 32.945663 -16.235912 47.205345 -0.837943 1.921908 0.053803 -0.024665 -888199.000000 0 0 1
9.179256 20.401463 -9.398411 24.265378 1.148000 1.968517 0.060149 -0.028657 -1598350.000000 0 1 0
7.829356 20.151863 -9.342711 23.551702 1.200227 1.978704 0.056698 -0.028840 -1026990.000000 0 1 0
7.237456 20.007363 -10.649411 23.792547 1.223702 2.034870 0.065949 -0.030503 81630.300000 0 1 0
7.475056 18.653863 -11.370011 23.089396 1.189666 2.085681 0.052884 -0.027059 -817140.000000 0 1 0
8.705856 18.507463 -11.995011 23.710723 1.131110 2.101209 0.073010 -0.025591 -714973.000000 0 1 0
8.750956 17.177463 -12.408911 22.926525 1.099622 2.142716 0.050239 -0.035930 -469887.000000 0 1 0
9.916156 16.810963 -13.318411 23.628769 1.037864 2.169597 0.074535 -0.034636 -390678.000000 0 1 0
9.797156 15.537963 -13.905111 23.038331 1.008230 2.218760 0.073305 -0.045566 482883.000000 0 1 0
10.786956 15.272463 -14.916311 23.918672 0.955854 2.244169 0.086611 -0.042452 58010.200000 0 1 0
10.839256 13.840963 -15.452511 23.406021 0.906428 2.291873 0.080239 -0.050183 -580537.000000 0 1 0
11.051456 12.798263 -14.497711 22.273613 0.858510 2.279555 0.085473 -0.049886 607100.000000 0 1 0
12.350156 12.518363 -13.976011 22.462517 0.792162 2.242337 0.108283 -0.046271 16394.800000 0 1 0
13.217456 11.715063 -14.982011 23.160408 0.725213 2.274283 0.114701 -0.042294 -662933.000000 0 1 0
13.623756 12.401663 -16.107211 24.471417 0.738475 2.289228 0.093673 -0.035972 229150.000000 0 1 0
14.600356 11.723563 -16.870711 25.203834 0.676546 2.304158 0.097165 -0.036586 326899.000000 0 0 1
15.242256 12.506363 -18.083011 26.753145 0.687120 2.313010 0.077062 -0.036761 579302.000000 0 0 1
16.099056 13.608363 -17.713311 27.534134 0.701753 2.269626 0.071838 -0.032698 -80164.400000 0 0 1
16.805156 14.113163 -18.756511 28.868692 0.698549 2.278010 0.067279 -0.028429 -39524.800000 0 0 1
18.082456 14.917363 -18.320711 29.751494 0.689778 2.234186 0.061486 -0.017958 55493.000000 0 0 1
17.984356 16.258963 -17.799911 30.077031 0.735054 2.204100 0.069731 -0.021773 67265.100000 0 0 1
17.405156 17.141563 -18.717211 30.775098 0.777768 2.224579 0.075981 -0.017895 -273850.000000 0 0 1
17.318956 18.541763 -18.042811 31.133362 0.819484 2.188952 0.083221 -0.016338 344522.000000 0 0 1
18.539656 19.260763 -17.885711 32.165113 0.804473 2.160433 0.074099 -0.006590 414028.000000 0 0 1
18.292956 20.455163 -17.138511 32.353895 0.841142 2.129067 0.064791 0.003385 1220440.000000 0 0 1
19.383356 21.655863 -17.321911 33.833999 0.840716 2.108270 0.063780 0.001257 1946030.000000 0 0 1
20.590156 21.688963 -16.559311 34.184447 0.811382 2.076486 0.061804 0.003332 144259.000000 0 0 1
20.369856 22.187563 -15.237911 33.755191 0.828084 2.039157 0.061814 0.003126 -209086.000000 0 0 1
21.538656 22.765463 -14.404811 34.491718 0.813082 2.001633 0.046408 -0.000194 -143228.000000 0 0 1
22.350656 21.818163 -13.736011 34.121285 0.773343 1.985113 0.060153 -0.005051 20557.400000 0 0 1
23.218056 22.397363 -12.777211 34.698374 0.767409 1.947908 0.046309 -0.001655 307835.000000 0 0 1
24.686756 22.532363 -13.241711 35.951164 0.739804 1.948003 0.037646 -0.006290 -254180.000000 0 0 1
24.765956 23.352963 -14.361511 36.945453 0.756042 1.970040 0.036784 0.003571 442326.000000 0 0 1
26.098456 23.464963 -14.869911 38.116245 0.732314 1.971558 0.026800 -0.000256 440867.000000 0 0 1
26.272756 24.195963 -16.210011 39.223294 0.744271 1.996844 0.023878 -0.004216 94880.000000 0 0 1
27.034656 23.309163 -17.042711 39.555578 0.711532 2.016236 0.029354 -0.004036 515536.000000 0 0 1
27.404756 23.961063 -18.300311 40.743768 0.718456 2.036617 0.030493 -0.003022 -636455.000000 0 0 1
27.819256 22.987063 -19.421311 40.981745 0.690573 2.064512 0.026152 -0.005494 -631112.000000 0 0 1
29.195256 22.748163 -19.341511 41.760459 0.661912 2.052347 0.022018 -0.005163 -644062.000000 0 0 1
29.565656 21.830063 -20.354011 42.011492 0.636009 2.076573 0.026480 -0.000309 -15245.000000 0 0 1
31.042056 22.017963 -20.729611 43.337244 0.616937 2.069551 0.056684 0.001095 -169856.000000 0 0 1
31.369556 23.185563 -21.496611 44.539013 0.636495 2.074471 0.038754 0.002731 -632909.000000 0 0 1
32.739156 23.402563 -21.597311 45.672488 0.620602 2.063345 0.064072 0.006285 -553396.000000 0 0 1
33.115656 24.731263 -22.322311 46.974117 0.641459 2.065993 0.057128 0.006171 -281441.000000 0 0 1
33.106156 24.849863 -23.755311 47.726807 0.643892 2.091782 0.055132 0.008748 167163.000000 0 0 1
31.867156 24.844563 -24.437311 47.222348 0.662196 2.114717 0.037608 0.003355 -179460.000000 0 0 1
32.106856 25.247163 -25.912531 48.370742 0.666361 2.136141 0.051102 -0.007326 39454.600000 0 0 1
32.071256 26.651963 -26.188951 49.241789 0.693373 2.131573 0.064304 -0.013055 -217608.000000 0 0 1
30.818756 27.040763 -26.711531 48.933674 0.720195 2.148226 0.051818 -0.004137 110166.000000 0 0 1
30.562956 26.767563 -28.246251 49.481789 0.719293 2.178327 0.058032 -0.003494 -72037.400000 0 0 1
29.971556 25.483063 -28.395911 48.518125 0.704634 2.196002 0.048185 -0.007540 -20688.100000 0 0 1
29.793256 25.057563 -29.736591 48.987595 0.699274 2.223105 0.056601 -0.017886 -212893.000000 0 0 1
29.173556 23.616963 -29.859111 47.962734 0.680527 2.242791 0.050222 -0.022563 1018660.000000 0 0 1
27.807656 23.674163 -29.393981 46.880037 0.705280 2.248498 0.059977 -0.023918 863113.000000 0 0 1
27.182556 22.384363 -29.429481 45.891671 0.688897 2.266964 0.061861 -0.028584 317809.000000 0 0 1
25.707856 22.440463 -28.962331 44.758071 0.717641 2.274553 0.042554 -0.018925 85905.400000 0 0 1
25.747656 22.546463 -27.574341 43.950302 0.719210 2.249004 0.032793 -0.007259 103538.000000 0 0 1
24.489256 22.792163 -26.984531 42.981057 0.749520 2.249550 0.046025 -0.015181 -193223.000000 0 0 1
24.540556 22.915163 -25.470511 42.143689 0.751161 2.219775 0.038052 -0.010417 -553942.000000 0 0 1
24.872156 21.681263 -24.872511 41.320009 0.716963 2.216735 0.034206 -0.012540 170556.000000 0 0 1
25.170756 21.930063 -23.527611 40.841684 0.716703 2.184707 0.034500 -0.004864 -240234.000000 0 0 1
25.766556 20.756463 -22.736511 40.145923 0.678121 2.172863 0.052928 0.000818 415394.000000 0 0 1
27.077256 20.278463 -23.025311 40.921374 0.642804 2.168411 0.026068 -0.000294 405698.000000 0 0 1
27.216156 18.980063 -22.506211 40.093534 0.608967 2.166804 0.071506 -0.009711 -346644.000000 0 0 1
28.453556 18.171963 -22.880711 40.784213 0.568357 2.166412 0.082947 -0.014108 351131.000000 0 0 1
29.659956 18.605663 -22.255311 41.487137 0.560251 2.137008 0.090730 -0.020700 -186790.000000 0 0 1
30.769456 17.819663 -22.477611 42.065934 0.524936 2.134526 0.070264 -0.014594 -555841.000000 0 0 1
31.943656 18.118363 -21.535611 42.572935 0.515951 2.101166 0.076935 -0.009868 -72451.600000 0 0 1
32.799156 19.195363 -21.881411 43.852512 0.529496 2.093215 0.057745 -0.010175 446866.000000 0 0 1
34.108656 19.016163 -21.357311 44.510107 0.508596 2.071258 0.054261 -0.006561 410485.000000 0 0 1
34.526456 19.925663 -20.187511 44.683821 0.523421 2.039562 0.057779 -0.009785 -57586.900000 0 0 1
33.724856 19.767463 -18.999811 43.463909 0.530165 2.023213 0.073307 -0.010153 506538.000000 0 0 1
33.908356 20.839863 -18.119011 43.730711 0.551081 1.998004 0.056873 0.004143 306426.000000 0 0 1
33.113656 20.655663 -16.749811 42.470305 0.557722 1.976199 0.072044 -0.013400 405224.000000 0 0 1
33.748856 19.683963 -15.942711 42.197319 0.528011 1.958230 0.070003 -0.023487 192189.000000 0 0 1
33.159556 19.525663 -14.679611 41.186147 0.532173 1.935231 0.065686 -0.022701 -354137.000000 0 0 1
33.791556 18.399763 -13.822011 40.883598 0.498617 1.915675 0.071309 -0.015833 -834069.000000 0 0 1
35.179456 18.556263 -13.898811 42.132007 0.485385 1.906980 0.061036 -0.022491 -99323.000000 0 0 1
36.035256 17.722163 -13.102311 42.240802 0.457067 1.886180 0.046766 -0.009310 280434.000000 0 0 1
35.820856 17.767663 -11.592611 41.631866 0.460454 1.852982 0.061279 -0.015150 -1160530.000000 0 0 1
36.519056 18.846963 -11.112511 42.571556 0.476433 1.834887 0.044228 -0.014512 -289826.000000 0 0 1
36.036256 19.316163 -9.849111 42.056283 0.492047 1.807180 0.034014 -0.006125 -83197.800000 0 0 1
34.788456 20.224363 -9.961111 41.454617 0.526595 1.813460 0.042643 -0.007120 -570886.000000 0 0 1
33.626756 19.499663 -10.011111 40.139979 0.525498 1.822862 0.052505 -0.022110 -325190.000000 0 0 1
32.397956 20.229863 -9.821511 39.437761 0.558181 1.822483 0.035392 -0.011945 614670.000000 0 0 1
31.149356 19.381863 -10.020211 38.030825 0.556600 1.837420 0.050622 -0.009609 -354960.000000 0 0 1
30.995356 19.082963 -11.429511 38.151085 0.551863 1.875054 0.068633 -0.019752 385059.000000 0 0 1
29.819456 18.303363 -11.664911 36.882018 0.550509 1.892598 0.064185 -0.020559 16435.300000 0 0 1
29.626656 17.828263 -13.114611 36.980789 0.541716 1.933318 0.084725 -0.020581 -421289.000000 0 0 1
30.696256 17.062663 -13.618111 37.667593 0.507327 1.940709 0.085548 -0.015219 -167766.000000 0 0 1
30.387256 16.131663 -14.620411 37.381444 0.488037 1.972638 0.075801 -0.018107 206178.000000 0 0 1
31.649856 15.366463 -15.127611 38.297339 0.451992 1.976869 0.103725 -0.030422 317754.000000 0 0 1
32.271856 14.514963 -14.218311 38.135511 0.422664 1.952860 0.098161 -0.028747 667785.000000 0 0 1
33.483756 13.984363 -14.777511 39.180342 0.395625 1.957531 0.103693 -0.022333 808464.000000 0 0 1
34.429956 13.184363 -13.846111 39.382282 0.365707 1.930057 0.082034 -0.040816 -158361.000000 0 0 1
35.179656 13.856363 -12.891411 39.947409 0.375214 1.899387 0.081261 -0.021691 -52844.300000 0 0 1
35.810756 12.997663 -11.962011 39.930430 0.348168 1.875040 0.070930 -0.022912 -532815.000000 0 0 1
36.773056 13.827663 -11.138811 40.835463 0.359671 1.847070 0.088375 -0.018551 -338388.000000 0 0 1
-35.587005 13.906663 -11.763111 39.977506 -0.372532 1.869460 0.061397 -0.016487 823054.000000 0 0 1
-34.562605 14.246263 -10.768011 38.903467 -0.390968 1.851246 0.035150 -0.016780 559188.000000 0 0 1
-33.141505 14.552163 -11.303111 37.919455 -0.413746 1.873479 0.046006 -0.017181 612953.000000 0 0 1
-32.250105 13.498463 -11.700511 36.867055 -0.396400 1.893752 0.035483 -0.024487 427022.000000 0 0 1
-31.967605 12.521063 -10.721911 35.967543 -0.373313 1.873497 0.064579 -0.019046 -113520.000000 0 0 1
-30.748905 11.606563 -11.157611 34.708785 -0.360928 1.898071 0.089840 -0.024465 549393.000000 0 0 1
-30.949705 10.962163 -12.396011 35.095788 -0.340405 1.931791 0.085842 -0.019356 112569.000000 0 0 1
-30.271705 9.735863 -12.459511 34.152636 -0.311168 1.944234 0.092589 -0.030216 -306416.000000 0 0 1
-30.214805 9.059963 -13.823411 34.439861 -0.291321 1.983817 0.087854 -0.036730 -326331.000000 0 0 1
-31.469205 8.559463 -14.209311 35.573583 -0.265570 1.981696 0.073446 -0.031640 45903.000000 0 0 1
-31.302505 7.566263 -15.151111 35.590045 -0.237165 2.010545 0.068910 -0.034770 435199.000000 0 0 1
-32.573805 7.106563 -15.950411 36.959053 -0.214802 2.017029 0.072413 -0.036459 800647.000000 0 0 1
-33.563505 6.410563 -15.207611 37.401545 -0.188725 1.989530 0.103444 -0.039356 902660.000000 0 0 1
-34.625605 5.774163 -15.933311 38.550537 -0.165239 1.996882 0.105773 -0.037923 268366.000000 0 0 1
-35.679605 5.225463 -14.973111 39.045278 -0.145421 1.964359 0.112708 -0.027992 -692858.000000 0 0 1
-36.780205 4.610563 -15.586411 40.211652 -0.124704 1.968833 0.118446 -0.028797 -631631.000000 0 0 1
35.925956 4.344063 -14.584911 39.016213 0.120333 1.953917 0.113511 -0.029187 -305544.000000 0 0 1
34.784856 3.402363 -15.024711 38.043452 0.097501 1.976794 0.113470 -0.036901 -145410.000000 0 0 1
35.239056 2.051763 -15.170311 38.420557 0.058158 1.976700 0.123556 -0.032483 292063.000000 0 0 1
34.182956 1.126663 -15.070111 37.374485 0.032948 1.985828 0.115591 -0.027358 -67002.800000 0 0 1
33.717156 0.903363 -13.595811 36.366314 0.026786 1.953961 0.111832 -0.035795 -269175.000000 0 0 1
34.607456 0.119663 -12.788811 36.895041 0.003458 1.924769 0.124998 -0.037373 408242.000000 0 0 1
34.322556 0.091463 -11.422711 36.173534 0.002665 1.892070 0.126212 -0.029282 -336792.000000 0 0 1
34.402156 1.441063 -10.653311 36.042726 0.041864 1.870853 0.122642 -0.039043 128628.000000 0 0 1
33.435956 2.413363 -11.079211 35.306323 0.072054 1.889991 0.116518 -0.025358 724902.000000 0 0 1
33.554456 3.667163 -10.426111 35.327800 0.108858 1.870383 0.110568 -0.027906 -329655.000000 0 0 1
32.423556 4.561363 -10.929811 34.518891 0.139763 1.892974 0.103369 -0.031245 -175901.000000 0 0 1
32.652056 5.019863 -12.255511 35.235683 0.152544 1.926036 0.102386 -0.028377 946071.000000 0 0 1
31.428656 5.572863 -12.731211 34.364240 0.175494 1.950320 0.118583 -0.036946 446862.000000 0 0 1
31.711756 6.357963 -14.077711 35.273802 0.197869 1.981329 0.088467 -0.032809 -209053.000000 0 0 1
31.889356 5.524763 -15.235911 35.771316 0.171545 2.010781 0.083487 -0.024893 124837.000000 0 0 1
32.238756 6.195963 -16.457511 36.722977 0.189875 2.035494 0.086284 -0.026255 -734546.000000 0 0 1
31.204056 7.206863 -17.075211 36.293179 0.226979 2.060631 0.088258 -0.024378 501570.000000 0 0 1
29.980156 6.697663 -17.560711 35.384277 0.219794 2.090112 0.059036 -0.017948 376677.000000 0 0 1
29.111956 6.090063 -16.629511 34.075439 0.206221 2.080617 0.048211 -0.011477 -199284.000000 0 0 1
27.613456 6.001863 -17.126411 33.042992 0.214024 2.115666 0.030315 0.004576 864828.000000 0 0 1
27.539156 5.065363 -18.196911 33.394470 0.181900 2.147076 0.036415 -0.005450 155856.000000 0 0 1
26.423056 5.327363 -19.013111 32.985711 0.198951 2.185118 0.026701 -0.009362 -128694.000000 0 0 1
26.010356 4.125563 -19.897411 33.007058 0.157302 2.217831 0.031024 0.011804 -154488.000000 0 0 1
25.511556 2.992263 -19.242111 32.094423 0.116757 2.213731 0.039867 -0.003284 118390.000000 0 0 1
25.057656 2.017163 -20.144511 32.214227 0.080328 2.246350 0.037944 -0.005790 -302926.000000 0 0 1
24.041556 1.126263 -19.376611 30.898511 0.046812 2.248627 0.042227 -0.009620 462491.000000 0 0 1
22.747656 1.682363 -19.200511 29.815195 0.073823 2.270491 0.053622 -0.017434 49014.400000 0 0 1
21.806556 0.785363 -18.702411 28.738874 0.035999 2.279395 0.058992 -0.017784 8986.630000 0 0 1
20.450856 1.492563 -18.448911 27.583103 0.072854 2.303455 0.059208 -0.024375 -393214.000000 0 0 1
19.668956 1.818963 -19.585311 27.816558 0.092217 2.351935 0.056938 -0.024590 145392.000000 0 0 1
18.653956 2.763163 -19.527911 27.146721 0.147058 2.373658 0.043322 -0.023265 -546023.000000 0 0 1
17.375656 2.428563 -18.780711 25.700709 0.138869 2.390212 0.071146 -0.030725 -1239750.000000 0 0 1
17.581456 2.340663 -17.381811 24.833720 0.132354 2.346093 0.075881 -0.035340 251906.000000 0 1 0
16.400756 1.962663 -16.691811 23.483045 0.119103 2.361435 0.050300 -0.028240 52389.000000 0 1 0
15.404656 3.072263 -16.323411 22.653830 0.196854 2.375404 0.052733 -0.028257 -396440.000000 0 1 0
14.837456 3.619763 -17.463011 23.199344 0.239287 2.423007 0.054352 -0.021622 85767.900000 0 1 0
13.834956 4.545763 -17.021311 22.400782 0.317458 2.433884 0.070819 -0.033356 200323.000000 0 1 0
-20.525944 -21.739337 -17.359111 34.572415 0.814099 2.096832 0.075205 -0.019259 -32122.800000 0 0 1
-20.243344 -22.228437 -18.641311 35.375060 0.832103 2.125818 0.075309 -0.018498 475611.000000 0 0 1
-21.415444 -22.243037 -19.449511 36.491881 0.804352 2.132917 0.074017 -0.019744 357569.000000 0 0 1
-21.119744 -23.051437 -20.766311 37.532013 0.829102 2.157112 0.067923 -0.016177 63063.900000 0 0 1
-21.074144 -24.442537 -20.513911 38.241047 0.859267 2.137006 0.062949 -0.012704 241007.000000 0 0 1
-20.478344 -24.976737 -21.681111 38.900778 0.884040 2.161980 0.062936 -0.016389 -90061.200000 0 0 1
-20.210744 -26.481757 -21.609211 39.707879 0.918904 2.146237 0.058262 -0.003799 122798.000000 0 0 1
-21.365344 -27.308077 -21.663211 40.884028 0.906891 2.129243 0.068528 0.007787 181850.000000 0 0 1
-21.018944 -28.699247 -21.666311 41.651793 0.938663 2.117855 0.080782 -0.005851 182175.000000 0 0 1
-22.232744 -29.681287 -21.647011 42.940270 0.927904 2.099158 0.069268 -0.001699 618881.000000 0 0 1
-23.135044 -29.727107 -22.741711 44.001325 0.909461 2.113954 0.053846 0.000997 122474.000000 0 0 1
-22.537144 -30.149257 -23.934011 44.606473 0.928885 2.137151 0.051168 -0.006099 -590017.000000 0 0 1
-23.089144 -29.430707 -25.163521 45.083011 0.905562 2.162963 0.036006 0.000215 82165.800000 0 0 1
-24.398044 -29.749847 -25.599921 46.213352 0.883915 2.157898 0.036388 0.005291 171661.000000 0 0 1
-24.806144 -28.976607 -26.679891 46.548954 0.862786 2.181150 0.033602 0.008257 -44492.100000 0 0 1
-24.153244 -29.296667 -28.079891 47.224508 0.881332 2.207570 0.037985 -0.011518 -265503.000000 0 0 1
-24.425444 -30.591497 -28.553541 48.453552 0.897008 2.200985 0.026694 0.002733 94873.800000 0 0 1
-24.271244 -30.700537 -29.950261 49.281177 0.901825 2.224011 0.048999 -0.005033 -142313.000000 0 0 1
-24.908444 -32.013447 -30.490601 50.744144 0.909576 2.215385 0.032672 -0.010420 152461.000000 0 0 1
-24.218344 -33.201137 -30.083001 50.929664 0.940582 2.202694 0.031264 -0.016262 33615.100000 0 0 1
-24.823544 33.812805 -30.677591 51.967573 -0.937519 2.202254 0.041471 -0.016368 -272890.000000 0 0 1
-24.035044 32.513458 -30.623121 50.720645 -0.934221 2.219006 0.060540 -0.015479 204551.000000 0 0 1
-23.092344 32.446112 -31.709021 50.906468 -0.952252 2.243225 0.047441 -0.025564 262402.000000 0 0 1
-22.369144 31.249364 -31.741541 49.844024 -0.949527 2.261160 0.044341 -0.022162 418737.000000 0 0 1
-21.029044 31.196424 -32.553821 49.751269 -0.977675 2.284095 0.043650 -0.022120 456030.000000 0 0 1
-21.164444 31.081354 -33.969531 50.674582 -0.972979 2.305472 0.035054 -0.017782 122047.000000 0 0 1
-21.112744 29.759684 33.643510 49.631366 -0.953762 0.825938 0.020268 -0.010473 -37412.100000 0 0 1
-21.399144 29.621564 32.126625 48.656761 -0.945183 0.849617 0.023728 -0.009612 -85632.800000 0 0 1
-20.317244 30.107504 31.354110 47.982626 -0.977168 0.858667 0.023966 -0.003294 458955.000000 0 0 1
-20.544044 29.919394 29.985280 47.078072 -0.969089 0.880291 0.038848 0.000109 -177844.000000 0 0 1
-20.052344 31.157804 29.194450 47.172249 -0.998952 0.903467 0.023375 -0.009937 -31738.600000 0 0 1
-20.870744 32.279611 29.472070 48.437218 -0.996842 0.916679 0.042594 -0.017937 304600.000000 0 0 1
-20.236544 33.483495 29.153260 48.791133 -1.027167 0.930402 0.022481 -0.022437 -56300.300000 0 0 1
-21.228444 -33.478557 29.195640 49.232571 1.005687 0.935998 0.035012 -0.028848 228388.000000 0 0 1
-21.729744 -33.175967 30.500560 50.031098 0.990925 0.915200 0.028543 -0.019990 -13863.500000 0 0 1
-22.686544 -32.163907 30.672490 49.899878 0.956494 0.908815 0.055190 -0.025672 -248338.000000 0 0 1
-22.215044 -30.686327 30.508140 48.640574 0.944184 0.892823 0.030991 -0.013481 -676464.000000 0 0 1
-21.704944 -30.405547 29.200300 47.415814 0.950837 0.907351 0.044372 -0.013974 99411.200000 0 0 1
-21.818444 -29.054417 28.788130 46.356877 0.926687 0.900764 0.040795 -0.014247 -123004.000000 0 0 1
-23.225544 -28.675207 28.254140 46.475691 0.890016 0.917341 0.044970 -0.010577 244623.000000 0 0 1
-24.250944 -28.584107 29.292680 47.573318 0.867228 0.907475 0.043366 -0.009118 715827.000000 0 0 1
-25.217594 -29.591527 29.146870 48.591414 0.865032 0.927500 0.054944 -0.017212 -1094790.000000 0 0 1
-26.310884 -29.479127 28.118060 48.496462 0.842126 0.952318 0.044839 -0.012530 -1190870.000000 0 0 1
-25.895634 -29.632437 26.748870 47.583266 0.852593 0.973815 0.063929 -0.012705 -176757.000000 0 0 1
-26.974664 -29.769677 25.858400 47.775758 0.834615 0.998879 0.069411 -0.011759 -277119.000000 0 0 1
-26.592264 -30.050317 24.366030 46.945431 0.846373 1.025082 0.067042 -0.017182 -432122.000000 0 0 1
-25.863074 -28.950927 23.850670 45.562147 0.841672 1.019871 0.053063 -0.011876 308476.000000 0 0 1
-25.568684 -28.994787 22.440390 44.699288 0.848107 1.044852 0.076574 -0.015071 528832.000000 0 0 1
-24.332144 -29.901017 22.058590 44.415149 0.887723 1.051067 0.070844 -0.021698 114787.000000 0 0 1
-24.639144 -31.268517 22.007390 45.487721 0.903424 1.065794 0.076951 -0.024626 1151130.000000 0 0 1
-23.487544 -32.137277 21.863290 45.414455 0.939664 1.068526 0.079063 -0.019571 680453.000000 0 0 1
-22.656344 -32.651347 23.038290 45.936730 0.964185 1.045439 0.075445 -0.012910 -381013.000000 0 0 1
-21.846444 -31.667037 23.595460 45.131077 0.966895 1.020640 0.077941 -0.021567 -101208.000000 0 0 1
-21.219844 -32.246977 24.727410 45.843147 0.988789 1.001082 0.052141 -0.027274 -283804.000000 0 0 1
-20.256744 -31.368707 25.532080 45.235147 0.997406 0.971054 0.041552 -0.014635 -863729.000000 0 0 1
-19.074844 -31.025447 24.854990 44.093067 1.019556 0.971945 0.042424 -0.015934 256851.000000 0 0 1
-18.053744 -30.407107 25.611050 43.662979 1.034997 0.943989 0.060887 -0.020076 -19440.100000 0 0 1
-17.288544 -31.240847 26.631520 44.543486 1.065350 0.929946 0.037643 -0.019935 -917512.000000 0 0 1
-18.113244 -31.749727 27.676220 45.848751 1.052350 0.922735 0.026825 -0.012078 44379.300000 0 0 1
-17.366244 -32.283857 28.701320 46.557487 1.077272 0.906544 0.034041 -0.012569 -520465.000000 0 0 1
-17.870744 -31.677307 30.016060 47.156963 1.057155 0.880827 0.044271 -0.014458 -141645.000000 0 0 1
-17.463744 -30.381257 30.178330 46.246456 1.049098 0.859846 0.049050 -0.010574 170712.000000 0 0 1
-17.849544 -29.792937 31.408520 46.826493 1.031024 0.835587 0.049601 -0.010627 -188855.000000 0 0 1
-17.564244 -28.273127 31.506870 45.831815 1.014909 0.812831 0.064456 -0.016560 -192164.000000 0 0 1
-18.423644 -27.379287 30.843620 45.170620 0.978488 0.819174 0.059765 -0.015641 -67768.600000 0 0 1
-18.542744 -27.418097 29.407150 44.276019 0.976157 0.844403 0.061074 -0.015559 384642.000000 0 0 1
-17.237144 -27.194357 28.534930 43.022022 1.005858 0.845625 0.060954 -0.011722 697783.000000 0 0 1
-16.829644 -25.848607 28.538560 42.021861 0.993659 0.824211 0.059428 -0.005322 717205.000000 0 0 1
-15.695044 -25.649017 27.663910 40.859496 1.021661 0.827050 0.055124 -0.000609 754101.000000 0 0 1
-15.817744 -24.250637 26.915740 39.531652 0.992833 0.821853 0.053806 0.005123 -606216.000000 0 0 1
-16.829144 -24.177637 25.981050 39.278406 0.962718 0.848034 0.057685 -0.003281 -543858.000000 0 0 1
-16.707544 -22.988737 25.187960 37.974431 0.942328 0.845593 0.050973 -0.002821 -155010.000000 0 0 1
-17.308144 -21.735437 25.766000 37.893110 0.898310 0.823081 0.061733 -0.000471 -731562.000000 0 0 1
-17.154644 -20.766937 24.767920 36.592313 0.880369 0.827306 0.059362 -0.001771 190015.000000 0 0 1
-17.558944 -19.537037 25.306000 36.474730 0.838671 0.804050 0.061786 0.002314 -165205.000000 0 0 1
-17.154744 -18.356537 24.412020 35.031335 0.819228 0.799783 0.052193 -0.004798 1205190.000000 0 0 1
-15.722444 -18.157437 24.393110 34.233194 0.857146 0.777660 0.055837 -0.013739 840351.000000 0 0 1
-15.425544 -16.908737 23.729120 32.968529 0.831237 0.767353 0.054468 -0.009058 167607.000000 0 0 1
-13.976644 -16.439937 23.985460 32.263298 0.866207 0.732614 0.073249 -0.018978 -250358.000000 0 0 1
-13.005044 -17.340337 23.456920 31.938152 0.927303 0.745943 0.062268 -0.020205 378572.000000 0 0 1
-11.704944 -16.746237 23.543920 31.173039 0.960769 0.714737 0.066722 -0.024130 221086.000000 0 0 1
-11.322444 -15.753837 22.370290 29.610994 0.947623 0.714421 0.079294 -0.029881 -568499.000000 0 0 1
-10.888044 -16.363737 21.157890 28.878672 0.983688 0.748592 0.101463 -0.028236 884502.000000 0 0 1
-9.533844 -16.859737 21.246790 28.750148 1.056146 0.739189 0.086694 -0.029532 341086.000000 0 0 1
-9.224844 -17.978937 20.285090 28.632583 1.096730 0.783480 0.088840 -0.030852 -22442.200000 0 0 1
-9.370344 -17.702037 18.914790 27.548770 1.083955 0.814004 0.083020 -0.032920 -118903.000000 0 0 1
-9.118744 -18.841637 18.065190 27.649772 1.120057 0.858785 0.078839 -0.028817 -97898.500000 0 0 1
-8.776644 -18.404037 16.697890 26.354461 1.125810 0.884613 0.082887 -0.033586 34477.200000 0 0 1
-7.602844 -17.616037 16.612190 25.378985 1.163360 0.857190 0.106604 -0.036385 -176878.000000 0 0 1
-7.355144 -17.297737 15.204390 24.176090 1.168749 0.890656 0.120653 -0.041564 -628431.000000 0 1 0
-6.106744 -16.459837 15.171790 23.203486 1.215529 0.858124 0.085484 -0.034939 -663292.000000 0 1 0
-6.271544 -15.128237 15.628190 22.637052 1.177803 0.808781 0.093943 -0.046340 156671.000000 0 1 0
-5.018944 -14.563337 16.011590 22.218272 1.238915 0.766057 0.063020 -0.020380 27806.700000 0 1 0
-4.879144 -13.785037 17.329890 22.675061 1.230611 0.700886 0.025814 0.006235 -795970.000000 0 1 0
-4.751844 -14.665537 18.452090 24.044493 1.257456 0.695998 0.048078 0.010659 464943.000000 0 1 0
-5.911444 -15.428937 18.904290 25.107159 1.204908 0.718272 0.090488 -0.025824 707601.000000 0 0 1
-7.152044 -14.676537 19.340990 25.310598 1.117351 0.701080 0.123905 -0.035116 -823271.000000 0 0 1
-6.818044 -13.808537 20.401390 25.561262 1.112157 0.646600 0.109440 -0.030547 558334.000000 0 0 1
-7.958544 -13.225137 21.073890 26.121859 1.029073 0.632160 0.108225 -0.019179 882590.000000 0 0 1
-7.555644 -12.055137 22.012090 26.209658 1.010934 0.573796 0.083757 -0.008323 -715969.000000 0 0 1
-7.122344 -10.882437 21.355690 25.004414 0.991278 0.547023 0.045477 -0.004569 61128.500000 0 0 1
-6.654044 -9.902537 22.314890 25.303969 0.979143 0.490976 0.033663 -0.009503 305256.000000 0 0 1
-5.233744 -10.177637 22.858690 25.563569 1.095822 0.464178 0.030501 0.000031 -268404.000000 0 0 1
-5.324844 -11.253437 23.803850 26.862931 1.128838 0.481886 0.055291 0.008253 -365972.000000 0 0 1
-4.025344 -11.547137 24.245480 27.154798 1.235368 0.467136 0.041314 0.010192 -419431.000000 0 0 1
-3.875944 -12.808937 25.116360 28.459152 1.276959 0.489558 0.052406 -0.004076 245286.000000 0 0 1
-2.614044 -13.002837 25.760800 28.974572 1.372404 0.475458 0.031734 -0.002294 546603.000000 0 0 1
-2.645544 -14.132837 26.637720 30.270516 1.385747 0.494957 0.036642 -0.005803 -42660.400000 0 0 1
-2.668544 -15.599537 26.032540 30.465716 1.401371 0.546235 0.052067 -0.021980 -61862.000000 0 0 1
-1.512544 -16.030237 25.331120 30.015362 1.476719 0.566213 0.047065 -0.025301 74162.800000 0 0 1
-1.580044 -17.395737 24.907420 30.421831 1.480216 0.611592 0.061052 -0.025916 191720.000000 0 0 1
-0.199644 -18.150637 24.967260 30.868261 1.559798 0.628632 0.059750 -0.034611 730667.000000 0 0 1
0.296756 -18.519337 26.212100 32.095609 -1.554774 0.615148 0.066286 -0.034641 -227705.000000 0 0 1
0.739456 -17.511837 27.018870 32.206064 -1.528595 0.575469 0.065653 -0.035530 -508708.000000 0 0 1
1.572456 -17.971437 28.251680 33.520182 -1.483521 0.568284 0.059625 -0.033248 270153.000000 0 0 1
2.739956 -18.790837 27.973280 33.809870 -1.426003 0.596387 0.067512 -0.034658 1157870.000000 0 0 1
3.650456 -19.003137 29.047700 34.902922 -1.381011 0.587656 0.075162 -0.040400 386040.000000 0 0 1
4.463156 -17.757937 29.458960 34.685652 -1.324563 0.556115 0.071198 -0.033215 -944566.000000 0 0 1
3.624356 -16.767637 30.046630 34.598983 -1.357919 0.518779 0.067468 -0.040654 -76833.900000 0 0 1
4.324356 -15.598837 30.389060 34.431363 -1.300365 0.489436 0.071781 -0.038499 -55274.300000 0 0 1
3.399656 -14.582837 31.096750 34.514123 -1.341760 0.448759 0.069555 -0.035351 61157.300000 0 0 1
2.834656 -15.163437 32.252976 35.752197 -1.385989 0.446125 0.070812 -0.041457 48169.600000 0 0 1
1.925456 -14.205237 32.811759 35.806531 -1.436072 0.411899 0.064553 -0.030103 256866.000000 0 0 1
1.059256 -14.884737 33.908089 37.046402 -1.499752 0.414577 0.055281 -0.027419 170543.000000 0 0 1
1.717556 -14.892937 -32.961031 36.210208 -1.455977 2.714730 0.082220 -0.025441 264746.000000 0 0 1
0.873956 -15.413137 -31.911531 35.449604 -1.514155 2.691012 0.062071 -0.029884 554841.000000 0 0 1
1.753356 -15.718737 -30.676111 34.513429 -1.459710 2.665553 0.081774 -0.024243 147588.000000 0 0 1
1.039856 -16.276837 -29.593551 33.790457 -1.506997 2.637879 0.077089 -0.023939 -909427.000000 0 0 1
1.699456 -16.211437 -28.403161 32.748106 -1.466347 2.620593 0.080801 -0.020308 -437121.000000 0 0 1
1.398856 -17.366637 -27.395311 32.466290 -1.490421 2.575136 0.091777 -0.021711 -357887.000000 0 0 1
1.984756 -18.504137 -27.892221 33.530857 -1.463945 2.553206 0.101505 -0.026367 -175478.000000 0 0 1
1.637656 -19.603437 -27.086881 33.476496 -1.487451 2.513469 0.096944 -0.023890 -814213.000000 0 0 1
2.506956 -20.817137 -27.391411 34.495325 -1.450946 2.488258 0.097529 -0.028053 -180356.000000 0 0 1
3.801556 -20.849137 -26.835051 34.194420 -1.390441 2.473135 0.093369 -0.029611 -163519.000000 0 0 1
3.868956 -21.034637 -25.428001 33.226616 -1.388897 2.442288 0.092472 -0.027207 -903450.000000 0 0 1
5.346956 -21.201137 -24.968411 33.188849 -1.323747 2.422363 0.088975 -0.025608 667354.000000 0 0 1
5.950056 -22.507137 -25.173851 34.288441 -1.312346 2.395253 0.089646 -0.024102 339320.000000 0 0 1
6.122756 -22.874137 -26.525691 35.557370 -1.309256 2.412827 0.082900 -0.022397 -625349.000000 0 0 1
5.336356 -24.155937 -26.865321 36.520289 -1.353376 2.397389 0.066512 -0.025403 57753.000000 0 0 1
5.934556 -25.237137 -26.232331 36.881801 -1.339841 2.362077 0.082528 -0.020309 -360071.000000 0 0 1
5.350356 -26.390497 -26.659931 37.892434 -1.370769 2.351203 0.073047 -0.019060 -153422.000000 0 0 1
5.529456 -27.557397 -25.683491 38.073964 -1.372774 2.311176 0.085115 -0.025308 857107.000000 0 0 1
6.902556 -27.901267 -25.435791 38.381056 -1.328274 2.295238 0.106466 -0.028874 494833.000000 0 0 1
6.993656 -29.260607 -25.034891 39.138729 -1.336185 2.264833 0.107660 -0.031829 331021.000000 0 0 1
8.393756 -29.905357 -25.238021 40.021785 -1.297160 2.253132 0.098140 -0.029985 123483.000000 0 0 1
8.786756 -30.059887 -26.550711 41.057815 -1.286411 2.274002 0.097496 -0.031036 -65584.000000 0 0 1
10.129356 -30.496127 -26.613921 41.724315 -1.250109 2.262502 0.132147 -0.025921 -24315.800000 0 0 1
10.751956 -30.435007 -27.990111 42.724004 -1.231206 2.285161 0.120673 -0.039382 -87333.000000 0 0 1
10.313556 -31.398427 -28.938821 43.928192 -1.253426 2.289986 0.115954 -0.042165 -35080.700000 0 0 1
10.670956 -30.869687 -30.228271 44.503430 -1.237977 2.317516 0.111354 -0.036070 88403.500000 0 0 1
-34.967912 -4.844237 -5.830711 35.780143 0.137658 1.734486 0.171365 -0.044189 11174.000000 0 0 1
-34.712243 -4.259637 -4.568111 35.269703 0.122102 1.700681 0.163365 -0.051721 463370.000000 0 0 1
-33.750954 -3.210637 -4.480311 34.198074 0.094842 1.702185 0.164895 -0.058963 -34257.600000 0 0 1
-34.177942 -1.857037 -5.052511 34.599251 0.054281 1.717350 0.206896 -0.047497 -241458.000000 0 0 1
-35.179551 -1.191537 -4.309511 35.462550 0.033857 1.692620 0.160085 -0.042150 234401.000000 0 0 1
-35.723658 -0.130137 -5.061011 36.080611 0.003643 1.711530 0.136414 -0.045851 -197188.000000 0 0 1
36.713248 0.525663 -4.362311 36.975244 0.014317 1.689051 0.156201 -0.046666 80018.100000 0 0 1
-36.455924 1.399163 -3.319311 36.633453 -0.038361 1.661530 0.150994 -0.037797 -1258.880000 0 0 1
36.093908 2.186363 -2.924311 36.278119 0.060500 1.651492 0.130725 -0.034580 -946940.000000 0 0 1
36.508028 3.339763 -1.962111 36.712940 0.091226 1.624266 0.112728 -0.035059 304996.000000 0 0 1
-36.349134 4.375463 -2.612511 36.704624 -0.119797 1.642033 0.141624 -0.045484 1043000.000000 0 0 1
-34.997817 4.089663 -2.969311 35.360845 -0.116327 1.654867 0.126188 -0.035808 -404638.000000 0 0 1
-34.092086 5.305663 -2.936211 34.627181 -0.154389 1.655693 0.113730 -0.043109 -328873.000000 0 0 1
-33.516524 5.670363 -1.696411 34.035102 -0.167594 1.620660 0.128358 -0.041850 -118501.000000 0 0 1
-32.782184 6.797263 -1.829211 33.529395 -0.204449 1.625379 0.130330 -0.051015 -691412.000000 0 0 1
-32.159994 7.386263 -0.559611 33.002049 -0.225757 1.587754 0.128584 -0.043352 -250995.000000 0 0 1
-30.859704 6.935363 -0.205111 31.630091 -0.221066 1.577281 0.149741 -0.041514 543634.000000 0 0 1
-30.368644 7.372163 1.058489 31.268574 -0.238149 1.536938 0.152350 -0.035911 24434.600000 0 0 1
-30.266124 8.901363 1.347489 31.576704 -0.286038 1.528110 0.157986 -0.035386 -1127880.000000 0 0 1
-31.501104 9.519363 1.525089 32.943341 -0.293466 1.524485 0.151340 -0.035907 -663661.000000 0 0 1
-31.533514 10.929063 1.690389 33.416527 -0.333630 1.520189 0.138749 -0.024781 -121277.000000 0 0 1
-32.987344 11.423363 1.808389 34.956091 -0.333371 1.519040 0.135235 -0.034859 -299675.000000 0 0 1
-33.693084 11.364863 0.593889 35.563137 -0.325321 1.554096 0.114929 -0.025404 424841.000000 0 0 1
-34.906644 12.105263 0.620889 36.951274 -0.333812 1.553993 0.107538 -0.013495 883239.000000 0 0 1
-36.264554 11.372663 0.862789 38.015782 -0.303889 1.548099 0.114663 -0.035295 414488.000000 0 0 1
-36.692574 10.694163 -0.308811 38.220484 -0.283597 1.578876 0.123104 -0.032091 355258.000000 0 0 1
35.793298 9.874863 -0.008511 37.130488 0.269190 1.571026 0.139696 -0.033090 560915.000000 0 0 1
35.479208 8.865863 -1.122011 36.587383 0.244874 1.601468 0.133330 -0.045321 13410.400000 0 0 1
34.897788 9.468263 -2.257611 36.229827 0.264936 1.633150 0.131231 -0.047603 80346.800000 0 0 1
34.703048 8.481163 -3.204011 35.867776 0.239694 1.660244 0.115013 -0.053544 -227081.000000 0 0 1
34.019828 8.904763 -4.487811 35.451148 0.256009 1.697728 0.096313 -0.045751 -245112.000000 0 0 1
32.630408 9.121463 -4.443711 34.171496 0.272581 1.701207 0.122562 -0.045577 84415.800000 0 0 1
32.165448 9.515563 -5.745211 34.031888 0.287628 1.740427 0.103727 -0.033112 -382598.000000 0 0 1
30.738128 10.059663 -5.753111 32.850078 0.316284 1.746837 0.130775 -0.032476 -707801.000000 0 0 1
29.735908 9.100763 -5.790811 31.631971 0.297001 1.754903 0.130199 -0.026697 408996.000000 0 0 1
28.449718 9.707363 -5.957711 30.644961 0.328824 1.766453 0.133209 -0.016461 460376.000000 0 0 1
27.280418 8.696863 -6.092511 29.274141 0.308610 1.780448 0.152047 -0.015235 -190884.000000 0 0 1
27.379218 7.714763 -7.143011 29.328514 0.274653 1.816823 0.152597 -0.018617 771244.000000 0 0 1
26.266018 6.806763 -7.246011 28.084522 0.253569 1.831755 0.159486 -0.024329 492602.000000 0 0 1
26.491418 5.851963 -8.387211 28.396936 0.217409 1.870625 0.155187 -0.036758 -238142.000000 0 0 1
27.489718 4.910763 -8.134311 29.085515 0.176775 1.854245 0.148038 -0.039279 151572.000000 0 0 1
27.657318 3.989263 -9.193311 29.416975 0.143251 1.888638 0.134017 -0.036473 -336319.000000 0 0 1
28.610678 2.794763 -9.011111 30.126097 0.097374 1.874559 0.119583 -0.034940 -436497.000000 0 0 1
29.975448 3.154163 -9.094811 31.483199 0.104839 1.863851 0.138083 -0.028393 526303.000000 0 0 1
30.855408 2.600663 -8.127111 32.013584 0.084087 1.827470 0.118723 -0.038890 179964.000000 0 0 1
31.047788 1.021663 -8.130411 32.110941 0.032894 1.826780 0.121218 -0.038790 -402448.000000 0 0 1
29.845888 0.478063 -7.587011 30.798836 0.016016 1.819699 0.143511 -0.040655 765116.000000 0 0 1
30.046558 -0.892437 -7.078111 30.881900 -0.029693 1.802051 0.141833 -0.036443 -167357.000000 0 0 1
30.095438 -1.928337 -8.234811 31.261253 -0.063987 1.837361 0.129100 -0.027237 -920645.000000 0 0 1
31.182298 -1.898837 -9.080611 32.533041 -0.060820 1.853674 0.128109 -0.028505 -473310.000000 0 0 1
31.012708 -2.978337 -9.976511 32.713748 -0.095742 1.880697 0.114259 -0.034640 -333680.000000 0 0 1
32.097928 -3.109037 -11.059911 34.092004 -0.096560 1.901188 0.122625 -0.038378 -492085.000000 0 0 1
33.322868 -3.490537 -10.473211 35.103924 -0.104368 1.873758 0.140178 -0.032403 -86336.800000 0 0 1
34.199768 -3.917737 -11.498011 36.292934 -0.114057 1.893162 0.135183 -0.043249 -107409.000000 0 0 1
35.655818 -4.150637 -11.036011 37.554742 -0.115887 1.869064 0.139765 -0.035932 -195205.000000 0 0 1
35.935008 -5.347237 -10.439211 37.800726 -0.147719 1.850597 0.131702 -0.041781 -278801.000000 0 0 1
-36.359534 -5.294037 -10.020211 38.084736 0.144586 1.837034 0.142955 -0.039928 -433692.000000 0 0 1
-36.004242 -6.607037 -9.251311 37.756392 0.181488 1.818343 0.124735 -0.038438 -224596.000000 0 0 1
-36.646914 -6.727737 -8.004311 38.109418 0.181561 1.782407 0.138524 -0.033306 412601.000000 0 0 1
36.342798 -7.987937 -7.779911 38.014906 -0.216354 1.776907 0.126229 -0.020110 -214043.000000 0 0 1
36.011748 -8.153237 -6.292511 37.455533 -0.222651 1.739596 0.131210 -0.016276 -114353.000000 0 0 1
-36.485834 -8.273537 -5.431311 37.804320 0.222989 1.714964 0.122866 -0.015109 431140.000000 0 0 1
-36.772334 -8.894537 -4.219911 38.067374 0.237323 1.681878 0.124090 -0.021488 -250573.000000 0 0 1
36.750588 -10.451037 -4.213211 38.439316 -0.277063 1.680624 0.121931 -0.027674 192345.000000 0 0 1
35.672498 -10.835637 -5.041011 37.621137 -0.294897 1.705195 0.098883 -0.028504 280592.000000 0 0 1
36.096458 -12.043937 -5.688111 38.475515 -0.322044 1.719177 0.096032 -0.026539 289922.000000 0 0 1
35.513538 -12.190237 -7.108211 38.214394 -0.330654 1.757895 0.086656 -0.023057 46782.100000 0 0 1
36.082808 -11.188837 -7.922511 38.599550 -0.300686 1.777514 0.130741 -0.023215 283904.000000 0 0 1
36.059588 -11.687537 -9.261911 39.021473 -0.313433 1.810438 0.117145 -0.012624 96680.500000 0 0 1
36.570088 -10.701237 -10.356611 39.486038 -0.284675 1.836186 0.110757 -0.019582 -158473.000000 0 0 1
35.582928 -9.737437 -10.727411 38.419263 -0.267115 1.853778 0.107994 -0.019582 630457.000000 0 0 1
36.032108 -8.884637 -11.807211 38.944317 -0.241753 1.878826 0.107106 -0.025679 -502619.000000 0 0 1
34.927268 -8.020937 -12.410911 37.924665 -0.225733 1.904190 0.110896 -0.033232 -251636.000000 0 0 1
35.421058 -7.246937 -13.512511 38.597375 -0.201809 1.928462 0.116449 -0.031495 637550.000000 0 0 1
34.353108 -6.532537 -14.108811 37.707673 -0.187915 1.954290 0.118201 -0.036776 58892.600000 0 0 1
34.756458 -5.525837 -15.187111 38.330074 -0.157668 1.978192 0.109711 -0.041114 -388618.000000 0 0 1
35.389058 -4.328537 -14.778611 38.594417 -0.121708 1.963753 0.101882 -0.030665 97624.600000 0 0 1
35.028788 -3.182537 -15.480111 38.428874 -0.090606 1.985398 0.127526 -0.043403 -269333.000000 0 0 1
36.221698 -2.210537 -15.617211 39.506900 -0.060952 1.977194 0.114247 -0.044648 -1082220.000000 0 0 1
-36.485094 -2.730137 -16.514411 40.141518 0.074690 1.994791 0.130088 -0.036829 1943040.000000 0 0 1
-35.091461 -2.234937 -16.309011 38.760668 0.063603 2.005081 0.118155 -0.022653 2380330.000000 0 0 1
-34.756246 -0.714037 -16.106611 38.313566 0.020541 2.004671 0.107819 -0.009293 -1151900.000000 0 0 1
-35.169817 0.147563 -17.161611 39.133856 -0.004196 2.024766 0.104184 -0.017360 294626.000000 0 0 1
-34.941286 1.499763 -16.838711 38.816039 -0.042896 2.019511 0.099805 -0.023880 203916.000000 0 0 1
-35.407491 2.494963 -17.972811 39.786143 -0.070348 2.039506 0.106291 -0.026058 14317.700000 0 0 1
-34.410699 2.603863 -18.940211 39.365059 -0.075526 2.072754 0.075037 -0.011235 147649.000000 0 0 1
-34.805504 3.549163 -19.885611 40.242480 -0.101620 2.087647 0.073189 -0.012989 -662519.000000 0 0 1
-33.848564 3.615963 -21.028811 40.012640 -0.106424 2.124163 0.062884 -0.008887 -298047.000000 0 0 1
-32.514604 4.042963 -20.759511 38.787914 -0.123708 2.135548 0.063313 -0.016212 600987.000000 0 0 1
-31.846294 4.055263 -22.019011 38.929018 -0.126657 2.171981 0.064403 -0.017571 1044750.000000 0 0 1
-30.287534 4.339363 -21.988311 37.678251 -0.142304 2.193928 0.058700 -0.019209 1017950.000000 0 0 1
-29.588114 3.380163 -21.296311 36.611676 -0.113747 2.191590 0.074219 -0.012222 -1527580.000000 0 0 1
-28.232304 3.480063 -21.341211 35.561511 -0.122647 2.214449 0.058813 -0.008972 -1470160.000000 0 0 1
-27.412054 2.531363 -20.477511 34.309721 -0.092084 2.210357 0.079867 -0.015363 -272481.000000 0 0 1
-27.179744 3.004763 -19.164211 33.392126 -0.110104 2.182074 0.059699 0.002683 -168973.000000 0 0 1
-26.628034 1.945663 -18.437511 32.446565 -0.072939 2.175165 0.062062 0.001032 -201087.000000 0 0 1
-25.861264 2.580063 -17.193011 31.161857 -0.099437 2.155237 0.070513 0.003539 889952.000000 0 0 1
-24.617944 3.259063 -17.402711 30.323572 -0.131620 2.182057 0.060201 -0.004006 973214.000000 0 0 1
-23.858244 3.490863 -16.200111 29.049019 -0.145286 2.162387 0.086320 -0.010845 671629.000000 0 0 1
-22.682144 4.497263 -16.347811 28.318827 -0.195735 2.186186 0.096034 -0.025715 997107.000000 0 0 1
-21.618444 4.066063 -17.223011 27.937825 -0.185911 2.235056 0.123543 -0.033684 1012310.000000 0 0 1
-20.455044 4.877863 -17.190011 27.160612 -0.234095 2.256092 0.118333 -0.033354 820383.000000 0 0 1
-19.136144 4.151463 -17.622311 26.343357 -0.213633 2.303588 0.149069 -0.040471 373685.000000 0 0 1
-18.843044 3.056463 -16.773911 25.411933 -0.160806 2.291722 0.174731 -0.031535 279110.000000 0 0 1
-17.840544 2.225563 -17.375011 25.002583 -0.124106 2.339117 0.129984 -0.033209 -253063.000000 0 0 1
-17.849544 0.717963 -17.074611 24.711617 -0.040201 2.333605 0.137514 -0.030744 84922.200000 0 1 0
-18.723744 -0.170737 -17.766111 25.811672 0.009119 2.329936 0.106397 -0.032387 727180.000000 0 0 1
-20.065644 -0.050037 -17.278411 26.479729 0.002494 2.281695 0.125477 -0.043202 504085.000000 0 0 1
-21.020344 -1.235537 -17.677511 27.493195 0.058711 2.269176 0.112467 -0.047971 86323.700000 0 0 1
-20.824644 -2.420337 -17.009311 26.997046 0.115706 2.252405 0.098963 -0.034833 412849.000000 0 0 1
-21.840144 -3.343737 -17.356211 28.096450 0.151921 2.236658 0.088819 -0.017364 80112.000000 0 0 1
-22.281844 -4.382737 -16.297611 27.951763 0.194216 2.193289 0.099396 -0.022761 -55728.600000 0 0 1
-22.846844 -3.802837 -15.135311 27.667986 0.164937 2.149613 0.090899 -0.033541 394185.000000 0 0 1
-23.198444 -4.808537 -14.166711 27.604085 0.204384 2.109718 0.098102 -0.041577 -76413.300000 0 0 1
-23.360144 -4.180737 -12.776511 26.952071 0.177094 2.064676 0.104288 -0.046038 354580.000000 0 0 1
-24.507944 -3.317037 -12.770911 27.834119 0.134528 2.047465 0.089146 -0.040441 796848.000000 0 0 1
-24.651844 -2.609737 -11.575611 27.359073 0.105471 2.007660 0.113574 -0.047394 -278709.000000 0 0 1
-25.847094 -1.645737 -11.379211 28.288993 0.063586 1.984768 0.134476 -0.039503 -500620.000000 0 0 1
-25.842844 -1.184137 -10.041111 27.750291 0.045789 1.941035 0.131861 -0.045258 712063.000000 0 0 1
-26.452404 0.104463 -9.860811 28.230766 -0.003949 1.927613 0.140149 -0.044172 -297931.000000 0 0 1
-26.770834 0.399863 -8.372111 28.052267 -0.014935 1.873861 0.139147 -0.040344 658712.000000 0 0 1
-25.596084 0.727863 -7.575811 26.703599 -0.028429 1.858447 0.130208 -0.038801 1346290.000000 0 0 1
-25.849884 1.018863 -6.258911 26.616321 -0.039394 1.808172 0.127195 -0.042758 -441454.000000 0 0 1
-24.520844 1.300163 -5.561211 25.177158 -0.052973 1.793516 0.089635 -0.029514 -263644.000000 0 0 1
-24.044744 2.621863 -5.791811 24.871046 -0.108612 1.805828 0.109780 -0.030828 582763.000000 0 1 0
-22.715044 2.867163 -5.354711 23.513119 -0.125559 1.800545 0.089656 -0.016620 220199.000000 0 1 0
-22.251344 4.344463 -5.408111 23.307602 -0.192819 1.804963 0.098883 -0.026061 -136921.000000 0 1 0
-22.917944 5.155263 -4.427111 23.904146 -0.221262 1.757074 0.108182 -0.028874 931142.000000 0 1 0
-22.673944 6.564863 -4.575111 24.044475 -0.281827 1.762241 0.117092 -0.033027 -540319.000000 0 1 0
-23.135444 7.449163 -3.384311 24.539607 -0.311498 1.709149 0.105899 -0.027685 387376.000000 0 1 0
-22.231044 7.373063 -2.242611 23.528932 -0.320240 1.666254 0.077406 -0.023475 1154410.000000 0 1 0
-20.913644 7.855563 -2.365311 22.465196 -0.359313 1.676280 0.098009 -0.021913 -476579.000000 0 1 0
-20.679344 9.371863 -2.535311 22.845018 -0.425511 1.682004 0.106793 -0.022335 -702709.000000 0 1 0
-20.674944 9.823963 -3.901411 23.220348 -0.443581 1.739614 0.097341 -0.020597 496052.000000 0 1 0
-20.038044 11.076963 -3.947611 23.233724 -0.504988 1.741533 0.102765 -0.017457 -185236.000000 0 1 0
-19.949444 11.548463 -5.427811 23.681394 -0.524750 1.802054 0.106122 -0.023237 147760.000000 0 1 0
-18.889144 10.905263 -6.121011 22.653725 -0.523583 1.844396 0.079728 -0.023427 221056.000000 0 1 0
-18.973544 11.283363 -7.516511 23.319682 -0.536505 1.898981 0.092877 -0.019757 708912.000000 0 1 0
-17.618544 11.219663 -8.321411 22.484212 -0.567047 1.949913 0.072274 -0.008706 802454.000000 0 1 0
-17.042444 9.931663 -8.622211 21.527316 -0.527647 1.982885 0.040923 -0.012242 527111.000000 0 1 0
-17.783844 9.034863 -9.460711 22.077112 -0.470057 2.013662 0.049380 -0.015762 -266969.000000 0 1 0
-18.007244 9.349863 -10.961311 23.061463 -0.478911 2.066111 0.063752 -0.019533 920873.000000 0 1 0
-16.793544 9.378163 -11.748811 22.539024 -0.509299 2.119129 0.053856 -0.014626 799968.000000 0 1 0
-17.008244 10.193263 -12.864311 23.636274 -0.539914 2.146305 0.067082 -0.018663 616300.000000 0 1 0
-15.934544 9.916863 -13.992511 23.410344 -0.556691 2.211433 0.041341 -0.010522 206580.000000 0 1 0
-15.933444 8.663063 -14.714411 23.354596 -0.497996 2.252406 0.051921 -0.027153 -18463.600000 0 1 0
-15.577344 7.490463 -13.978211 22.229509 -0.448216 2.250822 0.048854 -0.017468 -355085.000000 0 1 0
-15.767344 6.214863 -14.797211 22.498691 -0.375462 2.288547 0.070110 -0.014775 -346686.000000 0 1 0
-14.836844 6.041163 -15.812911 22.509459 -0.386675 2.349702 0.086475 -0.019586 -77054.600000 0 1 0
-15.092044 4.869063 -16.574011 22.938513 -0.312082 2.378267 0.098793 -0.016489 53923.400000 0 1 0
32.908928 -16.110437 28.173100 46.219771 -0.455250 0.915308 0.050836 0.002839 -250156.000000 0 0 1
32.270918 -14.873837 28.132370 45.321887 -0.431886 0.901131 0.058809 0.006778 -25375.400000 0 0 1
31.222078 -14.710037 29.088990 45.137265 -0.440296 0.870484 0.067260 -0.007714 346570.000000 0 0 1
31.543738 -14.643937 30.632710 46.344527 -0.434634 0.848675 0.057250 -0.016385 2089.660000 0 0 1
32.408098 -13.625137 31.099320 46.937159 -0.397988 0.846547 0.038736 -0.016374 63046.300000 0 0 1
32.441538 -13.590437 32.503277 47.891715 -0.396710 0.824829 0.023243 -0.015049 -48511.900000 0 0 1
32.944418 -12.300637 33.101737 48.294568 -0.357346 0.815625 0.026684 -0.019981 -42923.200000 0 0 1
32.488778 -12.161937 -33.693191 48.359741 -0.358194 2.341611 0.014554 -0.028374 69888.000000 0 0 1
32.504468 -10.829437 -33.402731 47.849343 -0.321601 2.343511 0.049912 -0.024353 -103944.000000 0 0 1
32.074988 -10.570437 -31.956541 46.494726 -0.318345 2.328583 0.047399 -0.023933 -259731.000000 0 0 1
30.695808 -10.677537 -31.733601 45.423164 -0.334758 2.344265 0.099582 -0.026869 -285385.000000 0 0 1
30.387008 -10.306537 -30.419601 44.214784 -0.327000 2.329521 0.076453 -0.014676 451293.000000 0 0 1
28.945408 -10.705237 -29.965761 43.016108 -0.354241 2.341468 0.075638 -0.010966 437230.000000 0 0 1
28.593618 -10.309037 -28.654051 41.772310 -0.346030 2.326716 0.062366 -0.008309 653415.000000 0 0 1
27.548518 -11.177137 -28.161581 40.950261 -0.385432 2.329115 0.079145 -0.011670 -88011.700000 0 0 1
27.166318 -10.938937 -26.661441 39.604313 -0.382802 2.309318 0.077179 -0.008238 -682899.000000 0 0 1
26.387418 -9.765637 -26.378281 38.567826 -0.354456 2.323953 0.064851 -0.012207 1232200.000000 0 0 1
25.098818 -9.540037 -26.985401 38.068029 -0.363234 2.358696 0.075318 -0.013987 1190570.000000 0 0 1
23.995518 -10.611237 -26.713901 37.443501 -0.416363 2.365200 0.085972 -0.003012 -486597.000000 0 0 1
24.432518 -11.806237 -27.336761 38.517966 -0.450132 2.359889 0.078430 -0.012837 -40995.300000 0 0 1
23.565818 -12.867237 -26.981631 38.064708 -0.499777 2.358643 0.084766 -0.029382 239144.000000 0 0 1
24.234118 -14.122437 -27.566271 39.327281 -0.527639 2.347518 0.071950 -0.010396 301553.000000 0 0 1
24.333618 -14.164837 -29.004161 40.422876 -0.527161 2.371029 0.081201 -0.021496 -206349.000000 0 0 1
25.565818 -14.636937 -29.438221 41.646847 -0.519968 2.355836 0.070763 -0.021184 -571286.000000 0 0 1
25.511318 -14.581937 -30.980681 42.699682 -0.519266 2.382627 0.099942 -0.026494 747734.000000 0 0 1
24.519118 -15.487137 -31.554531 42.857053 -0.563356 2.398344 0.112832 -0.020854 811981.000000 0 0 1
24.683718 -15.593937 -32.949991 44.024524 -0.563438 2.416513 0.130756 -0.022054 -115591.000000 0 0 1
24.692618 -14.441237 -33.987331 44.423118 -0.529198 2.441965 0.107339 -0.025434 -185090.000000 0 0 1
23.455818 -13.929537 33.644138 43.314379 -0.535895 0.681319 0.106721 -0.024346 53693.300000 0 0 1
23.596918 -12.895637 32.664069 42.309023 -0.500150 0.688759 0.098282 -0.027021 -855268.000000 0 0 1
22.579318 -11.838437 32.978318 41.683853 -0.482902 0.658104 0.090990 -0.030908 989333.000000 0 0 1
21.173218 -12.132737 32.769257 40.857468 -0.520347 0.640096 0.071175 -0.026271 1570730.000000 0 0 1
20.714718 -12.315737 31.415310 39.594174 -0.536395 0.654368 0.061587 -0.025534 -1727130.000000 0 0 1
19.258418 -12.681137 31.323930 38.895841 -0.582308 0.634567 0.051888 -0.019998 -951744.000000 0 0 1
18.467918 -11.526237 31.453950 38.252701 -0.557968 0.605412 0.032930 -0.020552 -469555.000000 0 0 1
17.329418 -11.706237 32.256580 38.442576 -0.594102 0.575198 0.010189 -0.008328 -101079.000000 0 0 1
16.587818 -10.349037 32.484245 37.914172 -0.557803 0.541796 0.015842 -0.001520 -1292900.000000 0 0 1
15.968918 -9.961637 31.255470 36.484859 -0.557746 0.542018 0.037291 -0.007471 437821.000000 0 0 1
15.233718 -8.692437 31.273620 35.856156 -0.518525 0.511121 0.047904 -0.000009 395576.000000 0 0 1
14.109718 -8.635937 32.306919 36.296013 -0.549237 0.473242 0.052076 -0.000943 -1526520.000000 0 0 1
13.154718 -9.686437 32.196574 36.103920 -0.634706 0.469543 0.055473 -0.006251 789246.000000 0 0 1
12.038418 -9.661537 33.098756 36.521178 -0.676299 0.436376 0.058028 -0.001123 1262730.000000 0 0 1
10.840318 -8.716537 32.704199 35.539487 -0.677227 0.402150 0.070701 -0.000888 177257.000000 0 0 1
11.182218 -7.337037 32.569482 35.208596 -0.580676 0.389646 0.067930 -0.005963 397164.000000 0 0 1
9.997718 -6.661037 32.146983 34.318396 -0.587718 0.357635 0.085254 -0.005193 609482.000000 0 0 1
10.263618 -5.237737 31.867110 33.886405 -0.471870 0.346963 0.085019 -0.004183 85278.300000 0 0 1
10.263618 -4.542937 33.124818 34.974758 -0.416704 0.326700 0.074880 -0.011596 190372.000000 0 0 1
10.789318 -3.219737 33.065626 34.930097 -0.290006 0.328204 0.060723 -0.012567 -310795.000000 0 0 1
10.576118 -2.498237 -33.703551 35.412213 -0.231963 2.829683 0.051853 -0.007768 -436107.000000 0 0 1
9.234618 -2.218637 -33.420091 34.743388 -0.235783 2.864710 0.056425 0.002674 -589877.000000 0 0 1
9.031918 -1.642337 -32.161701 33.446193 -0.179872 2.863553 0.058833 0.003851 -617888.000000 0 0 1
7.602218 -1.277937 -31.806381 32.727247 -0.166544 2.903809 0.055621 0.001857 -638913.000000 0 0 1
7.067118 -0.165537 -32.546731 33.305574 -0.023419 2.927717 0.064925 0.003755 332777.000000 0 0 1
5.772218 0.153163 -32.058051 32.573925 0.026528 2.963385 0.061996 0.002207 294024.000000 0 0 1
4.940318 1.043563 -33.011641 33.395572 0.208174 2.989813 0.075647 -0.002011 257538.000000 0 0 1
5.547318 2.365863 -33.085411 33.630559 0.403130 2.961294 0.059462 -0.007648 160409.000000 0 0 1
4.888218 3.239863 -33.963321 34.465904 0.585314 2.970610 0.066028 -0.008454 -439679.000000 0 0 1
5.572318 4.564463 33.919392 34.675787 0.686298 0.209252 0.066292 -0.012207 -343378.000000 0 0 1
5.188718 5.396063 32.863487 33.705327 0.804985 0.223969 0.087192 -0.033189 -523902.000000 0 0 1
5.943118 6.532563 32.930571 34.094245 0.832611 0.262019 0.087314 -0.034057 -224136.000000 0 0 1
5.346118 7.544963 31.881550 33.195492 0.954343 0.282297 0.094344 -0.034459 286220.000000 0 0 1
4.198818 8.192963 32.439797 33.720841 1.097206 0.276524 0.101816 -0.036255 324571.000000 0 0 1
3.756418 9.434663 31.809460 33.391096 1.191885 0.309017 0.112270 -0.042773 124146.000000 0 0 1
3.464818 9.384563 30.282840 31.892403 1.217117 0.319058 0.106998 -0.035093 -378475.000000 0 0 1
2.294118 8.655163 30.024050 31.330790 1.311697 0.289831 0.091902 -0.030971 -331669.000000 0 0 1
1.983618 8.543763 28.641110 29.954028 1.342667 0.297170 0.058307 -0.006459 748751.000000 0 0 1
0.589318 7.893763 28.295270 29.381645 1.496278 0.272781 0.055127 -0.008874 1571710.000000 0 0 1
-0.517282 8.787863 28.580940 29.905923 -1.512001 0.298785 0.059436 -0.009401 181103.000000 0 0 1
-1.598982 8.518463 27.726220 29.049341 -1.385248 0.302977 0.057289 -0.008385 365728.000000 0 0 1
-3.008082 8.789663 28.308140 29.793582 -1.241061 0.317105 0.053850 -0.011573 88378.700000 0 0 1
-3.373182 10.126263 28.492780 30.426273 -1.249245 0.358417 0.070349 -0.006160 654391.000000 0 0 1
-4.647882 10.157863 29.177210 31.242512 -1.141669 0.365642 0.066277 -0.008619 781681.000000 0 0 1
-4.945382 11.586263 29.788290 32.342550 -1.167375 0.400093 0.053265 -0.014674 -15211.700000 0 0 1
-5.108682 12.702463 28.905720 31.984244 -1.188412 0.442349 0.044516 -0.011115 50185.700000 0 0 1
-6.192982 12.694063 28.008170 31.367975 -1.116904 0.467072 0.036591 -0.012152 -212729.000000 0 0 1
-6.311282 14.123863 27.364450 31.434518 -1.150563 0.514534 0.026362 -0.010144 -199520.000000 0 0 1
-5.317182 14.520463 26.457910 30.645347 -1.219776 0.528909 0.022317 -0.005611 -376777.000000 0 0 1
-5.572582 15.744363 25.851240 30.777025 -1.230615 0.573601 0.025573 -0.008305 976446.000000 0 0 1
-4.221682 16.415663 25.348040 30.492945 -1.319077 0.589398 0.036124 -0.005650 1107430.000000 0 0 1
-3.876282 15.955463 24.040220 29.112446 -1.332470 0.599228 0.022154 -0.004266 66162.100000 0 0 1
-2.727382 16.645063 23.550200 28.967372 -1.408384 0.621527 0.027564 -0.003577 341354.000000 0 0 1
-2.484782 16.364163 22.005990 27.535860 -1.420104 0.644874 0.018167 -0.001706 -221381.000000 0 0 1
-2.146082 15.071763 21.696890 26.505070 -1.429356 0.611838 0.017700 -0.003227 -126413.000000 0 0 1
-1.965782 14.889763 20.305190 25.256090 -1.439533 0.636852 0.008427 -0.006048 -179791.000000 0 0 1
-1.138382 13.661263 19.860390 24.132159 -1.487659 0.604152 0.012878 -0.010483 -182613.000000 0 1 0
-1.704982 12.365763 20.119890 23.677606 -1.433781 0.555298 0.014509 -0.009513 228743.000000 0 1 0
-0.963582 11.373863 19.479790 22.577765 -1.486279 0.530041 0.019427 -0.011845 -1181.560000 0 1 0
-2.004282 10.227463 19.229090 21.871809 -1.377278 0.496674 0.007281 -0.010977 458591.000000 0 1 0
-2.483782 9.459663 20.316190 22.547771 -1.314027 0.448661 0.027333 -0.021714 173006.000000 0 1 0
-3.438382 10.068163 21.192090 23.712761 -1.241705 0.465271 0.030721 -0.013903 745749.000000 0 1 0
-4.942282 10.011763 20.751190 23.564241 -1.112244 0.493623 0.032631 -0.011737 451558.000000 0 1 0
-5.513882 8.696863 20.818990 23.226465 -1.005745 0.459334 0.030645 -0.021194 -67254.500000 0 1 0
-6.916382 8.766163 20.682990 23.504638 -0.902807 0.495032 0.039702 -0.019781 91931.800000 0 1 0
-7.592782 7.394763 20.826990 23.368705 -0.772187 0.470737 0.043464 -0.023286 -134102.000000 0 1 0
-7.423482 6.870263 22.113090 24.316606 -0.746714 0.429000 0.031595 -0.023212 346293.000000 0 1 0
-8.031882 5.548563 22.215390 24.265639 -0.604536 0.414027 0.038871 -0.022458 338031.000000 0 1 0
-8.022682 4.799163 23.620320 25.403049 -0.539094 0.376867 0.035093 -0.020429 -104619.000000 0 0 1
-8.774782 5.507063 24.615100 26.706323 -0.560468 0.398367 0.030953 -0.012475 225263.000000 0 0 1
-8.949382 4.661363 25.723920 27.632224 -0.480195 0.373820 0.034198 -0.004134 -37052.200000 0 0 1
-9.851182 5.331363 26.803730 29.050115 -0.496054 0.395842 0.038314 -0.001283 350908.000000 0 0 1
-9.246082 6.466663 27.463270 29.690722 -0.610320 0.389818 0.027484 -0.005066 262509.000000 0 0 1
-10.173882 6.953363 28.415050 30.972120 -0.599534 0.409199 0.029536 -0.000904 245180.000000 0 0 1
-9.616382 8.170063 29.161120 31.774135 -0.704261 0.408386 0.049997 -0.004508 415424.000000 0 0 1
-8.481182 7.785563 29.932380 32.070123 -0.742661 0.367185 0.064536 -0.007726 168725.000000 0 0 1
-7.993982 8.736463 30.828580 33.024701 -0.829748 0.366742 0.072845 -0.015060 791428.000000 0 0 1
-6.950682 8.111163 31.860600 33.603583 -0.862294 0.323492 0.105925 -0.018618 1154920.000000 0 0 1
-5.617182 7.927863 31.426960 32.894643 -0.954364 0.299845 0.101720 -0.019537 -205102.000000 0 0 1
-4.840682 7.198263 32.340253 33.483416 -0.978780 0.262058 0.110847 -0.019374 644622.000000 0 0 1
-3.302282 7.219563 32.061350 33.029643 -1.141799 0.242735 0.077587 -0.015123 614402.000000 0 0 1
-2.770982 8.474463 32.290655 33.498974 -1.254774 0.269404 0.078500 -0.018890 797144.000000 0 0 1
-1.378682 8.648863 31.915760 33.095609 -1.412720 0.267819 0.058890 -0.020130 1484030.000000 0 0 1
-1.053582 10.076363 31.430500 33.023014 -1.466615 0.311824 0.058344 -0.017687 -12148.100000 0 0 1
-1.128782 11.029763 32.499756 34.338957 -1.468812 0.328771 0.071270 -0.033280 105591.000000 0 0 1
-1.546782 12.294863 31.981420 34.298213 -1.445647 0.369657 0.071628 -0.027733 -91829.500000 0 0 1
-1.749482 13.408163 33.024199 35.685252 -1.441050 0.388628 0.066574 -0.033853 -489230.000000 0 0 1
-0.551082 13.896163 33.539850 36.308795 -1.531160 0.393066 0.102691 -0.035434 -671860.000000 0 0 1
-0.758382 14.908763 -33.563811 36.733850 -1.519972 2.723100 0.102572 -0.038453 -280386.000000 0 0 1
0.500918 15.396363 -32.842521 36.275751 1.538273 2.703017 0.088156 -0.035129 -517689.000000 0 0 1
1.401818 16.053663 -33.715401 37.368616 1.483697 2.695729 0.102902 -0.033785 -173128.000000 0 0 1
2.516018 16.428563 -32.957341 36.910898 1.418828 2.674518 0.108255 -0.038004 -577795.000000 0 0 1
3.572618 17.241963 -33.712721 38.034148 1.366483 2.660263 0.113267 -0.029902 -438348.000000 0 0 1
3.288718 18.591063 34.021315 38.908780 1.395710 0.506626 0.094775 -0.025498 84611.300000 0 0 1
4.339218 19.304763 33.381365 38.804873 1.349697 0.535063 0.071666 -0.011664 243586.000000 0 0 1
3.863818 20.749963 33.443092 39.546560 1.386696 0.562989 0.075423 -0.021671 118785.000000 0 0 1
3.688718 21.323963 -33.347841 39.754201 1.399507 2.565965 0.090414 -0.037595 230729.000000 0 0 1
3.667018 22.707363 -33.418211 40.569054 1.410688 2.538766 0.078997 -0.030375 -98202.900000 0 0 1
3.338118 23.293963 -32.035571 39.749586 1.428461 2.508049 0.082606 -0.034745 -22898.000000 0 0 1
3.012018 24.690663 -32.016711 40.543444 1.449406 2.481098 0.087062 -0.031006 342396.000000 0 0 1
2.789118 25.107063 -30.667231 39.731887 1.460161 2.452549 0.092759 -0.040906 63253.200000 0 0 1
2.506018 26.622963 -30.527321 40.582997 1.476943 2.422220 0.091498 -0.037878 393000.000000 0 0 1
3.710718 27.359963 -30.455031 41.107735 1.435993 2.405145 0.092943 -0.037870 271572.000000 0 0 1
3.301318 28.665263 -30.168461 41.746042 1.456134 2.378449 0.095020 -0.037420 60515.300000 0 0 1
4.393218 29.711863 -29.817021 42.321979 1.423999 2.352554 0.112582 -0.047120 162826.000000 0 0 1
5.037618 29.371163 -28.579971 41.289921 1.400933 2.335299 0.107277 -0.057006 53480.800000 0 0 1
5.925218 30.396663 -28.198071 41.883129 1.378281 2.309400 0.119536 -0.057025 -973482.000000 0 0 1
7.030318 30.003663 -27.205801 41.107186 1.340633 2.294048 0.124890 -0.061440 -1117420.000000 0 0 1
8.116818 29.451563 -27.854741 41.342035 1.301873 2.310086 0.115377 -0.056571 -283899.000000 0 0 1
9.274218 30.292863 -27.921101 42.228622 1.273705 2.293199 0.127699 -0.060140 120551.000000 0 0 1
9.284218 31.502163 -28.871561 43.728137 1.284193 2.291950 0.135274 -0.063390 -1140990.000000 0 0 1
8.764018 32.630263 -28.260811 44.047877 1.308403 2.267370 0.132492 -0.057151 1765.330000 0 0 1
8.831418 33.829363 -28.997701 45.423412 1.315438 2.263197 0.119527 -0.049597 254690.000000 0 0 1
7.677618 -33.961738 -30.007831 45.965372 -1.348467 2.282118 0.085787 -0.032913 373267.000000 0 0 1
7.726018 33.430763 -31.197971 46.374785 1.343679 2.308696 0.068395 -0.033413 295837.000000 0 0 1
6.400218 33.036263 -31.523821 46.109747 1.379434 2.323575 0.050657 -0.019232 257127.000000 0 0 1
6.408918 32.174463 -32.800351 46.391091 1.374177 2.356100 0.055335 -0.042507 11049.900000 0 0 1
6.300218 32.957063 -33.977141 47.752559 1.381911 2.362463 0.056876 -0.031389 227897.000000 0 0 1
5.841518 32.237963 32.971684 46.481626 1.391541 0.782222 0.059285 -0.024304 -12580.900000 0 0 1
5.526918 33.115563 31.767590 46.220851 1.405423 0.813031 0.044695 -0.021292 104517.000000 0 0 1
6.658918 33.736463 31.188800 46.424469 1.375921 0.834136 0.045031 -0.020978 143378.000000 0 0 1
6.270818 -33.644038 30.073750 45.559575 -1.386524 0.849848 0.022986 -0.026998 -109091.000000 0 0 1
17.796056 -22.160637 29.186480 40.738730 -0.894200 0.772124 0.103384 0.005775 -570417.000000 0 0 1
16.806456 -21.193637 29.432370 39.973637 -0.900341 0.743219 0.088916 0.007723 997042.000000 0 0 1
15.478656 -21.783337 29.440750 39.760035 -0.953009 0.737041 0.098608 0.009998 978391.000000 0 0 1
15.038756 -22.029837 30.901570 40.821379 -0.971807 0.712095 0.096651 -0.000653 -739061.000000 0 0 1
15.677056 -23.125937 31.530370 42.127702 -0.975058 0.725078 0.132891 -0.009046 181052.000000 0 0 1
15.397556 -23.262437 32.931445 43.159076 -0.986097 0.702816 0.105125 -0.018681 -243728.000000 0 0 1
16.293156 -24.237337 33.702355 44.595563 -0.978949 0.714023 0.133124 -0.028571 -195554.000000 0 0 1
16.218456 -25.582787 33.355846 45.056962 -1.005780 0.737274 0.125766 -0.034162 475826.000000 0 0 1
17.164256 -26.408807 -34.003301 46.349340 -0.994460 2.394446 0.120951 -0.037181 601491.000000 0 0 1
17.032256 -27.912917 33.960895 47.144152 -1.022916 0.766471 0.101989 -0.022038 97602.400000 0 0 1
17.517556 -28.469297 32.759711 46.803465 -1.019193 0.795480 0.092962 -0.019590 159637.000000 0 0 1
16.918856 -29.754387 32.575817 47.252038 -1.053772 0.810128 0.103160 -0.030399 55443.700000 0 0 1
17.424556 -30.597057 31.379110 47.164008 -1.053117 0.842875 0.109889 -0.030593 -649259.000000 0 0 1
18.645356 -31.201337 31.650640 48.196844 -1.032157 0.854368 0.105178 -0.032171 -821299.000000 0 0 1
19.213356 -31.378487 30.388840 47.720479 -1.021375 0.880444 0.068397 -0.021629 -1283160.000000 0 0 1
20.475256 -32.198127 30.405440 48.789818 -1.004387 0.897978 0.034413 -0.014488 -967209.000000 0 0 1
21.547756 -31.428927 30.910020 49.066410 -0.969798 0.889291 0.026711 -0.020092 278937.000000 0 0 1
22.764656 -32.178557 30.935540 50.106853 -0.955089 0.905374 0.020205 -0.013337 -294032.000000 0 0 1
23.967156 -31.305097 31.191970 50.272982 -0.917386 0.901477 0.018270 -0.026515 -777856.000000 0 0 1
24.201356 -30.305757 30.227440 49.171564 -0.896926 0.908747 0.011910 -0.019026 -258262.000000 0 0 1
25.104256 -29.356277 30.679990 49.328252 -0.863315 0.899559 0.002970 -0.014857 607640.000000 0 0 1
26.409456 -29.189117 29.789610 49.364814 -0.835352 0.922965 0.020012 -0.008511 740877.000000 0 0 1
27.351256 -30.217657 29.981450 50.597286 -0.835148 0.936575 0.040363 -0.002276 -293588.000000 0 0 1
28.304156 -30.196547 28.955970 50.511434 -0.817735 0.960323 0.034627 -0.019337 -713296.000000 0 0 1
29.436256 -31.184077 29.112750 51.831381 -0.814222 0.974379 0.052381 -0.008061 -565302.000000 0 0 1
29.178256 -32.529317 28.893530 52.386670 -0.839650 0.986583 0.047077 -0.010205 986158.000000 0 0 1
30.346856 -33.304627 29.302470 53.747229 -0.831833 0.994180 0.063039 -0.015610 613097.000000 0 0 1
29.911056 33.454616 29.770520 53.853194 0.841262 0.985065 0.042953 -0.011219 -100129.000000 0 0 1
29.264456 33.248331 31.034320 54.083167 0.849041 0.959627 0.043528 -0.007958 524797.000000 0 0 1
28.177056 34.072715 31.421040 54.241849 0.879826 0.952955 0.019632 0.001010 193615.000000 0 0 1
26.838256 33.967374 30.627400 53.029351 0.902110 0.955065 0.028436 -0.001420 -90750.500000 0 0 1
26.405756 32.621320 30.595940 51.937713 0.890312 0.940865 0.021108 -0.003559 -700428.000000 0 0 1
25.038256 32.500792 30.346930 51.030892 0.914373 0.933932 -0.005538 -0.003606 -361292.000000 0 0 1
24.628956 31.019004 30.388410 49.922135 0.899727 0.916355 0.013655 -0.009600 -145816.000000 0 0 1
24.906256 30.314544 29.203360 48.909400 0.883026 0.930927 0.022222 -0.018655 428192.000000 0 0 1
24.281556 29.004094 29.302380 47.848311 0.873794 0.911701 0.065209 -0.041669 207895.000000 0 0 1
23.603156 28.591884 27.952340 46.432081 0.880687 0.924787 0.060346 -0.040901 691060.000000 0 0 1
22.546556 29.474144 27.497490 46.186408 0.917789 0.933084 0.080574 -0.046636 705797.000000 0 0 1
21.814956 28.966074 26.402860 44.855733 0.925301 0.941449 0.082222 -0.043595 -161978.000000 0 0 1
20.464656 29.629944 26.090010 44.468240 0.966356 0.943805 0.111642 -0.039346 -122369.000000 0 0 1
20.444256 30.973024 25.608570 45.089851 0.987377 0.966789 0.094339 -0.041853 517606.000000 0 0 1
19.085856 31.339754 25.330400 44.587882 1.023787 0.966600 0.112771 -0.036704 496931.000000 0 0 1
19.065956 32.769272 24.760360 45.281467 1.043849 0.992247 0.117315 -0.033109 -51633.100000 0 0 1
19.713856 32.942876 23.493600 45.009093 1.031535 1.021632 0.105672 -0.030367 95621.700000 0 0 1
21.005356 33.494483 23.539830 46.013356 1.010668 1.033766 0.088992 -0.022902 -84287.700000 0 0 1
21.721156 33.545543 22.185190 45.708803 0.996172 1.064022 0.079367 -0.028587 -98073.500000 0 0 1
21.232656 -33.529077 21.446590 45.110763 -1.006279 1.075354 0.089264 -0.019298 206438.000000 0 0 1
21.884556 -33.379967 20.207390 44.738067 -0.990481 1.102146 0.094734 -0.019278 -155624.000000 0 0 1
21.652856 -32.111627 19.402990 43.318343 -0.977528 1.106363 0.087580 -0.015383 -247310.000000 0 0 1
22.088956 -30.979537 20.169190 43.063325 -0.951387 1.083361 0.083064 -0.008469 235696.000000 0 0 1
21.870056 -29.676707 19.604990 41.753586 -0.935704 1.082026 0.087459 -0.015770 -400096.000000 0 0 1
22.648456 -29.238527 18.391590 41.304899 -0.911730 1.109327 0.078666 -0.014450 -404866.000000 0 0 1
22.110856 -29.864117 17.224490 40.956544 -0.933479 1.136739 0.070932 -0.015769 376904.000000 0 0 1
22.501056 -29.242897 16.019990 40.225423 -0.914961 1.161182 0.072776 -0.014495 -293958.000000 0 0 1
21.869856 -29.849697 14.788890 39.849797 -0.938482 1.190586 0.082456 -0.023851 -319268.000000 0 0 1
22.483156 -31.042897 14.371590 40.935271 -0.943973 1.212071 0.075877 -0.021621 -47125.200000 0 0 1
22.659556 -31.300387 12.993290 40.767577 -0.944184 1.246422 0.072969 -0.027076 418932.000000 0 0 1
21.340156 -31.464377 12.143390 39.910791 -0.974829 1.261631 0.077445 -0.019243 782892.000000 0 0 1
20.562656 -32.579007 12.618490 40.539374 -1.007778 1.254272 0.076286 -0.022891 -465396.000000 0 0 1
19.380256 -32.740917 11.890690 39.861642 -1.036333 1.267886 0.057157 -0.016723 -460717.000000 0 0 1
18.298356 -33.374417 12.796790 40.155192 -1.069279 1.246456 0.044328 -0.010875 -328085.000000 0 0 1
18.087356 -32.539417 13.927990 39.748648 -1.063465 1.212796 0.043240 -0.007360 218570.000000 0 0 1
18.868756 -33.055267 15.012690 40.915297 -1.052106 1.195099 0.035026 -0.014618 -395084.000000 0 0 1
18.818156 -32.176957 16.300090 40.683812 -1.041603 1.158567 0.045202 -0.013019 -118880.000000 0 0 1
17.578056 -32.113937 16.938890 40.338803 -1.069978 1.137444 0.050934 -0.022241 -199764.000000 0 0 1
16.743756 -33.157247 17.409090 41.022346 -1.103172 1.132519 0.044969 -0.016062 -40775.800000 0 0 1
17.244856 -33.957647 18.601490 42.385402 -1.100901 1.116461 0.043077 -0.028042 -110053.000000 0 0 1
17.956256 32.994500 18.315190 41.791271 1.072402 1.117141 0.039086 -0.024518 237154.000000 0 0 1
18.484756 32.489869 19.537790 42.178229 1.053529 1.089171 0.050391 -0.027675 48050.300000 0 0 1
19.252756 31.171944 19.443890 41.477989 1.017514 1.082892 0.056997 -0.027653 -82720.200000 0 0 1
18.410156 30.044974 19.215990 40.135876 1.021052 1.071539 0.053693 -0.029350 -551062.000000 0 0 1
19.112856 28.914944 18.924790 39.490795 0.986725 1.071030 0.059001 -0.033914 -552477.000000 0 0 1
18.279756 27.642004 18.674690 38.039110 0.986516 1.057635 0.070388 -0.035371 -165926.000000 0 0 1
17.900356 26.976674 19.854790 37.978630 0.984955 1.020678 0.075401 -0.033857 -149240.000000 0 0 1
17.445656 25.661344 19.545590 36.672682 0.973728 1.008685 0.080216 -0.037037 -519297.000000 0 0 1
17.081456 24.907374 20.862890 36.707133 0.969665 0.966284 0.085263 -0.031414 708633.000000 0 0 1
15.839456 25.200194 21.541190 36.741815 1.009652 0.944330 0.089316 -0.028405 978684.000000 0 0 1
14.836756 24.250834 21.093990 35.400405 1.021743 0.932450 0.093692 -0.029420 -46323.600000 0 0 1
13.497956 24.594324 21.760990 35.505158 1.068856 0.911075 0.100156 -0.041725 -459919.000000 0 0 1
13.056956 25.862774 21.305290 35.962238 1.103272 0.936718 0.109121 -0.040152 -271032.000000 0 0 1
11.797156 26.190094 21.847490 36.088873 1.147574 0.920553 0.098374 -0.038414 -112364.000000 0 0 1
11.057456 27.234044 20.970490 36.107090 1.185115 0.951103 0.087048 -0.045179 -386171.000000 0 0 1
11.293656 28.531124 21.399590 37.410081 1.193884 0.961821 0.089535 -0.046539 58323.000000 0 0 1
11.212356 29.471824 20.346290 37.527015 1.207262 0.997770 0.089233 -0.049950 28635.300000 0 0 1
11.800956 30.858594 20.788290 39.034195 1.205536 1.009167 0.092682 -0.050495 -219352.000000 0 0 1
11.012256 31.539314 21.719790 39.846548 1.234870 0.994305 0.088115 -0.046479 -419165.000000 0 0 1
11.643256 31.759014 22.983490 40.895491 1.219399 0.973988 0.067913 -0.047374 -129763.000000 0 0 1
10.803656 32.589093 23.956240 41.864894 1.250686 0.961577 0.054728 -0.038905 -55893.000000 0 0 1
9.540156 32.090884 24.324640 41.382696 1.281832 0.942463 0.041422 -0.032905 -332224.000000 0 0 1
9.103156 32.790597 25.467270 42.504971 1.300001 0.928345 0.044444 -0.022618 -472787.000000 0 0 1
7.638056 32.615680 25.880210 42.330931 1.340758 0.912995 0.084679 -0.034059 322075.000000 0 0 1
6.634956 33.367321 25.138220 42.300483 1.374511 0.934429 0.077810 -0.035692 885751.000000 0 0 1
6.088156 32.812217 23.933300 41.067141 1.387337 0.948645 0.077304 -0.040808 34052.800000 0 0 1
4.981156 31.769874 24.112770 40.194060 1.415274 0.927409 0.073486 -0.049933 -565855.000000 0 0 1
5.510256 30.659084 24.780840 39.804929 1.392968 0.898790 0.047529 -0.032818 -394125.000000 0 0 1
4.753856 29.469284 24.745600 38.773477 1.410859 0.878626 0.040364 -0.026757 -808100.000000 0 0 1
5.706756 28.288064 25.022130 38.195400 1.371731 0.856470 0.042796 -0.019104 181565.000000 0 0 1
6.610456 28.063714 23.948940 37.480954 1.339462 0.877647 0.070254 -0.022148 922002.000000 0 0 1
7.778756 28.903014 23.807460 38.245109 1.307893 0.898867 0.077951 -0.025173 282115.000000 0 0 1
9.034856 28.475994 24.587010 38.691496 1.263563 0.882188 0.050148 -0.032718 -848639.000000 0 0 1
8.858756 28.440424 26.003750 39.541501 1.268837 0.853125 0.043722 -0.027543 743565.000000 0 0 1
10.058556 28.114614 26.762550 40.097882 1.227217 0.840043 0.065999 -0.012081 1285830.000000 0 0 1
11.145156 29.238334 26.732980 41.155156 1.206616 0.863783 0.069656 -0.019968 -269189.000000 0 0 1
10.782356 30.368394 27.446750 42.329926 1.229628 0.865315 0.064593 -0.028033 -280901.000000 0 0 1
11.863856 31.188814 27.781440 43.420060 1.207310 0.876520 0.055446 -0.015494 -422964.000000 0 0 1
11.470356 32.254345 28.818150 44.748157 1.229122 0.871071 0.043346 -0.017251 -122609.000000 0 0 1
11.340256 31.841174 30.150870 45.293893 1.228653 0.842403 0.049613 -0.035689 -1071410.000000 0 0 1
10.028856 31.668564 30.503400 45.099150 1.264106 0.827983 0.063937 -0.033125 -1287460.000000 0 0 1
9.863856 31.566654 32.046910 46.051642 1.267932 0.801137 0.097220 -0.031541 125608.000000 0 0 1
10.254256 30.320084 32.663734 45.731573 1.244672 0.775246 0.069029 -0.033356 110267.000000 0 0 1
10.472556 30.476954 -34.038130 46.873377 1.239815 2.383534 0.110950 -0.031024 -45630.300000 0 0 1
10.633456 29.108574 -33.331621 45.512377 1.220554 2.392583 0.095065 -0.028032 542525.000000 0 0 1
11.798156 28.400674 -33.804941 45.700862 1.177069 2.403421 0.111051 -0.025540 790202.000000 0 0 1
11.779356 27.088954 -33.210201 44.446396 1.160621 2.414630 0.109490 -0.029167 166338.000000 0 0 1
12.980256 26.222434 -33.708691 44.636072 1.111152 2.426739 0.101987 -0.027813 312121.000000 0 0 1
12.976856 24.816784 -33.466871 43.638320 1.088992 2.444816 0.079288 -0.034361 -84427.000000 0 0 1
13.231056 24.449404 -32.075591 42.446175 1.074765 2.427483 0.080197 -0.029782 -157424.000000 0 0 1
13.244556 22.887964 -32.000411 41.512690 1.046209 2.450984 0.067955 -0.050220 229749.000000 0 0 1
14.341856 22.184964 -32.602011 41.961323 0.996908 2.460609 0.052070 -0.030919 506157.000000 0 0 1
14.188256 20.822564 -32.437041 41.073683 0.972671 2.481162 0.047899 -0.026265 -704910.000000 0 0 1
15.365356 20.049064 -32.960321 41.526400 0.916889 2.487696 0.055617 -0.029295 107715.000000 0 0 1
16.613056 20.280764 -32.293861 41.595631 0.884485 2.459692 0.069806 -0.035305 536433.000000 0 0 1
17.700756 19.699764 -32.973821 42.292675 0.838796 2.464916 0.073626 -0.036062 312354.000000 0 0 1
19.052456 19.801264 -32.206191 42.335858 0.804668 2.435235 0.068086 -0.024686 204995.000000 0 0 1
19.672856 21.060764 -32.280491 43.273631 0.819458 2.412775 0.078545 -0.015875 -449038.000000 0 0 1
20.696556 21.299864 -31.365351 43.195103 0.799763 2.383476 0.066926 -0.006660 -301585.000000 0 0 1
20.349056 21.767364 -29.939961 42.241017 0.819061 2.358576 0.058382 -0.016434 -265737.000000 0 0 1
20.023456 23.116014 -29.972041 42.820698 0.856963 2.346114 0.058938 -0.007380 -158758.000000 0 0 1
19.587056 23.552614 -28.707111 41.981861 0.877064 2.323751 0.055574 -0.008884 7683.830000 0 0 1
20.675556 24.182964 -27.786521 42.241983 0.863428 2.288682 0.043471 -0.010078 288954.000000 0 0 1
21.347256 25.328424 -28.282231 43.555930 0.870486 2.277501 0.050481 -0.009003 229774.000000 0 0 1
20.545256 26.538854 -28.336831 43.924871 0.912013 2.271977 0.046948 -0.006548 -157667.000000 0 0 1
21.391756 27.625004 -29.060241 45.444974 0.911885 2.264592 0.046534 -0.005056 -12081.400000 0 0 1
21.587456 27.559454 -30.475021 46.414100 0.906319 2.287085 0.050966 -0.001366 239869.000000 0 0 1
22.184056 26.368224 -31.012451 46.359332 0.871364 2.303603 0.046888 -0.003058 281446.000000 0 0 1
23.533756 25.817154 -30.445201 46.338681 0.831634 2.287648 0.071830 -0.020215 20227.800000 0 0 1
24.598256 26.698754 -30.715441 47.553507 0.826323 2.273015 0.065756 -0.020150 -955729.000000 0 0 1
25.841356 26.161434 -30.441541 47.737655 0.791553 2.262284 0.073570 -0.026865 -272061.000000 0 0 1
27.033256 27.039554 -30.926471 49.177038 0.785515 2.250909 0.056380 -0.017957 94141.000000 0 0 1
27.386256 28.140384 -30.075771 49.461503 0.798979 2.224416 0.040484 -0.009277 2999.570000 0 0 1
28.551456 28.801844 -30.506291 50.748061 0.789764 2.215713 0.036393 -0.017909 40689.400000 0 0 1
28.826356 30.187614 -29.801261 51.287094 0.808461 2.190836 0.023554 -0.003627 23713.000000 0 0 1
29.275156 30.010874 -28.470671 50.678067 0.797807 2.167350 0.043790 -0.011629 146802.000000 0 0 1
28.655456 30.955004 -27.651931 50.437850 0.823955 2.151052 0.028390 -0.000968 -417644.000000 0 0 1
29.096956 30.861744 -26.154761 49.831231 0.814823 2.123355 0.040221 -0.002171 -52131.400000 0 0 1
28.770356 29.663034 -25.474781 48.544757 0.800674 2.123240 0.026843 0.002816 194997.000000 0 0 1
27.417056 29.290744 -25.271691 47.416253 0.818427 2.132909 0.033682 0.000802 -100998.000000 0 0 1
26.942756 29.105044 -23.824311 46.266764 0.823958 2.111727 0.033854 0.000960 -185639.000000 0 0 1
26.941356 30.297694 -23.054311 46.639985 0.843968 2.087830 0.034107 0.004059 105152.000000 0 0 1
26.222256 30.135774 -21.852511 45.533546 0.854727 2.071361 0.034597 0.008431 -29341.400000 0 0 1
3.400656 -26.721237 -19.667911 33.352897 -1.444213 2.201473 0.064210 -0.013680 -381368.000000 0 0 1
3.154556 -27.821457 -18.872011 33.765922 -1.457893 2.163863 0.062208 -0.004843 116050.000000 0 0 1
3.068256 -27.493567 -17.544411 32.758462 -1.459657 2.135978 0.065575 -0.011159 -213312.000000 0 0 1
3.098756 -28.627357 -16.504311 33.189157 -1.462972 2.091257 0.056873 -0.003127 109133.000000 0 0 1
4.403456 -29.013987 -16.126511 33.485314 -1.420176 2.073275 0.055779 -0.008611 -33317.800000 0 0 1
4.419256 -29.591917 -14.855711 33.405143 -1.422552 2.031650 0.052461 -0.008693 -118843.000000 0 0 1
5.742056 -30.304087 -14.563011 34.108506 -1.383535 2.011926 0.056404 -0.004040 -597341.000000 0 0 1
6.833656 -29.441477 -14.377811 33.469701 -1.342725 2.014821 0.051498 -0.002255 766171.000000 0 0 1
8.124656 -30.110457 -14.436211 34.366464 -1.307244 2.004315 0.048817 -0.002970 1250810.000000 0 0 1
8.523456 -30.862327 -13.144811 34.610961 -1.301336 1.960363 0.043029 -0.008261 -1497100.000000 0 0 1
8.698756 -30.026307 -11.990011 33.481455 -1.288811 1.937038 0.043190 -0.002201 86507.800000 0 0 1
8.837956 -30.758497 -10.774811 33.768198 -1.291000 1.895557 0.049289 -0.000016 536121.000000 0 0 1
10.137356 -31.614037 -10.561611 34.839073 -1.260495 1.878797 0.046189 -0.006963 1183010.000000 0 0 1
11.270556 -30.856097 -10.073611 34.359887 -1.220590 1.868347 0.043976 -0.002513 710362.000000 0 0 1
12.374156 -31.670357 -9.749611 35.372110 -1.198318 1.850041 0.050367 -0.008652 -345905.000000 0 0 1
13.368156 -31.047637 -8.795411 34.928823 -1.164218 1.825346 0.059423 -0.010007 -317851.000000 0 0 1
14.418456 -30.365517 -9.467711 34.922687 -1.127487 1.845337 0.064646 -0.015426 290599.000000 0 0 1
15.332256 -29.868817 -8.485811 34.629948 -1.096550 1.818360 0.073430 -0.019507 737029.000000 0 0 1
16.642156 -29.258427 -9.102511 34.869365 -1.053635 1.834902 0.095646 -0.025027 475972.000000 0 0 1
16.509856 -27.977687 -9.704411 33.904306 -1.037682 1.861086 0.088857 -0.024700 20937.300000 0 0 1
15.676656 -27.838207 -10.856211 33.742861 -1.057925 1.898356 0.080375 -0.024626 -181768.000000 0 0 1
15.315856 -26.343107 -11.011211 32.400332 -1.044166 1.917552 0.068766 -0.024020 -554805.000000 0 0 1
14.455156 -25.834947 -10.005911 31.249229 -1.060674 1.896734 0.060681 -0.020941 419778.000000 0 0 1
13.805156 -24.587337 -10.203411 29.987149 -1.059186 1.917989 0.060530 -0.025327 782955.000000 0 0 1
13.018756 -24.258937 -11.547011 29.854941 -1.078254 1.967923 0.052713 -0.018228 -61793.500000 0 0 1
13.902456 -24.069837 -12.634111 30.532870 -1.047019 1.997407 0.049876 -0.025003 -346073.000000 0 0 1
13.301356 -23.847437 -13.886111 30.634138 -1.062008 2.041248 0.063479 -0.026938 -57352.800000 0 0 1
14.276556 -23.262137 -14.961211 31.125310 -1.020346 2.072223 0.059833 -0.035534 95390.400000 0 0 1
15.055156 -24.289737 -15.505911 32.512803 -1.015934 2.067940 0.058529 -0.030368 -122742.000000 0 0 1
15.763756 -23.835337 -16.672011 33.084366 -0.986476 2.098932 0.056319 -0.029793 -558089.000000 0 0 1
16.850456 -24.828037 -17.152611 34.562717 -0.974518 2.090099 0.054353 -0.026705 114732.000000 0 0 1
18.116856 -24.700837 -16.540011 34.812696 -0.937971 2.065890 0.069931 -0.030623 -184007.000000 0 0 1
18.928056 -23.681037 -17.092611 34.802589 -0.896487 2.084183 0.065313 -0.035604 -221799.000000 0 0 1
20.432856 -23.789437 -16.709911 35.533929 -0.861155 2.060373 0.058400 -0.029276 392145.000000 0 0 1
21.089856 -24.790637 -17.446211 36.928688 -0.865885 2.062842 0.075470 -0.031991 -674033.000000 0 0 1
22.387156 -25.025037 -16.988311 37.630307 -0.840978 2.039189 0.081305 -0.017509 -254960.000000 0 0 1
23.172656 -26.077417 -17.783211 39.156689 -0.844310 2.042220 0.087364 -0.021984 -355649.000000 0 0 1
23.335556 -25.639157 -19.108411 39.585931 -0.832400 2.074540 0.103195 -0.029758 35908.800000 0 0 1
24.061756 -26.632037 -19.817011 40.999359 -0.836057 2.075273 0.088792 -0.034086 982317.000000 0 0 1
25.484956 -26.176097 -20.363611 41.825205 -0.798776 2.079304 0.086388 -0.036428 1075030.000000 0 0 1
25.434056 -25.093347 -21.308611 41.600772 -0.778655 2.108560 0.089993 -0.038297 136802.000000 0 0 1
26.040056 -23.904237 -20.767211 40.997246 -0.742660 2.101977 0.090468 -0.032997 127685.000000 0 0 1
25.083856 -22.682037 -20.946111 39.779571 -0.735157 2.125339 0.089588 -0.028776 251104.000000 0 0 1
24.854756 -22.136237 -22.283611 40.054104 -0.727611 2.160768 0.088402 -0.028697 -8797.030000 0 0 1
24.092056 -22.946037 -23.138311 40.525662 -0.761039 2.178464 0.070882 -0.029384 -663236.000000 0 0 1
23.394156 -22.113437 -24.214611 40.281982 -0.757263 2.215708 0.064558 -0.020914 -354073.000000 0 0 1
24.195956 -21.441837 -25.150341 40.960180 -0.725124 2.231939 0.061547 -0.016349 -192744.000000 0 0 1
23.434056 -20.485937 -25.828771 40.446929 -0.718374 2.263453 0.057321 -0.014252 -44471.100000 0 0 1
24.165956 -19.990637 -27.107811 41.454221 -0.691121 2.283553 0.058000 -0.011851 217502.000000 0 0 1
23.362956 -19.135637 -27.920751 41.128685 -0.686255 2.317010 0.068598 -0.014472 431980.000000 0 0 1
24.001056 -18.813637 -29.161791 42.194949 -0.664826 2.333834 0.079578 -0.016198 -76529.500000 0 0 1
23.254656 -17.755637 -29.945851 41.866403 -0.652104 2.367809 0.114476 -0.017791 206831.000000 0 0 1
21.956756 -18.122937 -30.398341 41.648519 -0.690033 2.388940 0.110096 -0.018217 179595.000000 0 0 1
21.141656 -17.073537 -30.802771 41.076587 -0.679345 2.418687 0.110920 -0.021655 -298477.000000 0 0 1
19.750256 -17.586537 -31.188911 40.891406 -0.727512 2.438313 0.087681 -0.016947 -360532.000000 0 0 1
19.745956 -18.337437 -32.420431 42.157428 -0.748430 2.448122 0.095658 -0.014543 479528.000000 0 0 1
18.425756 -18.732637 -32.765471 41.999956 -0.793657 2.465672 0.085307 -0.025779 246123.000000 0 0 1
18.410556 -19.725437 -33.970621 43.382538 -0.819863 2.470348 0.134541 -0.014344 -218911.000000 0 0 1
19.319756 -20.811437 -33.914911 44.233360 -0.822551 2.444523 0.128651 -0.009842 284151.000000 0 0 1
19.275256 -21.574137 32.947472 43.846492 -0.841616 0.720573 0.110153 -0.015693 -121534.000000 0 0 1
20.302556 -22.729037 32.938872 44.875074 -0.841727 0.746585 0.103501 -0.012596 -93357.300000 0 0 1
20.117656 -23.847837 33.841630 46.029288 -0.870039 0.744806 0.117031 -0.015219 126317.000000 0 0 1
20.358956 -23.540537 -32.873171 45.269078 -0.857746 2.383535 0.118378 -0.017750 -286797.000000 0 0 1
19.592756 -24.509637 -31.927171 44.765418 -0.896428 2.364864 0.111260 -0.026303 -107190.000000 0 0 1
19.926756 -25.885757 -31.889521 45.651830 -0.914746 2.344148 0.121670 -0.036088 258164.000000 0 0 1
21.092456 -26.238927 -31.151241 45.866904 -0.893705 2.317422 0.100518 -0.036556 279989.000000 0 0 1
21.221656 -27.789307 -31.095171 46.792243 -0.918608 2.297670 0.089119 -0.037783 -722016.000000 0 0 1
20.050856 -28.338037 -30.632101 46.296942 -0.955015 2.293806 0.094561 -0.037439 -843603.000000 0 0 1
20.213256 -29.750147 -30.436371 47.117085 -0.974007 2.273094 0.086385 -0.035974 -440981.000000 0 0 1
19.019356 -30.517827 -29.828711 46.720720 -1.013477 2.263275 0.113054 -0.037123 160800.000000 0 0 1
17.734056 -30.391097 -30.381601 46.488248 -1.042577 2.283039 0.132572 -0.043141 -185213.000000 0 0 1
17.580556 -30.957277 -31.660111 47.642330 -1.054316 2.297671 0.141537 -0.050025 -478100.000000 0 0 1
16.234556 -31.711387 -31.841981 47.781635 -1.097637 2.300175 0.147369 -0.054638 426304.000000 0 0 1
15.279256 -30.978747 -32.567671 47.474116 -1.112590 2.326786 0.143309 -0.046837 -526293.000000 0 0 1
14.099856 -31.622607 -32.917741 47.774187 -1.151375 2.330943 0.097720 -0.031806 -438778.000000 0 0 1
13.127656 -30.833567 -33.807491 47.602423 -1.168283 2.360586 0.088020 -0.029037 393550.000000 0 0 1
12.336756 -29.868207 -33.073941 46.240577 -1.179100 2.367789 0.104459 -0.036304 654372.000000 0 0 1
11.326756 -29.329047 -33.936351 46.261910 -1.202246 2.394357 0.076960 -0.030262 484025.000000 0 0 1
10.397256 -28.272347 -33.296441 44.900797 -1.218394 2.406183 0.084475 -0.040860 264345.000000 0 0 1
9.508456 -28.681797 -32.285501 44.220016 -1.250683 2.389280 0.078703 -0.029812 -206648.000000 0 0 1
8.515456 -27.701817 -31.999031 43.172233 -1.272567 2.405645 0.047437 -0.027412 369507.000000 0 0 1
7.396456 -28.369787 -31.134211 42.765541 -1.315758 2.386227 0.039673 -0.025225 -135625.000000 0 0 1
6.504556 -29.204077 -31.850491 43.699441 -1.351646 2.387442 0.037485 -0.026684 -237657.000000 0 0 1
6.954456 -30.457887 -32.239071 44.893263 -1.346314 2.371904 0.038449 -0.023987 -1043180.000000 0 0 1
5.782456 -31.303367 -32.702331 45.637485 -1.388132 2.369665 0.062128 -0.033491 3559.410000 0 0 1
4.887956 -31.565667 -31.613781 44.941235 -1.417166 2.351032 0.069275 -0.039724 -214810.000000 0 0 1
3.882956 -32.440617 -32.059141 45.774005 -1.451669 2.346724 0.086795 -0.057199 -628137.000000 0 0 1
2.959056 -32.765077 -30.835211 45.090094 -1.480729 2.323833 0.079582 -0.062269 587709.000000 0 0 1
1.913156 -31.827617 -30.557041 44.163222 -1.510759 2.334930 0.079269 -0.054556 526675.000000 0 0 1
0.656956 -32.139747 -31.135111 44.752543 -1.550359 2.340214 0.061776 -0.029882 137098.000000 0 0 1
-0.440944 -31.134737 -30.713221 43.736349 1.556635 2.349329 0.045649 -0.025798 -91676.400000 0 0 1
-1.131644 -31.352597 -29.509891 43.070868 1.534718 2.325602 0.025520 -0.032726 -64557.400000 0 0 1
-1.794644 -30.166857 -29.117331 41.965212 1.511376 2.337610 0.061442 -0.030292 -39126.900000 0 0 1
-2.561344 -30.324967 -27.808531 41.224732 1.486533 2.311164 0.058634 -0.035939 335101.000000 0 0 1
-1.676244 -30.310487 -26.632821 40.383692 1.515550 2.290942 0.042411 -0.028759 576801.000000 0 0 1
-2.358944 -30.284447 -25.420001 39.609201 1.493060 2.267601 0.055330 -0.032235 462867.000000 0 0 1
-1.285944 -30.631947 -24.337611 39.144465 1.528840 2.241756 0.029999 -0.024252 445484.000000 0 0 1
-1.798644 -30.433367 -23.074411 38.234192 1.511764 2.218682 0.068840 -0.033890 -114297.000000 0 0 1
-1.020844 -31.045367 -22.031711 38.082191 1.537926 2.187722 0.059421 -0.028735 244428.000000 0 0 1
-1.588644 -30.819637 -20.614711 37.112534 1.519295 2.159718 0.022631 -0.009508 -57206.600000 0 0 1
-1.555344 -29.475567 -20.148511 35.737804 1.518078 2.169760 0.015326 -0.003807 -796833.000000 0 0 1
-0.372444 -29.008347 -19.604011 35.013429 1.557958 2.165061 0.043493 -0.009857 -807034.000000 0 0 1
-0.436744 -27.653647 -18.890411 33.492724 1.555004 2.170037 0.045577 -0.009061 -218976.000000 0 0 1
-1.388544 -27.573417 -17.856511 32.879726 1.520481 2.144904 0.045454 -0.011873 98526.700000 0 0 1
-1.365644 -26.263177 -17.301811 31.479710 1.518845 2.152703 0.047843 -0.005435 148021.000000 0 0 1
-2.173644 -26.233397 -15.986711 30.797578 1.488127 2.116582 0.049870 -0.005145 25618.100000 0 0 1
-2.150744 -24.951337 -15.462411 29.432653 1.484811 2.123921 0.050955 0.000654 137952.000000 0 0 1
-3.040244 -24.858137 -14.367611 28.872103 1.449097 2.091660 0.044674 -0.000653 23015.500000 0 0 1
-2.789644 -23.542337 -13.549511 27.305915 1.452852 2.090026 0.049575 -0.003695 623251.000000 0 0 1
-1.580944 -23.578737 -12.775511 26.863915 1.503847 2.066401 0.044781 -0.001745 279245.000000 0 0 1
-1.586744 -22.702337 -11.677811 25.578998 1.501016 2.044898 0.044027 -0.001693 146128.000000 0 0 1
-0.303144 -22.793937 -10.816811 25.232100 1.557498 2.013841 0.036216 -0.003792 132776.000000 0 0 1
0.168456 -21.513137 -10.492111 23.935911 -1.562966 2.024549 0.036155 0.004675 -321854.000000 0 1 0
1.439156 -21.602837 -9.880411 23.798661 -1.504276 1.998922 0.023395 0.008154 228575.000000 0 1 0
2.046756 -20.184837 -9.670411 22.475180 -1.469741 2.015589 0.031486 0.003291 -634390.000000 0 1 0
2.552956 -19.556337 -10.872611 22.520692 -1.440987 2.074626 0.029723 0.010037 253306.000000 0 1 0
3.286556 -18.355337 -10.590911 21.444982 -1.393622 2.087325 0.018702 0.011358 1024510.000000 0 1 0
4.743056 -18.538537 -10.031611 21.605721 -1.320321 2.053644 0.037044 -0.007644 316857.000000 0 1 0
4.686656 -18.969937 -8.679611 21.381275 -1.328589 1.988808 0.037300 -0.005884 6594.730000 0 1 0
5.776456 -19.800537 -8.289011 22.229180 -1.286942 1.952917 0.046970 -0.003680 45347.200000 0 1 0
5.383556 -20.896037 -7.258211 22.766394 -1.318645 1.895273 0.050901 -0.008501 -340425.000000 0 1 0
4.422856 -21.774737 -7.761811 23.536069 -1.370404 1.906871 0.038211 -0.011395 -116398.000000 0 1 0
4.173056 -22.885737 -6.871911 24.256845 -1.390435 1.858027 0.052141 -0.015423 914354.000000 0 1 0
3.035256 -23.829537 -7.435411 25.146470 -1.444105 1.870968 0.027793 -0.010632 1078860.000000 0 0 1
3.678356 -24.646937 -8.395511 26.296130 -1.422648 1.895753 0.047937 -0.011833 991239.000000 0 0 1
2.690656 -25.450727 -9.067011 27.151240 -1.465467 1.911282 0.033278 -0.003892 828148.000000 0 0 1
3.344956 -26.147467 -10.293011 28.298849 -1.443561 1.943060 0.040622 -0.003163 -91772.400000 0 0 1
4.171256 -27.206577 -9.943911 29.265656 -1.418663 1.917480 0.041634 -0.001513 -284577.000000 0 0 1
4.704556 -27.855577 -11.091411 30.349389 -1.403484 1.944921 0.064182 -0.002844 230647.000000 0 0 1
4.791056 -29.349317 -10.848311 31.654739 -1.408981 1.920594 0.055262 -0.002914 -282013.000000 0 0 1
3.516456 -29.905447 -10.910711 32.027252 -1.453748 1.918425 0.056243 -0.001157 -409833.000000 0 0 1
3.646656 -31.276627 -10.931611 33.332051 -1.454727 1.904941 0.067983 -0.009057 -953678.000000 0 0 1
2.433356 -31.991977 -11.402611 34.050365 -1.494881 1.912269 0.066061 -0.014934 -1085530.000000 0 0 1
2.125256 -31.836727 -12.807711 34.382138 -1.504140 1.952509 0.061858 -0.018536 285288.000000 0 0 1
1.217456 -32.805517 -13.286011 35.414718 -1.533702 1.955360 0.060827 -0.016044 -115209.000000 0 0 1
0.801056 -32.645787 -14.764111 35.838082 -1.546263 1.995408 0.050431 -0.008576 -301008.000000 0 0 1
-0.221744 -31.726397 -14.991511 35.090723 1.563807 2.012214 0.054521 -0.013122 -380916.000000 0 0 1
-0.554844 -31.653487 -16.333911 35.623697 1.553269 2.047117 0.034287 -0.010194 358202.000000 0 0 1
-1.838944 -30.784037 -16.586611 35.016487 1.511130 2.064261 0.037296 -0.001830 667804.000000 0 0 1
-2.955544 -31.294017 -15.832211 35.195307 1.476631 2.037381 0.043252 -0.013873 -41981.300000 0 0 1
-4.074844 -30.893637 -16.619911 35.316322 1.439654 2.060769 0.045961 -0.008190 -510428.000000 0 0 1
-5.371744 -30.982977 -15.842011 35.210365 1.399126 2.037477 0.046495 -0.013321 -895180.000000 0 0 1
-5.551544 -30.014637 -14.840911 33.940400 1.387902 2.023350 0.042242 -0.011975 931441.000000 0 0 1
-6.940544 -29.715177 -14.562911 33.811851 1.341341 2.016069 0.054483 -0.003964 1371930.000000 0 0 1
-7.701044 -30.710647 -13.620711 34.466994 1.325101 1.977062 0.054900 -0.016098 -42372.400000 0 0 1
-8.007044 -31.980007 -14.138011 35.870837 1.325463 1.975925 0.069843 -0.017456 -289421.000000 0 0 1
-8.587744 -32.808907 -13.173411 36.382860 1.314789 1.941292 0.082687 -0.019511 141458.000000 0 0 1
-9.098044 -34.063683 -13.871611 37.888395 1.309799 1.945630 0.109825 -0.025164 196656.000000 0 0 1
-8.035444 33.166851 -13.991511 36.883204 -1.333103 1.959886 0.102918 -0.021377 220505.000000 0 0 1
-8.467944 32.081304 -14.811311 36.335809 -1.312730 1.990646 0.126740 -0.035052 -79926.700000 0 0 1
-6.957644 -22.180037 -3.372911 23.489133 1.266828 1.714889 0.072456 -0.019690 71644.600000 0 1 0
-6.807644 -21.000237 -4.082311 22.450373 1.257315 1.753651 0.061802 -0.027640 -41231.700000 0 1 0
-5.663544 -20.975337 -4.912911 22.275035 1.307075 1.793182 0.056233 -0.024573 104545.000000 0 1 0
-5.718844 -19.801837 -5.918911 21.444147 1.289643 1.850442 0.050840 -0.025787 215513.000000 0 1 0
-6.841544 -20.096337 -6.734111 22.271456 1.242666 1.877969 0.067836 -0.028784 -64609.200000 0 1 0
-6.868244 -19.205637 -7.828811 21.847644 1.227353 1.937282 0.045097 -0.023108 -497885.000000 0 1 0
-7.940444 -19.391737 -8.900311 22.766327 1.182148 1.972451 0.053245 -0.030888 -93346.800000 0 1 0
-7.535644 -20.365337 -9.839311 23.839986 1.216396 1.996238 0.065427 -0.012290 204976.000000 0 1 0
-8.517044 -20.633737 -10.859511 24.823782 1.179328 2.023573 0.079527 -0.012131 550695.000000 0 1 0
-7.902844 -21.341937 -12.083311 25.767026 1.216156 2.058892 0.071701 -0.010406 -127288.000000 0 0 1
-7.030344 -20.634237 -12.905911 25.332983 1.242419 2.105343 0.066724 -0.002709 -418635.000000 0 0 1
-6.724944 -21.420437 -14.017711 26.468023 1.266591 2.128936 0.051819 -0.002885 310955.000000 0 0 1
-5.724444 -20.712237 -15.019511 26.217394 1.301148 2.180816 0.052997 -0.000407 1592450.000000 0 0 1
-4.374644 -20.721337 -14.467211 25.647837 1.362734 2.170105 0.053331 -0.002040 1267140.000000 0 0 1
-3.361344 -20.086737 -15.234111 25.433320 1.404991 2.213026 0.053226 0.003385 252791.000000 0 0 1
-3.336944 -18.493737 -15.378211 24.282563 1.392281 2.256610 0.067326 0.003290 -857201.000000 0 1 0
-4.418444 -17.892237 -16.022911 24.421066 1.328693 2.286449 0.069922 0.001533 -547943.000000 0 1 0
-4.396644 -18.077537 -17.412511 25.481824 1.332218 2.323111 0.078747 -0.003575 -620135.000000 0 0 1
-5.728944 -17.716137 -18.078111 25.951887 1.258036 2.341445 0.080117 -0.003087 397676.000000 0 0 1
-6.728944 -18.683437 -17.656511 26.572578 1.225103 2.297572 0.070485 0.005270 153874.000000 0 0 1
-7.858344 -18.736437 -18.492611 27.473338 1.173666 2.309204 0.071936 -0.000291 409628.000000 0 0 1
-8.982544 -19.634237 -17.872511 28.028843 1.141728 2.262236 0.090627 -0.011981 356968.000000 0 0 1
-8.587844 -20.991437 -18.061311 28.993145 1.182460 2.243306 0.087456 -0.004307 849620.000000 0 0 1
-9.639044 -21.903937 -17.718311 29.776369 1.156239 2.208119 0.091172 -0.006931 445491.000000 0 0 1
-9.270144 -23.335037 -18.119611 30.964170 1.192652 2.195898 0.090784 -0.013189 -817602.000000 0 0 1
-9.246144 -23.482337 -19.495511 31.890222 1.195690 2.228539 0.079322 -0.013682 590937.000000 0 0 1
-8.430844 -24.578237 -20.000611 32.790141 1.240353 2.226804 0.098347 -0.022390 1988850.000000 0 0 1
-6.867944 -24.434237 -19.691411 32.124014 1.296788 2.230624 0.114704 -0.009548 749912.000000 0 0 1
-6.192044 -23.470137 -20.515411 31.781612 1.312847 2.272490 0.106268 -0.009106 114155.000000 0 0 1
-5.993844 -22.151037 -20.010111 30.446661 1.306535 2.287919 0.094059 -0.006067 342523.000000 0 0 1
-4.813544 -22.018037 -18.975711 29.462549 1.355564 2.270593 0.086003 0.004119 -194919.000000 0 0 1
-3.558344 -22.235337 -19.496911 29.785929 1.412111 2.284407 0.080256 0.002484 -202783.000000 0 0 1
-2.499944 -22.025137 -18.547011 28.902388 1.457776 2.267525 0.067548 0.004236 1534880.000000 0 0 1
-1.124044 -22.776537 -18.687611 29.483231 1.521485 2.257302 0.061885 0.001373 1528750.000000 0 0 1
-0.276344 -22.211837 -19.738311 29.716040 1.558356 2.297261 0.071078 -0.003845 274081.000000 0 0 1
0.981956 -22.851337 -19.780211 30.239124 -1.527851 2.283823 0.062262 -0.011957 442121.000000 0 0 1
1.953956 -22.153437 -20.813811 30.459932 -1.482823 2.323093 0.079786 -0.017459 342909.000000 0 0 1
1.669056 -22.243337 -22.216711 31.482282 -1.495900 2.354192 0.070691 -0.022677 -441151.000000 0 0 1
0.960956 -21.127637 -22.628111 30.973084 -1.525344 2.389958 0.073088 -0.018240 -477809.000000 0 0 1
0.417056 -21.393837 -24.049611 32.190899 -1.551305 2.414475 0.080909 -0.025126 48067.000000 0 0 1
-0.251544 -20.362937 -24.804711 32.093398 1.558444 2.454182 0.093597 -0.027697 775422.000000 0 0 1
-1.595844 -20.058937 -24.406411 31.631955 1.491406 2.452109 0.089302 -0.018706 331696.000000 0 0 1
-2.132744 -18.824437 -25.053771 31.410181 1.457981 2.494155 0.079755 -0.016234 -141781.000000 0 0 1
-1.439544 -17.608137 -24.714011 30.379288 1.489223 2.520968 0.091912 -0.015368 43433.300000 0 0 1
-1.924144 -16.447537 -25.281311 30.221987 1.454339 2.561698 0.082573 -0.013543 -546707.000000 0 0 1
-1.269944 -15.141237 -24.865511 29.140410 1.487119 2.593078 0.091217 -0.011706 1435850.000000 0 0 1
0.071456 -14.998337 -25.453651 29.543926 -1.566032 2.609117 0.085954 -0.018946 1176180.000000 0 0 1
0.706956 -13.755437 -25.153531 28.677726 -1.519447 2.640609 0.073525 -0.019397 346791.000000 0 0 1
0.263956 -12.493337 -25.903051 28.759715 -1.549672 2.692108 0.070956 -0.012809 -15207.400000 0 0 1
1.081656 -11.437137 -25.434611 27.908736 -1.476503 2.717347 0.066805 -0.015339 72024.200000 0 0 1
0.828156 -10.294137 -26.120721 28.088204 -1.490520 2.765082 0.061849 -0.016353 79252.800000 0 0 1
1.871256 -9.149437 -25.826971 27.463544 -1.369057 2.794628 0.070343 -0.019514 1086870.000000 0 0 1
3.225256 -9.310737 -26.232241 28.021823 -1.237331 2.782273 0.059305 -0.009442 219752.000000 0 0 1
3.438156 -9.255637 -27.659811 29.369251 -1.215127 2.798726 0.057826 -0.010173 -439050.000000 0 0 1
4.926956 -8.983737 -27.942531 29.761846 -1.069159 2.790132 0.038943 -0.010677 -272382.000000 0 0 1
5.268856 -7.606337 -27.844431 29.341601 -0.964991 2.820764 0.038922 -0.013008 325510.000000 0 0 1
6.462356 -7.176437 -28.480961 30.073717 -0.837707 2.814680 0.053607 -0.011668 1108870.000000 0 0 1
7.797056 -7.251937 -27.584171 29.568077 -0.749191 2.773190 0.061724 -0.016661 969044.000000 0 0 1
8.226956 -8.527537 -27.178971 29.649590 -0.803337 2.730470 0.046015 -0.012042 424827.000000 0 0 1
8.828756 -9.306837 -28.261471 31.036670 -0.811754 2.715489 0.052651 -0.019994 -6190.110000 0 0 1
9.293356 -10.729737 -27.671081 31.099557 -0.857012 2.667611 0.048216 -0.014809 -203852.000000 0 0 1
8.175656 -11.481837 -27.320231 30.741974 -0.952028 2.665287 0.063053 -0.019141 -198627.000000 0 0 1
8.455656 -12.647337 -26.516721 30.571061 -0.981476 2.620709 0.062521 -0.011569 201380.000000 0 0 1
9.397856 -13.720637 -27.137681 31.828122 -0.970247 2.591799 0.071297 -0.019138 -39727.600000 0 0 1
8.740756 -14.300937 -28.195341 32.800837 -1.022181 2.605267 0.089549 -0.027382 -166742.000000 0 0 1
9.395456 -15.455637 -28.658881 33.889273 -1.024589 2.578601 0.084993 -0.026796 50278.100000 0 0 1
8.568556 -16.119937 -29.792571 34.940948 -1.082228 2.591842 0.088192 -0.031465 -261840.000000 0 0 1
8.334556 -15.290437 -30.932751 35.497851 -1.071736 2.628841 0.086043 -0.031082 -18105.100000 0 0 1
7.733356 -15.994037 -31.950731 36.557670 -1.120424 2.634133 0.094910 -0.027795 -467215.000000 0 0 1
6.674356 -15.183237 -32.730771 36.693066 -1.156635 2.672580 0.093959 -0.025574 82899.600000 0 0 1
7.095356 -14.140837 -33.583381 37.123454 -1.105739 2.701332 0.100827 -0.021222 484463.000000 0 0 1
5.903756 -13.457237 -33.970171 37.012486 -1.157375 2.733307 0.073802 -0.025915 535992.000000 0 0 1
6.227656 -12.184537 33.356154 36.053844 -1.098299 0.389297 0.109357 -0.015714 -28363.800000 0 0 1
6.809856 -12.499437 32.089490 35.104778 -1.071944 0.417499 0.097505 -0.014927 272250.000000 0 0 1
7.230156 -11.354137 31.396000 34.159924 -1.003766 0.405035 0.097739 -0.017439 -156546.000000 0 0 1
7.661356 -11.579937 29.910630 32.976311 -0.986305 0.434611 0.092191 -0.014346 417187.000000 0 0 1
6.565956 -11.957637 29.076060 32.117194 -1.068643 0.438684 0.083695 -0.010903 359304.000000 0 0 1
7.031156 -12.214337 27.740230 31.115070 -1.048475 0.470069 0.074320 -0.018337 224834.000000 0 0 1
6.120756 -12.893737 26.649050 30.230514 -1.127587 0.491707 0.057520 -0.021507 -19683.200000 0 0 1
6.117756 -14.268837 26.915670 31.072173 -1.165754 0.523188 0.061776 -0.017282 156637.000000 0 0 1
5.601856 -15.047737 25.827760 30.411978 -1.214419 0.556209 0.031093 -0.016873 270045.000000 0 0 1
4.075456 -15.283637 25.686530 30.166152 -1.310205 0.551954 0.026520 -0.024529 -182415.000000 0 0 1
3.330556 -14.194437 25.324670 29.221800 -1.340327 0.522376 0.018166 -0.026850 -66522.200000 0 0 1
2.034456 -14.584537 24.882500 28.913432 -1.432197 0.534377 0.028802 -0.022060 746809.000000 0 0 1
1.035056 -13.455437 24.534340 28.000964 -1.494023 0.502884 0.033723 -0.018175 -170112.000000 0 0 1
1.519556 -12.784237 23.403830 26.711141 -1.452490 0.502913 0.016979 -0.011814 32013.700000 0 0 1
0.738656 -11.643837 23.045490 25.830586 -1.507444 0.468651 0.017092 0.004258 1396200.000000 0 0 1
-0.750644 -11.909137 22.569390 25.529755 1.507849 0.486355 0.018754 0.001224 568513.000000 0 0 1
-0.828144 -12.558337 21.329690 24.765971 1.504948 0.533072 0.017445 -0.009259 -229367.000000 0 1 0
-1.989444 -13.360137 21.218590 25.153125 1.422974 0.566887 0.033867 -0.013146 215525.000000 0 0 1
-2.109544 -14.115937 19.878290 24.471540 1.422450 0.622707 0.062130 -0.024804 566818.000000 0 1 0
-0.942544 -14.909537 19.564390 24.616012 1.507663 0.652146 0.082591 -0.036491 49852.800000 0 1 0
-1.094744 -15.623837 18.371590 24.141625 1.500842 0.705955 0.091954 -0.034607 415270.000000 0 1 0
-1.985644 -16.892337 18.531690 25.153874 1.453786 0.742570 0.081705 -0.036999 382143.000000 0 0 1
-2.312344 -17.635637 17.374490 24.864343 1.440422 0.797118 0.067330 -0.043140 -455245.000000 0 1 0
-3.372944 -18.535237 17.488990 25.705963 1.390791 0.822560 0.081915 -0.031351 -202084.000000 0 0 1
-3.029044 -19.885037 16.879690 26.258594 1.419631 0.872615 0.081547 -0.034159 429056.000000 0 0 1
-2.094044 -20.657037 17.661090 27.258252 1.469770 0.865949 0.092289 -0.034936 93769.000000 0 0 1
-2.162944 -22.029337 17.347690 28.123164 1.472925 0.906066 0.085966 -0.044364 140812.000000 0 0 1
-0.921544 -22.751137 17.910690 28.969921 1.530313 0.904280 0.089613 -0.037270 1498910.000000 0 0 1
0.372656 -22.508637 17.309090 28.396870 -1.554242 0.915313 0.096865 -0.046393 380836.000000 0 0 1
1.355956 -23.260937 17.944590 29.409490 -1.512569 0.914530 0.091300 -0.043695 144087.000000 0 0 1
2.677756 -23.444237 17.135490 29.162093 -1.457071 0.942713 0.080501 -0.043874 483487.000000 0 0 1
3.416856 -22.232537 17.153490 28.287857 -1.418302 0.919283 0.076773 -0.029833 -198631.000000 0 0 1
4.660156 -22.371637 16.492990 28.182014 -1.365427 0.945631 0.061218 -0.022343 157224.000000 0 0 1
5.450556 -21.049437 16.515590 27.304800 -1.317421 0.921206 0.059378 -0.023081 -471014.000000 0 0 1
5.896156 -20.787237 17.866090 28.036959 -1.294413 0.879893 0.052571 -0.017735 -5907.360000 0 0 1
6.333356 -19.493037 18.274790 27.460114 -1.256652 0.842629 0.049336 -0.008128 1041740.000000 0 0 1
7.447456 -18.729737 17.415690 26.637829 -1.192337 0.858207 0.052027 -0.013291 765719.000000 0 0 1
6.844956 -18.133137 16.281490 25.313060 -1.209850 0.872119 0.046861 -0.016981 -270936.000000 0 0 1
7.795156 -17.559637 15.468490 24.665350 -1.153006 0.892928 0.059276 -0.014103 -390136.000000 0 1 0
7.138456 -16.597337 14.463690 23.143628 -1.164617 0.895724 0.043807 -0.014293 97089.600000 0 1 0
6.275656 -17.189837 13.517890 22.750994 -1.220751 0.934567 0.045113 -0.019396 113316.000000 0 1 0
5.709456 -16.202537 12.686190 21.355550 -1.232002 0.934716 0.031936 -0.024474 -12540.000000 0 1 0
6.252356 -16.474437 11.236290 20.898642 -1.208070 1.003141 0.029009 -0.020144 1119930.000000 0 1 0
7.682356 -16.321337 11.258490 21.264013 -1.130867 1.012830 0.047231 -0.007915 729466.000000 0 1 0
8.279856 -16.630137 9.990190 21.093160 -1.108844 1.077397 0.060349 -0.013262 -367685.000000 0 1 0
9.708656 -16.113237 9.921690 21.268154 -1.028521 1.085462 0.061730 -0.012890 -475256.000000 0 1 0
10.250756 -16.517537 8.687190 21.292588 -1.015369 1.150544 0.066937 -0.016270 -873216.000000 0 1 0
11.534456 -15.976237 8.549390 21.479663 -0.945473 1.161436 0.064432 -0.020765 -300069.000000 0 1 0
12.346456 -16.889037 7.593090 22.256001 -0.939545 1.222635 0.067585 -0.028340 -238035.000000 0 1 0
12.708856 -18.057637 8.288390 23.585816 -0.957529 1.211715 0.093966 -0.030252 -169610.000000 0 1 0
13.527456 -18.888837 7.510590 24.416986 -0.949306 1.258130 0.093925 -0.027839 4511.610000 0 1 0
14.220156 -20.067037 8.280690 25.951275 -0.954300 1.246031 0.091934 -0.027773 457408.000000 0 0 1
13.356356 -21.071537 8.838090 26.467221 -1.005853 1.230331 0.091788 -0.028596 429915.000000 0 0 1
14.149156 -22.084037 9.454690 27.880002 -1.000989 1.224814 0.087095 -0.022970 887660.000000 0 0 1
13.230056 -23.206537 10.128590 28.568621 -1.052652 1.208379 0.102626 -0.026424 626721.000000 0 0 1
12.721856 -22.664837 11.348490 28.360689 -1.059316 1.159117 0.097033 -0.027242 -193862.000000 0 0 1
11.780256 -23.451837 12.060590 28.882883 -1.105297 1.140028 0.094066 -0.024130 -17416.900000 0 0 1
12.113556 -24.904237 12.454990 30.365870 -1.118083 1.148162 0.068792 -0.026860 -199222.000000 0 0 1
13.180956 -25.046337 13.371090 31.302439 -1.086360 1.129449 0.041571 -0.020994 -61578.100000 0 0 1
13.164056 -26.284667 14.045390 32.579888 -1.106488 1.125078 0.047010 -0.026956 176033.000000 0 0 1
14.333056 -26.437777 15.057390 33.632091 -1.074005 1.106595 0.047329 -0.022674 200293.000000 0 0 1
14.271656 -25.735307 16.293390 33.637193 -1.064462 1.065135 0.053363 -0.023498 -299340.000000 0 0 1
15.397756 -26.031457 17.058890 34.723672 -1.036646 1.057243 0.074295 -0.027033 -584115.000000 0 0 1
15.233556 -25.425517 18.514890 34.947379 -1.031006 1.012439 0.084774 -0.026645 101433.000000 0 0 1
15.387156 -24.033037 18.584890 34.055097 -1.001306 0.993536 0.047793 -0.024279 -98235.600000 0 0 1
16.488456 -23.705637 19.396790 34.785944 -0.963063 0.979299 0.063412 -0.021498 -167546.000000 0 0 1
16.599656 -22.198337 19.547390 33.917772 -0.928712 0.956581 0.045678 -0.026071 132572.000000 0 0 1
16.996056 -21.419737 18.438690 32.979636 -0.900046 0.977505 0.037045 -0.020672 343344.000000 0 0 1
15.830956 -20.757737 18.000290 31.709829 -0.919246 0.967140 0.056914 -0.010954 -393116.000000 0 0 1
16.001956 -19.933437 16.749390 30.560540 -0.894369 0.990738 0.050663 -0.012436 35251.800000 0 0 1
16.747756 -18.719637 16.899890 30.274056 -0.840938 0.978545 0.057335 -0.013592 959431.000000 0 0 1
18.169856 -18.892537 16.822890 31.146128 -0.804895 1.000207 0.050587 -0.019657 235981.000000 0 0 1
18.989656 -17.640737 17.074990 31.038008 -0.748590 0.988274 0.060029 -0.019075 -376688.000000 0 0 1
18.982456 -17.269837 18.419290 31.588782 -0.738192 0.948262 0.053830 -0.018218 269250.000000 0 0 1
19.728756 -16.102137 18.668090 31.575311 -0.684527 0.938220 0.054093 -0.017027 -247495.000000 0 0 1
20.208956 -15.929537 20.109490 32.657980 -0.667530 0.907446 0.048756 -0.015916 99884.900000 0 0 1
21.362556 -16.696337 20.450690 33.961113 -0.663402 0.924568 0.041175 -0.016587 274625.000000 0 0 1
21.761856 -16.344937 21.746690 34.837536 -0.644193 0.896649 0.034346 -0.003686 -38277.500000 0 0 1
34.014518 -1.327337 -7.664911 34.892694 -0.039003 1.792273 0.155332 -0.037067 -583981.000000 0 0 1
35.272038 -0.856537 -8.062911 36.192000 -0.024279 1.795463 0.145769 -0.040095 -533625.000000 0 0 1
36.189018 -1.891137 -8.070611 37.126219 -0.052210 1.789929 0.164943 -0.050070 -516317.000000 0 0 1
-36.004540 -1.439437 -8.376711 36.994164 0.039958 1.799211 0.128583 -0.044359 -445729.000000 0 0 1
-35.007326 -2.412337 -8.304011 36.059518 0.068801 1.803168 0.145009 -0.038590 -444612.000000 0 0 1
-33.794334 -1.906337 -8.767111 34.965030 0.056350 1.824240 0.188932 -0.041403 -213425.000000 0 0 1
-32.581524 -2.877337 -8.776311 33.865298 0.088083 1.832942 0.163534 -0.037392 64431.300000 0 0 1
-32.132624 -3.260637 -7.466111 33.149360 0.101128 1.797972 0.158413 -0.041504 260626.000000 0 0 1
-30.895384 -3.933237 -7.511111 32.037663 0.126627 1.807445 0.153528 -0.046140 -322820.000000 0 0 1
-30.369784 -4.157937 -6.133311 31.260673 0.136064 1.768276 0.151433 -0.062660 -303748.000000 0 0 1
-29.858484 -3.005337 -5.453711 30.500886 0.100315 1.750568 0.149459 -0.055643 462955.000000 0 0 1
-29.578354 -3.186037 -4.087211 30.028905 0.107301 1.707329 0.156418 -0.052244 -345313.000000 0 0 1
-29.411954 -1.918637 -3.251011 29.653217 0.065141 1.680652 0.179817 -0.057878 -313268.000000 0 0 1
-28.118514 -1.369537 -3.308511 28.345594 0.048667 1.687783 0.142412 -0.047538 151982.000000 0 0 1
-28.101244 -0.019337 -2.851211 28.245525 0.000688 1.671912 0.151580 -0.057109 68749.900000 0 0 1
-26.681044 0.485463 -2.473211 26.799823 -0.018193 1.663212 0.151047 -0.037720 306006.000000 0 0 1
-26.168604 -0.173437 -1.331411 26.203026 0.006628 1.621630 0.128175 -0.039080 1174130.000000 0 0 1
-24.766944 0.055163 -1.076511 24.790390 -0.002227 1.614235 0.108189 -0.029859 1170750.000000 0 1 0
-24.162344 -0.660037 0.189289 24.172098 0.027310 1.562965 0.091074 -0.030454 123079.000000 0 1 0
-24.179944 -2.059637 0.082489 24.267645 0.084974 1.567397 0.100302 -0.032953 97339.500000 0 1 0
-23.388944 -2.551337 1.107489 23.553737 0.108653 1.523759 0.095068 -0.034663 -634151.000000 0 1 0
-23.422044 -4.049637 1.093089 23.794674 0.171206 1.524842 0.092310 -0.025016 144422.000000 0 1 0
-24.677744 -4.666837 1.390989 25.153633 0.186904 1.515468 0.098381 -0.037192 702124.000000 0 0 1
-24.595144 -6.109337 1.264389 25.374077 0.243469 1.520946 0.078206 -0.020277 -1292100.000000 0 0 1
-25.822764 -6.821937 1.684989 26.761785 0.258282 1.507792 0.102593 -0.024926 -1195050.000000 0 0 1
-25.973774 -6.975837 3.088789 27.071015 0.262381 1.456448 0.091687 -0.023136 278178.000000 0 0 1
-27.198024 -7.595737 3.432789 28.446647 0.272337 1.449827 0.117505 -0.013077 67869.000000 0 0 1
-27.365804 -7.721837 4.986189 28.868253 0.275021 1.397204 0.089818 -0.022214 63582.600000 0 0 1
-26.526784 -8.677837 5.617089 28.469752 0.316162 1.372193 0.103039 -0.000885 118547.000000 0 0 1
-26.753694 -8.786537 7.039689 29.026205 0.317325 1.325825 0.082054 -0.001238 -82217.900000 0 0 1
-26.361024 -7.529937 7.898889 28.530614 0.278237 1.290275 0.085877 0.002000 158596.000000 0 0 1
-24.960244 -7.360837 7.761689 27.155837 0.286774 1.280934 0.110663 -0.010406 512492.000000 0 0 1
-24.408644 -6.097637 8.249989 26.476884 0.244804 1.253928 0.108731 -0.027617 666462.000000 0 0 1
-22.911344 -5.872337 7.887089 24.932312 0.250906 1.248927 0.136321 -0.036053 1069290.000000 0 1 0
-21.908244 -6.535637 8.684989 24.456384 0.289914 1.207752 0.134605 -0.037716 811166.000000 0 1 0
-20.636844 -6.527437 8.079489 23.103352 0.306343 1.213534 0.119983 -0.031144 132502.000000 0 1 0
-19.492444 -7.067337 8.973489 22.592612 0.347827 1.162347 0.126595 -0.026084 124667.000000 0 1 0
-18.953544 -6.127237 9.874389 22.232485 0.312672 1.110580 0.091699 -0.023098 444194.000000 0 1 0
-17.859644 -6.706137 10.576189 21.812724 0.359201 1.064589 0.074502 -0.026385 189489.000000 0 1 0
-17.227944 -5.888037 11.738089 21.662266 0.329326 0.998138 0.029004 -0.008200 341766.000000 0 1 0
-18.188544 -5.519437 12.728189 22.875622 0.294625 0.980739 0.056957 -0.021819 305084.000000 0 1 0
-18.783644 -4.237337 12.610689 23.017597 0.221873 0.990978 0.078535 -0.022221 453384.000000 0 1 0
-20.029144 -4.138537 13.565589 24.542194 0.203758 0.985141 0.091009 -0.038192 205585.000000 0 1 0
-19.815644 -4.456437 14.928789 25.206910 0.221214 0.936948 0.095035 -0.032366 226710.000000 0 0 1
-20.952344 -4.149537 15.732189 26.527743 0.195516 0.935959 0.097358 -0.022114 257159.000000 0 0 1
-20.983844 -5.023137 16.991089 27.463625 0.234960 0.903740 0.091453 -0.014413 -156273.000000 0 0 1
-21.962044 -4.625137 17.911089 28.714637 0.207564 0.897250 0.084988 -0.019803 129409.000000 0 0 1
-21.916644 -5.452937 19.065189 29.555967 0.243852 0.869703 0.084469 -0.014313 -51334.700000 0 0 1
-22.896444 -5.035237 20.194089 30.941913 0.216468 0.859726 0.064948 -0.006124 -240525.000000 0 0 1
-22.650144 -3.738137 20.678789 30.896844 0.163564 0.837551 0.066545 0.000149 443808.000000 0 0 1
-23.389244 -3.433237 21.885989 32.215529 0.145746 0.823904 0.059738 -0.004166 265587.000000 0 0 1
-23.281044 -1.949737 22.184789 32.217593 0.083553 0.811250 0.051395 -0.000868 38032.500000 0 0 1
-24.300144 -1.265037 21.502389 32.472296 0.052012 0.847077 0.072821 -0.007478 -477174.000000 0 0 1
-24.271744 0.078763 21.824289 32.640823 -0.003245 0.838446 0.065884 -0.008521 -659418.000000 0 0 1
-25.469374 0.910163 21.410189 33.285336 -0.035720 0.872085 0.081088 -0.017348 -263188.000000 0 0 1
-26.587964 0.530563 22.191389 34.636094 -0.019952 0.875385 0.087672 -0.013365 60090.900000 0 0 1
-27.724394 1.364463 22.033489 35.439785 -0.049176 0.899864 0.099423 -0.013446 661499.000000 0 0 1
-28.825694 1.210563 23.109189 36.965128 -0.041971 0.895457 0.089094 -0.014138 237218.000000 0 0 1
-28.320314 1.851963 24.273189 37.345115 -0.065300 0.863252 0.076103 -0.007477 -81741.000000 0 0 1
-29.298984 1.965563 25.244789 38.724582 -0.066986 0.860701 0.073191 -0.013174 -708961.000000 0 0 1
-28.944184 2.923263 26.390589 39.278167 -0.100655 0.834039 0.088791 -0.018070 11273.500000 0 0 1
-27.891024 2.448463 27.203189 39.037388 -0.087562 0.799801 0.065141 -0.026260 257857.000000 0 0 1
-27.432174 3.463763 28.111289 39.430526 -0.125602 0.777126 0.061180 -0.027578 -19332.900000 0 0 1
-26.275274 3.071963 29.050189 39.290462 -0.116386 0.738662 0.066064 -0.028839 -85867.700000 0 0 1
-26.640084 2.165563 30.025089 40.198130 -0.081111 0.727367 0.069144 -0.029022 -391359.000000 0 0 1
-25.550364 1.791763 30.804989 40.062187 -0.070012 0.693632 0.055072 -0.029927 -818829.000000 0 0 1
-25.727804 0.608263 31.750889 40.870635 -0.023638 0.681128 0.045996 -0.028453 -532539.000000 0 0 1
-25.538474 -0.692637 31.251889 40.365504 0.027115 0.685310 0.056051 -0.035827 -190627.000000 0 0 1
-26.030764 -1.602637 32.163789 41.408676 0.061489 0.681323 0.060959 -0.030390 -161450.000000 0 0 1
-26.779714 -2.773337 31.364489 41.334920 0.103193 0.709344 0.055010 -0.025529 699394.000000 0 0 1
-28.067494 -2.367737 30.882589 41.798620 0.084159 0.739446 0.075382 -0.022314 569342.000000 0 0 1
-28.121474 -1.607737 29.689189 40.924932 0.057109 0.759101 0.074417 -0.025742 -485019.000000 0 0 1
-29.569534 -1.525837 29.146689 41.547743 0.051556 0.793264 0.097559 -0.029324 348829.000000 0 0 1
-30.429564 -0.907637 30.085889 42.801201 0.029819 0.791300 0.118425 -0.021929 -1012640.000000 0 0 1
-31.742044 -1.034737 29.654289 43.451178 0.032587 0.819655 0.101301 -0.024684 -448554.000000 0 0 1
-32.811394 -0.457837 30.624289 44.884788 0.013953 0.819911 0.101194 -0.022074 195807.000000 0 0 1
-33.261264 -1.451637 31.504689 45.836277 0.043616 0.812988 0.109669 -0.016773 378633.000000 0 0 1
-34.259350 -1.009237 32.438289 47.190721 0.029450 0.812911 0.138443 -0.022063 271933.000000 0 0 1
-34.548845 -2.014037 33.577689 48.219708 0.058229 0.800500 0.130724 -0.017509 715192.000000 0 0 1
-35.406939 -3.127837 33.136389 48.594804 0.088111 0.820451 0.086805 -0.020300 510708.000000 0 0 1
-35.462870 -4.182937 34.045189 49.337480 0.117410 0.809242 0.076493 -0.012172 -31029.200000 0 0 1
-36.667804 -5.126237 33.806089 50.136392 0.138902 0.830804 0.071418 -0.022026 782235.000000 0 0 1
35.732928 -4.512837 -33.874912 49.444085 -0.125628 2.325559 0.074049 -0.030301 691890.000000 0 0 1
34.566528 -5.202037 33.759289 48.596251 -0.149373 0.802809 0.072587 -0.034219 276227.000000 0 0 1
33.329118 -4.879737 -33.474312 47.488646 -0.145378 2.353066 0.087245 -0.036395 -478638.000000 0 0 1
33.081138 -5.638037 -32.279812 46.563241 -0.168809 2.336781 0.081765 -0.036092 142062.000000 0 0 1
32.637658 -7.001437 -32.404912 46.522201 -0.211318 2.341370 0.084070 -0.031554 1366030.000000 0 0 1
31.154748 -7.265237 -32.958212 45.930880 -0.229104 2.371091 0.087146 -0.030176 1474410.000000 0 0 1
30.116088 -6.731537 -32.139312 44.555894 -0.219905 2.376511 0.088822 -0.032592 261874.000000 0 0 1
28.905098 -7.253337 -32.663912 44.215911 -0.245860 2.401990 0.096633 -0.038992 314496.000000 0 0 1
27.582018 -6.624937 -32.121812 42.854035 -0.235725 2.418198 0.089018 -0.044250 414942.000000 0 0 1
26.449618 -7.380137 -32.521912 42.564345 -0.272106 2.440387 0.079328 -0.037076 23072.000000 0 0 1
25.303818 -6.888637 -31.838912 41.248671 -0.265796 2.452585 0.075088 -0.033594 523744.000000 0 0 1
23.992118 -7.574837 -32.389312 41.013015 -0.305817 2.481169 0.081020 -0.039175 481090.000000 0 0 1
23.897818 -8.987737 -32.209512 41.101555 -0.359726 2.471327 0.087219 -0.047067 70854.300000 0 0 1
23.704218 -9.384837 -30.863012 40.031121 -0.376979 2.451168 0.085880 -0.042897 -454381.000000 0 0 1
23.304518 -10.856437 -30.736512 40.071136 -0.435957 2.445025 0.094500 -0.036748 -206772.000000 0 0 1
22.016518 -11.133337 -31.230112 39.799474 -0.468182 2.472987 0.102188 -0.042230 -28150.800000 0 0 1
21.827018 -12.534537 -31.220712 40.103194 -0.521283 2.463084 0.096058 -0.032405 -763476.000000 0 0 1
20.752218 -13.080037 -32.200512 40.479809 -0.562399 2.490581 0.084184 -0.025385 501198.000000 0 0 1
19.410118 -12.853937 -31.791412 39.403937 -0.584924 2.509526 0.064434 -0.015983 212694.000000 0 0 1
19.043918 -11.569037 -32.177412 39.139485 -0.545910 2.535924 0.055877 -0.020655 -506245.000000 0 0 1
17.620518 -11.030237 -31.775812 37.971714 -0.559310 2.562261 0.051528 -0.015802 767403.000000 0 0 1
16.590318 -11.663037 -32.527812 38.331758 -0.612738 2.584104 0.028648 -0.006264 -775097.000000 0 0 1
15.381118 -11.444737 -31.886112 37.205980 -0.639700 2.600246 0.054529 -0.010496 -821348.000000 0 0 1
14.164618 -11.683137 -32.775712 37.568330 -0.689688 2.630947 0.049169 -0.009907 -961721.000000 0 0 1
13.926118 -13.023837 -33.064312 38.168126 -0.751931 2.618505 0.057732 -0.011642 65008.000000 0 0 1
12.676618 -13.301937 -33.661812 38.350434 -0.809464 2.641927 0.045548 -0.006306 560490.000000 0 0 1
11.490818 -13.487137 -32.652512 37.150078 -0.865152 2.644421 0.047233 -0.006011 49670.600000 0 0 1
11.190718 -12.292637 -31.970812 36.034344 -0.832287 2.662106 0.085757 -0.001607 -367654.000000 0 0 1
10.198218 -12.310337 -30.964812 34.847778 -0.878960 2.665022 0.088749 -0.012335 -684192.000000 0 0 1
8.924118 -11.656637 -31.390012 34.653282 -0.917397 2.704133 0.082066 -0.005550 -1178130.000000 0 0 1
9.119918 -10.270637 -31.605312 34.460915 -0.844673 2.731628 0.074217 -0.004276 915768.000000 0 0 1
8.000318 -9.595237 -32.244912 34.580457 -0.875794 2.771961 0.071155 -0.003033 678699.000000 0 0 1
8.204718 -8.120137 -32.556912 34.542822 -0.780217 2.800856 0.082644 -0.007500 -296836.000000 0 0 1
8.684418 -7.441937 -31.472012 33.485655 -0.708504 2.793033 0.071287 -0.009913 200835.000000 0 0 1
9.098118 -6.135237 -31.845212 33.682851 -0.593297 2.809748 0.060839 0.003665 -56990.600000 0 0 1
9.457718 -5.259537 -30.606412 32.463266 -0.507523 2.801733 0.057556 -0.004550 -598381.000000 0 0 1
8.341018 -4.904137 -29.869712 31.397816 -0.531515 2.828323 0.064711 -0.007473 -624038.000000 0 0 1
8.629918 -3.829337 -28.987512 30.486311 -0.417626 2.826724 0.061785 -0.002495 106326.000000 0 0 1
7.419618 -3.086737 -28.377012 29.492940 -0.394243 2.865628 0.054823 -0.003719 -123547.000000 0 0 1
6.560118 -2.420137 -29.301812 30.124548 -0.353427 2.907343 0.057128 -0.000255 232331.000000 0 0 1
5.361918 -1.951637 -28.751112 29.311866 -0.349076 2.945675 0.074758 -0.011069 -785195.000000 0 0 1
4.186818 -2.872237 -28.667512 29.113664 -0.601281 2.966300 0.060536 -0.017894 -1190590.000000 0 0 1
4.304818 -3.757637 -27.559412 28.145559 -0.717634 2.937151 0.062728 -0.020071 -66806.900000 0 0 1
3.166318 -4.577037 -27.556712 28.113115 -0.965606 2.942308 0.074818 -0.024214 8657.940000 0 0 1
3.216318 -5.509437 -26.337112 27.098747 -1.042386 2.903944 0.044671 -0.024257 -59715.100000 0 0 1
3.136918 -4.870337 -25.075512 25.736001 -0.998590 2.914548 0.064882 -0.033114 37538.300000 0 0 1
3.193118 -5.787337 -23.993212 24.887015 -1.066617 2.872775 0.055303 -0.039217 -112189.000000 0 1 0
3.230618 -5.002237 -22.720412 23.487793 -0.997355 2.885269 0.071002 -0.046758 -121525.000000 0 1 0
4.347718 -4.179237 -22.541112 23.333890 -0.765642 2.880175 0.067708 -0.036102 -187664.000000 0 1 0
4.108618 -3.323437 -21.468112 22.108953 -0.680141 2.900235 0.064000 -0.032177 -189963.000000 0 1 0
5.139318 -2.189437 -21.359212 22.077640 -0.402732 2.885784 0.078740 -0.029910 -28416.800000 0 1 0
6.391218 -2.693337 -20.936712 22.055558 -0.398828 2.821707 0.069892 -0.032309 -321932.000000 0 1 0
7.207818 -1.665837 -20.424212 21.722709 -0.227127 2.794084 0.087934 -0.029231 352026.000000 0 1 0
8.620418 -2.225437 -20.066012 21.952426 -0.252643 2.724000 0.074411 -0.036513 -379548.000000 0 1 0
9.492718 -2.365737 -21.162612 23.314471 -0.244241 2.708573 0.086789 -0.043704 115512.000000 0 1 0
10.734118 -3.003137 -20.935012 23.717396 -0.272800 2.652343 0.066882 -0.041114 651866.000000 0 1 0
11.789518 -2.226037 -20.080312 23.391599 -0.186618 2.603019 0.059447 -0.039444 -634900.000000 0 1 0
11.447118 -1.945237 -18.712312 22.022059 -0.168325 2.586227 0.057828 -0.038979 756055.000000 0 1 0
12.592318 -1.405037 -18.040212 22.045178 -0.111119 2.529294 0.058482 -0.038430 334623.000000 0 1 0
12.905818 0.102463 -18.128712 22.253558 0.007939 2.522910 0.055862 -0.033330 -6824.920000 0 1 0
13.326918 0.407263 -19.488312 23.612855 0.030550 2.541576 0.056870 -0.033598 324122.000000 0 1 0
13.207018 1.824663 -19.625012 23.725426 0.137289 2.544853 0.061159 -0.040340 -118364.000000 0 1 0
13.639718 2.376463 -20.981512 25.137886 0.172499 2.558306 0.057331 -0.036803 199757.000000 0 0 1
15.047718 2.373763 -21.214512 26.117505 0.156460 2.518833 0.062460 -0.039845 536689.000000 0 0 1
15.294118 3.561463 -21.975312 27.009413 0.228788 2.521142 0.063334 -0.049289 -599244.000000 0 0 1
16.741418 3.830263 -22.404512 28.229562 0.224919 2.487589 0.049176 -0.041136 -204799.000000 0 0 1
17.251418 2.936763 -23.388112 29.210269 0.168617 2.499228 0.041209 -0.032613 279486.000000 0 0 1
17.840818 1.741863 -22.901112 29.082466 0.097325 2.477464 0.035713 -0.024613 -396991.000000 0 0 1
9.454156 27.009463 3.323989 28.808698 1.234094 1.455157 0.005341 -0.007668 -89518.000000 0 0 1
9.592456 27.515363 4.654789 29.508939 1.235350 1.412393 0.017955 -0.008081 897942.000000 0 0 1
10.954656 27.752163 5.056789 30.261496 1.194840 1.402906 0.018440 -0.006696 236895.000000 0 0 1
11.017956 28.232363 6.553689 31.006653 1.198715 1.357826 0.019074 -0.011184 -210792.000000 0 0 1
10.626756 27.322063 7.523389 30.265896 1.199857 1.319586 0.021905 -0.012364 166010.000000 0 0 1
10.647556 27.895363 8.820589 31.133977 1.206168 1.283552 0.032028 -0.014672 -964802.000000 0 0 1
10.572156 26.792663 9.911489 30.460710 1.194961 1.239376 0.055483 -0.018701 1532200.000000 0 0 1
11.817256 26.082163 10.280989 30.424094 1.145386 1.226088 0.038242 -0.013032 1613510.000000 0 0 1
12.422056 25.327963 9.249789 29.687906 1.114819 1.253954 0.032697 -0.015396 -55259.300000 0 0 1
13.754856 24.692563 9.745989 29.898211 1.062561 1.238756 0.051310 -0.017454 -104000.000000 0 0 1
14.822556 25.590363 9.875189 31.178425 1.045793 1.248515 0.047872 -0.013690 -667140.000000 0 0 1
15.916356 24.869863 10.364889 31.293312 1.001493 1.233203 0.050333 -0.012534 362892.000000 0 0 1
17.113756 25.839263 10.721789 32.794892 0.985812 1.237738 0.050757 -0.016964 -547438.000000 0 0 1
17.808456 26.516563 9.705789 33.383702 0.979388 1.275802 0.047487 -0.018365 3710.620000 0 0 1
19.189456 26.664463 9.902289 34.311574 0.946995 1.278033 0.050611 -0.023865 -100988.000000 0 0 1
19.699656 27.290863 11.214689 35.477273 0.945562 1.249171 0.061195 -0.026974 -1423660.000000 0 0 1
19.802456 28.702863 11.401389 36.687645 0.966873 1.254794 0.065690 -0.030708 1062260.000000 0 0 1
18.478456 29.301963 11.440489 36.482094 1.008165 1.251823 0.038307 -0.019704 1125410.000000 0 0 1
18.503556 30.821863 11.524789 37.751683 1.030128 1.260565 0.026115 -0.015423 -690882.000000 0 0 1
18.957456 31.475063 10.348089 38.172604 1.028687 1.296274 0.049758 -0.026103 592066.000000 0 0 1
18.022856 31.515163 9.225389 37.458465 1.051311 1.321953 0.047497 -0.026333 779580.000000 0 0 1
16.749856 32.367663 9.479389 37.657431 1.093257 1.316332 0.044028 -0.021230 -121060.000000 0 0 1
17.039656 33.612663 10.038189 38.999054 1.101611 1.310470 0.039031 -0.021281 76560.600000 0 0 1
15.824256 -33.816838 10.017789 38.656716 -1.133124 1.308657 0.057492 -0.014812 274308.000000 0 0 1
16.047756 -32.335738 10.161389 37.501790 -1.110125 1.296409 0.072739 -0.011775 17151.200000 0 0 1
16.743256 -31.756438 9.043589 37.021541 -1.085595 1.324020 0.071366 -0.017776 235852.000000 0 0 1
16.646556 -30.319938 9.174889 35.785263 -1.068698 1.311514 0.050382 -0.022085 -25427.200000 0 0 1
17.325056 -29.635638 8.008189 35.249961 -1.041776 1.341612 0.058580 -0.021081 22941.300000 0 0 1
16.633756 -29.849538 6.764089 34.834318 -1.062401 1.375376 0.057520 -0.016301 -265194.000000 0 0 1
17.410056 -29.399138 5.710389 34.641419 -1.036135 1.405198 0.065140 -0.009180 -257784.000000 0 0 1
16.956356 -29.672138 4.257689 34.439537 -1.051629 1.446851 0.066246 -0.011045 -149978.000000 0 0 1
17.043956 -30.991238 3.854689 35.578251 -1.067983 1.462239 0.062007 -0.013164 -145595.000000 0 0 1
16.758356 -31.192338 2.500289 35.497266 -1.077788 1.500302 0.068715 -0.014726 -85773.700000 0 0 1
17.190356 -32.587538 2.051089 36.900718 -1.085381 1.515184 0.063512 -0.015977 169396.000000 0 0 1
18.581956 -32.868838 1.982889 37.809807 -1.056255 1.518328 0.057749 -0.006212 321754.000000 0 0 1
18.744556 33.993863 1.531589 38.849541 1.066871 1.531363 0.088854 -0.013366 374264.000000 0 0 1
20.223556 33.524863 1.656789 39.187416 1.027997 1.528505 0.102404 -0.019364 443546.000000 0 0 1
20.482056 33.007763 2.966089 38.959270 1.015423 1.494590 0.087133 -0.032628 -495854.000000 0 0 1
21.812156 32.749263 3.289489 39.485505 0.983231 1.487391 0.063421 -0.021274 -412024.000000 0 0 1
22.120756 32.633063 4.803089 39.715417 0.975082 1.449562 0.072216 -0.018660 -31309.300000 0 0 1
21.475056 31.508263 5.370089 38.506967 0.972548 1.430883 0.085273 -0.030398 223197.000000 0 0 1
22.262956 30.326463 5.251389 37.985664 0.937543 1.432106 0.064226 -0.032851 266089.000000 0 0 1
21.590556 29.119763 5.954989 36.736557 0.932796 1.407978 0.072869 -0.035981 202962.000000 0 0 1
20.341956 28.809063 5.366189 35.672865 0.955991 1.419795 0.077448 -0.032418 -34629.900000 0 0 1
19.440156 28.383463 6.383089 34.989777 0.970269 1.387342 0.072778 -0.031855 -1170420.000000 0 0 1
17.987456 28.615163 6.114289 34.347644 1.009613 1.391831 0.074724 -0.031914 -1400190.000000 0 0 1
17.581756 30.037063 6.150989 35.343712 1.041229 1.395872 0.067914 -0.036644 251443.000000 0 0 1
17.945056 30.780863 5.018189 35.981506 1.042975 1.430874 0.085269 -0.035101 -365535.000000 0 0 1
17.859256 32.289563 5.226489 37.267749 1.065579 1.430091 0.092547 -0.035972 631445.000000 0 0 1
16.544156 32.842463 5.317389 37.156575 1.104159 1.427196 0.066240 -0.029588 336852.000000 0 0 1
16.566556 -33.904638 5.719189 38.166535 -1.116292 1.420382 0.065112 -0.027530 -22944.700000 0 0 1
15.160056 -33.264638 5.784089 37.011068 -1.143179 1.413873 0.061439 -0.024756 319514.000000 0 0 1
14.478456 -33.234138 4.509089 36.530337 -1.159940 1.447047 0.063334 -0.022811 -575714.000000 0 0 1
13.356956 -32.410538 4.669689 35.364633 -1.179887 1.438366 0.056735 -0.017717 -646967.000000 0 0 1
12.530956 -32.370938 3.414189 34.879209 -1.201455 1.472753 0.053437 -0.017031 -1148740.000000 0 0 1
11.479456 -31.501238 3.491189 33.708965 -1.221340 1.467042 0.047048 -0.018181 -815988.000000 0 0 1
10.812156 -31.369838 2.239789 33.256370 -1.238880 1.503396 0.044842 -0.012780 5434.660000 0 0 1
9.698956 -30.233238 2.308289 31.834677 -1.260364 1.498224 0.044674 -0.011174 717743.000000 0 0 1
9.161956 -29.892838 1.002889 31.281448 -1.273393 1.538731 0.048015 -0.006054 -724502.000000 0 0 1
8.279456 -30.810538 0.512989 31.907708 -1.308276 1.554718 0.039900 -0.010517 -1973890.000000 0 0 1
8.477356 -31.354038 -0.852511 32.491046 -1.306735 1.597038 0.050913 -0.011789 457319.000000 0 0 1
9.791556 -31.933938 -0.867111 33.412615 -1.273278 1.596751 0.046125 -0.014574 498741.000000 0 0 1
9.848556 -32.834238 -1.973811 34.336237 -1.279387 1.628313 0.047223 -0.004801 -554669.000000 0 0 1
11.082856 -33.712738 -2.040011 35.546309 -1.253182 1.628218 0.049269 -0.011960 -598903.000000 0 0 1
11.007456 33.436263 -1.039611 35.216879 1.252764 1.600321 0.045524 -0.016395 455966.000000 0 0 1
12.259756 32.760563 -0.931111 34.991757 1.212707 1.597409 0.059431 -0.019010 293862.000000 0 0 1
12.463656 31.808063 0.253989 34.163725 1.197345 1.563362 0.054216 -0.023429 -406947.000000 0 0 1
12.748556 32.418763 1.507789 34.867969 1.196126 1.527540 0.049349 -0.023543 1379120.000000 0 0 1
14.064256 32.990563 1.812189 35.909115 1.167815 1.520309 0.066940 -0.023046 588274.000000 0 0 1
15.185456 32.025263 2.013189 35.500260 1.128024 1.514057 0.085179 -0.032773 -1330540.000000 0 0 1
15.714556 31.594963 0.805189 35.296420 1.109251 1.547982 0.085542 -0.029493 -547573.000000 0 0 1
16.546756 30.501563 1.004389 34.715260 1.073738 1.541860 0.106229 -0.026410 -462578.000000 0 0 1
17.124956 29.955163 -0.333411 34.506334 1.051456 1.580459 0.106079 -0.022087 -62184.200000 0 0 1
18.216056 30.646163 -0.886111 35.662266 1.034505 1.595646 0.084132 -0.015108 -203959.000000 0 0 1
17.898656 31.899763 -1.505211 36.609048 1.059478 1.611924 0.100457 -0.021444 371901.000000 0 0 1
19.121756 32.509763 -2.273611 37.784859 1.039110 1.631005 0.081934 -0.014234 445870.000000 0 0 1
20.099156 33.139763 -1.512311 38.787976 1.025614 1.609795 0.065086 -0.005198 535698.000000 0 0 1
21.230156 33.619263 -2.291511 39.827445 1.007545 1.628364 0.058156 0.001768 766720.000000 0 0 1
22.417156 -34.024538 -1.449511 40.771303 -0.988223 1.606356 0.048372 0.001111 -409866.000000 0 0 1
23.295456 33.247763 -0.757411 40.603764 0.959626 1.589451 0.046887 0.003517 1120710.000000 0 0 1
24.206656 32.390863 -1.503111 40.464670 0.929006 1.607951 0.059920 -0.000317 1021000.000000 0 0 1
25.111056 33.096363 -2.628911 41.627462 0.921734 1.633992 0.044463 -0.007174 -1384900.000000 0 0 1
24.361356 33.439263 -3.751211 41.541925 0.941181 1.661219 0.053449 -0.019664 38349.800000 0 0 1
25.069356 -33.833438 -4.644111 42.364395 -0.933103 1.680640 0.047218 -0.019091 93459.400000 0 0 1
24.234456 -33.350538 -5.847411 41.638438 -0.942402 1.711695 0.055252 -0.029461 332787.000000 0 0 1
23.171656 -32.415638 -5.606311 40.238414 -0.950187 1.710578 0.056515 -0.019315 712087.000000 0 0 1
22.426456 -32.214438 -6.815811 39.839318 -0.962651 1.742725 0.059016 -0.022943 564918.000000 0 0 1
21.336756 -31.076138 -6.832611 38.310157 -0.969123 1.750105 0.068244 -0.018027 439350.000000 0 0 1
20.185356 -31.249138 -6.050411 37.690380 -0.997274 1.732023 0.072515 -0.017306 -15833.700000 0 0 1
19.573256 -29.944138 -5.819011 36.243960 -0.991853 1.732045 0.084306 -0.019315 427700.000000 0 0 1
18.353656 -29.963938 -4.858411 35.472503 -1.021218 1.708191 0.067958 -0.009231 525685.000000 0 0 1
17.203356 -30.619238 -5.385211 35.531588 -1.058902 1.722944 0.072108 -0.013507 -629143.000000 0 0 1
16.143656 -30.368638 -4.541311 34.691430 -1.082197 1.702079 0.055034 -0.009101 -703291.000000 0 0 1
14.840956 -31.071938 -4.956311 34.789141 -1.125203 1.713750 0.053321 -0.005803 -25983.900000 0 0 1
14.848356 -32.460338 -4.827311 36.020136 -1.141780 1.705218 0.056535 -0.001579 259214.000000 0 0 1
13.541056 -32.944138 -5.114711 35.983840 -1.180817 1.713418 0.055197 0.003735 390104.000000 0 0 1
13.615056 33.672563 -5.251111 36.698575 1.186557 1.714377 0.055222 -0.005649 -41175.100000 0 0 1
13.896956 32.976463 -4.029711 36.011263 1.171961 1.682933 0.074037 -0.023234 3095.370000 0 0 1
14.226156 31.586363 -4.257911 34.902889 1.147619 1.693094 0.067591 -0.017929 -914261.000000 0 0 1
13.160756 30.694563 -4.794211 33.739386 1.165741 1.713374 0.057344 -0.019391 -596347.000000 0 0 1
12.135056 30.245463 -3.899811 32.821580 1.189239 1.689896 0.047191 -0.017246 46346.300000 0 0 1
12.563456 29.347963 -2.890611 32.054625 1.166315 1.661097 0.050638 -0.019679 -188239.000000 0 0 1
11.426256 28.648063 -2.089711 30.913391 1.191282 1.638447 0.038025 -0.014245 429909.000000 0 0 1
10.708056 29.417863 -1.131211 31.326550 1.221706 1.606914 0.019438 -0.018037 -356097.000000 0 0 1
9.846056 28.570663 -0.417211 30.222536 1.238921 1.584601 0.010512 -0.011468 -52735.900000 0 0 1
8.753156 29.403163 0.311689 30.679975 1.281456 1.560637 0.009433 -0.003941 263697.000000 0 0 1
7.836456 28.528163 0.945089 29.599988 1.302717 1.538862 0.010172 -0.010485 298012.000000 0 0 1
6.666956 29.244863 1.362689 30.026109 1.346657 1.525397 0.028662 -0.007723 244968.000000 0 0 1
5.676656 28.411863 2.167589 29.054377 1.373594 1.496122 0.038991 -0.018306 83698.200000 0 0 1
5.126856 27.308063 1.421789 27.821510 1.385215 1.519670 0.050712 -0.028953 195196.000000 0 0 1
3.824556 26.988963 1.873789 27.322929 1.430025 1.502163 0.057473 -0.033267 213827.000000 0 0 1
3.133056 25.896963 1.050689 26.106947 1.450400 1.530540 0.070220 -0.032877 -726814.000000 0 0 1
1.878756 25.525463 1.499289 25.638386 1.497326 1.512285 0.064528 -0.032208 -748139.000000 0 0 1
1.375756 24.602463 0.528089 24.646557 1.514935 1.549368 0.060851 -0.028135 656465.000000 0 1 0
-0.023444 24.007463 0.882289 24.023681 -1.569820 1.534062 0.057748 -0.022048 622056.000000 0 1 0
-1.116644 24.893663 1.013589 24.939300 -1.525970 1.530143 0.068397 -0.029064 -610566.000000 0 1 0
-2.275244 24.105663 1.009489 24.233835 -1.476689 1.529128 0.051911 -0.022032 -277384.000000 0 1 0
-3.515444 24.956763 1.413989 25.242775 -1.430856 1.514751 0.071099 -0.032892 -503425.000000 0 0 1
-4.675044 24.196263 1.600289 24.695669 -1.379935 1.505951 0.064503 -0.024323 -316919.000000 0 1 0
-5.657244 24.913463 2.306689 25.651625 -1.347507 1.480751 0.055844 -0.023782 -793577.000000 0 0 1
-6.903144 25.323163 1.588789 26.295251 -1.304661 1.510338 0.057300 -0.021374 -1008300.000000 0 0 1
-6.852944 26.584863 0.886489 27.468229 -1.318512 1.538517 0.071234 -0.032787 -42449.100000 0 0 1
-7.905144 26.604363 -0.056111 27.754037 -1.281968 1.572818 0.071880 -0.022424 -84225.600000 0 0 1
-7.713244 27.679163 -1.196711 28.758691 -1.299025 1.612421 0.065959 -0.023411 33092.200000 0 0 1
-8.029544 28.986363 -0.815511 30.088999 -1.300561 1.597903 0.075437 -0.035401 -65359.500000 0 0 1
-7.838544 29.928963 -1.858811 30.994205 -1.314645 1.630805 0.081665 -0.035022 -264888.000000 0 0 1
-7.826244 31.381163 -1.436711 32.374243 -1.326389 1.615189 0.072897 -0.037177 -917106.000000 0 0 1
-7.740644 32.335963 -2.490411 33.342678 -1.335836 1.645557 0.073595 -0.030394 42266.800000 0 0 1
-6.561944 32.397063 -3.290511 33.218312 -1.370952 1.670016 0.070931 -0.026147 -135845.000000 0 0 1
-5.293844 32.833563 -2.561311 33.356078 -1.410939 1.647659 0.076386 -0.037467 -1098300.000000 0 0 1
-5.240244 -33.942238 -2.459111 34.432295 1.417619 1.642276 0.083591 -0.033365 -146155.000000 0 0 1
-4.473744 -33.555438 -1.353211 33.879389 1.438254 1.610749 0.094773 -0.032217 -105731.000000 0 0 1
-4.334944 -32.012338 -1.410911 32.335309 1.436200 1.614444 0.112596 -0.028867 327048.000000 0 0 1
-5.514544 -31.295838 -1.071411 31.796031 1.396380 1.604499 0.103044 -0.025292 8112.790000 0 0 1
-5.529944 -29.961238 -1.606811 30.509636 1.388280 1.623486 0.116868 -0.019257 249041.000000 0 0 1
-6.901544 -29.247138 -1.480811 30.086861 1.339062 1.620034 0.132071 -0.017621 313825.000000 0 0 1
-7.195944 -28.929838 -0.112911 29.811573 1.327006 1.574584 0.110574 -0.011515 -46926.900000 0 0 1
-8.342144 -28.115838 0.068689 29.327401 1.282364 1.568454 0.081232 -0.009194 258823.000000 0 0 1
-8.479844 -27.583738 1.480589 28.895718 1.272544 1.519535 0.072953 -0.001605 -33734.600000 0 0 1
-7.480544 -26.618438 1.636989 27.698006 1.296834 1.511661 0.100525 -0.010399 -333608.000000 0 0 1
-7.336844 -26.174338 2.972789 27.345250 1.297503 1.461868 0.086034 -0.005813 72120.000000 0 0 1
-8.406044 -25.182438 3.524189 26.781275 1.248621 1.438822 0.068128 -0.008599 203177.000000 0 0 1
-8.306344 -23.891738 3.116889 25.485790 1.236202 1.448190 0.069719 -0.011467 -741172.000000 0 0 1
-9.193844 -23.089838 3.815989 25.144167 1.191862 1.418443 0.063861 -0.013589 -427756.000000 0 0 1
-8.696944 -21.640338 4.064989 23.674146 1.188665 1.398235 0.037978 -0.011606 431074.000000 0 1 0
-7.704544 -21.735238 5.101989 23.618020 1.230143 1.353059 0.025263 -0.007757 188593.000000 0 1 0
-7.086144 -20.479838 5.352389 22.322304 1.237684 1.328660 0.010039 -0.008770 464127.000000 0 1 0
-8.068644 -19.378438 5.927489 21.811969 1.176256 1.295581 0.021528 -0.015012 245455.000000 0 1 0
-8.449444 -19.777038 7.223189 22.686974 1.167034 1.246771 0.027094 -0.013326 -40483.100000 0 1 0
-9.324744 -18.932238 7.932689 22.545688 1.113141 1.211250 0.027848 -0.009574 -537354.000000 0 1 0
-27.854944 28.909463 -5.218011 40.483114 -0.803973 1.700049 0.084677 0.006156 313424.000000 0 0 1
-27.039804 29.971763 -4.660811 40.634723 -0.836780 1.685750 0.077996 -0.002417 -461765.000000 0 0 1
-25.938564 29.406763 -4.052411 39.420665 -0.847981 1.673777 0.059262 0.009468 -453140.000000 0 0 1
-25.080144 30.518263 -3.355411 39.643874 -0.882899 1.655537 0.039831 0.004424 -3344.070000 0 0 1
-25.721714 30.995663 -2.167211 40.336515 -0.878118 1.624550 0.025106 -0.002350 356598.000000 0 0 1
-25.007244 32.033963 -1.526711 40.667774 -0.907967 1.608346 0.024204 -0.005500 470477.000000 0 0 1
-23.787244 31.570763 -0.628211 39.534044 -0.925086 1.586687 0.015953 -0.005416 1051520.000000 0 0 1
-22.717544 31.123563 -1.494311 38.561586 -0.940274 1.609557 0.034889 -0.005272 433280.000000 0 0 1
-21.599344 30.787063 -0.681711 37.614354 -0.959016 1.588921 0.038242 -0.001427 398866.000000 0 0 1
-20.404444 30.137163 -1.446811 36.423662 -0.975638 1.610529 0.038698 -0.004598 44373.700000 0 0 1
-19.331344 29.848763 -0.591211 35.566825 -0.996080 1.587420 0.061984 -0.011437 170840.000000 0 0 1
-18.265244 29.211863 -1.334311 34.477999 -1.012004 1.609506 0.065096 -0.008670 1301520.000000 0 0 1
-16.868144 29.754663 -0.846411 34.213895 -1.055065 1.595538 0.076995 -0.018991 659621.000000 0 0 1
-16.346744 29.072863 0.314289 33.354852 -1.058583 1.561374 0.070478 -0.013818 416941.000000 0 0 1
-15.053144 29.588063 0.616589 33.202873 -1.100167 1.552225 0.078880 -0.017693 490530.000000 0 0 1
-14.439144 28.830563 1.807289 32.294837 -1.106487 1.514805 0.084682 -0.024647 -153660.000000 0 0 1
-15.125644 29.224263 2.979389 33.041177 -1.093191 1.480502 0.090083 -0.021587 -9534.860000 0 0 1
-14.788444 28.500563 4.192489 32.381431 -1.092157 1.440960 0.091828 -0.038519 194260.000000 0 0 1
-13.551944 29.029963 4.966789 32.420100 -1.134038 1.416990 0.091268 -0.031906 109768.000000 0 0 1
-13.655744 30.289363 5.641489 33.700908 -1.147242 1.402606 0.088732 -0.035824 -455923.000000 0 0 1
-13.562744 31.467963 4.804989 34.601569 -1.163853 1.431480 0.106551 -0.036560 -194390.000000 0 0 1
-13.463944 32.740563 5.658189 35.850207 -1.180645 1.412305 0.095819 -0.027644 -60387.600000 0 0 1
-14.585744 33.053363 6.465689 36.702504 -1.155219 1.393707 0.095266 -0.029736 58224.900000 0 0 1
-14.384244 -33.920338 7.233889 37.547636 1.169723 1.376925 0.118355 -0.037873 451464.000000 0 0 1
-15.679544 -33.526038 8.002989 37.866755 1.133335 1.357844 0.098730 -0.032453 481774.000000 0 0 1
-15.849744 33.739763 9.112489 38.374776 -1.131628 1.331046 0.077683 -0.037821 257960.000000 0 0 1
-17.086844 33.933363 9.795289 39.234946 -1.104320 1.318470 0.090458 -0.040710 -131587.000000 0 0 1
-17.135744 33.280663 11.196489 39.071698 -1.095311 1.280159 0.088723 -0.031509 390267.000000 0 0 1
-16.258144 33.829763 12.188889 39.463263 -1.122799 1.256795 0.092764 -0.038656 101522.000000 0 0 1
-14.908744 33.424463 12.128189 38.555911 -1.151238 1.250802 0.089724 -0.032210 -263438.000000 0 0 1
-14.223444 33.591263 13.523289 38.904481 -1.170259 1.215784 0.074749 -0.032101 -240117.000000 0 0 1
-14.536244 32.725163 14.606489 38.672835 -1.152783 1.183492 0.065793 -0.024321 261272.000000 0 0 1
-13.715944 31.534463 14.601389 37.359738 -1.160527 1.169261 0.038927 -0.015802 250546.000000 0 0 1
-14.329944 30.287463 13.824889 36.246451 -1.128874 1.179471 0.037701 -0.020348 236934.000000 0 0 1
-14.255544 30.351063 12.378289 35.743944 -1.131691 1.217167 0.042550 -0.018190 293607.000000 0 0 1
-15.460144 29.810363 11.864889 35.615297 -1.092367 1.231164 0.043238 -0.015103 231595.000000 0 0 1
-15.434544 29.565663 10.336789 34.917084 -1.089670 1.270254 0.049410 -0.014040 285719.000000 0 0 1
-14.611144 28.421863 10.074389 33.507926 -1.095947 1.265415 0.035975 -0.012927 147359.000000 0 0 1
-14.608644 28.100763 8.701089 32.844699 -1.091382 1.302679 0.048116 -0.011649 -13953.800000 0 0 1
-13.699844 26.875563 8.387089 31.310140 -1.099378 1.299613 0.053804 -0.015232 -444599.000000 0 0 1
-12.351544 27.081663 8.660989 30.999836 -1.142894 1.287639 0.045265 -0.022287 -114360.000000 0 0 1
-11.562544 25.873363 8.399389 29.557961 -1.150532 1.282659 0.056011 -0.022770 257481.000000 0 0 1
-10.497844 26.028563 7.321789 29.005161 -1.187431 1.315605 0.070961 -0.028712 -720060.000000 0 0 1
-11.037844 26.230363 6.033989 29.090805 -1.172485 1.361860 0.081381 -0.031072 -121898.000000 0 0 1
-10.145244 25.959363 4.987389 28.314105 -1.198235 1.393727 0.083378 -0.022039 -321658.000000 0 0 1
-10.580244 26.421763 3.558189 28.682953 -1.189914 1.446424 0.081881 -0.027176 -78868.600000 0 0 1
-10.248244 27.739263 3.325889 29.758272 -1.216901 1.458799 0.088593 -0.027551 -6174.790000 0 0 1
-10.648044 28.227163 2.018989 30.236234 -1.210075 1.503973 0.078232 -0.027749 106244.000000 0 0 1
-10.124944 29.632763 1.554189 31.353319 -1.241552 1.521206 0.095577 -0.036000 -93710.600000 0 0 1
-10.913244 30.595663 2.131889 32.553624 -1.228172 1.505261 0.090473 -0.038601 -355938.000000 0 0 1
-10.386544 31.892063 1.891389 33.594066 -1.255951 1.514465 0.089813 -0.037476 -564336.000000 0 0 1
-11.050344 33.004063 2.644489 34.905180 -1.247710 1.494962 0.084678 -0.030103 -487866.000000 0 0 1
-12.387544 33.305563 2.357289 35.612758 -1.214714 1.504556 0.124618 -0.034948 -542460.000000 0 0 1
-12.464844 -33.943938 1.294789 36.183418 1.218865 1.535005 0.109709 -0.030688 -197599.000000 0 0 1
-13.909044 -33.567538 0.884489 36.345886 1.177972 1.546459 0.118072 -0.033383 584220.000000 0 0 1
-14.684444 33.433363 0.494989 36.519415 -1.156947 1.557242 0.100747 -0.032802 70333.900000 0 0 1
-14.983844 33.337863 -0.907611 36.561625 -1.148396 1.595623 0.090460 -0.028967 -266470.000000 0 0 1
-13.824344 33.067363 -1.873911 35.889755 -1.174813 1.623033 0.088301 -0.026666 -239825.000000 0 0 1
-13.480944 31.681963 -1.813611 34.478570 -1.168495 1.623422 0.085138 -0.023272 287716.000000 0 0 1
-12.116744 31.509163 -2.183711 33.829150 -1.203682 1.635392 0.080011 -0.022917 391744.000000 0 0 1
-11.674844 30.024863 -2.320011 32.298248 -1.199948 1.642689 0.062077 -0.029505 -26740.500000 0 0 1
-11.983544 29.579663 -3.649211 32.122866 -1.185877 1.684644 0.062582 -0.021183 -239554.000000 0 0 1
-10.869844 29.532763 -4.518011 31.792295 -1.218123 1.713389 0.059318 -0.018257 -163832.000000 0 0 1
-11.077744 29.021063 -6.029111 31.643146 -1.206153 1.762503 0.066819 -0.020621 52789.600000 0 0 1
-11.546844 27.636563 -6.103011 30.567236 -1.175031 1.771806 0.056507 -0.011459 174557.000000 0 0 1
-11.419544 27.086663 -7.418611 30.317141 -1.171815 1.818007 0.047627 -0.008727 -36151.600000 0 0 1
-11.762144 25.554963 -7.482611 29.110026 -1.139436 1.830760 0.066024 -0.012735 261359.000000 0 0 1
-11.099044 24.719663 -6.533311 27.873547 -1.148777 1.807388 0.049863 -0.003156 135027.000000 0 0 1
-11.533244 23.393463 -6.780811 26.949011 -1.112755 1.825146 0.076738 -0.009763 -204629.000000 0 0 1
-10.960244 22.327163 -5.876911 25.557136 -1.114461 1.802825 0.062126 -0.005786 642458.000000 0 0 1
-9.550044 22.062963 -6.077511 24.797455 -1.162292 1.818405 0.065099 -0.006945 1119900.000000 0 1 0
-8.910344 21.042163 -5.361511 23.471528 -1.170238 1.801257 0.062378 0.002605 -207027.000000 0 1 0
-8.856544 21.078563 -3.827011 23.181678 -1.173025 1.736643 0.051164 -0.001842 -159202.000000 0 1 0
-10.091044 20.815963 -3.193011 23.352276 -1.119403 1.707958 0.066076 -0.011117 -97404.500000 0 1 0
-10.597744 19.491563 -3.257911 22.424254 -1.072796 1.716598 0.061679 -0.008597 569930.000000 0 1 0
-11.984244 19.352563 -2.520511 22.901894 -1.016336 1.681077 0.072069 -0.012673 590817.000000 0 1 0
-11.936344 19.387163 -1.085811 22.792923 -1.018925 1.618452 0.067345 -0.011888 105395.000000 0 1 0
-11.684744 18.148663 -0.525411 21.591277 -0.998767 1.595133 0.061268 -0.016545 -281534.000000 0 1 0
-11.470844 18.090363 0.999189 21.443877 -1.005690 1.524184 0.061095 -0.017071 670437.000000 0 1 0
-12.677044 18.076863 1.780289 22.150617 -0.959208 1.490338 0.081062 -0.019521 662544.000000 0 1 0
-12.285544 18.162563 3.170989 22.155551 -0.976071 1.427179 0.074552 -0.022638 876415.000000 0 1 0
-13.466244 18.059663 4.216289 22.918731 -0.930083 1.385776 0.070220 -0.022475 834708.000000 0 1 0
-14.284744 16.907563 4.187289 22.526717 -0.869286 1.383828 0.058012 -0.016452 472895.000000 0 1 0
-15.366544 16.936163 5.104589 23.431199 -0.833951 1.351181 0.063603 -0.023310 203659.000000 0 1 0
-15.564044 15.640363 5.896389 22.839172 -0.787844 1.309669 0.045927 -0.018752 -604559.000000 0 1 0
-14.596744 15.439863 6.875689 22.332250 -0.813461 1.257831 0.038541 -0.009326 -76963.900000 0 1 0
-15.058744 15.817363 8.135389 23.305349 -0.809963 1.214209 0.034127 -0.010939 -865182.000000 0 1 0
-13.977744 15.768563 9.215189 22.998795 -0.845529 1.158536 0.021101 -0.005394 32883.300000 0 1 0
-12.918244 16.701763 9.170489 23.020160 -0.912445 1.161060 0.030676 -0.013088 62754.900000 0 1 0
-11.917544 16.451363 8.195089 21.905129 -0.943874 1.187351 0.025936 -0.010310 -737442.000000 0 1 0
-10.914344 17.597663 8.165689 22.259360 -1.015645 1.195183 0.043961 -0.004979 -117992.000000 0 1 0
-9.865244 17.469363 9.114189 22.035655 -1.056724 1.144380 0.041458 -0.006697 537926.000000 0 1 0
-9.029244 18.654463 9.046189 22.613044 -1.120009 1.159233 0.039394 -0.014214 -350606.000000 0 1 0
-7.732944 18.577163 9.813789 22.387940 -1.176351 1.117032 0.037791 -0.018368 -834675.000000 0 1 0
-6.808044 17.659663 9.219389 21.052560 -1.202840 1.117510 0.030955 -0.018112 725427.000000 0 1 0
-5.417644 17.685363 9.548289 20.815685 -1.273538 1.094257 0.020005 -0.027214 968556.000000 0 1 0
-4.726344 18.943963 8.939789 21.473981 -1.326297 1.141415 0.015029 -0.021311 -1351840.000000 0 1 0
-4.932744 20.210163 9.532789 22.883546 -1.331404 1.141118 0.021265 -0.027408 -100533.000000 0 1 0
-4.435344 21.324063 8.790189 23.487344 -1.365723 1.187206 0.022722 -0.023410 272759.000000 0 1 0
-2.922044 21.687163 8.909289 23.627247 -1.436867 1.184158 0.029681 -0.020586 428611.000000 0 1 0
-2.123344 20.602263 8.366489 22.337411 -1.468095 1.186884 0.021805 -0.014453 -397431.000000 0 1 0
-0.894144 21.209963 8.061589 22.707955 -1.528665 1.207870 0.024275 -0.023349 -81520.400000 0 1 0
0.368856 20.344063 7.919489 21.834268 1.552667 1.199623 0.023004 -0.018174 304083.000000 0 1 0
0.815356 19.833563 9.146389 21.856153 1.529710 1.139024 0.018802 -0.014261 -583971.000000 0 1 0
2.070256 19.195263 9.133189 21.357884 1.463359 1.128931 0.010841 -0.017966 -27106.000000 0 1 0
2.504456 18.751263 10.553689 21.662468 1.438020 1.061930 0.003433 -0.026737 -133970.000000 0 1 0
3.880656 18.471863 10.636689 21.665834 1.363723 1.057625 0.020883 -0.009156 -153741.000000 0 1 0
4.330756 18.277363 11.965189 22.270680 1.338141 1.003609 0.016242 -0.007998 192851.000000 0 1 0
5.864856 18.260163 12.173189 22.715999 1.260021 1.005239 0.038331 -0.008623 -2768.280000 0 1 0
6.483156 17.263863 11.395789 21.678014 1.211558 1.017277 0.025776 -0.008190 -11203.300000 0 1 0
7.390356 16.529363 12.235489 21.852789 1.150353 0.976525 0.030634 -0.002809 -696692.000000 0 1 0
8.558556 15.881663 11.538789 21.415409 1.076519 1.001775 0.024924 -0.013918 -17074.500000 0 1 0
9.501256 16.891863 11.058589 22.313702 1.058426 1.052275 0.040200 -0.021982 1470740.000000 0 1 0
10.701956 16.268663 10.502389 22.124679 0.988939 1.076183 0.032791 -0.022116 1421020.000000 0 1 0
11.739956 17.375363 10.087589 23.269922 0.976589 1.122420 0.034650 -0.018501 465290.000000 0 1 0
12.719656 16.885563 9.160289 23.039592 0.925196 1.161909 0.040553 -0.018458 197086.000000 0 1 0
13.463356 17.903863 8.484489 23.954056 0.926029 1.208740 0.051031 -0.020942 1059010.000000 0 1 0
14.648756 17.259663 7.662989 23.899862 0.867041 1.244403 0.063841 -0.024279 498555.000000 0 1 0
15.807056 16.810463 8.324989 24.530800 0.816151 1.224550 0.078773 -0.022710 -171395.000000 0 1 0
16.665756 16.281063 7.343389 24.428381 0.773722 1.265465 0.083674 -0.025123 -471196.000000 0 1 0
18.126256 16.117163 7.797289 25.477869 0.726794 1.259764 0.075635 -0.023271 -124953.000000 0 0 1
18.274656 15.120063 8.732789 25.275303 0.691214 1.218018 0.074999 -0.012731 -402751.000000 0 0 1
19.449456 15.336763 9.455989 26.512513 0.667717 1.206105 0.082440 -0.013001 -493800.000000 0 0 1
19.838056 14.101563 10.263189 26.414685 0.617960 1.171749 0.075863 -0.007832 -176703.000000 0 0 1
20.425056 13.014363 9.590289 26.048612 0.567307 1.193758 0.084897 -0.013704 270312.000000 0 0 1
20.586056 11.972063 10.565689 26.052827 0.526752 1.153217 0.090030 -0.017295 -640131.000000 0 0 1
21.448756 10.899163 9.996289 26.053151 0.470145 1.177009 0.085299 -0.013837 164445.000000 0 0 1
22.847256 11.250863 9.858189 27.308660 0.457580 1.201466 0.081759 -0.017914 1829910.000000 0 0 1
23.735356 10.317463 9.226889 27.476402 0.410047 1.228330 0.104883 -0.030030 268649.000000 0 0 1
23.924156 8.869463 9.715689 27.302513 0.355024 1.206969 0.114178 -0.037093 -342797.000000 0 0 1
22.807556 8.049563 9.365989 25.936496 0.339286 1.201336 0.118152 -0.032916 681545.000000 0 0 1
22.849656 6.670363 9.756989 25.725462 0.284031 1.181785 0.121273 -0.037387 -313836.000000 0 0 1
23.903456 5.791263 8.997889 26.189234 0.237697 1.220078 0.140569 -0.044109 295111.000000 0 0 1
23.707456 5.715563 7.564589 25.533001 0.236573 1.270014 0.131137 -0.035010 -3461.040000 0 0 1
24.838656 5.234463 6.912089 26.308467 0.207699 1.304943 0.143660 -0.039954 -195976.000000 0 0 1
24.411356 4.730963 5.470089 25.460130 0.191429 1.354259 0.145013 -0.047221 56382.400000 0 0 1
23.607356 3.554463 5.433789 24.484026 0.149443 1.347001 0.141272 -0.043866 427512.000000 0 1 0
23.204456 3.446863 4.100189 23.814685 0.147465 1.397764 0.132012 -0.035260 -537674.000000 0 1 0
22.147256 2.382663 3.861989 22.607366 0.107171 1.399126 0.104440 -0.025214 -219557.000000 0 1 0
22.754656 1.058663 4.061489 23.138514 0.046492 1.394353 0.123691 -0.022445 852936.000000 0 1 0
21.962056 -0.060837 3.648189 22.263084 -0.002770 1.406187 0.091050 -0.015762 152896.000000 0 1 0
22.535256 -1.491537 4.074889 22.949231 -0.066090 1.392289 0.101118 -0.018946 -379926.000000 0 1 0
22.413856 -1.853537 5.435289 23.137825 -0.082508 1.333671 0.096902 -0.020329 436122.000000 0 1 0
22.837456 -3.164737 5.693589 23.748304 -0.137700 1.328691 0.106028 -0.018333 -405968.000000 0 1 0
22.663356 -3.660937 7.164589 24.049148 -0.160152 1.268289 0.128756 -0.027910 -302321.000000 0 1 0
22.570356 -5.049937 7.359189 24.270981 -0.220117 1.262738 0.113696 -0.026021 469452.000000 0 1 0
22.760356 -5.401237 8.687289 24.953480 -0.232999 1.215211 0.154184 -0.037103 -318476.000000 0 1 0
22.262156 -6.800237 9.145689 25.009807 -0.296460 1.196429 0.135392 -0.043854 -439516.000000 0 0 1
20.885156 -6.983437 9.033389 23.802527 -0.322686 1.181526 0.116145 -0.034618 -291143.000000 0 1 0
20.459156 -8.142537 9.656789 24.044367 -0.378772 1.157507 0.109479 -0.037465 -270767.000000 0 1 0
-26.556034 -32.848538 5.363189 42.579492 0.890931 1.444504 0.064504 -0.019012 -6674.870000 0 0 1
-27.384934 -33.842038 5.920489 43.934842 0.890472 1.435629 0.057191 -0.014230 366819.000000 0 0 1
-27.867764 -33.662438 7.262689 44.300323 0.879297 1.406111 0.054475 -0.009165 123950.000000 0 0 1
-28.698244 33.366563 7.923589 44.718005 -0.860474 1.392666 0.061201 -0.014854 196667.000000 0 0 1
-29.998334 33.259263 7.367489 45.391172 -0.836903 1.407764 0.057378 -0.017587 -57433.900000 0 0 1
-30.624634 32.077163 7.911489 45.048909 -0.808560 1.394261 0.068409 -0.023437 -483119.000000 0 0 1
-32.135404 32.166963 7.817689 46.135820 -0.785889 1.400525 0.060355 -0.016735 -803738.000000 0 0 1
-32.601344 32.102863 6.467889 46.209036 -0.777694 1.430365 0.046073 -0.017530 109957.000000 0 0 1
-34.015264 32.200663 6.472989 47.284463 -0.758001 1.433470 0.055934 -0.016848 265846.000000 0 0 1
-34.677039 31.979163 5.085589 47.444990 -0.744946 1.463401 0.050193 -0.011413 -164244.000000 0 0 1
-34.648537 30.632163 4.656889 46.481578 -0.723951 1.470440 0.060926 -0.015600 15850.600000 0 0 1
-35.244977 30.510063 3.414489 46.741106 -0.713514 1.497680 0.071390 -0.000872 -157128.000000 0 0 1
-34.812137 29.242063 2.674389 45.542677 -0.698658 1.512040 0.087288 -0.015529 -240476.000000 0 0 1
-35.107923 28.123863 3.484589 45.118292 -0.675392 1.493487 0.113945 -0.028519 274324.000000 0 0 1
-34.508412 26.955963 2.963289 43.888899 -0.663136 1.503227 0.102445 -0.028989 -96776.500000 0 0 1
-35.033890 25.651563 3.691589 43.577563 -0.632007 1.485982 0.114647 -0.031340 -17742.900000 0 0 1
-36.358534 25.277463 3.409189 44.413012 -0.607516 1.493960 0.132252 -0.029074 -422123.000000 0 0 1
36.653838 24.625763 4.508589 44.387604 0.591580 1.469048 0.132215 -0.029210 1128810.000000 0 0 1
35.121958 24.349463 4.214089 42.944229 0.606204 1.472509 0.146202 -0.030059 857350.000000 0 0 1
34.852308 23.477863 3.126689 42.138694 0.592814 1.496528 0.117856 -0.027094 16493.000000 0 0 1
35.097888 22.113663 3.365689 41.619751 0.562227 1.489840 0.106467 -0.025423 -1221780.000000 0 0 1
34.541748 21.154863 2.342389 40.572741 0.549519 1.513031 0.107921 -0.022559 -670986.000000 0 0 1
33.177938 20.864963 2.338389 39.263091 0.561385 1.511204 0.088247 -0.022332 -321557.000000 0 0 1
32.704108 20.175963 3.465889 38.582904 0.552771 1.480845 0.070044 -0.011121 -724430.000000 0 0 1
32.868268 18.629963 3.426189 37.935963 0.515655 1.480358 0.070904 -0.017611 173619.000000 0 0 1
32.022068 18.025163 2.405689 36.825353 0.512692 1.505423 0.054338 -0.024435 725025.000000 0 0 1
32.312088 16.703763 2.085989 36.434023 0.477116 1.513511 0.058827 -0.020464 -342495.000000 0 0 1
31.807668 15.620063 3.068589 35.568670 0.456485 1.484417 0.072071 -0.024511 -384280.000000 0 0 1
30.410298 15.542563 3.067189 34.289431 0.472484 1.481227 0.070445 -0.021423 -217172.000000 0 0 1
29.894828 14.621363 4.067589 33.526560 0.454884 1.449172 0.083742 -0.035316 -59287.800000 0 0 1
28.372718 14.759063 4.210389 32.257843 0.479665 1.439900 0.070316 -0.028152 -209173.000000 0 0 1
27.660818 14.423263 3.017689 31.340992 0.480647 1.474361 0.072150 -0.040206 -57614.000000 0 0 1
26.351618 14.935363 3.147689 30.452927 0.515629 1.467249 0.049525 -0.025962 -1968.410000 0 0 1
25.369218 14.474663 2.049489 29.279916 0.518491 1.500743 0.052680 -0.038993 -142504.000000 0 0 1
25.846818 14.806363 0.727689 29.796240 0.520217 1.546372 0.056757 -0.040830 629284.000000 0 0 1
26.933218 14.080163 0.173889 30.392095 0.481706 1.565075 0.057359 -0.044416 -547225.000000 0 0 1
27.479718 14.591863 -1.203611 31.136892 0.488143 1.609461 0.067039 -0.043642 70576.200000 0 0 1
28.102918 15.848863 -1.389011 32.293804 0.513496 1.613821 0.038271 -0.030462 474804.000000 0 0 1
29.233238 16.037763 -0.564211 33.348319 0.501778 1.587716 0.045900 -0.036650 -604495.000000 0 0 1
29.658768 17.523563 -0.474611 34.452039 0.533656 1.584573 0.055803 -0.026796 -149827.000000 0 0 1
30.231408 18.098463 -1.612911 35.271715 0.539437 1.616540 0.067103 -0.024055 -103853.000000 0 0 1
31.004258 19.198763 -1.308911 36.490680 0.554439 1.606674 0.050685 -0.008243 -222199.000000 0 0 1
30.934718 20.285663 -2.406911 37.070987 0.580412 1.635769 0.049995 -0.014027 -271556.000000 0 0 1
31.925148 21.254963 -2.260711 38.420038 0.587385 1.629672 0.033103 -0.005352 48486.600000 0 0 1
31.775508 22.158363 -3.382411 38.885944 0.608939 1.657889 0.033128 -0.013905 1117.160000 0 0 1
32.821938 23.300763 -3.244311 40.382307 0.617349 1.651223 0.036561 -0.011223 -147777.000000 0 0 1
32.750008 24.190863 -2.120511 40.770791 0.636199 1.622830 0.051811 -0.009749 227662.000000 0 0 1
33.510348 23.748063 -0.994811 41.084103 0.616527 1.595013 0.071054 -0.001238 -332933.000000 0 0 1
33.455428 24.692663 0.211789 41.581704 0.635826 1.565703 0.087024 -0.020679 -73243.400000 0 0 1
34.192178 25.879863 -0.022311 42.882080 0.647899 1.571317 0.111451 -0.018659 506971.000000 0 0 1
35.495528 25.751663 0.576289 43.856730 0.627630 1.557656 0.121215 -0.023623 951258.000000 0 0 1
36.396988 27.012063 0.210989 45.325895 0.638459 1.566141 0.099933 -0.020744 56150.700000 0 0 1
36.755458 27.101263 -1.172411 45.681688 0.635349 1.596464 0.094946 -0.026402 585720.000000 0 0 1
35.834468 27.758363 -2.074211 45.375523 0.659077 1.616524 0.068365 -0.020486 379932.000000 0 0 1
36.111578 27.244663 -3.533011 45.374000 0.646348 1.648739 0.078473 -0.021135 503728.000000 0 0 1
-36.520414 27.974163 -4.273411 46.201260 -0.653655 1.663424 0.071437 -0.017772 477307.000000 0 0 1
-36.203354 27.447063 -5.545611 45.768743 -0.648688 1.692261 0.055064 -0.012364 -72389.300000 0 0 1
36.328338 27.534563 -6.646611 46.066015 0.648561 1.715586 0.045124 -0.001835 803882.000000 0 0 1
35.216738 26.688963 -6.339711 44.639795 0.648505 1.713297 0.050091 -0.004395 481084.000000 0 0 1
34.085068 26.727363 -7.196811 43.908289 0.664993 1.735445 0.040853 -0.011350 664092.000000 0 0 1
32.979998 25.671463 -6.843111 42.350117 0.661428 1.733092 0.047210 -0.017957 2409.730000 0 0 1
33.202818 24.293563 -7.189611 41.764755 0.631667 1.743804 0.036767 -0.006686 -297820.000000 0 0 1
34.393768 23.797263 -6.627811 42.345824 0.605273 1.727959 0.036588 -0.007673 -184422.000000 0 0 1
34.498788 22.291763 -6.691511 41.615686 0.573672 1.732290 0.033530 -0.003586 387732.000000 0 0 1
33.578438 21.522463 -5.890811 40.316616 0.569995 1.717435 0.028035 -0.007422 506128.000000 0 0 1
33.909918 20.151763 -6.095111 39.913988 0.536198 1.724102 0.035857 -0.011501 268127.000000 0 0 1
32.803698 19.201563 -5.522211 38.409340 0.529576 1.715069 0.051977 -0.018563 -372404.000000 0 0 1
31.619308 19.349963 -6.230211 37.590121 0.549172 1.737305 0.022437 -0.022440 -694423.000000 0 0 1
30.700428 18.411663 -5.660611 36.242904 0.540214 1.727624 0.065496 -0.033247 128837.000000 0 0 1
29.364388 18.324863 -6.425711 35.204511 0.557916 1.754351 0.039574 -0.036101 -112456.000000 0 0 1
29.283268 17.345963 -7.497111 34.851096 0.534776 1.787609 0.033743 -0.030133 157808.000000 0 0 1
28.032718 17.331263 -8.169311 33.955023 0.553732 1.813772 0.049666 -0.032627 2708.040000 0 0 1
27.972218 16.174063 -9.150711 33.582448 0.524250 1.846771 0.063141 -0.026455 -303949.000000 0 0 1
27.078318 16.365863 -10.214311 33.247690 0.543641 1.883065 0.060595 -0.025481 2027.380000 0 0 1
27.218518 15.344263 -11.180811 33.185910 0.513334 1.914434 0.069574 -0.010504 -577120.000000 0 0 1
26.426618 15.581063 -12.414311 33.094573 0.532735 1.955318 0.076191 -0.001626 -1299570.000000 0 0 1
25.044418 15.604563 -12.184811 31.924831 0.557214 1.962401 0.063214 -0.005465 -118322.000000 0 0 1
24.347118 15.600463 -13.428111 31.882138 0.569846 2.005542 0.058940 -0.006177 -324890.000000 0 0 1
24.085318 14.232963 -14.070411 31.315431 0.533731 2.036792 0.075037 -0.016860 -728610.000000 0 0 1
25.139218 13.532163 -14.723911 32.123095 0.493808 2.046944 0.086958 -0.023642 204901.000000 0 0 1
25.467418 14.111263 -15.999311 33.221906 0.505979 2.073263 0.098529 -0.025591 -194698.000000 0 0 1
26.923218 13.863363 -16.447011 34.460944 0.475514 2.068336 0.111289 -0.026776 19667.600000 0 0 1
27.165518 12.504363 -16.826011 34.313832 0.431389 2.083295 0.116217 -0.029406 -261361.000000 0 0 1
28.501818 12.153863 -17.101511 35.391124 0.403076 2.075119 0.106465 -0.012712 115829.000000 0 0 1
28.685768 10.670063 -17.468011 35.239962 0.356106 2.089423 0.082817 -0.007275 -94649.300000 0 0 1
28.200618 10.555863 -18.801211 35.499107 0.358168 2.128955 0.073342 -0.011764 166933.000000 0 0 1
28.392118 9.271463 -19.406411 35.618551 0.315634 2.146995 0.052035 -0.001700 236338.000000 0 0 1
29.737218 8.989163 -20.144011 37.025509 0.293553 2.146062 0.052394 -0.001737 -609208.000000 0 0 1
29.927798 9.814963 -21.329511 38.038857 0.316902 2.166063 0.057468 -0.007083 777372.000000 0 0 1
30.754438 9.195463 -22.354411 39.116642 0.290536 2.179106 0.034535 -0.004075 444228.000000 0 0 1
32.177148 8.682963 -22.010711 39.940382 0.263571 2.154465 0.033763 0.000547 -1245920.000000 0 0 1
33.134988 9.634463 -22.121311 40.989056 0.282962 2.140863 0.046683 0.000362 -835553.000000 0 0 1
34.428638 9.049163 -22.150111 41.926672 0.257025 2.127400 0.033302 -0.000083 390328.000000 0 0 1
35.506938 10.180863 -22.116211 43.052519 0.279237 2.110292 0.064710 -0.006095 -39114.600000 0 0 1
35.720298 10.640063 -20.822111 42.693219 0.289503 2.080266 0.054859 -0.009430 218192.000000 0 0 1
36.670258 11.675663 -20.824811 43.757304 0.308247 2.066802 0.022406 0.004684 -84969.600000 0 0 1
36.483938 12.551963 -19.563211 43.259088 0.331356 2.040064 0.014882 0.007760 -57154.100000 0 0 1
-36.629774 11.840063 -18.472011 42.698274 -0.312636 2.018190 0.029393 -0.002022 266334.000000 0 0 1
-36.800924 12.472763 -17.235511 42.508124 -0.326775 1.988283 0.048954 -0.001407 27160.400000 0 0 1
-36.246224 11.596063 -16.050111 41.302100 -0.309635 1.969911 0.053752 -0.009385 -580876.000000 0 0 1
36.573778 10.484763 -15.781311 41.190062 0.279187 1.963983 0.070935 -0.018165 135936.000000 0 0 1
-36.555954 9.709263 -14.695611 40.577931 -0.259606 1.941378 0.081938 -0.032696 -362466.000000 0 0 1
36.296018 8.445263 -14.338411 39.928854 0.228610 1.938099 0.097715 -0.030105 -455656.000000 0 0 1
35.086158 8.793263 -13.712811 38.683344 0.245561 1.933164 0.117094 -0.037842 205180.000000 0 0 1
34.876198 8.071663 -12.517211 37.923363 0.227433 1.907170 0.112090 -0.028137 -132780.000000 0 0 1
33.726378 8.622263 -11.635711 36.704247 0.250292 1.893374 0.116290 -0.032502 -144670.000000 0 0 1
34.036688 9.962763 -11.307611 37.223847 0.284752 1.879447 0.121554 -0.034215 828810.000000 0 0 1
33.023238 10.687063 -10.574311 36.284481 0.312985 1.866516 0.106077 -0.025618 -14359.900000 0 0 1
33.078148 10.412063 -9.016711 35.831215 0.304953 1.825175 0.108151 -0.028719 415619.000000 0 0 1
34.289328 10.923463 -8.405711 36.955866 0.308403 1.800257 0.109702 -0.028028 971663.000000 0 0 1
34.417968 12.349263 -8.161111 37.466045 0.344495 1.790384 0.108256 -0.022777 -549452.000000 0 0 1
34.335308 12.704363 -6.675711 37.213967 0.354388 1.751160 0.088289 -0.022736 -357357.000000 0 0 1
35.378908 12.267463 -5.843211 37.898560 0.333772 1.725594 0.098995 -0.021212 -147595.000000 0 0 1
35.249798 12.959663 -4.642111 37.842440 0.352313 1.693776 0.094521 -0.022477 -319601.000000 0 0 1
36.393698 12.788263 -3.650311 38.747460 0.337910 1.665144 0.098168 -0.019220 -430040.000000 0 0 1
-36.261624 13.804063 -3.747711 38.980801 -0.363741 1.667088 0.085314 -0.008516 57339.900000 0 0 1
-35.156437 13.502663 -2.900811 37.771837 -0.366702 1.647670 0.087883 -0.017785 177734.000000 0 0 1
-34.285463 14.743563 -2.609211 37.412211 -0.406118 1.640595 0.072963 -0.015489 316366.000000 0 0 1
-34.926556 15.771363 -1.819011 38.365466 -0.424149 1.618227 0.089788 -0.016431 417527.000000 0 0 1
-34.013004 16.809763 -1.598511 37.973777 -0.459010 1.612904 0.094489 -0.014518 -137505.000000 0 0 1
-34.589207 17.839663 -0.629311 38.923808 -0.476174 1.586965 0.097078 -0.011405 -424128.000000 0 0 1
-35.633428 18.495063 -1.248911 40.166756 -0.478761 1.601894 0.075312 -0.005716 -245292.000000 0 0 1
-36.506684 19.224263 -0.405611 41.261056 -0.484697 1.580627 0.058108 -0.005797 -60629.500000 0 0 1
36.318268 20.218563 -1.226311 41.584981 0.507976 1.600290 0.060397 -0.006124 -418514.000000 0 0 1
-36.573254 21.306363 -1.703511 42.361137 -0.527502 1.611021 0.065780 -0.007403 112287.000000 0 0 1
36.400978 22.003163 -2.774611 42.624744 0.543697 1.635936 0.052294 -0.005869 -281381.000000 0 0 1
-36.512774 23.288063 -3.124911 43.419829 -0.567755 1.642828 0.079002 -0.015449 -487197.000000 0 0 1
-35.238393 23.061463 -3.651511 42.271845 -0.579491 1.657286 0.074598 -0.009504 -523517.000000 0 0 1
-34.576645 24.289563 -3.879711 42.433234 -0.612392 1.662355 0.082611 -0.014915 -96958.200000 0 0 1
-33.121214 24.128663 -4.342011 41.207526 -0.629596 1.676362 0.084185 -0.022271 -292303.000000 0 0 1
-32.904804 23.280363 -5.468911 40.676902 -0.615746 1.705652 0.058434 -0.003199 -536082.000000 0 0 1
-31.559184 23.287263 -5.857411 39.655869 -0.635707 1.719045 0.062512 0.004069 -398055.000000 0 0 1
-31.280654 22.402763 -7.063111 39.118418 -0.621507 1.752349 0.054302 -0.012523 326078.000000 0 0 1
-32.005604 22.719563 -8.265211 40.110484 -0.617314 1.778344 0.050990 -0.016613 523469.000000 0 0 1
-31.301194 22.110763 -9.387811 39.456071 -0.615000 1.811031 0.021237 -0.009412 813009.000000 0 0 1
-32.070594 22.111463 -10.765011 40.414418 -0.603619 1.840417 0.006638 0.004202 200209.000000 0 0 1
-32.378934 23.418063 -11.267711 41.518217 -0.626160 1.845635 0.007883 0.006267 174968.000000 0 0 1
-32.949304 23.323163 -12.587611 42.285630 -0.615975 1.873059 -0.014748 0.004333 -263290.000000 0 0 1
-33.615764 24.601663 -13.155111 43.684303 -0.631783 1.876685 0.017084 0.009088 402634.000000 0 0 1
-32.764944 25.715763 -13.477511 43.777680 -0.665438 1.883742 0.013969 0.004833 -48500.300000 0 0 1
-31.723004 25.518163 -14.414211 43.189062 -0.677422 1.911072 0.015945 -0.002096 -276297.000000 0 0 1
-30.478224 26.310663 -14.011811 42.632194 -0.712143 1.905689 0.025645 -0.001865 -576898.000000 0 0 1
-29.657524 25.846763 -12.955511 41.418222 -0.716849 1.888933 0.038452 0.003242 88463.700000 0 0 1
-30.175654 25.734663 -11.635011 41.330575 -0.706134 1.856165 0.034679 0.004803 -646817.000000 0 0 1
-30.305614 27.094463 -10.892511 42.085472 -0.729513 1.832595 0.052659 0.014681 -148378.000000 0 0 1
-29.117614 27.565563 -10.305411 41.399241 -0.758024 1.822369 0.072160 0.009990 -293451.000000 0 0 1
-29.271234 28.977063 -9.963311 42.376206 -0.780348 1.808134 0.056815 0.011426 -427385.000000 0 0 1
-27.949364 29.623863 -9.590911 41.841675 -0.814475 1.802072 0.063017 0.007004 -355837.000000 0 0 1
-27.991694 30.955563 -9.236811 42.744596 -0.835636 1.788608 0.072338 -0.009885 -1317980.000000 0 0 1
-26.697794 31.298063 -8.929111 42.095961 -0.864553 1.784533 0.085952 -0.003939 -952382.000000 0 0 1
35.337768 -24.816537 33.751604 54.806835 -0.612246 0.907359 0.043902 -0.021709 -129062.000000 0 0 1
34.662518 -23.601537 34.008802 53.991863 -0.597788 0.889388 0.039427 -0.026989 89286.700000 0 0 1
33.559168 -23.821037 -33.232671 52.896786 -0.617288 2.250105 0.030571 -0.024145 192083.000000 0 0 1
32.923298 -22.473737 -32.791741 51.616961 -0.598959 2.259180 0.024388 -0.026689 23881.800000 0 0 1
32.485988 -21.717137 -33.881721 51.719865 -0.589276 2.285112 0.016815 -0.021454 -48617.500000 0 0 1
32.050038 -20.432437 -33.455981 50.635877 -0.567550 2.292570 0.013559 -0.010288 106110.000000 0 0 1
31.895708 -19.435237 33.455268 50.142991 -0.547257 0.840357 0.011037 -0.004576 -83446.000000 0 0 1
33.112008 -19.186137 32.787212 50.393593 -0.525158 0.862392 0.034856 -0.019502 11096.900000 0 0 1
32.875888 -18.554837 31.510070 49.173067 -0.513824 0.875257 0.047621 -0.009731 733349.000000 0 0 1
34.170358 -18.492437 30.602170 49.457824 -0.496049 0.903642 0.048733 -0.012067 1245720.000000 0 0 1
35.032148 -17.334737 30.783610 49.753142 -0.459498 0.903675 0.034971 -0.012915 263885.000000 0 0 1
36.233278 -17.554137 30.101580 50.270302 -0.451151 0.928801 0.039714 -0.013897 -612328.000000 0 0 1
-36.503634 -16.301837 30.127890 50.059514 0.420007 0.924991 0.036354 -0.016165 376297.000000 0 0 1
-35.176481 -16.672537 29.757030 48.998359 0.442606 0.918130 0.046238 -0.012108 310878.000000 0 0 1
-34.218542 -15.658737 29.844210 48.028965 0.429164 0.900294 0.048986 -0.008665 617195.000000 0 0 1
-32.834674 -16.042237 30.462770 47.575724 0.454467 0.875907 0.063624 -0.016195 270283.000000 0 0 1
-31.954884 -14.976437 30.680610 46.762251 0.438275 0.855160 0.062856 -0.010807 -209427.000000 0 0 1
-30.849114 -15.512637 31.366460 46.649379 0.465929 0.833367 0.071166 -0.022427 50293.000000 0 0 1
-29.916004 -14.480937 32.097584 46.205191 0.450809 0.802829 0.066622 -0.024072 147142.000000 0 0 1
-30.376644 -13.850337 33.271924 47.133780 0.427794 0.787098 0.078808 -0.026119 -141307.000000 0 0 1
-29.437564 -12.926837 33.713429 46.586141 0.413775 0.761677 0.072298 -0.023143 -172619.000000 0 0 1
-29.741844 -12.554337 -32.883421 46.081537 0.399420 2.365409 0.066610 -0.019066 -137502.000000 0 0 1
-29.729674 -13.593137 -31.894351 45.671397 0.428846 2.343878 0.081642 -0.019901 73898.000000 0 0 1
-29.938844 -13.047337 -30.610331 44.761141 0.410982 2.323836 0.090533 -0.015955 -374307.000000 0 0 1
-30.096244 -14.133337 -29.528861 44.468964 0.439037 2.296996 0.094909 -0.016309 -592440.000000 0 0 1
-31.274614 -14.857637 -29.607821 45.557369 0.443506 2.278252 0.087111 -0.019890 -598767.000000 0 0 1
-31.533834 -15.593237 -28.419151 45.223665 0.459232 2.250308 0.082382 -0.017448 145253.000000 0 0 1
-32.758814 -16.521937 -28.524721 46.473369 0.467122 2.231644 0.067185 -0.021848 102254.000000 0 0 1
-32.601794 -17.641437 -29.359221 47.287008 0.495999 2.240652 0.069215 -0.024940 -335465.000000 0 0 1
-33.781194 -18.363837 -29.277881 48.327982 0.497925 2.221588 0.053321 -0.022096 -361858.000000 0 0 1
-33.593634 -19.634737 -30.150991 49.225373 0.528928 2.230027 0.058369 -0.023911 -150801.000000 0 0 1
-34.757354 -20.400637 -30.222891 50.375418 0.530765 2.214239 0.032565 -0.023699 -431629.000000 0 0 1
-34.514628 -21.517237 -30.979271 51.126962 0.557465 2.221729 0.031114 -0.023809 -757974.000000 0 0 1
-35.741656 -22.348237 -31.279721 52.491243 0.558795 2.209187 0.035900 -0.026229 -675201.000000 0 0 1
-36.202444 -23.005037 -30.123661 52.414536 0.566082 2.183058 0.022130 -0.013835 308422.000000 0 0 1
36.350918 -23.902437 -30.429581 53.091196 -0.581662 2.181149 0.035484 -0.022981 708837.000000 0 0 1
-36.654954 -25.291657 -30.772641 54.131405 0.603978 2.175454 0.029961 -0.020400 286995.000000 0 0 1
-35.867155 -25.345897 -31.938921 54.304346 0.615182 2.199562 0.047806 -0.024905 -382630.000000 0 0 1
-35.116184 -26.553397 -31.978331 54.413628 0.647431 2.198997 0.036083 -0.018121 -179118.000000 0 0 1
-35.397600 -27.556437 -33.145861 55.776298 0.661483 2.207147 0.050205 -0.025486 -329131.000000 0 0 1
-36.738834 -27.977357 -33.161751 56.852231 0.650833 2.193579 0.060875 -0.018103 -630051.000000 0 0 1
36.563418 -29.230117 -33.815741 57.747620 -0.674397 2.196389 0.049016 -0.016213 159032.000000 0 0 1
-36.521944 -30.550477 -33.224531 58.060774 0.696602 2.180028 0.051440 -0.017466 255191.000000 0 0 1
36.547498 -30.741527 -31.929881 57.448050 -0.699327 2.160127 0.063550 -0.019614 24744.500000 0 0 1
-36.517844 -31.927767 -31.453121 57.812058 0.718437 2.146063 0.056917 -0.023628 -57222.400000 0 0 1
36.612638 -32.340357 -30.016941 57.335859 -0.723518 2.121783 0.041664 -0.025892 268328.000000 0 0 1
35.407958 -33.084847 -30.074971 57.033626 -0.751494 2.126240 0.067274 -0.018128 209612.000000 0 0 1
34.913928 -33.448147 -28.818451 56.287335 -0.763960 2.108294 0.061992 -0.016657 429671.000000 0 0 1
33.767428 33.633643 -28.884451 55.729459 0.783413 2.115656 0.063324 -0.026080 1638170.000000 0 0 1
32.532098 -34.027807 -29.464781 55.537396 -0.807866 2.130033 0.072271 -0.021048 1080920.000000 0 0 1
31.381968 33.350667 -29.140001 54.279227 0.815802 2.137500 0.048234 -0.025800 456558.000000 0 0 1
30.163988 33.803769 -29.971941 54.321986 0.842237 2.155253 0.012493 -0.010187 -70577.300000 0 0 1
30.030838 33.160092 -31.222691 54.555470 0.834878 2.180117 0.028935 -0.009075 -434309.000000 0 0 1
28.857738 33.525284 -31.876771 54.523776 0.860080 2.195232 0.031661 0.004242 -435337.000000 0 0 1
28.684048 32.763340 -33.197891 54.756835 0.851688 2.222169 0.032982 -0.002501 58195.300000 0 0 1
28.596178 31.347564 -33.079321 53.801976 0.831265 2.232973 0.025307 -0.005441 208819.000000 0 0 1
28.141518 30.770944 33.788440 53.669867 0.830001 0.889809 0.036177 0.000237 127984.000000 0 0 1
28.372118 29.210164 33.890832 52.979234 0.799951 0.876688 0.036967 -0.021167 836656.000000 0 0 1
29.729278 28.749404 33.979266 53.525215 0.768644 0.883011 0.046793 -0.020484 463297.000000 0 0 1
29.742568 27.349064 -33.946591 52.772745 0.743499 2.269545 0.038577 -0.022208 -218188.000000 0 0 1
31.166928 26.842394 -33.756301 53.210707 0.710987 2.258015 0.076864 -0.033564 -292289.000000 0 0 1
31.734398 27.146364 -32.500201 52.917484 0.707635 2.232127 0.085143 -0.031956 88583.700000 0 0 1
32.957538 26.434664 -32.347781 53.210616 0.676009 2.224234 0.093328 -0.031651 859095.000000 0 0 1
33.832218 26.706924 -31.034421 53.113219 0.668240 2.194822 0.091998 -0.027758 378522.000000 0 0 1
34.680248 27.856134 -31.087101 54.268698 0.676706 2.180759 0.082029 -0.023154 54517.600000 0 0 1
34.125708 29.164574 -31.220761 54.679724 0.707171 2.178489 0.077623 -0.024628 182313.000000 0 0 1
33.094278 29.695314 -30.135821 53.714156 0.731318 2.166439 0.077614 -0.017356 791364.000000 0 0 1
33.627518 29.859054 -28.810891 53.408244 0.726109 2.140576 0.079628 -0.017640 -302405.000000 0 0 1
32.593578 30.158784 -27.919281 52.453597 0.746618 2.132072 0.066764 -0.017720 -383029.000000 0 0 1
33.012788 30.466124 -26.421971 52.116690 0.745301 2.102471 0.070589 -0.022125 -74391.500000 0 0 1
33.401798 31.814644 -26.293051 53.095915 0.761066 2.088860 0.066311 -0.027938 179153.000000 0 0 1
34.002898 32.075454 -25.024111 53.021108 0.756237 2.062315 0.048353 -0.031714 170372.000000 0 0 1
34.439848 33.488143 -24.807811 54.064649 0.771389 2.047502 0.056999 -0.029504 -1237390.000000 0 0 1
33.351818 -33.884187 -24.658311 53.558512 -0.793316 2.049241 0.055399 -0.019142 -1176700.000000 0 0 1
33.568808 -32.516907 -24.476611 52.757166 -0.769482 2.053244 0.048506 -0.019370 -939144.000000 0 0 1
33.922658 -31.610517 -25.706821 53.017093 -0.750131 2.077020 0.048569 -0.018606 66649.200000 0 0 1
35.221358 -31.714787 -26.238211 54.173937 -0.733059 2.076397 0.061628 -0.022810 93614.700000 0 0 1
36.238848 -31.122947 -25.405801 54.104960 -0.709597 2.059594 0.067339 -0.024266 -242720.000000 0 0 1
-35.970765 -31.583447 -25.865701 54.409967 0.720544 2.066198 0.050277 -0.019474 39257.400000 0 0 1
-35.678869 -32.938737 -25.487491 54.841173 0.745486 2.054150 0.050946 -0.018795 -98029.500000 0 0 1
-35.407725 -33.242097 -24.118911 54.226063 0.753863 2.031730 0.061275 -0.019843 309357.000000 0 0 1
-34.169711 -32.564067 -23.390011 52.679030 0.761342 2.030865 0.039882 -0.016056 602696.000000 0 0 1
-34.129234 -31.178767 -23.367111 51.797123 0.740251 2.038825 0.008858 -0.015091 -388537.000000 0 0 1
-33.491624 -30.581747 -22.262411 50.522738 0.740015 2.027109 0.035524 -0.025527 -370581.000000 0 0 1
-33.360264 -29.006137 -22.246811 49.489229 0.715696 2.037034 0.029777 -0.009283 1103140.000000 0 0 1
-34.611057 -28.255657 -22.240011 49.909173 0.684647 2.032652 0.009653 0.000263 654728.000000 0 0 1
-35.039710 -28.165847 -23.589111 50.769503 0.677070 2.054015 0.019219 -0.003317 16028.800000 0 0 1
-36.302684 -27.278827 -23.798911 51.267996 0.644414 2.053534 0.021344 -0.002820 89474.600000 0 0 1
-36.168014 -25.915497 -23.385511 50.265498 0.621735 2.054702 0.010180 0.002911 35009.200000 0 0 1
36.528698 -24.946137 -23.899111 50.277461 -0.599170 2.066152 0.015544 0.002373 204255.000000 0 0 1
-36.701064 -24.440837 -25.280311 50.827323 0.587502 2.091368 0.016015 0.001787 -27899.900000 0 0 1
-35.523349 -23.667337 -25.285971 49.612816 0.587712 2.105593 0.010809 -0.006000 -251978.000000 0 0 1
-35.218977 -23.190937 -26.574771 49.843900 0.582312 2.133128 0.018638 -0.022039 437733.000000 0 0 1
-33.996624 -22.214737 -26.603101 48.548841 0.578789 2.150727 0.028078 -0.026565 67759.800000 0 0 1
-34.158165 -20.978137 -25.856821 47.701548 0.550757 2.143676 0.031450 -0.011490 12621.000000 0 0 1
-35.160771 -20.077737 -26.296231 48.279262 0.518843 2.146791 0.027503 -0.010152 -278616.000000 0 0 1
-36.379914 -19.938337 -25.391051 48.638882 0.501352 2.120028 0.029180 -0.014588 -423082.000000 0 0 1
-36.181514 -19.284537 -24.130411 47.573859 0.489693 2.102752 0.028181 -0.016283 -327907.000000 0 0 1
-35.484020 -20.047337 -23.134811 46.863961 0.514262 2.087088 0.009734 -0.006396 -309365.000000 0 0 1
-35.999669 -21.310737 -22.514811 47.508319 0.534494 2.064526 0.021780 -0.001150 -461944.000000 0 0 1
36.596778 -21.016137 -21.618811 47.417034 -0.521279 2.044212 0.019790 -0.000362 -268107.000000 0 0 1
36.082258 -22.190237 -20.981311 47.271042 -0.551369 2.030688 0.024150 0.008920 -131036.000000 0 0 1
34.912498 -22.055437 -20.008711 45.887616 -0.563428 2.021987 0.021981 0.005677 -383245.000000 0 0 1
33.717818 -21.677837 -20.641911 45.087785 -0.571381 2.046333 0.035860 0.003106 -308963.000000 0 0 1
32.650178 -21.587537 -19.721111 43.828964 -0.584192 2.037513 0.048656 -0.004014 -184554.000000 0 0 1
31.304588 -21.120337 -20.247211 42.848517 -0.593524 2.062956 0.045775 -0.008842 -982467.000000 0 0 1
30.743768 -22.049637 -21.132911 43.335502 -0.622181 2.080202 0.049397 -0.008882 145697.000000 0 0 1
29.508998 -21.612837 -21.700311 42.529980 -0.632151 2.106255 0.067277 -0.018679 229649.000000 0 0 1
29.408298 -20.402237 -22.646911 42.355423 -0.606524 2.134934 0.056902 -0.013773 -614425.000000 0 0 1
29.658048 -19.265037 -21.900411 41.597710 -0.576074 2.125253 0.047082 -0.010625 -52723.400000 0 0 1
29.770328 -18.090337 -22.690411 41.573880 -0.546035 2.148122 0.034799 -0.009029 -42254.900000 0 0 1
30.497098 -16.937537 -21.944611 41.213094 -0.506966 2.132309 0.023626 -0.003978 -202394.000000 0 0 1
29.750238 -16.405337 -20.847611 39.860188 -0.503945 2.121185 0.016419 -0.009219 661955.000000 0 0 1
30.579668 -15.652037 -19.940711 39.720704 -0.473078 2.096733 0.013008 -0.006413 -95578.100000 0 0 1
31.644398 -16.431337 -19.171911 40.483564 -0.478928 2.064139 0.031622 -0.012295 -632086.000000 0 0 1
32.731568 -16.814037 -19.961211 41.863078 -0.474543 2.067831 0.023634 -0.010736 -931362.000000 0 0 1
33.585718 -17.659637 -19.267111 42.556842 -0.484080 2.040630 0.029118 -0.008176 -465014.000000 0 0 1
34.827958 -17.998437 -20.122111 44.066197 -0.476982 2.045004 0.022018 -0.008507 -106441.000000 0 0 1
35.730268 -16.910237 -20.129511 44.359952 -0.442040 2.041795 0.024833 -0.008514 18181.700000 0 0 1
36.795098 -17.186137 -21.014111 45.725654 -0.436964 2.048307 0.034591 -0.003696 -211241.000000 0 0 1
-36.007013 -15.965537 -21.435311 44.842791 0.417352 2.069184 0.054001 -0.010249 -739687.000000 0 0 1
-34.999623 -15.734037 -20.512811 43.512170 0.422479 2.061704 0.067064 -0.015438 -584932.000000 0 0 1
-34.222473 -14.606837 -20.912111 42.683178 0.403411 2.082815 0.074592 -0.015311 1093990.000000 0 0 1
-32.862264 -14.499237 -20.076111 41.148590 0.415522 2.080471 0.086236 -0.023581 1419280.000000 0 0 1
-31.893664 -15.548537 -20.207411 40.832613 0.453607 2.088498 0.088254 -0.024814 541995.000000 0 0 1
-32.233654 -16.785237 -19.615611 41.298000 0.480099 2.065735 0.075330 -0.024221 -216111.000000 0 0 1
-31.063304 -17.815137 -19.735211 40.887486 0.520714 2.074498 0.049175 -0.030764 424681.000000 0 0 1
-31.421874 -19.154937 -19.381811 41.592071 0.547452 2.055558 0.054956 -0.024525 -238964.000000 0 0 1
-30.336714 -20.011137 -19.527211 41.256197 0.583118 2.063847 0.051497 -0.022821 -258575.000000 0 0 1
-30.692684 -21.418237 -18.912511 41.934053 0.609267 2.038689 0.050929 -0.004044 -261819.000000 0 0 1
-31.501304 -22.204837 -19.697411 43.282501 0.613998 2.043269 0.035609 -0.002075 -356677.000000 0 0 1
-31.704274 -23.522737 -19.297411 43.941668 0.638324 2.025459 0.029682 0.012130 537088.000000 0 0 1
-32.782034 -24.160737 -20.260311 45.484977 0.635137 2.032449 0.014942 0.013430 440607.000000 0 0 1
-32.287654 -24.204137 -21.562411 45.752272 0.643271 2.061545 0.013806 -0.000527 243430.000000 0 0 1
-33.065024 -25.115687 -22.312711 47.137571 0.649607 2.063890 0.013120 -0.004056 -31309.400000 0 0 1
-32.717504 -25.056737 -23.814311 47.596182 0.653569 2.094789 0.013745 -0.001148 495289.000000 0 0 1
-31.401984 -25.505007 -24.136711 47.108076 0.682142 2.108737 0.016235 -0.012899 201179.000000 0 0 1
-31.295764 -25.757307 -25.517831 47.895964 0.688626 2.132674 0.017391 -0.001532 1285530.000000 0 0 1
-29.792674 -26.138997 -25.862601 47.325730 0.720167 2.148953 0.024890 -0.011341 1199220.000000 0 0 1
-28.968764 -25.028437 -26.064631 46.313896 0.712554 2.168544 0.033328 -0.020118 -393827.000000 0 0 1
-27.608054 -25.394577 -26.150471 45.726757 0.743661 2.179599 0.026821 -0.015471 275631.000000 0 0 1
-26.641734 -24.203437 -26.278941 44.566479 0.737480 2.201431 0.042605 -0.018663 -295981.000000 0 0 1
-26.506274 -23.788737 -27.589401 45.051766 0.731419 2.229881 0.045535 -0.026200 -345746.000000 0 0 1
-25.617764 -22.719537 -27.653761 44.013381 0.725511 2.250167 0.075465 -0.033056 -349850.000000 0 0 1
-25.450544 -22.144237 -29.078891 44.538515 0.716042 2.282194 0.049178 -0.021140 -51400.000000 0 0 1
-24.712544 -22.965937 -29.960661 45.119678 0.748782 2.296987 0.048778 -0.019421 135992.000000 0 0 1
-24.585944 -22.390537 -31.236831 45.623945 0.738698 2.324932 0.045480 -0.013396 126066.000000 0 0 1
-24.048444 -23.408637 -32.287591 46.570167 0.771917 2.336869 0.041333 -0.021129 -76437.300000 0 0 1
-25.026144 -24.355037 -32.564071 47.748240 0.771809 2.321284 0.033868 -0.023093 -30247.000000 0 0 1
-24.452544 -25.500887 -33.228151 48.500847 0.806382 2.325544 0.025445 -0.014985 269167.000000 0 0 1
-19.935644 -15.448537 -11.577911 27.751310 0.659260 2.001161 0.063527 -0.006292 156301.000000 0 0 1
-20.432544 -14.647737 -10.486111 27.239742 0.621967 1.965957 0.071870 -0.016931 -237719.000000 0 0 1
-19.705444 -14.892937 -9.342811 26.408184 0.647189 1.932411 0.062388 -0.015544 -504788.000000 0 0 1
-20.168944 -14.141737 -8.137611 25.942161 0.611507 1.889866 0.092178 -0.027492 517857.000000 0 0 1
-21.382244 -14.652937 -7.532011 26.993334 0.600782 1.853583 0.124170 -0.036862 859380.000000 0 0 1
-21.710644 -13.893537 -6.387911 26.555373 0.569272 1.813729 0.116429 -0.038049 -198221.000000 0 0 1
-22.958444 -14.474737 -5.698011 27.732210 0.562527 1.777736 0.107083 -0.042445 -534837.000000 0 0 1
-22.791244 -15.782337 -5.104711 28.188314 0.605657 1.752894 0.089222 -0.035402 297685.000000 0 0 1
-22.025544 -15.837537 -3.916311 27.409663 0.623399 1.714168 0.088848 -0.036801 -209179.000000 0 0 1
-21.793444 -17.300237 -3.560411 28.052253 0.670966 1.698060 0.063486 -0.026132 -445807.000000 0 0 1
-22.930444 -18.035037 -3.209211 29.349052 0.666461 1.680362 0.062578 -0.020089 -288615.000000 0 0 1
-22.675744 -19.053837 -2.271811 29.705205 0.698820 1.647350 0.044988 -0.012344 -343894.000000 0 0 1
-23.842244 -19.994937 -1.957911 31.178254 0.697859 1.633635 0.052795 -0.024288 -306139.000000 0 0 1
-24.095644 -21.064637 -2.855711 32.132135 0.718382 1.659788 0.042206 -0.028800 -234386.000000 0 0 1
-25.166084 -21.875537 -2.460111 33.435356 0.715562 1.644441 0.049392 -0.026855 -217897.000000 0 0 1
-25.326364 -22.976137 -3.548011 34.379005 0.736780 1.674183 0.052024 -0.029722 -321713.000000 0 0 1
-24.106044 -23.631737 -3.749311 33.964948 0.775463 1.681409 0.054156 -0.024964 -670792.000000 0 0 1
-23.977644 -24.384337 -4.881111 34.544877 0.793807 1.712568 0.060922 -0.031069 349208.000000 0 0 1
-22.495344 -24.405337 -5.373411 33.623422 0.826100 1.731296 0.069286 -0.023739 753143.000000 0 0 1
-21.922444 -23.261537 -5.978211 32.518174 0.815026 1.755690 0.050073 -0.014428 56020.400000 0 0 1
-21.714944 -22.159237 -5.144011 31.448870 0.795524 1.735102 0.044268 -0.015413 -540159.000000 0 0 1
-21.759544 -20.820737 -5.905811 30.689729 0.763354 1.764440 0.049672 -0.009453 46691.000000 0 0 1
-20.566644 -20.479937 -6.568811 29.758426 0.783286 1.793367 0.040547 -0.002648 -20529.200000 0 0 1
-20.857444 -19.353837 -7.390811 29.397756 0.748023 1.824930 0.035880 -0.004451 -64033.100000 0 0 1
-19.680644 -18.790237 -8.198611 28.418620 0.762257 1.863450 0.048829 -0.002993 -642962.000000 0 0 1
-19.353644 -19.705637 -9.263011 29.132096 0.794410 1.894380 0.039882 -0.001993 959858.000000 0 0 1
-17.985244 -19.604737 -9.727911 28.327495 0.828455 1.921340 0.061367 -0.002365 1116630.000000 0 0 1
-17.599844 -18.211337 -10.345611 27.357613 0.802472 1.958606 0.064467 -0.000419 -602128.000000 0 0 1
-17.145744 -17.131237 -9.506411 26.035124 0.784975 1.944577 0.076675 -0.015375 1595550.000000 0 0 1
-15.891044 -17.262737 -8.757511 25.044388 0.826748 1.928025 0.086305 -0.021154 1117420.000000 0 0 1
-15.716844 -16.035237 -7.856011 23.787915 0.795425 1.907367 0.084401 -0.020789 -529306.000000 0 1 0
-16.706944 -15.995937 -6.899311 24.136952 0.763660 1.860679 0.080363 -0.020392 -221752.000000 0 1 0
-16.827244 -14.681137 -6.405211 23.231846 0.717391 1.850123 0.094570 -0.025145 -143464.000000 0 1 0
-17.480744 -14.783437 -5.012011 23.436012 0.701991 1.786320 0.104466 -0.033379 16158.100000 0 1 0
-17.561344 -13.518437 -4.278911 22.571177 0.656043 1.761525 0.090980 -0.035313 82707.100000 0 1 0
-18.145744 -13.799137 -3.040111 22.998402 0.650163 1.703372 0.084337 -0.034551 -51710.000000 0 1 0
-19.102544 -12.722337 -2.497811 23.086881 0.587542 1.679200 0.097706 -0.029587 -79722.000000 0 1 0
-20.377844 -12.621337 -3.076211 24.166459 0.554537 1.698435 0.119734 -0.038947 614109.000000 0 1 0
-21.356944 -11.997737 -2.257411 24.600013 0.511836 1.662690 0.133791 -0.031694 -134334.000000 0 1 0
-22.825844 -12.267637 -2.580811 26.041787 0.493153 1.670062 0.112830 -0.025405 -307707.000000 0 0 1
-23.356344 -11.529337 -3.637711 26.299759 0.458537 1.709558 0.126587 -0.038040 1272810.000000 0 0 1
-24.779644 -11.707737 -3.820611 27.671265 0.441385 1.709310 0.111916 -0.031686 983589.000000 0 0 1
-25.217904 -10.927237 -5.092511 27.951401 0.408890 1.754011 0.127019 -0.042857 -181081.000000 0 0 1
-24.915244 -11.696137 -6.270011 28.229099 0.438900 1.794776 0.113112 -0.049171 438811.000000 0 0 1
-25.251824 -10.895137 -7.398211 28.479679 0.407329 1.833582 0.130321 -0.051273 -58949.800000 0 0 1
-24.314044 -11.340837 -8.562311 28.162040 0.436434 1.879724 0.138393 -0.058443 230761.000000 0 0 1
-22.978544 -10.897337 -8.431311 26.792768 0.442828 1.890922 0.127261 -0.054330 70755.600000 0 0 1
-22.258344 -10.992137 -9.600011 26.616182 0.458710 1.939797 0.096190 -0.041311 162367.000000 0 0 1
-20.844444 -10.337537 -9.546411 25.149343 0.460392 1.960148 0.095047 -0.043800 213121.000000 0 0 1
-20.940144 -8.952537 -9.818111 24.799856 0.404012 1.977837 0.091278 -0.044048 1160250.000000 0 1 0
-19.707844 -8.213337 -9.649311 23.430049 0.394866 1.995263 0.097662 -0.039818 613582.000000 0 1 0
-19.759544 -6.865537 -10.393811 23.358221 0.334405 2.031942 0.093617 -0.048453 -248486.000000 0 1 0
-19.496544 -6.992137 -11.790911 23.833396 0.344346 2.088312 0.103014 -0.039762 476464.000000 0 1 0
-19.551744 -5.790037 -12.565211 23.951612 0.287911 2.123051 0.106810 -0.043682 -200765.000000 0 1 0
-18.805044 -5.809737 -13.908811 24.100575 0.299644 2.185988 0.120766 -0.036325 -229091.000000 0 1 0
-19.514044 -6.542937 -14.866611 25.389448 0.323514 2.196346 0.119029 -0.044675 490369.000000 0 0 1
-18.892344 -6.380337 -16.158611 25.665737 0.325694 2.251808 0.117621 -0.048394 -104772.000000 0 0 1
-19.554444 -7.168537 -17.326311 27.091793 0.351381 2.264697 0.106536 -0.037764 479720.000000 0 0 1
-20.933844 -6.861437 -17.555011 28.168840 0.316733 2.243633 0.091637 -0.045729 649646.000000 0 0 1
-21.429844 -7.797237 -18.497711 29.363250 0.348959 2.252300 0.077540 -0.045718 -468533.000000 0 0 1
-22.895044 -7.477337 -18.796411 30.551574 0.315671 2.233481 0.073282 -0.039906 -1213190.000000 0 0 1
-23.046744 -6.330237 -19.628611 30.927442 0.268059 2.258373 0.076139 -0.039939 711030.000000 0 0 1
-24.358544 -6.222037 -20.190811 32.244709 0.250088 2.247433 0.059694 -0.034549 734241.000000 0 0 1
-25.537204 -5.885237 -19.270611 32.529083 0.226503 2.204845 0.086538 -0.032315 -724750.000000 0 0 1
-25.563354 -4.462937 -19.141811 32.246113 0.172841 2.206341 0.081302 -0.029376 292597.000000 0 0 1
-26.628304 -4.060737 -18.303811 32.566634 0.151331 2.167649 0.099365 -0.026131 -411320.000000 0 0 1
-26.781764 -2.544437 -18.060211 32.402288 0.094722 2.162017 0.077066 -0.018174 95459.900000 0 0 1
-27.295354 -1.766937 -19.156111 33.393337 0.064644 2.181752 0.088249 -0.017596 863617.000000 0 0 1
-28.676494 -1.976337 -19.482011 34.724573 0.068810 2.166443 0.081668 -0.010290 220053.000000 0 0 1
-29.165054 -0.836437 -20.418111 35.611785 0.028672 2.181388 0.082025 -0.008651 -307851.000000 0 0 1
-28.502704 -0.569437 -21.644711 35.794160 0.019976 2.220185 0.094987 -0.014128 39586.800000 0 0 1
-28.692574 -1.579037 -22.630611 36.577339 0.054978 2.237891 0.104626 -0.010372 -152187.000000 0 0 1
-27.705654 -1.468737 -23.806911 36.558576 0.052963 2.279960 0.126308 -0.015182 -477203.000000 0 0 1
-27.906864 -0.330537 -24.716711 37.280264 0.011844 2.295612 0.119981 -0.013245 113392.000000 0 0 1
-27.629634 0.950863 -24.257811 36.779644 -0.034401 2.291009 0.112246 -0.013413 -469039.000000 0 0 1
-26.183904 1.234663 -23.826011 35.423156 -0.047119 2.308528 0.113779 -0.020175 -283932.000000 0 0 1
-25.214264 1.026563 -24.836311 35.406995 -0.040691 2.348229 0.111873 -0.019047 174861.000000 0 0 1
-23.891644 1.126563 -24.331811 34.119156 -0.047118 2.364767 0.099073 -0.019057 664410.000000 0 0 1
-22.844544 0.389263 -25.245911 34.049680 -0.017038 2.406015 0.085498 -0.015421 224768.000000 0 0 1
-22.609844 0.969763 -26.490061 34.840620 -0.042865 2.434604 0.055427 -0.007648 483637.000000 0 0 1
-21.608444 0.290063 -27.261201 34.787671 -0.013423 2.471309 0.042034 -0.006488 392646.000000 0 0 1
-21.362644 0.989763 -28.581231 35.696344 -0.046298 2.499220 0.031139 0.013108 -303587.000000 0 0 1
-20.710944 2.250063 -28.492191 35.296047 -0.108217 2.510248 0.031093 0.012012 313858.000000 0 0 1
-20.675444 2.933763 -29.695081 36.302600 -0.140955 2.528700 0.012899 0.010683 -224696.000000 0 0 1
-20.045744 2.298963 -30.962761 36.956862 -0.114187 2.564053 0.007226 0.012956 -406488.000000 0 0 1
-18.639144 2.306163 -31.018061 36.260946 -0.123101 2.597143 -0.006501 0.013093 93405.300000 0 0 1
-18.076544 1.828363 -32.232271 37.000319 -0.100803 2.628305 -0.001074 0.010897 1649800.000000 0 0 1
-16.483444 1.848963 -32.234551 36.251743 -0.111704 2.666360 0.006106 -0.001184 1022060.000000 0 0 1
-15.846444 3.042663 -32.422031 36.215407 -0.189700 2.679800 0.015310 0.003348 -565284.000000 0 0 1
-14.461744 2.800463 -32.451641 35.638373 -0.191279 2.715485 0.031394 -0.008091 -268362.000000 0 0 1
-13.650544 4.048963 -32.825971 35.780942 -0.288349 2.732331 0.042950 -0.006463 -400482.000000 0 0 1
-13.585244 4.950663 -31.781161 34.915757 -0.349458 2.714621 0.058893 -0.030442 56529.700000 0 0 1
-13.164944 6.177063 -32.271041 35.396214 -0.438710 2.718221 0.074194 -0.019102 -298002.000000 0 0 1
-13.038944 7.207863 -31.069561 34.457002 -0.504987 2.694460 0.068712 -0.025129 -443748.000000 0 0 1
-11.909344 7.060263 -30.235421 33.254480 -0.535134 2.712187 0.104251 -0.039071 224931.000000 0 0 1
-11.997244 6.021263 -29.269551 32.200871 -0.465156 2.711597 0.096213 -0.038170 -93268.700000 0 0 1
-10.544244 5.516263 -29.010971 31.356764 -0.481999 2.752333 0.125136 -0.047883 -293475.000000 0 0 1
-9.966344 4.828963 -30.032401 32.009249 -0.451193 2.788308 0.109698 -0.053058 -284217.000000 0 0 1
-10.476544 3.536863 -30.332531 32.285133 -0.325584 2.792023 0.110476 -0.052748 -437600.000000 0 0 1
-9.883444 2.831263 -31.593181 33.223901 -0.278994 2.826983 0.105187 -0.043146 -170889.000000 0 0 1
-10.456044 1.553763 -31.679591 33.396699 -0.147520 2.819530 0.103071 -0.037770 316696.000000 0 0 1
-10.164544 0.802063 -32.871211 34.416243 -0.078745 2.840819 0.081069 -0.025165 -819116.000000 0 0 1
-10.824644 1.261463 33.920788 35.628416 -0.116013 0.310859 0.089187 -0.023004 184231.000000 0 0 1
-12.186144 0.899563 33.731058 35.876114 -0.073685 0.347552 0.045398 -0.021496 189909.000000 0 0 1
-12.544344 1.054463 32.373368 34.734815 -0.083862 0.370863 0.032097 -0.002565 365155.000000 0 0 1
-14.062044 0.941963 32.094060 35.052205 -0.066886 0.413780 0.030421 0.007001 225780.000000 0 0 1
-14.908144 2.050363 32.111191 35.462449 -0.136676 0.438244 0.029251 0.011593 -144315.000000 0 0 1
-16.166044 1.732063 31.571170 35.511685 -0.106735 0.475561 0.012674 0.013227 -167010.000000 0 0 1
-17.113344 2.919163 31.340420 35.827503 -0.168952 0.505859 0.015074 0.009523 -296444.000000 0 0 1
-17.616944 3.427863 32.536549 37.158229 -0.192176 0.504075 -0.000938 0.010270 53944.400000 0 0 1
-17.029444 4.650263 32.935569 37.368149 -0.266573 0.492019 0.014112 0.009531 -279537.000000 0 0 1
-17.786844 5.312963 -33.988621 38.727584 -0.290265 2.641699 0.009488 0.013111 170483.000000 0 0 1
-19.156044 5.497463 33.797990 39.236211 -0.279472 0.532781 -0.006640 0.017357 -80707.000000 0 0 1
-19.912044 5.292163 -33.119121 39.004777 -0.259772 2.585083 -0.017010 0.025017 363783.000000 0 0 1
-21.283844 6.041863 -33.198441 39.895396 -0.276595 2.553747 -0.004380 0.016261 -101409.000000 0 0 1
-21.240944 7.436763 -32.960671 39.911013 -0.336777 2.542511 -0.000881 0.011980 568858.000000 0 0 1
-20.563644 8.290563 -33.928511 40.530738 -0.383233 2.562767 -0.020341 0.007977 -105060.000000 0 0 1
-20.512644 9.790263 -33.550651 40.524856 -0.445306 2.546155 0.001024 0.009454 -384899.000000 0 0 1
-19.693444 10.115363 -32.433151 39.269092 -0.474501 2.542629 0.004210 0.008330 381789.000000 0 0 1
-19.569744 11.508163 -32.163031 39.368430 -0.531593 2.526942 0.031451 -0.003877 -98701.000000 0 0 1
-18.799044 12.411363 -33.131641 40.064343 -0.583521 2.544477 0.019539 -0.010125 -383163.000000 0 0 1
-19.494344 12.551063 33.729993 40.930075 -0.572026 0.602206 0.031910 -0.010373 483887.000000 0 0 1
-18.648444 12.811363 32.616349 39.695361 -0.601943 0.606468 0.031063 -0.005972 574883.000000 0 0 1
-19.428344 12.295063 31.303250 38.839703 -0.564218 0.633501 0.025022 -0.008735 367528.000000 0 0 1
-19.498744 10.926763 31.024030 38.237228 -0.510780 0.624327 0.009668 0.002273 -341537.000000 0 0 1
-18.271644 10.306963 30.762660 37.234765 -0.513601 0.598501 0.018398 -0.000607 -181635.000000 0 0 1
-18.332244 8.791063 30.890950 36.981140 -0.447147 0.582088 0.017252 0.006520 -216538.000000 0 0 1
-19.174444 8.243763 29.944060 36.500214 -0.406043 0.608720 0.016139 -0.009476 -248086.000000 0 0 1
-19.130544 6.802363 30.056530 36.271819 -0.341634 0.594110 0.012494 -0.011181 3171.820000 0 0 1
-19.737944 6.029463 28.860460 35.480516 -0.296473 0.620793 0.019914 -0.016112 181109.000000 0 0 1
-21.122244 6.241163 28.664790 36.149294 -0.287303 0.655151 0.040042 -0.023100 -160441.000000 0 0 1
-21.679544 5.340863 27.784260 35.643969 -0.241545 0.676939 0.034315 -0.025427 -133510.000000 0 0 1
-23.178644 5.367863 27.435610 36.314958 -0.227575 0.714394 0.037389 -0.021665 -49738.300000 0 0 1
-23.588244 6.224163 26.381600 35.932357 -0.257987 0.746306 0.052760 -0.030986 592534.000000 0 0 1
-25.011744 6.278163 26.353360 36.871428 -0.245928 0.774549 0.058273 -0.030046 204802.000000 0 0 1
-25.664094 7.022163 25.174670 36.629503 -0.267081 0.813061 0.061133 -0.026263 -271979.000000 0 0 1
-25.634554 6.417963 23.885120 35.620493 -0.245321 0.835854 0.054446 -0.019996 243253.000000 0 0 1
-26.487684 5.331563 23.602600 35.876255 -0.198630 0.852784 0.053437 -0.016255 -326417.000000 0 0 1
-26.233884 4.653063 22.246590 34.709918 -0.175543 0.875089 0.072156 -0.007450 -170683.000000 0 0 1
-26.840384 5.316463 21.154590 34.585946 -0.195546 0.912648 0.080454 -0.007420 87972.100000 0 0 1
-26.965904 4.459063 20.007090 33.872213 -0.163876 0.938915 0.090343 -0.016861 -455414.000000 0 0 1
-27.753884 5.109363 18.872190 33.949127 -0.182057 0.981356 0.144472 -0.036238 -542393.000000 0 0 1
-29.119254 5.019263 19.170090 35.222383 -0.170692 0.995291 0.160660 -0.033692 -289788.000000 0 0 1
-29.899814 5.405063 18.023590 35.327940 -0.178841 1.035403 0.175049 -0.036769 -134538.000000 0 0 1
-31.407634 5.260763 18.258890 36.708339 -0.165959 1.050192 0.178975 -0.036199 -398513.000000 0 0 1
-31.934574 6.374163 18.940790 37.672277 -0.197012 1.043987 0.176433 -0.023104 -311807.000000 0 0 1
-33.235854 6.033063 19.348390 38.927882 -0.179567 1.050622 0.175266 -0.022911 169636.000000 0 0 1
-34.018734 7.118163 20.178890 40.188681 -0.206267 1.044767 0.159751 -0.020125 476679.000000 0 0 1
-33.335334 7.457663 21.385190 40.301210 -0.220092 1.011448 0.136768 -0.023690 -31201.700000 0 0 1
-34.081594 8.346563 22.147290 41.493645 -0.240172 1.007766 0.141368 -0.029380 42757.900000 0 0 1
-0.339144 32.343363 11.325989 34.270777 -1.560311 1.233979 0.063543 -0.016082 -510178.000000 0 0 1
-0.564344 32.526663 12.709989 34.926295 -1.553448 1.198335 0.049447 -0.015637 328330.000000 0 0 1
-0.029244 33.814563 13.150989 36.281869 -1.569932 1.199883 0.040532 -0.021870 -455830.000000 0 0 1
-0.199144 34.013163 14.653589 37.035963 -1.564941 1.164012 0.046488 -0.015328 6642.030000 0 0 1
-1.476844 -33.871438 15.204089 37.156691 1.527222 1.149232 0.045418 -0.001960 -126183.000000 0 0 1
-1.332044 -33.854338 16.598689 37.728067 1.531470 1.115247 0.040920 -0.015918 351669.000000 0 0 1
-2.581444 -33.576638 17.487789 37.945714 1.494065 1.091829 0.038464 -0.004643 360588.000000 0 0 1
-3.406744 33.450363 17.766289 38.028590 -1.469302 1.084695 0.030988 -0.000363 297647.000000 0 0 1
-4.316544 33.725663 18.811589 38.857802 -1.443499 1.065447 0.024803 0.000497 248331.000000 0 0 1
-5.339644 32.619363 19.230789 38.240788 -1.408540 1.043861 0.015864 -0.003215 -117384.000000 0 0 1
-6.390544 32.540363 18.322989 37.887282 -1.376876 1.066012 0.020627 -0.009855 -767383.000000 0 0 1
-7.474344 31.919763 18.965689 37.873928 -1.340780 1.046322 0.019499 -0.018233 -943533.000000 0 0 1
-8.606344 31.706563 17.998189 37.460780 -1.305745 1.069624 0.015048 -0.027291 -1065270.000000 0 0 1
-9.276944 32.901863 17.582289 38.441269 -1.295973 1.095749 0.026541 -0.022486 -121791.000000 0 0 1
-10.002444 32.747063 16.406989 37.968517 -1.274351 1.123953 0.034878 -0.019766 -1017270.000000 0 0 1
-10.859844 33.966563 16.155489 39.149245 -1.261346 1.145419 0.067000 -0.029096 -798485.000000 0 0 1
-11.899844 34.057063 17.088789 39.918874 -1.234648 1.128420 0.053996 -0.027894 -516635.000000 0 0 1
-12.737544 -33.041938 16.712289 39.157570 1.202855 1.129850 0.035422 -0.030090 -1035650.000000 0 0 1
-14.139144 -33.160638 17.278189 39.975982 1.167755 1.123850 0.066107 -0.033614 -645021.000000 0 0 1
-14.149344 -32.895938 18.679689 40.389076 1.164593 1.089991 0.050371 -0.018708 441898.000000 0 0 1
-15.431244 -32.976338 19.314689 41.214310 1.133117 1.083045 0.041398 -0.027957 447607.000000 0 0 1
-15.478044 -32.812038 20.821289 41.829723 1.130029 1.049779 0.039057 -0.036814 -527782.000000 0 0 1
-15.478544 -31.452038 21.260189 40.997703 1.113463 1.025618 0.058206 -0.028012 199643.000000 0 0 1
-15.477544 -31.282838 22.646589 41.605748 1.111348 0.995225 0.043888 -0.019133 38491.000000 0 0 1
-15.062644 -29.850838 23.029089 40.599196 1.103478 0.967658 0.056627 -0.026255 -221418.000000 0 0 1
-15.174144 -29.529738 24.389189 41.195784 1.096123 0.937219 0.052777 -0.034464 -44649.100000 0 0 1
-14.863644 -28.206338 24.774189 40.376798 1.085813 0.910216 0.049018 -0.005642 -323064.000000 0 0 1
-15.926444 -27.198638 24.338989 39.822153 1.041062 0.913230 0.062312 -0.008331 -1199380.000000 0 0 1
-17.142444 -27.353538 24.939089 40.792617 1.010976 0.913015 0.078032 -0.004222 -955452.000000 0 0 1
-18.162144 -26.744838 24.171089 40.365720 0.974242 0.928791 0.075465 0.001446 -26903.600000 0 0 1
-19.307944 -26.063338 25.018989 40.963936 0.933204 0.913781 0.072025 -0.000400 769602.000000 0 0 1
-20.175344 -26.911538 25.785389 42.381147 0.927493 0.916733 0.078504 -0.004535 514340.000000 0 0 1
-21.024344 -27.742138 25.021789 42.868860 0.922291 0.947540 0.074358 -0.010403 -190497.000000 0 0 1
-22.503744 -27.299738 24.826389 43.220872 0.881401 0.958916 0.063372 0.001103 357812.000000 0 0 1
-22.552244 -26.077738 24.087389 42.057751 0.857768 0.960974 0.078080 -0.007174 227957.000000 0 0 1
-23.797844 -26.041338 23.416889 42.341933 0.830382 0.984785 0.080169 -0.005359 -348731.000000 0 0 1
-24.306744 -24.678738 22.981689 41.569411 0.792992 0.985015 0.077436 0.007736 -241147.000000 0 0 1
-24.934444 -24.045138 24.069889 42.181213 0.767244 0.963523 0.069488 0.006942 112286.000000 0 0 1
-25.707924 -22.947138 23.625389 41.780707 0.728717 0.969803 0.067815 0.008463 103791.000000 0 0 1
-26.120154 -21.988638 24.757189 42.174412 0.699730 0.943424 0.064504 0.008195 205197.000000 0 0 1
-27.253814 -22.422838 25.486589 43.532979 0.688455 0.945355 0.058549 0.015067 234280.000000 0 0 1
-27.472134 -21.690938 26.690589 44.018206 0.668343 0.919330 0.042677 0.012036 -202119.000000 0 0 1
-28.697404 -22.115938 27.587289 45.538052 0.656593 0.920016 0.045291 0.007647 2200970.000000 0 0 1
-30.036524 -21.749538 27.099989 45.930867 0.626720 0.939717 0.052346 0.003511 1821800.000000 0 0 1
-30.457194 -22.487938 25.985189 45.919256 0.636001 0.969286 0.060405 0.002178 -1282700.000000 0 0 1
-31.981854 -22.653738 25.929289 46.993179 0.616295 0.986315 0.070199 -0.006317 -172029.000000 0 0 1
-32.600074 -23.252238 24.791489 47.096171 0.619568 1.016434 0.059164 -0.013338 302130.000000 0 0 1
-32.285874 -24.630438 24.546889 47.450878 0.651697 1.027090 0.059623 -0.012235 -578037.000000 0 0 1
-32.687134 -25.095338 23.197089 47.289847 0.654761 1.058098 0.055669 -0.012023 144407.000000 0 0 1
-34.097946 -25.264738 23.184789 48.358157 0.637681 1.070781 0.075394 -0.016527 181728.000000 0 0 1
-34.516944 -25.801338 21.967789 48.370571 0.641898 1.099372 0.073767 -0.009292 1154790.000000 0 0 1
-35.736414 -26.865738 22.036889 49.844595 0.644636 1.112844 0.068812 -0.015857 1034010.000000 0 0 1
-35.480007 -28.057338 22.760489 50.636794 0.669102 1.104607 0.065906 -0.016242 1584050.000000 0 0 1
-34.375690 -28.949438 22.318689 50.178500 0.699918 1.109861 0.059495 -0.014252 1054820.000000 0 0 1
-34.763162 -29.969838 21.203289 50.559352 0.711485 1.138040 0.054955 -0.010356 -195513.000000 0 0 1
-35.199049 -29.463838 19.956389 50.053454 0.696936 1.160696 0.043664 -0.001422 734195.000000 0 0 1
-35.932863 -30.481138 19.240889 50.896780 0.703495 1.183121 0.048447 -0.007829 -26107.500000 0 0 1
-36.442364 -30.006938 17.840889 50.465429 0.688852 1.209457 0.041202 0.006985 -580407.000000 0 0 1
-35.359055 -29.689338 16.998589 49.200321 0.698456 1.218027 0.072065 0.003492 156697.000000 0 0 1
-35.695387 -29.072438 15.735989 48.651707 0.683496 1.241432 0.064460 0.012264 -273206.000000 0 0 1
-36.382264 -29.946838 14.688589 49.358250 0.688678 1.268628 0.047570 0.009791 248634.000000 0 0 1
-35.457908 -30.859438 14.119789 49.080919 0.716169 1.278989 0.049012 -0.002056 473251.000000 0 0 1
-36.068236 -31.718938 13.114389 49.789515 0.721325 1.304255 0.045476 -0.006793 240197.000000 0 0 1
-36.144114 -31.092538 11.714689 49.095588 0.710408 1.329862 0.046927 -0.001423 -128886.000000 0 0 1
36.557508 -30.064138 11.502189 48.709384 -0.688239 1.332406 0.033060 0.000058 -86948.400000 0 0 1
36.734618 -29.573538 10.225889 48.255519 -0.677818 1.357266 0.022717 0.000486 265307.000000 0 0 1
35.595008 -28.575638 9.866189 46.700250 -0.676445 1.357926 0.035509 -0.001752 314995.000000 0 0 1
35.887268 -27.656538 8.823289 46.158753 -0.656587 1.378462 0.045187 -0.035464 411952.000000 0 0 1
34.707168 -26.890638 8.542889 44.728904 -0.659177 1.378623 0.032478 -0.035437 749164.000000 0 0 1
35.071918 -25.733338 7.545589 44.149519 -0.633007 1.399043 0.026368 -0.027087 141887.000000 0 0 1
35.688278 -24.573338 8.033889 44.068645 -0.603003 1.387467 0.044878 -0.032476 -142044.000000 0 0 1
35.956348 -23.688538 7.019089 43.626522 -0.582546 1.409204 0.045198 -0.041116 -180681.000000 0 0 1
36.404918 -22.302238 7.375089 43.325510 -0.549644 1.399738 0.051899 -0.048458 -387968.000000 0 0 1
35.470528 -21.586838 8.128389 42.310999 -0.546708 1.377484 0.056107 -0.042012 -460712.000000 0 0 1
35.814518 -20.235138 8.148089 41.934852 -0.514285 1.375249 0.073149 -0.047570 -12431.900000 0 0 1
34.892178 -19.415838 9.056789 40.944649 -0.507784 1.347756 0.076080 -0.040746 -70560.300000 0 0 1
35.228908 -19.403838 10.396489 41.541207 -0.503452 1.317838 0.062110 -0.042430 -422684.000000 0 0 1
34.521848 -18.373238 10.981189 40.619212 -0.489091 1.297045 0.064548 -0.032566 -124213.000000 0 0 1
34.949838 -18.154738 12.473489 41.311906 -0.479087 1.264075 0.053840 -0.037264 -514899.000000 0 0 1
36.236528 -17.686038 12.680989 42.269248 -0.454060 1.266098 0.013384 -0.025368 -621164.000000 0 0 1
36.565688 -17.952538 13.998289 43.073138 -0.456395 1.239796 0.011621 -0.012068 491485.000000 0 0 1
-35.722520 -17.324238 14.531289 42.277488 0.451549 1.219929 0.036050 -0.006157 414456.000000 0 0 1
-34.538908 -17.718738 13.897789 41.231521 0.474000 1.226996 0.042287 -0.014022 -419266.000000 0 0 1
-33.444004 -17.341738 14.687989 40.434815 0.478362 1.199041 0.049455 -0.014144 -598684.000000 0 0 1
-32.081574 -17.534338 14.026989 39.159121 0.500194 1.204452 0.062362 -0.015390 -521430.000000 0 0 1
-31.769424 -18.864638 13.649189 39.388719 0.535847 1.216932 0.043378 -0.013160 708136.000000 0 0 1
-30.623124 -18.967838 12.781589 38.222030 0.554559 1.229824 0.016128 -0.000644 539596.000000 0 0 1
-30.036864 -20.389538 12.587789 38.423936 0.596367 1.237031 0.014742 -0.011281 -784194.000000 0 0 1
-30.595284 -21.132538 11.574989 38.944010 0.604465 1.269015 0.020383 -0.011938 -472566.000000 0 0 1
-29.630914 -21.780738 10.787389 38.324396 0.633876 1.285465 0.022315 -0.005678 -536898.000000 0 0 1
-30.246504 -22.500738 9.566289 38.892777 0.639593 1.322280 0.032464 -0.013051 528605.000000 0 0 1
-31.108424 -23.620138 9.700589 40.246073 0.649417 1.327367 0.037861 -0.014641 238936.000000 0 0 1
-32.412704 -23.372638 10.183789 41.238006 0.624744 1.321263 0.055577 -0.018750 49250.900000 0 0 1
-33.269354 -24.659638 10.448889 42.709799 0.637853 1.323639 0.074970 -0.021601 323439.000000 0 0 1
-33.660184 -25.221038 9.233389 43.062329 0.643043 1.354699 0.067619 -0.013900 -316260.000000 0 0 1
-34.605816 -26.253438 9.356589 44.433672 0.649009 1.358634 0.073673 -0.011389 122008.000000 0 0 1
-34.772796 -26.946638 7.982089 44.709981 0.659269 1.391304 0.060989 -0.017723 208428.000000 0 0 1
-33.532954 -27.442638 7.496189 43.974427 0.685847 1.399493 0.064111 -0.014952 51812.100000 0 0 1
-33.744454 -28.112838 6.257489 44.364129 0.694606 1.429276 0.054918 -0.019448 236362.000000 0 0 1
-32.413624 -28.627238 5.622989 43.609400 0.723447 1.441497 0.061970 -0.016885 441820.000000 0 0 1
-31.661194 -27.591538 5.041789 42.298272 0.716823 1.451316 0.075901 -0.016349 -739887.000000 0 0 1
-30.553994 -28.050638 4.342989 41.704273 0.742708 1.466469 0.067064 -0.019393 -357598.000000 0 0 1
-29.596644 -26.923638 3.884989 40.198716 0.738141 1.474001 0.069636 -0.016235 173904.000000 0 0 1
-30.067924 -26.336338 2.705789 40.062501 0.719337 1.503206 0.060795 -0.013513 -44634.800000 0 0 1
-29.260344 -25.246538 2.323489 38.716327 0.711892 1.510747 0.061692 -0.020083 23133.400000 0 0 1
-29.483264 -24.705338 0.866189 38.475536 0.697453 1.548282 0.077651 -0.027490 -139649.000000 0 0 1
-29.075014 -25.633438 -0.117111 38.761363 0.722573 1.573818 0.074022 -0.031624 -217368.000000 0 0 1
-29.120204 -25.106638 -1.415111 38.475084 0.711519 1.607585 0.072911 -0.038526 18371.000000 0 0 1
-30.457264 -24.903138 -2.198011 39.403584 0.685406 1.626607 0.093544 -0.034622 76764.800000 0 0 1
-31.219514 -23.860338 -1.664211 39.328658 0.652576 1.613124 0.100413 -0.026881 -657898.000000 0 0 1
-32.562434 -24.024638 -2.049511 40.517846 0.635649 1.621401 0.119850 -0.030577 -372949.000000 0 0 1
-33.276714 -22.658238 -2.070911 40.311588 0.597794 1.622192 0.114884 -0.033200 -242008.000000 0 0 1
-33.513364 -22.163338 -0.774011 40.186542 0.584298 1.590058 0.117817 -0.039104 543530.000000 0 0 1
-34.320501 -20.954338 -0.740811 40.218526 0.548140 1.589217 0.123769 -0.028526 275807.000000 0 0 1
-34.667622 -20.501338 0.712789 40.282216 0.534049 1.553101 0.100335 -0.035695 -232955.000000 0 0 1
-35.429603 -21.423438 1.441389 41.428228 0.543851 1.535997 0.091773 -0.036308 -27740.400000 0 0 1
-35.560247 -20.960738 2.734789 41.368620 0.532621 1.504640 0.079658 -0.035253 -1233290.000000 0 0 1
-36.638574 -21.618938 3.580889 42.691759 0.533078 1.486820 0.081136 -0.027331 -383475.000000 0 0 1
35.701048 -21.419638 3.056789 41.745774 -0.540399 1.497507 0.079387 -0.027146 -372748.000000 0 0 1
35.112808 -20.243038 3.564689 40.686569 -0.522972 1.483070 0.084614 -0.041772 -800736.000000 0 0 1
33.799128 -19.775938 2.902089 39.266918 -0.529393 1.496822 0.079109 -0.027460 196607.000000 0 0 1
32.780918 -20.732238 3.176889 38.916666 -0.563938 1.489072 0.071727 -0.019485 671743.000000 0 0 1
31.521168 -20.320538 2.582689 37.592267 -0.572614 1.502040 0.081158 -0.027174 1139190.000000 0 0 1
30.355498 -21.273138 2.903189 37.181059 -0.611263 1.492634 0.065360 -0.005250 -93112.900000 0 0 1
30.245608 -22.418938 2.059189 37.704719 -0.637864 1.516156 0.052735 -0.002243 -13240.900000 0 0 1
29.003998 -22.984138 2.426889 37.086282 -0.670119 1.505311 0.047022 0.011784 120615.000000 0 0 1
28.565318 -24.159038 1.542589 37.443505 -0.702020 1.529587 0.047117 0.010567 -74322.100000 0 0 1
28.106618 -23.893038 0.234789 36.890573 -0.704544 1.564432 0.041162 0.006374 -19964.200000 0 0 1
27.546918 -24.992438 -0.382111 37.196783 -0.736816 1.581069 0.030317 0.009145 -171828.000000 0 0 1
26.701418 -24.620638 -1.650211 36.357458 -0.744877 1.616200 0.039690 -0.001643 19105.200000 0 0 1
27.406618 -24.153438 -2.789211 36.637289 -0.722387 1.647000 0.027448 -0.023852 84226.100000 0 0 1
27.744118 -25.208538 -3.713711 37.669591 -0.737551 1.669543 0.036299 -0.024831 -208952.000000 0 0 1
26.622818 -25.655538 -4.711811 37.271735 -0.766898 1.697553 0.035679 -0.023488 447101.000000 0 0 1
26.159618 -24.636638 -5.673811 36.379688 -0.755425 1.727397 0.041452 -0.035970 596461.000000 0 0 1
25.176218 -23.768838 -5.108111 34.998463 -0.756652 1.717272 0.042486 -0.036729 -133761.000000 0 0 1
24.462218 -22.809938 -6.086611 33.996179 -0.750460 1.750805 0.045581 -0.037651 10176.100000 0 0 1
23.606718 -23.444438 -7.018511 34.002622 -0.781949 1.778702 0.038405 -0.031328 144384.000000 0 0 1
22.670918 -22.636738 -7.717511 32.953792 -0.784644 1.807184 0.039795 -0.035478 77124.200000 0 0 1
23.101018 -21.277538 -8.410311 32.513443 -0.744332 1.832443 0.031680 -0.028067 -781412.000000 0 0 1
23.645718 -21.471538 -9.715311 33.384640 -0.737246 1.866080 0.030609 -0.030951 133759.000000 0 0 1
23.356418 -20.309738 -10.466711 32.673533 -0.715739 1.896887 0.018516 -0.032216 -348128.000000 0 0 1
24.100218 -20.205438 -11.794111 33.588410 -0.697717 1.929581 0.024161 -0.032423 700222.000000 0 0 1
25.488418 -19.857238 -11.633311 34.340985 -0.661847 1.916394 0.047860 -0.030263 717816.000000 0 0 1
26.132318 -19.787538 -12.891411 35.222623 -0.648097 1.945501 0.048145 -0.035700 -1323340.000000 0 0 1
27.620018 -19.877938 -12.800511 36.357267 -0.623821 1.930584 0.062387 -0.035560 -1223660.000000 0 0 1
28.041318 -21.245338 -13.058011 37.525878 -0.648375 1.926205 0.056454 -0.031923 258380.000000 0 0 1
28.397218 -22.005838 -11.916511 37.850523 -0.659266 1.891075 0.067236 -0.037193 -149388.000000 0 0 1
28.620838 -23.518538 -12.390411 39.061442 -0.687850 1.893575 0.058111 -0.019455 -370850.000000 0 0 1
29.811438 -23.608638 -13.113011 40.224876 -0.669802 1.902858 0.063318 -0.027470 -37596.000000 0 0 1
30.182238 -24.966738 -13.446911 41.414067 -0.691107 1.901485 0.053559 -0.017428 39629.000000 0 0 1
-3.146944 -8.927737 -27.686961 29.260478 1.231904 2.812153 0.064180 -0.029909 -57325.200000 0 0 1
-3.046644 -7.589837 -27.371831 28.567548 1.189074 2.851244 0.069437 -0.019982 481388.000000 0 0 1
-4.071144 -6.797237 -28.022231 29.120819 1.031156 2.866039 0.066948 -0.019941 708345.000000 0 0 1
-4.468544 -5.461637 -27.279121 28.177080 0.885074 2.888456 0.065874 -0.024941 35824.300000 0 0 1
-5.011144 -5.589237 -25.993191 27.055445 0.839879 2.860446 0.052847 -0.021506 242615.000000 0 0 1
-4.949044 -4.332837 -25.336721 26.176630 0.719107 2.887588 0.055393 -0.014817 84246.200000 0 0 1
-5.472344 -4.307437 -23.871111 24.866252 0.666843 2.857728 0.057241 -0.013895 -179495.000000 0 1 0
-4.735144 -5.187137 -23.078311 24.123358 0.830920 2.846170 0.042194 -0.020368 365918.000000 0 1 0
-5.065144 -5.116637 -21.698411 22.861686 0.790456 2.821216 0.041249 -0.014546 -244683.000000 0 1 0
-4.578444 -6.345337 -20.894311 22.311380 0.945757 2.783271 0.049821 -0.016128 -445748.000000 0 1 0
-5.281844 -7.544737 -21.121811 23.042392 0.960023 2.730413 0.052160 -0.010079 387939.000000 0 1 0
-4.670544 -8.617237 -20.420011 22.650554 1.074116 2.694074 0.053419 -0.014698 -335890.000000 0 1 0
-5.579744 -9.937137 -20.390811 23.359482 1.059164 2.631939 0.072719 -0.010405 254437.000000 0 1 0
-6.639144 -9.844537 -19.504611 22.834688 0.977460 2.594741 0.077068 -0.013523 -436920.000000 0 1 0
-7.776744 -9.146837 -19.999111 23.326097 0.866180 2.600936 0.074033 -0.012374 -380788.000000 0 1 0
-8.920144 -9.198537 -18.942511 22.869210 0.800762 2.546859 0.070654 -0.003091 81478.200000 0 1 0
-9.513144 -10.503337 -18.853511 23.585480 0.834827 2.497041 0.091804 -0.002507 -40635.300000 0 1 0
-10.166744 -10.735837 -17.638511 23.016037 0.812617 2.443948 0.082094 -0.007137 -478122.000000 0 1 0
-11.009944 -12.019237 -17.544411 23.947595 0.829197 2.392955 0.067254 -0.006848 322826.000000 0 1 0
-12.232944 -11.932737 -18.281611 25.025036 0.772976 2.389898 0.087916 -0.017907 256351.000000 0 0 1
-12.118844 -12.068337 -19.679811 26.073092 0.783310 2.426136 0.087353 -0.028798 74528.700000 0 0 1
-13.533544 -11.857037 -20.387111 27.191551 0.719465 2.418494 0.087298 -0.030770 1390790.000000 0 0 1
-14.609744 -12.753237 -20.334011 28.099140 0.717655 2.379876 0.083127 -0.031335 89903.900000 0 0 1
-14.961444 -13.120937 -18.993411 27.509152 0.719952 2.332893 0.084610 -0.020756 -721666.000000 0 0 1
-16.233144 -14.029937 -19.037211 28.683959 0.712725 2.296535 0.084632 -0.015863 373505.000000 0 0 1
-15.963144 -15.401737 -19.343911 29.431656 0.767501 2.287958 0.097606 -0.022023 -171930.000000 0 0 1
-16.757044 -15.829837 -20.394111 30.778272 0.756952 2.295100 0.089464 -0.018753 -258461.000000 0 0 1
-16.410144 -17.249237 -20.873811 31.662991 0.810322 2.290617 0.078460 -0.012360 50497.700000 0 0 1
-16.770144 -18.317737 -19.989011 31.880053 0.829476 2.248501 0.083332 -0.005194 272949.000000 0 0 1
-16.315744 -19.555437 -20.519811 32.705982 0.875468 2.249009 0.077600 -0.003884 -267833.000000 0 0 1
-16.827644 -20.776337 -19.783211 33.259603 0.890022 2.207828 0.070277 -0.009079 -283371.000000 0 0 1
-16.525044 -21.982037 -20.448011 34.269639 0.926175 2.210154 0.070191 -0.010812 114873.000000 0 0 1
-17.119744 -23.134737 -19.864811 34.970165 0.933725 2.174931 0.065898 -0.003525 -36075.300000 0 0 1
-16.582044 -24.487437 -20.358511 35.903589 0.975561 2.173695 0.064687 -0.001013 -139785.000000 0 0 1
-16.847244 -24.808937 -21.715711 37.025466 0.974249 2.197536 0.059619 -0.007001 134075.000000 0 0 1
-16.065744 -25.918727 -22.084011 37.650924 1.015908 2.197584 0.064412 -0.003509 -406952.000000 0 0 1
-16.201844 -26.377887 -23.512211 38.873085 1.019986 2.220368 0.064960 -0.008490 -679738.000000 0 0 1
-17.339344 -27.093237 -23.918711 40.084923 1.001492 2.210180 0.080283 -0.005414 -246543.000000 0 0 1
-17.260844 -28.469137 -23.770511 40.908015 1.025757 2.190842 0.076867 -0.004009 101621.000000 0 0 1
-18.442444 -29.164677 -24.531111 42.337661 1.006925 2.188808 0.080392 -0.011777 300882.000000 0 0 1
-18.401844 -29.314807 -25.965841 43.269050 1.010235 2.214425 0.079213 -0.009970 4979.950000 0 0 1
-18.647344 -28.052647 -26.637381 42.944435 0.984138 2.239890 0.095776 -0.023490 523747.000000 0 0 1
-17.420644 -27.528777 -27.465721 42.610776 1.006596 2.271260 0.092890 -0.031152 474868.000000 0 0 1
-17.469444 -28.021997 -28.777991 43.801673 1.013335 2.287638 0.089067 -0.027025 -98369.800000 0 0 1
-16.405544 -27.606077 -29.599111 43.673158 1.034599 2.315483 0.068613 -0.025481 -183209.000000 0 0 1
-16.578844 -27.874037 -31.137351 44.959478 1.034226 2.335835 0.072889 -0.026243 -50664.200000 0 0 1
-16.317644 -29.189487 -31.455961 45.910447 1.061051 2.325618 0.057256 -0.021170 272884.000000 0 0 1
-16.911444 -29.496387 -32.699151 47.172749 1.050211 2.336686 0.054945 -0.016383 -115696.000000 0 0 1
-16.817344 -31.007457 -33.157611 48.411906 1.073834 2.325271 0.039226 -0.010246 -107976.000000 0 0 1
-15.530444 -31.385517 -33.587461 48.521778 1.111295 2.335349 0.052068 -0.000824 -16044.000000 0 0 1
-15.693944 -32.519877 33.724500 49.408341 1.121169 0.819527 0.031869 0.003306 56836.900000 0 0 1
-14.395644 -33.154117 33.181084 49.065410 1.161156 0.828119 0.030094 0.003068 244041.000000 0 0 1
-13.576444 -33.880367 -33.973761 49.863971 1.189672 2.320373 0.041255 0.000751 47017.000000 0 0 1
-12.489444 33.789621 33.374689 49.107988 -1.216747 0.823554 0.053943 0.001361 -752437.000000 0 0 1
-11.614944 32.893885 -33.897321 48.640959 -1.231359 2.341846 0.066874 -0.004364 -572430.000000 0 0 1
-10.884744 33.678645 -32.975531 48.374729 -1.258199 2.320837 0.072050 0.000344 -210344.000000 0 0 1
-10.310144 32.841683 -31.994101 46.994656 -1.266605 2.319655 0.079948 -0.012470 -403139.000000 0 0 1
-9.530744 33.733978 -31.020891 46.809315 -1.295446 2.295225 0.068276 -0.005025 63305.900000 0 0 1
-10.295344 -33.488817 -30.263641 46.296684 1.272540 2.283245 0.072436 -0.015026 -157704.000000 0 0 1
-9.412144 -32.588617 -29.664191 45.061854 1.289631 2.289354 0.075225 -0.027616 -405166.000000 0 0 1
-10.116644 -31.613827 -28.733871 43.902345 1.261087 2.284311 0.084449 -0.024057 -141831.000000 0 0 1
-10.295144 -32.034317 -27.395841 43.390317 1.259843 2.254130 0.102266 -0.033339 478737.000000 0 0 1
-11.257044 -33.103737 -27.219871 44.311396 1.243010 2.232277 0.092499 -0.028853 295654.000000 0 0 1
-11.707644 -33.347947 -25.804461 43.760995 1.233164 2.201444 0.108148 -0.037306 244859.000000 0 0 1
-10.565444 -33.775747 -25.091651 43.382262 1.267628 2.187544 0.107676 -0.042686 104399.000000 0 0 1
-10.813744 -33.640027 -23.695211 42.544700 1.259774 2.161504 0.113792 -0.053819 358290.000000 0 0 1
-9.561544 -33.814587 -22.792911 41.885155 1.295227 2.146203 0.109921 -0.057220 183868.000000 0 0 1
-9.161744 33.005720 -22.561911 41.016520 -1.300033 2.153243 0.087691 -0.056143 -739819.000000 0 0 1
-8.169444 32.925297 -21.624611 40.229824 -1.327587 2.138298 0.110972 -0.058476 -944141.000000 0 0 1
-7.413744 31.642114 -21.370111 38.895612 -1.340648 2.152469 0.113961 -0.063139 -458838.000000 0 0 1
-6.264144 31.511684 -22.153611 39.025737 -1.374566 2.174465 0.097885 -0.069492 -142142.000000 0 0 1
-5.397844 30.435504 -21.795311 37.821848 -1.395268 2.184944 0.081319 -0.054633 257782.000000 0 0 1
-4.031944 30.574454 -22.495611 38.172062 -1.439680 2.201015 0.081724 -0.055680 96310.300000 0 0 1
-4.219444 30.666574 -23.893111 39.104005 -1.434064 2.228138 0.091289 -0.051658 1115780.000000 0 0 1
-2.911044 31.069254 -24.397411 39.610685 -1.477374 2.234362 0.084918 -0.055854 1244280.000000 0 0 1
-2.895644 31.315694 -25.909271 40.747365 -1.478592 2.259908 0.074460 -0.029513 -9322.080000 0 0 1
-1.915544 32.224237 -26.402871 41.703505 -1.511422 2.256360 0.084748 -0.046850 199552.000000 0 0 1
-2.209244 33.613308 -26.168251 42.655745 -1.505165 2.231250 0.086897 -0.040928 -403966.000000 0 0 1
-1.254444 -33.578257 -26.859771 43.017674 1.533455 2.245146 0.030412 -0.026049 -345194.000000 0 0 1
0.028056 -33.461877 -26.284711 42.550958 -1.569958 2.236640 0.062700 -0.028221 -198026.000000 0 0 1
0.657356 -32.374417 -26.928101 42.114815 -1.550494 2.264511 0.036365 -0.015848 -749939.000000 0 0 1
2.007556 -31.996907 -26.335821 41.489852 -1.508136 2.258486 0.050345 -0.006552 -553363.000000 0 0 1
1.876756 -31.458617 -25.042651 40.252965 -1.511209 2.242259 0.039324 -0.007669 591238.000000 0 0 1
3.066056 -30.739077 -24.711811 39.559641 -1.471381 2.245508 0.027048 -0.009820 276350.000000 0 0 1
3.048656 -30.061917 -23.327711 38.173227 -1.469729 2.228248 0.036275 -0.012299 -84087.800000 0 0 1
2.905856 -30.942447 -22.267211 38.232287 -1.477159 2.192498 0.045886 -0.014013 487580.000000 0 0 1
3.334756 -30.237727 -21.083611 37.012963 -1.460956 2.176849 0.043330 -0.008175 -233356.000000 0 0 1
3.307956 -31.060157 -19.746611 36.954088 -1.464695 2.134541 0.046817 -0.007280 -620990.000000 0 0 1
2.042656 -31.555117 -19.395611 37.095655 -1.506154 2.120992 0.053443 -0.007589 -91576.700000 0 0 1
1.857856 -32.863607 -19.803011 38.413898 -1.514324 2.112407 0.057014 -0.011113 -608021.000000 0 0 1
2.449956 -34.009797 -18.924911 38.997703 -1.498884 2.077483 0.030666 -0.015163 1156060.000000 0 0 1
3.860356 33.955593 -19.207111 39.202012 1.457594 2.082831 0.037535 -0.009808 829656.000000 0 0 1
4.301056 33.058124 -18.224011 37.992805 1.441417 2.071075 0.050038 -0.028678 -27107.100000 0 0 1
5.381456 32.056054 -18.713511 37.506615 1.404471 2.093170 0.067351 -0.023697 -98238.700000 0 0 1
6.620356 32.699365 -18.776811 38.283759 1.371035 2.083419 0.093697 -0.024576 -699726.000000 0 0 1
7.673156 31.837894 -19.147111 37.936007 1.334299 2.099855 0.097025 -0.045842 -85794.900000 0 0 1
8.980956 32.468695 -19.640011 38.994919 1.300940 2.098621 0.095270 -0.040628 -232682.000000 0 0 1
9.710456 32.882198 -18.510611 38.963760 1.283647 2.065843 0.082152 -0.038491 17935.600000 0 0 1
11.028056 33.274639 -18.872211 39.811807 1.250764 2.064665 0.077148 -0.028839 237706.000000 0 0 1
11.905056 33.610693 -17.650411 39.786254 1.230381 2.030442 0.055058 -0.029579 -334310.000000 0 0 1
12.700456 32.531955 -17.239811 38.946640 1.198594 2.029350 0.055873 -0.034595 -465927.000000 0 0 1
13.063056 32.768673 -15.901611 38.694839 1.191459 1.994291 0.052275 -0.037623 793466.000000 0 0 1
14.369056 32.011714 -15.403411 38.320812 1.148884 1.984452 0.055788 -0.028470 966796.000000 0 0 1
14.264056 30.627544 -15.056311 36.989218 1.134942 1.990014 0.060138 -0.025967 -1036380.000000 0 0 1
15.522456 30.075364 -14.897611 36.978547 1.094337 1.985449 0.060554 -0.019271 -756584.000000 0 0 1
15.527456 28.807774 -14.042611 35.611580 1.076436 1.976132 0.072175 -0.019552 -196384.000000 0 0 1
15.328956 28.979124 -12.638511 35.135430 1.084246 1.938752 0.060207 -0.018997 -110199.000000 0 0 1
14.000656 29.009374 -12.148511 34.425985 1.121145 1.931452 0.065785 -0.023960 225678.000000 0 0 1
13.512056 27.607574 -11.703811 32.889709 1.115638 1.934620 0.060938 -0.013893 -367481.000000 0 0 1
12.997556 26.792794 -12.741711 32.390453 1.119128 1.975100 0.069897 -0.019190 245487.000000 0 0 1
12.452256 25.497614 -12.402311 30.967795 1.116496 1.982849 0.083693 -0.019728 719691.000000 0 0 1
11.378356 25.376034 -11.275411 30.009081 1.149282 1.955984 0.080006 -0.021552 370487.000000 0 0 1
10.094856 25.948904 -11.527711 30.135359 1.199784 1.963331 0.082838 -0.021324 418087.000000 0 0 1
9.495756 26.216734 -10.273811 29.715950 1.223293 1.923817 0.065393 -0.017138 553702.000000 0 0 1
8.303356 27.240854 -10.311611 30.287607 1.274930 1.918199 0.073200 -0.022874 615517.000000 0 0 1
8.768056 28.529664 -10.665811 31.695111 1.272627 1.914008 0.071466 -0.022301 410953.000000 0 0 1
7.742856 29.552204 -10.619211 32.342730 1.314550 1.905335 0.055940 -0.020949 598449.000000 0 0 1
8.256456 30.958364 -11.003811 33.877326 1.310167 1.901611 0.072640 -0.024557 -36055.400000 0 0 1
9.156256 31.548404 -10.052511 34.353919 1.288328 1.867758 0.049687 -0.021566 39126.600000 0 0 1
9.653756 32.823431 -10.449811 35.773889 1.284750 1.867226 0.061273 -0.020845 -297879.000000 0 0 1
10.744356 32.825614 -11.516511 36.408682 1.254471 1.892636 0.045254 -0.022792 -928272.000000 0 0 1
12.035156 32.563300 -11.035311 36.427895 1.216775 1.878568 0.034234 -0.018315 -877618.000000 0 0 1
12.994856 33.038898 -11.931511 37.453919 1.196062 1.895012 0.047709 -0.024137 -1349550.000000 0 0 1
14.360356 32.676490 -11.428411 37.477745 1.156733 1.880670 0.060833 -0.024724 -1358060.000000 0 0 1
14.710156 33.345364 -10.329311 37.881350 1.155330 1.846969 0.061117 -0.019771 307234.000000 0 0 1
16.090256 33.723913 -10.394411 38.784564 1.125622 1.842117 0.073010 -0.030438 656543.000000 0 0 1
16.600356 -33.572727 -9.215211 38.569677 -1.111591 1.812054 0.074652 -0.029585 21065.700000 0 0 1
16.739956 33.855164 -8.024611 38.610784 1.111592 1.780156 0.075316 -0.023643 -83028.700000 0 0 1
17.232356 -33.460997 -7.048211 38.291902 -1.095222 1.755917 0.071506 -0.019636 -901279.000000 0 0 1
17.564556 33.911749 -5.748411 38.620779 1.092893 1.720194 0.079173 -0.016132 444423.000000 0 0 1
18.641456 32.986988 -5.796611 38.330744 1.056422 1.722605 0.069841 -0.022828 128549.000000 0 0 1
19.938856 33.521894 -5.965911 39.457160 1.034208 1.722578 0.066560 -0.021920 -777564.000000 0 0 1
20.764756 32.747287 -7.058611 39.412991 1.005686 1.750861 0.065741 -0.022730 390621.000000 0 0 1
21.159856 31.404424 -6.657911 38.448734 0.977881 1.744837 0.075225 -0.012738 -255254.000000 0 0 1
22.184556 31.418764 -5.703211 38.882128 0.955993 1.718007 0.070847 -0.017980 -855657.000000 0 0 1
22.481056 30.012044 -5.182611 37.854724 0.927892 1.708136 0.061199 -0.024814 175923.000000 0 0 1
23.311356 29.266794 -6.102111 37.910425 0.898186 1.732461 0.054359 -0.023079 331336.000000 0 0 1
23.474856 27.944554 -5.609511 36.924701 0.872106 1.723304 0.058702 -0.015973 -9188.440000 0 0 1
24.569656 27.245734 -6.471511 37.254241 0.836999 1.745394 0.045608 -0.012406 -591334.000000 0 0 1
25.802456 27.877134 -6.301811 38.504729 0.824028 1.735199 0.054616 -0.018091 -271686.000000 0 0 1
26.887056 27.223734 -6.962411 38.891138 0.791620 1.750790 0.038233 -0.016579 85101.100000 0 0 1
27.577556 26.113104 -6.188611 38.480056 0.758129 1.732324 0.036682 -0.012994 -1109020.000000 0 0 1
28.635456 26.706944 -5.458411 39.535357 0.750565 1.709303 0.046027 -0.019515 -228070.000000 0 0 1
29.038656 25.796594 -4.507811 39.102790 0.726343 1.686334 0.043735 -0.011127 -96096.300000 0 0 1
30.412056 26.084054 -3.864911 40.251814 0.708940 1.666963 0.046443 -0.017571 -76389.900000 0 0 1
30.317256 27.089174 -2.907711 40.760448 0.729225 1.642194 0.050883 -0.023971 1025150.000000 0 0 1
31.571256 27.349424 -2.218111 41.828880 0.713868 1.623849 0.063251 -0.036259 1128120.000000 0 0 1
31.410956 28.435604 -1.162511 42.386120 0.735723 1.598226 0.072058 -0.019875 104783.000000 0 0 1
31.191056 29.694084 -1.665411 43.097496 0.760816 1.609449 0.054499 -0.016021 -104066.000000 0 0 1
30.550156 30.512644 -0.717011 43.183881 0.784784 1.587401 0.063818 -0.017945 -187780.000000 0 0 1
33.444218 22.468963 19.151690 44.611178 0.591571 1.127076 0.118638 -0.031541 224354.000000 0 0 1
34.086608 22.463763 20.426290 45.648119 0.582690 1.106859 0.100123 -0.027695 130728.000000 0 0 1
34.891888 23.565163 20.718490 46.925649 0.594008 1.113507 0.092459 -0.024964 -22493.600000 0 0 1
34.930198 23.733263 22.204290 47.711812 0.596799 1.086728 0.075206 -0.004813 840671.000000 0 0 1
33.725988 24.305663 22.771190 47.399732 0.624471 1.069677 0.060619 -0.001604 918156.000000 0 0 1
33.594618 24.083563 24.187620 47.892142 0.621970 1.041364 0.051646 -0.004309 -456950.000000 0 0 1
32.273708 24.540863 24.813020 47.534536 0.650123 1.021602 0.042301 -0.001698 -195927.000000 0 0 1
32.149818 25.949563 24.788390 48.181478 0.679082 1.030396 0.025731 -0.007627 139205.000000 0 0 1
30.860818 26.245363 25.268800 47.746428 0.704751 1.013105 0.022167 -0.018446 -83869.000000 0 0 1
30.767958 27.703363 25.671120 48.714987 0.733034 1.015770 0.024619 -0.015857 -175267.000000 0 0 1
30.781718 28.534663 24.564780 48.633009 0.747534 1.041293 0.017748 -0.018051 306457.000000 0 0 1
30.304108 29.863563 24.861780 49.277575 0.778076 1.041964 0.014143 -0.016867 -17925.000000 0 0 1
30.362688 30.952763 23.785810 49.454333 0.795021 1.069041 0.017116 -0.015991 230566.000000 0 0 1
31.685618 31.256163 23.352960 50.262181 0.778575 1.087588 0.010854 -0.020965 247242.000000 0 0 1
31.788608 32.074663 22.197690 50.319350 0.789877 1.113932 0.010934 -0.013110 268018.000000 0 0 1
33.275178 32.365063 21.847090 51.303314 0.771534 1.130904 0.003023 -0.024770 389834.000000 0 0 1
33.721648 33.496163 22.518190 52.594784 0.782044 1.128357 0.023024 -0.010599 1668580.000000 0 0 1
35.183508 33.530363 22.629490 53.612109 0.761344 1.135040 0.022309 -0.015845 1778190.000000 0 0 1
35.683268 -33.331138 23.282860 54.095766 -0.751330 1.125860 0.041808 -0.008573 -374979.000000 0 0 1
35.615828 -32.155638 22.496690 52.995974 -0.734386 1.132389 0.038663 -0.004708 306125.000000 0 0 1
35.699638 -30.979938 23.318320 52.706401 -0.714734 1.112502 0.049739 -0.005495 -200260.000000 0 0 1
34.374158 -30.201538 23.567850 51.469983 -0.720872 1.095170 0.044688 -0.012108 637367.000000 0 0 1
33.298498 -30.953838 24.133690 51.471983 -0.748923 1.082785 0.041404 -0.008848 411917.000000 0 0 1
32.326908 -31.092638 23.096390 50.450216 -0.765939 1.095271 0.037667 0.000409 -274215.000000 0 0 1
31.465518 -32.357438 23.346010 50.814553 -0.799372 1.093437 0.032400 -0.002475 81836.200000 0 0 1
30.403548 -32.283138 24.280850 50.558248 -0.815373 1.069851 0.021121 -0.005836 280496.000000 0 0 1
29.894868 -33.602738 24.413800 51.175001 -0.843726 1.073484 0.017908 -0.005819 13437.500000 0 0 1
28.950658 -33.845338 25.609940 51.376225 -0.863187 1.048954 0.019545 -0.011965 -31969.000000 0 0 1
28.593638 32.979563 25.848400 50.728566 0.856509 1.036142 0.016232 -0.014787 233371.000000 0 0 1
27.591618 32.891163 26.857550 50.640438 0.872796 1.011774 0.014187 -0.011673 -412767.000000 0 0 1
27.228018 31.403663 27.157210 49.649462 0.856496 0.992045 0.011139 -0.017555 173745.000000 0 0 1
26.521018 30.781863 26.115630 48.300244 0.859618 0.999535 0.010533 -0.006704 231172.000000 0 0 1
25.150618 31.142763 26.000340 47.733038 0.891444 0.994761 0.007281 -0.006780 -199222.000000 0 0 1
24.534218 30.929563 24.547080 46.487900 0.900198 1.014515 0.043054 -0.027165 -36855.500000 0 0 1
24.928318 31.807663 23.545950 46.771361 0.906061 1.043236 0.043226 -0.030147 -47371.000000 0 0 1
26.293918 31.784763 23.197970 47.326389 0.879659 1.058512 0.029093 -0.021993 -244339.000000 0 0 1
26.503018 32.588463 21.841290 47.344058 0.888020 1.091301 0.055772 -0.011997 172883.000000 0 0 1
27.860118 32.910663 21.594990 48.224905 0.868316 1.106496 0.053570 -0.007911 95500.200000 0 0 1
27.959118 33.543463 20.331690 48.169013 0.875948 1.135046 0.049213 -0.014232 374374.000000 0 0 1
29.315018 -34.048138 19.774690 49.088536 -0.859958 1.156182 0.057085 -0.024553 612471.000000 0 0 1
30.200698 33.128763 19.232790 48.780091 0.831601 1.165517 0.053824 -0.030255 -168673.000000 0 0 1
31.210978 33.833563 18.571390 49.635991 0.825696 1.187314 0.044544 -0.028555 -571314.000000 0 0 1
32.252098 33.013063 17.817290 49.472375 0.797057 1.202372 0.028135 -0.017091 57481.300000 0 0 1
33.036238 32.120763 18.614090 49.695279 0.771349 1.186869 0.012840 -0.027208 522970.000000 0 0 1
33.963598 31.340563 17.848290 49.541077 0.745253 1.202236 0.028864 -0.027331 757887.000000 0 0 1
34.971498 30.503963 18.734490 50.044765 0.717272 1.187096 0.042807 -0.031559 365013.000000 0 0 1
35.940968 31.291363 19.395490 51.449855 0.716351 1.184264 0.043683 -0.033772 16123.200000 0 0 1
36.799338 30.392163 20.127790 51.797710 0.690329 1.171701 0.073586 -0.030224 -126211.000000 0 0 1
-35.700999 31.235463 20.713890 51.761768 -0.718784 1.159086 0.106271 -0.025597 -509079.000000 0 0 1
-34.846279 31.780163 19.725590 51.120845 -0.739411 1.174654 0.109757 -0.025880 38575.400000 0 0 1
-33.785524 32.606963 20.226790 51.125323 -0.767649 1.164041 0.095029 -0.015339 342232.000000 0 0 1
-33.957254 33.872663 21.128290 52.410466 -0.784151 1.155861 0.080823 -0.013559 -469245.000000 0 0 1
-34.111355 33.615963 22.494790 52.911559 -0.778084 1.131680 0.086135 -0.009561 144806.000000 0 0 1
-33.980114 -33.298138 23.153800 52.910420 0.775262 1.117864 0.072117 -0.007741 4209.280000 0 0 1
-33.996304 -33.527338 24.705170 53.760362 0.778453 1.093316 0.094405 -0.015177 -506906.000000 0 0 1
-35.285075 -33.808338 25.148920 54.959152 0.764028 1.095510 0.076607 -0.009330 -418046.000000 0 0 1
-35.141028 33.876063 26.478870 55.530262 -0.767072 1.073744 0.093978 -0.010091 26951.200000 0 0 1
-36.530974 33.688363 27.083800 56.594611 -0.744938 1.071785 0.066535 -0.016558 -250747.000000 0 0 1
-36.492704 32.892663 28.257220 56.675525 -0.733560 1.048838 0.086440 -0.020354 -939070.000000 0 0 1
35.972298 33.106163 28.967390 56.825469 0.743931 1.035890 0.082970 -0.026223 -955981.000000 0 0 1
35.781068 31.883963 29.927040 56.502209 0.727868 1.012595 0.091541 -0.018036 -38791.700000 0 0 1
35.632158 30.547863 29.474170 55.421560 0.708724 1.010051 0.072736 -0.022264 -325632.000000 0 0 1
36.726948 30.029763 28.773900 55.485067 0.685410 1.025597 0.070885 -0.020028 -426849.000000 0 0 1
36.575148 28.518363 28.415000 54.391641 0.662252 1.021116 0.068594 -0.017053 -70967.800000 0 0 1
35.535258 28.359763 27.436800 53.101871 0.673565 1.027825 0.056354 -0.010619 484632.000000 0 0 1
35.264238 27.095863 26.903390 51.976385 0.655152 1.026743 0.057124 -0.010204 66693.700000 0 0 1
34.727848 26.050763 27.991880 51.654729 0.643591 0.998096 0.042126 -0.011431 -348829.000000 0 0 1
35.753728 25.597863 28.847570 52.590512 0.621350 0.990189 0.038454 -0.012332 29294.500000 0 0 1
35.635978 24.215163 29.184270 52.038626 0.596845 0.975421 0.036177 -0.011514 -119115.000000 0 0 1
36.161648 23.094463 28.241540 51.367339 0.568351 0.988677 0.031381 -0.003717 -153484.000000 0 0 1
35.284028 22.822363 27.155360 50.032354 0.574135 0.997081 0.045692 -0.008692 -8820.730000 0 0 1
35.799088 22.081563 26.076800 49.489086 0.552695 1.015823 0.048728 -0.016386 -490403.000000 0 0 1
35.847708 20.547263 26.345040 49.003156 0.520467 1.003185 0.047728 -0.022906 115222.000000 0 0 1
34.559148 19.938663 26.252110 47.760425 0.523293 0.988836 0.066428 -0.011627 573748.000000 0 0 1
34.391738 18.708363 26.937250 47.522730 0.498208 0.968145 0.067824 -0.009678 -471970.000000 0 0 1
34.186098 18.799863 28.488520 48.308590 0.502787 0.940085 0.054753 -0.023942 -3334.220000 0 0 1
32.997258 19.386563 28.999100 48.016722 0.531193 0.922364 0.046270 -0.022934 352459.000000 0 0 1
32.975618 20.822163 28.870540 48.522798 0.563218 0.933544 0.042717 -0.024442 -1045200.000000 0 0 1
31.802268 21.445363 29.628550 48.467915 0.593292 0.913091 0.046697 -0.033458 -871890.000000 0 0 1
30.525818 21.091363 29.208410 47.220783 0.604616 0.903900 0.060837 -0.045186 -466171.000000 0 0 1
30.002108 21.652963 28.026750 46.416333 0.625151 0.922521 0.056824 -0.034687 -468437.000000 0 0 1
29.714438 23.193363 27.997360 46.954574 0.662763 0.931956 0.046860 -0.027982 -381325.000000 0 0 1
30.859878 24.024363 28.052480 48.129447 0.661492 0.948559 0.046091 -0.027244 -201981.000000 0 0 1
30.663318 25.235763 28.669350 48.979735 0.688606 0.945508 0.034462 -0.023049 -100414.000000 0 0 1
31.075888 25.273063 30.184820 50.155377 0.682780 0.925011 0.037216 -0.032084 492902.000000 0 0 1
32.435768 24.931363 30.451110 50.999235 0.655323 0.930928 0.035194 -0.022419 509016.000000 0 0 1
32.989338 24.922863 31.773020 52.143746 0.647001 0.915574 0.046184 -0.028024 68178.300000 0 0 1
32.501748 23.755863 32.649779 51.833509 0.631171 0.889376 0.052748 -0.027123 -349706.000000 0 0 1
33.076518 23.550963 33.927574 52.912987 0.618744 0.874741 0.047260 -0.028541 47350.900000 0 0 1
32.422808 22.505063 -33.491311 51.762769 0.606763 2.274460 0.034936 -0.027497 -265509.000000 0 0 1
32.921628 22.242263 -32.078691 51.064609 0.594170 2.250031 0.030800 -0.024688 -362821.000000 0 0 1
32.493918 23.221663 -31.202981 50.682604 0.620488 2.234013 0.021020 -0.022615 343167.000000 0 0 1
33.013368 22.940763 -29.884561 50.092395 0.607290 2.210040 0.039038 -0.021493 43809.600000 0 0 1
34.449698 23.350763 -29.509131 51.017924 0.595686 2.187571 0.048704 0.007973 49382.100000 0 0 1
34.997218 22.922863 -28.290421 50.503572 0.579876 2.165383 0.039845 0.003447 -322796.000000 0 0 1
36.204908 23.581563 -27.992141 51.482477 0.577314 2.145662 0.055511 0.011761 96522.100000 0 0 1
-36.637974 23.060763 -26.776751 50.903185 -0.561773 2.124726 0.041444 0.012705 -413424.000000 0 0 1
-35.967133 21.884463 -27.037371 50.035825 -0.546615 2.141662 0.030375 0.007764 -237643.000000 0 0 1
-36.392014 20.792963 -26.216391 49.437082 -0.519095 2.129748 0.019324 0.011252 -175218.000000 0 0 1
-35.506490 19.527163 -26.401341 48.363744 -0.502813 2.148249 0.038196 0.015100 -82366.600000 0 0 1
-34.203503 19.767863 -25.909591 47.243570 -0.524047 2.151277 0.032616 0.012287 -445376.000000 0 0 1
-33.510544 18.547863 -25.914171 46.244178 -0.505521 2.165637 0.018211 -0.003840 -228114.000000 0 0 1
-32.107674 18.741563 -25.320671 44.980943 -0.528355 2.168711 0.029804 -0.009060 -184014.000000 0 0 1
-32.190924 19.046563 -23.935811 44.406646 -0.534276 2.140063 0.034535 -0.009009 1085470.000000 0 0 1
-30.839194 19.284263 -23.486011 43.295859 -0.558827 2.144152 0.053378 -0.005542 1041540.000000 0 0 1
-30.837104 19.688163 -22.000311 42.691503 -0.568218 2.112192 0.033727 -0.005643 95570.400000 0 0 1
-31.386694 18.741763 -21.090811 42.204271 -0.538302 2.094085 0.008050 0.001635 91868.200000 0 0 1
-31.894874 19.333963 -19.931711 42.288984 -0.544950 2.061585 0.011341 0.002097 -779703.000000 0 0 1
-32.852944 18.494363 -19.068511 42.248852 -0.512727 2.039060 -0.000634 0.001587 -107730.000000 0 0 1
-33.586984 19.053763 -18.008511 42.607955 -0.516025 2.007170 -0.000823 -0.000077 56725.200000 0 0 1
-34.647417 19.858763 -18.482011 44.004530 -0.520456 2.004244 -0.010618 0.000582 -856843.000000 0 0 1
-35.756215 20.057863 -17.428311 44.548521 -0.511220 1.972754 0.004792 -0.002087 -312627.000000 0 0 1
-35.444174 20.800063 -16.282811 44.204773 -0.530687 1.948030 0.009006 -0.011011 53331.600000 0 0 1
-36.448584 20.592463 -15.319311 44.578359 -0.514266 1.921596 0.028537 0.001314 -207504.000000 0 0 1
-36.224344 21.571063 -14.138711 44.468157 -0.537093 1.894364 0.033272 0.003153 53752.800000 0 0 1
-36.482914 22.960963 -14.296711 45.415908 -0.561730 1.891037 0.041210 -0.010036 578764.000000 0 0 1
35.796588 23.331963 -14.588511 45.150867 0.577635 1.899806 0.053730 -0.003072 461882.000000 0 0 1
35.732848 24.852763 -14.829011 45.982560 0.607710 1.899157 0.052072 -0.008642 83875.000000 0 0 1
36.207078 25.579563 -13.713611 46.403983 0.615061 1.870803 0.057213 -0.006811 31075.400000 0 0 1
35.900108 26.957463 -13.841511 46.979889 0.644078 1.869861 0.070947 -0.005366 501199.000000 0 0 1
-36.621674 27.808563 -14.568711 48.235987 -0.649456 1.877618 0.056275 0.000879 360307.000000 0 0 1
-36.376754 27.390563 -15.896511 48.230801 -0.645398 1.906668 0.051523 -0.002235 464685.000000 0 0 1
-35.189034 28.029263 -16.388611 47.879998 -0.672624 1.920144 0.048875 -0.010490 138825.000000 0 0 1
-34.959949 27.691263 -17.898711 48.055883 -0.669896 1.952451 0.060652 -0.018343 -15058.000000 0 0 1
-34.772013 26.371263 -18.317011 47.329159 -0.648859 1.968187 0.052086 -0.017646 918422.000000 0 0 1
-33.603374 25.719263 -17.772911 45.897098 -0.653270 1.968426 0.056902 -0.013042 550492.000000 0 0 1
-33.320464 24.300963 -18.349111 45.138453 -0.630128 1.989424 0.046539 -0.008369 -332540.000000 0 0 1
-33.020994 24.395963 -19.747611 45.557844 -0.636296 2.019128 0.035958 -0.001477 265057.000000 0 0 1
-32.807334 23.136963 -20.342811 45.005224 -0.614232 2.039814 0.041009 -0.001524 -190814.000000 0 0 1
-32.310454 23.315163 -21.799411 45.417800 -0.625075 2.071423 0.035792 0.006359 75527.800000 0 0 1
-33.287484 23.814963 -22.703611 46.804519 -0.621009 2.077243 0.038874 0.004505 -26970.000000 0 0 1
-32.971814 23.654863 -24.041611 47.166642 -0.622326 2.105651 0.041441 0.011029 -443030.000000 0 0 1
-33.683054 24.552263 -25.032821 48.621023 -0.629873 2.111636 0.034510 0.008608 -383055.000000 0 0 1
-33.317714 25.876763 -25.045601 49.060769 -0.660351 2.106564 0.028106 0.012140 -429984.000000 0 0 1
-34.112953 26.568563 -25.982811 50.444906 -0.661705 2.111889 0.025309 0.012834 50168.100000 0 0 1
-33.588314 28.019863 -26.326441 51.052610 -0.695258 2.112589 0.021047 0.003299 -776507.000000 0 0 1
-32.510564 27.833863 -27.163471 50.690382 -0.708053 2.136335 0.001421 0.010221 -1462390.000000 0 0 1
-31.909944 29.083163 -27.261591 51.061426 -0.739085 2.134000 0.011575 0.004829 113621.000000 0 0 1
-30.468924 29.002363 -27.844251 50.445958 -0.760743 2.155512 0.025282 -0.004610 -955649.000000 0 0 1
-29.557804 28.600463 -26.919971 49.156231 -0.768939 2.150339 0.005531 -0.007326 -2099560.000000 0 0 1
-28.315784 28.653963 -27.510631 48.781841 -0.791334 2.169960 0.027737 -0.000364 -640034.000000 0 0 1
-27.415564 29.868263 -27.130431 48.783056 -0.828189 2.160536 0.019451 -0.009853 -596079.000000 0 0 1
-26.894684 29.912363 -25.831201 47.805067 -0.838470 2.141643 0.008401 -0.010383 -221431.000000 0 0 1
-27.796284 30.314463 -24.827911 48.041911 -0.828705 2.113902 0.008599 -0.002788 -168625.000000 0 0 1
-27.084654 30.867263 -23.575811 47.351718 -0.850577 2.091957 -0.012935 -0.001474 -78672.800000 0 0 1
-26.508774 32.113963 -23.772411 47.949444 -0.880723 2.089530 -0.006646 -0.001025 154566.000000 0 0 1
-25.619124 32.439963 -22.706511 47.162234 -0.902343 2.073111 0.001757 0.005310 21674.900000 0 0 1
-24.982344 33.776263 -22.874111 47.834907 -0.933957 2.069387 0.002397 0.014841 -660487.000000 0 0 1
-25.874904 -33.380538 -22.551911 47.878593 0.911393 2.061246 -0.002019 0.001175 -345681.000000 0 0 1
-25.344564 -32.131838 -22.831711 46.862447 0.902942 2.079685 0.013811 0.002247 -211711.000000 0 0 1
17.108756 8.709963 -25.006141 31.525864 0.470896 2.486833 0.050812 -0.042334 -179338.000000 0 0 1
15.821956 8.158463 -24.799211 30.526967 0.476083 2.519002 0.047736 -0.041445 252547.000000 0 0 1
15.795656 6.749563 -25.135441 30.444207 0.403821 2.542102 0.048675 -0.045150 -767200.000000 0 0 1
14.369856 6.245463 -25.241851 29.709420 0.409993 2.586069 0.054038 -0.044323 -473396.000000 0 0 1
13.697956 6.295063 -23.967611 28.314452 0.430777 2.580135 0.078054 -0.053580 10164.800000 0 0 1
12.366156 5.874463 -24.120811 27.735260 0.443484 2.625351 0.072098 -0.046640 -621843.000000 0 0 1
11.551856 5.903963 -22.840011 26.267247 0.472475 2.625035 0.082701 -0.054893 -442780.000000 0 0 1
11.907856 4.966263 -21.859711 25.383219 0.395124 2.608398 0.080325 -0.039789 40165.400000 0 0 1
11.229756 5.132363 -20.629611 24.042243 0.428687 2.602270 0.086832 -0.036987 -229490.000000 0 1 0
11.442656 6.464363 -19.842211 23.799910 0.514238 2.556588 0.082116 -0.047979 -125833.000000 0 1 0
11.055856 6.395663 -18.512111 22.490770 0.524450 2.537641 0.063794 -0.037072 -413045.000000 0 1 0
11.059956 7.667663 -17.953011 22.437163 0.606203 2.498335 0.058047 -0.038374 961249.000000 0 1 0
12.449856 8.227063 -17.444711 22.956512 0.583941 2.433959 0.044893 -0.034590 871779.000000 0 1 0
13.045256 7.675963 -16.276711 22.226796 0.531854 2.392492 0.051080 -0.031974 412898.000000 0 1 0
14.393656 8.107063 -16.203811 23.140123 0.512950 2.346540 0.041814 -0.021138 -9264.320000 0 1 0
15.144456 7.520963 -14.977511 22.588610 0.460936 2.295690 0.054931 -0.025810 -179242.000000 0 1 0
16.462756 8.026563 -14.919311 23.622741 0.453645 2.254367 0.048377 -0.027544 298788.000000 0 1 0
16.858356 8.015463 -13.546611 23.064312 0.443823 2.198566 0.033998 -0.021447 60190.200000 0 1 0
17.388556 9.381763 -12.988611 23.644944 0.494774 2.152345 0.065566 -0.026931 -321177.000000 0 1 0
16.379156 10.341663 -12.830111 23.234425 0.563182 2.155800 0.068472 -0.027832 2385.750000 0 1 0
16.839456 11.679663 -12.508211 24.009106 0.606410 2.118792 0.108594 -0.044265 -96462.600000 0 1 0
15.684156 12.690263 -12.423811 23.693599 0.680273 2.122752 0.106525 -0.045350 189716.000000 0 1 0
14.821456 12.612563 -11.267311 22.487877 0.705055 2.095596 0.096026 -0.031375 449819.000000 0 1 0
15.150856 13.570163 -10.273211 22.786764 0.730418 2.038504 0.090208 -0.032097 -338158.000000 0 1 0
14.866456 15.068463 -10.572211 23.660975 0.792146 2.034005 0.104861 -0.035189 -595438.000000 0 1 0
13.518456 15.365563 -10.794711 23.138171 0.849260 2.056163 0.109406 -0.035172 -380778.000000 0 1 0
13.230356 16.747863 -10.895911 23.963600 0.902199 2.042816 0.118647 -0.034236 122321.000000 0 1 0
12.295756 17.269863 -9.748311 23.333739 0.952077 2.001794 0.114185 -0.033543 -15015.900000 0 1 0
12.734756 16.991663 -8.451211 22.854181 0.927634 1.949578 0.113359 -0.036074 81979.000000 0 1 0
11.906056 17.614163 -7.503911 22.545988 0.976404 1.910096 0.104693 -0.018583 67026.100000 0 1 0
12.379156 17.338863 -6.070011 22.152307 0.950766 1.848359 0.091913 -0.017872 121055.000000 0 1 0
13.558756 18.009663 -5.695611 23.251405 0.925467 1.818272 0.123309 -0.028210 -23936.400000 0 1 0
13.889656 17.599063 -4.382411 22.844148 0.902659 1.763833 0.117879 -0.031135 -169384.000000 0 1 0
15.019956 18.545063 -3.884911 24.178730 0.890038 1.732171 0.117060 -0.034120 1035990.000000 0 1 0
16.281356 18.263563 -4.549511 24.886509 0.842716 1.754641 0.145842 -0.055690 971660.000000 0 1 0
17.127756 19.387963 -4.568111 26.270150 0.847216 1.745575 0.112683 -0.041229 402661.000000 0 0 1
18.401856 19.148963 -5.456211 27.112383 0.805291 1.773424 0.114091 -0.028754 1000560.000000 0 0 1
19.449256 18.417663 -4.763111 27.206086 0.758162 1.746778 0.114048 -0.044933 732271.000000 0 0 1
19.936856 17.296763 -5.487511 26.958654 0.714610 1.775782 0.145824 -0.059872 233782.000000 0 0 1
21.093256 16.590163 -4.708911 27.245785 0.666464 1.744499 0.128095 -0.059394 1163930.000000 0 0 1
22.426356 17.030463 -5.060311 28.610922 0.649487 1.748598 0.091998 -0.060199 638023.000000 0 0 1
23.305856 16.091963 -4.556211 28.685768 0.604300 1.730304 0.087735 -0.063097 -122925.000000 0 0 1
24.827956 16.367363 -4.704711 30.107346 0.582837 1.727704 0.072859 -0.057873 376403.000000 0 0 1
25.343656 17.509263 -4.037711 31.067319 0.604575 1.701132 0.064563 -0.054068 449361.000000 0 0 1
26.753756 17.375263 -3.884911 32.136518 0.575989 1.691980 0.063108 -0.044012 104796.000000 0 0 1
27.204656 18.683863 -3.231011 33.160511 0.601804 1.668387 0.066061 -0.040046 -549405.000000 0 0 1
27.169756 19.810263 -4.070311 33.870483 0.630009 1.691260 0.063587 -0.040867 252311.000000 0 0 1
27.145956 21.025263 -3.240811 34.488657 0.659014 1.664903 0.084098 -0.022336 -442326.000000 0 0 1
27.093656 22.381463 -3.984611 35.367686 0.690441 1.683699 0.067451 -0.024292 758055.000000 0 0 1
28.290356 22.792163 -4.677611 36.629319 0.678177 1.698847 0.046780 -0.016345 989250.000000 0 0 1
28.832156 21.945863 -5.729811 36.684395 0.650605 1.727631 0.049486 -0.018634 440129.000000 0 0 1
29.702256 22.629463 -6.867511 37.966819 0.651059 1.752679 0.039697 -0.015342 601214.000000 0 0 1
28.972956 23.649163 -7.574811 38.158785 0.684571 1.770631 0.032062 -0.012534 495232.000000 0 0 1
29.783356 24.507963 -8.410411 39.476874 0.688534 1.785488 0.040283 -0.009917 89077.100000 0 0 1
30.618556 23.886163 -9.582711 39.998414 0.662501 1.812727 0.036701 -0.014861 73514.200000 0 0 1
29.958756 23.552063 -10.780311 39.603559 0.666238 1.846481 0.048184 -0.009544 -366736.000000 0 0 1
30.793156 22.814863 -11.659311 40.058407 0.637656 1.866129 0.032207 -0.014628 -10829.600000 0 0 1
30.297456 22.480763 -13.098111 39.935962 0.638362 1.904959 0.057666 -0.007787 38559.300000 0 0 1
30.483156 23.549863 -13.977511 40.977917 0.657780 1.918882 0.058539 -0.012488 -15212.500000 0 0 1
30.320756 23.101963 -15.312011 41.079273 0.651086 1.952760 0.053778 -0.011023 5223.460000 0 0 1
30.471056 24.185963 -16.380411 42.210946 0.670910 1.969323 0.052136 -0.008235 -464807.000000 0 0 1
31.781156 24.613363 -16.620511 43.498286 0.658975 1.962859 0.065220 -0.003153 -492051.000000 0 0 1
31.916356 25.105263 -17.901811 44.377955 0.666514 1.986020 0.070624 -0.011215 354378.000000 0 0 1
33.390956 25.525563 -18.164711 45.787193 0.652682 1.978738 0.062433 -0.015741 653816.000000 0 0 1
34.209456 24.377163 -18.418711 45.867002 0.619123 1.984024 0.055353 -0.008893 325259.000000 0 0 1
35.576556 24.716463 -18.645511 47.161955 0.607187 1.977246 0.059615 -0.014859 726081.000000 0 0 1
36.528056 23.491563 -18.704311 47.286401 0.571516 1.977467 0.040192 -0.014612 -143966.000000 0 0 1
36.278856 22.714463 -19.880011 47.194460 0.559395 2.005604 0.030435 -0.001297 650586.000000 0 0 1
-36.570605 23.100963 -21.068411 48.113840 -0.563389 2.024043 0.026352 -0.003753 310093.000000 0 0 1
-36.526405 21.957463 -22.051911 47.985364 -0.541257 2.048290 0.027015 0.005098 -71006.400000 0 0 1
-35.827905 20.837363 -21.546111 46.712625 -0.526777 2.050198 0.012558 0.003380 310867.000000 0 0 1
-35.558205 19.982963 -22.607111 46.634603 -0.511994 2.076898 0.024151 0.002007 71006.000000 0 0 1
-35.071505 18.568963 -22.256211 45.498964 -0.486937 2.081921 0.008059 0.003507 -213196.000000 0 0 1
-36.118905 17.723663 -21.884611 45.799997 -0.456183 2.068979 0.008049 0.000682 27009.500000 0 0 1
-35.759605 16.411963 -22.135011 45.144884 -0.430274 2.083242 0.000893 -0.003477 -387009.000000 0 0 1
36.641956 15.511763 -22.015511 45.474504 0.400458 2.076163 0.006962 -0.001741 -846164.000000 0 0 1
35.797256 15.632163 -23.129511 45.395841 0.411727 2.105408 0.054632 -0.007925 -662481.000000 0 0 1
34.631356 14.923963 -22.856511 44.096209 0.406889 2.115697 0.071991 -0.001724 -711192.000000 0 0 1
34.674256 13.503963 -23.396711 43.955286 0.371380 2.132093 0.043240 -0.004737 -682448.000000 0 0 1
34.585856 13.463863 -24.795511 44.634902 0.371238 2.159783 0.057459 -0.000278 203284.000000 0 0 1
34.859956 12.197263 -25.348781 44.794536 0.336580 2.172309 0.048468 0.003188 -65291.200000 0 0 1
34.852656 12.113563 -26.889531 45.656248 0.334504 2.200563 0.067084 -0.006690 -978063.000000 0 0 1
33.646056 12.411163 -27.475471 45.177379 0.353389 2.224548 0.064014 -0.001653 -941911.000000 0 0 1
33.481156 13.721863 -28.040451 45.777115 0.388959 2.230070 0.057496 -0.010109 -78652.600000 0 0 1
33.896756 13.693563 -29.564961 47.016919 0.383931 2.250825 0.047033 -0.016679 134685.000000 0 0 1
35.306256 13.651963 -29.667681 48.094481 0.368965 2.235546 0.056570 -0.016597 -104571.000000 0 0 1
35.730356 13.807763 -31.004231 49.280575 0.368765 2.251239 0.063609 -0.013367 235116.000000 0 0 1
-36.379705 14.147563 -31.195281 49.967810 -0.370889 2.245041 0.072668 -0.016963 993794.000000 0 0 1
-35.499105 13.012763 -30.978931 48.879573 -0.351356 2.257228 0.074285 -0.012937 516084.000000 0 0 1
-35.209805 12.754763 -29.597041 47.732580 -0.347546 2.239615 0.060420 -0.013902 -1187860.000000 0 0 1
-34.197605 11.662663 -29.379511 46.568762 -0.328668 2.253489 0.051359 -0.018231 -637962.000000 0 0 1
-34.591505 10.352863 -29.632281 46.710021 -0.290805 2.258013 0.054119 -0.018214 -265270.000000 0 0 1
-33.461405 9.553663 -29.625241 45.701127 -0.278113 2.276065 0.061162 -0.021136 -536101.000000 0 0 1
-33.813705 8.168163 -30.210181 46.073209 -0.237023 2.285905 0.071746 -0.012227 -660345.000000 0 0 1
-34.094805 8.265763 -31.581941 47.203787 -0.237846 2.303733 0.076279 -0.018211 195801.000000 0 0 1
-34.454805 6.972763 -32.136531 47.628874 -0.199677 2.311392 0.086123 -0.018220 719649.000000 0 0 1
-35.941405 6.525063 -31.835261 48.454565 -0.179591 2.287646 0.080799 -0.003006 501245.000000 0 0 1
-36.044705 5.906363 -30.553671 47.619667 -0.162419 2.267403 0.078354 -0.005235 549840.000000 0 0 1
36.232356 5.536163 -30.283601 47.545023 0.151623 2.261326 0.062438 0.010369 297118.000000 0 0 1
35.929256 4.938263 -28.837941 46.334919 0.136588 2.242576 0.073097 -0.010500 198230.000000 0 0 1
36.579956 3.649863 -28.608901 46.582013 0.099449 2.232120 0.083959 -0.004960 663302.000000 0 0 1
36.073756 3.040563 -27.477271 45.448447 0.084089 2.220036 0.089235 -0.003157 -278545.000000 0 0 1
36.657856 1.638663 -27.339991 45.759794 0.044672 2.211136 0.142798 -0.005318 74876.200000 0 0 1
-35.570405 1.624163 -27.092431 44.742501 -0.045629 2.221214 0.131573 -0.009724 236927.000000 0 0 1
-35.063005 0.310063 -27.038431 44.278519 -0.008843 2.227670 0.145629 -0.009192 -464908.000000 0 0 1
-33.765705 0.258663 -26.242351 42.765064 -0.007660 2.231459 0.131735 -0.018321 -639411.000000 0 0 1
-33.909505 0.464263 -24.876511 42.058422 -0.013690 2.203683 0.123053 -0.012682 -34656.300000 0 0 1
-32.712305 0.654363 -24.156811 40.670316 -0.020001 2.206777 0.137040 -0.007719 -144027.000000 0 0 1
-32.861505 0.400363 -22.654311 39.915619 -0.012183 2.174330 0.120871 -0.001405 -433366.000000 0 0 1
-32.762605 -0.910037 -22.193011 39.582145 0.027770 2.166006 0.118035 -0.013495 134601.000000 0 0 1
-33.128305 -1.162637 -20.849811 39.160579 0.035081 2.132251 0.112075 -0.001640 185201.000000 0 0 1
-34.599605 -0.917037 -20.389911 40.171160 0.026498 2.103165 0.096170 -0.000021 -85268.000000 0 0 1
-35.388105 -2.069137 -20.570011 40.984444 0.058403 2.096588 0.101241 -0.016071 45549.700000 0 0 1
-36.581405 -1.863637 -19.812011 41.643584 0.050901 2.066615 0.091485 -0.013464 282324.000000 0 0 1
36.327756 -3.234537 -19.527811 41.370322 -0.088803 2.062382 0.095677 -0.021882 449905.000000 0 0 1
35.512856 -3.802037 -20.570011 41.215820 -0.106655 2.093334 0.075141 -0.022462 898192.000000 0 0 1
36.375556 -4.493037 -21.463311 42.474018 -0.122896 2.100558 0.068539 -0.016856 -211575.000000 0 0 1
35.684156 -5.470337 -22.398711 42.485125 -0.152115 2.126114 0.067439 -0.017112 -674662.000000 0 0 1
35.184756 -6.689337 -21.868111 41.963420 -0.187878 2.118963 0.073788 -0.017547 432324.000000 0 0 1
34.650956 -7.555937 -22.855311 42.191779 -0.214698 2.143255 0.069807 -0.006382 -90114.600000 0 0 1
33.244256 -7.272237 -23.423811 41.312721 -0.215359 2.173641 0.037128 -0.002868 -448357.000000 0 0 1
33.194956 -6.202337 -24.351911 41.633997 -0.184716 2.195559 0.044685 -0.002674 120928.000000 0 0 1
31.854456 -5.985937 -24.742611 40.776643 -0.185749 2.222805 0.004767 -0.003704 27906.400000 0 0 1
31.711056 -4.756137 -25.690391 41.087810 -0.148874 2.246256 0.026393 -0.018320 22008.200000 0 0 1
32.167656 -4.909937 -27.018191 42.294778 -0.151467 2.263743 0.045084 -0.017249 457283.000000 0 0 1
31.602356 -3.868137 -27.819711 42.280111 -0.121794 2.288937 0.050013 -0.022374 40599.000000 0 0 1
32.068756 -3.947337 -29.312561 43.625828 -0.122474 2.307579 0.065918 -0.019856 82603.200000 0 0 1
31.469956 -3.042237 -30.215611 43.733243 -0.096372 2.333539 0.061029 -0.028970 43893.200000 0 0 1
30.712656 -3.627937 -31.262551 43.974723 -0.117580 2.361603 0.061669 -0.039387 -982525.000000 0 0 1
30.156856 -2.645337 -32.316491 44.280802 -0.087495 2.388838 0.059759 -0.033499 -1033800.000000 0 0 1
29.107056 -1.802437 -32.001031 43.295906 -0.061845 2.402565 0.043532 -0.029665 -261990.000000 0 0 1
27.884756 -2.467037 -31.711311 42.299565 -0.088243 2.418381 0.046536 -0.025291 -741772.000000 0 0 1
26.996856 -2.696737 -32.920091 42.659525 -0.099561 2.452296 0.064722 -0.039002 -1183250.000000 0 0 1
27.462356 -3.712637 -33.826801 43.728905 -0.134375 2.455231 0.084675 -0.043110 307033.000000 0 0 1
26.542256 -4.008037 33.216604 42.707125 -0.149874 0.679676 0.078796 -0.037499 -507023.000000 0 0 1
26.914056 -5.359537 32.518048 42.550141 -0.196564 0.700951 0.090034 -0.051367 741360.000000 0 0 1
28.231056 -5.573737 31.978010 43.019208 -0.194926 0.732743 0.087635 -0.046695 723519.000000 0 0 1
28.585856 -4.753037 30.861890 42.334369 -0.164765 0.753932 0.087981 -0.041688 -64676.000000 0 0 1
29.160256 -3.303437 31.150990 42.797400 -0.112805 0.755584 0.072565 -0.034715 -871037.000000 0 0 1
30.411556 -3.239037 31.756060 44.088564 -0.106107 0.766592 0.082698 -0.038316 -585584.000000 0 0 1
30.734356 -1.880537 32.063050 44.454204 -0.061111 0.765176 0.066005 -0.032161 -479033.000000 0 0 1
32.144556 -1.825937 32.626915 45.837999 -0.056743 0.778757 0.067037 -0.035544 -598117.000000 0 0 1
33.151656 -2.112337 31.688750 45.909380 -0.063631 0.808968 0.079827 -0.034851 -58663.800000 0 0 1
34.410956 -1.718037 32.230663 47.179246 -0.049886 0.818724 0.080356 -0.028437 896789.000000 0 0 1
35.648456 -2.250937 31.420390 47.572262 -0.063059 0.849342 0.102461 -0.021659 380860.000000 0 0 1
35.923556 -1.618737 30.142870 46.922434 -0.045030 0.873173 0.101390 -0.016613 507964.000000 0 0 1
-36.536705 -2.174937 29.523100 47.024191 0.059457 0.892037 0.107027 -0.021732 533875.000000 0 0 1
-36.086505 -1.568237 28.193230 45.820884 0.043430 0.908040 0.113329 -0.024640 504928.000000 0 0 1
36.602156 -1.743737 27.114900 45.584825 -0.047604 0.933751 0.116561 -0.036565 522183.000000 0 0 1
-36.389905 -1.446837 25.840910 44.655024 0.039738 0.953689 0.117904 -0.035015 581066.000000 0 0 1
-26.570524 15.032963 12.955089 33.163489 -0.514875 1.169466 0.103293 -0.018115 636920.000000 0 0 1
-27.790704 14.269363 12.889189 33.794513 -0.474356 1.179487 0.087601 -0.021627 697750.000000 0 0 1
-28.879834 15.103163 13.207589 35.165192 -0.481851 1.185766 0.093527 -0.018449 -329079.000000 0 0 1
-30.197664 14.337763 13.453889 36.034393 -0.443283 1.188165 0.102275 -0.011826 -135359.000000 0 0 1
-31.122434 15.262563 13.992889 37.381180 -0.455941 1.187122 0.091186 -0.011955 -195064.000000 0 0 1
-32.193144 14.606163 14.661489 38.271370 -0.425930 1.177654 0.109615 -0.023950 271750.000000 0 0 1
-33.018334 15.467763 15.604889 39.660744 -0.438099 1.166405 0.089106 -0.022143 -31118.800000 0 0 1
-32.419674 15.607163 16.865489 39.737432 -0.448666 1.132472 0.078562 -0.018572 -466139.000000 0 0 1
-33.336044 16.050663 17.823189 41.068012 -0.448723 1.121877 0.098422 -0.030388 -108686.000000 0 0 1
-32.646404 16.244763 19.169989 41.196704 -0.461724 1.086791 0.106271 -0.022825 279688.000000 0 0 1
-32.195894 15.056963 19.870089 40.719874 -0.437448 1.061033 0.112494 -0.029164 -191770.000000 0 0 1
-31.267484 15.326063 20.896689 40.610532 -0.455744 1.030298 0.086803 -0.016161 64009.300000 0 0 1
-31.837014 15.699363 22.259789 41.899447 -0.458126 1.010701 0.095256 -0.027403 -1076700.000000 0 0 1
-32.394934 16.969163 22.162489 42.761666 -0.482523 1.025959 0.101056 -0.036361 -32614.900000 0 0 1
-32.953904 17.506463 23.347189 44.017351 -0.488327 1.011714 0.102440 -0.034638 59106.600000 0 0 1
-34.131272 16.679963 24.002289 44.936341 -0.454567 1.007306 0.104726 -0.039720 162295.000000 0 0 1
-35.304310 16.433363 23.260289 45.359571 -0.435650 1.032356 0.112113 -0.031224 -332511.000000 0 0 1
-36.136244 17.505363 23.038989 46.293205 -0.451112 1.049880 0.104295 -0.030175 -72168.500000 0 0 1
36.011178 17.050963 22.725289 45.869151 0.442216 1.052458 0.085530 -0.029234 729939.000000 0 0 1
35.420088 16.425763 23.790889 45.720834 0.434222 1.023534 0.095491 -0.032261 -152321.000000 0 0 1
34.208218 15.717563 23.542089 44.401282 0.430699 1.011946 0.116083 -0.032611 454808.000000 0 0 1
33.829628 14.968163 24.849989 44.564689 0.416564 0.979285 0.086224 -0.014667 -343376.000000 0 0 1
33.219688 15.919363 25.719189 44.927168 0.446882 0.961288 0.088466 -0.014538 42186.600000 0 0 1
32.947528 15.535563 27.086789 45.393694 0.440609 0.931404 0.083684 -0.007944 -361081.000000 0 0 1
32.111158 14.286963 27.354989 44.536942 0.418623 0.909413 0.086674 -0.005137 -126224.000000 0 0 1
32.665868 13.047163 26.815789 44.230916 0.380000 0.919437 0.081923 -0.013372 -56076.900000 0 0 1
31.969748 12.017263 27.464189 43.826488 0.359555 0.893540 0.068890 -0.001256 -23780.700000 0 0 1
32.388738 10.631263 27.105389 43.551764 0.317159 0.899027 0.081586 -0.003701 807685.000000 0 0 1
33.672828 10.219163 27.614389 44.730807 0.294650 0.905432 0.075002 0.000172 786689.000000 0 0 1
33.965638 8.918163 27.039889 44.321031 0.256768 0.914620 0.091213 0.000027 -20259.400000 0 0 1
35.047328 8.079863 27.762289 45.435053 0.226583 0.913432 0.099780 -0.006786 805010.000000 0 0 1
36.384878 8.576863 27.734589 46.547066 0.231500 0.932486 0.103935 -0.012643 770693.000000 0 0 1
-36.320764 7.732663 28.429089 46.767564 -0.209767 0.917408 0.111119 -0.020787 -200476.000000 0 0 1
-34.962532 8.337563 28.701289 45.996278 -0.234099 0.896956 0.119093 -0.019969 -592726.000000 0 0 1
-34.199695 8.628763 27.567089 44.766271 -0.247147 0.907395 0.102170 -0.020027 755759.000000 0 0 1
-32.835184 8.927763 27.917789 44.014284 -0.265478 0.883707 0.106617 -0.014318 964143.000000 0 0 1
-31.964654 9.640763 26.854889 42.847035 -0.292930 0.893406 0.085100 -0.023981 -48023.500000 0 0 1
-31.573144 8.747663 25.831689 41.721231 -0.270281 0.903137 0.081282 -0.027277 394127.000000 0 0 1
-30.823994 9.441563 24.819689 40.685116 -0.297232 0.914681 0.079184 -0.023310 305956.000000 0 0 1
-30.004014 8.526663 23.870889 39.278036 -0.276884 0.917583 0.072943 -0.017746 333875.000000 0 0 1
-28.980884 9.142263 23.126789 38.187969 -0.305578 0.920272 0.073118 -0.019973 281170.000000 0 0 1
-28.304274 8.290363 22.174989 36.899758 -0.284932 0.926105 0.056085 -0.012017 234864.000000 0 0 1
-27.162584 9.021263 21.438389 35.760224 -0.320659 0.927915 0.049559 -0.011282 -1057200.000000 0 0 1
-26.175744 9.500163 22.335789 35.697480 -0.348154 0.894772 0.045047 -0.016824 1172100.000000 0 0 1
-24.974444 10.018563 21.709289 34.574379 -0.381500 0.891943 0.041866 -0.008366 1815740.000000 0 0 1
-24.119244 9.132163 20.694289 33.066416 -0.361945 0.894588 0.030369 -0.002701 -139083.000000 0 0 1
-24.773444 9.204363 19.399689 32.784016 -0.355735 0.937578 0.031927 -0.006618 696148.000000 0 0 1
-24.123144 8.387563 18.420089 31.489315 -0.334622 0.945962 0.038028 -0.010524 -1206.420000 0 0 1
-24.066744 6.844063 18.605189 31.180160 -0.277064 0.931414 0.035099 -0.004597 -170577.000000 0 0 1
-23.078844 6.377563 19.517389 30.890691 -0.269610 0.886896 0.012612 0.000073 477209.000000 0 0 1
-23.140944 4.991063 19.772689 30.844338 -0.212427 0.874934 0.030625 -0.003059 -283625.000000 0 0 1
-22.973244 3.928463 18.633689 29.839858 -0.169364 0.896361 0.050054 -0.004686 -171207.000000 0 0 1
-24.144244 3.809463 17.821389 30.249932 -0.156489 0.940805 0.094454 -0.010007 752107.000000 0 0 1
-24.019944 2.828763 16.820789 29.460117 -0.117227 0.963112 0.077873 -0.014833 -177222.000000 0 0 1
-24.098244 1.360163 17.326389 29.711599 -0.056383 0.948193 0.092313 -0.019871 832514.000000 0 0 1
-22.841344 0.850563 17.850389 29.001497 -0.037221 0.907778 0.062716 -0.005226 1300240.000000 0 0 1
-22.993544 -0.466437 18.337589 29.414074 0.020283 0.897676 0.091698 -0.013621 273924.000000 0 0 1
-21.648944 -1.250637 18.588089 28.561476 0.057705 0.862146 0.091398 -0.005375 155919.000000 0 0 1
-20.863544 -0.721137 19.588989 28.627539 0.034551 0.817193 0.056801 0.002463 -507236.000000 0 0 1
-19.936144 -1.737837 19.929889 28.243059 0.086950 0.787448 0.040714 -0.006425 234644.000000 0 0 1
-18.975444 -1.360437 21.103789 28.412817 0.071572 0.733619 0.039579 0.001031 777403.000000 0 0 1
-19.687844 -1.253237 22.351689 29.812410 0.063570 0.723121 0.040568 0.003438 270209.000000 0 0 1
-18.748044 -0.967137 23.378989 29.983356 0.051540 0.676558 0.056783 -0.000861 -119708.000000 0 0 1
-19.290744 -0.804837 24.870389 31.485184 0.041697 0.660138 0.055638 0.004694 74126.900000 0 0 1
-19.927844 0.426163 25.140789 32.083638 -0.021382 0.670354 0.062964 -0.021467 -173111.000000 0 0 1
-21.303944 0.260063 25.390189 33.144944 -0.012207 0.698146 0.056572 -0.022315 -303129.000000 0 0 1
-21.855244 1.512563 26.143589 34.109042 -0.069098 0.697468 0.047392 -0.030590 -505995.000000 0 0 1
-21.776044 2.719663 25.382189 33.553661 -0.124249 0.712904 0.044025 -0.027847 54777.400000 0 0 1
-22.937244 3.029063 24.664489 33.817590 -0.131299 0.753441 0.044222 -0.022171 -729924.000000 0 0 1
-22.503844 3.983663 23.508089 32.786015 -0.175206 0.771285 0.044154 -0.009909 322484.000000 0 0 1
-21.916444 3.370763 22.357689 31.489026 -0.152605 0.781276 0.043296 -0.008672 368922.000000 0 0 1
-20.654144 2.757763 22.472589 30.646634 -0.132736 0.747662 0.027231 -0.004653 -446092.000000 0 0 1
-20.079144 2.144963 21.159089 29.248588 -0.106422 0.762049 0.024251 -0.002516 -72267.400000 0 0 1
-19.410244 2.989763 20.252389 28.210911 -0.152829 0.770027 0.011459 0.006733 205211.000000 0 0 1
-19.402244 2.396763 18.942289 27.221349 -0.122908 0.801178 0.034941 -0.003862 -170317.000000 0 0 1
-18.933744 3.302663 17.819389 26.209251 -0.172695 0.823185 0.016382 0.003835 438139.000000 0 0 1
-17.529044 3.568063 17.845889 25.268047 -0.200808 0.786591 0.020551 -0.013959 648421.000000 0 0 1
-17.256144 4.514663 16.778189 24.488044 -0.255891 0.815975 0.034176 -0.005271 11991.800000 0 1 0
-15.848844 5.132963 16.491489 23.441466 -0.313209 0.790461 0.050078 -0.013837 59435.800000 0 1 0
-15.505044 6.044363 17.445589 24.109941 -0.371710 0.761814 0.054830 -0.014817 321487.000000 0 1 0
-16.052644 7.406063 17.359489 24.776783 -0.432261 0.794509 0.044217 -0.014569 -50878.500000 0 1 0
-15.523444 8.300263 16.167489 23.901033 -0.491015 0.827885 0.044753 -0.012892 70635.200000 0 1 0
-15.882244 7.949763 14.851589 23.151978 -0.464083 0.874367 0.042627 -0.008466 1530360.000000 0 1 0
-17.294844 8.093663 14.513589 23.984646 -0.437706 0.920880 0.026575 -0.001579 1028640.000000 0 1 0
-17.657944 7.215563 13.322889 23.267288 -0.387924 0.961121 0.041169 -0.003756 -173922.000000 0 1 0
-17.546144 5.830063 13.544389 22.919582 -0.320794 0.938557 0.042305 -0.003725 252116.000000 0 1 0
-17.809844 5.128363 12.347089 22.269738 -0.280366 0.983114 0.026785 -0.008860 -69067.100000 0 1 0
-17.356644 3.657563 12.350189 21.613838 -0.207691 0.962583 0.026886 -0.003398 -206840.000000 0 1 0
-18.013044 2.951563 13.364589 22.622858 -0.162414 0.938801 0.026814 -0.005615 57293.700000 0 1 0
-17.675844 1.633463 13.479789 22.289198 -0.092150 0.921322 0.024004 -0.005001 -290331.000000 0 1 0
-18.578444 0.960063 14.556889 23.621670 -0.051630 0.906822 0.031344 -0.008989 -94003.200000 0 1 0
-19.852944 0.598663 14.121889 24.370587 -0.030146 0.952725 0.056210 -0.006754 -303003.000000 0 1 0
-20.674444 -0.013137 15.074589 25.586637 0.000635 0.940779 0.073827 -0.016718 727508.000000 0 0 1
-22.144244 -0.247737 14.560989 26.503798 0.011187 0.989159 0.095065 -0.022531 640909.000000 0 0 1
-22.219744 -1.392937 13.717689 26.150187 0.062607 1.018583 0.113649 -0.037823 351134.000000 0 0 1
-23.530944 -1.492937 13.206189 27.024759 0.063361 1.060232 0.162133 -0.044265 -173937.000000 0 0 1
-23.526944 -2.687537 12.263489 26.667079 0.113739 1.092943 0.161240 -0.047158 -226166.000000 0 0 1
-23.547644 -3.907737 12.880289 27.123122 0.164452 1.075966 0.141818 -0.044340 291756.000000 0 0 1
-23.675044 -4.890437 11.906889 26.948062 0.203700 1.113141 0.161668 -0.045124 -94062.900000 0 0 1
-23.604144 -6.325837 12.416989 27.410827 0.261844 1.100674 0.148137 -0.040347 -207787.000000 0 0 1
-24.652244 -6.546237 13.312689 28.771757 0.259553 1.089758 0.132725 -0.035163 -70166.800000 0 0 1
-24.668744 -7.858037 13.869589 29.371094 0.308380 1.078990 0.135164 -0.038401 -278265.000000 0 0 1
-25.578024 -8.024037 15.090589 30.762743 0.303985 1.058078 0.125577 -0.023116 1411170.000000 0 0 1
-26.973834 -7.781937 14.714189 31.696271 0.280873 1.088037 0.116981 -0.024904 1804540.000000 0 0 1
-27.849644 -8.181937 15.779189 33.038304 0.285750 1.072872 0.120939 -0.020580 548698.000000 0 0 1
-29.321824 -7.643937 15.696789 34.126065 0.255015 1.092841 0.116441 -0.027004 1427990.000000 0 0 1
-30.267754 -8.274437 14.759989 34.676512 0.266855 1.131118 0.099487 -0.020035 1281680.000000 0 0 1
-30.608414 -9.667237 14.856889 35.370293 0.305921 1.137308 0.101511 -0.021322 -485394.000000 0 0 1
-31.004974 -10.242137 16.177889 36.440827 0.319053 1.110795 0.100738 -0.017630 -473633.000000 0 0 1
-29.911054 -10.244037 17.083689 35.936943 0.329963 1.075401 0.110392 -0.008161 285894.000000 0 0 1
-30.217914 -10.925937 18.252389 36.954676 0.346946 1.054212 0.107818 -0.003375 221004.000000 0 0 1
-28.972844 -10.947937 19.182389 36.431402 0.361284 1.016277 0.115151 -0.003810 345691.000000 0 0 1
-27.968724 -11.787837 18.671189 35.634476 0.398873 1.019298 0.104477 -0.001792 -295051.000000 0 0 1
-26.782094 -11.684837 19.413989 35.081604 0.411397 0.984361 0.091445 -0.005934 -104463.000000 0 0 1
-25.587324 -12.575437 19.057689 34.293560 0.456801 0.981565 0.064875 -0.002868 -495537.000000 0 0 1
-25.095534 -12.193637 17.821689 33.107147 0.452295 1.002374 0.059606 0.000246 -410550.000000 0 0 1
-24.098544 -13.045537 17.345289 32.431233 0.496171 1.006486 0.064970 -0.007043 -636887.000000 0 0 1
-23.746044 -12.952037 15.811689 31.331124 0.499335 1.041804 0.066953 -0.007115 -181804.000000 0 0 1
-22.958444 -11.846037 15.461189 30.107592 0.476348 1.031501 0.064392 -0.008797 -187101.000000 0 0 1
-22.923444 -11.758937 14.085789 29.362669 0.473966 1.070464 0.064802 -0.006311 456006.000000 0 0 1
-21.509644 -11.339637 13.591089 27.856235 0.485161 1.061113 0.076046 -0.020421 -91244.400000 0 0 1
-21.348644 -9.906537 13.816989 27.291267 0.434465 1.039932 0.095031 -0.029098 498369.000000 0 0 1
-20.122944 -9.331637 13.344689 25.886155 0.434214 1.029188 0.103856 -0.030957 448044.000000 0 0 1
-19.899344 -9.375337 11.818389 24.971086 0.440293 1.077783 0.121530 -0.026488 -550690.000000 0 1 0
-19.284444 -10.578837 11.411689 24.779592 0.501743 1.092207 0.114674 -0.027046 -86231.900000 0 1 0
-19.131444 -10.693137 10.015089 24.096832 0.509673 1.142174 0.138511 -0.026147 -2296320.000000 0 1 0
-18.337044 -11.877937 9.502589 23.825024 0.574796 1.160535 0.112616 -0.017702 -197658.000000 0 1 0
-16.939344 -11.728737 9.603989 22.731943 0.605604 1.134607 0.129406 -0.035383 152037.000000 0 1 0
-16.563944 -11.703737 10.952289 23.049823 0.615128 1.075654 0.124783 -0.024439 -2177980.000000 0 1 0
-15.060044 -11.987237 11.226989 22.283268 0.672274 1.042769 0.118853 -0.015590 221018.000000 0 1 0
-14.701044 -13.256537 10.828489 22.563524 0.733776 1.070243 0.110990 -0.021213 1218390.000000 0 1 0
-13.258444 -13.389737 10.798289 21.718067 0.790325 1.050424 0.112109 -0.024208 1425890.000000 0 1 0
-12.635944 -14.820337 10.651589 22.198329 0.864790 1.070327 0.104733 -0.024109 1954.330000 0 1 0
-12.881544 -15.533837 9.474589 22.293544 0.878469 1.131843 0.089115 -0.028143 32881.600000 0 1 0
-12.331144 -16.855537 9.457989 22.926399 0.939190 1.145559 0.080074 -0.022210 242633.000000 0 1 0
-12.846244 -17.802737 8.289589 23.466587 0.945728 1.209753 0.068611 -0.015794 -57668.800000 0 1 0
-12.139744 -17.612737 7.061089 22.526448 0.967315 1.251964 0.064300 -0.029485 -28759.500000 0 1 0
-12.508044 -18.481837 6.015289 23.113052 0.975828 1.307510 0.043835 -0.021478 475040.000000 0 1 0
-11.416344 -18.447737 4.839589 22.227765 1.016633 1.351311 0.040600 -0.021202 536299.000000 0 1 0
-11.664544 -19.335137 3.794589 22.897773 1.027967 1.404310 0.048022 -0.021036 22510.100000 0 1 0
-10.919444 -18.934037 2.668389 22.019362 1.047678 1.449314 0.061724 -0.034137 -760.003000 0 1 0
-11.320544 -19.698237 1.452889 22.765899 1.049189 1.506934 0.076650 -0.034853 -216296.000000 0 1 0
-10.898644 -21.033737 1.577689 23.742107 1.092734 1.504296 0.058206 -0.033930 -356726.000000 0 1 0
-11.102244 -21.965137 0.544789 24.617552 1.102800 1.548664 0.055087 -0.033037 183321.000000 0 1 0
-10.324744 -21.675437 -0.802711 24.022266 1.126260 1.604218 0.077202 -0.033782 250895.000000 0 1 0
-10.858244 -20.616337 -1.600911 23.355893 1.086032 1.639394 0.091124 -0.055556 72507.100000 0 1 0
-12.084744 -20.817137 -2.291911 24.179477 1.044824 1.665726 0.109608 -0.045460 626353.000000 0 1 0
-13.224744 -19.829837 -1.881611 23.909344 0.982624 1.649576 0.124498 -0.044089 293337.000000 0 1 0
-13.849544 -20.253837 -0.663811 24.545232 0.971027 1.597844 0.109545 -0.037849 -267985.000000 0 1 0
-15.117244 -19.694637 -0.516211 24.832967 0.916138 1.591585 0.133631 -0.020023 -262771.000000 0 1 0
26.525256 -20.163237 -4.116111 33.572127 -0.649967 1.693711 0.061754 -0.022110 -13468.600000 0 0 1
25.215256 -20.185937 -3.587811 32.498517 -0.675073 1.681421 0.065620 -0.020101 -7388.650000 0 0 1
25.124956 -21.132937 -2.535811 32.928632 -0.699312 1.647882 0.048456 -0.024281 -13948.400000 0 0 1
23.682256 -21.322337 -1.998511 31.929381 -0.733009 1.633429 0.040416 -0.012989 -51344.800000 0 0 1
22.855756 -21.821737 -3.008011 31.743061 -0.762258 1.665700 0.053626 -0.013577 -406289.000000 0 0 1
21.921256 -22.731037 -2.454411 31.674369 -0.803531 1.648363 0.042761 -0.000264 268023.000000 0 0 1
20.876256 -23.187837 -3.522211 31.399042 -0.837810 1.683209 0.043189 -0.006891 556047.000000 0 0 1
19.996956 -22.194037 -4.025711 30.143986 -0.837426 1.704746 0.047303 -0.014049 -292251.000000 0 0 1
19.028356 -22.684437 -4.884511 30.008674 -0.872824 1.734294 0.051498 -0.013220 -199173.000000 0 0 1
18.016856 -21.683937 -5.435411 28.711391 -0.877505 1.761258 0.042305 -0.011027 -608506.000000 0 0 1
17.070656 -21.038637 -4.656511 27.490265 -0.889145 1.741005 0.043184 -0.004901 -130870.000000 0 0 1
17.559556 -20.151337 -3.623611 26.973042 -0.854018 1.705546 0.030406 -0.007298 -691809.000000 0 0 1
16.499956 -19.632937 -2.672311 25.784531 -0.871889 1.674623 0.038188 -0.000200 -538035.000000 0 0 1
15.997756 -20.631537 -1.811511 26.170023 -0.911235 1.640073 0.038909 0.000166 -129424.000000 0 0 1
15.319556 -20.018437 -0.756611 25.219023 -0.917592 1.600802 0.058070 0.006640 -419593.000000 0 0 1
15.073056 -20.983937 0.453889 25.840446 -0.947885 1.553230 0.051796 0.000373 228545.000000 0 0 1
14.182556 -22.072437 0.162089 26.236686 -0.999679 1.564618 0.051275 -0.008085 276029.000000 0 0 1
13.476056 -22.326937 1.393989 26.115885 -1.027750 1.517394 0.049007 -0.007442 418466.000000 0 0 1
12.555356 -23.599837 1.429489 26.769997 -1.081870 1.517372 0.054376 -0.014831 325792.000000 0 0 1
13.183356 -24.838837 1.631289 28.167886 -1.082848 1.512851 0.044998 -0.006981 -152213.000000 0 0 1
12.216556 -25.844797 1.611789 28.632074 -1.129235 1.514473 0.043207 -0.005955 -65824.500000 0 0 1
12.718756 -27.130507 2.280989 30.050526 -1.132420 1.494818 0.047086 -0.011350 -41270.700000 0 0 1
12.578156 -27.100687 3.699489 30.105539 -1.136257 1.447601 0.067733 -0.014131 74830.800000 0 0 1
13.051856 -28.290037 4.262389 31.445908 -1.138537 1.434831 0.066940 -0.013575 173058.000000 0 0 1
12.405756 -28.600417 5.676489 31.687682 -1.161528 1.390685 0.079773 -0.014686 112167.000000 0 0 1
12.807056 -29.803497 6.242389 33.033870 -1.164937 1.380684 0.069185 -0.018207 -224031.000000 0 0 1
12.263556 -29.921437 7.534489 33.203249 -1.181820 1.341882 0.063475 -0.021826 27234.500000 0 0 1
12.775556 -31.263737 8.126689 34.737288 -1.182866 1.334661 0.058555 -0.020728 128575.000000 0 0 1
12.680256 -31.509087 9.511189 35.271436 -1.188195 1.297760 0.059726 -0.016484 -274140.000000 0 0 1
11.806256 -32.558327 9.815289 35.996837 -1.222924 1.294628 0.050348 -0.010031 -87292.400000 0 0 1
11.573256 -32.779657 11.331089 36.562820 -1.231396 1.255701 0.051155 -0.012510 1360260.000000 0 0 1
12.780356 -33.311757 11.999389 37.643008 -1.204456 1.246367 0.053527 -0.012652 1454130.000000 0 0 1
12.668956 -33.466057 13.384689 38.205096 -1.208907 1.212865 0.062206 -0.012471 143178.000000 0 0 1
11.573256 33.714994 13.909389 38.263718 1.240132 1.198759 0.061518 -0.020594 162874.000000 0 0 1
11.622456 32.408010 13.370089 36.933993 1.226455 1.200384 0.063663 -0.021641 -599115.000000 0 0 1
10.456056 31.689374 13.618789 36.041877 1.252090 1.183312 0.073973 -0.021163 -352605.000000 0 0 1
10.249156 30.494344 12.645089 34.566580 1.246558 1.196284 0.076384 -0.020180 -24145.000000 0 0 1
9.965456 30.757244 11.302389 34.249998 1.257466 1.234496 0.051164 -0.015314 -69296.000000 0 0 1
11.058356 31.303114 10.606189 34.852022 1.231214 1.261571 0.034935 -0.013131 -192737.000000 0 0 1
10.754556 31.684734 9.186489 34.698334 1.243574 1.302849 0.030666 -0.011388 122094.000000 0 0 1
9.730556 32.672711 9.152089 35.298024 1.281342 1.308519 0.048800 -0.017213 -282790.000000 0 0 1
8.998156 32.625470 8.017989 34.780400 1.301685 1.338172 0.036875 -0.012222 -724121.000000 0 0 1
9.328156 33.710672 6.959289 35.663084 1.300839 1.374396 0.038414 -0.008180 -183645.000000 0 0 1
8.679356 -33.218597 7.179389 35.076346 -1.315230 1.364661 0.045856 -0.010139 346535.000000 0 0 1
9.241256 -32.268367 6.249089 34.142341 -1.291874 1.386728 0.062111 -0.013675 229581.000000 0 0 1
8.655156 -30.876937 6.468289 32.712929 -1.297499 1.371756 0.058297 -0.012344 -41553.600000 0 0 1
8.811656 -30.398377 7.805689 32.598089 -1.288656 1.328995 0.064362 -0.013565 -125460.000000 0 0 1
8.176556 -29.195557 8.111289 31.385182 -1.297730 1.309386 0.072758 -0.010985 -162049.000000 0 0 1
8.918056 -27.879087 7.743289 30.277612 -1.261199 1.312180 0.080710 -0.019807 487870.000000 0 0 1
9.907256 -27.413587 8.697589 30.418852 -1.224002 1.280822 0.083327 -0.018531 1207120.000000 0 0 1
10.732256 -26.250147 8.368289 29.568223 -1.182688 1.283859 0.093388 -0.026997 554630.000000 0 0 1
10.200856 -25.078247 7.471789 28.085647 -1.184475 1.301518 0.085786 -0.025300 -283911.000000 0 0 1
9.970556 -25.429207 6.153889 27.998695 -1.197127 1.349195 0.088625 -0.025465 -318762.000000 0 0 1
9.407656 -24.345937 5.455489 26.664415 -1.202055 1.364743 0.077164 -0.028405 83788.000000 0 0 1
8.853056 -24.763337 4.055389 26.609127 -1.227450 1.417794 0.064832 -0.022878 878867.000000 0 0 1
7.809056 -25.750447 3.907789 27.190765 -1.276352 1.426579 0.061018 -0.024598 331566.000000 0 0 1
8.248756 -27.084597 4.085789 28.606137 -1.275166 1.427477 0.054586 -0.017265 252665.000000 0 0 1
7.229156 -28.194737 3.680889 29.338590 -1.319802 1.445002 0.058699 -0.016860 247391.000000 0 0 1
6.191656 -28.492817 4.604089 29.519060 -1.356817 1.414187 0.055639 -0.009105 242580.000000 0 0 1
5.103056 -29.202267 4.033689 29.917959 -1.397795 1.435559 0.048545 -0.005376 343297.000000 0 0 1
5.106956 -30.802347 4.144989 31.496770 -1.406493 1.438813 0.045086 -0.001637 133752.000000 0 0 1
6.204556 -31.378447 3.447089 32.171197 -1.375581 1.463442 0.044379 -0.006669 178874.000000 0 0 1
6.275256 -32.743417 3.725889 33.546870 -1.381443 1.459502 0.040030 -0.007268 74999.900000 0 0 1
7.363956 -33.556577 2.986289 34.484629 -1.354772 1.484090 0.040693 -0.010281 67097.600000 0 0 1
7.093156 -33.738437 1.594389 34.512854 -1.363575 1.524583 0.042417 -0.014453 -218380.000000 0 0 1
7.976356 33.478923 1.036489 34.431596 1.336907 1.540689 0.024513 -0.010357 -609711.000000 0 0 1
7.489056 33.017146 -0.338411 33.857532 1.347747 1.580792 0.040047 -0.010205 -96241.000000 0 0 1
6.482756 32.042704 -0.302711 32.693311 1.371175 1.580056 0.031087 -0.009844 -443663.000000 0 0 1
5.195756 32.650122 -0.283811 33.062167 1.412985 1.579381 0.039367 -0.014233 -936730.000000 0 0 1
4.170456 31.680374 0.219289 31.954450 1.439907 1.563934 0.051719 -0.017986 -752877.000000 0 0 1
3.931256 30.660754 -0.747911 30.920801 1.443274 1.594987 0.064720 -0.017814 -374367.000000 0 0 1
2.741356 29.999274 -0.422611 30.127231 1.479669 1.584824 0.065832 -0.031647 -207891.000000 0 0 1
2.385756 28.936794 -1.414311 29.069402 1.488535 1.619468 0.070373 -0.025779 -18659.200000 0 0 1
1.907956 29.531284 -2.615511 29.708213 1.506278 1.658950 0.077984 -0.028960 27603.200000 0 0 1
1.923656 28.507944 -3.593811 28.797895 1.503421 1.695917 0.086996 -0.030376 27145.000000 0 0 1
1.648656 29.016274 -5.060711 29.500390 1.514039 1.743196 0.090473 -0.033728 633851.000000 0 0 1
0.332756 29.543314 -5.262011 30.010113 1.559533 1.747049 0.090700 -0.030481 461309.000000 0 0 1
0.148556 30.403094 -6.395011 31.068736 1.565910 1.778113 0.082346 -0.021233 -131565.000000 0 0 1
0.132656 29.736644 -7.778211 30.737374 1.566335 1.826632 0.087311 -0.018409 747215.000000 0 0 1
-1.136044 29.033724 -7.969411 30.129043 -1.531688 1.838491 0.075574 -0.012485 1310830.000000 0 0 1
-1.416244 28.654994 -9.315111 30.164312 -1.521413 1.884740 0.079101 -0.014440 55532.900000 0 0 1
-1.518444 29.738504 -10.412811 31.545378 -1.519781 1.907195 0.063439 -0.015751 -89405.900000 0 0 1
-0.286144 30.404724 -10.632211 32.211380 -1.561385 1.907181 0.068295 -0.024787 18254.000000 0 0 1
-0.459144 31.606094 -11.267111 33.557469 -1.556270 1.913204 0.057901 -0.020843 151725.000000 0 0 1
-0.738344 32.753812 -10.293611 34.341167 -1.548258 1.875222 0.061040 -0.021469 -288608.000000 0 0 1
0.427056 33.090763 -9.606211 34.459546 1.557891 1.853307 0.055613 -0.028609 -400627.000000 0 0 1
0.218056 33.950879 -8.494211 34.998019 1.564374 1.815950 0.058184 -0.021724 97363.200000 0 0 1
1.473456 -34.003647 -7.594411 34.872542 -1.527491 1.790332 0.059117 -0.025724 28811.900000 0 0 1
2.492956 -33.187177 -8.119011 34.256706 -1.495819 1.810078 0.060456 -0.017492 -759265.000000 0 0 1
3.361756 -33.106277 -7.031711 34.011351 -1.469599 1.779044 0.057317 -0.021554 -245509.000000 0 0 1
4.713856 -32.372367 -7.348211 33.528895 -1.426199 1.791750 0.041758 -0.010233 991470.000000 0 0 1
5.657056 -32.960607 -8.236511 34.441894 -1.400822 1.812279 0.062140 -0.010548 265892.000000 0 0 1
6.475656 -33.925527 -7.641311 35.373227 -1.382187 1.788532 0.069324 -0.005934 -1355910.000000 0 0 1
6.671556 32.878855 -8.457311 34.598481 1.370601 1.817740 0.065351 -0.007179 -376568.000000 0 0 1
5.627156 31.922824 -8.560111 33.526214 1.396315 1.828981 0.056190 -0.007764 -132464.000000 0 0 1
4.600956 32.408011 -9.437511 34.066326 1.429769 1.851502 0.069335 -0.014385 706575.000000 0 0 1
3.515956 31.312664 -9.724411 32.975885 1.458979 1.870142 0.057180 -0.018076 677328.000000 0 0 1
4.156256 30.306624 -10.497911 32.341491 1.434506 1.901381 0.058227 -0.020196 205591.000000 0 0 1
3.376256 29.135594 -10.555911 31.172250 1.455430 1.916259 0.058681 -0.020003 174002.000000 0 0 1
4.038256 28.037944 -11.422411 30.543498 1.427752 1.954084 0.064844 -0.023517 -48892.300000 0 0 1
3.954556 28.382714 -12.809811 31.389619 1.432358 1.991158 0.061385 -0.020004 788610.000000 0 0 1
5.178956 28.289954 -13.569111 31.800375 1.389734 2.011633 0.076550 -0.033774 625588.000000 0 0 1
4.953756 28.785544 -15.033611 32.850520 1.400374 2.046132 0.078159 -0.024726 379627.000000 0 0 1
3.925456 28.077644 -15.733511 32.423859 1.431889 2.077440 0.059987 -0.018138 406427.000000 0 0 1
3.579356 28.709434 -16.971511 33.542146 1.446761 2.101309 0.099259 -0.023416 352039.000000 0 0 1
2.444156 27.962464 -17.737011 33.203536 1.483609 2.134346 0.084924 -0.018230 58744.600000 0 0 1
2.849056 26.772214 -18.396711 32.608397 1.464777 2.170225 0.107709 -0.015242 -641542.000000 0 0 1
1.845956 26.182294 -19.123911 32.475283 1.500409 2.200464 0.093386 -0.030882 -359816.000000 0 0 1
2.471456 25.043444 -20.027911 32.162080 1.472428 2.243008 0.107707 -0.035862 411081.000000 0 0 1
2.907056 23.903484 -19.292811 30.855147 1.449774 2.246274 0.099751 -0.032256 -184437.000000 0 0 1
3.960856 23.272944 -19.970111 30.921249 1.402220 2.272916 0.105750 -0.029000 168492.000000 0 0 1
4.753156 22.211564 -19.189311 29.735092 1.359981 2.272268 0.102876 -0.030519 452711.000000 0 0 1
3.850356 21.160764 -18.883411 28.621432 1.390808 2.291302 0.107591 -0.021487 87910.600000 0 0 1
4.467856 20.314864 -17.972111 27.489129 1.354312 2.283378 0.079025 -0.014360 -6428.760000 0 0 1
3.630156 19.072764 -17.658311 26.244319 1.382714 2.308842 0.070873 -0.017116 252842.000000 0 0 1
2.541556 19.317164 -16.766711 25.704765 1.439978 2.281385 0.073144 -0.023347 664914.000000 0 0 1
1.573656 18.248164 -16.626411 24.736803 1.484773 2.307882 0.053219 -0.014724 580637.000000 0 1 0
1.964756 17.052364 -15.717611 23.274163 1.456083 2.312201 0.035925 -0.007229 1160310.000000 0 1 0
3.186056 16.301864 -16.065211 23.108283 1.377788 2.339514 0.027628 -0.014901 1119960.000000 0 1 0
3.174356 15.170764 -16.970611 22.983260 1.364531 2.401476 0.026009 -0.017274 -132794.000000 0 1 0
3.025656 15.431764 -18.506011 24.285106 1.377186 2.437241 0.033674 -0.013811 -453051.000000 0 1 0
4.249756 15.933764 -18.952311 25.122407 1.310150 2.425534 0.041318 -0.014047 -570005.000000 0 0 1
4.224656 16.320364 -20.268911 26.363436 1.317498 2.447800 0.052068 -0.016217 -277136.000000 0 0 1
4.724256 15.226664 -21.259811 26.573473 1.269952 2.498156 0.041337 -0.019552 -79274.200000 0 0 1
3.933456 14.063964 -21.459711 25.957395 1.298081 2.544063 0.027665 -0.019382 -283907.000000 0 0 1
2.789356 14.313664 -22.225811 26.582855 1.378335 2.560923 0.049074 -0.021300 -274616.000000 0 0 1
2.108456 13.071464 -22.849611 26.408587 1.410872 2.616414 0.066640 -0.017306 250137.000000 0 0 1
1.434356 12.303464 -21.857111 25.123015 1.454739 2.626006 0.038889 -0.009253 714548.000000 0 0 1
0.271956 11.647264 -22.381611 25.232305 1.547451 2.661651 0.039638 -0.001526 490449.000000 0 0 1
-0.491244 10.650964 -21.476411 23.977502 -1.524707 2.680777 0.010219 0.006207 -488128.000000 0 1 0
-1.317244 11.307664 -20.485311 23.436006 -1.454828 2.634367 0.021076 0.004676 386419.000000 0 1 0
-1.844444 10.461964 -19.471911 22.181298 -1.396290 2.642156 0.007194 0.007272 502080.000000 0 1 0
-2.973744 9.499764 -19.952611 22.297878 -1.267426 2.678827 0.006889 0.003666 -328620.000000 0 1 0
-2.492544 8.352964 -20.631611 22.397503 -1.280806 2.741839 0.007796 -0.000084 -812729.000000 0 1 0
-3.495044 7.514464 -21.075611 22.646498 -1.135449 2.766939 0.020138 0.003303 -606736.000000 0 1 0
-2.984344 6.278464 -21.870411 22.948645 -1.127079 2.833835 0.018298 -0.006618 382444.000000 0 1 0
-2.167444 5.347864 -21.126011 21.899904 -1.185737 2.874955 0.022463 -0.003050 556581.000000 0 1 0
-1.984044 4.123664 -21.878011 22.351474 -1.122353 2.935399 0.031454 -0.007630 -416283.000000 0 1 0
-1.298044 2.946764 -21.188011 21.431289 -1.155872 2.990774 0.026343 -0.004522 1169650.000000 0 1 0
0.137656 3.153764 -21.131211 21.365703 1.527176 2.993301 0.029241 -0.005525 981037.000000 0 1 0
0.790856 2.404364 -20.150911 20.309250 1.253018 3.016640 0.030812 -0.010872 212478.000000 0 1 0
2.330256 2.529064 -20.248211 20.538167 0.826288 2.973359 0.034310 -0.014466 507540.000000 0 1 0
2.989256 1.849864 -21.335211 21.622879 0.554155 2.978293 0.051158 -0.020350 1055000.000000 0 1 0
4.421956 1.962664 -21.214711 21.759359 0.417724 2.917380 0.067754 -0.021760 853816.000000 0 1 0
5.208656 1.442364 -22.408011 23.050585 0.270147 2.904919 0.073895 -0.017673 948556.000000 0 1 0
6.638056 1.276464 -22.292411 23.294736 0.189976 2.847178 0.077427 -0.024863 981101.000000 0 1 0
7.197556 0.850264 -23.485611 24.578480 0.117587 2.842267 0.071942 -0.018481 -35598.800000 0 1 0
8.739556 0.934864 -23.454711 25.047501 0.106564 2.783050 0.065427 -0.022519 105788.000000 0 0 1
9.268456 2.211864 -23.200611 25.081168 0.234263 2.751888 0.067046 -0.032530 -82026.400000 0 0 1
10.681256 2.206664 -23.287811 25.715380 0.203726 2.703585 0.052497 -0.028487 1869.880000 0 0 1
13.708156 -21.145737 22.071390 33.499284 -0.995638 0.851492 0.068496 0.006587 -833940.000000 0 0 1
12.656656 -21.963937 22.513190 33.903528 -1.048025 0.844591 0.061195 0.012753 1302890.000000 0 0 1
11.284756 -21.517437 22.335890 33.003603 -1.087783 0.827428 0.048961 0.004825 1273020.000000 0 0 1
10.873356 -21.290437 20.835890 31.711936 -1.098613 0.853916 0.062902 -0.006866 -1237670.000000 0 0 1
11.433856 -20.152037 20.233590 30.760947 -1.054708 0.852944 0.068937 -0.007716 -113686.000000 0 0 1
11.232156 -20.191237 18.814190 29.796328 -1.063138 0.887405 0.072651 -0.015246 59492.800000 0 0 1
11.467156 -18.823937 18.204990 28.587724 -1.023655 0.880441 0.085907 -0.017156 156343.000000 0 0 1
10.756556 -17.742637 18.833790 28.021712 -1.025791 0.833736 0.087071 -0.020108 18304.400000 0 0 1
10.929356 -16.518937 18.202290 26.900734 -0.986292 0.827598 0.098761 -0.020677 -602220.000000 0 0 1
9.983356 -15.485837 18.707890 26.257641 -0.998173 0.777778 0.098414 -0.005020 -853720.000000 0 0 1
8.669056 -15.653837 18.285790 25.584473 -1.065042 0.774570 0.065556 -0.006510 -681332.000000 0 0 1
7.837656 -14.546837 18.639190 24.909009 -1.076602 0.725314 0.043767 -0.004130 1130540.000000 0 1 0
6.309656 -14.792137 18.376590 24.419626 -1.167610 0.718895 0.018373 -0.000637 584601.000000 0 1 0
5.875056 -14.684037 17.011590 23.227816 -1.190205 0.748985 0.007948 -0.003565 462445.000000 0 1 0
4.461356 -14.858437 16.878790 22.925322 -1.279103 0.743283 -0.004050 0.000235 374063.000000 0 1 0
4.030956 -16.322637 16.806590 23.772643 -1.328686 0.785589 -0.005936 0.001333 -103577.000000 0 1 0
2.645856 -16.477337 16.506290 23.472554 -1.411580 0.790885 0.000729 0.005733 180877.000000 0 1 0
2.290356 -17.780737 16.266190 24.207216 -1.442691 0.833949 0.011203 -0.012829 297334.000000 0 1 0
0.787056 -17.909837 15.934590 23.985264 -1.526879 0.844174 0.013754 -0.002604 235194.000000 0 1 0
0.372856 -17.510537 14.622090 22.815860 -1.549506 0.875160 0.022113 -0.008995 -172274.000000 0 1 0
-0.970344 -17.879637 14.387790 22.970231 1.516579 0.893913 0.029568 -0.000973 -308525.000000 0 1 0
-1.263844 -17.781037 12.876090 21.989913 1.499837 0.945244 0.030894 -0.027396 987840.000000 0 1 0
-2.618644 -18.136737 12.512290 22.189095 1.427404 0.971703 0.035116 -0.032791 841348.000000 0 1 0
-2.775644 -19.577937 12.447490 23.365355 1.429961 1.008970 0.049279 -0.029195 -43384.300000 0 1 0
-4.263144 -19.988537 12.352390 23.880904 1.360665 1.027162 0.042184 -0.024553 401132.000000 0 1 0
-4.909244 -20.077737 13.642190 24.765410 1.330990 0.987406 0.048513 -0.036441 -253205.000000 0 1 0
-6.116244 -20.753037 13.504290 25.504173 1.284195 1.012793 0.035849 -0.025122 -558884.000000 0 0 1
-6.807144 -21.152337 14.822190 26.710595 1.259448 0.982532 0.044372 -0.023122 1067360.000000 0 0 1
-8.241544 -21.237737 14.674490 27.098066 1.200624 0.998537 0.053041 -0.011555 918759.000000 0 0 1
-8.743944 -22.161137 15.652990 28.505941 1.194987 0.989493 0.047223 -0.012836 158629.000000 0 0 1
-10.288644 -22.207837 15.642590 29.047114 1.136947 1.002111 0.059576 -0.008377 154210.000000 0 0 1
-10.759144 -20.905837 15.931490 28.401154 1.095499 0.975269 0.054274 -0.006570 -146152.000000 0 0 1
-12.146944 -20.665137 15.774890 28.695702 1.039397 0.988755 0.073680 -0.004921 44366.200000 0 0 1
-12.596044 -19.418437 16.543890 28.450594 0.995361 0.950231 0.086034 -0.009352 -557991.000000 0 0 1
-12.551344 -19.507337 17.954190 29.333008 0.999063 0.912106 0.066336 -0.014057 35007.400000 0 0 1
-13.026144 -18.300037 18.521790 29.114060 0.952188 0.881259 0.067798 -0.025891 -158356.000000 0 0 1
-13.403944 -18.482437 20.020890 30.366136 0.943340 0.850887 0.063275 -0.018933 300523.000000 0 0 1
-14.656844 -19.133237 20.182190 31.436040 0.917108 0.873682 0.059462 -0.014330 170855.000000 0 0 1
-14.710944 -19.852837 21.409690 32.694370 0.933080 0.856821 0.054477 -0.012099 -108412.000000 0 0 1
-15.953344 -20.740237 21.592290 33.924823 0.915121 0.880877 0.062562 -0.011085 -946326.000000 0 0 1
-15.930144 -21.780537 20.613490 33.956991 0.939310 0.918457 0.054913 -0.016535 284886.000000 0 0 1
-17.139144 -22.089937 19.948690 34.346263 0.910937 0.951072 0.084033 -0.015905 -281190.000000 0 0 1
-18.288644 -22.688537 20.751990 35.775540 0.892363 0.951993 0.079613 -0.017071 -773286.000000 0 0 1
-18.788044 -21.721437 21.659190 35.971265 0.857685 0.924637 0.070151 -0.013560 -637186.000000 0 0 1
-19.691144 -22.309437 22.531490 37.324525 0.847657 0.922707 0.086751 -0.015272 -307370.000000 0 0 1
-20.525744 -21.285837 23.361290 37.684783 0.803575 0.902164 0.067304 -0.006842 164055.000000 0 0 1
-21.587944 -20.633237 22.686990 37.502924 0.762790 0.921107 0.075348 -0.012363 209919.000000 0 0 1
-22.012044 -19.597137 23.559780 37.731169 0.727425 0.896418 0.067878 -0.001047 211805.000000 0 0 1
-23.064444 -18.647637 22.964790 37.511125 0.679903 0.911940 0.075571 0.007929 107195.000000 0 0 1
-22.438644 -17.753237 22.082290 36.142740 0.669346 0.913505 0.078480 0.004818 250667.000000 0 0 1
-23.348144 -16.776537 21.517590 35.910927 0.623060 0.928303 0.072602 -0.003547 -49411.000000 0 0 1
-22.936044 -16.161337 20.188090 34.566022 0.613824 0.947094 0.073383 -0.000938 -471104.000000 0 0 1
-21.958244 -15.178237 20.348590 33.564989 0.604817 0.919467 0.067863 0.005285 -763265.000000 0 0 1
-21.667644 -14.684137 19.094690 32.399350 0.595601 0.940537 0.059403 -0.001536 -342585.000000 0 0 1
-20.437044 -13.764837 18.958290 31.089552 0.592735 0.914993 0.055884 -0.005177 92342.200000 0 0 1
-20.238744 -13.585937 17.573190 30.049982 0.591192 0.946164 0.051659 -0.006873 -453312.000000 0 0 1
-19.050244 -12.914337 17.317790 28.802738 0.595746 0.925726 0.064383 -0.020212 -1016120.000000 0 0 1
-18.904444 -12.770637 15.758490 27.727192 0.594118 0.966309 0.059847 -0.016151 232664.000000 0 0 1
-18.159844 -11.616337 15.335290 26.455440 0.569080 0.952479 0.058508 -0.019593 655346.000000 0 0 1
-16.749044 -11.639237 15.511290 25.624255 0.607308 0.920608 0.061452 -0.034310 143016.000000 0 0 1
-16.111044 -10.298037 15.011590 24.309733 0.568739 0.905219 0.057945 -0.036515 87730.100000 0 1 0
-16.585044 -9.121137 15.689290 24.584805 0.502814 0.878677 0.055703 -0.026859 222799.000000 0 1 0
-16.432744 -7.957737 14.925590 23.582491 0.450977 0.885491 0.052529 -0.023340 -401570.000000 0 1 0
-16.880244 -6.669737 15.758890 24.036860 0.376293 0.855802 0.072106 -0.018368 29411.500000 0 1 0
-16.051744 -6.292437 16.804590 24.075869 0.373599 0.798217 0.048839 -0.010608 -335690.000000 0 1 0
-14.727544 -5.975537 16.459890 22.880900 0.385444 0.767898 0.046843 -0.019363 -454099.000000 0 1 0
-13.694544 -5.939137 17.629590 23.100137 0.409205 0.702574 0.031654 -0.015311 167417.000000 0 1 0
-13.502344 -7.105837 18.410890 23.911651 0.484440 0.692026 0.037874 -0.017119 22325.100000 0 1 0
-13.144044 -8.269037 17.738390 23.575270 0.561549 0.719075 0.043669 -0.019625 -769680.000000 0 1 0
-13.427244 -9.550437 18.642090 24.880298 0.618252 0.723835 0.063626 -0.019921 1675760.000000 0 1 0
-14.790444 -9.998337 18.915790 26.010211 0.594436 0.756497 0.074538 -0.020061 1143790.000000 0 0 1
-15.525144 -9.246337 19.816690 26.818390 0.537157 0.739328 0.068043 -0.018357 -836051.000000 0 0 1
-16.880944 -9.798637 20.264890 28.136192 0.525925 0.766644 0.060226 -0.014920 1081830.000000 0 0 1
-18.065044 -9.772637 19.432390 28.274865 0.495884 0.813076 0.061887 -0.016548 1217620.000000 0 0 1
-18.477844 -8.545037 18.823890 27.727012 0.433157 0.824532 0.061754 -0.018562 8418.910000 0 0 1
-19.694744 -8.644037 17.851990 27.951670 0.413586 0.878023 0.090347 -0.031582 405102.000000 0 0 1
-20.948544 -8.925237 18.427190 29.292707 0.402764 0.890439 0.083082 -0.027292 485394.000000 0 0 1
-21.910344 -9.159637 17.352190 29.411913 0.395970 0.939773 0.096801 -0.026396 820223.000000 0 0 1
-23.376544 -9.144737 17.842090 30.796577 0.372891 0.952862 0.096529 -0.015736 -780.641000 0 0 1
-23.948744 -7.981937 18.405790 31.241427 0.321714 0.940794 0.107743 -0.017521 -275535.000000 0 0 1
-25.293904 -8.194737 18.693190 32.501856 0.313310 0.958018 0.090697 -0.008773 -765651.000000 0 0 1
-26.008634 -7.056137 19.355190 33.179233 0.264923 0.947946 0.105433 -0.015981 -333216.000000 0 0 1
-25.707264 -7.092337 20.764290 33.798231 0.269192 0.909221 0.102166 -0.019730 231580.000000 0 0 1
-26.371524 -6.083437 21.489490 34.558120 0.226716 0.899711 0.103798 -0.015873 -882765.000000 0 0 1
-26.381504 -6.339237 22.975390 35.553315 0.235820 0.868171 0.092070 -0.011136 595269.000000 0 0 1
-25.187764 -6.041437 23.691920 35.103126 0.235409 0.829935 0.070083 -0.012942 482570.000000 0 0 1
-23.977844 -6.715337 23.413610 34.179378 0.273068 0.816163 0.065071 -0.006589 -751082.000000 0 0 1
-23.039844 -6.575937 24.585730 34.329804 0.278024 0.772508 0.053945 -0.004376 -713213.000000 0 0 1
-22.331944 -5.381637 24.604590 33.661010 0.236475 0.751080 0.048252 -0.002913 77098.000000 0 0 1
-21.592644 -5.225837 25.806410 34.051761 0.237453 0.710772 0.049848 -0.007963 167301.000000 0 0 1
-21.181344 -3.711237 25.935150 33.690571 0.173452 0.692262 0.051291 -0.011115 511817.000000 0 0 1
-20.170344 -3.361437 26.922320 33.807593 0.165135 0.649577 0.042287 -0.010922 431447.000000 0 0 1
-20.467144 -3.376137 28.319460 35.104047 0.163482 0.632200 0.045933 -0.019665 -227885.000000 0 0 1
-21.375344 -2.198637 28.780170 35.917092 0.102498 0.641340 0.050505 -0.022988 744009.000000 0 0 1
-22.660044 -2.249637 28.161840 36.216401 0.098953 0.679958 0.056275 -0.028078 557015.000000 0 0 1
-23.525444 -1.195537 28.661610 37.099376 0.050775 0.687928 0.056804 -0.031418 220754.000000 0 0 1
-24.770844 -0.838537 27.887440 37.309612 0.033839 0.726566 0.053825 -0.031638 -1047340.000000 0 0 1
-24.533544 -0.154537 26.665850 36.235151 0.006299 0.743785 0.047561 -0.034378 385443.000000 0 0 1
-25.702654 0.241363 25.923650 36.506442 -0.009390 0.781140 0.064267 -0.016026 700512.000000 0 0 1
-26.566464 -0.955337 25.343820 36.728720 0.035945 0.809270 0.060972 -0.014224 -193057.000000 0 0 1
-27.414674 -1.525037 26.304600 38.023967 0.055571 0.806831 0.059982 -0.018678 3252.940000 0 0 1
-28.005994 -2.766437 25.873610 38.228687 0.098461 0.827374 0.061886 -0.024145 -13378.400000 0 0 1
-27.104414 -4.011337 25.928330 37.722916 0.146929 0.812981 0.061119 -0.019749 -231475.000000 0 0 1
-26.760924 -4.311037 27.230670 38.421888 0.159722 0.783103 0.052496 -0.024171 -31193.100000 0 0 1
-25.780674 -5.347737 27.255790 37.896167 0.204531 0.768113 0.050680 -0.024256 224003.000000 0 0 1
-25.306484 -5.722437 28.692280 38.683476 0.222385 0.735166 0.037290 -0.019983 302310.000000 0 0 1
-26.382064 -6.181237 29.519020 40.069858 0.230146 0.742635 0.054933 -0.024775 521619.000000 0 0 1
-25.951944 -6.668237 30.765840 40.798354 0.251505 0.716521 0.056002 -0.021322 -390965.000000 0 0 1
-27.171494 -7.102637 31.590170 42.269095 0.255679 0.726719 0.045735 -0.020521 -61112.400000 0 0 1
-27.861484 -8.181537 30.974080 42.456960 0.285621 0.753146 0.037444 -0.018532 -278104.000000 0 0 1
-29.048874 -8.493037 31.638910 43.783437 0.284443 0.763207 0.046328 -0.017489 300924.000000 0 0 1
-30.119104 -9.265737 30.761240 44.037123 0.298448 0.797456 0.040062 -0.013388 652759.000000 0 0 1
-29.708594 -10.605037 30.456600 43.848282 0.342869 0.802946 0.043696 -0.011103 -439853.000000 0 0 1
-30.651494 -11.218537 29.659240 44.102609 0.350860 0.833208 0.034013 -0.010244 -706698.000000 0 0 1
-30.271654 -12.540137 28.969400 43.736189 0.392733 0.846823 0.051969 -0.012023 -286833.000000 0 0 1
-29.413844 -12.312337 27.894320 42.365799 0.396429 0.852084 0.061159 -0.006462 -244060.000000 0 0 1
-28.537404 -13.384537 27.584690 41.886088 0.438556 0.851887 0.058496 -0.005931 995893.000000 0 0 1
-27.146904 -12.824937 27.076620 40.429899 0.441347 0.836968 0.063798 -0.009874 955241.000000 0 0 1
-26.229384 -12.164237 27.959670 40.220547 0.434241 0.802155 0.054334 -0.015369 428290.000000 0 0 1
-26.637314 -10.944937 28.584730 40.576162 0.389857 0.789119 0.057885 -0.015645 -815744.000000 0 0 1
-26.543634 -9.615437 27.733590 39.574905 0.347546 0.794296 0.058034 -0.008688 1406640.000000 0 0 1
-25.220194 -9.246337 27.228650 38.248559 0.351407 0.778615 0.045063 -0.010567 1390840.000000 0 0 1
-24.634844 -10.012337 26.143810 37.291034 0.386037 0.793892 0.043064 -0.011260 -221865.000000 0 0 1
-25.244694 -9.973937 24.738410 36.725508 0.376267 0.831723 0.058705 -0.006573 97087.100000 0 0 1
-26.494464 -10.635237 24.572770 37.668102 0.381724 0.860116 0.066098 -0.006893 479516.000000 0 0 1
-27.107154 -10.316237 23.307800 37.208548 0.363647 0.893857 0.070562 -0.003646 -429538.000000 0 0 1
-28.401624 -11.085737 22.987790 38.183560 0.372134 0.924751 0.080912 -0.006994 1048930.000000 0 0 1
-29.638884 -10.575537 23.537100 39.297589 0.342731 0.928613 0.084033 -0.009132 850980.000000 0 0 1
-29.692674 -10.545237 24.986250 40.214047 0.341252 0.900356 0.076458 -0.011013 555624.000000 0 0 1
-31.185424 -10.470037 25.565610 41.662366 0.323910 0.910136 0.049140 -0.006765 1224270.000000 0 0 1
-31.677934 -9.156237 25.332190 41.581823 0.281373 0.915728 0.057005 -0.019748 257539.000000 0 0 1
-33.054284 -8.900437 25.603770 42.747590 0.263029 0.928604 0.064869 -0.013304 566532.000000 0 0 1
-33.537224 -8.894637 27.033000 43.984577 0.259248 0.908915 0.047566 -0.010898 -464041.000000 0 0 1
-33.693134 -10.211737 27.560250 44.711008 0.294281 0.906623 0.035640 -0.019449 183430.000000 0 0 1
-34.272653 -10.120237 28.874830 45.943332 0.287127 0.891189 0.044299 -0.016502 -557391.000000 0 0 1
-34.815535 -11.452637 29.436240 47.008261 0.317802 0.894136 0.046046 -0.002584 -45305.300000 0 0 1
-36.018215 -12.045037 29.027630 47.801653 0.322724 0.918200 0.031653 -0.001847 583167.000000 0 0 1
36.423498 -11.312537 29.388270 48.148885 -0.301138 0.914278 0.047312 -0.007406 469355.000000 0 0 1
35.074728 -11.926437 28.924580 47.001146 -0.327765 0.907901 0.047402 -0.004055 321525.000000 0 0 1
34.819568 -11.652337 27.624130 45.948578 -0.322934 0.925799 0.054090 -0.001957 -352077.000000 0 0 1
33.765138 -12.416937 27.084610 45.031555 -0.352394 0.925471 0.070379 0.003377 -94941.100000 0 0 1
33.454588 -12.012637 25.608790 43.810079 -0.344735 0.946482 0.068930 -0.011487 269485.000000 0 0 1
32.998658 -10.645137 25.430360 42.999228 -0.312053 0.937985 0.075901 -0.028117 -50184.300000 0 0 1
32.923128 -10.252337 24.070900 42.052955 -0.301885 0.961373 0.067230 -0.019774 -167625.000000 0 0 1
32.623178 -8.767537 23.783840 41.313587 -0.262548 0.957348 0.072561 -0.006635 -148759.000000 0 0 1
31.284708 -8.446337 24.059760 40.360198 -0.263696 0.932129 0.090550 -0.013333 -476698.000000 0 0 1
31.015228 -7.163237 23.506160 39.570139 -0.226979 0.934727 0.090629 -0.007252 -1658410.000000 0 0 1
29.570588 -6.928337 23.246390 38.246780 -0.230147 0.917509 0.102536 -0.004768 -1339560.000000 0 0 1
29.141758 -7.707737 22.168490 37.417819 -0.258570 0.936690 0.087302 -0.001012 -1511060.000000 0 0 1
27.797118 -7.647137 21.949390 36.234434 -0.268464 0.920075 0.081015 -0.016585 -1441400.000000 0 0 1
14.592556 -17.536937 26.088060 34.656511 -0.876784 0.718551 0.064298 0.000147 182967.000000 0 0 1
13.744756 -18.659737 26.029390 34.851589 -0.935927 0.727463 0.044454 0.010469 -60978.400000 0 0 1
14.545856 -19.780537 25.865970 35.663707 -0.936730 0.759364 0.060672 0.015491 -1080260.000000 0 0 1
13.846856 -21.138437 25.815900 36.125194 -0.990875 0.774711 0.034171 0.005945 -161106.000000 0 0 1
13.275556 -21.567037 27.067320 37.067739 -1.019023 0.752164 0.042622 0.004404 52075.600000 0 0 1
12.090556 -20.886337 27.382490 36.499608 -1.046056 0.722412 0.040884 0.001555 -1049480.000000 0 0 1
11.430256 -21.340437 28.696070 37.543701 -1.079064 0.700783 0.032766 0.000189 -4471.450000 0 0 1
12.052656 -20.832537 29.878010 38.366087 -1.046299 0.678108 0.029086 -0.001508 115382.000000 0 0 1
11.443356 -19.650037 30.439050 37.994870 -1.043450 0.641606 0.028300 -0.002576 238831.000000 0 0 1
11.468056 -18.307037 29.790970 36.798992 -1.011170 0.627395 0.041144 -0.004312 175182.000000 0 0 1
12.653656 -17.591237 30.038200 37.038630 -0.947224 0.624943 0.036001 0.007403 -189464.000000 0 0 1
12.579156 -16.425437 29.312350 35.878183 -0.917238 0.614613 0.051718 0.003415 772100.000000 0 0 1
13.478656 -15.372437 30.060520 36.354104 -0.850944 0.597257 0.037363 -0.000241 461157.000000 0 0 1
13.100256 -14.116337 29.594330 35.308810 -0.822714 0.576901 0.071744 -0.005351 170213.000000 0 0 1
13.895456 -13.035837 30.088100 35.613348 -0.753490 0.564503 0.055934 -0.002247 -56687.700000 0 0 1
13.394456 -11.645737 29.690020 34.590923 -0.715675 0.538813 0.057422 -0.010610 -14521.600000 0 0 1
13.660456 -11.218937 28.329160 33.391824 -0.687577 0.557867 0.090785 -0.017246 -933661.000000 0 0 1
14.963956 -11.005637 27.934440 33.546639 -0.634141 0.586822 0.063367 -0.016889 -1204530.000000 0 0 1
15.003756 -9.983837 26.769330 32.270524 -0.587141 0.592533 0.061786 -0.018656 136798.000000 0 0 1
15.039656 -8.587437 27.178300 32.227245 -0.518813 0.567341 0.055184 -0.022942 -657648.000000 0 0 1
16.372156 -8.214737 27.182900 32.778643 -0.465047 0.592966 0.045108 -0.026826 -1310950.000000 0 0 1
16.580456 -6.848037 27.973110 33.231040 -0.391679 0.570231 0.039259 -0.032393 -531506.000000 0 0 1
17.947956 -6.563137 27.927800 33.840300 -0.350571 0.600094 0.039000 -0.032071 -392877.000000 0 0 1
18.278856 -5.252837 27.529410 33.460085 -0.279832 0.604557 0.048258 -0.028503 -1241180.000000 0 0 1
19.754456 -5.137537 27.302650 34.089112 -0.254433 0.641966 0.050242 -0.024615 -2637060.000000 0 0 1
20.202356 -5.897337 26.170440 33.582819 -0.284021 0.677279 0.044702 -0.018821 -430677.000000 0 0 1
21.531556 -5.677337 25.816340 34.092866 -0.257807 0.711726 0.058170 -0.015689 -293646.000000 0 0 1
22.562856 -6.112637 26.890160 35.630430 -0.264565 0.715605 0.078796 -0.022944 -1276680.000000 0 0 1
22.937756 -5.151537 27.891350 36.477478 -0.220922 0.700347 0.066766 -0.022147 -30536.600000 0 0 1
24.025656 -5.579137 28.690110 37.834922 -0.228172 0.710099 0.082799 -0.036188 -95439.500000 0 0 1
24.650456 -4.379137 29.382940 38.602837 -0.175815 0.705696 0.080811 -0.031720 -136116.000000 0 0 1
25.451356 -3.595437 28.491680 38.372836 -0.140338 0.734007 0.080264 -0.025713 336474.000000 0 0 1
25.853456 -2.378237 29.125590 39.017396 -0.091731 0.728045 0.067181 -0.030652 -606447.000000 0 0 1
26.647956 -1.482537 28.194300 38.823061 -0.055577 0.757981 0.073235 -0.025866 -526273.000000 0 0 1
27.999856 -1.864237 28.186430 39.773637 -0.066482 0.783183 0.076465 -0.027292 -29717.700000 0 0 1
28.813056 -1.041137 27.308620 39.711924 -0.036119 0.812524 0.071353 -0.005692 333584.000000 0 0 1
30.300856 -1.081737 27.673270 41.050237 -0.035685 0.831008 0.075745 -0.018658 -219198.000000 0 0 1
30.681156 -0.057537 28.580380 41.930595 -0.001875 0.820833 0.064846 -0.008063 -404761.000000 0 0 1
32.041856 -0.241237 28.876430 43.134522 -0.007529 0.837327 0.086138 -0.018068 -112542.000000 0 0 1
32.570056 0.857863 29.850080 44.187914 0.026333 0.829119 0.090120 -0.021333 88465.500000 0 0 1
32.885756 2.058763 29.122280 43.975205 0.062522 0.846988 0.084348 -0.005627 57745.500000 0 0 1
33.271156 3.083663 30.013510 44.914247 0.092419 0.838955 0.074684 -0.005293 25886.600000 0 0 1
33.492456 4.423063 29.309860 44.725563 0.131302 0.856181 0.074127 -0.007842 64774.900000 0 0 1
33.603356 5.586863 30.066720 45.435738 0.164752 0.847657 0.078222 -0.005741 1322970.000000 0 0 1
32.293256 6.134163 30.405190 44.776757 0.187715 0.824343 0.054862 0.003791 1261230.000000 0 0 1
32.225856 6.931563 31.657970 45.703167 0.211865 0.805589 0.052099 0.000244 -54804.500000 0 0 1
32.580856 6.187863 32.802314 46.645403 0.187688 0.790870 0.054317 0.000907 5874.080000 0 0 1
32.677356 7.001863 33.955637 47.642638 0.211081 0.777435 0.066388 -0.007249 25334.000000 0 0 1
33.368256 6.383063 -32.878401 47.277619 0.189008 2.339818 0.068294 0.002091 -36441.500000 0 0 1
32.692156 5.371363 -32.152391 46.167141 0.162846 2.341213 0.031093 0.002042 6974.570000 0 0 1
32.579156 4.064263 -32.811691 46.416880 0.124109 2.355890 0.048147 -0.004539 61788.000000 0 0 1
32.191556 2.985163 -31.757571 45.318328 0.092467 2.347268 0.043245 -0.007403 -8342.110000 0 0 1
32.328456 1.665263 -32.242211 45.688755 0.051465 2.354196 0.032409 -0.014320 37324.000000 0 0 1
32.519056 0.781963 -31.147011 45.035950 0.024042 2.334503 0.020013 -0.012604 201982.000000 0 0 1
33.283856 -0.543237 -31.519071 45.842797 -0.016320 2.328902 0.031236 -0.028070 846766.000000 0 0 1
34.627656 -0.381437 -32.030811 47.171951 -0.011015 2.317226 0.052739 -0.014424 1250840.000000 0 0 1
35.580356 -1.415237 -31.791391 47.735283 -0.039755 2.299621 0.067130 -0.013072 620726.000000 0 0 1
36.065756 -1.492837 -30.273871 47.111300 -0.041368 2.268687 0.071323 -0.010793 -502165.000000 0 0 1
35.030156 -1.793637 -29.326041 45.720298 -0.051158 2.267148 0.044691 -0.007292 200970.000000 0 0 1
35.508656 -1.855637 -28.023681 45.272892 -0.052211 2.238258 0.060412 -0.010650 -512542.000000 0 0 1
34.505256 -1.556037 -26.902931 43.781294 -0.045065 2.232529 0.053504 -0.008709 -431159.000000 0 0 1
34.201256 -0.203537 -26.763031 43.428415 -0.005951 2.234776 0.033648 -0.006267 187973.000000 0 0 1
33.200656 0.085063 -25.815941 42.056553 0.002562 2.231710 0.026900 0.001406 -242288.000000 0 0 1
32.672656 1.533063 -25.804901 41.662281 0.046887 2.238753 0.005288 -0.001366 -152486.000000 0 0 1
31.861256 1.805763 -26.920031 41.750312 0.056615 2.271540 0.016737 -0.009860 164676.000000 0 0 1
31.325256 3.087163 -26.806551 41.344812 0.098235 2.276232 0.012526 -0.000342 -10298.800000 0 0 1
30.532856 3.519663 -28.058311 41.616249 0.114768 2.310698 0.024630 -0.000068 -32524.200000 0 0 1
29.679956 4.619463 -27.808761 40.933684 0.154404 2.317688 0.015180 0.000178 4371.000000 0 0 1
28.932856 4.952363 -28.958011 41.233512 0.169525 2.349410 0.016659 -0.004809 -882195.000000 0 0 1
27.685056 5.711663 -28.580561 40.198681 0.203454 2.361691 0.022937 -0.012076 -1067480.000000 0 0 1
26.713656 4.872163 -27.994511 39.000642 0.180402 2.371428 0.035459 -0.013692 753576.000000 0 0 1
25.679556 5.722363 -27.444521 38.018243 0.219255 2.377308 0.045920 -0.021157 192119.000000 0 0 1
24.250856 5.230163 -27.220541 36.829560 0.212416 2.402522 0.057418 -0.016667 -205186.000000 0 0 1
23.527756 5.125663 -28.435591 37.261382 0.214504 2.438952 0.064886 -0.021526 649108.000000 0 0 1
22.184256 4.698163 -28.221781 36.203355 0.208696 2.464719 0.064158 -0.021823 730130.000000 0 0 1
21.326956 4.453663 -29.527131 36.695036 0.205869 2.505904 0.053594 -0.016614 51976.700000 0 0 1
21.677356 3.254363 -30.204381 37.320280 0.149014 2.513805 0.052181 -0.021296 -402514.000000 0 0 1
21.003856 2.810163 -31.332781 37.825946 0.133003 2.546936 0.039306 -0.025744 -469166.000000 0 0 1
21.256856 3.519463 -32.667951 39.133561 0.164080 2.558531 0.047072 -0.022691 -8537.790000 0 0 1
22.509156 3.096163 -33.180501 40.214351 0.136693 2.541160 0.042683 -0.016885 7240.430000 0 0 1
22.791956 3.728663 33.663342 40.823973 0.162159 0.601306 0.040219 -0.033303 -946919.000000 0 0 1
24.136856 3.167163 33.265400 41.221422 0.130471 0.631754 0.049966 -0.021039 -782027.000000 0 0 1
24.210456 1.733363 33.180595 41.110858 0.071474 0.631572 0.048082 -0.024841 -745213.000000 0 0 1
25.548256 1.422263 32.990174 41.750303 0.055612 0.659697 0.056414 -0.028779 -1097990.000000 0 0 1
25.756956 -0.086537 32.969770 41.838189 -0.003360 0.663193 0.041382 -0.024154 -515438.000000 0 0 1
25.246156 -0.863537 31.897280 40.688458 -0.034191 0.669811 0.043784 -0.023338 881759.000000 0 0 1
23.835756 -0.878737 31.644320 39.626739 -0.036850 0.645898 0.049339 -0.032808 334945.000000 0 0 1
22.998656 -1.940437 32.371197 39.756734 -0.084172 0.619392 0.049374 -0.038779 -388964.000000 0 0 1
23.253656 -3.264737 32.029570 39.715040 -0.139485 0.632614 0.065084 -0.046536 279665.000000 0 0 1
22.478256 -4.124437 32.863822 40.028912 -0.181467 0.607632 0.067826 -0.036477 116098.000000 0 0 1
22.369456 -5.617437 32.381283 39.755448 -0.246033 0.618909 0.073821 -0.034954 360750.000000 0 0 1
23.608056 -6.311637 32.470385 40.638688 -0.261241 0.645163 0.085575 -0.038064 301353.000000 0 0 1
23.411656 -7.632637 32.104935 40.460965 -0.315153 0.654292 0.088253 -0.045962 613806.000000 0 0 1
24.780056 -8.341337 31.812880 41.178738 -0.324701 0.687939 0.097259 -0.042693 583646.000000 0 0 1
25.310156 -7.989337 30.602620 40.508689 -0.305759 0.714443 0.101885 -0.040568 17969.500000 0 0 1
26.672656 -8.373837 30.417600 41.313220 -0.304204 0.743258 0.117853 -0.036184 734919.000000 0 0 1
27.159456 -7.975037 29.006720 40.529336 -0.285610 0.773175 0.122587 -0.039198 271062.000000 0 0 1
26.380756 -8.621937 27.998650 39.423426 -0.315883 0.781009 0.101241 -0.030792 19563.600000 0 0 1
26.808656 -8.293637 26.668240 38.712834 -0.300025 0.810863 0.118088 -0.026675 388121.000000 0 0 1
26.084056 -9.226537 25.626720 37.712541 -0.339988 0.823678 0.087706 -0.024520 1267770.000000 0 0 1
24.673956 -8.918737 25.565610 36.632614 -0.346851 0.798346 0.084663 -0.027973 741326.000000 0 0 1
24.120856 -9.828837 24.607560 35.832301 -0.386940 0.813798 0.073641 -0.022630 466916.000000 0 0 1
22.716756 -9.455537 24.040410 34.400574 -0.394424 0.797025 0.049001 -0.008981 1318330.000000 0 0 1
21.671356 -9.651237 25.041400 34.494431 -0.418976 0.758375 0.031154 -0.011305 966720.000000 0 0 1
20.450056 -8.976037 24.712970 33.309232 -0.413606 0.734859 0.037308 -0.006378 528514.000000 0 0 1
19.522856 -9.031537 25.942210 33.700280 -0.433294 0.692281 0.031900 -0.021210 -846283.000000 0 0 1
18.861456 -10.234737 26.220310 33.882282 -0.497165 0.685875 0.036488 -0.015958 34909.000000 0 0 1
19.533856 -11.066337 27.154440 35.233492 -0.515439 0.690858 0.023847 -0.020336 -55728.000000 0 0 1
18.585956 -12.094837 27.888330 35.629788 -0.576903 0.671764 0.024557 -0.023331 232075.000000 0 0 1
17.942056 -13.020437 27.051940 34.975086 -0.627763 0.686509 0.042738 -0.022040 54057.300000 0 0 1
17.122356 -13.934237 27.742610 35.454061 -0.683101 0.672134 0.035375 -0.019463 -219533.000000 0 0 1
17.892756 -15.086137 28.418750 36.815318 -0.700499 0.688929 0.042813 -0.004351 -590934.000000 0 0 1
17.060656 -15.982237 29.115740 37.339312 -0.752773 0.676512 0.037560 -0.001043 -100955.000000 0 0 1
17.603056 -17.194637 29.619310 38.507489 -0.773662 0.693234 0.058139 -0.001944 -241727.000000 0 0 1
18.154356 -18.309637 28.632990 38.531436 -0.789657 0.733094 0.064354 -0.000872 371174.000000 0 0 1
19.169556 -17.829437 27.765870 38.161555 -0.749194 0.755998 0.064982 -0.001467 296241.000000 0 0 1
19.447956 -18.763137 26.760920 38.031897 -0.767478 0.790283 0.055562 0.010529 -179261.000000 0 0 1
20.466156 -18.232437 25.730790 37.594666 -0.727741 0.816979 0.065352 -0.000553 262744.000000 0 0 1
21.775756 -18.102837 26.277530 38.631656 -0.693555 0.822751 0.083766 -0.000392 195552.000000 0 0 1
22.544856 -17.196337 25.516860 38.145704 -0.651618 0.838026 0.058799 -0.002545 495623.000000 0 0 1
23.968856 -17.015437 26.135760 39.333308 -0.617338 0.844013 0.059250 -0.004286 887602.000000 0 0 1
24.751156 -18.251137 26.165520 40.377694 -0.635379 0.865816 0.053505 -0.007383 1119700.000000 0 0 1
26.118456 -17.968137 26.505640 41.322835 -0.602591 0.874438 0.057269 -0.007087 472189.000000 0 0 1
26.961856 -19.233937 26.528540 42.434060 -0.619647 0.895446 0.041867 -0.008813 -428370.000000 0 0 1
26.829656 -19.895937 27.814010 43.466055 -0.638081 0.876426 0.047113 -0.007313 122380.000000 0 0 1
27.547556 -21.141137 27.836570 44.504946 -0.654571 0.895061 0.040215 -0.004954 117357.000000 0 0 1
26.847156 -22.322537 28.561900 45.109285 -0.693636 0.885153 0.048503 0.003670 -60090.100000 0 0 1
26.818756 -22.093237 29.990590 45.899807 -0.689084 0.858739 0.050169 -0.003045 62866.500000 0 0 1
26.457456 -23.325837 30.697810 46.759461 -0.722576 0.854621 0.065719 -0.001975 -416626.000000 0 0 1
25.997956 -23.227537 32.121589 47.404733 -0.729177 0.826298 0.056828 -0.006421 -112698.000000 0 0 1
25.849856 -24.516337 32.740736 48.386172 -0.758928 0.827586 0.054393 -0.009085 49002.100000 0 0 1
25.698956 -24.414937 -33.946401 49.080380 -0.759782 2.334566 0.085346 -0.007425 -737560.000000 0 0 1
25.395356 -25.724627 -33.222121 49.095722 -0.791839 2.314041 0.074584 -0.013915 1610500.000000 0 0 1
24.081356 -26.368357 -33.399491 48.895071 -0.830699 2.322775 0.099814 -0.017144 1445740.000000 0 0 1
23.618556 -26.612327 33.358535 48.773395 -0.844928 0.817634 0.080960 -0.017562 -668973.000000 0 0 1
22.237456 -27.256727 33.406169 48.511914 -0.886464 0.811215 0.106345 -0.023857 -356796.000000 0 0 1
22.247756 -28.598967 33.861168 49.592765 -0.909664 0.819229 0.097051 -0.027755 410027.000000 0 0 1
20.977756 -29.235947 33.729554 49.320277 -0.948400 0.817718 0.117727 -0.033400 417595.000000 0 0 1
21.090956 -30.775807 33.983609 50.466468 -0.969998 0.832012 0.082350 -0.032714 -34706.900000 0 0 1
21.643856 -31.239437 -32.917921 50.278708 -0.964894 2.284594 0.058628 -0.034064 1947470.000000 0 0 1
22.903856 -32.010227 -33.067431 51.407162 -0.949732 2.269526 0.023439 -0.020293 1433890.000000 0 0 1
23.653556 -32.313987 -31.788391 51.129114 -0.938921 2.241743 0.015147 -0.010216 501332.000000 0 0 1
24.850756 -33.140607 -32.001041 52.344308 -0.927386 2.228570 0.014031 0.000958 1330390.000000 0 0 1
25.352156 -33.741367 -30.852221 52.278784 -0.926421 2.202039 0.010007 0.008940 20606.100000 0 0 1
26.135656 -32.873787 -29.811101 51.502041 -0.899093 2.188094 0.004104 0.002844 -218695.000000 0 0 1
26.389156 -33.557617 -28.630631 51.402474 -0.904413 2.161553 0.015470 0.006455 -54483.200000 0 0 1
27.130656 -32.676747 -27.807891 50.765354 -0.877866 2.150496 0.017246 0.002789 -451333.000000 0 0 1
27.525456 -33.312767 -26.422991 50.651413 -0.880239 2.119596 0.015094 0.000191 -59102.400000 0 0 1
28.707256 -34.070983 -26.387061 51.780455 -0.870630 2.105510 0.012885 0.015843 -44464.100000 0 0 1
29.855056 -33.263447 -26.129861 51.774038 -0.839346 2.099820 0.019757 0.005061 141034.000000 0 0 1
-27.217934 -30.874238 9.545289 42.251000 0.848255 1.342910 0.076213 -0.017029 -101255.000000 0 0 1
-27.168004 -32.164238 10.094889 43.296021 0.869408 1.335471 0.069762 -0.020258 -213285.000000 0 0 1
-26.056374 -32.202538 10.947389 42.846043 0.890507 1.312426 0.066150 -0.020280 -263727.000000 0 0 1
-26.151964 -33.146538 12.185489 43.944332 0.902811 1.289820 0.065846 -0.025465 71776.800000 0 0 1
-26.089744 33.600463 11.910889 44.176182 -0.910569 1.297795 0.062554 -0.011511 699225.000000 0 0 1
-27.411124 33.130163 11.605689 44.538404 -0.879584 1.307176 0.046658 -0.027076 553644.000000 0 0 1
-27.503284 31.564163 11.356189 43.378451 -0.854040 1.305916 0.045005 -0.017999 31790.800000 0 0 1
-27.235774 31.302963 10.021189 42.685912 -0.854765 1.333819 0.060540 -0.024658 -58015.300000 0 0 1
-27.265774 29.929363 9.769789 41.648985 -0.831935 1.334016 0.072315 -0.018292 -234297.000000 0 0 1
-26.733924 29.658963 8.371889 40.797613 -0.837221 1.364123 0.059958 -0.010860 1156160.000000 0 0 1
-25.285384 29.565263 8.365989 39.792526 -0.863268 1.358976 0.054754 -0.008492 1052910.000000 0 0 1
-24.848944 29.483963 7.029489 39.194231 -0.870500 1.390471 0.047821 0.001976 353010.000000 0 0 1
-23.360944 29.008463 6.965789 37.891250 -0.892823 1.385908 0.042225 0.001250 599246.000000 0 0 1
-23.031444 27.601363 7.057789 36.634615 -0.875410 1.376931 0.047099 -0.001995 197697.000000 0 0 1
-23.583344 26.873863 5.965589 36.248681 -0.850520 1.405470 0.020574 -0.006272 -799077.000000 0 0 1
-23.643544 25.332763 6.230389 35.207723 -0.819875 1.392899 0.027601 -0.000216 -514550.000000 0 0 1
-24.622044 25.124463 7.228489 35.912877 -0.795497 1.368133 0.053248 -0.008561 266575.000000 0 0 1
-24.816944 23.723763 7.592089 35.161590 -0.762881 1.353162 0.060688 -0.007565 -159518.000000 0 0 1
-25.277854 22.666163 6.510189 34.570325 -0.730978 1.381348 0.067745 -0.017461 -98506.400000 0 0 1
-26.639764 22.946063 6.204289 35.702829 -0.711044 1.396134 0.067328 -0.023150 164739.000000 0 0 1
-27.091394 22.364463 5.028289 35.487977 -0.690109 1.428628 0.065063 -0.022626 -227387.000000 0 0 1
-26.839644 23.110463 3.677589 35.608772 -0.710878 1.467334 0.050639 -0.030527 -1467890.000000 0 0 1
-25.531704 23.511263 3.550689 34.889178 -0.744224 1.468849 0.033002 -0.028249 -950354.000000 0 0 1
-25.295014 24.193663 2.361589 35.082020 -0.763147 1.503429 0.022802 -0.010931 10712.800000 0 0 1
-23.869244 24.784763 2.399889 34.493256 -0.804213 1.501164 0.003048 0.000731 -10928.600000 0 0 1
-23.518144 25.449363 1.191589 34.672655 -0.824817 1.536423 -0.004863 -0.004386 -219414.000000 0 0 1
-22.319444 26.189463 1.262889 34.433129 -0.865009 1.534112 0.004515 -0.004365 -493825.000000 0 0 1
-21.882444 26.866463 -0.091411 34.650491 -0.887283 1.573434 0.019642 -0.000213 165383.000000 0 0 1
-21.509044 25.973363 -1.175211 33.743676 -0.879143 1.605631 0.006644 0.001228 678966.000000 0 0 1
-20.273744 25.262663 -1.074711 32.409594 -0.894522 1.603963 0.028073 -0.006638 137794.000000 0 0 1
-20.120044 24.225763 -2.197811 31.567928 -0.877719 1.640474 0.040003 -0.014803 -565227.000000 0 0 1
-21.112944 23.271263 -2.273111 31.503573 -0.833988 1.643013 0.028967 -0.013906 -520830.000000 0 0 1
-20.754444 22.325463 -3.306711 30.661173 -0.821850 1.678853 0.039712 -0.016888 154260.000000 0 0 1
-21.931544 21.643563 -4.064411 31.079830 -0.778789 1.701945 0.050961 -0.012011 284367.000000 0 0 1
-22.471144 22.469763 -5.110111 32.186267 -0.785367 1.730238 0.032675 -0.001785 -305302.000000 0 0 1
-23.708144 22.068563 -5.615511 32.872960 -0.749597 1.742463 0.040037 -0.000260 -107130.000000 0 0 1
-24.067144 22.640363 -7.051711 33.786685 -0.754861 1.781055 0.040465 0.008519 102979.000000 0 0 1
-23.307844 22.088563 -8.102311 33.118086 -0.758546 1.817954 0.034912 0.002531 34543.400000 0 0 1
-23.158944 23.043363 -9.101311 33.914114 -0.782897 1.842490 0.042342 -0.000821 -292967.000000 0 0 1
-22.384244 22.368763 -10.252511 33.264544 -0.785052 1.884109 0.045249 -0.004737 -20924.700000 0 0 1
-23.154844 21.680663 -11.230511 33.649997 -0.752530 1.911070 0.034131 -0.002359 40447.200000 0 0 1
-22.324244 21.224263 -12.259211 33.153121 -0.760145 1.949564 0.039772 -0.003968 108445.000000 0 0 1
-23.078944 20.733363 -13.540411 33.850446 -0.731912 1.982321 0.036319 -0.010624 605819.000000 0 0 1
-24.021744 19.653663 -13.399911 33.806334 -0.685717 1.978359 0.033646 0.003356 -292739.000000 0 0 1
-25.130444 19.899863 -14.167611 35.046611 -0.669759 1.986956 0.039247 -0.007636 -1176370.000000 0 0 1
-25.919214 18.644263 -14.461111 35.050505 -0.623576 1.996080 0.072076 -0.012558 -292986.000000 0 0 1
-25.397714 17.773563 -15.409511 34.617863 -0.610598 2.032118 0.063901 -0.014656 173935.000000 0 0 1
-26.327334 16.705263 -15.555411 34.844872 -0.565417 2.033556 0.082237 -0.021945 -65140.500000 0 0 1
-26.040824 15.814363 -16.797511 34.790443 -0.545763 2.074668 0.087229 -0.020843 372394.000000 0 0 1
-24.915044 14.939363 -16.663411 33.490495 -0.540134 2.091576 0.093568 -0.019178 582806.000000 0 0 1
-24.630244 14.338963 -17.935811 33.674145 -0.527205 2.132500 0.090537 -0.018953 403559.000000 0 0 1
-23.640344 13.115863 -17.802911 32.370285 -0.506527 2.153133 0.091931 -0.017612 1355950.000000 0 0 1
-22.302244 13.424163 -17.374611 31.296570 -0.541830 2.159352 0.102025 -0.034312 1106980.000000 0 0 1
-21.454344 12.284963 -17.240211 30.140240 -0.520036 2.179738 0.110548 -0.018148 -17311.800000 0 0 1
-20.408344 12.444963 -16.152911 28.849508 -0.547593 2.165064 0.110697 -0.028991 55904.200000 0 0 1
-19.356044 13.388663 -16.377411 28.672850 -0.605137 2.178741 0.082253 -0.017589 738563.000000 0 0 1
-18.376744 13.246863 -15.339511 27.358448 -0.624582 2.166011 0.068557 -0.012850 24345.700000 0 0 1
-17.353644 14.384763 -15.337711 27.263817 -0.692127 2.168283 0.042643 -0.009068 -172498.000000 0 0 1
-16.740944 14.419763 -16.614911 27.644964 -0.711045 2.215561 0.068509 -0.017772 -457009.000000 0 0 1
-15.870944 15.455463 -16.853411 27.835151 -0.772136 2.221155 0.065088 -0.013879 -503879.000000 0 0 1
-15.394044 15.392863 -18.317111 28.450542 -0.785360 2.270280 0.084932 -0.018080 -858375.000000 0 0 1
-14.523544 14.361563 -18.476411 27.542069 -0.779790 2.306142 0.085212 -0.015136 -1039450.000000 0 0 1
-13.932244 14.390363 -19.728111 28.113846 -0.801572 2.348608 0.114504 -0.019842 608605.000000 0 0 1
-12.604844 13.552663 -19.835611 27.129471 -0.821617 2.390797 0.098667 -0.015695 470352.000000 0 0 1
-12.930744 12.241263 -20.238311 26.956296 -0.758014 2.420042 0.114984 -0.018421 -564153.000000 0 0 1
-11.958144 11.273163 -20.017211 25.899230 -0.755921 2.454177 0.103338 -0.011574 -611178.000000 0 0 1
-12.123244 9.968063 -20.798111 26.055647 -0.688148 2.495129 0.115960 -0.026780 -264617.000000 0 0 1
-11.807644 10.143063 -22.142711 27.066618 -0.709710 2.528864 0.111489 -0.036885 -132302.000000 0 0 1
-11.866244 8.906363 -22.860711 27.253314 -0.643861 2.565914 0.108638 -0.024887 19231.700000 0 0 1
-11.473544 9.002563 -24.354111 28.386812 -0.665303 2.602038 0.088796 -0.029613 -900131.000000 0 0 1
-10.145844 8.744363 -24.658811 28.061700 -0.711343 2.644003 0.086988 -0.022577 -841982.000000 0 0 1
-9.971944 8.414763 -26.042791 29.128592 -0.700909 2.677131 0.060792 -0.032536 -72383.400000 0 0 1
-10.016144 9.452063 -27.129181 30.424613 -0.756432 2.671851 0.096788 -0.037073 -179790.000000 0 0 1
-8.782044 10.106963 -27.318291 30.423084 -0.855426 2.685877 0.081958 -0.045166 112492.000000 0 0 1
-8.530744 11.188163 -26.459321 29.967386 -0.919356 2.652878 0.062984 -0.030023 -473127.000000 0 0 1
-7.039344 11.523763 -26.347801 29.606690 -1.022434 2.667982 0.062877 -0.031066 14224.800000 0 0 1
-6.431044 12.063163 -27.545071 30.750759 -1.081010 2.680918 0.056328 -0.043357 -477656.000000 0 0 1
-5.072344 12.286863 -27.435291 30.485913 -1.179282 2.690413 0.086156 -0.045759 -1154840.000000 0 0 1
-4.461244 12.783363 -28.732951 31.763179 -1.235023 2.701235 0.088893 -0.040198 475681.000000 0 0 1
-3.033044 12.825663 -28.676891 31.560435 -1.338580 2.710798 0.111370 -0.044792 757769.000000 0 0 1
-2.416644 12.882963 -29.952421 32.694930 -1.385367 2.729085 0.111558 -0.043281 429220.000000 0 0 1
-0.895144 12.594063 -29.996341 32.545233 -1.499839 2.743189 0.123574 -0.052566 19376.100000 0 0 1
-0.684744 11.226163 -29.800061 31.851833 -1.509876 2.780705 0.094573 -0.036246 579634.000000 0 0 1
0.710956 10.912163 -29.736481 31.683419 1.505736 2.789202 0.094862 -0.043132 996279.000000 0 0 1
1.396156 10.584663 -31.117021 32.897619 1.439650 2.811075 0.100887 -0.046341 -201875.000000 0 0 1
1.480756 11.576263 -32.117661 34.172308 1.443574 2.793057 0.109902 -0.049547 129285.000000 0 0 1
1.648556 10.965563 -33.378851 35.172560 1.421574 2.820853 0.106827 -0.040458 -139693.000000 0 0 1
2.001856 11.837063 33.540623 35.624386 1.403264 0.343721 0.114348 -0.041498 225697.000000 0 0 1
3.327056 12.356263 33.678635 36.027725 1.307774 0.363107 0.112730 -0.046182 182700.000000 0 0 1
3.573956 13.338563 32.659789 35.459163 1.309004 0.400019 0.114882 -0.041876 -752508.000000 0 0 1
5.051056 13.585863 32.448437 35.538569 1.214845 0.420099 0.109994 -0.036987 -869767.000000 0 0 1
5.666856 12.430463 31.918760 34.719402 1.143060 0.404409 0.107592 -0.035003 12408.600000 0 0 1
7.050956 12.547063 31.635530 34.755597 1.058817 0.426961 0.100365 -0.025068 288391.000000 0 0 1
7.585956 11.184163 31.123990 33.931327 0.974799 0.409640 0.082497 -0.018451 -8453.860000 0 0 1
7.186556 10.809763 29.814300 32.517534 0.984073 0.410633 0.078828 -0.017010 204841.000000 0 0 1
8.046656 9.799463 29.300590 31.926521 0.883302 0.408417 0.079788 -0.013485 5478.700000 0 0 1
7.400356 9.043763 28.193190 30.519025 0.885006 0.392931 0.067655 -0.010190 307195.000000 0 0 1
6.415156 8.092163 28.632430 30.437697 0.900485 0.346139 0.067252 -0.016483 298791.000000 0 0 1
5.968656 7.324463 27.536550 29.112441 0.887040 0.330535 0.088266 -0.021723 486860.000000 0 0 1
4.997956 6.128263 27.959280 29.056092 0.886640 0.275637 0.100504 -0.026097 590262.000000 0 0 1
5.651556 5.010063 28.559190 29.540957 0.725302 0.258534 0.087990 -0.020774 -163116.000000 0 0 1
4.849356 4.421663 29.520370 30.241025 0.739299 0.218749 0.094825 -0.023043 -990734.000000 0 0 1
5.508056 3.190563 30.188880 30.852664 0.525025 0.207809 0.091405 -0.016429 97520.800000 0 0 1
5.761256 2.138163 29.291000 29.928690 0.355372 0.206800 0.085850 -0.011516 249621.000000 0 0 1
7.132956 1.997963 28.946250 29.879028 0.273104 0.250529 0.092013 -0.006247 211538.000000 0 0 1
7.466256 0.773463 28.068800 29.055133 0.103226 0.261307 0.091336 -0.015693 -41841.600000 0 0 1
7.480256 -0.435137 28.783980 29.743253 -0.058106 0.254663 0.069311 -0.003778 -5175.460000 0 0 1
7.669756 -1.565237 27.944320 29.019996 -0.201315 0.273123 0.076503 -0.001569 165656.000000 0 0 1
8.503756 -2.702537 28.664290 30.020978 -0.307711 0.301781 0.070875 0.002519 -1482230.000000 0 0 1
9.818256 -2.400037 28.700610 30.428331 -0.239745 0.338602 0.061040 -0.003315 -2236080.000000 0 0 1
10.529756 -3.563437 28.336540 30.439010 -0.326318 0.373849 0.058323 -0.004905 1120970.000000 0 0 1
12.115656 -3.417637 28.443220 31.104439 -0.274940 0.416668 0.043641 -0.009183 1641430.000000 0 0 1
12.917756 -4.480837 28.004240 31.163822 -0.333887 0.454197 0.046567 -0.017197 -3921.360000 0 0 1
13.043656 -5.536237 28.932900 32.216449 -0.401395 0.455415 0.056091 -0.017976 -578205.000000 0 0 1
12.228156 -6.826737 28.681040 31.917616 -0.509178 0.454237 0.062100 -0.014103 244180.000000 0 0 1
10.822156 -6.631837 28.685040 31.367688 -0.549779 0.416582 0.067800 -0.009094 107934.000000 0 0 1
10.187556 -7.918337 28.520050 31.303029 -0.660718 0.424862 0.071303 -0.014274 734530.000000 0 0 1
8.638056 -7.858837 28.396090 30.703669 -0.738199 0.390172 0.092494 -0.010914 539372.000000 0 0 1
8.000156 -7.496037 29.596320 31.561610 -0.752878 0.354755 0.104029 -0.008587 1596100.000000 0 0 1
6.538056 -7.540037 29.572800 31.211358 -0.856451 0.325468 0.094788 -0.019803 1849080.000000 0 0 1
5.855756 -6.888437 30.794180 32.093955 -0.866253 0.285571 0.078193 -0.013632 55113.600000 0 0 1
6.160656 -7.577237 31.996220 33.453345 -0.888150 0.296233 0.081668 -0.008457 171112.000000 0 0 1
5.459256 -6.990637 33.077260 34.245841 -0.907787 0.261989 0.074542 -0.005425 131017.000000 0 0 1
5.991456 -5.625137 33.744073 34.730422 -0.753874 0.238896 0.082644 -0.006298 68710.200000 0 0 1
6.021956 -4.610137 32.773576 33.639629 -0.653382 0.227404 0.089998 -0.001364 -61864.900000 0 0 1
6.573956 -3.403737 33.260459 34.074337 -0.477755 0.219003 0.076560 0.002324 -42261.500000 0 0 1
6.490056 -2.313337 32.201882 32.930739 -0.342403 0.210785 0.085680 -0.000770 -71587.500000 0 0 1
5.174456 -1.850437 32.039820 32.507679 -0.343438 0.169864 0.094536 -0.003334 -314545.000000 0 0 1
5.119856 -0.681137 31.173490 31.598471 -0.132262 0.164193 0.090343 -0.008370 703966.000000 0 0 1
3.646256 -0.172037 30.952590 31.167092 -0.047147 0.117390 0.084271 -0.015373 955964.000000 0 0 1
3.011556 0.099563 32.197806 32.338492 0.033048 0.093312 0.074678 -0.015807 227258.000000 0 0 1
1.647556 0.475363 32.018510 32.064394 0.280897 0.053504 0.070645 -0.021519 671182.000000 0 0 1
0.845456 0.624863 33.328076 33.344653 0.636478 0.031534 0.066104 -0.023014 30905.200000 0 0 1
1.144556 1.841463 33.919392 33.988618 1.014684 0.063835 0.056730 -0.014205 -276410.000000 0 0 1
0.475456 2.005263 -33.017711 33.081965 1.337991 3.079257 0.047007 -0.018032 -532511.000000 0 0 1
1.016056 3.279063 -32.238801 32.421057 1.270317 3.035510 0.043651 -0.018880 821513.000000 0 0 1
2.228956 2.904763 -31.556651 31.768351 0.916286 3.026083 0.027350 -0.004359 477275.000000 0 0 1
2.802056 3.993263 -30.813931 31.197693 0.958933 2.984581 0.033034 -0.010576 128706.000000 0 0 1
4.047256 3.555263 -29.996761 30.476644 0.720774 2.963899 0.044247 -0.008412 207201.000000 0 0 1
3.707156 2.673763 -28.927121 29.286010 0.624842 2.984878 0.045606 -0.018832 388326.000000 0 0 1
4.873056 2.373163 -28.160581 28.677463 0.453191 2.951443 0.062929 -0.020393 188685.000000 0 0 1
4.592956 1.813563 -26.764161 27.215888 0.376065 2.959142 0.062562 -0.029719 -123237.000000 0 0 1
4.278456 0.455163 -26.807781 27.150865 0.105986 2.982452 0.070760 -0.023123 272848.000000 0 0 1
3.626556 -0.018537 -25.629881 25.885190 -0.005111 3.001027 0.079169 -0.027131 -118409.000000 0 0 1
3.943256 -1.508137 -25.368871 25.717764 -0.365295 2.976687 0.084712 -0.026838 1052290.000000 0 0 1
5.306256 -1.599537 -24.893911 25.503366 -0.292781 2.922536 0.069135 -0.026723 812772.000000 0 0 1
5.730456 -2.910637 -25.009971 25.822637 -0.469967 2.890047 0.066507 -0.025258 838976.000000 0 0 1
7.171256 -3.182437 -24.384611 25.615700 -0.417667 2.830305 0.069108 -0.030809 1002800.000000 0 0 1
8.244856 -2.570537 -25.033651 26.481484 -0.302224 2.809391 0.051177 -0.015738 -1013090.000000 0 0 1
9.383856 -2.987737 -24.326811 26.244563 -0.308243 2.756937 0.035283 -0.018013 -170599.000000 0 0 1
-30.382664 -4.234437 18.002690 35.568716 0.138478 1.040095 0.164012 -0.034570 575463.000000 0 0 1
-31.798044 -4.271237 17.824690 36.702570 0.133525 1.063687 0.136561 -0.031205 30384.600000 0 0 1
-32.330354 -4.860337 18.964490 37.795853 0.149216 1.045163 0.115160 -0.027554 -377897.000000 0 0 1
-33.796494 -4.529937 19.240490 39.152519 0.133242 1.057072 0.111874 -0.018482 309653.000000 0 0 1
-34.726351 -5.043037 18.231390 39.544092 0.144214 1.091630 0.101829 -0.020938 -240989.000000 0 0 1
-36.020303 -4.761337 18.645790 40.838683 0.131423 1.096658 0.071127 -0.012467 -946863.000000 0 0 1
36.608708 -5.071237 17.518990 40.900244 -0.137649 1.128147 0.048467 -0.016032 926452.000000 0 0 1
35.239388 -4.910837 17.959890 39.855845 -0.138465 1.103335 0.032969 -0.006590 952295.000000 0 0 1
34.321748 -5.061137 16.865890 38.575325 -0.146406 1.118291 0.027375 -0.007134 931841.000000 0 0 1
32.883448 -5.351737 17.396690 37.584665 -0.161334 1.089570 0.030153 -0.003862 398747.000000 0 0 1
32.115288 -4.275037 17.952290 37.039875 -0.132337 1.064805 0.054274 -0.008042 562971.000000 0 0 1
30.836178 -4.745737 18.353090 36.197069 -0.152703 1.039058 0.072334 -0.017421 243417.000000 0 0 1
30.434608 -4.230937 19.749590 36.526873 -0.138132 0.999543 0.095055 -0.017701 104853.000000 0 0 1
29.536188 -3.129637 19.820090 35.707380 -0.105566 0.982349 0.096675 -0.013491 505830.000000 0 0 1
30.158598 -1.859037 19.466190 35.943422 -0.061564 0.998482 0.076634 -0.005517 289522.000000 0 0 1
29.155278 -0.716037 19.685490 35.186097 -0.024555 0.977053 0.070286 0.000507 187063.000000 0 0 1
29.577028 0.483563 19.074790 35.197756 0.016348 0.998062 0.063541 0.004826 -467364.000000 0 0 1
28.696178 1.527763 19.312590 34.623414 0.053189 0.979076 0.059881 0.004549 -251939.000000 0 0 1
29.082898 2.839763 18.588290 34.632408 0.097335 1.004238 0.056548 0.011718 17874.500000 0 0 1
29.042438 2.796863 17.142190 33.839922 0.096007 1.039598 0.045023 0.012159 92157.500000 0 0 1
28.903078 4.052163 16.598590 33.575603 0.139290 1.053693 0.045976 0.011019 45553.000000 0 0 1
28.511518 3.905163 15.090790 32.494444 0.136121 1.087826 0.049767 0.006678 -49827.600000 0 0 1
28.120618 5.143163 14.470590 32.040899 0.180897 1.102206 0.056901 -0.003273 207506.000000 0 0 1
27.566918 4.907163 13.216690 30.962818 0.176164 1.129782 0.062209 -0.002357 -256839.000000 0 0 1
26.975318 6.234463 12.654790 30.441419 0.227129 1.142073 0.081256 -0.009182 -156599.000000 0 0 1
25.986718 6.687263 13.548390 30.059738 0.251869 1.103230 0.064366 -0.005848 -100113.000000 0 0 1
25.455418 7.943063 13.106290 29.712714 0.302464 1.113972 0.098545 -0.026772 -726593.000000 0 0 1
24.261718 8.314263 13.952390 29.196354 0.330148 1.072555 0.100663 -0.023927 587062.000000 0 0 1
22.959718 7.721763 13.710090 27.834166 0.324434 1.055764 0.098687 -0.013990 1667220.000000 0 0 1
22.812118 6.438363 14.251290 27.657630 0.275079 1.029468 0.103943 -0.008938 -272544.000000 0 0 1
21.453118 5.726263 13.966190 26.231294 0.260839 1.009334 0.115110 -0.014054 129653.000000 0 0 1
21.263018 5.569163 12.563090 25.317242 0.256164 1.051549 0.125660 -0.025405 513293.000000 0 0 1
20.067418 4.850763 12.357190 24.060991 0.237174 1.031447 0.107702 -0.022115 -165993.000000 0 1 0
19.700518 4.790463 10.804690 22.973904 0.238535 1.081163 0.108361 -0.023422 -531332.000000 0 1 0
20.704018 4.190163 10.060290 23.397078 0.199687 1.126325 0.115511 -0.029032 14625.600000 0 1 0
20.267518 3.905563 8.765690 22.424607 0.190367 1.169191 0.118192 -0.029611 -571212.000000 0 1 0
21.279318 3.140463 7.963390 22.936596 0.146525 1.216222 0.120815 -0.029807 -1357020.000000 0 1 0
21.514418 1.840163 8.456490 23.189838 0.085324 1.197525 0.115292 -0.029708 482168.000000 0 1 0
22.262318 0.988963 7.603990 23.545902 0.044394 1.241959 0.101735 -0.020734 -904960.000000 0 1 0
23.758718 1.238263 7.372690 24.907158 0.052071 1.270287 0.110468 -0.029233 -218079.000000 0 1 0
24.685118 0.921663 8.419690 26.097810 0.037319 1.242300 0.120231 -0.010157 827008.000000 0 0 1
24.617118 1.872463 9.484790 26.447492 0.075917 1.203999 0.121128 -0.012939 -776096.000000 0 0 1
25.231318 1.248763 10.740390 27.450588 0.049452 1.168793 0.097509 -0.007830 -93183.600000 0 0 1
26.636618 1.192163 10.688690 28.725925 0.044727 1.189534 0.094366 -0.015972 -81542.300000 0 0 1
27.167218 0.314463 11.677390 29.572251 0.011575 1.164863 0.085549 -0.015293 271810.000000 0 0 1
28.714558 0.310863 11.720490 31.016001 0.010826 1.183285 0.102733 -0.016013 316187.000000 0 0 1
29.317698 1.492163 12.227290 31.800323 0.050852 1.176128 0.081172 -0.011094 35934.800000 0 0 1
30.719058 1.371163 12.307890 33.121364 0.044606 1.190065 0.093065 -0.014291 62224.000000 0 0 1
31.505398 2.684663 12.637690 34.051560 0.085007 1.190566 0.072696 -0.008089 -98075.800000 0 0 1
31.431478 3.655863 11.602290 33.703357 0.115792 1.219359 0.094379 -0.025194 388607.000000 0 0 1
32.047988 4.887063 12.035890 34.580624 0.151326 1.215303 0.094431 -0.024760 487124.000000 0 0 1
33.556858 5.080063 11.744090 35.913694 0.150246 1.237660 0.079548 -0.019326 276038.000000 0 0 1
34.412418 4.172963 12.429390 36.825505 0.120674 1.226514 0.066599 -0.023220 814091.000000 0 0 1
35.785218 4.374663 12.058090 38.014695 0.121644 1.248026 0.093302 -0.021028 545103.000000 0 0 1
36.689998 3.496163 12.942090 39.062473 0.095002 1.233096 0.159434 -0.022158 -424516.000000 0 0 1
-36.657424 2.108663 12.522790 38.794760 -0.057460 1.242114 0.151889 -0.027382 1317750.000000 0 0 1
35.866248 1.145963 12.640990 38.045967 0.031940 1.232102 0.098078 -0.005142 755428.000000 0 0 1
35.473548 0.692063 14.095390 38.177632 0.019507 1.192642 0.089484 -0.012801 57123.600000 0 0 1
36.394588 -0.202537 14.736890 39.265544 -0.005565 1.186061 0.095618 -0.017438 343497.000000 0 0 1
36.027228 -0.414337 16.052290 39.443743 -0.011500 1.151665 0.098686 -0.026767 -514095.000000 0 0 1
-36.603044 -1.201437 16.907790 40.337323 0.032812 1.138276 0.108611 -0.030096 -165083.000000 0 0 1
-35.435568 -0.459837 17.186790 39.386249 0.012976 1.119241 0.151616 -0.035123 -33390.200000 0 0 1
-34.493262 -1.051137 18.054390 38.946771 0.030464 1.088781 0.132556 -0.029824 174942.000000 0 0 1
-34.692813 -0.713237 19.541990 39.824481 0.020556 1.057900 0.152046 -0.036498 -521559.000000 0 0 1
-35.285814 -1.761337 20.245790 40.719565 0.049875 1.050427 0.115593 -0.028583 -38605.500000 0 0 1
-35.514553 -1.483937 21.601590 41.594642 0.041760 1.024723 0.109545 -0.021549 219866.000000 0 0 1
-36.003077 -2.769637 22.354690 42.469101 0.076777 1.016464 0.082365 -0.018764 254874.000000 0 0 1
-34.953769 -3.720737 22.285390 41.620289 0.106048 1.005761 0.099050 -0.027674 268426.000000 0 0 1
-35.205584 -4.970937 22.960390 42.324022 0.140270 0.997397 0.092817 -0.025268 137343.000000 0 0 1
-35.393074 -4.961237 24.534580 43.350077 0.139268 0.969194 0.090226 -0.032386 -458621.000000 0 0 1
-34.183838 -4.612337 25.110170 42.665314 0.134117 0.941547 0.098278 -0.038421 -1022620.000000 0 0 1
-34.176498 -4.798337 26.554580 43.545410 0.139487 0.914971 0.109154 -0.045373 1112540.000000 0 0 1
-32.818434 -4.206537 27.159910 42.806603 0.127481 0.883461 0.096492 -0.038755 1267950.000000 0 0 1
-32.544174 -2.846337 26.993820 42.377956 0.087239 0.880225 0.096833 -0.025506 -27138.000000 0 0 1
-32.068694 -2.535437 25.672120 41.156862 0.078899 0.897249 0.099474 -0.026288 -118059.000000 0 0 1
-31.756104 -1.012237 25.397870 40.675872 0.031865 0.896438 0.102053 -0.021427 599859.000000 0 0 1
-33.019054 -0.375237 25.285050 41.590052 0.011364 0.917309 0.124783 -0.037430 434173.000000 0 0 1
-32.861674 0.946463 24.845450 41.207788 -0.028793 0.923626 0.102495 -0.020633 218360.000000 0 0 1
-34.238635 1.680263 24.728930 42.268515 -0.049036 0.945862 0.127254 -0.021008 419944.000000 0 0 1
-34.995927 1.039663 23.720710 42.290282 -0.029699 0.975321 0.128402 -0.008066 -330488.000000 0 0 1
-36.197244 1.696863 23.361540 43.114746 -0.046844 0.998165 0.114444 -0.005167 270517.000000 0 0 1
-36.139234 2.927063 22.418890 42.628846 -0.080818 1.017013 0.114012 -0.002598 -330856.000000 0 0 1
-35.896569 2.628963 21.064590 41.703621 -0.073107 1.041296 0.136944 -0.030659 219625.000000 0 0 1
36.754888 3.158563 20.167290 42.043048 0.085725 1.070504 0.109992 -0.020121 216244.000000 0 0 1
-36.622084 2.717463 18.713090 41.215790 -0.074067 1.099516 0.126392 -0.021399 -243017.000000 0 0 1
-35.436318 3.221263 18.170290 39.953330 -0.090654 1.098662 0.179019 -0.035421 -301238.000000 0 0 1
-35.263603 2.661663 16.881190 39.186486 -0.075336 1.125427 0.209602 -0.037076 204380.000000 0 0 1
-34.048234 3.223563 16.104890 37.802659 -0.094395 1.130701 0.200857 -0.040672 308684.000000 0 0 1
-34.400305 4.546663 15.748290 38.105928 -0.131408 1.144747 0.198963 -0.047794 3236.370000 0 0 1
-33.475414 5.079963 14.862190 36.976939 -0.150603 1.157171 0.215681 -0.043756 -415628.000000 0 0 1
-33.849274 6.491263 14.334090 37.327951 -0.189469 1.176667 0.226163 -0.049883 184699.000000 0 0 1
-32.809224 7.111863 13.610290 36.225181 -0.213462 1.185630 0.232835 -0.046088 544489.000000 0 0 1
-33.310544 8.383563 13.240590 36.812901 -0.246558 1.202879 0.183862 -0.040480 782509.000000 0 0 1
-32.285534 9.020663 12.244590 35.688346 -0.272455 1.220584 0.190667 -0.036560 648267.000000 0 0 1
-32.770424 10.313063 11.913290 36.361881 -0.304894 1.237001 0.156312 -0.028575 368615.000000 0 0 1
-31.935164 10.949063 10.955590 35.493120 -0.330294 1.257004 0.139388 -0.029775 -54327.100000 0 0 1
-32.312174 12.441363 10.659490 36.228287 -0.367541 1.272145 0.112799 -0.029419 -570633.000000 0 0 1
-31.366264 13.151963 9.929790 35.431869 -0.397035 1.286742 0.107545 -0.028546 -260744.000000 0 0 1
-31.585654 14.515863 9.882890 36.139110 -0.430785 1.293800 0.100809 -0.028276 356657.000000 0 0 1
-30.490054 15.276363 9.046490 35.282426 -0.464469 1.311498 0.100054 -0.029256 496002.000000 0 0 1
-29.197554 15.366163 9.615290 34.366697 -0.484452 1.287226 0.112559 -0.022768 8536.330000 0 0 1
-28.332354 16.048063 8.757790 33.718859 -0.515364 1.308054 0.102431 -0.029232 -694667.000000 0 0 1
-26.873814 15.982263 9.231190 32.601372 -0.536524 1.283716 0.116125 -0.023987 -342665.000000 0 0 1
-26.443674 16.658963 10.428290 32.947506 -0.562172 1.248746 0.113833 -0.025618 252467.000000 0 0 1
-26.424764 18.049263 10.294790 33.615870 -0.599255 1.259547 0.097130 -0.026331 -466264.000000 0 0 1
-26.320794 18.814763 11.632190 34.381497 -0.620607 1.225658 0.102551 -0.014075 269523.000000 0 0 1
-25.095924 18.750363 12.365990 33.679358 -0.641673 1.194834 0.091323 -0.011760 182210.000000 0 0 1
-25.111194 19.203263 13.710590 34.457475 -0.652861 1.161571 0.104578 -0.020076 105164.000000 0 0 1
-25.859094 18.376963 14.801490 35.006993 -0.617843 1.134247 0.086283 -0.020374 -246255.000000 0 0 1
-25.105434 17.274863 15.113590 34.016529 -0.602690 1.110402 0.096121 -0.023903 -337750.000000 0 0 1
-25.545224 16.523663 16.218790 34.476645 -0.574150 1.081020 0.089527 -0.016426 -1126150.000000 0 0 1
-24.585744 15.443263 16.607990 33.448146 -0.560853 1.051200 0.097111 -0.019112 513847.000000 0 0 1
-23.331444 15.916763 17.159190 33.047502 -0.598681 1.024849 0.083767 -0.023544 1483780.000000 0 0 1
-22.285844 14.938163 17.343490 31.946896 -0.590513 0.996928 0.074478 -0.026731 745394.000000 0 0 1
-22.539644 13.797863 18.457090 32.234775 -0.549313 0.961143 0.077100 -0.023437 -371416.000000 0 0 1
-22.593544 14.377063 19.762890 33.282728 -0.566709 0.935038 0.074813 -0.026119 163987.000000 0 0 1
-22.741444 13.320763 20.710590 33.519315 -0.529874 0.904765 0.074005 -0.026031 -692931.000000 0 0 1
-22.313344 13.625663 22.157090 34.270696 -0.548214 0.867767 0.066071 -0.018099 -414997.000000 0 0 1
-20.953644 13.802063 22.411890 33.642903 -0.582464 0.841735 0.078496 -0.023841 -474167.000000 0 0 1
-20.516644 15.128863 22.076890 33.722459 -0.635385 0.857058 0.074709 -0.017884 -890879.000000 0 0 1
-19.051344 15.362863 22.502790 33.246756 -0.678627 0.827333 0.070971 -0.028908 -74819.300000 0 0 1
-18.176344 14.641263 21.673990 31.851340 -0.678093 0.822388 0.062541 -0.025225 -220468.000000 0 0 1
-17.603344 15.530563 20.682890 31.286707 -0.722922 0.848544 0.057059 -0.028784 -1490680.000000 0 0 1
-16.501544 14.890463 19.840790 29.794022 -0.734122 0.842054 0.055233 -0.017020 594733.000000 0 0 1
-15.275844 14.520063 20.478990 29.386607 -0.760038 0.799756 0.060210 -0.016409 852560.000000 0 0 1
-14.556444 15.578663 21.175390 30.049658 -0.819306 0.788824 0.050767 -0.021858 -809463.000000 0 0 1
-13.394044 15.072163 22.036790 29.869560 -0.844281 0.741039 0.039857 -0.023837 386461.000000 0 0 1
-12.312844 14.475363 21.282690 28.532352 -0.865950 0.728890 0.029742 -0.011492 381184.000000 0 0 1
-11.214444 14.264963 22.163190 28.643671 -0.904556 0.686049 0.018310 -0.005706 -213775.000000 0 0 1
-10.069944 13.585063 21.430390 27.298705 -0.932918 0.668047 0.021503 -0.005891 -980906.000000 0 0 1
-9.349944 12.681763 22.247990 27.262091 -0.935489 0.616205 0.027161 -0.006715 -747654.000000 0 0 1
-8.296544 11.992363 21.745490 26.182355 -0.965582 0.590720 0.031315 -0.007388 686425.000000 0 0 1
-6.913044 12.820863 21.731690 26.161633 -1.076281 0.590486 0.031265 -0.004276 506624.000000 0 0 1
-6.853544 13.918163 20.782690 25.934659 -1.113233 0.641251 0.021491 0.001899 48911.200000 0 0 1
-6.026844 14.985663 21.295390 26.728011 -1.188417 0.648908 0.018224 0.009142 -196818.000000 0 0 1
-6.667844 15.947663 22.359190 28.261661 -1.174778 0.658111 0.021586 -0.000211 82258.400000 0 0 1
-7.804744 16.570563 21.788390 28.464566 -1.130616 0.699046 0.014669 -0.001248 -52741.800000 0 0 1
-7.452944 17.688063 20.989590 28.442518 -1.172018 0.740746 0.017363 0.005068 -1429330.000000 0 0 1
-8.455944 17.970463 19.849590 28.079294 -1.130988 0.785674 0.017691 0.007021 1091130.000000 0 0 1
-9.713244 18.615663 20.108490 29.073035 -1.089878 0.807019 0.019273 -0.000719 540645.000000 0 0 1
-10.645244 17.810463 20.806590 29.384485 -1.032073 0.784020 0.013686 -0.007054 144823.000000 0 0 1
-12.016444 18.550363 21.034590 30.511717 -0.995988 0.810144 0.015386 -0.012432 1036350.000000 0 0 1
-12.904544 18.447963 19.909590 30.054057 -0.960399 0.846699 0.013216 -0.011397 -203363.000000 0 0 1
-14.095644 19.137263 20.123190 31.142652 -0.935956 0.868252 0.017658 -0.015360 -372754.000000 0 0 1
-14.947644 19.429363 18.885690 30.945136 -0.915037 0.914362 0.017735 -0.010840 -181065.000000 0 0 1
-15.642844 18.293263 18.439890 30.321140 -0.863340 0.917065 0.040052 -0.012620 -209948.000000 0 0 1
-16.295544 18.530563 17.222590 30.092260 -0.849487 0.961456 0.054752 -0.012218 -1097140.000000 0 0 1
-17.054744 17.277363 16.825090 29.537352 -0.791882 0.964752 0.059916 -0.018330 -91988.100000 0 0 1
-18.055644 16.872463 17.707690 30.401456 -0.751536 0.949042 0.071347 -0.022958 552832.000000 0 0 1
-19.289544 17.624963 17.751090 31.588400 -0.740336 0.974055 0.076058 -0.028581 487537.000000 0 0 1
34.555618 -9.388137 12.310689 37.865299 -0.265279 1.239660 0.042996 -0.020213 -761175.000000 0 0 1
33.260448 -9.800137 12.019489 36.698340 -0.286540 1.237117 0.041394 -0.010961 -660609.000000 0 0 1
33.001658 -11.045037 12.558289 36.997471 -0.322963 1.224479 0.037927 -0.009155 -517765.000000 0 0 1
31.537088 -11.481737 12.484589 35.808981 -0.349155 1.214672 0.050107 -0.006869 -470440.000000 0 0 1
30.662598 -10.623337 13.215489 35.038541 -0.333517 1.184058 0.059452 -0.008587 -275629.000000 0 0 1
29.323508 -10.976437 13.299489 34.018035 -0.358176 1.169128 0.062486 -0.015726 -445297.000000 0 0 1
29.023608 -12.100037 14.334989 34.558250 -0.394993 1.143066 0.048936 -0.004190 -1026680.000000 0 0 1
29.203478 -11.465737 15.600089 35.038108 -0.374124 1.109363 0.062567 -0.014150 364240.000000 0 0 1
28.466518 -12.050937 16.705489 35.137460 -0.400461 1.075341 0.068596 -0.014538 1617040.000000 0 0 1
26.914218 -11.674937 16.651189 33.733386 -0.409287 1.054559 0.079086 -0.035632 1149120.000000 0 0 1
26.659818 -10.299137 16.732189 33.117733 -0.368655 1.041144 0.072787 -0.039672 -325921.000000 0 0 1
25.877318 -9.936237 15.619289 31.817080 -0.366616 1.057664 0.100927 -0.047926 -10195.300000 0 0 1
25.457418 -8.434137 15.614889 31.032878 -0.319923 1.043530 0.129222 -0.043265 363513.000000 0 0 1
26.605618 -7.607837 15.610489 31.771456 -0.278516 1.057172 0.108274 -0.032922 146564.000000 0 0 1
26.282918 -6.313637 16.076189 31.449923 -0.235751 1.034253 0.105661 -0.027360 120881.000000 0 0 1
27.575918 -5.488737 16.004589 32.352810 -0.196473 1.053319 0.114836 -0.025845 -94600.900000 0 0 1
27.930518 -5.180437 14.691289 31.981006 -0.183392 1.093504 0.134994 -0.022660 23302.400000 0 0 1
29.057078 -4.332037 14.653089 32.829763 -0.147997 1.108130 0.113926 -0.015509 192430.000000 0 0 1
29.525468 -3.777837 13.267089 32.588970 -0.127260 1.151516 0.107725 -0.025030 11297.800000 0 0 1
30.000288 -4.623137 12.260089 32.736836 -0.152900 1.186934 0.100394 -0.029181 194025.000000 0 0 1
30.257428 -3.902137 11.096889 32.463511 -0.128257 1.221937 0.110106 -0.033441 161636.000000 0 0 1
30.831648 -4.770837 9.891389 32.729054 -0.153521 1.263775 0.136613 -0.027216 510234.000000 0 0 1
32.142208 -5.288937 10.023089 34.081618 -0.163087 1.272292 0.131438 -0.030083 222645.000000 0 0 1
32.678438 -5.928037 8.894889 34.382277 -0.179454 1.309114 0.130047 -0.031790 393258.000000 0 0 1
34.093808 -6.519937 9.157689 35.899312 -0.188954 1.312852 0.109440 -0.022685 -73714.000000 0 0 1
35.149728 -5.632337 9.142089 36.753291 -0.158888 1.319415 0.136970 -0.027032 -1055260.000000 0 0 1
36.351408 -6.268437 8.868689 37.939054 -0.170761 1.334852 0.129817 -0.027720 144531.000000 0 0 1
-36.061011 -5.360837 8.484689 37.431604 0.147579 1.342137 0.117781 -0.022872 677630.000000 0 0 1
-36.264694 -4.738337 7.223689 37.279505 0.129924 1.375792 0.140904 -0.021772 358674.000000 0 0 1
-35.076490 -3.995037 7.055689 36.001433 0.113406 1.373536 0.107533 -0.008085 122182.000000 0 0 1
-35.035065 -3.186537 5.760489 35.648184 0.090703 1.408492 0.144283 -0.020955 -287112.000000 0 0 1
-34.775857 -3.960037 4.630289 35.305547 0.113385 1.439268 0.139084 -0.030037 207762.000000 0 0 1
-34.943913 -3.237337 3.414089 35.259231 0.092380 1.473816 0.142910 -0.027148 -179839.000000 0 0 1
-34.380506 -3.884237 2.135289 34.665053 0.112501 1.509160 0.171699 -0.033502 109314.000000 0 0 1
-35.102910 -5.036837 1.741689 35.505176 0.142515 1.521722 0.162530 -0.024386 702871.000000 0 0 1
-36.157834 -4.854137 0.772189 36.490380 0.133451 1.549633 0.154925 -0.025632 239137.000000 0 0 1
-35.679726 -5.073837 -0.708511 36.045646 0.141258 1.590454 0.167427 -0.028889 -1061590.000000 0 0 1
-35.234383 -6.396637 -0.901811 35.821669 0.179589 1.595974 0.154051 -0.037404 134831.000000 0 0 1
-34.340744 -6.573237 -1.969211 35.019593 0.189125 1.627058 0.140132 -0.036818 659007.000000 0 0 1
-32.922154 -5.884837 -1.846611 33.494917 0.176882 1.625955 0.144261 -0.043092 11839.200000 0 0 1
-32.131844 -6.720737 -1.030911 32.843362 0.206189 1.602190 0.146684 -0.036296 -807381.000000 0 0 1
-30.842984 -6.287237 -0.751611 31.486249 0.201091 1.594670 0.151652 -0.046642 -773877.000000 0 0 1
-30.119414 -7.108837 0.301489 30.948433 0.231780 1.561055 0.128458 -0.042105 -501259.000000 0 0 1
-29.766474 -8.312237 -0.252011 30.906306 0.272312 1.578950 0.133424 -0.033085 280587.000000 0 0 1
-29.513654 -9.328437 0.748789 30.961850 0.306136 1.546610 0.124933 -0.026372 -235316.000000 0 0 1
-28.987344 -10.670437 0.217689 30.889670 0.352714 1.563749 0.109843 -0.026300 262211.000000 0 0 1
-27.743944 -10.632037 -0.498311 29.715567 0.365958 1.587566 0.115024 -0.030433 914933.000000 0 0 1
-27.186254 -11.903037 -0.850911 29.690044 0.412690 1.599460 0.100168 -0.019084 156039.000000 0 0 1
-27.988014 -12.748037 -1.919711 30.814390 0.427403 1.633136 0.091696 -0.023009 -269472.000000 0 0 1
-29.078094 -13.411137 -1.328111 32.049306 0.432138 1.612248 0.101873 -0.025210 159847.000000 0 0 1
-29.374064 -14.469037 -2.226811 32.819923 0.457693 1.638698 0.097941 -0.028011 -109567.000000 0 0 1
-30.362914 -15.489737 -1.611011 34.123802 0.471737 1.618025 0.111340 -0.024417 -150849.000000 0 0 1
-29.772624 -16.322837 -0.640011 33.959590 0.501499 1.589644 0.081846 -0.014682 369905.000000 0 0 1
-30.752884 -17.074737 0.044989 35.175112 0.506845 1.569517 0.083363 -0.007353 123563.000000 0 0 1
-31.004794 -18.498737 -0.428511 36.106566 0.537946 1.582665 0.093108 -0.009041 -589809.000000 0 0 1
-29.950264 -19.328137 -0.083211 35.645506 0.573093 1.573131 0.096148 -0.019993 -347898.000000 0 0 1
-30.116504 -20.726637 -0.311011 36.560826 0.602773 1.579303 0.095495 -0.023099 -67208.100000 0 0 1
-30.925364 -21.372237 0.864089 37.601826 0.604722 1.547814 0.089078 -0.023535 -192424.000000 0 0 1
-30.239964 -21.598437 2.069389 37.218682 0.620216 1.515167 0.078253 -0.019689 -181801.000000 0 0 1
-31.188934 -21.910137 3.047989 38.237337 0.612400 1.490999 0.072471 -0.019159 -58923.600000 0 0 1
-30.532634 -22.219837 4.406289 38.018131 0.629102 1.454636 0.054416 -0.015346 -343108.000000 0 0 1
-29.880524 -21.074837 4.902189 36.892085 0.614276 1.437523 0.048671 -0.015115 -105700.000000 0 0 1
-29.696674 -21.165937 6.290589 37.006227 0.619224 1.399980 0.036350 -0.016291 -50337.500000 0 0 1
-29.111824 -19.854137 6.844289 35.896091 0.598540 1.378952 0.032868 -0.013421 108031.000000 0 0 1
-28.289834 -20.041937 7.968489 35.573737 0.616375 1.344880 0.015445 -0.019628 -62532.400000 0 0 1
-27.582054 -18.874337 8.347689 34.448428 0.600110 1.326036 0.026644 -0.013452 273495.000000 0 0 1
-26.667524 -19.093437 9.592189 34.172010 0.621371 1.286270 0.039084 -0.011618 -184576.000000 0 0 1
-27.365014 -19.447537 10.752789 35.251569 0.617852 1.260826 0.028761 -0.015068 -315962.000000 0 0 1
-26.618454 -19.629637 11.950589 35.166480 0.635417 1.224061 0.051909 -0.009384 -473936.000000 0 0 1
-26.189024 -18.297937 12.638689 34.357181 0.609844 1.194088 0.041075 -0.007432 68295.700000 0 0 1
-25.143744 -17.501537 12.046889 32.918675 0.608076 1.196133 0.043094 -0.002562 505008.000000 0 0 1
-24.742444 -16.414837 12.827989 32.344902 0.585757 1.162986 0.044158 0.006815 235972.000000 0 0 1
-23.792644 -16.698637 14.025689 32.274670 0.611960 1.121233 0.059349 -0.002369 -160221.000000 0 0 1
-24.480944 -17.401737 15.051389 33.595853 0.617956 1.106254 0.044212 -0.006901 -47679.600000 0 0 1
-23.650644 -17.718837 16.131589 33.668060 0.642983 1.071126 0.063241 -0.010531 59042.200000 0 0 1
-24.438244 -18.331337 17.387189 35.150818 0.643571 1.053370 0.061796 -0.003256 463577.000000 0 0 1
-25.432204 -17.470837 17.896689 35.669575 0.601919 1.045193 0.051497 0.003309 82444.800000 0 0 1
-26.170774 -18.142537 18.922889 37.042365 0.606172 1.034629 0.049230 0.004987 -108320.000000 0 0 1
-27.072064 -17.196237 19.708489 37.643482 0.565902 1.019776 0.055853 0.008321 -221591.000000 0 0 1
-26.364164 -16.469837 20.681189 37.336795 0.558387 0.983744 0.051769 0.010755 77516.400000 0 0 1
-27.195004 -15.463037 21.243489 37.814806 0.517010 0.974264 0.067313 0.003612 -159407.000000 0 0 1
-26.508784 -14.789137 22.417289 37.735514 0.508885 0.934695 0.068418 0.002519 237397.000000 0 0 1
-25.395584 -14.002537 21.994389 36.397251 0.503900 0.921926 0.069074 0.001295 173018.000000 0 0 1
-24.637544 -13.501937 23.101989 36.373242 0.501324 0.882611 0.056966 0.002304 95472.900000 0 0 1
-23.411944 -12.803337 22.458889 34.877589 0.500439 0.871166 0.046943 0.006889 -452352.000000 0 0 1
-23.752544 -11.721837 21.647589 34.208228 0.458433 0.885609 0.067013 -0.001531 263034.000000 0 0 1
-22.681444 -10.950537 21.097889 32.855488 0.449791 0.873507 0.073554 -0.003405 -145031.000000 0 0 1
-22.447844 -9.587337 21.791789 32.721626 0.403643 0.841996 0.083336 -0.005971 55167.900000 0 0 1
-22.052544 -9.729937 23.174189 33.436946 0.415525 0.805055 0.068762 -0.009343 471932.000000 0 0 1
-20.635344 -9.749437 23.272089 32.595384 0.441376 0.775646 0.044249 -0.000368 143847.000000 0 0 1
-20.021744 -9.939837 24.675589 33.294974 0.460805 0.736058 0.043519 -0.005715 124639.000000 0 0 1
-20.049044 -11.183437 25.298689 34.162217 0.508815 0.736914 0.051801 -0.002693 31184.700000 0 0 1
-19.143444 -11.237337 26.378289 34.475546 0.530811 0.699552 0.052356 -0.006223 -721908.000000 0 0 1
-19.418644 -12.547037 27.153089 35.662334 0.573652 0.705336 0.055199 -0.022459 226441.000000 0 0 1
-20.568244 -12.643737 27.960489 36.941923 0.551174 0.712275 0.059994 -0.011448 -193286.000000 0 0 1
-21.789844 -12.837737 27.250989 37.178235 0.532412 0.748101 0.047546 -0.005672 154434.000000 0 0 1
-22.893244 -13.163737 28.315789 38.719097 0.521838 0.750551 0.045959 -0.005316 62318.000000 0 0 1
-22.923944 -14.409337 28.960989 39.646880 0.561163 0.751782 0.047838 -0.006830 -189911.000000 0 0 1
-22.047044 -14.548637 30.067889 40.022655 0.583297 0.720809 0.034368 -0.006915 102199.000000 0 0 1
-22.393644 -15.693537 31.049189 41.374080 0.611265 0.722053 0.029939 -0.011665 -485849.000000 0 0 1
-22.356944 -17.025837 30.490989 41.465799 0.650850 0.744645 0.033134 -0.003937 -31447.700000 0 0 1
-22.561844 -18.016437 31.470389 42.708479 0.673847 0.742375 0.031667 -0.008624 15272.500000 0 0 1
-23.991244 -18.216437 32.028689 43.968799 0.649424 0.754752 0.051640 -0.011324 -5748.130000 0 0 1
-24.503044 -17.189737 32.903689 44.480771 0.611755 0.738130 0.065396 -0.015414 -29618.400000 0 0 1
-25.788544 -17.550137 33.353989 45.667766 0.597546 0.751945 0.065847 -0.020408 -173962.000000 0 0 1
-26.669644 -16.479537 34.044189 46.280145 0.553487 0.744228 0.066675 -0.023716 -109249.000000 0 0 1
-26.175734 -16.005837 -32.826012 44.932204 0.548815 2.389949 0.078113 -0.024902 -401669.000000 0 0 1
-27.035874 -15.154237 -32.140112 44.649481 0.510887 2.374356 0.071344 -0.023684 -769668.000000 0 0 1
-26.465034 -14.533437 -30.838912 43.158514 0.502195 2.366777 0.061184 -0.016628 -400617.000000 0 0 1
-26.469814 -15.337737 -29.700512 42.638218 0.525167 2.341402 0.077411 -0.012649 46010.900000 0 0 1
-25.956674 -14.743337 -28.542212 41.301002 0.516556 2.333776 0.081837 -0.003211 -323452.000000 0 0 1
-26.199844 -15.731737 -27.330812 40.998691 0.540751 2.300470 0.067044 -0.003924 395712.000000 0 0 1
-27.528544 -15.860637 -26.817312 41.575819 0.522700 2.271848 0.076679 -0.007380 841113.000000 0 0 1
-28.127294 -14.761837 -26.104812 41.115906 0.483308 2.258686 0.071657 0.000027 -141905.000000 0 0 1
-27.410104 -14.532837 -24.741812 39.682167 0.487515 2.244007 0.067692 -0.006152 -14739.200000 0 0 1
-26.104614 -13.973137 -24.926312 38.704269 0.491467 2.270538 0.057300 -0.003295 1341580.000000 0 0 1
-25.193654 -14.308037 -23.836012 37.517937 0.516499 2.259223 0.033932 -0.001782 780117.000000 0 0 1
-24.546644 -15.760537 -23.929912 37.730266 0.570777 2.257817 0.034814 0.007302 -710420.000000 0 0 1
-23.840544 -16.038337 -25.130012 38.172206 0.592191 2.289398 0.067414 0.009190 -198066.000000 0 0 1
-23.284244 -17.296337 -24.970212 38.273108 0.638899 2.281572 0.059674 -0.000028 -267881.000000 0 0 1
-22.261944 -17.510337 -26.123912 38.531349 0.666491 2.315823 0.052103 -0.001822 -95811.100000 0 0 1
-22.742944 -17.665637 -27.467812 39.796946 0.660404 2.332560 0.058692 -0.008073 -259239.000000 0 0 1
-23.555544 -18.779737 -27.703812 40.927294 0.673064 2.314343 0.060915 -0.014229 -394592.000000 0 0 1
-24.222544 -18.573437 -29.059812 42.144714 0.654156 2.331629 0.056303 -0.011445 -168536.000000 0 0 1
-23.413344 -18.963637 -30.167312 42.636498 0.680779 2.356817 0.061116 -0.016112 285677.000000 0 0 1
-23.861844 -18.368537 -31.355212 43.473441 0.656045 2.376401 0.046411 -0.010865 -141761.000000 0 0 1
-22.956844 -18.754437 -32.579812 44.047585 0.684987 2.403347 0.044440 -0.013834 -57563.900000 0 0 1
-21.674344 -18.144237 -32.543412 43.105269 0.696975 2.426413 0.050093 -0.010823 534211.000000 0 0 1
-20.612344 -19.034437 -32.191712 42.702282 0.745620 2.424720 0.043643 -0.016938 239466.000000 0 0 1
-20.203944 -20.137937 -33.236612 43.799638 0.783762 2.432316 0.039591 -0.017090 -906429.000000 0 0 1
-19.703344 -19.722537 33.585089 43.648120 0.785885 0.692815 0.038982 -0.015904 19546.600000 0 0 1
-19.722944 -20.743437 32.572089 43.361569 0.810611 0.720957 0.032875 -0.016944 -103456.000000 0 0 1
-21.056044 -21.242837 31.924189 43.746645 0.789814 0.752838 0.029821 -0.008764 470592.000000 0 0 1
-21.946044 -21.855837 32.888689 45.177121 0.783339 0.755404 0.020225 -0.009550 -245815.000000 0 0 1
-23.124744 -22.379237 32.371789 45.645556 0.769016 0.782435 0.017139 -0.001649 -521887.000000 0 0 1
-23.006144 -23.594937 31.431989 45.540901 0.798032 0.809041 0.032518 0.003255 -808837.000000 0 0 1
-22.569744 -24.740137 32.112189 46.396771 0.831242 0.806373 0.023358 0.003972 48546.700000 0 0 1
-22.719944 -25.936487 31.403489 46.637713 0.851409 0.832066 0.028806 0.010012 -203449.000000 0 0 1
-21.920044 -27.090767 32.051989 47.346890 0.890511 0.827171 0.045217 0.001116 -161567.000000 0 0 1
-22.405844 -27.398827 33.303189 48.598559 0.885316 0.815820 0.036813 -0.005180 -253014.000000 0 0 1
-21.849044 -28.620917 33.745189 49.348509 0.918778 0.817820 0.041043 -0.020022 -670068.000000 0 0 1
-22.858144 -29.672917 -33.839612 50.478670 0.914406 2.305510 0.036447 -0.015346 -342237.000000 0 0 1
-23.816844 -30.145287 33.292589 50.836767 0.902141 0.856757 0.033781 -0.020278 1358350.000000 0 0 1
-24.902744 -29.268167 32.908089 50.593622 0.865811 0.862633 0.035429 -0.015262 100557.000000 0 0 1
-25.922734 -29.012637 34.033889 51.691651 0.841585 0.852103 0.039788 -0.022313 -568884.000000 0 0 1
-27.014294 -28.132227 33.792989 51.605817 0.805667 0.856840 0.040345 -0.020130 432639.000000 0 0 1
-27.910644 -28.047917 -33.203612 51.654328 0.787851 2.268950 0.022053 -0.007622 -70272.700000 0 0 1
-29.097394 -27.147837 -33.571112 52.064220 0.750750 2.271561 0.024595 -0.016887 -639628.000000 0 0 1
-30.070534 -27.845777 33.782989 53.112283 0.747004 0.881405 0.046681 -0.024897 -248795.000000 0 0 1
-30.978614 -26.840907 33.327789 52.828499 0.713958 0.888125 0.048199 -0.026817 24561.400000 0 0 1
