# x y z rho theta phi s1 s2 stress_xx np intf bulk
-0.745262 -10.872690 -14.410063 18.067117 1.502359 2.494077 -0.005109 0.006654 -1259150.000000 1 0 0
2.263238 -13.422890 -13.068763 18.870315 -1.403757 2.335824 0.008964 0.010033 740334.000000 1 0 0
2.102138 -11.250990 -14.872863 18.767147 -1.386086 2.485685 -0.003277 0.012357 -23521.000000 1 0 0
-5.438062 -6.281890 -16.562663 18.529880 0.857273 2.676623 0.004716 0.001645 -359645.000000 1 0 0
4.640638 -13.999490 -11.418563 18.652207 -1.250709 2.229615 0.000782 0.004274 1098790.000000 1 0 0
13.994338 -10.581590 -7.928763 19.252969 -0.647415 1.995247 0.043299 -0.014084 -696647.000000 1 0 0
7.024338 10.831610 -10.838563 16.856439 0.995474 2.269195 0.015203 -0.012113 239814.000000 1 0 0
5.740538 -4.161490 -12.570663 14.432371 -0.627263 2.628040 0.004457 -0.002764 1057760.000000 1 0 0
13.686238 0.622610 -10.006763 16.965732 0.045460 2.201635 0.025664 -0.002246 1696230.000000 1 0 0
14.110238 5.072710 -10.330563 18.208562 0.345118 2.174076 0.015259 -0.006668 -1331970.000000 1 0 0
4.071338 4.274510 -13.377863 14.622395 0.809737 2.726028 0.010098 0.002114 1313650.000000 1 0 0
10.436738 -4.997590 -13.649663 17.894544 -0.446582 2.438403 0.035578 -0.008779 -903110.000000 1 0 0
2.542238 -7.596190 -12.031563 14.454189 -1.247841 2.554208 -0.003486 0.002018 930982.000000 1 0 0
-5.459162 -2.087890 -15.124763 16.214814 0.365292 2.772831 0.008091 -0.002826 141389.000000 1 0 0
10.668138 0.112910 -9.625963 14.369450 0.010583 2.304858 0.014814 -0.001078 2572300.000000 1 0 0
-1.702362 -9.524790 -16.829863 19.412984 1.393934 2.619823 -0.004951 0.001740 817817.000000 1 0 0
8.807238 1.517310 -17.802263 19.919594 0.170605 2.676335 0.029871 -0.001025 702467.000000 1 0 0
16.555138 -5.898190 -8.719063 19.618443 -0.342254 2.031336 0.051664 -0.007627 -1103210.000000 1 0 0
10.102438 7.550310 -9.828463 15.989531 0.641819 2.232778 0.012024 -0.007910 165245.000000 1 0 0
13.926938 -2.172590 -10.516463 17.586237 -0.154752 2.211792 0.042227 -0.006999 -944881.000000 1 0 0
7.268838 -1.844090 -13.590363 15.522069 -0.248456 2.637371 0.013211 -0.005916 158610.000000 1 0 0
-2.895362 6.601310 -13.816663 15.583985 -1.157459 2.660725 0.007833 0.001049 902866.000000 1 0 0
11.236438 1.815110 -13.934263 17.992105 0.160154 2.456666 0.009191 -0.001136 -649303.000000 1 0 0
-2.413062 10.695910 -12.933763 16.956048 -1.348905 2.438400 0.004130 0.000773 -1611830.000000 1 0 0
2.901438 -1.093190 -15.124263 15.438806 -0.360326 2.939389 0.009114 -0.004507 -1425800.000000 1 0 0
-8.961762 0.348810 -15.233563 17.677564 -0.038902 2.609497 0.014316 -0.001639 -983936.000000 1 0 0
2.394138 -1.682190 -17.955263 18.192117 -0.612488 2.980050 0.024246 -0.011181 869481.000000 1 0 0
0.972238 7.854610 -13.170963 15.366015 1.447643 2.600505 0.007367 -0.002916 198315.000000 1 0 0
9.392538 -9.054390 -9.869363 16.358670 -0.767069 2.218442 0.023311 -0.003180 -1458110.000000 1 0 0
3.908238 7.209910 -13.328963 15.649868 1.074066 2.590014 0.007397 -0.000863 1917940.000000 1 0 0
-2.793462 9.080810 -15.459863 18.145851 -1.272361 2.590548 0.009024 0.001414 282629.000000 1 0 0
5.489238 -7.688290 -15.239563 17.930026 -0.950753 2.586680 0.008538 -0.004130 1412790.000000 1 0 0
4.191938 7.264710 -16.241363 18.279229 1.047440 2.664894 0.017656 -0.000601 168232.000000 1 0 0
-0.287262 5.082110 -13.475163 14.404526 -1.514332 2.780415 0.011558 -0.004419 2016650.000000 1 0 0
8.772238 4.153510 -16.679063 19.297537 0.442210 2.614574 0.016934 0.006302 -1232110.000000 1 0 0
5.368138 0.350810 -14.370263 15.344199 0.065258 2.783387 0.003817 0.000705 1356120.000000 1 0 0
6.323438 7.861710 -11.526863 15.318646 0.893418 2.422605 0.002351 -0.005960 -697701.000000 1 0 0
2.723038 -8.450590 -15.027063 17.453940 -1.259071 2.607941 0.000687 0.001298 25045.000000 1 0 0
3.973038 11.414410 -13.911163 18.428083 1.235840 2.426282 0.021022 -0.010619 -1298590.000000 1 0 0
0.613038 -4.557190 -13.729963 14.479492 -1.437078 2.818428 -0.000167 -0.001404 152896.000000 1 0 0
8.402638 -0.076890 -11.600663 14.324302 -0.009150 2.514708 0.002054 -0.001322 105997.000000 1 0 0
-0.937162 -5.042390 -16.273563 17.062615 1.387036 2.836288 -0.001447 -0.004705 -91108.600000 1 0 0
4.511138 0.867310 -11.627963 12.502484 0.189942 2.765351 0.001750 -0.002729 469033.000000 1 0 0
-2.812962 -7.152290 -15.553263 17.348545 1.196083 2.682640 -0.004984 0.001617 1181380.000000 1 0 0
11.509838 -3.684390 -11.346763 16.577097 -0.309801 2.324692 0.029304 -0.008062 2136070.000000 1 0 0
6.489438 -6.978890 -12.491763 15.711838 -0.821723 2.489893 0.008946 -0.002630 -772295.000000 1 0 0
3.460438 -3.994590 -14.631863 15.557082 -0.856926 2.794976 0.008147 -0.004243 3736370.000000 1 0 0
-0.558962 -1.586190 -18.294463 18.371603 1.231991 3.049921 0.018535 -0.012902 2181680.000000 1 0 0
14.948538 2.951010 -8.445463 17.421053 0.194905 2.076914 0.016227 -0.001156 -1045720.000000 1 0 0
6.870738 4.302710 -14.324863 16.459710 0.559488 2.626605 0.003595 0.004476 2799960.000000 1 0 0
10.219838 -9.558390 -13.879763 19.709280 -0.751967 2.352127 0.047274 -0.015048 -298083.000000 1 0 0
9.036838 -3.231290 -15.506363 18.236035 -0.343402 2.587379 0.032772 -0.017202 -531016.000000 1 0 0
-5.329462 -2.147290 -18.039963 18.932889 0.383012 2.833248 0.005428 0.004185 388133.000000 1 0 0
5.037038 -9.010890 -11.073563 15.139078 -1.061074 2.391250 -0.006676 0.004649 2067180.000000 1 0 0
-2.473862 3.969210 -17.182263 17.807436 -1.013447 2.875830 0.012143 0.002133 1569910.000000 1 0 0
9.480638 9.331210 -14.406863 19.608969 0.777455 2.396032 0.030779 -0.010747 684872.000000 1 0 0
9.743838 10.011810 -11.565663 18.136793 0.798962 2.262293 0.014588 -0.011265 -415790.000000 1 0 0
12.146138 -5.865590 -9.592163 16.551236 -0.449889 2.188965 0.037958 -0.008528 -698354.000000 1 0 0
8.200038 6.833110 -13.651763 17.329242 0.694720 2.478005 0.006765 0.000709 647402.000000 1 0 0
3.940938 -4.123390 -17.541363 18.445399 -0.808019 2.827213 0.022106 -0.014330 -607998.000000 1 0 0
9.319138 -7.365290 -12.252263 17.064928 -0.668823 2.371691 0.031167 -0.012267 -299968.000000 1 0 0
11.995138 -8.624490 -8.814963 17.203742 -0.623363 2.108758 0.037358 -0.010635 -662082.000000 1 0 0
-2.863362 -2.509090 -13.835363 14.349622 0.719551 2.873064 0.002466 -0.005388 -3558950.000000 1 0 0
-0.436762 6.156010 -17.562263 18.615056 -1.499966 2.803666 0.024991 -0.003306 1098210.000000 1 0 0
0.974238 -8.528190 -17.423463 19.423085 -1.457052 2.683843 -0.002067 -0.003580 1010800.000000 1 0 0
0.007338 8.558110 -15.983063 18.130074 1.569939 2.649990 0.014743 0.001181 -115787.000000 1 0 0
1.766638 3.334210 -14.890463 15.361115 1.083553 2.893412 0.017976 -0.001669 1392070.000000 1 0 0
-1.842762 -0.519290 -15.758063 15.873940 0.274677 3.020690 0.012336 -0.008126 1868350.000000 1 0 0
14.212038 -4.254390 -8.367363 17.032164 -0.290861 2.084342 0.041087 -0.004435 405667.000000 1 0 0
0.625638 0.624210 -14.570163 14.596942 0.784255 3.081010 0.009637 -0.003825 120813.000000 1 0 0
8.802438 2.758210 -12.534963 15.563288 0.303656 2.507178 0.003023 0.001784 1948280.000000 1 0 0
5.965638 0.850010 -17.167163 18.194033 0.141532 2.804016 0.023477 0.004902 1011750.000000 1 0 0
15.292538 1.666810 -12.316163 19.706036 0.108566 2.245921 0.025597 -0.013059 -957926.000000 1 0 0
8.868338 -11.196590 -11.873063 18.573655 -0.900917 2.264309 0.020237 -0.002611 907519.000000 1 0 0
-4.580762 0.704910 -15.079063 15.775247 -0.152687 2.843398 0.009710 -0.003821 1090350.000000 1 0 0
2.326438 5.125110 -17.190263 18.088234 1.144680 2.825175 0.022564 -0.002764 1301710.000000 1 0 0
5.988638 -11.606990 -12.347363 17.973408 -1.094470 2.328121 0.002182 0.003363 1013360.000000 1 0 0
12.819538 7.210210 -8.699863 17.088455 0.512343 2.104944 0.008550 -0.005419 -641126.000000 1 0 0
-5.060162 3.597210 -15.765763 16.944156 -0.617996 2.766447 0.007410 0.001361 1059800.000000 1 0 0
-0.518862 -4.443590 -19.118363 19.634829 1.454556 2.911724 0.010768 -0.009797 -2897530.000000 1 0 0
9.817638 4.464810 -10.188463 14.836621 0.426817 2.327750 -0.000522 0.001193 -1012300.000000 1 0 0
13.254938 3.733610 -12.817963 18.813118 0.274563 2.320376 0.015468 -0.008115 1639130.000000 1 0 0
-6.214362 5.857810 -17.146863 19.155864 -0.755872 2.679504 0.008178 0.007333 -826539.000000 1 0 0
-10.232162 3.079610 -15.442163 18.778752 -0.292350 2.536274 0.018363 0.002542 -342462.000000 1 0 0
10.576638 13.475810 -8.196963 18.990864 0.905355 2.017092 0.034565 -0.017293 -648306.000000 1 0 0
7.360938 13.370510 -12.307363 19.606762 1.067542 2.249404 0.028496 -0.017479 -1423420.000000 1 0 0
5.177038 15.105910 -11.335663 19.582837 1.240625 2.188123 0.021096 -0.014189 -289558.000000 1 0 0
14.207638 9.485310 -9.845463 19.717029 0.588663 2.093631 0.043523 -0.018850 -1508310.000000 1 0 0
8.246138 -17.276490 -2.087563 19.257046 -1.125470 1.679415 0.028507 -0.002779 -122467.000000 1 0 0
0.767638 -15.997490 -0.076463 16.016080 -1.522848 1.575570 0.006541 -0.009595 2264480.000000 1 0 0
-9.249162 -11.658390 7.608337 16.713822 0.900125 1.098186 0.021144 -0.008275 400636.000000 1 0 0
2.054238 -15.870390 -2.663563 16.222939 -1.442074 1.735728 0.005586 -0.006431 1519820.000000 1 0 0
-1.298062 -10.957090 -9.462763 14.535703 1.452878 2.279699 0.002291 -0.000175 675897.000000 1 0 0
-4.635462 -12.702890 -12.985263 18.747479 1.220897 2.335940 0.006463 0.001609 301424.000000 1 0 0
-8.113362 -17.654690 -1.688463 19.502965 1.140022 1.657480 0.016064 -0.019203 -485477.000000 1 0 0
-11.382262 -7.045590 -9.007863 16.134988 0.554271 2.163109 0.009890 -0.005679 2335530.000000 1 0 0
-13.408762 -11.550890 -4.671263 18.304061 0.711100 1.828855 0.004101 -0.004974 -1835730.000000 1 0 0
-5.750662 -13.462290 9.790937 17.611525 1.167091 0.981304 0.016862 -0.007536 797154.000000 1 0 0
0.157138 -13.935090 -3.650863 14.406257 -1.559520 1.827012 0.004958 -0.002760 71577.000000 1 0 0
-14.702962 -11.606690 1.859237 18.824163 0.668251 1.471866 0.003897 -0.002210 581527.000000 1 0 0
-3.889562 -16.357690 -7.524463 18.420648 1.337350 1.991584 0.004444 -0.008133 -1959730.000000 1 0 0
0.558938 -15.210790 -9.229463 17.800661 -1.534067 2.115880 0.008587 0.005056 1671240.000000 1 0 0
4.543038 -14.164790 -2.613263 15.103298 -1.260434 1.744697 0.001869 -0.002212 29988.200000 1 0 0
-3.504762 -18.137490 -2.582963 18.652710 1.379916 1.709719 0.001212 -0.011672 435763.000000 1 0 0
-0.836962 -13.456490 0.670837 13.499172 1.508679 1.521081 0.010516 -0.005061 3486930.000000 1 0 0
-8.372362 -11.273590 -10.635563 17.615490 0.932014 2.219008 -0.000894 -0.001231 1410980.000000 1 0 0
-3.643662 -14.030590 -0.427063 14.502280 1.316715 1.600249 0.003121 -0.004017 4279030.000000 1 0 0
-1.554662 -14.777490 -7.275763 16.544725 1.465977 2.026131 -0.000774 -0.000043 361561.000000 1 0 0
-14.225362 -7.880590 -1.921163 16.375454 0.505895 1.688387 0.006029 0.001335 1983350.000000 1 0 0
-10.665062 -7.257190 -11.797763 17.481349 0.597494 2.311595 0.019359 -0.007861 -1305760.000000 1 0 0
-9.440762 -14.720190 6.901837 18.800195 1.000528 1.194891 0.013145 -0.006587 610200.000000 1 0 0
-2.279362 -14.296690 -12.321163 19.010573 1.412694 2.275912 0.022024 -0.001975 -428718.000000 1 0 0
2.304738 -17.761190 -4.841263 18.552884 -1.441755 1.834796 0.009149 -0.007392 17748.500000 1 0 0
-6.505462 -9.614590 -9.277963 14.860753 0.975932 2.245065 0.000523 -0.005019 1083130.000000 1 0 0
-10.989362 -15.303490 0.541737 18.848246 0.948029 1.542050 0.016921 -0.008762 -231184.000000 1 0 0
-12.668262 -11.023890 4.087637 17.283512 0.716104 1.332029 0.017772 -0.005406 2357080.000000 1 0 0
-17.059162 -8.887090 -1.628863 19.304108 0.480272 1.655276 0.011677 -0.003580 980005.000000 1 0 0
-1.355862 -19.211490 -4.124663 19.696004 1.500338 1.781774 0.005432 -0.009100 -1699880.000000 1 0 0
3.307438 -14.253290 -8.740063 17.043595 -1.342784 2.109247 0.000409 0.007744 546733.000000 1 0 0
-4.266362 -7.984390 -13.137463 15.954475 1.080057 2.538234 -0.001434 0.002919 2397440.000000 1 0 0
5.662038 -16.576790 1.299537 17.565234 -1.241656 1.496745 0.024308 -0.008604 4177810.000000 1 0 0
-2.769662 -13.742190 -3.226363 14.385000 1.371916 1.797007 0.000519 -0.005780 63622.300000 1 0 0
-0.424962 -13.955190 3.712137 14.446726 1.540354 1.310928 0.009354 -0.003518 -2652380.000000 1 0 0
1.245838 -16.111290 7.060037 17.634339 -1.493623 1.158890 0.021257 -0.006332 1776760.000000 1 0 0
-5.533762 -10.435790 -14.552563 18.743141 1.083229 2.459763 0.003945 -0.002067 240245.000000 1 0 0
-0.329262 -17.224490 -5.989363 18.239077 1.551683 1.905385 0.008539 -0.003905 -492897.000000 1 0 0
-6.365562 -13.265890 -1.294863 14.770948 1.123403 1.658572 0.001539 -0.006227 1512170.000000 1 0 0
-1.724162 -17.693490 -0.296863 17.779777 1.473657 1.587494 0.006506 -0.011753 1706050.000000 1 0 0
-9.435762 -9.758190 -4.966363 14.454087 0.802195 1.921539 0.008373 -0.005757 2764590.000000 1 0 0
-0.787262 -16.669490 4.947537 17.406028 1.523604 1.282580 0.021070 -0.005953 2531390.000000 1 0 0
-6.755762 -9.921890 -6.374063 13.590913 0.973008 2.058948 0.005800 -0.007984 3205600.000000 1 0 0
-5.896962 -14.483690 -8.642263 17.867293 1.184146 2.075664 -0.001215 -0.007287 -430065.000000 1 0 0
-5.572362 -12.105290 -10.347163 16.871664 1.139390 2.231011 0.000650 -0.002255 780603.000000 1 0 0
-10.529062 -12.128990 -8.852163 18.339420 0.855893 2.074514 0.007298 -0.015258 -173262.000000 1 0 0
3.944138 -17.111890 6.485637 18.719949 -1.344262 1.217006 0.029453 -0.004450 349238.000000 1 0 0
-6.776362 -14.359390 -4.059563 16.388753 1.129871 1.821106 0.007076 -0.011888 376745.000000 1 0 0
-2.829362 -12.108890 -7.114063 14.326214 1.341255 2.090447 0.004998 -0.003340 2727210.000000 1 0 0
-7.056562 -12.825090 4.451937 15.300253 1.067788 1.275554 0.007696 -0.002964 2820010.000000 1 0 0
2.636338 -16.462790 2.306637 16.831349 -1.412005 1.433320 0.016474 -0.010131 4010620.000000 1 0 0
-6.317562 -11.997390 7.296537 15.397676 1.086113 1.077113 0.009236 -0.001954 814848.000000 1 0 0
-11.211762 -12.795690 -0.950763 17.039285 0.851279 1.626624 0.011395 -0.004864 1242740.000000 1 0 0
-14.287062 -8.714190 4.663337 17.372506 0.547693 1.299031 0.010046 -0.004481 -771291.000000 1 0 0
-8.019662 -15.562290 4.487137 18.073026 1.094963 1.319894 0.008853 0.000343 2076040.000000 1 0 0
-16.558162 -9.271890 1.170037 19.013407 0.510457 1.509220 0.005460 -0.001583 538049.000000 1 0 0
-6.668962 -16.911190 2.295437 18.323003 1.195168 1.445190 0.005864 -0.005934 2776660.000000 1 0 0
-11.516962 -14.938290 -4.670263 19.432043 0.914009 1.813511 0.025607 -0.006954 14834.000000 1 0 0
-9.883462 -9.876390 -12.823963 18.965229 0.785040 2.313365 0.006027 0.002884 -1291730.000000 1 0 0
-4.355362 -15.950790 -4.529363 17.143862 1.304244 1.838168 0.000290 -0.010055 23081.400000 1 0 0
-11.764362 -8.233790 -0.076763 14.359715 0.610654 1.576142 0.000295 0.002143 1959770.000000 1 0 0
-9.668762 -11.164490 3.465237 15.170322 0.857070 1.340340 0.008257 0.001005 3552140.000000 1 0 0
-14.101362 -12.968690 -0.616863 19.168095 0.743580 1.602984 0.009030 -0.001794 -1115440.000000 1 0 0
5.629838 -14.929990 -7.022563 17.433189 -1.210201 1.985400 0.003705 -0.004739 -528511.000000 1 0 0
-7.370362 -10.479490 -1.371563 12.884997 0.957850 1.677445 0.006963 -0.001697 604145.000000 1 0 0
-11.632062 -8.305790 -6.210763 15.584113 0.620089 1.980712 0.007647 -0.003781 -457141.000000 1 0 0
-14.386362 -6.617390 -9.427763 18.429324 0.431119 2.107799 0.033189 -0.014238 57672.100000 1 0 0
-3.903462 -16.381890 1.323637 16.892465 1.336879 1.492359 0.004238 -0.008985 2312130.000000 1 0 0
-7.955562 -15.276390 0.216437 17.225153 1.090667 1.558231 0.013899 -0.009060 1403280.000000 1 0 0
1.046938 -18.581290 3.633637 18.962166 -1.514512 1.377978 0.020150 -0.011228 515920.000000 1 0 0
-14.135462 -8.712290 -4.686363 17.253327 0.552350 1.845873 0.013646 -0.006456 523370.000000 1 0 0
-3.224462 -14.634690 11.112437 18.656301 1.353931 0.932734 0.004200 -0.005212 1764060.000000 1 0 0
-10.716262 -12.112490 -3.767163 16.605487 0.846483 1.799651 0.012954 -0.009626 1795090.000000 1 0 0
-9.901662 -10.662890 0.480237 14.559216 0.822398 1.537805 0.005140 0.000361 1484710.000000 1 0 0
0.082438 -13.062890 -11.144163 17.170855 -1.564486 2.277087 0.014127 -0.001450 1697770.000000 1 0 0
-5.905562 -12.681390 -6.351163 15.363287 1.134974 1.996980 -0.000243 -0.012699 3618690.000000 1 0 0
1.835538 -15.862590 9.938937 18.808866 -1.455594 1.014061 0.025568 -0.002114 134190.000000 1 0 0
-8.965062 -15.850290 -5.374063 18.986432 1.056049 1.857766 0.021741 -0.010504 -1832340.000000 1 0 0
-3.336162 -15.470790 5.841437 16.870024 1.358406 1.217213 0.005431 -0.001740 -475674.000000 1 0 0
-17.369962 -5.414090 -6.505863 19.322376 0.302149 1.914207 0.020149 -0.007103 -262581.000000 1 0 0
18.855438 5.587310 -2.879463 19.875535 0.288080 1.716183 0.008353 0.012697 -1204860.000000 1 0 0
12.953838 -12.451890 -5.830863 18.890486 -0.765643 1.884587 0.045659 -0.004148 -1299830.000000 1 0 0
11.116238 -13.508290 -1.638963 17.570739 -0.882235 1.664210 0.033009 -0.005950 2550140.000000 1 0 0
18.515138 -3.109290 4.826737 19.384927 -0.166380 1.319155 0.036688 -0.010086 -499269.000000 1 0 0
8.846038 -16.886290 4.968637 19.699912 -1.088244 1.315827 0.032202 -0.017507 -1021680.000000 1 0 0
17.957738 -1.052090 6.663137 19.182926 -0.058520 1.216056 0.044723 -0.013909 -1182110.000000 1 0 0
18.134538 -4.186290 -4.925163 19.252110 -0.226872 1.829497 0.049884 -0.013373 518521.000000 1 0 0
5.445438 -11.775490 14.729237 19.628178 -1.137647 0.722110 0.016024 -0.007420 294766.000000 1 0 0
16.035038 -8.855990 -0.795763 18.335328 -0.504600 1.614210 0.030385 -0.003837 450042.000000 1 0 0
13.944538 -12.508290 -1.344763 18.780731 -0.731157 1.642461 0.029055 -0.001122 1074090.000000 1 0 0
11.115338 -2.068790 14.016537 18.008163 -0.184015 0.678773 0.019751 -0.002902 204732.000000 1 0 0
17.059638 -6.060290 -1.364463 18.155443 -0.341337 1.646022 0.035390 -0.006322 -1461510.000000 1 0 0
17.818938 3.704910 -0.935363 18.224045 0.204999 1.622145 0.013022 0.009724 -171650.000000 1 0 0
9.820638 -11.160590 9.574237 17.682469 -0.849176 0.998631 0.014910 -0.003869 1687420.000000 1 0 0
9.054838 -11.173190 4.241437 14.994001 -0.889741 1.284005 0.004803 -0.003953 -475226.000000 1 0 0
14.028138 -10.268690 6.774537 18.658216 -0.631886 1.199219 0.030263 -0.011770 -90256.200000 1 0 0
16.407438 -0.533290 -4.626663 17.055628 -0.032492 1.845508 0.025508 -0.001542 -741032.000000 1 0 0
15.854438 -0.466690 -1.678163 15.949835 -0.029427 1.676206 0.017364 0.003983 1600950.000000 1 0 0
12.981738 -5.261590 -0.288163 14.010457 -0.385073 1.591365 0.013245 -0.002110 1508210.000000 1 0 0
14.358738 -7.594590 1.117837 16.281914 -0.486513 1.502087 0.023984 -0.001281 1779210.000000 1 0 0
15.505238 2.426410 3.667937 16.116874 0.155231 1.341201 0.014014 -0.002376 1698910.000000 1 0 0
15.844938 -7.104690 5.057337 18.086330 -0.421513 1.287396 0.034100 -0.013439 -601311.000000 1 0 0
13.726338 -12.164190 3.208437 18.619182 -0.725135 1.397613 0.027414 -0.006941 1123420.000000 1 0 0
14.018038 -1.039190 9.345037 16.879426 -0.073997 0.984074 0.023305 -0.008314 355751.000000 1 0 0
14.230238 -2.797990 -1.549363 14.585231 -0.194146 1.677225 0.010512 0.002642 602167.000000 1 0 0
15.096738 1.703510 9.263937 17.794212 0.112364 1.023225 0.038464 -0.004718 -2915990.000000 1 0 0
14.440238 -10.105090 -2.994563 17.877380 -0.610583 1.739095 0.031888 -0.004353 241964.000000 1 0 0
7.299338 -12.712490 6.105937 15.879868 -1.049574 1.176121 0.000967 -0.004159 -218230.000000 1 0 0
12.416138 -4.645390 7.112237 15.044070 -0.358018 1.078376 0.002862 -0.001216 793465.000000 1 0 0
14.960038 -8.934190 -5.679063 18.326872 -0.538361 1.885859 0.050094 -0.008602 -542751.000000 1 0 0
14.161638 -4.640790 4.751037 15.641652 -0.316673 1.262178 0.016303 -0.007843 954699.000000 1 0 0
17.093338 -4.288090 1.052837 17.654416 -0.245791 1.511125 0.019071 -0.009751 -414243.000000 1 0 0
10.266138 -14.501990 1.075337 17.800496 -0.954780 1.510349 0.027534 -0.012873 1271990.000000 1 0 0
16.370838 -2.587790 8.544137 18.646803 -0.156776 1.094817 0.040406 -0.015064 1102900.000000 1 0 0
16.012738 -2.749790 3.347237 16.588343 -0.170066 1.367619 0.016066 -0.003791 1412710.000000 1 0 0
7.860038 -15.248890 2.690437 17.365117 -1.094865 1.415236 0.012330 -0.009599 1857030.000000 1 0 0
16.540438 -7.141290 7.953737 19.693807 -0.407572 1.155053 0.047559 -0.009855 -1099110.000000 1 0 0
10.230538 -8.663690 5.184737 14.373759 -0.702660 1.201769 0.003083 -0.002634 1095260.000000 1 0 0
10.962638 -11.961090 2.163137 16.368454 -0.828926 1.438256 0.017486 -0.008816 809784.000000 1 0 0
12.337938 -7.405890 12.083737 18.790653 -0.540606 0.872294 0.010044 -0.014228 -925037.000000 1 0 0
15.168038 -9.926090 4.202337 18.607963 -0.579468 1.342996 0.035644 -0.013738 -1810120.000000 1 0 0
7.352238 -10.384890 7.807437 14.928410 -0.954738 1.020439 0.006403 -0.003665 1440430.000000 1 0 0
15.301338 -3.303690 -4.290663 16.231300 -0.212644 1.838321 0.031908 -0.002415 2163870.000000 1 0 0
11.870038 -9.138490 9.775437 17.887677 -0.656103 0.992629 0.011316 -0.008832 -2774610.000000 1 0 0
17.013338 -6.682490 2.442737 18.441158 -0.374266 1.437945 0.042371 -0.012030 2399490.000000 1 0 0
17.561338 3.970010 2.096737 18.126166 0.222328 1.454862 0.015133 0.004447 -546327.000000 1 0 0
14.727138 -5.013390 8.780837 17.864092 -0.328114 1.056944 0.030169 -0.011827 1576940.000000 1 0 0
12.696138 -12.703990 6.019237 18.942400 -0.785707 1.247425 0.016791 -0.014269 -33216.400000 1 0 0
18.337938 0.786310 -0.854563 18.374671 0.042853 1.617321 0.029630 0.005148 -590002.000000 1 0 0
11.730538 -2.151590 11.102637 16.294275 -0.181402 0.821146 0.013031 -0.002515 611889.000000 1 0 0
5.640638 -12.541690 10.483537 17.292060 -1.148149 0.919443 0.006031 -0.002354 -1246930.000000 1 0 0
10.751938 -5.051290 11.178737 16.312077 -0.439199 0.815775 0.007224 -0.002917 750070.000000 1 0 0
17.794938 1.230310 4.929737 18.506101 0.069028 1.301156 0.032701 -0.005665 -44333.200000 1 0 0
12.290538 -7.777090 7.202637 16.230171 -0.564168 1.110983 0.015374 -0.008614 216691.000000 1 0 0
10.671538 -7.921190 14.333537 19.546797 -0.638537 0.747643 0.034484 -0.016706 -1276980.000000 1 0 0
14.159838 -0.353290 3.855137 14.679506 -0.024945 1.305059 0.003379 0.000092 2445740.000000 1 0 0
11.721038 -7.865690 2.593337 14.351906 -0.591048 1.389102 0.008436 -0.002099 1756810.000000 1 0 0
9.313038 5.996410 3.541537 11.628933 0.572056 1.261335 0.004693 -0.000527 1106680.000000 1 0 0
-3.956962 14.773210 -9.877563 18.206359 -1.309092 2.144247 0.000146 -0.004676 1311100.000000 1 0 0
8.894238 -6.486690 9.348537 14.442291 -0.630130 0.866756 0.010357 -0.003373 -89130.500000 1 0 0
5.866038 -10.516590 -8.477963 14.727014 -1.061993 2.184225 -0.003687 -0.000157 274689.000000 1 0 0
5.407338 1.043510 0.545737 5.534080 0.190637 1.472022 0.002226 -0.000093 3642520.000000 1 0 0
-0.602262 9.906110 11.057137 14.857793 -1.510074 0.731463 0.002804 0.002813 200682.000000 1 0 0
-6.317762 -5.097790 0.960237 8.174573 0.678933 1.453058 0.010996 -0.002924 3614960.000000 1 0 0
-1.010462 4.000510 -10.850763 11.608797 -1.323388 2.778215 0.013115 -0.006015 958258.000000 1 0 0
11.035238 5.771510 1.287037 12.519715 0.481884 1.467814 0.006519 0.001520 757419.000000 1 0 0
-9.983362 -1.837390 -13.542063 16.924272 0.182008 2.498352 0.016641 -0.008386 1077140.000000 1 0 0
7.425338 10.886210 -6.026163 14.489991 0.972194 1.999712 0.001047 -0.005884 -212064.000000 1 0 0
-12.446062 -2.930690 -9.756163 16.083411 0.231259 2.222571 0.013966 -0.003921 949456.000000 1 0 0
-3.932762 -8.568190 2.446137 9.739820 1.140487 1.316930 0.008361 -0.000520 -729086.000000 1 0 0
8.104238 -6.597290 -5.888063 11.994674 -0.683252 2.083907 0.004928 -0.004401 2460000.000000 1 0 0
14.485938 3.161310 -4.217663 15.415089 0.214864 1.847937 0.020261 0.005472 859053.000000 1 0 0
-2.509562 -4.909690 9.821037 11.263025 1.098273 0.511581 0.001794 -0.003565 1691870.000000 1 0 0
3.502538 -1.884490 -4.508163 6.011872 -0.493611 2.418672 -0.000221 -0.000006 -2593400.000000 1 0 0
-3.961262 8.496910 -3.425163 9.981023 -1.134552 1.921083 0.002968 -0.000446 650349.000000 1 0 0
5.833938 -0.027590 11.685737 13.061089 -0.004729 0.463041 0.004009 -0.005159 864667.000000 1 0 0
7.136738 4.593510 12.418837 15.041971 0.571893 0.599510 0.010609 -0.002337 751772.000000 1 0 0
1.331238 -14.405290 12.426237 19.070814 -1.478645 0.861126 0.010945 -0.001971 453063.000000 1 0 0
3.053138 8.728010 -9.058263 12.944185 1.234292 2.345905 0.004279 -0.002799 151644.000000 1 0 0
-4.437962 -8.862190 -4.635463 10.941729 1.106529 2.008267 0.010900 -0.005766 409492.000000 1 0 0
5.740438 -6.568690 -3.983263 9.589927 -0.852585 1.999134 0.002864 -0.005494 2217690.000000 1 0 0
-3.165462 3.478610 8.610037 9.810893 -0.832495 0.499964 0.003482 -0.003290 2579650.000000 1 0 0
-3.821062 3.262710 -11.036463 12.126389 -0.706739 2.714369 0.006662 -0.004660 1234390.000000 1 0 0
3.011338 -6.126790 8.522037 10.919287 -1.113969 0.675399 0.000724 -0.003335 1444450.000000 1 0 0
-5.213362 -8.726790 10.405337 14.546720 1.032293 0.773736 0.010817 -0.001070 2631760.000000 1 0 0
-13.252462 -2.460990 6.472337 14.952437 0.183609 1.123131 0.010726 -0.000715 894410.000000 1 0 0
3.967938 -5.891390 -8.315763 10.936404 -0.978068 2.434686 -0.000118 -0.001945 1122600.000000 1 0 0
2.885138 -0.582490 12.216137 12.565720 -0.199215 0.236433 0.000179 -0.006280 1762020.000000 1 0 0
1.475738 -1.388490 -7.525863 7.793864 -0.754946 2.878590 0.003905 -0.004231 -210344.000000 1 0 0
3.642938 -3.578090 3.532937 6.209297 -0.776418 0.965537 0.000675 -0.003086 2212980.000000 1 0 0
1.540238 0.408810 -11.774163 11.881514 0.259438 3.007066 0.005596 -0.005643 444117.000000 1 0 0
4.132938 3.523610 -10.525363 11.843997 0.705983 2.665225 -0.000892 -0.001212 2464970.000000 1 0 0
2.900238 3.245710 3.437837 5.546597 0.841550 0.902296 -0.001239 0.001220 -685774.000000 1 0 0
-5.372962 0.871310 2.583337 6.025075 -0.160766 1.127672 0.007441 -0.004449 2040450.000000 1 0 0
-9.505162 -9.342290 5.682037 14.488341 0.776757 1.167796 0.009834 0.000506 -1250870.000000 1 0 0
-3.025562 3.815110 -0.580763 4.903710 -0.900309 1.689508 0.006600 -0.004322 394511.000000 1 0 0
-15.918962 -6.528390 4.958937 17.905985 0.389184 1.290185 0.022490 -0.005416 934816.000000 1 0 0
1.013538 6.796010 -8.037063 10.573901 1.422750 2.434240 0.007673 -0.003807 -484735.000000 1 0 0
-1.597862 6.579110 -9.394163 11.579644 -1.332540 2.517109 0.008373 -0.002868 573349.000000 1 0 0
2.088538 -0.385490 5.241837 5.655745 -0.182520 0.384952 0.004054 -0.004409 1665740.000000 1 0 0
-3.405462 -0.555790 -6.252063 7.141034 0.161779 2.637291 0.014069 -0.010843 236989.000000 1 0 0
2.004638 -1.154190 -2.305563 3.265938 -0.522405 2.354549 0.003607 -0.002199 -1148980.000000 1 0 0
2.462738 -8.611490 -7.673063 11.794013 -1.292248 2.279157 -0.001513 -0.000084 1984310.000000 1 0 0
-2.475962 14.028410 -5.546063 15.286775 -1.396099 1.942069 0.003465 -0.000468 3053320.000000 1 0 0
6.869538 -5.082990 -8.177063 11.827582 -0.637026 2.334160 0.006390 -0.004964 4614370.000000 1 0 0
-14.224162 -4.946890 -2.207363 15.220741 0.334696 1.716333 0.000451 0.002595 312412.000000 1 0 0
-2.765562 6.904710 -6.763763 10.053449 -1.189831 2.308757 0.005407 -0.001118 -691766.000000 1 0 0
-5.722862 -1.120090 -8.037563 9.930165 0.193279 2.513941 0.014189 -0.013423 1257430.000000 1 0 0
-5.706262 -10.605590 3.365437 12.504645 1.077180 1.298302 0.007248 0.000197 -3160250.000000 1 0 0
8.101938 -7.641590 6.728037 13.011602 -0.756166 1.027361 0.001112 -0.002345 -659387.000000 1 0 0
8.746338 -6.038690 13.293937 17.020369 -0.604271 0.674434 0.024570 -0.009917 951993.000000 1 0 0
-4.763062 9.609310 -0.798563 10.754687 -1.110617 1.645117 0.002536 -0.000361 2237010.000000 1 0 0
2.832238 6.605410 12.120137 14.090803 1.165732 0.535242 0.003350 -0.001226 -478333.000000 1 0 0
6.010538 -2.935190 11.002137 12.875905 -0.454277 0.546257 0.006405 -0.006493 -1427520.000000 1 0 0
-9.696062 -6.430190 -1.219363 11.698197 0.585582 1.675221 0.009401 -0.000879 -268758.000000 1 0 0
0.841238 -13.329090 6.226637 14.735784 -1.507767 1.134537 0.007083 -0.002357 858089.000000 1 0 0
-0.517562 -3.126090 8.661137 9.222560 1.406723 0.350721 0.000511 -0.006608 526538.000000 1 0 0
4.303638 0.665810 3.411337 5.531892 0.153492 0.906294 -0.001263 -0.000262 1918270.000000 1 0 0
-10.324962 5.573210 8.303237 14.373909 -0.494963 0.954937 0.001359 -0.007657 78167.300000 1 0 0
9.440138 8.004610 0.043037 12.377069 0.703293 1.567319 0.002834 0.000702 163143.000000 1 0 0
4.258438 2.879110 8.214837 9.690568 0.594502 0.559134 0.001278 -0.002181 3518830.000000 1 0 0
1.313938 2.677610 -9.751563 10.197500 1.114606 2.844768 0.009360 -0.005699 2642730.000000 1 0 0
-1.426562 -10.111090 3.009437 10.645466 1.430633 1.284192 0.008125 -0.002059 -2420760.000000 1 0 0
-10.038062 9.529310 9.029137 16.525609 -0.759404 0.992769 0.010928 -0.006099 2942260.000000 1 0 0
9.813138 -1.959790 -7.577463 12.552147 -0.197118 2.218904 0.020691 -0.000548 2499510.000000 1 0 0
-5.158962 -1.856290 6.659437 8.626054 0.345395 0.688792 0.003101 -0.002962 1024480.000000 1 0 0
3.114238 -7.820590 -4.862463 9.721299 -1.191834 2.094611 -0.002936 -0.002774 2972930.000000 1 0 0
-5.182862 4.879110 -13.106563 14.914750 -0.755219 2.644065 0.001687 -0.001962 2586670.000000 1 0 0
-5.677562 9.604310 5.461437 12.421947 -1.036912 1.115576 0.002480 -0.000698 820912.000000 1 0 0
-0.466262 -1.795590 -9.357663 9.539780 1.316737 2.945882 0.007220 -0.006925 -617140.000000 1 0 0
-16.755562 0.158310 6.329037 17.911746 -0.009448 1.209651 0.023739 -0.008848 -1261500.000000 1 0 0
-5.965262 -2.939990 4.045437 7.784180 0.457913 1.024297 0.002311 -0.002316 1717190.000000 1 0 0
1.032638 -5.605190 -5.067163 7.626312 -1.388610 2.297529 0.003190 -0.003113 949374.000000 1 0 0
-7.049162 1.399910 -8.447363 11.090914 -0.196042 2.436648 0.009966 -0.006162 -292787.000000 1 0 0
8.022338 1.881010 4.762337 9.517140 0.230311 1.046740 -0.000298 0.000777 259275.000000 1 0 0
0.467338 -8.029090 -0.431463 8.054245 -1.512656 1.624392 0.001549 -0.001605 1149360.000000 1 0 0
5.458538 5.565310 -3.383263 8.497928 0.795083 1.980272 0.002338 -0.000694 -1380020.000000 1 0 0
-0.655762 -0.316190 -1.188363 1.393631 0.449284 2.591948 0.006648 -0.004631 286431.000000 1 0 0
9.113438 6.376710 -6.205263 12.736658 0.610527 2.079674 0.004173 -0.005122 2355990.000000 1 0 0
-15.047962 -7.162690 2.405537 16.838405 0.444256 1.427446 -0.000344 -0.001526 1715590.000000 1 0 0
-6.494762 6.793510 8.839337 12.902232 -0.807876 0.816053 0.003432 -0.001565 535224.000000 1 0 0
-9.439162 -3.172890 -9.685163 13.891270 0.324275 2.342298 0.009624 -0.009188 1896190.000000 1 0 0
14.935038 3.516810 -1.285063 15.397230 0.231261 1.654354 0.006495 0.008819 1615240.000000 1 0 0
12.182338 1.714410 -5.697463 13.557642 0.139811 2.004506 0.017464 0.000802 -698492.000000 1 0 0
1.555238 -9.361690 12.689937 15.845962 -1.406172 0.642115 -0.004185 -0.004505 -1445860.000000 1 0 0
-3.654362 6.383710 7.831037 10.743894 -1.050880 0.754108 0.003912 0.000355 2218060.000000 1 0 0
-4.045762 13.069110 -12.340063 18.424087 -1.270586 2.304707 0.003852 -0.002949 652136.000000 1 0 0
-10.348962 7.782010 6.477437 14.478186 -0.644755 1.106948 0.004542 -0.005330 850717.000000 1 0 0
8.089338 -9.256890 -7.082363 14.187575 -0.852605 2.093466 0.005816 -0.003903 1561510.000000 1 0 0
5.820238 -3.842890 -0.241063 6.978616 -0.583556 1.605346 0.002001 -0.001487 -1196660.000000 1 0 0
-1.644662 -4.407290 4.085437 6.230563 1.213632 0.855675 0.005412 -0.004547 868830.000000 1 0 0
9.956538 -2.063290 -2.532663 10.478750 -0.204337 1.814909 0.008397 -0.000210 -1161370.000000 1 0 0
13.544938 7.108210 1.419137 15.362485 0.483280 1.478288 0.000921 0.004062 368659.000000 1 0 0
5.412638 -3.713790 -3.224063 7.313239 -0.601359 2.027345 0.004423 -0.003424 -1892890.000000 1 0 0
-12.305262 -5.951290 1.877937 13.797245 0.450472 1.434263 0.004782 0.001896 1027670.000000 1 0 0
3.732738 -5.726490 -0.180963 6.838039 -0.993131 1.597264 0.003161 -0.004950 -382348.000000 1 0 0
-5.275562 3.769310 -8.661163 10.819196 -0.620381 2.498987 0.006766 -0.005359 1772380.000000 1 0 0
-1.657662 -9.304690 7.253337 11.913690 1.394493 0.916219 0.007518 -0.002145 3870470.000000 1 0 0
-7.427562 -7.332890 2.493737 10.731201 0.778984 1.336270 0.011587 -0.001294 -4075910.000000 1 0 0
-5.723062 12.992610 -8.537563 16.566573 -1.155882 2.112211 0.006346 -0.009303 1043910.000000 1 0 0
9.285538 -13.904990 -4.163363 17.230890 -0.982020 1.814833 0.021804 -0.000872 2820870.000000 1 0 0
-6.568562 -5.113390 -6.845063 10.777182 0.661471 2.258991 0.013427 -0.008560 33685.300000 1 0 0
3.428938 0.454810 -6.127463 7.036353 0.131869 2.627683 0.002007 -0.003782 2802080.000000 1 0 0
-3.680362 5.774010 4.921537 8.432424 -1.003329 0.947587 0.006694 0.000813 21871.900000 1 0 0
-2.614562 -10.742690 -2.907263 11.432126 1.332057 1.827927 0.007321 -0.002630 1551990.000000 1 0 0
-12.598462 -0.401690 1.710637 12.720412 0.031873 1.435908 -0.000088 -0.000699 811304.000000 1 0 0
8.422338 -12.003390 -6.131163 15.893656 -0.958955 1.966830 0.011223 -0.004749 155474.000000 1 0 0
6.185838 3.911810 1.004737 7.387580 0.563890 1.434370 0.001400 -0.000333 -159805.000000 1 0 0
3.395038 -4.825490 -10.953363 12.441374 -0.957683 2.647497 -0.000165 -0.001947 -1003000.000000 1 0 0
-7.721462 4.266310 8.515737 12.261327 -0.504781 0.803044 0.000588 -0.002519 1484060.000000 1 0 0
8.244538 8.673310 4.123537 12.657103 0.810737 1.238951 0.006198 0.001456 2188620.000000 1 0 0
0.253838 10.629510 -6.317463 12.367750 1.546920 2.106913 0.003669 0.000305 2105210.000000 1 0 0
5.468838 8.027310 3.299137 10.258177 0.972746 1.243367 0.005555 0.000126 3029080.000000 1 0 0
8.078238 6.730110 -3.687863 11.142380 0.694610 1.908134 0.003476 -0.002815 1450820.000000 1 0 0
10.527238 2.553610 -8.136563 13.547964 0.237975 2.215016 0.005735 -0.000475 983565.000000 1 0 0
3.346638 -12.518890 -0.320863 12.962467 -1.309577 1.595552 0.002600 -0.003775 -3123780.000000 1 0 0
0.642738 2.067810 5.276437 5.703485 1.269433 0.389431 0.006068 -0.003520 1365100.000000 1 0 0
-4.923462 13.482510 1.445737 14.425973 -1.220668 1.470410 0.002765 0.003021 85538.900000 1 0 0
8.252238 4.105710 -7.929663 12.158776 0.461667 2.281248 0.000304 -0.000169 242796.000000 1 0 0
-13.981762 -0.474890 -3.643763 14.456562 0.033952 1.825593 0.002344 -0.000443 319530.000000 1 0 0
-8.621062 0.021510 -0.605863 8.642352 -0.002495 1.640958 0.005560 -0.005819 -506723.000000 1 0 0
1.819538 -3.759390 -1.047463 4.305916 -1.120032 1.816523 0.004335 -0.003787 -1998900.000000 1 0 0
8.093938 -5.712590 -0.187763 9.908621 -0.614599 1.589747 0.003380 -0.000717 1441710.000000 1 0 0
-2.270162 -1.212690 7.281537 7.723020 0.490621 0.339758 0.002784 -0.005945 1914040.000000 1 0 0
-5.858462 8.783110 -11.693763 15.754640 -0.982553 2.407207 0.005086 -0.000532 -245613.000000 1 0 0
-6.176562 9.112310 -8.842463 14.119960 -0.975108 2.247515 0.001269 -0.001913 1613430.000000 1 0 0
-1.511662 13.987210 -8.299663 16.334368 -1.463140 2.103786 0.004138 -0.002252 -684065.000000 1 0 0
-1.525062 7.218110 9.756737 12.231960 -1.362576 0.647419 0.003278 -0.001251 493761.000000 1 0 0
10.093338 2.383210 -3.982363 11.109202 0.231870 1.937429 0.008374 -0.000853 -2217060.000000 1 0 0
-2.981062 -7.500590 -7.026863 10.701513 1.192496 2.287129 0.008827 -0.005237 981704.000000 1 0 0
-5.509862 -4.950490 -1.755563 7.612354 0.731974 1.803511 0.014533 -0.003498 2173310.000000 1 0 0
5.751138 7.408510 -8.764963 12.836907 0.910682 2.322376 -0.000960 -0.002230 86566.400000 1 0 0
-9.648962 5.206410 -7.509163 13.288969 -0.494810 2.171311 -0.000808 -0.001047 1228690.000000 1 0 0
-0.414062 6.160810 -5.302963 8.139314 -1.503688 2.280389 0.008297 -0.000725 -364846.000000 1 0 0
-8.218262 2.778010 -6.341363 10.745699 -0.325971 2.202017 0.005752 -0.003101 651000.000000 1 0 0
3.710438 1.470010 -1.949963 4.441918 0.377211 2.025272 0.001337 -0.001676 2353940.000000 1 0 0
-6.736462 12.459910 -3.460463 14.580949 -1.075159 1.810410 0.004143 -0.001599 804084.000000 1 0 0
-6.570862 3.022910 -2.320663 7.596031 -0.431178 1.881270 0.005673 -0.003335 -906648.000000 1 0 0
12.163438 4.084810 -0.791163 12.855382 0.323993 1.632379 0.002768 0.002085 -176536.000000 1 0 0
2.261238 12.433710 -5.494463 13.780401 1.390899 1.980912 -0.001816 -0.002108 1092330.000000 1 0 0
-9.306862 -1.416890 -4.362463 10.375757 0.151081 2.004735 0.004554 -0.005963 548388.000000 1 0 0
-1.187762 5.800710 3.476537 6.866245 -1.368827 1.039881 0.007999 -0.000528 1297000.000000 1 0 0
11.535438 2.637510 12.077437 16.908201 0.224780 0.775181 0.027058 -0.000370 168790.000000 1 0 0
-7.107862 -2.368090 -5.755363 9.447421 0.321599 2.225847 0.015238 -0.011014 -165847.000000 1 0 0
7.520238 -7.497790 10.937937 15.244976 -0.783903 0.770621 0.018734 -0.008775 -954112.000000 1 0 0
-5.417362 -1.913490 -10.871363 12.296170 0.339536 2.655416 0.009953 -0.007610 410857.000000 1 0 0
0.807938 -6.177990 4.435837 7.648332 -1.440757 0.952099 0.002703 -0.005141 1219400.000000 1 0 0
-4.832362 -9.407790 7.336637 12.871848 1.096284 0.964320 0.002541 0.000551 2597120.000000 1 0 0
-8.855662 9.377010 1.638337 13.001354 -0.813985 1.444448 0.007226 -0.003753 1092620.000000 1 0 0
-8.148962 7.192410 -9.119663 14.188185 -0.723128 2.268898 0.003673 -0.000407 -323786.000000 1 0 0
-1.256562 -10.581290 -0.088263 10.656005 1.452597 1.579079 0.006654 -0.001887 -254034.000000 1 0 0
-4.038762 10.284510 7.803637 13.526991 -1.196596 0.955876 0.005606 0.000576 2261760.000000 1 0 0
-7.494662 12.128510 1.919437 14.385929 -1.017292 1.436973 0.007215 -0.003983 321664.000000 1 0 0
-8.129862 -8.188790 -2.933363 11.906114 0.789009 1.819734 0.011319 -0.003319 893144.000000 1 0 0
5.472338 4.581910 -8.043963 10.753870 0.697066 2.415849 0.002868 -0.000157 819931.000000 1 0 0
-8.899662 -0.158590 -10.161163 13.508455 0.017818 2.422202 0.010109 -0.009040 -748933.000000 1 0 0
-15.318562 -2.186390 -1.593163 15.555604 0.141771 1.673394 0.004478 -0.000492 913649.000000 1 0 0
-7.141462 -5.780390 8.708937 12.659343 0.680454 0.812142 0.007167 -0.001764 -1847390.000000 1 0 0
8.160538 3.426310 -0.948963 8.901377 0.397512 1.677608 0.004046 0.000075 536561.000000 1 0 0
11.923238 7.232510 -5.786163 15.098095 0.545251 1.964096 0.005335 -0.003871 -190735.000000 1 0 0
3.700138 13.308210 -9.483863 16.755391 1.299611 2.172465 0.001436 -0.009658 1072500.000000 1 0 0
-9.702862 5.422110 -0.490063 11.125869 -0.509586 1.614858 -0.002100 -0.002944 1106060.000000 1 0 0
11.350838 -1.244890 -5.106763 12.508809 -0.109237 1.991336 0.026289 -0.003587 349801.000000 1 0 0
10.610238 1.741310 -1.231763 10.822502 0.162666 1.684858 0.006949 0.000449 206018.000000 1 0 0
14.697938 5.032110 4.873337 16.281920 0.329860 1.266827 0.012632 0.000172 3227030.000000 1 0 0
0.877738 -0.786690 10.188837 10.256788 -0.730750 0.115172 0.001460 -0.006098 1247710.000000 1 0 0
-7.890162 1.426810 -12.491063 14.843082 -0.178901 2.570926 0.003759 -0.006274 -91807.900000 1 0 0
3.175038 -11.465890 -7.760163 14.204493 -1.300654 2.148758 -0.003590 0.000213 104470.000000 1 0 0
2.907138 5.027810 -6.826663 8.962904 1.046552 2.436664 0.004554 -0.000509 -2453770.000000 1 0 0
6.574038 8.018410 0.578337 10.384958 0.884058 1.515078 0.004682 -0.001577 -718912.000000 1 0 0
-9.070362 -5.452090 6.656937 12.502462 0.541219 1.009304 0.004649 -0.001275 -917136.000000 1 0 0
-0.281262 -6.884890 -11.816763 13.679061 1.529967 2.613675 -0.002924 0.001411 1740420.000000 1 0 0
6.478538 -13.392190 -4.639863 15.583663 -1.120229 1.873120 0.007486 -0.004006 2319620.000000 1 0 0
-3.341262 -0.329890 9.914937 10.467991 0.098413 0.326511 0.001781 -0.003118 -1183070.000000 1 0 0
8.611338 8.439310 6.975037 13.929402 0.775309 1.046341 0.004178 0.002681 943782.000000 1 0 0
-7.896662 5.634910 -2.670563 10.061878 -0.619783 1.839430 0.002673 -0.004244 944859.000000 1 0 0
-5.466062 5.809610 -6.395463 10.224057 -0.815857 2.246608 0.003987 -0.001751 -348531.000000 1 0 0
3.338338 -13.582690 2.519237 14.211985 -1.329794 1.392593 0.011511 -0.008615 -989561.000000 1 0 0
-11.287062 -7.071590 6.459137 14.802892 0.559693 1.119266 0.012018 -0.001448 -1203770.000000 1 0 0
-12.941962 -3.763390 -6.885763 15.135099 0.282986 2.043116 0.011977 -0.004643 -506201.000000 1 0 0
6.067438 0.342410 -7.153863 9.386629 0.056374 2.437398 0.003524 -0.000939 -1030900.000000 1 0 0
-1.420262 2.197110 -2.468663 3.597045 -0.996940 2.327190 0.009601 -0.004100 3777980.000000 1 0 0
7.609738 0.990410 -4.868863 9.088171 0.129423 2.136176 0.005024 0.001233 786763.000000 1 0 0
3.634538 -4.484190 10.844237 12.284759 -0.889672 0.489136 0.001367 -0.005142 495600.000000 1 0 0
6.069038 -2.593490 2.095537 6.924644 -0.403844 1.263356 0.002757 -0.001911 -1020590.000000 1 0 0
-6.377062 7.795510 1.130037 10.134785 -0.885150 1.459063 0.000915 -0.001446 1375170.000000 1 0 0
6.132338 -3.542490 8.013537 10.694465 -0.523841 0.723767 0.004679 -0.004821 537544.000000 1 0 0
6.748638 -2.302790 -7.749763 10.531182 -0.328834 2.397773 0.004805 -0.001875 974247.000000 1 0 0
12.115638 -8.152090 -5.841063 15.727787 -0.592276 1.951297 0.033723 -0.006962 -1055500.000000 1 0 0
5.539338 -9.638390 9.949837 14.919185 -1.049175 0.840735 0.005365 -0.002022 1294590.000000 1 0 0
-6.601762 7.584810 -4.423463 10.985428 -0.854582 1.985224 0.000884 -0.002199 -749467.000000 1 0 0
-1.382562 -7.570890 9.731437 12.406882 1.390171 0.669136 0.001216 -0.002680 -583645.000000 1 0 0
10.085038 -9.410990 0.695537 13.811535 -0.750838 1.520416 0.007035 -0.004625 1553700.000000 1 0 0
11.098338 6.085010 9.838537 16.031134 0.501523 0.910040 0.012570 -0.001789 3330310.000000 1 0 0
-15.293062 -4.204990 -5.005663 16.631787 0.268330 1.876506 0.005167 -0.003511 1418920.000000 1 0 0
-4.692362 -4.639590 7.802937 10.219094 0.779743 0.701981 0.006676 -0.003620 -427540.000000 1 0 0
2.912338 10.872410 -11.095363 15.805002 1.309075 2.349021 0.003048 -0.004346 -924441.000000 1 0 0
9.895338 -1.400790 1.612737 10.123283 -0.140626 1.410805 0.000174 0.002207 -827654.000000 1 0 0
-1.583662 -2.603290 0.627637 3.111115 1.024274 1.367662 0.007762 -0.006858 633404.000000 1 0 0
1.589338 3.064210 0.928537 3.574571 1.092318 1.308021 0.002229 -0.000365 -89237.600000 1 0 0
-8.946062 -2.427090 4.230337 10.189138 0.264926 1.142655 0.001769 -0.001587 3892990.000000 1 0 0
9.949938 4.932810 -2.608163 11.407734 0.460252 1.801468 0.003822 0.001112 800693.000000 1 0 0
2.608138 8.457410 2.564637 9.214528 1.271665 1.288746 0.005330 -0.000060 1083210.000000 1 0 0
-8.193262 -0.153090 2.303237 8.512219 0.018683 1.296801 0.003321 -0.006005 1348770.000000 1 0 0
6.911938 1.965710 13.720737 15.488626 0.277078 0.482454 0.012191 -0.003148 -852027.000000 1 0 0
6.792138 4.299410 3.778437 8.882266 0.564330 1.131402 -0.000189 0.000267 693202.000000 1 0 0
-0.360762 3.388410 7.746937 8.463244 -1.464727 0.414389 0.003605 -0.003514 -601777.000000 1 0 0
2.709038 -10.147390 9.196137 13.959848 -1.309912 0.851632 0.003632 -0.003326 1382550.000000 1 0 0
1.368338 -4.515990 6.842737 8.312013 -1.276591 0.603711 0.000419 -0.006216 -726753.000000 1 0 0
-0.048962 10.825110 -1.949563 10.999372 -1.566273 1.748981 0.006036 -0.002406 2950340.000000 1 0 0
8.802338 5.457510 8.036637 13.109275 0.555001 0.910881 0.004365 -0.000401 -1060040.000000 1 0 0
2.737638 11.475610 -2.918663 12.153307 1.336612 1.813321 0.004622 -0.006643 432775.000000 1 0 0
1.504738 2.528110 -6.699263 7.316809 1.033912 2.727791 0.006953 -0.003814 2321380.000000 1 0 0
-13.655762 -2.138990 3.514537 14.262086 0.155374 1.321806 0.000907 -0.001210 637098.000000 1 0 0
-0.898462 -10.527190 -5.348463 11.842087 1.485656 2.039409 0.002521 -0.002343 788587.000000 1 0 0
-5.704262 2.843110 0.409737 6.386686 -0.462382 1.506597 0.008338 -0.004147 772905.000000 1 0 0
3.747738 7.309510 -5.017863 9.625665 1.097024 2.119170 0.003086 -0.002457 -1287890.000000 1 0 0
2.930138 9.807610 -6.407963 12.076295 1.280476 2.130132 0.001766 -0.001627 1773190.000000 1 0 0
-12.234162 1.727410 -2.595763 12.625239 -0.140268 1.777874 0.000889 -0.002645 1490230.000000 1 0 0
-2.506762 9.642010 -5.713863 11.484792 -1.316444 2.091529 0.001779 0.000788 1418300.000000 1 0 0
-1.364562 3.321710 1.784237 4.009899 -1.181013 1.109669 0.006080 -0.002660 667188.000000 1 0 0
12.964938 3.708910 9.804537 16.672570 0.278631 0.942133 0.029423 -0.003101 1960640.000000 1 0 0
-2.626862 -9.579090 11.596437 15.268815 1.303147 0.708275 0.000876 -0.006140 2321940.000000 1 0 0
-0.419962 -8.820890 -7.544163 11.614597 1.523222 2.277778 0.003453 -0.001412 1737760.000000 1 0 0
2.406638 7.718310 -0.440463 8.096803 1.268541 1.625223 0.003494 0.001866 1088280.000000 1 0 0
-11.966262 -1.340290 -5.686463 13.316293 0.111541 2.012003 0.003417 0.000912 -380568.000000 1 0 0
-6.201262 -7.150090 -11.004663 14.514890 0.856345 2.431289 0.005388 -0.003219 1645240.000000 1 0 0
-4.734662 -2.198090 -1.433163 5.413186 0.434645 1.838745 0.012757 -0.007381 76303.100000 1 0 0
-10.574462 3.789710 4.473837 12.091169 -0.344124 1.191778 -0.001301 -0.005069 2548900.000000 1 0 0
6.826638 9.389010 -3.532663 12.134092 0.942121 1.866210 0.004156 -0.002803 474899.000000 1 0 0
1.241638 -2.675890 -11.508063 11.880133 -1.136353 2.890660 0.000351 -0.004908 -909033.000000 1 0 0
1.189838 8.819210 7.612437 11.710823 1.436692 0.863167 -0.000228 0.003518 -236863.000000 1 0 0
10.414638 0.397710 10.554437 14.833037 0.038169 0.779096 0.012830 -0.002630 476458.000000 1 0 0
-5.330962 -0.882890 -3.971863 6.706291 0.164126 2.204656 0.014166 -0.011661 -153238.000000 1 0 0
11.731338 5.558710 5.446437 14.077898 0.442497 1.173552 0.005798 0.001272 3184790.000000 1 0 0
9.928838 -3.467390 3.784637 11.177124 -0.335983 1.225362 0.004212 -0.001488 -2166310.000000 1 0 0
7.322338 -1.644890 -3.366563 8.225329 -0.220972 1.992474 0.005135 0.000232 -3182210.000000 1 0 0
2.252338 9.258510 10.493737 14.174327 1.332160 0.737229 0.001450 0.004140 376492.000000 1 0 0
2.408638 -10.791690 6.327537 12.739695 -1.351202 1.051028 0.001703 -0.000595 1059850.000000 1 0 0
5.879438 -7.525190 -1.213363 9.626449 -0.907562 1.697177 0.001152 -0.005052 2205480.000000 1 0 0
-0.239562 -5.514490 -2.291463 5.976437 1.527381 1.964289 0.004378 -0.001516 2002200.000000 1 0 0
7.765538 -5.120090 2.729737 9.693832 -0.582910 1.285340 0.001342 -0.002068 1287700.000000 1 0 0
-2.733762 -12.467890 4.696537 13.600706 1.354948 1.218221 0.009695 -0.000657 41880.200000 1 0 0
4.894838 -10.283290 -1.184863 11.450301 -1.126533 1.674461 0.001829 -0.006177 779969.000000 1 0 0
0.970138 0.256010 1.190737 1.557101 0.258008 0.700199 0.003102 -0.002866 -1182300.000000 1 0 0
-1.582362 8.664210 2.502037 9.156014 -1.390155 1.294009 0.003416 0.002444 -665947.000000 1 0 0
-7.588562 0.577110 -3.193963 8.253528 -0.075904 1.968152 0.007652 -0.005899 -1914550.000000 1 0 0
4.334538 -6.406390 12.865237 15.011475 -0.975951 0.541325 0.007844 -0.009489 -698420.000000 1 0 0
-5.085462 13.036910 8.503037 16.374510 -1.198869 1.024782 0.006615 -0.001251 1982880.000000 1 0 0
0.592938 6.130610 8.207237 10.261320 1.474379 0.643797 0.001853 0.000809 1721920.000000 1 0 0
7.987038 -0.572490 -0.678163 8.036195 -0.071555 1.655285 0.004998 -0.000229 3931140.000000 1 0 0
2.450538 -9.200390 -2.370763 9.811872 -1.310488 1.814833 -0.000714 -0.003695 1599120.000000 1 0 0
-7.094862 12.184210 4.902737 14.927453 -1.043493 1.236147 0.005791 -0.000490 491077.000000 1 0 0
-14.978862 0.305710 0.087437 14.982236 -0.020407 1.564960 0.001358 -0.001470 1093660.000000 1 0 0
6.933338 -0.535390 3.987037 8.015877 -0.077067 1.050206 0.000558 0.000335 -633130.000000 1 0 0
-4.161362 -5.012190 5.142537 8.299679 0.877882 0.902555 0.008187 -0.004277 -233342.000000 1 0 0
2.908538 5.170110 6.874937 9.080440 1.058355 0.711911 0.000595 -0.000058 -453167.000000 1 0 0
2.094838 -7.293890 1.871237 7.816055 -1.291119 1.329039 0.000361 -0.005192 1777230.000000 1 0 0
-2.495162 6.514210 -1.677763 7.174653 -1.205001 1.806828 0.006853 -0.000155 1363760.000000 1 0 0
2.716638 -3.781390 -6.507763 8.001876 -0.947813 2.520563 -0.001448 -0.003445 -1194590.000000 1 0 0
-5.055362 0.942810 -12.165663 13.207912 -0.184379 2.741665 0.004863 -0.003457 -401732.000000 1 0 0
-7.509262 6.392810 -11.956463 15.498840 -0.705262 2.451901 0.010446 0.000772 2771650.000000 1 0 0
-0.970762 11.220410 -9.016063 14.426689 -1.484494 2.245873 0.003501 0.001086 1068090.000000 1 0 0
4.661838 5.948310 -0.582763 7.579890 0.906058 1.647755 0.003574 -0.000556 -64152.400000 1 0 0
-2.707262 13.393610 3.539937 14.115566 -1.371353 1.317308 -0.002359 0.004575 2230990.000000 1 0 0
1.355238 -7.868090 10.189237 12.944654 -1.400225 0.664640 -0.003542 -0.003559 -2123970.000000 1 0 0
13.051238 -0.218690 -0.966563 13.088808 -0.016755 1.644710 0.010817 0.000240 354862.000000 1 0 0
-1.020362 3.132210 -5.389063 6.316160 -1.255873 2.592921 0.010401 -0.004305 165932.000000 1 0 0
6.551838 1.018210 7.277637 9.845168 0.154175 0.738901 0.002010 -0.001380 2646070.000000 1 0 0
5.488838 -6.239890 6.933537 10.823008 -0.849346 0.875479 0.001883 -0.002840 2419170.000000 1 0 0
12.142738 -4.991990 2.647237 13.393055 -0.390046 1.371829 0.005123 -0.003182 -1565660.000000 1 0 0
4.243938 -9.232090 13.767737 17.111198 -1.139910 0.635788 0.008987 -0.008345 -275068.000000 1 0 0
-2.722562 -4.217090 -1.437063 5.221240 0.997519 1.849629 0.014382 -0.006581 1507220.000000 1 0 0
-9.381562 -5.161890 -7.585763 13.122599 0.503009 2.187156 0.006302 -0.006390 1829380.000000 1 0 0
-10.575962 -3.216490 7.748037 13.499217 0.295243 0.959460 0.004345 -0.001644 342538.000000 1 0 0
12.028138 -0.600890 1.740237 12.168221 -0.049916 1.427289 0.002153 0.000447 614133.000000 1 0 0
-7.657962 4.780310 4.356337 10.023643 -0.558044 1.121195 0.003644 -0.003044 3104050.000000 1 0 0
-1.155362 10.661510 6.994937 12.803585 -1.462850 0.992824 0.000050 0.005084 1549370.000000 1 0 0
7.407938 -10.089590 1.847837 12.652742 -0.937474 1.424230 0.002732 -0.007799 2003510.000000 1 0 0
-4.319362 -1.659690 1.611137 4.899717 0.366851 1.235740 0.007499 -0.005000 1836210.000000 1 0 0
6.738438 -14.970390 -0.980963 16.446319 -1.147845 1.630478 0.018250 -0.006141 -1863470.000000 1 0 0
-10.443562 1.745510 2.343237 10.844609 -0.165607 1.353005 -0.002946 -0.002338 359750.000000 1 0 0
-2.982662 8.325010 -11.403263 14.430401 -1.226767 2.481972 0.004895 0.000598 -251033.000000 1 0 0
-1.274662 -5.138890 -6.884463 8.684975 1.327661 2.486000 0.002218 -0.004346 -312691.000000 1 0 0
12.879038 -0.530890 6.557837 14.462251 -0.041198 1.100169 0.006342 -0.004193 855058.000000 1 0 0
5.938938 -13.320190 3.743937 15.057075 -1.151391 1.319510 0.004661 -0.005408 79595.700000 1 0 0
-5.560462 3.477810 -4.914463 8.195477 -0.558925 2.213867 0.007887 -0.004976 -287029.000000 1 0 0
-4.396562 8.038410 3.368937 9.761943 -1.070302 1.218441 0.005195 0.000397 296407.000000 1 0 0
14.085538 6.197810 -3.997763 15.899602 0.414517 1.824962 0.014054 0.002837 -772290.000000 1 0 0
-6.772762 -8.512090 5.222937 12.066692 0.898705 1.123156 0.010966 0.001433 137410.000000 1 0 0
1.663638 11.380010 2.752537 11.825767 1.425635 1.335884 0.004128 -0.001325 2414430.000000 1 0 0
-7.451962 7.299110 5.926537 11.997191 -0.775036 1.054119 0.002172 -0.004159 978082.000000 1 0 0
-17.358962 -4.079590 5.299937 18.602848 0.230825 1.281895 0.027057 -0.003467 -28397.300000 1 0 0
7.520338 -13.057490 -8.551663 17.325833 -1.048255 2.086996 0.004481 0.000656 -1493500.000000 1 0 0
-2.160262 12.912010 -2.703763 13.367762 -1.405025 1.774461 0.000426 0.000405 952919.000000 1 0 0
-5.514762 13.834210 -5.779763 15.975094 -1.191470 1.940993 0.011888 -0.004374 1857690.000000 1 0 0
-5.685262 2.476310 7.409137 9.661761 -0.410786 0.696875 0.004704 -0.003493 1508400.000000 1 0 0
-7.452562 5.094910 1.424637 9.139386 -0.599665 1.414279 0.003344 -0.001979 1546070.000000 1 0 0
10.787538 -5.666690 -5.014863 13.176919 -0.483682 1.961219 0.019359 -0.004722 2071470.000000 1 0 0
-9.526562 -0.756190 6.789637 11.722900 0.079211 0.953077 -0.001762 -0.000813 994984.000000 1 0 0
-11.356662 -4.498190 -2.644463 12.498027 0.377126 1.783998 0.004384 -0.002293 -204512.000000 1 0 0
6.419838 -4.459790 13.581137 15.670078 -0.607153 0.522263 0.015152 -0.013804 -1196110.000000 1 0 0
0.242738 10.279710 -11.735463 15.602963 1.547187 2.422085 0.000769 0.000158 -465423.000000 1 0 0
-11.865462 -3.178090 1.454637 12.369536 0.261701 1.452925 0.001452 -0.000092 2913180.000000 1 0 0
5.286638 5.918210 5.459537 9.632253 0.841705 0.968183 0.002772 0.001345 -3107350.000000 1 0 0
-7.112462 0.004310 8.051137 10.742809 -0.000606 0.723574 0.001551 -0.001974 -64326.600000 1 0 0
1.688838 2.077710 9.616137 9.981941 0.888277 0.271561 0.003644 -0.004841 2639860.000000 1 0 0
10.472538 -4.946890 -1.979763 11.750116 -0.441299 1.740093 0.009332 -0.002260 1284860.000000 1 0 0
-9.796262 -2.348090 -1.712263 10.218225 0.235254 1.739160 0.006094 -0.003493 -1617630.000000 1 0 0
-2.001362 -5.182390 -9.917263 11.367265 1.202256 2.630970 0.006292 -0.005627 1434270.000000 1 0 0
7.654538 -1.648990 6.654337 10.275764 -0.212184 0.866397 0.001830 -0.003290 1654790.000000 1 0 0
1.567238 -11.811790 -2.544263 12.183920 -1.438883 1.781166 0.000837 -0.000637 -3508960.000000 1 0 0
-0.694562 -1.481190 4.786337 5.058198 1.132319 0.329348 0.006039 -0.006082 1697460.000000 1 0 0
7.710038 1.428010 9.884237 12.616737 0.183139 0.670642 0.001135 -0.001048 335819.000000 1 0 0
-3.820262 10.703010 -7.942463 13.864759 -1.227958 2.180778 0.002064 0.000424 3285400.000000 1 0 0
-9.526962 12.645310 6.347937 17.057643 -0.925123 1.189476 0.012383 -0.002447 1271110.000000 1 0 0
-2.455962 -2.367290 -11.015763 11.531819 0.767016 2.841298 0.010658 -0.008339 -3216060.000000 1 0 0
1.155638 -11.855390 11.025037 16.230749 -1.473625 0.824031 -0.001456 0.003159 703026.000000 1 0 0
1.398538 3.523910 -1.919763 4.249628 1.192990 2.039521 0.004805 -0.001210 1950120.000000 1 0 0
-1.899662 -9.408490 -12.123863 15.463391 1.371566 2.471939 0.000071 0.002379 709671.000000 1 0 0
1.327338 -2.678890 1.670537 3.424759 -1.110771 1.061249 0.006982 -0.005240 2700250.000000 1 0 0
-1.052862 -2.220890 -6.630463 7.071344 1.128105 2.786610 0.008298 -0.008619 618325.000000 1 0 0
1.845338 5.855310 4.068137 7.364758 1.265493 0.985581 -0.000474 0.001328 863943.000000 1 0 0
-11.083562 8.649310 3.660137 14.527646 -0.662658 1.316109 -0.001152 -0.008465 2565470.000000 1 0 0
-16.448062 -1.464290 3.902137 16.967898 0.088791 1.338748 0.019777 -0.001324 700543.000000 1 0 0
-12.211762 0.295110 6.771137 13.966478 -0.024161 1.064646 -0.000623 -0.002357 681427.000000 1 0 0
-5.196162 3.038710 4.619737 7.587874 -0.529167 0.916209 0.004800 -0.001303 2151610.000000 1 0 0
5.224538 -6.150790 3.923037 8.973196 -0.866645 1.118319 -0.000619 -0.003244 1635640.000000 1 0 0
9.957638 3.377710 6.323837 12.270061 0.327028 1.029336 0.001333 0.003479 1495240.000000 1 0 0
-12.248262 5.932710 3.180737 13.976196 -0.451067 1.341202 -0.001130 -0.005467 1772930.000000 1 0 0
-4.856162 12.402710 -1.336763 13.386428 -1.197604 1.670823 -0.000874 0.001637 794319.000000 1 0 0
-1.707962 -12.238590 10.356137 16.122959 1.432136 0.873272 0.003853 -0.000587 92881.600000 1 0 0
5.180938 6.277410 13.830637 16.047882 0.880800 0.531918 0.005787 -0.003184 -8978.980000 1 0 0
13.023238 -3.660390 -5.871563 14.747150 -0.273997 1.980294 0.023803 -0.004571 930781.000000 1 0 0
3.603038 -2.587790 6.375237 7.766736 -0.622853 0.607919 0.001887 -0.004027 833397.000000 1 0 0
7.236838 -11.895590 -0.674063 13.940274 -1.024250 1.619169 0.007000 -0.004720 -867274.000000 1 0 0
-6.145562 -6.554990 -4.215063 9.924847 0.817624 2.009425 0.014990 -0.006033 -1718650.000000 1 0 0
0.249538 -8.927290 5.005237 10.237733 -1.542851 1.059967 0.005877 -0.005559 1115230.000000 1 0 0
-10.271762 2.488410 -0.441463 10.578098 -0.237678 1.612542 -0.001464 -0.001949 -1797290.000000 1 0 0
-1.828362 9.047310 -0.354363 9.237007 -1.371393 1.609169 0.006454 0.000274 -153066.000000 1 0 0
-3.540262 2.326710 -6.582463 7.827889 -0.581430 2.569738 0.012687 -0.008898 -369531.000000 1 0 0
-12.768862 3.021510 6.367037 14.584667 -0.232357 1.119028 0.002005 -0.006764 171706.000000 1 0 0
11.449838 1.588810 8.034437 14.077474 0.137882 0.963402 0.008558 -0.006616 -959271.000000 1 0 0
6.082438 2.705710 -3.225963 7.397551 0.418554 2.022040 0.002071 0.000746 563400.000000 1 0 0
10.559938 -2.430790 6.557337 12.665690 -0.226249 1.026607 0.002692 -0.002056 2898210.000000 1 0 0
-0.975462 11.129610 4.110337 11.904395 -1.483374 1.218260 0.003908 0.001314 852450.000000 1 0 0
-1.549062 -12.214390 7.426537 14.378608 1.444647 1.028039 0.006970 0.003211 -965053.000000 1 0 0
8.080138 8.659210 -7.745563 14.151477 0.819978 2.149970 0.001850 -0.007248 129895.000000 1 0 0
-4.710962 -5.886390 -8.783563 11.575566 0.895864 2.432268 0.011600 -0.007265 1066370.000000 1 0 0
-8.514062 -5.289390 -11.702663 15.408414 0.555901 2.433338 0.011957 -0.004789 1479710.000000 1 0 0
6.044038 -0.640390 -9.836863 11.563060 -0.105560 2.588139 0.005198 -0.000673 -1461390.000000 1 0 0
-11.244762 -5.488690 -5.428663 13.639676 0.454091 1.980138 0.001716 -0.005702 -1483870.000000 1 0 0
3.933938 8.958510 -2.679663 10.144524 1.157020 1.838118 0.006534 -0.003357 867663.000000 1 0 0
11.756038 -10.397390 -3.990963 16.193762 -0.724146 1.819813 0.025240 -0.005266 61543.900000 1 0 0
4.000138 -11.243690 3.982737 12.581092 -1.228993 1.248690 0.000148 -0.003513 2104680.000000 1 0 0
-1.050662 0.858810 3.224437 3.498348 -0.685260 0.398349 0.007664 -0.005384 -806628.000000 1 0 0
-10.610762 -5.163390 4.435937 12.606602 0.452885 1.211224 0.006647 -0.000701 2451200.000000 1 0 0
4.620838 -8.699190 2.697137 10.212865 -1.082517 1.303534 -0.001091 -0.004009 4292660.000000 1 0 0
-3.704362 -5.683990 2.624137 7.274348 0.993214 1.201737 0.006306 -0.002927 629363.000000 1 0 0
10.010738 5.091310 12.357637 16.698728 0.470492 0.737674 0.018388 0.002062 572910.000000 1 0 0
1.654738 -12.254890 -5.265563 13.440485 -1.436581 1.973350 0.001547 -0.001348 1298850.000000 1 0 0
9.879738 -10.749490 -1.763563 14.706152 -0.827534 1.691006 0.013421 -0.007419 1803050.000000 1 0 0
9.687938 -4.439090 -9.184263 14.068132 -0.429659 2.282126 0.021861 -0.005137 3404690.000000 1 0 0
-7.306662 -2.983790 -13.033463 15.236846 0.387697 2.597102 0.005703 -0.002975 1416560.000000 1 0 0
0.422638 6.304710 -2.445463 6.775565 1.503861 1.940055 0.006718 -0.000905 2226610.000000 1 0 0
-5.954662 -9.428190 0.936937 11.190470 1.007479 1.486972 0.009573 0.000261 710818.000000 1 0 0
-9.025462 -4.046190 0.524637 9.904840 0.421446 1.517804 0.005598 -0.001341 4072200.000000 1 0 0
1.905438 3.776610 12.060537 12.780846 1.103526 0.337331 0.005504 -0.003783 522630.000000 1 0 0
6.708238 4.217110 9.569037 12.423806 0.561217 0.691614 0.002055 0.000403 2155840.000000 1 0 0
-8.272862 9.876710 -3.568763 13.368834 -0.873538 1.841019 0.004403 -0.001063 988002.000000 1 0 0
16.536438 2.099610 -6.071863 17.740622 0.126293 1.920115 0.027475 0.002326 -879277.000000 1 0 0
-10.938962 2.589210 -5.163663 12.370461 -0.232419 2.001399 -0.000983 0.000474 1650800.000000 1 0 0
-13.795062 4.008510 1.413237 14.434996 -0.282788 1.472736 0.000380 -0.002564 395465.000000 1 0 0
-17.491162 10.334310 3.157137 20.559820 -0.533650 1.416628 0.042667 -0.022153 -673892.000000 1 0 0
-14.417862 2.944210 -1.278163 14.770810 -0.201436 1.657438 0.005788 -0.000789 1319740.000000 1 0 0
-14.461462 5.053910 5.097737 16.145055 -0.336206 1.249554 -0.002386 -0.005248 649829.000000 1 0 0
-17.478562 7.438510 3.033237 19.236218 -0.402361 1.412452 0.024270 -0.010428 -1663120.000000 1 0 0
-15.227062 12.623610 -3.262963 20.046592 -0.692190 1.734293 0.059142 -0.019685 166138.000000 1 0 0
-8.470862 12.496510 -9.567863 17.873507 -0.975086 2.135671 0.009820 -0.015939 845602.000000 1 0 0
-12.491662 8.856910 -9.867563 18.216895 -0.616758 2.143220 0.006848 -0.001957 -35864.700000 1 0 0
-13.903062 -3.565690 -12.410863 18.974688 0.251057 2.283755 0.029129 0.000620 -1192230.000000 1 0 0
-14.863562 5.916210 -7.683163 17.747056 -0.378811 2.018533 0.021842 0.001296 451432.000000 1 0 0
-10.914262 13.455710 -8.359663 19.236975 -0.889309 2.020348 0.017180 -0.021603 705945.000000 1 0 0
-10.867062 13.463310 3.846937 17.724352 -0.891704 1.352013 0.017412 -0.010458 -105672.000000 1 0 0
-15.163062 3.162810 3.021037 15.781270 -0.205638 1.378176 -0.000092 -0.002932 973766.000000 1 0 0
-11.281462 9.480910 -12.511863 19.331470 -0.698893 2.274738 0.001339 -0.000394 -677593.000000 1 0 0
-13.160362 11.652610 -9.017463 19.755837 -0.724708 2.044792 0.016790 -0.019287 605939.000000 1 0 0
-8.883562 14.536910 -3.610663 17.414830 -1.022252 1.779644 0.014454 -0.013464 2756380.000000 1 0 0
-16.712662 8.306510 -4.072563 19.102276 -0.461260 1.785643 0.040402 -0.010770 -1308970.000000 1 0 0
-16.830962 6.696010 0.308737 18.116654 -0.378642 1.553754 0.025653 -0.006002 -1431300.000000 1 0 0
-10.509462 2.833310 -12.543763 16.607902 -0.263335 2.426891 0.013267 -0.005361 1053820.000000 1 0 0
-16.909462 0.878810 2.252637 17.081469 -0.051925 1.438535 0.011751 -0.000754 489999.000000 1 0 0
-12.736962 1.214710 -7.052563 14.609735 -0.095081 2.074566 0.004925 -0.001529 837921.000000 1 0 0
-12.153362 8.979210 -5.378963 16.039441 -0.636311 1.912782 0.015790 -0.006097 -1737630.000000 1 0 0
-9.598762 13.945010 1.199637 16.971702 -0.967946 1.500053 0.031137 -0.011426 -760738.000000 1 0 0
-12.293462 11.145710 2.742537 16.818964 -0.736470 1.407003 0.014026 -0.008876 2126890.000000 1 0 0
-12.474562 6.797010 -3.638963 14.664791 -0.498896 1.821559 0.000700 -0.002075 781794.000000 1 0 0
-15.983762 4.001710 -9.532363 19.035763 -0.245318 2.095274 0.031900 0.000082 -2050900.000000 1 0 0
-15.095462 5.978810 -4.692663 16.900894 -0.377111 1.852151 0.021581 0.001576 2422390.000000 1 0 0
-17.970962 5.247210 7.519737 20.175112 -0.284085 1.188854 0.023561 -0.011108 -2030640.000000 1 0 0
-15.757262 10.059410 -1.974363 18.798434 -0.568176 1.676018 0.043765 -0.015776 -1860570.000000 1 0 0
-8.793362 9.887410 -8.385863 15.665465 -0.843897 2.135670 0.005305 -0.007685 -181049.000000 1 0 0
-17.098162 4.247210 -1.343163 17.668900 -0.243474 1.646888 0.024876 -0.002234 -645564.000000 1 0 0
-10.185762 5.326710 -4.602563 12.381727 -0.481844 1.951660 0.002404 -0.000302 89606.500000 1 0 0
-18.265862 2.698410 6.230737 19.487052 -0.146669 1.245344 0.038493 -0.010111 -48639.800000 1 0 0
-10.244262 10.108610 -5.707363 15.482341 -0.778733 1.948339 0.004826 -0.007981 903100.000000 1 0 0
-15.447262 0.421310 -6.059763 16.598679 -0.027267 1.944510 0.012634 0.005209 -1216980.000000 1 0 0
-16.385762 -4.114490 -8.964963 19.125710 0.246015 2.058659 0.029463 -0.013752 -795039.000000 1 0 0
-9.964862 9.658210 -1.100863 13.920898 -0.769772 1.649959 0.003654 -0.004052 1584530.000000 1 0 0
-17.394262 -2.868690 -3.351163 17.944916 0.163450 1.758646 0.017064 0.000142 -117851.000000 1 0 0
-11.995562 5.075210 -11.569863 17.421624 -0.400252 2.297098 0.012159 0.000935 -767380.000000 1 0 0
-16.415662 7.036510 5.792137 18.775923 -0.404955 1.257194 0.017413 -0.006061 -2168280.000000 1 0 0
-12.161462 6.027710 -8.882263 16.221253 -0.460154 2.150253 0.006304 0.001613 835328.000000 1 0 0
-14.519662 8.328710 -0.086663 16.739041 -0.520794 1.575974 0.025939 -0.011455 -605776.000000 1 0 0
-15.100462 11.864310 3.761937 19.568801 -0.665955 1.377351 0.029096 -0.019732 395054.000000 1 0 0
-17.275162 4.162810 -4.169063 18.252159 -0.236463 1.801245 0.021398 0.000911 640860.000000 1 0 0
-13.922962 13.397110 -0.798963 19.338298 -0.766153 1.612123 0.038533 -0.016637 -366499.000000 1 0 0
-10.119062 6.838510 -13.152663 17.948626 -0.594302 2.393217 0.000892 -0.002622 1183130.000000 1 0 0
-15.823662 -1.149290 -8.507363 18.002343 0.072504 2.063001 0.009623 -0.003455 -844465.000000 1 0 0
-11.504862 11.914410 -0.042463 16.562512 -0.802884 1.573360 0.029623 -0.014968 1444920.000000 1 0 0
-11.896462 7.322610 -0.880363 13.997195 -0.551759 1.633734 0.002450 -0.002774 1061670.000000 1 0 0
-11.456362 0.134610 -11.733963 16.399763 -0.011749 2.368130 0.012852 -0.007604 -632136.000000 1 0 0
-19.200062 -1.116290 -4.915863 19.850798 0.058075 1.821041 0.028662 0.001619 -612294.000000 1 0 0
-17.962962 1.483910 -5.317963 18.792305 -0.082422 1.857702 0.013197 0.006088 -700131.000000 1 0 0
-13.301062 -0.100290 -9.603163 16.405763 0.007540 2.196112 0.014258 -0.006589 -1587300.000000 1 0 0
-6.172162 11.203210 -13.180063 18.366316 -1.067241 2.371177 0.001967 -0.003900 -1490380.000000 1 0 0
16.505738 5.824710 6.997537 18.850256 0.339247 1.190477 0.034961 -0.002988 1110780.000000 1 0 0
14.894738 10.302910 -5.480163 18.921822 0.605144 1.864627 0.040209 -0.012141 282388.000000 1 0 0
2.438138 16.856110 4.376337 17.584803 1.427148 1.319283 0.007331 -0.009933 1204780.000000 1 0 0
-3.884362 18.273310 -5.890863 19.588374 -1.361344 1.876257 0.001561 -0.006181 674809.000000 1 0 0
5.526838 14.508810 5.716537 16.544797 1.206837 1.218005 0.016169 -0.006250 14324.400000 1 0 0
9.757338 5.944610 15.127537 18.957490 0.547190 0.646874 0.020850 0.001409 -1431740.000000 1 0 0
4.732738 12.742910 -1.101263 13.637937 1.215184 1.651634 0.002176 -0.007659 1300560.000000 1 0 0
3.413438 13.614510 12.918937 19.076304 1.325140 0.826813 0.002743 -0.002342 -525268.000000 1 0 0
-0.776362 12.380210 9.302737 15.505265 -1.508168 0.927329 -0.000093 0.002178 1059300.000000 1 0 0
-7.751162 13.951110 8.319437 17.997972 -1.063668 1.090273 0.019124 -0.007045 1143520.000000 1 0 0
11.354738 12.850210 -4.211363 17.657677 0.847103 1.811618 0.025883 -0.012041 -224414.000000 1 0 0
-5.783162 16.234010 0.825937 17.253122 -1.228576 1.522906 0.007959 -0.002017 89585.800000 1 0 0
3.220538 10.608810 6.843337 13.028813 1.276066 1.017792 -0.000719 0.004863 3340350.000000 1 0 0
-1.185262 15.608410 2.375737 15.832606 -1.495004 1.420174 -0.001991 -0.003574 -961663.000000 1 0 0
9.871038 8.778910 9.526237 16.286677 0.726906 0.946027 0.010085 -0.002898 -368277.000000 1 0 0
7.264138 12.197010 6.213037 15.496341 1.033643 1.158258 0.009314 -0.003569 127839.000000 1 0 0
11.881638 14.021510 -1.605163 18.448648 0.867821 1.657914 0.027733 -0.007617 393529.000000 1 0 0
9.612738 15.913210 -1.264963 18.634246 1.027387 1.638732 0.015099 -0.005717 138572.000000 1 0 0
10.187838 13.727410 2.993937 17.355042 0.932336 1.397418 0.017417 -0.000167 1403210.000000 1 0 0
-6.028062 14.560410 6.294937 16.969658 -1.178276 1.190762 0.001370 -0.003012 -141442.000000 1 0 0
-0.980762 18.254410 -6.213063 19.307706 -1.517121 1.898418 0.014996 -0.000993 2177200.000000 1 0 0
-3.534062 15.729710 5.391037 16.999313 -1.349792 1.248092 -0.004433 0.000038 3579790.000000 1 0 0
7.031338 12.136610 10.649837 17.611248 1.045699 0.921385 0.001497 -0.000213 2795890.000000 1 0 0
1.431338 14.629510 6.237837 15.968153 1.473268 1.169467 0.001998 -0.004995 -134582.000000 1 0 0
17.552838 7.791010 -1.430563 19.257426 0.417737 1.645151 0.017642 0.013219 -792885.000000 1 0 0
2.080038 16.193710 -3.306763 16.658255 1.443049 1.770630 -0.001663 -0.006354 1277120.000000 1 0 0
6.766938 11.151610 0.628537 13.059284 1.025383 1.522648 0.008158 -0.003515 543179.000000 1 0 0
12.743438 9.330810 3.228537 16.120877 0.632015 1.369162 0.008405 0.004129 -2274600.000000 1 0 0
6.006838 14.253310 -3.499663 15.858329 1.171949 1.793311 -0.000613 -0.007828 766015.000000 1 0 0
3.147138 16.558410 1.564937 16.927328 1.382974 1.478214 0.005818 -0.012369 -2033900.000000 1 0 0
2.842238 18.824110 -2.488963 19.199489 1.420939 1.700799 0.001956 -0.016313 -1212050.000000 1 0 0
3.937338 11.827810 10.744037 16.457036 1.249446 0.859451 -0.000685 -0.001409 1608390.000000 1 0 0
8.148038 11.502810 3.343437 14.487364 0.954487 1.337914 0.006829 0.000346 738036.000000 1 0 0
0.762838 12.502110 0.240037 12.527661 1.509855 1.551635 0.007033 -0.004750 176313.000000 1 0 0
12.038538 9.952510 -4.540463 16.266366 0.690823 1.853686 0.018188 -0.007844 663065.000000 1 0 0
-1.193962 16.483110 9.849537 19.238811 -1.498487 1.033329 -0.004849 -0.002374 -618574.000000 1 0 0
8.020838 14.693410 -8.005663 18.555882 1.071122 2.016880 0.013455 -0.010715 -483786.000000 1 0 0
14.608338 7.648310 -1.315263 16.541768 0.482316 1.650392 0.011089 0.004134 2246930.000000 1 0 0
12.541838 8.241110 6.004437 16.163751 0.581343 1.190199 0.006735 0.002427 -1823550.000000 1 0 0
-2.996162 14.183710 10.248237 17.753337 -1.362617 0.955431 0.006948 -0.008999 2001850.000000 1 0 0
-4.660262 17.145410 -3.167563 18.047620 -1.305400 1.747222 0.014234 -0.010062 -39998.400000 1 0 0
-7.180462 16.349910 -1.861963 17.953983 -1.156981 1.674691 0.015981 -0.008478 999543.000000 1 0 0
8.408038 11.311310 -1.819763 14.210995 0.931578 1.699202 0.011920 -0.005520 -572422.000000 1 0 0
8.509838 12.953710 -4.170663 16.050245 0.989556 1.833664 0.014203 -0.006387 1754820.000000 1 0 0
2.592438 14.854910 -7.273763 16.742064 1.398019 2.020235 -0.005423 -0.003688 -1325510.000000 1 0 0
11.241638 11.280910 9.758837 18.678015 0.787142 1.021043 0.015026 -0.007757 -423439.000000 1 0 0
8.593138 15.734810 1.479337 17.989294 1.070935 1.488469 0.010845 -0.005911 638367.000000 1 0 0
6.030338 9.879810 7.810237 13.963360 1.022787 0.977209 0.003976 0.005553 2672670.000000 1 0 0
14.472438 11.476110 2.664537 18.661520 0.670435 1.427524 0.019486 0.007795 1201800.000000 1 0 0
12.174438 12.663610 1.113137 17.601790 0.805090 1.507514 0.022911 0.000133 3083740.000000 1 0 0
5.235738 15.894510 8.260737 18.662480 1.252585 1.112257 0.013277 -0.001260 -1631290.000000 1 0 0
11.685638 15.036210 5.201937 19.740869 0.910134 1.304136 0.031267 0.001754 1248080.000000 1 0 0
5.982238 16.808210 1.764037 17.928048 1.228865 1.472241 0.003327 -0.015321 -221522.000000 1 0 0
-0.647262 16.190910 -4.205963 16.740807 -1.530841 1.824758 0.006130 -0.005871 1383780.000000 1 0 0
16.086738 6.468310 2.573037 17.528340 0.382306 1.423471 0.002545 0.008088 396818.000000 1 0 0
7.588538 16.733110 -3.157863 18.642826 1.145032 1.741005 -0.003656 -0.004183 -1175740.000000 1 0 0
14.873338 8.169510 7.476937 18.543507 0.502284 1.155774 0.030504 -0.001937 612346.000000 1 0 0
2.135138 12.931510 8.623137 15.688889 1.407161 0.988871 0.000906 -0.000360 1702220.000000 1 0 0
15.993938 7.645410 -5.905163 18.685002 0.445909 1.892346 0.020652 0.000181 -1640830.000000 1 0 0
-2.956862 17.084910 0.674937 17.352023 -1.399425 1.531890 -0.003552 -0.001828 942134.000000 1 0 0
-2.900662 18.591910 4.632537 19.378683 -1.416027 1.329406 -0.008729 -0.001690 945339.000000 1 0 0
-0.860762 19.135910 0.903237 19.176543 -1.525845 1.523678 -0.005829 -0.006164 -301466.000000 1 0 0
6.907738 16.773910 -6.101063 19.139066 1.180147 1.895233 0.004080 -0.004490 -429205.000000 1 0 0
11.043638 10.023910 0.856537 14.939022 0.737033 1.513429 0.010404 -0.000665 -2805000.000000 1 0 0
9.062338 8.608710 14.298237 18.991457 0.759733 0.718373 0.018917 -0.008632 532625.000000 1 0 0
6.250238 12.293310 -8.346663 16.120103 1.100431 2.115050 0.013045 -0.011297 -295374.000000 1 0 0
6.300638 8.983710 13.394037 17.314887 0.959171 0.686363 0.001395 -0.001170 428350.000000 1 0 0
16.745938 9.509810 2.942637 19.481325 0.516473 1.419167 0.015145 0.006281 -1141370.000000 1 0 0
2.662538 14.760810 -0.726663 15.016613 1.392336 1.619206 0.004514 -0.009722 1548320.000000 1 0 0
9.047938 12.911710 8.349337 17.840652 0.959564 1.083776 0.011780 -0.006033 526428.000000 1 0 0
7.224638 9.302310 10.615937 15.856433 0.910456 0.837256 0.003582 0.000267 1598900.000000 1 0 0
4.299738 15.873810 -5.258963 17.266218 1.306274 1.880295 -0.002034 -0.003426 1150870.000000 1 0 0
0.184338 16.327510 -8.082163 18.219301 1.559507 2.030413 0.000736 -0.001566 562130.000000 1 0 0
-2.369562 15.765210 -1.973163 16.063936 -1.421610 1.693939 -0.001857 -0.001483 -1201640.000000 1 0 0
13.234638 10.507010 7.697237 18.568801 0.671012 1.143375 0.021061 -0.004261 2315330.000000 1 0 0
-0.991662 15.933710 7.029537 17.443649 -1.508640 1.156020 -0.000457 -0.001976 1921380.000000 1 0 0
13.374238 13.380910 6.947437 20.154053 0.785648 1.218859 0.030945 0.002700 439.843000 1 0 0
5.405838 17.281410 4.614037 18.685811 1.267627 1.321288 0.015576 -0.012671 1970300.000000 1 0 0
10.863538 9.520810 -1.815463 14.558784 0.719623 1.695821 0.009016 -0.000178 463186.000000 1 0 0
3.229538 12.744710 4.816437 14.001986 1.322618 1.219641 0.003398 0.002226 2229270.000000 1 0 0
-0.164362 18.050810 3.566237 18.400456 -1.561691 1.375750 -0.006684 -0.007258 2711180.000000 1 0 0
-7.687362 15.826210 -5.938663 18.569657 -1.118625 1.896320 0.026948 -0.017083 -794829.000000 1 0 0
-12.595762 -9.169490 8.217237 17.614078 0.629260 1.085449 0.024946 -0.003832 -392185.000000 1 0 0
-13.434862 -11.756590 6.842737 19.118995 0.718876 1.204776 0.027013 -0.006765 -254266.000000 1 0 0
-6.535562 -12.360490 12.482537 18.743239 1.084417 0.841996 0.025878 -0.003434 -117556.000000 1 0 0
-1.804962 -10.824690 14.350137 18.065388 1.405572 0.652869 0.000121 -0.002855 255463.000000 1 0 0
-8.874562 2.849110 10.931237 14.365487 -0.310648 0.706040 0.001536 -0.004868 978145.000000 1 0 0
0.572538 9.927110 15.291737 18.240409 1.513186 0.576558 0.018084 -0.006934 877215.000000 1 0 0
0.864738 -6.739690 16.555637 17.895818 -1.443188 0.389466 0.009045 -0.013046 1459640.000000 1 0 0
5.934838 2.248310 17.784837 18.883263 0.362126 0.342760 0.028163 -0.012619 1004120.000000 1 0 0
-5.174462 -3.001890 17.553037 18.544420 0.525685 0.328460 0.021827 -0.013756 810330.000000 1 0 0
-4.320162 8.184310 13.098137 16.037703 -1.085111 0.615112 0.005911 0.000504 2136610.000000 1 0 0
-0.009362 -4.887090 18.597937 19.229327 1.568881 0.256967 0.013857 -0.015465 -582348.000000 1 0 0
-11.657662 2.084810 11.085137 16.221214 -0.176965 0.818424 0.009116 -0.006400 -862697.000000 1 0 0
-3.447362 -6.065290 14.215337 15.835020 1.053955 0.456241 0.012738 -0.011075 1268730.000000 1 0 0
-7.534562 -2.230990 14.425037 16.426461 0.287876 0.498797 0.012342 -0.007022 335246.000000 1 0 0
-6.085462 -1.172990 10.527437 12.216206 0.190418 0.532068 0.005580 -0.004087 -541458.000000 1 0 0
-4.003262 2.456810 11.111837 12.063786 -0.550434 0.399925 0.001764 -0.001145 1310890.000000 1 0 0
-6.494762 6.295810 13.548337 16.290383 -0.769845 0.588675 0.001309 -0.002015 124134.000000 1 0 0
-9.028862 5.457710 12.488737 16.348563 -0.543703 0.701455 -0.000604 -0.003521 -978389.000000 1 0 0
-12.278562 -2.272390 15.697837 20.058637 0.182999 0.671969 0.024003 -0.002709 1053420.000000 1 0 0
-3.556362 -7.594990 16.869537 18.839131 1.132869 0.461351 0.023831 -0.010480 -682526.000000 1 0 0
-0.603362 -5.338290 14.295437 15.271572 1.458249 0.359475 0.000309 -0.006020 1335140.000000 1 0 0
-14.251562 -2.314590 13.598437 19.833856 0.161004 0.815345 0.029246 -0.002628 -1857010.000000 1 0 0
-6.540062 1.425410 12.116037 13.842058 -0.214595 0.504728 0.003076 -0.002492 2204710.000000 1 0 0
2.177138 -2.238290 14.437937 14.771726 -0.799247 0.212989 -0.000446 -0.006136 -342901.000000 1 0 0
-12.603362 3.995710 9.074337 16.036023 -0.307011 0.969306 0.000283 -0.004867 -2072690.000000 1 0 0
-9.094162 -3.025290 12.423937 15.691092 0.321147 0.657074 0.003088 0.001266 1908210.000000 1 0 0
-7.159862 -7.278690 15.239337 18.343401 0.793628 0.590288 0.022074 -0.008176 1115280.000000 1 0 0
-3.166662 5.878110 19.348637 20.468260 -1.076654 0.332285 0.031059 -0.017888 1372270.000000 1 0 0
0.624738 5.379310 16.120137 17.005472 1.455177 0.324098 0.016569 -0.009924 2151050.000000 1 0 0
3.334238 1.457710 16.648737 17.041787 0.412154 0.215189 0.010246 -0.010202 1276560.000000 1 0 0
-11.775862 11.412810 7.743437 18.135158 -0.769743 1.129641 0.014994 -0.011085 580996.000000 1 0 0
0.551038 -9.478690 15.416937 18.106108 -1.512727 0.552001 -0.001915 -0.003256 1261030.000000 1 0 0
-2.600662 -3.712890 18.805737 19.344372 0.959774 0.236536 0.023642 -0.017431 1486930.000000 1 0 0
-12.864162 2.408110 13.688737 18.938510 -0.185054 0.762952 0.010943 -0.013212 162730.000000 1 0 0
-5.387562 -0.629690 15.680437 16.592120 0.116351 0.333039 0.009086 -0.005194 2413880.000000 1 0 0
-4.501262 -6.116290 11.574437 13.843336 0.936350 0.580658 0.006405 -0.003591 318377.000000 1 0 0
2.372138 1.756210 13.890937 14.201037 0.637296 0.209363 0.000951 -0.005724 9297.420000 1 0 0
0.051638 3.230710 14.225737 14.588069 1.554814 0.223343 0.009458 -0.005305 1162380.000000 1 0 0
-13.144662 6.909810 12.175137 19.203166 -0.483975 0.884059 0.013927 -0.004452 -625643.000000 1 0 0
0.803838 1.462510 18.223037 18.299294 1.068238 0.091325 0.008167 -0.007414 1304330.000000 1 0 0
-2.017162 6.434410 12.472037 14.178233 -1.267004 0.495648 0.002716 -0.000637 99814.700000 1 0 0
-13.512162 -2.620190 10.778037 17.481705 0.191536 0.906466 0.023121 -0.002451 -545748.000000 1 0 0
-2.629662 3.587910 13.448037 14.164672 -0.938314 0.319454 0.002673 -0.000647 -137551.000000 1 0 0
3.580838 6.035210 16.346937 17.789562 1.035300 0.405498 0.013123 -0.005722 1630330.000000 1 0 0
-3.712662 12.357810 12.408537 17.901707 -1.278945 0.804949 0.006408 -0.002303 1704260.000000 1 0 0
3.605938 -1.459290 16.953137 17.393711 -0.384544 0.225553 0.012566 -0.012003 335470.000000 1 0 0
-15.771162 0.478110 9.135037 18.232033 -0.030306 1.045993 0.035534 -0.010995 -595302.000000 1 0 0
-4.745162 4.581010 15.136337 16.510933 -0.767799 0.410939 0.009407 -0.006290 620785.000000 1 0 0
-8.132162 -8.136890 10.495137 15.572056 0.785689 0.831223 0.022225 -0.004203 3939180.000000 1 0 0
-2.620562 -0.455590 14.580237 14.820871 0.172132 0.180445 0.006420 -0.005521 1519230.000000 1 0 0
-1.862362 0.876610 17.193137 17.315912 -0.439932 0.119153 0.009910 -0.009877 527815.000000 1 0 0
-0.687562 -2.426890 14.289537 14.510459 1.294721 0.174721 0.006244 -0.005004 -1224740.000000 1 0 0
4.900738 -8.276190 16.403537 19.015483 -1.036170 0.530328 0.013356 -0.013666 1848540.000000 1 0 0
-4.588862 9.966110 10.698437 15.324410 -1.139289 0.798013 0.002815 -0.000913 -876251.000000 1 0 0
-6.257062 2.016010 15.130737 16.497100 -0.311695 0.409863 0.008204 -0.004434 -1046830.000000 1 0 0
-5.047862 6.739310 17.288637 19.230085 -0.927924 0.453222 0.017869 -0.002758 -1490940.000000 1 0 0
-4.277062 9.132810 15.809337 18.751976 -1.132814 0.567819 0.019703 -0.001436 -249757.000000 1 0 0
-4.964562 -9.835890 18.167437 21.247291 1.103364 0.545154 0.045786 -0.013567 288505.000000 1 0 0
-6.842362 -4.141690 11.054137 13.644246 0.544308 0.626357 0.006617 -0.000267 1355590.000000 1 0 0
-2.394962 -0.893790 19.570137 19.736387 0.357188 0.129887 0.015621 -0.010335 -1266620.000000 1 0 0
-5.833862 -4.549190 15.156237 16.865367 0.662296 0.454090 0.015814 -0.010199 628427.000000 1 0 0
-12.929462 0.064410 9.695437 16.160960 -0.004982 0.927383 0.012857 -0.003119 1695820.000000 1 0 0
-14.457562 8.808310 10.468237 19.904557 -0.547195 1.016998 0.004748 -0.002296 -2241800.000000 1 0 0
-8.390962 10.545310 12.723337 18.533621 -0.898679 0.814131 0.008487 -0.008454 -1508430.000000 1 0 0
-10.619262 7.146510 10.787737 16.739671 -0.592358 0.870504 0.005731 -0.003046 688464.000000 1 0 0
-9.911662 -6.455490 14.768437 18.921446 0.577290 0.675310 0.017062 -0.005975 762122.000000 1 0 0
-0.661362 -13.543190 14.406037 19.783562 1.522002 0.755130 -0.000105 -0.007927 -160229.000000 1 0 0
3.657938 -5.711290 16.985037 18.289091 -1.001146 0.379911 0.013894 -0.013775 659565.000000 1 0 0
-7.339362 9.230010 10.380137 15.710078 -0.899012 0.849004 0.006866 -0.003200 1694560.000000 1 0 0
-10.421862 -6.710990 11.890137 17.176378 0.572099 0.806211 0.020016 -0.002742 1758880.000000 1 0 0
-10.952062 -3.963990 10.585437 15.738880 0.347272 0.833125 0.012068 0.002305 -607850.000000 1 0 0
-10.262962 -10.156090 9.847337 17.476974 0.780164 0.972245 0.032444 -0.011848 321929.000000 1 0 0
-9.836262 -3.559090 15.132137 18.395672 0.347178 0.604841 0.017831 -0.007658 437690.000000 1 0 0
5.484238 -3.434990 16.107337 17.358639 -0.559561 0.382017 0.017253 -0.013846 872892.000000 1 0 0
-11.431462 0.437210 15.289237 19.095294 -0.038228 0.642365 0.021342 -0.007771 -246359.000000 1 0 0
-3.272862 3.072310 18.566537 19.101492 -0.753802 0.237224 0.019579 -0.016623 -902994.000000 1 0 0
0.536238 7.226310 13.888637 15.665291 1.496726 0.480883 0.012549 -0.005708 1278510.000000 1 0 0
-13.248962 -7.550490 12.242637 19.555742 0.517988 0.894334 0.018935 -0.001042 1230330.000000 1 0 0
-1.523562 -1.082390 11.963437 12.108536 0.617694 0.154966 0.001873 -0.004773 -78465.600000 1 0 0
2.009238 -4.878890 13.121237 14.142400 -1.180140 0.382340 -0.001094 -0.008467 957018.000000 1 0 0
-14.621862 -4.138690 8.549237 17.436085 0.275833 1.058341 0.018820 -0.002354 -3521690.000000 1 0 0
8.021038 0.832510 16.171537 18.070660 0.103420 0.462576 0.025846 -0.011597 152864.000000 1 0 0
-1.235062 11.272210 13.496237 17.627720 -1.461665 0.698783 0.007788 -0.000777 1453920.000000 1 0 0
2.923738 -12.261990 -13.966063 18.813707 -1.336728 2.407344 0.005245 0.011493 359194.000000 1 0 0
0.780438 -10.764190 -14.114363 17.767727 -1.498420 2.488786 -0.006091 0.009623 -2896240.000000 1 0 0
3.475238 -14.250990 -12.458863 19.245552 -1.331605 2.274916 0.010871 0.006526 -909273.000000 1 0 0
-5.085862 -10.480190 -16.085563 19.860657 1.118991 2.514814 0.001567 -0.006167 -188699.000000 1 0 0
-0.978862 -12.279190 -15.133463 19.513031 1.491247 2.458393 0.008076 0.001617 -609756.000000 1 0 0
5.873638 -14.955690 -11.932563 20.013954 -1.196568 2.209571 -0.003007 0.007414 951237.000000 1 0 0
1.933338 -11.974690 -16.302463 20.319973 -1.410726 2.501914 0.007349 0.013831 -648896.000000 1 0 0
1.419038 -14.476990 -13.926763 20.138313 -1.473088 2.334437 0.029264 0.009982 -535754.000000 1 0 0
-1.063962 -10.746090 -15.970463 19.278645 1.472109 2.547045 -0.005404 0.002602 -203180.000000 1 0 0
-5.969362 -5.626490 -15.220963 17.290702 0.755838 2.647285 0.009662 0.001134 -51716.600000 1 0 0
-6.294562 -7.611490 -16.799263 19.487728 0.879818 2.610084 0.005958 0.007467 531255.000000 1 0 0
5.024338 -12.437690 -11.343563 17.567485 -1.186880 2.272754 -0.005371 0.005319 243649.000000 1 0 0
-1.766862 -15.621490 -13.103963 20.466231 1.458170 2.265649 0.032471 0.001270 -5136.610000 1 0 0
15.740038 -7.277190 -8.946763 19.512838 -0.433065 2.047110 0.035701 -0.002211 215557.000000 1 0 0
19.339538 -3.594590 -4.039563 20.081257 -0.183770 1.773339 0.041087 -0.018410 872308.000000 1 0 0
14.910538 -11.551090 -8.798563 20.812653 -0.659118 2.007275 0.045791 -0.018529 20462.200000 1 0 0
18.076738 -3.478490 -6.340363 19.469683 -0.190105 1.902499 0.065528 -0.006914 601626.000000 1 0 0
9.603038 -9.104390 -15.295563 20.225294 -0.758749 2.428373 0.061604 -0.023817 159169.000000 1 0 0
1.399838 1.843210 -15.244563 15.419263 0.921270 2.990918 0.014961 -0.004910 -189831.000000 1 0 0
4.906438 -4.282390 -13.946763 15.392342 -0.717589 2.704732 0.007819 -0.001670 836024.000000 1 0 0
13.323738 -5.520090 -8.606363 16.794728 -0.392777 2.108825 0.044516 -0.002103 -1946290.000000 1 0 0
2.991938 0.937410 -12.110863 12.510133 0.303624 2.888267 0.003991 -0.004303 -2092750.000000 1 0 0
0.525538 6.354310 -12.938063 14.423831 1.488278 2.683714 0.012169 -0.003208 -27701.000000 1 0 0
3.130938 -1.151690 -16.669963 17.000495 -0.352480 2.944079 0.017695 -0.007360 -334503.000000 1 0 0
13.178838 4.325810 -11.330063 17.909906 0.317159 2.255721 0.013762 -0.007481 12609.900000 1 0 0
-3.806862 9.506710 -16.646163 19.543911 -1.189911 2.590077 0.011770 0.006614 -13882.500000 1 0 0
-0.202362 -5.078890 -17.674863 18.391217 1.530974 2.861570 0.003303 -0.005983 512689.000000 1 0 0
-0.616062 -8.604790 -17.552763 19.558155 1.499323 2.684785 -0.005691 0.000247 -1226110.000000 1 0 0
5.631938 -10.058890 -12.191063 16.778618 -1.060387 2.384132 0.001112 0.003550 796298.000000 1 0 0
1.610938 -9.862490 -18.069863 20.649062 -1.408886 2.636426 0.009091 -0.004921 -419415.000000 1 0 0
10.970438 8.659710 -14.291663 19.989815 0.668224 2.367345 0.035196 -0.018486 522653.000000 1 0 0
11.118838 -3.794390 -12.898263 17.446809 -0.328866 2.402813 0.029438 -0.011231 272351.000000 1 0 0
4.930838 7.347910 -12.111863 15.000072 0.979763 2.510619 0.000517 -0.002887 -69628.900000 1 0 0
9.621638 -5.820890 -12.558263 16.857303 -0.544073 2.411293 0.025777 -0.011957 -859323.000000 1 0 0
-3.223362 0.306710 -15.817463 16.145472 -0.094867 2.939677 0.012065 -0.005501 -723778.000000 1 0 0
-0.839162 10.776410 -12.852763 16.793711 -1.493083 2.442353 -0.001059 0.001606 -890544.000000 1 0 0
6.649838 -5.406090 -12.464863 15.126763 -0.682597 2.539279 0.011022 -0.004952 -841183.000000 1 0 0
17.844938 -6.369090 -7.905363 20.530511 -0.342820 1.966063 0.038174 -0.011806 32007.200000 1 0 0
13.085038 4.893910 -13.960163 19.749803 0.357901 2.355832 0.010728 -0.008539 258846.000000 1 0 0
14.205738 0.912510 -11.484463 18.290122 0.064147 2.249655 0.025209 -0.003889 -855937.000000 1 0 0
14.966038 6.161610 -11.121663 19.637696 0.390557 2.172858 0.022380 -0.013195 -153226.000000 1 0 0
8.261538 1.500110 -11.712463 14.411285 0.179621 2.519616 -0.004024 0.002667 543069.000000 1 0 0
9.949738 1.308110 -8.883963 13.402732 0.130722 2.295411 0.005871 -0.000915 276238.000000 1 0 0
-0.137762 -5.796990 -12.973063 14.210012 1.547036 2.721258 -0.004321 -0.001699 370981.000000 1 0 0
10.772138 -5.579890 -8.872263 15.029677 -0.477938 2.202247 0.027193 -0.007635 -849087.000000 1 0 0
10.102838 8.494310 -11.130663 17.265929 0.699120 2.271375 0.013826 -0.015465 542608.000000 1 0 0
8.450138 8.109510 -14.578563 18.700360 0.764831 2.464803 0.023402 -0.006300 629023.000000 1 0 0
8.611138 10.667710 -10.618263 17.340682 0.891671 2.229804 0.021120 -0.013085 -27205.500000 1 0 0
7.201538 1.562910 -17.919663 19.375736 0.213710 2.751439 0.027395 0.007821 -39789.500000 1 0 0
12.091538 2.647910 -12.892763 17.872886 0.215585 2.376559 0.008176 -0.003377 -1180790.000000 1 0 0
2.657938 -0.673590 -19.191663 19.386549 -0.248200 2.999680 0.031160 -0.014055 -464316.000000 1 0 0
10.350638 -2.301890 -15.557563 18.827431 -0.218830 2.543346 0.029869 -0.007210 427195.000000 1 0 0
8.302538 -0.820190 -12.985563 15.434691 -0.098468 2.570523 0.005178 -0.001280 -142081.000000 1 0 0
0.535638 4.321110 -14.644363 15.277967 1.447467 2.852589 0.012026 -0.004316 -55447.000000 1 0 0
3.958638 -7.730990 -15.749263 17.985503 -1.097557 2.637606 0.009400 -0.006646 -119255.000000 1 0 0
11.528638 -5.904390 -14.368963 19.345243 -0.473320 2.407986 0.044492 -0.015809 -845251.000000 1 0 0
-5.965862 4.336610 -16.858263 18.401052 -0.628555 2.729183 0.011645 0.001835 78668.100000 1 0 0
11.415438 7.879310 -9.006163 16.538039 0.604141 2.146676 0.018403 -0.010863 -1468280.000000 1 0 0
9.621938 6.108710 -13.384063 17.579282 0.565668 2.436196 0.010481 -0.000408 221312.000000 1 0 0
12.090738 0.568110 -10.196363 15.826387 0.046953 2.270856 0.021015 0.000576 -616588.000000 1 0 0
5.485638 -7.298890 -13.712063 16.473818 -0.926290 2.554139 0.007288 -0.003653 -189735.000000 1 0 0
8.695438 -10.145390 -10.725863 17.134285 -0.862205 2.247195 0.015391 -0.002493 -229139.000000 1 0 0
9.991238 4.737110 -15.866663 19.339494 0.442735 2.532956 0.023384 0.002661 -793109.000000 1 0 0
9.827638 -0.389190 -10.971663 14.734698 -0.039581 2.410753 0.006902 -0.001722 -339872.000000 1 0 0
-1.768762 5.461810 -13.962063 15.096327 -1.257612 2.751477 0.009485 -0.004103 465564.000000 1 0 0
1.436138 -0.676190 -14.839363 14.924021 -0.440048 3.035028 0.007416 -0.004615 -2715810.000000 1 0 0
11.672638 -10.180190 -14.196563 21.010215 -0.717209 2.312708 0.070321 -0.019367 92026.100000 1 0 0
9.371538 -7.674390 -10.675563 16.145886 -0.686162 2.293206 0.025301 -0.007392 -281592.000000 1 0 0
14.146838 -0.861490 -9.715563 17.183345 -0.060821 2.171721 0.032424 -0.003489 917725.000000 1 0 0
3.986838 11.114110 -12.316663 17.062195 1.226376 2.377295 0.014681 -0.009688 -29333.000000 1 0 0
-1.298062 2.916310 -17.085063 17.380714 -1.152021 2.956884 0.008407 -0.001877 -361547.000000 1 0 0
6.030138 -0.697190 -17.606063 18.623160 -0.115107 2.809571 0.016523 0.000716 134546.000000 1 0 0
6.226138 -6.504590 -16.036563 18.391461 -0.807267 2.629982 0.016998 -0.008945 150116.000000 1 0 0
-1.650762 -5.291790 -19.786063 20.547904 1.268415 2.868434 0.005137 -0.011886 -1255950.000000 1 0 0
0.057938 -4.347590 -15.215163 15.824224 -1.557471 2.863245 -0.000254 -0.003223 170506.000000 1 0 0
0.572138 0.839410 -12.971063 13.010781 0.972529 3.063436 0.007960 -0.005558 526709.000000 1 0 0
15.756938 0.708110 -13.503963 20.763900 0.044909 2.278852 0.033149 -0.016511 609527.000000 1 0 0
-0.134662 7.021710 -16.266363 17.717706 -1.551621 2.734019 0.018682 -0.001317 -479329.000000 1 0 0
-5.222462 -0.565090 -18.194463 18.937579 0.107784 2.860524 0.017994 -0.004357 -103004.000000 1 0 0
10.392038 -8.283690 -12.915663 18.531819 -0.672982 2.341925 0.032510 -0.021495 -190477.000000 1 0 0
4.135538 8.583010 -17.107463 19.581522 1.121791 2.633457 0.029353 -0.010652 -145377.000000 1 0 0
9.421738 0.383110 -16.826563 19.288575 0.040640 2.630804 0.023556 -0.001632 66239.800000 1 0 0
3.247738 4.921310 -18.456363 19.375356 0.987470 2.832365 0.029210 -0.004055 -899939.000000 1 0 0
1.445838 -8.218190 -15.919763 17.974091 -1.396647 2.658809 -0.004788 -0.003011 -620319.000000 1 0 0
4.516238 7.663810 -14.729763 17.207449 1.038286 2.598299 0.012839 -0.004355 641799.000000 1 0 0
-5.639762 -0.480390 -15.151563 16.174287 0.084974 2.784075 0.004740 -0.002792 -449825.000000 1 0 0
2.860138 3.323910 -13.709163 14.393398 0.860253 2.832013 0.009377 -0.001857 -222517.000000 1 0 0
-2.589162 -10.136290 -17.999263 20.818780 1.320709 2.615088 0.002231 -0.004240 -339634.000000 1 0 0
6.291038 -9.077390 -15.523163 19.051109 -0.964754 2.523209 0.015720 -0.004931 549426.000000 1 0 0
-1.862162 5.459510 -17.327263 18.262200 -1.242085 2.820227 0.015861 -0.003910 689067.000000 1 0 0
10.073938 -12.193890 -11.509363 19.561202 -0.880315 2.199847 0.036073 -0.006814 49719.200000 1 0 0
10.879338 3.550310 -9.372163 14.791962 0.315439 2.256992 0.004264 -0.001464 -778617.000000 1 0 0
4.848838 -0.453590 -10.834263 11.878477 -0.093275 2.719154 0.004174 -0.002188 -393852.000000 1 0 0
6.376138 9.477610 -11.443363 16.168821 0.978588 2.357094 0.010224 -0.010772 360649.000000 1 0 0
10.808138 -9.541790 -9.386163 17.203536 -0.723250 2.147895 0.031601 -0.008459 -1603080.000000 1 0 0
3.280838 -2.420690 -14.327163 14.896014 -0.635665 2.864343 0.005793 -0.005064 71863.800000 1 0 0
9.377838 -4.580590 -14.736263 18.057771 -0.454364 2.525361 0.039974 -0.013312 100972.000000 1 0 0
-3.879362 -6.630690 -16.580063 18.273314 1.041433 2.707703 -0.010650 0.003839 -1338600.000000 1 0 0
5.902238 -7.670890 -11.176963 14.785245 -0.914973 2.427906 0.002185 -0.000456 450020.000000 1 0 0
5.393638 6.363910 -16.807963 18.764282 0.867735 2.680895 0.021800 -0.004995 -995036.000000 1 0 0
9.363238 1.315610 -19.291863 21.484344 0.139594 2.685885 0.052414 -0.014220 613653.000000 1 0 0
13.078138 5.796010 -9.353763 17.091644 0.417171 2.149897 0.001815 -0.004581 496696.000000 1 0 0
-1.682162 -1.097490 -17.260063 17.376534 0.578080 3.025746 0.013985 -0.009363 669671.000000 1 0 0
-0.457162 -0.417090 -19.439863 19.449710 0.739595 3.109770 0.021905 -0.014702 -180140.000000 1 0 0
2.842138 6.424310 -16.444963 17.882570 1.154277 2.737879 0.019060 -0.000830 -580683.000000 1 0 0
7.588038 3.800110 -15.663763 17.814955 0.464290 2.645078 0.012148 0.008354 316881.000000 1 0 0
3.054438 -10.000890 -14.923963 18.222845 -1.274378 2.530410 0.000339 0.005104 255406.000000 1 0 0
9.145538 -10.591290 -13.310363 19.312743 -0.858519 2.331182 0.035765 -0.005265 400111.000000 1 0 0
3.807738 0.083510 -14.652263 15.139176 0.021928 2.887284 0.007377 -0.001873 -1727700.000000 1 0 0
-1.058462 -2.951490 -18.992463 19.249553 1.226463 2.977974 0.018180 -0.008009 595795.000000 1 0 0
9.176038 10.119910 -13.069163 18.905430 0.834275 2.334071 0.028534 -0.013604 13890.600000 1 0 0
4.748038 2.096810 -10.672963 11.868134 0.415860 2.688953 -0.002408 0.000397 259765.000000 1 0 0
-0.492662 7.082710 -18.851563 20.144203 -1.501350 2.781405 0.033355 -0.003484 131728.000000 1 0 0
0.865238 -1.829990 -17.562163 17.678435 -1.129136 3.026838 0.019704 -0.013594 -1131080.000000 1 0 0
-4.370962 -2.275190 -14.013063 14.854216 0.479932 2.803451 0.010167 -0.006409 -5100630.000000 1 0 0
10.146838 6.011310 -10.287663 15.650245 0.534836 2.288091 0.007035 -0.001828 -247569.000000 1 0 0
8.189338 5.319910 -17.613963 20.139970 0.576104 2.635360 0.034355 -0.000580 76252.700000 1 0 0
11.387838 0.250910 -13.622763 17.757406 0.022030 2.445197 0.013072 0.003967 558916.000000 1 0 0
6.633838 12.030510 -11.838763 18.135525 1.066865 2.282063 0.019665 -0.014872 -377860.000000 1 0 0
-0.807862 0.557310 -15.207863 15.239499 -0.603887 3.077147 0.011642 -0.006954 -1453250.000000 1 0 0
-4.338862 -2.839990 -19.104863 19.796137 0.579565 2.876546 0.003134 0.003525 190740.000000 1 0 0
5.814938 -12.021390 -13.905063 19.278955 -1.120261 2.376410 0.011844 0.005128 -161663.000000 1 0 0
2.176338 -4.716290 -13.960063 14.895073 -1.138460 2.785387 -0.001356 -0.001952 -531660.000000 1 0 0
11.744438 1.968910 -15.463763 19.517592 0.166102 2.485364 0.019993 0.000500 420833.000000 1 0 0
9.735538 2.257610 -13.744463 16.993757 0.227866 2.512896 0.008274 0.001368 -845552.000000 1 0 0
-2.254162 -4.155690 -16.384663 17.053099 1.073785 2.860679 -0.001737 -0.006192 -1051640.000000 1 0 0
-3.049162 10.054910 -14.212263 17.674474 -1.276360 2.504977 0.005395 -0.004074 -392725.000000 1 0 0
3.467438 5.715910 -13.485363 15.051570 1.025517 2.681348 0.011638 0.000348 -53991.500000 1 0 0
-4.957762 -2.643190 -16.554863 17.482258 0.489808 2.814412 0.003968 -0.001476 400329.000000 1 0 0
-4.410762 6.185210 -13.614663 15.590724 -0.951323 2.632637 0.004605 0.001486 -430629.000000 1 0 0
6.055238 -1.068190 -14.236563 15.507632 -0.174611 2.733894 0.008877 0.002289 -1422700.000000 1 0 0
6.711738 -2.917390 -12.534663 14.514695 -0.410033 2.613132 0.007548 -0.004784 322240.000000 1 0 0
2.975338 -3.125690 -18.306263 18.808026 -0.810037 2.910086 0.024339 -0.014678 -318076.000000 1 0 0
7.483438 -11.975090 -11.903863 18.469071 -1.012257 2.271204 0.007201 0.003475 -1062490.000000 1 0 0
-5.848662 -5.495490 -17.870463 19.589811 0.754276 2.719497 0.012423 0.006325 409630.000000 1 0 0
0.498038 8.727810 -11.938663 14.797107 1.513795 2.509553 0.004568 -0.001307 8905.590000 1 0 0
0.459438 8.620110 -14.451563 16.833450 1.517548 2.603139 0.009391 0.000269 302999.000000 1 0 0
7.755338 -2.542190 -14.927463 17.012852 -0.316761 2.641259 0.019476 -0.015604 -761038.000000 1 0 0
14.244438 1.591710 -8.807763 16.823027 0.111281 2.121813 0.013360 -0.000172 83287.500000 1 0 0
2.845338 10.664110 -14.717363 18.396194 1.310056 2.498128 0.013535 -0.000907 -487353.000000 1 0 0
6.106738 1.074710 -15.584863 16.773050 0.174204 2.762933 0.012214 0.005155 621475.000000 1 0 0
17.037138 -5.367490 -10.140663 20.540377 -0.305203 2.087129 0.082744 -0.020294 722109.000000 1 0 0
4.846438 -4.283990 -11.254463 12.980889 -0.723874 2.619951 0.003044 -0.000407 -1794950.000000 1 0 0
8.665538 -3.501890 -17.020863 19.418150 -0.384050 2.639431 0.027408 -0.017155 281920.000000 1 0 0
13.253138 -9.522790 -8.895863 18.586704 -0.623055 2.069872 0.051186 -0.014070 -1408000.000000 1 0 0
2.369038 -7.843490 -13.593463 15.871828 -1.277470 2.599154 -0.002453 0.001237 277456.000000 1 0 0
-6.894162 -2.489790 -18.319663 19.731664 0.346569 2.760987 0.012235 -0.000607 558078.000000 1 0 0
-1.398362 -6.441390 -15.729163 17.054427 1.357023 2.744766 -0.006636 0.001015 -129095.000000 1 0 0
1.416638 -7.426090 -18.477663 19.964411 -1.382296 2.753229 0.007964 -0.003623 -92664.800000 1 0 0
5.424538 10.944710 -14.439963 18.913615 1.110650 2.439464 0.028086 -0.017475 34260.200000 1 0 0
5.404738 -3.548490 -17.323263 18.490495 -0.580967 2.784377 0.022439 -0.013912 -1022550.000000 1 0 0
3.878538 12.967710 -14.185363 19.606863 1.280173 2.379640 0.024413 -0.012793 31541.200000 1 0 0
9.328138 10.303510 -15.654363 20.934076 0.835041 2.415529 0.045061 -0.017467 108963.000000 1 0 0
2.525138 3.918510 -16.161063 16.819958 0.998359 2.860766 0.021324 -0.000821 283751.000000 1 0 0
16.578838 1.807410 -11.368463 20.183324 0.108590 2.169122 0.039062 -0.010911 67662.900000 1 0 0
10.091538 -3.644290 -10.541663 15.041498 -0.346550 2.347369 0.025233 -0.006082 1010520.000000 1 0 0
14.839638 -2.084590 -11.815563 19.083184 -0.139561 2.238470 0.050228 -0.009781 147076.000000 1 0 0
-2.689562 -8.647490 -15.944163 18.336553 1.269258 2.625044 -0.004243 0.004616 5604.100000 1 0 0
14.026438 8.163510 -9.006663 18.560814 0.527086 2.077447 0.032208 -0.010488 -98265.600000 1 0 0
-8.145262 0.087410 -16.570663 18.464555 -0.010731 2.684707 -0.004557 -0.000872 -876670.000000 1 0 0
-3.511362 3.930310 -15.939763 16.788479 -0.841636 2.822264 0.010818 0.000343 -379929.000000 1 0 0
15.051838 3.947710 -9.691263 18.332016 0.256497 2.127808 0.018691 -0.005090 192361.000000 1 0 0
5.451938 0.978610 -12.896663 14.035855 0.177606 2.735920 0.002981 -0.000822 -222688.000000 1 0 0
7.871438 -7.628590 -12.849963 16.890129 -0.769732 2.435337 0.020768 -0.006689 -2700450.000000 1 0 0
3.163038 -6.137190 -11.876263 13.737377 -1.094914 2.614995 0.000160 -0.001272 -759448.000000 1 0 0
-3.307362 3.649110 -18.534763 19.177906 -0.834485 2.881882 0.014958 -0.000047 -122697.000000 1 0 0
0.803738 5.196710 -17.725363 18.488923 1.417349 2.853198 0.025942 -0.008625 -313059.000000 1 0 0
6.372838 7.101110 -10.152763 13.932603 0.839396 2.387226 -0.002848 -0.002987 14123.000000 1 0 0
9.648338 3.752010 -11.596763 15.545189 0.370880 2.412837 0.002073 0.001940 274727.000000 1 0 0
4.662538 1.619610 -17.736363 18.410349 0.334327 2.870172 0.021278 0.006640 32033.500000 1 0 0
2.571938 8.064810 -13.104963 15.601156 1.262084 2.568079 0.010580 -0.005082 201845.000000 1 0 0
14.515638 -3.445390 -9.722963 17.807596 -0.233045 2.148380 0.044111 -0.004181 777413.000000 1 0 0
-1.373462 9.392210 -16.089963 18.681191 -1.425591 2.608604 0.014509 0.003090 -1287990.000000 1 0 0
-5.267262 2.030110 -15.680263 16.665414 -0.367875 2.796034 0.009524 -0.002375 641979.000000 1 0 0
4.584438 4.185910 -11.879263 13.403574 0.739989 2.660038 0.000539 -0.000187 475338.000000 1 0 0
9.382638 2.943510 -17.492563 20.067085 0.303995 2.629466 0.026959 0.002384 934588.000000 1 0 0
-4.441362 14.342810 -13.272863 20.040229 -1.270503 2.294695 0.012602 -0.003233 -231336.000000 1 0 0
15.652838 -4.795990 -7.925563 18.188662 -0.297316 2.021659 0.047142 -0.006876 736994.000000 1 0 0
1.088638 9.225710 -16.922463 19.304627 1.453339 2.639550 0.015834 0.003665 -829413.000000 1 0 0
0.451538 -3.228190 -12.822063 13.229905 -1.431825 2.892647 0.000777 -0.003628 190362.000000 1 0 0
7.484938 3.585710 -13.002063 15.425150 0.446753 2.573471 -0.001252 0.004531 824570.000000 1 0 0
-2.920062 7.506410 -15.113263 17.125527 -1.199801 2.651946 0.007825 0.001454 -11698.700000 1 0 0
12.270638 -5.048590 -10.965263 17.213187 -0.390327 2.261431 0.039757 -0.009339 -758556.000000 1 0 0
0.763238 -4.539790 -20.020463 20.542910 -1.404232 2.915581 0.022452 -0.012807 -1435490.000000 1 0 0
3.422138 -4.533990 -16.119363 17.090991 -0.924247 2.802779 0.011735 -0.012030 205192.000000 1 0 0
-5.689762 4.025110 -14.344763 15.948264 -0.615695 2.689320 0.002022 0.000533 746246.000000 1 0 0
12.218138 -7.434590 -9.829163 17.354206 -0.546637 2.172909 0.031996 -0.008088 -63381.400000 1 0 0
-1.913262 -1.812890 -14.858163 15.090134 0.758468 2.966025 0.006518 -0.004451 -34117.700000 1 0 0
7.151638 5.846210 -14.301263 17.024988 0.685300 2.568109 0.010741 0.004215 -203550.000000 1 0 0
4.111938 -5.490090 -18.359763 19.599235 -0.927952 2.784049 0.026787 -0.021187 276618.000000 1 0 0
7.645938 7.403710 -12.224963 16.208794 0.769304 2.425259 0.006331 -0.007468 -1080710.000000 1 0 0
12.404138 -2.399690 -10.941163 16.713174 -0.191098 2.284507 0.031899 -0.005225 -297385.000000 1 0 0
7.413838 -0.810290 -10.573663 12.939239 -0.108862 2.527294 0.005422 -0.001420 -1741650.000000 1 0 0
5.285638 4.041410 -14.402263 15.864934 0.652781 2.708816 0.006682 0.002597 49750.100000 1 0 0
14.730538 3.050310 -12.979263 19.868427 0.204188 2.282679 0.019311 -0.013718 1500520.000000 1 0 0
-6.460862 6.753510 -15.835263 18.387718 -0.807541 2.608397 0.006917 0.009444 374098.000000 1 0 0
-11.290862 3.598210 -16.497863 20.312808 -0.308508 2.518693 0.028079 -0.006835 -568739.000000 1 0 0
-5.037962 6.515510 -18.069363 19.857865 -0.912595 2.713923 0.010032 0.016195 174968.000000 1 0 0
-10.014862 1.522310 -15.494363 18.511893 -0.150850 2.562565 0.019790 -0.007019 -324024.000000 1 0 0
-7.498362 5.812510 -18.100163 20.435914 -0.659417 2.658804 0.002986 0.008298 -458630.000000 1 0 0
-8.842762 3.869710 -15.733863 18.458698 -0.412505 2.591320 0.005419 0.012440 24439.600000 1 0 0
8.858738 13.425310 -11.869663 19.990125 0.987525 2.206540 0.053307 -0.024707 -2561060.000000 1 0 0
13.686738 9.335710 -11.365163 20.091023 0.598611 2.172058 0.024805 -0.014306 360097.000000 1 0 0
8.263938 15.795410 -9.138863 20.032635 1.088772 2.044515 0.034400 -0.014916 -348900.000000 1 0 0
7.283738 13.387110 -13.925063 20.644005 1.072505 2.311128 0.036908 -0.018578 112400.000000 1 0 0
4.428538 15.838510 -12.538663 20.680629 1.298153 2.222196 0.044747 -0.020953 63767.600000 1 0 0
11.025538 10.920210 -11.429563 19.272996 0.780599 2.205619 0.047321 -0.021298 -734474.000000 1 0 0
15.736038 9.905410 -9.708363 20.975995 0.561809 2.051984 0.056032 -0.010664 -264914.000000 1 0 0
13.316638 10.615310 -9.116163 19.316368 0.672999 2.062286 0.063583 -0.021028 39544.100000 1 0 0
10.453938 11.878810 -8.161763 17.804643 0.849114 2.046998 0.026737 -0.011792 213694.000000 1 0 0
5.418938 16.135010 -10.120163 19.802049 1.246783 2.107221 0.016732 -0.015173 -172611.000000 1 0 0
6.635138 14.633810 -11.715963 19.885604 1.145109 2.200825 0.022577 -0.002079 -1146090.000000 1 0 0
10.648338 13.988010 -9.735763 20.095686 0.920136 2.076554 0.048915 -0.011647 -723096.000000 1 0 0
8.335838 -18.653590 -1.265163 20.470546 -1.150544 1.632640 0.050945 -0.001408 92264.700000 1 0 0
7.171138 -17.446890 -3.268963 19.144329 -1.180820 1.742391 0.029996 -0.006121 -253822.000000 1 0 0
4.479238 -18.496490 5.848137 19.909406 -1.333203 1.272662 0.030953 0.009110 221611.000000 1 0 0
9.717038 -17.179290 -2.750663 19.927744 -1.056036 1.709270 0.042584 -0.003307 151728.000000 1 0 0
-9.548262 -12.205290 -10.153363 18.526446 0.906938 2.150824 0.003483 -0.006189 -189410.000000 1 0 0
-5.147662 -6.996590 -12.213263 14.987144 0.936485 2.523381 -0.001333 -0.000785 693147.000000 1 0 0
-10.846662 -9.547090 -5.703963 15.534870 0.721760 1.946763 0.005380 -0.005112 -656761.000000 1 0 0
-4.518362 -11.533690 -14.015163 18.704716 1.197419 2.417778 0.006005 -0.000639 340024.000000 1 0 0
-3.011762 -15.416890 7.416937 17.371303 1.377871 1.129663 0.002571 -0.002631 245173.000000 1 0 0
-4.559062 -12.050090 -11.554363 17.305867 1.209098 2.301852 -0.001074 0.001105 109388.000000 1 0 0
-14.195762 -12.801690 -4.006763 19.530926 0.733807 1.777413 0.015279 -0.011810 -163585.000000 1 0 0
-3.170362 -12.197690 -3.375563 13.047194 1.316508 1.832493 0.005844 -0.004136 1100950.000000 1 0 0
-2.468862 -17.359790 -1.663063 17.613159 1.429526 1.665359 -0.001519 -0.009540 -948171.000000 1 0 0
-5.827262 -12.150690 3.677837 13.968634 1.123615 1.304363 0.005314 -0.000128 188223.000000 1 0 0
-8.704262 -10.622390 -12.058463 18.275828 0.884322 2.291354 -0.002323 0.003011 -160864.000000 1 0 0
-9.695862 -11.965390 -7.533463 17.144485 0.889791 2.025738 0.007099 -0.010390 -602928.000000 1 0 0
-10.880162 -15.183890 6.286437 19.709078 0.949043 1.246163 0.033371 -0.013252 408778.000000 1 0 0
-9.436662 -15.363190 0.762937 18.046060 1.019973 1.528507 0.014740 -0.009947 -2661130.000000 1 0 0
-14.797462 -7.575290 -8.220863 18.545417 0.473147 2.030054 0.022409 -0.011754 170717.000000 1 0 0
-2.378462 -16.537290 5.129737 17.477221 1.427952 1.272900 0.011278 -0.004729 -42037.300000 1 0 0
4.319638 -15.890390 5.541237 17.374380 -1.305371 1.246194 0.024865 -0.001124 -444846.000000 1 0 0
4.161238 -14.634390 -10.026963 18.221451 -1.293762 2.153500 -0.003196 0.006220 88968.400000 1 0 0
-7.544962 -13.783990 -0.347363 15.717681 1.069973 1.592898 0.005221 -0.008702 1155960.000000 1 0 0
3.112038 -14.923790 9.645037 18.039707 -1.365214 1.006696 0.020730 -0.000670 -498569.000000 1 0 0
2.401838 -17.231590 10.486437 20.314081 -1.432303 1.028370 0.036246 -0.002183 -323622.000000 1 0 0
-8.375962 -17.338190 -5.587763 20.049755 1.120765 1.853231 0.023323 -0.001872 -334184.000000 1 0 0
-6.301562 -9.207990 -7.735463 13.576971 0.970646 2.176996 0.003288 -0.006812 257674.000000 1 0 0
-6.236762 -13.054890 -4.821963 15.250531 1.125120 1.892500 0.000524 -0.011726 674093.000000 1 0 0
2.031238 -19.339390 -4.810063 20.031841 -1.466149 1.813287 0.002362 -0.010948 -349763.000000 1 0 0
-5.455862 -12.784990 8.381637 16.231890 1.167453 1.028191 0.010493 -0.006478 1056540.000000 1 0 0
2.260638 -17.551790 3.382637 18.017160 -1.442703 1.381930 0.021705 -0.008936 576630.000000 1 0 0
-17.554762 -9.969690 -2.685263 20.366026 0.516497 1.703031 0.021578 -0.011161 656542.000000 1 0 0
-3.441762 -15.487390 2.552537 16.069239 1.352120 1.411274 0.004369 -0.001885 77875.500000 1 0 0
-9.896762 -10.203690 -14.385963 20.224172 0.800667 2.362178 0.008899 0.001039 -546992.000000 1 0 0
6.112938 -14.617090 -5.567863 16.793702 -1.174695 1.908737 0.004455 -0.004316 296234.000000 1 0 0
-7.087862 -12.209490 -10.872963 17.819393 1.044823 2.227079 -0.002004 -0.003530 -648702.000000 1 0 0
-7.334962 -14.255990 3.901537 16.500210 1.095602 1.332082 0.008095 -0.002497 809453.000000 1 0 0
3.272338 -14.955690 -3.141463 15.628489 -1.355389 1.773184 0.004566 -0.005259 -845747.000000 1 0 0
-7.681262 -11.444490 7.855537 15.864665 0.979679 1.052778 0.015043 -0.009208 -1620390.000000 1 0 0
-12.726562 -12.296990 -0.962463 17.723083 0.768233 1.625129 0.011983 -0.000306 -1823970.000000 1 0 0
-1.947862 -13.667290 4.002937 14.374021 1.429230 1.288581 0.006570 0.000231 -2409100.000000 1 0 0
-3.209762 -13.976390 5.237537 15.266756 1.345055 1.220615 0.002821 0.000199 312374.000000 1 0 0
-14.374362 -10.287890 -4.590163 18.262874 0.621193 1.824859 0.010925 -0.004287 746505.000000 1 0 0
-6.235762 -8.682190 -10.508663 14.989902 0.947944 2.347664 0.004655 -0.004108 241300.000000 1 0 0
0.725538 -19.358090 2.245737 19.501420 -1.533334 1.455383 0.022797 -0.017989 129066.000000 1 0 0
6.482438 -14.162990 -8.119363 17.565203 -1.141555 2.051317 -0.000666 0.002346 -1712800.000000 1 0 0
-3.890762 -16.520290 -5.932663 17.979280 1.339497 1.907070 0.000281 -0.013099 -421898.000000 1 0 0
-3.424762 -13.711890 -13.241663 19.367152 1.326038 2.323641 0.018037 0.000096 -1161710.000000 1 0 0
-8.277662 -14.865190 -4.347063 17.561051 1.062710 1.820937 0.010614 -0.009437 -922918.000000 1 0 0
-4.534762 -14.403390 10.163337 18.202064 1.265781 0.978387 0.012708 -0.002746 178715.000000 1 0 0
-0.180162 -11.989290 -9.958963 15.587061 1.555771 2.263896 0.008679 -0.000758 650450.000000 1 0 0
2.386638 -17.195690 6.817137 18.651036 -1.432885 1.196616 0.026223 -0.007010 -1335120.000000 1 0 0
-2.834462 -19.119490 -3.630463 19.666452 1.423618 1.756463 0.000781 -0.009755 -1961340.000000 1 0 0
0.664238 -15.304390 -3.138563 15.637012 -1.527422 1.772883 0.002779 -0.006238 -1041590.000000 1 0 0
6.168938 -17.973990 0.715537 19.016627 -1.240179 1.533161 0.033474 -0.011950 -112215.000000 1 0 0
-6.955562 -16.686690 3.896237 18.493408 1.175864 1.358523 0.006003 -0.000239 1082870.000000 1 0 0
-5.135562 -13.378990 -9.510663 17.199537 1.204287 2.156709 -0.000197 -0.006231 -122745.000000 1 0 0
5.656438 -15.159890 -2.087663 16.314898 -1.213676 1.699109 0.014362 -0.004004 -1283960.000000 1 0 0
-8.801462 -10.323690 -0.669963 13.582826 0.864824 1.620141 0.005578 -0.001554 28397.900000 1 0 0
-7.257862 -17.857490 -2.983763 19.505624 1.184757 1.724369 0.012712 -0.026171 -596063.000000 1 0 0
7.869238 -16.077490 -1.120263 17.935038 -1.115619 1.633299 0.022687 -0.003425 -374522.000000 1 0 0
-7.993262 -10.191390 -9.552363 16.093611 0.905693 2.206259 0.000868 -0.002655 -188854.000000 1 0 0
-8.999162 -15.158690 -6.844363 18.910741 1.035049 1.941134 0.015826 -0.011745 -123976.000000 1 0 0
-11.171262 -10.481690 -12.120663 19.533904 0.753562 2.240168 0.013200 0.002295 -1545300.000000 1 0 0
6.706338 -16.350790 2.507237 17.849637 -1.181567 1.429866 0.026045 -0.005988 86944.800000 1 0 0
-2.161762 -11.051790 -6.168563 12.840033 1.377632 2.071926 0.008078 -0.004473 -529492.000000 1 0 0
-12.378362 -15.293890 -3.321463 19.953923 0.890370 1.738031 0.019033 -0.009052 307119.000000 1 0 0
-0.339962 -19.545490 -2.919263 19.765218 1.553405 1.719036 0.016399 -0.016995 -421468.000000 1 0 0
-5.889862 -15.529290 -4.651263 17.247712 1.208284 1.843851 0.002354 -0.012245 -1873380.000000 1 0 0
1.982438 -15.980590 -1.075963 16.138991 -1.447374 1.637514 0.008670 -0.008561 -198600.000000 1 0 0
-13.231462 -11.958790 5.270437 18.597359 0.734919 1.283462 0.023110 -0.008689 395792.000000 1 0 0
2.101338 -15.257290 -8.782763 17.729564 -1.433931 2.089061 0.007539 0.008698 -1284790.000000 1 0 0
-11.627462 -16.745190 0.219637 20.387435 0.963855 1.560023 0.032542 -0.011610 507573.000000 1 0 0
-7.631162 -16.348290 -0.932063 18.065712 1.134071 1.622412 0.018801 -0.014453 416080.000000 1 0 0
-2.907062 -14.382190 -1.815063 14.784886 1.371354 1.693872 0.000686 -0.006777 393187.000000 1 0 0
-1.826262 -10.499690 -13.302163 17.044831 1.398584 2.466137 0.004085 0.003737 -203162.000000 1 0 0
1.488938 -19.644390 4.732837 20.261262 -1.495146 1.335028 0.031611 -0.012418 -24483.200000 1 0 0
-17.396862 -9.439290 2.546437 19.955835 0.497133 1.442844 0.010925 -0.004759 -269884.000000 1 0 0
-2.750962 -15.406090 -8.085163 17.614916 1.394095 2.047660 0.003277 -0.007597 -1305990.000000 1 0 0
-10.387162 -12.150690 0.238137 15.987155 0.863486 1.555900 0.007134 -0.000480 436258.000000 1 0 0
-6.897462 -11.481990 -6.619663 14.940918 1.029848 2.029801 0.002841 -0.010209 -21813.100000 1 0 0
-2.203862 -13.458090 -6.601863 15.151297 1.408480 2.021645 -0.001435 -0.001302 815799.000000 1 0 0
-14.179862 -14.545090 -0.955663 20.335718 0.798112 1.617808 0.023093 -0.001044 -248082.000000 1 0 0
-9.534762 -11.278090 -4.506463 15.440700 0.868965 1.866963 0.008856 -0.010472 1217990.000000 1 0 0
9.412438 -15.231090 -5.082863 18.612243 -1.017264 1.847403 0.021350 -0.002512 390558.000000 1 0 0
-5.441762 -10.788690 -9.481363 15.359194 1.103639 2.236113 0.003710 -0.003068 -175660.000000 1 0 0
-10.420662 -16.087390 -4.867363 19.775883 0.996002 1.819478 0.027097 -0.006120 -2386780.000000 1 0 0
2.240338 -17.308090 -3.322163 17.765862 -1.442073 1.758901 0.011249 -0.009095 429579.000000 1 0 0
-0.281062 -14.437590 -8.130463 16.571887 1.551331 2.083595 0.005957 0.001661 -774896.000000 1 0 0
-0.557462 -18.232290 -7.209463 19.613861 1.540230 1.947191 0.012755 -0.001883 -71662.200000 1 0 0
-1.800762 -9.979990 -10.615563 14.681046 1.392280 2.379046 0.004624 -0.000122 280684.000000 1 0 0
-5.125662 -17.264190 1.918937 18.110963 1.282190 1.464643 0.006570 -0.006930 701875.000000 1 0 0
0.300138 -12.730890 -2.625663 13.002298 -1.547225 1.774133 0.004696 -0.002998 -1914290.000000 1 0 0
2.623238 -14.978690 2.881037 15.477174 -1.397423 1.383557 0.016442 -0.005231 -429288.000000 1 0 0
-9.555762 -13.102290 6.905737 17.625884 0.940662 1.168214 0.015656 -0.008564 8245.010000 1 0 0
-1.042662 -17.756790 -4.661863 18.388140 1.512145 1.827119 0.005895 -0.009797 -155452.000000 1 0 0
-9.658862 -17.397290 -2.113063 20.010606 1.063975 1.676591 0.026446 -0.023137 240272.000000 1 0 0
1.346038 -16.370490 1.369137 16.482697 -1.488757 1.487635 0.011949 -0.010492 464909.000000 1 0 0
-0.338062 -17.927490 4.078037 18.388572 1.551941 1.347167 0.020782 -0.014161 -54027.700000 1 0 0
-17.508062 -9.308790 -0.137263 19.829389 0.488674 1.577719 0.017201 -0.003454 1104360.000000 1 0 0
-14.763562 -7.313690 -10.825263 19.713933 0.459951 2.152104 0.047168 -0.016248 370324.000000 1 0 0
2.859438 -12.688090 -8.758563 15.680448 -1.349136 2.163452 -0.006519 0.004831 661568.000000 1 0 0
-11.765262 -14.680890 1.776337 18.897230 0.895202 1.476657 0.026296 -0.007456 -230490.000000 1 0 0
-2.270962 -15.784590 10.547537 19.119652 1.427905 0.986444 0.008635 -0.002040 -213358.000000 1 0 0
-6.991062 -15.590990 1.459637 17.148891 1.149270 1.485578 0.010349 -0.008627 -1040340.000000 1 0 0
-12.563462 -15.007290 -5.927063 20.449680 0.873806 1.864852 0.024209 -0.009363 934293.000000 1 0 0
0.952438 -13.671290 -5.044363 14.603319 -1.501242 1.923489 0.003459 -0.002576 540766.000000 1 0 0
5.996938 -16.495890 -7.391063 19.044828 -1.222109 1.969352 0.015708 -0.007882 92925.500000 1 0 0
-6.588562 -12.900090 5.990837 15.675191 1.098596 1.178636 0.009733 -0.002700 204507.000000 1 0 0
-2.482962 -13.506890 0.602737 13.746435 1.388997 1.526935 0.008193 -0.005439 2674620.000000 1 0 0
-4.250662 -15.371990 0.136937 15.949450 1.301018 1.562211 0.001415 -0.007812 -90187.300000 1 0 0
-17.679262 -7.415790 -1.943363 19.269844 0.397171 1.671818 0.007317 -0.004533 430544.000000 1 0 0
1.406238 -12.674490 -11.932163 17.464155 -1.460298 2.322983 0.006353 0.006142 -153413.000000 1 0 0
1.225738 -17.030390 -5.767663 18.022280 -1.498947 1.896557 0.010363 -0.003940 -1310630.000000 1 0 0
-12.841562 -6.399890 -9.322663 17.110709 0.462345 2.146999 0.019196 -0.004779 -972175.000000 1 0 0
-11.435462 -13.423990 -8.760263 19.690493 0.865219 2.031857 0.018375 -0.014295 -171917.000000 1 0 0
-4.348662 -9.781290 3.453537 11.247729 1.152451 1.258712 0.007274 0.000354 -4251060.000000 1 0 0
-7.074062 -14.386790 9.665237 18.720013 1.113806 1.028266 0.016493 -0.005490 -478086.000000 1 0 0
-5.241062 -15.745790 -7.973863 18.411440 1.249477 2.018718 0.003101 -0.015545 -2421560.000000 1 0 0
-0.190262 -13.536190 2.167337 13.709923 1.556741 1.412045 0.008946 -0.005265 722561.000000 1 0 0
-10.901862 -13.474890 -4.567163 17.924348 0.890561 1.828439 0.022928 -0.010082 -1094490.000000 1 0 0
-9.808362 -10.554190 6.660737 15.873258 0.822009 1.137770 0.019308 -0.002459 -248931.000000 1 0 0
-15.554362 -8.060390 -5.028263 18.226121 0.478107 1.850304 0.023679 -0.003753 -99695.800000 1 0 0
-14.500462 -7.250990 5.402137 17.088690 0.463689 1.249156 0.014042 -0.005078 827568.000000 1 0 0
-1.544762 -19.286990 -0.224863 19.350061 1.490873 1.582417 0.011509 -0.014622 -610362.000000 1 0 0
-15.296962 -12.193990 -1.336663 19.608088 0.673001 1.639018 0.008544 0.002328 187759.000000 1 0 0
-4.401862 -12.109390 -6.738963 14.540541 1.222139 2.052693 0.002163 -0.005208 1748830.000000 1 0 0
-7.578862 -18.197890 1.899137 19.804269 1.176173 1.474753 0.021138 -0.009339 347604.000000 1 0 0
-2.437062 -11.725690 -8.635663 14.765018 1.365874 2.195520 0.004877 -0.001008 26478.900000 1 0 0
-1.205562 -20.270690 -5.334963 20.995621 1.511393 1.827712 0.011616 -0.009102 -222505.000000 1 0 0
-5.305062 -8.938490 -13.977663 17.418822 1.035164 2.502179 -0.001073 0.003505 956450.000000 1 0 0
-8.017462 -19.066290 -0.848763 20.700810 1.172740 1.611809 0.017341 -0.007380 79346.400000 1 0 0
-17.132962 -7.338390 5.650437 19.476083 0.404679 1.276442 0.026875 -0.006837 -62327.700000 1 0 0
-3.635762 -14.596090 -4.245263 15.629679 1.326673 1.845868 -0.001558 -0.006001 -2318420.000000 1 0 0
-2.928962 -14.818490 -10.938863 18.650072 1.375656 2.197567 0.012751 -0.002810 69392.200000 1 0 0
-0.101562 -16.656590 6.405337 17.846026 1.564699 1.203683 0.027790 -0.007845 -540941.000000 1 0 0
-11.178462 -11.632090 3.817137 16.578120 0.805282 1.338460 0.014156 -0.003985 1124950.000000 1 0 0
-0.129762 -14.640090 -0.208263 14.642146 1.561933 1.585020 0.005094 -0.003882 1477220.000000 1 0 0
-7.141262 -9.412890 -2.524363 12.081909 0.921771 1.781285 0.011660 -0.003716 498685.000000 1 0 0
-11.180062 -14.363990 -0.741663 18.217246 0.909403 1.611520 0.018858 -0.009630 -276069.000000 1 0 0
0.441638 -14.541490 -10.623463 18.014104 -1.540435 2.201521 0.011498 0.002558 -43825.900000 1 0 0
-1.370962 -14.090790 -3.903163 14.685523 1.473807 1.839812 0.000524 -0.002767 -2977990.000000 1 0 0
-11.369062 -8.083790 -7.770763 15.968343 0.618093 2.079031 0.007725 -0.003090 527694.000000 1 0 0
-0.235062 -17.171990 -0.441663 17.179277 1.557108 1.596508 0.006827 -0.012076 -665688.000000 1 0 0
-12.912462 -9.533690 4.621737 16.702795 0.635992 1.290433 0.012289 -0.003991 -668978.000000 1 0 0
4.068038 -16.784290 1.569237 17.341391 -1.333010 1.480182 0.018099 -0.013650 2540760.000000 1 0 0
-3.662262 -17.777190 -8.206263 19.919423 1.367630 1.995415 0.017738 -0.007407 -17171.000000 1 0 0
-13.367762 -11.227090 2.630237 17.653973 0.698580 1.421251 0.005709 -0.003559 -58871.100000 1 0 0
-8.526062 -12.147190 4.139437 15.407235 0.958799 1.298786 0.010396 -0.002528 2165270.000000 1 0 0
-8.232362 -9.371890 -5.980363 13.833613 0.850038 2.017846 0.007017 -0.006248 990940.000000 1 0 0
3.784838 -17.513690 -5.402763 18.714812 -1.357962 1.863654 -0.000051 0.004248 -518650.000000 1 0 0
-2.504662 -13.187690 11.340537 17.572600 1.383108 0.869311 0.003791 -0.000859 369702.000000 1 0 0
0.134938 -16.734790 -9.495563 19.241547 -1.562733 2.086897 0.017061 0.002061 41401.000000 1 0 0
-7.099062 -10.838890 -14.591163 19.513592 0.990941 2.415454 0.005354 0.005377 -536774.000000 1 0 0
-4.532262 -18.977190 -1.695263 19.584409 1.336361 1.657467 0.010385 -0.010601 -752527.000000 1 0 0
-2.526462 -17.171390 0.976737 17.383718 1.424712 1.514580 0.010808 -0.013690 1095080.000000 1 0 0
4.162238 -14.568790 -7.418163 16.870181 -1.292514 2.026084 0.000550 0.000780 -1674040.000000 1 0 0
-1.017962 -15.818390 -6.198463 17.019949 1.506532 1.943557 0.003248 -0.001279 -523258.000000 1 0 0
-9.439562 -15.343190 8.383737 19.869722 1.019255 1.135217 0.019845 -0.005962 -602263.000000 1 0 0
-7.102562 -11.954090 -1.948863 14.040824 1.034687 1.710046 0.003024 -0.002249 1504850.000000 1 0 0
-7.210262 -15.010390 -9.441363 19.142597 1.122991 2.086575 0.004795 -0.007802 576720.000000 1 0 0
-4.902662 -13.034290 -0.707763 13.943807 1.211030 1.621576 0.006607 -0.002888 956055.000000 1 0 0
-6.506762 -13.761090 -7.372063 16.913098 1.129114 2.021811 0.002893 -0.008582 506656.000000 1 0 0
5.824938 -15.341690 0.293937 16.412914 -1.207929 1.552886 0.014056 -0.006081 254589.000000 1 0 0
-14.301062 -12.814490 0.963037 19.226517 0.730629 1.520686 -0.002122 -0.004352 844429.000000 1 0 0
1.011438 -15.206690 11.120137 18.865945 -1.504381 0.940444 0.021934 -0.006005 114070.000000 1 0 0
-9.327562 -10.699990 1.970437 14.330939 0.853818 1.432864 0.006940 -0.000891 273116.000000 1 0 0
-9.426162 -8.797690 -3.648763 13.400200 0.750926 1.846570 0.006804 -0.003966 -135495.000000 1 0 0
-12.140662 -7.370190 -12.404163 18.856793 0.545599 2.288702 0.030934 -0.007735 -768208.000000 1 0 0
-13.220262 -8.250690 -0.735963 15.600989 0.557948 1.617988 0.000989 -0.003666 -260534.000000 1 0 0
-11.168262 -9.709090 0.366537 14.803069 0.715619 1.546033 -0.000518 0.000796 460628.000000 1 0 0
-15.757362 -12.165790 2.957537 20.125803 0.657477 1.423310 0.017931 -0.001808 100725.000000 1 0 0
-10.326562 -12.448090 -2.266563 16.331875 0.878283 1.710027 0.016308 -0.009851 1101490.000000 1 0 0
-3.392862 -8.917190 -12.186863 15.477320 1.207225 2.477378 -0.000925 0.003111 -1440360.000000 1 0 0
-0.269662 -15.501590 3.977337 16.005975 1.553402 1.319674 0.016216 -0.007780 -343653.000000 1 0 0
-15.810162 -7.819490 1.140237 17.675005 0.459307 1.506240 0.000242 0.000125 772499.000000 1 0 0
-5.953362 -13.592490 -13.260363 19.900642 1.157975 2.300070 -0.002470 0.001389 -65553.600000 1 0 0
-15.406062 -10.406690 1.083837 18.623121 0.594088 1.512565 0.004827 -0.001460 604059.000000 1 0 0
-9.843862 -8.297990 -12.607363 18.019541 0.700393 2.345703 0.010927 -0.004524 -639693.000000 1 0 0
-13.011862 -11.838390 -6.200663 18.652192 0.738211 1.909682 0.013502 -0.002838 -40008.000000 1 0 0
-12.134762 -11.367690 -3.819563 17.060653 0.752772 1.796591 0.008835 -0.006464 -2346110.000000 1 0 0
-11.467662 -10.808090 -9.015763 18.155056 0.755797 2.090471 0.012780 -0.017313 532785.000000 1 0 0
-13.159562 -8.519790 -5.948363 16.767347 0.574561 1.933452 0.007884 -0.005478 -2110090.000000 1 0 0
-13.507462 -8.172890 -3.307763 16.130374 0.544135 1.777326 0.008591 -0.001483 464080.000000 1 0 0
-4.268062 -16.934290 -3.298063 17.772556 1.323902 1.757449 0.001082 -0.015737 -150057.000000 1 0 0
-15.454462 -8.889390 -1.781763 17.917487 0.521984 1.670404 0.006567 -0.000414 -707620.000000 1 0 0
-9.433462 -15.745190 3.705037 18.725077 1.031015 1.371617 0.017651 -0.004711 -414774.000000 1 0 0
4.677138 -16.850490 7.863237 19.174075 -1.300045 1.148236 0.032824 -0.027333 -72479.300000 1 0 0
-8.299662 -15.453290 6.040437 18.551966 1.077926 1.239155 0.013238 -0.001644 -292410.000000 1 0 0
0.911938 -15.990790 8.611337 18.184942 -1.513829 1.077488 0.019869 -0.004348 781575.000000 1 0 0
-10.752662 -7.734690 -10.295863 16.776471 0.623580 2.231545 0.011623 -0.005939 695478.000000 1 0 0
-4.865562 -15.950290 5.668437 17.612968 1.274717 1.243131 0.004856 -0.006024 -642721.000000 1 0 0
-1.156562 -13.201990 -12.158163 17.984747 1.483414 2.313153 0.011526 -0.000799 -788796.000000 1 0 0
-6.335262 -14.287090 -2.530863 15.832301 1.153423 1.731339 0.006453 -0.008777 262232.000000 1 0 0
-17.672462 -6.826290 -7.184263 20.261485 0.368612 1.933258 0.043915 -0.015480 200318.000000 1 0 0
-17.290562 -4.165390 -10.281063 20.542986 0.236401 2.094933 0.045318 -0.014307 352840.000000 1 0 0
-15.249262 -5.278290 -9.216863 18.583619 0.333227 2.089744 0.023445 -0.015691 801769.000000 1 0 0
-16.015162 -5.452890 -5.648963 17.836205 0.328171 1.893059 0.012242 -0.005169 -216673.000000 1 0 0
-15.202462 -4.497190 -12.494063 20.185172 0.287617 2.238230 0.049162 -0.012314 -778658.000000 1 0 0
-18.591962 -5.061590 -5.536663 20.048326 0.265804 1.850599 0.027727 -0.010916 -272690.000000 1 0 0
-17.323162 -4.343190 -7.670163 19.436734 0.245652 1.976453 0.026106 -0.010736 807134.000000 1 0 0
12.234038 -7.958390 8.762037 17.022954 -0.576735 1.030117 0.014961 -0.009125 298626.000000 1 0 0
15.967538 -3.647690 2.009737 16.501726 -0.224590 1.448704 0.017663 -0.006125 -68013.100000 1 0 0
11.991538 -2.201190 12.707337 17.610186 -0.181541 0.764700 0.014492 -0.001817 105669.000000 1 0 0
9.684138 -10.129290 5.238937 14.961000 -0.807862 1.213041 0.002382 -0.002190 231129.000000 1 0 0
16.698638 -1.796090 7.242937 18.290177 -0.107147 1.163638 0.027783 -0.016418 -627197.000000 1 0 0
5.125938 -12.944990 9.005337 16.581439 -1.193762 0.996675 0.015915 -0.000108 -343015.000000 1 0 0
15.113238 -8.987790 -2.093663 17.708014 -0.536511 1.689306 0.022598 -0.006317 469807.000000 1 0 0
11.060338 -8.540390 6.513137 15.417208 -0.657536 1.134640 0.014179 -0.007662 -2198440.000000 1 0 0
19.833338 -3.494490 3.976737 20.527718 -0.174403 1.375838 0.065428 -0.016496 486112.000000 1 0 0
13.592638 -8.685290 6.815937 17.511456 -0.568582 1.171004 0.022354 -0.009648 -112073.000000 1 0 0
8.322038 -11.111590 8.907237 16.494321 -0.927967 1.000337 0.009871 -0.002784 1475420.000000 1 0 0
16.954038 0.026510 -0.630463 16.965777 0.001564 1.607966 0.020127 0.005610 -809281.000000 1 0 0
12.493238 -12.456290 2.264837 17.786783 -0.783917 1.443117 0.021647 -0.007798 -565613.000000 1 0 0
10.385538 -11.766290 3.577037 16.096589 -0.847649 1.346702 0.012741 -0.006767 281867.000000 1 0 0
16.333838 2.985710 2.383437 16.774668 0.180797 1.428228 0.010279 0.001411 -294160.000000 1 0 0
18.134938 -3.090690 0.636237 18.407421 -0.168806 1.536225 0.022265 -0.009311 918134.000000 1 0 0
13.477938 -11.468590 -0.208063 17.698211 -0.705025 1.582553 0.029076 -0.003878 -397737.000000 1 0 0
16.989738 -7.576790 -0.794363 18.619612 -0.419491 1.613472 0.033159 -0.007635 195009.000000 1 0 0
10.222538 -5.760690 9.895537 15.349511 -0.513170 0.870191 0.009957 -0.003636 1619.150000 1 0 0
11.171238 -13.203890 6.072137 18.330579 -0.868596 1.233161 0.018442 -0.015289 -402154.000000 1 0 0
13.103238 -1.712690 10.434237 16.837502 -0.129971 0.902433 0.015757 -0.003625 -850176.000000 1 0 0
15.617238 -2.012890 -1.310863 15.800893 -0.128182 1.653853 0.013838 0.000971 -107681.000000 1 0 0
10.407638 -12.598090 9.052737 18.681083 -0.880325 1.064898 0.014274 -0.010261 155456.000000 1 0 0
14.551538 1.130910 3.398937 14.985960 0.077562 1.341997 0.005414 0.000410 1062310.000000 1 0 0
14.739138 -5.989490 5.293337 16.767099 -0.385983 1.249604 0.024404 -0.011712 -743304.000000 1 0 0
14.357838 -3.401890 -2.978863 15.053039 -0.232646 1.770002 0.017749 -0.002358 1392130.000000 1 0 0
14.117838 0.555310 9.688937 17.131761 0.039314 0.969691 0.029327 -0.004905 -371589.000000 1 0 0
15.305438 -3.522190 4.587037 16.361637 -0.226189 1.286634 0.020541 -0.007298 -634794.000000 1 0 0
18.375338 4.801210 -4.180663 19.446918 0.255572 1.787466 0.001119 0.002402 375869.000000 1 0 0
18.579838 -5.722490 -5.112663 20.102154 -0.298775 1.827955 0.080864 -0.009579 979951.000000 1 0 0
17.297138 -0.068390 5.624237 18.188670 -0.003954 1.256427 0.037384 -0.011217 527218.000000 1 0 0
17.024938 -6.720490 4.043437 18.744676 -0.375967 1.353376 0.045889 -0.019923 896404.000000 1 0 0
9.699038 -6.671690 14.341937 18.554621 -0.602539 0.687307 0.028736 -0.012513 -926609.000000 1 0 0
8.497138 -12.318290 5.161137 15.829686 -0.966950 1.238683 0.007489 -0.007168 -2712180.000000 1 0 0
16.937338 -10.168190 -0.637463 19.765421 -0.540671 1.603053 0.038733 -0.004402 -37272.300000 1 0 0
14.996938 -8.877890 0.439237 17.433245 -0.534502 1.545598 0.034536 -0.006087 413300.000000 1 0 0
9.978238 -13.009490 1.537437 16.467416 -0.916506 1.477298 0.017041 -0.011251 -63325.800000 1 0 0
16.530938 -8.446590 8.810937 20.548708 -0.472374 1.127651 0.041351 -0.015759 426334.000000 1 0 0
19.095438 -0.100290 -1.942463 19.194243 -0.005252 1.672170 0.031814 0.001867 -728498.000000 1 0 0
13.429638 -1.288990 7.833037 15.600421 -0.095688 1.044766 0.010584 -0.006569 -298503.000000 1 0 0
12.860638 -9.849290 -2.987263 16.472045 -0.653567 1.753159 0.024801 -0.004408 -1262960.000000 1 0 0
8.900138 -15.336690 1.451637 17.791396 -1.044976 1.489113 0.022835 -0.005278 1013380.000000 1 0 0
11.485938 -8.458990 11.204437 18.138928 -0.634782 0.904980 0.015781 -0.012271 256106.000000 1 0 0
13.970738 -3.990990 -0.497463 14.538122 -0.278257 1.605021 0.014310 -0.003431 -589835.000000 1 0 0
7.004238 -13.385890 10.756237 18.545567 -1.088718 0.952080 0.015357 0.003246 402969.000000 1 0 0
15.472438 -6.761090 1.899037 16.991616 -0.411971 1.458799 0.027211 -0.006737 173638.000000 1 0 0
15.995438 -6.122290 -2.545563 17.315206 -0.365550 1.718344 0.039774 -0.006742 -99084.500000 1 0 0
11.191438 -8.611590 3.886637 14.646287 -0.655852 1.302212 0.009658 -0.006272 689744.000000 1 0 0
10.759338 -14.521390 -0.445363 18.078509 -0.933125 1.595434 0.039583 -0.009745 718995.000000 1 0 0
13.414338 -12.974390 4.585737 19.217395 -0.768728 1.329847 0.023282 -0.010702 798745.000000 1 0 0
12.772038 -11.163890 6.448237 18.147649 -0.718313 1.207539 0.018391 -0.010092 -518599.000000 1 0 0
10.865738 -10.630790 1.344837 15.260621 -0.774469 1.482557 0.008994 -0.006610 287093.000000 1 0 0
13.897538 -7.679090 11.956337 19.876217 -0.504799 0.925369 0.013771 -0.013249 -956620.000000 1 0 0
15.510538 -1.790890 -4.848063 16.348939 -0.114954 1.871861 0.028805 -0.001405 -602653.000000 1 0 0
12.965338 -11.383990 -7.016063 18.625798 -0.720545 1.957012 0.049510 -0.007132 58713.400000 1 0 0
17.843138 -5.340890 2.036037 18.736278 -0.290837 1.461913 0.053089 -0.012990 1190390.000000 1 0 0
10.699038 -9.968490 9.119137 17.233655 -0.750065 1.013201 0.006511 -0.004553 -1580620.000000 1 0 0
16.439138 1.623210 10.084037 19.353756 0.098422 1.022730 0.043091 -0.001357 -913170.000000 1 0 0
18.149638 3.764210 0.612337 18.545986 0.204499 1.537773 0.007711 0.007257 568011.000000 1 0 0
13.227538 -3.997290 5.915437 15.031250 -0.293469 1.166314 0.008909 -0.006516 -1668170.000000 1 0 0
12.143338 -6.201490 6.724437 15.203197 -0.472164 1.112630 0.010452 -0.004798 -384147.000000 1 0 0
16.541238 -10.346790 3.571937 19.835003 -0.558969 1.389726 0.033296 -0.010726 -1240590.000000 1 0 0
16.178338 -7.917290 -5.531363 18.841924 -0.455112 1.868752 0.040304 -0.009560 -161988.000000 1 0 0
13.991138 -0.450390 5.445337 15.020203 -0.032180 1.199811 0.008322 -0.002094 -209033.000000 1 0 0
17.943638 -4.385590 5.648937 19.316264 -0.239710 1.274014 0.038071 -0.007582 -307729.000000 1 0 0
13.431138 -13.636390 7.139537 20.428402 -0.792981 1.213769 0.024045 -0.011548 212194.000000 1 0 0
15.065338 -13.550290 -0.779663 20.277639 -0.732503 1.609255 0.033202 -0.000910 833003.000000 1 0 0
17.763638 -6.213090 8.387437 20.603360 -0.336465 1.151530 0.060343 -0.001931 -808389.000000 1 0 0
14.462438 3.232410 9.413737 17.556453 0.219890 1.004870 0.033609 -0.003676 1192000.000000 1 0 0
18.747238 3.837510 3.126737 19.389737 0.201908 1.408832 0.026912 0.003338 -802149.000000 1 0 0
14.777338 -10.781890 8.106837 20.008490 -0.630332 1.153632 0.033468 -0.015170 -112246.000000 1 0 0
14.936238 -4.986590 10.370037 18.854574 -0.322223 0.988431 0.032126 -0.014794 372663.000000 1 0 0
17.759238 -7.999890 1.952737 19.575545 -0.423239 1.470876 0.058680 -0.014384 -466577.000000 1 0 0
18.534038 -5.621890 -1.830063 19.454186 -0.294507 1.665006 0.040688 -0.007610 -26097.300000 1 0 0
14.413938 -12.945590 -5.540763 20.150682 -0.731781 1.849351 0.056322 -0.007061 -1460630.000000 1 0 0
15.436138 -1.743690 9.521237 18.220010 -0.112485 1.020933 0.041644 -0.013443 -517488.000000 1 0 0
13.008938 -10.122090 10.136937 19.350625 -0.661236 1.019425 0.011730 -0.016201 -2529330.000000 1 0 0
16.494438 2.163310 4.871437 17.334281 0.130410 1.285930 0.022777 -0.003151 -884275.000000 1 0 0
15.083838 2.575710 -0.006863 15.302173 0.169128 1.571245 0.004994 0.006880 -1698590.000000 1 0 0
14.967338 -9.726190 -7.016263 19.179362 -0.576254 1.945314 0.047454 -0.011065 352715.000000 1 0 0
16.183338 0.047410 -3.143363 16.485855 0.002930 1.762641 0.015366 0.004412 102747.000000 1 0 0
11.946838 2.584310 13.613237 18.295514 0.213035 0.731647 0.034641 -0.003040 -222341.000000 1 0 0
17.672338 -3.128890 9.377537 20.249437 -0.175234 1.089305 0.050701 -0.022972 842949.000000 1 0 0
7.987238 -18.146090 4.451437 20.319741 -1.156153 1.349936 0.042668 -0.016080 -165796.000000 1 0 0
6.822238 -11.303990 6.610437 14.765534 -1.027789 1.106612 0.006280 -0.005113 -128950.000000 1 0 0
18.060038 2.196610 -1.496963 18.254615 0.121034 1.652893 0.018959 0.009219 385664.000000 1 0 0
17.518838 -2.479490 3.763037 18.089168 -0.140599 1.361239 0.022101 -0.009681 -1630770.000000 1 0 0
12.717838 -13.432490 -1.874963 18.592759 -0.812720 1.671812 0.037133 0.000065 807177.000000 1 0 0
15.052138 -8.309090 4.340837 17.732758 -0.504393 1.323491 0.031026 -0.010854 -211882.000000 1 0 0
11.468138 -3.253690 15.052037 19.200742 -0.276451 0.669826 0.014814 -0.004530 259060.000000 1 0 0
12.093038 -13.755190 -6.308263 19.371139 -0.849614 1.902498 0.030810 -0.011906 356841.000000 1 0 0
10.710138 -12.021090 -1.236363 16.147516 -0.843006 1.647438 0.024483 -0.010212 -694515.000000 1 0 0
13.270238 -8.020790 2.217537 15.663645 -0.543663 1.428747 0.017098 -0.004690 -400818.000000 1 0 0
8.823538 -7.903790 10.151537 15.600591 -0.730469 0.862271 0.018650 -0.007009 -1433950.000000 1 0 0
15.606438 -3.900690 8.010537 17.970670 -0.244923 1.108778 0.039077 -0.016434 -125981.000000 1 0 0
10.348938 -17.335890 5.229237 20.856139 -1.032611 1.317363 0.035882 -0.015829 -825929.000000 1 0 0
15.137538 -6.468990 8.317537 18.443815 -0.403857 1.102949 0.028728 -0.008300 -405324.000000 1 0 0
16.536538 -5.024490 -0.270063 17.285124 -0.294978 1.586421 0.020587 -0.004286 -952752.000000 1 0 0
13.933238 -10.580290 3.442237 17.830498 -0.649462 1.376523 0.028156 -0.010506 53318.800000 1 0 0
15.005538 -9.954590 -4.478063 18.555675 -0.585734 1.814534 0.046605 -0.010853 346733.000000 1 0 0
13.643638 -6.659090 0.023037 15.181992 -0.454060 1.569279 0.017111 -0.004446 -119505.000000 1 0 0
17.978338 -0.856390 -4.805263 18.629133 -0.047599 1.831689 0.038235 -0.005556 346705.000000 1 0 0
14.483438 0.277710 -1.302963 14.544580 0.019172 1.660501 0.010645 0.005032 -2161910.000000 1 0 0
4.648038 -12.892390 11.660337 17.993928 -1.224775 0.865821 0.004800 -0.000089 -916783.000000 1 0 0
12.015038 -7.621590 13.620837 19.697131 -0.565286 0.807214 0.019009 -0.012486 -805219.000000 1 0 0
12.033038 -5.887590 11.631837 17.741402 -0.455039 0.855777 0.008325 -0.007388 496608.000000 1 0 0
13.185438 -4.616090 8.500437 16.353027 -0.336755 1.024170 0.013739 -0.008949 -398775.000000 1 0 0
15.298538 -1.337390 3.230737 15.693041 -0.087198 1.363443 0.013202 -0.000135 770589.000000 1 0 0
15.165138 -10.483490 5.686237 19.292959 -0.604856 1.271622 0.042514 -0.013999 266869.000000 1 0 0
13.665838 -7.988490 -5.659663 16.810797 -0.528989 1.914173 0.040508 -0.006001 -2162060.000000 1 0 0
9.535838 -2.169590 13.623737 16.770377 -0.223711 0.622593 0.016232 -0.009286 734960.000000 1 0 0
9.889738 -9.227890 13.772937 19.304266 -0.750792 0.776364 0.039816 -0.010813 74216.100000 1 0 0
20.318538 6.199910 -3.147963 21.475371 0.296162 1.717911 0.034645 0.009754 335475.000000 1 0 0
11.253038 -3.610890 10.675437 15.925902 -0.310502 0.836158 0.013000 -0.003349 915826.000000 1 0 0
10.422238 -14.022090 -2.998263 17.726580 -0.931615 1.740753 0.030009 -0.003546 1285970.000000 1 0 0
15.039138 -12.828590 2.529137 19.928496 -0.706241 1.443543 0.033752 -0.004225 467947.000000 1 0 0
11.280238 -0.613090 14.696637 18.536742 -0.054297 0.655344 0.032405 -0.001437 252209.000000 1 0 0
18.913238 -2.068390 5.944637 19.933076 -0.108929 1.267959 0.065870 -0.013039 171655.000000 1 0 0
18.657638 -0.255390 7.894637 20.260750 -0.013687 1.170543 0.042324 -0.011896 231912.000000 1 0 0
19.172138 0.765310 0.496937 19.193841 0.039897 1.544903 0.043819 -0.001553 -195265.000000 1 0 0
18.363438 0.778210 3.497737 18.709774 0.042353 1.382743 0.026455 -0.005783 -47113.500000 1 0 0
16.755338 -3.960990 -4.125763 17.704596 -0.232140 1.805992 0.032664 -0.005749 220744.000000 1 0 0
11.100638 -8.250290 15.846637 21.033482 -0.639152 0.717578 0.048770 -0.020376 403342.000000 1 0 0
16.551538 -7.573290 6.433337 19.305335 -0.429121 1.231057 0.044276 -0.012082 940072.000000 1 0 0
18.995338 1.967710 5.702737 19.930277 0.103221 1.280606 0.045803 -0.007023 544565.000000 1 0 0
15.411538 1.562810 7.686837 17.292928 0.101060 1.110172 0.030446 -0.005032 304171.000000 1 0 0
8.713838 -15.683390 3.935837 18.368193 -1.063657 1.354847 0.016330 -0.016135 230858.000000 1 0 0
11.400938 -15.157990 2.002937 19.072436 -0.925927 1.465585 0.032514 -0.008967 -53771.200000 1 0 0
8.131138 -16.271890 6.244037 19.232208 -1.107385 1.240138 0.024560 -0.006861 220601.000000 1 0 0
14.640938 -11.617690 -2.498963 18.856633 -0.670769 1.703712 0.030764 -0.002827 802851.000000 1 0 0
13.537938 -4.991690 3.332637 14.808754 -0.353252 1.343807 0.013858 -0.004740 -2710980.000000 1 0 0
-1.105962 10.309510 -5.528863 11.750637 -1.463929 2.060672 0.002719 0.000316 -1475490.000000 1 0 0
8.257638 -1.792190 -7.962763 11.610604 -0.213720 2.326524 0.006277 -0.001536 -1454750.000000 1 0 0
2.897438 -10.042290 7.602637 12.924505 -1.289901 0.941923 0.002016 -0.002784 621942.000000 1 0 0
-6.342362 1.348710 8.324537 10.551895 -0.209530 0.661757 0.001277 -0.002577 -408018.000000 1 0 0
7.331238 -6.237890 -7.200163 12.020843 -0.704996 2.213015 0.003888 -0.003066 184343.000000 1 0 0
-11.524962 -4.511390 -4.211763 13.073497 0.373110 1.898807 0.004196 -0.002569 -188227.000000 1 0 0
2.125738 -3.274790 3.010537 4.930147 -0.995039 0.913930 0.003178 -0.003894 1913060.000000 1 0 0
-3.577862 -4.235690 8.857537 10.449791 0.869391 0.559297 0.003078 -0.004080 -1999000.000000 1 0 0
-4.878562 -0.987790 -2.416863 5.533292 0.199775 2.022819 0.010906 -0.007311 -295972.000000 1 0 0
4.970738 -5.204190 -3.610563 8.051584 -0.808338 2.035803 0.004713 -0.003800 273908.000000 1 0 0
2.700538 14.363910 -8.800363 17.060516 1.384957 2.112775 0.001193 -0.006970 -119864.000000 1 0 0
5.334838 -5.586090 13.746937 15.768424 -0.808401 0.511928 0.013154 -0.012449 -1553670.000000 1 0 0
-4.747062 -0.938990 9.747337 10.882411 0.195284 0.460801 0.004721 -0.003894 -5205310.000000 1 0 0
-0.818662 12.115410 -2.569063 12.411827 -1.503327 1.779289 0.006227 -0.002416 -570571.000000 1 0 0
3.096338 9.414710 -10.487863 14.429807 1.253056 2.384476 0.004760 -0.003873 -90543.100000 1 0 0
-10.630062 2.725110 1.100937 11.028894 -0.250954 1.470807 -0.004188 -0.002466 186904.000000 1 0 0
5.653738 -8.990890 -0.738563 10.646424 -1.009448 1.640224 0.000402 -0.005083 314186.000000 1 0 0
-7.097362 5.413310 9.357337 12.931985 -0.651593 0.761820 -0.000091 -0.002563 -268137.000000 1 0 0
-5.627362 -1.886990 5.131537 7.846057 0.323541 0.857900 0.003393 -0.003262 605772.000000 1 0 0
6.719538 -3.803890 -7.254863 10.595037 -0.515115 2.325045 0.004534 -0.002477 455606.000000 1 0 0
6.265338 4.645010 11.043137 13.519669 0.637963 0.614919 0.005063 0.000386 1087260.000000 1 0 0
3.764938 -9.889890 3.254237 11.071348 -1.207050 1.272457 -0.002129 -0.004024 938436.000000 1 0 0
-6.668262 6.691110 -5.746363 11.057005 -0.787108 2.117300 0.002084 -0.002480 578758.000000 1 0 0
-11.252662 8.408710 5.283837 15.008256 -0.641748 1.211023 0.000951 -0.005386 407633.000000 1 0 0
-9.189362 -5.573390 5.048437 11.874080 0.545189 1.131653 0.004113 -0.001943 -1513570.000000 1 0 0
3.170938 9.813310 -7.951663 13.022474 1.258260 2.227628 0.000505 -0.003032 760768.000000 1 0 0
-8.141462 -8.596490 6.032337 13.288045 0.812577 1.099584 0.008653 0.001132 -1422050.000000 1 0 0
-7.859662 -5.749390 -7.531163 12.310491 0.631560 2.229090 0.005290 -0.005950 726626.000000 1 0 0
9.234638 -1.627690 7.087937 11.754436 -0.174467 0.923539 0.000655 -0.004107 2789450.000000 1 0 0
-4.146362 -0.413490 -4.883663 6.419771 0.099395 2.435222 0.016067 -0.011106 -1153600.000000 1 0 0
9.139238 1.206910 -4.442163 10.233040 0.131298 2.019835 0.005608 0.001233 -1753890.000000 1 0 0
-1.921262 -10.701490 10.691937 15.248956 1.393157 0.793775 -0.001493 -0.001651 127687.000000 1 0 0
-12.953062 0.314210 -2.724563 13.240234 -0.024253 1.778056 0.003123 -0.001189 -647599.000000 1 0 0
-9.922662 -5.041290 -6.077663 12.681160 0.470073 2.070616 0.004630 -0.007497 -2297440.000000 1 0 0
-5.708162 8.455010 -0.190563 10.203265 -0.976963 1.589474 0.001597 0.000480 1052040.000000 1 0 0
6.351538 9.590110 0.368937 11.508621 0.985822 1.538733 0.006739 -0.002847 574072.000000 1 0 0
-0.465562 -11.985890 0.076437 11.995172 1.531973 1.564424 0.007923 -0.002618 -200203.000000 1 0 0
6.192538 4.709710 2.381137 8.136259 0.650216 1.273791 0.003303 -0.000762 152500.000000 1 0 0
3.528838 -7.459590 -8.214163 11.643481 -1.128932 2.353887 0.000080 -0.002269 1238130.000000 1 0 0
-6.635162 -9.862290 4.416037 12.680360 0.978573 1.215084 0.011508 0.001019 -2648910.000000 1 0 0
-0.036662 6.543610 -9.136263 11.237948 -1.565194 2.520054 0.010796 -0.003119 -2346900.000000 1 0 0
-17.259162 -2.830090 4.312337 18.013449 0.162530 1.329053 0.031172 -0.002559 912533.000000 1 0 0
-8.401362 0.837810 -9.038963 12.368818 -0.099394 2.390269 0.009361 -0.008043 56891.200000 1 0 0
-10.001662 -5.806490 -11.998963 16.665044 0.525997 2.374610 0.017123 -0.000855 -343129.000000 1 0 0
2.119138 9.443010 6.476737 11.645141 1.350040 0.981020 0.002338 0.003715 816618.000000 1 0 0
-11.375762 1.694510 -1.235063 11.567398 -0.147871 1.677771 -0.000792 -0.003847 -1631830.000000 1 0 0
-5.986362 -5.353690 -3.233163 8.657475 0.729665 1.953525 0.020269 -0.006404 546182.000000 1 0 0
-7.015062 -8.306890 1.309537 10.951274 0.869511 1.450931 0.010869 -0.000402 -267755.000000 1 0 0
0.087038 11.014210 -7.861363 13.532236 1.562894 2.190674 0.002670 0.001398 174877.000000 1 0 0
-2.879662 9.286910 -4.256463 10.613982 -1.270120 1.983431 0.003512 -0.000837 -215823.000000 1 0 0
3.453538 -4.783390 9.311937 11.023607 -0.945467 0.564742 0.001410 -0.005493 -1045510.000000 1 0 0
-8.992462 1.573310 -0.565263 9.146540 -0.173206 1.632636 0.001302 -0.003692 -2144910.000000 1 0 0
2.494638 3.557210 -10.432963 11.301490 0.959205 2.746990 0.005170 -0.002321 2003570.000000 1 0 0
-13.726962 0.486310 1.067837 13.777019 -0.035413 1.493210 0.000509 -0.000853 -769492.000000 1 0 0
9.478738 -12.649590 -5.120163 16.615495 -0.927723 1.884050 0.022270 -0.001922 -1422740.000000 1 0 0
-4.670562 9.435510 -8.346263 13.435144 -1.111158 2.241103 0.002361 -0.001560 258035.000000 1 0 0
-2.425262 7.245210 8.399437 11.354537 -1.247780 0.738108 0.004289 0.001006 -311124.000000 1 0 0
-10.862062 -1.298390 -4.561463 11.852306 0.118970 1.965851 0.004551 -0.005170 -2763470.000000 1 0 0
2.571938 -7.063690 9.680537 12.256565 -1.221610 0.660273 -0.002810 -0.002605 -1997010.000000 1 0 0
-16.170162 -6.596690 3.381137 17.788270 0.387345 1.379556 0.013914 -0.004077 -284488.000000 1 0 0
-10.794662 -0.039790 6.124037 12.410888 0.003686 1.054755 -0.000554 -0.001991 -1340250.000000 1 0 0
-8.475262 9.789110 9.374537 15.985577 -0.857209 0.944143 0.009858 -0.005928 939816.000000 1 0 0
0.304038 -6.054590 -3.721163 7.113196 -1.520622 2.121322 0.002629 -0.001467 411822.000000 1 0 0
4.925638 1.653310 -2.955363 5.977417 0.323838 2.087965 0.000125 0.000436 -225822.000000 1 0 0
0.292338 5.385010 3.866837 6.635979 1.516562 0.948740 0.004477 0.000717 378938.000000 1 0 0
6.040538 -11.312290 -1.587563 12.921934 -1.080336 1.693966 -0.000298 -0.004745 -1629040.000000 1 0 0
6.205738 -13.587890 5.282337 15.844401 -1.142376 1.230901 0.005483 -0.003105 191410.000000 1 0 0
8.260538 -8.192490 -5.904363 13.046643 -0.781262 2.040428 0.006123 -0.004784 612500.000000 1 0 0
-13.229962 -1.299990 -4.758663 14.119729 0.097947 1.914549 0.003683 0.000596 -2907530.000000 1 0 0
-6.857162 -1.574190 -7.065663 9.971075 0.225659 2.358331 0.012697 -0.010752 -881659.000000 1 0 0
-5.651062 12.768810 -4.581863 14.695934 -1.154140 1.887860 0.005729 -0.001718 342249.000000 1 0 0
-4.347662 6.849210 -6.677963 10.507570 -1.005203 2.259502 0.005862 -0.000447 -2400530.000000 1 0 0
-9.360662 -3.692590 -8.196763 12.978603 0.375738 2.254360 0.007290 -0.005768 710516.000000 1 0 0
-2.189062 -6.348490 9.132537 11.335720 1.238747 0.634037 0.000917 -0.000759 -554925.000000 1 0 0
7.578938 -6.098190 10.212937 14.104337 -0.677554 0.761069 0.011230 -0.004990 242518.000000 1 0 0
9.613838 -5.019290 12.320737 16.414010 -0.481163 0.721792 0.017770 -0.003814 833663.000000 1 0 0
-6.519362 2.768010 -9.023663 11.471288 -0.401517 2.476129 0.005803 -0.005442 502029.000000 1 0 0
7.440038 5.469710 8.866437 12.801781 0.633944 0.805717 0.000780 -0.000269 -304503.000000 1 0 0
12.793938 3.269710 11.330737 17.400042 0.250211 0.861645 0.033009 -0.000080 -49658.200000 1 0 0
-7.493062 -7.278590 -4.077863 11.213956 0.770880 1.942971 0.012936 -0.007073 -2456640.000000 1 0 0
2.312038 1.556210 -5.691763 6.337466 0.592436 2.686257 0.004136 -0.002318 1276930.000000 1 0 0
12.818138 6.931010 -7.108263 16.213296 0.495690 2.024638 0.005429 -0.004073 869532.000000 1 0 0
0.824838 -7.833390 1.072637 7.949397 -1.465885 1.435450 0.002403 -0.004237 401788.000000 1 0 0
-10.322262 -5.990390 -8.595263 14.707563 0.525836 2.194950 0.006716 -0.005440 -727681.000000 1 0 0
-6.764662 0.146110 2.998537 7.400893 -0.021596 1.153644 0.005567 -0.006282 527363.000000 1 0 0
10.744438 -8.094490 1.335337 13.518389 -0.645652 1.471856 0.006021 -0.003523 482252.000000 1 0 0
6.346038 0.971710 10.554437 12.353646 0.151941 0.546482 0.003256 -0.003229 -478590.000000 1 0 0
-13.012562 5.375410 1.848937 14.200013 -0.391743 1.440219 -0.000347 -0.004221 430104.000000 1 0 0
2.154338 7.404710 3.723537 8.563622 1.287671 1.120971 0.000670 0.002056 -26195.900000 1 0 0
10.232138 -9.498490 -0.870663 13.988424 -0.748232 1.633078 0.007532 -0.005536 719558.000000 1 0 0
6.852738 -11.661090 -9.038763 16.267768 -1.039501 2.159910 -0.004579 -0.000001 -467855.000000 1 0 0
10.243938 3.538710 11.956237 16.137297 0.332611 0.736376 0.019987 -0.001332 -1535070.000000 1 0 0
-11.153262 -3.056890 -2.013963 11.738649 0.267511 1.743216 0.005437 -0.000609 -1420520.000000 1 0 0
12.463038 0.983210 6.943737 14.300682 0.078727 1.063801 0.005761 -0.002989 86057.000000 1 0 0
-9.673662 9.247510 3.044237 13.724560 -0.762879 1.347127 0.003641 -0.004885 1340780.000000 1 0 0
-6.627462 7.582310 -8.828363 13.392336 -0.852494 2.290564 0.003165 -0.000570 -687188.000000 1 0 0
8.474638 5.399110 12.197337 15.803320 0.567246 0.689096 0.013401 -0.000223 -2761370.000000 1 0 0
1.279738 4.987010 -2.626463 5.779819 1.319602 2.042517 0.006501 -0.001316 245493.000000 1 0 0
1.199038 0.578010 9.399337 9.493120 0.449194 0.140679 0.004462 -0.006078 363203.000000 1 0 0
2.726638 12.643610 -3.992163 13.536351 1.358396 1.870170 0.001692 -0.004986 128191.000000 1 0 0
2.055838 0.603410 12.833837 13.011454 0.285492 0.165421 0.000510 -0.007159 -261960.000000 1 0 0
-12.196762 -1.730190 0.808037 12.345343 0.140916 1.505297 -0.002338 -0.000268 174556.000000 1 0 0
3.354838 8.793310 -1.155663 9.482236 1.206320 1.692977 0.004982 0.000092 121820.000000 1 0 0
3.735538 -2.802390 -5.818163 7.460473 -0.643627 2.465247 -0.000295 -0.000997 -1260090.000000 1 0 0
-7.777562 -7.131590 9.304237 14.068364 0.742098 0.848167 0.010298 -0.001117 86331.200000 1 0 0
-7.027562 10.898610 -3.517763 13.436554 -0.998076 1.835689 0.006544 0.000508 419333.000000 1 0 0
0.360138 0.532110 2.571837 2.650884 0.975803 0.244820 0.004248 -0.004658 -2067520.000000 1 0 0
-7.012662 4.517810 -2.041163 8.588037 -0.572313 1.810768 0.003823 -0.003990 -663644.000000 1 0 0
-6.997362 -3.934390 -5.904763 9.965376 0.512213 2.204990 0.011847 -0.009569 -224269.000000 1 0 0
2.871538 -6.149990 13.427037 15.045047 -1.133963 0.468037 0.000843 -0.009252 -1748380.000000 1 0 0
-5.485762 -0.486990 -11.621763 12.860642 0.088541 2.699058 0.010687 -0.005653 -1367900.000000 1 0 0
11.859538 2.523310 -0.586863 12.139199 0.209640 1.619160 0.000451 0.001951 -220255.000000 1 0 0
5.902438 -11.012490 10.753037 16.484584 -1.078783 0.860170 0.008122 -0.004334 519377.000000 1 0 0
-8.167562 6.343610 -10.485063 14.727084 -0.660361 2.363079 0.003722 0.000302 718919.000000 1 0 0
2.818238 7.970710 11.223837 14.051662 1.230941 0.645573 0.002868 0.001352 716454.000000 1 0 0
-6.160062 -10.133390 -0.459463 11.867732 1.024590 1.609521 0.012314 -0.001832 -458387.000000 1 0 0
11.367338 4.130410 6.116237 13.553045 0.348525 1.102596 0.006901 -0.000289 627634.000000 1 0 0
-7.925262 10.692410 1.389937 13.381679 -0.932948 1.466740 0.000385 -0.002214 1215140.000000 1 0 0
4.342538 -2.607290 -3.439563 6.122597 -0.540719 2.167334 0.001926 -0.001974 -5790090.000000 1 0 0
6.513838 6.375610 6.288537 11.073580 0.774674 0.966860 0.004878 0.001094 -5720770.000000 1 0 0
-0.324962 10.433210 -10.215063 14.604964 -1.539660 2.345388 0.000328 0.000440 -70035.000000 1 0 0
14.285538 6.538610 -2.481663 15.905617 0.429246 1.727461 0.012964 0.005747 747141.000000 1 0 0
1.367438 9.495710 -6.105263 11.371571 1.427774 2.137541 0.004859 -0.002252 252915.000000 1 0 0
0.575438 7.409910 7.281537 10.404743 1.493294 0.795639 0.000622 0.002408 71671.900000 1 0 0
12.308138 6.269810 2.033537 13.961950 0.471142 1.424628 0.005146 0.000717 -1366100.000000 1 0 0
-6.741062 6.637310 -3.123563 9.962552 -0.777643 1.889705 -0.000507 -0.003152 688503.000000 1 0 0
0.997238 9.859910 11.202337 14.956760 1.469998 0.724273 0.001621 0.000573 -1272020.000000 1 0 0
-3.503462 13.655310 -10.946163 17.848255 -1.319649 2.231016 0.001948 0.001612 -5153.270000 1 0 0
-10.107662 -5.461490 -2.424963 11.741940 0.495390 1.778815 0.006922 -0.002066 -50186.100000 1 0 0
-4.042662 3.984810 -12.446863 13.680140 -0.778192 2.713717 0.003061 -0.002889 -329204.000000 1 0 0
-3.136862 8.465010 2.476537 9.361065 -1.215917 1.303052 0.003467 0.002616 -2530320.000000 1 0 0
7.012438 8.807110 7.100937 13.310251 0.898362 1.008070 0.006472 0.003862 1731190.000000 1 0 0
-1.346362 -2.253590 -8.168863 8.580308 1.032269 2.830657 0.008032 -0.008490 -2089150.000000 1 0 0
0.917238 -1.364490 4.822037 5.094625 -0.978959 0.328600 0.004951 -0.005086 -575032.000000 1 0 0
2.762338 -8.732290 -6.114863 11.012491 -1.264421 2.159479 -0.002518 -0.002413 483369.000000 1 0 0
5.295938 3.906910 8.842237 11.022525 0.635594 0.639830 0.003228 -0.000508 768500.000000 1 0 0
6.122938 -7.464090 -2.745463 10.036961 -0.883788 1.847863 0.001769 -0.005974 670751.000000 1 0 0
1.829638 2.285110 -8.272563 8.775226 0.895642 2.801482 0.006389 -0.003666 416337.000000 1 0 0
-5.405862 11.045910 -0.730963 12.319488 -1.115665 1.630165 -0.000179 0.000642 600269.000000 1 0 0
-5.375662 3.155410 -3.348463 7.075772 -0.530791 2.063749 0.006145 -0.002732 -124147.000000 1 0 0
2.051638 13.801410 -6.254563 15.290771 1.423223 1.992200 -0.008690 -0.003746 294089.000000 1 0 0
-5.211462 -2.588690 2.610837 6.377862 0.461028 1.149045 0.004683 -0.004273 901131.000000 1 0 0
10.460238 -3.368490 -1.749563 11.127636 -0.311542 1.728678 0.003824 0.001419 199531.000000 1 0 0
2.375138 -3.335790 6.978337 8.091104 -0.952051 0.530666 0.000607 -0.005446 -2544650.000000 1 0 0
-2.904062 9.920910 -11.655063 15.578784 -1.286031 2.416046 0.003495 0.001510 -2181140.000000 1 0 0
0.464838 -1.948190 9.160837 9.377231 -1.336576 0.215248 0.002685 -0.007872 252708.000000 1 0 0
9.461838 2.489510 5.072937 11.020832 0.257279 1.092458 0.000238 0.001349 -131153.000000 1 0 0
13.557638 2.104310 -5.005663 14.604600 0.153983 1.920634 0.017454 0.001734 -1765530.000000 1 0 0
-6.529362 3.839410 7.534537 10.683767 -0.531566 0.788046 0.002778 -0.003110 393006.000000 1 0 0
10.542638 0.054110 1.879837 10.709058 0.005132 1.394345 0.000801 0.003070 1880400.000000 1 0 0
15.395538 6.654210 -4.787963 17.442067 0.407967 1.848873 0.016189 0.002890 222406.000000 1 0 0
8.137838 -4.945190 -9.217063 13.252681 -0.546046 2.339893 0.010300 -0.002158 2697330.000000 1 0 0
4.482438 5.837410 -2.162163 7.670890 0.915949 1.856535 0.003932 -0.002170 99838.700000 1 0 0
-1.641662 -10.455190 1.446537 10.681691 1.415049 1.434957 0.008003 -0.001667 -810356.000000 1 0 0
-2.874062 12.243910 -12.978863 18.072754 -1.340236 2.371930 0.003019 0.001633 -651117.000000 1 0 0
8.409038 4.316810 -9.536163 13.427031 0.474273 2.360609 0.000758 -0.000671 -2475980.000000 1 0 0
4.191038 7.651010 -8.969863 12.512441 1.069662 2.370107 0.003187 -0.003376 -1644260.000000 1 0 0
-1.694762 -4.832390 -2.505563 5.701058 1.233490 2.025828 0.010616 -0.004167 372786.000000 1 0 0
-3.283562 -9.361290 6.964737 12.121184 1.233445 0.958691 0.006210 -0.000884 1476680.000000 1 0 0
1.116438 7.362510 -1.349363 7.567943 1.420305 1.750055 0.006522 0.000180 1100330.000000 1 0 0
0.526538 -0.678490 -2.193463 2.355604 -0.910835 2.768399 0.004459 -0.002535 -2403480.000000 1 0 0
4.083838 -6.785490 7.530037 10.928041 -1.029019 0.810610 0.003353 -0.003439 380088.000000 1 0 0
-14.014162 3.859510 5.938137 15.702039 -0.268739 1.182971 -0.001469 -0.004324 -1228120.000000 1 0 0
4.292838 6.301410 12.554337 14.688349 0.972765 0.545797 0.004921 -0.000973 -3172030.000000 1 0 0
8.306738 10.116110 -7.133963 14.907414 0.883298 2.069800 0.008101 -0.009550 265910.000000 1 0 0
12.513638 5.221910 9.583237 16.604153 0.395329 0.955551 0.028046 0.000379 2303400.000000 1 0 0
7.623838 4.037810 0.388937 8.635860 0.487069 1.525744 0.004146 0.000370 -1805540.000000 1 0 0
-10.831762 -7.508690 -1.112663 13.226697 0.606155 1.655018 0.005602 -0.001518 -1797130.000000 1 0 0
10.538038 6.857310 0.241437 12.575024 0.576881 1.551595 0.005225 0.000984 -480400.000000 1 0 0
14.598938 3.584810 4.228737 15.616084 0.240789 1.296579 0.008956 -0.001381 277617.000000 1 0 0
2.150638 5.633710 8.201937 10.180162 1.206126 0.633976 0.000104 0.001652 797864.000000 1 0 0
4.270638 -0.040290 11.599037 12.360325 -0.009434 0.352800 0.001572 -0.003783 -1467430.000000 1 0 0
-1.356862 -1.583490 -0.578263 2.164002 0.862321 1.841303 0.009352 -0.007247 -1079160.000000 1 0 0
3.136138 -5.245490 -9.467863 11.269026 -1.031942 2.568387 -0.003341 -0.002370 24402.900000 1 0 0
-3.917862 -5.261790 -1.488663 6.726975 0.930768 1.793941 0.012902 -0.006399 587445.000000 1 0 0
-1.156462 -8.582090 8.539837 12.162175 1.436850 0.792365 0.003013 0.000121 -1044640.000000 1 0 0
3.944338 8.595810 -5.966163 11.182167 1.140593 2.133580 0.005066 -0.003150 722922.000000 1 0 0
-14.381862 -1.652890 -2.716063 14.729121 0.114427 1.756259 0.001648 -0.000253 -1452620.000000 1 0 0
8.905838 -10.522590 -6.497263 15.239858 -0.868423 2.011232 0.002582 -0.004610 794077.000000 1 0 0
14.824038 6.187710 1.622937 16.145395 0.395425 1.470106 0.000903 0.005639 -847156.000000 1 0 0
-5.886962 0.318510 -8.604563 10.430545 -0.054052 2.540890 0.011973 -0.012103 -242556.000000 1 0 0
-7.912862 -4.494590 -12.965163 15.840144 0.516566 2.529592 0.010956 -0.006785 697789.000000 1 0 0
0.815038 -10.540390 11.918637 15.931667 -1.493625 0.725587 -0.002385 -0.000666 -636257.000000 1 0 0
0.255638 11.828610 3.385137 12.306117 1.549188 1.292126 0.005319 0.000480 -915168.000000 1 0 0
5.163338 -13.169790 -3.720563 14.626894 -1.197154 1.827987 0.001381 -0.002944 998742.000000 1 0 0
-7.510362 1.494710 -6.962263 10.349531 -0.196453 2.308666 0.008400 -0.006084 786623.000000 1 0 0
1.590538 2.721810 4.173237 5.230102 1.041950 0.646949 0.003673 -0.001246 -1209360.000000 1 0 0
17.278338 5.528310 2.168937 18.270399 0.309663 1.451803 0.011777 0.001908 -577730.000000 1 0 0
2.380838 -8.286990 -3.574463 9.333776 -1.291033 1.963795 -0.003269 -0.002914 319769.000000 1 0 0
-0.326562 -9.369990 -0.576663 9.393397 1.535959 1.632225 0.007170 -0.000584 -1446550.000000 1 0 0
0.740738 11.933510 -5.550263 13.181911 1.508804 2.005401 0.002171 -0.000173 -448463.000000 1 0 0
6.180138 -5.141690 7.836237 11.226651 -0.693933 0.798191 0.004010 -0.003364 -553211.000000 1 0 0
-5.983162 -1.981890 -9.373563 11.295565 0.319870 2.549625 0.015076 -0.011549 -485025.000000 1 0 0
2.066438 -1.341190 11.060037 11.331080 -0.575696 0.219163 -0.001950 -0.004115 -1085390.000000 1 0 0
18.107138 2.167710 -5.811963 19.140176 0.119149 1.879320 0.025041 0.001744 -1128920.000000 1 0 0
-8.999362 4.858010 7.757437 12.836144 -0.494992 0.921855 0.001034 -0.007607 -756101.000000 1 0 0
11.456338 -7.108190 -4.884763 14.339978 -0.555327 1.918393 0.024598 -0.005673 127879.000000 1 0 0
10.875938 0.487210 9.020837 14.138561 0.044767 0.878858 0.006891 -0.004062 -66739.800000 1 0 0
-8.427262 -7.315590 -1.610563 11.275217 0.714901 1.714128 0.011334 -0.003539 -628896.000000 1 0 0
10.329438 -10.555890 -3.284563 15.129853 -0.796240 1.789630 0.018805 -0.005258 352049.000000 1 0 0
7.713038 -13.824090 -3.739463 16.265916 -1.061876 1.802767 0.017352 -0.006487 -214057.000000 1 0 0
1.766738 -1.174790 -11.712063 11.902685 -0.586812 2.962383 0.002727 -0.005135 348353.000000 1 0 0
-11.895062 -2.684290 -6.477863 13.807991 0.221947 2.059112 0.007877 -0.005272 -764324.000000 1 0 0
2.787638 -12.084890 -6.341663 13.929544 -1.344090 2.043469 -0.001271 -0.001003 187859.000000 1 0 0
-5.671762 1.469610 1.148737 5.970614 -0.253534 1.377191 0.007728 -0.004529 307401.000000 1 0 0
0.177138 6.842710 -3.927363 7.891656 1.544915 2.091695 0.008440 -0.001267 1211160.000000 1 0 0
5.492938 -11.831390 3.689237 13.555981 -1.136141 1.295171 -0.003644 -0.005385 -1209490.000000 1 0 0
-4.376962 -9.103290 1.042337 10.154514 1.122617 1.467968 0.010674 -0.000693 303625.000000 1 0 0
7.095238 -6.188190 -4.703563 10.524239 -0.717220 2.034123 0.005478 -0.004920 -80287.000000 1 0 0
-7.048862 -5.892190 2.100037 9.424145 0.696255 1.346074 0.008206 0.000153 -87833.800000 1 0 0
-6.167562 -0.654690 6.974837 9.333584 0.105755 0.726831 0.002857 -0.003544 -106692.000000 1 0 0
4.169638 -5.056690 3.257237 7.318852 -0.881247 1.109569 -0.003144 -0.001170 -154587.000000 1 0 0
-2.381562 10.541710 -8.686063 13.865323 -1.348608 2.247799 0.003656 -0.000402 439900.000000 1 0 0
-2.430662 -4.731390 2.750737 5.988383 1.096224 1.093538 0.006995 -0.003333 -1073710.000000 1 0 0
15.285638 5.013710 6.314337 17.281750 0.316944 1.196760 0.024043 -0.002882 458958.000000 1 0 0
6.898438 0.407110 0.070037 6.910795 0.058946 1.560662 0.003850 0.000184 4695880.000000 1 0 0
-9.733062 9.158710 0.395637 13.370527 -0.755005 1.541202 0.002804 -0.005901 -2302580.000000 1 0 0
7.251538 10.558410 -2.550263 13.060194 0.968983 1.767329 0.004221 -0.004295 -753892.000000 1 0 0
1.689538 -4.239790 -5.347163 7.030115 -1.191587 2.435046 0.000093 -0.002879 -623931.000000 1 0 0
0.969738 -8.045790 -7.855163 11.286218 -1.450848 2.340602 -0.002711 0.000188 554509.000000 1 0 0
-10.406762 0.189610 -10.526463 14.803482 -0.018218 2.361830 0.007154 -0.006500 -2988950.000000 1 0 0
5.765338 -2.476990 0.517737 6.296241 -0.405790 1.488474 0.000200 -0.000693 100385.000000 1 0 0
-3.348162 5.289210 -1.087063 6.353553 -1.006452 1.742738 0.006566 -0.002558 1072030.000000 1 0 0
-0.364162 4.576210 -5.091763 6.855681 -1.491386 2.407900 0.008348 -0.002138 -649345.000000 1 0 0
3.962438 -9.534090 9.998037 14.372214 -1.176908 0.801471 0.000511 -0.002609 -2207270.000000 1 0 0
7.419738 -13.501590 -0.861063 15.430064 -1.068302 1.626630 0.013432 -0.009078 746165.000000 1 0 0
13.004238 -0.035590 0.622437 13.019174 -0.002737 1.522969 0.001761 -0.000718 689949.000000 1 0 0
9.295038 2.385810 -0.652263 9.618486 0.251252 1.638662 0.005074 -0.000113 -1450960.000000 1 0 0
-0.744262 -5.716090 4.357537 7.226046 1.441320 0.923500 0.002419 -0.004058 587068.000000 1 0 0
11.382238 -3.797390 3.347437 12.457161 -0.322012 1.298737 0.003120 -0.001693 -2564110.000000 1 0 0
1.597338 -8.153790 11.711837 14.359767 -1.377345 0.617030 -0.002522 -0.004020 257866.000000 1 0 0
9.484738 -5.776090 -5.923563 12.586186 -0.547002 2.060812 0.008598 -0.005915 -485296.000000 1 0 0
3.231538 6.380610 -0.112063 7.153152 1.101992 1.586463 0.002441 0.001402 -1167220.000000 1 0 0
6.485938 -1.474190 11.392437 13.191977 -0.223493 0.528453 0.006639 -0.004504 692266.000000 1 0 0
-4.922662 -7.502590 -3.912763 9.789340 0.990125 1.981982 0.015707 -0.005176 -316621.000000 1 0 0
-3.521662 -8.504490 -5.887463 10.926604 1.178199 2.139831 0.011488 -0.004422 -511740.000000 1 0 0
9.815138 5.388510 2.218137 11.414601 0.502075 1.375228 0.002787 -0.000554 -191684.000000 1 0 0
8.787838 -1.559690 0.409137 8.934547 -0.175654 1.524988 0.002213 0.003142 1447780.000000 1 0 0
-3.976062 9.635110 9.239937 13.929137 -1.179421 0.845505 0.001226 0.000456 3738.460000 1 0 0
-14.373562 -3.520390 -6.150863 16.025778 0.240193 1.964716 0.007120 0.001297 116726.000000 1 0 0
10.686838 6.279710 -5.812863 13.690604 0.531261 2.009303 0.000405 -0.002930 -658494.000000 1 0 0
-1.788862 4.577810 2.650837 5.584202 -1.198274 1.076170 0.007252 -0.001705 265668.000000 1 0 0
7.019538 -3.745990 2.537737 8.351435 -0.490205 1.262046 0.001245 -0.003507 -2143920.000000 1 0 0
8.355038 -11.219790 -1.581163 14.078012 -0.930715 1.683348 0.013116 -0.008690 -1151930.000000 1 0 0
4.572638 0.486810 1.813337 4.943096 0.106062 1.195184 0.000400 0.000007 191014.000000 1 0 0
-10.798762 2.341610 3.742637 11.666350 -0.213535 1.244216 -0.003473 -0.003089 -12673.400000 1 0 0
-0.890262 -3.002590 4.256737 5.284688 1.282555 0.634303 0.006683 -0.006191 133895.000000 1 0 0
8.599938 -8.754990 -8.491163 14.923426 -0.794332 2.176064 0.011443 -0.005417 -637338.000000 1 0 0
12.198538 -4.817990 1.041137 13.156798 -0.376158 1.491580 0.004559 -0.000667 331424.000000 1 0 0
2.931038 4.823710 3.533237 6.659048 1.024784 1.011498 -0.000286 0.000346 -677016.000000 1 0 0
6.242338 7.511410 2.038437 9.977138 0.877409 1.365037 0.003359 -0.000547 -733979.000000 1 0 0
-1.532762 -1.286390 -10.392763 10.583652 0.698228 2.951379 0.011165 -0.008689 -828722.000000 1 0 0
-0.982562 -8.674290 5.987737 10.585922 1.458004 0.969597 0.001974 -0.004521 -383235.000000 1 0 0
-4.226862 -0.211390 2.289737 4.811854 0.049970 1.074862 0.007343 -0.005515 649979.000000 1 0 0
-8.575662 6.257710 -7.943763 13.259121 -0.630386 2.213194 0.001523 -0.002588 -693562.000000 1 0 0
6.348738 11.126110 -9.429363 15.906278 1.052263 2.205337 0.008435 -0.009745 249617.000000 1 0 0
-11.191162 -5.748090 3.068537 12.949848 0.474490 1.331565 0.004603 0.000233 1102110.000000 1 0 0
1.696938 -6.315290 3.095637 7.235016 -1.308294 1.128663 -0.002780 -0.005312 -132058.000000 1 0 0
10.126838 2.192110 7.360937 12.709901 0.213176 0.953111 0.005856 -0.002323 -165938.000000 1 0 0
-3.923762 -2.346790 -10.484463 11.437976 0.539019 2.730379 0.008005 -0.007220 -2228540.000000 1 0 0
-8.283162 11.781310 5.913237 15.568443 -0.958009 1.181192 0.008360 -0.000134 -423357.000000 1 0 0
6.882238 5.989510 -2.915163 9.577975 0.716153 1.880064 0.006215 -0.001597 -3480300.000000 1 0 0
3.956238 -9.819890 -2.404763 10.856562 -1.187810 1.794152 -0.002476 -0.004877 -329369.000000 1 0 0
8.617838 -12.799790 -7.486363 17.150726 -0.978229 2.022506 0.009833 -0.002559 80173.700000 1 0 0
-1.109862 9.591910 3.671437 10.330343 -1.455600 1.207451 0.004405 0.002880 -61242.500000 1 0 0
0.484638 -13.108790 4.717937 13.940380 -1.533843 1.225541 0.008973 -0.002633 -1172240.000000 1 0 0
-11.180462 -7.057190 -5.266463 14.231735 0.563051 1.949860 0.003774 -0.002930 270679.000000 1 0 0
3.689938 10.368910 -3.401663 11.519603 1.228906 1.870559 0.007331 -0.004804 -899201.000000 1 0 0
11.603538 -8.086290 -7.366163 15.946490 -0.608630 2.050966 0.039159 -0.008235 366310.000000 1 0 0
11.822838 -4.721590 -5.757163 13.972038 -0.379956 1.995498 0.024508 -0.007303 -165649.000000 1 0 0
1.336338 -10.266590 -2.618063 10.679088 -1.441360 1.818479 -0.001875 -0.001115 -1196170.000000 1 0 0
2.442138 -11.940590 -3.911263 12.799989 -1.369055 1.881331 -0.000358 -0.001107 -831529.000000 1 0 0
-7.602062 -5.698990 7.176037 11.906525 0.643286 0.923919 0.005453 0.000101 -1747350.000000 1 0 0
-7.138162 -0.880190 9.394637 11.831623 0.122688 0.653390 0.005599 -0.002403 -601823.000000 1 0 0
16.247338 2.571810 -7.587663 18.115265 0.156989 2.002980 0.026234 -0.001469 -232107.000000 1 0 0
-1.990562 6.346210 -5.527563 8.648160 -1.266854 2.264203 0.006299 -0.000127 -355223.000000 1 0 0
7.698738 1.074510 8.355137 11.411987 0.138674 0.749342 0.002275 -0.002375 -725172.000000 1 0 0
8.022138 8.362810 -3.700963 12.165049 0.806187 1.879925 0.004153 -0.001742 -199118.000000 1 0 0
8.071038 0.564510 3.955637 9.005964 0.069829 1.116061 -0.000723 -0.000970 -11846.400000 1 0 0
-6.980662 5.873710 5.305237 10.553466 -0.699495 1.044076 0.006801 -0.005642 -154855.000000 1 0 0
-6.105662 -2.114690 -4.557763 7.907226 0.333419 2.185119 0.014934 -0.010548 -718146.000000 1 0 0
-15.175162 -2.048490 3.095937 15.622634 0.134179 1.371306 0.009304 -0.001386 -1319780.000000 1 0 0
1.090238 1.215110 -10.454963 10.581652 0.839511 2.986696 0.008287 -0.006009 645978.000000 1 0 0
1.457438 -9.196690 9.353937 13.198461 -1.413629 0.783122 0.000045 -0.004187 -1404770.000000 1 0 0
-0.145062 -6.656690 -1.091563 6.747153 1.549008 1.733292 0.004218 -0.001332 491524.000000 1 0 0
-0.405962 -10.106790 -8.450263 13.180249 1.530651 2.266767 0.000513 -0.000073 -50898.800000 1 0 0
-4.441162 6.478410 3.702037 8.683248 -0.969846 1.130351 0.005350 0.001994 -61764.000000 1 0 0
10.812138 -1.075790 -8.513563 13.803637 -0.099172 2.235419 0.024481 -0.001550 1047220.000000 1 0 0
3.101538 -1.082390 6.215937 7.030575 -0.335770 0.486169 0.002577 -0.004540 282207.000000 1 0 0
1.831638 -12.201790 6.764937 14.071352 -1.421797 1.069276 0.006844 -0.001776 -205193.000000 1 0 0
2.885538 -4.902490 -1.260663 5.826664 -1.038812 1.788882 0.006585 -0.003553 -1691320.000000 1 0 0
-1.014962 9.601110 -1.654363 9.795324 -1.465475 1.740503 0.006117 -0.001452 217412.000000 1 0 0
4.591338 -2.594890 2.701437 5.925504 -0.514416 1.097413 0.001669 -0.001305 -333769.000000 1 0 0
17.841338 6.759610 -2.607063 19.256231 0.362162 1.706601 0.015703 0.011486 62456.800000 1 0 0
-7.051962 3.438610 -5.403763 9.526534 -0.453687 2.173938 0.004904 -0.004526 -1410280.000000 1 0 0
-13.855562 -6.069690 2.175337 15.282337 0.412888 1.427968 -0.000633 0.000924 500510.000000 1 0 0
6.657038 -6.151890 3.213037 9.616939 -0.745981 1.230144 0.000042 -0.003781 -393666.000000 1 0 0
-4.729962 2.043510 3.456437 6.204469 -0.407814 0.979921 0.006788 -0.004521 490806.000000 1 0 0
6.933438 -12.133390 -5.508463 15.021148 -1.051646 1.946271 0.007288 -0.001969 133786.000000 1 0 0
2.896038 -12.267990 3.342237 13.040750 -1.338976 1.311612 0.006457 -0.006855 375773.000000 1 0 0
3.294638 11.338710 -6.124163 13.301366 1.288017 2.049260 -0.001189 0.000074 -217773.000000 1 0 0
-5.591562 -8.413290 6.297837 11.904275 0.984218 1.013328 0.009129 0.003585 38384.900000 1 0 0
-4.063362 6.554110 6.277037 9.943262 -1.015821 0.887587 0.006972 0.000085 169185.000000 1 0 0
4.332938 4.450310 -6.976263 9.340656 0.798761 2.414140 0.002515 -0.000667 -2958930.000000 1 0 0
-0.274762 -2.703790 1.579737 3.143492 1.469523 1.044260 0.006578 -0.005987 -216224.000000 1 0 0
-13.254762 -0.870090 6.577437 14.822566 0.065550 1.111023 0.006300 -0.002634 -377927.000000 1 0 0
-0.477062 -9.104690 -5.973163 10.899617 1.518447 2.150787 0.000920 -0.001016 149874.000000 1 0 0
2.089638 -1.734790 -3.800663 4.671308 -0.692879 2.521145 0.001666 -0.000527 -852388.000000 1 0 0
11.345838 -1.972790 1.204437 11.578886 -0.172157 1.466588 0.003681 0.000322 800326.000000 1 0 0
0.604838 -4.200190 -1.951663 4.670805 -1.427777 2.001866 0.005217 -0.002694 -1446070.000000 1 0 0
1.138038 -7.419390 -11.298763 13.564827 -1.418596 2.555206 -0.005516 0.000745 -964249.000000 1 0 0
-4.494662 4.208110 -9.967763 11.716077 -0.752484 2.588257 0.006491 -0.004456 -97518.400000 1 0 0
-1.070562 5.898710 -2.015263 6.324726 -1.391260 1.895083 0.007804 -0.001076 -1127760.000000 1 0 0
-11.357162 1.679210 -3.935663 12.136487 -0.146791 1.901051 0.000114 -0.001741 -111332.000000 1 0 0
-1.827662 -11.245490 4.101737 12.108908 1.409681 1.225222 0.010935 -0.000975 38560.100000 1 0 0
-3.578162 -5.277990 -9.732963 11.635763 0.975030 2.561605 0.004338 -0.002481 -770299.000000 1 0 0
-12.939962 -3.727990 -8.502163 15.925681 0.280503 2.133961 0.014531 -0.003136 -598150.000000 1 0 0
11.509938 4.439810 0.635637 12.352919 0.368151 1.519317 0.007181 0.003284 534250.000000 1 0 0
-9.014862 -2.362390 -3.115463 9.826227 0.256292 1.893420 0.007404 -0.005251 -108284.000000 1 0 0
-2.450462 -6.117090 -6.479863 9.241871 1.189779 2.347794 0.006605 -0.006179 -427636.000000 1 0 0
-0.017462 2.796910 -1.909263 3.386487 -1.564553 2.169762 0.007719 -0.002205 -124887.000000 1 0 0
8.057138 6.030810 -5.081863 11.274461 0.642544 2.038392 0.005587 -0.003293 -817905.000000 1 0 0
-9.827162 -0.915390 -1.049363 9.925332 0.092881 1.676720 0.003990 -0.004097 -681826.000000 1 0 0
6.115438 0.561710 -8.740263 10.682055 0.091594 2.529103 0.002463 -0.000783 520566.000000 1 0 0
-4.170862 2.538410 7.860337 9.253351 -0.546723 0.555838 0.002425 -0.001545 -1596780.000000 1 0 0
-10.233162 -3.314990 1.382737 10.845217 0.313278 1.442951 0.004601 -0.001222 2262930.000000 1 0 0
-1.738062 -8.032090 -7.865163 11.375242 1.357692 2.334260 0.001642 -0.004033 -1230380.000000 1 0 0
-9.424762 -9.804890 4.190337 14.230985 0.805163 1.271915 0.007328 0.000619 -825968.000000 1 0 0
-1.015762 -10.719990 7.353437 13.039287 1.476324 0.971641 0.006605 0.000077 -141698.000000 1 0 0
9.560438 3.874310 -3.731263 10.969712 0.385019 1.917865 0.005055 -0.000609 -597463.000000 1 0 0
12.788138 -0.796390 3.107637 13.184389 -0.062195 1.332852 0.000660 0.000132 140289.000000 1 0 0
6.424238 11.871510 -6.783563 15.106962 1.074775 2.036482 0.002991 -0.005463 202529.000000 1 0 0
-11.950062 -0.099290 -6.616963 13.660089 0.008309 2.076475 0.002761 0.001773 572126.000000 1 0 0
-7.651462 -6.587190 -11.380563 15.213585 0.710792 2.415919 0.009721 -0.006089 -1835190.000000 1 0 0
4.174838 6.051210 6.634137 9.902433 0.966869 0.836655 0.000157 0.002591 -2217380.000000 1 0 0
-4.248762 -1.392690 -7.336863 8.591922 0.316751 2.594279 0.013226 -0.012536 1417430.000000 1 0 0
9.634138 9.343210 0.897137 13.450541 0.770069 1.504048 0.006901 0.001048 -2407530.000000 1 0 0
-9.050962 4.094210 4.852937 11.055924 -0.424807 1.116373 0.002051 -0.004290 526679.000000 1 0 0
-7.072362 7.895710 -12.229763 16.184179 -0.840350 2.427460 0.008299 0.000013 -417399.000000 1 0 0
11.134938 -3.699090 7.336537 13.838168 -0.320735 1.011999 0.004317 -0.001652 -310797.000000 1 0 0
11.874738 6.814310 6.443337 15.131451 0.520969 1.130924 0.007903 0.001372 535990.000000 1 0 0
-9.789562 -0.953590 -14.888763 17.844330 0.097103 2.557784 0.009597 0.000453 218600.000000 1 0 0
1.701338 -12.883690 12.076737 17.740677 -1.439502 0.822028 0.003857 0.000746 -253612.000000 1 0 0
2.897238 3.000710 13.030837 13.682140 0.802940 0.309790 -0.000424 -0.003806 -1548720.000000 1 0 0
-2.547562 -1.394490 10.779437 11.163823 0.500831 0.263176 0.004060 -0.006848 -493445.000000 1 0 0
2.589338 -10.075590 -8.278063 13.294680 -1.319249 2.242934 -0.005734 0.001180 -957294.000000 1 0 0
14.025638 3.775610 -7.390363 16.296970 0.262960 2.041463 0.022156 -0.001928 -1397030.000000 1 0 0
7.333738 -1.589490 5.071937 9.057303 -0.213436 0.976431 -0.001394 -0.000616 370232.000000 1 0 0
-1.245862 8.753010 10.152037 13.462214 -1.429411 0.716493 0.004422 0.001375 121025.000000 1 0 0
-12.354662 -4.633790 0.934937 13.228144 0.358827 1.500059 0.002934 0.000534 352104.000000 1 0 0
-4.896862 4.859010 -5.241663 8.663963 -0.781518 2.220557 0.006237 -0.003179 -104401.000000 1 0 0
-11.258162 0.425610 1.958837 11.435226 -0.037787 1.398649 -0.003524 -0.000433 -1695760.000000 1 0 0
-1.230562 2.258710 -4.041763 4.790814 -1.071948 2.574839 0.009913 -0.005393 989479.000000 1 0 0
3.010038 -9.833790 13.015937 16.588501 -1.273761 0.668687 0.006063 -0.005752 -3262320.000000 1 0 0
8.912338 4.700910 -1.436663 10.178031 0.485374 1.712423 0.004309 -0.001510 -1105160.000000 1 0 0
4.112838 2.258610 3.765537 6.016313 0.502199 0.894527 -0.001214 0.000533 -144578.000000 1 0 0
-5.415662 -3.243090 7.433937 9.752459 0.539563 0.703994 0.005124 -0.003609 -202342.000000 1 0 0
1.695238 -5.785290 7.671537 9.756838 -1.285750 0.666043 -0.000825 -0.004561 87308.400000 1 0 0
-5.870462 -6.202190 -9.784063 12.986815 0.812869 2.423990 0.005325 -0.005073 -846453.000000 1 0 0
-11.717062 -5.811090 5.467937 14.175918 0.460403 1.174808 0.006135 -0.000336 -1515350.000000 1 0 0
10.567438 6.086210 4.481537 12.992185 0.522540 1.218620 0.006258 0.001476 -1060050.000000 1 0 0
1.467538 -3.713390 0.484537 4.022153 -1.194433 1.450036 0.009346 -0.004620 -928524.000000 1 0 0
8.806538 4.381710 6.807237 11.962147 0.461687 0.965428 0.000718 0.000215 -181253.000000 1 0 0
-7.822262 12.197510 3.472737 14.900568 -1.000561 1.335572 0.009286 -0.001699 -241833.000000 1 0 0
-6.144762 13.013210 -6.995363 16.001151 -1.129640 2.023256 0.010119 -0.011447 501845.000000 1 0 0
4.413438 -6.922590 -0.906163 8.259650 -1.003229 1.680727 0.002268 -0.005681 159749.000000 1 0 0
-1.951562 -8.199590 11.109237 13.944785 1.337136 0.649049 0.000990 -0.003258 -479514.000000 1 0 0
11.615738 8.831110 -5.600163 15.629322 0.650042 1.937255 0.010298 -0.007463 370934.000000 1 0 0
-3.297662 -2.810290 -1.926663 4.741765 0.705774 1.989217 0.016692 -0.007237 -1057010.000000 1 0 0
-2.108962 6.028910 4.778437 7.976775 -1.234292 0.928490 0.006784 0.000455 -361424.000000 1 0 0
0.444838 -11.308290 -5.652163 12.649990 -1.531479 2.033995 -0.000930 -0.001662 -477612.000000 1 0 0
-8.859162 6.298810 -1.574063 10.983507 -0.618066 1.714603 0.002689 -0.001135 -472535.000000 1 0 0
2.908438 -0.015290 3.890637 4.857603 -0.005257 0.641937 0.000454 -0.002043 645147.000000 1 0 0
-9.961762 3.974110 -1.015763 10.773209 -0.379589 1.665223 0.004209 -0.003169 -129045.000000 1 0 0
6.429538 5.328410 13.617237 15.973730 0.692021 0.550091 0.012912 -0.000667 -928601.000000 1 0 0
-8.833362 -1.542190 5.591437 10.567441 0.172845 1.013234 0.001119 -0.002118 -196068.000000 1 0 0
13.017438 -1.752390 -1.463963 13.216193 -0.133814 1.681795 0.013585 -0.000967 -1459230.000000 1 0 0
5.403238 -5.701690 5.463437 9.568354 -0.812267 0.963085 -0.001651 -0.005101 370397.000000 1 0 0
-9.052362 -1.299690 3.064537 9.644990 0.142600 1.247458 0.000383 -0.001886 506837.000000 1 0 0
2.003738 5.480610 5.596837 8.085582 1.220288 0.806264 0.003291 -0.000267 -1034360.000000 1 0 0
9.254538 3.061810 -7.301363 12.179124 0.319509 2.213670 0.004109 -0.001478 -856742.000000 1 0 0
2.399938 -2.321590 -1.371163 3.609650 -0.768806 1.960442 0.002541 -0.003468 -57878.100000 1 0 0
-6.359562 0.305710 -4.102163 7.573984 -0.048034 2.143150 0.006280 -0.004613 -2658710.000000 1 0 0
-4.036062 4.193110 4.959037 7.646176 -0.804480 0.865100 0.005629 -0.001591 1780950.000000 1 0 0
-6.367462 1.822210 -12.351263 14.014946 -0.278726 2.649386 0.004620 -0.005344 -2274090.000000 1 0 0
-0.092062 3.060810 6.216437 6.929727 -1.540728 0.457707 0.004768 -0.003811 959064.000000 1 0 0
-8.704162 9.504210 -2.082763 13.054897 -0.829308 1.731020 0.002037 -0.000409 41347.200000 1 0 0
-1.335562 -3.717790 -6.098363 7.266066 1.225918 2.566779 0.006023 -0.005232 428260.000000 1 0 0
-3.291862 7.127910 -2.911963 8.373947 -1.138151 1.925957 0.005140 0.000885 694772.000000 1 0 0
7.127138 -0.337690 -4.203363 8.281207 -0.047345 2.103168 0.003620 0.001246 -200026.000000 1 0 0
-5.327862 -10.842890 6.849237 13.887636 1.114077 1.055044 0.004334 -0.000078 400840.000000 1 0 0
9.823838 8.386510 -1.438563 12.996569 0.706632 1.681712 0.005903 -0.000210 203384.000000 1 0 0
13.863838 4.625010 -4.233863 15.215857 0.321993 1.852771 0.009280 0.000279 622886.000000 1 0 0
4.771238 1.117510 -6.699663 8.300544 0.230071 2.510080 -0.001475 -0.000314 -907262.000000 1 0 0
8.918038 -4.705690 3.717837 10.746964 -0.485530 1.217553 -0.000216 -0.002376 -427537.000000 1 0 0
-8.896162 -3.285090 -0.841563 9.520596 0.353738 1.659306 0.003816 -0.002738 -33357.700000 1 0 0
-8.525362 -4.221090 -10.510763 14.176584 0.459737 2.405976 0.008965 -0.006048 156623.000000 1 0 0
10.507638 -1.180690 10.788537 15.106191 -0.111896 0.775345 0.014035 -0.003243 550705.000000 1 0 0
2.202938 -11.503190 9.877537 15.321294 -1.381581 0.870174 0.001673 -0.003064 205536.000000 1 0 0
-6.260362 -10.613990 1.904937 12.469070 1.037894 1.417423 0.011106 0.000796 -545591.000000 1 0 0
-3.639662 -1.481090 6.522137 7.614397 0.386467 0.542243 0.005721 -0.005910 -2059370.000000 1 0 0
4.717738 -7.651690 3.889937 9.794745 -1.018288 1.162392 -0.001992 -0.003107 16377.700000 1 0 0
11.566738 -9.501390 -5.230563 15.856375 -0.687679 1.906964 0.025343 -0.006638 443765.000000 1 0 0
11.322338 1.117310 11.610637 16.255787 0.098363 0.775250 0.018821 -0.001225 -521629.000000 1 0 0
-10.202262 -3.543090 4.372137 11.651404 0.334254 1.186135 0.006478 -0.000242 1804120.000000 1 0 0
1.929838 8.670110 9.018737 12.658305 1.351782 0.777776 0.000043 0.004284 -819555.000000 1 0 0
6.605138 8.827110 4.117737 11.768665 0.928398 1.213343 0.005429 0.001678 1821390.000000 1 0 0
-4.256362 3.483710 0.382337 5.513532 -0.685903 1.501395 0.008277 -0.003569 -1079860.000000 1 0 0
4.961138 6.871710 4.260037 9.485842 0.945480 1.105045 0.004144 0.000185 -1201340.000000 1 0 0
-8.264062 13.157810 1.009037 15.570512 -1.009990 1.505947 0.014027 -0.003419 -1258310.000000 1 0 0
8.854338 8.143710 -9.030663 15.042346 0.743616 2.214734 0.002896 -0.011449 -1526060.000000 1 0 0
6.998038 1.894110 6.011737 9.418130 0.264330 0.878489 -0.002299 0.000753 -91609.000000 1 0 0
11.460938 -6.364490 3.035737 13.456431 -0.506919 1.343240 0.006443 -0.002453 432298.000000 1 0 0
11.423738 4.799110 -2.007363 12.552400 0.397713 1.731405 0.003109 0.003570 -343356.000000 1 0 0
-3.997862 14.307410 -5.931263 15.995773 -1.298320 1.950669 0.001809 -0.001269 -936076.000000 1 0 0
7.248938 -3.093290 7.069837 10.587641 -0.403329 0.839622 0.003539 -0.003961 -1766790.000000 1 0 0
-7.998162 -0.469590 0.751637 8.047115 0.058645 1.477255 0.005790 -0.002764 175456.000000 1 0 0
-3.280962 1.087210 10.653737 11.200395 -0.319982 0.313717 0.003178 -0.002247 -174423.000000 1 0 0
7.088338 -1.293390 -1.810263 7.429297 -0.180482 1.816940 0.005765 -0.000138 -1081330.000000 1 0 0
-7.825662 5.395910 2.920937 9.944280 -0.603654 1.272669 0.003081 -0.002798 869147.000000 1 0 0
9.529238 -2.145190 2.960337 10.206459 -0.221425 1.276522 0.001311 -0.000781 -1614010.000000 1 0 0
0.228538 3.369510 1.700237 3.781089 1.503075 1.104402 0.006548 -0.001120 -2249600.000000 1 0 0
-7.532762 -3.134290 3.932437 9.057060 0.394298 1.121663 0.003131 -0.001942 -758261.000000 1 0 0
-2.269562 8.416910 -6.687963 10.987453 -1.307417 2.225206 0.002628 -0.001092 -454261.000000 1 0 0
4.480238 9.794510 7.445037 13.093263 1.141786 0.965974 0.000134 0.004837 215016.000000 1 0 0
-11.839762 -3.148690 6.769437 13.997124 0.259926 1.065998 0.008452 -0.002739 -673625.000000 1 0 0
-4.817862 2.319510 -5.697963 7.814007 -0.448689 2.387946 0.010223 -0.008842 -1522400.000000 1 0 0
-2.767162 2.872510 -1.838363 4.391819 -0.804076 2.002686 0.008718 -0.002047 1516070.000000 1 0 0
2.375438 5.236110 11.438237 12.802063 1.144899 0.465787 0.004538 -0.003434 338803.000000 1 0 0
-0.695362 1.582810 4.558237 4.875073 -1.156858 0.362512 0.007163 -0.005920 440873.000000 1 0 0
5.086338 1.606310 7.714437 9.378891 0.305896 0.604948 0.000874 -0.000952 1483230.000000 1 0 0
3.427938 -8.239990 1.781937 9.100742 -1.176563 1.373722 -0.000155 -0.004531 1524560.000000 1 0 0
5.090238 6.542610 -4.585163 9.473119 0.909606 2.076037 0.006260 -0.003928 -1809440.000000 1 0 0
-4.146362 2.910410 -7.899563 9.384343 -0.612013 2.571371 0.010782 -0.010179 560907.000000 1 0 0
-8.601362 -2.087290 -12.782363 15.547637 0.238068 2.535960 0.009665 -0.006188 -240451.000000 1 0 0
-7.869762 8.210610 1.361437 11.454291 -0.806592 1.451656 0.000973 -0.001232 -2390480.000000 1 0 0
7.391038 0.852110 -6.451463 9.847584 0.114783 2.285153 0.003854 -0.000071 -24477.700000 1 0 0
9.044738 8.806910 5.491037 13.766642 0.772076 1.160517 0.004978 0.004854 511541.000000 1 0 0
9.438538 -1.095990 -1.316063 9.592665 -0.115601 1.708425 0.006486 0.000274 1253280.000000 1 0 0
5.520638 0.105910 4.296337 6.996226 0.019182 0.909559 0.001231 -0.000813 -2011210.000000 1 0 0
-4.123962 -7.223990 -8.086863 11.601312 1.052071 2.342092 0.012067 -0.007307 -378975.000000 1 0 0
-2.226062 7.537110 -0.509663 7.875477 -1.283614 1.635557 0.006442 0.000501 442830.000000 1 0 0
13.410238 -3.308790 -7.364063 15.652859 -0.241904 2.060610 0.027957 -0.005546 852923.000000 1 0 0
-4.782462 -5.054290 1.564037 7.131900 0.813025 1.349698 0.009065 -0.002751 2321980.000000 1 0 0
-8.945462 1.250010 2.534137 9.381133 -0.138838 1.297267 0.000877 -0.002750 -1079880.000000 1 0 0
-1.075862 11.184410 10.253037 15.210959 -1.474898 0.831110 0.003128 0.001631 365567.000000 1 0 0
-8.534562 0.327510 7.405237 11.304138 -0.038356 0.856494 -0.000322 -0.002441 -482059.000000 1 0 0
-6.087662 12.998910 -2.125963 14.510376 -1.132812 1.717839 0.003136 -0.001476 64170.400000 1 0 0
-13.040062 -0.724390 3.223137 13.452010 0.055494 1.328840 -0.000594 -0.000379 289095.000000 1 0 0
-6.672662 12.769810 8.666137 16.813518 -1.089284 1.029291 0.009339 -0.004354 735152.000000 1 0 0
-8.030262 0.801910 -13.996563 16.156483 -0.099531 2.618568 0.003872 -0.003110 -100454.000000 1 0 0
7.351938 2.831410 3.694137 8.701409 0.367617 1.132337 0.000281 -0.000468 -77670.900000 1 0 0
-1.567262 0.697410 -1.966663 2.609685 -0.418677 2.424321 0.010676 -0.005969 492.607000 1 0 0
-6.247162 9.574510 -10.368063 15.433567 -0.992681 2.307414 0.002606 -0.001543 -244319.000000 1 0 0
-10.028562 13.620010 5.222437 17.701711 -0.936114 1.271315 0.006364 -0.006092 313435.000000 1 0 0
-5.614562 8.338010 2.423437 10.340153 -0.978168 1.334224 0.003885 -0.000687 -1173870.000000 1 0 0
-2.367362 -10.654890 -1.289563 10.990635 1.352162 1.688400 0.007452 -0.000966 425706.000000 1 0 0
-2.260662 -12.402090 8.866337 15.412150 1.390495 0.957847 0.005633 0.000604 753380.000000 1 0 0
-14.802062 -6.360290 -1.771263 16.207767 0.405836 1.680300 0.008865 0.001145 596375.000000 1 0 0
-2.747262 -9.277490 3.228937 10.200260 1.282902 1.248701 0.005853 -0.001331 -725000.000000 1 0 0
4.717538 -2.836790 7.503337 9.306052 -0.541396 0.632951 0.001008 -0.002990 725527.000000 1 0 0
-15.077662 -1.258690 -0.374963 15.134754 0.083287 1.595574 0.003836 -0.003718 354985.000000 1 0 0
5.522038 8.820110 -2.814463 10.780002 1.011425 1.834939 0.003378 -0.001845 -868904.000000 1 0 0
-5.617462 -5.767290 8.472337 11.687515 0.798558 0.759900 0.006836 -0.002218 -3753550.000000 1 0 0
3.403838 3.601810 7.020337 8.593269 0.813650 0.614681 0.001926 -0.001076 726567.000000 1 0 0
3.271738 2.255510 9.335437 10.146033 0.603571 0.402442 0.005333 -0.005545 730402.000000 1 0 0
9.982138 -3.219790 5.338137 11.768850 -0.312019 1.100016 0.003087 -0.001309 -441283.000000 1 0 0
6.593438 9.928110 -5.015763 12.930532 0.984560 1.969149 0.003212 -0.005396 516025.000000 1 0 0
-4.486362 11.971010 -8.582663 15.397877 -1.212228 2.162038 0.000401 -0.001990 -363968.000000 1 0 0
-3.288962 -7.118090 2.151637 8.131053 1.137961 1.302987 0.008617 -0.002964 1072260.000000 1 0 0
-7.483262 -4.013490 1.091137 8.561419 0.492287 1.443001 0.006988 -0.002857 2800220.000000 1 0 0
-1.991462 -3.925090 -10.931063 11.783904 1.101272 2.758804 0.006353 -0.004632 -626131.000000 1 0 0
-5.185862 8.217710 -4.395863 10.665249 -1.007852 1.995627 0.003673 -0.002404 -2265570.000000 1 0 0
-10.961862 -3.366090 -10.207163 15.351845 0.297933 2.298132 0.013532 -0.004091 683084.000000 1 0 0
4.753238 -11.399590 -7.771763 14.592609 -1.175750 2.132445 -0.003677 -0.000208 -2559580.000000 1 0 0
-9.350362 -3.969190 7.114637 12.401685 0.401444 0.959801 0.001870 -0.001230 -560909.000000 1 0 0
-5.723662 -9.645690 -5.150463 12.342079 1.035251 2.001279 0.009357 -0.008226 -130830.000000 1 0 0
4.973238 4.340710 -9.517663 11.582779 0.717590 2.535198 0.000058 0.002173 -131281.000000 1 0 0
-3.344562 -7.045290 -14.055763 16.074411 1.127574 2.635032 -0.007005 0.002983 -211950.000000 1 0 0
0.638938 -0.818290 -8.740863 8.802302 -0.907860 3.023372 0.006494 -0.007790 -94319.100000 1 0 0
-7.777862 2.145310 -2.925263 8.582229 -0.269131 1.918618 0.006464 -0.004777 -132329.000000 1 0 0
-2.333862 7.519910 -12.630163 14.883446 -1.269864 2.584139 0.005657 -0.000592 -11198.100000 1 0 0
-9.875762 8.880610 7.563837 15.284225 -0.732391 1.053101 0.006131 -0.005669 -141579.000000 1 0 0
-10.536262 -3.213990 -14.178463 17.954703 0.296075 2.481083 0.023281 -0.006050 -345447.000000 1 0 0
-3.195262 4.836310 7.800937 9.718756 -0.986949 0.639041 0.004457 -0.002565 -600580.000000 1 0 0
8.731838 -2.286290 -3.491763 9.678044 -0.256085 1.939914 0.007444 0.000470 -4491800.000000 1 0 0
1.902938 -8.388690 -1.103763 8.672346 -1.347726 1.698416 0.002588 -0.002045 430188.000000 1 0 0
-13.575962 -2.746390 4.958037 14.711612 0.199604 1.227051 0.011002 -0.003398 408198.000000 1 0 0
7.107938 2.752210 -1.992163 7.878208 0.369425 1.826442 0.004624 -0.001388 413467.000000 1 0 0
-11.143162 4.378410 8.796137 14.856398 -0.374391 0.937162 0.000039 -0.005745 -4394300.000000 1 0 0
-1.757262 -2.560590 7.899437 8.487974 0.969343 0.374577 0.001919 -0.006192 -1698510.000000 1 0 0
2.948538 11.971810 -9.916763 15.822778 1.329312 2.248158 -0.000855 -0.007607 444979.000000 1 0 0
3.587838 -5.023590 -7.035363 9.359774 -0.950605 2.421371 -0.001298 -0.003813 -94275.800000 1 0 0
8.283538 -13.741690 -9.734163 18.767125 -1.028318 2.116105 0.002161 0.003875 -301763.000000 1 0 0
-6.277562 -5.645290 -0.542163 8.459966 0.732418 1.634926 0.014451 -0.003589 -197586.000000 1 0 0
-1.204362 -3.980090 9.876537 10.716230 1.276959 0.398503 -0.000437 -0.004594 1058780.000000 1 0 0
2.828038 3.339610 1.845337 4.749322 0.868153 1.171742 -0.002361 0.001653 -730528.000000 1 0 0
-9.091062 13.358910 7.671437 17.887393 -0.973261 1.127550 0.013004 -0.011143 -55558.500000 1 0 0
4.097238 -11.142490 -0.107663 11.872407 -1.218430 1.579865 -0.000426 -0.005669 -801063.000000 1 0 0
-12.475962 -1.422790 -9.205363 15.569607 0.113552 2.203391 0.010801 -0.004187 240289.000000 1 0 0
-4.223762 0.821010 -13.506063 14.174906 -0.191985 2.833175 0.005674 -0.003028 287934.000000 1 0 0
4.042438 -3.192890 4.995137 7.175462 -0.668517 0.800788 0.000563 -0.001116 64674.800000 1 0 0
1.738538 -1.178590 1.213037 2.425500 -0.595753 1.047061 0.003948 -0.003871 523251.000000 1 0 0
8.156638 -9.110790 7.410437 14.298665 -0.840599 1.025980 0.007584 -0.003835 -1349830.000000 1 0 0
-0.094962 2.443110 -6.445363 6.893512 -1.531947 2.779026 0.008824 -0.006098 15216.200000 1 0 0
-3.799862 -9.755490 -3.468263 11.028934 1.199366 1.890694 0.011740 -0.004219 1005470.000000 1 0 0
-9.419062 2.281810 -5.527563 11.157031 -0.237676 2.089130 0.002961 -0.002447 -2119600.000000 1 0 0
8.913938 -7.728790 5.336237 12.948665 -0.714307 1.146031 0.001456 -0.002547 1275910.000000 1 0 0
-5.488362 -4.290190 4.655037 8.378378 0.663475 0.981710 0.004812 -0.002547 -937699.000000 1 0 0
-0.157662 -12.490590 10.379037 16.240816 1.558175 0.877506 0.007692 0.002181 -2277510.000000 1 0 0
-14.291062 -8.337890 3.141637 16.841162 0.528149 1.383152 0.000314 -0.003668 -922768.000000 1 0 0
10.980838 -1.304490 -3.504963 11.600227 -0.118243 1.877739 0.019377 -0.000075 -137080.000000 1 0 0
-13.580762 3.032210 2.684537 14.171737 -0.219670 1.380216 -0.001956 -0.003564 -697534.000000 1 0 0
-6.428262 6.206110 0.935337 8.984053 -0.767817 1.466497 0.002369 -0.001148 358545.000000 1 0 0
7.167038 -6.950490 -0.437963 9.993376 -0.770060 1.614636 0.001970 -0.004332 46370.600000 1 0 0
-6.883062 7.738810 10.026637 14.415241 -0.843857 0.801600 0.003438 -0.002930 295043.000000 1 0 0
-12.663262 -5.003490 -1.957763 13.755942 0.376291 1.713602 -0.000909 -0.000747 -2741140.000000 1 0 0
-9.458262 -5.520590 0.109937 10.952065 0.528332 1.560758 0.007835 -0.001057 -730300.000000 1 0 0
-1.868762 1.883810 2.316437 3.522342 -0.789408 0.853113 0.008720 -0.002313 -185639.000000 1 0 0
-7.145362 7.402310 7.500437 12.732123 -0.803059 0.940857 0.002998 -0.004668 -142589.000000 1 0 0
5.697638 7.145910 -0.398663 9.148007 0.897686 1.614389 0.004911 -0.001806 -1439730.000000 1 0 0
-0.005962 -3.938790 7.350937 8.339687 1.569283 0.491893 0.001164 -0.006044 -1017070.000000 1 0 0
6.335038 0.636010 13.048837 14.519276 0.100060 0.453943 0.007638 -0.005634 724420.000000 1 0 0
5.898238 6.098610 -7.854263 11.561648 0.802099 2.317656 0.002912 -0.001720 -717287.000000 1 0 0
9.983438 5.270110 9.083337 14.489655 0.485706 0.893249 0.009024 -0.002137 -1956020.000000 1 0 0
-1.266362 -4.936090 -8.472663 9.887096 1.319661 2.600102 0.006631 -0.003640 839327.000000 1 0 0
10.068338 -3.506190 -7.914463 13.277934 -0.335105 2.209383 0.023056 -0.007894 848356.000000 1 0 0
8.481938 -5.632490 1.359337 10.272099 -0.586194 1.438074 0.001939 -0.001882 1345790.000000 1 0 0
15.874938 3.123710 -5.016663 16.939248 0.194288 1.871462 0.023529 0.006500 -364484.000000 1 0 0
-6.882662 3.643110 1.159837 7.873278 -0.486825 1.422945 0.005865 -0.003536 357714.000000 1 0 0
-1.718762 3.737310 0.303537 4.124774 -1.139746 1.497141 0.009200 -0.004883 -811920.000000 1 0 0
-2.664562 10.158410 6.981037 12.610633 -1.314274 0.984135 0.000999 0.003748 -468180.000000 1 0 0
5.470738 -5.645090 -8.734963 11.751408 -0.801082 2.408804 0.002804 -0.004996 -1464840.000000 1 0 0
-1.159562 -0.862390 6.193137 6.359501 0.639470 0.229237 0.004526 -0.007486 19323.500000 1 0 0
-5.823162 5.007110 -7.764763 10.921168 -0.710191 2.361691 0.005799 -0.002902 129494.000000 1 0 0
6.744038 -1.280190 2.613937 7.345312 -0.187593 1.206957 -0.002141 0.001953 -1425350.000000 1 0 0
8.765938 7.408810 3.352037 11.956935 0.701690 1.286645 0.004713 0.000689 -666540.000000 1 0 0
-5.319462 -4.847490 -7.740863 10.569569 0.739009 2.392596 0.014808 -0.010769 -6205.110000 1 0 0
-2.147662 7.914110 -10.066963 12.984195 -1.305807 2.458025 0.003475 -0.001625 670957.000000 1 0 0
-2.792362 -2.142790 1.580437 3.858318 0.654529 1.148761 0.006151 -0.005674 61061.100000 1 0 0
5.965738 -2.091990 -9.139463 11.112886 -0.337269 2.536449 0.002822 -0.001760 1082270.000000 1 0 0
0.982738 -7.544690 5.170937 9.199278 -1.441270 0.973871 0.001979 -0.003685 413333.000000 1 0 0
1.790938 11.930910 1.286637 12.132992 1.421800 1.464552 0.006449 -0.004004 490530.000000 1 0 0
-1.038262 7.167810 2.665437 7.717515 -1.426946 1.218158 0.005925 0.001006 615205.000000 1 0 0
8.819238 7.849310 -6.563463 13.508133 0.727275 2.078177 0.005189 -0.006164 275045.000000 1 0 0
3.734038 -11.171790 5.522537 13.009625 -1.248232 1.132391 0.004205 -0.001970 336508.000000 1 0 0
7.929738 -7.180890 12.480537 16.438058 -0.735881 0.708642 0.021127 -0.011447 697767.000000 1 0 0
-8.810862 0.036610 -3.998163 9.675636 -0.004155 1.996783 0.006527 -0.006622 -1639800.000000 1 0 0
-3.338662 -5.078190 11.194937 12.738183 0.989201 0.497352 0.003817 -0.003781 577595.000000 1 0 0
-8.105362 0.268710 -11.477563 14.053596 -0.033140 2.526464 0.008958 -0.009635 -1981990.000000 1 0 0
1.393438 -5.008390 5.329437 7.445035 -1.299438 0.772973 0.000311 -0.005287 -439824.000000 1 0 0
6.742238 3.761810 -7.559463 10.805298 0.508924 2.345644 0.001450 -0.000923 -656544.000000 1 0 0
16.352738 4.217610 -1.327063 16.939934 0.252414 1.649216 0.012986 0.012040 -1272050.000000 1 0 0
7.972938 7.480010 0.152137 10.933500 0.753510 1.556881 0.004044 -0.002663 -3397120.000000 1 0 0
5.360438 -10.405390 13.907037 18.177242 -1.095095 0.699631 0.012839 -0.011459 862883.000000 1 0 0
-5.256462 -9.322090 8.920637 13.932319 1.057366 0.875929 0.004366 -0.001189 728202.000000 1 0 0
-12.609662 -3.156990 2.849037 13.307410 0.245320 1.355032 0.000513 0.001248 -50342.800000 1 0 0
-2.091062 -1.301790 -5.868463 6.364437 0.556835 2.744194 0.012852 -0.010195 -1274550.000000 1 0 0
-2.370762 13.079110 -4.262363 13.958917 -1.391480 1.881103 0.003816 0.000171 649237.000000 1 0 0
3.948838 -0.447590 -4.921163 6.325465 -0.112866 2.462260 0.002506 -0.000054 -225330.000000 1 0 0
-8.795562 3.860610 -7.338263 12.087858 -0.413608 2.223174 0.005321 -0.003433 476965.000000 1 0 0
-4.524362 7.981010 -11.330663 14.579105 -1.055078 2.460976 0.007067 0.000486 -1683690.000000 1 0 0
-10.130362 -6.450690 7.337437 14.073863 0.567017 1.022362 0.005058 0.000476 -1413230.000000 1 0 0
8.115538 5.123510 4.077737 10.427859 0.563132 1.169032 0.000426 0.000526 -1276630.000000 1 0 0
-6.722062 -7.476790 3.950237 10.802448 0.838502 1.196433 0.011753 -0.001082 -621315.000000 1 0 0
-4.174462 11.795110 8.130537 14.921675 -1.230638 0.994549 0.003880 -0.000351 -238050.000000 1 0 0
-7.257262 9.920710 -7.961363 14.644850 -0.939223 2.145551 0.008612 -0.006076 -1016980.000000 1 0 0
13.155238 5.510810 4.707837 15.019755 0.396698 1.251980 0.002775 0.001779 1045980.000000 1 0 0
5.393938 4.061310 -3.736263 7.716765 0.645380 2.076216 0.003523 0.000436 814085.000000 1 0 0
-2.802262 -4.211490 5.139737 7.211534 0.983682 0.777441 0.005354 -0.004146 -1642070.000000 1 0 0
12.599538 -2.223190 -5.301563 13.849098 -0.174652 1.963632 0.022618 -0.007189 -1229570.000000 1 0 0
-5.315662 9.704810 7.000537 13.093781 -1.069694 1.006708 0.000761 0.000495 199694.000000 1 0 0
1.734238 3.875110 -0.430863 4.267283 1.149996 1.671938 0.003662 -0.000489 506017.000000 1 0 0
-0.138262 9.664910 7.736137 12.380526 -1.556492 0.895840 0.000556 0.003990 -431837.000000 1 0 0
-5.545162 2.086510 5.872637 8.342075 -0.359889 0.789813 0.004390 -0.003346 758064.000000 1 0 0
8.913638 0.898010 10.748737 13.992666 0.100407 0.694819 0.010573 -0.001171 -1687880.000000 1 0 0
0.492938 -2.856190 -10.085463 10.493683 -1.399894 2.861749 0.002703 -0.004794 -1631110.000000 1 0 0
1.336538 10.726210 -2.764063 11.156969 1.446830 1.821146 0.004398 -0.003686 -590071.000000 1 0 0
2.241738 -4.311590 11.628737 12.603282 -1.091330 0.395834 -0.001962 -0.006680 154438.000000 1 0 0
6.514838 -3.215090 9.534537 11.986964 -0.458436 0.651115 0.006261 -0.004821 161617.000000 1 0 0
-10.681362 -8.289090 5.617537 14.640944 0.659955 1.177011 0.007976 -0.000021 -1434760.000000 1 0 0
-2.943562 0.873410 -6.855363 7.511551 -0.288444 2.720500 0.013727 -0.010245 1074080.000000 1 0 0
11.192338 2.646610 -4.972063 12.529740 0.232201 1.978847 0.008711 0.000026 -3733560.000000 1 0 0
-2.011762 -4.059990 -0.018663 4.531121 1.110748 1.574915 0.007495 -0.005390 978222.000000 1 0 0
-1.230562 -6.417190 -10.618363 12.467728 1.381336 2.589956 0.001698 0.000221 890127.000000 1 0 0
0.331138 6.888010 -6.558663 9.516848 1.522759 2.331130 0.007705 -0.001097 -1954620.000000 1 0 0
2.018738 3.904310 -6.253663 7.643771 1.093599 2.528962 0.005970 -0.001380 -2008550.000000 1 0 0
1.598138 -14.721490 6.407937 16.134992 -1.462662 1.162392 0.016040 -0.002823 -278821.000000 1 0 0
-1.562462 5.458510 -10.495663 11.932961 -1.292008 2.645717 0.008639 -0.002975 108587.000000 1 0 0
13.693638 4.430110 -0.814063 14.415419 0.312889 1.627298 0.004853 0.004657 -1230250.000000 1 0 0
-2.440262 3.337310 -6.041863 7.320971 -0.939432 2.541497 0.011325 -0.005932 -1567290.000000 1 0 0
5.705038 7.731510 14.188637 17.135960 0.935088 0.595258 0.007078 -0.003090 301400.000000 1 0 0
16.060238 0.589710 -5.762263 17.072864 0.036702 1.915067 0.023318 -0.001103 441701.000000 1 0 0
6.181038 -8.342590 10.613637 14.847671 -0.933144 0.774408 0.010633 -0.004204 738666.000000 1 0 0
0.088838 -5.795190 -6.366663 8.609676 -1.555468 2.403090 0.002899 -0.003630 -466160.000000 1 0 0
8.717638 5.538110 -7.441563 12.729679 0.565955 2.195163 0.001463 -0.001564 -406494.000000 1 0 0
-16.005662 -0.595190 5.140537 16.821432 0.037169 1.260234 0.017346 -0.008854 -234381.000000 1 0 0
-0.245162 4.028610 -12.258963 12.906276 -1.510016 2.823536 0.010117 -0.004772 590800.000000 1 0 0
-11.452962 3.788710 5.841837 13.403422 -0.319474 1.119818 0.000487 -0.005596 -109542.000000 1 0 0
5.301938 -9.527290 -9.617263 14.538623 -1.062976 2.293610 -0.005939 0.001942 158004.000000 1 0 0
1.531338 11.150110 -11.742663 16.265303 1.434312 2.377406 0.002634 0.000181 -4030440.000000 1 0 0
5.907038 2.377610 1.212237 6.481948 0.382664 1.382671 0.001413 0.000315 -265385.000000 1 0 0
5.684338 4.481810 4.961237 8.775659 0.667658 0.969950 0.001089 0.000869 372598.000000 1 0 0
0.418038 -1.599290 -6.316563 6.529277 -1.315127 2.885636 0.005447 -0.004875 247671.000000 1 0 0
12.794838 6.870710 -4.518463 15.209571 0.492800 1.872430 0.006669 -0.003361 -1576840.000000 1 0 0
7.517938 3.080310 12.740637 15.110643 0.388864 0.567669 0.010326 -0.002264 -430720.000000 1 0 0
-2.530462 -0.169290 8.499737 8.870030 0.066801 0.289966 0.001108 -0.004105 1313030.000000 1 0 0
2.585738 -15.021090 13.211337 20.170737 -1.400327 0.856646 0.023764 -0.004665 185551.000000 1 0 0
18.906838 4.645310 -1.601163 19.534870 0.240923 1.652853 0.011432 0.009811 630329.000000 1 0 0
-0.447862 -13.274890 7.184137 15.100832 1.537072 1.074986 0.004940 0.001234 -1953490.000000 1 0 0
4.420038 1.630610 -0.531963 4.741161 0.353424 1.683234 0.001632 -0.001317 -97672.100000 1 0 0
2.707638 -0.403490 -7.278363 7.776161 -0.147931 2.781841 0.001296 -0.002023 345534.000000 1 0 0
7.240138 -11.421290 0.889937 13.552028 -1.005811 1.505081 0.000225 -0.005530 431894.000000 1 0 0
-11.862962 -7.327390 1.194137 13.994516 0.553311 1.485364 0.004738 0.002153 520395.000000 1 0 0
0.061238 -6.949590 10.083937 12.246891 -1.561985 0.603442 -0.001827 -0.004440 -1091630.000000 1 0 0
-4.641562 -7.252290 10.507837 13.585082 1.001474 0.686477 0.005965 0.000593 -1281770.000000 1 0 0
11.899138 0.803910 -1.553263 12.026986 0.067458 1.700306 0.004340 0.000996 1510190.000000 1 0 0
6.524838 -9.650590 -7.278663 13.736315 -0.976286 2.129261 -0.004302 -0.003250 553171.000000 1 0 0
-11.021362 4.970710 3.522337 12.593063 -0.423691 1.287310 -0.001830 -0.006308 -91136.000000 1 0 0
6.057538 -9.160090 1.999337 11.162364 -0.986521 1.390710 0.000416 -0.006252 3343530.000000 1 0 0
11.601138 -1.321390 6.008037 13.131222 -0.113413 1.095572 0.003023 -0.003277 -275864.000000 1 0 0
-6.601462 3.586910 4.180737 8.597894 -0.497724 1.063002 0.002548 -0.003475 -1081110.000000 1 0 0
9.513738 6.344010 -3.058563 11.836912 0.588113 1.832154 0.006044 -0.000221 571910.000000 1 0 0
-2.347662 6.650110 10.962337 13.034888 -1.231428 0.571668 0.002399 -0.000737 -215586.000000 1 0 0
1.873638 9.812910 2.999937 10.430884 1.382131 1.279075 0.003737 0.000215 38487.200000 1 0 0
2.920038 6.112910 -5.647663 8.819886 1.125161 2.265728 0.002894 -0.000730 -1582070.000000 1 0 0
11.898238 0.137810 -5.774063 13.225992 0.011582 2.022578 0.018705 -0.002231 620823.000000 1 0 0
-2.647462 -12.380290 6.270537 14.127996 1.360124 1.110920 0.010156 0.001354 167910.000000 1 0 0
10.894038 1.849410 -2.762163 11.389905 0.168160 1.815748 0.007058 0.000391 435113.000000 1 0 0
-8.941962 5.334110 0.891537 10.450179 -0.537861 1.485379 -0.000100 -0.003123 -299037.000000 1 0 0
1.302638 -10.047590 5.440937 11.500206 -1.441869 1.077971 0.002329 -0.001359 -71286.600000 1 0 0
9.359238 -5.773990 -1.154663 11.057466 -0.552775 1.675411 0.008744 -0.003029 146147.000000 1 0 0
-7.778662 8.603910 -4.410263 12.409080 -0.835729 1.934145 0.002581 -0.002157 -1151330.000000 1 0 0
-7.507262 -0.080690 -1.744363 7.707678 0.010748 1.799089 0.007245 -0.005901 -1738690.000000 1 0 0
4.170738 8.822810 2.737237 10.135556 1.129208 1.297338 0.006700 -0.001599 723452.000000 1 0 0
-1.328262 -10.383790 -3.765063 11.124886 1.443570 1.916051 0.005807 -0.002021 -946345.000000 1 0 0
3.191138 7.949210 -3.682263 9.323752 1.189048 1.976792 0.006776 -0.003039 -275675.000000 1 0 0
-4.327862 1.772310 -11.033163 11.983412 -0.388679 2.740674 0.006423 -0.005696 -610180.000000 1 0 0
1.297438 2.760010 10.971137 11.387135 1.131366 0.271134 0.004569 -0.005196 394541.000000 1 0 0
2.103638 5.672610 -8.043763 10.065084 1.215677 2.496718 0.005952 -0.001846 -323583.000000 1 0 0
15.676838 6.056910 4.073537 17.292863 0.368693 1.333000 0.017048 0.004574 441165.000000 1 0 0
-4.448162 8.938810 4.670237 11.022685 -1.109052 1.133278 0.004334 0.000341 161006.000000 1 0 0
-0.907762 -8.176090 -12.458763 14.929610 1.460223 2.558021 -0.004768 0.002565 -122632.000000 1 0 0
14.367738 -4.216090 -5.260963 15.870887 -0.285429 1.908674 0.026876 -0.003017 345022.000000 1 0 0
-6.035562 -6.177690 -5.759263 10.380798 0.797035 2.158918 0.015938 -0.008657 707876.000000 1 0 0
-8.946862 2.608110 -12.240863 15.384645 -0.283651 2.490884 0.006974 -0.005459 191977.000000 1 0 0
10.469538 5.400610 13.821237 18.160518 0.476239 0.705851 0.022207 0.002304 531202.000000 1 0 0
-0.534662 10.988210 5.595137 12.342292 -1.522177 1.100298 0.000988 0.006034 580388.000000 1 0 0
0.498738 11.147210 -0.516863 11.170326 1.526085 1.617084 0.006194 -0.001763 -12288.100000 1 0 0
-1.497062 -0.581290 3.763037 4.091398 0.370369 0.403370 0.007554 -0.005550 148399.000000 1 0 0
-4.904562 6.653110 8.821137 12.088468 -0.935548 0.752891 0.003890 -0.000893 -455534.000000 1 0 0
3.463438 -8.748790 -11.362563 14.752782 -1.193850 2.449948 -0.007859 0.004035 1052760.000000 1 0 0
6.600738 -3.893690 12.081437 14.307050 -0.532950 0.565279 0.013312 -0.007268 -824623.000000 1 0 0
-2.519262 -1.777890 -12.479363 12.854652 0.614554 2.899362 0.005178 -0.008055 852736.000000 1 0 0
-16.041962 -5.019790 5.375737 17.647702 0.303264 1.261263 0.016275 -0.002487 1028710.000000 1 0 0
-9.044862 7.303310 5.741337 12.965755 -0.679270 1.112069 -0.001225 -0.004261 -2052870.000000 1 0 0
-12.825562 1.493710 5.865837 14.182181 -0.115941 1.144385 -0.000051 -0.005420 512657.000000 1 0 0
-3.541562 3.694510 10.173637 11.388369 -0.806532 0.466082 0.003112 -0.003625 616372.000000 1 0 0
2.052438 -12.227890 -1.117463 12.449198 -1.404498 1.660679 0.002116 -0.001852 -3733810.000000 1 0 0
10.349538 -5.114790 -3.565163 12.082401 -0.459001 1.870326 0.016458 -0.002386 768740.000000 1 0 0
3.279938 -13.462090 0.970137 13.889818 -1.331810 1.500894 0.007374 -0.003211 427301.000000 1 0 0
10.126638 -1.734190 -6.018663 11.907162 -0.169605 2.100718 0.020081 -0.001540 115089.000000 1 0 0
11.887138 -5.458890 -1.476963 13.163774 -0.430500 1.683232 0.017213 -0.003184 -114837.000000 1 0 0
1.452638 0.861310 5.971537 6.205745 0.535203 0.275609 0.005011 -0.005094 353854.000000 1 0 0
-10.757262 11.626310 6.531237 17.133208 -0.824204 1.179699 0.008714 -0.007981 458434.000000 1 0 0
4.770638 -14.090090 3.032737 15.181802 -1.244330 1.369682 0.005830 -0.006298 -2914730.000000 1 0 0
5.310838 -3.499290 -1.673863 6.576614 -0.582604 1.828145 0.004148 -0.001004 -1459810.000000 1 0 0
2.039438 -2.901290 -7.656463 8.437904 -0.958099 2.707826 -0.000542 -0.002911 -430781.000000 1 0 0
-2.806362 14.810010 -8.746063 17.427153 -1.383526 2.096549 0.001668 -0.004873 -768907.000000 1 0 0
-2.358162 6.100510 -8.102963 10.413220 -1.201937 2.462498 0.009032 -0.002838 -160462.000000 1 0 0
2.566738 -3.543090 -11.313263 12.129779 -0.943859 2.772583 -0.002309 -0.003100 -1329940.000000 1 0 0
14.739938 2.746410 -2.687763 15.232617 0.184212 1.748173 0.014559 0.008095 627474.000000 1 0 0
-3.602962 13.196310 2.229937 13.859890 -1.304264 1.409203 -0.002319 0.002637 -1503310.000000 1 0 0
7.739438 -5.150990 14.135237 16.918526 -0.587230 0.581775 0.020175 -0.011357 -1005920.000000 1 0 0
-11.626062 7.364310 2.798037 14.043767 -0.564639 1.370217 -0.002487 -0.007741 1216280.000000 1 0 0
-2.333862 11.957810 4.065637 12.843891 -1.378045 1.248714 -0.000877 0.003424 -111996.000000 1 0 0
1.826938 1.494410 0.729937 2.470581 0.685612 1.270868 0.000426 -0.000788 -968447.000000 1 0 0
-6.859662 8.600110 5.242537 12.186100 -0.897505 1.126075 0.002030 -0.002998 -1868810.000000 1 0 0
-1.081162 9.195610 1.068437 9.320392 -1.453760 1.455909 0.005653 0.001484 524471.000000 1 0 0
4.842138 12.925310 -8.453863 16.185726 1.212355 2.120346 0.004826 -0.016602 -2931230.000000 1 0 0
8.958438 6.850010 7.246137 13.404579 0.652807 0.999680 0.002337 0.001210 -1600610.000000 1 0 0
7.216538 -13.781890 2.890237 15.823160 -1.088428 1.387106 0.010181 -0.008459 -111981.000000 1 0 0
4.212038 -13.361090 -1.303363 14.069782 -1.265411 1.663565 0.000491 -0.000044 -3119830.000000 1 0 0
12.199138 -11.874890 -4.517363 17.613590 -0.771930 1.830165 0.030354 -0.002522 -227009.000000 1 0 0
3.026838 0.007210 -1.939063 3.594686 0.002382 2.140550 0.002639 -0.001461 754214.000000 1 0 0
-13.566562 -3.053290 -10.912563 17.676488 0.221372 2.236165 0.019491 -0.006550 830283.000000 1 0 0
-6.507562 13.656610 5.060337 15.951751 -1.126114 1.247992 0.011235 -0.002656 41638.700000 1 0 0
7.279638 -4.420090 -0.524363 8.532601 -0.545686 1.632289 0.000601 0.001216 -1147270.000000 1 0 0
11.794638 2.147610 -7.229463 13.999673 0.180110 2.113441 0.018696 -0.002098 -274265.000000 1 0 0
-7.506562 -4.545590 9.621437 13.022400 0.544490 0.739453 0.007532 -0.001195 690520.000000 1 0 0
0.928538 3.000910 8.558137 9.116433 1.270721 0.351784 0.005155 -0.003680 -1575760.000000 1 0 0
1.636838 8.090210 -8.757963 12.034644 1.371168 2.385802 0.006573 -0.002757 -543983.000000 1 0 0
-8.669462 -2.104390 -5.700063 10.586725 0.238130 2.139353 0.011532 -0.009570 -458218.000000 1 0 0
6.643938 -0.574090 7.199737 9.813649 -0.086194 0.747125 0.001199 -0.001777 -113697.000000 1 0 0
-11.020762 6.533310 7.229037 14.710551 -0.535122 1.057079 0.005285 -0.006038 328850.000000 1 0 0
-5.944462 11.083310 4.913437 13.502527 -1.078498 1.198355 0.000553 -0.000063 -94194.900000 1 0 0
6.070638 -1.219390 -6.831863 9.220299 -0.198229 2.405294 0.003229 -0.000362 -563404.000000 1 0 0
4.526138 -5.743690 11.381237 13.528062 -0.903404 0.571102 0.006630 -0.006178 -980861.000000 1 0 0
-8.981462 -7.393590 2.666137 11.934828 0.688731 1.345504 0.009426 0.000799 -2795720.000000 1 0 0
-1.258762 12.775410 -9.322563 15.865237 -1.472583 2.198898 0.003896 0.000812 476487.000000 1 0 0
-4.631062 9.412710 -2.328463 10.745584 -1.113568 1.789219 0.001729 -0.000597 567494.000000 1 0 0
-3.243462 9.701010 -0.228763 10.231421 -1.248138 1.593157 0.005645 -0.001299 -629919.000000 1 0 0
-3.621962 10.692110 -6.332663 12.943819 -1.244178 2.082017 0.006015 0.000138 1527030.000000 1 0 0
4.887138 -4.883290 0.457437 6.923864 -0.785004 1.504681 0.000907 -0.003348 -2092320.000000 1 0 0
-2.235262 3.014610 -10.877863 11.507049 -0.932773 2.809376 0.011636 -0.005734 -580054.000000 1 0 0
-3.489162 12.223310 -2.137163 12.889958 -1.292740 1.737366 0.001223 0.000676 -182881.000000 1 0 0
-0.214062 0.383810 0.123237 0.456421 -1.062038 1.297395 0.004344 -0.002388 -913446.000000 1 0 0
-4.895962 -1.636190 0.120937 5.163544 0.322523 1.547373 0.007167 -0.005874 312375.000000 1 0 0
2.555438 2.512210 -2.386863 4.305645 0.776868 2.158386 -0.000497 -0.000150 1147450.000000 1 0 0
6.047938 -9.724890 8.438037 14.225031 -1.014427 0.935790 0.002402 -0.001622 -360587.000000 1 0 0
-4.220262 -5.546890 6.583437 9.587505 0.920398 0.813900 0.005874 -0.005077 24668.800000 1 0 0
-6.354362 5.245910 -12.036763 14.587020 -0.690133 2.541298 0.004598 0.001647 822346.000000 1 0 0
-13.118462 3.078710 7.918537 15.629323 -0.230514 1.039506 0.003101 -0.006321 689501.000000 1 0 0
4.721938 -7.541790 -4.777263 10.099383 -1.011404 2.063518 -0.000103 -0.004326 1664850.000000 1 0 0
-5.979662 2.348310 -1.037563 6.507492 -0.374211 1.730921 0.006084 -0.003484 -583089.000000 1 0 0
-6.773562 -2.757790 -14.523163 16.260652 0.386647 2.675092 0.006210 -0.001871 -276736.000000 1 0 0
2.698938 -6.138190 0.962937 6.774134 -1.156544 1.428164 0.002051 -0.004603 261969.000000 1 0 0
4.744138 -7.969790 12.968137 15.943556 -1.033866 0.620861 0.011598 -0.010487 -85331.600000 1 0 0
-9.950762 -1.757390 7.986437 12.879801 0.174806 0.901959 0.003699 -0.000961 469593.000000 1 0 0
-4.559962 13.416210 -0.131163 14.170573 -1.243161 1.580052 0.000566 0.003437 561097.000000 1 0 0
6.780738 2.263110 -4.518263 8.456641 0.322131 2.134459 0.003325 0.001253 -1396730.000000 1 0 0
5.110738 4.551910 -0.002163 6.843941 0.727629 1.571112 0.000321 -0.000762 -209563.000000 1 0 0
-5.927362 12.303710 1.799937 13.775147 -1.121852 1.439756 0.003352 0.001022 -1493370.000000 1 0 0
6.552838 -7.388590 6.616837 11.887535 -0.845274 0.980485 0.000628 -0.001948 -1419030.000000 1 0 0
-0.335462 4.988410 7.563837 9.066885 -1.503649 0.584067 0.002303 -0.001564 -761968.000000 1 0 0
-5.808762 -3.358690 -1.647863 6.909267 0.524244 1.811618 0.012476 -0.005321 -318813.000000 1 0 0
2.326038 -6.499090 -5.179263 8.629797 -1.227099 2.214498 -0.001040 -0.002151 -821857.000000 1 0 0
-14.410262 -4.769690 -3.793963 15.646078 0.319642 1.815724 0.001782 -0.003219 -726442.000000 1 0 0
-12.488862 -5.205090 -6.385163 14.961114 0.394886 2.011730 0.010598 -0.008053 -820482.000000 1 0 0
-14.945962 -3.752890 -1.327363 15.466992 0.246011 1.656721 0.000256 0.001103 567585.000000 1 0 0
11.971338 2.842910 8.855837 15.159846 0.233157 0.946947 0.014679 -0.005725 -401768.000000 1 0 0
8.763838 -6.602790 7.751237 13.434410 -0.645682 0.955784 0.005824 -0.003465 -193378.000000 1 0 0
-8.748362 -1.729990 -9.828663 13.271372 0.195231 2.404746 0.007250 -0.007927 -157604.000000 1 0 0
-8.760962 5.084210 -3.927363 10.864061 -0.525827 1.940673 0.003039 -0.004277 -622765.000000 1 0 0
-4.167062 -6.251790 4.091937 8.555305 0.982882 1.072087 0.006911 -0.002751 -910999.000000 1 0 0
-0.178962 -9.273990 3.508037 9.916917 1.551502 1.209227 0.004438 -0.003164 -330377.000000 1 0 0
8.053538 -10.367990 3.282537 13.532544 -0.910382 1.325786 0.001092 -0.005282 109671.000000 1 0 0
-0.059862 6.578210 9.598437 11.636426 -1.561697 0.600840 0.003387 -0.002549 45632.200000 1 0 0
-0.056562 3.520110 -9.679663 10.300012 -1.554729 2.792759 0.010865 -0.004834 18836.400000 1 0 0
4.452638 -3.142890 11.054037 12.324588 -0.614641 0.458066 0.005958 -0.007001 -2600030.000000 1 0 0
8.564438 -9.244890 1.232537 12.662415 -0.823587 1.473304 0.002883 -0.005302 -339440.000000 1 0 0
-0.292362 -0.408290 11.235737 11.246954 0.949370 0.044664 0.003335 -0.005262 -1762490.000000 1 0 0
10.904938 6.021810 11.388337 16.878213 0.504538 0.830189 0.020054 0.000366 526731.000000 1 0 0
-6.128662 -2.918290 -11.919463 13.716797 0.444403 2.623910 0.006099 -0.006507 484531.000000 1 0 0
-1.674262 2.866610 8.454337 9.082754 -1.042183 0.374168 0.004783 -0.005042 -180985.000000 1 0 0
-1.582362 13.525010 -6.793863 15.217961 -1.454331 2.033576 0.007120 -0.000889 811375.000000 1 0 0
7.684738 2.997810 9.691937 12.726968 0.371942 0.705130 0.003608 -0.001216 -197955.000000 1 0 0
6.529138 8.514310 -7.905263 13.327276 0.916603 2.205780 0.001401 -0.006407 -1447200.000000 1 0 0
6.579338 -2.921890 -3.914463 8.194398 -0.417937 2.068831 0.007552 -0.002050 -2415520.000000 1 0 0
2.051438 8.118210 1.094037 8.444563 1.323282 1.440876 0.004722 0.001277 813326.000000 1 0 0
-17.677762 6.260110 6.291637 19.780721 -0.340344 1.247104 0.023458 -0.008326 -961011.000000 1 0 0
-14.842262 3.257010 -10.324363 18.370991 -0.216018 2.167589 0.034244 -0.000972 -1232440.000000 1 0 0
-18.267862 0.139610 -4.524863 18.820432 -0.007642 1.813598 0.021527 0.003105 224681.000000 1 0 0
-13.037062 7.884310 0.054537 15.235823 -0.543913 1.567217 0.005742 -0.006626 -2371090.000000 1 0 0
-12.732362 -4.490790 -12.959563 18.714447 0.339084 2.335731 0.031008 0.003222 -1103530.000000 1 0 0
-17.271762 -0.548590 -8.869763 19.423888 0.031752 2.045013 0.018102 -0.003409 -137940.000000 1 0 0
-16.833262 -1.981490 -2.167563 17.087520 0.117174 1.697990 0.016929 -0.000535 1089410.000000 1 0 0
-15.388062 3.946210 1.643937 15.970834 -0.251036 1.467680 0.005602 -0.002321 -745941.000000 1 0 0
-13.243662 5.902010 4.448537 15.166337 -0.419229 1.273102 -0.001851 -0.004121 242264.000000 1 0 0
-10.061162 14.234510 2.702137 17.639439 -0.955511 1.417004 0.034200 -0.007794 345696.000000 1 0 0
-11.888362 2.428610 -6.454963 13.744011 -0.201512 2.059698 0.002063 -0.000075 518545.000000 1 0 0
-15.957562 10.526010 3.548337 19.443029 -0.583112 1.387269 0.025533 -0.017544 -530135.000000 1 0 0
-12.820162 1.093410 -8.659463 15.509300 -0.085082 2.163180 0.010405 -0.003870 705854.000000 1 0 0
-12.277162 14.209610 4.093537 19.219749 -0.858228 1.356166 0.034583 -0.016881 120644.000000 1 0 0
-10.575062 11.132310 -1.148863 15.397407 -0.811063 1.645480 0.014316 -0.008950 592192.000000 1 0 0
-17.269662 5.621210 8.926037 20.236436 -0.314681 1.113986 0.032358 -0.012402 393780.000000 1 0 0
-11.721362 12.332710 -9.131263 19.309739 -0.810808 2.063357 0.012651 -0.021264 -1209920.000000 1 0 0
-17.276862 -0.536690 2.898337 17.526504 0.031054 1.404664 0.022513 0.000285 547787.000000 1 0 0
-13.299962 14.892810 -0.565963 19.975112 -0.841837 1.599134 0.050924 -0.016403 109503.000000 1 0 0
-16.420562 5.199810 -10.485763 20.164923 -0.306674 2.117647 0.034200 -0.002256 349086.000000 1 0 0
-11.881662 7.616910 -9.002963 16.740506 -0.570068 2.138616 0.003516 0.001920 -122083.000000 1 0 0
-14.870062 13.515710 -2.029463 20.196828 -0.737722 1.671450 0.052149 -0.023293 -35003.000000 1 0 0
-11.784262 10.543810 -5.389463 16.705899 -0.729899 1.899280 0.017235 -0.012335 1330400.000000 1 0 0
-17.675062 2.809610 -0.924463 17.920836 -0.157640 1.622405 0.025180 -0.001163 -515106.000000 1 0 0
-9.404562 15.364310 0.552637 18.022575 -1.021524 1.540128 0.036801 -0.013441 156633.000000 1 0 0
-8.096862 13.171610 -3.794263 15.920016 -1.019623 1.811445 0.002568 -0.006576 -1390110.000000 1 0 0
-17.997362 11.394810 2.096037 21.404207 -0.564430 1.472713 0.071361 -0.015500 -118888.000000 1 0 0
-8.066362 15.526910 -7.500963 19.037215 -1.091664 1.975793 0.037474 -0.027027 23589.900000 1 0 0
-6.253762 15.229510 -5.606963 17.392111 -1.181156 1.899045 0.013385 -0.008030 -1013320.000000 1 0 0
-17.333562 5.296210 -0.166363 18.125393 -0.296538 1.579975 0.035727 -0.003880 269189.000000 1 0 0
-5.381662 12.194410 -12.211163 18.077013 -1.155182 2.312449 -0.004163 -0.007619 -262298.000000 1 0 0
-11.226762 3.700010 -11.392063 16.416740 -0.318360 2.337729 0.013140 -0.003026 243159.000000 1 0 0
-11.978362 11.016010 1.184137 16.316734 -0.743571 1.498161 0.018195 -0.010923 589349.000000 1 0 0
-12.909862 0.172110 -11.136763 17.050561 -0.013331 2.282548 0.015145 -0.008239 -538449.000000 1 0 0
-14.006962 -2.322990 -13.389363 19.515796 0.164350 2.326881 0.026830 -0.000338 205609.000000 1 0 0
-18.766962 -2.280490 -3.942763 19.311781 0.120923 1.776406 0.019679 0.003526 1144220.000000 1 0 0
-18.257462 4.861710 -5.280063 19.617599 -0.260247 1.843306 0.039681 -0.005633 824497.000000 1 0 0
-8.300162 15.344610 -2.378663 17.607038 -1.074953 1.706308 0.026729 -0.014743 -111784.000000 1 0 0
-16.193862 9.271810 -5.276963 19.392111 -0.519992 1.846391 0.039455 -0.007332 20062.100000 1 0 0
-18.233462 1.791010 2.168237 18.449068 -0.097912 1.452999 0.036165 -0.005738 -373168.000000 1 0 0
-15.676462 -2.746790 -8.732763 18.153718 0.173457 2.072643 0.013326 -0.007137 -829103.000000 1 0 0
-9.699862 10.452510 -7.181063 15.965899 -0.822729 2.037310 0.009442 -0.012732 120131.000000 1 0 0
-13.898162 12.092910 -7.628363 19.939641 -0.716053 1.963376 0.020158 -0.019908 221064.000000 1 0 0
-10.934862 6.385710 -3.731363 13.201196 -0.528555 1.857356 0.002590 -0.001041 -1203000.000000 1 0 0
-13.106962 4.894710 -12.688363 18.887699 -0.357405 2.307404 0.026471 -0.004071 -539163.000000 1 0 0
-17.751962 8.903610 2.578637 20.026377 -0.464892 1.441676 0.042660 -0.021891 833939.000000 1 0 0
-13.300862 8.669910 -6.428663 17.129156 -0.577661 1.955522 0.006397 -0.006409 -550299.000000 1 0 0
-15.767462 7.076410 -3.710863 17.676508 -0.421854 1.782302 0.018004 -0.000947 -431872.000000 1 0 0
-14.842362 -0.343390 -9.457663 17.602869 0.023132 2.138005 0.019467 -0.008291 -1937640.000000 1 0 0
-10.093362 5.839910 -6.115663 13.167454 -0.524527 2.053813 0.000444 0.000038 406638.000000 1 0 0
-12.805762 12.232810 -0.896963 17.732279 -0.762519 1.621402 0.032927 -0.018680 -290658.000000 1 0 0
-10.711062 3.449010 -14.016763 17.974765 -0.311520 2.465146 0.015109 -0.000662 153962.000000 1 0 0
-11.018462 6.282510 -11.945763 17.423481 -0.518205 2.326242 0.002450 -0.001428 -496993.000000 1 0 0
-5.784762 11.570510 -14.714563 19.592308 -1.107183 2.420429 0.006457 -0.007953 -73400.200000 1 0 0
-15.850362 13.241110 3.355237 20.924115 -0.695946 1.409748 0.044455 -0.023121 326503.000000 1 0 0
-15.001662 11.059610 -3.008163 18.878927 -0.635275 1.730818 0.045222 -0.016598 1118780.000000 1 0 0
-18.162162 7.825010 -4.493563 20.280212 -0.406808 1.794224 0.043501 -0.008513 -809013.000000 1 0 0
-3.991862 16.210210 -10.534663 19.740440 -1.329344 2.133718 0.007543 -0.006912 2016.920000 1 0 0
-15.726962 4.558810 -4.383163 16.950876 -0.282140 1.832349 0.023327 -0.001302 228217.000000 1 0 0
-18.832762 -1.751090 -6.335263 19.946799 0.092714 1.894002 0.033860 0.000079 703453.000000 1 0 0
-10.661962 8.574910 -5.797763 14.860032 -0.677329 1.971600 0.005553 -0.002640 -84707.200000 1 0 0
-11.272662 13.483710 -6.765063 18.832138 -0.874474 1.938239 0.012399 -0.015685 135229.000000 1 0 0
-9.373362 10.521010 -4.437863 14.773158 -0.843021 1.875909 0.001797 -0.005674 -2333440.000000 1 0 0
-11.051562 6.166710 -0.166663 12.656742 -0.508960 1.583965 -0.002002 -0.001486 -1588220.000000 1 0 0
-14.627762 9.152910 -1.397463 17.311848 -0.559118 1.651607 0.034408 -0.013883 -407123.000000 1 0 0
-18.833162 3.387210 4.904937 19.753976 -0.177951 1.319870 0.046732 -0.010964 450274.000000 1 0 0
-14.872762 13.139510 0.449637 19.850641 -0.723602 1.548143 0.036387 -0.013894 217542.000000 1 0 0
-17.150262 2.904710 -9.264463 19.707844 -0.167776 2.060189 0.041823 -0.002101 425981.000000 1 0 0
-9.141062 8.464510 -9.020763 15.381193 -0.746989 2.197502 0.008289 -0.000210 -1836000.000000 1 0 0
-17.747462 4.726910 -2.741463 18.569645 -0.260300 1.718969 0.034788 0.000254 912248.000000 1 0 0
-13.500062 5.863410 -4.442463 15.374223 -0.409742 1.863932 0.007323 0.001768 297352.000000 1 0 0
-12.263662 9.661010 3.322437 15.961551 -0.667242 1.361111 -0.002173 -0.006531 633635.000000 1 0 0
-17.470662 2.597010 -4.258763 18.168807 -0.147569 1.807397 0.019091 0.003421 967724.000000 1 0 0
-11.212862 1.396610 -12.641063 16.955095 -0.123916 2.412173 0.015873 -0.004612 61938.100000 1 0 0
-11.096062 11.949410 3.412337 16.659983 -0.822410 1.364514 0.013920 -0.010841 90662.400000 1 0 0
-16.752562 12.899910 -3.764863 21.476271 -0.656195 1.747010 0.063869 -0.023419 978185.000000 1 0 0
-11.083362 4.043110 -4.517063 12.632953 -0.349790 1.936452 -0.002180 -0.000151 -253298.000000 1 0 0
-11.223862 14.864610 -9.050363 20.708471 -0.924057 2.023098 0.031438 -0.024587 188919.000000 1 0 0
-15.415662 7.042810 -0.233863 16.949882 -0.428545 1.584594 0.019329 -0.003219 -2340810.000000 1 0 0
-12.557662 8.371410 -3.975363 15.607014 -0.587982 1.828351 0.010832 -0.005303 792949.000000 1 0 0
-19.246162 1.951810 -6.134463 20.294234 -0.101067 1.877876 0.047466 -0.002426 -12367.600000 1 0 0
-12.922462 10.068410 -8.899563 18.643098 -0.661892 2.068450 0.017136 -0.013441 892681.000000 1 0 0
-16.498862 10.842410 -0.822863 19.759742 -0.581393 1.612452 0.037104 -0.019537 -226497.000000 1 0 0
-10.722362 6.547510 -14.586963 19.251452 -0.548207 2.430589 0.009215 -0.006199 -347964.000000 1 0 0
-14.205962 12.968310 -4.466263 19.746744 -0.739885 1.798948 0.054541 -0.016165 716993.000000 1 0 0
-17.881362 7.828410 -0.189963 19.520840 -0.412660 1.580528 0.037382 -0.011939 272845.000000 1 0 0
-12.656262 6.597910 -2.080063 14.423593 -0.480554 1.715513 -0.001288 -0.001891 464959.000000 1 0 0
-13.854562 8.405710 -10.612563 19.370889 -0.545339 2.150602 0.010620 -0.004287 -265817.000000 1 0 0
-14.980862 1.471710 -1.047363 15.089371 -0.097925 1.640263 0.000373 -0.000709 -1165450.000000 1 0 0
-13.386062 2.873610 -2.520763 13.921154 -0.211462 1.752875 0.000864 0.001254 1055640.000000 1 0 0
-11.443062 9.488310 -10.913463 18.441132 -0.692280 2.204086 0.009182 -0.003792 9695.360000 1 0 0
-15.431162 4.470810 -8.099863 17.992128 -0.282005 2.037774 0.023048 -0.000741 439387.000000 1 0 0
-18.350562 10.389110 4.528637 21.568154 -0.515155 1.359253 0.053748 -0.026005 502137.000000 1 0 0
-15.322362 6.331210 -6.224363 17.708803 -0.391834 1.929952 0.021664 0.001774 538707.000000 1 0 0
-7.729762 11.280010 -12.884263 18.788083 -0.970030 2.326454 0.003093 -0.004374 -1198320.000000 1 0 0
-16.822262 9.208110 -2.751663 19.373937 -0.500827 1.713307 0.045632 -0.014987 214198.000000 1 0 0
-20.765362 -0.858590 -4.653163 21.297637 0.041324 1.791056 0.052577 -0.005853 535414.000000 1 0 0
-15.450562 4.319810 4.079737 16.553697 -0.272628 1.321776 0.007035 -0.004603 -8249.820000 1 0 0
-6.896362 12.529510 -9.441663 17.137486 -1.067639 2.154282 0.008655 -0.010796 -2126840.000000 1 0 0
-17.169162 1.612510 5.799237 18.193720 -0.093644 1.246387 0.022883 -0.009971 367024.000000 1 0 0
-10.458662 14.120010 -3.321563 17.882703 -0.933275 1.757623 0.031243 -0.022748 1846810.000000 1 0 0
-10.151062 8.422010 -12.913763 18.459133 -0.692571 2.345615 -0.000201 -0.000985 27769.700000 1 0 0
-13.810062 11.771810 2.882837 18.374005 -0.705890 1.413248 0.022627 -0.012945 818253.000000 1 0 0
-16.757662 6.691410 1.863737 18.140224 -0.379907 1.467874 0.018722 -0.006882 408337.000000 1 0 0
-9.334462 13.195110 -8.453463 18.240179 -0.955109 2.052684 0.021423 -0.020818 -332396.000000 1 0 0
-5.654362 9.713910 -12.904363 17.112990 -1.043651 2.425031 0.008125 -0.000440 -617541.000000 1 0 0
-15.820962 1.730410 3.066537 16.208048 -0.108941 1.380451 0.000844 -0.000879 -540016.000000 1 0 0
-18.656562 -4.905590 4.766237 19.870811 0.257122 1.328573 0.043251 -0.003596 815013.000000 1 0 0
-5.314962 14.392110 -9.141363 17.859064 -1.217035 2.108146 0.003904 -0.007142 -435584.000000 1 0 0
-15.525262 -0.884190 -6.977963 17.044281 0.056890 1.992595 0.014496 0.001289 703877.000000 1 0 0
-8.984962 10.988810 -9.535963 17.100236 -0.885388 2.162350 0.005735 -0.010524 327778.000000 1 0 0
-16.727862 1.278310 -6.297563 17.919675 -0.076270 1.929898 0.012031 0.007142 -1434080.000000 1 0 0
-11.073662 8.577210 -1.473063 14.084191 -0.659035 1.675578 0.007940 -0.007345 -916521.000000 1 0 0
-10.866062 11.014410 -12.799263 20.080081 -0.792178 2.261930 0.000648 0.000716 -196879.000000 1 0 0
-14.064362 11.973310 -10.358363 21.176924 -0.705261 2.081893 0.016183 -0.008201 305467.000000 1 0 0
-13.261362 5.767910 -7.762363 16.413006 -0.410261 2.063421 0.011966 0.003065 -115691.000000 1 0 0
-8.829762 15.330210 -4.969463 18.375951 -1.048232 1.844639 0.022060 -0.018170 -94868.600000 1 0 0
-8.687662 6.137710 -13.019363 16.812221 -0.615066 2.456561 0.006827 -0.000121 -133586.000000 1 0 0
-16.491262 7.439610 4.256137 18.585592 -0.423789 1.339744 0.023607 -0.004493 -212392.000000 1 0 0
-12.760962 5.361310 -10.208463 17.198794 -0.397742 2.206268 0.013640 0.000551 465860.000000 1 0 0
-12.630562 9.135910 -13.273563 20.473969 -0.626205 2.276164 0.015779 -0.004583 -1362290.000000 1 0 0
-10.905962 5.144410 -8.513463 14.760895 -0.440757 2.185551 0.001256 0.001288 -641306.000000 1 0 0
-17.721662 -4.309090 -2.704563 18.437468 0.238525 1.718016 0.013772 -0.003351 181490.000000 1 0 0
-8.956862 13.280010 -10.888563 19.368656 -0.977416 2.167809 0.026536 -0.015255 -2180.030000 1 0 0
-15.185262 6.135410 6.002637 17.443253 -0.383982 1.219491 0.009574 -0.007992 -2135900.000000 1 0 0
-16.314262 -3.045990 -4.539463 17.205811 0.184582 1.837790 0.004837 0.000472 -182384.000000 1 0 0
-11.111762 -1.177590 -12.582463 16.827844 0.105583 2.415413 0.015641 -0.004898 748211.000000 1 0 0
-15.342262 7.130210 -8.564763 18.962596 -0.435046 2.039428 0.016574 0.003665 -366479.000000 1 0 0
-14.799562 9.239310 1.199437 17.488011 -0.558093 1.502156 0.022374 -0.014230 -389314.000000 1 0 0
-19.533062 5.266810 7.737837 21.659961 -0.263372 1.205483 0.061460 -0.025187 -1347790.000000 1 0 0
-16.371062 0.598310 0.794637 16.401253 -0.036531 1.522328 0.011131 -0.000535 -60724.200000 1 0 0
-17.552262 3.754610 7.158137 19.324024 -0.210734 1.191328 0.023608 -0.008273 813055.000000 1 0 0
-15.550762 4.039410 -1.564663 16.142837 -0.254140 1.667875 0.013137 -0.001767 -2053770.000000 1 0 0
-10.803262 13.275810 0.423137 17.121234 -0.887724 1.546080 0.032427 -0.017335 -595024.000000 1 0 0
-13.502662 3.399010 -0.023263 13.923925 -0.246605 1.572467 0.002145 -0.001097 142509.000000 1 0 0
-15.150762 0.258310 -4.456863 15.794807 -0.017048 1.856854 0.007256 0.005145 -316861.000000 1 0 0
-18.879862 6.678610 3.313637 20.298601 -0.340005 1.406818 0.039228 -0.009619 679102.000000 1 0 0
-14.226762 1.326610 -6.524863 15.707784 -0.092979 1.999168 0.010691 0.004246 -1111680.000000 1 0 0
-14.598862 12.031210 5.283137 19.641495 -0.689276 1.298464 0.023425 -0.018033 378781.000000 1 0 0
17.865038 5.627310 6.103537 19.699730 0.305152 1.255784 0.036361 -0.004676 684494.000000 1 0 0
18.626038 7.667210 -0.229863 20.143690 0.390500 1.582208 0.018052 0.013175 546509.000000 1 0 0
16.811638 5.140110 8.407937 19.487055 0.296721 1.124683 0.043912 -0.001250 570312.000000 1 0 0
11.507338 12.194310 11.068637 20.090663 0.814374 0.987313 0.017328 -0.005011 609530.000000 1 0 0
-2.258662 16.471910 -0.602763 16.636968 -1.434524 1.607035 -0.001512 -0.000463 -139591.000000 1 0 0
15.020838 12.743710 3.441237 19.996745 0.703566 1.397846 0.028243 0.004093 331606.000000 1 0 0
13.511338 11.803310 6.808637 19.189370 0.718028 1.208082 0.021755 0.004598 766558.000000 1 0 0
-0.604862 15.825610 8.548337 17.996940 -1.532594 1.075846 -0.004427 -0.002564 -550071.000000 1 0 0
0.756538 12.865110 9.498837 16.009725 1.512059 0.935623 -0.001052 0.000075 1209410.000000 1 0 0
0.770638 15.508310 -3.890363 16.007388 1.521145 1.816290 -0.002265 -0.002745 -458483.000000 1 0 0
5.373938 10.203310 13.711337 17.916124 1.086029 0.699278 0.005313 -0.002273 -477763.000000 1 0 0
-1.392662 16.599610 -2.878063 16.904727 -1.487095 1.741882 -0.000466 0.000480 -1150510.000000 1 0 0
8.650538 10.000810 3.372237 13.646244 0.857667 1.321091 0.007773 -0.001627 335056.000000 1 0 0
12.459338 13.666810 -4.996063 19.156655 0.831582 1.834648 0.039119 -0.021077 -595877.000000 1 0 0
2.299638 11.606110 7.767337 14.153503 1.375190 0.989877 0.000055 0.003557 904840.000000 1 0 0
-0.305862 14.920010 -8.556163 17.201981 -1.550299 2.091389 -0.001398 -0.000614 -2574730.000000 1 0 0
2.510938 16.007510 0.238637 16.205003 1.415204 1.556070 0.006777 -0.008709 -534120.000000 1 0 0
1.838638 13.390210 5.320337 14.525298 1.434338 1.195788 0.004349 0.001234 748147.000000 1 0 0
17.735038 9.224210 -2.081763 20.098541 0.479608 1.674560 0.017651 0.010244 578596.000000 1 0 0
-7.176262 14.994710 7.262837 18.140806 -1.124426 1.158888 0.017298 -0.005733 -1665440.000000 1 0 0
8.518638 15.822810 -0.123263 17.970634 1.076920 1.577656 0.010230 -0.011948 -243682.000000 1 0 0
15.721938 10.534210 2.233437 19.056158 0.590329 1.453323 0.013977 0.008085 601068.000000 1 0 0
14.200838 7.369810 8.712537 18.217744 0.478708 1.072142 0.030752 -0.001978 -705890.000000 1 0 0
4.159738 18.444710 -1.673763 18.981892 1.348983 1.659088 0.003232 -0.011684 -927933.000000 1 0 0
-0.436162 17.591110 -4.850363 18.252764 -1.546007 1.839761 0.007858 -0.005245 374416.000000 1 0 0
1.412138 13.707110 -0.622263 13.793702 1.468136 1.615924 0.005680 -0.007849 745083.000000 1 0 0
10.396738 14.641910 4.306637 18.466857 0.953346 1.335420 0.021709 -0.005604 1031480.000000 1 0 0
-1.660462 15.379310 -5.140463 16.300450 -1.463246 1.891629 0.004672 -0.004905 689709.000000 1 0 0
15.067538 8.851010 -6.148763 18.525074 0.531120 1.909130 0.029055 -0.008914 -640549.000000 1 0 0
-2.330562 18.516210 0.939437 18.685933 -1.445589 1.520500 -0.007449 -0.004955 -562934.000000 1 0 0
-3.596462 19.557810 3.594537 20.207997 -1.388939 1.391968 -0.005156 -0.000753 -177535.000000 1 0 0
1.849638 17.615610 -2.594663 17.901484 1.466180 1.716250 -0.001535 -0.009853 -720135.000000 1 0 0
2.879438 12.302310 3.330537 13.066387 1.340878 1.313059 0.005417 0.000549 1330290.000000 1 0 0
-2.576062 16.116110 1.806937 16.420417 -1.412293 1.460531 -0.003215 -0.005093 -1171430.000000 1 0 0
11.741438 12.849810 -2.690363 17.612979 0.830439 1.724146 0.014099 -0.005388 369152.000000 1 0 0
7.282938 11.690010 4.708537 14.555681 1.013633 1.241387 0.004296 0.000640 455671.000000 1 0 0
7.094238 15.734910 1.957937 17.370927 1.147228 1.457843 0.004992 -0.011062 -2183630.000000 1 0 0
5.452538 12.032410 10.312337 16.758680 1.145322 0.907975 -0.000590 0.003545 -379930.000000 1 0 0
-1.370162 14.202710 3.098137 14.601122 -1.474622 1.356986 -0.002122 0.000052 371378.000000 1 0 0
4.620438 16.045210 1.544537 16.768506 1.290418 1.478556 0.001627 -0.014584 -3399370.000000 1 0 0
7.083138 13.034210 12.007537 19.085136 1.073014 0.890329 0.003342 -0.000385 245843.000000 1 0 0
0.736338 17.129610 -9.369763 19.538633 1.527837 2.070939 0.004701 -0.004147 112972.000000 1 0 0
9.824938 9.552110 15.339937 20.569051 0.771319 0.729095 0.026764 -0.013811 -426764.000000 1 0 0
13.523638 7.534710 -0.107563 15.481350 0.508317 1.577744 0.001260 0.003263 518677.000000 1 0 0
12.366038 13.582210 -0.140363 18.368860 0.832233 1.578438 0.025549 -0.003762 522560.000000 1 0 0
9.484038 12.343710 3.403037 15.934077 0.915667 1.355569 0.008479 0.003003 -39398.100000 1 0 0
-0.752162 12.938010 0.647237 12.976007 -1.512726 1.520896 0.003495 -0.004677 772588.000000 1 0 0
16.142038 7.593110 -0.790163 17.856233 0.439683 1.615062 0.013981 0.009126 -1076770.000000 1 0 0
-4.410162 18.465210 -2.271763 19.120000 -1.336352 1.689894 0.019000 -0.007551 92170.900000 1 0 0
11.767338 9.312810 -3.110763 15.325649 0.669482 1.775194 0.017217 -0.003229 275891.000000 1 0 0
14.680938 9.782210 7.790937 19.285235 0.587763 1.154928 0.024374 -0.001849 441353.000000 1 0 0
4.438638 13.797810 4.779537 15.261882 1.259560 1.252269 0.009268 0.001040 216639.000000 1 0 0
2.134938 15.956510 5.729037 17.087716 1.437789 1.228902 -0.001121 -0.001769 78413.900000 1 0 0
6.148338 18.261010 5.644737 20.078087 1.246026 1.285815 0.025155 -0.019065 -378480.000000 1 0 0
10.636138 17.048610 -0.883463 20.113752 1.013009 1.614734 0.032801 -0.009620 -1343700.000000 1 0 0
9.940338 13.591810 -4.470863 17.422291 0.939340 1.830317 0.020833 -0.010142 136844.000000 1 0 0
16.528738 8.020610 2.449237 18.534512 0.451780 1.438264 0.000349 0.010125 86590.800000 1 0 0
4.042338 14.012810 -0.399063 14.589674 1.289947 1.598152 0.003828 -0.009586 408754.000000 1 0 0
5.649438 13.220710 -2.342863 14.566823 1.166965 1.732333 0.000330 -0.007267 -527166.000000 1 0 0
-6.143562 16.646110 -3.068263 18.006959 -1.217236 1.742025 0.011442 -0.017117 -1652400.000000 1 0 0
18.232038 9.899110 2.480837 20.893878 0.497415 1.451780 0.019116 0.001570 1124.430000 1 0 0
7.896738 12.850310 9.492537 17.821257 1.019771 1.009065 0.007721 -0.000290 867554.000000 1 0 0
-2.554062 15.802510 6.712837 17.358131 -1.410558 1.173718 -0.004030 0.001741 400213.000000 1 0 0
11.279938 16.108410 6.312037 20.653321 0.959902 1.260208 0.031534 0.003075 296905.000000 1 0 0
13.620938 11.932710 1.384337 18.161385 0.719428 1.494498 0.026125 0.001506 1283620.000000 1 0 0
17.452538 8.170810 -5.471563 20.032254 0.437864 1.847450 0.023336 0.012493 -207785.000000 1 0 0
9.399338 9.284610 8.073237 15.483174 0.779258 1.022282 0.007782 0.000222 -319533.000000 1 0 0
-1.983962 14.231210 -1.847063 14.487066 -1.432280 1.698642 -0.000760 -0.001592 441658.000000 1 0 0
10.988738 11.613510 0.846937 16.010724 0.813033 1.517874 0.016297 0.001233 427177.000000 1 0 0
11.789538 9.828210 -0.524763 15.357809 0.694918 1.604972 0.008278 0.003577 -1045140.000000 1 0 0
-0.239662 16.285110 11.155537 19.741029 -1.556081 0.970249 0.000737 0.002120 -118280.000000 1 0 0
2.127838 20.061910 -1.795563 20.254184 1.465128 1.659564 0.000504 -0.009152 -653152.000000 1 0 0
9.378838 14.392410 1.849437 17.277861 0.993261 1.463550 0.011274 -0.003266 -479364.000000 1 0 0
8.436538 11.700210 -5.186063 15.328579 0.946076 1.915934 0.012926 -0.006444 -1328280.000000 1 0 0
10.629838 9.894110 10.343437 17.829009 0.749566 0.951888 0.010441 -0.005995 5231.690000 1 0 0
-5.106462 15.758710 5.834737 17.562945 -1.257432 1.232142 -0.005451 0.002182 1124080.000000 1 0 0
14.546838 9.094710 -1.955363 17.266954 0.558744 1.684283 0.019542 0.001666 -355863.000000 1 0 0
12.159938 9.524510 6.893137 16.914364 0.664456 1.151047 0.010596 -0.004213 155730.000000 1 0 0
3.188738 12.860410 9.760837 16.456978 1.327748 0.935877 0.000322 0.000179 -1151750.000000 1 0 0
8.522838 12.652610 -2.579263 15.471907 0.978007 1.738285 0.012190 -0.005654 -1031550.000000 1 0 0
9.429538 16.997210 2.065237 19.547034 1.064298 1.464944 0.015791 -0.007464 88399.200000 1 0 0
9.395138 14.236710 -7.418563 18.600742 0.987477 1.981039 0.033440 -0.022965 -1394760.000000 1 0 0
6.458038 11.321210 7.287337 14.932559 1.052398 1.060980 0.003553 0.000259 -891542.000000 1 0 0
5.431038 16.930810 -5.578863 18.635241 1.260387 1.874830 0.003094 -0.002465 -2612320.000000 1 0 0
-4.047062 17.309110 -4.654663 18.375252 -1.341111 1.826898 0.004876 -0.005312 488939.000000 1 0 0
-0.116362 18.634110 -0.393663 18.638631 -1.564552 1.591919 -0.005465 -0.003784 -795732.000000 1 0 0
6.486738 15.645910 -2.861563 17.177334 1.177771 1.738166 -0.001780 -0.005822 -351633.000000 1 0 0
-0.915162 20.759710 0.860637 20.797687 -1.526741 1.529403 -0.007246 -0.002107 -86330.800000 1 0 0
-1.323062 18.831710 4.399337 19.383961 -1.500654 1.341844 -0.004473 -0.005449 99722.800000 1 0 0
7.171438 13.776310 -4.481063 16.164658 1.090834 1.851689 0.008619 -0.004123 -283927.000000 1 0 0
-0.977062 12.076810 7.764437 14.390638 -1.490068 1.000896 0.001083 0.006218 643731.000000 1 0 0
7.713438 10.751110 11.004637 17.210041 0.948451 0.877038 0.004097 -0.001280 297659.000000 1 0 0
1.485538 16.020910 -7.208363 17.630566 1.478336 1.991996 -0.001814 -0.005788 215634.000000 1 0 0
8.778338 7.190810 14.927437 18.750876 0.686312 0.649985 0.016865 0.001080 121781.000000 1 0 0
11.345138 11.382610 -4.754063 16.759388 0.787047 1.858411 0.023625 -0.011879 -343912.000000 1 0 0
-3.366862 17.032110 4.480137 17.930425 -1.375635 1.318258 -0.006986 -0.002419 11171.300000 1 0 0
3.943338 15.379410 -6.713263 17.237867 1.319800 1.970829 0.000937 -0.007988 -1856950.000000 1 0 0
-4.437062 14.012410 9.571437 17.539885 -1.264133 0.993577 0.011627 -0.005980 -249781.000000 1 0 0
6.197738 17.799710 0.501737 18.854532 1.235732 1.544182 0.000127 -0.010379 -403774.000000 1 0 0
9.849038 10.677910 -2.134763 14.682592 0.825756 1.716708 0.010933 -0.003363 -411368.000000 1 0 0
7.072238 18.109410 -2.539463 19.606533 1.198482 1.700682 -0.002833 0.001846 125723.000000 1 0 0
3.423838 10.329510 10.416837 15.064260 1.250731 0.807242 -0.000128 0.003193 334194.000000 1 0 0
0.024238 18.695610 2.125537 18.816065 1.569500 1.457591 -0.006175 -0.008613 141752.000000 1 0 0
-0.967262 17.208310 -7.412863 18.761984 -1.514646 1.976973 0.009084 -0.000010 -131765.000000 1 0 0
9.919538 8.528910 12.928737 18.392710 0.710161 0.791292 0.014591 -0.008563 91367.100000 1 0 0
3.703038 11.420010 5.555537 13.228496 1.257235 1.137387 0.000801 0.002559 762557.000000 1 0 0
12.896938 13.938310 8.393337 20.761878 0.824185 1.154619 0.027385 -0.006710 10575.900000 1 0 0
-0.467662 17.437510 6.757137 18.706800 -1.543983 1.201228 -0.002915 -0.004045 -595983.000000 1 0 0
12.208138 13.712110 5.887637 19.280168 0.843356 1.260467 0.027302 0.004358 309250.000000 1 0 0
4.755538 14.563710 -4.454363 15.954878 1.255178 1.853742 -0.006013 -0.005380 -1146390.000000 1 0 0
3.806338 17.569810 4.735537 18.590636 1.357452 1.313231 0.011539 -0.013071 -107215.000000 1 0 0
7.112938 11.649210 2.100937 13.809848 1.022623 1.418070 0.011533 -0.002139 1068840.000000 1 0 0
6.394938 8.631810 11.841837 15.988511 0.933172 0.736764 0.000997 0.000811 801713.000000 1 0 0
-5.422462 14.989610 1.738237 16.034742 -1.223694 1.462178 0.005387 0.003694 -43938.700000 1 0 0
6.852638 13.715010 6.059537 16.485695 1.107433 1.194409 0.007133 -0.003487 -547345.000000 1 0 0
5.933138 15.834110 4.943437 17.617001 1.212283 1.286371 0.012078 -0.011487 640235.000000 1 0 0
1.264838 17.939210 4.294537 18.489405 1.500406 1.336385 0.003672 -0.011572 161089.000000 1 0 0
7.174938 18.065410 -7.021063 20.667223 1.192737 1.917415 0.016198 -0.000435 347468.000000 1 0 0
-2.420762 18.897710 -5.931963 19.954240 -1.443392 1.872637 0.007283 0.001884 -1323610.000000 1 0 0
13.577538 10.359110 -4.598563 17.686364 0.651744 1.833825 0.019346 -0.003406 -1761520.000000 1 0 0
-1.532462 18.045110 9.656237 20.523580 -1.486076 1.080945 0.004192 -0.008951 -324463.000000 1 0 0
3.511838 11.836910 -1.586863 12.448437 1.282383 1.698619 0.004481 -0.007183 52865.800000 1 0 0
4.308038 13.868710 -10.868463 18.139013 1.269616 2.213268 0.008622 -0.020879 -300810.000000 1 0 0
11.634638 13.474010 2.379437 17.960386 0.858524 1.437923 0.026845 0.001587 -214028.000000 1 0 0
16.087838 6.705110 -7.259863 18.880748 0.394889 1.965475 0.023521 0.004671 361907.000000 1 0 0
2.461338 16.070910 2.955537 16.524755 1.418822 1.390974 0.000775 -0.007749 -20367.700000 1 0 0
13.516538 10.681210 3.608037 17.601221 0.668757 1.364345 0.014455 0.008704 -811217.000000 1 0 0
-4.897162 19.499910 -5.686963 20.894263 -1.324747 1.846452 0.003714 -0.009680 -16207.900000 1 0 0
5.546338 12.052710 0.093637 13.267948 1.139514 1.563739 0.005479 -0.004869 162212.000000 1 0 0
4.833938 15.296510 9.691137 18.742153 1.264712 1.027364 0.009571 0.002276 -120475.000000 1 0 0
7.726638 9.408210 13.981437 18.539038 0.883222 0.716419 0.004888 -0.004382 -1433440.000000 1 0 0
-4.979362 13.611010 7.089937 16.134461 -1.220086 1.115834 -0.002216 0.003689 -835647.000000 1 0 0
-4.520862 17.104510 0.424837 17.696975 -1.312397 1.546788 0.007824 -0.006421 -1866340.000000 1 0 0
-0.582362 16.534110 3.464037 16.903121 -1.535589 1.364399 -0.003689 -0.006377 -1276140.000000 1 0 0
7.778838 16.917210 -4.752863 19.216972 1.139808 1.820716 -0.001798 -0.003639 636023.000000 1 0 0
3.008738 16.528810 -4.581063 17.413793 1.390738 1.837000 -0.007724 -0.001821 -8980.950000 1 0 0
9.381938 14.495310 8.124037 19.082315 0.996364 1.131021 0.011597 -0.003478 328515.000000 1 0 0
12.642738 10.886810 9.135337 19.021457 0.710910 1.069840 0.021066 -0.009492 -462148.000000 1 0 0
3.707138 12.205910 12.291737 17.714793 1.275933 0.803949 0.002792 0.001974 424606.000000 1 0 0
-3.215162 19.071610 6.159137 20.297747 -1.403783 1.262496 -0.002194 -0.007849 -58085.900000 1 0 0
-2.510462 15.694410 10.205137 18.888138 -1.412181 1.000011 0.005255 -0.010278 -852246.000000 1 0 0
1.988438 14.258110 7.751137 16.350159 1.432230 1.076888 0.002099 -0.001534 286964.000000 1 0 0
4.340838 17.196910 8.063137 19.483089 1.323542 1.144114 0.013033 -0.006875 -118139.000000 1 0 0
-1.856062 13.462710 9.417037 16.533908 -1.433793 0.964827 0.003803 -0.002406 -1799950.000000 1 0 0
5.879338 17.622210 3.108637 18.835406 1.248777 1.404996 0.007558 -0.017972 507169.000000 1 0 0
7.166838 15.384710 -6.870663 18.310076 1.134847 1.955451 0.006377 -0.006091 -648700.000000 1 0 0
10.910838 7.572610 9.420537 16.283038 0.606718 0.953848 0.012925 -0.003581 116997.000000 1 0 0
9.008238 16.197710 -2.712263 18.731538 1.063249 1.716104 0.010961 -0.013732 -531204.000000 1 0 0
14.845138 11.400910 -6.652463 19.864897 0.654915 1.912280 0.069591 -0.014674 552779.000000 1 0 0
10.984938 6.352210 16.073237 20.478486 0.524285 0.668287 0.032130 -0.007637 -1621.480000 1 0 0
8.548938 8.446410 10.286237 15.818750 0.779366 0.862875 0.007054 0.000108 -1242950.000000 1 0 0
16.614938 9.610310 4.534137 19.722389 0.524396 1.338823 0.032764 0.006637 268004.000000 1 0 0
-3.338562 14.321910 4.674537 15.430956 -1.341777 1.263028 -0.007120 0.003768 -974736.000000 1 0 0
4.635338 14.641210 12.830537 20.011848 1.264185 0.874804 0.004100 0.007796 -904327.000000 1 0 0
16.114638 10.746710 -4.526263 19.891214 0.588158 1.800358 0.040332 -0.014606 128168.000000 1 0 0
14.707538 14.124510 6.426337 21.380160 0.765179 1.265501 0.036069 0.009031 -253003.000000 1 0 0
6.215738 9.406110 9.362237 14.654753 0.986853 0.877790 0.000204 0.001369 734065.000000 1 0 0
10.359438 12.122410 8.737137 18.182638 0.863656 1.069548 0.014952 -0.006415 -936307.000000 1 0 0
7.971138 11.530210 -0.308863 14.020705 0.965915 1.592827 0.006440 -0.003515 -838381.000000 1 0 0
7.358138 13.378510 -8.669963 17.558331 1.067956 2.087228 0.017334 -0.012546 -1062040.000000 1 0 0
2.808138 15.174010 -2.292863 15.601072 1.387804 1.718299 -0.003395 -0.008228 361149.000000 1 0 0
12.043438 13.829710 -7.711963 19.894211 0.854328 1.968876 0.038682 -0.022648 -369751.000000 1 0 0
-7.978262 14.731810 9.698237 19.358065 -1.074451 1.046052 0.023825 -0.012869 78389.600000 1 0 0
11.560438 9.619910 2.316037 15.216781 0.694034 1.418000 0.014819 0.004008 -3071580.000000 1 0 0
12.144238 8.541010 4.497337 15.513137 0.612935 1.276669 0.005956 0.002813 651229.000000 1 0 0
14.085238 7.988010 6.069937 17.292957 0.515892 1.212151 0.012448 0.002035 -2811490.000000 1 0 0
16.263438 7.422610 7.194937 19.270747 0.428162 1.188167 0.034598 -0.003275 -96250.200000 1 0 0
13.602438 8.393010 2.299737 16.147994 0.552842 1.427894 0.001749 0.008681 -1901110.000000 1 0 0
-4.292062 17.442210 -7.218763 19.358797 -1.329517 1.952921 0.004077 -0.012127 -34278.300000 1 0 0
3.247538 19.375810 -3.912763 20.031930 1.404732 1.767386 0.006253 -0.011202 354580.000000 1 0 0
-0.124062 14.880710 6.179437 16.113235 -1.562459 1.177212 0.001207 -0.000309 -1134100.000000 1 0 0
6.772938 16.254910 8.239937 19.441999 1.176002 1.133136 0.022698 0.001680 -1648360.000000 1 0 0
12.772238 15.226710 -2.142763 19.989352 0.872838 1.678198 0.045531 -0.011590 -445333.000000 1 0 0
12.914938 15.606810 4.287337 20.706265 0.879499 1.362232 0.043664 -0.002395 682814.000000 1 0 0
3.056038 18.145610 1.397437 18.454142 1.403945 1.494999 0.003094 -0.011654 -603622.000000 1 0 0
10.378038 14.550210 -1.396163 17.926560 0.951228 1.648758 0.019202 -0.004928 -614589.000000 1 0 0
-6.413462 15.798810 -0.555163 17.059985 -1.185175 1.603344 0.006536 -0.005439 -161482.000000 1 0 0
-3.800262 15.913310 -2.581963 16.563271 -1.336377 1.727320 0.004005 -0.004692 -1740430.000000 1 0 0
-6.720862 17.243910 1.632337 18.579207 -1.199155 1.482825 0.010407 0.003118 -248605.000000 1 0 0
0.051938 19.456210 -6.608963 20.548119 1.568127 1.898250 0.013899 -0.004444 616030.000000 1 0 0
4.803438 14.885910 7.093737 17.175111 1.258661 1.145024 0.012820 -0.003373 -5461.910000 1 0 0
8.682838 12.262110 6.924937 16.544055 0.954653 1.138920 0.010687 -0.003976 -868251.000000 1 0 0
-7.553262 17.418710 -5.740363 19.834691 -1.161639 1.864407 0.033364 -0.021712 363830.000000 1 0 0
-7.845162 17.727510 -1.575563 19.449770 -1.154162 1.651892 0.038810 -0.012138 -257851.000000 1 0 0
-13.901362 -9.178090 9.130037 18.995862 0.583533 1.069420 0.030111 -0.007486 -400938.000000 1 0 0
-12.801762 -13.006690 7.657737 19.791413 0.793338 1.173505 0.037493 -0.009519 453476.000000 1 0 0
-3.776362 -15.260990 12.500037 20.085061 1.328217 0.899049 0.011642 -0.007068 426625.000000 1 0 0
-1.972962 -14.277190 14.926137 20.748983 1.433476 0.767905 0.023106 -0.007906 -837522.000000 1 0 0
-7.044362 -13.828290 12.929037 20.199125 1.099644 0.876195 0.022301 -0.006349 67061.000000 1 0 0
-10.075662 -11.476490 8.950137 17.701236 0.850304 1.040693 0.030482 -0.010773 434070.000000 1 0 0
-10.768462 -10.601990 11.294837 18.866248 0.777609 0.928945 0.041163 -0.014203 486478.000000 1 0 0
-6.001962 -12.399690 10.959437 17.603554 1.119997 0.898774 0.024089 -0.001412 653373.000000 1 0 0
-12.597162 -10.478790 7.300037 17.938341 0.693855 1.151682 0.019834 -0.003065 -238252.000000 1 0 0
-7.721562 -11.245990 12.637237 18.595553 0.969116 0.823601 0.026893 -0.008205 438737.000000 1 0 0
-15.010662 -11.563590 7.149937 20.252363 0.656404 1.209976 0.037253 -0.009862 359172.000000 1 0 0
-11.301062 -9.190690 9.148837 17.201279 0.682774 1.009990 0.023942 -0.005114 -753008.000000 1 0 0
-5.399062 -11.923390 13.522637 18.819639 1.145606 0.769098 0.024025 -0.008031 -812182.000000 1 0 0
3.962238 -12.403390 14.755937 19.679459 -1.261594 0.723015 0.012309 -0.007660 50204.900000 1 0 0
6.516638 -12.793690 14.073837 20.105173 -1.099686 0.795384 0.015449 -0.009514 424689.000000 1 0 0
6.465538 -8.518190 15.915037 19.174231 -0.921543 0.591649 0.011686 -0.017417 1536970.000000 1 0 0
0.695938 -1.740490 14.389637 14.511213 -1.190418 0.129536 0.004918 -0.006593 -4000730.000000 1 0 0
-0.306862 -6.250590 15.552437 16.764318 1.521742 0.382564 0.006371 -0.009519 266443.000000 1 0 0
-1.464662 -4.574390 18.130737 18.756170 1.260923 0.258969 0.023147 -0.024348 -2919900.000000 1 0 0
-5.177362 12.668510 13.058437 18.916104 -1.182830 0.808845 0.013149 -0.001276 853163.000000 1 0 0
-4.168562 8.832010 11.680237 15.225283 -1.129812 0.696393 0.002307 0.003764 -207513.000000 1 0 0
-0.675862 -3.874890 14.882937 15.393940 1.398113 0.258381 0.002800 -0.004751 140427.000000 1 0 0
-4.533962 9.277210 14.230637 17.582220 -1.116213 0.627707 0.012374 -0.004530 499851.000000 1 0 0
-13.446662 -2.622290 16.736637 21.628780 0.192597 0.685957 0.030069 0.000949 -367363.000000 1 0 0
-0.283662 0.773410 17.283137 17.302759 -1.219262 0.047628 0.004955 -0.006882 -1264700.000000 1 0 0
-3.265462 -7.199790 15.331237 17.249552 1.144994 0.476097 0.018365 -0.009356 262305.000000 1 0 0
-7.479162 5.635210 12.515537 15.631127 -0.645708 0.642366 -0.000894 -0.000684 -2450910.000000 1 0 0
-9.802462 10.062310 13.292137 19.339577 -0.798478 0.813028 0.010394 -0.010148 -259562.000000 1 0 0
-5.601562 2.252610 11.090337 12.627245 -0.382349 0.498530 0.004228 -0.001216 -235965.000000 1 0 0
-7.119162 -7.458990 16.847137 19.752089 0.808705 0.549225 0.017365 -0.009638 -507299.000000 1 0 0
-4.846162 2.877810 18.379737 19.224511 -0.535872 0.297551 0.019713 -0.015282 -807738.000000 1 0 0
0.830838 -8.340490 16.510337 18.516082 -1.471509 0.469763 0.009371 -0.008299 764359.000000 1 0 0
-15.105562 -3.623890 13.956837 20.883100 0.235455 0.838833 0.051089 -0.003664 330046.000000 1 0 0
-14.342762 2.415110 13.033437 19.529927 -0.166820 0.840142 0.018730 -0.010449 165665.000000 1 0 0
-5.453462 0.926510 15.972137 16.902894 -0.168287 0.333400 0.013620 -0.008578 292985.000000 1 0 0
4.481038 5.622510 15.100037 16.724337 0.897898 0.444378 0.009191 -0.004707 -212917.000000 1 0 0
-0.975362 -12.087790 13.871837 18.425359 1.490281 0.718390 -0.006324 -0.002944 -281045.000000 1 0 0
-6.028762 -4.094290 16.701837 18.222529 0.596579 0.411433 0.020328 -0.011250 476522.000000 1 0 0
-12.981162 -1.518490 9.774337 16.320357 0.116447 0.928664 0.013279 -0.000667 -533432.000000 1 0 0
-14.344062 10.419110 10.502637 20.606197 -0.628206 1.035980 0.004491 0.010151 595714.000000 1 0 0
-3.630962 -3.358390 17.631037 18.311639 0.746420 0.273497 0.017132 -0.013648 -1324690.000000 1 0 0
-7.902662 9.303310 11.852137 17.014018 -0.866624 0.800135 0.001000 -0.002916 -193231.000000 1 0 0
-4.369162 10.607510 16.476437 20.076898 -1.180079 0.608220 0.019818 -0.000596 250008.000000 1 0 0
-12.577862 12.697910 8.250037 19.685087 -0.790148 1.138342 0.022164 -0.012193 302414.000000 1 0 0
-12.645962 3.143510 10.412837 16.680203 -0.243640 0.896608 0.003529 -0.003933 389595.000000 1 0 0
-10.147562 -3.455690 13.570937 17.294078 0.328226 0.668559 0.013408 -0.000471 -1412480.000000 1 0 0
-4.268762 -6.359190 17.622937 19.215346 0.979610 0.409981 0.026271 -0.013086 -577959.000000 1 0 0
0.782638 -3.588690 18.021737 18.392233 -1.356074 0.201058 0.007811 -0.012184 -1042800.000000 1 0 0
-5.947562 1.838610 13.543637 14.905841 -0.299818 0.430846 0.003171 -0.001753 -1044620.000000 1 0 0
-10.702062 8.618010 10.194037 17.109138 -0.677944 0.932505 0.010020 -0.007951 162684.000000 1 0 0
4.491438 2.443310 17.188037 17.932412 0.498219 0.289138 0.018121 -0.012046 -1061190.000000 1 0 0
0.497338 -5.393390 13.192437 14.261010 -1.478844 0.389576 -0.000900 -0.006860 -1431410.000000 1 0 0
-4.054262 5.481710 20.664337 21.760078 -0.933986 0.318697 0.037868 -0.016545 161168.000000 1 0 0
-10.822462 10.950810 8.925437 17.796330 -0.791293 1.045427 0.016710 -0.007642 409340.000000 1 0 0
0.712538 4.135410 13.058237 13.715935 1.400170 0.310933 0.011859 -0.005930 -2111270.000000 1 0 0
-3.073162 7.144110 13.416137 15.507268 -1.164557 0.525344 0.003437 0.002124 818459.000000 1 0 0
0.610038 8.799610 14.124237 16.652308 1.501581 0.558247 0.009877 -0.004081 -99703.300000 1 0 0
-4.153362 -6.756390 12.997637 15.226221 1.019616 0.547871 0.013545 -0.006583 -143996.000000 1 0 0
-5.314762 8.110810 16.512837 19.149562 -0.990726 0.530985 0.022330 -0.000053 417336.000000 1 0 0
1.573138 -10.676590 15.736737 19.081647 -1.424504 0.601115 0.004603 -0.001518 -246601.000000 1 0 0
-15.054862 -1.049390 14.099437 20.652947 0.069592 0.819367 0.029823 -0.005467 184397.000000 1 0 0
-13.604962 -5.310390 8.282537 16.789748 0.372140 1.054906 0.023419 -0.007369 -1180800.000000 1 0 0
-14.181362 -1.999390 12.047137 18.714756 0.140064 0.871442 0.028010 -0.002594 284597.000000 1 0 0
9.288938 1.390310 16.938337 19.368133 0.148571 0.506296 0.032536 -0.008644 -771887.000000 1 0 0
4.838938 -6.734690 16.849637 18.779820 -0.947756 0.457362 0.017466 -0.014834 -172949.000000 1 0 0
-6.069362 -2.741690 10.957937 12.823042 0.424289 0.546112 0.005887 -0.002640 284339.000000 1 0 0
0.492138 -6.330090 18.032637 19.117747 -1.493207 0.338540 0.016234 -0.014132 -324661.000000 1 0 0
-8.617962 11.875710 11.819237 18.841341 -0.943043 0.892711 0.016053 -0.015194 37448.700000 1 0 0
-6.639362 -5.852990 14.788437 17.234747 0.722533 0.539317 0.017085 -0.008817 -1229380.000000 1 0 0
-4.533062 -8.877990 16.958937 19.671627 1.098708 0.531394 0.031202 -0.012153 65761.000000 1 0 0
2.327538 -6.193090 16.267537 17.561451 -1.211300 0.386270 0.003954 -0.011030 -1513590.000000 1 0 0
2.235038 5.159010 16.114737 17.067382 1.161975 0.335690 0.015752 -0.006662 649844.000000 1 0 0
0.804138 -8.842890 13.975237 16.557494 -1.480110 0.566018 -0.000463 -0.007035 -499101.000000 1 0 0
-9.981462 -2.813390 11.092237 15.184942 0.274734 0.751778 0.001215 -0.000190 -82087.100000 1 0 0
-1.251262 10.021410 12.479937 16.054381 -1.446580 0.680348 0.004110 0.000573 -755957.000000 1 0 0
-12.378762 -3.657790 11.240437 17.116092 0.287313 0.854339 0.016214 0.000029 -1217190.000000 1 0 0
-1.821962 6.681610 19.814737 20.990171 -1.304585 0.336243 0.036090 -0.019669 389774.000000 1 0 0
0.375038 -13.458090 15.606137 20.610977 -1.542936 0.711817 0.006669 -0.011458 -587563.000000 1 0 0
3.890538 -8.670490 15.232337 17.953768 -1.149015 0.557803 0.008854 -0.011675 -489620.000000 1 0 0
4.222138 -4.417490 16.282237 17.391145 -0.808005 0.359032 0.010885 -0.009769 -126576.000000 1 0 0
8.023938 1.540710 14.740437 16.853423 0.189705 0.506133 0.018186 -0.003335 24286.600000 1 0 0
-6.272162 -0.128290 11.756037 13.325197 0.020451 0.490195 0.006032 -0.003570 -1016.840000 1 0 0
-3.752262 -10.908590 18.420037 21.734180 1.239501 0.559511 0.038896 -0.010990 828573.000000 1 0 0
3.221138 -1.477190 13.484237 13.942111 -0.429977 0.256992 0.004254 -0.007985 769157.000000 1 0 0
-2.760462 8.651110 16.038937 18.431206 -1.261921 0.515177 0.023066 -0.002328 -773883.000000 1 0 0
-3.329762 3.912510 14.809537 15.675377 -0.865690 0.333921 0.009290 -0.003063 -436801.000000 1 0 0
-5.341562 -9.124690 19.528137 22.206765 1.041184 0.496242 0.067026 -0.013599 -51470.000000 1 0 0
-5.777462 -2.909990 19.030637 20.100056 0.466587 0.327669 0.025519 -0.016144 -1070320.000000 1 0 0
-6.722062 -8.691990 11.074837 15.600924 0.912510 0.781464 0.020238 -0.006363 1967460.000000 1 0 0
-11.668062 2.420910 12.646637 17.376476 -0.204579 0.755685 0.011836 -0.011616 -182980.000000 1 0 0
-11.683062 -7.700690 11.808837 18.309648 0.582769 0.869836 0.022000 0.001582 824000.000000 1 0 0
-11.067862 -7.160290 15.705937 20.504726 0.574224 0.698253 0.022104 -0.016895 939547.000000 1 0 0
0.277038 5.666910 17.655337 18.544583 1.521948 0.310934 0.020529 -0.011287 -144400.000000 1 0 0
-2.170462 -0.086890 13.057537 13.236983 0.040012 0.164846 0.005759 -0.003206 63869.600000 1 0 0
-6.269162 -10.614090 17.628537 21.511081 1.037284 0.610242 0.039071 -0.020647 -10438.500000 1 0 0
0.212038 2.663210 19.078837 19.264986 1.491346 0.139127 0.011777 -0.011556 -373885.000000 1 0 0
-0.734662 10.819610 14.958637 18.476052 -1.502999 0.627287 0.018044 -0.002411 764425.000000 1 0 0
-12.793662 -2.273790 14.185637 19.237469 0.175891 0.741589 0.022153 -0.003180 -1533630.000000 1 0 0
-13.794062 8.305210 11.801737 19.963308 -0.541952 0.938286 0.011898 -0.003808 342854.000000 1 0 0
-18.035962 -0.662690 6.751937 19.269762 0.036726 1.212809 0.052324 -0.013347 -901922.000000 1 0 0
-2.206862 -7.897390 17.697837 19.505190 1.298305 0.433884 0.016086 -0.007682 -790173.000000 1 0 0
5.647038 2.661510 14.407437 15.701813 0.440434 0.408884 0.013795 -0.005301 -1773120.000000 1 0 0
-13.978162 -6.872390 10.975737 19.054804 0.456947 0.956958 0.017220 -0.004510 613525.000000 1 0 0
3.181738 7.587110 16.323037 18.279202 1.173712 0.466864 0.014131 -0.013154 -58398.100000 1 0 0
0.933538 1.977610 14.537537 14.701103 1.129755 0.149310 0.007451 -0.006633 -1876480.000000 1 0 0
-14.378762 0.740410 9.796037 17.414343 -0.051448 0.973357 0.024530 -0.006597 -2313610.000000 1 0 0
-9.514962 -5.069090 15.456737 18.845182 0.489503 0.609043 0.011149 -0.004981 -352393.000000 1 0 0
-2.638362 -0.180390 18.102037 18.294186 0.068266 0.145064 0.010745 -0.013152 196528.000000 1 0 0
6.854538 3.578910 17.647837 19.267575 0.481189 0.412966 0.036953 -0.006858 221710.000000 1 0 0
-4.187462 -0.811890 14.628837 15.238008 0.191510 0.283712 0.009239 -0.002763 -16012.100000 1 0 0
4.498638 -9.175890 17.679837 20.420856 -1.114965 0.524102 0.013157 -0.008526 -214024.000000 1 0 0
1.989438 6.754410 13.424437 15.159005 1.284357 0.483066 0.012847 -0.002944 -1590070.000000 1 0 0
-3.762062 -0.873890 20.378237 20.741006 0.228242 0.187305 0.018520 -0.012227 -1343830.000000 1 0 0
-10.858662 1.531510 16.278037 19.627291 -0.140116 0.592840 0.024064 -0.009874 -322412.000000 1 0 0
-3.975562 6.935910 18.453937 20.111184 -1.050327 0.408807 0.034345 -0.008857 -448892.000000 1 0 0
-12.715362 1.074410 14.613337 19.400629 -0.084297 0.717822 0.026411 -0.011358 -315196.000000 1 0 0
-15.987662 -4.870990 8.507737 18.754025 0.295737 1.099941 0.034207 -0.006752 -2743540.000000 1 0 0
-2.273162 0.679510 15.644837 15.823714 -0.290472 0.150504 0.011484 -0.005999 295681.000000 1 0 0
-13.991262 -8.936490 12.586237 20.833378 0.568404 0.922113 0.036834 -0.012731 570900.000000 1 0 0
5.957638 -3.325590 14.568037 16.086662 -0.509122 0.438011 0.011597 -0.014269 895829.000000 1 0 0
-15.719762 0.341510 7.546937 17.440866 -0.021721 1.123293 0.024598 -0.011913 461338.000000 1 0 0
-14.276062 5.809010 12.178837 19.643691 -0.386445 0.902070 0.022612 -0.013418 -741420.000000 1 0 0
0.381938 9.408010 16.825837 19.281217 1.530221 0.510185 0.021363 -0.011313 -16406.900000 1 0 0
-10.503862 -5.507790 10.824837 16.057521 0.482944 0.831012 0.015108 -0.001000 182672.000000 1 0 0
-3.095362 -11.277890 15.223837 19.197325 1.302930 0.655048 0.020346 0.000104 -647482.000000 1 0 0
-3.564662 2.698510 12.566337 13.337976 -0.647977 0.341817 0.003699 -0.001843 -2190420.000000 1 0 0
-12.410162 -7.827090 7.351137 16.410810 0.562688 1.106331 0.017364 -0.004981 279313.000000 1 0 0
-8.213462 -1.804290 13.037337 15.514141 0.216240 0.572864 0.004336 -0.002461 -403570.000000 1 0 0
-9.916962 6.363010 9.590937 15.192765 -0.570468 0.887590 0.004729 -0.005101 -639016.000000 1 0 0
-17.830862 -3.539290 6.715037 19.379317 0.195946 1.216953 0.044572 -0.007706 494819.000000 1 0 0
-1.419762 -0.066690 20.494437 20.543664 0.046938 0.069241 0.016358 -0.008790 -1350820.000000 1 0 0
-2.961962 2.550510 20.059837 20.437108 -0.710896 0.192443 0.028495 -0.015089 -376895.000000 1 0 0
-3.923362 11.254110 11.256037 16.393478 -1.235355 0.813971 0.004884 -0.002475 -555062.000000 1 0 0
-4.299062 -4.793390 14.749637 16.093797 0.839712 0.411606 0.012034 -0.011350 320651.000000 1 0 0
-0.049762 -14.502890 13.261537 19.652091 1.567365 0.830082 0.004493 -0.008428 771984.000000 1 0 0
-12.100962 0.508910 8.380737 14.728511 -0.042031 0.965489 0.001391 -0.002296 -57396.100000 1 0 0
-7.816362 1.958910 15.352037 17.338336 -0.245559 0.483359 0.010388 -0.006357 -1513420.000000 1 0 0
3.324238 -2.163490 18.348237 18.772028 -0.576953 0.212890 0.017785 -0.014518 -621807.000000 1 0 0
-2.156862 4.837610 12.555837 13.627310 -1.151397 0.399198 -0.000486 -0.000017 -17061.200000 1 0 0
-10.522862 -6.131390 13.337937 18.061704 0.527582 0.740005 0.016485 -0.003679 -163688.000000 1 0 0
2.329238 -3.778090 14.222537 14.898989 -1.018324 0.302491 -0.001660 -0.008739 -630243.000000 1 0 0
6.663338 1.031610 16.992737 18.281614 0.153599 0.377745 0.021508 -0.011248 -470355.000000 1 0 0
-2.023562 -5.610390 13.640237 14.887154 1.224638 0.412199 0.002688 -0.006070 -1294240.000000 1 0 0
-12.785662 3.735710 14.570337 19.741413 -0.284267 0.740606 -0.000183 -0.006772 224044.000000 1 0 0
-13.558462 -6.489690 13.410837 20.144441 0.446418 0.842319 0.030695 -0.008590 170188.000000 1 0 0
-9.655462 6.902310 12.052137 16.915195 -0.620630 0.777737 0.002608 0.002063 -6988.800000 1 0 0
-1.110362 -2.447490 12.730637 13.011235 1.144892 0.208057 0.000367 -0.002082 613673.000000 1 0 0
0.077138 6.544910 15.236737 16.583122 1.559011 0.405742 0.016533 -0.009754 421796.000000 1 0 0
-16.486962 -0.816790 9.701937 19.147184 0.049501 1.039440 0.054729 -0.008488 221290.000000 1 0 0
-1.353762 2.696310 13.669337 13.998340 -1.105486 0.217236 0.007762 -0.002277 -1478500.000000 1 0 0
-11.156662 -3.377890 16.009137 19.803376 0.293995 0.629360 0.016965 -0.006482 -318168.000000 1 0 0
-5.141362 -1.517190 16.979337 17.805431 0.286951 0.305807 0.017351 -0.010934 302522.000000 1 0 0
-12.057162 6.498010 11.119837 17.642281 -0.494307 0.888863 0.010092 -0.001413 -1266690.000000 1 0 0
-2.789362 4.589310 18.461637 19.226917 -1.024665 0.283088 0.024219 -0.017499 265027.000000 1 0 0
5.028238 -1.944890 16.383837 17.248069 -0.369070 0.317900 0.015927 -0.011163 111342.000000 1 0 0
-8.086762 -4.233790 12.061337 15.126022 0.482306 0.647839 0.011110 -0.001089 -1035330.000000 1 0 0
-11.688062 -0.819590 16.112237 19.922016 0.070007 0.628746 0.032201 -0.006299 332362.000000 1 0 0
1.998638 1.996310 17.298337 17.527472 0.784815 0.161873 0.007500 -0.010401 -1159100.000000 1 0 0
-9.031362 -7.440290 11.622737 16.492769 0.689102 0.788772 0.019878 -0.006983 22384.600000 1 0 0
-7.313662 6.821610 14.822637 17.881124 -0.750602 0.593561 0.000504 -0.004344 -542443.000000 1 0 0
-5.734762 3.460610 15.592537 16.970284 -0.542948 0.405731 0.007899 -0.007696 -258622.000000 1 0 0
-9.363762 4.254110 11.522237 15.444722 -0.426438 0.728715 -0.003415 -0.004958 -95133.100000 1 0 0
-10.318362 0.035010 14.126337 17.493519 -0.003393 0.630864 0.012777 -0.005965 602966.000000 1 0 0
8.118638 -0.763190 16.058337 18.010134 -0.093729 0.469868 0.019614 -0.005004 137490.000000 1 0 0
-8.673262 -7.431390 14.677137 18.597564 0.708438 0.661296 0.020608 -0.007742 -734376.000000 1 0 0
-0.096962 4.077610 15.620037 16.143787 -1.547022 0.255420 0.010406 -0.009711 10395.000000 1 0 0
-8.101562 3.090210 9.555437 12.903142 -0.364399 0.736906 -0.001983 -0.002815 -729692.000000 1 0 0
-2.271062 -9.861990 13.131037 16.578320 1.344458 0.656619 0.003631 -0.004663 595575.000000 1 0 0
-6.129362 10.253610 10.433537 15.860778 -1.032014 0.852876 0.011983 -0.003900 -2364970.000000 1 0 0
-8.643762 -2.591790 15.510037 17.944170 0.291315 0.526941 0.016530 -0.011168 -961717.000000 1 0 0
4.284538 5.647610 17.744837 19.108428 0.921785 0.380068 0.023839 -0.011005 93305.600000 1 0 0
-6.804462 -0.972290 14.997237 16.497369 0.141929 0.429754 0.009474 -0.005851 -32950.200000 1 0 0
-1.007062 -9.957490 15.387637 18.356066 1.470003 0.576664 -0.004520 -0.003866 212809.000000 1 0 0
-4.491262 5.713110 16.210037 17.764469 -0.904568 0.421448 0.013275 -0.005255 -56473.100000 1 0 0
3.713538 0.047810 17.282737 17.677264 0.012874 0.211669 0.017850 -0.012421 -710709.000000 1 0 0
1.410838 0.297210 19.153937 19.208126 0.207626 0.075133 0.008662 -0.009784 -286302.000000 1 0 0
-6.412262 6.350110 17.970337 20.109053 -0.780528 0.465396 0.005095 -0.000669 -1543750.000000 1 0 0
-12.148362 0.613210 10.956937 16.371109 -0.050434 0.837550 0.011224 -0.006160 -333143.000000 1 0 0
-5.473362 5.154310 13.874137 15.780250 -0.755386 0.496597 0.004531 -0.002316 -1029370.000000 1 0 0
-8.898662 -9.374590 9.910137 16.287417 0.811437 0.916686 0.030255 -0.007632 -1289960.000000 1 0 0
6.738838 -3.832090 17.069337 18.747243 -0.517055 0.426308 0.018728 -0.009602 221603.000000 1 0 0
-16.756362 1.706210 9.513137 19.343903 -0.101475 1.056652 0.044665 -0.015803 486211.000000 1 0 0
-4.232662 -9.614590 11.265937 15.403802 1.156094 0.750462 0.011315 -0.006370 1247390.000000 1 0 0
-11.139462 -3.900390 8.995437 14.839762 0.336801 0.919559 0.009376 -0.000578 -355742.000000 1 0 0
3.480238 -5.405290 18.552537 19.634812 -0.998751 0.333569 0.008611 -0.012755 -299114.000000 1 0 0
2.433238 -1.884290 15.971037 16.264846 -0.658933 0.190361 0.004436 -0.010428 -575011.000000 1 0 0
-3.286762 -4.505890 20.051937 20.813122 0.940586 0.271284 0.028162 -0.018974 -740549.000000 1 0 0
-6.407662 -3.373490 14.323437 16.049904 0.484605 0.468091 0.015766 -0.004403 -183105.000000 1 0 0
-9.667262 5.007110 13.871837 17.633915 -0.477900 0.665421 0.005197 -0.006647 134954.000000 1 0 0
-5.904462 -5.301390 11.676737 14.117847 0.731632 0.596885 0.010617 -0.000040 605602.000000 1 0 0
5.962338 1.836310 19.333737 20.315386 0.298766 0.312137 0.038174 -0.016887 293430.000000 1 0 0
-2.722962 11.871010 13.545737 18.215993 -1.345318 0.732331 0.012204 -0.007692 -790091.000000 1 0 0
3.317538 1.284610 15.048637 15.463433 0.369439 0.232143 0.003201 -0.006895 -1177320.000000 1 0 0
-5.722262 7.450710 12.928837 15.981620 -0.915865 0.628379 0.000133 -0.001548 -1050220.000000 1 0 0
-1.834862 -1.683690 15.102037 15.305981 0.742460 0.163427 0.005917 -0.006293 -330428.000000 1 0 0
-7.402462 10.722310 13.948537 19.087327 -0.966556 0.751340 0.026470 -0.010556 -203208.000000 1 0 0
-10.196562 2.086110 10.543937 14.815409 -0.201805 0.778899 0.000271 -0.004684 -2751720.000000 1 0 0
-13.630662 5.219510 9.081637 17.190531 -0.365700 1.014207 0.008665 -0.005050 -252129.000000 1 0 0
0.058938 -4.904290 20.205037 20.791803 -1.558779 0.238138 0.019341 -0.018523 -687631.000000 1 0 0
-14.438762 -3.032290 7.405837 16.508151 0.207002 1.105579 0.018338 -0.002345 788189.000000 1 0 0
-2.377562 2.336110 17.486237 17.801087 -0.776604 0.188359 0.010990 -0.012160 -190142.000000 1 0 0
-6.237462 -8.414890 14.490837 17.880175 0.932925 0.625891 0.021604 -0.008789 483304.000000 1 0 0
-8.048462 1.974110 12.008937 14.590731 -0.240529 0.604032 0.000952 -0.003073 298380.000000 1 0 0
-14.554662 -3.520890 10.017437 18.016212 0.237348 0.981202 0.021431 -0.001161 -218250.000000 1 0 0
-0.551062 6.892410 12.794737 14.543530 -1.491014 0.495451 0.006022 -0.002708 -1861920.000000 1 0 0
-1.930562 -2.355190 19.404737 19.642246 0.884155 0.155667 0.019262 -0.010901 6838.480000 1 0 0
-12.856262 10.278610 7.327937 18.017546 -0.674437 1.151945 0.013266 -0.014370 466432.000000 1 0 0
-19.517762 1.907810 6.953237 20.806977 -0.097438 1.230063 0.061959 -0.015828 1165650.000000 1 0 0
-16.239762 8.387410 6.668837 19.456410 -0.476740 1.220945 0.020830 -0.003812 444322.000000 1 0 0
-12.471862 6.914610 13.656837 19.745085 -0.506228 0.807015 0.018011 -0.007290 507719.000000 1 0 0
-16.011262 8.521510 10.437837 20.926660 -0.489090 1.048604 0.015069 0.003720 -1211130.000000 1 0 0
1.928038 10.781010 15.180237 18.718630 1.393831 0.624989 0.020014 -0.008228 -212994.000000 1 0 0
2.053338 14.258410 12.341537 18.969238 1.427771 0.862412 0.002360 -0.008480 -94475.800000 1 0 0
-3.067562 13.715410 11.797937 18.349761 -1.350760 0.872456 -0.003872 -0.003594 544584.000000 1 0 0
9.006238 4.684610 15.709337 18.704041 0.479639 0.573716 0.028443 -0.004067 -80096.600000 1 0 0
-0.251462 12.489510 13.111637 18.109835 -1.550665 0.761203 0.007176 0.000859 -141029.000000 1 0 0
3.193538 13.418910 14.503437 20.015382 1.337155 0.760321 0.003404 -0.001569 79924.400000 1 0 0
-2.708062 -4.080490 -13.669963 14.520740 0.984878 2.797582 -0.003146 -0.002716 -551903.000000 1 0 0
5.854738 -11.490190 16.288237 20.775204 -1.099544 0.669676 0.015717 -0.009028 347497.000000 1 0 0
7.862638 -13.566890 7.352037 17.318604 -1.045552 1.132368 0.001472 -0.004488 -423636.000000 1 0 0
-0.064762 15.636610 1.243237 15.686089 -1.566655 1.491456 -0.002416 -0.006502 -2047400.000000 1 0 0
-13.785762 8.155510 9.129637 18.436644 -0.534212 1.052743 0.006325 -0.002016 622237.000000 1 0 0
-15.535262 -9.667690 5.023937 18.974945 0.556660 1.302834 0.017459 -0.006000 -518013.000000 1 0 0
9.487038 -11.142690 11.136037 18.389529 -0.865482 0.920322 0.014458 -0.009476 447010.000000 1 0 0
-5.752062 -10.409290 -16.759163 20.550160 1.065967 2.524432 0.008644 -0.001114 17803.200000 1 0 0
-1.766262 -12.786990 -14.976663 19.771880 1.433535 2.430230 0.018472 0.001332 -106604.000000 1 0 0
5.587038 -15.852290 -12.060963 20.687603 -1.231946 2.193218 0.014491 0.003250 263588.000000 1 0 0
2.726938 -11.924890 -16.822263 20.799705 -1.345986 2.512861 0.018951 0.011858 245408.000000 1 0 0
0.540038 -14.216590 -14.175963 20.083849 -1.532828 2.354403 0.034484 0.010082 298813.000000 1 0 0
-6.863762 -5.346490 -15.376363 17.667165 0.661770 2.626680 0.021278 0.012215 -30132.100000 1 0 0
-5.891162 -8.293090 -17.323863 20.089733 0.953145 2.610638 -0.001552 0.000633 -2633.340000 1 0 0
-2.421162 -16.307290 -13.167163 21.098908 1.423402 2.244735 0.038185 -0.002965 242452.000000 1 0 0
16.229938 -8.086890 -9.029463 20.256848 -0.462263 2.032807 0.047090 -0.008879 -75973.700000 1 0 0
19.012138 -3.260090 -3.212863 19.555359 -0.169823 1.735840 0.031287 -0.018637 48380.100000 1 0 0
15.720238 -11.758590 -8.347163 21.332263 -0.642214 1.972832 0.046532 -0.010295 -14740.000000 1 0 0
18.894938 -3.052290 -6.567163 20.235187 -0.160157 1.901324 0.168627 -0.005699 -336116.000000 1 0 0
8.841438 -9.623290 -15.526263 20.293930 -0.827716 2.441945 0.056095 -0.008547 188936.000000 1 0 0
-4.444262 10.173410 -16.418663 19.819743 -1.158931 2.547040 0.012479 0.014510 483911.000000 1 0 0
2.438338 -9.771390 -18.527663 21.087908 -1.326252 2.643702 0.019599 0.006583 46602.400000 1 0 0
11.185338 8.032610 -14.972063 20.342008 0.622795 2.397964 0.033495 -0.029788 502896.000000 1 0 0
18.601438 -5.796390 -7.952163 21.043967 -0.302074 1.958305 0.047559 -0.015833 219281.000000 1 0 0
12.319738 5.454610 -13.910663 19.365827 0.416812 2.372166 0.011835 -0.004933 120632.000000 1 0 0
15.886338 6.147610 -10.886363 20.215878 0.369227 2.139459 0.023722 -0.016493 203178.000000 1 0 0
3.451938 -0.184890 -19.009463 19.321225 -0.053510 2.961708 0.033752 -0.013526 103784.000000 1 0 0
10.200138 -1.424390 -15.225963 18.382101 -0.138747 2.546870 0.017899 0.005621 234304.000000 1 0 0
12.309038 -6.084690 -13.858163 19.508576 -0.459099 2.360810 0.045669 -0.011258 95410.300000 1 0 0
10.227838 6.529110 -12.785163 17.626637 0.568154 2.382313 0.017356 -0.006852 480972.000000 1 0 0
10.553638 5.258110 -16.427663 20.221155 0.462228 2.519052 0.024716 -0.003584 371532.000000 1 0 0
12.098538 -9.771790 -14.941163 21.566197 -0.679409 2.336168 0.089117 -0.024693 302601.000000 1 0 0
-1.477962 2.121110 -17.572763 17.761911 -0.962230 2.995524 0.007822 -0.004939 347303.000000 1 0 0
6.435438 -1.322090 -17.016263 18.240504 -0.202620 2.773133 0.021018 0.004112 44143.100000 1 0 0
6.680038 -5.885490 -15.476863 17.854837 -0.722250 2.619578 0.007669 -0.016370 268281.000000 1 0 0
-2.044762 -4.771090 -20.476063 21.123766 1.165903 2.893317 0.010419 -0.012686 253518.000000 1 0 0
15.596538 -0.180790 -13.209663 20.439664 -0.011591 2.273490 0.011415 -0.009848 -116791.000000 1 0 0
-4.366762 -0.287390 -18.499863 19.010422 0.065718 2.909309 0.018915 -0.008675 245599.000000 1 0 0
3.363138 8.742910 -17.636963 19.970269 1.203575 2.653355 0.028072 -0.017582 -114517.000000 1 0 0
10.341838 0.319510 -17.054463 19.947692 0.030885 2.596269 0.041722 -0.011042 -34087.700000 1 0 0
4.068538 4.506910 -18.217663 19.202825 0.836473 2.819886 0.030559 -0.006409 337556.000000 1 0 0
-3.424262 -10.543990 -17.802363 20.972015 1.256782 2.584627 0.011228 -0.022585 164537.000000 1 0 0
6.088538 -9.501090 -16.348963 19.865286 -1.000898 2.537454 0.022469 0.005649 228841.000000 1 0 0
9.831238 -13.106290 -11.404463 19.962211 -0.927221 2.178888 0.007746 0.033334 60064.700000 1 0 0
6.240538 6.781710 -16.911863 19.259985 0.826932 2.642637 0.038543 -0.011851 522486.000000 1 0 0
8.908238 1.781110 -19.983763 21.951762 0.197338 2.714923 0.062403 -0.016423 68283.300000 1 0 0
-0.925862 -0.645690 -20.233963 20.265424 0.608975 3.085864 0.022274 -0.010899 140689.000000 1 0 0
-1.008662 6.705210 -19.554363 20.696626 -1.421486 2.807808 0.024055 -0.009231 -6542.730000 1 0 0
8.540538 5.409110 -18.492163 21.075088 0.564578 2.641299 0.039224 0.000746 87454.800000 1 0 0
11.683338 0.104810 -12.731863 17.280385 0.008971 2.399094 -0.015958 -0.006906 -85017.600000 1 0 0
-4.362662 -2.551590 -20.009663 20.638073 0.529220 2.894187 0.000757 -0.002913 331738.000000 1 0 0
5.698638 -11.338690 -14.555363 19.310592 -1.105084 2.424547 0.007448 0.002642 123616.000000 1 0 0
11.464538 2.779310 -15.872963 19.776530 0.237838 2.502465 0.026963 0.003548 -272825.000000 1 0 0
-2.840762 -4.417190 -17.084563 17.873550 0.999276 2.843360 -0.004992 -0.002826 215320.000000 1 0 0
-6.489862 -4.804090 -17.755563 19.505322 0.637229 2.714788 0.011109 -0.002270 -80261.600000 1 0 0
3.294538 10.089710 -15.326263 18.642708 1.255186 2.535895 0.013156 -0.011151 296098.000000 1 0 0
17.639538 -5.963890 -10.569463 21.411091 -0.326032 2.087072 0.091463 -0.024497 -39139.200000 1 0 0
9.390638 -3.632690 -17.620563 20.294451 -0.369112 2.622451 0.017049 -0.020606 98032.100000 1 0 0
-7.427962 -1.715890 -18.455763 19.968327 0.227022 2.749868 0.016161 0.000152 498685.000000 1 0 0
1.432038 -7.743090 -19.373063 20.912239 -1.387919 2.755529 0.012895 -0.008506 206435.000000 1 0 0
5.752638 10.202910 -13.945363 18.211682 1.057402 2.442983 0.029301 -0.016034 410338.000000 1 0 0
6.122738 -4.029890 -17.717263 19.173663 -0.582107 2.749317 0.035689 -0.026880 643299.000000 1 0 0
4.619238 13.314410 -14.668763 20.341668 1.236854 2.376212 0.030549 -0.017890 181438.000000 1 0 0
9.802338 11.123510 -15.581763 21.508362 0.848450 2.381035 0.067238 -0.018216 -42182.900000 1 0 0
17.064138 0.993410 -11.301463 20.491333 0.058151 2.154987 0.049186 -0.009575 102414.000000 1 0 0
15.290338 -2.898690 -12.007063 19.656205 -0.187353 2.227935 0.050570 -0.012050 80514.900000 1 0 0
-8.583662 -0.041290 -17.403563 19.405282 0.004810 2.683385 0.001923 -0.001487 326936.000000 1 0 0
-3.496462 4.357010 -19.139563 19.938196 -0.894538 2.857601 0.020821 -0.001457 147332.000000 1 0 0
4.424238 2.338810 -17.163363 17.878058 0.486293 2.857884 0.023184 0.003191 467341.000000 1 0 0
-5.198962 14.280210 -13.842663 20.556578 -1.221644 2.309586 0.018626 -0.004751 59526.200000 1 0 0
0.797738 9.852410 -17.574363 20.163447 1.490004 2.629243 0.022256 0.005434 223021.000000 1 0 0
1.099538 -5.420190 -19.900763 20.654971 -1.370653 2.870524 0.017384 -0.001676 453493.000000 1 0 0
3.526738 -6.147490 -18.002163 19.347025 -1.049949 2.766537 0.021090 -0.024758 124587.000000 1 0 0
-6.565462 7.684210 -15.994463 18.920233 -0.863748 2.578040 0.001883 0.009011 34975.100000 1 0 0
-11.858562 2.932910 -16.868563 20.827287 -0.242459 2.514822 0.042443 -0.012234 218593.000000 1 0 0
-4.582062 7.199610 -17.593363 19.553928 -1.004018 2.689959 0.007994 0.025977 348121.000000 1 0 0
-8.033062 5.053310 -17.899763 20.259998 -0.561516 2.654084 0.003637 0.003048 108393.000000 1 0 0
-8.788062 4.781710 -15.473663 18.426313 -0.498313 2.567636 -0.000175 0.003682 409510.000000 1 0 0
9.442738 13.057710 -12.522563 20.407932 0.944699 2.231424 0.057261 -0.041661 508661.000000 1 0 0
13.888838 10.153810 -11.803663 20.864471 0.631280 2.172115 0.042237 -0.023917 230404.000000 1 0 0
8.551438 15.302410 -9.898263 20.131231 1.061200 2.084822 0.034705 -0.022453 -56877.500000 1 0 0
8.115038 13.145310 -14.316063 21.061877 1.017729 2.318170 0.043541 -0.030977 152751.000000 1 0 0
3.672638 15.388710 -12.897563 20.411952 1.336521 2.254751 0.041170 -0.023695 190064.000000 1 0 0
10.768638 11.707410 -10.963963 19.319304 0.827142 2.174279 0.048790 -0.030166 159626.000000 1 0 0
15.883538 10.285410 -8.850263 20.890275 0.574652 2.008273 0.055526 -0.050943 346756.000000 1 0 0
12.503738 10.841610 -9.552563 19.108517 0.714321 2.094293 0.030198 -0.031276 -48797.800000 1 0 0
11.095738 11.441010 -7.614963 17.663515 0.800717 2.016522 0.034416 -0.018913 94831.900000 1 0 0
5.185038 17.026210 -10.351363 20.589491 1.275186 2.097573 0.031290 -0.004058 -119463.000000 1 0 0
11.516038 14.024810 -10.120863 20.778505 0.883310 2.079543 0.075995 -0.028929 -85594.100000 1 0 0
7.887238 -19.366890 -1.703863 20.980660 -1.184052 1.652097 0.039067 -0.006798 97145.100000 1 0 0
7.414738 -16.945490 -4.038163 18.932373 -1.158332 1.785742 0.032886 -0.010136 401446.000000 1 0 0
3.909138 -18.806090 5.154137 19.887572 -1.365849 1.308640 0.041208 -0.013708 99146.900000 1 0 0
10.368638 -17.698290 -2.294063 20.639788 -1.040842 1.682174 0.044334 -0.011334 537495.000000 1 0 0
-3.530762 -14.693390 7.748237 16.982261 1.334972 1.097015 0.021092 -0.030683 25154.600000 1 0 0
-14.945762 -12.982290 -4.561163 20.315508 0.715209 1.797243 0.007569 -0.002228 111221.000000 1 0 0
-9.855262 -12.584290 -6.830663 17.382419 0.906421 1.974649 0.018350 -0.015159 246286.000000 1 0 0
-11.457762 -15.383690 7.013737 20.423779 0.930632 1.220251 0.030783 -0.012549 97412.100000 1 0 0
-14.520362 -7.182390 -7.401463 17.810370 0.459353 1.999366 0.032285 -0.028233 -184957.000000 1 0 0
5.254838 -15.748590 5.629237 17.530537 -1.248742 1.243895 0.027672 -0.007221 117951.000000 1 0 0
2.946538 -14.125990 9.156437 17.089939 -1.365155 1.005366 0.017227 -0.001047 246029.000000 1 0 0
3.242638 -17.507890 10.141137 20.491061 -1.387661 1.053070 0.027542 0.002411 193222.000000 1 0 0
-7.450962 -17.344590 -5.371663 19.626676 1.165049 1.848026 -0.019478 -0.013189 -33789.100000 1 0 0
1.947038 -19.647690 -3.915463 20.128426 -1.472021 1.766569 0.019902 -0.014689 -45433.700000 1 0 0
-16.789962 -10.484490 -2.914563 20.008049 0.558204 1.716986 -0.081785 -0.010835 -69060.400000 1 0 0
-4.189562 -15.058890 2.952037 15.907141 1.299447 1.384135 0.004020 0.001405 138749.000000 1 0 0
-10.772562 -9.983290 -14.680863 20.766365 0.747390 2.355978 0.032183 -0.000934 265153.000000 1 0 0
0.228638 -20.142790 2.444937 20.291919 -1.559446 1.450015 0.023137 -0.019872 310445.000000 1 0 0
5.607338 -18.247690 -0.000163 19.089799 -1.272665 1.570805 0.023379 -0.014178 227827.000000 1 0 0
-7.468062 -18.625090 -3.502463 20.369909 1.189456 1.743598 0.008101 -0.026417 137216.000000 1 0 0
-9.117862 -15.719890 -7.601663 19.698620 1.045197 1.966978 0.021162 -0.008230 -52707.500000 1 0 0
-11.464762 -11.269590 -12.562763 20.402633 0.776813 2.234124 -0.000686 0.009132 313340.000000 1 0 0
-13.087862 -14.663190 -3.283763 19.926976 0.842104 1.736341 0.012109 -0.021981 -210874.000000 1 0 0
-0.459662 -20.360790 -2.446563 20.512404 1.548224 1.690353 0.018881 -0.018562 266702.000000 1 0 0
-11.859262 -16.860890 -0.694363 20.625563 0.957819 1.604468 0.024967 -0.004837 86132.200000 1 0 0
0.731638 -20.053790 5.134637 20.713626 -1.534329 1.320298 0.034015 -0.019310 86816.100000 1 0 0
-18.179062 -8.902090 2.591937 20.406951 0.455365 1.443440 0.033065 -0.002424 -104783.000000 1 0 0
-15.066162 -14.843690 -0.788863 21.164751 0.777960 1.608077 0.028758 -0.006832 56355.100000 1 0 0
10.307938 -15.538690 -5.159763 19.347549 -0.985078 1.840751 0.031605 -0.000050 -29621.600000 1 0 0
0.073238 -18.941690 -7.246063 20.280494 -1.566930 1.936163 0.015403 -0.003053 140595.000000 1 0 0
-9.973162 -16.550490 -2.407563 19.472520 1.028475 1.694753 0.022422 -0.015932 578793.000000 1 0 0
-14.457162 -6.791590 -11.557463 19.715734 0.439175 2.197163 0.037802 -0.013199 59706.900000 1 0 0
-12.672262 -14.929290 1.911037 19.675416 0.866988 1.473515 0.042616 -0.022897 382831.000000 1 0 0
-2.703362 -16.483590 10.071337 19.505095 1.408240 1.028220 0.011083 -0.011863 253369.000000 1 0 0
-12.198062 -15.201490 -6.782263 20.636790 0.894578 1.905669 0.012687 0.006870 65980.900000 1 0 0
5.232438 -17.050690 -7.289863 19.267759 -1.273044 1.958804 0.011941 -0.003931 -8527.520000 1 0 0
-17.682862 -7.242590 -2.877363 19.324025 0.388740 1.720253 0.007775 -0.008654 -52738.500000 1 0 0
-12.326962 -13.250290 -8.481663 19.986565 0.821482 2.009060 0.044884 -0.036920 293329.000000 1 0 0
-7.836062 -14.191790 10.197937 19.152250 1.066300 1.009284 0.028619 0.000206 614330.000000 1 0 0
-15.925762 -8.297990 -5.869763 18.892873 0.480339 1.886712 0.040372 0.001236 232139.000000 1 0 0
-0.623262 -19.516890 -0.200663 19.527870 1.538873 1.581072 0.016519 -0.015075 174636.000000 1 0 0
-14.988762 -11.348490 -1.641163 18.871795 0.648051 1.657870 0.010395 -0.002571 174376.000000 1 0 0
-7.011662 -18.937990 1.717237 20.267209 1.216203 1.485965 0.016101 -0.010534 331654.000000 1 0 0
-2.022162 -20.753590 -5.286063 21.511465 1.473666 1.819071 0.013882 -0.007340 167471.000000 1 0 0
-8.851062 -19.520490 -0.812463 21.448798 1.145099 1.608685 0.018751 -0.013973 270462.000000 1 0 0
-17.689362 -7.829290 5.057137 19.994648 0.416682 1.315094 0.027829 -0.005246 124393.000000 1 0 0
-2.948662 -15.758090 -10.800163 19.330172 1.385815 2.163639 0.017215 0.002431 90860.800000 1 0 0
-2.765162 -18.089290 -8.220263 20.060939 1.419109 1.992992 0.011764 -0.003707 5789.610000 1 0 0
4.201538 -18.194190 -5.918263 19.588449 -1.343847 1.877723 0.012720 0.034164 482396.000000 1 0 0
0.744438 -17.162690 -10.085363 19.920509 -1.527448 2.101662 0.029479 0.004361 12674.600000 1 0 0
-7.360562 -11.599690 -14.085963 19.676002 1.005360 2.368702 -0.006640 -0.024778 310836.000000 1 0 0
-5.200662 -19.464090 -2.162863 20.262667 1.309703 1.677741 0.015194 -0.013606 438788.000000 1 0 0
-9.267262 -16.275890 8.437837 20.542245 1.053191 1.147514 0.010807 -0.002426 182114.000000 1 0 0
-8.013462 -14.536290 -9.260763 19.007394 1.066976 2.079699 0.045305 -0.020744 321851.000000 1 0 0
-12.126862 -7.803690 -13.249363 19.583258 0.571795 2.313885 0.024136 0.001878 83769.900000 1 0 0
-15.694362 -13.108390 3.057837 20.675910 0.695856 1.422358 0.023638 -0.001476 197919.000000 1 0 0
-5.759162 -14.508490 -13.100163 20.378383 1.192921 2.269004 -0.029481 0.006876 293223.000000 1 0 0
-13.466562 -11.261290 -6.802863 18.826680 0.696452 1.940503 0.015298 -0.018727 303948.000000 1 0 0
-10.958162 -10.087090 -9.366563 17.594408 0.744031 2.132183 -0.005640 -0.005849 126050.000000 1 0 0
-10.097362 -15.115090 3.959437 18.603758 0.981849 1.356326 0.014934 0.003381 546128.000000 1 0 0
4.725138 -17.715490 8.253037 20.106669 -1.310141 1.147835 0.035217 -0.021471 228111.000000 1 0 0
-4.913962 -16.787790 5.222737 18.255243 1.286041 1.280647 0.004660 0.007663 313043.000000 1 0 0
-17.958662 -7.534890 -6.619963 20.569687 0.397261 1.898459 0.029639 -0.020991 149072.000000 1 0 0
-16.911062 -4.651690 -11.003563 20.705087 0.268429 2.131099 0.051175 -0.005006 -555043.000000 1 0 0
-15.930562 -4.086090 -12.945063 20.929730 0.251081 2.237630 0.056870 -0.018843 172777.000000 1 0 0
-19.353862 -4.737390 -6.002363 20.809690 0.240057 1.863394 0.043408 -0.008411 163695.000000 1 0 0
5.607738 -13.637390 8.568337 17.054077 -1.180670 1.044399 0.027431 -0.003137 142121.000000 1 0 0
19.727938 -3.257890 3.062737 20.228340 -0.163664 1.418804 0.044701 -0.011001 -124107.000000 1 0 0
17.684638 -2.278190 0.437437 17.836141 -0.128118 1.546269 0.012173 -0.015129 223292.000000 1 0 0
14.202738 -11.342090 0.392937 18.180076 -0.673877 1.549181 0.028682 -0.002185 148785.000000 1 0 0
11.043738 -13.786790 5.332837 18.452070 -0.895423 1.277604 0.020186 -0.007906 415167.000000 1 0 0
9.733838 -13.256290 8.928937 18.713705 -0.937432 1.073406 0.013424 -0.006238 37561.500000 1 0 0
17.602538 5.188210 -4.574963 18.912883 0.286626 1.815116 -0.002445 0.009946 -70445.900000 1 0 0
19.321838 -6.142390 -4.693563 20.810861 -0.307796 1.798288 0.076655 -0.013543 14982.200000 1 0 0
17.863438 -9.983990 -0.533263 20.471122 -0.509655 1.596849 0.053247 -0.008525 364856.000000 1 0 0
17.314838 -8.699890 9.283937 21.486814 -0.465608 1.124003 0.079880 -0.013931 -34553.000000 1 0 0
19.738438 0.371510 -2.458663 19.894446 0.018819 1.694698 0.034098 0.002255 -89572.500000 1 0 0
7.353538 -13.284490 11.633837 19.128470 -1.065237 0.917012 0.015045 -0.001825 390869.000000 1 0 0
16.269738 -6.447490 -3.394963 17.826954 -0.377302 1.762407 0.041407 -0.007183 175109.000000 1 0 0
14.405138 -6.876090 11.959437 19.945344 -0.445353 0.927782 0.017194 -0.026046 303704.000000 1 0 0
17.150338 1.289610 9.549837 19.672229 0.075053 1.063921 0.092137 -0.019060 245871.000000 1 0 0
16.643738 -10.245590 2.632937 19.721017 -0.551798 1.436887 0.028968 -0.011541 230545.000000 1 0 0
16.130338 -7.036390 -5.883663 18.555756 -0.411336 1.893446 0.042142 -0.004848 237216.000000 1 0 0
18.518338 -5.141990 5.648237 20.031762 -0.270847 1.284956 0.128693 -0.019295 -144663.000000 1 0 0
13.241038 -13.340890 8.022237 20.436749 -0.789155 1.167405 0.027618 -0.019208 274866.000000 1 0 0
15.453538 -14.009790 -1.514863 20.913653 -0.736436 1.643294 0.040853 -0.006609 137881.000000 1 0 0
18.550438 -6.437590 7.904737 21.167102 -0.334028 1.188077 0.093188 -0.022998 172194.000000 1 0 0
19.544338 3.815610 2.610337 20.083672 0.192803 1.440454 0.029835 0.003425 136299.000000 1 0 0
15.726638 -10.746290 8.098237 20.697617 -0.599442 1.168791 0.060235 -0.031623 368212.000000 1 0 0
14.213138 -4.517890 10.770037 18.396150 -0.307767 0.945361 0.020965 -0.012325 -6700.640000 1 0 0
18.677438 -7.858790 2.151337 20.377329 -0.398277 1.465024 0.062058 -0.014131 30166.100000 1 0 0
19.140838 -5.831990 -1.129963 20.041472 -0.295752 1.627207 0.048500 -0.013880 -18512.500000 1 0 0
14.884438 -13.572490 -6.077463 21.040308 -0.739328 1.863820 0.067929 -0.012368 598064.000000 1 0 0
13.858938 -9.724790 10.285637 19.809998 -0.611865 1.024865 0.015005 -0.011839 438304.000000 1 0 0
14.336638 2.248610 0.480137 14.519847 0.155576 1.537723 -0.000315 0.002572 -175916.000000 1 0 0
12.867838 2.405210 13.761637 18.993392 0.184784 0.760417 0.024356 -0.002832 -9866.720000 1 0 0
18.196538 -3.709590 8.838737 20.566923 -0.201107 1.126575 0.064806 -0.024662 132625.000000 1 0 0
7.323338 -18.417390 5.074437 20.459263 -1.192333 1.320154 0.034461 -0.019919 349983.000000 1 0 0
12.275038 -3.039290 15.505237 20.008154 -0.242718 0.684167 0.015385 0.015286 246445.000000 1 0 0
11.350238 -13.567690 -6.870063 18.976509 -0.874155 1.941241 0.025407 -0.012531 171571.000000 1 0 0
10.617338 -18.100990 4.734237 21.512478 -1.040317 1.348911 0.021660 -0.005668 514497.000000 1 0 0
18.594438 -0.140890 -4.700463 19.179868 -0.007577 1.818391 0.056355 -0.013750 361418.000000 1 0 0
4.544738 -13.835890 11.701737 18.682001 -1.253425 0.893916 0.017543 0.002530 211671.000000 1 0 0
8.984438 -2.765590 14.116937 16.960440 -0.298616 0.587471 0.013619 -0.012826 410089.000000 1 0 0
8.959938 -9.261690 13.965037 19.002149 -0.801957 0.745249 0.030562 -0.018619 414868.000000 1 0 0
21.073438 5.624710 -3.107163 22.031378 0.260829 1.712302 0.047966 0.010400 617447.000000 1 0 0
14.750938 -13.641190 2.130237 20.204211 -0.746332 1.465165 0.030448 -0.001910 336676.000000 1 0 0
10.873938 0.110910 14.234937 17.913354 0.010199 0.652357 0.025027 -0.025665 111780.000000 1 0 0
19.467938 0.220310 7.754537 20.956669 0.011316 1.191758 0.072189 -0.014151 116033.000000 1 0 0
19.904138 1.369110 0.451537 19.956279 0.068677 1.548168 0.049184 -0.000902 233139.000000 1 0 0
18.004238 -0.022690 3.134337 18.275042 -0.001260 1.398435 0.029617 -0.000680 72654.200000 1 0 0
10.467138 -8.551490 16.487337 21.319504 -0.685012 0.686695 0.052005 -0.007996 -12885.700000 1 0 0
18.800838 2.897210 5.730837 19.867255 0.152897 1.278182 0.019774 0.001904 207872.000000 1 0 0
15.376138 2.394610 7.229137 17.158677 0.154494 1.135906 0.027054 -0.005236 -124628.000000 1 0 0
11.246438 -16.085090 2.140837 19.743244 -0.960618 1.462149 0.006858 -0.000481 206703.000000 1 0 0
8.752938 -16.425490 6.945737 19.865898 -1.081186 1.213619 0.027475 -0.001210 433768.000000 1 0 0
6.229338 6.627210 7.159337 11.575002 0.816335 0.903942 0.003278 0.001531 -1161690.000000 1 0 0
18.547438 2.657810 -6.496363 19.831141 0.142329 1.904542 0.028215 -0.000664 147864.000000 1 0 0
14.278338 4.677310 -7.230463 16.674164 0.316564 2.019317 0.021365 -0.001931 243328.000000 1 0 0
-10.518462 -3.802990 -13.433363 17.480161 0.346930 2.447277 0.022306 -0.015005 -483495.000000 1 0 0
7.753538 -13.863790 -10.513163 19.048586 -1.060867 2.155453 -0.007488 0.001835 -173497.000000 1 0 0
2.338738 -15.463290 14.015037 21.000103 -1.420689 0.840112 0.018664 -0.007386 425540.000000 1 0 0
-9.315662 -8.275390 2.550437 12.718820 0.726331 1.368903 0.013161 -0.001543 416221.000000 1 0 0
-14.113162 3.122910 -9.730363 17.424519 -0.217767 2.163288 0.032683 -0.001964 231302.000000 1 0 0
-12.791462 -4.507690 -13.907563 19.425784 0.338810 2.368756 0.031304 0.001946 209073.000000 1 0 0
-17.876462 -1.244990 -9.097563 20.096854 0.069532 2.040572 0.046879 -0.012820 367457.000000 1 0 0
-12.320762 15.112910 3.802637 19.866083 -0.886827 1.378194 0.037586 -0.019394 467775.000000 1 0 0
-17.583862 6.288710 9.524537 20.963227 -0.343466 1.099160 0.036612 -0.011527 22318.900000 1 0 0
-13.100262 15.004910 0.356037 19.922122 -0.853063 1.552924 0.042482 -0.040136 111166.000000 1 0 0
-15.698162 5.671810 -10.882963 19.925878 -0.346710 2.148584 0.011994 0.003330 -2589.270000 1 0 0
-18.062862 2.859210 -0.058663 18.287851 -0.156990 1.574004 0.043205 -0.002756 -78370.500000 1 0 0
-9.796162 15.370610 -0.312863 18.229600 -1.003379 1.587960 0.033961 -0.016104 1489.700000 1 0 0
-18.730562 11.923310 2.388637 22.331701 -0.566876 1.463630 0.091492 -0.028808 -114099.000000 1 0 0
-8.443162 16.288310 -7.926163 19.985497 -1.092571 1.978602 0.050908 -0.031476 113143.000000 1 0 0
-14.819862 -2.411490 -13.872863 20.442601 0.161306 2.316685 0.026544 0.003187 119595.000000 1 0 0
-18.841262 5.535510 -4.951963 20.252332 -0.285756 1.817814 0.053513 -0.007768 -19923.000000 1 0 0
-16.798662 9.259810 -6.009463 20.101064 -0.503782 1.874402 0.044584 -0.001589 -46252.200000 1 0 0
-18.893962 1.493110 2.782637 19.156050 -0.078862 1.425019 0.041337 -0.015858 -552465.000000 1 0 0
-13.311962 11.891410 -6.908463 19.140032 -0.729094 1.940075 0.013433 -0.013921 -15850.700000 1 0 0
-13.571462 4.128210 -12.373163 18.823439 -0.295290 2.288063 0.050023 -0.025337 -180440.000000 1 0 0
-14.058362 9.243210 -6.429063 18.011311 -0.581621 1.935793 0.014063 -0.011098 147609.000000 1 0 0
-6.531762 12.038510 -15.068663 20.363061 -1.073674 2.403867 0.009131 -0.005256 -82084.400000 1 0 0
-15.357762 13.759210 2.729537 20.799689 -0.730552 1.439187 0.052901 -0.031228 -111308.000000 1 0 0
-18.705962 8.493810 -4.892863 21.118663 -0.426233 1.804605 0.062531 -0.017217 282933.000000 1 0 0
-3.475462 16.766510 -9.963463 19.810736 -1.366405 2.097785 0.003386 -0.012091 151051.000000 1 0 0
-19.562462 -1.901890 -6.924563 20.838826 0.096917 1.909528 0.046605 -0.002820 -193534.000000 1 0 0
-10.566162 13.794910 -6.211463 18.453335 -0.917167 1.914104 0.013228 -0.020292 12204.000000 1 0 0
-19.593662 2.912610 4.590337 20.333865 -0.147570 1.343085 0.069895 -0.013138 37986.200000 1 0 0
-15.122762 12.259710 0.706537 19.480698 -0.681219 1.534520 0.031403 -0.019526 30331.700000 1 0 0
-16.982562 2.245910 -8.600863 19.168369 -0.131485 2.036107 -0.004237 -0.005243 135550.000000 1 0 0
-16.932062 12.293610 -4.473863 21.397266 -0.627999 1.781436 0.057579 -0.021501 306179.000000 1 0 0
-10.620662 15.563310 -8.825963 20.806554 -0.971969 2.008865 0.034199 -0.020147 116604.000000 1 0 0
-19.307262 1.531910 -6.984363 20.588794 -0.079178 1.916896 0.057830 -0.012650 221152.000000 1 0 0
-17.330362 10.528910 -0.486963 20.283898 -0.545946 1.594806 0.054735 -0.011435 39336.100000 1 0 0
-11.646762 6.340710 -14.658963 19.767065 -0.498548 2.406227 0.014978 -0.012593 370195.000000 1 0 0
-14.594562 13.380710 -5.228763 20.478882 -0.742035 1.828980 0.058268 -0.008371 28146.000000 1 0 0
-18.403662 7.514310 -0.918763 19.899843 -0.387645 1.616982 0.024673 -0.009411 30396.200000 1 0 0
-14.602662 8.973410 -10.469463 20.084060 -0.551017 2.119149 0.015281 -0.001060 531401.000000 1 0 0
-18.587462 11.248810 4.856237 22.262356 -0.544222 1.350892 0.049717 -0.028251 136490.000000 1 0 0
-8.167262 12.104910 -13.059563 19.590436 -0.977248 2.300474 -0.006446 -0.007416 535560.000000 1 0 0
-21.282062 -1.640490 -4.808863 21.880186 0.076931 1.792387 0.057400 -0.018568 239800.000000 1 0 0
-10.805762 13.259610 -3.525863 17.464634 -0.887013 1.774079 0.027013 -0.012044 636090.000000 1 0 0
-18.451862 -5.178790 3.879637 19.553584 0.273625 1.371060 0.018463 -0.002762 -53963.000000 1 0 0
-11.485562 11.553810 -13.276463 21.016021 -0.788360 2.254580 0.010918 0.006255 91769.300000 1 0 0
-14.775662 11.344710 -10.320763 21.296497 -0.654794 2.076728 0.019720 -0.015103 178666.000000 1 0 0
-12.691962 9.684910 -14.046463 21.264677 -0.651816 2.292352 0.017674 -0.000229 262015.000000 1 0 0
-18.467762 -4.683890 -3.157663 19.312377 0.248388 1.735038 0.020863 -0.008857 -458029.000000 1 0 0
-9.699262 12.928610 -11.365863 19.758732 -0.927156 2.183685 0.028375 -0.008243 170724.000000 1 0 0
-15.534462 7.980310 -8.186763 19.288026 -0.474561 2.009148 0.008320 0.000865 13497.400000 1 0 0
-14.465862 8.859710 2.003837 17.081305 -0.549528 1.453214 0.022181 -0.010057 -49824.300000 1 0 0
-19.827762 6.068210 8.154137 22.281231 -0.296994 1.196127 0.066299 -0.018873 280446.000000 1 0 0
-18.718762 5.780710 3.578837 19.915239 -0.299528 1.390111 0.028013 -0.011599 258697.000000 1 0 0
-15.092962 12.715710 5.718937 20.547336 -0.700119 1.288742 0.046354 -0.021488 -34578.700000 1 0 0
18.071138 6.299310 5.464437 19.902447 0.335413 1.292663 0.020812 -0.005856 -257219.000000 1 0 0
18.535138 8.315010 0.459037 20.319977 0.421696 1.548204 0.028525 0.017880 -37422.400000 1 0 0
17.114838 4.240510 8.372737 19.519281 0.242877 1.127470 0.042661 -0.004287 11674.400000 1 0 0
11.740738 13.099010 10.897037 20.692376 0.840025 1.016176 0.023998 -0.006520 85335.600000 1 0 0
15.343038 12.554810 4.314737 20.289136 0.685785 1.356497 0.030581 0.003887 278615.000000 1 0 0
5.337538 10.331110 14.652037 18.705703 1.093920 0.670852 0.010462 0.001287 272713.000000 1 0 0
13.354238 13.587810 -4.687063 19.619705 0.794067 1.812025 0.059399 -0.010136 475409.000000 1 0 0
17.407738 9.256410 -2.973063 19.938645 0.488717 1.720465 -0.007986 0.000526 -82181.500000 1 0 0
14.605538 7.478210 9.565237 18.993134 0.473211 1.043018 0.038362 0.000926 68961.200000 1 0 0
4.797638 19.148610 -1.664863 19.810562 1.325302 1.654935 -0.000203 -0.004756 512610.000000 1 0 0
-3.056162 20.330910 3.481137 20.851962 -1.421592 1.403066 -0.037395 0.043275 159121.000000 1 0 0
6.577638 12.647510 12.712837 19.100813 1.091219 0.842545 0.008876 0.002154 -78334.700000 1 0 0
0.109838 17.186510 -10.081663 19.925564 1.564405 2.101298 0.004429 0.007016 -16000.000000 1 0 0
10.693538 9.250410 15.578637 21.038436 0.713165 0.737005 0.032262 -0.014075 130857.000000 1 0 0
-1.250062 12.249510 1.072037 12.359709 -1.469098 1.483951 0.002648 -0.000313 543951.000000 1 0 0
-4.868162 19.274310 -2.466763 20.032048 -1.323398 1.694251 0.012906 0.004980 -100853.000000 1 0 0
5.603538 18.415210 6.407537 20.287339 1.275410 1.249455 0.027934 -0.015552 138386.000000 1 0 0
11.233138 17.330410 -1.566563 20.711847 0.995705 1.646505 0.041499 -0.007239 287867.000000 1 0 0
18.469738 10.617910 3.054737 21.522143 0.521745 1.428381 0.016265 0.003587 184352.000000 1 0 0
11.858338 16.846310 6.158737 21.502288 0.957449 1.280306 0.040553 0.008872 88259.100000 1 0 0
18.161238 7.890710 -6.038863 20.701733 0.409874 1.866808 0.029071 0.018024 395543.000000 1 0 0
0.102938 15.399210 11.140137 19.006549 1.564112 0.944533 -0.002901 0.005030 285116.000000 1 0 0
1.182038 20.041310 -1.882063 20.164163 1.511884 1.664269 -0.009986 -0.010277 275286.000000 1 0 0
14.151038 9.797510 -1.453363 17.272966 0.605575 1.655037 0.007774 -0.000506 -155011.000000 1 0 0
10.341738 16.914410 1.813037 19.908187 1.022025 1.479600 0.042344 -0.019876 163584.000000 1 0 0
0.393338 17.864410 -0.169663 17.869545 1.548782 1.580291 -0.008747 0.000017 88876.600000 1 0 0
-0.045062 21.132310 0.941437 21.153318 -1.568664 1.526276 -0.002883 0.001035 279114.000000 1 0 0
5.990038 17.317710 -0.290163 18.326697 1.237787 1.586630 -0.003410 -0.019628 -21144.100000 1 0 0
6.555338 18.633110 -3.140363 20.000678 1.232509 1.728462 -0.015536 -0.003169 111563.000000 1 0 0
10.238538 9.397410 12.712937 18.835014 0.742588 0.829882 0.020645 -0.009271 100933.000000 1 0 0
12.451738 14.774510 8.322637 21.038018 0.870506 1.164075 0.029863 -0.006570 189162.000000 1 0 0
0.411038 17.602710 7.078137 18.976943 1.547450 1.188571 -0.003639 -0.003643 261181.000000 1 0 0
6.910138 17.946910 -7.925663 20.800426 1.203259 1.961710 0.020155 -0.005892 187900.000000 1 0 0
-0.830162 18.467510 9.175837 20.638170 -1.525874 1.110063 0.014309 -0.017751 27042.500000 1 0 0
16.115838 7.087310 -8.129063 19.391541 0.414317 2.003368 0.041716 0.002728 -306441.000000 1 0 0
-4.981962 20.044410 -6.460763 21.641159 -1.327186 1.873959 -0.004858 -0.005408 270590.000000 1 0 0
4.272438 15.885510 10.181337 19.345872 1.308062 1.016577 0.009507 0.007971 284486.000000 1 0 0
9.032438 14.865010 7.321737 18.872236 1.024785 1.172375 0.017810 -0.004683 56440.900000 1 0 0
-2.502162 18.869310 6.753437 20.197044 -1.438961 1.229852 0.000176 -0.010525 62202.600000 1 0 0
4.725638 18.008810 8.371637 20.414044 1.314175 1.148241 0.018015 -0.009381 198827.000000 1 0 0
13.999638 11.832810 -6.684863 19.511347 0.701714 1.920494 -0.014101 -0.022034 31772.900000 1 0 0
11.793238 6.518810 15.602737 20.616031 0.504958 0.712354 0.041259 -0.014119 249940.000000 1 0 0
17.267138 9.078010 4.974337 20.132271 0.484026 1.321128 0.032142 0.000313 98158.000000 1 0 0
5.053238 14.607210 11.978137 19.554579 1.237742 0.911515 0.000965 -0.022046 325519.000000 1 0 0
16.011638 11.623710 -4.175963 20.221816 0.627933 1.778801 0.043584 0.011146 188911.000000 1 0 0
15.326638 14.301810 7.124837 22.140707 0.750823 1.243168 0.041784 0.022826 383158.000000 1 0 0
12.514938 14.497110 -8.196463 20.831992 0.858648 1.975184 0.068998 -0.027425 166478.000000 1 0 0
-8.298562 15.602410 9.493337 20.060528 -1.081974 1.077837 0.033878 -0.007825 188650.000000 1 0 0
-5.231362 17.329110 -7.304563 19.519781 -1.277613 1.954345 0.008154 0.013747 56470.900000 1 0 0
2.564438 19.251710 -4.561263 19.950183 1.438370 1.801469 0.003304 -0.022975 135881.000000 1 0 0
7.174238 16.064110 9.079637 19.798109 1.150773 1.094364 0.022269 -0.014778 563389.000000 1 0 0
13.511938 15.504010 -1.614963 20.628982 0.853945 1.649163 0.067010 -0.013990 197200.000000 1 0 0
13.658938 15.026110 4.179237 20.732018 0.833024 1.367822 0.065309 -0.026389 375377.000000 1 0 0
2.672538 18.503510 0.605437 18.705317 1.427354 1.538424 -0.002118 -0.009788 22250.200000 1 0 0
-6.630262 18.156410 1.384237 19.378640 -1.220667 1.499304 -0.015520 0.025166 154871.000000 1 0 0
0.137938 20.087810 -5.904563 20.938075 1.563930 1.856676 0.010862 0.004383 256524.000000 1 0 0
-8.093262 17.808610 -6.417763 20.587257 -1.144241 1.887815 0.062145 -0.027737 140069.000000 1 0 0
-7.226562 18.386610 -1.283063 19.797395 -1.196310 1.635651 0.027187 -0.009612 115006.000000 1 0 0
-14.716862 -9.370690 8.682537 19.488004 0.566991 1.109027 0.034666 -0.007705 394080.000000 1 0 0
-13.426362 -13.644090 7.983537 20.740426 0.793441 1.175668 0.040506 -0.007973 10026.100000 1 0 0
-3.345062 -16.024290 12.865837 20.820593 1.365002 0.904679 0.010524 0.000307 31097.000000 1 0 0
-2.009762 -14.639590 15.803537 21.635816 1.434366 0.751839 0.018929 -0.005068 379806.000000 1 0 0
-6.372062 -14.458490 13.160037 20.563018 1.155691 0.876317 -0.023973 0.004735 73092.400000 1 0 0
-10.120762 -11.205990 11.638637 19.064677 0.836240 0.914128 0.040571 -0.009765 120356.000000 1 0 0
-7.538162 -10.573290 13.282437 18.575292 0.951436 0.774087 0.025419 -0.002923 379640.000000 1 0 0
-15.391262 -12.114490 7.823737 21.091768 0.666827 1.190778 0.034546 -0.001688 313342.000000 1 0 0
-4.654462 -12.508690 13.596437 19.052413 1.214572 0.776125 0.027121 -0.011212 369708.000000 1 0 0
3.590338 -12.543490 13.893037 19.059018 -1.292019 0.754012 0.009930 -0.001450 430922.000000 1 0 0
6.975138 -13.359390 14.683937 21.041480 -1.089614 0.798396 0.036725 -0.008572 287285.000000 1 0 0
7.062438 -9.004590 16.471437 20.056643 -0.905693 0.607205 0.025554 -0.017980 631532.000000 1 0 0
-5.228262 13.432810 13.620337 19.831507 -1.199621 0.813715 0.006402 0.003000 484617.000000 1 0 0
-13.659262 -1.859190 17.260937 22.090088 0.135281 0.673909 0.039934 -0.010380 289114.000000 1 0 0
-9.724362 9.182910 13.642937 19.105465 -0.756769 0.775479 -0.007671 -0.002846 377861.000000 1 0 0
-7.543962 -8.302490 16.949337 20.325421 0.833229 0.584662 0.019223 -0.011585 224486.000000 1 0 0
-5.093262 2.002310 18.105937 18.914955 -0.374569 0.293529 0.024822 -0.016009 566073.000000 1 0 0
-15.776862 -3.446790 14.605237 21.773899 0.215092 0.835552 0.060140 -0.006255 99877.600000 1 0 0
-14.387762 3.081010 12.357337 19.214684 -0.210955 0.872231 0.016213 -0.008019 133221.000000 1 0 0
-13.983762 10.813110 9.716837 20.171412 -0.658223 1.068188 -0.037042 0.016339 -213557.000000 1 0 0
-4.621462 11.231310 15.805837 19.933006 -1.180433 0.655164 0.027680 -0.002103 194841.000000 1 0 0
-13.039262 13.192310 7.582837 20.038932 -0.791233 1.182724 0.020935 -0.023835 171897.000000 1 0 0
-4.515262 -6.606490 18.506537 20.162471 0.971259 0.408115 0.031318 -0.011616 258632.000000 1 0 0
0.791738 -3.470490 17.079137 17.446148 -1.346501 0.205480 0.010668 -0.032042 324730.000000 1 0 0
-4.687062 6.172310 20.823137 22.218663 -0.921326 0.356307 0.037258 -0.020648 212104.000000 1 0 0
2.168438 -10.618790 16.474837 19.720068 -1.369358 0.581872 0.008111 -0.006388 427994.000000 1 0 0
-14.864462 -0.221390 13.674537 20.198866 0.014893 0.827124 0.012244 -0.005272 -33028.200000 1 0 0
-13.901562 -5.842590 7.553637 16.865548 0.397869 1.106410 0.022221 -0.006951 -13910.100000 1 0 0
10.100238 1.261210 16.461237 19.354012 0.124226 0.553797 0.034341 -0.000177 481854.000000 1 0 0
-7.844762 12.425810 11.864737 18.886848 -1.007659 0.891557 0.022224 -0.005126 282472.000000 1 0 0
-1.988962 7.535310 20.196737 21.648211 -1.312730 0.368269 0.048732 -0.018841 470011.000000 1 0 0
1.319838 -13.526890 15.533937 20.640299 -1.473533 0.718791 -0.001237 -0.006616 594870.000000 1 0 0
-3.596462 -11.571490 17.757637 21.498084 1.269458 0.598804 0.033637 -0.014441 378666.000000 1 0 0
-2.458562 8.969310 16.881637 19.273887 -1.303259 0.503537 0.034387 -0.007833 509063.000000 1 0 0
-6.106362 -9.565490 19.879137 22.890311 1.002637 0.518725 0.111764 -0.025074 165889.000000 1 0 0
-6.657762 -2.555190 19.073337 20.362882 0.366456 0.357794 0.023475 -0.015781 83963.100000 1 0 0
-10.889062 -8.067390 15.924637 20.910488 0.637633 0.705076 0.044874 -0.018704 48432.200000 1 0 0
-0.225062 6.469210 17.736537 18.880839 -1.536021 0.349939 0.028436 -0.014851 130812.000000 1 0 0
-6.383962 -11.344490 18.225137 22.396608 1.058227 0.620229 0.047041 -0.026922 427092.000000 1 0 0
-0.097762 3.411810 18.582737 18.893600 -1.542150 0.181652 0.012799 -0.013933 65588.000000 1 0 0
-18.313562 -0.454590 7.636337 19.847087 0.024818 1.175850 0.046209 -0.012432 138009.000000 1 0 0
-1.662362 -8.552590 17.277437 19.349937 1.378821 0.467065 0.011954 -0.013913 130031.000000 1 0 0
5.772738 3.322210 15.078437 16.483957 0.522210 0.415947 0.014649 -0.006758 337114.000000 1 0 0
-13.463262 -6.817190 10.179237 18.203032 0.468719 0.977369 0.005993 -0.004530 17165.600000 1 0 0
3.200138 8.014010 17.171437 19.217791 1.190878 0.465677 0.025883 -0.001729 150947.000000 1 0 0
6.297638 4.318810 17.435637 19.034542 0.601120 0.412803 0.037052 -0.032094 255115.000000 1 0 0
3.550838 -9.184290 17.744437 20.293464 -1.201877 0.506616 -0.023292 -0.019147 291264.000000 1 0 0
-4.614362 -0.919890 19.961037 20.508085 0.196774 0.231492 0.021886 -0.009113 745134.000000 1 0 0
-11.012262 1.438510 17.210937 20.483056 -0.129893 0.573048 0.031446 -0.010401 174498.000000 1 0 0
-16.621762 -4.246890 8.840637 19.299635 0.250150 1.094970 0.034712 -0.006134 98383.500000 1 0 0
-13.574262 -9.652590 12.121537 20.600115 0.618134 0.941692 0.048377 -0.019732 210950.000000 1 0 0
-14.740062 5.848710 13.006937 20.509930 -0.377736 0.883852 0.018274 -0.011109 55610.600000 1 0 0
1.137838 9.499910 17.393837 19.851663 1.451591 0.502896 0.025820 -0.008785 74912.700000 1 0 0
-3.804862 -10.728690 14.911537 18.759950 1.229991 0.652019 0.027062 -0.004446 295540.000000 1 0 0
-18.741662 -3.271090 6.745237 20.185345 0.172795 1.230077 0.116469 -0.012124 -199652.000000 1 0 0
-0.740262 -0.591490 20.901137 20.922605 0.674148 0.045304 0.023239 -0.016916 412413.000000 1 0 0
-2.030862 2.401210 20.175037 20.418676 -0.868765 0.154635 0.017569 -0.017480 91167.400000 1 0 0
-8.022962 2.496410 16.107637 18.167442 -0.301662 0.480809 0.006068 -0.000133 527389.000000 1 0 0
2.606938 -1.822990 18.869837 19.136096 -0.610245 0.167011 0.008619 -0.008968 195945.000000 1 0 0
-12.003762 4.243710 14.388437 19.212665 -0.339818 0.724390 -0.017311 -0.005803 11059.300000 1 0 0
-13.608962 -5.589990 13.110037 19.705961 0.389746 0.842924 0.033397 -0.004758 54578.100000 1 0 0
-17.428862 -0.867190 9.588937 19.911428 0.049715 1.068340 0.064506 -0.022077 286652.000000 1 0 0
-7.311962 7.769010 14.892937 18.319986 -0.815695 0.621624 0.004622 -0.002306 -122124.000000 1 0 0
-9.647362 0.679310 13.933337 16.960865 -0.070298 0.606761 0.016518 -0.008190 334135.000000 1 0 0
7.554238 -1.056490 15.352737 17.143197 -0.138953 0.461111 0.023242 -0.008577 168842.000000 1 0 0
4.376338 6.308410 18.421137 19.957121 0.964290 0.394898 0.034787 -0.005067 142689.000000 1 0 0
2.273438 0.497010 19.498137 19.636519 0.215230 0.118790 0.022962 -0.024554 256669.000000 1 0 0
-7.127462 6.825710 17.564437 20.146972 -0.763775 0.511900 0.004294 -0.006639 456761.000000 1 0 0
7.561038 -3.542790 16.691337 18.663370 -0.438180 0.463850 0.019394 -0.006597 384639.000000 1 0 0
-16.346662 2.555910 9.625537 19.141499 -0.155101 1.043889 0.032730 -0.007557 189929.000000 1 0 0
4.125738 -5.924390 19.017637 20.341844 -0.962491 0.362813 0.030357 -0.022494 133201.000000 1 0 0
-3.961162 -4.016190 20.507737 21.269412 0.792296 0.268427 0.030531 -0.016041 397320.000000 1 0 0
-9.745462 5.777410 14.422337 18.340019 -0.535131 0.665859 0.005042 -0.004924 35310.100000 1 0 0
6.335238 2.583910 19.785937 20.935499 0.387266 0.332926 0.047727 -0.020006 95181.600000 1 0 0
-7.809362 11.183610 14.672537 20.033537 -0.961221 0.748958 0.034846 -0.011299 280795.000000 1 0 0
-14.522362 4.930410 8.927837 17.745822 -0.327294 1.043620 0.014224 -0.010917 210597.000000 1 0 0
0.863238 -5.292790 20.528537 21.217437 -1.409123 0.255522 0.029433 -0.016195 199609.000000 1 0 0
-6.468562 -8.645290 13.598737 17.364014 0.928437 0.671071 0.030717 -0.000229 197780.000000 1 0 0
-12.786662 10.031310 6.413337 17.471600 -0.665226 1.194937 -0.002760 -0.019227 92723.100000 1 0 0
-19.870962 2.505810 7.601437 21.422326 -0.125442 1.208056 0.061807 -0.019525 -119002.000000 1 0 0
-16.334062 9.184110 6.160037 19.725504 -0.512213 1.253196 0.031139 -0.009680 73937.800000 1 0 0
-13.065662 7.352810 14.255037 20.687712 -0.512586 0.810608 0.016941 -0.006900 260779.000000 1 0 0
-16.565762 9.142510 10.895337 21.833880 -0.504295 1.048340 0.022499 -0.001425 561049.000000 1 0 0
2.689438 10.404410 14.754837 18.253494 1.317843 0.629487 0.017692 -0.039207 540807.000000 1 0 0
1.709338 14.879710 12.972437 19.814432 1.456421 0.857015 0.003408 -0.008377 501556.000000 1 0 0
9.135038 4.630110 16.648937 19.546712 0.469114 0.551478 0.040874 -0.006153 114851.000000 1 0 0
-0.504762 13.323410 13.489737 18.966841 -1.532929 0.779554 0.006552 0.011589 213330.000000 1 0 0
3.996438 13.166410 14.943837 20.313644 1.276102 0.744163 0.020726 0.009554 135349.000000 1 0 0
-3.542462 -4.511090 -13.814763 14.958163 0.905097 2.748060 -0.003173 -0.004017 137887.000000 1 0 0
5.732138 -12.265890 16.822737 21.594304 -1.133630 0.677670 -0.009856 0.008797 74920.100000 1 0 0
8.738338 -13.882090 7.161337 17.898484 -1.008990 1.159161 0.010887 -0.006493 277574.000000 1 0 0
-0.311362 15.336910 0.376137 15.344681 -1.550498 1.546281 -0.003682 -0.006027 -222812.000000 1 0 0
-14.427662 7.828610 8.510337 18.489738 -0.497153 1.092493 0.017000 -0.001792 81588.600000 1 0 0
-15.647162 -10.403690 4.433737 19.306177 0.586774 1.339074 -0.000409 -0.006580 10011.800000 1 0 0
9.363738 -10.344790 11.636737 18.168872 -0.835135 0.875678 0.029649 -0.006705 65837.800000 1 0 0
-26.200382 5.714310 30.946241 40.948543 -0.214738 0.714021 0.056371 -0.025324 -356638.000000 0 0 1
-24.955462 5.209110 30.522881 39.768784 -0.205782 0.695851 0.052930 -0.025564 -352624.000000 0 0 1
-24.045562 5.525210 31.554511 40.055014 -0.225860 0.663601 0.053066 -0.022627 -484714.000000 0 0 1
-22.659762 4.934610 31.293241 38.949738 -0.214422 0.637769 0.057394 -0.027462 -788812.000000 0 0 1
-22.338962 3.705610 31.903671 39.122947 -0.164384 0.617252 0.051259 -0.023638 -374227.000000 0 0 1
-21.235962 3.126010 31.280711 37.937065 -0.146154 0.601404 0.060893 -0.025856 -492070.000000 0 0 1
-20.658662 1.841110 31.910191 38.058249 -0.088886 0.576351 0.047473 -0.031343 156755.000000 0 0 1
-21.573962 0.761810 31.846991 38.473979 -0.035297 0.595703 0.053662 -0.033633 291671.000000 0 0 1
-21.345062 -0.150790 32.869744 39.192531 0.007064 0.575953 0.045211 -0.026112 -339974.000000 0 0 1
-21.892762 -1.563990 32.664822 39.353903 0.071318 0.591639 0.049997 -0.025458 -112026.000000 0 0 1
-21.107962 -2.468290 31.856411 38.294509 0.116408 0.588311 0.068305 -0.025687 353652.000000 0 0 1
-21.472862 -3.837490 32.077091 38.791106 0.176847 0.597191 0.068499 -0.026945 620936.000000 0 0 1
-22.933062 -4.339290 31.720051 39.381676 0.187005 0.634359 0.051682 -0.018468 1228540.000000 0 0 1
-23.991262 -3.937290 32.577229 40.649216 0.162664 0.641125 0.043335 -0.014279 246090.000000 0 0 1
-24.023962 -4.703190 33.765019 41.705482 0.193326 0.627315 0.035589 -0.017910 -236197.000000 0 0 1
-25.174132 -4.167690 -33.733083 42.296896 0.164066 2.493988 0.039898 -0.014888 222387.000000 0 0 1
-25.257042 -4.701090 -32.413983 41.360424 0.184024 2.471390 0.037974 -0.020241 93816.200000 0 0 1
-26.232952 -4.204490 -31.524513 41.226695 0.158924 2.441314 0.034826 -0.014263 -377882.000000 0 0 1
-26.137532 -4.923490 -30.185823 40.231769 0.186187 2.419309 0.020599 -0.013569 -1102280.000000 0 0 1
-26.609262 -6.230390 -30.106623 40.660538 0.230000 2.404519 0.018974 -0.010526 512055.000000 0 0 1
-26.252202 -6.896790 -28.908553 39.654108 0.256907 2.387682 0.007030 -0.009454 -197257.000000 0 0 1
-26.595722 -8.381690 -29.094153 40.299564 0.305299 2.377408 0.009838 -0.001004 -453659.000000 0 0 1
-27.949152 -8.655590 -28.856683 41.094799 0.300323 2.349276 0.030495 -0.003582 -345658.000000 0 0 1
-28.109342 -10.079190 -28.592713 41.343299 0.344290 2.334488 0.029781 -0.005364 -33395.600000 0 0 1
-29.507982 -10.466090 -28.081643 42.057564 0.340844 2.301905 0.055917 -0.002195 34030.400000 0 0 1
-29.612592 -11.615090 -27.268313 41.897217 0.373794 2.279484 0.069185 -0.000262 -170767.000000 0 0 1
-30.952502 -11.580290 -26.824493 42.564233 0.358009 2.252623 0.067300 -0.000679 -142544.000000 0 0 1
-31.144112 -12.325290 -25.461963 42.073508 0.376837 2.220786 0.084353 -0.000977 -177649.000000 0 0 1
-30.634782 -11.727190 -24.301463 40.823743 0.365597 2.208408 0.091244 -0.004957 101494.000000 0 0 1
-30.831492 -12.383190 -23.032163 40.427773 0.381920 2.176951 0.102526 -0.009298 -325015.000000 0 0 1
-30.312602 -11.550590 -21.797963 39.082236 0.364063 2.162464 0.111371 -0.019210 50018.800000 0 0 1
-30.145842 -12.253490 -20.563363 38.493788 0.386075 2.134357 0.114247 -0.021379 34755.700000 0 0 1
-29.079642 -13.170090 -20.594663 37.989696 0.425261 2.143745 0.100652 -0.024849 -670330.000000 0 0 1
-28.431632 -13.362990 -19.237463 36.837578 0.439364 2.120253 0.115910 -0.036562 -510049.000000 0 0 1
-27.814252 -12.303890 -18.696863 35.701415 0.416482 2.121986 0.116650 -0.035434 -376062.000000 0 0 1
-27.577232 -12.587190 -17.339063 34.922545 0.428192 2.090359 0.102825 -0.030718 148569.000000 0 0 1
-27.078702 -11.387590 -16.428563 33.657555 0.398084 2.080718 0.104769 -0.034156 208737.000000 0 0 1
-25.882422 -10.657090 -16.698563 32.593179 0.390595 2.108696 0.097287 -0.035969 508061.000000 0 0 1
-25.835622 -9.328190 -16.159963 31.869090 0.346493 2.102582 0.087020 -0.028402 3164.800000 0 0 1
-24.385862 -8.766790 -16.128663 30.523117 0.345116 2.127521 0.089981 -0.026879 748807.000000 0 0 1
-23.496762 -9.395390 -15.180863 29.509825 0.380385 2.111144 0.079785 -0.029570 938273.000000 0 0 1
-22.214962 -8.758890 -15.265763 28.341951 0.375565 2.139604 0.098402 -0.049104 549145.000000 0 0 1
-21.210562 -9.189390 -14.162963 27.109451 0.408834 2.120502 0.097630 -0.024549 -30214.400000 0 0 1
-20.612462 -10.478690 -14.392263 27.236258 0.470319 2.127538 0.096299 -0.017288 282186.000000 0 0 1
-19.561362 -10.640690 -13.465663 26.022975 0.498198 2.114668 0.105584 -0.013903 659309.000000 0 0 1
-18.551862 -11.807590 -13.882563 26.006082 0.566801 2.133908 0.100833 -0.007333 1237130.000000 0 0 1
-17.628462 -11.658590 -15.000063 25.916930 0.584313 2.188022 0.095807 -0.015098 957836.000000 0 0 1
-18.234962 -11.662590 -16.276363 27.082279 0.569010 2.215544 0.087596 -0.018095 -257031.000000 0 0 1
-17.436662 -10.859390 -17.353963 26.890957 0.557009 2.272272 0.081525 -0.027498 -14840.400000 0 0 1
-17.816762 -11.044090 -18.725463 28.107862 0.554902 2.299898 0.052466 -0.013645 351628.000000 0 0 1
-17.158062 -10.128690 -19.578363 27.933882 0.533269 2.347430 0.048830 -0.020441 -289811.000000 0 0 1
-17.648762 -10.272090 -20.980163 29.277327 0.527101 2.369713 0.041336 -0.007056 402605.000000 0 0 1
-18.975762 -9.829490 -21.246663 30.135015 0.477946 2.353289 0.051907 -0.018249 739583.000000 0 0 1
-19.716862 -10.693690 -22.115163 31.499049 0.496961 2.349124 0.046081 -0.000275 618356.000000 0 0 1
-21.123862 -10.158090 -22.507363 32.495934 0.448237 2.335913 0.057852 -0.009423 334267.000000 0 0 1
-21.094662 -9.054290 -23.346363 32.741680 0.405441 2.364631 0.051395 -0.017525 128991.000000 0 0 1
-22.281062 -8.851690 -24.085263 33.983791 0.378154 2.358490 0.054963 -0.024108 -29414.100000 0 0 1
-21.992862 -7.925990 -25.311403 34.455397 0.345900 2.395893 0.041660 -0.032362 -45899.600000 0 0 1
-21.107862 -8.546090 -26.216343 34.725698 0.384704 2.426382 0.050759 -0.029357 137620.000000 0 0 1
-20.761362 -7.703090 -27.322473 35.169437 0.355286 2.460494 0.040059 -0.040845 -356922.000000 0 0 1
-19.532662 -8.244390 -28.056793 35.166440 0.399397 2.494481 0.069737 -0.045958 -313577.000000 0 0 1
-19.762962 -9.299690 -28.970763 36.281731 0.439821 2.495587 0.068046 -0.036303 879504.000000 0 0 1
-18.503462 -9.882190 -29.346543 36.072917 0.490533 2.521000 0.031535 -0.027982 501506.000000 0 0 1
-18.631862 -10.987790 -30.363463 37.280259 0.532835 2.522603 0.030699 -0.019791 -393066.000000 0 0 1
-19.136462 -10.512490 -31.579403 38.392386 0.502339 2.536665 0.037297 -0.019055 330123.000000 0 0 1
-19.332862 -11.620090 -32.364393 39.449208 0.541194 2.532918 0.017445 -0.007988 139816.000000 0 0 1
-19.992062 -11.381190 -33.772573 40.863195 0.517529 2.543621 0.026965 -0.009720 113662.000000 0 0 1
-19.115162 -10.685290 33.787434 40.263576 0.509723 0.575066 0.032642 -0.012717 307290.000000 0 0 1
-19.549862 -10.852890 32.397496 39.364706 0.506780 0.604109 0.044716 -0.021630 -125227.000000 0 0 1
-19.082762 -12.036790 31.584221 38.814935 0.562736 0.620285 0.043446 -0.022696 1043590.000000 0 0 1
-17.668062 -12.101290 31.241371 37.876443 0.600536 0.600907 0.050578 -0.023810 1607180.000000 0 0 1
-17.365162 -13.035090 30.163351 37.165712 0.643914 0.623926 0.059617 -0.027966 -71978.600000 0 0 1
-17.400962 -14.552790 30.508521 38.017720 0.696499 0.639354 0.047833 -0.019547 -1424970.000000 0 0 1
-18.672862 -15.091790 30.408671 38.744357 0.679733 0.668336 0.029536 -0.023362 -654100.000000 0 0 1
-18.754062 -16.413790 30.968541 39.751451 0.718950 0.677640 0.032131 -0.026942 -405279.000000 0 0 1
-18.964862 -16.492690 32.478364 41.067249 0.715789 0.658587 0.003930 -0.022788 182427.000000 0 0 1
-17.747262 -16.179890 33.184646 40.963092 0.739233 0.626455 0.015704 -0.016377 619369.000000 0 0 1
-17.916962 -15.950290 -33.861783 41.497586 0.727393 2.525243 0.006923 -0.012147 -402952.000000 0 0 1
-16.712462 -15.401590 -33.100823 40.151959 0.744602 2.539918 -0.004616 -0.007921 -330917.000000 0 0 1
-16.576462 -14.030190 -33.361493 39.807217 0.702396 2.564544 0.011171 -0.008194 -320218.000000 0 0 1
-15.473662 -13.363990 -32.799783 38.650436 0.712371 2.584180 0.020645 -0.003979 -288179.000000 0 0 1
-15.512362 -12.991190 -31.328453 37.294455 0.697177 2.568134 0.022262 -0.001472 -293787.000000 0 0 1
-15.559562 -14.082790 -30.463253 36.992360 0.735620 2.538352 0.006372 -0.001080 -168909.000000 0 0 1
-16.048762 -13.677890 -29.205153 36.022054 0.705811 2.516241 0.004399 0.002329 -462775.000000 0 0 1
-16.386962 -14.849090 -28.258703 35.882897 0.736204 2.477580 -0.001403 0.006391 -347310.000000 0 0 1
-15.365162 -15.664890 -27.767283 35.390662 0.795057 2.472837 0.032442 -0.014862 -45763.000000 0 0 1
-14.569162 -16.299190 -28.822853 36.175695 0.841385 2.492688 0.035707 -0.016504 71205.500000 0 0 1
-13.222362 -16.907390 -28.396873 35.595970 0.907099 2.494360 0.065033 -0.011583 692899.000000 0 0 1
-12.099762 -15.989990 -28.411703 34.775119 0.923016 2.527007 0.047573 -0.013259 553675.000000 0 0 1
-11.032962 -16.562490 -27.671853 34.084803 0.983157 2.518115 0.065568 -0.023200 478656.000000 0 0 1
-9.642862 -15.898990 -27.789453 33.436752 1.025605 2.551888 0.057823 -0.023826 308873.000000 0 0 1
-9.517862 -14.688490 -27.095173 32.256625 0.995842 2.568057 0.058798 -0.017599 -692949.000000 0 0 1
-8.217162 -14.188590 -27.099463 31.673628 1.045857 2.597475 0.069505 -0.025970 -459729.000000 0 0 1
-8.125762 -12.694090 -27.537373 31.392274 1.001397 2.640800 0.065181 -0.033077 -228736.000000 0 0 1
-8.251262 -12.516290 -28.928323 32.582031 0.987952 2.663472 0.086022 -0.030626 169319.000000 0 0 1
-8.083662 -11.158590 -29.313513 32.390458 0.943859 2.702187 0.071307 -0.031760 -140892.000000 0 0 1
-6.960362 -10.974390 -30.338583 33.004750 1.005582 2.736888 0.056421 -0.019731 -8208.350000 0 0 1
-5.632762 -11.203990 -29.817783 32.347451 1.104954 2.743487 0.060514 -0.022139 1932630.000000 0 0 1
-4.580162 -10.913890 -30.804583 33.000200 1.173454 2.774756 0.054269 -0.018515 1015160.000000 0 0 1
-4.482162 -9.446490 -31.249733 32.952568 1.127773 2.818710 0.033633 -0.011427 -1909370.000000 0 0 1
-3.229762 -9.028790 -31.645693 33.066604 1.227262 2.847373 0.034547 -0.018166 -799655.000000 0 0 1
-3.369762 -7.665990 -32.053023 33.128824 1.156647 2.886052 0.029486 -0.018297 -142337.000000 0 0 1
-2.138762 -6.915790 -32.576393 33.371003 1.270868 2.922931 0.036453 -0.024046 -184370.000000 0 0 1
-1.719862 -7.313190 -33.879813 34.702772 1.339821 2.923378 0.035954 -0.027188 -183536.000000 0 0 1
-0.524262 -6.660290 34.179475 34.826295 1.492244 0.193031 0.035847 -0.010410 134043.000000 0 0 1
0.271738 -7.248390 33.000705 33.788453 -1.533324 0.216357 0.020084 -0.006590 60328.500000 0 0 1
-0.353162 -6.971290 31.751901 32.510104 1.520180 0.216394 0.017279 0.000362 203073.000000 0 0 1
0.322038 -7.593290 30.669331 31.596988 -1.528411 0.242915 0.010042 -0.001481 -45260.100000 0 0 1
-0.120162 -7.085290 29.272581 30.118097 1.553839 0.237511 0.008207 0.002004 -95376.700000 0 0 1
0.405638 -5.846390 28.863411 29.452357 -1.501525 0.200318 0.013760 -0.008907 -59917.500000 0 0 1
0.360238 -5.640190 27.430421 28.006598 -1.507013 0.203194 0.024907 -0.007021 -965516.000000 0 0 1
-0.643362 -4.648290 26.957001 27.362391 1.433262 0.172350 0.035853 -0.004374 -973166.000000 0 0 1
-1.932962 -5.060790 27.289251 27.821775 1.205948 0.195969 0.040375 0.002240 -488999.000000 0 0 1
-2.931362 -4.198990 26.727441 27.213609 0.961339 0.189306 0.035789 -0.007114 218023.000000 0 0 1
-4.381662 -4.573790 27.035331 27.767385 0.806849 0.230132 0.036385 -0.005148 -110729.000000 0 0 1
-4.744362 -5.880690 26.544281 27.598738 0.891941 0.277318 0.026065 0.004705 -338725.000000 0 0 1
-6.089462 -6.245890 26.739361 28.126253 0.798079 0.315342 0.017844 -0.000347 256096.000000 0 0 1
-6.346162 -7.755990 26.631801 28.454911 0.885040 0.359906 0.028632 -0.003706 13805.200000 0 0 1
-5.907662 -8.385590 27.759961 29.594493 0.957056 0.353950 0.023630 -0.009734 -288098.000000 0 0 1
-5.799562 -9.763790 27.655721 29.896579 1.034810 0.389639 0.018280 -0.009832 107847.000000 0 0 1
-5.044662 -10.380290 28.876581 31.097524 1.118424 0.380224 0.020834 -0.011969 39710.800000 0 0 1
-5.147362 -11.775490 28.831451 31.565964 1.158701 0.419307 0.040561 -0.019864 211304.000000 0 0 1
-4.811462 -12.323090 30.111861 32.889708 1.198556 0.413947 0.044180 -0.022901 -87398.200000 0 0 1
-4.645962 -13.846290 30.250311 33.591458 1.247063 0.449796 0.064653 -0.032759 102454.000000 0 0 1
-5.904562 -14.469890 30.075281 33.893423 1.183362 0.479234 0.087922 -0.035268 -108022.000000 0 0 1
-5.861062 -15.879590 30.129541 34.558685 1.217214 0.511856 0.072780 -0.034213 56627.300000 0 0 1
-6.196262 -16.525390 31.493481 36.101545 1.212066 0.510791 0.107465 -0.038739 638105.000000 0 0 1
-7.575762 -16.603090 31.853961 36.711437 1.142727 0.520270 0.101680 -0.037578 217431.000000 0 0 1
-7.646662 -17.076490 33.169219 38.082477 1.149783 0.513595 0.101812 -0.034175 13685.600000 0 0 1
-9.081562 -17.178490 33.764524 38.956622 1.084485 0.522206 0.099471 -0.027380 506514.000000 0 0 1
-9.902962 -18.192390 33.231704 39.158369 1.072304 0.557371 0.098711 -0.030366 421979.000000 0 0 1
-10.484162 -17.957890 31.901601 38.080384 1.042359 0.577658 0.098779 -0.038799 -92059.300000 0 0 1
-11.185362 -19.245990 31.301271 38.409504 1.044331 0.618178 0.084978 -0.033662 -321539.000000 0 0 1
-12.349962 -19.592090 31.992291 39.495294 1.008356 0.626597 0.076905 -0.034570 -177603.000000 0 0 1
-12.639962 -20.974490 31.940491 40.247892 1.028442 0.654103 0.054042 -0.026367 49072.900000 0 0 1
-11.888862 -21.800690 33.032418 41.325002 1.071535 0.644613 0.056635 -0.021228 1077480.000000 0 0 1
-10.484062 -22.070790 32.849686 40.940655 1.127332 0.639535 0.061893 -0.024198 1148010.000000 0 0 1
-9.842062 -22.736790 33.977864 42.051434 1.162279 0.630034 0.063965 -0.032893 478705.000000 0 0 1
-10.306562 -24.175990 -34.035423 43.001322 1.167813 2.484051 0.065024 -0.017791 -128822.000000 0 0 1
-9.783862 -25.106900 33.469477 42.968434 1.199211 0.677836 0.069690 -0.021022 -51388.200000 0 0 1
-10.275662 -26.384040 33.689879 44.008122 1.199405 0.698920 0.083382 -0.026171 -715063.000000 0 0 1
-9.815762 -27.291390 32.540009 43.589234 1.225537 0.727988 0.067130 -0.018616 -172767.000000 0 0 1
-8.435362 -27.450210 32.396974 43.292416 1.272659 0.725257 0.088518 -0.025456 -460361.000000 0 0 1
-7.731162 -28.203780 33.366609 44.368398 1.303250 0.719651 0.069797 -0.024806 -814723.000000 0 0 1
-6.227362 -27.930090 33.379722 43.966758 1.351422 0.708708 0.071251 -0.031164 -239906.000000 0 0 1
-5.802662 -26.797570 34.074582 43.736230 1.357552 0.677579 0.069077 -0.022460 -220101.000000 0 0 1
-5.768862 -25.600320 33.299193 42.396844 1.349155 0.667427 0.076918 -0.023566 -63504.900000 0 0 1
-5.238062 -24.359690 34.065227 42.205112 1.358992 0.631513 0.088094 -0.024926 -847986.000000 0 0 1
-3.897862 -24.511490 -34.062543 42.145739 1.413095 2.511900 0.096940 -0.032578 -906151.000000 0 0 1
-3.269262 -23.248590 -33.864593 41.206743 1.431090 2.535397 0.084416 -0.035235 59500.600000 0 0 1
34.523021 -15.262690 2.078937 37.803580 -0.416266 1.515775 0.105167 -0.037313 -695283.000000 0 0 1
35.383671 -15.559890 3.122537 38.779693 -0.414296 1.490189 0.098785 -0.038870 -135070.000000 0 0 1
34.752551 -16.230090 4.208037 38.585790 -0.436916 1.461522 0.093521 -0.041422 237801.000000 0 0 1
35.633681 -16.330290 5.531837 39.585841 -0.429720 1.430595 0.084569 -0.024283 199262.000000 0 0 1
-36.125802 -17.273390 5.376437 40.402347 0.446012 1.437328 0.083602 -0.025165 -224729.000000 0 0 1
-35.401150 -17.327790 6.574837 39.959007 0.455188 1.405505 0.071214 -0.014674 -185786.000000 0 0 1
-34.230668 -18.324090 6.538637 39.373401 0.491497 1.403956 0.062062 -0.017584 -205325.000000 0 0 1
-34.536805 -19.703790 6.680037 40.319389 0.518458 1.404351 0.057448 -0.018024 75470.700000 0 0 1
-33.323342 -20.387390 6.937437 39.676427 0.549055 1.395043 0.042586 -0.011628 135287.000000 0 0 1
-33.471952 -21.904790 7.143437 40.635208 0.579478 1.394084 0.053803 -0.014266 -369425.000000 0 0 1
-33.413902 -22.675790 5.938437 40.815994 0.596242 1.424785 0.057514 -0.011344 448466.000000 0 0 1
-33.903542 -24.026490 6.132337 42.003904 0.616522 1.424278 0.054014 -0.013769 -122638.000000 0 0 1
-33.335052 -24.933090 5.048237 41.932915 0.642190 1.450115 0.051319 -0.005474 209950.000000 0 0 1
-33.959792 -24.778990 3.784637 42.208877 0.630354 1.481011 0.053857 -0.000771 335296.000000 0 0 1
-33.108932 -25.352340 2.805837 41.794919 0.653489 1.503612 0.057043 0.002434 174009.000000 0 0 1
-33.549692 -25.111260 1.341037 41.927981 0.642527 1.538807 0.049483 0.004685 -990616.000000 0 0 1
-34.651428 -25.767950 0.827437 43.190200 0.639414 1.551637 0.045699 0.004095 -612164.000000 0 0 1
-35.139482 -25.161650 -0.315863 43.220268 0.621417 1.578105 0.043149 0.001507 5335.030000 0 0 1
-36.168722 -24.007890 -0.091363 43.411561 0.585998 1.572901 0.053591 -0.009781 563861.000000 0 0 1
35.286641 -24.520990 0.156637 42.970345 -0.607301 1.567151 0.036208 0.002652 1006180.000000 0 0 1
34.564951 -23.514290 0.866137 41.813968 -0.597377 1.550081 0.053349 -0.003171 -116700.000000 0 0 1
33.038111 -23.590090 0.775337 40.603082 -0.620078 1.551700 0.041570 -0.003951 -176965.000000 0 0 1
32.552101 -23.382490 -0.515963 40.082993 -0.622909 1.583669 0.042587 -0.011398 -1081010.000000 0 0 1
31.166961 -23.438990 -0.544163 39.000793 -0.644809 1.584749 0.039222 -0.011673 -716087.000000 0 0 1
30.767021 -23.309990 -2.004263 38.652067 -0.648366 1.622674 0.039622 -0.013827 -96985.300000 0 0 1
31.005621 -21.987890 -2.532063 38.094976 -0.616846 1.637312 0.049958 -0.021474 179711.000000 0 0 1
30.948591 -21.921490 -3.940363 38.129955 -0.616288 1.674321 0.057837 -0.032752 -258276.000000 0 0 1
30.987511 -20.515090 -4.487563 37.433047 -0.584795 1.690968 0.064503 -0.031392 389784.000000 0 0 1
29.844161 -19.701590 -4.206663 36.007258 -0.583477 1.687892 0.063592 -0.024874 422099.000000 0 0 1
29.934491 -18.360890 -4.663763 35.425227 -0.550192 1.702831 0.065202 -0.029388 451146.000000 0 0 1
29.010521 -17.463890 -3.705863 34.063635 -0.541878 1.679804 0.081638 -0.027814 379447.000000 0 0 1
29.518451 -17.183290 -2.394263 34.239406 -0.527169 1.640781 0.081553 -0.028221 -94589.800000 0 0 1
29.963611 -18.246790 -1.524663 35.115352 -0.546985 1.614229 0.060900 -0.007117 -316726.000000 0 0 1
29.065881 -19.468290 -1.147563 35.002238 -0.590168 1.603588 0.049822 -0.007718 10397.900000 0 0 1
28.011451 -19.110490 -0.253863 33.910421 -0.598706 1.578283 0.053247 0.000319 14027.900000 0 0 1
27.417401 -20.286990 0.145937 34.107142 -0.637026 1.566518 0.049214 -0.000289 -352930.000000 0 0 1
26.187001 -20.066690 1.077437 33.008968 -0.653842 1.538150 0.047146 0.003862 -416048.000000 0 0 1
25.731301 -21.289590 1.702537 33.440173 -0.691215 1.519861 0.033017 0.005612 751320.000000 0 0 1
24.764101 -21.020790 2.751937 32.599195 -0.703821 1.486278 0.033656 0.003433 1573760.000000 0 0 1
23.286901 -20.593890 2.371437 31.177104 -0.724104 1.494659 0.027428 0.005180 543359.000000 0 0 1
23.073101 -19.301690 1.904937 30.142197 -0.696631 1.507556 0.049251 -0.009608 166523.000000 0 0 1
23.087901 -18.372390 2.925137 29.650503 -0.672149 1.471982 0.060975 -0.013542 -370787.000000 0 0 1
22.962401 -16.920890 2.432237 28.626983 -0.635061 1.485731 0.068870 -0.008094 139742.000000 0 0 1
21.710501 -16.728290 1.804437 27.467027 -0.656503 1.505054 0.054942 -0.010303 -3394.690000 0 0 1
21.554601 -15.372990 1.432737 26.513815 -0.619538 1.516733 0.062299 -0.013799 522161.000000 0 0 1
20.090901 -15.051790 0.995437 25.123527 -0.642979 1.531164 0.041090 -0.004895 340853.000000 0 0 1
19.171501 -14.978990 2.066237 24.416919 -0.663244 1.486072 0.044812 -0.008867 829299.000000 0 1 0
18.121201 -13.994790 1.949037 22.978922 -0.657614 1.485876 0.047635 -0.011763 218510.000000 0 1 0
18.567901 -12.580590 2.304037 22.546547 -0.595496 1.468427 0.064020 -0.011238 -297054.000000 0 1 0
19.595001 -12.010790 1.505737 23.032377 -0.549888 1.505375 0.066958 -0.014111 551036.000000 0 1 0
19.926401 -10.717790 1.987937 22.713088 -0.493482 1.483160 0.071423 -0.018297 113868.000000 0 1 0
20.829001 -9.887490 0.983737 23.077641 -0.443202 1.528156 0.074782 -0.024907 153171.000000 0 1 0
20.261401 -9.442390 -0.249763 22.354988 -0.436103 1.581969 0.084270 -0.021401 403805.000000 0 1 0
21.203401 -8.799390 -1.064563 22.981444 -0.393369 1.617136 0.083878 -0.018038 -399476.000000 0 1 0
20.541701 -8.350890 -2.422563 22.306225 -0.386126 1.679616 0.082621 -0.015535 24828.300000 0 1 0
21.377001 -7.665890 -3.391863 22.961855 -0.344320 1.719056 0.088501 -0.023492 743233.000000 0 1 0
22.491301 -8.394390 -3.860763 24.315220 -0.357216 1.730251 0.089642 -0.029577 -627822.000000 0 1 0
22.157501 -9.626990 -4.714663 24.614261 -0.409873 1.763529 0.076808 -0.029694 -451154.000000 0 1 0
21.622001 -9.394290 -6.019463 24.331000 -0.409871 1.820791 0.069675 -0.029307 1252710.000000 0 1 0
20.196701 -9.185090 -6.072563 23.003231 -0.426823 1.837950 0.060077 -0.015949 566259.000000 0 1 0
19.597001 -9.119490 -7.479763 22.872569 -0.435546 1.903944 0.062779 -0.012924 -293350.000000 0 1 0
19.648501 -10.290590 -8.180263 23.640570 -0.482454 1.924129 0.068924 -0.011161 221341.000000 0 1 0
20.787001 -10.370990 -8.993863 24.910769 -0.462781 1.940183 0.065182 -0.014389 -371563.000000 0 1 0
20.908601 -11.749890 -9.695163 25.869397 -0.511983 1.954949 0.068180 -0.014269 -315218.000000 0 0 1
19.776901 -11.986290 -10.490363 25.393792 -0.544875 1.996660 0.074001 -0.021643 5205.060000 0 0 1
19.797701 -13.296390 -11.085463 26.298868 -0.591419 2.005916 0.060888 -0.014113 -516302.000000 0 0 1
18.477801 -13.640790 -11.760063 25.803089 -0.635923 2.044024 0.080842 -0.016995 -418084.000000 0 0 1
18.230301 -15.036490 -12.005963 26.506284 -0.689686 2.040865 0.070384 -0.020050 784451.000000 0 0 1
17.156101 -15.125590 -12.975863 26.296165 -0.722581 2.086849 0.079449 -0.020968 470298.000000 0 0 1
17.034101 -16.575590 -13.480363 27.324549 -0.771757 2.086725 0.056665 -0.019614 -227473.000000 0 0 1
16.359601 -17.303290 -12.486563 26.887816 -0.813424 2.053747 0.052191 -0.012821 171782.000000 0 0 1
16.367501 -18.656290 -12.814963 27.931623 -0.850655 2.047438 0.046414 -0.011783 -239785.000000 0 0 1
15.352001 -19.514490 -12.026563 27.588720 -0.904219 2.021860 0.053660 -0.012116 339798.000000 0 0 1
14.012801 -19.352290 -12.454663 26.944171 -0.944085 2.051315 0.043150 -0.014862 475961.000000 0 0 1
13.069801 -20.172090 -11.730963 26.745998 -0.995888 2.024844 0.033622 -0.009501 811409.000000 0 0 1
11.576401 -19.851690 -11.980863 25.916091 -1.042863 2.051377 0.027803 -0.015352 168516.000000 0 0 1
10.755201 -20.757290 -11.273563 25.954435 -1.092742 2.020124 0.035398 -0.019533 1085830.000000 0 0 1
9.362001 -20.588090 -11.653563 25.442525 -1.144017 2.046580 0.020207 -0.010374 1477860.000000 0 0 1
8.305501 -21.102790 -10.648363 25.053877 -1.195842 2.009779 0.016099 -0.014387 -122444.000000 0 0 1
8.326601 -22.510890 -10.609963 26.242023 -1.216511 1.987023 0.039593 -0.011035 57834.700000 0 0 1
7.552101 -22.994890 -9.526863 26.010773 -1.253470 1.945789 0.041542 -0.021196 22663.600000 0 0 1
7.647501 -24.504090 -9.326263 27.311424 -1.268284 1.919286 0.042294 -0.017838 488006.000000 0 0 1
8.877101 -24.932790 -8.744763 27.873246 -1.228750 1.889919 0.048028 -0.015770 -1897.820000 0 0 1
9.182601 -26.162920 -9.323763 29.253224 -1.233251 1.895181 0.045396 -0.010186 -210309.000000 0 0 1
10.656501 -26.533890 -9.100163 30.007021 -1.188895 1.878916 0.029223 -0.001349 -233834.000000 0 0 1
10.918301 -26.912820 -7.807163 30.074258 -1.185393 1.833400 0.038170 -0.012509 -679851.000000 0 0 1
12.297201 -27.097800 -7.672163 30.730669 -1.144780 1.823124 0.047957 -0.007346 -552655.000000 0 0 1
12.609701 -27.390540 -6.148963 30.774275 -1.139355 1.771959 0.038215 -0.014594 102096.000000 0 0 1
12.209601 -28.641790 -5.574063 31.630629 -1.167837 1.747945 0.044072 -0.012936 -454511.000000 0 0 1
10.843201 -28.911530 -5.468063 31.358433 -1.211984 1.746065 0.056311 -0.019034 -487555.000000 0 0 1
10.392801 -30.113380 -4.562363 32.181379 -1.238473 1.713046 0.064831 -0.023066 137900.000000 0 0 1
10.649001 -31.385360 -5.108863 33.534200 -1.243687 1.723740 0.053708 -0.016103 741794.000000 0 0 1
9.562201 -31.788260 -5.999763 33.733164 -1.278597 1.749607 0.065636 -0.017609 993397.000000 0 0 1
9.719001 -33.329810 -6.296863 35.284355 -1.287063 1.750218 0.063164 -0.014147 -94654.000000 0 0 1
9.370001 -34.197607 -5.271663 35.847785 -1.303364 1.718388 0.053853 -0.013348 -106547.000000 0 0 1
9.631701 32.851809 -5.637363 34.695689 1.285602 1.734000 0.063935 -0.012805 -44309.800000 0 0 1
9.269601 31.868592 -4.519063 33.495590 1.287737 1.706124 0.051094 -0.010376 -375408.000000 0 0 1
7.893001 31.653602 -4.600163 32.945583 1.326424 1.710883 0.042415 -0.012192 -1054020.000000 0 0 1
7.533101 30.618662 -3.688563 31.746741 1.329558 1.687246 0.018495 -0.008351 -89040.900000 0 0 1
6.153601 29.925072 -3.767863 30.782682 1.367990 1.693506 0.021862 -0.007712 173328.000000 0 0 1
5.789001 29.306612 -5.023963 30.292412 1.375775 1.737415 0.036196 -0.013227 90298.800000 0 0 1
5.568901 30.244912 -6.078263 31.348248 1.388709 1.765927 0.020459 -0.014183 -761816.000000 0 0 1
5.825701 29.535302 -7.426963 31.006977 1.376051 1.812673 0.037992 -0.020687 454267.000000 0 0 1
4.983701 28.362742 -7.744563 29.820474 1.396859 1.833514 0.037842 -0.023282 496538.000000 0 0 1
5.345801 27.108142 -7.208763 28.555126 1.376092 1.826009 0.036109 -0.017615 -645158.000000 0 0 1
4.405301 25.977482 -7.687463 27.446918 1.402813 1.854679 0.040467 -0.016656 -836580.000000 0 0 1
3.144101 26.106202 -7.089263 27.233744 1.450939 1.834141 0.023859 -0.013408 -252332.000000 0 0 1
2.186801 26.738992 -7.980563 27.990090 1.489195 1.859929 0.030987 -0.021045 262865.000000 0 0 1
1.671001 25.928492 -9.204663 27.564556 1.506439 1.911267 0.040720 -0.021129 -1268760.000000 0 0 1
2.611201 25.715722 -10.206963 27.790265 1.469602 1.946885 0.042325 -0.022402 -612727.000000 0 0 1
2.266101 24.945652 -11.357063 27.502793 1.480203 1.996478 0.071485 -0.024518 -637256.000000 0 0 1
2.155101 23.379442 -11.165163 25.998146 1.478877 2.014691 0.077393 -0.018515 -449063.000000 0 0 1
1.050901 23.079942 -10.382163 25.329378 1.525295 1.993126 0.072625 -0.021870 -487715.000000 0 0 1
0.880701 21.700342 -10.450763 24.101845 1.530234 2.019290 0.037155 -0.011638 -694267.000000 0 1 0
-0.144499 20.999442 -9.620763 23.098842 -1.563915 2.000393 0.036389 -0.011913 -17133.200000 0 1 0
-1.498899 21.406842 -9.804763 23.593070 -1.500891 1.999375 0.042531 -0.008706 258842.000000 0 1 0
-2.383399 20.457642 -9.258663 22.581376 -1.454815 1.993265 0.026782 -0.013612 468128.000000 0 1 0
-3.843899 20.948042 -8.993563 23.118827 -1.389318 1.970358 0.035611 -0.018105 949547.000000 0 1 0
-4.825099 19.959542 -8.745663 22.319308 -1.333603 1.973430 0.026554 -0.023310 283827.000000 0 1 0
-5.546099 19.609842 -9.919363 22.664926 -1.295173 2.023783 0.027548 -0.009919 -163527.000000 0 1 0
-6.538499 18.429242 -9.716163 21.835584 -1.229861 2.031936 0.031941 -0.012622 498292.000000 0 1 0
-7.627899 18.574442 -8.820263 21.931524 -1.181129 1.984685 0.056782 -0.019863 466526.000000 0 1 0
-8.880599 18.847342 -9.430963 22.869858 -1.130465 1.995856 0.067436 -0.022831 263028.000000 0 1 0
-9.988199 19.008442 -8.378763 23.049699 -1.086988 1.942828 0.078090 -0.033596 -2671.490000 0 1 0
-10.256499 17.770142 -7.692563 21.912308 -1.047328 1.929501 0.059229 -0.036505 -659959.000000 0 1 0
-11.382899 17.977242 -6.901963 22.369370 -1.006334 1.884460 0.069074 -0.026756 -583914.000000 0 1 0
-11.730699 16.790642 -5.936863 21.325602 -0.960980 1.852915 0.045596 -0.033343 -467594.000000 0 1 0
-12.639899 17.212542 -4.964263 21.924473 -0.937392 1.799203 0.063638 -0.022053 -127134.000000 0 1 0
-12.961699 16.224942 -4.055063 21.158873 -0.896742 1.763638 0.050567 -0.024055 -763832.000000 0 1 0
-14.080899 16.556842 -3.075563 21.951305 -0.866036 1.711367 0.029949 -0.025260 -690745.000000 0 1 0
-15.299099 16.570542 -3.793963 22.870055 -0.825272 1.737459 0.058864 -0.033355 -107089.000000 0 1 0
-16.269599 17.254342 -3.000063 23.904237 -0.814764 1.696632 0.061996 -0.022820 -950929.000000 0 1 0
-17.596599 17.338042 -3.685763 24.976646 -0.777997 1.718906 0.065192 -0.032792 -1300780.000000 0 1 0
-17.583299 18.283842 -4.694663 25.797502 -0.804927 1.753797 0.042070 -0.032182 630338.000000 0 0 1
-18.919799 18.464342 -5.179863 26.939222 -0.773216 1.764281 0.035571 -0.034982 577011.000000 0 0 1
-19.057499 19.440842 -6.377163 27.960737 -0.795355 1.800897 0.032555 -0.016640 -233590.000000 0 0 1
-18.768599 20.804442 -6.090663 28.673703 -0.836798 1.784840 0.032532 -0.028928 164487.000000 0 0 1
-18.886199 21.551042 -7.283763 29.566689 -0.851204 1.819709 0.023008 -0.008965 -2887.220000 0 0 1
-18.770699 23.078942 -7.028963 30.567679 -0.887983 1.802820 0.044427 -0.017489 -80279.500000 0 0 1
-17.466699 23.533962 -6.752863 30.075473 -0.932312 1.797258 0.056014 -0.020172 31963.500000 0 0 1
-17.452099 24.106002 -5.473263 30.259406 -0.944162 1.752675 0.068043 -0.031627 -921056.000000 0 0 1
-16.030699 24.556902 -5.264563 29.794972 -0.992457 1.748422 0.075470 -0.029149 -1312650.000000 0 0 1
-15.732699 25.053712 -3.963263 29.848178 -1.010072 1.703970 0.071285 -0.033204 1361510.000000 0 0 1
-14.412299 25.665622 -3.807763 29.680592 -1.059136 1.699442 0.079394 -0.032118 1590660.000000 0 0 1
-13.989399 26.866682 -4.781063 30.665623 -1.090729 1.727345 0.088857 -0.025160 -384546.000000 0 0 1
-14.875499 27.943192 -4.627563 31.992449 -1.081607 1.715951 0.091682 -0.021097 -174445.000000 0 0 1
-14.450999 29.153832 -5.255063 32.960476 -1.110610 1.730915 0.073031 -0.017823 -2083.140000 0 0 1
-15.088499 30.521642 -4.783163 34.381856 -1.111676 1.710368 0.065364 -0.007255 -876947.000000 0 0 1
-16.356699 30.663532 -5.281263 35.152319 -1.080768 1.721607 0.081316 -0.011519 -810151.000000 0 0 1
-17.032299 31.854972 -4.804163 36.440615 -1.079789 1.703017 0.073016 -0.003270 369828.000000 0 0 1
12.722638 -8.614990 18.930231 24.381083 -0.595217 0.681814 0.073695 -0.014192 1876.990000 0 1 0
13.533638 -9.701290 19.319531 25.505268 -0.621931 0.711364 0.067205 -0.014631 40129.900000 0 0 1
13.487138 -10.807790 18.473431 25.297804 -0.675558 0.752125 0.060137 -0.018086 -314802.000000 0 0 1
14.132738 -12.042790 19.022431 26.582249 -0.705724 0.773304 0.083225 -0.025237 -723339.000000 0 0 1
15.530638 -12.040690 19.159231 27.445493 -0.659489 0.798080 0.079693 -0.019853 211070.000000 0 0 1
16.041738 -13.231990 19.803631 28.715966 -0.689709 0.809807 0.072280 -0.017209 94366.900000 0 0 1
16.022738 -14.569090 19.012931 28.818016 -0.737916 0.850299 0.060666 -0.029787 -164314.000000 0 0 1
14.684738 -15.044190 18.858431 28.241983 -0.797489 0.839622 0.072083 -0.030090 780462.000000 0 0 1
14.703438 -16.306290 18.209431 28.524894 -0.837041 0.878418 0.071198 -0.039160 -335081.000000 0 0 1
14.539738 -16.405790 16.704631 27.560817 -0.845626 0.919647 0.066313 -0.044111 -128372.000000 0 0 1
13.187238 -16.152590 16.338631 26.490758 -0.886125 0.906167 0.073133 -0.042835 232262.000000 0 0 1
13.027138 -16.146990 14.916131 25.552350 -0.891932 0.947459 0.101665 -0.048470 -252463.000000 0 0 1
12.614238 -17.457390 14.291231 25.847993 -0.945081 0.984962 0.067543 -0.030023 -60751.800000 0 0 1
13.692838 -18.364790 14.048031 26.872040 -0.930115 1.020693 0.065087 -0.025713 406337.000000 0 0 1
13.358738 -19.521490 13.238531 27.107253 -0.970679 1.060569 0.062240 -0.022323 -561627.000000 0 0 1
14.573738 -20.386290 12.991531 28.227195 -0.950154 1.092521 0.074464 -0.022252 -500010.000000 0 0 1
15.158238 -20.963590 14.108531 29.466845 -0.944751 1.071516 0.082186 -0.018055 -51207.700000 0 0 1
15.391838 -22.366590 13.816231 30.464098 -0.968060 1.100080 0.064497 -0.015206 -254834.000000 0 0 1
16.212638 -23.066490 14.889431 31.884287 -0.958150 1.084920 0.060757 -0.014140 534480.000000 0 0 1
17.585238 -22.647090 14.909631 32.317617 -0.910556 1.091284 0.037188 -0.004962 510030.000000 0 0 1
18.228438 -22.792490 16.144231 33.352807 -0.896204 1.065526 0.045431 -0.006132 201623.000000 0 0 1
19.734338 -22.422390 16.023331 33.896236 -0.849075 1.078425 0.021726 -0.006882 304836.000000 0 0 1
20.557838 -23.389990 15.435031 34.755669 -0.849753 1.110626 0.023664 -0.007785 -1457840.000000 0 0 1
21.850238 -22.923090 15.395931 35.212720 -0.809355 1.118284 0.020629 0.002061 -1157640.000000 0 0 1
22.784838 -24.036190 14.934331 36.330724 -0.812118 1.147173 0.011497 -0.005408 -349293.000000 0 0 1
23.088938 -24.991390 15.963331 37.583196 -0.824946 1.132114 0.012198 -0.002964 1731380.000000 0 0 1
24.304038 -25.696730 15.483231 38.610085 -0.813244 1.158172 0.020310 -0.009511 1308390.000000 0 0 1
24.879238 -26.705710 16.488831 40.050630 -0.820790 1.146478 0.034759 -0.012987 -491147.000000 0 0 1
25.462438 -26.097420 17.629831 40.499655 -0.797713 1.120416 0.032688 0.000973 92451.600000 0 0 1
26.000838 -27.062620 18.522131 41.850906 -0.805405 1.112329 0.058976 -0.006661 210643.000000 0 0 1
26.461338 -26.457170 19.858431 42.362030 -0.785319 1.082888 0.049869 -0.009683 488573.000000 0 0 1
25.329738 -25.920470 20.549931 41.662526 -0.796924 1.054977 0.064019 -0.010657 569834.000000 0 0 1
25.609438 -25.592010 21.862731 42.293892 -0.785058 1.027543 0.064778 -0.003557 -402023.000000 0 0 1
24.247338 -25.470250 22.537131 41.768281 -0.809990 1.000864 0.059575 -0.007088 -321339.000000 0 0 1
23.677938 -26.755760 22.660431 42.308517 -0.846350 1.005579 0.062971 -0.013677 196433.000000 0 0 1
22.536838 -26.720490 23.516991 42.130067 -0.870129 0.978582 0.063085 -0.014253 265030.000000 0 0 1
21.789338 -28.108610 23.463511 42.607577 -0.911371 0.987607 0.078324 -0.014579 -45777.200000 0 0 1
22.536238 -29.100120 24.138471 44.015506 -0.911837 0.990337 0.079423 -0.008901 480208.000000 0 0 1
22.238238 -30.398220 23.657641 44.477804 -0.939199 1.009956 0.096403 -0.010422 -803800.000000 0 0 1
23.215238 -31.401100 24.176291 45.928961 -0.934170 1.016454 0.082956 -0.001536 -624997.000000 0 0 1
23.247638 -31.609840 25.591591 46.846176 -0.936669 0.992868 0.068124 0.000892 570964.000000 0 0 1
24.475938 -32.227530 25.973981 48.086723 -0.921260 1.000183 0.066281 0.002097 -335945.000000 0 0 1
24.394838 -32.771720 27.487041 49.240544 -0.930897 0.978558 0.061638 -0.009265 -5548.230000 0 0 1
23.656738 -33.943880 27.725771 49.805087 -0.962129 0.980406 0.052266 0.000731 689065.000000 0 0 1
22.258138 -33.749500 27.439331 48.860724 -0.987765 0.974499 0.056150 -0.002460 -48101.600000 0 0 1
21.541338 33.307429 27.784141 48.429047 0.996714 0.959770 0.081595 -0.021591 -391455.000000 0 0 1
21.171238 33.351538 29.132321 49.083995 1.005188 0.935371 0.057882 -0.014068 -26200.600000 0 0 1
20.917238 32.037642 29.567031 48.354428 0.992388 0.912886 0.072306 -0.025335 206222.000000 0 0 1
20.467638 32.120432 31.048751 49.139305 1.003461 0.886856 0.056043 -0.030530 754521.000000 0 0 1
21.625238 32.457380 31.846201 50.351891 0.983071 0.886055 0.042447 -0.021883 784574.000000 0 0 1
21.397838 32.881276 33.129443 51.347890 0.993887 0.869517 0.032347 -0.023502 -158720.000000 0 0 1
22.666238 32.749472 34.007277 52.371568 0.965385 0.864072 0.010667 -0.014609 278449.000000 0 0 1
22.989138 31.379262 -34.138448 51.755117 0.938510 2.291103 0.012531 -0.009764 257998.000000 0 0 1
24.168438 31.178992 -33.375203 51.673466 0.911392 2.272980 -0.000304 0.000585 143.562000 0 0 1
24.569438 29.722072 -33.193253 50.880751 0.880022 2.281508 0.011669 0.005501 -438285.000000 0 0 1
24.963638 29.166012 33.967098 51.260152 0.862878 0.846456 0.025919 0.000119 130024.000000 0 0 1
24.501738 27.821842 33.850976 50.202377 0.848767 0.830793 0.042273 -0.012890 -160731.000000 0 0 1
24.796138 27.157992 32.506301 49.082223 0.830827 0.846935 0.087813 -0.022753 -432795.000000 0 0 1
26.074038 26.598452 32.471111 49.413623 0.795354 0.853793 0.077957 -0.026336 -91288.400000 0 0 1
26.331238 25.755002 31.323051 48.350675 0.774335 0.866063 0.113875 -0.039705 920224.000000 0 0 1
27.615738 24.834472 31.551621 48.732789 0.732421 0.866574 0.089555 -0.025308 876564.000000 0 0 1
27.493338 23.919272 32.608890 48.901482 0.715993 0.840852 0.098109 -0.026317 477800.000000 0 0 1
28.206238 24.404212 33.770297 50.314912 0.713256 0.834999 0.084138 -0.028474 -747734.000000 0 0 1
27.979338 23.544772 -33.376033 49.509183 0.699542 2.310594 0.082099 -0.027334 518935.000000 0 0 1
26.768938 23.795372 -32.638813 48.457072 0.726658 2.309813 0.072965 -0.025794 989956.000000 0 0 1
25.545438 23.476402 -33.265643 48.065724 0.743217 2.335172 0.073780 -0.019732 -523528.000000 0 0 1
25.042438 22.006842 -33.208103 47.055317 0.720968 2.354242 0.071366 -0.024590 -542472.000000 0 0 1
24.815238 21.556042 -31.938513 45.831513 0.715229 2.341817 0.053555 -0.034629 397691.000000 0 0 1
24.551138 20.153142 -31.973633 45.069066 0.687334 2.359494 0.063845 -0.030670 -224906.000000 0 0 1
24.476838 19.379742 -30.621963 43.730934 0.669695 2.346524 0.061275 -0.030640 -480347.000000 0 0 1
23.340338 19.654542 -29.849123 42.685390 0.699881 2.345189 0.048746 -0.027375 38042.000000 0 0 1
23.289738 18.798042 -28.737003 41.492091 0.679078 2.335870 0.053165 -0.026219 34346.500000 0 0 1
22.072338 19.115842 -27.827653 40.335862 0.713741 2.332145 0.050995 -0.030233 137869.000000 0 0 1
22.075538 18.365542 -26.650183 39.177222 0.693916 2.318896 0.053376 -0.027413 193062.000000 0 0 1
22.661138 19.024142 -25.519983 39.073196 0.698370 2.282510 0.036769 -0.018371 -18082.200000 0 0 1
22.704038 18.045642 -24.349463 37.868389 0.671575 2.269208 0.050016 -0.016727 -135461.000000 0 0 1
23.561538 16.946642 -24.518663 37.993415 0.623529 2.272264 0.049706 -0.028281 131058.000000 0 0 1
23.593838 16.072042 -23.325963 36.865706 0.597994 2.255867 0.057214 -0.026830 -1140270.000000 0 0 1
24.624538 14.967442 -23.448763 37.151537 0.546154 2.253851 0.084638 -0.032292 134578.000000 0 0 1
25.940238 15.389442 -23.046363 37.958737 0.535453 2.223256 0.106543 -0.045765 814344.000000 0 0 1
26.931138 14.364742 -23.067563 38.258913 0.490000 2.217969 0.119181 -0.046062 237671.000000 0 0 1
26.861738 13.283942 -21.911363 37.123091 0.459262 2.202147 0.114882 -0.036214 -665131.000000 0 0 1
25.788138 12.389942 -21.989363 36.084218 0.447887 2.226087 0.109442 -0.025130 -166890.000000 0 0 1
25.280638 11.927642 -20.717663 34.793690 0.440842 2.208613 0.093758 -0.032185 840340.000000 0 0 1
23.749538 11.591842 -20.784063 33.621253 0.454072 2.237224 0.089477 -0.023113 1166560.000000 0 0 1
22.923338 12.784342 -20.806663 33.493821 0.508736 2.241081 0.092519 -0.023386 695909.000000 0 0 1
21.537538 12.504742 -21.000263 32.576758 0.526034 2.271348 0.068653 -0.017093 717561.000000 0 0 1
20.715138 13.822142 -20.980363 32.562926 0.588405 2.270907 0.051214 -0.020732 -582371.000000 0 0 1
21.174938 14.812742 -21.888263 33.865785 0.610418 2.273553 0.044660 -0.014928 101963.000000 0 0 1
20.437638 16.009442 -21.783263 33.889671 0.664494 2.268905 0.035557 -0.021492 -471126.000000 0 0 1
19.056838 16.129042 -22.439163 33.568216 0.702380 2.302939 0.038307 -0.012072 76884.000000 0 0 1
18.001038 15.372142 -21.860263 32.221285 0.706788 2.316436 0.022843 -0.016057 -515758.000000 0 0 1
16.928938 15.284842 -22.708363 32.185169 0.734405 2.354000 0.028102 -0.022019 -588437.000000 0 0 1
15.870938 14.275342 -22.180863 30.784131 0.732519 2.375361 0.014975 -0.008541 962861.000000 0 0 1
14.612838 14.322542 -22.859163 30.679172 0.775366 2.411487 0.017551 -0.010979 782555.000000 0 0 1
13.547838 13.586642 -22.263963 29.390896 0.786828 2.430290 0.029376 -0.015413 1544120.000000 0 0 1
12.173738 13.638342 -23.066563 29.432475 0.842078 2.471415 0.024217 -0.013493 1147360.000000 0 0 1
11.552238 14.930042 -23.065563 29.805713 0.912263 2.455716 0.039650 -0.013203 297051.000000 0 0 1
10.919338 15.316842 -24.273263 30.708775 0.951467 2.482314 0.032733 -0.011584 -570940.000000 0 0 1
10.847038 16.863542 -24.303263 31.506918 0.999199 2.451776 0.027193 -0.015942 86300.700000 0 0 1
12.040238 17.637142 -24.294363 32.345821 0.971800 2.420496 0.025595 -0.008960 243378.000000 0 0 1
13.105038 17.408942 -25.214913 33.325742 0.925521 2.428924 0.026128 -0.012576 97454.300000 0 0 1
12.963338 17.890542 -26.673183 34.634929 0.943756 2.449832 0.039495 -0.021680 288661.000000 0 0 1
14.056038 17.532342 -27.536363 35.541616 0.895007 2.457138 0.035451 -0.025506 326815.000000 0 0 1
13.581838 17.453842 -28.876723 36.372628 0.909517 2.488015 0.041061 -0.022312 -566521.000000 0 0 1
14.609838 17.577642 -29.990853 37.707720 0.877342 2.490382 0.053048 -0.029638 -756625.000000 0 0 1
15.546538 16.553442 -29.985103 37.614062 0.816756 2.493403 0.041558 -0.029450 -282191.000000 0 0 1
16.339238 16.680042 -31.187623 38.959752 0.795719 2.498940 0.045654 -0.029791 181738.000000 0 0 1
17.640738 15.839542 -31.129783 39.129913 0.731651 2.490710 0.047062 -0.028577 -36532.100000 0 0 1
18.788638 16.604142 -30.841323 39.747926 0.723755 2.458973 0.062099 -0.033536 -219819.000000 0 0 1
19.941138 15.806642 -30.716543 39.887403 0.670252 2.449765 0.070108 -0.027875 -385747.000000 0 0 1
21.147538 16.403342 -31.427783 41.279456 0.659724 2.436177 0.063355 -0.032891 -688275.000000 0 0 1
21.152638 16.548442 -32.825493 42.412239 0.663876 2.455872 0.074884 -0.034476 845135.000000 0 0 1
22.442738 17.031442 -33.242283 43.575175 0.649163 2.438540 0.076936 -0.033775 805559.000000 0 0 1
22.323738 17.646742 33.743694 44.140612 0.668917 0.700594 0.057454 -0.017095 201902.000000 0 0 1
23.563938 18.044642 33.156617 44.499770 0.653520 0.730117 0.060903 -0.021520 345354.000000 0 0 1
23.482038 18.732442 31.902441 43.818674 0.673358 0.755315 0.074331 -0.022596 -716420.000000 0 0 1
24.397938 19.990442 31.777261 44.773558 0.686429 0.781678 0.086626 -0.018652 -192958.000000 0 0 1
25.716838 19.646942 31.446611 45.124798 0.652383 0.799757 0.061387 -0.013847 -956779.000000 0 0 1
26.455838 20.800142 31.379431 46.013324 0.666283 0.820352 0.073109 -0.018829 -160073.000000 0 0 1
27.970138 20.481642 31.273461 46.688924 0.632056 0.836822 0.058135 -0.018204 72005.000000 0 0 1
28.574338 20.034742 32.453826 47.656421 0.611494 0.821675 0.052497 -0.019441 379529.000000 0 0 1
29.996438 20.017842 32.352193 48.447546 0.588469 0.839577 0.028933 -0.009211 637150.000000 0 0 1
30.848338 19.408642 33.488206 49.495205 0.561588 0.827668 0.035609 -0.012421 -34610.700000 0 0 1
30.903438 20.042342 -33.645623 49.887332 0.575353 2.310992 0.044999 -0.018663 -81522.600000 0 0 1
29.855738 19.776442 -32.735073 48.518633 0.585043 2.311342 0.054684 -0.029225 -345570.000000 0 0 1
30.183538 20.220942 -31.294213 47.950602 0.590260 2.281853 0.077294 -0.030242 -176776.000000 0 0 1
31.352638 19.512242 -30.956523 48.187361 0.556690 2.268448 0.085843 -0.036387 -321049.000000 0 0 1
31.789938 19.709542 -29.668103 47.741623 0.554991 2.241364 0.096596 -0.039911 -457248.000000 0 0 1
33.163638 19.100042 -29.404103 48.262198 0.522535 2.225920 0.085116 -0.031698 514298.000000 0 0 1
34.241238 19.784242 -30.072643 49.681410 0.523928 2.220951 0.065820 -0.024677 2114050.000000 0 0 1
35.528638 19.814942 -29.359733 50.168815 0.508749 2.195946 0.048633 -0.017901 2417460.000000 0 0 1
-36.102925 20.643442 -30.046073 51.306329 -0.519422 2.196443 0.027134 -0.012460 824022.000000 0 0 1
-35.549625 19.949542 -31.156243 51.307617 -0.511382 2.223384 0.010315 -0.005442 169832.000000 0 0 1
-34.539425 20.678042 -31.837753 51.324417 -0.539448 2.239952 0.013755 -0.002266 -24950.700000 0 0 1
-33.828725 19.898042 -32.959743 51.250945 -0.531698 2.269343 0.020197 -0.003402 -216163.000000 0 0 1
-32.838825 19.011442 -32.534133 49.982929 -0.524784 2.279572 0.037496 -0.004892 -31005.300000 0 0 1
-32.078725 18.493242 -33.620523 50.013840 -0.522957 2.308006 0.043564 -0.007090 192040.000000 0 0 1
-31.358725 17.188742 -33.208923 48.802203 -0.501408 2.319214 0.037343 0.002255 -14891.900000 0 0 1
-32.247325 16.108042 -33.019193 48.883802 -0.463260 2.312389 0.044185 0.000914 136014.000000 0 0 1
-31.783525 14.907542 -33.635353 48.618559 -0.438569 2.334805 0.042865 0.003047 8722.370000 0 0 1
-32.679925 13.695642 -33.318193 48.637949 -0.396849 2.325434 0.044377 -0.002272 -197828.000000 0 0 1
-32.244525 12.528942 -33.988933 48.496715 -0.370606 2.347385 0.057042 -0.003324 329792.000000 0 0 1
-32.817325 11.377942 -33.351533 48.153496 -0.333737 2.335896 0.052560 -0.005439 -32602.700000 0 0 1
-32.504225 9.967742 -33.956073 48.050967 -0.297556 2.355574 0.050400 -0.001652 -443060.000000 0 0 1
-33.185125 9.639842 33.286162 47.980701 -0.282706 0.804126 0.076046 -0.005512 -157105.000000 0 0 1
-33.050425 8.289742 32.753649 47.263643 -0.245751 0.805156 0.052517 -0.019888 -503853.000000 0 0 1
-31.715325 7.925542 32.096201 45.813122 -0.244881 0.794573 0.063044 -0.016468 -209536.000000 0 0 1
-30.664125 7.802342 33.003075 45.720543 -0.249158 0.764334 0.063016 -0.009571 -351298.000000 0 0 1
-29.447825 7.393842 32.401854 44.404093 -0.245997 0.752907 0.055455 -0.006278 206707.000000 0 0 1
20.558438 -4.614390 -31.401093 37.814952 -0.220793 2.550601 0.050352 -0.022185 914696.000000 0 0 1
21.866438 -4.752690 -32.003063 39.050291 -0.214022 2.531395 0.051734 -0.022570 1466140.000000 0 0 1
22.845138 -3.713490 -31.822013 39.348835 -0.161141 2.512761 0.053615 -0.024854 615467.000000 0 0 1
22.561938 -2.270590 -32.298583 39.463845 -0.100300 2.529478 0.053012 -0.019637 11726.500000 0 0 1
23.793938 -1.568690 -32.144143 40.023221 -0.065833 2.503339 0.050360 -0.016439 633698.000000 0 0 1
23.659338 -0.170890 -32.373803 40.098087 -0.007223 2.510469 0.030801 -0.014031 -810726.000000 0 0 1
24.560338 0.657710 -31.520473 39.964772 0.026773 2.479498 0.042553 -0.011139 353881.000000 0 0 1
25.936838 0.431010 -31.879793 41.100201 0.016616 2.458557 0.051785 -0.020499 581008.000000 0 0 1
26.803138 1.351910 -31.256503 41.197146 0.050396 2.432120 0.054310 -0.017976 784551.000000 0 0 1
28.323838 1.212510 -31.627173 42.473380 0.042783 2.410784 0.050877 -0.024171 846610.000000 0 0 1
28.780638 1.842410 -32.814573 43.686563 0.063928 2.420578 0.049458 -0.018453 111355.000000 0 0 1
28.915538 0.890310 -33.860853 44.536034 0.030780 2.434575 0.044078 -0.021960 11886.500000 0 0 1
29.651238 1.454510 33.261899 44.583242 0.049015 0.728667 0.040765 -0.037214 48788.200000 0 0 1
28.932438 2.437510 32.538804 43.609646 0.084050 0.728554 0.045050 -0.023256 195053.000000 0 0 1
29.196838 3.709810 32.916946 44.155899 0.126385 0.729555 0.052873 -0.015546 -113280.000000 0 0 1
28.412238 4.642510 31.979031 43.028672 0.161967 0.732952 0.056408 -0.007026 -39136.300000 0 0 1
28.523438 6.058010 32.239701 43.470500 0.209277 0.735276 0.056630 -0.003228 222637.000000 0 0 1
27.950738 6.759410 31.113501 42.367244 0.237277 0.746049 0.050085 0.000836 6863.320000 0 0 1
28.064338 8.273210 31.219451 42.786764 0.286674 0.752983 0.041076 0.003019 76495.100000 0 0 1
29.329438 8.849110 30.962761 43.557035 0.293029 0.780082 0.043472 -0.005627 4269.930000 0 0 1
29.396038 10.150710 31.497481 44.263476 0.332489 0.779037 0.044885 -0.016426 659349.000000 0 0 1
30.713738 10.824410 30.949301 44.926170 0.338837 0.810836 0.044574 -0.004362 432059.000000 0 0 1
31.870438 10.458910 31.697181 46.150026 0.317096 0.813679 0.049909 -0.016325 297423.000000 0 0 1
33.075538 10.676410 30.985651 46.562727 0.312231 0.842686 0.053249 -0.014334 340196.000000 0 0 1
33.552438 12.191110 30.967061 47.258313 0.348514 0.856253 0.058578 -0.013707 -768065.000000 0 0 1
33.997038 12.589310 32.230841 48.508931 0.354649 0.844064 0.065371 -0.011298 -6842.910000 0 0 1
34.393338 13.989610 32.303851 49.215340 0.386315 0.854789 0.066329 -0.003419 -87538.300000 0 0 1
33.313538 15.087810 32.209211 48.732608 0.425266 0.848729 0.051313 -0.009890 -282684.000000 0 0 1
32.804938 15.303810 30.869771 47.574293 0.436498 0.864691 0.043425 -0.007732 144727.000000 0 0 1
31.698838 16.151310 30.722281 47.005741 0.471238 0.858484 0.023476 -0.003020 296150.000000 0 0 1
30.290638 15.550210 30.969061 46.026237 0.474284 0.832733 0.027650 -0.000358 -94437.200000 0 0 1
29.772238 14.698510 29.959241 44.721231 0.458594 0.836708 0.021080 0.001294 777022.000000 0 0 1
28.600038 14.038910 30.493621 44.101180 0.456317 0.807306 0.016215 0.007867 582548.000000 0 0 1
27.683038 13.431010 29.435401 42.581515 0.451714 0.807549 0.017997 0.006931 -91796.900000 0 0 1
28.044938 12.117110 29.090361 42.185211 0.407836 0.809878 0.030678 0.002076 272501.000000 0 0 1
27.167138 11.676510 28.054261 40.760714 0.405932 0.811699 0.029790 -0.012528 309140.000000 0 0 1
27.254338 10.147110 27.996701 40.368033 0.356412 0.804410 0.030747 0.004336 781184.000000 0 0 1
28.353338 9.655610 27.213311 40.468591 0.328228 0.833275 0.040644 -0.000680 598768.000000 0 0 1
28.045438 8.298810 26.924801 39.753764 0.287696 0.826724 0.058060 -0.002750 502959.000000 0 0 1
29.261438 7.598410 26.264421 40.047315 0.254062 0.855508 0.050852 -0.007987 238245.000000 0 0 1
29.653838 7.982610 24.932731 39.556456 0.262960 0.888847 0.058935 -0.006033 847770.000000 0 0 1
30.874138 7.303510 24.579641 40.133682 0.232287 0.911647 0.068054 0.000866 809169.000000 0 0 1
31.474338 7.763310 23.221131 39.876357 0.241828 0.949207 0.090251 -0.007134 -78417.800000 0 0 1
31.963138 9.096910 23.033431 40.434328 0.277275 0.964716 0.085172 -0.018081 719848.000000 0 0 1
30.962938 10.043110 22.567031 39.608566 0.313652 0.964593 0.092416 -0.025983 565619.000000 0 0 1
30.494638 9.893110 21.093931 38.376432 0.313708 0.988841 0.090313 -0.015600 111649.000000 0 0 1
31.380838 10.466510 20.143131 38.730486 0.321929 1.023846 0.093529 -0.024278 356044.000000 0 0 1
31.043638 10.040510 18.827731 37.669653 0.312813 1.047415 0.087796 -0.032353 -312474.000000 0 0 1
32.051338 10.726610 17.877331 38.235421 0.322953 1.084269 0.097814 -0.059343 2136670.000000 0 0 1
33.430538 10.249910 17.761031 39.218819 0.297504 1.100814 0.110113 -0.043986 2254230.000000 0 0 1
34.311338 10.352010 18.905031 40.519529 0.293023 1.085392 0.099265 -0.036554 -24316.400000 0 0 1
35.739938 9.841810 18.626431 41.486725 0.268713 1.105180 0.092403 -0.032320 -281250.000000 0 0 1
35.802938 8.397710 18.544831 41.185952 0.230389 1.103728 0.082602 -0.019041 81419.600000 0 0 1
-36.194725 7.864210 17.529631 40.977944 -0.213950 1.128759 0.096113 -0.018326 -483030.000000 0 0 1
36.339438 6.376910 17.179131 40.698185 0.173713 1.135024 0.097753 -0.019104 -972072.000000 0 0 1
35.130938 6.045910 16.582831 39.315724 0.170427 1.135382 0.070665 -0.020342 -520297.000000 0 0 1
35.183838 4.906810 15.726231 38.849628 0.138568 1.154039 0.077602 -0.014006 219622.000000 0 0 1
33.894338 4.039010 15.908831 37.659403 0.118605 1.134661 0.062156 -0.018032 289943.000000 0 0 1
33.861238 3.328210 17.109131 38.083891 0.097975 1.104872 0.075428 -0.013599 470983.000000 0 0 1
32.585438 2.783910 17.432631 37.060188 0.085227 1.081067 0.052521 -0.016794 297067.000000 0 0 1
32.631938 1.916410 18.672231 37.645295 0.058661 1.051805 0.043021 -0.017125 62963.100000 0 0 1
33.353938 0.708510 18.510631 38.152728 0.021239 1.064237 0.057855 -0.018748 118455.000000 0 0 1
33.230638 -0.036290 19.715931 38.639288 -0.001092 1.035314 0.062284 -0.019050 423124.000000 0 0 1
33.895938 -1.448990 19.494631 39.128951 -0.042722 1.049257 0.070567 -0.014088 407227.000000 0 0 1
33.517838 -2.335790 20.563931 39.392596 -0.069575 1.021573 0.065458 -0.003063 93193.700000 0 0 1
33.989138 -3.625790 20.347731 39.779870 -0.106273 1.033857 0.054197 -0.002740 -122088.000000 0 0 1
33.420938 -4.536490 21.448231 39.969557 -0.134913 1.004377 0.047096 0.013240 81609.800000 0 0 1
33.958138 -4.239890 22.756331 41.097231 -0.124214 0.983972 0.049945 -0.000086 558653.000000 0 0 1
33.423738 -5.046290 23.849441 41.369157 -0.149847 0.956354 0.053047 -0.003316 155494.000000 0 0 1
33.625338 -4.323390 25.208381 42.247101 -0.127874 0.931428 0.017555 -0.003765 166170.000000 0 0 1
32.983238 -4.835790 26.346001 42.489889 -0.145576 0.901986 0.036350 -0.005968 -146327.000000 0 0 1
33.525638 -4.167390 27.478651 43.547811 -0.123670 0.887955 0.044690 -0.009594 112004.000000 0 0 1
32.807638 -4.354890 28.832251 43.893108 -0.131969 0.854131 0.043617 -0.018053 -18846.000000 0 0 1
32.906738 -5.692190 29.268621 44.406155 -0.171285 0.851159 0.040386 -0.017266 70680.000000 0 0 1
32.132338 -5.835590 30.435091 44.641192 -0.179653 0.820615 0.054969 -0.026160 -68533.300000 0 0 1
32.089438 -7.343890 30.789961 45.074233 -0.224982 0.818805 0.051059 -0.025886 369104.000000 0 0 1
33.378738 -7.806090 31.170111 46.331965 -0.229735 0.832869 0.052018 -0.022477 201590.000000 0 0 1
33.554138 -9.174090 31.067151 46.639168 -0.266889 0.841806 0.034088 -0.015475 431702.000000 0 0 1
34.838638 -9.522190 31.888341 48.179551 -0.266806 0.847493 0.027318 -0.010286 634812.000000 0 0 1
34.652738 -9.508990 33.310471 48.998169 -0.267816 0.823264 0.020008 -0.015179 -218172.000000 0 0 1
35.897638 -9.791390 33.868943 50.315177 -0.266281 0.832355 0.013164 -0.014511 -436314.000000 0 0 1
35.885938 -10.096190 -32.989923 49.780203 -0.274252 2.295230 0.032877 -0.019913 -334467.000000 0 0 1
35.531438 -8.979690 -32.103543 48.721201 -0.247542 2.290183 0.023886 -0.023061 -13967.700000 0 0 1
-36.315925 -7.974090 -32.031163 49.075737 0.216145 2.281924 0.025513 -0.014624 -690325.000000 0 0 1
35.995638 -6.747490 -31.289443 48.168909 -0.185303 2.277825 0.029680 -0.020289 -381322.000000 0 0 1
35.976038 -6.938690 -29.915013 47.300409 -0.190530 2.255505 0.030972 -0.008181 229535.000000 0 0 1
35.251138 -5.923890 -29.241463 46.182230 -0.166493 2.256446 0.051548 -0.020522 -158504.000000 0 0 1
35.640838 -5.746690 -27.770013 45.546322 -0.159863 2.226490 0.058136 -0.014797 1064750.000000 0 0 1
-35.797125 -5.240690 -27.684503 45.555798 0.145367 2.223964 0.051792 -0.010282 920502.000000 0 0 1
-35.421325 -5.000390 -26.298623 44.399231 0.140242 2.204734 0.061324 -0.005440 1095080.000000 0 0 1
-33.908825 -4.673090 -25.995753 42.981686 0.136951 2.220324 0.053754 0.002341 479452.000000 0 0 1
-33.696325 -4.011990 -24.724463 41.986158 0.118505 2.200459 0.073361 -0.001244 1531520.000000 0 0 1
-32.300625 -4.017390 -24.331563 40.638587 0.123740 2.212712 0.080757 -0.001401 1975630.000000 0 0 1
-31.139425 -3.270690 -25.087123 40.121378 0.104650 2.246287 0.067661 -0.003226 295503.000000 0 0 1
-30.758925 -3.838190 -26.327643 40.669251 0.124141 2.274912 0.070264 -0.004891 192525.000000 0 0 1
-29.836825 -2.980390 -26.997923 40.348565 0.099559 2.303817 0.066480 -0.005728 251799.000000 0 0 1
-29.281925 -3.661790 -28.274103 40.868873 0.124407 2.334810 0.043234 -0.001321 387810.000000 0 0 1
-30.280525 -3.791290 -29.328073 42.325169 0.124557 2.336331 0.048777 -0.002359 682976.000000 0 0 1
-29.926225 -4.678790 -30.396083 42.911442 0.155089 2.357946 0.041937 0.000384 -1132470.000000 0 0 1
-31.106925 -5.023890 -31.290263 44.406765 0.160121 2.352695 0.028086 -0.002295 -359599.000000 0 0 1
-32.200825 -5.724790 -30.679563 44.843081 0.175946 2.324239 0.026085 -0.004125 319298.000000 0 0 1
-33.157325 -4.997190 -29.990623 44.986860 0.149586 2.300506 0.045395 -0.009926 -670188.000000 0 0 1
-34.134225 -4.185590 -30.895483 46.229810 0.122012 2.302720 0.067561 -0.015394 -856274.000000 0 0 1
-33.721225 -2.901890 -31.436783 46.193217 0.085844 2.319309 0.067062 -0.009503 41967.600000 0 0 1
-33.482525 -1.944290 -30.413183 45.274954 0.058004 2.307357 0.062505 -0.005597 81169.500000 0 0 1
-33.057425 -0.495090 -30.923773 45.269396 0.014976 2.322803 0.061122 -0.006127 -172433.000000 0 0 1
-34.079725 0.078710 -31.675063 46.526804 -0.002310 2.319639 0.073273 -0.003887 -384223.000000 0 0 1
-33.804225 1.404910 -32.076443 46.621858 -0.041536 2.329544 0.079424 0.001992 915295.000000 0 0 1
-35.093625 2.215010 -32.530893 47.903317 -0.063034 2.317325 0.059668 -0.001664 1007650.000000 0 0 1
-35.664625 1.771010 -33.770043 49.147917 -0.049617 2.328301 0.056297 -0.015135 943621.000000 0 0 1
35.876438 2.410810 -34.110257 49.562490 0.067097 2.329839 0.037972 -0.014334 815577.000000 0 0 1
35.033238 1.733710 33.180779 48.283513 0.049447 0.813159 0.033468 -0.014156 -104875.000000 0 0 1
35.373738 1.911010 31.852911 47.639912 0.053971 0.838447 0.028228 -0.017751 396900.000000 0 0 1
-36.324025 1.131210 31.347361 47.993453 -0.031132 0.859047 0.021030 -0.015658 -73846.200000 0 0 1
-35.999025 1.251410 29.868921 46.793678 -0.034748 0.878494 0.040906 -0.022462 -504387.000000 0 0 1
-35.387725 2.485010 29.532211 46.158616 -0.070107 0.876560 0.048072 -0.024679 96261.200000 0 0 1
-35.205125 2.596310 28.166511 45.160757 -0.073615 0.897336 0.053833 -0.028538 106894.000000 0 0 1
-34.513225 3.972710 27.939841 44.582282 -0.114603 0.893482 0.058652 -0.028918 -115371.000000 0 0 1
-34.233325 4.283910 26.583681 43.554156 -0.124491 0.914282 0.066177 -0.021156 427783.000000 0 0 1
-33.579725 5.571910 26.508421 43.143256 -0.164433 0.909136 0.076982 -0.017345 269534.000000 0 0 1
-32.653625 5.740810 25.252991 41.676488 -0.174031 0.919863 0.081979 -0.013392 401195.000000 0 0 1
-31.435725 5.002310 25.356241 40.696030 -0.157805 0.898142 0.071551 -0.016827 368388.000000 0 0 1
-30.585825 5.104110 24.220041 39.346601 -0.165355 0.907705 0.065294 -0.013335 -39482.900000 0 0 1
-31.001225 4.683410 22.802631 38.768161 -0.149938 0.941991 0.091636 -0.018838 -373893.000000 0 0 1
-30.965025 3.297310 22.719931 38.547377 -0.106085 0.940477 0.087552 -0.019652 -25051.200000 0 0 1
-31.766725 2.901310 21.611031 38.530236 -0.091079 0.975342 0.115731 -0.024349 -111034.000000 0 0 1
-31.646725 1.406310 21.212931 38.124551 -0.044409 0.980736 0.111021 -0.029111 -302211.000000 0 0 1
-30.435625 1.059210 20.597731 36.765687 -0.034788 0.976117 0.099155 -0.020674 -192507.000000 0 0 1
-30.267325 1.604610 19.288931 35.926990 -0.052965 1.004047 0.113246 -0.015260 -1638240.000000 0 0 1
-28.894025 1.300710 18.803431 34.498196 -0.044986 0.994341 0.114916 -0.008332 -1512860.000000 0 0 1
-28.708025 -0.061490 18.465631 34.134060 0.002142 0.999202 0.107962 -0.013160 32442.100000 0 0 1
-27.508525 -0.355890 17.783731 32.758307 0.012937 0.996937 0.096867 -0.016088 -810701.000000 0 0 1
-27.478825 -0.200190 16.260331 31.929990 0.007285 1.036484 0.123452 -0.008064 -421462.000000 0 0 1
-27.430925 1.129010 15.749731 31.650977 -0.041135 1.049959 0.117457 -0.011176 359996.000000 0 0 1
-27.452325 1.116310 14.353031 30.998158 -0.040641 1.089387 0.116962 -0.010506 -189013.000000 0 0 1
-27.026625 2.443810 13.677531 30.388905 -0.090177 1.103938 0.121848 -0.014047 447965.000000 0 0 1
-25.601525 2.493010 13.689231 29.138432 -0.097071 1.081732 0.108747 -0.024958 466084.000000 0 0 1
-25.148525 3.728010 13.147431 28.621693 -0.147168 1.093531 0.115147 -0.026532 408252.000000 0 0 1
-23.606325 3.871210 13.037231 27.243609 -0.162544 1.071802 0.099974 -0.032617 319696.000000 0 0 1
-22.904325 4.454810 14.155031 27.291360 -0.192098 1.025509 0.075758 -0.025783 958700.000000 0 0 1
-21.522225 4.533910 13.769131 25.949017 -0.207626 1.011462 0.073881 -0.024694 713479.000000 0 0 1
-20.624225 5.157510 14.900731 25.961324 -0.245045 0.959464 0.050692 -0.021938 -113914.000000 0 0 1
-20.859125 6.527110 15.237431 26.643678 -0.303262 0.961980 0.041626 -0.015579 280433.000000 0 0 1
-20.195425 6.864110 16.416231 26.915866 -0.327635 0.914850 0.031303 -0.009710 -497952.000000 0 0 1
-20.361325 8.367610 16.858631 27.727494 -0.389915 0.917243 0.026342 -0.012200 -420456.000000 0 0 1
-19.654525 9.308710 16.058931 27.034084 -0.442319 0.934743 0.026452 -0.013786 486181.000000 0 0 1
-20.086025 10.689310 16.180631 27.919931 -0.489056 0.952636 0.038383 -0.011325 -107268.000000 0 0 1
-19.631625 11.427910 17.436031 28.635869 -0.527167 0.916139 0.035894 -0.008504 -347859.000000 0 0 1
-20.218425 10.920310 18.579131 29.550330 -0.495224 0.890879 0.042740 -0.012638 221843.000000 0 0 1
-19.623225 11.482010 19.724531 30.099246 -0.529409 0.856195 0.046587 -0.005833 -225442.000000 0 0 1
-12.379362 -33.439722 -20.381763 41.071643 1.216241 2.090069 0.122531 -0.044133 -329961.000000 0 0 1
-13.361462 -34.031322 -19.587763 41.476982 1.196666 2.062645 0.145502 -0.042300 -1154220.000000 0 0 1
-14.433062 -33.171822 -19.496463 41.094953 1.160402 2.065107 0.125701 -0.059141 -135091.000000 0 0 1
-15.659562 -33.842122 -18.761363 41.743261 1.137412 2.036942 0.115033 -0.048092 -147171.000000 0 0 1
-16.178562 33.474010 -19.572663 42.016001 -1.120584 2.055378 0.105861 -0.057665 328936.000000 0 0 1
-17.108162 32.566010 -18.984363 41.396138 -1.087084 2.047218 0.108150 -0.045045 1258700.000000 0 0 1
-18.530662 33.125410 -18.554863 42.248800 -1.060758 2.025483 0.092405 -0.037627 453029.000000 0 0 1
-18.410862 33.903910 -17.362963 42.307297 -1.073320 1.993690 0.095065 -0.037519 -468130.000000 0 0 1
-19.674262 34.199010 -16.864263 42.907484 -1.048746 1.974729 0.054067 -0.029448 -609960.000000 0 0 1
-19.986962 33.735610 -15.458463 42.148951 -1.035940 1.946318 0.051128 -0.027940 -334388.000000 0 0 1
-20.027562 32.348710 -15.355763 41.028548 -1.016440 1.954406 0.057353 -0.037487 221160.000000 0 0 1
-20.418062 31.939410 -14.008463 40.413614 -1.001998 1.924769 0.037987 -0.026079 -519334.000000 0 0 1
-20.347662 30.418510 -13.803163 39.113174 -0.981233 1.931468 0.026155 -0.029323 -540043.000000 0 0 1
-19.109362 29.815510 -13.605363 37.937293 -1.000831 1.937594 0.049584 -0.040712 -705610.000000 0 0 1
-19.323562 28.379910 -13.538763 36.906875 -0.973012 1.946402 0.046336 -0.044522 -524824.000000 0 0 1
-18.136362 27.547610 -13.067363 35.476110 -0.988564 1.948022 0.054059 -0.040156 -251813.000000 0 0 1
-17.054562 27.719610 -13.973063 35.418658 -1.019237 1.976332 0.089684 -0.047927 -372214.000000 0 0 1
-15.942862 26.929910 -13.641363 34.139152 -1.036270 1.981856 0.106446 -0.057770 -328606.000000 0 0 1
-14.649162 27.513310 -14.204563 34.254193 -1.081535 1.998389 0.096625 -0.056072 -511810.000000 0 0 1
-14.527762 27.467710 -15.625563 34.780586 -1.084294 2.036734 0.079687 -0.055159 328204.000000 0 0 1
-13.247962 27.936110 -16.052163 34.836858 -1.127982 2.049671 0.112297 -0.053040 310182.000000 0 0 1
-13.105562 28.096510 -17.538163 35.619612 -1.134349 2.085611 0.125887 -0.065011 -275761.000000 0 0 1
-13.334262 26.916710 -18.213863 35.129142 -1.110844 2.115872 0.079702 -0.055836 111528.000000 0 0 1
-13.480562 27.245510 -19.620163 36.180024 -1.111333 2.143960 0.065769 -0.053120 -34281.400000 0 0 1
-12.998962 26.071310 -20.503063 35.623894 -1.108275 2.184064 0.037575 -0.023785 1309380.000000 0 0 1
-11.599062 26.220510 -20.875263 35.465899 -1.154309 2.200124 0.026903 -0.020775 1163510.000000 0 0 1
-11.029062 25.141510 -21.587263 34.924857 -1.157396 2.237127 0.032196 -0.020841 654439.000000 0 0 1
-9.752962 25.535710 -22.392163 35.335559 -1.205960 2.257124 0.058225 -0.021555 415561.000000 0 0 1
-10.026162 26.284410 -23.578663 36.706232 -1.206384 2.268372 0.049701 -0.013172 68880.500000 0 0 1
-8.882962 26.422410 -24.411163 37.053416 -1.246477 2.290032 0.044705 -0.014041 46035.500000 0 0 1
-9.128062 27.162810 -25.732233 38.513472 -1.246603 2.302497 0.035187 -0.009569 90780.200000 0 0 1
-10.087262 26.422510 -26.486603 38.748445 -1.206106 2.323415 0.021759 -0.001118 20916.400000 0 0 1
-10.379362 27.013910 -27.787973 40.120492 -1.203964 2.335902 0.022981 0.001969 -119847.000000 0 0 1
-11.612362 26.338710 -28.389223 40.429229 -1.155548 2.349273 0.012894 0.000124 -139941.000000 0 0 1
-11.984762 26.817310 -29.669493 41.750227 -1.150520 2.361208 0.018646 -0.000012 17966.500000 0 0 1
-13.335262 26.547010 -30.003843 42.223258 -1.105289 2.361147 0.006907 0.003776 167716.000000 0 0 1
-13.669262 26.905810 -31.497603 43.621902 -1.100736 2.377571 0.006656 0.007934 -49606.800000 0 0 1
-12.905562 26.197810 -32.484903 43.682350 -1.113070 2.409328 0.013874 0.000388 254695.000000 0 0 1
-12.919762 24.780910 -32.432873 42.812440 -1.090208 2.430359 0.000397 -0.000472 191437.000000 0 0 1
-12.124762 24.108110 -33.588933 43.086277 -1.104805 2.464781 0.012914 0.002142 400701.000000 0 0 1
-12.793962 24.399810 33.612619 43.460837 -1.087862 0.686609 0.019653 0.000330 -346797.000000 0 0 1
-12.063062 23.896710 32.586351 42.171560 -1.103316 0.687698 0.019702 -0.005252 -884866.000000 0 0 1
-12.641462 23.886810 31.139741 41.231902 -1.084044 0.714785 0.029033 0.002987 -842485.000000 0 0 1
-13.743062 23.036310 31.018491 41.008415 -1.032893 0.713015 0.032672 -0.003783 -433421.000000 0 0 1
-14.301962 23.060110 29.707391 40.234859 -1.015654 0.740176 0.046095 -0.000611 -287668.000000 0 0 1
-15.507062 22.153310 29.658381 40.135491 -0.960078 0.739276 0.022785 -0.000019 -243447.000000 0 0 1
-15.052162 20.831410 29.979391 39.487708 -0.945082 0.708701 0.015605 -0.008151 303520.000000 0 0 1
-16.160062 19.985110 30.210981 39.664286 -0.890830 0.704914 0.009664 -0.002101 287248.000000 0 0 1
-15.751762 18.542510 30.009061 38.632712 -0.866596 0.681262 0.002981 -0.013921 -113148.000000 0 0 1
-15.318762 18.161710 28.757611 37.302981 -0.870109 0.690512 0.025207 -0.022106 135841.000000 0 0 1
-14.708262 16.866710 28.883821 36.538938 -0.853651 0.659181 0.017631 -0.026586 162106.000000 0 0 1
-14.168062 16.227810 27.548921 34.971686 -0.853059 0.663650 0.031577 -0.026028 -445979.000000 0 0 1
-13.078662 16.944310 27.082891 34.520197 -0.913450 0.668823 0.007973 -0.025376 -912726.000000 0 0 1
-12.371462 16.222310 26.141251 33.159937 -0.919267 0.662693 -0.011243 -0.017446 -30180.600000 0 0 1
-11.371362 17.070410 25.313041 32.580006 -0.983155 0.680989 0.013318 -0.014086 242105.000000 0 0 1
-11.942162 17.943810 24.323761 32.499860 -0.983580 0.725110 0.013991 -0.011001 -65332.100000 0 0 1
-12.507562 19.179810 24.816141 33.766034 -0.992931 0.745212 0.014845 -0.017945 65753.800000 0 0 1
-11.533662 20.192210 25.441411 34.467609 -1.051827 0.740509 0.003042 -0.023223 -15858.000000 0 0 1
-11.129762 20.019710 26.780661 35.240093 -1.063404 0.707562 0.016901 -0.024541 411325.000000 0 0 1
-12.235962 20.184910 27.680831 36.378259 -1.025835 0.706071 0.050249 -0.025404 342258.000000 0 0 1
-11.932962 19.711310 29.071401 37.095521 -1.026426 0.670211 0.041454 -0.019459 414857.000000 0 0 1
-10.970662 20.564710 29.748081 37.791680 -1.080732 0.664606 0.039299 -0.026114 538412.000000 0 0 1
-11.139062 20.296310 31.147081 38.809271 -1.068858 0.639209 0.029720 -0.024949 56597.700000 0 0 1
-10.006162 20.942910 31.961171 39.499939 -1.125080 0.628101 0.021238 -0.017626 860406.000000 0 0 1
-8.690462 20.367210 31.872611 38.809930 -1.167496 0.607200 0.031900 -0.023132 758426.000000 0 0 1
-7.779562 21.154410 32.612959 39.643861 -1.218396 0.604743 0.051144 -0.019169 537938.000000 0 0 1
-6.476462 20.436310 33.062241 39.404303 -1.263899 0.575259 0.041583 -0.013411 -10091.100000 0 0 1
-6.678762 19.619010 -34.204264 39.993038 -1.242679 2.596840 0.040433 -0.023068 654473.000000 0 0 1
-5.485362 19.080310 -33.587163 39.015957 -1.290857 2.607748 0.028636 -0.017374 956297.000000 0 0 1
-4.705862 18.033310 33.967246 38.744280 -1.315535 0.501830 0.014687 -0.013350 -195673.000000 0 0 1
-5.373862 16.815410 33.888352 38.210690 -1.261475 0.480246 0.015537 -0.012195 -103058.000000 0 0 1
-5.022962 16.096410 32.646087 36.743592 -1.268317 0.476766 0.029677 -0.006247 -24554.900000 0 0 1
-5.625562 14.668610 32.517689 36.113919 -1.204586 0.450063 0.040877 -0.002510 -242638.000000 0 0 1
-5.024762 13.646610 33.242589 36.284265 -1.217995 0.412377 0.041898 0.002219 -234778.000000 0 0 1
-5.957062 12.634710 33.312543 36.122680 -1.130221 0.397050 0.055468 -0.006348 -256230.000000 0 0 1
-5.206462 11.284310 33.556577 35.783890 -1.138511 0.354683 0.090517 -0.005939 566379.000000 0 0 1
-4.710162 11.141910 -33.522203 35.637983 -1.170839 2.795282 0.074330 -0.011184 11174.500000 0 0 1
-3.940662 9.948210 -33.431933 35.102562 -1.193641 2.831834 0.084045 -0.013657 304325.000000 0 0 1
-3.682062 9.422010 -32.008203 33.568689 -1.198252 2.835485 0.075636 -0.010139 -146365.000000 0 0 1
-4.854562 8.963910 -31.397523 33.010951 -1.074450 2.827653 0.084020 -0.014756 -364161.000000 0 0 1
-4.707462 8.577210 -30.073393 31.624954 -1.068849 2.827052 0.081953 -0.005919 409052.000000 0 0 1
-5.967262 7.766110 -29.640783 31.216930 -0.915640 2.822466 0.078780 -0.013385 380932.000000 0 0 1
-5.885162 7.229710 -28.312883 29.808106 -0.887562 2.823515 0.070461 -0.009878 383601.000000 0 0 1
-7.012562 6.412510 -27.964753 29.535127 -0.740732 2.814033 0.081223 -0.028152 96854.900000 0 0 1
-6.853262 5.548010 -26.655773 28.076286 -0.680533 2.822133 0.064548 -0.026378 -252304.000000 0 0 1
-7.018562 6.321010 -25.488283 27.182125 -0.733154 2.786705 0.041855 -0.021076 -558838.000000 0 0 1
-5.928862 7.078610 -25.094943 26.739751 -0.873560 2.789022 0.049758 -0.018558 -807791.000000 0 0 1
-6.281662 8.105110 -24.005563 26.104006 -0.911471 2.737889 0.026395 -0.009950 93318.700000 0 0 1
-6.563762 7.500610 -22.818063 24.899922 -0.851911 2.729765 0.017582 -0.005583 2658.820000 0 1 0
-7.925662 7.687510 -22.466363 25.033006 -0.770146 2.684795 0.027075 -0.001604 234283.000000 0 0 1
-8.054462 7.896410 -20.950163 23.793633 -0.775490 2.647701 0.025537 0.001869 -32665.100000 0 1 0
-7.395862 9.071810 -20.533963 23.635569 -0.886821 2.623517 0.008727 0.007813 -15162.900000 0 1 0
-7.101962 9.176110 -19.152263 22.393035 -0.912135 2.596883 0.009439 0.007107 -68990.200000 0 1 0
-8.310762 9.369110 -18.215763 22.105723 -0.845189 2.539283 0.008316 0.005808 -488498.000000 0 1 0
-7.910462 9.554010 -16.887663 20.953464 -0.879230 2.508092 -0.001325 0.010399 419735.000000 0 1 0
-8.927462 10.014810 -15.970263 20.857739 -0.842738 2.442887 -0.000151 0.003847 566773.000000 0 1 0
-9.516362 11.410610 -16.207363 21.987309 -0.875669 2.399600 -0.001041 0.006565 -235215.000000 0 1 0
-8.566962 12.411310 -15.906463 21.919147 -0.966641 2.382830 -0.017319 0.004636 -50627.500000 0 1 0
-9.002462 13.718010 -16.148963 23.022101 -0.990039 2.348233 0.004909 -0.001448 173235.000000 0 1 0
-7.833862 14.662810 -15.779963 22.921052 -1.080112 2.330144 0.015092 -0.005118 333579.000000 0 1 0
-7.300762 14.698610 -14.446863 21.864631 -1.109794 2.292602 0.015502 -0.007719 255203.000000 0 1 0
-8.168662 15.286610 -13.449663 21.938571 -1.080034 2.230725 0.008120 -0.022407 -125790.000000 0 1 0
-7.388962 16.054210 -12.327063 21.547410 -1.139451 2.179848 0.017436 -0.025260 204153.000000 0 1 0
-7.031762 17.346010 -12.743663 22.643557 -1.185659 2.168559 0.032129 -0.022154 -243557.000000 0 1 0
-5.819962 17.435410 -13.456463 22.780296 -1.248625 2.202730 0.025688 -0.016389 -421394.000000 0 1 0
-5.714662 18.807410 -14.131763 24.209146 -1.275810 2.194119 0.049395 -0.008885 -18187.500000 0 1 0
-5.185362 19.682410 -13.186963 24.252448 -1.313198 2.145680 0.055039 -0.016321 -227981.000000 0 1 0
-5.313062 20.946510 -13.747463 25.612060 -1.322386 2.137386 0.061643 -0.013395 -63143.100000 0 0 1
-4.763862 22.019310 -12.757563 25.890149 -1.357731 2.086052 0.072691 -0.014845 -475656.000000 0 0 1
-4.883062 23.422610 -13.026363 27.242413 -1.365264 2.069360 0.070266 -0.028624 936921.000000 0 0 1
-6.201962 23.998910 -12.864763 27.926943 -1.317902 2.049532 0.069960 -0.031306 1218100.000000 0 0 1
-6.906162 24.135310 -11.499363 27.612381 -1.292100 2.000341 0.046169 -0.025117 23178.200000 0 0 1
-7.167662 22.846510 -10.965363 26.335861 -1.266790 2.000241 0.051335 -0.017531 -363156.000000 0 0 1
-7.883362 22.817810 -9.769063 26.042934 -1.238144 1.955316 0.073153 -0.024598 -38368.600000 0 0 1
-7.158062 23.225310 -8.424063 25.721930 -1.271833 1.904458 0.071486 -0.027077 143226.000000 0 0 1
-6.871162 24.617610 -8.452863 26.920076 -1.298608 1.890198 0.077426 -0.029976 -167854.000000 0 0 1
-6.233962 25.088010 -7.267563 26.853082 -1.327245 1.844856 0.062528 -0.023431 63330.600000 0 0 1
-6.314562 26.664510 -7.201563 28.332530 -1.338265 1.827796 0.046601 -0.034121 72348.800000 0 0 1
-5.530662 27.498310 -8.063063 29.184898 -1.372317 1.850713 0.047877 -0.037056 -110298.000000 0 0 1
-5.712762 27.381610 -9.483463 29.535136 -1.365112 1.897677 0.055320 -0.034858 -527680.000000 0 0 1
-5.225362 28.603110 -10.253163 30.831309 -1.390104 1.909810 0.050826 -0.028260 360067.000000 0 0 1
-6.151462 29.692410 -10.199363 31.992291 -1.366513 1.895267 0.056585 -0.021039 190197.000000 0 0 1
-7.191162 29.551010 -11.160263 32.396396 -1.332089 1.922493 0.073096 -0.023847 -47223.600000 0 0 1
-8.307162 30.582410 -10.878763 33.505824 -1.305564 1.901473 0.081600 -0.017968 -196093.000000 0 0 1
-9.318062 30.161510 -9.994363 33.112388 -1.271159 1.877410 0.080340 -0.013002 -213724.000000 0 0 1
-10.397062 31.075910 -10.082663 34.285145 -1.247933 1.869292 0.074088 -0.014702 762340.000000 0 0 1
-11.622262 30.647110 -9.186763 34.039961 -1.208324 1.844067 0.087044 -0.016127 697177.000000 0 0 1
-12.356262 29.552910 -9.703463 33.469522 -1.174779 1.864939 0.099413 -0.021941 -752573.000000 0 0 1
-13.454762 29.288910 -8.910663 33.440556 -1.140169 1.840518 0.107720 -0.021688 -502279.000000 0 0 1
-14.443962 28.253410 -9.448363 33.108228 -1.098206 1.860197 0.107395 -0.024432 -127138.000000 0 0 1
-14.136762 26.850210 -9.256463 31.724815 -1.086170 1.866877 0.111577 -0.032978 285601.000000 0 0 1
-15.194362 25.988410 -9.681663 31.622787 -1.041733 1.881954 0.116007 -0.035225 205343.000000 0 0 1
-15.199262 24.670110 -8.886963 30.308579 -1.018622 1.868385 0.107741 -0.032034 -37073.500000 0 0 1
-14.177462 23.812610 -9.351063 29.248644 -1.033784 1.896219 0.112201 -0.029153 57812.500000 0 0 1
-14.305162 22.518310 -8.856863 28.109713 -1.004847 1.891339 0.094832 -0.023317 546442.000000 0 0 1
-13.243262 21.477710 -9.419363 26.933258 -1.018257 1.928079 0.095314 -0.024494 518003.000000 0 0 1
-13.403362 21.251710 -10.804463 27.349985 -1.008112 1.976913 0.096261 -0.019065 124441.000000 0 0 1
-12.868762 19.989110 -11.130263 26.249806 -0.998800 2.008668 0.093481 -0.018615 -161143.000000 0 0 1
-13.111562 19.646010 -12.596763 26.768586 -0.982293 2.060744 0.089908 -0.012868 791129.000000 0 0 1
-14.483062 19.508010 -12.992863 27.552423 -0.932167 2.061865 0.090606 -0.007243 360574.000000 0 0 1
-14.587562 19.040910 -14.329863 27.940977 -0.917060 2.109312 0.085303 -0.004012 -45085.100000 0 0 1
-16.045562 18.732010 -14.689363 28.707588 -0.862492 2.107946 0.073550 0.002200 77816.300000 0 0 1
-16.835062 19.925510 -14.803063 29.992931 -0.869271 2.086965 0.045969 -0.001360 361667.000000 0 0 1
-18.172462 19.496210 -15.110263 30.637569 -0.820526 2.086554 0.032344 0.001968 535323.000000 0 0 1
-19.006962 20.736310 -15.591863 32.161551 -0.828884 2.076929 0.020248 -0.001432 -17033.700000 0 0 1
-19.144962 21.866510 -14.725863 32.581051 -0.851662 2.039776 0.034804 -0.016998 154475.000000 0 0 1
-19.447662 22.941210 -15.618763 33.888883 -0.867629 2.049785 0.040130 -0.017887 -225261.000000 0 0 1
-20.045962 24.080910 -14.821163 34.661184 -0.876584 2.012634 0.031074 -0.005926 -173990.000000 0 0 1
-21.320162 23.826010 -14.282063 35.017215 -0.840846 1.990904 0.033225 -0.005351 -130045.000000 0 0 1
-21.840862 24.908510 -13.563663 35.797068 -0.850923 1.959408 0.033547 -0.015400 -490019.000000 0 0 1
-25.815892 -0.616090 3.833737 26.106271 0.023860 1.423412 0.140144 -0.038179 158105.000000 0 0 1
-26.482432 -0.073690 4.972337 26.945292 0.002783 1.385198 0.156535 -0.032949 318414.000000 0 0 1
-27.872052 -0.331090 4.971837 28.313955 0.011878 1.394284 0.152557 -0.039104 -293448.000000 0 0 1
-28.524442 0.295110 6.206637 29.193376 -0.010345 1.356557 0.154440 -0.037067 -708296.000000 0 0 1
-28.724402 1.715210 6.040437 29.402723 -0.059642 1.363885 0.173479 -0.041245 165617.000000 0 0 1
-29.380402 2.263510 7.189737 30.331894 -0.076890 1.331483 0.177770 -0.027113 -92567.200000 0 0 1
-28.584042 2.991410 8.306237 29.916376 -0.104274 1.289451 0.203400 -0.029895 339754.000000 0 0 1
-27.628232 2.125810 8.966537 29.124510 -0.076792 1.257844 0.170965 -0.034663 1521290.000000 0 0 1
-26.584632 2.832810 9.685537 28.435490 -0.106158 1.223226 0.164231 -0.035002 910711.000000 0 0 1
-25.513682 1.856410 10.261237 27.562424 -0.072633 1.189320 0.137062 -0.030229 -292732.000000 0 0 1
-24.599762 1.229510 9.406237 26.365456 -0.049939 1.205995 0.149088 -0.032667 20651.800000 0 0 1
-25.080852 0.053010 8.782337 26.574074 -0.002114 1.233979 0.124334 -0.032100 132237.000000 0 0 1
-23.972562 -0.855990 8.135537 25.329892 0.035692 1.243818 0.126534 -0.033656 561551.000000 0 0 1
-22.890462 -1.169990 8.983837 24.618112 0.051068 1.197241 0.112755 -0.051682 134872.000000 0 1 0
-21.839362 -1.878790 8.352937 23.457603 0.085816 1.206720 0.125468 -0.031285 339352.000000 0 1 0
-20.692462 -2.172590 9.374437 22.820565 0.104611 1.147477 0.113134 -0.020659 295638.000000 0 1 0
-19.991462 -0.946790 9.754437 22.264411 0.047324 1.117292 0.095139 -0.020948 891403.000000 0 1 0
-20.642962 -0.096690 10.695637 23.249471 0.004684 1.092758 0.100218 -0.030124 -595480.000000 0 1 0
-19.981562 1.314410 10.770337 22.737428 -0.065686 1.077328 0.068396 -0.024667 -207587.000000 0 1 0
-20.396062 2.239710 9.791837 22.735341 -0.109373 1.125541 0.078930 -0.026261 1196590.000000 0 1 0
-21.811862 2.508010 9.770437 24.031414 -0.114481 1.152100 0.116884 -0.032402 138860.000000 0 1 0
-22.234362 3.909110 9.332337 24.428273 -0.174035 1.178804 0.108237 -0.036808 -433771.000000 0 1 0
-22.134362 4.797610 10.410737 24.926502 -0.213448 1.139931 0.093515 -0.031933 581845.000000 0 1 0
-22.344662 6.139610 9.980237 25.230613 -0.268151 1.164118 0.072870 -0.027176 -271178.000000 0 0 1
-22.549362 7.084310 11.183637 26.148325 -0.304405 1.128850 0.081556 -0.032558 -703560.000000 0 0 1
-23.688362 6.869010 11.936237 27.400649 -0.282233 1.120071 0.095593 -0.030381 -354698.000000 0 0 1
-23.642762 7.616710 13.146737 28.103935 -0.311659 1.084008 0.091798 -0.021118 151044.000000 0 0 1
-24.719762 7.231210 14.211237 29.416259 -0.284587 1.066595 0.108234 -0.025132 258609.000000 0 0 1
-26.040842 7.563810 13.875437 30.460867 -0.282681 1.097844 0.119080 -0.032872 223285.000000 0 0 1
-27.011652 7.020010 14.770137 31.576365 -0.254263 1.084042 0.128690 -0.028191 -190583.000000 0 0 1
-28.403392 6.851510 14.190137 32.481623 -0.236700 1.118684 0.132412 -0.021582 -756439.000000 0 0 1
-28.589262 5.851210 13.209837 32.032520 -0.201877 1.145722 0.134697 -0.003894 -129315.000000 0 0 1
-29.741332 6.116710 12.455737 32.819298 -0.202835 1.181514 0.133310 -0.012740 -560810.000000 0 0 1
-30.128762 4.811210 11.643037 32.656551 -0.158351 1.206245 0.146922 -0.014859 -242797.000000 0 0 1
-30.791852 3.829310 12.379437 33.407368 -0.123726 1.191184 0.138590 -0.014207 280988.000000 0 0 1
-31.284212 2.783110 11.523537 33.455037 -0.088729 1.219145 0.139686 -0.007645 -227691.000000 0 0 1
-32.376172 1.878810 12.057837 34.599680 -0.057966 1.214831 0.113377 0.000606 -302308.000000 0 0 1
-31.869722 0.677610 12.627937 34.287069 -0.021259 1.193616 0.118253 -0.008569 724167.000000 0 0 1
-32.916692 0.129410 13.444737 35.556804 -0.003931 1.183032 0.098123 -0.002307 722658.000000 0 0 1
-32.428092 -1.083590 14.340637 35.474064 0.033403 1.154630 0.101758 -0.005173 61348.800000 0 0 1
-32.416692 -2.341990 13.653837 35.252718 0.072121 1.173081 0.095437 -0.008472 302452.000000 0 0 1
-32.361532 -3.379090 14.619937 35.671131 0.104040 1.148503 0.099775 -0.007055 -267125.000000 0 0 1
-32.273052 -4.825990 14.094937 35.545848 0.148436 1.163064 0.098333 -0.009895 248353.000000 0 0 1
-33.487492 -5.254990 13.483237 36.480470 0.155655 1.192216 0.079672 -0.020821 433244.000000 0 0 1
-33.503132 -6.588890 13.039137 36.549862 0.194187 1.206010 0.091140 -0.021228 -491750.000000 0 0 1
-34.760316 -6.888890 12.178337 37.470632 0.195647 1.239774 0.089842 -0.017466 508200.000000 0 0 1
-36.007246 -6.931190 12.836737 38.850289 0.190168 1.234053 0.070711 -0.017226 384122.000000 0 0 1
36.245561 -5.662090 13.300437 39.021809 -0.154962 1.222979 0.067459 -0.018707 -59836.400000 0 0 1
34.758491 -5.332290 12.941937 37.471052 -0.152223 1.218147 0.063700 -0.010025 1066220.000000 0 0 1
33.839641 -6.219390 13.617937 37.003383 -0.181762 1.193919 0.055066 -0.010502 370677.000000 0 0 1
32.520991 -6.144990 13.102837 35.595788 -0.186753 1.193831 0.053039 -0.009505 202680.000000 0 0 1
31.657181 -7.352390 13.522037 35.200572 -0.228205 1.176517 0.048725 -0.015719 -200887.000000 0 0 1
31.266851 -7.339290 14.877337 35.395146 -0.230557 1.136997 0.048642 -0.009931 31638.300000 0 0 1
30.254961 -8.316890 15.003937 34.780044 -0.268267 1.124758 0.039453 -0.011237 -139628.000000 0 0 1
29.547581 -8.336190 16.388037 34.801141 -0.274981 1.080480 0.039107 -0.009552 -133928.000000 0 0 1
30.335271 -8.822390 17.466237 36.098929 -0.283022 1.065755 0.034505 -0.008503 -342169.000000 0 0 1
29.698741 -8.889090 18.703337 36.205607 -0.290822 1.027937 0.029400 -0.009803 -547653.000000 0 0 1
30.581421 -9.573290 19.790737 37.663570 -0.303379 1.017539 0.030032 -0.004592 1037340.000000 0 0 1
31.718401 -8.841290 20.268937 38.665944 -0.271843 1.019013 0.034970 -0.011667 626976.000000 0 0 1
32.878641 -8.893190 19.455537 39.225143 -0.264164 1.051814 0.028907 -0.007072 -478958.000000 0 0 1
34.088371 -8.143890 20.011237 40.358266 -0.234510 1.051995 0.023447 -0.011327 -113702.000000 0 0 1
34.673161 -8.796090 21.127237 41.544668 -0.248445 1.037305 0.027639 -0.008630 468317.000000 0 0 1
35.878221 -8.141590 21.550437 42.637467 -0.223144 1.040911 0.016645 0.000447 681272.000000 0 0 1
-36.325402 -8.716190 22.864737 43.798436 0.235495 1.021550 0.025012 -0.005495 112533.000000 0 0 1
35.694631 -8.237290 23.953737 43.769181 -0.226801 0.991693 0.029645 -0.007368 320902.000000 0 0 1
35.770651 -9.167390 25.060737 44.627582 -0.250883 0.974535 0.021327 -0.012688 -477914.000000 0 0 1
35.361501 -8.560390 26.428437 44.968637 -0.237513 0.942573 0.037719 -0.012717 -358569.000000 0 0 1
36.234701 -7.696390 27.072437 45.881422 -0.209293 0.939673 0.015946 -0.014790 -781238.000000 0 0 1
35.753981 -7.364690 28.304437 46.192283 -0.203141 0.911257 0.012142 -0.011703 491356.000000 0 0 1
-35.964192 -6.833790 29.349937 46.920599 0.187778 0.894994 0.008292 -0.002751 1104780.000000 0 0 1
-35.258377 -7.805490 30.137137 47.035368 0.217866 0.875343 0.004757 0.002835 381273.000000 0 0 1
-33.880182 -7.484490 30.296037 46.062286 0.217419 0.853010 0.002275 -0.000498 508914.000000 0 0 1
-33.445792 -8.174290 31.590837 46.727091 0.239705 0.828379 -0.007905 0.000737 -272949.000000 0 0 1
-33.546122 -9.562090 31.617137 47.078862 0.277679 0.834460 -0.001047 -0.010309 216926.000000 0 0 1
-32.899802 -10.152190 32.719037 47.497361 0.299309 0.810881 -0.002355 -0.011205 -355289.000000 0 0 1
-33.176442 -11.721790 32.770837 48.083307 0.339626 0.820927 0.020394 -0.018749 -253437.000000 0 0 1
-34.499370 -12.143090 32.987637 49.252872 0.338438 0.836910 0.009195 -0.017255 -165790.000000 0 0 1
-34.659718 -13.492290 32.929037 49.675542 0.371230 0.846134 0.024639 -0.027909 1257880.000000 0 0 1
-36.185802 -13.806390 33.225137 51.028800 0.364493 0.861756 0.028400 -0.020970 1241380.000000 0 0 1
36.283081 -15.144690 33.522937 51.668278 -0.395419 0.864776 0.032693 -0.022381 790596.000000 0 0 1
34.869891 -15.385390 33.402137 50.678618 -0.415531 0.851179 0.024720 -0.015652 635730.000000 0 0 1
34.528831 -16.823290 33.851337 51.197425 -0.453375 0.848390 0.016282 -0.014756 -377189.000000 0 0 1
34.893071 -17.152090 -33.273157 51.174443 -0.456874 2.278632 0.029926 -0.017606 144129.000000 0 0 1
35.015901 -18.561590 -33.107257 51.640453 -0.487429 2.266741 0.023951 -0.024504 -758333.000000 0 0 1
35.499021 -19.021490 -31.699557 51.252898 -0.491900 2.237620 0.033389 -0.017544 393500.000000 0 0 1
34.484141 -18.966390 -30.693357 49.909539 -0.502846 2.233157 0.041307 -0.013972 107621.000000 0 0 1
34.955811 -19.565490 -29.516557 49.758861 -0.510276 2.205814 0.033627 -0.007587 -473161.000000 0 0 1
33.878281 -19.435990 -28.409457 48.296924 -0.520857 2.199658 0.035361 -0.005769 1073830.000000 0 0 1
32.635191 -20.132090 -28.576557 47.822342 -0.552741 2.211247 0.048026 -0.006136 863449.000000 0 0 1
31.792211 -19.631090 -29.618257 47.679823 -0.553174 2.241057 0.032058 0.002877 -787807.000000 0 0 1
30.380181 -20.282590 -29.489557 46.946489 -0.588666 2.249973 0.026289 0.003055 -49785.200000 0 0 1
29.482211 -19.699490 -30.395857 46.703092 -0.589051 2.279476 0.014987 0.007388 -1195170.000000 0 0 1
28.274561 -20.342190 -30.261157 46.141014 -0.623662 2.286092 0.019892 0.004029 -934834.000000 0 0 1
27.232301 -19.836590 -31.280157 45.973218 -0.629547 2.319104 0.027303 0.010449 172750.000000 0 0 1
27.676801 -20.133690 -32.595357 47.263391 -0.628917 2.331807 0.014205 0.005177 -16135.500000 0 0 1
26.637501 -19.909890 -33.504557 47.207156 -0.641860 2.359918 0.052916 0.001539 -7255.640000 0 0 1
27.160401 -20.006490 33.457437 47.511547 -0.634873 0.789506 0.057489 -0.010070 757979.000000 0 0 1
28.169311 -18.990390 33.184937 47.490895 -0.593167 0.797128 0.026408 -0.005906 753533.000000 0 0 1
28.496511 -18.825790 31.804337 46.668805 -0.583815 0.820999 0.032165 -0.004355 -688170.000000 0 0 1
27.445401 -18.283090 30.855837 45.161976 -0.587653 0.818625 0.036689 -0.011310 -736526.000000 0 0 1
27.256601 -16.915190 31.117937 44.691968 -0.555422 0.800600 0.048222 -0.011978 869681.000000 0 0 1
26.385601 -16.391190 30.085437 43.243550 -0.555874 0.801373 0.056027 -0.015396 278400.000000 0 0 1
26.096301 -14.911990 30.371437 42.729481 -0.519141 0.780184 0.064952 -0.017711 -482337.000000 0 0 1
27.171701 -14.065890 30.097237 42.918461 -0.477681 0.793625 0.063458 -0.015544 -147663.000000 0 0 1
26.997301 -12.723490 30.519437 42.686971 -0.440415 0.774231 0.078206 -0.018522 -938581.000000 0 0 1
28.286511 -11.957390 30.721637 43.438749 -0.399941 0.785209 0.074723 -0.023625 -994746.000000 0 0 1
28.816891 -11.740390 29.441837 42.837738 -0.386881 0.813048 0.066196 -0.021098 192862.000000 0 0 1
30.170941 -11.345190 29.652537 43.798082 -0.359674 0.827079 0.053165 -0.021923 180996.000000 0 0 1
30.821651 -10.723790 28.400537 43.261581 -0.334830 0.854648 0.053870 -0.026354 -197111.000000 0 0 1
30.402951 -9.376790 28.087737 42.440365 -0.299161 0.847557 0.052488 -0.022928 -25192.800000 0 0 1
31.048441 -8.862490 26.979537 42.076655 -0.278047 0.874736 0.040085 -0.015631 -276559.000000 0 0 1
30.830681 -7.370190 26.821537 41.524035 -0.234650 0.868558 0.039199 -0.007343 388848.000000 0 0 1
29.481291 -6.941390 26.689937 40.369322 -0.231239 0.848454 0.050303 -0.010973 89504.700000 0 0 1
29.438561 -5.517890 26.870337 40.237930 -0.185288 0.839566 0.054371 -0.007971 139822.000000 0 0 1
27.984781 -5.014490 26.794437 39.067057 -0.177305 0.815015 0.050434 -0.007880 105276.000000 0 0 1
27.443301 -5.140090 25.463137 37.787917 -0.185153 0.831398 0.049342 -0.001689 837376.000000 0 0 1
26.073501 -4.721690 25.356837 36.675482 -0.179150 0.807394 0.063746 -0.006011 575497.000000 0 0 1
25.373801 -5.113990 24.048937 35.331771 -0.198882 0.822133 0.051175 0.003740 -352998.000000 0 0 1
25.771101 -4.399290 22.943437 34.783685 -0.169077 0.850505 0.056391 0.010410 235174.000000 0 0 1
24.889701 -4.641690 21.862437 33.451587 -0.184372 0.858525 0.058791 0.003763 100960.000000 0 0 1
25.291101 -3.821690 20.658637 32.878936 -0.149973 0.891399 0.079140 -0.003157 -82970.300000 0 0 1
24.658201 -2.568190 20.628737 32.251625 -0.103777 0.876794 0.078222 0.000431 -50368.700000 0 0 1
25.049301 -1.751690 19.543437 31.819520 -0.069816 0.909429 0.086593 -0.009079 221890.000000 0 0 1
23.919101 -0.836690 18.939937 30.521217 -0.034966 0.901353 0.059444 -0.013500 715675.000000 0 0 1
22.942701 -1.603390 18.214837 29.338008 -0.069773 0.900955 0.081694 -0.017539 821517.000000 0 0 1
21.837201 -0.856990 17.700037 28.122751 -0.039224 0.890035 0.083025 -0.016528 398350.000000 0 0 1
20.670201 -1.671190 17.161537 26.917809 -0.080675 0.879478 0.069932 -0.012436 -582894.000000 0 0 1
20.920501 -2.270590 15.934237 26.395508 -0.108111 0.922697 0.077569 -0.018015 -243310.000000 0 0 1
19.865601 -3.064090 15.494537 25.379351 -0.153035 0.914083 0.088643 -0.025984 -658019.000000 0 0 1
20.130601 -3.505390 14.020537 24.781128 -0.172404 0.969424 0.091777 -0.028167 -358402.000000 0 1 0
19.055901 -4.233590 13.509237 23.739211 -0.218616 0.965424 0.086857 -0.031260 229342.000000 0 1 0
19.292501 -4.662690 12.197137 23.296168 -0.237137 1.019762 0.096674 -0.033348 -761710.000000 0 1 0
18.302701 -5.709290 11.766537 22.495250 -0.302372 1.020350 0.072391 -0.033697 -633675.000000 0 1 0
18.584101 -6.999490 12.304737 23.361683 -0.360206 1.016076 0.113581 -0.035838 1360560.000000 0 1 0
17.361401 -7.680390 12.636237 22.805287 -0.416502 0.983524 0.070284 -0.005284 380172.000000 0 1 0
17.571501 -9.183990 12.821437 23.611281 -0.481614 0.996765 0.096925 -0.030775 -386972.000000 0 1 0
18.127101 -9.763590 11.653037 23.658249 -0.494063 1.055771 0.075219 -0.040285 590593.000000 0 1 0
17.728101 -11.111990 11.499837 23.874844 -0.559893 1.068235 0.080560 -0.043480 298628.000000 0 1 0
18.629601 -11.734790 10.378737 24.341026 -0.562115 1.130300 0.085889 -0.040999 198125.000000 0 1 0
18.265801 -11.190890 9.124037 23.283547 -0.549683 1.168137 0.096978 -0.036567 99135.100000 0 1 0
19.060201 -11.679890 8.091037 23.773430 -0.549770 1.223518 0.106593 -0.043256 -253256.000000 0 1 0
18.890901 -11.072090 6.694837 22.897122 -0.530141 1.274074 0.105217 -0.032874 84418.200000 0 1 0
19.539601 -9.793390 6.624537 22.838367 -0.464613 1.276505 0.130849 -0.027657 536133.000000 0 1 0
19.633001 -9.295290 5.273237 22.353170 -0.442185 1.332646 0.093530 -0.032195 -25708.300000 0 1 0
20.519101 -8.034890 5.064437 22.610650 -0.373228 1.344895 0.160713 -0.027897 -89286.400000 0 1 0
20.844401 -7.729590 3.737437 22.543382 -0.355104 1.404239 0.108089 -0.024475 455717.000000 0 1 0
21.266001 -6.400090 3.619537 22.501222 -0.292332 1.409235 0.125347 -0.023543 -902834.000000 0 1 0
21.888701 -6.097190 2.258637 22.834019 -0.271668 1.471719 0.127620 -0.023086 -630055.000000 0 1 0
21.034101 -6.103190 1.175337 21.933166 -0.282402 1.517183 0.096787 -0.030865 324138.000000 0 1 0
21.626401 -5.351490 0.139237 22.279117 -0.242579 1.564547 0.108316 -0.024649 19554.000000 0 1 0
-25.756272 -15.545190 -0.052863 30.083904 0.543025 1.572554 0.095293 -0.004045 -192561.000000 0 0 1
-24.748962 -14.931290 -0.853163 28.916819 0.542850 1.600305 0.080661 0.005778 532533.000000 0 0 1
-23.446762 -15.466490 -0.686463 28.096872 0.583124 1.595231 0.082279 0.006758 215728.000000 0 0 1
-22.651262 -15.015390 0.553237 27.181753 0.585386 1.550442 0.080596 -0.007436 -1358780.000000 0 0 1
-23.112762 -15.368690 1.787637 27.813523 0.586809 1.506480 0.076411 0.001743 -133962.000000 0 0 1
-22.246462 -15.065490 2.885737 27.022242 0.595265 1.463801 0.061713 0.014334 220602.000000 0 0 1
-22.778362 -15.667590 4.222537 27.967069 0.602510 1.419234 0.069474 0.008850 -180986.000000 0 0 1
-22.696862 -17.055490 4.242037 28.705960 0.644427 1.422478 0.095826 -0.004439 110371.000000 0 0 1
-23.286862 -17.600790 5.393437 29.684254 0.647219 1.388088 0.096373 -0.008620 -179300.000000 0 0 1
-23.558162 -19.150190 5.364337 30.830065 0.682551 1.395909 0.083155 -0.010082 129702.000000 0 0 1
-23.931862 -19.844590 6.580937 31.778145 0.692301 1.362197 0.075240 -0.016967 -15360.200000 0 0 1
-24.026262 -21.199090 6.281337 32.651461 0.722966 1.377214 0.084737 -0.023652 -154088.000000 0 0 1
-24.590162 -22.023890 7.448737 33.840974 0.730400 1.348869 0.073763 -0.017593 -352334.000000 0 0 1
-23.804262 -22.163490 8.567237 33.634220 0.749719 1.313240 0.065232 -0.008584 -257303.000000 0 0 1
-24.470062 -23.096390 9.418437 34.941868 0.756527 1.297875 0.068741 -0.004928 732175.000000 0 0 1
-23.541962 -23.436090 10.644737 34.882442 0.783145 1.260690 0.047155 -0.008829 522651.000000 0 0 1
-23.432862 -22.336590 11.535537 34.367003 0.761451 1.228493 0.051269 -0.010164 329673.000000 0 0 1
-22.311262 -22.477790 12.389637 34.008037 0.789116 1.197899 0.052900 -0.009659 113405.000000 0 0 1
-22.575662 -21.580590 13.618837 34.071324 0.762867 1.159590 0.034677 -0.000873 46838.900000 0 0 1
-23.692262 -22.019590 14.366337 35.391768 0.748823 1.152808 0.029672 0.000196 18786.000000 0 0 1
-23.906162 -21.205990 15.497137 35.515628 0.725615 1.119262 0.027408 0.016638 735144.000000 0 0 1
-25.250812 -21.548190 16.282537 36.973626 0.706445 1.114772 0.045307 0.004935 1745370.000000 0 0 1
-26.510542 -21.315890 15.628137 37.435474 0.677208 1.140138 0.048149 0.004023 776537.000000 0 0 1
-26.926152 -22.122690 14.554637 37.765971 0.687777 1.175166 0.046455 -0.000613 -564087.000000 0 0 1
-27.992842 -23.132090 14.967737 39.277550 0.690607 1.179836 0.047179 -0.008082 -369551.000000 0 0 1
-27.519072 -24.107990 15.926237 39.901623 0.719422 1.160220 0.035285 0.000140 96741.200000 0 0 1
-28.356442 -25.239640 16.238537 41.289434 0.727310 1.166594 0.051220 -0.005202 -219727.000000 0 0 1
-28.348092 -26.540100 15.374337 41.765554 0.752471 1.193820 0.043245 -0.001143 166041.000000 0 0 1
-29.018312 -26.395460 14.135137 41.696341 0.738101 1.224941 0.043917 -0.013713 336238.000000 0 0 1
-30.438712 -26.412610 14.184837 42.724124 0.714698 1.232363 0.070115 -0.032224 197332.000000 0 0 1
-31.224552 -26.849890 12.944737 43.167760 0.710212 1.266239 0.086119 -0.030613 24171.500000 0 0 1
-30.809152 -28.178610 12.609637 43.614686 0.740833 1.277495 0.080984 -0.033440 258260.000000 0 0 1
-31.336632 -28.640760 11.378337 43.951612 0.740480 1.308930 0.075064 -0.016981 -99953.700000 0 0 1
-30.601732 -29.892400 10.888037 44.142620 0.773673 1.321568 0.058095 -0.012614 51542.400000 0 0 1
-31.076612 -31.118360 11.478237 45.451712 0.786069 1.315495 0.054470 -0.016514 68206.800000 0 0 1
-30.469132 -32.258270 10.904537 45.693248 0.813913 1.329824 0.057387 -0.022824 -309950.000000 0 0 1
-30.734382 -33.696410 11.577937 47.054213 0.831338 1.322188 0.038770 -0.022053 282705.000000 0 0 1
-32.031492 34.121038 11.573937 48.210141 -0.816974 1.328356 0.025883 -0.022750 181415.000000 0 0 1
-31.873802 32.706447 11.688737 47.141038 -0.798291 1.320230 0.052797 -0.029193 -378104.000000 0 0 1
-33.162022 32.029992 12.223637 47.697561 -0.768035 1.311631 0.059005 -0.027085 836583.000000 0 0 1
-34.309057 31.960752 11.368437 48.247719 -0.749977 1.332933 0.043802 -0.028235 535710.000000 0 0 1
-34.918216 33.131517 10.979737 49.371387 -0.759148 1.346530 0.061753 -0.025987 -1113370.000000 0 0 1
-36.314282 32.891315 10.365637 50.080057 -0.735978 1.362308 0.044998 -0.017680 -26574.900000 0 0 1
-36.325642 32.368759 9.064637 49.491984 -0.727860 1.386603 0.024073 -0.011723 360501.000000 0 0 1
35.102861 32.139352 8.743337 48.390027 0.741355 1.389114 0.023545 -0.010636 266004.000000 0 0 1
34.861841 31.608442 7.315937 47.623151 0.736492 1.416564 0.031432 -0.014105 18336.800000 0 0 1
35.206511 30.257572 7.148837 46.969404 0.709944 1.418000 0.041884 -0.020659 -20597.600000 0 0 1
34.779351 29.865032 5.890337 46.219254 0.709523 1.443005 0.058385 -0.021194 -25568.000000 0 0 1
35.130661 28.404072 5.458537 45.505497 0.679918 1.450553 0.058412 -0.018872 271198.000000 0 0 1
34.312251 27.357082 5.999737 44.291504 0.673091 1.434918 0.071996 -0.018542 320846.000000 0 0 1
34.736271 26.992292 7.320937 44.595835 0.660598 1.405888 0.051944 -0.019107 -231572.000000 0 0 1
33.987061 25.833582 7.914337 43.418095 0.649934 1.387489 0.048950 -0.018965 -297399.000000 0 0 1
34.086941 24.716532 7.064937 42.693557 0.627375 1.404551 0.053309 -0.015912 -116622.000000 0 0 1
33.104781 23.740902 7.275737 41.382282 0.622140 1.394060 0.044317 -0.007858 -834689.000000 0 0 1
33.283501 22.504642 6.362737 40.678431 0.594539 1.413736 0.052669 -0.010434 697700.000000 0 0 1
34.341011 21.559642 6.640437 41.087937 0.560618 1.408469 0.068897 -0.012152 1542300.000000 0 0 1
35.708981 22.052542 6.635437 42.490881 0.553233 1.413993 0.063201 -0.018086 1625710.000000 0 0 1
-36.085532 20.789242 6.560437 42.159193 -0.522668 1.414550 0.073982 -0.022483 256737.000000 0 0 1
-36.344472 20.141942 5.374737 41.898762 -0.506059 1.442163 0.088579 -0.026625 97687.200000 0 0 1
-36.240422 18.767842 5.667537 41.203411 -0.477842 1.432809 0.098449 -0.026467 -229178.000000 0 0 1
35.997631 17.800142 4.610637 40.421931 0.459223 1.456485 0.106794 -0.034140 -310834.000000 0 0 1
-36.072022 17.656642 3.406537 40.305735 -0.455199 1.486178 0.115241 -0.031856 -7994.140000 0 0 1
36.251211 16.545342 2.685637 39.938844 0.428170 1.503502 0.113950 -0.031344 -858710.000000 0 0 1
-35.647939 16.135042 1.522937 39.159092 -0.425032 1.531895 0.135249 -0.023374 -586480.000000 0 0 1
-34.474760 15.463742 1.828037 37.828271 -0.421650 1.522453 0.127779 -0.034645 -404777.000000 0 0 1
-33.351752 16.259242 2.133837 37.165247 -0.453604 1.513350 0.118622 -0.032807 -416216.000000 0 0 1
-32.072202 15.429042 2.364537 35.668929 -0.448391 1.504456 0.094496 -0.032886 -207653.000000 0 0 1
-32.111482 14.569242 3.532537 35.438523 -0.425933 1.470950 0.107253 -0.025300 -214779.000000 0 0 1
-30.782242 14.331242 3.892437 34.177214 -0.435725 1.456659 0.091369 -0.028308 -432400.000000 0 0 1
-30.661822 13.569242 5.242137 33.937467 -0.416637 1.415711 0.099542 -0.022178 41325.400000 0 0 1
-31.123572 12.201642 5.120937 33.819828 -0.373624 1.418793 0.119515 -0.017899 460363.000000 0 0 1
-30.992012 11.641642 6.448037 33.728472 -0.359326 1.378437 0.102122 -0.012751 -121860.000000 0 0 1
-31.231062 10.085142 6.514337 33.459317 -0.312350 1.374851 0.120822 -0.023257 -61111.700000 0 0 1
-32.572672 9.665242 6.517837 34.595925 -0.288453 1.381265 0.119143 -0.014456 -130514.000000 0 0 1
-32.594532 8.186142 6.373037 34.205731 -0.246061 1.383386 0.137578 -0.023803 281100.000000 0 0 1
-34.037741 7.610042 6.362537 35.453666 -0.219959 1.390358 0.121032 -0.018193 212310.000000 0 0 1
-34.620448 7.594342 7.639237 36.257515 -0.215940 1.358512 0.103148 -0.013764 -122267.000000 0 0 1
-35.916586 7.048342 7.538437 37.369885 -0.193779 1.367678 0.070121 -0.014285 72122.300000 0 0 1
36.253711 6.519142 8.880037 37.890445 0.177919 1.334235 0.052876 -0.015186 -143824.000000 0 0 1
35.715331 7.492942 9.751337 37.773240 0.206797 1.309685 0.065158 -0.010883 85800.100000 0 0 1
-36.177492 8.369142 10.449837 38.575284 -0.227337 1.296474 0.080662 -0.013153 -276678.000000 0 0 1
35.976461 9.161542 11.571237 38.886156 0.249354 1.268653 0.067490 -0.021717 -713172.000000 0 0 1
35.320571 8.399542 12.513937 38.401741 0.233472 1.238866 0.050331 -0.023128 195754.000000 0 0 1
34.911081 9.187242 13.603537 38.577781 0.257327 1.210420 0.069288 -0.028239 -374162.000000 0 0 1
34.208221 8.407442 14.736037 38.184267 0.240996 1.174592 0.074237 -0.031553 -353044.000000 0 0 1
32.829501 8.135342 14.631737 36.851698 0.242912 1.162503 0.048641 -0.025018 134101.000000 0 0 1
32.393191 7.576642 15.842437 36.847078 0.229766 1.126358 0.052584 -0.023194 642636.000000 0 0 1
30.869911 7.211842 15.915137 35.471872 0.229504 1.105521 0.035192 -0.007641 1459840.000000 0 0 1
29.909071 8.347342 16.014137 34.938278 0.272165 1.094653 0.034409 -0.009627 2243830.000000 0 0 1
28.516701 7.966942 16.049437 33.678759 0.272432 1.074076 0.039012 -0.005016 1143910.000000 0 0 1
28.012451 7.223042 17.289337 33.701497 0.252354 1.032104 0.038003 -0.014255 -759597.000000 0 0 1
28.078101 8.149142 18.355237 34.521052 0.282471 1.010176 0.067599 -0.022742 4807.380000 0 0 1
27.353001 7.746242 19.485837 34.465762 0.275969 0.969917 0.069524 -0.015706 -422150.000000 0 0 1
27.852341 6.673842 20.491737 35.216535 0.235181 0.949760 0.071064 -0.012171 -456997.000000 0 0 1
27.114201 6.620842 21.668737 35.334822 0.239497 0.910640 0.058421 -0.009294 -264770.000000 0 0 1
27.588001 5.612342 22.512537 36.047337 0.200695 0.896271 0.059246 -0.006832 -930261.000000 0 0 1
26.694401 5.428642 23.747937 36.138978 0.200627 0.853794 0.067791 -0.003598 1486060.000000 0 0 1
25.344201 4.950842 23.486337 34.906266 0.192915 0.832755 0.036889 -0.001666 1185360.000000 0 0 1
24.440301 5.933042 23.047437 34.113248 0.238150 0.828997 0.044819 0.002955 -1707580.000000 0 0 1
23.005901 5.498942 22.973637 32.974200 0.234621 0.799988 0.049490 -0.006960 -878856.000000 0 0 1
22.669701 4.828842 21.740337 31.778536 0.209872 0.817400 0.041290 -0.009867 1152330.000000 0 0 1
21.244501 4.804742 21.534237 30.629034 0.222422 0.791096 0.036346 -0.011669 93734.300000 0 0 1
20.520401 3.407542 21.520237 29.930232 0.164555 0.768415 0.050325 -0.012876 1118710.000000 0 0 1
19.148401 3.415542 21.084437 28.685897 0.176516 0.745114 0.037331 -0.015637 1180490.000000 0 0 1
18.244801 3.997542 22.011437 28.867914 0.215697 0.703647 0.057795 -0.018359 -469111.000000 0 0 1
16.804201 4.175842 21.456237 27.571524 0.243566 0.678997 0.076626 -0.020762 -7577.730000 0 0 1
16.065101 3.010442 21.593737 27.082092 0.185242 0.647915 0.065658 -0.023924 -686801.000000 0 0 1
15.074501 2.890442 20.642937 25.724037 0.189444 0.639362 0.075198 -0.025896 -1221810.000000 0 0 1
14.074001 1.784542 20.856837 25.224388 0.126124 0.597309 0.080621 -0.027178 -808963.000000 0 0 1
14.689401 0.554442 20.988137 25.623969 0.037726 0.610987 0.054719 -0.025296 193218.000000 0 0 1
13.834901 -0.282358 21.740937 25.771158 -0.020406 0.566816 0.059538 -0.032224 -25482.600000 0 0 1
14.203001 -1.767858 21.737737 26.026521 -0.123834 0.582273 0.029576 -0.018328 -164855.000000 0 0 1
13.837601 -2.494658 20.598237 24.939725 -0.178365 0.598963 0.036415 -0.009877 194422.000000 0 1 0
13.875201 -3.917158 20.794737 25.303882 -0.275153 0.606233 0.039315 0.003643 -152934.000000 0 0 1
13.626901 -4.755858 19.516437 24.273482 -0.335788 0.636766 0.043466 -0.003531 -1325260.000000 0 1 0
12.284501 -4.769958 19.238437 23.319068 -0.370372 0.600578 0.042739 -0.006503 -1213660.000000 0 1 0
12.121701 -5.357558 17.924437 22.291804 -0.416165 0.636667 0.050910 -0.010915 -221505.000000 0 1 0
10.634101 -5.365158 17.569837 21.226592 -0.467260 0.595750 0.054864 -0.013894 -301865.000000 0 1 0
9.959801 -6.436658 18.209637 21.730603 -0.573744 0.577240 0.052266 -0.009992 253250.000000 0 1 0
8.555401 -6.255058 17.953737 20.848437 -0.631311 0.533259 0.043110 -0.019296 561008.000000 0 1 0
7.784701 -7.215058 18.898737 21.675352 -0.747440 0.511728 0.038754 -0.022959 -389506.000000 0 1 0
7.767401 -8.565258 18.587837 21.890725 -0.834210 0.556481 0.036849 -0.022804 -135642.000000 0 1 0
8.725701 -9.318658 19.294437 23.135483 -0.818247 0.584522 0.049798 -0.021732 42673.200000 0 1 0
8.969401 -10.652458 18.582137 23.221129 -0.870963 0.643125 0.055675 -0.030270 -78898.500000 0 1 0
9.671901 -10.497458 17.385037 22.494040 -0.826307 0.687440 0.063212 -0.029128 -214372.000000 0 1 0
9.659901 -11.649358 16.595137 22.459292 -0.878489 0.739362 0.049030 -0.038669 208064.000000 0 1 0
11.029601 -11.866258 15.904037 22.702392 -0.821924 0.794636 0.079561 -0.024291 -46490.100000 0 1 0
11.135501 -12.985858 15.032037 22.772660 -0.861959 0.849856 0.083134 -0.031917 206362.000000 0 1 0
10.422601 -12.860558 13.801137 21.552168 -0.889727 0.875830 0.048385 -0.021595 -225597.000000 0 1 0
10.703701 -14.049058 12.777137 21.799094 -0.919735 0.944520 0.039484 -0.028873 928969.000000 0 1 0
12.062101 -14.165958 12.311737 22.310256 -0.865441 0.986225 0.022193 -0.024212 815917.000000 0 1 0
12.500901 -13.234658 11.338337 21.447298 -0.813902 1.013775 0.016414 -0.019485 -1236000.000000 0 1 0
13.999701 -13.222558 11.105937 22.229924 -0.756858 1.047666 0.037946 -0.026059 -646089.000000 0 1 0
14.544901 -14.329858 10.417737 22.922221 -0.777951 1.099006 0.054664 -0.025047 -139669.000000 0 1 0
15.793101 -14.006358 9.818437 23.280933 -0.725511 1.135436 0.071234 -0.035289 -300943.000000 0 1 0
16.385501 -15.301958 9.394937 24.308423 -0.751217 1.173975 0.064499 -0.035415 -660273.000000 0 1 0
16.915901 -16.042658 10.449637 25.548180 -0.758909 1.149420 0.072205 -0.029871 484220.000000 0 0 1
15.980701 -16.586758 11.418437 25.707666 -0.804005 1.110555 0.087249 -0.024442 365898.000000 0 0 1
16.755201 -17.158258 12.620237 27.100055 -0.797282 1.086382 0.087078 -0.023070 633857.000000 0 0 1
17.736101 -18.190558 12.382937 28.263100 -0.798047 1.117278 0.112402 -0.028181 344475.000000 0 0 1
18.187301 -18.729058 13.563137 29.419623 -0.800072 1.091648 0.086185 -0.025126 -369146.000000 0 0 1
19.462401 -19.550658 13.237937 30.598305 -0.787660 1.123381 0.040982 -0.020130 -94824.300000 0 0 1
20.540701 -18.639258 13.209137 30.721713 -0.736905 1.126347 0.030710 -0.018192 -26947.500000 0 0 1
21.792201 -19.301958 13.004737 31.883990 -0.724874 1.150669 0.016500 -0.017925 807854.000000 0 0 1
22.641101 -18.625858 11.864237 31.627554 -0.688404 1.186266 0.017709 -0.014497 -795977.000000 0 0 1
22.396501 -18.930858 10.493237 31.146247 -0.701736 1.227172 0.019411 -0.013290 -282115.000000 0 0 1
21.115901 -18.677058 9.956637 29.897298 -0.724186 1.231283 0.041548 -0.019819 101450.000000 0 0 1
20.658601 -17.170758 9.913137 28.633600 -0.693459 1.217272 0.088698 -0.026705 -216677.000000 0 0 1
21.414701 -16.309758 9.074637 28.406807 -0.650893 1.245644 0.069338 -0.024625 1302.740000 0 0 1
20.895401 -15.004658 9.055637 27.272003 -0.622760 1.232321 0.079009 -0.035035 68196.200000 0 0 1
-34.774628 24.826510 8.274037 43.521145 -0.620011 1.379517 0.073607 -0.004781 -479472.000000 0 0 1
-33.752222 24.235110 8.982637 42.511655 -0.622724 1.357893 0.061628 -0.013298 -98596.300000 0 0 1
-32.743872 25.177510 9.373637 42.354849 -0.655502 1.347637 0.061442 -0.010869 -205806.000000 0 0 1
-31.612512 24.443310 10.087737 41.213939 -0.658195 1.323519 0.066852 -0.014088 -466066.000000 0 0 1
-30.981952 23.485310 9.244937 39.961356 -0.648622 1.337334 0.061325 -0.013805 -69403.000000 0 0 1
-30.372962 22.470910 9.991937 39.080653 -0.636962 1.312251 0.055871 -0.011722 -442132.000000 0 0 1
-29.511862 21.567610 9.124537 37.674513 -0.631107 1.326170 0.042135 -0.021777 -179497.000000 0 0 1
-30.222462 20.811710 8.124437 37.583653 -0.603046 1.352907 0.052461 -0.029021 649276.000000 0 0 1
-29.345622 19.958210 7.355837 36.243675 -0.597251 1.366421 0.050635 -0.028485 -24128.300000 0 0 1
-30.028742 19.179310 6.277437 36.179794 -0.568389 1.396407 0.056352 -0.030942 -557573.000000 0 0 1
-30.705622 18.008110 6.662437 36.214849 -0.530416 1.385773 0.063355 -0.029493 740478.000000 0 0 1
-31.818272 17.726110 5.811637 36.883499 -0.508282 1.412570 0.069786 -0.034847 581474.000000 0 0 1
-32.758122 16.532410 6.204237 37.214348 -0.467386 1.403298 0.080196 -0.032114 -123142.000000 0 0 1
-33.339672 16.816910 7.436537 38.074194 -0.467170 1.374216 0.086637 -0.032594 17897.700000 0 0 1
-34.356521 15.873610 7.706337 38.622916 -0.432810 1.369921 0.095022 -0.036995 303750.000000 0 0 1
-35.288353 16.259710 8.942437 39.869954 -0.431772 1.344582 0.088986 -0.028476 487219.000000 0 0 1
-36.234472 17.241610 8.526537 41.023309 -0.444129 1.361424 0.085834 -0.022538 -41468.400000 0 0 1
35.842111 17.646610 9.651337 41.099977 0.457503 1.333757 0.094530 -0.014224 -139724.000000 0 0 1
34.943891 18.899910 9.345637 40.812045 0.495802 1.339754 0.086872 -0.013315 100208.000000 0 0 1
33.673891 18.555010 8.847237 39.452414 0.503626 1.344622 0.062640 -0.014088 -590584.000000 0 0 1
32.867641 19.663610 8.758137 39.289240 0.539144 1.345993 0.051499 -0.008229 536371.000000 0 0 1
31.341071 19.384110 8.477737 37.813734 0.553904 1.344677 0.026972 -0.006095 989176.000000 0 0 1
30.646461 20.653410 8.465137 37.913421 0.593011 1.345623 0.019837 -0.011506 25943.900000 0 0 1
29.458521 20.875910 7.753637 36.928674 0.616511 1.359260 0.002491 -0.014655 -11251.300000 0 0 1
29.277071 20.363410 6.273537 36.210118 0.607727 1.396664 -0.011270 0.000459 -740421.000000 0 0 1
29.353381 18.959610 6.083037 35.469580 0.573494 1.398444 0.005834 -0.004555 163171.000000 0 0 1
29.079371 18.665310 4.704037 34.873078 0.570642 1.435494 0.006413 -0.003987 57682.800000 0 0 1
27.662601 18.890710 4.086437 33.745776 0.599155 1.449404 0.026965 0.001552 -697403.000000 0 0 1
26.697001 18.159710 4.823537 32.646155 0.597324 1.422501 0.024367 -0.003466 1470960.000000 0 0 1
25.337601 18.666310 4.710537 31.821601 0.634937 1.422221 0.056955 -0.010145 1178820.000000 0 0 1
24.972401 20.110010 5.146937 32.473440 0.677958 1.411628 0.078508 -0.014932 -775640.000000 0 0 1
25.570801 21.078610 4.323237 33.419516 0.689397 1.441070 0.056649 -0.012414 247359.000000 0 0 1
24.971401 22.294410 4.665937 33.799150 0.728822 1.432305 0.073819 -0.011351 -133518.000000 0 0 1
25.869601 23.535610 4.474837 35.258834 0.738191 1.443539 0.051418 -0.000888 514433.000000 0 0 1
26.969001 23.580810 5.401337 36.229216 0.718471 1.421151 0.039449 -0.010357 594513.000000 0 0 1
27.866291 24.627610 5.171637 37.547239 0.723780 1.432620 0.051439 -0.010301 -1030340.000000 0 0 1
29.252241 24.500310 5.836337 38.600798 0.697224 1.419017 0.032022 -0.015926 352086.000000 0 0 1
30.165801 23.492310 5.313837 38.601827 0.661663 1.432700 0.032104 -0.015112 662944.000000 0 0 1
30.421721 23.536910 3.938337 38.664942 0.658490 1.468761 0.045083 -0.017381 -1062680.000000 0 0 1
31.215841 24.744610 3.386737 39.977424 0.670270 1.485978 0.062992 -0.030009 -144222.000000 0 0 1
30.504461 25.985810 3.308237 40.208567 0.705578 1.488426 0.047989 -0.027106 -673107.000000 0 0 1
31.224961 26.837010 2.547537 41.251827 0.709968 1.509001 0.084655 -0.026835 -1122390.000000 0 0 1
30.641511 28.313110 2.490337 41.793973 0.745924 1.511175 0.084354 -0.019890 1258840.000000 0 0 1
29.324021 28.493910 1.904337 40.931988 0.771042 1.524255 0.116862 -0.020979 682103.000000 0 0 1
28.337601 27.983610 2.738037 39.919906 0.779113 1.502154 0.091264 -0.012574 -1409270.000000 0 0 1
26.894501 28.417510 2.430037 39.201711 0.812926 1.508769 0.051902 -0.000765 -52898.400000 0 0 1
26.810601 29.811710 2.497037 40.171900 0.838351 1.508597 0.049821 -0.008865 42175.900000 0 0 1
25.469401 30.217610 2.324537 39.587849 0.870458 1.512044 0.043920 -0.001098 104022.000000 0 0 1
25.396601 31.633510 2.940437 40.673240 0.894327 1.498439 0.048101 -0.010247 -127586.000000 0 0 1
25.362401 31.818910 4.330637 40.920030 0.897835 1.464766 0.047064 -0.022757 655321.000000 0 0 1
26.620301 31.707210 5.010037 41.702375 0.872391 1.450368 0.050089 -0.028025 427419.000000 0 0 1
26.472901 31.589410 6.558937 41.733979 0.873292 1.412981 0.062625 -0.033573 115589.000000 0 0 1
25.785801 30.432410 7.040737 40.504458 0.867864 1.396083 0.062725 -0.037606 317397.000000 0 0 1
26.603101 29.285010 7.043237 40.186366 0.833348 1.394622 0.056672 -0.038432 349583.000000 0 0 1
25.822401 28.051210 7.624037 38.881779 0.826746 1.373435 0.074884 -0.035080 131257.000000 0 0 1
24.733201 27.602910 6.874437 37.694957 0.840176 1.387400 0.056355 -0.036119 -135419.000000 0 0 1
24.221001 26.342710 7.146837 36.492089 0.827335 1.373676 0.060395 -0.025413 -98920.200000 0 0 1
22.913401 26.065910 6.349837 35.281384 0.849674 1.389833 0.067003 -0.011365 53940.400000 0 0 1
23.004901 25.772210 4.988437 34.904395 0.842071 1.427388 0.047137 -0.014965 193985.000000 0 0 1
23.189401 26.989010 4.245337 35.835428 0.860976 1.452050 0.048508 -0.009995 -212980.000000 0 0 1
23.270001 26.774510 2.694337 35.575649 0.855312 1.494988 0.049102 -0.000403 201366.000000 0 0 1
24.303601 25.838410 2.373137 35.551656 0.815998 1.503995 0.042222 0.011105 487646.000000 0 0 1
24.174201 25.503010 0.984437 35.153444 0.812141 1.542789 0.058435 0.009247 -1008370.000000 0 0 1
25.416801 24.993710 0.335437 35.648448 0.777005 1.561387 0.065162 0.005401 -1919830.000000 0 0 1
26.456901 25.942310 0.157937 37.053961 0.775578 1.566534 0.049175 0.001867 805439.000000 0 0 1
27.590801 25.621010 -0.649763 37.657810 0.748397 1.588052 0.056568 0.006465 203344.000000 0 0 1
28.470771 24.518510 -0.101963 37.573295 0.710950 1.573510 0.060161 0.000938 -1380700.000000 0 0 1
27.792181 23.258110 0.059537 36.240151 0.696815 1.569153 0.061573 -0.000835 -128284.000000 0 0 1
28.533511 22.248910 0.690537 36.189116 0.662269 1.551714 0.068871 -0.007799 -380342.000000 0 0 1
27.647701 21.108010 1.206437 34.805157 0.652062 1.536127 0.053934 -0.003749 -273780.000000 0 0 1
26.986301 20.452110 0.174137 33.861181 0.648519 1.565654 0.065203 -0.018793 459015.000000 0 0 1
25.858901 19.799810 0.752437 32.577314 0.653465 1.547697 0.061528 -0.010175 275718.000000 0 0 1
25.108801 18.725910 -0.129163 31.322967 0.640802 1.574920 0.061043 -0.021685 -244512.000000 0 0 1
23.771601 18.575910 0.259537 30.169866 0.663317 1.562194 0.062707 -0.015600 192125.000000 0 0 1
23.180701 17.515810 -0.535263 29.059164 0.647088 1.589217 0.075070 -0.033835 -647432.000000 0 0 1
21.835001 17.002610 -0.099763 27.674284 0.661609 1.574401 0.076115 -0.023908 -1398740.000000 0 0 1
21.273501 16.083610 -1.057663 26.690129 0.647355 1.610434 0.078599 -0.021372 141825.000000 0 0 1
19.962601 15.749510 -0.682963 25.436567 0.667967 1.597649 0.078973 -0.019454 -615569.000000 0 0 1
18.857401 16.649810 -1.197363 25.184349 0.723305 1.618358 0.083441 -0.025806 -1136380.000000 0 0 1
18.681501 17.855610 -0.501363 25.847101 0.762798 1.590195 0.078754 -0.022165 -102273.000000 0 0 1
17.582801 18.621710 -0.889663 25.626441 0.814086 1.605520 0.067998 -0.027735 -285806.000000 0 0 1
17.663201 20.080110 -0.429963 26.746670 0.849346 1.586872 0.073170 -0.025170 -344666.000000 0 0 1
17.406701 20.351210 0.928737 26.796036 0.863225 1.536130 0.083608 -0.018470 152882.000000 0 0 1
17.453001 21.704410 1.377337 27.885224 0.893547 1.521383 0.085147 -0.019443 347926.000000 0 0 1
16.308501 22.586910 0.750537 27.869320 0.945435 1.543862 0.070922 -0.024191 638715.000000 0 0 1
15.033201 22.294310 1.291837 26.920294 0.977523 1.522790 0.061639 -0.020089 -175096.000000 0 0 1
13.995601 23.073010 0.765837 26.996799 1.025553 1.542425 0.052801 -0.016049 296358.000000 0 0 1
12.643201 22.750510 1.464937 26.068799 1.063563 1.514572 0.056595 -0.017369 259243.000000 0 0 1
12.650301 23.218310 2.815137 26.590318 1.071922 1.464727 0.049189 -0.006969 1336820.000000 0 0 1
11.309801 23.247510 3.390837 26.074050 1.118011 1.440381 0.040616 -0.006385 1482280.000000 0 0 1
11.380601 23.780410 4.818237 26.800026 1.124439 1.390029 0.040731 -0.002411 252506.000000 0 0 1
12.121801 22.936710 5.701537 26.561970 1.084618 1.354462 0.040350 -0.018510 667296.000000 0 0 1
11.334201 22.770110 6.903237 26.355202 1.108937 1.305774 0.042904 -0.009423 150550.000000 0 0 1
11.893001 21.708610 7.882837 25.977805 1.069607 1.262490 0.052183 -0.009135 602986.000000 0 0 1
13.074001 21.981110 8.627937 26.991480 1.034221 1.245432 0.066087 -0.006631 792787.000000 0 0 1
14.308701 21.682610 7.964837 27.171918 0.987482 1.273300 0.065721 -0.009891 845477.000000 0 0 1
15.517701 21.748410 8.956337 28.178154 0.951061 1.247339 0.083558 -0.013323 40520.300000 0 0 1
15.576101 20.499210 9.682137 27.505932 0.921028 1.211087 0.093880 -0.023553 684420.000000 0 0 1
16.896401 20.267310 10.194537 28.287467 0.875855 1.202110 0.098269 -0.029308 802473.000000 0 0 1
17.276301 21.072710 11.477237 29.567831 0.884073 1.172155 0.083718 -0.034503 -715760.000000 0 0 1
16.647801 20.690310 12.640637 29.411289 0.893246 1.126538 0.084035 -0.028293 -415952.000000 0 0 1
17.012301 21.353310 13.797937 30.590281 0.898067 1.102848 0.067600 -0.019216 -31218.800000 0 0 1
18.194601 20.730410 14.631637 31.223040 0.850452 1.083072 0.048573 -0.016100 989191.000000 0 0 1
19.436901 21.073810 14.017637 31.912266 0.825783 1.116027 0.059553 -0.011912 408642.000000 0 0 1
20.560101 20.833510 14.853937 32.823655 0.792003 1.101187 0.051624 -0.010158 769480.000000 0 0 1
21.909501 21.516310 14.506637 33.962043 0.776344 1.129466 0.052593 -0.013546 341351.000000 0 0 1
22.486701 21.094410 13.292137 33.575389 0.753462 1.163760 0.070484 -0.017385 275575.000000 0 0 1
23.708101 21.760910 13.017137 34.713933 0.742600 1.186418 0.045005 -0.019426 463632.000000 0 0 1
24.539401 21.285110 11.765037 34.549301 0.714501 1.223317 0.062020 -0.020714 127321.000000 0 0 1
23.987501 21.648610 10.540837 33.987818 0.734192 1.255461 0.069305 -0.028781 683313.000000 0 0 1
24.880601 21.289810 9.471237 34.088189 0.707782 1.289246 0.075346 -0.026121 -61420.200000 0 0 1
24.730901 22.412310 8.419637 34.421206 0.736256 1.323683 0.068164 -0.021604 -31607.800000 0 0 1
25.129801 23.661010 8.878037 35.639442 0.755303 1.319038 0.060756 -0.026297 -137514.000000 0 0 1
26.527101 23.823210 8.886537 36.745108 0.731748 1.326532 0.048191 -0.022219 -875326.000000 0 0 1
26.996401 24.936010 9.790437 38.032393 0.745744 1.310441 0.064432 -0.025244 -157014.000000 0 0 1
28.227381 25.465310 9.323237 39.143196 0.734001 1.330302 0.055580 -0.017863 259571.000000 0 0 1
28.636431 26.576310 10.086637 40.349544 0.748103 1.318135 0.063355 -0.023704 1262340.000000 0 0 1
29.993111 27.245110 9.581137 41.637494 0.737425 1.338607 0.055106 -0.017459 1307770.000000 0 0 1
29.718231 27.984410 8.386237 41.672886 0.755360 1.368173 0.063441 -0.027137 575220.000000 0 0 1
30.863751 27.985710 7.535437 42.338563 0.736532 1.391863 0.057053 -0.022966 260331.000000 0 0 1
30.764381 28.917710 6.290837 42.687887 0.754466 1.422889 0.075685 -0.019764 23989.100000 0 0 1
30.866421 30.326410 6.611537 43.773731 0.776574 1.419177 0.068410 -0.025620 86196.500000 0 0 1
30.813191 31.146910 5.454637 44.151283 0.790784 1.446936 0.067386 -0.031595 -60699.400000 0 0 1
30.621571 32.643110 5.841037 45.137246 0.817341 1.441026 0.047123 -0.024117 -3439.390000 0 0 1
29.418951 33.016210 6.468237 44.692090 0.842950 1.425557 0.045890 -0.031570 -353821.000000 0 0 1
29.467481 -34.071122 6.891537 45.570463 -0.857726 1.418986 0.044541 -0.027273 -175038.000000 0 0 1
28.148731 -33.466022 7.420637 44.355288 -0.871484 1.402706 0.075901 -0.032151 171865.000000 0 0 1
27.179001 -33.534822 6.377237 43.634293 -0.889703 1.424119 0.062586 -0.030283 -554867.000000 0 0 1
25.925401 -33.128522 6.886437 42.626851 -0.906774 1.408534 0.057517 -0.035118 217314.000000 0 0 1
24.793401 -33.221722 5.818837 41.859938 -0.929667 1.431337 0.052442 -0.024506 115598.000000 0 0 1
25.113701 -32.337722 4.776037 41.221800 -0.910483 1.454674 0.035546 -0.002170 -333463.000000 0 0 1
24.261301 -32.552122 3.698737 40.766801 -0.930306 1.479942 0.044823 -0.014637 -249156.000000 0 0 1
24.706701 -31.870722 2.376637 40.395698 -0.911351 1.511928 0.046491 0.001483 -13718.400000 0 0 1
24.524201 -30.415222 2.366937 39.142363 -0.892218 1.510289 0.051688 0.003065 16304.400000 0 0 1
25.133201 -29.851722 1.209937 39.041863 -0.871003 1.539801 0.047941 0.004042 -219679.000000 0 0 1
25.292301 -28.282122 1.342037 37.965511 -0.841147 1.535440 0.056620 -0.003744 638818.000000 0 0 1
24.117101 -27.458022 1.237337 36.566495 -0.850086 1.536952 0.047757 -0.002189 308693.000000 0 0 1
23.428601 -27.452422 -0.001963 36.090648 -0.864317 1.570851 0.040874 -0.004247 511809.000000 0 0 1
22.289201 -26.357222 -0.019263 34.518285 -0.868828 1.571354 0.036107 -0.006348 623298.000000 0 0 1
22.770201 -24.996522 0.057937 33.812890 -0.831973 1.569083 0.038521 -0.011965 -9286.820000 0 0 1
22.923201 -24.440722 1.354937 33.535920 -0.817427 1.530383 0.031569 -0.003703 263932.000000 0 0 1
21.584001 -23.964722 1.966837 32.311692 -0.837618 1.509888 0.036133 -0.005107 229156.000000 0 0 1
21.752601 -23.321722 3.214637 32.053272 -0.820196 1.470337 0.028930 -0.004812 652375.000000 0 0 1
20.489301 -23.231722 3.911837 31.222217 -0.848042 1.445176 0.029691 0.000226 885784.000000 0 0 1
20.620901 -22.508122 5.312837 30.984889 -0.829128 1.398479 0.028382 0.000246 -70248.400000 0 0 1
20.732401 -21.067922 5.303637 30.030291 -0.793425 1.393256 0.043881 -0.004084 -193166.000000 0 0 1
19.636601 -20.378922 4.763137 28.698154 -0.803947 1.404051 0.035298 -0.004694 -608467.000000 0 0 1
19.446501 -18.899622 5.299837 27.630606 -0.771137 1.377790 0.043239 -0.005469 101415.000000 0 0 1
18.976601 -18.779622 6.628737 27.508649 -0.780181 1.327432 0.058697 -0.010110 -446169.000000 0 0 1
17.579101 -18.702922 6.618937 26.507252 -0.816363 1.318423 0.047449 -0.010237 -614912.000000 0 0 1
19.019038 -26.302170 -11.719163 34.508937 -0.944736 1.917286 0.064880 -0.004761 280954.000000 0 0 1
19.359738 -24.992990 -12.258363 33.907469 -0.911732 1.940698 0.070228 -0.006708 -164671.000000 0 0 1
18.254038 -24.592090 -13.021063 33.279557 -0.932259 1.972800 0.059079 -0.002653 193979.000000 0 0 1
18.432838 -23.142290 -13.604763 32.564163 -0.898193 2.001800 0.059014 -0.015380 -56391.000000 0 0 1
18.206338 -22.081190 -12.660663 31.294442 -0.881283 1.987300 0.071732 -0.016794 -308213.000000 0 0 1
19.257838 -21.699490 -11.795163 31.318654 -0.844942 1.956939 0.058624 -0.015759 -767339.000000 0 0 1
19.294538 -22.313890 -10.408363 31.281351 -0.857837 1.909997 0.058799 -0.003888 85158.200000 0 0 1
18.415938 -21.848490 -9.406663 30.083029 -0.870443 1.888820 0.055079 -0.014209 467670.000000 0 0 1
17.025638 -22.110690 -9.609063 29.514218 -0.914606 1.902415 0.068498 -0.000645 473404.000000 0 0 1
16.120338 -21.341090 -8.578563 28.087349 -0.923870 1.881180 0.060497 -0.010540 -639619.000000 0 0 1
15.951638 -19.965490 -8.647063 26.978644 -0.896690 1.897070 0.053200 -0.019308 4704.790000 0 0 1
15.147938 -19.509090 -7.593663 25.840440 -0.910578 1.869067 0.060189 -0.022616 -215636.000000 0 0 1
13.642338 -19.543990 -7.908363 25.112211 -0.961392 1.891170 0.055334 -0.011587 -672494.000000 0 0 1
13.133338 -20.868190 -7.887063 25.887675 -1.009077 1.880383 0.048490 -0.013357 409200.000000 0 0 1
11.722238 -20.780490 -8.181463 25.222529 -1.057194 1.901143 0.050120 -0.017275 859091.000000 0 0 1
11.096238 -22.154390 -7.751763 25.962152 -1.106461 1.874000 0.048573 -0.020365 -244121.000000 0 0 1
11.115738 -22.440690 -6.350563 25.835515 -1.110885 1.819149 0.058970 -0.022561 247597.000000 0 0 1
10.661338 -23.764190 -6.143263 26.760802 -1.149082 1.802424 0.042878 -0.021038 228676.000000 0 0 1
11.017038 -24.162190 -4.654363 26.960149 -1.142996 1.744304 0.059584 -0.024699 613130.000000 0 0 1
10.179738 -25.246490 -4.195463 27.542953 -1.187522 1.723716 0.067302 -0.022361 512346.000000 0 0 1
10.704838 -25.745070 -2.951663 28.037734 -1.176743 1.676266 0.057702 -0.024456 235271.000000 0 0 1
9.844738 -26.849030 -2.296163 28.689051 -1.219348 1.650918 0.067323 -0.020362 595550.000000 0 0 1
8.714538 -26.351490 -1.588263 27.800482 -1.251414 1.627958 0.054025 -0.012705 -78667.700000 0 0 1
8.023138 -27.305490 -0.837863 28.472136 -1.285011 1.600228 0.057835 -0.017660 272356.000000 0 0 1
7.186638 -26.608020 0.270137 27.562792 -1.306998 1.560995 0.059503 -0.009731 -288591.000000 0 0 1
6.035038 -25.905580 -0.082963 26.599392 -1.341916 1.573915 0.071979 -0.019497 -683786.000000 0 0 1
5.544238 -25.320020 1.097837 25.943154 -1.355232 1.528467 0.071393 -0.015739 1311150.000000 0 0 1
4.023138 -24.843190 0.926937 25.183903 -1.410249 1.533981 0.050245 -0.021610 1564820.000000 0 0 1
3.148638 -25.915190 0.730737 26.115991 -1.449891 1.542812 0.044422 -0.020087 -671099.000000 0 0 1
1.801138 -25.544320 0.813737 25.620667 -1.500403 1.539030 0.030445 -0.015303 118450.000000 0 0 1
0.794838 -26.519350 0.130837 26.531582 -1.540833 1.565865 0.032305 -0.012174 108442.000000 0 0 1
0.417438 -27.595410 0.965837 27.615462 -1.555670 1.535815 0.027766 -0.007914 -334297.000000 0 0 1
1.056738 -28.801660 0.768537 28.831285 -1.534123 1.544137 0.022423 -0.008015 -566709.000000 0 0 1
0.472938 -29.801530 1.756437 29.856992 -1.554928 1.511934 0.038152 -0.010680 150959.000000 0 0 1
0.795438 -29.572750 3.107837 29.746242 -1.543905 1.466127 0.038701 -0.008760 -29311.800000 0 0 1
0.023538 -30.432590 3.895337 30.680886 -1.570023 1.443490 0.041684 -0.010131 -162759.000000 0 0 1
0.419838 -30.368270 5.359537 30.840440 -1.556972 1.396127 0.046083 -0.011666 -734581.000000 0 0 1
1.671838 -30.832640 5.768437 31.412125 -1.516626 1.386111 0.045178 0.000361 -446963.000000 0 0 1
1.866938 -30.534210 7.107537 31.406059 -1.509730 1.342508 0.048155 -0.001325 -361648.000000 0 0 1
3.264038 -30.971640 7.515737 32.037209 -1.465796 1.333995 0.054858 -0.001368 -339635.000000 0 0 1
3.441438 -32.385350 7.495437 33.419096 -1.464928 1.344586 0.048902 -0.005105 1148420.000000 0 0 1
4.846538 -32.710010 7.706037 33.953155 -1.423700 1.341840 0.039031 -0.008041 1551630.000000 0 0 1
5.189538 -34.164285 7.529137 35.366900 -1.420049 1.356268 0.051799 -0.000868 -121796.000000 0 0 1
5.061838 33.713735 6.209637 34.652528 1.421768 1.390626 0.041048 -0.001078 -159041.000000 0 0 1
5.023638 32.314872 6.177637 33.281392 1.416572 1.384095 0.037460 -0.004014 -327601.000000 0 0 1
5.188038 31.596352 4.772137 32.373113 1.408051 1.422847 0.036030 -0.008396 289371.000000 0 0 1
6.467738 31.694692 4.169337 32.615464 1.369496 1.442612 0.043997 -0.004477 -279068.000000 0 0 1
7.319538 30.630672 4.554737 31.820737 1.336234 1.427166 0.040845 -0.009150 -801112.000000 0 0 1
8.646738 30.788832 3.858737 32.211925 1.297009 1.450716 0.030076 -0.006014 -670181.000000 0 0 1
9.670638 31.520552 4.519637 33.279025 1.273109 1.434565 0.024053 -0.015232 -352343.000000 0 0 1
10.891938 31.374252 3.854737 33.434069 1.236652 1.455246 0.027984 -0.013528 237155.000000 0 0 1
12.109038 31.900942 4.692637 34.442992 1.208014 1.434128 0.038980 -0.024392 360465.000000 0 0 1
12.475338 31.060082 5.734237 33.959449 1.188867 1.401128 0.035649 -0.023934 -327008.000000 0 0 1
13.627938 31.572542 6.364537 34.972181 1.163316 1.387788 0.059811 -0.025951 -308257.000000 0 0 1
14.254038 30.491132 7.262737 34.433037 1.133500 1.358277 0.046730 -0.020244 -430375.000000 0 0 1
13.648938 30.202842 8.518437 34.220884 1.146356 1.319226 0.034425 -0.013651 -130583.000000 0 0 1
14.323338 29.185622 9.198237 33.787070 1.114562 1.295075 0.021631 -0.010861 -120277.000000 0 0 1
13.973438 29.155822 10.701437 34.056419 1.123872 1.251154 0.027357 -0.004916 195929.000000 0 0 1
14.635938 30.169382 11.474437 35.441007 1.119119 1.241094 0.037925 -0.014423 659405.000000 0 0 1
13.963238 30.329552 12.737037 35.736338 1.139341 1.206366 0.027940 -0.007658 -143206.000000 0 0 1
14.732038 31.279772 13.696437 37.189373 1.130636 1.193628 0.038243 -0.011361 499248.000000 0 0 1
15.928438 30.782462 14.271637 37.482726 1.093285 1.180186 0.039354 -0.011902 155712.000000 0 0 1
16.688738 31.796492 14.818237 38.847278 1.087458 1.179434 0.044963 -0.011507 212951.000000 0 0 1
17.823938 31.308392 15.813537 39.344328 1.053255 1.157176 0.032799 -0.009278 989376.000000 0 0 1
19.073638 30.939832 15.223637 39.406040 1.018351 1.174150 0.046532 -0.004771 628963.000000 0 0 1
19.249738 29.490612 15.135037 38.331683 0.992496 1.164898 0.032983 -0.008812 172325.000000 0 0 1
20.625638 28.941162 14.669137 38.447254 0.951614 1.179335 0.050868 -0.016363 38010.600000 0 0 1
21.720838 29.162032 15.516237 39.534447 0.930610 1.167477 0.069622 -0.018070 -887348.000000 0 0 1
22.889738 28.710122 14.933937 39.638790 0.897722 1.184510 0.072064 -0.020905 -642478.000000 0 0 1
24.116438 28.954232 15.845237 40.878132 0.876304 1.172747 0.106219 -0.035547 -167829.000000 0 0 1
24.311438 27.929082 16.800537 40.661255 0.854538 1.144850 0.082427 -0.028489 283296.000000 0 0 1
25.421238 28.236292 17.661737 41.898263 0.837813 1.135655 0.101422 -0.033244 773716.000000 0 0 1
26.434938 27.072912 17.917837 41.866423 0.797321 1.128544 0.075152 -0.027133 154116.000000 0 0 1
25.871538 25.936552 18.571837 41.072550 0.786653 1.101598 0.061585 -0.014215 128801.000000 0 0 1
25.489838 26.124062 19.907537 41.575335 0.797685 1.071474 0.088694 -0.020243 -102196.000000 0 0 1
24.816538 24.834102 20.441837 40.625877 0.785752 1.043530 0.078881 -0.016351 -108640.000000 0 0 1
25.717938 23.808882 20.750937 40.729309 0.746871 1.036211 0.047433 -0.009645 -340898.000000 0 0 1
25.068938 22.609542 20.587837 39.541144 0.733861 1.023162 0.041781 -0.013445 -392630.000000 0 0 1
25.999638 21.434442 20.757937 39.576615 0.689451 1.018668 0.019681 -0.011910 -575794.000000 0 0 1
25.390138 20.194042 20.435437 38.341433 0.671899 1.008671 0.009028 0.014090 -53269.600000 0 0 1
26.227838 19.048542 20.416737 38.309132 0.628141 1.008717 0.015826 -0.002471 299632.000000 0 0 1
26.848838 18.578642 21.837637 39.279873 0.605318 0.981291 0.030730 0.008930 333135.000000 0 0 1
25.952238 17.947442 22.729437 38.887744 0.605037 0.946547 0.008425 0.024764 37696.800000 0 0 1
26.580438 17.604342 23.939637 39.869020 0.584977 0.926724 0.034813 0.028882 -124007.000000 0 0 1
25.648138 16.760342 24.805037 39.421135 0.578812 0.890232 0.024134 0.027162 -105841.000000 0 0 1
25.139338 15.626842 24.145637 38.199428 0.556157 0.886544 0.020358 0.016306 348300.000000 0 0 1
24.312338 14.898042 25.061337 37.961982 0.549761 0.849752 0.021535 0.020029 110971.000000 0 0 1
23.565438 13.791042 24.298837 36.550734 0.529483 0.843574 0.017439 0.018498 -338099.000000 0 0 1
22.391438 13.315942 24.906037 36.041663 0.536505 0.807877 0.003538 0.012672 14840.300000 0 0 1
21.977138 12.198642 24.118537 34.835403 0.506720 0.806046 0.011954 0.009070 4020.590000 0 0 1
20.653738 11.514442 24.570137 34.100600 0.508582 0.766246 0.017196 0.007313 86179.100000 0 0 1
19.526538 12.326442 24.397737 33.592803 0.563093 0.757904 0.022738 0.001488 -202449.000000 0 0 1
18.325738 11.605142 24.573837 32.777820 0.564524 0.723174 0.030667 0.002075 -180472.000000 0 0 1
17.090238 12.470442 24.798537 32.596865 0.630370 0.706306 0.034093 -0.016466 -386469.000000 0 0 1
16.902338 12.855042 26.131137 33.671612 0.650218 0.682405 0.040293 -0.004534 -214583.000000 0 0 1
15.848638 13.746842 26.291537 33.636289 0.714500 0.673502 0.047683 -0.015602 -394569.000000 0 0 1
15.637738 14.241242 27.752837 34.893721 0.738694 0.651206 0.041387 0.002151 -83439.300000 0 0 1
15.207038 13.167042 28.586937 34.954799 0.713625 0.613174 0.049803 0.006480 83317.800000 0 0 1
15.380138 13.290342 30.007637 36.244173 0.712637 0.595390 0.047759 0.006470 -535656.000000 0 0 1
16.788238 12.916442 30.523037 37.152863 0.655786 0.606667 0.049304 0.003385 221887.000000 0 0 1
17.666938 13.985242 30.146037 37.636302 0.669601 0.641861 0.051133 -0.012936 -198984.000000 0 0 1
19.006438 13.637342 29.994737 38.038218 0.622382 0.662362 0.049951 -0.002318 -131952.000000 0 0 1
20.056038 14.750242 29.654837 38.719810 0.634125 0.698383 0.051975 -0.006039 118917.000000 0 0 1
19.920238 15.330342 28.337237 37.879206 0.655919 0.725610 0.045436 -0.009761 218666.000000 0 0 1
20.040138 14.442042 27.256537 36.784487 0.624455 0.736269 0.034958 0.002232 -532320.000000 0 0 1
19.817338 15.261842 25.961037 36.050328 0.656258 0.766802 0.022375 0.001265 736491.000000 0 0 1
20.940238 16.125542 25.613237 36.804410 0.656225 0.801084 0.023304 0.005443 1187940.000000 0 0 1
20.687438 16.857842 24.391537 36.153893 0.683750 0.830294 0.004300 0.002641 289103.000000 0 0 1
21.867238 17.833542 24.072937 37.090667 0.684143 0.864488 0.012755 0.008900 276077.000000 0 0 1
21.686038 18.648942 22.875937 36.624797 0.710243 0.896174 0.011388 -0.000220 575877.000000 0 0 1
22.846538 19.417142 22.478837 37.473828 0.704433 0.927477 0.023287 0.003007 688886.000000 0 0 1
23.191538 20.763442 23.146037 38.790553 0.730214 0.931423 0.041214 -0.012817 443690.000000 0 0 1
22.206438 21.772042 22.780637 38.550034 0.775521 0.938577 0.043126 -0.003659 708198.000000 0 0 1
22.294238 22.963642 23.514037 39.714882 0.800188 0.937170 0.070224 -0.007108 127471.000000 0 0 1
21.181338 23.955672 23.138437 39.470376 0.846786 0.944408 0.068529 -0.018176 20635.100000 0 0 1
21.510938 24.514412 21.855437 39.259865 0.850563 0.980405 0.079970 -0.020193 701557.000000 0 0 1
20.847238 25.811552 21.607037 39.594287 0.891396 0.993559 0.076246 -0.022897 175171.000000 0 0 1
21.463238 26.409872 20.329937 39.641623 0.888361 1.032303 0.080491 -0.022499 -184892.000000 0 0 1
21.197838 25.808752 19.138637 38.493213 0.883176 1.050433 0.060750 -0.014537 40010.300000 0 0 1
21.700038 26.665462 18.129237 38.866537 0.887704 1.085525 0.072123 -0.019734 -324139.000000 0 0 1
21.772438 25.992002 16.750437 37.817990 0.873511 1.111941 0.054873 -0.015035 517012.000000 0 0 1
20.502638 25.638632 16.151137 36.586293 0.896252 1.113579 0.036412 -0.012792 1044760.000000 0 0 1
20.804538 25.284442 14.803837 35.934460 0.882295 1.146184 0.037811 -0.009867 -165368.000000 0 0 1
19.466638 24.905112 14.126437 34.623270 0.907356 1.150529 0.055754 -0.012653 836535.000000 0 0 1
18.610038 26.051252 13.896937 34.901663 0.950496 1.161271 0.053857 -0.007345 851409.000000 0 0 1
17.661538 26.301662 14.970837 35.040452 0.979456 1.129354 0.048333 -0.007705 1325940.000000 0 0 1
16.146638 26.508212 14.484137 34.251853 1.023699 1.134184 0.051017 -0.006154 1626850.000000 0 0 1
15.425338 25.302972 14.068937 32.804213 1.023329 1.127548 0.056198 -0.003707 519099.000000 0 0 1
15.096838 24.353902 15.043337 32.362463 1.015877 1.087343 0.068873 -0.018721 122544.000000 0 0 1
14.136438 24.789942 16.245437 32.837392 1.052540 1.053279 0.081831 -0.022811 271084.000000 0 0 1
14.577438 25.914922 17.000537 34.250593 1.058398 1.051399 0.058563 -0.024252 310883.000000 0 0 1
13.504438 26.287812 17.858737 34.530470 1.096237 1.027234 0.055006 -0.019867 232181.000000 0 0 1
13.745838 27.540952 18.737237 36.035207 1.107865 1.023980 0.052330 -0.027512 -442427.000000 0 0 1
13.473038 28.727392 18.016737 36.488198 1.132258 1.054378 0.046920 -0.016281 -110703.000000 0 0 1
14.187638 29.813232 18.477537 37.835661 1.126627 1.060583 0.047201 -0.013567 -490620.000000 0 0 1
14.107138 31.040232 17.584237 38.362908 1.144224 1.094641 0.031673 -0.018295 2079540.000000 0 0 1
12.817238 31.800372 17.658937 38.566608 1.187661 1.095186 0.034383 -0.017624 2129610.000000 0 0 1
12.801238 32.923204 16.838337 39.132322 1.199964 1.125980 0.031110 -0.013954 -113961.000000 0 0 1
11.568638 33.802743 17.096037 39.607238 1.241052 1.124487 0.036221 -0.019253 -237893.000000 0 0 1
11.548238 -33.366500 16.483437 38.966509 -1.237598 1.134026 0.033820 -0.021905 -228498.000000 0 0 1
12.479438 -32.381050 16.899837 38.598877 -1.202945 1.117610 0.036786 -0.019363 -119904.000000 0 0 1
12.368338 -31.998240 18.365537 38.912159 -1.201954 1.079268 0.044837 -0.020972 -100951.000000 0 0 1
13.108938 -32.860390 19.233837 40.268971 -1.191214 1.072836 0.050169 -0.020421 235261.000000 0 0 1
12.876538 -32.601070 20.589137 40.651538 -1.194631 1.039700 0.045777 -0.017849 284781.000000 0 0 1
13.944338 -33.137530 21.652337 41.968609 -1.172487 1.028718 0.049864 -0.010568 -241195.000000 0 0 1
15.157338 -32.494640 21.517837 41.817028 -1.134342 1.030289 0.048820 -0.012767 -840318.000000 0 0 1
16.142838 -33.028360 22.366137 43.031476 -1.116184 1.024224 0.049440 -0.004959 62879.900000 0 0 1
17.496338 -32.289480 22.314137 42.972702 -1.074225 1.024808 0.070393 -0.014217 -336.331000 0 0 1
17.508138 -30.948870 22.808437 42.244435 -1.055970 1.000459 0.078531 -0.018813 -639089.000000 0 0 1
18.561638 -30.214250 22.320737 41.900485 -1.019904 1.008999 0.081129 -0.021162 -793611.000000 0 0 1
-5.287762 13.136710 18.672531 23.434952 -1.188121 0.648847 0.026012 0.009169 -390004.000000 0 1 0
-4.813862 14.238410 17.926631 23.393796 -1.244771 0.697736 0.027364 -0.001729 -395997.000000 0 1 0
-5.873762 15.059410 17.551331 23.860765 -1.198906 0.744284 0.017060 0.002374 -431025.000000 0 1 0
-5.555662 16.544810 17.272331 24.554623 -1.246832 0.790592 0.032101 -0.007618 -144061.000000 0 1 0
-5.201062 17.193510 18.487831 25.777271 -1.277046 0.771000 0.040518 0.000756 190673.000000 0 0 1
-5.160462 18.581410 18.353731 26.622521 -1.299901 0.810127 0.050799 -0.000594 -528624.000000 0 0 1
-4.508962 19.272910 19.541131 27.814234 -1.340976 0.791810 0.051601 -0.004772 -247910.000000 0 0 1
-5.304362 19.330710 20.721231 28.830227 -1.302987 0.768818 0.045767 0.001756 -134013.000000 0 0 1
-4.733362 20.011310 21.796031 29.965383 -1.338531 0.756309 0.052026 -0.000997 -162408.000000 0 0 1
-5.741862 20.235910 22.954031 31.134363 -1.294317 0.741795 0.030655 0.004948 55984.300000 0 0 1
-5.821262 19.120910 23.816941 31.092490 -1.275267 0.698196 0.020531 0.002052 -310622.000000 0 0 1
-6.331962 19.455410 25.070551 32.359531 -1.256148 0.684477 0.011475 -0.002912 97952.300000 0 0 1
-5.343362 20.270310 25.947621 33.357398 -1.313054 0.679532 0.009812 -0.001431 -537010.000000 0 0 1
-5.091362 21.618110 25.549911 33.853546 -1.339498 0.715571 0.028240 -0.012164 532724.000000 0 0 1
-3.958862 22.266010 26.165251 34.584218 -1.394837 0.712750 0.034542 0.003660 2319500.000000 0 0 1
-2.512762 21.676810 25.812651 33.800755 -1.455392 0.701816 0.035105 0.012553 490547.000000 0 0 1
-2.212662 20.381510 26.276821 33.328263 -1.462658 0.662553 0.047463 0.016745 -832358.000000 0 0 1
-0.886662 20.031110 26.049361 32.872492 -1.526561 0.656003 0.040803 0.020649 -463882.000000 0 0 1
-0.358862 18.840510 26.843941 32.797725 -1.551751 0.612054 0.042785 0.022124 -140080.000000 0 0 1
-0.918762 17.620410 26.401571 31.754778 -1.518702 0.589137 0.056698 0.018314 -220149.000000 0 0 1
-0.251562 16.450810 26.804691 31.451294 -1.555506 0.550505 0.053377 0.014557 842697.000000 0 0 1
1.140738 16.055110 26.174331 30.727243 1.499864 0.551331 0.068953 0.010354 686831.000000 0 0 1
1.137138 15.814510 24.742991 29.387198 1.499015 0.569881 0.062996 0.001234 -374386.000000 0 0 1
0.459038 14.654210 24.326001 28.402657 1.539482 0.542406 0.075004 -0.006539 -105423.000000 0 0 1
0.592738 14.561510 22.767631 27.032461 1.530113 0.569384 0.090190 -0.024552 22796.800000 0 0 1
1.926438 14.207010 22.473931 26.657604 1.436021 0.567851 0.083203 -0.025959 -319884.000000 0 0 1
2.137738 13.777410 21.178931 25.356145 1.416861 0.582194 0.070639 -0.028431 46861.800000 0 0 1
3.651938 13.593310 20.949531 25.238811 1.308337 0.591595 0.050779 -0.029089 53120.400000 0 0 1
4.318938 14.694310 20.416331 25.522589 1.284928 0.643615 0.056002 -0.021217 -1000210.000000 0 0 1
5.688438 14.453410 20.386731 25.629635 1.195845 0.651070 0.041639 -0.020224 -444277.000000 0 0 1
6.454438 15.510710 19.499831 25.738790 1.176464 0.711161 0.052754 -0.026394 -150737.000000 0 0 1
6.143738 15.413510 18.148531 24.590465 1.191502 0.740648 0.043636 -0.029829 275299.000000 0 1 0
6.751438 16.535310 17.460631 24.977430 1.183152 0.796719 0.035444 -0.017114 312348.000000 0 1 0
6.643238 16.297210 15.933131 23.740184 1.183729 0.835043 0.029356 -0.009480 15379.600000 0 1 0
7.536038 15.362810 15.381231 23.008478 1.114747 0.838603 0.023431 -0.000029 -104218.000000 0 1 0
7.471638 13.990410 15.808731 22.393591 1.080278 0.787034 0.025191 -0.015565 -157305.000000 0 1 0
8.514938 13.145710 15.031531 21.708542 0.996015 0.805952 0.014910 -0.018162 -355045.000000 0 1 0
9.818838 13.604610 15.153331 22.607928 0.945636 0.836229 0.012403 -0.020953 -607817.000000 0 1 0
10.741738 12.849410 14.382531 22.075993 0.874503 0.861235 0.012478 -0.012408 21361.500000 0 1 0
12.145338 13.463610 14.300731 23.093049 0.836830 0.902989 0.025589 -0.013575 -719010.000000 0 1 0
12.895438 13.167210 15.482831 24.070434 0.795825 0.872087 0.042705 -0.023596 1333940.000000 0 1 0
14.267738 13.638310 15.405531 25.038016 0.762847 0.908048 0.052629 -0.019820 1335430.000000 0 0 1
15.258838 12.902610 14.483031 24.679296 0.701924 0.943634 0.044800 -0.024340 -989796.000000 0 1 0
16.589338 13.294710 14.688531 25.840054 0.675595 0.966187 0.061896 -0.035057 188752.000000 0 0 1
17.456138 12.741310 13.714831 25.595983 0.630515 1.005318 0.068255 -0.036823 -218312.000000 0 0 1
18.887738 13.273110 13.623431 26.805223 0.612560 1.037659 0.071277 -0.037441 86978.700000 0 0 1
19.685938 13.064710 14.793431 27.875947 0.585916 1.011384 0.042159 -0.034174 621054.000000 0 0 1
21.030738 13.443810 14.547631 28.890509 0.568778 1.043101 0.056508 -0.033732 747099.000000 0 0 1
22.098538 13.307810 15.688031 30.192011 0.542038 1.024403 0.044859 -0.020951 355085.000000 0 0 1
22.383238 11.989610 16.040131 30.034079 0.491760 1.007396 0.055485 -0.019449 204543.000000 0 0 1
23.305038 11.958510 17.110631 31.287449 0.474096 0.992158 0.036337 -0.015470 -265498.000000 0 0 1
23.752738 10.565110 17.394031 31.278850 0.418517 0.981116 0.057734 -0.010068 -311889.000000 0 0 1
22.719738 9.811910 18.011931 30.608655 0.407673 0.941645 0.032297 -0.007972 419541.000000 0 0 1
22.682838 8.483010 17.470331 29.861096 0.357879 0.945851 0.034194 0.002068 -846624.000000 0 0 1
21.448838 7.709110 17.866131 28.960001 0.345041 0.905968 0.059393 -0.000474 -778760.000000 0 0 1
21.290538 6.429610 17.284231 28.166852 0.293285 0.910137 0.065663 -0.000838 809949.000000 0 0 1
20.199538 5.762810 17.961531 27.637799 0.277911 0.863357 0.059092 -0.001431 400266.000000 0 0 1
20.022438 4.318510 17.451531 26.909171 0.212429 0.865139 0.080021 0.001934 -971303.000000 0 0 1
19.272838 4.318710 16.279031 25.594929 0.220441 0.881459 0.085250 -0.006383 350785.000000 0 0 1
18.862638 3.058210 15.763731 24.771899 0.160732 0.881032 0.072784 -0.010378 -22464.200000 0 1 0
17.861138 2.239010 16.615731 24.497264 0.124706 0.825392 0.079368 -0.004131 -738857.000000 0 1 0
18.416938 1.550810 17.672431 25.571536 0.084007 0.807790 0.085931 -0.011593 -21139.700000 0 0 1
17.441838 0.983710 18.523331 25.461720 0.056340 0.756129 0.063455 -0.014400 -235256.000000 0 0 1
18.104038 0.205210 19.676531 26.738814 0.011335 0.743832 0.073483 -0.027950 -73787.800000 0 0 1
18.475238 -1.120590 19.304931 26.744542 -0.060579 0.764358 0.072782 -0.028152 399522.000000 0 0 1
17.458538 -2.069190 19.669331 26.381143 -0.117970 0.729387 0.060547 -0.016277 264858.000000 0 0 1
17.594338 -3.503990 19.141231 26.234051 -0.196582 0.753011 0.038777 -0.007203 -103452.000000 0 0 1
17.307438 -3.631690 17.720631 25.035122 -0.206833 0.784374 0.047430 -0.020933 383800.000000 0 0 1
17.132638 -4.948690 17.290831 24.839277 -0.281192 0.800834 0.055145 -0.019816 -184251.000000 0 1 0
16.802938 -5.116290 15.771131 23.606010 -0.295569 0.839147 0.049535 -0.017862 123691.000000 0 1 0
15.462638 -4.752390 15.434331 22.358376 -0.298183 0.808871 0.031048 -0.019337 606542.000000 0 1 0
15.238638 -4.658690 14.066931 21.255541 -0.296692 0.847578 0.031823 -0.021391 281265.000000 0 1 0
15.849438 -3.368790 13.437231 21.050240 -0.209433 0.878455 0.039088 -0.012812 -218352.000000 0 1 0
15.066538 -2.279090 13.838131 20.583700 -0.150130 0.833504 0.030776 -0.003182 114448.000000 0 1 0
15.474138 -1.068190 13.250731 20.400291 -0.068921 0.863822 0.031565 -0.007857 -173710.000000 0 1 0
14.487238 0.122210 13.398231 19.733413 0.008435 0.824449 0.031308 -0.001229 -653304.000000 0 1 0
14.812138 1.342210 12.895431 19.684845 0.090369 0.856489 0.038182 -0.001740 443481.000000 0 1 0
15.908238 2.019210 13.554131 20.996755 0.126253 0.869073 0.060366 -0.009018 403948.000000 0 1 0
16.184838 3.434610 12.935631 21.001811 0.209109 0.907231 0.062283 -0.009877 52943.000000 0 1 0
15.076138 4.326110 12.991931 20.366527 0.279442 0.879020 0.055568 -0.014262 517576.000000 0 1 0
15.311138 5.555410 12.282731 20.399976 0.348063 0.924673 0.070237 -0.019131 669100.000000 0 1 0
14.254238 6.643110 12.767131 20.256205 0.436116 0.888879 0.069371 -0.014703 800117.000000 0 1 0
14.444738 7.811610 11.960931 20.315895 0.495747 0.941288 0.051914 -0.021496 372369.000000 0 1 0
13.462338 8.792610 12.239731 20.207809 0.578570 0.920160 0.041467 -0.013073 -300359.000000 0 1 0
13.653138 9.650210 13.527831 21.506672 0.615284 0.890522 0.049331 -0.017163 -249504.000000 0 1 0
13.216538 9.052210 14.708931 21.747920 0.600530 0.828018 0.051635 -0.018687 459172.000000 0 1 0
13.586738 9.847910 15.849331 23.082073 0.627189 0.813924 0.053560 -0.020736 -100975.000000 0 1 0
13.311738 9.148510 17.259931 23.639011 0.602118 0.752261 0.061762 -0.022976 -42712.000000 0 1 0
11.946838 9.243210 17.599231 23.192602 0.658494 0.709282 0.045960 -0.028704 -25853.100000 0 1 0
11.456638 8.672310 18.829731 23.685909 0.647946 0.651828 0.051038 -0.017791 -5689.500000 0 1 0
11.985438 9.176510 20.188631 25.207933 0.653435 0.642026 0.065094 -0.017102 27622.900000 0 0 1
13.396238 9.002410 20.294431 25.930031 0.591693 0.671866 0.074294 -0.019703 259685.000000 0 0 1
13.804838 9.358410 21.624631 27.308937 0.595745 0.656961 0.067552 0.001335 -685875.000000 0 0 1
15.294138 9.084210 21.746131 28.094977 0.535971 0.685627 0.063682 -0.006808 -815175.000000 0 0 1
16.113538 9.939910 21.041931 28.305667 0.552729 0.732683 0.069576 -0.003081 -300779.000000 0 0 1
16.947938 9.257810 20.136131 27.899882 0.499960 0.764501 0.056031 -0.019026 254162.000000 0 0 1
17.898938 10.177110 19.268731 28.199815 0.517002 0.818533 0.063504 -0.017623 516865.000000 0 0 1
18.907538 10.843210 20.011831 29.589586 0.520696 0.828050 0.050852 -0.020972 144083.000000 0 0 1
19.792338 11.497310 19.138731 29.836484 0.526255 0.874404 0.049432 -0.019561 178339.000000 0 0 1
20.746638 12.466010 19.903031 31.336162 0.541058 0.882599 0.033172 -0.012598 -254128.000000 0 0 1
20.081338 13.665710 20.248931 31.623266 0.597531 0.875885 0.027737 -0.013297 266618.000000 0 0 1
20.777938 14.432010 21.196731 33.004652 0.607081 0.873386 0.008431 -0.000554 765169.000000 0 0 1
22.198038 15.042810 20.824831 33.951622 0.595578 0.910479 -0.002015 0.007495 1427380.000000 0 0 1
23.243638 14.071910 20.783531 34.208778 0.544387 0.917824 -0.010236 0.014623 -157557.000000 0 0 1
24.525638 14.636110 20.816731 35.342028 0.538039 0.940966 0.007203 0.012059 -254356.000000 0 0 1
25.612438 13.544810 20.789531 35.660391 0.486450 0.948397 0.017944 0.001248 -359912.000000 0 0 1
25.756438 12.898710 19.542231 34.809045 0.464284 0.974705 0.027044 -0.016960 -488014.000000 0 0 1
26.961138 12.225310 19.568831 35.486622 0.425713 0.986704 0.057140 -0.032205 -702615.000000 0 0 1
27.264638 11.583510 18.209931 34.772687 0.401748 1.019626 0.070715 -0.033009 -280084.000000 0 0 1
27.545038 12.517910 17.149331 34.778251 0.426550 1.055141 0.072161 -0.042154 289770.000000 0 0 1
28.073738 12.000310 15.968431 34.454796 0.403950 1.088900 0.083842 -0.042024 280604.000000 0 0 1
26.976838 11.550110 14.930131 32.925122 0.404535 1.100156 0.069509 -0.041351 349753.000000 0 0 1
26.282738 12.640810 14.377331 32.515843 0.448296 1.112787 0.085002 -0.042130 -57695.800000 0 0 1
25.508038 12.246510 13.267531 31.251630 0.447604 1.132344 0.075672 -0.033111 -109996.000000 0 0 1
25.121838 13.428510 12.395131 31.065590 0.490893 1.160372 0.060445 -0.032902 -272050.000000 0 0 1
24.277138 14.369110 12.992831 31.059047 0.534426 1.139194 0.056111 -0.025180 194448.000000 0 0 1
24.276738 15.560110 12.292031 31.345989 0.569985 1.167839 0.040909 -0.016118 143308.000000 0 0 1
23.306138 16.661810 12.825931 31.389433 0.620663 1.149869 0.047616 -0.018688 30704.900000 0 0 1
22.149738 16.974010 12.107331 30.418997 0.653871 1.161440 0.074733 -0.051608 -261934.000000 0 0 1
21.348738 17.850610 12.849931 30.651813 0.696394 1.138208 0.065458 -0.038668 -1363730.000000 0 0 1
20.236638 18.472410 12.017731 29.919514 0.739853 1.157458 0.081759 -0.028352 -90574.300000 0 0 1
19.213238 17.570010 11.635231 28.517229 0.740755 1.150526 0.100203 -0.032237 -264065.000000 0 0 1
18.301738 17.228410 12.637231 28.133100 0.755198 1.104933 0.089901 -0.020593 -1355560.000000 0 0 1
16.900638 16.865010 12.164131 26.796011 0.784343 1.099599 0.088297 -0.018667 -551387.000000 0 0 1
16.797938 15.590110 11.630031 25.699803 0.748123 1.101192 0.083450 -0.026150 712884.000000 0 0 1
15.501538 15.289510 11.085631 24.432724 0.778512 1.099860 0.070911 -0.020877 764596.000000 0 1 0
15.479438 13.958110 10.327531 23.261550 0.733764 1.110767 0.066435 -0.021531 -221338.000000 0 1 0
15.546538 12.815410 11.131131 23.018072 0.689399 1.066054 0.046371 -0.015511 547308.000000 0 1 0
15.980538 11.657210 10.327931 22.314441 0.630227 1.089604 0.047086 -0.010637 284834.000000 0 1 0
16.557438 10.358710 11.073731 22.451707 0.559047 1.055004 0.065758 -0.018117 -650655.000000 0 1 0
17.393838 9.553310 10.290431 22.354067 0.502256 1.092420 0.070016 -0.012946 333540.000000 0 1 0
18.031338 8.541410 11.021131 22.793643 0.442386 1.066127 0.085053 -0.011992 315369.000000 0 1 0
19.363238 8.899410 11.713831 24.317655 0.430811 1.068202 0.085872 -0.021658 -247145.000000 0 1 0
19.008238 9.625110 12.914331 24.914570 0.468727 1.025882 0.086506 -0.025048 410628.000000 0 1 0
20.084638 9.512010 13.807431 26.163260 0.442302 1.014857 0.083663 -0.018318 -1110280.000000 0 0 1
19.692438 9.871910 15.234631 26.783217 0.464691 0.965735 0.072115 -0.015514 387588.000000 0 0 1
18.864338 8.943310 15.987131 26.295140 0.442702 0.917272 0.063829 -0.010548 1764710.000000 0 0 1
17.553238 8.731610 15.417331 24.940956 0.461594 0.904405 0.072110 -0.018245 214416.000000 0 1 0
16.769038 7.489210 15.900531 24.292299 0.420031 0.857209 0.063373 -0.006566 -673735.000000 0 1 0
16.327038 7.470910 17.248331 24.897622 0.429139 0.805473 0.086110 -0.014662 188212.000000 0 1 0
15.932138 6.217410 17.791131 24.678200 0.372067 0.765660 0.086496 0.009710 258143.000000 0 1 0
14.759138 5.538410 17.016831 23.196523 0.358992 0.747201 0.094776 -0.018576 -544969.000000 0 1 0
14.502538 4.284410 17.484231 23.116620 0.287254 0.713083 0.113177 -0.004811 -235582.000000 0 1 0
13.736038 3.626710 16.550231 21.811509 0.258138 0.709352 0.086566 -0.006022 -291451.000000 0 1 0
13.330838 2.141610 16.883131 21.617998 0.159290 0.674570 0.060778 -0.005452 -212304.000000 0 1 0
14.480438 1.335410 16.973831 22.351227 0.091962 0.708385 0.042529 -0.002263 -58562.500000 0 1 0
14.334038 -0.066190 16.830031 22.106989 -0.004618 0.705482 0.041857 0.000061 -154461.000000 0 1 0
13.482538 -0.849090 17.888031 22.416098 -0.062894 0.646828 0.047860 -0.007821 436637.000000 0 1 0
12.105438 -0.559890 17.885431 21.604253 -0.046218 0.595503 0.047160 0.000484 -390422.000000 0 1 0
11.312638 -1.504990 18.530331 21.762673 -0.132260 0.552008 0.038449 -0.012504 -33013.400000 0 1 0
-25.783372 14.127310 28.299991 40.807507 -0.501247 0.804461 0.080119 -0.023043 -453218.000000 0 0 1
-24.851262 14.108510 29.343291 40.959297 -0.516344 0.772166 0.075701 -0.017792 8628.570000 0 0 1
-24.516462 12.767110 29.675211 40.554582 -0.480115 0.749932 0.065417 -0.012012 -431186.000000 0 0 1
-23.299162 12.589510 30.588371 40.459797 -0.495398 0.713587 0.040473 -0.016939 -170114.000000 0 0 1
-23.534962 12.889110 31.948981 41.722428 -0.501043 0.698588 0.040748 -0.018791 477102.000000 0 0 1
-22.283562 12.740510 32.627320 41.514091 -0.519384 0.666592 0.012180 -0.005468 428444.000000 0 0 1
-22.304762 13.029910 34.126045 42.800326 -0.528703 0.647936 0.015362 0.008951 -193003.000000 0 0 1
-22.921462 11.968510 -33.550743 42.359072 -0.481213 2.484965 0.013681 0.003613 132069.000000 0 0 1
-23.280162 12.563210 -32.301183 41.751247 -0.494865 2.455391 -0.002281 0.011106 -220738.000000 0 0 1
-24.164062 11.643210 -31.436453 41.324530 -0.449014 2.435220 -0.001425 -0.002622 -396155.000000 0 0 1
-23.577062 10.522610 -30.829053 40.212357 -0.419779 2.444413 0.005958 -0.001682 41615.700000 0 0 1
-23.703862 9.292010 -31.552873 40.543783 -0.373594 2.462658 0.009684 -0.003588 144925.000000 0 0 1
-23.068262 8.096710 -30.755023 39.288330 -0.337556 2.469954 0.016934 0.002585 70103.700000 0 0 1
-23.894162 7.666010 -29.719453 38.896588 -0.310457 2.440384 0.023312 0.003274 -380682.000000 0 0 1
-23.167962 6.884110 -28.871693 37.652624 -0.288830 2.444623 0.033536 0.002282 -657104.000000 0 0 1
-23.911562 6.092710 -27.789183 37.163458 -0.249493 2.415472 0.042633 -0.005182 -409100.000000 0 0 1
-24.505662 4.951210 -28.344273 37.794705 -0.199360 2.418788 0.043347 -0.012961 -6603.300000 0 0 1
-24.468762 3.799210 -27.461983 36.977220 -0.154038 2.407850 0.071263 -0.012573 -315589.000000 0 0 1
-25.211572 2.561510 -28.027593 37.785323 -0.101253 2.406485 0.056177 -0.009129 1400430.000000 0 0 1
-26.632482 2.533210 -28.296613 38.941039 -0.094832 2.384233 0.054739 -0.010635 1300060.000000 0 0 1
-27.044302 3.396310 -29.346253 40.051614 -0.124929 2.393093 0.049090 -0.011473 -997679.000000 0 0 1
-28.443942 3.028310 -29.836363 41.333244 -0.106066 2.377267 0.046723 -0.017368 -567540.000000 0 0 1
-29.474792 3.691510 -29.157213 41.623715 -0.124594 2.346887 0.035222 -0.012255 -314016.000000 0 0 1
-30.707182 3.640910 -29.836993 42.970145 -0.118018 2.338334 0.042341 -0.017245 188533.000000 0 0 1
-31.152482 4.945910 -30.623103 43.962639 -0.157450 2.341404 0.047280 -0.028175 -118189.000000 0 0 1
-30.366072 5.170610 -31.813553 44.282453 -0.168658 2.372330 0.057437 -0.020417 367886.000000 0 0 1
-30.570542 6.456610 -32.410563 45.018779 -0.208145 2.374504 0.064254 -0.019680 -705583.000000 0 0 1
-29.983932 7.678210 -31.638573 44.260483 -0.250690 2.367173 0.044526 -0.014874 514104.000000 0 0 1
-28.567722 7.513710 -31.450033 43.147134 -0.257189 2.387513 0.031040 -0.010475 880794.000000 0 0 1
-28.163562 6.913910 -30.215723 41.880524 -0.240731 2.376725 0.020067 -0.014630 -851119.000000 0 0 1
-28.103302 7.806910 -28.944893 41.091973 -0.270961 2.352364 0.018665 -0.014535 -371809.000000 0 0 1
-29.329112 8.237410 -28.422583 41.664073 -0.273807 2.321542 0.019690 -0.020237 -4017.450000 0 0 1
-29.980782 7.215710 -27.602563 41.386172 -0.236186 2.300906 0.017190 -0.011881 779344.000000 0 0 1
-31.312272 7.784510 -26.961173 42.047138 -0.243669 2.266874 -0.004955 -0.003448 484493.000000 0 0 1
-31.236832 8.719110 -25.870833 41.485691 -0.272201 2.244147 -0.018317 -0.005312 -194559.000000 0 0 1
-30.947422 8.043810 -24.635463 40.365230 -0.254292 2.227253 -0.003175 -0.003966 72070.300000 0 0 1
-30.446072 9.026410 -23.559763 39.541141 -0.288217 2.209094 0.007185 -0.004306 717459.000000 0 0 1
-31.493092 9.920910 -23.125463 40.311615 -0.305178 2.181773 0.013090 -0.001720 1308950.000000 0 0 1
-30.791672 10.945710 -22.419463 39.630392 -0.341545 2.172095 0.013961 -0.002651 478666.000000 0 0 1
-31.784112 11.780310 -21.583063 40.184998 -0.354938 2.137783 0.008000 -0.003767 -23106.200000 0 0 1
-32.167302 11.107110 -20.451863 39.703676 -0.332474 2.111935 0.016755 -0.009366 120.581000 0 0 1
-32.894422 11.898810 -19.517263 40.056812 -0.347084 2.079722 0.012947 -0.005796 81862.100000 0 0 1
-32.042912 12.822510 -18.588463 39.200713 -0.380650 2.064837 0.019781 -0.005943 -82215.300000 0 0 1
-31.235462 12.153310 -17.643863 37.876944 -0.371063 2.055358 0.049818 -0.014684 322254.000000 0 0 1
-31.888922 11.673210 -16.450463 37.733074 -0.350909 2.021911 0.043434 -0.013716 32814.300000 0 0 1
-32.523752 12.724310 -15.494063 38.206917 -0.372924 1.988355 0.029023 -0.007870 -143380.000000 0 0 1
-33.582442 13.475310 -16.021363 39.573330 -0.381593 1.987614 0.020894 -0.007015 56861.200000 0 0 1
-34.277354 14.255110 -15.014963 40.044903 -0.394117 1.955143 0.004660 -0.005552 307898.000000 0 0 1
-34.981622 15.437310 -15.722663 41.342793 -0.415594 1.960917 -0.002000 0.002819 -213961.000000 0 0 1
-35.766375 15.077710 -16.816763 42.300998 -0.398954 1.979642 0.014730 -0.007514 47522.800000 0 0 1
36.349051 16.270810 -17.202563 43.381113 0.420879 1.978547 0.023893 -0.008607 -309497.000000 0 0 1
35.887851 16.319610 -18.652063 43.613839 0.426788 2.012703 0.029216 -0.014800 833256.000000 0 0 1
34.757391 15.468810 -18.934963 42.495801 0.418731 2.032610 0.053905 -0.022245 913755.000000 0 0 1
33.497411 16.103810 -18.978063 41.732195 0.448128 2.042897 0.101032 -0.036141 -332680.000000 0 0 1
32.304001 15.183510 -19.250663 40.554599 0.439377 2.065403 0.112875 -0.043198 -324475.000000 0 0 1
32.168191 14.692310 -20.594063 40.923977 0.428440 2.098126 0.112964 -0.042599 -217736.000000 0 0 1
31.110711 13.798510 -20.727363 39.848448 0.417460 2.117829 0.087412 -0.034538 -471219.000000 0 0 1
31.373451 12.366810 -20.347363 39.385868 0.375480 2.113690 0.069563 -0.011411 -171259.000000 0 0 1
31.604381 12.110810 -18.950563 38.789592 0.365941 2.081221 0.071903 -0.011978 204776.000000 0 0 1
32.340181 10.912710 -18.768463 38.951634 0.325438 2.073550 0.048449 -0.008539 -95295.500000 0 0 1
32.554471 10.717410 -17.280563 38.383256 0.318039 2.037798 0.046617 0.000876 893498.000000 0 0 1
31.333011 10.312610 -16.594263 36.925290 0.317962 2.036891 0.055656 -0.001935 1095920.000000 0 0 1
31.517691 10.129610 -15.210063 36.432401 0.310967 2.001475 0.031142 -0.002390 -148709.000000 0 0 1
30.793851 11.121710 -14.317863 35.734506 0.346588 1.983048 0.048860 -0.007369 186506.000000 0 0 1
29.378191 11.035910 -14.207963 34.449030 0.359340 1.995921 0.059683 -0.003324 380146.000000 0 0 1
28.925711 12.071710 -13.339463 34.064119 0.395360 1.973165 0.074051 -0.006508 157503.000000 0 0 1
27.382401 12.018110 -13.262463 32.712746 0.413584 1.988237 0.088264 -0.004625 -179274.000000 0 0 1
26.804201 10.883510 -12.613263 31.559632 0.385700 1.981947 0.071975 -0.006291 518724.000000 0 0 1
25.437601 10.616510 -12.890563 30.429401 0.395377 2.008236 0.084940 0.004096 86389.500000 0 0 1
25.115001 9.891710 -14.238863 30.518100 0.375199 2.056206 0.079858 -0.012506 -744823.000000 0 0 1
25.713001 8.597410 -14.301963 30.653222 0.322675 2.056208 0.070208 -0.009237 589311.000000 0 0 1
27.032001 8.607510 -14.823163 32.008506 0.308268 2.052287 0.073207 -0.014306 -71816.700000 0 0 1
27.982581 7.703210 -13.984163 32.216783 0.268632 2.019796 0.071772 -0.013301 -424321.000000 0 0 1
27.819711 6.263010 -13.976263 31.756850 0.221437 2.026509 0.057673 -0.025907 541433.000000 0 0 1
26.831801 5.880310 -13.022663 30.399233 0.215744 2.013504 0.059212 -0.021691 37443.800000 0 0 1
26.425501 4.369210 -13.153763 29.839883 0.163858 2.027299 0.066577 -0.024015 -95459.200000 0 0 1
25.585501 4.011710 -12.075563 28.575005 0.155530 2.007099 0.063434 -0.026668 621890.000000 0 0 1
25.073201 2.660310 -12.181863 28.002508 0.105706 2.020865 0.063658 -0.030524 109198.000000 0 0 1
24.237001 2.095010 -11.011463 26.703438 0.086224 1.995841 0.068438 -0.030532 185625.000000 0 0 1
25.015901 1.936910 -9.826863 26.946506 0.077273 1.944086 0.072116 -0.021965 992645.000000 0 0 1
24.118301 1.538510 -8.766263 25.708108 0.063704 1.918768 0.078612 -0.011877 -153304.000000 0 0 1
24.816601 1.140810 -7.479863 25.944431 0.045937 1.863251 0.089895 -0.010120 -552139.000000 0 0 1
24.808301 -0.238690 -7.192963 25.831134 -0.009621 1.852988 0.062131 -0.016738 1033200.000000 0 0 1
25.748601 -1.049890 -7.964363 26.972649 -0.040752 1.870540 0.068022 -0.017773 182245.000000 0 0 1
26.013101 -2.498190 -7.420663 27.165946 -0.095742 1.847473 0.076654 -0.023342 426853.000000 0 0 1
26.813701 -2.560290 -6.178563 27.635200 -0.095196 1.796278 0.095357 -0.033330 1082910.000000 0 0 1
26.999101 -3.902990 -5.742263 27.877561 -0.143565 1.778263 0.101996 -0.040409 -368578.000000 0 0 1
28.273601 -3.991690 -4.877263 28.967530 -0.140254 1.739972 0.113947 -0.044354 32694.700000 0 0 1
29.430911 -3.920590 -5.690363 30.231272 -0.132434 1.760154 0.095941 -0.028485 568797.000000 0 0 1
30.614661 -4.388490 -5.037363 31.335146 -0.142376 1.732255 0.093981 -0.036328 704125.000000 0 0 1
31.797581 -4.575490 -6.033663 32.686792 -0.142913 1.756451 0.092312 -0.027870 78256.600000 0 0 1
31.562531 -5.744390 -6.760863 32.785678 -0.180030 1.778500 0.090844 -0.018763 217746.000000 0 0 1
32.338371 -5.751490 -7.949163 33.794069 -0.176013 1.808245 0.084395 -0.026704 -599056.000000 0 0 1
31.785161 -6.745690 -9.055363 33.731297 -0.209125 1.842586 0.076481 -0.021741 656056.000000 0 0 1
30.528081 -6.368090 -9.621563 32.635729 -0.205649 1.870060 0.083440 -0.013317 1456400.000000 0 0 1
29.436431 -6.757590 -8.737063 31.440496 -0.225656 1.852395 0.089506 -0.015343 959006.000000 0 0 1
28.038831 -6.058190 -8.966863 30.054656 -0.212793 1.873762 0.087226 -0.012010 788313.000000 0 0 1
27.275501 -6.341890 -10.149863 29.785773 -0.228453 1.918524 0.066283 -0.006356 457821.000000 0 0 1
26.117301 -5.545290 -10.209263 28.584834 -0.209216 1.936018 0.070967 -0.010768 446465.000000 0 0 1
24.805201 -6.252490 -9.733663 27.370346 -0.246920 1.934382 0.078044 -0.007040 -480814.000000 0 0 1
24.825901 -6.633790 -8.337163 27.015566 -0.261112 1.884523 0.077398 -0.016961 881214.000000 0 0 1
23.587401 -7.200190 -7.883463 25.891258 -0.296272 1.880193 0.064845 -0.023104 147550.000000 0 0 1
22.742101 -6.063290 -7.258963 24.630453 -0.260550 1.869954 0.078838 -0.020632 -502306.000000 0 1 0
22.162101 -5.273290 -8.280463 24.239067 -0.233598 1.919433 0.072459 -0.020546 528165.000000 0 1 0
21.597801 -4.022690 -7.895163 23.344821 -0.184145 1.915797 0.050873 -0.019889 -102091.000000 0 1 0
21.526801 -3.068790 -9.084763 23.565941 -0.141603 1.966550 0.052154 -0.015790 721665.000000 0 1 0
22.830101 -2.954790 -9.707863 24.983733 -0.128710 1.969873 0.057484 -0.012982 1633600.000000 0 1 0
22.729501 -2.333590 -10.956063 25.339913 -0.102309 2.017909 0.060009 -0.008508 191566.000000 0 0 1
24.094101 -2.222190 -11.705563 26.879063 -0.091969 2.021379 0.065994 -0.015405 -108045.000000 0 0 1
25.075001 -1.479190 -11.055463 27.443887 -0.058922 1.985413 0.062494 -0.016531 -449684.000000 0 0 1
26.291301 -1.655290 -11.707363 28.827675 -0.062877 1.988995 0.064258 -0.010380 -1224520.000000 0 0 1
27.291801 -0.590390 -11.295863 29.542977 -0.021629 1.963138 0.063767 -0.009554 -233374.000000 0 0 1
28.464151 -0.731090 -12.115663 30.944009 -0.025679 1.973096 0.066862 -0.005942 792794.000000 0 0 1
29.455781 0.263310 -11.909463 31.773380 0.008939 1.955005 0.061321 -0.012258 125846.000000 0 0 1
29.425991 1.526510 -12.785063 32.119730 0.051830 1.980180 0.067631 -0.016240 -423878.000000 0 0 1
29.760681 1.223810 -14.119463 32.962935 0.041099 2.013455 0.053925 -0.016086 450064.000000 0 0 1
30.201351 2.369610 -14.815863 33.723085 0.078300 2.025659 0.063284 -0.016342 -8099.460000 0 0 1
30.583331 2.089510 -16.267363 34.703506 0.068216 2.058675 0.055599 -0.009867 549779.000000 0 0 1
29.381151 1.815610 -17.019063 34.002897 0.061717 2.094993 0.062035 -0.002932 925834.000000 0 0 1
29.511351 1.631010 -18.397463 34.814461 0.055211 2.127562 0.043016 -0.004772 1387470.000000 0 0 1
28.143151 1.007910 -18.984363 33.962610 0.035798 2.163949 0.043163 -0.003873 1255490.000000 0 0 1
28.000421 -0.421590 -18.891263 33.779893 -0.015055 2.164272 0.058750 -0.002910 195720.000000 0 0 1
27.765791 -0.926890 -20.204963 34.351693 -0.033370 2.199602 0.042354 -0.005269 -242989.000000 0 0 1
27.566801 -2.461990 -20.216363 34.273769 -0.089074 2.201669 0.046486 -0.009802 -434013.000000 0 0 1
26.322801 -2.822790 -19.692763 32.994892 -0.106829 2.210357 0.055063 -0.010159 -129672.000000 0 0 1
26.069901 -4.236190 -19.799363 33.009087 -0.161086 2.214067 0.054215 -0.008073 38385.800000 0 0 1
26.885301 -5.144290 -18.820963 33.219148 -0.189057 2.173133 0.039128 0.001533 1421790.000000 0 0 1
28.304641 -5.330190 -19.064863 34.540305 -0.186135 2.155509 0.034554 -0.002321 1289110.000000 0 0 1
28.986781 -5.470590 -17.830563 34.468679 -0.186533 2.114486 0.030697 0.012629 -360476.000000 0 0 1
30.508041 -5.378990 -17.915363 35.785952 -0.174520 2.095118 0.036724 0.009100 -373449.000000 0 0 1
31.108041 -6.361390 -18.722163 36.860506 -0.201712 2.103564 0.021173 0.011670 -228170.000000 0 0 1
32.479601 -6.141490 -18.930763 38.092206 -0.186881 2.090902 0.031758 0.015205 41687.200000 0 0 1
33.177821 -7.314690 -19.706363 39.276116 -0.216998 2.096404 0.022526 0.019791 -5018.620000 0 0 1
33.449841 -8.338890 -18.829763 39.280898 -0.244315 2.070724 0.015170 0.016151 410192.000000 0 0 1
34.181991 -9.450490 -19.402263 40.424845 -0.269738 2.071404 0.012837 0.018832 -25989.600000 0 0 1
34.827681 -10.407490 -18.377163 40.730865 -0.290381 2.038889 0.019047 0.011861 -734248.000000 0 0 1
33.997621 -11.083590 -17.482763 39.803658 -0.315146 2.025532 0.005405 0.011409 68753.200000 0 0 1
34.734451 -11.870890 -16.516063 40.251465 -0.329316 1.993603 0.031796 -0.005724 392642.000000 0 0 1
35.651061 -11.031590 -15.481563 40.402635 -0.300088 1.964035 0.057357 -0.006201 192268.000000 0 0 1
36.076181 -11.779690 -14.372563 40.581061 -0.315608 1.932822 0.046974 -0.013360 356047.000000 0 0 1
-35.976222 -12.980190 -14.501363 40.903098 0.346263 1.933207 0.047788 -0.014124 -731530.000000 0 0 1
-34.529447 -12.928790 -14.988163 39.800519 0.358269 1.956900 0.065907 -0.019350 -533959.000000 0 0 1
-34.516873 -12.630590 -16.398863 40.247597 0.350791 1.990456 0.056416 -0.007743 -307827.000000 0 0 1
-33.191682 -12.695990 -16.848063 39.328528 0.365334 2.013510 0.085296 -0.018348 -228528.000000 0 0 1
-33.039882 -11.910790 -18.176863 39.546164 0.345996 2.048382 0.091413 -0.018583 109854.000000 0 0 1
-33.100862 -10.492090 -17.920563 39.075537 0.306955 2.047230 0.082863 -0.016870 9259.930000 0 0 1
-33.919492 -9.787290 -18.826163 40.009341 0.280915 2.060704 0.071270 -0.006891 16215.700000 0 0 1
-34.578718 -8.583090 -18.110063 39.966630 0.243302 2.041069 0.080670 -0.006971 -300733.000000 0 0 1
-35.462095 -7.781190 -18.826663 40.896825 0.216000 2.049180 0.066117 -0.001823 7373.620000 0 0 1
-35.994316 -6.731990 -17.947663 40.780254 0.184893 2.026514 0.057021 0.005321 156799.000000 0 0 1
24.879838 27.422210 -26.966953 45.806118 0.833969 2.200270 0.018876 0.022385 -290970.000000 0 0 1
25.218738 26.396710 -26.051493 44.849206 0.808216 2.190592 0.032056 0.002942 1259670.000000 0 0 1
26.414938 25.662010 -26.483893 45.361705 0.770941 2.194245 0.025400 -0.001998 960665.000000 0 0 1
26.858038 24.601910 -25.479943 44.450373 0.741584 2.181229 0.040900 -0.011089 -426691.000000 0 0 1
27.371638 25.169510 -24.308963 44.425629 0.743510 2.149792 0.044614 -0.001253 127039.000000 0 0 1
27.645738 24.223910 -23.293963 43.516587 0.719524 2.135647 0.058391 -0.003922 81542.100000 0 0 1
28.309338 24.878010 -22.051463 43.664643 0.720973 2.100200 0.063945 -0.003796 636568.000000 0 0 1
27.392138 25.745110 -21.350963 43.231973 0.754412 2.087331 0.051610 0.003014 690384.000000 0 0 1
28.123938 26.728210 -20.643163 43.948757 0.759958 2.059758 0.036929 0.005921 26841.200000 0 0 1
27.249538 27.815410 -20.013263 43.780875 0.795674 2.045555 0.044645 0.014618 -181205.000000 0 0 1
26.389138 27.356210 -19.004563 42.496144 0.803390 2.034436 0.053160 0.011951 56416.200000 0 0 1
25.670038 28.415010 -18.389263 42.479744 0.836108 2.018498 0.057242 0.007612 -99057.700000 0 0 1
24.676738 28.026010 -17.282363 41.147037 0.848863 2.004258 0.059181 0.003936 -186850.000000 0 0 1
23.643638 27.263810 -17.837163 40.255451 0.856391 2.029849 0.058153 0.005315 462729.000000 0 0 1
22.465638 27.100710 -17.031363 39.105251 0.878639 2.021419 0.043375 0.006832 1146300.000000 0 0 1
21.376838 26.159510 -17.662063 38.121354 0.885672 2.052525 0.032873 -0.004513 202067.000000 0 0 1
20.828538 26.622210 -18.877963 38.716244 0.906895 2.080133 0.033634 -0.000070 -212208.000000 0 0 1
20.149238 25.566110 -19.506563 37.948963 0.903340 2.110662 0.033147 0.003392 -211663.000000 0 0 1
19.389938 25.972910 -20.778563 38.500785 0.929510 2.140867 0.025677 0.011339 -87329.500000 0 0 1
18.302238 26.779310 -20.443463 38.341081 0.971266 2.133175 0.014627 0.011354 195266.000000 0 0 1
17.266838 26.811210 -21.463563 38.440463 0.998640 2.163202 0.009321 0.012680 1224840.000000 0 0 1
16.030438 27.721010 -21.186663 38.396667 1.046502 2.155298 0.015204 0.012124 489359.000000 0 0 1
15.386838 27.470010 -19.952463 37.275421 1.060207 2.135625 0.025008 0.011053 57290.800000 0 0 1
14.694938 28.642810 -19.504763 37.640238 1.096770 2.115529 0.012215 0.012511 38770.900000 0 0 1
14.272938 28.551310 -18.057063 36.673581 1.107225 2.085610 0.013427 0.013397 -415044.000000 0 0 1
13.222838 27.679310 -17.805363 35.468558 1.125135 2.096711 0.013711 0.011704 -563782.000000 0 0 1
12.812738 27.612410 -16.445263 34.598527 1.136344 2.066120 0.029687 0.009440 225420.000000 0 0 1
11.811238 26.454710 -16.227863 33.206935 1.150882 2.081383 0.033379 -0.002749 304130.000000 0 0 1
12.518738 25.199710 -16.267863 32.502116 1.109727 2.094992 0.038894 -0.009145 560934.000000 0 0 1
11.581638 24.127810 -16.341463 31.358076 1.123267 2.118964 0.045789 -0.011921 459105.000000 0 0 1
12.323938 22.773410 -16.487263 30.697516 1.074769 2.137777 0.041797 -0.008086 356962.000000 0 0 1
12.983138 22.599210 -17.717063 31.514766 1.049341 2.167819 0.040318 -0.002876 -93290.900000 0 0 1
13.969638 21.570310 -17.710963 31.210691 0.996087 2.174220 0.041516 0.002395 183467.000000 0 0 1
13.388038 20.152110 -17.891763 30.090900 0.984400 2.207553 0.058540 0.000125 63092.900000 0 0 1
12.905638 19.568110 -16.693763 28.777563 0.987755 2.189643 0.067208 -0.008643 -136922.000000 0 0 1
12.354538 18.263610 -16.777063 27.706748 0.976047 2.221219 0.055080 -0.013605 -654616.000000 0 0 1
13.315538 17.109110 -16.854563 27.460908 0.909445 2.231618 0.052978 -0.016588 -905165.000000 0 0 1
14.106138 17.069510 -15.708563 27.149774 0.880167 2.187794 0.052935 -0.015725 -327538.000000 0 0 1
14.986338 15.979510 -15.770763 26.993555 0.817460 2.194742 0.051985 -0.014166 -892488.000000 0 0 1
15.532238 15.668410 -14.380563 26.335339 0.789763 2.148445 0.084400 -0.008425 845808.000000 0 0 1
16.657038 16.451610 -13.853463 27.203507 0.779194 2.105113 0.063994 0.000850 2942830.000000 0 0 1
17.960238 16.354510 -14.519563 28.299432 0.738638 2.109553 0.040126 0.012311 1157260.000000 0 0 1
18.696238 14.950610 -14.652263 28.067042 0.674533 2.120043 0.034697 -0.001041 -313603.000000 0 0 1
18.969238 14.148110 -13.527563 27.257952 0.640837 2.090104 0.066766 -0.013599 675213.000000 0 0 1
19.859738 14.816710 -12.620963 27.807064 0.640980 2.041907 0.061040 -0.002148 -288769.000000 0 0 1
20.827438 13.824410 -11.923463 27.695946 0.585987 2.015857 0.088255 -0.011427 -89292.800000 0 0 1
20.201038 12.889710 -10.988163 26.362213 0.567944 2.000735 0.139060 -0.023505 481078.000000 0 0 1
20.945438 11.714710 -10.755763 26.298902 0.509953 1.992134 0.156930 -0.011305 -342061.000000 0 0 1
20.652438 10.505210 -11.625963 25.923843 0.470557 2.035845 0.111770 -0.011894 -1020580.000000 0 0 1
21.383938 10.570710 -12.815763 27.078709 0.459101 2.063805 0.094660 -0.000906 341092.000000 0 0 1
21.502338 9.322810 -13.508563 27.050815 0.409109 2.093676 0.090464 -0.011917 -401941.000000 0 0 1
22.338638 8.194710 -12.853763 27.044172 0.351598 2.066087 0.082300 0.003421 -494896.000000 0 0 1
21.651838 7.630110 -11.711863 25.771853 0.338811 2.042544 0.086882 -0.010964 822065.000000 0 0 1
22.310238 6.494810 -11.161663 25.778130 0.283284 2.018603 0.078202 0.008152 -673238.000000 0 0 1
22.072738 5.153810 -11.896563 25.598745 0.229382 2.054129 0.071415 -0.004490 -407990.000000 0 0 1
20.755538 4.700110 -11.730863 24.300134 0.222695 2.074587 0.053577 -0.023543 173391.000000 0 1 0
19.895938 5.187310 -12.768363 24.203050 0.255044 2.126512 0.022055 -0.030226 -13559.800000 0 1 0
18.871638 4.040210 -13.087863 23.318537 0.210905 2.166709 0.024225 -0.038992 -152222.000000 0 1 0
19.524538 3.105010 -13.874163 24.152455 0.157710 2.182718 0.037306 -0.040622 238626.000000 0 1 0
19.140038 1.783710 -13.715363 23.614272 0.092924 2.190517 0.059624 -0.041814 -836825.000000 0 1 0
20.113538 0.771110 -14.313763 24.698843 0.038319 2.188950 0.083163 -0.035191 -1143270.000000 0 1 0
21.268738 0.554110 -13.561163 25.230367 0.026047 2.138258 0.092170 -0.030336 -306233.000000 0 0 1
22.368838 0.251410 -14.377963 26.592366 0.011239 2.142042 0.064485 -0.033914 -233836.000000 0 0 1
22.469338 -1.207690 -14.942163 27.011070 -0.053697 2.156981 0.066023 -0.022193 -208696.000000 0 0 1
21.488238 -1.480490 -15.985363 26.822902 -0.068789 2.209256 0.056580 -0.019142 776238.000000 0 0 1
21.925938 -2.387890 -16.977363 27.833067 -0.108480 2.226820 0.057594 -0.018061 -456816.000000 0 0 1
20.756538 -2.915790 -17.813663 27.507495 -0.139563 2.275218 0.039399 -0.017278 -523461.000000 0 0 1
19.934038 -3.698490 -16.989963 26.451910 -0.183450 2.268287 0.050295 -0.016080 -257199.000000 0 0 1
19.136038 -4.519490 -17.785363 26.512881 -0.231927 2.306110 0.042273 -0.019742 -411039.000000 0 0 1
18.509538 -5.646490 -16.920563 25.705861 -0.296091 2.289272 0.050495 -0.027186 27190.500000 0 0 1
19.443738 -6.660490 -16.562563 26.395825 -0.330024 2.249095 0.054191 -0.015542 1146680.000000 0 0 1
18.761538 -7.751190 -15.903663 25.787647 -0.391785 2.235361 0.061513 -0.014321 595061.000000 0 0 1
19.844838 -8.778690 -15.490663 26.661651 -0.416488 2.190764 0.082873 -0.009423 532184.000000 0 0 1
20.636038 -9.414990 -16.509463 28.054420 -0.428031 2.199974 0.078800 -0.010269 546177.000000 0 0 1
21.384238 -10.447990 -15.970263 28.661742 -0.454473 2.161804 0.069601 -0.011367 -718575.000000 0 0 1
21.915438 -11.368890 -17.041363 29.999102 -0.478544 2.174946 0.061684 -0.010997 273354.000000 0 0 1
23.034338 -10.994490 -17.864563 31.154488 -0.445330 2.181469 0.060037 -0.004444 869047.000000 0 0 1
23.494038 -12.012790 -18.770763 32.382379 -0.472656 2.189107 0.062101 -0.005753 -144457.000000 0 0 1
22.600938 -12.147190 -20.033963 32.553284 -0.493168 2.233716 0.065577 -0.006440 -215565.000000 0 0 1
21.303938 -12.615290 -19.835963 31.724892 -0.534633 2.246247 0.065334 -0.007080 -385842.000000 0 0 1
21.214838 -14.037790 -19.858863 32.272331 -0.584554 2.233630 0.048057 -0.000769 -578734.000000 0 0 1
19.740238 -14.412990 -19.654163 31.363951 -0.630664 2.248041 0.050540 -0.002863 -431481.000000 0 0 1
19.022238 -14.039190 -20.775463 31.473231 -0.635803 2.291747 0.037002 -0.000612 -871089.000000 0 0 1
17.646338 -14.072790 -20.508963 30.496791 -0.673209 2.308372 0.056775 -0.002598 -288709.000000 0 0 1
16.861538 -13.332990 -21.648463 30.507967 -0.669065 2.359727 0.053919 -0.005937 -212577.000000 0 0 1
17.017038 -13.909190 -22.945463 31.773250 -0.685242 2.377720 0.029891 0.003988 554602.000000 0 0 1
16.282338 -13.166190 -23.922063 31.791952 -0.679974 2.422580 0.045506 -0.004933 25973.800000 0 0 1
16.363238 -13.848690 -25.293873 33.156022 -0.702359 2.438543 0.042931 -0.004988 -180196.000000 0 0 1
15.619038 -15.075390 -25.391413 33.405772 -0.767688 2.434249 0.055095 -0.016287 374428.000000 0 0 1
15.851338 -15.699890 -26.623293 34.735446 -0.780598 2.444106 0.055126 -0.010226 -457592.000000 0 0 1
16.673138 -17.006190 -26.671773 35.757342 -0.795287 2.412697 0.037230 -0.008379 -593847.000000 0 0 1
18.026938 -16.757090 -26.464953 36.140895 -0.748908 2.392448 0.025757 -0.001606 -622495.000000 0 0 1
18.794638 -17.913090 -26.634043 37.195288 -0.761387 2.368937 0.028425 -0.006088 1368440.000000 0 0 1
20.361438 -17.654290 -26.726643 37.954915 -0.714307 2.352047 0.008344 0.001709 1156910.000000 0 0 1
21.007538 -17.393590 -25.508183 37.343286 -0.691564 2.322758 0.011003 -0.002046 770415.000000 0 0 1
22.342438 -16.907490 -25.788463 38.080081 -0.647803 2.314769 0.017477 0.002870 653992.000000 0 0 1
22.929338 -16.396090 -24.438663 37.307299 -0.620769 2.285063 0.017915 0.001738 -237437.000000 0 0 1
22.490338 -15.080890 -24.099863 36.249854 -0.590686 2.298058 0.025822 -0.000610 -51149.800000 0 0 1
21.113838 -14.984790 -23.784863 35.157614 -0.617216 2.313824 0.037792 0.000676 -151149.000000 0 0 1
20.709738 -13.593690 -23.341463 34.036826 -0.580855 2.326459 0.047116 0.001865 -86316.700000 0 0 1
20.978438 -12.565090 -24.291863 34.468405 -0.539649 2.352877 0.052362 -0.001730 480112.000000 0 0 1
20.474038 -11.298890 -23.743663 33.325856 -0.504273 2.363808 0.060372 -0.005979 241096.000000 0 0 1
20.432538 -10.129490 -24.767363 33.667751 -0.460244 2.397408 0.076368 -0.012813 -137504.000000 0 0 1
20.044638 -8.890690 -24.152963 32.622040 -0.417473 2.404444 0.069786 -0.003284 202781.000000 0 0 1
19.993738 -7.784590 -25.058363 32.988952 -0.371293 2.433492 0.056351 -0.005091 -339055.000000 0 0 1
19.539738 -6.508590 -24.293963 31.849015 -0.321536 2.438406 0.053056 -0.010853 -55054.300000 0 0 1
18.239838 -6.651790 -23.761863 30.684917 -0.349697 2.456535 0.061338 -0.011059 -145886.000000 0 0 1
17.910438 -5.592890 -22.852763 29.568784 -0.302675 2.454145 0.039482 -0.019155 -79043.300000 0 0 1
18.574638 -5.574390 -21.420063 28.894811 -0.291556 2.405819 0.046255 -0.013883 -623856.000000 0 0 1
18.244838 -6.534290 -20.463863 28.184051 -0.343912 2.383399 0.052262 -0.007738 81079.400000 0 0 1
18.593138 -7.870290 -20.807563 28.993119 -0.400421 2.371251 0.054327 -0.004490 -99202.300000 0 0 1
18.159038 -8.911090 -19.658563 28.206689 -0.456200 2.341927 0.053594 -0.009121 225456.000000 0 0 1
16.766838 -9.044890 -19.477663 27.245481 -0.494708 2.367270 0.066317 -0.011676 -123431.000000 0 0 1
16.365838 -10.228190 -18.818163 26.955144 -0.558579 2.343577 0.070528 -0.008461 148339.000000 0 0 1
14.848338 -10.264890 -18.493963 25.843138 -0.604874 2.368313 0.067686 -0.007880 238880.000000 0 0 1
14.338038 -9.602090 -17.324463 24.452331 -0.590095 2.358166 0.085986 -0.013533 360316.000000 0 1 0
14.468738 -8.152690 -17.349263 24.016820 -0.513126 2.378034 0.106201 -0.040781 -420663.000000 0 1 0
13.214338 -7.410790 -16.834263 22.647979 -0.511108 2.408788 0.106331 -0.034027 -477770.000000 0 1 0
12.119738 -7.485990 -17.682863 22.707086 -0.553310 2.463447 0.092390 -0.034714 -582680.000000 0 1 0
11.115538 -6.596190 -17.297763 21.593460 -0.535568 2.499868 0.075524 -0.036129 280689.000000 0 1 0
9.674538 -6.929390 -17.794863 21.407248 -0.621549 2.552156 0.071266 -0.028115 584769.000000 0 1 0
9.342238 -6.329390 -19.042663 22.135076 -0.595467 2.606641 0.066786 -0.038037 730907.000000 0 1 0
7.904338 -6.373290 -19.114263 21.643762 -0.678572 2.653290 0.061807 -0.044464 850069.000000 0 1 0
7.411338 -5.769590 -20.430663 22.486176 -0.661482 2.710687 0.067878 -0.053244 -351006.000000 0 1 0
7.318138 -6.858890 -21.370563 23.607212 -0.753016 2.702777 0.065635 -0.038942 108518.000000 0 1 0
6.779038 -6.408390 -22.596763 24.446605 -0.757299 2.750076 0.071711 -0.041840 -80271.200000 0 1 0
6.785038 -7.549290 -23.686963 25.770152 -0.838664 2.736746 0.069778 -0.036872 -318455.000000 0 0 1
6.095038 -8.743390 -23.396363 25.709651 -0.962018 2.714135 0.073538 -0.037302 130410.000000 0 0 1
5.855738 -9.519290 -24.597563 27.017525 -1.019316 2.715118 0.068957 -0.021368 117448.000000 0 0 1
5.078638 -10.861890 -24.470763 27.250531 -1.133432 2.685981 0.075026 -0.025795 -57044.700000 0 0 1
5.812838 -11.792290 -23.768563 27.162323 -1.112816 2.636349 0.071486 -0.035977 -29009.200000 0 0 1
5.065738 -12.995490 -23.626263 27.436194 -1.199107 2.608294 0.089223 -0.042652 72292.000000 0 0 1
5.829338 -14.065590 -22.786963 27.405614 -1.177904 2.552546 0.101865 -0.035679 668003.000000 0 0 1
6.780738 -14.911890 -23.421263 28.581435 -1.144024 2.531260 0.105302 -0.027391 392671.000000 0 0 1
8.059738 -14.448290 -23.800763 28.986010 -1.061959 2.534153 0.105377 -0.024961 891698.000000 0 0 1
9.235538 -14.443090 -22.760063 28.494183 -1.001878 2.496031 0.093776 -0.003904 140715.000000 0 0 1
9.545438 -15.723390 -22.273963 28.887191 -1.025183 2.451312 0.083664 0.007152 42869.200000 0 0 1
8.831238 -16.260090 -21.144863 28.097803 -1.073248 2.422715 0.076194 -0.004039 -285076.000000 0 0 1
9.336938 -15.795590 -19.748263 26.956872 -1.036939 2.392912 0.071529 -0.007616 152170.000000 0 0 1
10.431638 -16.595690 -19.336763 27.534459 -1.009630 2.349385 0.079407 -0.010629 -333679.000000 0 0 1
10.641038 -16.629090 -17.941063 26.676583 -1.001551 2.308432 0.041450 -0.001767 -550756.000000 0 0 1
9.561138 -17.222190 -17.041863 26.046963 -1.063997 2.284019 0.041888 -0.004083 -580833.000000 0 0 1
9.327138 -18.655190 -17.048563 26.938172 -1.107168 2.256060 0.037114 -0.008607 487626.000000 0 0 1
8.525438 -19.215590 -18.119663 27.753273 -1.153216 2.282182 0.062977 -0.012426 828142.000000 0 0 1
6.978438 -19.041490 -18.178063 27.234517 -1.219511 2.301594 0.074944 -0.011475 409190.000000 0 0 1
6.661138 -17.687490 -18.468063 26.425129 -1.210622 2.344630 0.074017 -0.011991 -1185240.000000 0 0 1
5.293838 -17.513890 -18.497063 26.017348 -1.277263 2.361646 0.075682 -0.004869 -800015.000000 0 0 1
4.964538 -16.016590 -18.082763 24.660984 -1.270225 2.393892 0.063804 0.002514 113570.000000 0 1 0
5.297738 -15.773990 -16.728863 23.595331 -1.246780 2.358862 0.038618 0.003665 -43706.000000 0 1 0
4.662738 -14.610690 -16.318163 22.394103 -1.261881 2.387191 0.020016 0.012287 -73796.300000 0 1 0
10.829138 30.071510 -18.169463 36.765409 1.225141 2.087711 0.019239 -0.017106 220189.000000 0 0 1
9.735838 29.698510 -19.009263 36.580597 1.254014 2.117243 0.035762 -0.017712 137019.000000 0 0 1
8.822738 28.802810 -18.443063 35.321228 1.273556 2.120169 0.033837 -0.019702 -813437.000000 0 0 1
7.786638 28.338210 -19.399363 35.213934 1.302639 2.154239 0.052307 -0.018869 -1281840.000000 0 0 1
6.946538 29.364010 -19.790063 36.085261 1.338500 2.151276 0.060725 -0.029322 -766725.000000 0 0 1
6.293638 29.050110 -20.993663 36.390282 1.357446 2.185728 0.066591 -0.028441 -240907.000000 0 0 1
5.171538 30.052810 -21.334063 37.216373 1.400384 2.181256 0.065970 -0.038626 -117785.000000 0 0 1
3.988438 29.738810 -20.614263 36.404015 1.437476 2.172762 0.068259 -0.036214 17644.300000 0 0 1
2.936638 30.619110 -20.975463 37.230683 1.475180 2.169282 0.064685 -0.042216 1243520.000000 0 0 1
1.480838 30.131110 -20.530763 36.490942 1.521689 2.168355 0.076039 -0.025320 887104.000000 0 0 1
0.978838 28.936210 -21.033063 35.786200 1.536982 2.199062 0.086615 -0.044278 -113805.000000 0 0 1
0.581538 28.888810 -22.423763 36.574946 1.550669 2.230763 0.102990 -0.052719 -215345.000000 0 0 1
-0.328262 27.684310 -22.708463 35.807863 -1.558940 2.257738 0.109297 -0.046217 126723.000000 0 0 1
-1.481762 27.582010 -21.901163 35.250870 -1.517126 2.241190 0.120779 -0.046024 -10232.100000 0 0 1
-2.144862 26.322610 -22.139563 34.462160 -1.489492 2.268463 0.121137 -0.058992 109509.000000 0 0 1
-3.158662 26.042410 -21.011363 33.610439 -1.450097 2.246112 0.098948 -0.058435 -159589.000000 0 0 1
-4.456262 26.569710 -21.157463 34.255598 -1.404623 2.236529 0.081794 -0.050433 -86728.500000 0 0 1
-5.236062 26.063310 -20.087263 33.319823 -1.372538 2.217880 0.071253 -0.048746 408369.000000 0 0 1
-6.563162 26.855210 -19.879863 34.051231 -1.331104 2.194225 0.065147 -0.051281 -244765.000000 0 0 1
-7.503962 26.211310 -19.131863 33.307212 -1.291967 2.182675 0.072371 -0.051532 -1039050.000000 0 0 1
-8.456162 27.156910 -18.672863 34.024700 -1.268931 2.151728 0.079387 -0.059527 343554.000000 0 0 1
-9.773762 26.561210 -18.124663 33.608447 -1.218202 2.140389 0.088568 -0.047954 -274626.000000 0 0 1
-9.622862 25.754510 -17.000363 32.325015 -1.213220 2.124592 0.099538 -0.052619 -404117.000000 0 0 1
-10.842462 25.233010 -16.525263 32.052271 -1.164957 2.112472 0.056970 -0.046200 -357266.000000 0 0 1
-10.649962 24.576410 -15.138763 30.766926 -1.161882 2.085235 0.059860 -0.030125 -366513.000000 0 0 1
-9.888062 23.426610 -15.076563 29.561505 -1.171396 2.105989 0.059977 -0.028910 -536111.000000 0 0 1
-10.092862 22.747510 -13.828963 28.470253 -1.153201 2.077999 0.084449 -0.032551 -202717.000000 0 0 1
-9.500662 21.350610 -13.839163 27.159410 -1.152122 2.105462 0.093966 -0.015736 232196.000000 0 0 1
-10.274062 20.301610 -14.444463 26.950959 -1.102303 2.136433 0.064254 -0.010075 -249092.000000 0 0 1
-10.539162 20.339110 -15.831363 27.845742 -1.092717 2.175524 0.078846 -0.009181 250636.000000 0 0 1
-9.305562 20.265010 -16.774063 27.904001 -1.140323 2.215717 0.064225 -0.007629 248020.000000 0 0 1
-8.681862 18.984510 -16.849863 26.827304 -1.141878 2.249888 0.055775 -0.009400 -360096.000000 0 0 1
-7.938262 18.966510 -18.048563 27.358639 -1.174409 2.291219 0.052282 -0.008839 -131220.000000 0 0 1
-7.121362 17.673410 -18.246763 26.381955 -1.187756 2.334551 0.030528 -0.003689 161742.000000 0 0 1
-7.902562 16.502710 -18.524563 26.037460 -1.124200 2.362367 0.032936 -0.010187 -256169.000000 0 0 1
-7.600562 15.775910 -19.703363 26.360394 -1.121828 2.415028 0.034525 -0.013087 95744.100000 0 0 1
-6.344662 14.878410 -19.611363 25.421002 -1.167712 2.451934 0.025543 -0.003703 -68447.300000 0 0 1
-6.522362 13.700610 -18.759663 24.128259 -1.126481 2.461473 0.012012 -0.003375 40499.700000 0 1 0
-5.304362 12.989110 -18.722963 23.396636 -1.183095 2.498494 0.015750 0.005860 529275.000000 0 1 0
-4.418562 13.316610 -17.469163 22.405969 -1.250419 2.464928 0.021791 0.006227 251451.000000 0 1 0
-3.890562 14.616410 -17.511363 23.139225 -1.310651 2.429173 0.023828 -0.002640 -534441.000000 0 1 0
-3.281062 15.083010 -16.332963 22.472833 -1.356600 2.384429 0.022876 0.009450 7236.610000 0 1 0
-2.696462 16.481410 -16.386963 23.397443 -1.408627 2.346718 0.043791 0.002802 122121.000000 0 1 0
-3.596862 17.543410 -16.623763 24.434773 -1.368572 2.319012 0.042405 -0.008286 -612183.000000 0 1 0
-2.874162 18.746910 -16.677763 25.255796 -1.418667 2.292086 0.055675 -0.015588 120146.000000 0 0 1
-3.477662 19.998110 -17.385363 26.725818 -1.398619 2.279050 0.075881 -0.017025 178014.000000 0 0 1
-3.546862 19.950910 -18.850563 27.676032 -1.394855 2.320081 0.071663 -0.022664 -3678.050000 0 0 1
-4.177862 21.105410 -19.441263 28.997509 -1.375371 2.305606 0.084593 -0.028718 572815.000000 0 0 1
-3.177162 22.315510 -19.662263 29.911217 -1.429372 2.288099 0.096210 -0.043687 -363541.000000 0 0 1
-2.220962 22.004710 -20.638663 30.250526 -1.470206 2.321643 0.107760 -0.042313 573491.000000 0 0 1
-0.946862 22.672910 -20.482663 30.569541 -1.529059 2.305052 0.116217 -0.049878 1281440.000000 0 0 1
-0.093062 22.148110 -19.285863 29.368213 -1.566595 2.287220 0.125445 -0.045782 -743732.000000 0 0 1
-0.394662 22.573010 -17.980463 28.861628 -1.553314 2.243354 0.117534 -0.035770 174335.000000 0 0 1
0.590238 21.967410 -17.125563 27.860373 1.543934 2.232792 0.119528 -0.031099 663001.000000 0 0 1
0.121338 22.114510 -15.688763 27.114637 1.565310 2.187818 0.119913 -0.027400 163945.000000 0 0 1
-0.866662 21.186610 -15.304163 26.150353 -1.529913 2.195969 0.087007 -0.012512 -251110.000000 0 0 1
-1.105862 21.284910 -13.909863 25.451024 -1.518888 2.149017 0.097341 -0.017327 -35369.400000 0 0 1
-1.801262 20.061810 -13.282163 24.127507 -1.481251 2.153758 0.048544 -0.009025 -346174.000000 0 1 0
-1.130562 18.821010 -13.352263 23.103928 -1.510799 2.186976 0.047012 -0.004772 -75064.500000 0 1 0
-1.922962 17.860710 -12.666263 21.980377 -1.463545 2.184933 0.027927 -0.003070 275417.000000 0 1 0
-1.378162 16.411610 -12.768763 20.839423 -1.487018 2.230296 0.009000 0.001467 -180046.000000 0 1 0
-0.218162 16.077310 -12.016663 20.073058 -1.557228 2.212606 0.010925 -0.000257 199314.000000 0 1 0
0.050538 14.720810 -11.988363 18.984879 1.567363 2.254243 0.007991 0.000337 503262.000000 0 1 0
0.845738 14.242210 -13.254063 19.473726 1.511483 2.319395 0.008977 0.002822 172706.000000 0 1 0
-0.068162 13.973210 -14.321763 20.009201 -1.565918 2.368506 0.013163 -0.005132 425325.000000 0 1 0
0.522238 13.027010 -15.221163 20.041445 1.530729 2.433316 0.017688 -0.007155 -300190.000000 0 1 0
-0.148862 12.803310 -16.553963 20.927986 -1.559170 2.483232 0.025110 -0.003506 -316602.000000 0 1 0
-0.166362 13.959010 -17.360363 22.276980 -1.558879 2.464338 0.035068 -0.009511 -9060.850000 0 1 0
-0.271862 13.657910 -18.714663 23.170046 -1.550894 2.511053 0.046376 -0.012605 -270762.000000 0 1 0
-0.955362 14.879810 -19.418663 24.482768 -1.506679 2.486771 0.054512 -0.009525 -152443.000000 0 1 0
-0.183662 16.049110 -19.527663 25.277209 -1.559353 2.453629 0.053555 -0.015061 -445546.000000 0 0 1
-0.893362 17.128710 -20.031063 26.371088 -1.518688 2.433470 0.077252 -0.025427 -994116.000000 0 0 1
-0.064362 18.310410 -20.288963 27.329787 -1.567281 2.407405 0.093795 -0.033152 -326072.000000 0 0 1
0.724738 18.164410 -21.476163 28.137104 1.530919 2.439153 0.096238 -0.039156 -72912.700000 0 0 1
1.618538 19.232810 -21.591863 28.960821 1.486839 2.412162 0.100762 -0.035822 -159284.000000 0 0 1
2.191738 19.258210 -23.010763 30.086169 1.457476 2.441572 0.101973 -0.045193 605524.000000 0 0 1
3.109638 18.168510 -23.326363 29.730183 1.401283 2.472850 0.089676 -0.042156 469933.000000 0 0 1
3.672838 18.409410 -24.630263 30.968467 1.373873 2.490354 0.091401 -0.048755 63197.400000 0 0 1
4.686638 17.318710 -24.923263 30.709466 1.306515 2.517652 0.067086 -0.031660 -7658.440000 0 0 1
5.951538 17.361610 -24.284463 30.439800 1.240551 2.494411 0.055274 -0.026309 421384.000000 0 0 1
6.917238 16.339910 -24.490063 30.242421 1.170338 2.514593 0.050170 -0.027571 591345.000000 0 0 1
7.476338 16.089910 -25.934533 31.422616 1.135818 2.541611 0.037101 -0.029545 -938695.000000 0 0 1
8.373838 17.139610 -26.313743 32.500776 1.116337 2.514325 0.019228 -0.022754 148559.000000 0 0 1
8.713438 17.160710 -27.652553 33.690913 1.100964 2.533557 0.022080 -0.019993 -320937.000000 0 0 1
9.353038 15.874910 -28.285033 33.757002 1.038377 2.564223 0.009451 -0.024097 -506161.000000 0 0 1
10.700038 15.599910 -27.966953 33.763863 0.969594 2.546881 0.023250 -0.018226 81616.100000 0 0 1
11.159238 14.292510 -28.362193 33.663310 0.907888 2.572751 0.014981 -0.003779 186918.000000 0 0 1
10.592038 13.124210 -27.463273 32.228365 0.891765 2.590869 0.018986 -0.007417 -131702.000000 0 0 1
9.182038 13.087510 -27.476213 31.788913 0.959005 2.614619 0.035191 -0.012281 -218869.000000 0 0 1
8.795838 12.407210 -26.273703 30.358081 0.954102 2.616864 0.043980 -0.011196 586781.000000 0 0 1
7.311938 11.912410 -26.234093 29.725369 1.020285 2.652052 0.047596 -0.016169 615059.000000 0 0 1
6.405338 12.959510 -26.062333 29.803061 1.111753 2.635170 0.052275 -0.016162 -252633.000000 0 0 1
5.096338 12.518210 -25.702523 29.039592 1.184172 2.657474 0.075341 -0.031855 1451720.000000 0 0 1
3.966238 13.601610 -25.967933 29.581555 1.287063 2.642134 0.087709 -0.025189 632433.000000 0 0 1
3.522538 13.714410 -27.340663 30.789692 1.319382 2.663733 0.076648 -0.021634 526879.000000 0 0 1
4.457238 14.439810 -28.168513 31.966235 1.271398 2.649182 0.079455 -0.017439 392844.000000 0 0 1
4.134938 14.445410 -29.655133 33.244465 1.292005 2.672618 0.074901 -0.014328 -247054.000000 0 0 1
4.551938 13.275110 -30.281233 33.375167 1.240467 2.707610 0.067407 -0.015577 -62940.700000 0 0 1
4.689238 13.251710 -31.694423 34.671793 1.230688 2.724146 0.063250 -0.012540 -981422.000000 0 0 1
5.710838 12.222110 -32.216143 34.926688 1.133686 2.745028 0.057939 -0.002025 2547820.000000 0 0 1
7.146438 12.588710 -31.994843 35.117192 1.054476 2.716712 0.045536 0.005120 2640740.000000 0 0 1
7.604838 12.502910 -30.641443 33.956654 1.024336 2.696032 0.032775 -0.002049 -578488.000000 0 0 1
7.570538 11.137710 -29.905433 32.797813 0.973810 2.718471 0.035271 0.001246 8427.840000 0 0 1
8.607738 10.281110 -30.342193 33.172926 0.873758 2.725481 0.028922 0.010096 192379.000000 0 0 1
8.390638 9.120410 -29.643193 32.129481 0.827049 2.745606 0.044263 0.001664 627960.000000 0 0 1
9.449038 7.981210 -29.940013 32.394265 0.701385 2.749832 0.040093 0.000406 784620.000000 0 0 1
10.762338 8.137210 -29.442333 32.386619 0.647382 2.711889 0.036021 0.002164 7644.090000 0 0 1
11.402738 6.874510 -29.352273 32.230998 0.542536 2.715735 0.027321 0.001164 -631007.000000 0 0 1
12.808438 6.985710 -28.759273 32.248287 0.499304 2.672122 0.031598 0.008954 -353807.000000 0 0 1
13.443638 5.775710 -28.539553 32.071737 0.405781 2.667848 0.053361 -0.005244 -326435.000000 0 0 1
14.261738 5.325310 -29.579953 33.267547 0.357366 2.666288 0.049950 -0.006799 -248186.000000 0 0 1
15.275638 4.224010 -29.104343 33.139857 0.269778 2.642940 0.041059 -0.019211 437567.000000 0 0 1
16.175238 4.607710 -28.059523 32.714005 0.277511 2.601619 0.047531 -0.022191 286492.000000 0 0 1
17.134338 3.593410 -27.915923 32.951432 0.206724 2.581459 0.048326 -0.025843 -149777.000000 0 0 1
17.928138 3.689910 -26.573063 32.267030 0.202982 2.538413 0.050207 -0.027123 -5369.580000 0 0 1
18.805238 4.787910 -26.587003 32.915495 0.249308 2.511097 0.065488 -0.026372 236593.000000 0 0 1
19.516338 4.966310 -25.351313 32.376546 0.249181 2.470294 0.066535 -0.020312 -144056.000000 0 0 1
20.568438 6.062710 -25.467823 33.293049 0.286641 2.441774 0.068174 -0.015369 -713313.000000 0 0 1
20.102738 7.371910 -25.703273 33.453301 0.351485 2.447029 0.070485 -0.012450 -93670.400000 0 0 1
21.010238 8.198010 -26.389733 34.713909 0.372022 2.434427 0.081161 -0.022026 -616302.000000 0 0 1
21.051338 7.994310 -27.979333 35.915330 0.362931 2.463923 0.093914 -0.023159 5287.130000 0 0 1
19.859838 8.435510 -28.584973 35.814406 0.401661 2.495001 0.084535 -0.019265 908399.000000 0 0 1
18.748938 7.500110 -28.520773 34.945798 0.380531 2.525501 0.080398 -0.020768 1676100.000000 0 0 1
17.372338 8.066510 -29.116063 34.851282 0.434707 2.559724 0.070725 -0.012230 1212490.000000 0 0 1
17.245938 7.939110 -30.485433 35.913973 0.431425 2.584595 0.064065 -0.007790 562704.000000 0 0 1
16.174838 8.785610 -30.915503 35.980281 0.497581 2.604568 0.057109 -0.003906 157466.000000 0 0 1
15.739638 8.585510 -32.350063 36.986129 0.499359 2.635518 0.041024 0.003924 -3704.820000 0 0 1
15.218238 7.267510 -32.589613 36.694609 0.445529 2.664058 0.041050 0.009468 335291.000000 0 0 1
13.850038 7.355410 -32.971513 36.510906 0.488198 2.697636 0.031064 0.008686 256841.000000 0 0 1
13.299838 6.064910 -33.551993 36.597883 0.427844 2.730724 0.031660 0.001349 -32265.100000 0 0 1
13.088838 5.178410 -32.497903 35.415354 0.376738 2.732851 0.035617 -0.000495 -281321.000000 0 0 1
12.310238 4.135010 -32.976733 35.441574 0.324059 2.766445 0.037042 -0.010373 -310960.000000 0 0 1
12.155038 3.086410 -31.879143 34.257125 0.248665 2.766802 0.045212 -0.014304 -284513.000000 0 0 1
13.234138 2.192610 -31.832433 34.543505 0.164187 2.742766 0.049037 -0.019300 -23702.500000 0 0 1
13.124338 1.299910 -30.714273 33.426106 0.098724 2.736005 0.059605 -0.019651 -290992.000000 0 0 1
12.379238 0.022510 -31.102253 33.475307 0.001818 2.762796 0.059571 -0.016187 -382804.000000 0 0 1
13.047638 -0.946590 -31.849883 34.431845 -0.072422 2.751865 0.062169 -0.013286 -554596.000000 0 0 1
13.918938 -1.666490 -31.040993 34.059613 -0.119161 2.717403 0.061843 -0.014747 -360280.000000 0 0 1
14.408938 -2.998690 -31.614003 34.871978 -0.205184 2.705889 0.069284 -0.012765 -858230.000000 0 0 1
13.408438 -3.862690 -31.972583 34.884848 -0.280485 2.730082 0.076018 -0.016950 -572009.000000 0 0 1
13.853938 -5.021990 -32.746593 35.909488 -0.347763 2.718736 0.094466 -0.023140 -274284.000000 0 0 1
12.975138 -6.264090 -32.581763 35.625332 -0.449774 2.725233 0.088603 -0.020357 -183440.000000 0 0 1
12.978038 -6.909590 -31.321593 34.600782 -0.489235 2.702712 0.086483 -0.020722 -175443.000000 0 0 1
12.405838 -8.133090 -31.337563 34.671239 -0.580292 2.699478 0.094970 -0.027966 -425114.000000 0 0 1
12.553738 -8.896190 -29.979783 33.697566 -0.616507 2.667423 0.079138 -0.026145 -800958.000000 0 0 1
13.888038 -9.114090 -29.660053 33.995043 -0.580760 2.631055 0.070890 -0.025187 -464477.000000 0 0 1
14.014738 -9.721490 -28.370883 33.103282 -0.606460 2.600296 0.066914 -0.023857 -118412.000000 0 0 1
14.297638 -11.233590 -28.500153 33.806430 -0.665958 2.573706 0.064421 -0.016986 -559436.000000 0 0 1
13.169338 -11.992890 -28.805053 33.867270 -0.738678 2.587784 0.070780 -0.014157 -292121.000000 0 0 1
13.369538 -13.356590 -28.622343 34.298419 -0.784914 2.558038 0.074630 -0.022335 23329.700000 0 0 1
-10.372662 -3.243890 -18.115163 21.125200 0.303099 2.601215 0.036727 0.008740 -88137.400000 0 1 0
-11.125362 -2.686590 -19.155263 22.314021 0.236947 2.603018 0.042443 0.002201 -268471.000000 0 1 0
-11.802062 -3.695990 -19.811763 23.354977 0.303490 2.583541 0.036306 0.006124 -1039680.000000 0 1 0
-12.776162 -3.168290 -20.827763 24.638671 0.243081 2.577976 0.044775 -0.007943 -283426.000000 0 1 0
-13.808762 -2.361690 -20.284963 24.652367 0.169389 2.537188 0.044201 -0.009985 681586.000000 0 1 0
-14.706862 -1.800590 -21.272563 25.924040 0.121826 2.533209 0.040282 -0.011450 716385.000000 0 0 1
-15.366662 -0.473890 -20.881163 25.930327 0.030829 2.506943 0.037638 -0.006986 591869.000000 0 0 1
-14.440862 0.654610 -21.013063 25.505212 -0.045299 2.539008 0.039239 -0.012134 470121.000000 0 0 1
-15.087062 1.894710 -20.968063 25.901139 -0.124931 2.514168 0.034575 -0.001722 21533.300000 0 0 1
-14.368962 3.084910 -21.719563 26.224476 -0.211482 2.546715 0.043860 -0.015608 647973.000000 0 0 1
-13.133662 3.538110 -21.168363 25.161695 -0.263146 2.570467 0.033751 -0.017628 522119.000000 0 0 1
-12.848762 4.795910 -21.692563 25.664347 -0.357243 2.577813 0.039478 -0.020796 -334018.000000 0 0 1
-11.661562 5.451910 -20.990163 24.623206 -0.437320 2.591459 0.019624 -0.016700 -339763.000000 0 1 0
-12.079262 6.059510 -19.820563 23.989184 -0.464963 2.543177 0.036146 -0.019870 1059520.000000 0 1 0
-10.957662 6.331910 -18.951463 22.788624 -0.523975 2.552814 0.026576 -0.017589 790577.000000 0 1 0
-11.453462 6.966210 -17.566763 22.097534 -0.546441 2.489746 0.038602 -0.012562 505204.000000 0 1 0
-12.061962 8.258110 -17.759963 23.002252 -0.600343 2.452930 0.034019 -0.008999 -397780.000000 0 1 0
-13.101162 8.478210 -16.897163 23.000752 -0.574358 2.395925 0.032688 0.000966 -580372.000000 0 1 0
-13.737962 9.898710 -17.032263 24.016953 -0.624377 2.359126 0.032196 0.010252 -224246.000000 0 1 0
-12.943262 10.858810 -16.386063 23.536033 -0.698047 2.340903 0.005986 0.021811 58392.600000 0 1 0
-13.518862 12.112310 -16.456363 24.500603 -0.730577 2.307259 0.017728 0.005869 -361466.000000 0 1 0
-12.825762 13.233010 -15.647463 24.175521 -0.801025 2.274760 0.028602 0.007655 -391892.000000 0 1 0
-12.837962 13.128510 -14.267463 23.253635 -0.796587 2.231355 0.043458 0.000060 -989.133000 0 1 0
-12.239462 14.262810 -13.685863 23.249409 -0.861597 2.200189 0.043490 -0.009857 -714022.000000 0 1 0
-12.819462 14.515910 -12.264763 22.923234 -0.847379 2.135347 0.036156 -0.016348 -543172.000000 0 1 0
-14.070662 15.096710 -12.187463 23.967236 -0.820562 2.104244 0.033521 -0.013692 -661985.000000 0 1 0
-15.114862 14.158210 -12.365163 24.120763 -0.752730 2.109048 0.028268 -0.011591 -866456.000000 0 1 0
-16.404462 14.524110 -11.611763 24.796959 -0.724676 2.058132 0.010077 -0.006512 397655.000000 0 1 0
-17.468362 13.593110 -11.923663 25.141401 -0.661279 2.064924 0.017576 -0.008972 662057.000000 0 0 1
-18.653462 13.907110 -11.200663 25.822746 -0.640648 2.019449 0.077811 -0.017726 81819.600000 0 0 1
-19.912462 13.612710 -12.030863 26.954660 -0.599653 2.033464 0.085317 -0.024524 -358070.000000 0 0 1
-20.371262 12.275010 -11.956263 26.619850 -0.542303 2.036608 0.089564 -0.029536 165022.000000 0 0 1
-21.573862 12.125610 -12.684163 27.809170 -0.512048 2.044420 0.125328 -0.026932 -3190.640000 0 0 1
-22.196962 10.731610 -12.307563 27.556282 -0.450338 2.033796 0.110664 -0.021112 -229057.000000 0 0 1
-21.389562 9.640510 -12.621963 26.641448 -0.423445 2.064365 0.101454 -0.010154 86191.300000 0 0 1
-21.898162 8.470010 -11.957263 26.348562 -0.369068 2.041834 0.096994 -0.011647 -766238.000000 0 0 1
-20.941362 7.311610 -11.875863 25.160215 -0.335915 2.062365 0.094216 -0.008585 -593622.000000 0 0 1
-20.804962 6.603010 -13.084463 25.448956 -0.307321 2.110807 0.099551 -0.006011 374165.000000 0 0 1
-19.734162 5.681910 -12.997063 24.303187 -0.280340 2.135054 0.090514 -0.013525 -92038.500000 0 1 0
-19.917662 4.428310 -13.805263 24.635512 -0.218772 2.165642 0.101930 -0.018731 -107833.000000 0 1 0
-20.733762 3.398710 -13.288963 24.860343 -0.162477 2.134765 0.100611 -0.022896 496595.000000 0 1 0
-20.364562 2.274310 -14.098363 24.872710 -0.111219 2.173438 0.089710 -0.027608 4169.000000 0 1 0
-21.186962 0.996710 -13.795363 25.302032 -0.047009 2.147457 0.096494 -0.026328 504776.000000 0 0 1
-22.402362 0.874010 -14.539163 26.721096 -0.038994 2.146122 0.081805 -0.016505 631614.000000 0 0 1
-22.939162 -0.426590 -14.424963 27.101046 0.018594 2.132071 0.079299 -0.030507 132639.000000 0 0 1
-24.300262 -0.674590 -15.143763 28.640729 0.027753 2.127923 0.086120 -0.025239 45265.100000 0 0 1
-25.366012 0.038510 -14.570363 29.252889 -0.001518 2.092183 0.108286 -0.033820 -478629.000000 0 0 1
-26.526462 -0.323390 -15.260763 30.604716 0.012191 2.092826 0.103609 -0.018757 -74030.700000 0 0 1
-27.849772 0.082310 -14.548263 31.420829 -0.002955 2.052188 0.102012 -0.024088 50306.700000 0 0 1
-28.135812 -0.761990 -13.438863 31.189863 0.027076 2.016256 0.110013 -0.026133 939512.000000 0 0 1
-29.367172 -0.302590 -12.829163 32.048553 0.010303 1.982645 0.121967 -0.032023 942965.000000 0 0 1
-29.609842 -0.926190 -11.454963 31.761876 0.031270 1.939762 0.115164 -0.036271 130628.000000 0 0 1
-30.062992 -2.300690 -11.302063 32.199585 0.076380 1.929435 0.117642 -0.019709 735822.000000 0 0 1
-29.041222 -3.198990 -11.687563 31.467844 0.109711 1.951327 0.120345 -0.026830 -62043.800000 0 0 1
-29.258172 -4.641390 -11.203463 31.671765 0.157325 1.932359 0.113358 -0.025706 31737.800000 0 0 1
-30.525922 -5.143990 -11.633863 33.070218 0.166944 1.930282 0.099801 -0.020990 754844.000000 0 0 1
-30.901662 -6.467090 -11.197563 33.498080 0.206302 1.911632 0.099066 -0.019353 -437963.000000 0 0 1
-30.164092 -7.656590 -11.776963 33.274505 0.248581 1.932570 0.100099 -0.021045 -1046590.000000 0 0 1
-28.851402 -7.694290 -11.343563 31.941852 0.260621 1.933851 0.091676 -0.017322 -598749.000000 0 0 1
-28.081332 -8.713890 -11.975463 31.747516 0.300888 1.957578 0.097048 -0.022051 -249332.000000 0 0 1
-26.603212 -8.782090 -11.613763 30.327141 0.318850 1.963783 0.082010 -0.025233 -786514.000000 0 0 1
-25.785592 -7.739290 -12.185163 29.551169 0.291585 1.995819 0.076473 -0.025683 1038630.000000 0 0 1
-24.447662 -7.728990 -11.677963 28.174462 0.306202 1.998176 0.094832 -0.030294 423766.000000 0 0 1
-24.221962 -7.491090 -10.132463 27.303602 0.299938 1.950993 0.098472 -0.026561 -789930.000000 0 0 1
-24.559662 -6.196490 -9.611963 27.091757 0.247146 1.933489 0.089891 -0.018735 19565.000000 0 0 1
-25.894612 -5.786590 -9.556963 28.201970 0.219855 1.916518 0.101257 -0.021535 -759945.000000 0 0 1
-26.246242 -4.450990 -8.893163 28.067149 0.167988 1.893206 0.111105 -0.026269 -342885.000000 0 0 1
-25.912112 -4.409990 -7.525663 27.340833 0.168575 1.849650 0.104374 -0.022958 513541.000000 0 0 1
-26.188172 -3.130490 -6.932763 27.270561 0.118974 1.827839 0.128128 -0.024414 -49168.200000 0 0 1
-26.027362 -3.037790 -5.376363 26.749898 0.116190 1.773161 0.124734 -0.020850 -531644.000000 0 0 1
-24.706162 -3.230690 -4.966463 25.406644 0.130027 1.767542 0.106659 -0.013761 -143581.000000 0 0 1
-24.457662 -2.987790 -3.598863 24.900922 0.121559 1.715832 0.079990 -0.007870 -13543.400000 0 1 0
-22.989662 -3.188890 -3.159263 23.423802 0.137830 1.706083 0.065683 -0.004912 -101286.000000 0 1 0
-22.670162 -4.545890 -2.953763 23.309356 0.197898 1.697858 0.070112 -0.002111 374489.000000 0 1 0
-21.353262 -4.741190 -2.474863 22.012851 0.218491 1.683463 0.055475 -0.002692 -175902.000000 0 1 0
-21.064862 -6.247990 -2.301163 22.092106 0.288341 1.675148 0.059328 -0.011556 140564.000000 0 1 0
-21.887662 -6.862390 -1.260663 22.972841 0.303821 1.625700 0.073338 -0.010533 878143.000000 0 1 0
-22.380762 -8.102290 -1.695863 23.862556 0.347343 1.641924 0.078920 -0.017143 80853.000000 0 1 0
-22.859262 -9.010490 -0.537663 24.576897 0.375473 1.592675 0.088224 -0.014383 -93883.100000 0 1 0
-21.738562 -9.456490 0.192337 23.707114 0.410319 1.562683 0.064759 -0.013733 326540.000000 0 1 0
-22.012962 -10.193990 1.359637 24.296842 0.433686 1.514808 0.044356 -0.010935 -473284.000000 0 1 0
-20.665362 -10.707490 1.859837 23.348801 0.478052 1.491057 0.034162 -0.008078 -389540.000000 0 1 0
-20.234762 -11.815190 1.102037 23.457596 0.528501 1.523799 0.045873 0.002340 182527.000000 0 1 0
-19.061262 -12.344090 1.667437 22.770345 0.574687 1.497502 0.014796 0.000276 -171802.000000 0 1 0
-18.459862 -13.564290 0.907237 22.925522 0.633701 1.531213 0.020250 0.001097 -79369.900000 0 1 0
-19.344162 -14.636890 1.083737 24.281879 0.647748 1.526150 0.039218 -0.000984 280876.000000 0 1 0
-18.851562 -15.844190 0.557637 24.631904 0.698936 1.548156 0.034485 -0.008694 170598.000000 0 1 0
-17.689662 -16.585690 1.312737 24.284409 0.753200 1.516713 0.031629 -0.007733 221677.000000 0 1 0
-16.408162 -16.049190 0.992437 22.973664 0.774339 1.527584 0.034139 -0.006152 192303.000000 0 1 0
-15.377062 -16.736690 1.680337 22.790225 0.827711 1.496999 0.043934 -0.014035 211076.000000 0 1 0
-15.200162 -16.615490 3.224937 22.749058 0.829854 1.428556 0.053552 -0.019774 -458194.000000 0 1 0
-14.756362 -15.303990 3.532737 21.550930 0.803614 1.406128 0.026167 -0.016319 111977.000000 0 1 0
-14.101162 -15.137890 4.808937 21.239688 0.820840 1.342403 0.020485 -0.017716 77553.200000 0 1 0
-14.749862 -15.639290 6.110437 22.349122 0.814658 1.293862 0.049708 -0.015326 -457826.000000 0 1 0
-15.897162 -14.909290 6.551537 22.758061 0.753342 1.278786 0.045683 -0.012350 182428.000000 0 1 0
-16.106062 -15.103890 7.952737 23.468676 0.753299 1.225085 0.048688 -0.019664 -123023.000000 0 1 0
-16.834162 -16.425290 8.370437 24.964843 0.773105 1.228884 0.042017 -0.011548 -453390.000000 0 1 0
-16.203162 -17.653690 8.053037 25.279372 0.828215 1.246585 0.046891 -0.006051 -195830.000000 0 0 1
-16.780262 -18.805490 8.674237 26.654569 0.842248 1.239328 0.043713 -0.007760 -74115.500000 0 0 1
-16.490962 -18.956390 10.215637 27.122975 0.854838 1.184628 0.055134 -0.011507 -514361.000000 0 0 1
-15.206362 -19.449390 10.421837 26.797890 0.907225 1.171353 0.043353 -0.013665 -577790.000000 0 0 1
-14.990262 -19.721490 11.785137 27.432364 0.920864 1.126739 0.044714 -0.011770 -40629.500000 0 0 1
-13.629362 -20.378690 12.049537 27.317428 0.981315 1.113980 0.042232 -0.003834 427004.000000 0 0 1
-12.452862 -19.590990 11.859537 26.067783 1.004581 1.098480 0.033674 -0.006644 527982.000000 0 0 1
-11.288762 -20.386290 12.156037 26.283193 1.065084 1.089981 0.034509 -0.006821 1726130.000000 0 0 1
-10.033262 -19.434890 12.412837 25.148754 1.094233 1.054599 0.039105 -0.011446 1021020.000000 0 0 1
-9.407362 -18.826190 11.306037 23.890382 1.107392 1.077824 0.031413 -0.012656 -500996.000000 0 1 0
-8.346262 -18.055490 11.781037 23.118254 1.137797 1.036078 0.029421 -0.008428 -327883.000000 0 1 0
-7.478262 -17.327090 10.755637 21.721791 1.163354 1.052784 0.020806 -0.009067 -187145.000000 0 1 0
-6.541462 -18.146490 10.123137 21.784484 1.224815 1.087506 0.017300 -0.008858 -364469.000000 0 1 0
-5.862162 -17.427490 9.086237 20.509560 1.246311 1.111827 0.018251 -0.008569 164464.000000 0 1 0
-4.735162 -18.225690 8.370537 20.607364 1.316609 1.152514 0.012873 -0.008973 -449517.000000 0 1 0
-3.630162 -18.400690 9.182437 20.882544 1.376014 1.115511 0.018645 -0.004383 -1223340.000000 0 1 0
-2.650762 -19.031890 8.405637 20.973653 1.432407 1.158438 0.026111 -0.005317 437574.000000 0 1 0
-1.243462 -19.179890 9.073537 21.254258 1.506055 1.129729 0.023659 -0.007272 853537.000000 0 1 0
-0.226262 -19.650790 8.196037 21.292716 1.559283 1.175673 0.038385 -0.003423 -496723.000000 0 1 0
0.881138 -20.030590 8.938837 21.952306 -1.526835 1.151417 0.048549 -0.001978 7495.720000 0 1 0
2.111138 -20.540990 8.110237 22.184795 -1.468379 1.196544 0.048785 -0.009688 423921.000000 0 1 0
2.099938 -21.881590 7.652137 23.275930 -1.475121 1.235809 0.047222 -0.011284 -138368.000000 0 1 0
2.296938 -22.853290 8.684137 24.555306 -1.470625 1.209319 0.043895 -0.006392 -32598.000000 0 1 0
1.727238 -24.245590 8.279237 25.678352 -1.499677 1.242510 0.030649 -0.011157 86126.500000 0 0 1
1.867838 -25.157160 9.283737 26.880463 -1.496686 1.218162 0.042496 -0.009911 -108240.000000 0 0 1
1.473038 -26.396150 8.750237 27.847679 -1.515049 1.251164 0.047002 -0.010852 -679118.000000 0 0 1
1.521938 -27.609010 9.691637 29.300197 -1.515727 1.233677 0.055928 -0.007288 280320.000000 0 0 1
0.931038 -27.529670 10.992037 29.657621 -1.536990 1.191108 0.032422 -0.014053 885002.000000 0 0 1
-0.496462 -27.305430 10.966137 29.429393 1.552617 1.188960 0.008260 -0.006820 958843.000000 0 0 1
-1.084462 -27.285080 12.401237 29.990704 1.531072 1.144499 0.002633 -0.008396 -101823.000000 0 0 1
-0.853362 -28.527940 13.014237 31.367849 1.540892 1.142973 0.002688 -0.012018 -148640.000000 0 0 1
-1.271862 -28.468150 14.348537 31.905074 1.526149 1.104338 0.001467 -0.013627 -365021.000000 0 0 1
-0.818762 -29.642630 15.196237 33.320887 1.543182 1.097236 -0.005068 -0.008991 -55133.700000 0 0 1
-0.951862 -29.468550 16.552237 33.812395 1.538507 1.059244 0.000655 -0.005917 -91242.800000 0 0 1
-0.331562 -30.523050 17.231137 35.052512 1.559934 1.056892 0.000476 -0.008160 -217385.000000 0 0 1
-0.571262 -30.396380 18.753437 35.720550 1.552005 1.018076 0.007050 -0.007008 1083070.000000 0 0 1
-1.993862 -30.502720 18.975137 35.978428 1.505522 1.015255 -0.007060 -0.001913 902560.000000 0 0 1
-2.221762 -30.282660 20.323537 36.537951 1.497560 0.980953 0.019681 -0.007141 84312.800000 0 0 1
-3.743562 -30.234830 20.609037 36.781675 1.447607 0.976040 0.052783 -0.015517 329707.000000 0 0 1
-4.459862 -29.120350 19.960237 35.585056 1.418824 0.975304 0.041052 -0.019636 -172236.000000 0 0 1
-5.770462 -29.046620 20.421037 35.972533 1.374688 0.967106 0.054657 -0.025098 -385657.000000 0 0 1
-5.941062 -28.126430 21.676737 36.003795 1.362629 0.924708 0.076164 -0.030987 -379689.000000 0 0 1
-5.233262 -28.580240 22.827337 36.950027 1.389695 0.904868 0.066527 -0.029314 57578.800000 0 0 1
-5.043162 -27.544450 23.781237 36.737957 1.389710 0.866732 0.078152 -0.026675 -435563.000000 0 0 1
-3.918062 -27.745310 24.809337 37.425348 1.430509 0.846108 0.084435 -0.026586 -196597.000000 0 0 1
-4.111962 -28.807290 25.740937 38.850535 1.429014 0.846561 0.080717 -0.026594 149866.000000 0 0 1
-3.592062 -30.047660 25.276937 39.429536 1.451815 0.874910 0.061106 -0.026550 -22615.400000 0 0 1
-3.919562 -31.265650 26.182437 40.968572 1.446084 0.877487 0.066742 -0.021398 31191.500000 0 0 1
-3.366062 -31.113720 27.459737 41.634494 1.463030 0.850586 0.071672 -0.020266 -51420.900000 0 0 1
-3.771762 -32.100420 28.295137 42.956699 1.453834 0.851720 0.061634 -0.027845 -301607.000000 0 0 1
-3.088962 -31.971510 29.666437 43.724326 1.474479 0.825094 0.099223 -0.026713 -485298.000000 0 0 1
-1.707762 -32.175390 29.566537 43.730451 1.517769 0.828328 0.098010 -0.026826 -356351.000000 0 0 1
-1.137862 -31.820060 30.831237 44.321283 1.535052 0.801499 0.096280 -0.028811 -98202.000000 0 0 1
-28.768032 3.417510 -10.119863 30.686979 -0.118241 1.906864 0.123674 -0.032440 189257.000000 0 0 1
-29.551362 2.984310 -11.242863 31.758323 -0.100646 1.932655 0.110245 -0.047191 421861.000000 0 0 1
-30.194772 4.135310 -11.812563 32.685802 -0.136108 1.940562 0.087329 -0.042646 -126376.000000 0 0 1
-31.126162 3.731010 -12.986463 33.932383 -0.119298 1.963531 0.088665 -0.036755 -561633.000000 0 0 1
-32.158852 2.901610 -12.586863 34.656027 -0.089984 1.942490 0.094524 -0.045240 -381188.000000 0 0 1
-33.041602 2.654810 -13.652263 35.849404 -0.080175 1.961482 0.103414 -0.040219 -4204.380000 0 0 1
-34.195827 1.687010 -13.307263 36.732599 -0.049294 1.941503 0.079358 -0.037713 427268.000000 0 0 1
-33.700812 0.397610 -12.971063 36.113035 -0.011798 1.938185 0.088735 -0.031144 557932.000000 0 0 1
-34.843021 -0.438090 -12.860963 37.143403 0.012573 1.924369 0.075722 -0.024676 306490.000000 0 0 1
-34.508578 -1.860690 -12.368363 36.705320 0.053867 1.914487 0.071677 -0.015468 -66262.700000 0 0 1
-34.179204 -2.774390 -13.393063 36.814255 0.080994 1.943142 0.062007 -0.009034 192234.000000 0 0 1
-33.960512 -4.075990 -12.870063 36.545432 0.119450 1.930681 0.073353 -0.012433 -76996.700000 0 0 1
-34.274348 -5.238190 -13.778463 37.309725 0.151658 1.949051 0.067943 -0.004374 -27150.000000 0 0 1
-33.969042 -6.461290 -13.215063 37.017320 0.187966 1.935847 0.073456 -0.012463 252290.000000 0 0 1
-34.408051 -7.470290 -14.104763 37.929718 0.213791 1.951814 0.077231 -0.010311 -387968.000000 0 0 1
-34.242361 -8.904390 -13.487263 37.864676 0.254406 1.934991 0.084123 -0.010897 1350610.000000 0 0 1
-32.837132 -9.261590 -13.351563 36.637665 0.274905 1.943808 0.084139 -0.014514 1861620.000000 0 0 1
-32.188162 -9.676490 -14.547163 36.624202 0.292028 1.979261 0.084446 -0.018832 -1146330.000000 0 0 1
-30.926562 -10.455990 -14.396863 35.679821 0.326026 1.986137 0.091890 -0.023840 -945584.000000 0 0 1
-31.219202 -11.814690 -14.260863 36.298728 0.361786 1.974552 0.085266 -0.019354 220548.000000 0 0 1
-30.066632 -12.581590 -14.022463 35.481379 0.396316 1.977089 0.098563 -0.024556 -201216.000000 0 0 1
-30.294202 -14.024090 -14.494863 36.393885 0.433554 1.980434 0.104258 -0.032285 -126905.000000 0 0 1
-30.272702 -14.203990 -15.913763 37.032927 0.438706 2.014978 0.101152 -0.035132 132493.000000 0 0 1
-30.402622 -15.603190 -16.374763 37.893427 0.474166 2.017646 0.109506 -0.038663 -237462.000000 0 0 1
-29.260062 -16.569390 -15.990363 37.234227 0.515256 2.014684 0.099151 -0.036234 -526842.000000 0 0 1
-28.020922 -16.078590 -16.415763 36.237693 0.520937 2.040927 0.103756 -0.038832 -1284440.000000 0 0 1
-27.092212 -17.053390 -16.133363 35.848172 0.561798 2.037614 0.090176 -0.034463 -1002370.000000 0 0 1
-25.649292 -16.798090 -16.523963 34.829633 0.579822 2.065104 0.087657 -0.043686 -480913.000000 0 0 1
-25.509932 -16.595890 -17.929063 35.321827 0.576773 2.103184 0.105641 -0.039369 -1814950.000000 0 0 1
-24.262062 -16.331990 -18.373063 34.539123 0.592477 2.131697 0.098923 -0.027004 -1782670.000000 0 0 1
-24.133762 -15.714590 -19.754163 34.922969 0.577180 2.172017 0.106724 -0.020661 87339.600000 0 0 1
-24.643062 -16.515390 -20.862563 36.266860 0.590434 2.183708 0.094337 -0.026038 1070110.000000 0 0 1
-26.038962 -16.309490 -21.127563 37.288080 0.559569 2.173174 0.098228 -0.029898 370934.000000 0 0 1
-26.659102 -17.450890 -21.932063 38.681477 0.579598 2.173645 0.098919 -0.029941 -602885.000000 0 0 1
-26.097022 -17.762390 -23.118663 39.128374 0.597607 2.202898 0.101663 -0.017652 9237.810000 0 0 1
-26.713072 -18.960290 -23.632263 40.392631 0.617257 2.195755 0.086758 -0.013431 14982.900000 0 0 1
-26.145922 -19.289090 -25.003863 40.998432 0.635613 2.226697 0.083295 -0.020628 80213.100000 0 0 1
-24.804562 -19.692990 -25.102793 40.413245 0.671026 2.241009 0.071973 -0.016607 -276662.000000 0 0 1
-24.418662 -20.993490 -24.701063 40.584975 0.710117 2.225124 0.056412 -0.013579 -231578.000000 0 0 1
-22.884062 -21.111090 -24.808263 39.809651 0.745121 2.243588 0.048146 -0.005123 148237.000000 0 0 1
-22.465262 -21.046190 -26.176103 40.408149 0.752796 2.275480 0.041463 -0.004924 949392.000000 0 0 1
-21.027262 -21.197990 -26.248653 39.755406 0.789441 2.291953 0.030386 0.000978 1217830.000000 0 0 1
-20.547562 -21.098690 -27.726173 40.448705 0.798631 2.326039 0.025514 0.003828 -228617.000000 0 0 1
-20.873362 -22.326090 -28.365523 41.698374 0.819014 2.318907 0.060420 0.002963 -85727.600000 0 0 1
-21.362662 -22.054890 -29.692233 42.713115 0.801340 2.339432 0.054572 -0.002210 135210.000000 0 0 1
-20.315862 -22.205990 -30.832493 43.086922 0.829820 2.368262 0.053713 -0.014931 222401.000000 0 0 1
-20.188762 -23.523490 -31.366023 44.099525 0.861539 2.362079 0.051553 -0.019069 139964.000000 0 0 1
-19.333662 -23.520690 -32.509353 44.540671 0.882793 2.388943 0.045179 -0.021407 100091.000000 0 0 1
-19.284862 -24.899290 -33.230573 45.783747 0.911790 2.383016 0.055643 -0.015230 486442.000000 0 0 1
-18.454862 -25.028690 34.005109 46.079982 0.935442 0.740756 0.062445 -0.026202 451986.000000 0 0 1
-19.136762 -24.498090 32.817524 45.203561 0.907653 0.758317 0.072642 -0.024195 -381175.000000 0 0 1
-18.372462 -24.476490 31.461591 43.891658 0.926901 0.771593 0.067129 -0.020348 -224642.000000 0 0 1
-17.484662 -23.374390 31.415311 42.883532 0.928559 0.748702 0.049626 -0.022491 -291268.000000 0 0 1
-16.771662 -23.351190 30.200171 41.696727 0.947936 0.760804 0.052010 -0.027634 -183871.000000 0 0 1
-16.109662 -22.018090 29.947561 40.511405 0.939139 0.738858 0.030845 -0.023509 430697.000000 0 0 1
-17.061962 -20.949490 29.693681 40.146063 0.887316 0.738259 0.033628 -0.029726 888631.000000 0 0 1
-16.407462 -19.667790 29.630221 39.166016 0.875529 0.712808 0.031237 -0.028999 283509.000000 0 0 1
-15.782062 -18.972990 30.899671 39.545385 0.876953 0.673934 0.031613 -0.029927 263641.000000 0 0 1
-15.480762 -17.622490 30.610661 38.564475 0.850007 0.653842 0.037010 -0.028061 -110872.000000 0 0 1
-14.650462 -17.119990 31.637191 38.841240 0.862973 0.618885 0.041052 -0.033193 107239.000000 0 0 1
-14.087562 -15.663890 31.353101 37.773454 0.838332 0.591635 0.064079 -0.032414 -215032.000000 0 0 1
-12.851962 -15.661790 30.680211 36.766016 0.883624 0.583622 0.081193 -0.036059 -251783.000000 0 0 1
-12.526862 -14.401390 30.226721 35.748804 0.854898 0.563237 0.075891 -0.031999 912249.000000 0 0 1
-10.969362 -14.173090 30.227291 35.141037 0.912138 0.535192 0.091005 -0.035266 953121.000000 0 0 1
-10.485962 -12.873290 29.947501 34.242223 0.887245 0.506231 0.100226 -0.031878 476921.000000 0 0 1
-9.098062 -12.771690 30.282151 34.101312 0.951822 0.477807 0.081433 -0.030122 642097.000000 0 0 1
-8.545362 -11.337290 30.254851 33.420254 0.924906 0.438746 0.066621 -0.023603 -170339.000000 0 0 1
-9.083162 -10.548090 31.300781 34.256458 0.859882 0.418452 0.065797 -0.021429 143680.000000 0 0 1
-8.810562 -9.174690 31.075091 33.577704 0.805641 0.388527 0.056122 -0.012782 -203913.000000 0 0 1
-9.593262 -8.335090 32.092141 34.516806 0.715335 0.377052 0.025097 -0.014774 -308631.000000 0 0 1
-10.934462 -8.251790 31.666571 34.502554 0.646476 0.408283 0.050857 -0.024434 55239.500000 0 0 1
-11.850762 -7.779990 32.686354 35.628171 0.580929 0.409224 0.041887 -0.026289 108392.000000 0 0 1
-11.776662 -6.344390 33.287204 35.874490 0.494146 0.382111 0.027363 -0.020433 -511006.000000 0 0 1
-12.188462 -5.403790 32.336391 34.977160 0.417312 0.391074 0.031899 -0.020138 234732.000000 0 0 1
-12.480562 -4.122190 32.918783 35.445778 0.319008 0.379883 0.029823 -0.029010 -121745.000000 0 0 1
-12.243762 -2.971190 31.914891 34.311776 0.238068 0.375992 0.032946 -0.011356 139416.000000 0 0 1
-10.877562 -2.743090 31.625281 33.555988 0.247028 0.340873 0.046200 -0.018874 124374.000000 0 0 1
-10.672862 -1.420690 31.193121 32.999078 0.132334 0.332368 0.037299 -0.013146 -359097.000000 0 0 1
-9.194362 -1.022090 31.131201 32.476648 0.110710 0.288851 0.060674 -0.012815 -158501.000000 0 0 1
-8.555962 -1.012990 32.383025 33.509565 0.117847 0.260033 0.053654 -0.029147 -90107.900000 0 0 1
-7.229362 -0.528190 32.322361 33.125182 0.072932 0.220611 0.064924 -0.033151 186836.000000 0 0 1
-6.765562 0.153610 33.642587 34.316470 -0.022701 0.198504 0.089536 -0.045116 -212335.000000 0 0 1
-7.423262 1.380610 33.890389 34.721310 -0.183883 0.219213 0.070666 -0.037295 76536.700000 0 0 1
-6.619762 2.507810 33.548692 34.287390 -0.362130 0.207952 0.093718 -0.032259 15511.800000 0 0 1
-7.430562 3.780710 33.733887 34.748844 -0.470667 0.242288 0.097493 -0.032117 267206.000000 0 0 1
-8.478562 3.909310 32.778093 34.081844 -0.432031 0.277489 0.072737 -0.018050 425905.000000 0 0 1
-9.384662 4.952910 33.064443 34.725503 -0.485613 0.310549 0.045040 -0.000590 155071.000000 0 0 1
-10.648762 5.047110 32.182291 34.271990 -0.442601 0.351010 0.030827 0.006832 293189.000000 0 0 1
-11.438862 6.174410 32.507294 35.009928 -0.494959 0.380399 0.036186 0.008063 585948.000000 0 0 1
-12.676562 6.292910 31.806941 34.813466 -0.460780 0.418649 0.007423 0.012066 412218.000000 0 0 1
-13.456462 7.597810 31.976881 35.515124 -0.514000 0.450169 0.026741 -0.000178 -125456.000000 0 0 1
-14.265662 7.591110 33.140600 36.870495 -0.489016 0.453685 0.035244 -0.003714 412258.000000 0 0 1
-15.075462 8.787410 33.089153 37.408290 -0.527747 0.485288 0.041056 0.004379 -96137.100000 0 0 1
-15.877462 8.981110 -34.050083 38.628516 -0.514780 2.649774 0.040021 0.002787 -150192.000000 0 0 1
-15.117762 9.122210 -32.885143 37.325515 -0.542923 2.648845 0.029129 -0.000298 370247.000000 0 0 1
-15.939362 9.880510 -31.997323 37.087955 -0.554910 2.611463 0.038290 0.000754 86820.300000 0 0 1
-15.141562 10.059610 -30.596683 35.589600 -0.586411 2.605495 0.054971 -0.008778 1499260.000000 0 0 1
-14.225562 11.183810 -30.596953 35.547401 -0.666255 2.607511 0.056476 -0.009760 730152.000000 0 0 1
-13.035962 11.035210 -31.370643 35.718754 -0.702471 2.643024 0.068577 -0.017187 188798.000000 0 0 1
-12.230862 12.386910 -31.386363 35.890574 -0.791737 2.635204 0.066553 -0.011648 439974.000000 0 0 1
-12.857962 13.355610 -32.250013 37.198963 -0.804380 2.619866 0.062623 -0.017490 60099.400000 0 0 1
-12.068562 14.474810 -32.469543 37.542530 -0.875804 2.615695 0.054014 -0.025308 -294682.000000 0 0 1
-12.130862 15.607310 -31.400033 37.104016 -0.910079 2.579742 0.062464 -0.027902 578440.000000 0 0 1
-13.299762 16.370810 -31.736133 38.106026 -0.888536 2.555011 0.064375 -0.022252 590656.000000 0 0 1
-13.577262 17.230910 -30.634623 37.679257 -0.903440 2.520146 0.044788 -0.020131 -948278.000000 0 0 1
-14.971462 17.799510 -30.676093 38.496622 -0.871482 2.492862 0.034359 -0.027778 -1043860.000000 0 0 1
-15.231662 18.644110 -31.794013 39.880642 -0.885794 2.493488 0.034995 -0.029095 -1051550.000000 0 0 1
-16.425562 19.329410 -31.746893 40.636072 -0.866436 2.467461 0.013629 -0.019330 -671612.000000 0 0 1
-16.668462 20.449110 -30.645893 40.437291 -0.886904 2.430826 -0.019045 -0.017399 -907968.000000 0 0 1
-16.026762 21.612810 -31.018553 41.062407 -0.932732 2.427061 -0.013190 -0.004085 -51156.400000 0 0 1
-16.515062 22.808210 -30.421783 41.454150 -0.944089 2.394792 -0.018325 -0.009692 663757.000000 0 0 1
-17.964462 23.322810 -30.769563 42.584520 -0.914459 2.378284 -0.014049 -0.004429 573169.000000 0 0 1
-18.967462 22.489810 -30.263523 42.207073 -0.870158 2.370321 -0.002782 -0.014942 208694.000000 0 0 1
-19.957462 22.180010 -31.264613 43.217232 -0.838094 2.379553 0.029673 -0.009249 -983029.000000 0 0 1
-21.246462 21.592410 -30.779963 43.186230 -0.793474 2.364174 0.041607 -0.021974 -1417870.000000 0 0 1
-22.052562 22.479310 -30.019103 43.506108 -0.794981 2.332282 0.086648 -0.023954 622292.000000 0 0 1
-23.028762 23.250210 -30.708093 44.876309 -0.790183 2.324416 0.093279 -0.011530 486520.000000 0 0 1
-24.250862 22.502110 -31.325643 45.560346 -0.748012 2.328925 0.093507 -0.028893 -90865.600000 0 0 1
-23.886462 22.042810 -32.607303 46.040034 -0.745279 2.357796 0.088716 -0.019875 167224.000000 0 0 1
-25.054962 21.587910 -33.246203 46.894552 -0.711203 2.358814 0.099182 -0.021018 -175484.000000 0 0 1
-24.948462 20.914610 33.785920 46.918387 -0.697670 0.766850 0.102628 -0.010921 -208570.000000 0 0 1
-24.516562 19.543510 33.935572 46.202096 -0.673004 0.745863 0.102313 -0.016053 254025.000000 0 0 1
-24.689762 18.858110 32.721682 45.121183 -0.652277 0.759478 0.076176 -0.027532 -307173.000000 0 0 1
-24.306562 17.346310 32.708266 44.289210 -0.619827 0.739930 0.054356 0.000668 -64982.300000 0 0 1
-25.142292 16.355710 33.289679 44.809004 -0.576745 0.733368 0.065427 -0.005926 70319.100000 0 0 1
-25.452872 15.429110 32.316941 43.935075 -0.544954 0.744301 0.074116 -0.013999 -300240.000000 0 0 1
-26.285172 14.235210 32.847273 44.412778 -0.496347 0.738334 0.067133 -0.007504 -1202860.000000 0 0 1
-27.567262 14.570210 33.213125 45.556082 -0.486213 0.753848 0.075942 -0.006684 -815430.000000 0 0 1
-28.529352 13.545210 32.946067 45.638142 -0.443270 0.764256 0.066009 0.002102 410126.000000 0 0 1
-28.777452 12.297410 33.860649 46.107609 -0.403841 0.746039 0.035251 0.006699 139968.000000 0 0 1
-27.631232 11.445010 33.835850 45.159030 -0.392692 0.723852 0.036277 0.000929 402624.000000 0 0 1
-27.997632 10.076810 34.157625 45.300694 -0.345482 0.716636 0.042821 -0.000206 20058.100000 0 0 1
-26.795322 9.116710 -33.966373 44.213326 -0.327949 2.446881 0.037695 -0.011978 656854.000000 0 0 1
-25.947782 8.752210 33.334355 43.140095 -0.325317 0.687712 0.038373 -0.005194 1211140.000000 0 0 1
-24.907862 9.736510 33.083761 42.540997 -0.372638 0.679811 0.030995 -0.009173 -84036.100000 0 0 1
-23.808162 9.292310 32.105711 41.035988 -0.372116 0.672319 0.033505 -0.011609 -442823.000000 0 0 1
-24.055062 9.046210 30.733751 40.062993 -0.359702 0.696432 0.040996 -0.012913 -484898.000000 0 0 1
-22.827062 8.889610 30.092441 38.802770 -0.371364 0.683253 0.050336 -0.017141 -139316.000000 0 0 1
-22.916262 8.865610 28.565751 37.679653 -0.369136 0.710369 0.077313 -0.029716 19995.600000 0 0 1
-23.294662 10.137510 28.042731 37.839201 -0.410467 0.736085 0.061454 -0.026329 167830.000000 0 0 1
-23.094562 10.182810 26.650721 36.705713 -0.415276 0.758215 0.066695 -0.032235 -1173750.000000 0 0 1
-23.396662 11.570110 26.101701 36.913006 -0.459254 0.785388 0.061366 -0.029540 572182.000000 0 0 1
-24.756062 11.972910 26.150171 37.947920 -0.450470 0.810541 0.071835 -0.027738 500802.000000 0 0 1
-25.720812 11.186410 25.443421 37.869032 -0.410240 0.834053 0.071109 -0.023736 -518776.000000 0 0 1
-27.157062 11.699910 25.630051 39.131744 -0.406793 0.856656 0.069995 -0.023438 -292586.000000 0 0 1
-27.305452 13.058610 25.250581 39.417088 -0.446090 0.875517 0.081745 -0.025307 148602.000000 0 0 1
-28.541602 13.651510 25.627331 40.715438 -0.446139 0.889983 0.072883 -0.025773 286321.000000 0 0 1
-28.649712 15.072710 25.014581 40.911146 -0.484312 0.912921 0.089076 -0.029254 111897.000000 0 0 1
-27.777392 16.020010 25.608881 41.037044 -0.523132 0.896890 0.107303 -0.027824 189311.000000 0 0 1
-27.670202 17.127810 24.767001 40.895064 -0.554272 0.920247 0.105225 -0.022570 -78678.500000 0 0 1
-22.628162 -8.858390 31.695371 39.938720 0.373137 0.654093 0.054167 -0.011075 -72098.000000 0 0 1
-21.718762 -8.949090 30.617521 38.590458 0.390846 0.654428 0.070097 -0.019839 -9495.280000 0 0 1
-22.401062 -9.164490 29.401781 38.082282 0.388335 0.688721 0.068239 -0.019522 -37461.600000 0 0 1
-21.436162 -9.066790 28.209471 36.571710 0.400147 0.689842 0.070175 -0.030363 144020.000000 0 0 1
-20.886162 -7.805990 27.811241 35.645903 0.357665 0.675797 0.071986 -0.029123 -203057.000000 0 0 1
-19.743462 -7.408390 28.491931 35.446843 0.358975 0.637152 0.072234 -0.035360 -840129.000000 0 0 1
-18.346762 -7.819990 27.985191 34.364616 0.402914 0.619170 0.081406 -0.027592 -633324.000000 0 0 1
-17.925362 -9.111090 28.293471 34.710965 0.470249 0.617867 0.087395 -0.023176 170371.000000 0 0 1
-17.395362 -9.289890 29.610201 35.576181 0.490511 0.587545 0.080151 -0.025669 138696.000000 0 0 1
-15.954462 -8.758190 29.901051 35.004623 0.502036 0.546780 0.072315 -0.025504 143218.000000 0 0 1
-14.900962 -9.497790 29.315321 34.229150 0.567463 0.542456 0.071247 -0.027202 427245.000000 0 0 1
-13.668562 -8.790390 29.615591 33.781412 0.571516 0.501873 0.065293 -0.028825 807351.000000 0 0 1
-12.411062 -9.559890 29.189841 33.128127 0.656349 0.492572 0.069523 -0.028509 -245470.000000 0 0 1
-12.184562 -9.484590 27.786831 31.788819 0.661437 0.507202 0.087067 -0.030758 46434.400000 0 0 1
-11.097062 -10.277490 27.337051 31.242374 0.747074 0.505362 0.090426 -0.026335 275964.000000 0 0 1
-10.450962 -9.942190 25.977931 29.714014 0.760455 0.506876 0.079549 -0.019507 -77938.700000 0 0 1
-11.298662 -10.398390 24.969071 29.312809 0.743929 0.551357 0.068821 -0.018462 -245351.000000 0 0 1
-10.795962 -10.215290 23.719081 27.991066 0.757769 0.559764 0.031188 -0.015275 -315241.000000 0 0 1
-11.797162 -10.675490 22.635431 27.667704 0.735527 0.612667 0.023761 -0.017638 -607688.000000 0 0 1
-11.845862 -12.088190 22.629231 28.258289 0.795523 0.642167 0.039464 -0.017591 68927.800000 0 0 1
-13.020262 -12.696090 22.143031 28.653652 0.772793 0.687583 0.035052 -0.014104 -260093.000000 0 0 1
-14.287162 -12.484690 22.967531 29.790904 0.718172 0.690453 0.040983 -0.017757 -417872.000000 0 0 1
-15.391162 -13.312890 22.591331 30.405413 0.713121 0.733249 0.037573 -0.009822 1030740.000000 0 0 1
-16.555962 -13.105590 23.415681 31.530152 0.669594 0.733786 0.040218 -0.010021 1164160.000000 0 0 1
-17.825762 -13.835490 22.865931 32.125214 0.660029 0.778774 0.059660 -0.017366 39227.900000 0 0 1
-17.672262 -15.219490 23.079531 32.811682 0.710965 0.790636 0.043934 -0.015059 -40892.800000 0 0 1
-18.865362 -15.925190 22.854831 33.643081 0.701088 0.823944 0.064849 -0.014903 -5695.640000 0 0 1
-19.964562 -15.914890 23.934121 34.995851 0.673005 0.817683 0.057546 -0.021743 -576195.000000 0 0 1
-19.494762 -16.549590 25.115281 35.842880 0.703870 0.794411 0.041968 -0.020507 -66650.600000 0 0 1
-20.378662 -16.501790 26.222411 37.083875 0.680663 0.785392 0.046552 -0.021929 -236112.000000 0 0 1
-20.052662 -17.435790 27.480201 38.226659 0.715706 0.768613 0.041643 -0.024130 -102897.000000 0 0 1
-20.198062 -18.812190 27.163501 38.726167 0.749887 0.793401 0.047219 -0.023067 274548.000000 0 0 1
-19.896362 -19.649790 28.255321 39.753524 0.779163 0.780214 0.039981 -0.028183 -524849.000000 0 0 1
-19.843062 -21.150490 27.922701 40.258758 0.817281 0.804348 0.047141 -0.021741 -33838.500000 0 0 1
-21.096262 -21.756090 27.629251 41.009209 0.800795 0.831548 0.053460 -0.019953 77713.400000 0 0 1
-21.045162 -23.135290 27.504171 41.648769 0.832672 0.849467 0.064077 -0.012398 218345.000000 0 0 1
-22.404962 -23.798890 27.161481 42.498418 0.815558 0.877446 0.077362 -0.011301 277124.000000 0 0 1
-23.263362 -24.076190 28.240541 43.799259 0.802567 0.870071 0.071033 -0.007679 114677.000000 0 0 1
-24.480562 -24.626390 27.767081 44.460857 0.788368 0.896268 0.055762 -0.006199 238703.000000 0 0 1
-25.251942 -25.505030 28.781601 46.005953 0.790384 0.894888 0.026375 -0.008003 -394210.000000 0 0 1
-25.954652 -24.923690 29.807301 46.725897 0.765138 0.879004 0.023446 0.003096 79636.700000 0 0 1
-26.867562 -25.815720 30.471131 48.133223 0.765435 0.885299 0.020189 0.006619 123450.000000 0 0 1
-27.846832 -25.041390 31.368791 48.852004 0.732403 0.873537 -0.001670 0.011219 81696.700000 0 0 1
-28.834122 -24.425990 30.525781 48.578379 0.702820 0.891325 0.010675 0.009415 322334.000000 0 0 1
-29.776182 -23.666490 31.277101 49.244094 0.671570 0.882601 0.023211 -0.001482 -728488.000000 0 0 1
-31.064142 -23.590290 30.478271 49.501593 0.649494 0.907519 0.025735 -0.002623 -387830.000000 0 0 1
-31.812142 -24.834790 30.408241 50.531577 0.662843 0.925084 0.020088 -0.002176 541723.000000 0 0 1
-33.014262 -24.806790 29.670151 50.849151 0.644394 0.947772 0.017198 -0.002829 -306257.000000 0 0 1
-34.018742 -25.802620 30.187991 52.291154 0.648908 0.955371 0.009346 0.000115 -678677.000000 0 0 1
-33.771022 -27.126290 29.932481 52.652360 0.676714 0.966124 0.014667 -0.003077 -165138.000000 0 0 1
-34.745531 -27.977370 30.473821 54.024429 0.677908 0.971484 0.022175 -0.003234 -19149.500000 0 0 1
-34.132142 -29.360960 30.844571 54.575239 0.710394 0.970151 0.018683 -0.008752 -2064.240000 0 0 1
-33.465042 -29.329270 32.074801 54.853514 0.719631 0.946242 0.026143 -0.002778 -280142.000000 0 0 1
-32.954612 -30.606570 32.393782 55.426760 0.748474 0.946603 0.033055 -0.017073 233341.000000 0 0 1
-32.027032 -30.654230 33.664088 55.665819 0.763500 0.921340 0.031126 -0.016876 250987.000000 0 0 1
-32.700042 -30.448620 -33.514743 55.853820 0.749761 2.214352 0.022632 -0.002267 -306763.000000 0 0 1
-31.828062 -30.394360 -32.422253 54.663014 0.762361 2.205737 0.031780 -0.007213 -11986.100000 0 0 1
-32.515002 -29.816610 -31.145753 54.002903 0.742134 2.185531 0.040029 -0.013204 226306.000000 0 0 1
-32.646462 -28.390090 -31.098253 53.281235 0.715776 2.194028 0.025193 -0.017132 -648191.000000 0 0 1
-31.436502 -27.709450 -30.952163 52.097060 0.722467 2.206974 0.041951 -0.009005 -326716.000000 0 0 1
-31.606912 -26.201000 -30.883493 51.373918 0.692154 2.215737 0.014077 -0.000003 -191545.000000 0 0 1
-32.394482 -25.851830 -29.781413 51.035793 0.673540 2.193877 0.012164 -0.012153 -127925.000000 0 0 1
-32.521222 -24.430590 -29.617353 50.315715 0.644281 2.200160 0.024614 -0.014529 -82788.400000 0 0 1
-31.288732 -23.837490 -28.904453 48.812684 0.651046 2.204521 0.031042 -0.017107 -90325.600000 0 0 1
-31.021262 -22.499590 -29.084723 48.108953 0.627502 2.220009 0.038628 -0.017407 863414.000000 0 0 1
-29.816202 -22.232890 -28.318273 46.746464 0.640721 2.221548 0.061803 -0.015923 853963.000000 0 0 1
-29.428272 -20.777690 -28.539883 45.959335 0.614772 2.240790 0.076405 -0.022974 -147810.000000 0 0 1
-29.118902 -20.478490 -29.885553 46.480375 0.612918 2.269168 0.093045 -0.016465 465021.000000 0 0 1
-28.543412 -19.148690 -29.986393 45.613402 0.590901 2.288164 0.088973 -0.025126 -114568.000000 0 0 1
-28.211002 -18.937190 -31.492353 46.327595 0.591183 2.318252 0.095184 -0.021723 476662.000000 0 0 1
-29.356752 -18.638390 -32.285243 47.450452 0.565682 2.319103 0.091371 -0.030273 566741.000000 0 0 1
-29.979432 -17.402190 -31.984733 47.165938 0.525936 2.316014 0.081747 -0.024240 -380266.000000 0 0 1
-30.612262 -16.673690 -33.249773 48.173332 0.498745 2.332577 0.086361 -0.031627 366536.000000 0 0 1
-31.656212 -17.354490 -33.895093 49.519404 0.501474 2.324688 0.076882 -0.034718 285715.000000 0 0 1
-32.966402 -17.088290 -33.462063 49.985028 0.478223 2.304253 0.066250 -0.026786 756768.000000 0 0 1
-34.184364 -17.561990 34.049528 51.345541 0.474582 0.845784 0.061674 -0.032095 895821.000000 0 0 1
-34.543821 -18.978590 34.096926 52.115860 0.502387 0.857603 0.037397 -0.028451 459655.000000 0 0 1
-35.418914 -19.390790 33.029992 52.167831 0.500899 0.885182 0.037950 -0.020663 -401761.000000 0 0 1
-35.818324 -20.888090 33.200906 53.118404 0.527951 0.895619 0.025094 -0.021926 -131155.000000 0 0 1
-34.724759 -21.791690 33.171244 52.735359 0.560434 0.890513 0.036303 -0.018800 118952.000000 0 0 1
-35.071187 -23.079390 33.654125 53.807495 0.582029 0.895083 0.034088 -0.013539 -942174.000000 0 0 1
-33.878192 -24.011790 33.754417 53.513163 0.616587 0.888253 0.027001 -0.009632 296714.000000 0 0 1
-32.890172 -23.904690 -33.617743 52.757466 0.628489 2.261673 0.016778 -0.019027 533716.000000 0 0 1
-32.037972 -22.792090 -33.830223 51.869018 0.618342 2.281311 0.029208 -0.021093 -1039960.000000 0 0 1
-30.710892 -22.823990 -33.086573 50.584728 0.639128 2.283765 0.032313 -0.015815 -992109.000000 0 0 1
-29.696092 -23.695690 -33.488803 50.644284 0.673483 2.293287 0.033496 -0.013333 13951.600000 0 0 1
-28.459882 -23.364290 -32.880893 49.366062 0.687389 2.299714 0.051045 -0.020399 -87406.100000 0 0 1
-28.202742 -23.810290 -31.431163 48.479300 0.701149 2.276201 0.051970 -0.008558 -1002090.000000 0 0 1
-28.032612 -25.230980 -31.344293 49.039723 0.732847 2.264204 0.046673 -0.014006 22000.900000 0 0 1
-27.648872 -25.620920 -30.040083 48.200604 0.747347 2.243663 0.037276 -0.017822 -134328.000000 0 0 1
-27.056562 -27.009350 -29.885383 48.525237 0.784525 2.234290 0.037373 -0.015586 -321811.000000 0 0 1
-27.960112 -28.035570 -30.169703 49.779233 0.786746 2.221907 0.024040 -0.005935 28136.000000 0 0 1
-27.457102 -29.260030 -29.742723 49.946685 0.817176 2.208671 0.013963 -0.009299 6028.320000 0 0 1
-28.463982 -30.355530 -30.121623 51.370893 0.817546 2.197349 0.023944 0.002504 -25133.300000 0 0 1
-28.291292 -30.802810 -31.451773 52.329956 0.827873 2.215583 0.042812 -0.009965 107943.000000 0 0 1
-28.544982 -32.198240 -31.571713 53.369614 0.845468 2.203798 0.051889 -0.001401 -171143.000000 0 0 1
-27.990612 -32.788790 -32.876033 54.216351 0.864179 2.222304 0.044846 -0.008481 808717.000000 0 0 1
-26.607602 -32.495640 -33.136363 53.497193 0.884693 2.238779 0.025130 -0.004067 473548.000000 0 0 1
-26.238122 -33.177920 34.062695 54.309121 0.901671 0.892843 0.036687 -0.008026 24620.600000 0 0 1
-24.726062 -33.373370 33.828255 53.567815 0.933150 0.887306 0.025493 -0.003835 59834.300000 0 0 1
-24.463062 -34.188433 32.661111 53.235689 0.949719 0.910287 0.029771 0.005996 194534.000000 0 0 1
-23.458062 33.245346 32.965156 52.366356 -0.956319 0.889874 0.021660 0.015200 -177270.000000 0 0 1
-23.324962 32.225212 31.844401 50.956687 -0.944268 0.895753 0.011866 -0.001332 485019.000000 0 0 1
-24.603362 31.677912 31.436871 50.961676 -0.910442 0.906033 0.040387 -0.025403 859785.000000 0 0 1
-24.466962 30.787372 30.347271 49.673447 -0.899291 0.913555 0.032806 -0.018081 -163543.000000 0 0 1
-25.796362 30.102702 29.947531 49.683796 -0.862284 0.923838 0.039351 -0.017566 133650.000000 0 0 1
-26.332402 29.223212 30.948111 50.051744 -0.837386 0.904190 0.039172 -0.020635 491702.000000 0 0 1
-27.512662 28.611982 30.424941 50.012689 -0.804983 0.916823 0.046062 -0.021857 510713.000000 0 0 1
-27.983542 27.317562 31.172961 50.010812 -0.773356 0.897809 0.037210 -0.037652 88511.000000 0 0 1
-27.312022 26.145792 30.739841 48.728706 -0.763586 0.888166 0.038845 -0.024259 306548.000000 0 0 1
-28.105602 24.995772 31.000741 48.741762 -0.726901 0.881467 0.061991 -0.020153 69405.200000 0 0 1
-29.070892 24.523682 29.929791 48.397522 -0.700756 0.904071 0.078101 -0.023694 -76150.200000 0 0 1
-28.428952 24.090332 28.744871 47.061842 -0.702975 0.913739 0.083526 -0.028106 -364789.000000 0 0 1
-29.267352 23.309742 27.943831 46.698818 -0.672568 0.929314 0.100825 -0.017066 184434.000000 0 0 1
-28.523802 22.804942 26.665321 45.218492 -0.674439 0.940110 0.121869 -0.023697 721975.000000 0 0 1
-27.491582 21.832542 26.923871 44.241856 -0.671166 0.916550 0.110411 -0.029297 413828.000000 0 0 1
-26.809762 21.448642 25.742341 42.912419 -0.674760 0.927444 0.087994 -0.008801 -389735.000000 0 0 1
-25.441382 20.866542 26.113841 42.007251 -0.686926 0.899948 0.073887 -0.021379 -341958.000000 0 0 1
-25.521072 19.651642 26.761091 41.876821 -0.656189 0.877543 0.110489 -0.032808 419990.000000 0 0 1
-24.216862 19.308142 27.210401 41.227014 -0.673093 0.849959 0.076605 -0.027969 285645.000000 0 0 1
-24.176762 18.091942 28.177491 41.301394 -0.642425 0.819973 0.103956 -0.030356 1463050.000000 0 0 1
-22.832462 17.534742 28.349471 40.403973 -0.654906 0.793085 0.070698 -0.023121 1525640.000000 0 0 1
-22.927162 16.403442 29.177841 40.571838 -0.621026 0.768197 0.072858 -0.022454 -672794.000000 0 0 1
-21.616662 15.667142 29.357341 39.681140 -0.627158 0.737977 0.064855 -0.026143 -858072.000000 0 0 1
-20.596262 16.311442 30.009261 39.885146 -0.669820 0.719111 0.083831 -0.014367 -1085840.000000 0 0 1
-19.445962 15.565942 30.161971 39.117624 -0.675028 0.690295 0.054796 -0.015719 -310082.000000 0 0 1
-18.378762 16.262142 31.058231 39.583454 -0.724372 0.668703 0.037085 -0.017273 -29246.200000 0 0 1
-18.750562 16.127642 32.402914 40.763136 -0.710337 0.651942 0.013945 -0.012925 163409.000000 0 0 1
-17.788662 16.661842 33.264943 41.238451 -0.752701 0.632337 0.013705 -0.009835 -1067130.000000 0 0 1
-18.050962 16.345042 -33.642403 41.530819 -0.735842 2.515049 -0.000538 -0.009958 396077.000000 0 0 1
-19.117462 16.973842 -32.918423 41.679866 -0.726073 2.481266 0.013215 -0.006240 131819.000000 0 0 1
-20.372062 16.521542 -33.343303 42.423556 -0.681406 2.475047 0.013253 0.001606 -860355.000000 0 0 1
-21.571862 17.047542 -32.523153 42.587784 -0.668778 2.439780 0.024202 -0.006128 93179.500000 0 0 1
-21.604462 16.691542 -31.167883 41.434252 -0.657807 2.422229 0.023837 -0.011467 130172.000000 0 0 1
-22.643062 17.459042 -30.582623 41.866732 -0.656841 2.389814 0.033097 -0.019045 -195087.000000 0 0 1
-22.791362 17.390942 -29.053823 40.816855 -0.651801 2.362867 0.033330 -0.011551 161456.000000 0 0 1
-23.375862 16.283442 -28.359223 40.197350 -0.608435 2.353924 0.013449 -0.007366 112596.000000 0 0 1
-24.752562 16.100542 -28.646233 41.140290 -0.576698 2.341034 0.033758 -0.007201 103048.000000 0 0 1
-25.442402 14.972142 -27.850643 40.584962 -0.531900 2.327090 0.036523 -0.003470 -93233.500000 0 0 1
-25.019062 13.682842 -28.136273 40.060248 -0.500457 2.349488 0.008223 0.005923 364124.000000 0 0 1
-26.048782 12.820042 -27.645153 40.089238 -0.457352 2.331720 -0.000773 -0.003600 273177.000000 0 0 1
-25.732472 11.304342 -27.774203 39.513980 -0.413922 2.350257 0.015484 -0.007678 675755.000000 0 0 1
-24.733962 10.814042 -26.854233 38.077056 -0.412171 2.353586 0.007346 -0.005501 841435.000000 0 0 1
-23.583562 10.221542 -27.468573 37.618969 -0.408979 2.389380 0.003849 -0.000494 927384.000000 0 0 1
-22.559162 9.671942 -26.398873 36.046674 -0.405031 2.392567 0.031231 -0.008201 298990.000000 0 0 1
-23.039562 8.643542 -25.606653 35.513841 -0.358912 2.376088 0.044251 -0.011610 -250618.000000 0 0 1
-22.029362 8.202242 -24.736263 34.124072 -0.356430 2.381674 0.063726 -0.005511 -204462.000000 0 0 1
-22.528462 7.052042 -23.876263 33.575867 -0.303366 2.361877 0.073640 -0.002353 228906.000000 0 0 1
-22.820562 5.802842 -24.573963 34.034257 -0.249004 2.377537 0.073473 -0.018137 278833.000000 0 0 1
-23.434262 4.910942 -23.671063 33.668995 -0.206573 2.350477 0.076693 -0.014589 -304739.000000 0 0 1
35.201541 24.938710 -10.383363 44.372311 0.616378 1.806992 0.028958 0.006724 -271823.000000 0 0 1
36.079141 24.273110 -9.531563 44.516727 0.592219 1.786579 0.037773 0.001548 -154119.000000 0 0 1
-36.063812 23.250810 -10.284663 44.124517 -0.572650 1.806043 0.051791 0.002099 -648958.000000 0 0 1
-34.969032 22.506110 -9.588663 42.676699 -0.571864 1.797412 0.062996 -0.005315 -776746.000000 0 0 1
-35.372329 21.661210 -8.521863 42.344206 -0.549471 1.773432 0.059144 -0.006332 315534.000000 0 0 1
-34.274224 21.240110 -7.705663 41.051698 -0.554787 1.759623 0.062026 -0.002724 309726.000000 0 0 1
-34.686001 20.427910 -6.476163 40.772035 -0.532246 1.730310 0.072699 0.008409 -108019.000000 0 0 1
-35.262550 19.202710 -6.848363 40.731948 -0.498660 1.739731 0.075099 0.004012 194188.000000 0 0 1
-35.843158 18.534410 -5.769763 40.762072 -0.477232 1.712821 0.071469 -0.005444 -251270.000000 0 0 1
36.182961 17.259110 -6.170463 40.560549 0.445075 1.723519 0.069317 -0.001260 348246.000000 0 0 1
34.925621 17.515510 -6.783963 39.656201 0.464854 1.742711 0.059371 0.001248 490591.000000 0 0 1
34.337571 16.366810 -7.465563 38.764364 0.444789 1.764595 0.068339 0.003645 961088.000000 0 0 1
33.125101 16.665610 -8.421063 38.025375 0.466133 1.794107 0.045374 -0.006347 587146.000000 0 0 1
32.684541 15.586510 -9.236063 37.370087 0.444979 1.820535 0.059575 -0.011758 -10860.600000 0 0 1
32.136391 16.075410 -10.443363 37.419651 0.463827 1.853640 0.055492 -0.009228 -682691.000000 0 0 1
31.516071 14.953110 -11.265463 36.657453 0.443008 1.883169 0.050819 -0.009578 -32919.300000 0 0 1
30.277371 14.402710 -10.848263 35.239780 0.444013 1.883720 0.045898 -0.000571 467964.000000 0 0 1
30.093521 13.888410 -9.513363 34.482054 0.432383 1.850315 0.045950 0.001653 -881622.000000 0 0 1
29.059641 12.753110 -9.319163 33.074935 0.413551 1.856423 0.047331 0.011717 68851.400000 0 0 1
29.519371 11.534310 -9.786263 33.169331 0.372496 1.870293 0.046826 0.008939 325965.000000 0 0 1
28.459651 10.600510 -9.708163 31.883710 0.356555 1.880196 0.061873 0.003621 -118721.000000 0 0 1
28.844261 9.209710 -10.344163 31.997060 0.309060 1.899995 0.069120 -0.000706 -581815.000000 0 0 1
29.704951 8.592610 -9.432963 32.329520 0.281580 1.866879 0.062587 -0.000150 78828.400000 0 0 1
29.898341 7.250610 -9.725063 32.265446 0.237916 1.876965 0.063242 -0.010927 -502125.000000 0 0 1
31.011201 6.656510 -8.850663 32.929287 0.211440 1.842920 0.077808 -0.014630 151628.000000 0 0 1
32.317571 6.947210 -9.341163 34.350349 0.211745 1.846203 0.083453 -0.020635 -365740.000000 0 0 1
33.245371 6.536110 -8.407163 34.909251 0.194126 1.814016 0.090478 -0.019482 -668796.000000 0 0 1
34.690081 6.889210 -8.789063 36.443251 0.196042 1.814369 0.093437 -0.023912 -32732.100000 0 0 1
35.121341 6.293110 -10.038863 37.066030 0.177300 1.845059 0.094669 -0.030568 -410835.000000 0 0 1
-36.281352 6.249410 -10.110363 38.178673 -0.170575 1.838811 0.095103 -0.039718 -1103100.000000 0 0 1
-35.772981 5.562410 -11.411763 37.958858 -0.154257 1.876155 0.096279 -0.044143 170746.000000 0 0 1
-34.374814 5.510710 -11.639763 36.708035 -0.158960 1.893456 0.088096 -0.046759 595043.000000 0 0 1
-33.683272 6.599210 -12.220763 36.434317 -0.193469 1.912846 0.076324 -0.044419 -582613.000000 0 0 1
-33.129812 7.637510 -11.254863 35.813237 -0.226574 1.890479 0.068338 -0.031525 -1667860.000000 0 0 1
-33.917052 8.457210 -10.506863 36.500479 -0.244367 1.862783 0.081114 -0.030246 -557862.000000 0 0 1
-34.565665 9.501710 -11.293963 37.584854 -0.268263 1.876005 0.084994 -0.032780 181708.000000 0 0 1
-35.444614 10.305410 -10.313363 38.326069 -0.282946 1.843250 0.079417 -0.020740 129986.000000 0 0 1
-34.641671 10.929910 -9.304763 37.497825 -0.305628 1.821558 0.071093 -0.015018 404945.000000 0 0 1
-35.405756 11.620010 -8.300063 38.176999 -0.317119 1.789957 0.066318 -0.009678 120502.000000 0 0 1
-34.508781 12.424410 -7.335563 37.403642 -0.345588 1.768195 0.078219 -0.009479 473141.000000 0 0 1
-33.837342 13.477610 -8.055463 37.302844 -0.379045 1.788459 0.059667 -0.010533 -410557.000000 0 0 1
-32.903872 14.154510 -7.271363 36.549797 -0.406248 1.771077 0.067593 -0.006544 28651.400000 0 0 1
-32.068892 15.113010 -8.181563 36.383442 -0.440398 1.797606 0.051479 -0.009208 -84344.800000 0 0 1
-32.913282 16.023210 -8.815763 37.652955 -0.453057 1.807122 0.042118 -0.006671 -63835.100000 0 0 1
-32.278292 17.290510 -9.068463 37.723824 -0.491775 1.813565 0.042013 0.004262 468994.000000 0 0 1
-33.099522 18.225910 -9.998563 39.086230 -0.503334 1.829480 0.022979 -0.001685 431300.000000 0 0 1
-32.641602 18.055410 -11.330063 38.985155 -0.505252 1.865676 0.014367 0.002740 190757.000000 0 0 1
-33.395652 18.934810 -12.146563 40.265812 -0.515789 1.877229 0.011763 -0.004886 -29605.300000 0 0 1
-33.036832 18.806810 -13.606163 40.376429 -0.517516 1.914507 0.001062 0.004129 -13641.200000 0 0 1
-32.260032 19.987010 -13.952863 40.433558 -0.554677 1.923122 0.010147 0.005117 536260.000000 0 0 1
-31.973742 20.020810 -15.327663 40.719654 -0.559436 1.956725 -0.007372 0.007903 -582498.000000 0 0 1
-31.216232 21.264410 -15.769363 40.930442 -0.597995 1.966299 0.021860 0.004705 7200.790000 0 0 1
-29.865872 21.250710 -15.342163 39.735940 -0.618428 1.967199 0.008841 0.004114 187046.000000 0 0 1
-29.339862 22.464110 -14.840863 39.821036 -0.653443 1.952701 0.005276 0.002285 202979.000000 0 0 1
-28.485432 23.373610 -15.783963 40.085895 -0.687144 1.975508 0.000197 0.004115 -216407.000000 0 0 1
-29.264252 23.839010 -16.866763 41.342261 -0.683587 1.991035 0.013876 0.006741 398234.000000 0 0 1
-28.514512 24.404710 -17.973063 41.613679 -0.707892 2.017398 0.004070 0.007139 239139.000000 0 0 1
-27.642732 25.652710 -17.711663 41.663955 -0.748076 2.009877 0.016433 0.004899 296875.000000 0 0 1
-28.390802 26.811210 -17.321663 42.719066 -0.756791 1.988299 0.035453 0.001254 212138.000000 0 0 1
-27.537862 27.937510 -17.314663 42.879317 -0.792602 1.986463 0.033390 -0.001814 286784.000000 0 0 1
-28.249622 29.272210 -16.925063 44.060880 -0.803174 1.965061 0.032244 0.000128 60428.500000 0 0 1
-28.675032 29.470610 -15.593963 43.976653 -0.799080 1.933279 0.040369 -0.003776 1158310.000000 0 0 1
-27.577852 29.429310 -14.619663 42.899379 -0.817864 1.918553 0.033909 0.003378 861966.000000 0 0 1
-27.938592 30.251310 -13.408063 43.306845 -0.825122 1.885575 0.049912 0.001384 -68389.700000 0 0 1
-27.556522 31.603510 -13.495163 44.048418 -0.853699 1.882175 0.072258 0.002665 -160379.000000 0 0 1
-27.955032 32.336610 -12.380163 44.501782 -0.857944 1.852711 0.071030 -0.002710 -130476.000000 0 0 1
-27.416812 33.772010 -12.363263 45.222566 -0.888889 1.847709 0.046236 -0.001939 -77373.200000 0 0 1
-27.943382 -33.772322 -13.344563 45.820080 0.879567 1.866317 0.037682 -0.009185 180150.000000 0 0 1
-27.088942 -32.657422 -13.673663 44.578998 0.878332 1.882551 0.030904 -0.015228 280706.000000 0 0 1
-27.422692 -32.089522 -15.063163 44.817857 0.863656 1.913566 0.025108 -0.011686 193622.000000 0 0 1
-26.988142 -32.924622 -16.174063 45.541090 0.884161 1.933874 0.010626 -0.008904 -28479.800000 0 0 1
-27.262762 -32.267922 -17.398063 45.685551 0.869278 1.961481 0.012002 0.002207 -252281.000000 0 0 1
-26.537282 -32.856422 -18.599363 46.148761 0.891394 1.985622 0.007948 0.005687 -360641.000000 0 0 1
-26.928062 -34.178622 -18.979263 47.471161 0.903500 1.982102 0.004512 0.014122 -162756.000000 0 0 1
-26.310562 33.212510 -18.243863 46.131930 -0.900837 1.977377 -0.008397 0.003953 -573824.000000 0 0 1
-26.429912 31.913210 -19.110663 45.631246 -0.879107 2.002927 0.003444 -0.002361 149179.000000 0 0 1
-27.706322 31.377010 -19.397263 46.134703 -0.847446 2.004736 0.018591 0.000141 -59746.400000 0 0 1
-28.388292 31.999910 -20.479163 47.426632 -0.845134 2.017292 0.017875 0.006102 551782.000000 0 0 1
-29.903552 31.590010 -20.564163 48.114820 -0.812816 2.012409 0.027234 -0.001164 753918.000000 0 0 1
-30.130072 30.190310 -20.670263 47.397635 -0.786397 2.022060 0.025604 -0.013799 84950.700000 0 0 1
-31.493542 29.889010 -20.871963 48.175045 -0.759264 2.018895 0.046836 -0.015434 -78802.600000 0 0 1
-31.842182 28.389210 -21.063963 47.576909 -0.728132 2.029443 0.039894 -0.010002 143306.000000 0 0 1
-33.221082 28.280410 -21.422463 48.603948 -0.705236 2.027237 0.047486 -0.012584 529808.000000 0 0 1
-33.529692 26.979310 -21.796863 48.241337 -0.677563 2.039611 0.046475 -0.003207 901644.000000 0 0 1
-35.071465 26.709510 -22.010163 49.273247 -0.650867 2.033865 0.049227 -0.003077 1199140.000000 0 0 1
-35.696903 27.228710 -23.187163 50.530348 -0.651627 2.047526 0.045230 -0.006811 -255538.000000 0 0 1
35.932801 26.463610 -23.431063 50.403408 0.634789 2.054285 0.062510 -0.001659 -230513.000000 0 0 1
35.244701 26.935410 -24.661463 50.753256 0.652553 2.078199 0.074718 -0.015190 65039.200000 0 0 1
35.966401 26.699210 -25.909163 51.746638 0.638579 2.095195 0.075916 -0.019680 213055.000000 0 0 1
35.125651 27.081110 -26.984203 51.916713 0.656792 2.117366 0.083374 -0.009707 145424.000000 0 0 1
35.912191 27.447610 -28.243803 53.298866 0.652589 2.129295 0.084412 -0.010253 62440.100000 0 0 1
36.350411 26.270110 -28.938523 53.375174 0.625793 2.143816 0.077212 -0.000864 -105449.000000 0 0 1
-35.912284 26.567510 -30.222143 53.934244 -0.636934 2.165607 0.042459 0.004373 -729919.000000 0 0 1
-35.454162 25.242610 -30.856123 53.350607 -0.618720 2.187519 0.028607 0.006932 327451.000000 0 0 1
-34.334469 24.585810 -30.315983 51.984388 -0.621429 2.193428 0.039633 0.006628 853636.000000 0 0 1
-33.042362 25.220610 -30.353393 51.470431 -0.651947 2.201514 0.009317 0.013083 1044040.000000 0 0 1
-32.001022 24.758210 -29.269063 49.937084 -0.658478 2.197057 -0.005171 0.010335 -39962.700000 0 0 1
-31.567712 23.437510 -29.593723 49.210017 -0.638653 2.216019 0.005180 0.005519 -68020.800000 0 0 1
-32.161742 22.320610 -28.977273 48.705950 -0.606695 2.207991 -0.004052 0.008062 -296183.000000 0 0 1
-31.715002 20.981310 -29.578793 48.176360 -0.584457 2.231875 0.004901 0.001652 -144785.000000 0 0 1
-30.350472 20.638510 -29.469793 47.069820 -0.597181 2.247321 0.033351 0.002973 40327.900000 0 0 1
-30.180732 19.283210 -29.802623 46.593080 -0.568550 2.264821 0.027727 -0.001724 -357957.000000 0 0 1
-28.731312 18.885710 -30.094633 45.692945 -0.581505 2.289790 0.050477 -0.006751 -389206.000000 0 0 1
-28.387242 19.147610 -31.480383 46.513234 -0.593416 2.314210 0.064003 -0.013234 -63272.000000 0 0 1
-27.088722 18.795110 -31.886823 45.867466 -0.606577 2.339487 0.072539 -0.014401 -65439.800000 0 0 1
-27.010822 17.324310 -32.298143 45.528961 -0.570294 2.359440 0.072493 -0.018269 -181049.000000 0 0 1
-27.046552 16.325310 -31.304293 44.474605 -0.543063 2.351626 0.042780 -0.007219 80957.500000 0 0 1
-26.926122 15.017710 -31.848803 44.327124 -0.508764 2.372432 0.029211 0.004729 -180949.000000 0 0 1
-27.313242 13.900910 -30.906243 43.525215 -0.470777 2.360404 0.018221 0.010737 391385.000000 0 0 1
-28.743332 13.783110 -30.932103 44.417882 -0.447133 2.341149 0.027710 -0.002698 849867.000000 0 0 1
-29.301502 12.465310 -30.866513 44.347532 -0.402222 2.340628 0.030957 -0.000282 210804.000000 0 0 1
-29.113302 11.696210 -29.520093 43.079247 -0.382012 2.325744 0.003261 -0.013709 -410377.000000 0 0 1
-29.950272 12.193410 -28.484933 43.093961 -0.386631 2.292942 -0.005422 -0.007325 358586.000000 0 0 1
-30.106512 11.330110 -27.358023 42.228366 -0.359940 2.275567 0.004288 -0.007530 -131505.000000 0 0 1
-29.882972 12.124010 -26.014503 41.433537 -0.385425 2.249598 -0.007687 -0.005434 374370.000000 0 0 1
-28.534192 12.394710 -25.662533 40.328582 -0.409789 2.260536 -0.000810 -0.008877 -66471.500000 0 0 1
-28.498952 13.154810 -24.515563 39.827781 -0.432450 2.233866 -0.006269 -0.007923 -224240.000000 0 0 1
-27.088742 13.316610 -23.933063 38.521728 -0.456899 2.241181 0.016409 -0.004764 -321271.000000 0 0 1
-26.311572 14.254710 -24.676263 38.786770 -0.496499 2.260363 0.016331 -0.003345 96084.100000 0 0 1
-25.026062 14.563010 -24.162763 37.712387 -0.527015 2.266221 0.021333 -0.014772 355281.000000 0 0 1
-25.011062 15.385510 -22.843363 37.203311 -0.551483 2.231933 0.025796 -0.009921 -663844.000000 0 0 1
-25.396602 16.723810 -23.033163 38.147081 -0.582331 2.219054 0.034309 -0.009139 -14196.100000 0 0 1
-25.544132 17.403310 -21.793263 37.819627 -0.598068 2.184920 0.024750 -0.008896 265112.000000 0 0 1
-26.972782 17.473910 -21.188563 38.494463 -0.574852 2.153677 0.011469 0.001897 94108.700000 0 0 1
-27.512872 16.220610 -20.903463 38.170945 -0.532711 2.150323 0.018750 0.002040 -460856.000000 0 0 1
-28.794362 16.242710 -20.353363 38.822677 -0.513599 2.122648 0.028512 0.003777 -837669.000000 0 0 1
-29.695402 15.009810 -20.696163 39.184722 -0.468005 2.127239 0.004196 -0.001386 369553.000000 0 0 1
-30.216112 14.795910 -22.037663 40.219286 -0.455349 2.150693 -0.002444 0.004506 243792.000000 0 0 1
-30.979482 15.902110 -22.436063 41.424417 -0.474240 2.143153 -0.014960 0.008563 -789893.000000 0 0 1
-31.312282 15.768410 -24.002163 42.487711 -0.466512 2.171133 -0.022880 0.001219 167761.000000 0 0 1
-32.427332 14.910610 -24.221563 43.134003 -0.430987 2.167045 -0.011942 -0.004374 365392.000000 0 0 1
-32.888742 15.017510 -25.576093 44.286922 -0.428342 2.186470 0.000363 -0.013267 172274.000000 0 0 1
-34.194626 14.300810 -26.008413 45.279390 -0.396112 2.182665 0.007502 -0.012168 91252.600000 0 0 1
-34.246862 12.932510 -26.036833 44.922311 -0.361071 2.189030 0.009539 -0.017257 -34710.000000 0 0 1
-34.062143 12.148710 -24.875263 43.893045 -0.342598 2.173321 0.003957 -0.018421 -264500.000000 0 0 1
-33.901452 10.688310 -25.337023 43.652184 -0.305412 2.190053 0.014174 -0.028085 388777.000000 0 0 1
-35.141205 10.039110 -25.644503 44.646708 -0.278267 2.182652 0.025588 -0.018459 350933.000000 0 0 1
-34.971203 8.777910 -26.216633 44.579688 -0.245923 2.199485 0.015621 -0.007112 -680453.000000 0 0 1
-36.213532 8.080410 -26.711793 45.719064 -0.219536 2.194764 0.034718 -0.002388 -238139.000000 0 0 1
35.638011 7.627910 -25.740613 44.618741 0.210857 2.185726 0.030824 0.008157 140479.000000 0 0 1
34.459591 7.119510 -26.330033 43.947941 0.203738 2.213196 0.051412 0.010330 142436.000000 0 0 1
33.569191 6.405310 -25.324813 42.535453 0.188543 2.208536 0.058854 0.004239 100071.000000 0 0 1
34.260091 5.218910 -24.956963 42.706450 0.151170 2.194917 0.046758 0.001834 535472.000000 0 0 1
33.424611 4.415810 -24.135163 41.463359 0.131352 2.192086 0.052575 0.002325 502261.000000 0 0 1
34.202181 3.326410 -23.274963 41.503953 0.096952 2.166135 0.037919 0.005657 245654.000000 0 0 1
34.989781 2.419510 -24.012963 42.506014 0.069039 2.171146 0.040251 0.003941 78565.900000 0 0 1
35.873571 1.827910 -23.065963 42.688324 0.050910 2.141631 0.056284 0.002372 370369.000000 0 0 1
-35.810532 0.925110 -23.673763 42.938294 -0.025828 2.154770 0.071656 0.000385 213787.000000 0 0 1
-36.362772 -0.188390 -24.348263 43.762136 0.005181 2.160816 0.070503 0.002219 63064.300000 0 0 1
-35.373595 -1.128090 -24.717963 43.168756 0.031880 2.180457 0.078793 -0.001653 54526.500000 0 0 1
-22.847562 29.248210 27.228351 46.030989 -0.907649 0.937851 0.013607 -0.018704 -917182.000000 0 0 1
-24.210362 29.443510 26.935561 46.675329 -0.882626 0.955643 0.007970 -0.011646 225014.000000 0 0 1
-24.624462 29.122810 25.649681 45.960943 -0.868898 0.978731 -0.002276 -0.001826 -640696.000000 0 0 1
-24.800562 27.641410 25.389811 44.986197 -0.839517 0.971101 0.014012 -0.006324 -395209.000000 0 0 1
-26.020102 27.147810 25.923621 45.673662 -0.806605 0.967228 0.030038 -0.007947 108305.000000 0 0 1
-26.077132 26.806310 27.297181 46.300444 -0.799186 0.940275 0.040718 -0.007188 -152653.000000 0 0 1
-25.163622 25.610810 27.863381 45.447656 -0.794205 0.910834 0.030492 -0.004090 1339580.000000 0 0 1
-23.797462 25.906310 28.154391 45.056918 -0.827801 0.895841 0.012503 -0.002772 411440.000000 0 0 1
-23.669962 26.542010 29.431021 46.162002 -0.842534 0.879470 0.014915 -0.000520 -837668.000000 0 0 1
-22.385362 26.177110 30.132441 45.763627 -0.863320 0.852057 0.016997 0.008011 -104336.000000 0 0 1
-21.192262 26.602910 29.459181 44.996335 -0.898123 0.857008 0.026923 0.000771 544031.000000 0 0 1
-19.985962 26.150610 30.036591 44.558836 -0.918229 0.831067 0.047094 -0.005514 371605.000000 0 0 1
-19.436362 24.686310 29.695941 43.232337 -0.903827 0.813593 0.037849 0.000115 -69082.400000 0 0 1
-18.874162 24.550210 28.420921 42.032078 -0.915372 0.828242 0.034158 -0.001927 -182452.000000 0 0 1
-19.653062 23.732410 27.573841 41.349569 -0.879148 0.840827 0.034078 0.004606 -48344.600000 0 0 1
-19.545062 22.159810 27.778761 40.555224 -0.848013 0.816246 0.020722 0.017043 32437.400000 0 0 1
-20.233762 21.670410 28.895621 41.400105 -0.819669 0.798251 0.011562 0.015031 -45218.400000 0 0 1
-20.153962 20.252710 28.899171 40.638855 -0.787842 0.779704 0.035184 0.010341 257757.000000 0 0 1
-20.756262 19.713610 30.241041 41.640958 -0.759640 0.757970 0.040642 -0.000092 19994.300000 0 0 1
-19.948662 20.131110 31.309031 42.231104 -0.789950 0.735681 0.028350 0.000746 -22465.800000 0 0 1
-20.459562 19.858810 32.583622 43.297326 -0.770499 0.718863 0.025689 -0.000984 293028.000000 0 0 1
-19.409362 20.215010 33.706542 43.834928 -0.805727 0.693611 0.024259 0.002326 345772.000000 0 0 1
-19.487462 21.564610 34.110484 44.814269 -0.835953 0.705708 0.004866 0.011740 551214.000000 0 0 1
-18.666462 22.536310 33.381487 44.391956 -0.879045 0.719749 0.016526 0.015229 1060820.000000 0 0 1
-17.152162 22.659210 33.769933 44.136661 -0.922854 0.699565 0.019543 0.017442 621464.000000 0 0 1
-16.371062 21.598510 33.327310 42.955988 -0.922213 0.682739 0.027140 -0.013875 -76249.400000 0 0 1
-15.042862 21.656810 33.837244 42.898301 -0.963702 0.661978 0.017576 -0.011407 -435535.000000 0 0 1
-14.128162 20.493410 33.379706 41.638799 -0.967220 0.640748 0.016621 -0.022238 729312.000000 0 0 1
-12.805362 20.442210 33.953528 41.649770 -1.011178 0.617696 0.004761 -0.019662 808053.000000 0 0 1
-12.741962 20.382510 -33.056663 40.872329 -1.012095 2.512869 0.019033 -0.021183 -931597.000000 0 0 1
-11.321962 20.032410 -32.576493 39.883733 -1.056372 2.526615 0.020154 -0.026422 22546.000000 0 0 1
-10.391662 21.057210 -32.756863 40.303905 -1.112365 2.519647 0.022852 -0.016836 -680719.000000 0 0 1
-9.236662 20.906910 -31.981923 39.309772 -1.154783 2.521091 0.031282 -0.025274 -263543.000000 0 0 1
-8.213862 22.051210 -32.232433 39.908058 -1.214228 2.510981 0.035110 -0.025452 188425.000000 0 0 1
-8.404762 23.218710 -31.380103 39.930682 -1.223487 2.474889 0.028678 -0.016596 364443.000000 0 0 1
-7.827862 22.924410 -30.075573 38.617924 -1.241746 2.463544 0.030406 -0.017678 58556.300000 0 0 1
-7.503462 24.131710 -29.208673 38.623671 -1.269335 2.428340 0.029392 -0.017165 60147.000000 0 0 1
-6.430062 24.928410 -29.649383 39.266490 -1.318358 2.426574 0.033145 -0.013082 -4967.840000 0 0 1
-6.151962 26.097910 -28.779453 39.334520 -1.339296 2.391549 0.038269 -0.005661 -156568.000000 0 0 1
-4.827062 26.787510 -29.139053 39.874247 -1.392511 2.390251 0.041297 -0.015213 -685742.000000 0 0 1
-3.716162 25.920810 -28.970563 39.051143 -1.428401 2.406639 0.045398 -0.016540 137762.000000 0 0 1
-2.500462 26.292110 -29.566283 39.644576 -1.475978 2.412507 0.054068 -0.016149 226425.000000 0 0 1
-1.820062 27.580110 -29.051213 40.099228 -1.504900 2.381081 0.063410 -0.032152 -901827.000000 0 0 1
-1.345562 27.590010 -27.704053 39.122036 -1.522065 2.357663 0.071608 -0.046215 35952.300000 0 0 1
-0.526062 28.701610 -27.532273 39.775435 -1.552470 2.335319 0.079969 -0.042292 -750789.000000 0 0 1
0.216938 28.663910 -26.169323 38.813661 1.563228 2.310718 0.086395 -0.052465 269109.000000 0 0 1
1.180838 27.655910 -25.929123 37.928395 1.528125 2.323526 0.122767 -0.060234 961499.000000 0 0 1
2.374238 27.657310 -26.760673 38.557715 1.485161 2.337885 0.122762 -0.059259 1133290.000000 0 0 1
3.641038 28.128810 -25.941993 38.437925 1.442070 2.311634 0.114078 -0.062422 299817.000000 0 0 1
4.050938 27.152610 -25.003863 37.133105 1.422697 2.309537 0.125271 -0.058814 1133060.000000 0 0 1
5.223138 27.616410 -24.261963 37.129370 1.383873 2.282922 0.101641 -0.049091 1424340.000000 0 0 1
6.029438 26.417910 -23.608963 35.939438 1.346407 2.287509 0.085259 -0.043028 -201392.000000 0 0 1
7.242238 26.755810 -23.024963 36.034321 1.306452 2.263959 0.070371 -0.043611 -901182.000000 0 0 1
7.879738 25.592110 -22.547563 35.006270 1.272110 2.270643 0.056595 -0.033306 -98933.300000 0 0 1
9.366838 25.751710 -22.217063 35.277274 1.221937 2.252071 0.038587 -0.008425 -1020350.000000 0 0 1
9.605538 26.346910 -20.934063 34.995157 1.221193 2.212048 0.035730 -0.001134 727180.000000 0 0 1
11.004638 26.573910 -20.675263 35.422327 1.178182 2.194048 0.041823 -0.004014 1222760.000000 0 0 1
11.792938 25.252510 -20.320263 34.491676 1.133895 2.200785 0.030960 0.009988 -332131.000000 0 0 1
11.854638 24.240210 -21.309663 34.383455 1.115948 2.239240 0.025779 0.004656 -165457.000000 0 0 1
12.284638 23.008110 -20.777163 33.346303 1.080377 2.243461 0.018994 0.010988 -261129.000000 0 0 1
12.458138 21.879210 -21.828563 33.322533 1.053177 2.285070 0.020882 0.009054 -540506.000000 0 0 1
11.285638 21.535610 -22.494863 33.123511 1.088098 2.317360 0.024288 -0.003023 -359282.000000 0 0 1
11.541838 20.648010 -23.536363 33.369368 1.061084 2.353683 0.023115 -0.006450 -191436.000000 0 0 1
10.746238 21.075310 -24.757963 34.243350 1.099262 2.378932 0.042026 -0.008301 42136.500000 0 0 1
9.352938 20.869210 -24.659763 33.631909 1.149466 2.393849 0.042096 -0.012913 132432.000000 0 0 1
8.670938 20.770310 -25.937133 34.341313 1.175323 2.426870 0.035428 -0.011107 1495770.000000 0 0 1
7.135038 20.436610 -25.656503 33.568139 1.234897 2.440769 0.045814 -0.023645 1429700.000000 0 0 1
6.267238 21.525210 -25.391093 33.872120 1.287471 2.418278 0.075458 -0.031266 -4952.500000 0 0 1
6.394538 22.064610 -24.055363 33.262556 1.288714 2.379216 0.077161 -0.032587 -632218.000000 0 0 1
5.060638 22.265410 -23.327563 32.642514 1.347306 2.366902 0.103323 -0.038507 -427791.000000 0 0 1
4.360238 23.293110 -23.910163 33.664173 1.385748 2.360657 0.105488 -0.040873 584998.000000 0 0 1
2.953338 23.273010 -23.564763 33.251364 1.444571 2.358430 0.133014 -0.047561 1286140.000000 0 0 1
2.065438 24.258410 -24.367963 34.446104 1.485858 2.356642 0.119690 -0.047267 -627787.000000 0 0 1
0.700438 24.103510 -24.122763 34.108320 1.541745 2.356383 0.113969 -0.061027 -684948.000000 0 0 1
0.141738 25.007710 -25.094093 35.427661 1.565129 2.357911 0.094794 -0.045539 612129.000000 0 0 1
-1.376362 24.689310 -25.361433 35.421161 -1.515107 2.368847 0.095165 -0.044276 699717.000000 0 0 1
-1.590762 23.539210 -26.079663 35.167794 -1.503320 2.406216 0.113453 -0.052447 -682997.000000 0 0 1
-2.861962 23.612610 -26.642773 35.715312 -1.450180 2.412796 0.099492 -0.038452 -619012.000000 0 0 1
-3.392262 22.336710 -27.295003 35.432375 -1.420079 2.450172 0.084232 -0.038380 -596746.000000 0 0 1
-2.700362 21.887910 -28.444963 35.992895 -1.448044 2.482085 0.107055 -0.047482 -134529.000000 0 0 1
-3.142262 20.578910 -28.736013 35.484134 -1.419273 2.514654 0.072332 -0.035439 -879751.000000 0 0 1
-4.409462 20.481210 -29.565383 36.235827 -1.358740 2.525108 0.048734 -0.030375 -940826.000000 0 0 1
-4.351162 20.871910 -30.960583 37.591580 -1.365270 2.538533 0.061478 -0.026457 -82165.900000 0 0 1
-4.016762 22.233710 -31.157283 38.486991 -1.392063 2.514188 0.072272 -0.030154 -239716.000000 0 0 1
-3.648362 22.588010 -32.629503 39.852393 -1.410662 2.530042 0.065863 -0.023805 -87310.900000 0 0 1
-2.384662 22.135010 -33.051573 39.850367 -1.463478 2.548815 0.062876 -0.024295 56018.200000 0 0 1
-2.233362 22.324310 33.958054 40.700272 -1.471086 0.583853 0.057431 -0.004406 -44652.500000 0 0 1
-0.892062 21.785710 33.400227 39.887192 -1.529872 0.578347 0.057992 0.002639 205377.000000 0 0 1
-0.952562 20.365710 33.466316 39.187547 -1.524058 0.547163 0.050967 0.002890 176958.000000 0 0 1
0.183738 19.768810 32.872722 38.359555 1.561502 0.541448 0.061064 0.009581 -252210.000000 0 0 1
-0.003662 18.274810 32.504767 37.289792 -1.570596 0.512176 0.054141 0.024197 681312.000000 0 0 1
-0.957262 18.124010 31.412661 36.278800 -1.518028 0.523913 0.037470 0.018523 665043.000000 0 0 1
-1.220162 16.740610 31.157911 35.391415 -1.498039 0.494132 0.041114 0.016021 38300.500000 0 0 1
-2.174862 16.551410 29.952611 34.290496 -1.440144 0.508458 0.042663 0.017252 103552.000000 0 0 1
-3.524662 16.886010 30.172221 34.755194 -1.365018 0.519363 0.019563 0.004934 -56260.300000 0 0 1
-3.861462 18.137510 29.470561 34.819450 -1.361029 0.561641 0.022125 0.006515 486498.000000 0 0 1
-5.284362 18.698610 29.785441 35.563113 -1.295372 0.578036 0.015766 -0.008336 1007930.000000 0 0 1
-6.301062 18.189510 28.920991 34.741695 -1.237322 0.587268 -0.001092 -0.000214 1138260.000000 0 0 1
-7.639162 18.492610 29.399971 35.562504 -1.179054 0.597557 0.008977 -0.020582 497433.000000 0 0 1
-8.711562 18.113010 28.378011 34.774760 -1.122500 0.616249 0.006678 -0.019174 -442596.000000 0 0 1
-9.159562 16.775410 28.356971 34.196926 -1.071021 0.593075 0.012991 -0.016174 124100.000000 0 0 1
-9.997362 16.421610 29.438891 35.160558 -1.023936 0.578525 0.012610 -0.019992 -890401.000000 0 0 1
-10.509162 14.961510 29.464151 34.676007 -0.958453 0.555383 0.018563 -0.018367 249881.000000 0 0 1
-9.549262 13.900110 29.600251 34.067232 -0.968854 0.517866 0.022641 -0.006425 449209.000000 0 0 1
-8.630362 13.925010 30.663741 34.765702 -1.015964 0.490683 0.022302 -0.006565 -330168.000000 0 0 1
-9.238762 13.319510 31.955731 35.832008 -0.964361 0.469442 0.055527 -0.022411 -412219.000000 0 0 1
-9.403062 11.913310 32.073321 35.482988 -0.902620 0.441979 0.053731 -0.015729 320763.000000 0 0 1
-9.766362 11.540010 33.393786 36.656495 -0.868452 0.425112 0.044341 -0.007700 -66201.500000 0 0 1
-10.231262 10.004310 33.456675 36.388378 -0.774183 0.404160 0.042945 -0.010689 223383.000000 0 0 1
-9.155462 9.065010 33.552325 35.940999 -0.780434 0.366635 0.059879 -0.007354 260675.000000 0 0 1
-9.199262 8.280310 -33.723923 35.923431 -0.732874 2.789846 0.089352 -0.017684 -65794.300000 0 0 1
-8.582662 8.817710 -32.400053 34.658008 -0.798906 2.778634 0.085908 -0.016398 -186895.000000 0 0 1
-9.330762 9.864910 -31.813243 34.589912 -0.813217 2.738178 0.078806 -0.017504 131008.000000 0 0 1
-8.597462 10.638710 -30.879623 33.773505 -0.891118 2.724610 0.075967 -0.015739 222659.000000 0 0 1
-7.581762 11.651510 -31.499913 34.430877 -0.993922 2.725992 0.057000 -0.010898 257390.000000 0 0 1
-8.196262 12.835610 -31.991753 35.431679 -1.002508 2.697297 0.061211 -0.014545 -92464.400000 0 0 1
-7.272662 13.868510 -32.184343 35.791886 -1.087819 2.688752 0.040755 -0.011179 -343630.000000 0 0 1
-7.908962 15.236010 -32.421013 36.685280 -1.091988 2.654636 0.042148 -0.018616 158720.000000 0 0 1
-8.469962 15.453810 -33.764643 38.086895 -1.069427 2.660557 0.051349 -0.022057 213609.000000 0 0 1
-8.793562 16.798710 -33.894403 38.837532 -1.088552 2.631548 0.056219 -0.029080 -976809.000000 0 0 1
-9.196262 17.252410 33.074036 38.420161 -1.081066 0.533857 0.044426 -0.029658 684844.000000 0 0 1
-10.408262 16.784710 32.482334 38.015266 -1.015726 0.546295 0.013836 -0.026228 1470160.000000 0 0 1
-11.608762 17.137710 33.226166 39.146425 -0.975413 0.557149 0.022102 -0.029980 1176540.000000 0 0 1
-12.975362 16.586510 32.666836 38.866367 -0.906952 0.572607 0.024379 -0.034347 677623.000000 0 0 1
-13.223962 15.203610 32.830846 38.521259 -0.854924 0.550470 0.022379 -0.032711 -2966.810000 0 0 1
-14.532062 14.792410 33.135072 39.088735 -0.794276 0.559184 0.033843 -0.019395 -484489.000000 0 0 1
-14.613762 13.212410 33.213426 38.616855 -0.735080 0.535378 0.037263 -0.011565 -447790.000000 0 0 1
-14.502062 12.627110 31.913011 37.258475 -0.716396 0.542288 0.021526 -0.019576 -189709.000000 0 0 1
-13.198362 12.241810 31.572591 36.344012 -0.747816 0.518194 0.024368 -0.006366 -414243.000000 0 0 1
-13.093362 11.767510 30.112441 34.880790 -0.732118 0.529032 0.026976 0.001638 -63601.300000 0 0 1
-13.702562 10.480110 29.918321 34.535472 -0.652924 0.523035 0.017973 0.005326 172852.000000 0 0 1
-13.380962 9.924310 28.637521 33.130797 -0.638151 0.526885 -0.006231 0.003534 -369462.000000 0 0 1
-14.244162 8.782810 28.092411 32.698891 -0.552529 0.537240 0.016773 0.004094 -68288.300000 0 0 1
-14.041462 7.557010 28.754611 32.880066 -0.493733 0.506330 -0.010254 0.007327 -93728.600000 0 0 1
-14.937862 6.629110 28.214561 32.605924 -0.417669 0.525008 0.009349 0.016437 -285033.000000 0 0 1
-14.433362 5.162610 28.244381 32.135954 -0.343505 0.497239 0.015100 0.012339 1341650.000000 0 0 1
-13.282062 4.826010 27.422581 30.849660 -0.348516 0.475835 0.003621 0.005282 911015.000000 0 0 1
-13.799662 4.725010 26.135301 29.930091 -0.329889 0.509042 0.002848 0.011151 -74223.400000 0 0 1
-12.839762 4.307410 24.999671 28.432320 -0.323676 0.496470 -0.005982 0.016969 -243579.000000 0 0 1
-12.152462 3.073110 25.210671 28.155004 -0.247687 0.461413 -0.006915 0.007240 178757.000000 0 0 1
-11.659862 2.560310 23.980021 26.787105 -0.216153 0.461899 0.003705 0.001484 -75219.600000 0 0 1
-10.623462 1.416010 24.135521 26.408075 -0.132510 0.417896 0.011238 0.001732 -611326.000000 0 0 1
-9.298162 1.787610 24.248181 26.031244 -0.189937 0.372273 0.023051 -0.011974 -982510.000000 0 0 1
-8.413062 0.736710 24.482991 25.898633 -0.087345 0.332163 0.030044 -0.015991 -631895.000000 0 0 1
-6.979162 1.235310 24.387391 25.396447 -0.175185 0.282836 0.036777 -0.016960 -948183.000000 0 0 1
-6.585362 1.498010 23.036931 24.006483 -0.223670 0.285173 0.033894 -0.017846 676776.000000 0 1 0
-5.196562 1.689110 22.745631 23.392757 -0.314271 0.235763 0.031932 -0.021022 790915.000000 0 1 0
-4.522162 3.024010 23.203831 23.833010 -0.589415 0.230289 0.041309 -0.018949 -308304.000000 0 1 0
-4.633262 3.235810 24.582891 25.224118 -0.609643 0.225963 0.053687 -0.019618 13255.200000 0 0 1
-3.829462 4.304110 25.015731 25.670546 -0.843689 0.226352 0.044742 -0.019356 -277008.000000 0 0 1
3.566238 -23.459890 12.484837 26.813349 -1.419937 1.086461 0.073399 -0.015214 86959.700000 0 0 1
3.578538 -24.677390 13.169637 28.199625 -1.426787 1.084885 0.061280 -0.021866 362447.000000 0 0 1
2.253338 -25.206900 13.271337 28.576104 -1.481640 1.087816 0.035620 -0.012546 468190.000000 0 0 1
2.109838 -26.521710 13.975037 30.052524 -1.491412 1.087139 0.028527 -0.009891 -344606.000000 0 0 1
1.939338 -26.367950 15.362037 30.578130 -1.497379 1.044440 0.048831 -0.019252 83599.700000 0 0 1
2.203238 -27.643270 16.001837 32.016612 -1.491262 1.047431 0.036348 -0.018789 -205763.000000 0 0 1
2.072538 -27.681710 17.551437 32.842434 -1.496065 1.006983 0.030596 -0.014975 -501144.000000 0 0 1
3.073238 -26.956460 18.171937 32.654477 -1.457279 0.980639 0.053219 -0.021751 -248835.000000 0 0 1
3.197138 -27.454150 19.493737 33.822446 -1.454865 0.956535 0.048580 -0.017862 -265215.000000 0 0 1
3.867738 -26.409250 20.357737 33.568517 -1.425376 0.919204 0.060007 -0.018969 -157491.000000 0 0 1
3.108738 -25.244780 20.698837 32.793369 -1.448269 0.887710 0.068386 -0.017474 226652.000000 0 0 1
3.838538 -24.497090 21.634537 32.907370 -1.415367 0.853383 0.092031 -0.015588 -22812.200000 0 0 1
3.121438 -23.252590 22.211637 32.307633 -1.437354 0.812750 0.099235 -0.017537 -14804.500000 0 0 1
2.578838 -22.226990 21.369137 30.940742 -1.455290 0.808413 0.104747 -0.019324 210650.000000 0 0 1
3.508138 -21.508390 20.591537 29.982149 -1.409114 0.813728 0.105230 -0.015905 -120046.000000 0 0 1
2.835038 -20.320990 19.840037 28.541324 -1.432178 0.802190 0.089065 -0.023445 141422.000000 0 0 1
2.521438 -19.176490 20.594737 28.253117 -1.440060 0.754029 0.076409 -0.024765 -329864.000000 0 0 1
1.363638 -18.499590 20.185937 27.414711 -1.497218 0.743184 0.062706 -0.025162 -408557.000000 0 0 1
1.207638 -17.144290 20.858637 27.027168 -1.500473 0.689183 0.050661 -0.024813 37711.100000 0 0 1
2.111238 -16.154190 20.402937 26.109290 -1.440840 0.673820 0.032301 -0.018368 136722.000000 0 0 1
1.702138 -14.959590 21.000537 25.840069 -1.457501 0.622005 0.026841 -0.013747 205315.000000 0 0 1
2.787738 -13.846190 20.852537 25.185646 -1.372116 0.595348 0.001700 -0.001384 -399706.000000 0 0 1
3.167238 -13.343390 19.581937 23.906688 -1.337745 0.610958 -0.012656 -0.002219 189311.000000 0 1 0
2.180838 -12.930490 18.601137 22.758645 -1.403710 0.614049 -0.000259 -0.004126 489467.000000 0 1 0
1.253938 -11.747390 19.017437 22.388311 -1.464457 0.555881 -0.004871 -0.004123 -38302.500000 0 1 0
1.885438 -10.483190 18.946237 21.735042 -1.392845 0.512154 0.003465 -0.001673 -587802.000000 0 1 0
1.546138 -9.514890 19.903437 22.114938 -1.409708 0.451028 0.007870 -0.008323 298922.000000 0 1 0
0.081938 -8.989390 20.000437 21.927912 -1.561682 0.422420 0.011829 -0.012280 573124.000000 0 1 0
-0.216962 -8.417690 21.302837 22.906668 1.545028 0.376427 0.023395 -0.009637 179106.000000 0 1 0
-1.552562 -7.934890 21.393437 22.870332 1.377575 0.361342 0.022507 -0.005527 368970.000000 0 1 0
-1.889162 -7.030190 22.586837 23.730944 1.308277 0.311782 0.039086 -0.007899 -165683.000000 0 1 0
-2.131062 -7.878690 23.677537 25.044779 1.306633 0.331952 0.034574 0.000836 51392.000000 0 0 1
-2.107762 -7.272190 24.940437 26.064397 1.288688 0.294740 0.042913 -0.002882 -106619.000000 0 0 1
-2.181762 -8.232290 26.139037 27.491452 1.311727 0.314969 0.037416 -0.007767 -161290.000000 0 0 1
-0.937662 -8.833090 26.393337 27.847997 1.465039 0.324644 0.036336 -0.008419 -285782.000000 0 0 1
-1.034962 -10.038590 27.113737 28.930938 1.468061 0.356316 0.030939 -0.005441 593554.000000 0 0 1
0.263738 -10.950790 27.201637 29.324366 -1.546717 0.382828 0.014472 -0.002651 599340.000000 0 0 1
1.121638 -10.476990 28.205437 30.109335 -1.464145 0.357521 0.011405 -0.002312 -736827.000000 0 0 1
2.272338 -11.261690 28.314037 30.556078 -1.371694 0.385461 0.018106 -0.006062 -334222.000000 0 0 1
3.105538 -10.723790 29.514137 31.555163 -1.288914 0.361637 0.024369 -0.006542 -169531.000000 0 0 1
2.577238 -10.978690 30.786237 32.786677 -1.340222 0.351125 0.021280 -0.004844 -15890.600000 0 0 1
3.205138 -10.168790 31.796337 33.536313 -1.265459 0.323538 0.028284 -0.009307 1060.390000 0 0 1
2.564438 -10.285490 33.240137 34.889459 -1.326452 0.308707 0.030229 -0.011949 -223551.000000 0 0 1
2.818438 -11.459190 33.989637 35.979884 -1.329629 0.334165 0.026957 -0.018583 275444.000000 0 0 1
2.382138 -11.390190 -33.057457 35.045777 -1.364628 2.803126 0.029756 -0.018355 -442245.000000 0 0 1
3.228238 -10.462990 -32.207657 34.018067 -1.271524 2.813880 0.020749 -0.013387 -371124.000000 0 0 1
2.899838 -9.104990 -32.329057 33.711687 -1.262465 2.854202 0.030118 -0.018266 646134.000000 0 0 1
3.860738 -8.328990 -31.601457 32.907894 -1.136748 2.858873 0.035457 -0.016769 205945.000000 0 0 1
3.246138 -7.028590 -31.125957 32.074346 -1.138134 2.897809 0.027521 -0.020980 -194065.000000 0 0 1
2.946938 -6.149690 -32.152457 32.867668 -1.123926 2.932596 0.045965 -0.015668 -98838.900000 0 0 1
2.448038 -4.988790 -31.574657 32.059942 -1.114610 2.967379 0.038337 -0.016504 -40755.500000 0 0 1
2.625838 -3.810390 -32.513257 32.840919 -0.967406 3.000214 0.049285 -0.016177 212327.000000 0 0 1
1.990938 -4.072390 -33.771557 34.074422 -1.116079 3.008164 0.042753 -0.012246 151610.000000 0 0 1
2.385338 -3.072290 33.716437 33.940049 -0.910610 0.114854 0.059218 -0.014787 77152.700000 0 0 1
1.868538 -3.412190 32.300837 32.534267 -1.069792 0.119862 0.053256 -0.016308 266410.000000 0 0 1
0.457538 -3.342890 32.310637 32.486328 -1.434773 0.104048 0.054494 -0.017194 -470440.000000 0 0 1
0.066138 -3.619790 31.016637 31.227216 -1.552527 0.116198 0.040839 -0.008735 -331310.000000 0 0 1
-1.417262 -3.883290 30.745137 31.021799 1.220853 0.133653 0.044786 -0.014596 -366972.000000 0 0 1
-2.178262 -2.700690 30.683737 30.879286 0.892070 0.112600 0.062062 -0.020261 547238.000000 0 0 1
-3.566962 -3.060190 30.508137 30.868016 0.709078 0.152849 0.046963 -0.017615 1185490.000000 0 0 1
-4.468962 -1.882290 30.044037 30.432857 0.398641 0.160023 0.052363 -0.014308 53779.400000 0 0 1
-4.275862 -1.624490 28.628937 28.992033 0.363078 0.158431 0.059538 -0.017342 -543511.000000 0 0 1
-5.273562 -0.924490 27.964437 28.472353 0.173543 0.189168 0.052050 -0.023897 -304244.000000 0 0 1
-5.504862 0.561310 28.265937 28.802461 -0.101615 0.193318 0.057849 -0.020915 -480862.000000 0 0 1
-6.653362 0.721310 29.021837 29.783461 -0.107991 0.226635 0.054046 -0.017318 -841923.000000 0 0 1
-6.925762 2.091110 29.277237 30.157844 -0.293228 0.242253 0.064977 -0.022343 -424819.000000 0 0 1
-8.314762 2.428110 29.797437 31.030924 -0.284123 0.282901 0.043691 -0.016055 208270.000000 0 0 1
-9.397862 1.888910 29.003037 30.546095 -0.198351 0.319208 0.027411 -0.006167 100456.000000 0 0 1
-10.596662 2.509610 29.352037 31.307019 -0.232546 0.355265 0.010241 0.001815 161513.000000 0 0 1
-11.814262 2.058010 28.458537 30.882042 -0.172466 0.398810 0.010359 0.004302 519102.000000 0 0 1
-12.176462 0.732810 28.751337 31.232077 -0.060110 0.401257 0.011245 0.003647 -56804.000000 0 0 1
-12.336262 0.019810 27.537837 30.174761 -0.001606 0.421169 0.007456 0.004970 -755509.000000 0 0 1
-12.295462 -1.499890 27.739537 30.379433 0.121388 0.419967 0.015149 -0.000502 203776.000000 0 0 1
-11.072662 -2.134590 28.070737 30.251059 0.190444 0.381987 0.031470 -0.004736 948010.000000 0 0 1
-9.938662 -2.098490 27.170637 29.007313 0.208088 0.357764 0.026868 -0.001505 476946.000000 0 0 1
-10.062162 -2.701490 25.713037 27.743566 0.262295 0.384967 0.028852 -0.003626 -557886.000000 0 0 1
-10.889362 -1.916990 24.866037 27.213468 0.174257 0.418400 0.020440 -0.005053 308131.000000 0 0 1
-11.003362 -2.526490 23.580737 26.143991 0.225699 0.446518 0.031632 -0.004467 -818984.000000 0 0 1
-9.995762 -2.207690 22.493937 24.713688 0.217373 0.427075 0.034504 -0.009220 253828.000000 0 1 0
-8.673962 -2.638790 22.827137 24.561739 0.295324 0.378072 0.039086 -0.011637 308189.000000 0 1 0
-7.736362 -2.206890 21.855337 23.288998 0.277881 0.352709 0.029651 -0.015788 -275392.000000 0 1 0
-6.294462 -2.201090 22.385437 23.357501 0.336396 0.289512 0.040054 -0.012950 -143014.000000 0 1 0
-5.650362 -3.474590 22.501037 23.458389 0.551327 0.286675 0.042539 -0.012296 54950.700000 0 1 0
-6.062862 -4.337290 23.520437 24.673495 0.620978 0.306924 0.037258 -0.009523 -275378.000000 0 1 0
-5.649762 -5.758290 23.114637 24.481915 0.794911 0.335786 0.038432 -0.006673 301718.000000 0 1 0
-6.498562 -6.323590 22.108137 23.895372 0.771753 0.389219 0.038031 -0.014437 249402.000000 0 1 0
-6.075362 -5.985890 20.823137 22.502088 0.777980 0.388741 0.033682 -0.017091 -532234.000000 0 1 0
-7.216662 -5.936190 19.807437 21.900985 0.688351 0.440805 0.028514 -0.015656 283982.000000 0 1 0
-8.217462 -4.936690 20.039737 22.214605 0.540975 0.446191 0.026777 -0.016623 419631.000000 0 1 0
-9.266962 -4.920090 19.081137 21.775529 0.488083 0.502741 0.029547 -0.011859 416183.000000 0 1 0
-9.811762 -3.481890 18.968937 21.638272 0.341006 0.501966 0.023154 -0.019623 -15080.000000 0 1 0
-8.882462 -2.518890 18.530337 20.703051 0.276326 0.462245 0.021421 -0.022880 56294.800000 0 1 0
-9.460262 -1.250090 18.663137 20.961201 0.131380 0.472648 0.015085 -0.012507 -564476.000000 0 1 0
-8.475562 -0.236090 18.144737 20.028040 0.027848 0.437139 0.008977 -0.013227 -298440.000000 0 1 0
-7.360562 -0.000690 19.002537 20.378280 0.000094 0.369551 0.019258 -0.010670 328894.000000 0 1 0
-7.576262 0.745710 20.193837 21.581170 -0.098111 0.360514 0.024154 -0.010152 -566776.000000 0 1 0
-7.618062 2.246510 19.968537 21.490094 -0.286765 0.378561 0.024325 -0.016099 -66616.700000 0 1 0
-8.732162 2.692010 19.214737 21.276835 -0.299042 0.443903 0.018964 -0.018180 196712.000000 0 1 0
-8.550762 4.017910 18.854837 21.089429 -0.439270 0.464508 0.016609 -0.017750 32936.200000 0 1 0
-9.488262 4.384710 17.670437 20.530396 -0.432887 0.534160 0.018700 -0.012189 -407446.000000 0 1 0
-10.787362 4.592410 18.170337 21.624490 -0.402481 0.573022 0.017367 -0.002815 -488563.000000 0 1 0
-11.601762 5.076110 17.141137 21.311648 -0.412435 0.636286 0.014534 0.009478 -342142.000000 0 1 0
-11.751962 6.615310 17.109937 21.785795 -0.512702 0.667501 0.015473 0.007724 -777050.000000 0 1 0
-10.562562 7.257010 16.747137 21.087876 -0.601982 0.653173 0.015885 0.001446 61178.300000 0 1 0
-10.770662 8.615910 16.613937 21.593146 -0.674706 0.692883 0.006712 0.000762 1150870.000000 0 1 0
-9.405962 9.421710 16.821037 21.451993 -0.786235 0.669512 0.004951 0.004887 1292390.000000 0 1 0
-9.013562 9.744310 18.133337 22.472512 -0.824335 0.631891 0.019070 0.019539 -119856.000000 0 1 0
-8.242562 10.949110 18.285837 22.851579 -0.925501 0.643167 0.029979 0.014249 22093.400000 0 1 0
-8.749662 12.353610 17.814837 23.378124 -0.954543 0.704354 0.022156 0.014940 -329379.000000 0 1 0
-8.685262 12.623910 16.441637 22.474971 -0.968169 0.750199 0.023837 -0.002795 -27096.600000 0 1 0
-9.366962 13.834610 16.017337 23.145010 -0.975628 0.806481 0.031861 -0.010916 -107517.000000 0 1 0
-8.989162 14.301510 14.564237 22.303704 -1.009651 0.859262 0.043659 -0.012871 465120.000000 0 1 0
-7.735862 14.967510 14.559337 22.267559 -1.093765 0.858153 0.028299 -0.001018 34263.500000 0 1 0
-7.551362 15.566410 13.294537 21.819278 -1.119135 0.915616 0.025211 -0.010272 -114403.000000 0 1 0
-6.536562 16.720710 13.307837 22.347423 -1.198137 0.932911 0.005116 -0.000935 -155221.000000 0 1 0
-5.213562 16.288310 13.481337 21.776977 -1.261021 0.903246 0.001617 -0.004344 -884992.000000 0 1 0
-4.416562 17.406310 13.753937 22.619824 -1.322307 0.917197 0.003819 -0.004959 2028700.000000 0 1 0
-2.832362 17.085810 13.827037 22.161546 -1.406518 0.897047 0.012224 -0.008733 1861680.000000 0 1 0
-2.299262 16.389210 14.895637 22.265956 -1.431415 0.837951 0.020999 -0.011640 -292192.000000 0 1 0
-2.591862 14.991510 14.990837 21.358565 -1.399600 0.792783 0.022805 -0.011989 -627038.000000 0 1 0
-1.827262 14.267110 16.082537 21.576314 -1.443415 0.729693 0.021116 -0.010127 -891897.000000 0 1 0
-0.507162 14.162710 15.677337 21.133349 -1.535002 0.735002 0.016173 -0.011224 -1254050.000000 0 1 0
0.338638 13.521010 16.599337 21.411921 1.545756 0.683704 0.022873 -0.000079 330827.000000 0 1 0
1.340138 14.431410 17.369037 22.621782 1.478199 0.695394 0.023642 -0.009291 152153.000000 0 1 0
0.720338 15.337810 18.286637 23.878199 1.523866 0.698466 0.031722 -0.014596 -417758.000000 0 1 0
1.593238 16.380010 18.638537 24.864396 1.473834 0.723327 0.049368 -0.017943 -750241.000000 0 1 0
0.967938 17.580010 19.312737 26.133799 1.515793 0.739219 0.056491 -0.013624 272765.000000 0 0 1
0.287138 18.568910 18.470437 26.192440 1.555334 0.788117 0.038626 -0.012187 372734.000000 0 0 1
-0.940162 18.114310 17.923537 25.500300 -1.518941 0.791364 0.036117 -0.008031 -309626.000000 0 0 1
-1.473662 19.192510 16.908137 25.620484 -1.494164 0.850049 0.032718 -0.006430 -59969.200000 0 0 1
-1.838562 20.457610 17.438437 26.944261 -1.481165 0.866885 0.039985 -0.002180 32072.400000 0 0 1
-2.629462 21.206510 16.547237 27.026675 -1.447433 0.911886 0.031273 -0.006016 -343821.000000 0 0 1
-3.282462 22.428410 17.285937 28.506346 -1.425475 0.919285 0.028485 -0.002593 55868.700000 0 0 1
-4.408262 22.036810 18.065837 28.834497 -1.373361 0.893696 0.037460 -0.002233 126913.000000 0 0 1
-4.843762 23.106810 18.859237 30.216842 -1.364163 0.896779 0.041688 0.000251 78663.300000 0 0 1
-5.999662 22.811110 19.834837 30.818232 -1.313606 0.871594 0.028952 -0.000692 742705.000000 0 0 1
-7.317162 22.832710 19.284137 30.769326 -1.260669 0.893443 0.015951 -0.000215 367241.000000 0 0 1
-8.291562 22.307610 20.187337 31.207500 -1.214929 0.867317 -0.001192 -0.006620 939215.000000 0 0 1
-9.748962 22.496110 19.644137 31.416705 -1.161864 0.895310 -0.008726 -0.008475 517936.000000 0 0 1
-10.064862 23.861110 19.730237 32.556662 -1.171630 0.919739 -0.003749 -0.005721 -718834.000000 0 0 1
-11.310862 24.013210 19.133137 32.720739 -1.130595 0.946236 -0.009025 -0.005472 -523000.000000 0 0 1
-11.923362 25.399010 19.159837 33.976104 -1.131893 0.971670 0.001425 -0.003882 -32058.800000 0 0 1
-12.516862 25.792210 20.385637 35.177892 -1.118981 0.952680 0.000123 -0.002294 28020.400000 0 0 1
-13.219862 27.002910 20.345837 36.302548 -1.115526 0.975865 0.011668 -0.002343 -552641.000000 0 0 1
-13.932662 27.173910 21.687937 37.455401 -1.097023 0.953253 0.028682 -0.011955 -515827.000000 0 0 1
-15.147762 26.454910 21.728137 37.435663 -1.050777 0.951561 0.013536 -0.014938 -254840.000000 0 0 1
-15.842562 26.670610 22.935437 38.579042 -1.034794 0.934146 0.003327 -0.005393 -311054.000000 0 0 1
-17.330362 26.381010 22.718337 38.889870 -0.989568 0.946938 0.009432 0.000060 -387892.000000 0 0 1
-17.503962 24.984610 22.639937 37.989290 -0.959675 0.932341 0.017846 -0.004169 55753.000000 0 0 1
-18.853362 24.690310 22.999937 38.653043 -0.918652 0.933486 0.024058 0.005380 187526.000000 0 0 1
28.036638 24.215910 23.763631 44.013333 0.712408 1.000456 0.104350 -0.029483 -59988.200000 0 0 1
27.523438 23.413110 24.772571 43.810885 0.704878 0.969826 0.080557 -0.036554 -218390.000000 0 0 1
26.882538 22.295310 24.265551 42.527270 0.692389 0.963575 0.071377 -0.017490 -425185.000000 0 0 1
26.433038 21.442910 25.497371 42.527871 0.681543 0.927864 0.074012 -0.018173 1106070.000000 0 0 1
25.207738 21.899610 26.152881 42.414575 0.715288 0.906378 0.079042 -0.019068 1035600.000000 0 0 1
24.942838 21.063510 27.214861 42.502533 0.701276 0.875893 0.073016 -0.020426 -381399.000000 0 0 1
23.618338 21.451010 27.862381 42.358990 0.737346 0.852945 0.091261 -0.025121 -528416.000000 0 0 1
23.580238 22.633010 28.611391 43.438375 0.764904 0.851752 0.122048 -0.037564 389877.000000 0 0 1
22.464638 22.572010 29.512301 43.418101 0.787782 0.823411 0.128690 -0.030586 480873.000000 0 0 1
22.150338 24.013210 30.092621 44.416636 0.825730 0.826427 0.123765 -0.031316 -126046.000000 0 0 1
21.664238 24.987110 29.186771 44.108531 0.856506 0.847708 0.125338 -0.033899 290980.000000 0 0 1
20.977138 26.143110 29.656731 44.755158 0.894596 0.846453 0.108709 -0.031550 1277030.000000 0 0 1
19.540338 26.012710 30.297641 44.457091 0.926538 0.820982 0.099347 -0.026333 176732.000000 0 0 1
18.415638 25.942910 29.438111 43.344811 0.953489 0.824177 0.099471 -0.030592 1395560.000000 0 0 1
17.212538 26.451610 30.097481 43.609833 0.993917 0.809095 0.084512 -0.024890 1219410.000000 0 0 1
16.475138 25.527510 31.090331 43.470595 0.997670 0.773881 0.048064 -0.014468 -1284810.000000 0 0 1
17.181138 25.304010 32.237581 44.438115 0.974311 0.759110 0.067653 -0.018619 110705.000000 0 0 1
16.507338 24.309010 33.029759 44.208429 0.974261 0.727052 0.049734 -0.016767 -8873.570000 0 0 1
17.288638 24.069510 -34.132557 45.202541 0.947907 2.426607 0.073813 -0.021477 -426751.000000 0 0 1
17.293038 25.277710 -33.360943 45.287573 0.970806 2.398895 0.073735 -0.027356 296044.000000 0 0 1
17.897538 25.087710 -32.067113 44.474878 0.951134 2.376064 0.053385 -0.014634 252926.000000 0 0 1
18.336038 26.440810 -31.446843 44.991451 0.964463 2.344727 0.053665 -0.007566 -327970.000000 0 0 1
17.187038 27.142010 -31.104833 44.716816 1.006303 2.340045 0.068165 -0.015606 39075.200000 0 0 1
17.613938 28.309010 -30.406633 45.124430 1.014211 2.310190 0.077645 -0.021311 167025.000000 0 0 1
16.958838 28.484610 -29.047513 44.076447 1.033789 2.290319 0.087225 -0.019449 -160639.000000 0 0 1
17.576438 27.648610 -28.101673 43.163420 1.004534 2.279767 0.058889 -0.009991 174041.000000 0 0 1
16.994638 27.827210 -26.835273 42.229175 1.022532 2.259410 0.056503 -0.004620 -347056.000000 0 0 1
17.684138 27.089710 -25.715123 41.326126 0.992456 2.242408 0.037803 0.001804 -618711.000000 0 0 1
19.007338 27.448710 -25.457503 41.985653 0.965144 2.222244 0.033183 0.004922 -702812.000000 0 0 1
19.535938 26.594310 -24.461863 41.076671 0.937230 2.208706 0.029675 0.006607 951056.000000 0 0 1
21.097638 26.752710 -24.330563 41.866384 0.903035 2.190935 0.026115 0.008973 864088.000000 0 0 1
21.693538 25.956910 -23.325463 41.090729 0.874632 2.174454 0.022887 0.007089 56234.900000 0 0 1
23.094438 26.202010 -23.354963 42.016100 0.848353 2.160190 0.034147 0.011060 368838.000000 0 0 1
23.763638 26.021210 -22.011063 41.548775 0.830714 2.129119 0.046494 0.002778 16300.500000 0 0 1
23.376638 24.754110 -21.499763 40.267517 0.814010 2.134030 0.037564 0.004738 107151.000000 0 0 1
23.886638 24.698810 -20.216463 39.866127 0.802113 2.102623 0.036652 0.002483 -446330.000000 0 0 1
23.403138 23.624010 -19.248863 38.422902 0.790095 2.095520 0.027188 -0.000092 -816955.000000 0 0 1
23.795838 22.280610 -19.537563 38.005050 0.752525 2.110729 0.037760 -0.003763 227312.000000 0 0 1
23.458338 21.334310 -18.493063 36.707489 0.738015 2.098783 0.039256 -0.008081 -852547.000000 0 0 1
23.715738 19.851910 -19.072763 36.335999 0.696944 2.123394 0.051286 -0.021843 379457.000000 0 0 1
22.877338 19.365010 -20.134263 36.107683 0.702442 2.162309 0.034056 -0.020789 11202.000000 0 0 1
21.511038 19.491010 -19.854863 35.168733 0.736171 2.170697 0.030254 -0.021162 -711434.000000 0 0 1
20.535238 19.424710 -21.071163 35.256336 0.757614 2.211371 0.025680 -0.014466 240498.000000 0 0 1
20.599438 20.434810 -22.100363 36.473886 0.781386 2.221722 0.025731 -0.010467 -63210.900000 0 0 1
20.546238 21.807010 -21.642563 36.960710 0.815157 2.196362 0.018866 -0.006106 -42105.400000 0 0 1
20.295038 22.742910 -22.870563 38.107626 0.842214 2.214494 0.031763 -0.004447 516940.000000 0 0 1
18.938838 22.576210 -23.264263 37.544517 0.872791 2.239086 0.040044 -0.005332 28.795300 0 0 1
18.641038 23.056910 -24.557363 38.499006 0.890906 2.262526 0.035721 -0.002771 1912330.000000 0 0 1
17.053138 23.143610 -24.785163 37.957087 0.935771 2.282307 0.039034 -0.006245 2217640.000000 0 0 1
16.425838 24.246510 -24.061563 37.903301 0.975364 2.258565 0.033569 -0.006269 1612010.000000 0 0 1
14.992538 24.327710 -24.273063 37.493936 1.018496 2.274947 0.041746 -0.009239 1636710.000000 0 0 1
14.193938 25.549810 -23.732763 37.649764 1.063710 2.252808 0.033610 0.001454 156670.000000 0 0 1
14.360838 26.805810 -24.418963 39.000908 1.078970 2.247354 0.041417 0.003163 274377.000000 0 0 1
13.323038 27.722310 -24.095063 39.071753 1.122798 2.235324 0.044820 0.006123 340643.000000 0 0 1
13.501138 29.024110 -24.906663 40.558865 1.135399 2.232025 0.042911 0.003214 127340.000000 0 0 1
13.478738 28.865010 -26.319223 41.322714 1.133930 2.261292 0.054128 -0.010126 -134368.000000 0 0 1
13.155538 30.076610 -26.999143 42.504404 1.158469 2.259074 0.072884 -0.017054 -213021.000000 0 0 1
14.069938 31.339910 -26.926253 43.648324 1.148819 2.235583 0.078690 -0.015988 1071840.000000 0 0 1
15.300038 31.083010 -27.678613 44.343548 1.113383 2.244885 0.069810 -0.001988 929345.000000 0 0 1
16.055438 32.289810 -27.765253 45.511737 1.109368 2.226943 0.074245 -0.014895 -43740.200000 0 0 1
17.533038 32.030210 -28.123563 46.089875 1.069959 2.227096 0.073381 -0.002191 -54578.600000 0 0 1
18.261038 31.550410 -27.000773 45.364475 1.046119 2.208306 0.039094 0.003497 806224.000000 0 0 1
19.579538 31.069110 -27.276403 45.745492 1.008471 2.209636 0.031305 -0.000109 360940.000000 0 0 1
20.359838 30.274610 -26.180373 44.905311 0.978762 2.193228 0.017206 0.009208 -1006410.000000 0 0 1
20.721938 30.993210 -25.053563 44.918357 0.981459 2.162478 0.032187 0.006955 217622.000000 0 0 1
21.651138 32.068710 -25.169183 46.159091 0.976945 2.147508 0.037982 -0.000987 212212.000000 0 0 1
23.077238 31.687010 -25.674283 46.859303 0.941337 2.150650 0.018166 0.003532 -551011.000000 0 0 1
23.118238 31.252910 -26.992913 47.326680 0.933910 2.177732 0.012820 0.010589 682481.000000 0 0 1
24.423538 31.312810 -27.610063 48.366485 0.908379 2.178338 0.006148 0.018966 410164.000000 0 0 1
24.389638 30.760010 -29.050463 48.836073 0.900399 2.207884 -0.008976 0.018046 -124827.000000 0 0 1
23.582238 31.513010 -29.917043 49.439065 0.928363 2.220725 0.013704 0.000721 234606.000000 0 0 1
22.253138 31.026910 -30.018443 48.569313 0.948606 2.237061 0.009670 -0.001972 -128635.000000 0 0 1
21.290038 31.809610 -30.904423 49.195532 0.980976 2.250028 0.017762 -0.004811 -712551.000000 0 0 1
20.774738 33.095810 -30.475853 49.555020 1.010247 2.233170 0.037225 -0.012090 240860.000000 0 0 1
19.913338 33.725810 -31.386813 50.190669 1.037430 2.246378 0.052794 -0.023900 -1200150.000000 0 0 1
18.470038 33.285810 -31.334133 49.304313 1.064205 2.259485 0.060114 -0.025849 -1588560.000000 0 0 1
17.917838 32.053410 -31.614093 48.455349 1.061070 2.281593 0.075778 -0.032333 44565.800000 0 0 1
18.289938 31.473010 -32.875223 49.049490 1.044367 2.305336 0.088807 -0.042155 -389080.000000 0 0 1
17.694138 32.136710 -34.175232 50.137781 1.067501 2.320779 0.109618 -0.048339 -374537.000000 0 0 1
18.099638 33.497110 34.039955 51.072221 1.075404 0.841284 0.096099 -0.038565 93658.200000 0 0 1
17.593638 34.140210 32.884512 50.561657 1.094956 0.862706 0.087555 -0.038931 114496.000000 0 0 1
16.069038 -34.021222 32.763652 49.891026 -1.129534 0.854356 0.098965 -0.038239 -331448.000000 0 0 1
15.238038 33.261510 32.405387 48.873663 1.141204 0.845919 0.105047 -0.039156 618019.000000 0 0 1
13.862838 33.571210 32.633651 48.827857 1.179186 0.838820 0.083325 -0.037702 623400.000000 0 0 1
13.100838 -33.993922 31.590841 48.220327 -1.202950 0.856435 0.077089 -0.030098 -1039670.000000 0 0 1
13.484338 -32.647322 31.579261 47.380637 -1.179108 0.841290 0.096326 -0.025467 223407.000000 0 0 1
12.774638 -31.922422 30.586921 46.019476 -1.190137 0.843769 0.086086 -0.030937 -109780.000000 0 0 1
13.486238 -30.619922 30.137971 45.030607 -1.155921 0.837560 0.073856 -0.031288 -98706.700000 0 0 1
13.113838 -29.594822 31.008601 44.825881 -1.153685 0.806878 0.070716 -0.024818 275701.000000 0 0 1
13.672638 -28.363922 30.644251 43.937720 -1.121617 0.798967 0.076540 -0.029916 -298482.000000 0 0 1
13.146538 -27.241322 31.592241 43.737750 -1.121169 0.763659 0.068395 -0.030674 -383121.000000 0 0 1
11.813438 -26.832722 31.530101 43.054612 -1.156070 0.749062 0.053077 -0.032212 -518799.000000 0 0 1
11.492138 -25.877022 30.590631 41.683045 -1.152855 0.746770 0.030676 -0.026439 -451657.000000 0 0 1
11.814538 -24.446122 30.961501 41.180223 -1.120607 0.719927 0.037730 -0.026987 -463417.000000 0 0 1
10.940038 -23.959122 31.937971 41.397560 -1.142457 0.689610 0.035497 -0.028880 -92085.500000 0 0 1
11.335538 -22.757922 32.561120 41.311548 -1.108676 0.662943 0.030074 -0.025160 405698.000000 0 0 1
10.317538 -22.419022 33.737165 41.800245 -1.139481 0.631565 0.033536 -0.027266 -14982.300000 0 0 1
10.260438 -23.217922 -33.502953 42.033277 -1.154683 2.493204 0.034744 -0.021316 632090.000000 0 0 1
11.492638 -23.514522 -32.820423 41.978490 -1.116192 2.468406 0.043104 -0.023661 893028.000000 0 0 1
12.311138 -22.308922 -32.240173 41.093562 -1.066535 2.472775 0.041714 -0.027063 -75454.600000 0 0 1
12.627038 -21.256222 -33.143043 41.348886 -1.034771 2.500673 0.031031 -0.024457 -410590.000000 0 0 1
13.483538 -20.308122 -32.627163 40.727845 -0.984678 2.499931 0.037105 -0.024087 -462250.000000 0 0 1
13.582138 -19.134022 -33.586303 40.971027 -0.953495 2.531784 0.030605 -0.020157 -349956.000000 0 0 1
14.219138 -19.563422 33.623099 41.417679 -0.942294 0.623559 0.052983 -0.013906 287609.000000 0 0 1
14.167738 -18.651422 32.512907 40.071055 -0.921175 0.624285 0.024415 -0.009211 -532097.000000 0 0 1
15.098138 -17.398022 32.534573 39.864061 -0.856054 0.616101 0.049547 -0.013875 -518972.000000 0 0 1
14.843338 -16.461822 33.538174 40.201062 -0.837052 0.584005 0.051788 -0.015156 477063.000000 0 0 1
15.715738 -15.334022 33.477282 40.035548 -0.773105 0.580499 0.067703 -0.026772 -520305.000000 0 0 1
17.164038 -15.389422 33.905326 41.000118 -0.730938 0.597123 0.068667 -0.015683 -769775.000000 0 0 1
17.973738 -16.243822 33.154060 41.062254 -0.734885 0.631048 0.073592 -0.014321 417480.000000 0 0 1
19.367938 -16.159622 33.456873 41.900033 -0.695337 0.646009 0.091074 -0.015877 778804.000000 0 0 1
20.262538 -16.915722 32.436057 41.818775 -0.695619 0.683078 0.120784 -0.028033 -382380.000000 0 0 1
20.368438 -16.187122 31.188931 40.615830 -0.671511 0.695239 0.093722 -0.011518 572598.000000 0 0 1
21.249438 -16.776222 30.233171 40.583554 -0.668300 0.730320 0.091652 -0.015319 -236553.000000 0 0 1
21.383138 -15.839222 28.999481 39.358474 -0.637545 0.742465 0.076185 -0.006946 -836100.000000 0 0 1
22.334138 -14.856322 29.207181 39.655812 -0.586976 0.742890 0.067479 -0.010360 43821.300000 0 0 1
22.522938 -14.028122 28.103011 38.650358 -0.557042 0.756695 0.055463 -0.011631 -52704.900000 0 0 1
23.307238 -12.747922 28.413191 38.897896 -0.500499 0.751807 0.039325 -0.004275 9412.090000 0 0 1
22.479238 -11.657722 28.712681 38.283635 -0.478416 0.722736 0.043259 -0.002222 573897.000000 0 0 1
23.305038 -10.488822 28.895961 38.576116 -0.422909 0.724149 0.051287 -0.010311 459551.000000 0 0 1
22.503838 -9.145122 29.010741 37.837535 -0.385995 0.697082 0.055658 -0.009070 -327880.000000 0 0 1
21.499138 -9.272622 29.936121 38.004813 -0.407196 0.663741 0.068555 -0.014304 -140222.000000 0 0 1
20.463338 -8.276222 29.739541 37.036257 -0.384329 0.638510 0.079317 -0.022391 1090170.000000 0 0 1
19.310338 -8.357422 30.790941 37.293669 -0.408455 0.599470 0.066246 -0.016264 264809.000000 0 0 1
19.683538 -7.898222 32.105591 38.478469 -0.381592 0.583793 0.073683 -0.022922 311746.000000 0 0 1
20.175938 -8.926722 32.929894 39.637517 -0.416553 0.590296 0.078147 -0.023001 -491432.000000 0 0 1
20.168538 -8.529722 -33.999113 40.440892 -0.400109 2.569392 0.088850 -0.034167 -197839.000000 0 0 1
18.872738 -8.285022 -33.503163 39.335528 -0.413664 2.590070 0.070963 -0.035369 34424.200000 0 0 1
18.859438 -7.649022 -32.221933 38.110876 -0.385308 2.578257 0.068385 -0.037312 -255796.000000 0 0 1
17.457038 -7.253222 -31.728153 36.932819 -0.393788 2.604261 0.063510 -0.027835 -74055.600000 0 0 1
17.573138 -6.571222 -30.488293 35.798494 -0.357837 2.589949 0.055059 -0.021416 672711.000000 0 0 1
16.310338 -6.230122 -29.936723 34.656153 -0.364871 2.613602 0.048669 -0.011991 371386.000000 0 0 1
16.574638 -5.063022 -28.914453 33.710509 -0.296466 2.601631 0.031898 -0.003865 -69178.700000 0 0 1
17.358138 -5.333422 -27.760643 33.172333 -0.298102 2.562321 0.034496 -0.004674 429364.000000 0 0 1
16.831238 -6.291122 -26.822643 32.285027 -0.357698 2.551353 0.043315 -0.006914 373121.000000 0 0 1
15.460738 -5.918422 -26.148213 30.948202 -0.365594 2.577179 0.040995 -0.010399 428495.000000 0 0 1
15.487438 -4.753722 -25.308803 30.049861 -0.297812 2.572197 0.022004 -0.007498 -694781.000000 0 0 1
14.231238 -4.602122 -24.730963 28.902045 -0.312768 2.597664 0.037043 -0.019192 -503487.000000 0 0 1
13.990638 -3.407222 -23.766963 27.788768 -0.238886 2.596872 0.035769 -0.023665 19323.800000 0 0 1
13.994838 -2.153222 -24.403863 28.214188 -0.152661 2.615847 0.025255 -0.026715 51023.100000 0 0 1
13.752938 -1.070222 -23.502463 27.251687 -0.077661 2.610832 0.032076 -0.021990 -3642.330000 0 0 1
14.043738 0.350778 -24.050363 27.852640 0.024972 2.612937 0.021554 -0.022164 -632199.000000 0 0 1
13.210438 0.738778 -25.099263 28.373129 0.055866 2.656462 0.031724 -0.025579 -133238.000000 0 0 1
13.703338 1.904778 -25.737973 29.220761 0.138116 2.648369 0.028874 -0.014729 70690.900000 0 0 1
12.773238 2.449778 -26.879443 29.860701 0.189489 2.690936 0.037707 -0.023116 127255.000000 0 0 1
11.578138 3.007778 -26.381433 28.966878 0.254163 2.715880 0.053306 -0.029161 293649.000000 0 0 1
10.752238 3.524778 -27.439583 29.681061 0.316779 2.750469 0.052762 -0.028573 985465.000000 0 0 1
9.485438 4.345778 -26.978363 28.925618 0.429613 2.772571 0.054676 -0.028189 605864.000000 0 0 1
9.798138 5.516778 -26.273243 28.578342 0.512802 2.737199 0.063232 -0.033050 624313.000000 0 0 1
8.599538 6.252778 -25.993393 28.083906 0.628687 2.753313 0.067272 -0.029838 500442.000000 0 0 1
8.442838 4.768010 -31.439493 32.900717 0.514090 2.842441 0.039156 -0.016330 -30271.300000 0 0 1
8.149238 3.795110 -30.480483 31.778496 0.435834 2.854794 0.037977 -0.013510 378335.000000 0 0 1
8.004738 2.496010 -30.974923 32.089745 0.302262 2.877230 0.036805 -0.012830 -285411.000000 0 0 1
7.849838 1.456210 -29.844683 30.894103 0.183423 2.880203 0.044493 -0.019163 -18238.400000 0 0 1
8.996638 1.240110 -29.029443 30.416869 0.136978 2.838394 0.055028 -0.026956 385032.000000 0 0 1
8.829738 0.241610 -28.023503 29.382637 0.027356 2.836249 0.052207 -0.028460 -428985.000000 0 0 1
10.156438 -0.137090 -27.364473 29.188806 -0.013497 2.786168 0.056694 -0.032442 -261942.000000 0 0 1
10.995838 -0.966590 -28.179263 30.264065 -0.087680 2.768249 0.042819 -0.022288 -15910.100000 0 0 1
12.028138 -1.420290 -27.348533 29.910459 -0.117536 2.724688 0.046521 -0.022482 -213956.000000 0 0 1
12.577338 -2.803990 -27.787053 30.629595 -0.219353 2.707367 0.041124 -0.013701 210835.000000 0 0 1
11.658538 -3.831590 -27.432713 30.052559 -0.317531 2.720945 0.050409 -0.007073 690205.000000 0 0 1
12.212238 -5.133790 -27.747633 30.747775 -0.397952 2.696167 0.054097 -0.012585 -209534.000000 0 0 1
11.371738 -6.242490 -27.144243 30.084797 -0.502035 2.695774 0.043878 -0.021958 -217647.000000 0 0 1
11.332638 -6.142190 -25.715243 28.765064 -0.496674 2.676935 0.051432 -0.014592 117741.000000 0 0 1
10.648738 -7.210190 -25.087783 28.191831 -0.595186 2.667912 0.061493 -0.020484 -53941.500000 0 0 1
10.536638 -6.906190 -23.600163 26.752269 -0.580194 2.651256 0.063298 -0.021556 -277506.000000 0 0 1
11.766538 -6.883790 -22.912863 26.661532 -0.529340 2.604887 0.053649 -0.021750 23067.600000 0 0 1
11.592138 -6.990490 -21.513663 25.418149 -0.542650 2.579966 0.070311 -0.037148 373331.000000 0 0 1
12.964138 -7.001490 -20.779163 25.472796 -0.495184 2.524803 0.068375 -0.032307 653886.000000 0 0 1
13.650038 -5.759690 -20.655563 25.419478 -0.399288 2.519375 0.046534 -0.030391 -190561.000000 0 0 1
14.996938 -5.945890 -20.288163 25.920481 -0.377463 2.469801 0.056541 -0.025480 -213216.000000 0 0 1
15.559038 -4.612890 -19.751463 25.563308 -0.288221 2.453800 0.051616 -0.025902 -448109.000000 0 0 1
16.034038 -3.661790 -20.701063 26.439234 -0.224525 2.470218 0.035725 -0.024845 89790.400000 0 0 1
16.312138 -2.446390 -20.139063 26.031760 -0.148864 2.455353 0.032171 -0.011563 -488523.000000 0 0 1
17.223538 -1.519190 -20.941863 27.157316 -0.087977 2.451413 0.020275 -0.013633 163307.000000 0 0 1
18.509138 -2.103490 -21.084663 28.134958 -0.113161 2.417969 0.031045 -0.020404 621746.000000 0 0 1
19.494938 -1.130490 -21.541963 29.075536 -0.057924 2.405201 0.032649 -0.012091 -515059.000000 0 0 1
20.768538 -1.801290 -21.938863 30.263683 -0.086515 2.381720 0.031929 -0.017357 -2236760.000000 0 0 1
21.617138 -1.987190 -20.810063 30.071719 -0.091669 2.335072 0.038731 -0.014934 1498710.000000 0 0 1
22.868538 -2.642290 -21.215063 31.305441 -0.115033 2.315399 0.037928 -0.013839 1719230.000000 0 0 1
23.871338 -1.886190 -22.148163 32.618087 -0.078851 2.317216 0.051322 -0.017823 -1356370.000000 0 0 1
23.494938 -1.789990 -23.475463 33.261292 -0.076039 2.354333 0.050514 -0.020835 -221959.000000 0 0 1
24.433038 -1.221890 -24.345063 34.513019 -0.049968 2.353766 0.051242 -0.012436 258986.000000 0 0 1
25.724438 -2.024390 -24.736163 35.745246 -0.078533 2.335070 0.061043 -0.018425 47413.800000 0 0 1
26.684038 -1.931190 -23.716963 35.752786 -0.072247 2.296096 0.067033 -0.014264 1105760.000000 0 0 1
27.949838 -2.609890 -23.979263 36.918966 -0.093108 2.277737 0.056017 -0.008749 1399510.000000 0 0 1
29.052738 -1.848890 -24.729163 38.197009 -0.063553 2.274979 0.057429 -0.016427 -704251.000000 0 0 1
28.816438 -1.748790 -26.115273 38.928818 -0.060613 2.306146 0.074835 -0.016937 124114.000000 0 0 1
29.337538 -0.611890 -26.708443 39.678791 -0.020854 2.309211 0.067508 -0.018119 -939906.000000 0 0 1
28.771238 -0.396890 -28.116763 40.230511 -0.013794 2.344643 0.057476 -0.020271 1110520.000000 0 0 1
27.397138 0.065710 -28.152633 39.283307 0.002398 2.369793 0.056561 -0.014224 1231960.000000 0 0 1
27.172838 1.378610 -27.632053 38.778783 0.050691 2.363931 0.048998 -0.007707 -345019.000000 0 0 1
25.706438 1.860010 -27.894793 37.978942 0.072230 2.395697 0.052552 -0.021334 241881.000000 0 0 1
24.754638 1.252410 -27.071953 36.704922 0.050550 2.400241 0.063094 -0.021283 -266808.000000 0 0 1
23.476138 1.694910 -27.468523 36.173492 0.072072 2.433118 0.054599 -0.020621 -725995.000000 0 0 1
22.348138 1.299410 -26.551263 34.728912 0.058079 2.441107 0.058786 -0.021387 -641859.000000 0 0 1
22.455238 1.978810 -25.328483 33.907012 0.087895 2.414332 0.066310 -0.025017 373079.000000 0 0 1
21.639338 1.458310 -24.283963 32.559153 0.067290 2.412593 0.051431 -0.020903 -139355.000000 0 0 1
21.545938 2.159210 -22.923263 31.533563 0.099881 2.384663 0.052283 -0.018645 -347255.000000 0 0 1
21.189638 3.504510 -22.839663 31.351755 0.163904 2.386922 0.060897 -0.020248 348896.000000 0 0 1
21.304538 3.943510 -21.461263 30.496236 0.183030 2.351437 0.054295 -0.016462 -237820.000000 0 0 1
20.780438 5.351010 -21.157063 30.134386 0.252027 2.349125 0.053702 -0.008830 -333581.000000 0 0 1
21.590138 6.367810 -21.691263 31.260102 0.286809 2.337682 0.071216 -0.004920 296977.000000 0 0 1
21.286738 7.656610 -21.120863 30.948986 0.345280 2.321894 0.069432 -0.003785 -121512.000000 0 0 1
21.812038 7.894010 -19.660163 30.407275 0.347246 2.273864 0.068800 -0.008385 -1198060.000000 0 0 1
23.165338 8.174710 -19.603063 31.428313 0.339243 2.244313 0.098924 -0.011316 -771616.000000 0 0 1
23.638438 8.353010 -18.307563 31.043766 0.339670 2.201526 0.093291 -0.022460 -77804.400000 0 0 1
23.313138 9.743610 -17.663363 30.829121 0.395880 2.180890 0.088965 -0.029989 -1048700.000000 0 0 1
21.952838 9.927510 -17.481163 29.766989 0.424698 2.198474 0.067243 -0.026397 -691135.000000 0 0 1
21.618438 11.280810 -17.152063 29.812863 0.480946 2.183797 0.033957 -0.020133 152296.000000 0 0 1
20.089038 11.502110 -16.956463 28.694766 0.519996 2.203002 0.029228 -0.014799 554392.000000 0 0 1
19.320938 11.506310 -18.161763 28.905768 0.537131 2.250174 0.018488 -0.014918 224744.000000 0 0 1
18.827938 10.246210 -18.532763 28.336185 0.498381 2.283698 0.021598 -0.007358 -496743.000000 0 0 1
17.981038 10.339210 -19.812463 28.683631 0.521839 2.333286 0.010395 -0.005572 493536.000000 0 0 1
18.811638 10.435710 -21.000963 30.063636 0.506481 2.344166 0.022254 -0.011102 1003020.000000 0 0 1
18.032138 10.022510 -22.127163 30.252604 0.507296 2.391189 0.019966 -0.004883 348191.000000 0 0 1
18.839738 10.158810 -23.467663 31.762688 0.494531 2.402149 0.032952 -0.006136 -48211.700000 0 0 1
19.143938 11.487110 -23.729663 32.581298 0.540448 2.386666 0.039023 -0.010174 -100659.000000 0 0 1
19.820338 11.637210 -24.931763 33.909634 0.530906 2.396819 0.058439 -0.015155 -253233.000000 0 0 1
20.200638 13.137210 -24.988463 34.714195 0.576612 2.374360 0.071969 -0.026632 460852.000000 0 0 1
21.119838 13.556910 -26.025203 36.154509 0.570663 2.374358 0.071353 -0.026119 598069.000000 0 0 1
21.154138 14.951210 -26.236283 36.869754 0.615258 2.362560 0.074256 -0.028785 738825.000000 0 0 1
19.950038 15.607510 -27.051633 37.059266 0.663873 2.389054 0.069098 -0.026111 972462.000000 0 0 1
18.712538 15.492610 -26.398173 35.875389 0.691539 2.397687 0.061752 -0.024933 -1258030.000000 0 0 1
17.640138 15.873910 -27.160523 36.067291 0.732746 2.423484 0.051401 -0.027002 47566.100000 0 0 1
16.266038 15.494610 -26.506993 34.746044 0.761114 2.438549 0.045246 -0.027026 432235.000000 0 0 1
15.921738 14.121410 -26.617873 34.079717 0.725545 2.467138 0.040155 -0.015876 851452.000000 0 0 1
14.639338 13.839010 -26.026233 32.911901 0.757303 2.482887 0.015190 -0.008167 685491.000000 0 0 1
14.374038 12.294910 -25.997713 32.150565 0.707595 2.512606 0.013127 -0.006243 428839.000000 0 0 1
13.072138 11.788610 -25.698803 31.149327 0.733815 2.541033 0.020431 -0.008017 498399.000000 0 0 1
13.134538 10.382510 -25.726883 30.695034 0.668905 2.564669 0.025464 -0.015297 -224211.000000 0 0 1
11.744238 9.746610 -25.597973 29.802345 0.692712 2.603963 0.041883 -0.020246 -132808.000000 0 0 1
11.097238 10.042510 -24.401963 28.626150 0.735546 2.591423 0.058793 -0.031801 -197724.000000 0 0 1
9.809038 9.489810 -24.248663 27.825732 0.768858 2.628942 0.068251 -0.032049 -40712.700000 0 0 1
9.111438 10.021310 -22.996263 26.688444 0.832918 2.609320 0.077402 -0.030102 -298071.000000 0 0 1
8.393638 11.219910 -23.197763 27.101213 0.928511 2.598216 0.070460 -0.036236 -16756.700000 0 0 1
7.811938 11.885710 -22.067063 26.253604 0.989338 2.569066 0.069742 -0.030530 18869.400000 0 0 1
8.768238 12.737510 -21.239263 26.272275 0.967912 2.512274 0.063873 -0.028420 17537.300000 0 0 1
9.626638 11.920210 -20.428063 25.535648 0.891445 2.498062 0.075890 -0.032972 -394158.000000 0 0 1
10.561638 12.704410 -19.755963 25.753607 0.877238 2.445127 0.077303 -0.027937 -707437.000000 0 0 1
11.702038 11.838510 -19.210863 25.419388 0.791195 2.427605 0.070703 -0.025561 50371.300000 0 0 1
12.682138 11.346310 -20.129363 26.358426 0.729862 2.439788 0.044720 -0.020144 413919.000000 0 0 1
12.217238 10.233610 -20.916563 26.296203 0.697273 2.490499 0.051957 -0.024726 -771597.000000 0 0 1
13.264138 9.451410 -21.703263 27.134814 0.619102 2.497810 0.042994 -0.016017 -448520.000000 0 0 1
14.088538 8.641910 -20.918663 26.660082 0.550214 2.472917 0.052405 -0.019988 54795.000000 0 0 1
15.042238 8.006810 -21.742863 27.624808 0.489143 2.476853 0.043615 -0.018530 -319994.000000 0 0 1
15.649638 6.734710 -21.109163 27.126818 0.406387 2.462536 0.064383 -0.020787 -269618.000000 0 0 1
16.353538 7.034810 -19.957963 26.744103 0.406242 2.413217 0.036843 -0.012580 -396109.000000 0 0 1
16.969238 5.865610 -19.565763 26.555216 0.332804 2.399115 0.030382 -0.017629 -481797.000000 0 0 1
17.673938 5.874910 -18.224763 26.058101 0.320915 2.345339 0.047903 -0.017505 330579.000000 0 0 1
18.991738 6.480910 -18.270763 27.138701 0.328858 2.309373 0.042952 -0.025338 1074240.000000 0 0 1
19.478638 6.631310 -16.946863 26.656852 0.328133 2.259765 0.050321 -0.041737 -194825.000000 0 0 1
20.167238 5.380310 -16.356363 26.517840 0.260713 2.235475 0.074191 -0.049000 -1162280.000000 0 0 1
21.442338 5.143210 -16.858563 27.756758 0.235415 2.223539 0.070792 -0.040094 -113928.000000 0 0 1
22.180938 4.290710 -15.970663 27.667061 0.191081 2.186147 0.095281 -0.049595 -182206.000000 0 0 1
23.555638 3.943910 -16.550363 29.057478 0.165891 2.176783 0.068276 -0.010179 -339359.000000 0 0 1
24.191938 2.895910 -15.849763 29.066323 0.119139 2.147539 0.062673 -0.016187 -105385.000000 0 0 1
25.440138 2.569110 -16.399263 30.376583 0.100645 2.141073 0.067208 -0.017249 -91933.800000 0 0 1
26.122338 1.407210 -15.569363 30.442763 0.053818 2.107645 0.081028 -0.025207 67539.300000 0 0 1
25.574238 0.094310 -15.662963 29.989647 0.003688 2.120318 0.081443 -0.025558 321594.000000 0 0 1
26.622838 -0.868690 -15.701263 30.920216 -0.032618 2.103425 0.071806 -0.015700 117797.000000 0 0 1
26.167338 -2.299490 -15.985163 30.749678 -0.087651 2.117470 0.058778 -0.014043 -277509.000000 0 0 1
25.456938 -2.955890 -14.953663 29.671620 -0.115596 2.098988 0.059025 -0.015682 539269.000000 0 0 1
25.244938 -4.325290 -15.152863 29.759440 -0.169685 2.105026 0.047579 -0.004589 -1412060.000000 0 0 1
24.631338 -5.015590 -13.957363 28.751816 -0.200880 2.077666 0.042537 -0.005805 877716.000000 0 0 1
23.269538 -4.708290 -13.589163 27.355159 -0.199642 2.090667 0.050913 -0.004146 1033960.000000 0 0 1
22.325138 -5.146790 -14.507863 27.117878 -0.226579 2.135295 0.053827 -0.005260 -675083.000000 0 0 1
20.854638 -5.308890 -14.008263 25.677455 -0.249272 2.147838 0.066367 -0.013020 234030.000000 0 0 1
20.586038 -6.433090 -13.141563 25.256094 -0.302883 2.118036 0.068345 -0.010163 421737.000000 0 0 1
20.884638 -6.118190 -11.800763 24.755976 -0.284978 2.067674 0.081039 -0.012767 -480066.000000 0 1 0
20.660938 -7.351490 -10.873463 24.477560 -0.341847 2.031102 0.078151 -0.010971 556005.000000 0 1 0
19.310838 -7.834190 -10.857263 23.498152 -0.385401 2.051099 0.084614 -0.014581 1060940.000000 0 1 0
19.027238 -8.840190 -11.836063 24.088942 -0.434935 2.084434 0.075139 -0.017239 -428745.000000 0 1 0
17.575038 -9.369890 -11.740163 23.119434 -0.489804 2.103431 0.094345 -0.021889 38830.400000 0 1 0
16.703238 -8.306690 -12.116063 22.244061 -0.461493 2.146813 0.091766 -0.019600 -1518440.000000 0 1 0
15.429438 -8.793590 -12.103363 21.491537 -0.518010 2.169012 0.097277 -0.024146 -1374630.000000 0 1 0
14.391838 -7.663890 -12.320163 20.436405 -0.489321 2.217869 0.076535 -0.024773 -420363.000000 0 1 0
14.389138 -6.890090 -13.493663 20.894965 -0.446577 2.272848 0.066197 -0.025311 -131538.000000 0 1 0
15.400038 -5.925490 -13.536263 21.342517 -0.367310 2.257821 0.057309 -0.019641 -376956.000000 0 1 0
15.168638 -4.842890 -14.637363 21.628536 -0.309041 2.314151 0.037879 -0.020826 430832.000000 0 1 0
14.086338 -3.972490 -14.251163 20.427952 -0.274872 2.342881 0.047343 -0.021365 536278.000000 0 1 0
13.663238 -3.034490 -15.207363 20.667755 -0.218544 2.397646 0.029866 -0.025330 -603064.000000 0 1 0
14.587238 -1.855790 -15.555363 21.405625 -0.126540 2.384295 0.036571 -0.020541 581276.000000 0 1 0
15.737938 -2.337490 -16.330863 22.800080 -0.147448 2.369229 0.027272 -0.017983 667634.000000 0 1 0
16.866638 -1.544890 -16.192563 23.432227 -0.091340 2.333721 0.032538 -0.014777 -908234.000000 0 1 0
17.893338 -2.013290 -15.201563 23.565067 -0.112045 2.271936 0.052409 -0.014393 -1023950.000000 0 1 0
17.572138 -1.887490 -13.813263 22.430981 -0.107004 2.234212 0.048551 -0.009967 -379.961000 0 1 0
18.682538 -2.357390 -13.110963 22.945411 -0.125518 2.179005 0.056633 -0.004605 -242946.000000 0 1 0
18.415138 -2.534490 -11.605163 21.913940 -0.136772 2.128901 0.061236 -0.003076 -248511.000000 0 1 0
18.384638 -1.366690 -10.794463 21.363127 -0.074202 2.100508 0.068082 -0.009627 629133.000000 0 1 0
17.880238 -1.727190 -9.510763 20.325863 -0.096299 2.057726 0.068085 -0.012878 -982202.000000 0 1 0
17.958038 -0.615690 -8.468563 19.864208 -0.034272 2.011220 0.068248 -0.010739 -130420.000000 0 1 0
19.258238 -0.224990 -8.056463 20.876708 -0.011682 1.966987 0.070532 -0.006784 1193430.000000 0 1 0
20.204838 0.303710 -9.003563 22.122203 0.015030 1.989955 0.067720 -0.004415 -228032.000000 0 1 0
19.779038 1.613110 -9.673463 22.076874 0.081376 2.024360 0.061827 -0.007007 -622307.000000 0 1 0
19.642838 2.672310 -8.753263 21.670301 0.135215 1.986604 0.057627 -0.004315 480026.000000 0 1 0
18.882338 3.666510 -9.398663 21.408429 0.191790 2.025301 0.045257 -0.016895 -501618.000000 0 1 0
18.961038 5.160910 -8.953463 21.594454 0.265747 1.998320 0.065390 -0.003976 -575567.000000 0 1 0
18.142638 6.014110 -9.699763 21.433857 0.320091 2.040412 0.058342 -0.012906 245125.000000 0 1 0
18.551538 7.360010 -9.623263 22.157087 0.377687 2.020079 0.077804 -0.002812 -120868.000000 0 1 0
-26.225262 -28.846320 5.356137 39.351782 0.832956 1.434263 0.072128 -0.010149 -335691.000000 0 0 1
-26.328922 -27.915110 6.326937 38.890817 0.814632 1.407385 0.075753 -0.007372 -354223.000000 0 0 1
-25.152702 -27.156950 6.476537 37.577971 0.823695 1.397582 0.071736 -0.011466 -832779.000000 0 0 1
-25.227362 -25.911070 7.382637 36.909439 0.798767 1.369418 0.066219 -0.010647 -1203530.000000 0 0 1
-26.162982 -24.912590 7.076137 36.813184 0.760922 1.377375 0.072089 -0.013959 1161050.000000 0 0 1
-27.528562 -25.309470 7.419637 38.124035 0.743425 1.374928 0.057876 -0.009901 931709.000000 0 0 1
-27.860872 -25.342750 8.906937 38.701637 0.738104 1.338571 0.044332 -0.012894 -1204820.000000 0 0 1
-27.063732 -26.152200 9.731437 38.872664 0.768271 1.317763 0.050860 -0.014181 -291834.000000 0 0 1
-27.477222 -26.184040 11.114137 39.549029 0.761304 1.285938 0.039894 -0.013041 380278.000000 0 0 1
-26.472132 -27.109000 11.892137 39.712650 0.797284 1.266675 0.019466 -0.007728 1666780.000000 0 0 1
-25.168712 -26.542800 12.160637 38.546925 0.811964 1.249838 0.029421 0.001349 752462.000000 0 0 1
-25.196642 -25.855490 13.414637 38.514019 0.798303 1.215034 0.046363 0.001698 -928201.000000 0 0 1
-23.823562 -25.526590 13.973637 37.608928 0.819894 1.190117 0.045054 0.000120 -440409.000000 0 0 1
-23.194362 -26.692660 14.465337 38.206315 0.855408 1.182501 0.045209 -0.005573 -99414.500000 0 0 1
-22.053562 -26.494240 15.273437 37.703876 0.876615 1.153720 0.036992 -0.005587 4779.650000 0 0 1
-21.419962 -27.751080 15.892637 38.490429 0.913451 1.145162 0.023299 -0.001710 -677096.000000 0 0 1
-22.269962 -28.447870 16.768537 39.829843 0.906610 1.136244 0.012115 0.013658 -118646.000000 0 0 1
-21.859662 -29.720890 17.132137 40.677835 0.936641 1.136065 0.026847 0.008874 -324418.000000 0 0 1
-22.730462 -30.433000 18.234937 42.134954 0.929281 1.123228 0.039731 -0.009517 -491963.000000 0 0 1
-23.992662 -30.714430 17.726637 42.816559 0.907654 1.143937 0.009836 -0.000540 -425585.000000 0 0 1
-24.571962 -31.870530 18.267337 44.195108 0.913994 1.144684 0.027213 -0.009039 117242.000000 0 0 1
-25.685262 -32.560670 17.447237 44.992622 0.902895 1.172574 0.028505 -0.013281 252525.000000 0 0 1
-25.062532 -33.241630 16.368437 44.733234 0.924772 1.196184 0.036297 -0.014154 411396.000000 0 0 1
-25.788992 34.051606 15.839637 45.557415 -0.922608 1.215695 0.038826 -0.021766 -564328.000000 0 0 1
-25.042312 33.315805 14.695237 44.192875 -0.926231 1.231817 0.045271 -0.026908 465585.000000 0 0 1
-23.821762 32.658846 15.027437 43.126563 -0.940602 1.214880 0.035916 -0.021822 889328.000000 0 0 1
-22.684762 33.529301 14.891337 43.134260 -0.975972 1.218310 0.039919 -0.020825 -161824.000000 0 0 1
-21.365862 32.741602 14.964637 41.862309 -0.992624 1.205236 0.051681 -0.029085 -222835.000000 0 0 1
-21.273562 31.814092 13.909837 40.720811 -0.981399 1.222188 0.045337 -0.018564 50771.000000 0 0 1
-20.034562 31.145102 13.815137 39.525423 -0.999170 1.213732 0.035544 -0.023890 40306.100000 0 0 1
-19.987762 30.151482 12.649737 38.322817 -0.985398 1.234404 0.030859 -0.021647 230849.000000 0 0 1
-19.476562 30.780952 11.484037 38.192755 -1.006645 1.265384 0.022032 -0.011339 200598.000000 0 0 1
-19.853662 29.933122 10.331837 37.375213 -0.985151 1.290713 0.024904 -0.010838 354515.000000 0 0 1
-19.444162 30.544872 8.962437 37.301339 -1.003915 1.328151 0.015343 -0.004264 -572308.000000 0 0 1
-18.057862 30.587282 8.812037 36.596724 -1.037487 1.327619 0.013141 -0.014165 -874364.000000 0 0 1
-17.685762 31.150192 7.564237 36.610631 -1.054422 1.362684 0.022533 -0.017353 5049.930000 0 0 1
-17.187662 30.038772 6.625737 35.236968 -1.051082 1.381637 0.021576 -0.014508 766663.000000 0 0 1
-18.225962 29.031412 6.319537 34.856063 -1.010185 1.388484 0.011958 -0.013672 1003520.000000 0 0 1
-18.213962 27.867622 7.109037 34.042490 -0.991902 1.360420 0.002103 -0.017771 -386928.000000 0 0 1
-19.086062 26.793502 6.497337 33.531849 -0.951837 1.375797 0.016871 -0.012495 -208925.000000 0 0 1
-18.661362 26.310292 5.226037 32.677046 -0.953869 1.410177 0.030683 -0.023186 398421.000000 0 0 1
-19.771062 25.741052 4.549537 32.774913 -0.915827 1.431535 0.041526 -0.025235 -231937.000000 0 0 1
-19.352262 24.943792 3.250137 31.737457 -0.910965 1.468210 0.057389 -0.033845 -1453150.000000 0 0 1
-19.034162 25.717742 2.094937 32.063848 -0.933650 1.505413 0.061127 -0.032571 632388.000000 0 0 1
-17.841562 26.529692 2.107937 32.040432 -0.978757 1.504959 0.064305 -0.028463 541494.000000 0 0 1
-16.559262 25.639262 2.174937 30.599203 -0.997340 1.499658 0.068438 -0.033878 -1024330.000000 0 0 1
-16.289062 24.572972 1.222937 29.506949 -0.985416 1.529339 0.086841 -0.034492 169221.000000 0 0 1
-16.084662 24.919072 -0.157363 29.659758 -0.997608 1.576102 0.082295 -0.031318 -116437.000000 0 0 1
-15.696162 23.680642 -1.061163 28.430061 -0.985457 1.608130 0.085170 -0.038680 -157582.000000 0 0 1
-16.637962 22.626342 -1.081163 28.105907 -0.936746 1.609273 0.083826 -0.046137 -67418.700000 0 0 1
-16.299962 21.509342 -1.821163 27.049162 -0.922316 1.638175 0.076755 -0.035213 -323364.000000 0 0 1
-15.495962 20.348942 -1.176363 25.604455 -0.919968 1.616756 0.079073 -0.037480 -171353.000000 0 0 1
-16.177062 19.455342 -0.321963 25.304373 -0.877143 1.583520 0.083289 -0.039985 140283.000000 0 0 1
-15.301462 18.425142 0.144137 23.950811 -0.877752 1.564778 0.117758 -0.054467 483077.000000 0 1 0
-16.099662 17.254642 0.786037 23.612277 -0.820012 1.537501 0.097475 -0.049229 238271.000000 0 1 0
-16.850862 16.301142 0.107337 23.445475 -0.768818 1.566218 0.081293 -0.040697 240827.000000 0 1 0
-17.598762 15.544842 1.050037 23.504491 -0.723507 1.526108 0.093721 -0.053623 -102750.000000 0 1 0
-18.279462 14.257642 0.620937 23.190615 -0.662415 1.544018 0.123575 -0.054218 85825.600000 0 1 0
-19.343162 14.534342 -0.277663 24.196737 -0.644393 1.582272 0.120604 -0.057515 -43273.300000 0 1 0
-20.175362 13.428642 -0.453663 24.240038 -0.587261 1.589513 0.118888 -0.045199 -306509.000000 0 1 0
-21.206562 13.594042 -1.585963 25.239483 -0.570044 1.633674 0.127420 -0.043876 -381004.000000 0 0 1
-22.207762 12.626342 -1.917863 25.618107 -0.516977 1.645730 0.127746 -0.038788 1104740.000000 0 0 1
-23.330962 12.557142 -1.066363 26.517027 -0.493752 1.611021 0.120478 -0.030189 -750500.000000 0 0 1
-24.318962 13.716442 -0.983363 27.937782 -0.513545 1.606002 0.080000 -0.020724 -1242800.000000 0 0 1
-23.774262 14.926142 -0.502863 28.075935 -0.560630 1.588708 0.056061 -0.024374 476909.000000 0 0 1
-24.825562 15.844042 -0.183563 29.451246 -0.568046 1.577029 0.047603 -0.022427 266261.000000 0 0 1
-24.330162 17.052542 0.658837 29.718345 -0.611317 1.548625 0.030008 -0.027498 122020.000000 0 0 1
-23.776062 16.609842 1.875737 29.063832 -0.609782 1.506213 0.020756 -0.027644 109287.000000 0 0 1
-23.205262 17.582342 2.721037 29.240844 -0.648403 1.477605 0.016008 -0.029228 -183926.000000 0 0 1
-24.182462 18.581742 3.395737 30.685560 -0.655172 1.459907 0.027389 -0.032760 -935765.000000 0 0 1
-24.946862 17.950542 4.415237 31.049351 -0.623727 1.428112 0.042713 -0.034161 1043000.000000 0 0 1
-26.225532 18.640642 4.474937 32.485029 -0.617926 1.432603 0.023699 -0.037082 1127890.000000 0 0 1
-27.303032 18.227542 3.439037 33.007966 -0.588649 1.466419 0.060493 -0.034666 -1557230.000000 0 0 1
-28.533352 18.836942 3.629037 34.382444 -0.583493 1.465050 0.064296 -0.026923 -666031.000000 0 0 1
-29.246492 18.620842 2.432837 34.756463 -0.566959 1.500742 0.074825 -0.021751 -337108.000000 0 0 1
-30.439762 19.571242 2.136937 36.251608 -0.571403 1.511815 0.071959 -0.031323 -258466.000000 0 0 1
-31.565662 19.011342 2.775637 36.953028 -0.542094 1.495613 0.126953 -0.029617 -14862.800000 0 0 1
-32.693392 19.869742 2.625337 38.347841 -0.546106 1.502282 0.104596 -0.028537 280284.000000 0 0 1
-33.251492 20.387542 3.935437 39.202057 -0.550019 1.470238 0.092618 -0.034818 -522034.000000 0 0 1
-32.341812 21.339442 4.436837 39.000642 -0.583240 1.456786 0.077420 -0.027379 251981.000000 0 0 1
-32.621282 21.852642 5.709837 39.677301 -0.590230 1.426388 0.085701 -0.028409 -587060.000000 0 0 1
-31.647722 22.943942 6.157837 39.571729 -0.627295 1.414549 0.066754 -0.025936 -259408.000000 0 0 1
-31.823192 24.179402 5.469937 40.339549 -0.649746 1.434780 0.063600 -0.020952 356109.000000 0 0 1
-30.837522 25.116822 5.856137 40.200769 -0.683513 1.424604 0.053956 -0.020988 -132833.000000 0 0 1
-31.263952 26.583872 5.623237 41.421706 -0.704671 1.434620 0.048550 -0.017451 -774559.000000 0 0 1
-32.327562 26.860432 6.465337 42.524753 -0.693291 1.418167 0.063351 -0.013888 -421161.000000 0 0 1
-32.760342 28.188902 6.290637 43.674092 -0.710534 1.426258 0.062662 -0.015155 -356094.000000 0 0 1
-33.850952 28.637992 7.272837 44.932346 -0.702169 1.408219 0.057215 -0.013511 -494874.000000 0 0 1
-33.462422 28.849062 8.645037 45.019315 -0.711496 1.377567 0.070972 -0.024550 232719.000000 0 0 1
-34.543083 29.410592 9.354137 46.321781 -0.705317 1.367460 0.071791 -0.024395 49666.100000 0 0 1
-35.740571 28.533482 9.745637 46.760298 -0.673734 1.360840 0.056650 -0.016602 -619380.000000 0 0 1
-35.321188 27.404352 10.467937 45.914731 -0.659848 1.340787 0.061890 -0.021160 -351436.000000 0 0 1
-36.265022 26.880522 11.332137 46.541719 -0.637861 1.324841 0.061910 -0.016819 -432760.000000 0 0 1
-35.658698 25.672302 12.166237 45.591964 -0.623987 1.300673 0.078851 -0.015189 184035.000000 0 0 1
-34.793280 26.105962 13.202737 45.457737 -0.643703 1.276110 0.090410 -0.027721 -86575.200000 0 0 1
-34.351809 24.998212 13.949937 44.716419 -0.629083 1.253536 0.102256 -0.026430 353929.000000 0 0 1
-33.080872 25.374342 14.788037 44.236719 -0.654318 1.229941 0.106191 -0.027617 470364.000000 0 0 1
-33.388532 26.353572 15.769837 45.365103 -0.668182 1.215764 0.095893 -0.035718 102178.000000 0 0 1
-32.195642 26.772672 16.396437 44.968639 -0.693692 1.197572 0.110546 -0.027269 195004.000000 0 0 1
-32.448912 28.124342 17.092337 46.217513 -0.714125 1.191977 0.107943 -0.031995 173387.000000 0 0 1
-32.716542 29.130662 16.112137 46.675138 -0.727483 1.218347 0.113015 -0.031660 71336.700000 0 0 1
-33.142262 30.327042 16.716837 47.933200 -0.741072 1.214556 0.093285 -0.021650 165408.000000 0 0 1
-32.557782 31.574212 15.945637 48.074976 -0.770063 1.232710 0.069442 -0.028478 -1235970.000000 0 0 1
-31.236082 31.822772 16.144137 47.423779 -0.794702 1.223430 0.062708 -0.022058 -1604640.000000 0 0 1
-30.892942 32.899668 15.335637 47.664911 -0.816845 1.243231 0.044427 -0.017100 735539.000000 0 0 1
-29.372162 33.098957 14.920837 46.700066 -0.844984 1.245591 0.061908 -0.019442 1260390.000000 0 0 1
-28.851762 32.319112 13.807237 45.470748 -0.842021 1.262274 0.062590 -0.018803 252492.000000 0 0 1
-28.533752 30.979222 14.122437 44.422184 -0.826466 1.247268 0.076123 -0.023531 -517267.000000 0 0 1
-29.609802 29.941352 13.795237 44.311776 -0.790966 1.254212 0.105435 -0.028085 -125841.000000 0 0 1
-29.666672 29.778182 12.399037 43.824510 -0.787274 1.283954 0.116876 -0.034639 557558.000000 0 0 1
-30.743812 28.877132 12.073337 43.872955 -0.754099 1.292010 0.112921 -0.037855 629548.000000 0 0 1
-30.717852 28.547722 10.566537 43.245931 -0.748797 1.323961 0.103272 -0.032811 -858435.000000 0 0 1
-29.611512 27.867322 10.158337 41.912064 -0.755063 1.325986 0.089214 -0.026019 -1142530.000000 0 0 1
-29.508722 27.792902 8.738337 41.467681 -0.755463 1.358478 0.076025 -0.025211 -186424.000000 0 0 1
-28.411002 26.953452 8.084037 39.987814 -0.759078 1.367231 0.080612 -0.026823 -161923.000000 0 0 1
-28.156182 27.514612 6.814537 39.953252 -0.773874 1.399396 0.067797 -0.027124 -297696.000000 0 0 1
-27.191352 26.738402 6.137037 38.626092 -0.776999 1.411237 0.048909 -0.016990 -365614.000000 0 0 1
-26.925632 27.119692 4.707837 38.504949 -0.788989 1.448224 0.045256 -0.014190 -432354.000000 0 0 1
-26.120662 28.254462 4.610137 38.753799 -0.824620 1.451554 0.043416 -0.017895 -114330.000000 0 0 1
-25.804192 28.450802 3.252837 38.547184 -0.834140 1.486310 0.037870 -0.014041 -397792.000000 0 0 1
-24.648262 29.443612 3.109937 38.524470 -0.873819 1.489982 0.028833 -0.013946 658210.000000 0 0 1
-23.339062 28.825662 3.249237 37.231547 -0.890191 1.483414 0.023650 -0.012047 308375.000000 0 0 1
-22.443862 29.797602 2.812737 37.410366 -0.925244 1.495539 0.030160 -0.003893 -1044260.000000 0 0 1
-21.009262 29.400562 3.165337 36.273978 -0.950347 1.483423 0.023472 -0.013871 -965915.000000 0 0 1
-20.185862 30.441162 2.800237 36.632972 -0.985260 1.494281 0.022437 -0.006805 -803943.000000 0 0 1
-18.845362 30.037262 3.043937 35.590031 -1.010473 1.485164 0.033707 -0.013374 491560.000000 0 0 1
-17.828162 31.082082 2.468237 35.917006 -1.050027 1.502022 0.038540 -0.008427 256744.000000 0 0 1
-17.730162 32.268642 3.213437 36.958762 -1.068372 1.483740 0.043326 -0.010270 -52912.100000 0 0 1
-16.542262 32.917793 2.822637 36.948542 -1.105125 1.494328 0.058962 -0.004638 -26074.300000 0 0 1
-16.409262 -34.136101 3.619037 38.047795 1.122707 1.475534 0.063455 -0.010248 211553.000000 0 0 1
-17.421962 -33.183960 3.308737 37.625094 1.087340 1.482743 0.065200 -0.016541 93743.600000 0 0 1
-17.334262 -32.158200 4.213437 36.774713 1.076414 1.455970 0.057515 -0.023911 178750.000000 0 0 1
-18.501362 -31.135060 4.397637 36.483306 1.034631 1.449964 0.058427 -0.019981 156198.000000 0 0 1
-18.737562 -30.276550 3.248037 35.753538 1.016610 1.479826 0.066453 -0.028687 118018.000000 0 0 1
-19.562762 -29.182790 3.558337 35.312868 0.980246 1.469859 0.078581 -0.029875 -284234.000000 0 0 1
-19.902662 -28.216980 2.388437 34.612405 0.956493 1.501736 0.070185 -0.032047 -443247.000000 0 0 1
-18.950862 -27.251480 2.141137 33.262033 0.963160 1.506380 0.074047 -0.028719 -419965.000000 0 0 1
-19.433062 -26.275500 1.197737 32.702911 0.933992 1.534163 0.067285 -0.033223 -54241.200000 0 0 1
-18.585862 -25.020490 1.134337 31.188875 0.931903 1.534418 0.056722 -0.032445 448913.000000 0 0 1
-17.225562 -25.159630 0.723437 30.500006 0.970446 1.547075 0.065900 -0.031595 -216290.000000 0 0 1
-16.424062 -24.157390 1.261037 29.239007 0.973704 1.527654 0.057634 -0.027739 -802802.000000 0 0 1
-14.980762 -24.378790 0.827837 28.625757 1.019783 1.541873 0.052748 -0.033655 -846247.000000 0 0 1
-14.663562 -24.382990 -0.556863 28.458046 1.029359 1.590365 0.057659 -0.026334 14208.000000 0 0 1
-14.814462 -23.117790 -1.188863 27.482975 1.000898 1.614068 0.063080 -0.029321 -639855.000000 0 0 1
-14.836662 -23.362590 -2.728463 27.809741 1.004995 1.669066 0.045126 -0.006404 183198.000000 0 0 1
-13.676462 -23.927690 -3.320463 27.759781 1.051540 1.690698 0.051437 -0.009306 89674.600000 0 0 1
-13.960262 -24.038490 -4.709063 28.194205 1.044654 1.738605 0.052850 -0.004477 531518.000000 0 0 1
-12.792762 -24.559690 -5.596663 28.251651 1.090581 1.770216 0.062986 -0.005116 381378.000000 0 0 1
-12.463062 -25.951560 -5.505063 29.310700 1.123079 1.759736 0.053964 -0.001461 -456865.000000 0 0 1
-11.533562 -26.329270 -6.466963 29.463115 1.157924 1.792092 0.053256 0.000417 -216268.000000 0 0 1
23.187538 13.088910 28.233461 38.808631 0.513893 0.756118 0.020409 0.008038 -689852.000000 0 0 1
23.928538 11.915410 28.459991 39.045141 0.462013 0.754083 0.022133 0.005160 77344.600000 0 0 1
23.580538 11.022610 29.523331 39.359456 0.437266 0.722591 0.033800 0.006982 -454037.000000 0 0 1
23.757738 11.561210 30.940301 40.686532 0.452894 0.706782 0.045357 -0.002776 -308005.000000 0 0 1
22.777538 12.495910 31.292821 40.671915 0.501773 0.692901 0.049661 -0.002953 -360712.000000 0 0 1
22.892238 13.086810 32.542866 41.885048 0.519328 0.680979 0.048801 -0.005263 -613377.000000 0 0 1
21.637038 13.818210 33.068220 41.864203 0.568346 0.660163 0.043636 -0.012784 -75193.300000 0 0 1
20.694138 12.889410 33.577980 41.495361 0.557054 0.628010 0.064747 -0.006288 320500.000000 0 0 1
19.796038 13.522210 -33.916123 41.533561 0.599277 2.526284 0.072668 -0.006396 706465.000000 0 0 1
18.588438 12.685810 -33.373073 40.251979 0.598855 2.548299 0.064837 -0.007754 843576.000000 0 0 1
17.475138 12.434710 34.192434 40.362421 0.618446 0.560225 0.053283 0.002097 898395.000000 0 0 1
16.355638 11.807710 -33.582263 39.175213 0.625296 2.600667 0.049084 0.003651 672296.000000 0 0 1
15.058338 11.734710 34.003752 38.996309 0.661980 0.511577 0.045912 0.010769 175974.000000 0 0 1
15.205238 10.842710 32.936124 37.862275 0.619458 0.515811 0.041010 0.020617 608012.000000 0 0 1
13.927338 10.417210 32.437796 36.806244 0.642200 0.492164 0.050285 0.015703 698709.000000 0 0 1
14.126738 9.415510 31.310561 35.616959 0.587889 0.496844 0.053424 0.017929 22283.100000 0 0 1
14.535538 8.214810 31.838141 35.950413 0.514403 0.482985 0.044038 0.008845 -273390.000000 0 0 1
15.410838 7.489710 31.025991 35.442937 0.452387 0.504578 0.049338 -0.006999 -26016.700000 0 0 1
15.806338 6.078510 31.556851 35.813733 0.367127 0.492532 0.061166 -0.012246 32194.800000 0 0 1
14.766038 5.138710 31.565451 35.225274 0.334900 0.459888 0.051967 -0.012636 -160091.000000 0 0 1
15.282938 3.930710 32.109311 35.777458 0.251740 0.456789 0.054810 -0.017195 170597.000000 0 0 1
14.186338 2.878010 32.359969 35.450003 0.200155 0.420625 0.040926 -0.014442 -57857.300000 0 0 1
14.628738 1.557710 32.742829 35.895951 0.106083 0.422274 0.052496 -0.018089 -208380.000000 0 0 1
13.559838 0.726910 33.141899 35.815961 0.053556 0.388868 0.051394 -0.018797 -88607.200000 0 0 1
13.947738 -0.691490 33.558280 36.347981 -0.049537 0.394340 0.048611 -0.016616 28399.400000 0 0 1
14.402338 -1.538190 32.501673 35.583031 -0.106398 0.419227 0.060005 -0.015848 -5487.430000 0 0 1
14.707238 -2.793490 32.935673 36.178239 -0.187704 0.426613 0.076078 -0.015721 -376499.000000 0 0 1
14.846038 -3.840190 31.719281 35.231587 -0.253120 0.450320 0.084219 -0.022973 -954052.000000 0 0 1
15.266238 -5.154190 32.030601 35.855029 -0.325604 0.466081 0.096291 -0.022635 230821.000000 0 0 1
16.463138 -5.370590 32.762100 37.057163 -0.315334 0.486240 0.082890 -0.023130 144914.000000 0 0 1
17.751538 -4.870290 32.041151 36.952296 -0.267770 0.521456 0.082154 -0.024459 -886489.000000 0 0 1
17.988338 -3.492290 32.168581 37.021534 -0.191756 0.517790 0.079356 -0.024595 135322.000000 0 0 1
19.001938 -3.064490 31.277091 36.724939 -0.159896 0.551655 0.094584 -0.027825 -37.071300 0 0 1
19.008438 -1.531990 31.172521 36.543040 -0.080421 0.549021 0.091506 -0.027342 -108145.000000 0 0 1
19.611538 -0.970590 32.312991 37.811161 -0.049450 0.546038 0.064062 -0.021011 29897.400000 0 0 1
19.338038 0.412510 32.344760 37.687045 0.021328 0.538954 0.059849 -0.014805 -70151.200000 0 0 1
20.360338 1.362010 31.686571 37.688688 0.066796 0.572139 0.071718 -0.017921 -352767.000000 0 0 1
20.348538 1.281110 30.263671 36.491013 0.062875 0.592860 0.073842 -0.023808 325172.000000 0 0 1
21.266038 2.175610 29.613221 36.522877 0.101950 0.625257 0.070742 -0.016259 289152.000000 0 0 1
20.815938 3.679710 29.587571 36.363002 0.174966 0.620355 0.060502 -0.004154 -192003.000000 0 0 1
20.869338 4.261110 30.871551 37.506519 0.201412 0.603951 0.058938 -0.004457 254567.000000 0 0 1
20.067338 5.397310 30.912021 37.247578 0.262742 0.591856 0.061159 -0.003282 -374274.000000 0 0 1
20.009938 5.966810 32.367399 38.518164 0.289798 0.572932 0.067750 -0.002225 -185727.000000 0 0 1
18.873838 5.518710 33.066475 38.471674 0.284470 0.536502 0.069496 -0.011996 17611.500000 0 0 1
18.972538 5.841210 -33.964023 39.339952 0.298668 2.612661 0.064483 -0.002954 356460.000000 0 0 1
17.748038 5.383610 -33.121223 37.960394 0.294514 2.631134 0.058125 -0.005500 233787.000000 0 0 1
17.855538 4.020910 -32.807223 37.567297 0.221496 2.632715 0.054844 -0.014231 213261.000000 0 0 1
16.602538 3.470310 -32.446313 36.612164 0.206056 2.659910 0.053043 -0.018301 147262.000000 0 0 1
16.534338 1.982210 -32.773563 36.761664 0.119315 2.671474 0.050768 -0.027434 -685632.000000 0 0 1
17.551938 1.297110 -32.161503 36.662178 0.073767 2.640877 0.041108 -0.016701 -534489.000000 0 0 1
17.486438 -0.067390 -32.597563 36.991636 -0.003854 2.649221 0.045905 -0.013459 -77435.600000 0 0 1
18.553738 -1.074690 -32.055103 37.053013 -0.057858 2.616175 0.040296 -0.012937 57997.900000 0 0 1
18.553338 -1.334090 -30.626803 35.833046 -0.071782 2.595785 0.043371 -0.014445 366155.000000 0 0 1
18.756938 -0.153990 -29.840033 35.245908 -0.008210 2.580406 0.043849 -0.015675 -788823.000000 0 0 1
18.308438 -0.373290 -28.407503 33.798291 -0.020386 2.569004 0.029341 -0.013337 41017.400000 0 0 1
16.913338 -0.603490 -28.248783 32.930517 -0.035666 2.601829 0.035489 -0.019425 436408.000000 0 0 1
16.460538 -0.656290 -26.903653 31.546578 -0.039849 2.592164 0.029135 -0.016876 -87472.600000 0 0 1
16.935838 -1.813590 -25.960433 31.049248 -0.106679 2.560940 0.036739 -0.016517 425728.000000 0 0 1
18.283638 -1.612690 -25.472243 31.396295 -0.087976 2.517192 0.041356 -0.014876 667416.000000 0 0 1
18.884038 -2.805690 -25.092333 31.529414 -0.147496 2.491188 0.039740 -0.015966 368118.000000 0 0 1
19.812838 -3.389490 -26.249583 33.061727 -0.169435 2.488086 0.056057 -0.022435 547140.000000 0 0 1
21.008438 -2.603890 -26.355693 33.804693 -0.123316 2.464897 0.067202 -0.016708 196492.000000 0 0 1
21.538538 -2.863290 -27.639883 35.157790 -0.132163 2.475378 0.065948 -0.021809 -603062.000000 0 0 1
22.836838 -2.170590 -28.021783 36.213988 -0.094763 2.455589 0.052715 -0.017556 -801249.000000 0 0 1
23.927238 -3.034790 -27.859503 36.849350 -0.126160 2.428035 0.051315 -0.021513 -106229.000000 0 0 1
25.077638 -2.385190 -28.445563 37.996409 -0.094827 2.416802 0.043202 -0.026170 267655.000000 0 0 1
26.331938 -3.250390 -28.254783 38.759112 -0.122818 2.387633 0.070812 -0.020980 -372721.000000 0 0 1
26.297138 -4.347890 -29.168433 39.512544 -0.163855 2.401205 0.080271 -0.030439 560363.000000 0 0 1
27.489338 -5.114790 -29.020463 40.299033 -0.183961 2.374783 0.077362 -0.028567 241181.000000 0 0 1
27.351838 -6.367290 -28.101493 39.728571 -0.228719 2.356520 0.064873 -0.022470 -134310.000000 0 0 1
27.339038 -5.983590 -26.723183 38.695670 -0.215469 2.333113 0.055302 -0.006564 349269.000000 0 0 1
27.174038 -7.102290 -25.886243 38.196445 -0.255644 2.315445 0.037172 -0.003085 -320949.000000 0 0 1
27.288738 -6.796490 -24.385463 37.222551 -0.244092 2.285146 0.026500 -0.000131 -30814.300000 0 0 1
28.607438 -6.651890 -23.902063 37.867424 -0.228463 2.253901 0.014673 0.006099 251640.000000 0 0 1
28.582238 -6.223390 -22.519963 36.916441 -0.214390 2.226889 0.020964 0.007855 -269938.000000 0 0 1
29.963238 -5.880290 -21.934263 37.596347 -0.193787 2.193723 0.024767 0.015787 -193989.000000 0 0 1
30.509038 -4.733190 -22.638963 38.284816 -0.153914 2.203504 0.046193 0.004164 457375.000000 0 0 1
31.770738 -4.389090 -22.076863 38.936253 -0.137280 2.173656 0.044353 0.009209 305178.000000 0 0 1
32.316638 -3.028090 -22.687763 39.601376 -0.093428 2.180840 0.055119 0.001541 28642.700000 0 0 1
31.700838 -1.812290 -22.227763 38.759528 -0.057106 2.181542 0.039123 -0.000934 452911.000000 0 0 1
32.412538 -0.680590 -22.678863 39.564715 -0.020995 2.181213 0.055090 -0.000427 -37909.900000 0 0 1
31.566938 0.578810 -22.435963 38.732145 0.018334 2.188616 0.050275 -0.000251 -210716.000000 0 0 1
30.439538 0.594310 -23.259463 38.313461 0.019522 2.223181 0.056762 0.000229 -19989.500000 0 0 1
29.424038 1.463610 -22.817263 37.263168 0.049701 2.229798 0.051088 0.002565 211574.000000 0 0 1
28.269838 1.762210 -23.801863 36.997538 0.062255 2.269645 0.045494 -0.003981 94382.500000 0 0 1
27.249738 2.584110 -23.298763 35.945211 0.094548 2.275981 0.050963 -0.008201 245310.000000 0 0 1
26.217038 2.748410 -24.264063 35.827805 0.104451 2.314803 0.073932 -0.017446 693065.000000 0 0 1
25.010938 3.644210 -23.847963 34.749858 0.144686 2.327152 0.072030 -0.014737 255550.000000 0 0 1
25.450638 4.943610 -23.719563 35.139606 0.191854 2.311774 0.070006 -0.008487 327926.000000 0 0 1
24.349838 5.801010 -23.484163 34.323057 0.233876 2.324316 0.083079 -0.010694 116148.000000 0 0 1
24.769238 7.207210 -22.966663 34.538770 0.283156 2.298227 0.101077 -0.006839 -153564.000000 0 0 1
25.412238 7.966210 -23.928663 35.802559 0.303777 2.302786 0.088449 -0.005410 -56854.600000 0 0 1
25.741038 9.275310 -23.550163 36.100451 0.345849 2.281478 0.100343 -0.008239 -482294.000000 0 0 1
26.566538 10.006210 -24.607563 37.569101 0.360214 2.284972 0.108727 -0.009888 -211292.000000 0 0 1
25.984138 10.333110 -25.879263 38.100982 0.378496 2.317507 0.099580 -0.017989 -283653.000000 0 0 1
24.849138 11.137910 -25.818833 37.525256 0.421374 2.329579 0.101540 -0.025901 -395631.000000 0 0 1
24.502138 11.595510 -27.280153 38.457995 0.442015 2.359371 0.085762 -0.021349 -107726.000000 0 0 1
23.976638 10.592510 -28.170693 38.479454 0.416001 2.392192 0.079068 -0.011726 133829.000000 0 0 1
24.927138 9.811310 -28.837943 39.360525 0.374977 2.393021 0.079264 -0.008539 -137861.000000 0 0 1
25.727738 10.406610 -30.014663 40.879017 0.384371 2.395330 0.085453 -0.003688 -1193870.000000 0 0 1
26.631538 11.422210 -29.682533 41.482026 0.405168 2.368210 0.087234 -0.000390 151459.000000 0 0 1
27.539938 11.737510 -30.702503 42.881943 0.402886 2.368820 0.083968 0.002565 688371.000000 0 0 1
28.633338 10.674310 -31.132233 43.623673 0.356834 2.365498 0.074464 -0.002142 -383201.000000 0 0 1
28.040138 9.499310 -31.706213 43.379375 0.326640 2.390444 0.074119 0.000867 153579.000000 0 0 1
28.942238 8.459310 -32.028063 43.988747 0.284362 2.386338 0.064752 0.003919 -108873.000000 0 0 1
28.252838 7.399010 -32.903483 43.995538 0.256133 2.415662 0.062064 0.003108 324723.000000 0 0 1
27.351838 6.570010 -32.172153 42.735647 0.235737 2.423129 0.063716 -0.000093 88792.700000 0 0 1
26.816438 5.501910 -32.972113 42.855018 0.202361 2.448678 0.056405 0.003229 429939.000000 0 0 1
25.405338 5.027910 -32.472033 41.534853 0.195383 2.468347 0.056578 -0.000033 -25073.500000 0 0 1
24.388138 5.945610 -32.604973 41.148704 0.239126 2.485480 0.063217 0.001223 -583084.000000 0 0 1
24.266738 6.915210 -31.546333 40.396359 0.277608 2.466934 0.077605 -0.003587 -716806.000000 0 0 1
22.808538 7.368610 -31.414383 39.514419 0.312480 2.489821 0.073619 -0.008495 -148034.000000 0 0 1
22.352338 8.280310 -32.364323 40.195024 0.354771 2.506779 0.079235 -0.002076 -66942.000000 0 0 1
21.021038 8.741610 -32.249603 39.475773 0.394096 2.526893 0.070444 -0.001269 299768.000000 0 0 1
20.509738 9.678510 -33.396203 40.368667 0.440915 2.545045 0.068497 0.005483 -257522.000000 0 0 1
20.072038 9.067110 33.857123 40.390642 0.424290 0.576745 0.069475 0.006931 -69924.400000 0 0 1
19.719538 10.073410 32.879765 39.641048 0.472277 0.592697 0.058470 0.010347 95896.800000 0 0 1
18.751638 9.678010 31.736001 38.111174 0.476457 0.586791 0.051258 0.011593 169200.000000 0 0 1
19.232338 8.642110 30.839191 37.358059 0.422316 0.599703 0.043603 0.008315 -33615.900000 0 0 1
20.192438 8.958110 29.856341 37.140051 0.417550 0.636997 0.051728 0.008301 -500425.000000 0 0 1
19.797538 9.839110 28.710031 36.235569 0.461234 0.656200 0.044823 0.003556 -40791.000000 0 0 1
18.876338 9.256410 27.767691 34.828751 0.455915 0.648048 0.032292 0.010219 712888.000000 0 0 1
17.594438 9.864910 27.963601 34.479613 0.511008 0.624905 0.036984 -0.003250 568241.000000 0 0 1
16.427238 9.036210 27.326511 33.139786 0.502901 0.601331 0.057289 -0.003671 -17225.500000 0 0 1
16.407238 9.117410 25.905461 31.990898 0.507205 0.627026 0.048136 -0.003636 667923.000000 0 0 1
15.141838 8.793310 25.314621 30.780312 0.526129 0.605129 0.063289 -0.007458 646269.000000 0 0 1
14.890338 7.283510 25.065791 30.051049 0.454925 0.584284 0.067859 -0.007015 -128623.000000 0 0 1
14.876938 6.536610 26.271721 30.891000 0.413986 0.553927 0.056452 -0.010434 -24766.000000 0 0 1
14.354838 5.224910 26.203751 30.331463 0.349077 0.527808 0.069905 -0.021713 -158805.000000 0 0 1
14.670338 4.413910 27.420361 31.409833 0.292258 0.509504 0.075681 -0.026748 -708635.000000 0 0 1
15.954238 3.895510 27.361341 31.911686 0.239482 0.540584 0.063423 -0.017306 -507433.000000 0 0 1
16.357138 3.560910 28.682911 33.210622 0.214353 0.528297 0.059742 -0.019413 9966.220000 0 0 1
17.329238 2.383610 28.925481 33.803366 0.136691 0.543898 0.071821 -0.019450 8748.020000 0 0 1
16.726338 1.110210 28.737421 33.269240 0.066278 0.528065 0.073332 -0.028007 1298340.000000 0 0 1
15.638638 0.737110 29.667591 33.545138 0.047099 0.485572 0.056662 -0.019249 1256820.000000 0 0 1
15.198438 -0.771490 29.551531 33.239746 -0.050718 0.475548 0.054784 -0.016725 -374509.000000 0 0 1
14.460438 -1.063990 28.399511 31.886809 -0.073447 0.472056 0.053159 -0.020133 33759.800000 0 0 1
15.113138 -1.126590 27.133161 31.078684 -0.074406 0.509379 0.062978 -0.027278 -798638.000000 0 0 1
16.243038 -2.155690 26.853821 31.458083 -0.131944 0.547866 0.072339 -0.027680 1586860.000000 0 0 1
17.587238 -1.960790 27.365951 32.589123 -0.111031 0.574017 0.079011 -0.029798 1354880.000000 0 0 1
18.314238 -0.849190 26.919151 32.569512 -0.046335 0.597910 0.078939 -0.033372 690584.000000 0 0 1
19.779138 -0.749490 27.561201 33.932224 -0.037875 0.622810 0.100811 -0.035355 1652580.000000 0 0 1
20.672438 -1.657490 26.954661 34.009568 -0.080008 0.655799 0.075763 -0.029396 1144320.000000 0 0 1
22.067938 -1.412490 27.291371 35.125603 -0.063919 0.680966 0.073217 -0.028164 1685830.000000 0 0 1
23.115338 -2.097690 26.377231 35.135132 -0.090501 0.721620 0.059155 -0.016018 -104627.000000 0 0 1
23.089938 -1.737190 25.015311 34.087078 -0.075094 0.746802 0.066576 -0.003822 -169345.000000 0 0 1
22.145438 -2.415490 24.247021 32.926783 -0.108644 0.743074 0.075217 0.005976 -433606.000000 0 0 1
22.006938 -1.789990 22.861131 31.782711 -0.081159 0.768010 0.075510 -0.020524 -356559.000000 0 0 1
21.529038 -0.487890 22.800231 31.362207 -0.022658 0.756858 0.066306 -0.016866 -32368.000000 0 0 1
21.298138 -0.175090 21.412931 30.201903 -0.008221 0.782727 0.056735 -0.009876 -178009.000000 0 0 1
-30.660332 -27.520822 -10.550963 42.529689 0.731490 1.821499 0.024265 0.006277 109994.000000 0 0 1
-30.517042 -26.416822 -9.751263 41.523794 0.713505 1.807846 0.033533 0.010796 -228454.000000 0 0 1
-30.767592 -26.832822 -8.409063 41.681619 0.717193 1.773936 0.039953 0.002850 109125.000000 0 0 1
-31.191852 -25.711822 -7.346163 41.085223 0.689391 1.750566 0.069524 -0.002215 257539.000000 0 0 1
-30.099342 -24.902022 -6.964563 39.681056 0.691184 1.747224 0.056098 0.002501 137827.000000 0 0 1
-29.296992 -25.441022 -5.866663 39.242542 0.715070 1.720856 0.063970 0.002754 766760.000000 0 0 1
-28.026742 -24.641422 -5.526163 37.725806 0.721210 1.717808 0.056679 0.003658 -100166.000000 0 0 1
-28.168242 -23.523822 -4.671963 36.995233 0.695791 1.697420 0.065818 0.002233 -302025.000000 0 0 1
-28.776022 -22.435322 -5.290363 36.869921 0.662211 1.714781 0.070948 -0.000904 -58140.900000 0 0 1
-29.060312 -21.273222 -4.314263 36.272091 0.631905 1.690020 0.074609 -0.014212 -122175.000000 0 0 1
-27.882592 -20.552522 -4.127763 34.883858 0.635200 1.689403 0.087375 -0.017914 9947.800000 0 0 1
-28.202702 -19.558622 -3.192463 34.469173 0.606351 1.663547 0.093519 -0.016203 189904.000000 0 0 1
-27.120722 -18.470622 -2.943263 32.944806 0.597896 1.660255 0.086848 -0.019557 129785.000000 0 0 1
-27.037322 -17.606622 -4.004163 32.512201 0.577216 1.694269 0.090171 -0.022886 492566.000000 0 0 1
-26.057862 -16.573822 -3.788063 31.113553 0.566498 1.692849 0.084310 -0.019642 544548.000000 0 0 1
-26.022172 -15.648022 -4.989363 30.771867 0.541400 1.733656 0.090948 -0.030175 153830.000000 0 0 1
-27.219152 -14.894322 -5.085363 31.441755 0.500691 1.733249 0.092854 -0.017461 191589.000000 0 0 1
-27.236752 -13.835522 -6.044863 31.141655 0.470005 1.766145 0.096148 -0.032096 533222.000000 0 0 1
-28.631872 -13.123022 -5.973763 32.057505 0.429765 1.758237 0.085449 -0.024273 732782.000000 0 0 1
-29.689182 -13.833622 -6.600763 33.412373 0.436037 1.769659 0.084334 -0.018819 415876.000000 0 0 1
-30.905452 -13.155622 -6.321363 34.178604 0.402441 1.756818 0.069280 -0.013753 -174247.000000 0 0 1
-32.171672 -13.606122 -7.029563 35.630854 0.400110 1.769388 0.061238 -0.016965 -171515.000000 0 0 1
-32.878072 -14.727422 -6.463763 36.601159 0.421140 1.748327 0.057318 -0.015455 469622.000000 0 0 1
-33.246282 -15.697722 -7.460563 37.515247 0.441132 1.770999 0.065557 -0.017675 -402806.000000 0 0 1
-34.148239 -16.847022 -6.860363 38.690942 0.458313 1.749051 0.059656 -0.022491 1456830.000000 0 0 1
-35.549663 -16.494622 -6.763963 39.769364 0.434425 1.741707 0.058823 -0.025729 1109560.000000 0 0 1
-35.886786 -15.585322 -5.745263 39.544554 0.409714 1.716598 0.047930 -0.027739 -337748.000000 0 0 1
35.383431 -15.678222 -5.425463 39.079784 -0.417097 1.710077 0.069349 -0.027180 188749.000000 0 0 1
34.589581 -15.124222 -6.525563 38.311411 -0.412199 1.741960 0.072071 -0.028581 917685.000000 0 0 1
33.180931 -15.254622 -6.442763 37.083512 -0.430925 1.745419 0.082730 -0.030306 459255.000000 0 0 1
32.406461 -14.618222 -5.261863 35.938257 -0.423760 1.717739 0.103470 -0.037503 -872580.000000 0 0 1
32.546771 -15.255822 -4.008263 36.167646 -0.438325 1.681849 0.094459 -0.040115 452350.000000 0 0 1
31.941781 -14.466822 -2.991963 35.192587 -0.425273 1.655916 0.111863 -0.043089 -733543.000000 0 0 1
31.746111 -15.275022 -1.641663 35.268072 -0.448464 1.617361 0.115335 -0.038520 119730.000000 0 0 1
32.928151 -15.502022 -0.864163 36.404981 -0.440002 1.594536 0.119584 -0.033197 502079.000000 0 0 1
34.016781 -16.215522 -1.393263 37.709757 -0.444828 1.607752 0.097338 -0.031774 -625420.000000 0 0 1
33.858171 -17.735322 -1.773163 38.263057 -0.482515 1.617154 0.089933 -0.033325 -846897.000000 0 0 1
33.762241 -18.651822 -0.652663 38.577265 -0.504719 1.587715 0.093373 -0.032263 247104.000000 0 0 1
33.632741 -20.005722 -1.115363 39.148873 -0.536608 1.599290 0.080240 -0.030377 577758.000000 0 0 1
34.813811 -20.673122 -1.952663 40.536309 -0.535863 1.618986 0.072032 -0.033665 579374.000000 0 0 1
35.103131 -20.053322 -3.211763 40.554666 -0.519026 1.650075 0.035423 -0.033793 200760.000000 0 0 1
36.009061 -20.817922 -4.002563 41.785869 -0.524183 1.666731 0.044521 -0.023793 43544.600000 0 0 1
36.133541 -20.043622 -5.333463 41.663238 -0.506452 1.699162 0.071308 -0.027364 116277.000000 0 0 1
34.942681 -20.132322 -6.121863 40.789442 -0.522700 1.721450 0.046590 -0.033871 492427.000000 0 0 1
34.873521 -19.183922 -7.172763 40.442971 -0.502920 1.749095 0.063745 -0.027538 -97366.600000 0 0 1
33.610051 -19.495022 -7.998763 39.669530 -0.525610 1.773823 0.079689 -0.033802 -155963.000000 0 0 1
33.728701 -20.567622 -8.920063 40.499628 -0.547591 1.792868 0.088837 -0.039978 141461.000000 0 0 1
32.641761 -20.632422 -9.813763 39.843335 -0.563679 1.819666 0.083750 -0.036560 -290930.000000 0 0 1
32.539271 -21.996722 -10.615763 40.686047 -0.594440 1.834770 0.083220 -0.022881 -123317.000000 0 0 1
32.320991 -23.081122 -9.767363 40.899707 -0.620141 1.811939 0.072015 -0.026241 47784.900000 0 0 1
31.922141 -24.198422 -10.562163 41.426393 -0.648630 1.828605 0.065973 -0.017671 -128530.000000 0 0 1
31.277181 -25.293122 -9.681263 41.373070 -0.680009 1.806985 0.068026 -0.012268 -193319.000000 0 0 1
30.077341 -24.906822 -9.070463 40.090766 -0.691637 1.799021 0.081065 -0.014376 49549.400000 0 0 1
29.275601 -26.076522 -8.759863 40.171894 -0.727667 1.790622 0.059202 -0.009093 756447.000000 0 0 1
27.804161 -25.828322 -8.320663 38.851088 -0.748574 1.786636 0.062972 -0.015062 422603.000000 0 0 1
27.068801 -25.303922 -9.435063 38.236486 -0.751712 1.820127 0.064673 -0.009561 170262.000000 0 0 1
25.869401 -24.704322 -8.941163 36.871043 -0.762365 1.815736 0.062750 -0.008752 105437.000000 0 0 1
25.044601 -24.113022 -10.111363 36.206485 -0.766450 1.853829 0.078199 -0.013219 -360776.000000 0 0 1
24.631301 -25.093622 -11.073263 36.864726 -0.794695 1.875883 0.067534 -0.013005 303156.000000 0 0 1
24.043001 -24.399122 -12.186163 36.357745 -0.792750 1.912586 0.075743 -0.002895 20103.800000 0 0 1
23.026601 -25.290422 -12.923063 36.562759 -0.832217 1.932052 0.077878 -0.017140 -19384.700000 0 0 1
23.678601 -26.338522 -13.631963 37.950287 -0.838528 1.938213 0.083223 -0.016504 496844.000000 0 0 1
22.879601 -27.509722 -13.818063 38.356223 -0.877028 1.939339 0.078328 -0.004338 -122422.000000 0 0 1
23.700801 -28.669022 -14.335363 39.864062 -0.879983 1.938642 0.064285 -0.014565 -158817.000000 0 0 1
24.258301 -28.529522 -15.649663 40.587076 -0.866135 1.966635 0.076308 -0.008934 457218.000000 0 0 1
24.734301 -29.816522 -16.010163 41.918206 -0.878295 1.962689 0.074581 -0.008255 -207544.000000 0 0 1
24.584301 -29.961922 -17.545163 42.543359 -0.883669 1.995891 0.085008 -0.020916 748476.000000 0 0 1
23.201701 -29.957022 -17.933463 41.920773 -0.911799 2.012847 0.080229 -0.023733 889517.000000 0 0 1
23.118801 -30.182422 -19.328163 42.650152 -0.917153 2.041125 0.077491 -0.019761 -81322.000000 0 0 1
21.675201 -30.015722 -19.831963 42.000770 -0.945373 2.062560 0.057914 -0.015495 -233451.000000 0 0 1
21.554301 -30.158622 -21.244563 42.725424 -0.950274 2.091205 0.048346 -0.008540 394823.000000 0 0 1
20.192401 -30.203122 -21.674063 42.305161 -0.981489 2.108688 0.056264 -0.019430 92788.500000 0 0 1
20.092001 -30.464322 -23.204663 43.246038 -0.987754 2.137167 0.051271 -0.014849 -652556.000000 0 0 1
20.574801 -29.422222 -23.980463 43.174671 -0.960544 2.159675 0.054558 -0.012521 263494.000000 0 0 1
20.703901 -29.816322 -25.319443 44.257641 -0.963851 2.179851 0.059664 -0.016905 -487370.000000 0 0 1
21.040701 -28.579722 -26.231353 44.131570 -0.936179 2.207303 0.053227 -0.020312 144385.000000 0 0 1
19.995001 -27.654522 -26.386853 43.137439 -0.944782 2.228995 0.062116 -0.022725 101679.000000 0 0 1
18.958101 -27.976622 -27.297633 43.442626 -0.975235 2.250240 0.080401 -0.023586 -20761.600000 0 0 1
18.277001 -26.714322 -27.888103 42.725286 -0.970777 2.281980 0.070211 -0.034788 -321883.000000 0 0 1
17.396701 -26.193822 -26.915323 41.390774 -0.984536 2.278741 0.056488 -0.021218 -134088.000000 0 0 1
17.003401 -24.824722 -27.187193 40.552755 -0.970251 2.305565 0.044373 -0.005712 -208634.000000 0 0 1
15.877301 -24.325122 -26.266823 39.163073 -0.992517 2.305954 0.055200 -0.009305 -190738.000000 0 0 1
14.663501 -25.035822 -26.440943 39.254734 -1.040957 2.309829 0.074405 -0.024578 122572.000000 0 0 1
13.526701 -24.541922 -25.740243 38.050462 -1.067057 2.313764 0.052657 -0.022296 649498.000000 0 0 1
13.542901 -24.753322 -24.137463 37.131580 -1.070171 2.278449 0.048714 -0.013443 -171378.000000 0 0 1
14.451401 -23.887122 -23.461763 36.467683 -1.026718 2.269672 0.032941 -0.011896 -15901.600000 0 0 1
14.507001 -24.326622 -22.111163 35.932453 -1.033070 2.233631 0.051139 -0.017631 34532.100000 0 0 1
15.507301 -23.615222 -21.195263 35.318469 -0.989750 2.214445 0.026755 -0.019447 21525.500000 0 0 1
15.267501 -22.257922 -21.056063 34.232579 -0.969572 2.233294 0.021579 -0.019712 916848.000000 0 0 1
16.471801 -21.666822 -20.499463 34.073441 -0.920779 2.216331 0.015545 -0.019309 835058.000000 0 0 1
16.265901 -20.273722 -19.931963 32.754946 -0.894646 2.224988 0.025304 -0.007066 107895.000000 0 0 1
15.533501 -20.273222 -18.704563 31.656814 -0.917003 2.202914 0.035318 -0.010251 38014.100000 0 0 1
14.213701 -19.840522 -18.923063 30.882972 -0.949150 2.230312 0.021694 -0.012066 -800287.000000 0 0 1
13.341901 -19.707222 -17.692363 29.654690 -0.975670 2.210070 0.037504 -0.007785 -449177.000000 0 0 1
13.584401 -18.600322 -16.829563 28.526166 -0.940002 2.201817 0.048468 -0.012813 -82465.400000 0 0 1
13.036801 -18.770622 -15.546263 27.640201 -0.963749 2.168144 0.037395 -0.007619 -171634.000000 0 0 1
13.092801 -17.389322 -14.836663 26.342675 -0.925428 2.169071 0.041397 -0.008784 -48822.800000 0 0 1
11.974901 -16.543322 -15.036563 25.360954 -0.944242 2.205454 0.029257 -0.015933 230466.000000 0 0 1
12.283701 -15.250122 -14.553063 24.397688 -0.892722 2.209922 0.034753 -0.020039 -102751.000000 0 1 0
11.013501 -14.415422 -14.291763 23.094504 -0.918390 2.238059 0.040096 -0.018458 -310730.000000 0 1 0
10.271001 -14.263822 -15.465863 23.412454 -0.946725 2.292391 0.060906 -0.001704 -72196.400000 0 1 0
8.982101 -13.755822 -15.136663 22.338741 -0.992338 2.315287 0.058134 -0.005999 860136.000000 0 1 0
8.094301 -13.269922 -16.361263 22.567664 -1.023076 2.381812 0.052748 0.002970 158330.000000 0 1 0
8.421201 -12.048322 -16.976863 22.456459 -0.960774 2.427962 0.045320 0.000913 975.816000 0 1 0
9.632101 -12.011322 -17.708263 23.465545 -0.894887 2.425916 0.062973 -0.006455 86041.000000 0 1 0
9.704901 -10.755922 -18.584163 23.563660 -0.836721 2.479454 0.065020 -0.013573 16174.900000 0 1 0
9.301301 -10.985022 -19.907563 24.566155 -0.868206 2.515572 0.083657 -0.006196 127908.000000 0 1 0
9.081701 -9.770822 -20.587463 24.531406 -0.821935 2.566660 0.068506 -0.018055 -93501.400000 0 1 0
8.855201 -10.092622 -22.103963 25.862343 -0.850612 2.595726 0.080766 -0.007578 134975.000000 0 0 1
9.937001 -10.812622 -22.685963 27.024243 -0.827573 2.567098 0.084204 -0.016115 -65872.800000 0 0 1
9.873101 -10.839422 -24.091463 28.202301 -0.832018 2.594879 0.070864 -0.009419 561763.000000 0 0 1
11.122301 -11.449222 -24.819663 29.509421 -0.799881 2.570066 0.093475 -0.011496 311841.000000 0 0 1
11.206901 -12.854822 -24.657963 29.980931 -0.853779 2.536510 0.089238 -0.014452 -5063.190000 0 0 1
12.400801 -13.400922 -25.187363 31.108967 -0.824141 2.514351 0.071574 -0.022066 25145.800000 0 0 1
12.456801 -14.933322 -25.033763 31.699610 -0.875570 2.481146 0.067156 -0.016838 -233085.000000 0 0 1
11.534801 -15.582622 -25.883903 32.339545 -0.933574 2.498724 0.076480 -0.018921 -153195.000000 0 0 1
11.533901 -16.954222 -25.524453 32.741017 -0.973417 2.464802 0.074517 -0.028100 424379.000000 0 0 1
10.225901 -17.746722 -25.807953 32.947923 -1.048051 2.470745 0.081809 -0.027780 354071.000000 0 0 1
10.320801 -18.529422 -26.979663 34.318517 -1.062598 2.475359 0.086988 -0.039850 -946579.000000 0 0 1
9.094501 -18.936922 -27.462703 34.576249 -1.123071 2.488593 0.083993 -0.032843 -854274.000000 0 0 1
9.197201 -20.025922 -28.540083 36.057765 -1.140265 2.484072 0.070561 -0.027836 -269901.000000 0 0 1
9.811401 -21.261122 -28.191923 36.648103 -1.138444 2.448479 0.068620 -0.026195 152241.000000 0 0 1
9.720801 -22.231022 -29.165113 37.938320 -1.158585 2.447682 0.062527 -0.017593 -346130.000000 0 0 1
10.591501 -23.415422 -28.799033 38.598526 -1.146006 2.413008 0.047823 -0.022427 -257101.000000 0 0 1
10.382001 -24.419022 -29.790103 39.893920 -1.168790 2.413933 0.053567 -0.019243 -42864.400000 0 0 1
11.016201 -25.614522 -29.452613 40.557574 -1.164634 2.383564 0.067536 -0.022885 -77601.800000 0 0 1
10.336001 -26.501222 -28.389973 40.188783 -1.198923 2.355217 0.068309 -0.020132 106695.000000 0 0 1
10.889201 -26.254622 -27.106373 39.276397 -1.177636 2.332484 0.067409 -0.014566 -325894.000000 0 0 1
10.075601 -26.733722 -26.061903 38.670821 -1.210372 2.310328 0.051862 -0.008353 8458.610000 0 0 1
9.160201 -25.626722 -25.519903 37.308225 -1.227502 2.324068 0.041836 -0.007708 -745757.000000 0 0 1
9.826201 -24.539722 -24.910163 36.321735 -1.189928 2.326526 0.044887 -0.012298 -338708.000000 0 0 1
9.027901 -23.404422 -24.606063 35.138701 -1.202648 2.346551 0.047469 -0.016066 -288228.000000 0 0 1
9.869201 -22.114522 -24.439463 34.405531 -1.151043 2.360771 0.064929 -0.011380 -352322.000000 0 0 1
10.606201 -22.136922 -23.287563 33.835564 -1.123993 2.329880 0.051185 -0.016111 -185236.000000 0 0 1
11.760001 -21.304522 -23.464463 33.804753 -1.066422 2.337989 0.059853 -0.020483 95824.300000 0 0 1
12.452801 -20.911222 -22.147063 32.906593 -1.033686 2.309092 0.047463 -0.007328 -96454.600000 0 0 1
11.645101 -20.184522 -21.210363 31.510360 -1.047511 2.309221 0.039890 -0.005093 -50550.000000 0 0 1
11.383501 -18.836922 -21.485563 30.757814 -1.027207 2.344151 0.046162 -0.013078 167223.000000 0 0 1
12.521601 -17.773322 -21.262063 30.409814 -0.957045 2.345052 0.054372 -0.013058 1005610.000000 0 0 1
13.650101 -17.857322 -22.169163 31.570255 -0.918144 2.349303 0.052587 -0.012237 501915.000000 0 0 1
14.533701 -16.778422 -22.000763 31.253440 -0.856964 2.351736 0.051538 -0.005509 -242965.000000 0 0 1
15.875501 -16.823522 -22.705463 32.412968 -0.814382 2.346902 0.019855 -0.005562 4897.990000 0 0 1
16.986501 -17.490322 -22.087963 32.898795 -0.800010 2.306881 0.027165 -0.000649 759660.000000 0 0 1
18.145601 -17.234722 -22.863763 33.897642 -0.759658 2.311076 0.014881 0.001220 -723824.000000 0 0 1
19.447701 -17.615822 -22.214463 34.380411 -0.736013 2.273309 0.014798 -0.006562 -838837.000000 0 0 1
19.759601 -19.000122 -22.152263 35.244421 -0.765806 2.250461 0.020830 -0.011606 118858.000000 0 0 1
21.046901 -19.227622 -21.621863 35.779582 -0.740257 2.219693 0.031474 -0.019589 -269394.000000 0 0 1
21.331701 -20.656722 -21.275763 36.529437 -0.769324 2.192509 0.035224 -0.028663 -131425.000000 0 0 1
20.626501 -21.153122 -20.135163 35.753768 -0.798002 2.169004 0.040908 -0.025692 378707.000000 0 0 1
20.783401 -22.536822 -20.108763 36.663612 -0.825852 2.151326 0.048569 -0.027064 22173.700000 0 0 1
-16.335462 13.478710 28.537681 35.537616 -0.689871 0.638438 0.043720 -0.020107 -192428.000000 0 0 1
-17.717162 13.680510 28.359821 36.129401 -0.657534 0.668179 0.047612 -0.027480 -239796.000000 0 0 1
-18.022762 13.533310 26.990481 35.163283 -0.644077 0.695746 0.054604 -0.023176 -333812.000000 0 0 1
-19.327462 14.165110 26.517321 35.740306 -0.632467 0.734830 0.080360 -0.023505 -480179.000000 0 0 1
-19.282362 15.556010 26.562201 36.322850 -0.678842 0.750599 0.056482 -0.015046 88688.600000 0 0 1
-20.316062 16.253910 25.872701 36.692351 -0.674773 0.788197 0.067514 -0.014553 -274881.000000 0 0 1
-20.257862 17.807410 26.116221 37.543865 -0.721112 0.801515 0.067443 -0.009065 1170590.000000 0 0 1
-19.055062 18.476610 25.616291 36.887327 -0.769987 0.803145 0.041372 -0.001271 1204220.000000 0 0 1
-17.974962 18.390810 26.536291 36.952617 -0.796833 0.769704 0.023041 0.012055 435828.000000 0 0 1
-16.683062 19.203310 26.185971 36.507489 -0.855512 0.770910 0.020147 0.007426 508974.000000 0 0 1
-16.943962 20.562110 26.034181 37.251534 -0.881569 0.796972 0.030658 0.003335 -17623.500000 0 0 1
-15.786062 21.288610 25.698101 36.916081 -0.932741 0.800815 0.049714 -0.013761 31465.800000 0 0 1
-16.093762 22.787010 25.520631 37.809517 -0.955875 0.829860 0.038064 -0.007861 120302.000000 0 0 1
-15.809762 23.584210 26.647121 38.938831 -0.980246 0.817108 0.028746 -0.002791 35581.100000 0 0 1
-16.211262 24.933010 26.412231 39.775193 -0.994286 0.844590 0.024257 -0.005578 -76235.700000 0 0 1
-15.637462 25.897910 27.496311 40.881280 -1.027579 0.833094 0.016817 0.000868 -364510.000000 0 0 1
-14.252062 26.038010 27.375231 40.379481 -1.069985 0.825827 0.028443 -0.005231 -617410.000000 0 0 1
-13.790862 26.776910 28.500421 41.466429 -1.095199 0.813013 0.034413 -0.000485 764791.000000 0 0 1
-12.233462 26.921110 28.548211 41.102361 -1.144274 0.802983 0.045705 -0.012168 910890.000000 0 0 1
-11.519762 27.476510 27.453881 40.513937 -1.173799 0.826247 0.054980 -0.006041 -396664.000000 0 0 1
-10.150962 27.598310 27.710621 40.405287 -1.218343 0.815071 0.046645 -0.005634 -536072.000000 0 0 1
-9.410562 28.014510 26.439831 39.653954 -1.246722 0.840938 0.047295 -0.006660 232368.000000 0 0 1
-7.989262 27.997110 26.610451 39.443410 -1.292824 0.830307 0.050124 -0.012003 463970.000000 0 0 1
-7.454562 28.484610 25.440721 38.912386 -1.314832 0.858207 0.052937 -0.014465 -313789.000000 0 0 1
-5.948462 28.243910 25.251231 38.350063 -1.363220 0.852052 0.059983 -0.017834 -566124.000000 0 0 1
-5.046962 28.764210 26.160531 39.207461 -1.397105 0.840308 0.061016 -0.014865 -354924.000000 0 0 1
-3.684662 28.583010 25.878801 38.733416 -1.442592 0.839109 0.038814 -0.007528 194937.000000 0 0 1
-3.005762 29.585110 24.914121 38.794674 -1.469547 0.873425 0.040085 -0.006249 -559359.000000 0 0 1
-3.277862 29.334610 23.517811 37.740577 -1.459518 0.898040 0.044480 0.000701 -58398.200000 0 0 1
-2.722062 30.288210 22.640031 37.912482 -1.481165 0.930833 0.039248 -0.000700 -351856.000000 0 0 1
-2.850162 29.943010 21.155431 36.773081 -1.475896 0.957830 0.033973 0.003599 226906.000000 0 0 1
-4.128362 29.769110 20.578431 36.424100 -1.432996 0.970403 0.027327 0.008055 374119.000000 0 0 1
-4.906062 28.613910 20.998331 35.829530 -1.400990 0.944606 0.031401 0.008817 1822810.000000 0 0 1
-6.489662 28.675010 20.794831 36.011066 -1.348228 0.955186 0.041573 0.002924 1564170.000000 0 0 1
-6.936262 28.869610 19.484731 35.513671 -1.335004 0.990042 0.026739 0.004117 279534.000000 0 0 1
-7.816062 27.884710 18.914031 34.588848 -1.297510 0.992230 0.009665 0.007008 -416354.000000 0 0 1
-7.193062 26.544810 18.487731 33.138547 -1.306173 0.978953 0.001696 0.001264 -135014.000000 0 0 1
-6.320362 26.618510 17.383831 32.414343 -1.337671 1.004748 0.006005 -0.004385 39565.900000 0 0 1
-4.959162 26.657210 17.796431 32.433210 -1.386864 0.989976 0.023046 0.003743 507931.000000 0 0 1
-3.954762 26.921510 16.600731 31.874631 -1.424940 1.022993 0.016451 -0.003990 432692.000000 0 0 1
-3.744762 25.760710 15.857031 30.480860 -1.426440 1.023677 0.024104 -0.007853 -138155.000000 0 0 1
-2.903962 26.033610 14.747231 30.060982 -1.459709 1.058044 0.029681 -0.021326 -163705.000000 0 0 1
-2.330262 24.687510 14.222831 28.586573 -1.476685 1.050041 0.018553 -0.014787 -568382.000000 0 0 1
-1.292062 24.222610 15.003831 28.522258 -1.517506 1.016860 0.030346 -0.013787 -648691.000000 0 0 1
-0.637162 23.153410 14.393631 27.270185 -1.543284 1.014770 0.029148 -0.024053 491577.000000 0 0 1
0.717638 22.631610 15.016131 27.169633 1.539097 0.985219 0.022742 -0.022200 732803.000000 0 0 1
1.773038 23.544410 14.944831 27.943351 1.495632 1.006495 0.029076 -0.029468 -780567.000000 0 0 1
2.878738 23.118410 15.660331 28.071230 1.446913 0.978969 0.027493 -0.024601 -52175.500000 0 0 1
4.010638 24.205210 15.799931 29.182447 1.406595 0.998672 0.032076 -0.026527 793378.000000 0 0 1
5.271438 23.579310 15.963931 28.958919 1.350851 0.986921 0.044731 -0.025195 440251.000000 0 0 1
6.339038 24.527210 16.062231 29.996045 1.317881 1.005722 0.057343 -0.027715 1230110.000000 0 0 1
7.817338 23.994610 16.208131 29.992592 1.255845 0.999879 0.063242 -0.023829 1193020.000000 0 0 1
8.419238 23.409410 15.048931 29.074978 1.225549 1.026764 0.061827 -0.011548 112913.000000 0 0 1
8.976138 24.347910 14.169131 29.566130 1.217594 1.071013 0.067058 -0.013182 -607071.000000 0 0 1
9.595738 23.800110 12.874131 28.710045 1.187551 1.105801 0.060282 -0.008324 -544232.000000 0 0 1
10.722838 23.025610 13.164031 28.608559 1.134970 1.092640 0.067570 -0.011983 -484417.000000 0 0 1
11.131838 22.412810 11.981231 27.745302 1.109814 1.124277 0.062846 -0.009399 1078380.000000 0 0 1
12.530838 21.684610 12.187931 27.853005 1.046809 1.117890 0.068874 -0.012517 1332300.000000 0 0 1
12.278938 20.443110 12.779131 27.055485 1.029907 1.078863 0.062874 -0.002441 258818.000000 0 0 1
13.532138 19.781010 12.842331 27.190671 0.970823 1.078891 0.068004 -0.006362 184493.000000 0 0 1
13.858038 19.264910 14.263031 27.687832 0.947207 1.029629 0.069774 -0.011891 81935.500000 0 0 1
14.876438 18.250310 14.252831 27.523180 0.886896 1.026463 0.072213 -0.020977 615265.000000 0 0 1
15.413238 18.120010 15.575231 28.433967 0.865943 0.991102 0.055595 -0.018600 -46277.900000 0 0 1
16.159138 16.790410 15.740831 28.121333 0.804555 0.976716 0.035364 -0.021178 -40668.200000 0 0 1
16.894838 16.856110 16.976331 29.287537 0.784251 0.952505 0.046878 -0.022054 -20583.100000 0 0 1
17.903138 15.891810 16.929731 29.320433 0.725953 0.955251 0.041883 -0.025504 -138578.000000 0 0 1
18.634438 15.702010 18.271131 30.457013 0.700202 0.927421 0.042134 -0.021776 -204238.000000 0 0 1
19.274438 16.774910 18.903831 31.784531 0.716173 0.933842 0.034509 -0.004646 377006.000000 0 0 1
18.392038 17.498210 19.738931 32.157111 0.760499 0.909896 0.026257 -0.001247 -228841.000000 0 0 1
19.065238 18.674710 20.384331 33.581975 0.775051 0.918513 0.007264 0.010297 -193620.000000 0 0 1
18.149038 19.541810 21.049831 33.975952 0.822334 0.902626 0.027396 0.001910 583881.000000 0 0 1
18.860538 20.571710 21.779931 35.401702 0.828766 0.908128 0.017147 0.010938 571496.000000 0 0 1
17.905138 21.501410 22.600131 35.967632 0.876407 0.891371 0.028895 0.006724 516053.000000 0 0 1
17.235738 20.909010 23.705911 36.003161 0.881400 0.852053 0.034598 0.002990 148365.000000 0 0 1
16.574838 21.888610 24.478991 36.783930 0.922680 0.842659 0.028045 -0.006378 165748.000000 0 0 1
15.812238 21.403810 25.750551 37.030269 0.934529 0.801831 0.046578 -0.005502 76553.300000 0 0 1
14.724638 20.540910 25.541521 35.932064 0.948855 0.780121 0.054511 -0.011960 -298421.000000 0 0 1
14.026338 20.308410 26.763311 36.406654 0.966362 0.744951 0.062000 -0.010422 377662.000000 0 0 1
12.988238 19.165410 26.524491 35.207327 0.975200 0.717609 0.074745 -0.012910 435718.000000 0 0 1
13.614838 17.860710 26.442211 34.692352 0.919483 0.704105 0.052258 -0.019873 942078.000000 0 0 1
14.490138 17.600510 25.309821 34.063604 0.882021 0.733230 0.053165 -0.023034 43417.300000 0 0 1
13.747938 17.198910 24.050891 32.607571 0.896452 0.741308 0.076410 -0.024083 -801629.000000 0 0 1
13.100538 18.233010 23.377931 32.412874 0.947757 0.765185 0.074926 -0.019115 217243.000000 0 0 1
13.935638 18.968310 22.450531 32.527298 0.937172 0.809023 0.062696 -0.018092 446637.000000 0 0 1
14.480538 18.197610 21.221831 31.483410 0.898659 0.831100 0.062162 -0.013770 65507.400000 0 0 1
13.492238 17.783610 20.295231 30.169416 0.921757 0.832933 0.059450 -0.014400 -42818.600000 0 0 1
14.005538 16.886410 19.355731 29.256628 0.878386 0.847867 0.056605 -0.021218 222985.000000 0 0 1
12.862438 16.324210 18.465631 27.801109 0.903455 0.844367 0.046203 -0.017100 242142.000000 0 0 1
12.464738 17.160810 17.426531 27.450812 0.942604 0.883011 0.064735 -0.018627 70427.300000 0 0 1
11.362338 16.597110 16.723931 26.158300 0.970483 0.877162 0.045931 -0.013896 349306.000000 0 0 1
10.994338 17.313910 15.432531 25.667294 1.005038 0.925728 0.044765 -0.011668 -41415.000000 0 0 1
10.211138 18.476610 15.665331 26.287926 1.065919 0.932394 0.049318 -0.011976 40445.200000 0 0 1
9.834638 18.959710 14.367331 25.741230 1.092291 0.978648 0.039189 -0.001923 345123.000000 0 0 1
8.617038 19.945810 14.354031 26.040869 1.162993 0.986981 0.046220 -0.003861 645609.000000 0 0 1
7.371638 19.380610 14.759331 25.451659 1.207333 0.952195 0.026616 -0.005920 189543.000000 0 0 1
6.452538 20.469210 14.791031 26.065272 1.265425 0.967377 0.036264 -0.010718 -79823.800000 0 0 1
5.177638 20.208110 15.578231 26.035686 1.319976 0.929367 0.030328 -0.012864 -492078.000000 0 0 1
4.226638 19.318510 15.075531 24.866462 1.355403 0.919448 0.026237 -0.014108 -453254.000000 0 1 0
3.101538 19.180010 15.902831 25.107615 1.410477 0.884874 0.018899 -0.011165 128113.000000 0 0 1
1.851838 18.672110 15.166531 24.126762 1.471943 0.891021 0.017256 -0.009187 202423.000000 0 1 0
1.159438 19.650110 14.313631 24.338265 1.511861 0.942074 0.014531 -0.015837 29443.100000 0 1 0
0.356138 18.890110 13.437731 23.184816 1.551945 0.952569 0.010465 -0.022054 -48203.300000 0 1 0
-0.557662 19.809910 12.575131 23.470778 -1.542653 1.005367 0.017962 -0.027504 344013.000000 0 1 0
-1.707862 20.406010 13.155931 24.339280 -1.487297 0.999738 0.016821 -0.022274 254328.000000 0 1 0
-2.622162 20.749810 12.101231 24.163405 -1.445092 1.046264 0.015933 -0.026166 83420.200000 0 1 0
-3.872462 21.390410 12.687931 25.170006 -1.391699 1.042469 0.009688 -0.023180 -63934.500000 0 0 1
-4.588562 20.657310 13.705731 25.211632 -1.352217 0.996044 0.019643 -0.023405 979519.000000 0 0 1
-5.664962 21.484510 14.242231 26.391610 -1.312988 1.000775 0.011845 -0.010408 943998.000000 0 0 1
-6.442062 20.811410 15.413131 26.686692 -1.270606 0.955061 0.016461 -0.010811 -158867.000000 0 0 1
-7.321462 19.684010 15.154431 25.898278 -1.214703 0.945729 0.019918 -0.008634 562653.000000 0 0 1
-8.049162 19.255910 16.284731 26.472090 -1.174861 0.908200 0.016918 0.008375 -310691.000000 0 0 1
-9.204062 20.192010 16.689031 27.766090 -1.143107 0.925972 0.013986 0.012386 -306169.000000 0 0 1
-10.283462 20.261610 15.758731 27.651764 -1.101139 0.964413 0.008686 0.000708 587032.000000 0 0 1
-11.455862 19.583910 16.189631 27.872396 -1.041507 0.951026 0.005605 0.003485 -616175.000000 0 0 1
-12.627162 19.521410 15.282531 27.822408 -0.996648 0.989284 0.007845 -0.000482 -884342.000000 0 0 1
-13.298162 20.759410 15.046831 28.882544 -1.001068 1.022814 -0.009128 0.009498 -100092.000000 0 0 1
-14.080162 20.640610 13.894931 28.589418 -0.972145 1.063270 -0.004152 -0.001557 -276522.000000 0 0 1
-15.005862 21.882710 13.745231 29.882441 -0.969705 1.092827 -0.015484 -0.001244 -685145.000000 0 0 1
-16.052262 21.909210 14.625131 30.847740 -0.938478 1.076847 -0.027282 -0.007998 -451277.000000 0 0 1
-16.955462 23.021610 14.514231 32.064702 -0.935990 1.101056 0.004906 -0.011886 523048.000000 0 0 1
-18.272362 22.857910 15.294031 33.019246 -0.896428 1.089210 0.066747 -0.020692 -492510.000000 0 0 1
-19.041962 21.700610 14.925331 32.500435 -0.850561 1.093663 0.069277 -0.026672 362572.000000 0 0 1
-20.256462 21.569410 15.628831 33.463772 -0.816779 1.084859 0.080268 -0.020561 213551.000000 0 0 1
-21.411862 22.564410 15.444231 34.729594 -0.811601 1.109958 0.085137 -0.025368 -765728.000000 0 0 1
-21.994362 22.477510 14.128931 34.476327 -0.796262 1.148545 0.098057 -0.021687 440138.000000 0 0 1
-22.844562 23.598610 13.878131 35.656289 -0.801633 1.171012 0.111534 -0.027686 1908.380000 0 0 1
-22.120862 24.832010 13.309431 35.820416 -0.843076 1.190108 0.102852 -0.033567 -488986.000000 0 0 1
-21.066662 25.261910 14.150931 35.808060 -0.875706 1.164523 0.076493 -0.036596 87191.900000 0 0 1
-20.544862 26.502810 13.649531 36.204972 -0.911364 1.184234 0.049487 -0.030152 -480433.000000 0 0 1
-19.116262 26.726810 14.167431 35.783655 -0.949911 1.163728 0.038630 -0.026398 -85395.100000 0 0 1
-18.191362 26.030610 13.342931 34.446366 -0.960846 1.173037 0.039049 -0.021934 29797.900000 0 0 1
-16.888162 26.578910 13.342031 34.200267 -1.004755 1.170040 -0.012641 -0.016225 19609.900000 0 0 1
-15.937062 25.872510 12.339331 32.796887 -1.018706 1.185067 0.000005 -0.020248 206563.000000 0 0 1
-14.596862 26.282210 12.542831 32.575229 -1.063825 1.175543 -0.012272 -0.012966 -233916.000000 0 0 1
-13.707562 25.829510 11.577331 31.449888 -1.082896 1.193810 -0.006075 -0.016998 343683.000000 0 0 1
-12.296562 26.472210 11.825131 31.493127 -1.135943 1.185879 -0.013060 -0.010783 527188.000000 0 0 1
-11.219562 25.836310 11.102731 30.276461 -1.161112 1.195324 -0.016083 -0.009467 75785.700000 0 0 1
-9.955262 26.248310 11.506231 30.339320 -1.208285 1.181809 -0.000620 -0.009912 -667917.000000 0 0 1
-9.481762 27.543510 10.864431 31.089944 -1.239256 1.213811 0.006880 -0.021778 -924327.000000 0 0 1
-8.311162 28.017710 11.483331 31.399592 -1.282425 1.196394 0.014998 -0.025869 -117836.000000 0 0 1
-8.144562 29.382710 11.159131 32.468504 -1.300396 1.219952 0.025106 -0.027374 142002.000000 0 0 1
-6.797862 29.963510 11.705831 32.879315 -1.347701 1.206786 0.015804 -0.027336 323293.000000 0 0 1
-5.701362 29.441510 10.996031 31.940894 -1.379513 1.219344 0.029205 -0.025021 -547871.000000 0 0 1
-4.529562 29.634210 11.764231 32.204044 -1.419121 1.196838 0.030186 -0.028892 -428337.000000 0 0 1
-3.282762 29.162010 11.031731 31.351211 -1.458698 1.211222 0.040688 -0.032894 -591343.000000 0 0 1
-3.079062 29.939010 9.823931 31.659668 -1.468312 1.255290 0.059699 -0.038355 106985.000000 0 0 1
-2.193562 29.296610 8.908831 30.699680 -1.496062 1.276368 0.060531 -0.039125 271102.000000 0 0 1
-1.820462 30.171010 7.712631 31.194368 -1.510531 1.320961 0.054882 -0.037067 -43103.500000 0 0 1
-2.759062 30.029810 6.692431 30.889975 -1.479176 1.352411 0.054967 -0.038374 21376.400000 0 0 1
-2.400362 30.979110 5.740131 31.597723 -1.493468 1.388119 0.062204 -0.030810 176627.000000 0 0 1
11.421038 34.162910 -26.472723 44.702903 1.248166 2.204573 0.098719 -0.028299 -63617.800000 0 0 1
11.669138 -34.042922 -25.116323 43.885294 -1.240570 2.180126 0.076049 -0.022284 -334347.000000 0 0 1
12.845138 -33.304822 -25.036463 43.600840 -1.202692 2.182447 0.083750 -0.020327 -601591.000000 0 0 1
13.330838 -33.258922 -23.598463 42.904016 -1.189583 2.153196 0.064677 -0.017605 -1043300.000000 0 0 1
12.693138 -32.340322 -22.740963 41.523049 -1.196784 2.150374 0.068086 -0.019454 -78525.900000 0 0 1
13.264238 -32.216222 -21.489163 40.934205 -1.180223 2.123474 0.037794 -0.012064 -557953.000000 0 0 1
14.723638 -31.752122 -21.368863 41.007452 -1.136603 2.118932 0.015438 -0.011936 -456832.000000 0 0 1
15.629938 -32.749422 -21.727763 42.295571 -1.125507 2.110303 0.039644 -0.004381 176867.000000 0 0 1
17.015838 -32.403222 -21.672463 42.534729 -1.087249 2.105428 0.033977 -0.009098 630388.000000 0 0 1
17.915038 -33.655622 -21.748363 43.893516 -1.081640 2.089184 0.020887 -0.003244 327916.000000 0 0 1
19.324138 -33.426522 -21.699863 44.290391 -1.046629 2.082823 0.038100 0.000666 563450.000000 0 0 1
19.999638 33.792710 -22.009063 45.014793 1.036404 2.081659 0.027625 0.008869 729444.000000 0 0 1
21.518738 33.858810 -21.599263 45.563179 1.004651 2.064682 0.065797 0.013087 998971.000000 0 0 1
22.457838 -34.016422 -22.525763 46.571251 -0.987280 2.075655 0.054944 0.008862 -136426.000000 0 0 1
23.750138 -34.021622 -21.996163 46.961378 -0.961354 2.058262 0.045715 0.009612 -221226.000000 0 0 1
24.773638 -33.399422 -22.980763 47.511788 -0.932604 2.075657 0.056267 0.003862 -12719.300000 0 0 1
24.875838 -31.992622 -22.919263 46.557790 -0.909896 2.085498 0.060195 0.000602 613016.000000 0 0 1
23.674138 -31.298222 -23.303863 45.641139 -0.923208 2.106666 0.045224 0.001377 202264.000000 0 0 1
23.909538 -29.749922 -23.268263 44.700514 -0.893813 2.118276 0.049005 -0.019114 -236825.000000 0 0 1
24.741338 -29.254222 -24.309463 45.375030 -0.868783 2.136187 0.038277 -0.018132 111977.000000 0 0 1
24.728738 -27.841222 -24.067963 44.338595 -0.844536 2.144590 0.049157 -0.015519 529580.000000 0 0 1
25.440538 -27.002622 -25.171303 44.832545 -0.815176 2.166935 0.048027 -0.015718 251.386000 0 0 1
24.546838 -27.018422 -26.240113 44.956489 -0.833293 2.194047 0.034330 -0.013304 -488458.000000 0 0 1
25.086338 -26.521122 -27.382893 45.634604 -0.813193 2.214356 0.025292 -0.012076 -220211.000000 0 0 1
24.000638 -26.158722 -28.464983 45.503457 -0.828396 2.246641 0.028607 -0.010351 553782.000000 0 0 1
23.255238 -25.004522 -28.261163 44.325225 -0.821630 2.262158 0.039265 -0.006681 465790.000000 0 0 1
22.006038 -25.240222 -27.580513 43.382245 -0.853745 2.259784 0.033519 -0.008210 522767.000000 0 0 1
21.133338 -24.029122 -27.227553 42.016144 -0.849430 2.275786 0.030418 -0.007533 -53117.900000 0 0 1
20.645938 -23.380122 -28.400263 42.183644 -0.847422 2.309396 0.040419 -0.004776 167940.000000 0 0 1
19.984338 -22.183122 -28.004733 40.935678 -0.837495 2.324187 0.023537 0.002621 -569821.000000 0 0 1
19.198538 -21.449122 -29.080303 40.918367 -0.840710 2.361276 0.045282 -0.001050 -482435.000000 0 0 1
17.989538 -22.147422 -29.202123 40.827635 -0.888622 2.367784 0.043925 -0.014429 -431508.000000 0 0 1
17.097638 -21.518822 -30.106663 40.765182 -0.899391 2.401697 0.034138 -0.017287 -128676.000000 0 0 1
15.770538 -22.288822 -30.167273 40.688645 -0.955019 2.405977 0.039070 -0.023958 -518546.000000 0 0 1
15.989338 -23.591022 -30.605003 41.819391 -0.975145 2.391811 0.043656 -0.020966 -85860.800000 0 0 1
14.862838 -24.383622 -30.411553 41.717233 -1.023390 2.387645 0.054468 -0.030981 -409463.000000 0 0 1
15.218038 -25.864122 -30.781563 42.988907 -1.038962 2.368902 0.074758 -0.029126 725077.000000 0 0 1
14.097038 -26.762722 -30.618943 43.040556 -1.085985 2.362281 0.092309 -0.029071 624548.000000 0 0 1
14.374538 -28.105622 -31.017733 44.256673 -1.098033 2.347399 0.155633 -0.028677 23064.200000 0 0 1
13.789138 -29.133022 -30.077923 44.085766 -1.128723 2.321645 0.146742 -0.029314 -201128.000000 0 0 1
14.385838 -29.188222 -28.776423 43.439466 -1.112873 2.294879 0.151089 -0.035432 64565.100000 0 0 1
14.026238 -28.151622 -27.876043 42.027645 -1.108558 2.295988 0.128586 -0.029435 169326.000000 0 0 1
14.999038 -28.081922 -26.650113 41.518598 -1.080229 2.267749 0.098646 -0.023492 -121594.000000 0 0 1
14.905238 -29.122222 -25.732003 41.622181 -1.097740 2.237283 0.094628 -0.029360 -75167.900000 0 0 1
15.812538 -28.999922 -24.655563 41.218062 -1.071598 2.212017 0.090127 -0.030534 -849169.000000 0 0 1
15.363538 -28.023622 -23.557063 39.702606 -1.069309 2.205996 0.072251 -0.027801 1071740.000000 0 0 1
14.280338 -28.423522 -22.663663 39.057218 -1.105220 2.189854 0.064730 -0.030140 1121100.000000 0 0 1
13.025338 -28.553322 -23.329263 39.105065 -1.142818 2.210028 0.063706 -0.021123 -325418.000000 0 0 1
11.799238 -28.224922 -22.444163 37.942176 -1.174833 2.203759 0.032547 -0.013582 99612.600000 0 0 1
11.718638 -26.874422 -22.052063 36.685890 -1.159602 2.215679 0.023855 -0.011577 -177001.000000 0 0 1
10.463438 -26.592522 -21.490463 35.755919 -1.195929 2.215588 0.030719 -0.011506 -134430.000000 0 0 1
10.150738 -25.045822 -21.314163 34.418371 -1.185741 2.238605 0.031148 -0.007331 305549.000000 0 0 1
10.736638 -24.416922 -20.131863 33.417860 -1.156523 2.217336 0.032896 -0.004154 359298.000000 0 0 1
10.298438 -23.075522 -19.988763 32.219376 -1.151030 2.240043 0.035872 -0.003307 -295130.000000 0 0 1
10.801138 -22.414322 -18.703663 31.127053 -1.121745 2.215399 0.015639 -0.002099 14910.800000 0 0 1
10.074138 -22.820222 -17.547963 30.498882 -1.155070 2.183846 0.029912 -0.009434 204150.000000 0 0 1
10.347038 -22.045522 -16.383863 29.351273 -1.131969 2.163010 0.030935 -0.002900 -92991.500000 0 0 1
9.521438 -22.460522 -15.154463 28.719168 -1.169842 2.126661 0.030768 0.001947 91868.600000 0 0 1
9.984938 -23.709722 -14.685263 29.622742 -1.172206 2.089486 0.028519 0.002150 247827.000000 0 0 1
9.298938 -24.149422 -13.505263 29.190015 -1.203237 2.051798 0.027512 -0.001851 212430.000000 0 0 1
9.554738 -25.652522 -13.242463 30.409007 -1.214248 2.021366 0.039074 -0.002163 1100460.000000 0 0 1
10.856538 -25.893922 -12.662363 30.800894 -1.173789 1.994461 0.033898 -0.002739 492085.000000 0 0 1
11.092038 -27.278722 -12.524063 32.000221 -1.184597 1.972921 0.038700 -0.008227 -184272.000000 0 0 1
12.540838 -27.661622 -12.110263 32.697040 -1.145147 1.950212 0.034897 -0.002141 443630.000000 0 0 1
13.553038 -27.308922 -13.072963 33.171741 -1.110124 1.975884 0.035003 -0.000932 396367.000000 0 0 1
13.624638 -27.968222 -14.300363 34.239635 -1.117484 2.001659 0.028474 -0.005694 -481088.000000 0 0 1
14.942538 -27.495522 -14.965863 34.688042 -1.072993 2.016886 0.015044 -0.003731 -318249.000000 0 0 1
16.036238 -28.322722 -14.703863 35.714718 -1.055603 1.995119 0.041998 -0.007604 -885106.000000 0 0 1
17.142038 -27.721822 -15.319463 36.014370 -1.016987 2.010168 0.060609 -0.012189 174611.000000 0 0 1
18.465438 -28.516322 -15.079563 37.169157 -0.996153 1.988542 0.057229 -0.015594 512145.000000 0 0 1
18.422538 -29.793922 -15.646763 38.365204 -1.017006 1.990881 0.046345 -0.008864 -245186.000000 0 0 1
19.714538 -30.251522 -15.973663 39.483864 -0.993236 1.987296 0.065387 -0.010835 181553.000000 0 0 1
19.691438 -31.352422 -17.043163 40.757779 -1.009994 2.002212 0.061703 -0.017197 -46819.100000 0 0 1
19.329638 -32.604822 -16.569863 41.367496 -1.035654 1.982916 0.029245 -0.002119 -6416.130000 0 0 1
19.788138 -33.483022 -17.592963 42.687182 -1.037028 1.995594 0.034864 -0.006241 -14682.600000 0 0 1
19.882738 33.379410 -17.235763 42.503880 1.033575 1.988333 0.021679 -0.000099 -81133.400000 0 0 1
21.003338 33.039610 -16.442963 42.463244 1.004538 1.968420 0.045290 -0.000066 171932.000000 0 0 1
20.778938 31.768610 -15.863563 41.141967 0.991564 1.966634 0.037663 -0.002949 406018.000000 0 0 1
21.865738 31.447410 -14.767263 41.050239 0.963224 1.938782 0.048903 -0.017876 -109990.000000 0 0 1
23.165838 31.315410 -15.264663 41.836836 0.933882 1.944281 0.049996 -0.005793 -348952.000000 0 0 1
24.152538 30.914710 -14.347763 41.772272 0.907585 1.921412 0.046407 -0.006072 19686.200000 0 0 1
23.993738 29.581410 -13.458763 40.396752 0.889318 1.910454 0.038345 -0.003894 -979053.000000 0 0 1
23.962638 28.346210 -14.191363 39.738022 0.869005 1.935982 0.043872 0.003141 264256.000000 0 0 1
23.589938 27.238710 -13.339163 38.423505 0.857061 1.925339 0.031409 0.001570 -313204.000000 0 0 1
22.095138 27.005110 -13.107563 37.273037 0.885066 1.930144 0.033926 -0.008479 -1308200.000000 0 0 1
21.382938 26.666510 -14.234863 37.026532 0.894919 1.965409 0.036545 -0.011822 -1003750.000000 0 0 1
20.002138 26.609410 -14.088863 36.147507 0.926212 1.971168 0.047481 -0.020256 -541379.000000 0 0 1
19.255938 28.000010 -14.040463 36.768550 0.968365 1.962605 0.054854 -0.018846 -515651.000000 0 0 1
19.194538 28.688910 -15.262163 37.741455 0.981140 1.987105 0.045817 -0.015985 46291.200000 0 0 1
18.449338 28.053710 -16.284163 37.317056 0.989067 2.022360 0.030744 -0.004315 -414808.000000 0 0 1
18.420138 28.933010 -17.528063 38.518223 1.003865 2.043235 0.021473 0.003359 -106359.000000 0 0 1
17.543338 30.028710 -17.445163 38.907915 1.042061 2.035738 0.020918 0.001507 -154984.000000 0 0 1
17.680138 30.723610 -18.638363 40.048921 1.048618 2.054871 0.012490 0.009501 -953093.000000 0 0 1
16.761138 31.856910 -18.894163 40.654493 1.086457 2.054148 -0.002972 0.010622 -795962.000000 0 0 1
16.856438 32.964810 -18.031163 41.181805 1.098113 2.023994 0.007009 -0.003985 100272.000000 0 0 1
16.079638 34.090410 -18.502163 41.988580 1.130063 2.027116 0.002850 -0.008493 125934.000000 0 0 1
15.952338 -33.038922 -17.566463 40.677120 -1.120975 2.017341 0.007433 -0.006303 -267502.000000 0 0 1
15.019938 -32.074422 -17.964463 39.712580 -1.132842 2.040208 -0.005141 -0.005194 -125085.000000 0 0 1
14.644638 -31.246622 -16.878763 38.414964 -1.132518 2.025705 0.001107 -0.004173 -174241.000000 0 0 1
13.519938 -30.234822 -17.119063 37.282644 -1.150303 2.047857 0.005910 -0.010337 63179.300000 0 0 1
12.298638 -30.851322 -17.484363 37.533499 -1.191461 2.055373 0.009933 -0.009123 -294283.000000 0 0 1
11.223038 -29.955922 -17.301563 36.368364 -1.212331 2.066591 0.004322 -0.007675 374651.000000 0 0 1
9.864438 -30.616922 -17.715663 36.722579 -1.259109 2.074210 0.028990 -0.017778 -663391.000000 0 0 1
9.429838 -31.588022 -16.801263 37.000100 -1.280693 2.042143 0.040944 -0.022536 -503279.000000 0 0 1
8.385038 -32.429722 -17.108263 37.612344 -1.317777 2.043009 0.063967 -0.020470 150005.000000 0 0 1
6.976138 -31.865422 -17.511363 37.023229 -1.355272 2.063470 0.062205 -0.017193 53665.200000 0 0 1
6.845838 -31.295422 -18.784763 37.136724 -1.355440 2.101137 0.048022 -0.014870 -250618.000000 0 0 1
6.690038 -32.255722 -19.815063 38.442489 -1.366290 2.112325 0.044215 -0.021074 -1123800.000000 0 0 1
6.887038 -31.677322 -21.242263 38.757164 -1.356716 2.150871 0.026775 -0.004089 -212079.000000 0 0 1
8.136838 -31.096322 -21.563263 38.706120 -1.314869 2.161689 0.035063 -0.013203 1285150.000000 0 0 1
9.367238 -31.864722 -21.496563 39.562708 -1.284882 2.145224 0.034379 -0.027400 717396.000000 0 0 1
9.471038 -33.062122 -22.512763 41.105097 -1.291806 2.150395 0.047587 -0.027669 -823139.000000 0 0 1
8.409838 -33.974022 -22.344063 41.523688 -1.328137 2.138982 0.053451 -0.031123 -221652.000000 0 0 1
8.412138 33.276910 -23.165763 41.409774 1.323192 2.164491 0.071752 -0.039953 -604646.000000 0 0 1
7.259138 32.303510 -22.907063 40.260966 1.349752 2.176043 0.074038 -0.047130 -195582.000000 0 0 1
5.952338 32.775210 -23.153163 40.567396 1.391143 2.178195 0.077406 -0.042937 64344.700000 0 0 1
5.358238 33.422210 -22.048863 40.396871 1.411829 2.148147 0.062009 -0.032562 -317224.000000 0 0 1
4.033138 34.123610 -22.427963 41.032919 1.453150 2.149077 0.055679 -0.024300 653186.000000 0 0 1
2.837138 33.356610 -22.515463 40.344254 1.485946 2.162871 0.049516 -0.034425 1032420.000000 0 0 1
1.714138 34.145110 -22.915363 41.157510 1.520637 2.161291 0.039355 -0.022535 734527.000000 0 0 1
0.283838 33.707510 -22.507163 40.532076 1.562376 2.159511 0.029702 -0.027324 369464.000000 0 0 1
-0.021062 33.959410 -21.133063 39.998104 -1.570176 2.127454 0.021340 -0.029154 -870770.000000 0 0 1
-1.061862 33.204610 -20.661563 39.122549 -1.538828 2.127186 0.023997 -0.026790 -713752.000000 0 0 1
-1.377662 33.369910 -19.161463 38.504681 -1.529535 2.091672 0.036667 -0.020903 268881.000000 0 0 1
-0.408962 32.893310 -18.241163 37.614852 -1.558364 2.077097 0.056168 -0.032302 -17997.300000 0 0 1
-0.998362 32.891510 -16.959763 37.020018 -1.540452 2.046680 0.039119 -0.025824 17263.700000 0 0 1
-0.283162 31.956210 -15.968563 35.724985 -1.561936 2.034189 0.033151 -0.020040 579568.000000 0 0 1
0.998138 32.535510 -15.683463 36.132073 1.540128 2.019790 0.034462 -0.016010 -197658.000000 0 0 1
1.772138 31.513810 -15.140063 35.006888 1.514622 2.018047 0.051819 -0.006999 24725.100000 0 0 1
2.916338 32.040210 -14.247563 35.186263 1.480025 1.987686 0.061941 -0.016574 -303814.000000 0 0 1
3.987738 32.734010 -14.813263 36.150383 1.449571 1.992996 0.055822 -0.018587 -423952.000000 0 0 1
4.696738 33.359910 -13.754363 36.388534 1.430926 1.958416 0.059225 -0.029486 39302.900000 0 0 1
6.122538 33.813910 -14.201063 37.182471 1.391671 1.962679 0.062697 -0.045708 361422.000000 0 0 1
6.823138 32.595510 -14.378263 36.273364 1.364448 1.978374 0.052604 -0.033586 -841525.000000 0 0 1
8.084438 32.731610 -14.970563 36.889486 1.328651 1.988674 0.045195 -0.018486 44467.800000 0 0 1
8.881638 31.419610 -15.173863 36.004465 1.295306 2.005833 0.031371 -0.017649 89128.300000 0 0 1
9.525938 31.114610 -13.952363 35.405238 1.273701 1.975859 0.029208 -0.025941 -17200.100000 0 0 1
10.432038 30.005010 -14.067863 34.742378 1.236193 1.987687 0.028583 -0.022742 497642.000000 0 0 1
9.804338 28.597010 -13.793263 33.229025 1.240510 1.998846 0.034449 -0.021415 -338313.000000 0 0 1
9.138338 28.155910 -14.936063 33.156454 1.256961 2.038091 0.030125 -0.018706 -96253.200000 0 0 1
8.614138 26.827310 -14.701863 31.781326 1.260100 2.051716 0.028987 -0.016040 327068.000000 0 0 1
7.693938 26.280110 -15.880763 31.655007 1.285989 2.096339 0.025827 -0.006411 452143.000000 0 0 1
8.491338 25.549210 -16.758963 31.713211 1.249929 2.127574 0.030876 -0.008235 -72786.400000 0 0 1
7.729438 24.839010 -17.713863 31.472235 1.269113 2.168615 0.032091 -0.002553 567202.000000 0 0 1
8.657838 23.768110 -18.402163 31.281317 1.221472 2.199726 0.033368 0.006030 330393.000000 0 0 1
8.010138 22.958910 -19.385363 31.097687 1.235111 2.243841 0.054596 -0.005917 -389773.000000 0 0 1
8.869238 21.994710 -19.927563 30.976417 1.187496 2.269615 0.042947 -0.001544 -472031.000000 0 0 1
8.189638 21.001910 -20.912063 30.748411 1.198986 2.318698 0.045293 -0.015047 -28853.600000 0 0 1
7.324138 20.160410 -20.179463 29.449887 1.222329 2.325693 0.054671 -0.019417 -230632.000000 0 0 1
6.547838 19.383010 -21.061963 29.362928 1.245019 2.370713 0.058373 -0.019392 89625.100000 0 0 1
25.072238 -12.237190 -9.597663 29.503916 -0.454064 1.902127 0.059796 -0.012947 -435650.000000 0 0 1
25.514038 -11.587390 -8.457963 29.270649 -0.426306 1.863934 0.077297 -0.023031 155778.000000 0 0 1
24.657838 -11.760890 -7.365463 28.294479 -0.445049 1.834144 0.075113 -0.022193 -770559.000000 0 0 1
25.297338 -11.406890 -6.008563 28.393226 -0.423613 1.784028 0.063101 -0.026462 -269956.000000 0 0 1
25.563438 -10.022590 -5.672363 28.037785 -0.373649 1.774514 0.089402 -0.036905 700135.000000 0 0 1
26.724938 -9.520390 -6.319463 29.065370 -0.342220 1.789969 0.082593 -0.034876 -784477.000000 0 0 1
26.858338 -7.975890 -6.018663 28.656752 -0.288667 1.782398 0.114841 -0.040364 -124150.000000 0 0 1
27.353638 -7.646490 -4.707363 28.789748 -0.272584 1.735042 0.110071 -0.046951 2145360.000000 0 0 1
28.728938 -8.119290 -4.478563 30.188281 -0.275434 1.719700 0.107931 -0.045209 1134300.000000 0 0 1
29.199338 -7.853290 -3.048563 30.390282 -0.262737 1.671279 0.112571 -0.046146 -311803.000000 0 0 1
29.680938 -6.557190 -2.869863 30.531802 -0.217430 1.664931 0.118191 -0.043036 319628.000000 0 0 1
30.512738 -6.426290 -1.739263 31.230585 -0.207576 1.626516 0.113088 -0.037768 -14389.100000 0 0 1
30.859038 -4.976690 -1.355163 31.287124 -0.159895 1.614124 0.101976 -0.037370 -24004.100000 0 0 1
29.645438 -4.366790 -0.941563 29.980117 -0.146249 1.602208 0.118237 -0.032708 386942.000000 0 0 1
29.792638 -3.061790 -0.463463 29.953141 -0.102410 1.586270 0.098379 -0.017678 -305342.000000 0 0 1
30.408538 -2.782590 0.911537 30.549188 -0.091253 1.540954 0.098552 -0.022799 -626148.000000 0 0 1
29.729638 -3.286790 2.004737 29.977881 -0.110109 1.503873 0.125165 -0.028148 -127959.000000 0 0 1
30.381738 -2.998890 3.214737 30.698174 -0.098388 1.465883 0.088866 -0.020078 -603537.000000 0 0 1
29.912438 -3.802990 4.436537 30.477853 -0.126459 1.424711 0.098971 -0.023772 -492454.000000 0 0 1
30.218338 -5.167690 4.314537 30.959138 -0.169373 1.430979 0.080356 -0.021791 148960.000000 0 0 1
29.858238 -5.943890 5.440937 30.926494 -0.196502 1.393945 0.088540 -0.018662 22668.600000 0 0 1
30.629438 -7.324590 5.445337 31.960347 -0.234728 1.399583 0.058596 -0.020540 1672290.000000 0 0 1
32.060138 -7.108490 5.636137 33.318900 -0.218194 1.400822 0.060284 -0.022691 1363150.000000 0 0 1
32.808938 -8.314490 5.580437 34.303038 -0.248196 1.407390 0.073907 -0.021055 -147848.000000 0 0 1
34.318338 -8.100290 5.709437 35.720592 -0.231791 1.410272 0.092908 -0.022021 -242861.000000 0 0 1
34.926938 -7.668990 4.498737 36.040852 -0.216142 1.445647 0.097343 -0.023852 693516.000000 0 0 1
36.344438 -7.532790 4.666437 37.409046 -0.204368 1.445730 0.105494 -0.025528 463983.000000 0 0 1
-35.592725 -7.276190 3.481237 36.495260 0.201651 1.475262 0.088323 -0.020829 -481829.000000 0 0 1
-35.528425 -8.350890 2.558237 36.586212 0.230858 1.500816 0.108853 -0.030116 215405.000000 0 0 1
-34.521425 -8.048790 1.609537 35.483833 0.229061 1.525421 0.101716 -0.031277 2388.830000 0 0 1
-34.042125 -9.219390 0.729337 35.275989 0.264479 1.550120 0.090072 -0.025092 29966.400000 0 0 1
-33.435725 -10.148790 1.643037 34.980641 0.294693 1.523809 0.087605 -0.025121 218066.000000 0 0 1
-33.326225 -11.410590 1.008537 35.239977 0.329880 1.542173 0.094514 -0.022449 -572136.000000 0 0 1
-33.098925 -12.583490 1.986437 35.465885 0.363303 1.514757 0.071194 -0.033587 186187.000000 0 0 1
-31.850925 -12.643790 2.650637 34.371103 0.377890 1.493601 0.069685 -0.027273 294998.000000 0 0 1
-30.859825 -13.244990 1.818237 33.631303 0.405421 1.516706 0.084058 -0.009085 20837.300000 0 0 1
-29.539625 -13.607190 2.566837 32.624128 0.431668 1.492036 0.081491 -0.010878 549597.000000 0 0 1
-28.720325 -12.451990 2.792037 31.427768 0.409099 1.481839 0.086071 -0.011752 343232.000000 0 0 1
-27.474925 -12.785790 3.363037 30.490293 0.435555 1.460273 0.088974 -0.005725 -99813.300000 0 0 1
-26.726225 -11.623990 4.035237 29.422634 0.410250 1.433215 0.083689 -0.006211 697746.000000 0 0 1
-25.459425 -12.122890 4.518937 28.558144 0.444399 1.411892 0.078806 -0.000025 1290180.000000 0 0 1
-24.585825 -11.095090 5.019837 27.436519 0.423918 1.386798 0.074137 -0.002463 -127818.000000 0 0 1
-23.268225 -11.596490 5.589637 26.591971 0.462353 1.359017 0.069350 0.008810 -532596.000000 0 0 1
-23.315425 -12.476590 6.705537 27.280736 0.491349 1.322454 0.062309 0.003170 562030.000000 0 0 1
-22.026825 -12.893790 7.196937 26.518423 0.529591 1.295955 0.056303 0.008217 811259.000000 0 0 1
-21.790425 -12.624790 8.718437 26.649936 0.525115 1.237514 0.058811 0.005273 -544541.000000 0 0 1
-21.286625 -11.319390 9.006237 25.736381 0.488732 1.213287 0.049399 0.004876 10775.200000 0 0 1
-22.175825 -10.211190 9.089837 26.051118 0.431522 1.214375 0.065369 -0.002003 -956794.000000 0 0 1
-23.001425 -10.125290 10.370937 27.187192 0.414677 1.179417 0.067497 -0.002919 -1154060.000000 0 0 1
-23.829025 -11.248690 10.502037 28.366323 0.441045 1.191541 0.050567 -0.008370 -604008.000000 0 0 1
-25.190525 -11.015290 10.306337 29.361876 0.412225 1.212146 0.058531 -0.011040 -573956.000000 0 0 1
-25.855225 -10.459690 11.585337 30.201288 0.384421 1.177101 0.053474 -0.017252 -1111190.000000 0 0 1
-25.900725 -11.323990 12.723137 30.999331 0.412165 1.147868 0.070786 -0.017991 540986.000000 0 0 1
-26.934025 -10.908590 13.617737 32.091772 0.384819 1.132566 0.062066 -0.023484 315298.000000 0 0 1
-26.966625 -11.833890 14.845637 32.979278 0.413530 1.103862 0.061317 -0.018827 -319872.000000 0 0 1
-27.227725 -13.226790 14.532437 33.578099 0.452210 1.123205 0.054272 -0.014110 391432.000000 0 0 1
-27.209925 -13.958290 15.742637 34.395414 0.473982 1.095394 0.052305 -0.014209 -872171.000000 0 0 1
-26.864025 -15.438690 15.506937 34.648147 0.521607 1.106767 0.050249 -0.004536 -479706.000000 0 0 1
-27.951025 -16.258190 15.236437 35.745455 0.526830 1.130455 0.057150 -0.007272 -410.212000 0 0 1
-27.426025 -17.611490 15.353637 36.028955 0.570834 1.130567 0.044593 -0.004914 578819.000000 0 0 1
-28.416325 -18.612390 16.019837 37.557207 0.579875 1.130127 0.037615 0.005005 206482.000000 0 0 1
-28.547225 -18.320890 17.407737 38.126479 0.570571 1.096650 0.053433 0.002029 -13660.900000 0 0 1
-29.173625 -19.347290 18.192437 39.451018 0.585583 1.091517 0.051702 0.010148 134930.000000 0 0 1
-28.303925 -20.637690 18.384437 39.560257 0.630020 1.087478 0.045733 0.014412 59193.500000 0 0 1
-27.275525 -20.353190 19.301637 39.124926 0.641069 1.054878 0.046434 0.015231 98225.100000 0 0 1
-26.476125 -21.479090 19.658037 39.354478 0.681571 1.047761 0.046484 0.020329 -274928.000000 0 0 1
-25.125325 -21.216890 20.296937 38.644586 0.701259 1.017822 0.036854 0.020446 130531.000000 0 0 1
-24.044025 -20.864390 19.419137 37.289956 0.714713 1.023055 0.044662 0.015597 1227680.000000 0 0 1
-22.786425 -21.209690 20.023337 37.013594 0.749575 0.999203 0.055187 0.009341 623159.000000 0 0 1
-21.510125 -20.973490 19.203837 35.656137 0.772767 1.002040 0.053314 0.006420 -197619.000000 0 0 1
-21.278025 -21.874190 18.147337 35.504371 0.799213 1.034298 0.036835 0.009753 484545.000000 0 0 1
-20.095625 -21.512090 17.442237 34.217478 0.819428 1.035906 0.035249 0.010864 272540.000000 0 0 1
-19.863425 -22.324390 16.119737 33.952614 0.843666 1.076092 0.027636 0.022202 -193080.000000 0 0 1
-19.964225 -23.727790 16.306837 35.035571 0.871325 1.086668 0.022587 0.013006 1246550.000000 0 0 1
-18.841325 -24.390190 16.977437 35.186791 0.913053 1.067296 0.035239 -0.000530 823212.000000 0 0 1
-17.545925 -24.703690 16.206637 34.362580 0.953221 1.079651 0.039974 -0.004410 383361.000000 0 0 1
-16.766625 -23.516790 15.988037 33.011763 0.951423 1.065218 0.045140 -0.005362 -416761.000000 0 0 1
-15.511425 -23.814590 15.442637 32.345232 0.993479 1.073067 0.039768 -0.004978 137790.000000 0 0 1
-14.564225 -22.551590 15.405937 30.952121 0.997367 1.049812 0.040186 0.001340 153817.000000 0 0 1
-15.094325 -21.482790 14.612637 30.047930 0.958311 1.062933 0.041304 0.001076 115945.000000 0 0 1
-16.115325 -20.679190 15.213337 30.311355 0.908804 1.045000 0.047661 -0.001242 -21484.000000 0 0 1
-15.751625 -19.423590 16.064637 29.723091 0.889412 0.999793 0.046924 -0.006419 -536566.000000 0 0 1
-15.399625 -18.297890 15.189137 28.331451 0.871195 1.004959 0.038690 -0.007149 149355.000000 0 0 1
-15.062025 -17.163790 15.968337 27.864818 0.850526 0.960556 0.020711 -0.003052 30109.600000 0 0 1
-14.290425 -16.054090 15.131137 26.285003 0.843454 0.957389 0.023756 -0.002850 589990.000000 0 0 1
-15.125025 -15.283890 14.230537 25.785109 0.790622 0.986168 0.040670 -0.019968 425723.000000 0 0 1
-15.392025 -15.980490 13.010537 25.720898 0.804153 1.040446 0.053741 -0.020917 -903875.000000 0 0 1
-16.393925 -15.236890 12.196337 25.488708 0.748835 1.071851 0.055258 -0.016014 472368.000000 0 0 1
-17.726025 -15.312390 12.786037 26.686401 0.712472 1.071142 0.041670 -0.016057 848379.000000 0 0 1
-18.607725 -14.367590 12.271437 26.519111 0.657515 1.089713 0.059674 -0.016932 1490970.000000 0 0 1
-20.153825 -14.815290 12.450837 27.940881 0.633904 1.108937 0.042803 -0.015153 1784850.000000 0 0 1
-20.644225 -15.950290 11.731537 28.604628 0.657826 1.148203 0.051169 -0.018665 -77935.100000 0 0 1
-20.635525 -15.831690 10.310637 27.978144 0.654422 1.193375 0.054516 -0.011661 -169953.000000 0 0 1
-21.463325 -16.853690 9.482837 28.890230 0.665671 1.236360 0.054461 -0.004459 370626.000000 0 0 1
-20.845325 -18.140690 9.560637 29.240691 0.716135 1.237708 0.054487 0.002778 165290.000000 0 0 1
-21.696725 -19.152990 9.087837 30.334365 0.723208 1.266535 0.058142 -0.000541 34931.000000 0 0 1
-21.039625 -20.547090 9.140137 30.795955 0.773555 1.269460 0.061003 0.001693 641190.000000 0 0 1
-20.044825 -20.842090 8.131037 30.038334 0.804895 1.296688 0.067468 -0.002000 398696.000000 0 0 1
-19.635525 -22.232990 8.319937 30.807159 0.847357 1.297336 0.064421 -0.008494 -145610.000000 0 0 1
-18.396625 -22.590890 7.485137 30.080083 0.887374 1.319314 0.057315 -0.012658 -326467.000000 0 0 1
-17.238325 -22.114690 8.135237 29.195915 0.908683 1.288415 0.043398 -0.008797 -445811.000000 0 0 1
-16.090425 -22.386690 7.339337 28.529486 0.947597 1.310616 0.048618 -0.008575 -85982.200000 0 0 1
-14.842425 -21.915690 8.101737 27.680918 0.975502 1.273765 0.021172 -0.005197 17474.000000 0 0 1
-13.639325 -22.147490 7.384737 27.038433 1.018811 1.294161 0.027514 -0.009556 574664.000000 0 0 1
-12.442325 -21.841290 8.103637 26.410648 1.052977 1.258933 0.038124 -0.009548 1464210.000000 0 0 1
-11.146625 -22.413090 7.413037 26.106455 1.109290 1.282881 0.049525 -0.006358 768305.000000 0 0 1
-10.897625 -23.779190 7.626237 27.246424 1.141075 1.287108 0.044650 -0.000709 -682708.000000 0 0 1
-9.686125 -24.231090 7.091637 27.041784 1.190514 1.305446 0.055534 -0.001845 -106392.000000 0 0 1
-9.551425 -25.741550 6.942037 28.320470 1.215492 1.323148 0.053956 -0.005186 -10399.100000 0 0 1
-10.436125 -26.364520 6.024637 28.987875 1.193882 1.361437 0.058784 -0.007740 -196908.000000 0 0 1
-10.254925 -27.771790 6.049137 30.216351 1.217070 1.369240 0.062726 -0.004065 283685.000000 0 0 1
-9.100025 -28.464050 5.255637 30.341957 1.261363 1.396705 0.059988 -0.006805 1317450.000000 0 0 1
-7.782225 -28.041710 5.678237 29.650344 1.300086 1.378099 0.056932 -0.008374 1116820.000000 0 0 1
-6.702225 -28.977490 5.485437 30.244087 1.343502 1.388415 0.057647 -0.003137 848777.000000 0 0 1
-6.700225 -30.391180 6.186937 31.730034 1.353801 1.374552 0.056099 -0.010848 -463283.000000 0 0 1
-6.566225 -30.381080 7.597137 31.997529 1.357942 1.331078 0.055121 -0.010447 24552.200000 0 0 1
-6.511225 -31.660940 8.180637 33.342676 1.367969 1.322915 0.075350 -0.018798 -143067.000000 0 0 1
-6.757225 -31.605460 9.699537 33.743832 1.360168 1.279237 0.062383 -0.019871 -528301.000000 0 0 1
-5.690225 -31.103220 10.446937 33.300563 1.389851 1.251692 0.038239 -0.011232 -111153.000000 0 0 1
-5.873225 -31.268530 11.887737 33.963717 1.385128 1.213212 0.025438 -0.015752 -568675.000000 0 0 1
-5.036225 -30.233700 12.626537 33.149203 1.405735 1.180027 0.026100 -0.012146 -88414.600000 0 0 1
-5.515225 -28.885260 12.635837 32.006880 1.382132 1.164962 0.036192 -0.011129 131817.000000 0 0 1
-4.798225 -28.044730 13.572237 31.523570 1.401345 1.125703 0.020336 -0.017066 -164737.000000 0 0 1
-5.511225 -27.677050 14.898337 31.911646 1.374241 1.085057 0.040236 -0.016896 -148594.000000 0 0 1
-5.822225 -28.835060 15.607137 33.300777 1.371560 1.083010 0.046117 -0.023794 276869.000000 0 0 1
-4.746225 -29.396820 16.366737 33.978961 1.410724 1.068234 0.030994 -0.018200 455135.000000 0 0 1
-5.218225 -30.712170 16.986337 35.482431 1.402496 1.071594 0.027283 -0.014150 265727.000000 0 0 1
-5.489225 -31.673500 15.946237 35.883488 1.399194 1.110304 0.014715 -0.009937 815.059000 0 0 1
-6.379225 -32.669750 16.355237 37.087746 1.377959 1.114098 0.011632 -0.012016 -179410.000000 0 0 1
-6.186225 -33.996110 15.580337 37.904509 1.390797 1.147200 0.008078 -0.010782 -140650.000000 0 0 1
-6.444225 -34.028650 14.236537 37.445374 1.383636 1.180789 0.010465 -0.022379 -746383.000000 0 0 1
-5.852225 33.243833 13.731037 36.440943 -1.396542 1.184454 0.005578 -0.016946 -378509.000000 0 0 1
-4.580225 33.503120 12.876737 36.183530 -1.434928 1.206948 0.025961 -0.026097 158228.000000 0 0 1
-4.852225 34.037124 11.614337 36.289981 -1.429194 1.245022 0.026411 -0.027372 1131320.000000 0 0 1
-3.619225 -33.845130 11.039937 35.783681 1.464266 1.257161 0.034315 -0.031607 498940.000000 0 0 1
-3.809225 -33.757340 9.527137 35.282213 1.458430 1.297376 0.041328 -0.029848 -726026.000000 0 0 1
-3.788225 33.466637 8.693637 34.784274 -1.458082 1.318188 0.060916 -0.043110 1192160.000000 0 0 1
-4.825225 32.445493 8.914637 33.992110 -1.423161 1.305437 0.055713 -0.039994 1015020.000000 0 0 1
-6.326225 32.705095 9.098437 34.531520 -1.379724 1.304166 0.056805 -0.036784 -366040.000000 0 0 1
-7.073225 33.079199 7.982237 34.756007 -1.360142 1.339063 0.070740 -0.032560 -545800.000000 0 0 1
-8.392825 33.327224 8.439937 35.388924 -1.324095 1.329985 0.063940 -0.026889 186766.000000 0 0 1
-9.384825 33.572292 7.287737 35.612987 -1.298213 1.364703 0.067631 -0.031689 -68654.000000 0 0 1
-9.299125 -33.575070 6.703937 35.478188 1.300604 1.380694 0.076583 -0.023665 -76823.700000 0 0 1
-10.061425 -33.524130 5.513637 35.433032 1.279225 1.414554 0.072126 -0.016615 -270929.000000 0 0 1
-10.088925 -32.132750 4.807537 34.020765 1.266567 1.429010 0.066825 -0.015656 895482.000000 0 0 1
-11.109625 -31.217700 5.292737 33.555650 1.228897 1.412405 0.070927 -0.017655 873076.000000 0 0 1
-12.428925 -31.460210 4.830937 34.169591 1.194549 1.428940 0.079568 -0.014922 -325292.000000 0 0 1
-13.540625 -30.706820 5.528137 34.012022 1.155481 1.407537 0.070206 -0.016596 -280325.000000 0 0 1
-14.000225 -31.188580 6.800337 34.856541 1.148866 1.374442 0.077167 -0.020244 97403.200000 0 0 1
-14.882625 -30.267370 7.420337 34.535020 1.113807 1.354244 0.066703 -0.013974 104943.000000 0 0 1
33.370311 -12.651390 -12.666263 37.869111 -0.362379 1.911844 0.037768 -0.018102 -343024.000000 0 0 1
32.488961 -12.582190 -11.554663 36.706326 -0.369489 1.891028 0.058627 -0.021018 30265.400000 0 0 1
32.128481 -13.843590 -11.089463 36.699598 -0.406842 1.877763 0.061498 -0.021482 -92292.900000 0 0 1
33.094341 -14.523790 -10.089663 37.523022 -0.413552 1.843039 0.064907 -0.023715 -609212.000000 0 0 1
34.248881 -15.013990 -10.643763 38.880528 -0.413148 1.848092 0.064607 -0.024151 -781611.000000 0 0 1
35.220401 -15.393290 -9.678963 39.637260 -0.412038 1.817479 0.057997 -0.026570 -252838.000000 0 0 1
-36.200402 -15.728290 -10.242663 40.776959 0.409871 1.824703 0.049962 -0.026710 -679951.000000 0 0 1
-35.598667 -14.608090 -10.820963 39.971923 0.389401 1.844931 0.050542 -0.031105 -92006.100000 0 0 1
-34.203173 -14.847690 -10.822363 38.825694 0.409555 1.853281 0.066863 -0.032010 299449.000000 0 0 1
-33.311892 -13.648890 -11.280163 37.725541 0.388866 1.874447 0.079983 -0.037308 197434.000000 0 0 1
-33.229572 -12.718790 -10.257863 37.029661 0.365552 1.851485 0.085604 -0.035418 -296597.000000 0 0 1
-32.421132 -11.749790 -10.765763 36.126016 0.347689 1.873399 0.082211 -0.024318 -577014.000000 0 0 1
-32.750872 -10.365490 -10.221463 35.840498 0.306520 1.860004 0.078410 -0.022440 -23414.400000 0 0 1
-32.354742 -10.254490 -8.851863 35.076194 0.306924 1.825916 0.081969 -0.018467 424661.000000 0 0 1
-33.166632 -9.300090 -8.216263 35.412203 0.273384 1.804948 0.084705 -0.021079 -77836.400000 0 0 1
-32.662282 -9.027590 -6.773663 34.557265 0.269660 1.768086 0.075360 -0.019057 97420.900000 0 0 1
-31.513372 -8.180890 -6.622663 33.224678 0.253994 1.771470 0.080476 -0.022008 620694.000000 0 0 1
-31.397062 -7.739090 -5.278963 32.764866 0.241673 1.732618 0.079346 -0.017087 -59234.000000 0 0 1
-30.815952 -8.757790 -4.290363 32.322268 0.276896 1.703926 0.073085 -0.009725 -836625.000000 0 0 1
-31.579322 -9.904290 -4.123663 33.351958 0.303916 1.694754 0.070958 -0.011897 -30394.200000 0 0 1
-31.301372 -10.572890 -2.926863 33.168184 0.325745 1.659154 0.077934 -0.013918 -62965.800000 0 0 1
-31.805682 -12.050790 -3.012263 34.145229 0.362175 1.659130 0.080911 -0.020913 -975272.000000 0 0 1
-33.181772 -12.168990 -3.094463 35.478022 0.351507 1.658129 0.082822 -0.023642 -709554.000000 0 0 1
-33.593232 -13.439090 -2.685063 36.281179 0.380553 1.644871 0.083981 -0.019367 121528.000000 0 0 1
-35.134154 -13.454590 -2.467563 37.703099 0.365721 1.636290 0.059252 -0.018988 223779.000000 0 0 1
-35.549550 -12.704590 -1.361263 37.776053 0.343232 1.606839 0.072879 -0.024780 1464350.000000 0 0 1
35.796341 -12.575190 -1.353763 37.965065 -0.337831 1.606462 0.103318 -0.032705 1343510.000000 0 0 1
35.244341 -11.653090 -0.248863 37.121692 -0.319322 1.577500 0.101394 -0.036849 -34406.700000 0 0 1
35.665471 -12.069290 1.041537 37.666675 -0.326306 1.543141 0.106718 -0.031879 275286.000000 0 0 1
35.515351 -11.097190 2.063537 37.265882 -0.302850 1.515395 0.101788 -0.029784 -140477.000000 0 0 1
35.813571 -11.436590 3.546937 37.762260 -0.309101 1.476730 0.118864 -0.038830 520167.000000 0 0 1
34.657231 -11.820890 4.284637 36.867536 -0.328706 1.454316 0.117992 -0.042770 562928.000000 0 0 1
35.139891 -12.418390 5.461937 37.667773 -0.339699 1.425280 0.113344 -0.037029 255140.000000 0 0 1
33.995981 -12.596090 6.502237 36.832965 -0.354835 1.393333 0.113914 -0.033813 128770.000000 0 0 1
33.586231 -11.334990 6.939837 36.120330 -0.325486 1.377463 0.103838 -0.033565 -40728.100000 0 0 1
33.027771 -11.513490 8.246337 35.936002 -0.335427 1.339260 0.084620 -0.013343 -38859.700000 0 0 1
32.220151 -10.235090 8.676137 34.902300 -0.307580 1.319579 0.065702 -0.022526 -113581.000000 0 0 1
30.890151 -10.239890 8.200237 33.560404 -0.320094 1.323955 0.062511 -0.017707 39929.100000 0 0 1
30.088861 -9.299090 8.919437 32.731774 -0.299743 1.294805 0.052090 -0.003628 -320281.000000 0 0 1
28.661611 -9.324690 8.379337 31.283400 -0.314537 1.299633 0.056121 -0.005866 -621948.000000 0 0 1
28.378921 -8.702290 7.156137 30.533642 -0.297543 1.334227 0.069480 -0.016450 -286769.000000 0 0 1
27.455401 -9.401990 6.369037 29.711296 -0.329929 1.354756 0.074168 -0.027019 -150894.000000 0 0 1
26.589501 -8.506590 5.451337 28.444344 -0.309633 1.377954 0.094303 -0.032716 122518.000000 0 0 1
25.498001 -7.795990 6.028137 27.336129 -0.296723 1.348450 0.116837 -0.028145 759185.000000 0 0 1
24.709801 -7.069690 5.051237 26.192934 -0.278664 1.376733 0.149315 -0.043378 -113051.000000 0 0 1
25.282701 -5.844190 4.304837 26.304014 -0.227164 1.406400 0.139935 -0.035482 -446211.000000 0 0 1
26.152101 -6.258790 3.253137 27.086671 -0.234904 1.450405 0.136280 -0.038339 97021.600000 0 0 1
26.680201 -5.098990 2.684337 27.295393 -0.188838 1.472293 0.136195 -0.035148 -131913.000000 0 0 1
27.209701 -5.473890 1.259137 27.783390 -0.198524 1.525461 0.125085 -0.044008 681041.000000 0 0 1
26.172801 -5.953790 0.357337 26.843823 -0.223674 1.557484 0.148155 -0.048272 738380.000000 0 0 1
26.622901 -5.932790 -0.940363 27.292145 -0.219263 1.605259 0.133838 -0.049601 489979.000000 0 0 1
25.426001 -6.184690 -1.954163 26.240249 -0.238609 1.645337 0.128193 -0.044336 1381410.000000 0 0 1
24.520601 -5.044190 -2.039863 25.117022 -0.202882 1.652100 0.134669 -0.039910 570088.000000 0 0 1
23.799901 -5.028590 -3.255263 24.542183 -0.208224 1.703828 0.108562 -0.034579 357252.000000 0 1 0
22.663101 -3.927390 -3.240763 23.228067 -0.171590 1.710772 0.088798 -0.029555 176437.000000 0 1 0
23.063601 -2.570390 -3.178763 23.423090 -0.110990 1.706927 0.087820 -0.030564 258750.000000 0 1 0
23.549201 -1.937690 -4.384663 24.032162 -0.082098 1.754274 0.090491 -0.027408 118590.000000 0 1 0
22.445101 -1.317990 -5.294463 23.098723 -0.058653 1.802063 0.066968 -0.016179 108835.000000 0 1 0
22.033201 -0.020390 -4.827463 22.555859 -0.000925 1.786487 0.045066 -0.004641 271613.000000 0 1 0
21.365201 0.791410 -5.746163 22.138576 0.037025 1.833357 0.064397 0.002068 -698256.000000 0 1 0
21.210101 2.231810 -5.188263 21.949201 0.104838 1.809431 0.071212 0.010575 -1172180.000000 0 1 0
22.395301 2.927310 -5.009863 23.134766 0.129974 1.789077 0.088235 0.005526 -258129.000000 0 1 0
23.009601 2.723610 -3.748263 23.471457 0.117820 1.731178 0.092669 0.008637 73250.200000 0 1 0
24.175801 3.745710 -3.578063 24.724527 0.153714 1.716023 0.087201 -0.000580 83462.500000 0 1 0
23.766701 5.087510 -3.541263 24.561746 0.210878 1.715479 0.074466 0.010066 1195100.000000 0 1 0
24.877301 5.932510 -3.128663 25.765545 0.234099 1.692525 0.076100 0.003165 764482.000000 0 0 1
24.577001 7.447010 -3.216963 25.881186 0.294213 1.695416 0.066829 0.004073 2736.080000 0 0 1
23.788801 7.874210 -2.102163 25.146159 0.319654 1.654492 0.073224 -0.000517 536541.000000 0 0 1
22.778501 8.757710 -2.578263 24.539866 0.367049 1.676055 0.067828 0.003789 -263325.000000 0 1 0
21.672201 8.923610 -1.539963 23.488010 0.390598 1.636407 0.048287 0.000809 -645428.000000 0 1 0
22.112301 9.703610 -0.434463 24.151660 0.413529 1.588786 0.032957 -0.001372 961984.000000 0 1 0
21.048801 10.144810 0.441337 23.370151 0.449117 1.551911 0.016709 -0.001491 184828.000000 0 1 0
21.448501 10.675010 1.849837 24.029481 0.461809 1.493738 0.026944 -0.006345 -626417.000000 0 1 0
22.237901 11.843010 1.934337 25.269009 0.489355 1.494172 0.035398 -0.015578 524624.000000 0 0 1
21.599601 13.034310 1.503237 25.272430 0.542953 1.511280 0.041985 -0.009573 -620838.000000 0 0 1
20.759801 13.833010 2.481937 25.069534 0.587774 1.471632 0.043094 0.000097 1389700.000000 0 0 1
19.395001 13.254610 2.563837 23.630997 0.599500 1.462088 0.057188 0.002041 2130910.000000 0 1 0
18.493901 14.081210 3.278637 23.474546 0.650756 1.430670 0.060438 0.001948 4749.350000 0 1 0
18.540401 14.038610 4.815137 23.748991 0.648087 1.366630 0.059325 0.002552 -695402.000000 0 1 0
18.066001 12.840010 5.245837 22.776415 0.617890 1.338391 0.043104 0.004869 272133.000000 0 1 0
18.359201 12.704610 6.604637 23.282796 0.605338 1.283177 0.057877 -0.011681 -306238.000000 0 1 0
18.045101 11.343610 7.218237 22.503469 0.561202 1.244263 0.009141 -0.005209 -9782.090000 0 1 0
18.996501 10.446210 6.682837 22.685913 0.502768 1.271779 -0.005480 -0.011453 409319.000000 0 1 0
19.130901 9.185310 7.270637 22.432643 0.447625 1.240726 0.003308 -0.006891 -151988.000000 0 1 0
20.145301 8.239310 6.578037 22.737413 0.388236 1.277296 0.006810 -0.007413 20615.200000 0 1 0
19.698001 7.801010 5.297237 21.838675 0.377080 1.325790 -0.012218 -0.010867 1025370.000000 0 1 0
20.639401 6.883510 4.691337 22.257049 0.321912 1.358424 0.000554 -0.014939 5707.350000 0 1 0
20.582801 6.924110 3.139137 21.941950 0.324510 1.427238 0.021127 -0.006652 -21965.800000 0 1 0
21.428201 5.904810 2.614537 22.380134 0.268889 1.453705 0.014343 -0.013754 489829.000000 0 1 0
21.413701 6.015110 1.228437 22.276382 0.273843 1.515623 0.035714 0.006903 -741199.000000 0 1 0
22.597701 5.305310 0.640937 23.220965 0.230596 1.543191 0.072781 0.005605 -873315.000000 0 1 0
22.507201 3.916010 0.789937 22.858986 0.172265 1.536232 0.073411 -0.001346 31035.600000 0 1 0
23.593001 3.243510 0.252337 23.816249 0.136621 1.560201 0.090159 -0.005026 -490701.000000 0 1 0
23.328501 1.684910 0.236837 23.390468 0.072100 1.560671 0.112671 -0.013139 -74318.500000 0 1 0
22.305101 1.399010 -0.702063 22.359957 0.062639 1.602200 0.080642 -0.008606 751662.000000 0 1 0
22.334601 0.050210 -1.272463 22.370876 0.002248 1.627707 0.089142 -0.017749 -1502460.000000 0 1 0
22.030901 -1.174090 -0.400663 22.065802 -0.053243 1.588955 0.099619 -0.018336 -269616.000000 0 1 0
22.965101 -1.399890 0.640637 23.016646 -0.060882 1.542959 0.110264 -0.019077 1347110.000000 0 1 0
24.277701 -1.783290 0.167937 24.343687 -0.073322 1.563898 0.122574 -0.030935 289325.000000 0 1 0
25.385101 -1.809090 1.230037 25.479191 -0.071146 1.522501 0.128146 -0.020448 -266180.000000 0 0 1
25.544201 -0.542390 1.861537 25.617684 -0.021230 1.498066 0.116065 -0.017121 311275.000000 0 0 1
26.487101 -0.456990 2.907437 26.650114 -0.017252 1.461482 0.116361 -0.019372 -187796.000000 0 0 1
26.373501 0.782910 3.850437 26.664590 0.029677 1.425887 0.120447 -0.014370 66532.600000 0 0 1
26.554801 2.020310 3.158337 26.818169 0.075934 1.452754 0.116247 -0.012017 -190197.000000 0 0 1
27.886361 2.339810 2.866037 28.130731 0.083709 1.468736 0.110839 -0.015717 -430722.000000 0 0 1
27.997551 3.536610 1.930737 28.286008 0.125653 1.502486 0.118132 -0.021651 -121646.000000 0 0 1
27.396701 3.280310 0.684837 27.600882 0.119166 1.545982 0.125905 -0.016352 268981.000000 0 0 1
27.713701 4.256610 -0.309163 28.040391 0.152401 1.581822 0.113993 -0.019399 -178067.000000 0 0 1
29.011341 4.079110 -1.130463 29.318510 0.139688 1.609364 0.108396 -0.019212 124636.000000 0 0 1
30.154701 4.404210 -0.332363 30.476442 0.145028 1.581702 0.105084 -0.020150 234538.000000 0 0 1
31.320361 3.969010 -1.026963 31.587541 0.126051 1.603314 0.090945 -0.020199 10097.100000 0 0 1
32.633521 4.523810 -0.444663 32.948586 0.137747 1.584292 0.054001 -0.019121 -205295.000000 0 0 1
32.903381 3.890210 0.781137 33.141762 0.117685 1.547225 0.053659 -0.018612 146666.000000 0 0 1
32.169251 4.392410 1.893337 32.522895 0.135701 1.512548 0.054174 -0.002033 -219241.000000 0 0 1
32.293211 3.465710 3.095037 32.625786 0.106911 1.475789 0.053233 -0.007167 -265266.000000 0 0 1
31.341531 2.415410 3.071437 31.584166 0.076915 1.473396 0.065225 -0.012965 231285.000000 0 0 1
31.506201 1.433910 4.083537 31.802077 0.045481 1.442036 0.061467 -0.018911 -359604.000000 0 0 1
32.666711 0.432110 3.968937 32.909774 0.013227 1.449901 0.064117 -0.012497 420901.000000 0 0 1
33.950211 0.983510 4.267937 34.231556 0.028961 1.445793 0.057172 -0.022633 258211.000000 0 0 1
34.960301 0.025810 4.124037 35.202713 0.000738 1.453376 0.041597 -0.022838 -695010.000000 0 0 1
36.369171 0.594010 4.360037 36.634402 0.016331 1.451499 0.064272 -0.031503 -169481.000000 0 0 1
-36.125212 1.765810 3.604037 36.347464 -0.048841 1.471478 0.061470 -0.033824 210832.000000 0 0 1
-35.910205 1.511910 2.181537 36.008163 -0.042078 1.510175 0.078135 -0.029903 -1104740.000000 0 0 1
-35.757810 2.810010 1.427037 35.896428 -0.078423 1.531032 0.063167 -0.027197 1155680.000000 0 0 1
-34.481199 3.483110 1.560737 34.691801 -0.100673 1.525792 0.096862 -0.040688 1889310.000000 0 0 1
-33.336502 2.810410 0.990837 33.469427 -0.084105 1.541188 0.116677 -0.044404 -647841.000000 0 0 1
-32.025772 3.488810 1.376437 32.244634 -0.108510 1.528096 0.132120 -0.049463 -712689.000000 0 0 1
-31.627062 3.071610 2.662337 31.887205 -0.096816 1.487207 0.139738 -0.049835 -46324.400000 0 0 1
-30.755352 4.032710 3.198837 31.183120 -0.130378 1.468033 0.156285 -0.040345 -460348.000000 0 0 1
-31.240032 4.459410 4.610337 31.891710 -0.141789 1.425726 0.157271 -0.038311 740428.000000 0 0 1
-32.527872 5.106910 4.727937 33.264040 -0.155730 1.428180 0.133907 -0.016190 2672570.000000 0 0 1
-33.735982 4.252110 4.786237 34.338098 -0.125380 1.430955 0.128672 -0.020461 1149780.000000 0 0 1
-33.783852 3.256010 5.997937 34.466295 -0.096081 1.395883 0.098480 -0.013562 -1028430.000000 0 0 1
-33.957482 3.938610 7.229037 34.941125 -0.115471 1.362399 0.090554 -0.009050 390408.000000 0 0 1
-33.944172 3.104510 8.400537 35.105752 -0.091206 1.329159 0.084318 -0.012910 -262724.000000 0 0 1
-35.042984 2.041710 8.596437 36.139702 -0.058197 1.330627 0.062789 -0.012559 -404069.000000 0 0 1
-34.828368 0.810910 7.930037 35.728956 -0.023279 1.346983 0.068377 -0.019722 626834.000000 0 0 1
-35.973881 -0.017390 8.132237 36.881617 0.000483 1.348474 0.075638 -0.016762 371534.000000 0 0 1
-35.967756 -0.898090 9.402237 37.187203 0.024964 1.315187 0.071216 -0.009414 -1767610.000000 0 0 1
-34.885190 -1.714890 9.473137 36.189192 0.049119 1.305944 0.079321 -0.025335 -836469.000000 0 0 1
-34.903023 -2.623790 10.544537 36.555335 0.075033 1.278184 0.083530 -0.014613 124484.000000 0 0 1
-33.518562 -3.272290 10.855337 35.384180 0.097318 1.258983 0.070161 -0.017848 15217.900000 0 0 1
-33.075712 -4.065490 9.838437 34.746594 0.122301 1.283721 0.085375 -0.024840 451250.000000 0 0 1
-31.747562 -4.523690 10.094437 33.619475 0.141537 1.265836 0.097947 -0.023893 489264.000000 0 0 1
-31.295492 -5.614690 9.105437 33.073275 0.177520 1.291883 0.087236 -0.028146 -24699.500000 0 0 1
-31.989622 -6.839090 9.293637 34.007069 0.210620 1.293989 0.079925 -0.025788 68462.500000 0 0 1
-31.979412 -7.666490 8.148337 33.879983 0.235292 1.327909 0.086438 -0.022307 631482.000000 0 0 1
-33.107402 -8.784190 8.201237 35.221050 0.259349 1.335789 0.087319 -0.023431 85532.400000 0 0 1
-34.381973 -8.326590 7.909737 36.249360 0.237604 1.350823 0.098863 -0.035418 -758332.000000 0 0 1
-35.301946 -9.382490 8.087937 37.412207 0.259773 1.352892 0.107666 -0.034618 46806.200000 0 0 1
7.631338 -24.220990 10.952737 27.656033 -1.265571 1.163602 0.091497 -0.018824 67012.000000 0 0 1
7.275138 -24.783590 9.710237 27.594251 -1.285271 1.211203 0.081096 -0.016735 -646582.000000 0 0 1
5.980138 -25.299710 9.852237 27.801150 -1.338685 1.208543 0.075981 -0.016295 152737.000000 0 0 1
5.441838 -26.219580 8.670037 28.146928 -1.366153 1.257677 0.061690 -0.007364 164744.000000 0 0 1
4.905938 -25.494690 7.578037 27.045778 -1.380690 1.286801 0.070830 -0.007640 -146500.000000 0 0 1
4.810238 -26.309700 6.431237 27.508172 -1.389962 1.334819 0.062345 -0.006768 -689286.000000 0 0 1
4.144238 -25.765000 5.136237 26.596821 -1.411315 1.376461 0.059309 -0.009691 -192166.000000 0 0 1
2.751938 -25.634960 5.138137 26.289253 -1.463855 1.374084 0.039722 -0.012321 -531449.000000 0 0 1
2.131338 -26.915270 4.940637 27.447846 -1.491774 1.389809 0.039723 -0.007488 -504162.000000 0 0 1
0.595938 -26.761610 4.869037 27.207470 -1.548532 1.390867 0.038671 -0.011495 -103905.000000 0 0 1
0.018238 -26.499640 6.121037 27.197396 -1.570108 1.343792 0.039436 -0.011090 76755.900000 0 0 1
-1.393762 -26.532740 6.302637 27.306631 1.518315 1.337886 0.023738 -0.012017 1073290.000000 0 0 1
-2.027262 -28.004870 6.425237 28.803927 1.498533 1.345836 0.027403 -0.008273 49586.600000 0 0 1
-1.475862 -28.764000 7.494737 29.760997 1.519532 1.316225 0.014735 -0.010419 431704.000000 0 0 1
-2.329162 -29.884930 7.714637 30.952378 1.493016 1.318899 0.031107 -0.007839 292502.000000 0 0 1
-2.255262 -30.437220 9.136937 31.858974 1.496836 1.279919 0.025716 -0.010363 86665.600000 0 0 1
-1.047462 -31.132270 9.332437 32.517838 1.537163 1.279709 0.021504 -0.009014 -60778.600000 0 0 1
-0.631962 -31.079970 10.728837 32.885740 1.550466 1.238467 0.020773 -0.010093 -82224.600000 0 0 1
0.870938 -31.209130 10.995537 33.100909 -1.542897 1.232180 0.035639 -0.016671 -342009.000000 0 0 1
1.326838 -32.538950 10.846537 34.324789 -1.530042 1.249289 0.047823 -0.014310 531462.000000 0 0 1
2.730738 -32.624050 11.133437 34.579459 -1.487288 1.242990 0.059944 -0.010303 891591.000000 0 0 1
2.927638 -33.327600 12.464237 35.702342 -1.483177 1.214169 0.060472 -0.010145 -183743.000000 0 0 1
2.546538 -32.632880 13.638337 35.459751 -1.492918 1.176006 0.042118 -0.014370 -81798.400000 0 0 1
2.896538 -33.290360 14.781237 36.539335 -1.484007 1.154332 0.044731 -0.012422 -774339.000000 0 0 1
2.628338 -32.360000 15.987637 36.189533 -1.489752 1.113220 0.044693 -0.016708 123666.000000 0 0 1
3.331038 -31.124770 15.926137 35.121062 -1.464180 1.100148 0.043190 -0.021119 -343152.000000 0 0 1
4.710938 -31.141200 16.141337 35.390819 -1.420658 1.097202 0.047418 -0.021248 -390866.000000 0 0 1
5.416938 -29.796940 15.736137 34.129560 -1.390965 1.091595 0.064257 -0.019928 -97496.400000 0 0 1
5.598338 -29.575700 14.346937 33.345135 -1.383721 1.126020 0.061867 -0.015720 42460.100000 0 0 1
4.456538 -29.553610 13.487437 32.790053 -1.421129 1.146887 0.055736 -0.008321 -231640.000000 0 0 1
4.783538 -29.107320 12.001537 31.845804 -1.407911 1.184388 0.045534 0.000939 214896.000000 0 0 1
5.386238 -30.078490 11.173037 32.535579 -1.393602 1.220251 0.048218 -0.011144 586810.000000 0 0 1
6.769638 -30.364450 11.418637 33.139299 -1.351438 1.219021 0.058649 -0.008925 149312.000000 0 0 1
7.219838 -31.671800 10.791837 34.229998 -1.346668 1.250051 0.046514 -0.009258 -152270.000000 0 0 1
6.956038 -32.838350 11.576137 35.507051 -1.362055 1.238702 0.042772 -0.013125 194985.000000 0 0 1
7.206538 -34.031410 10.814737 36.428418 -1.362118 1.269376 0.058568 -0.011294 -28550.600000 0 0 1
7.031638 33.019364 11.634437 35.708296 1.360976 1.238919 0.055726 -0.009782 559473.000000 0 0 1
5.681738 32.774915 12.022737 35.369809 1.399146 1.223970 0.053548 -0.012533 341459.000000 0 0 1
5.604538 31.480832 12.569437 34.357595 1.394612 1.196259 0.056693 -0.015247 -125147.000000 0 0 1
4.326438 31.261052 13.379337 34.277953 1.433273 1.169818 0.048863 -0.016640 -155589.000000 0 0 1
4.325738 31.872282 14.610237 35.327233 1.435900 1.144426 0.053238 -0.014855 -43992.500000 0 0 1
3.190638 31.517302 15.367837 35.209244 1.469906 1.119123 0.062382 -0.013234 30792.900000 0 0 1
3.529838 31.555702 16.845037 35.944086 1.459399 1.083039 0.056599 -0.015974 -210872.000000 0 0 1
3.730838 32.915645 17.362637 37.400802 1.457933 1.088029 0.056252 -0.012286 51869.200000 0 0 1
4.025638 32.858092 18.744237 38.042166 1.448888 1.055581 0.047520 -0.011736 -459491.000000 0 0 1
4.412838 34.198045 19.335837 39.532948 1.442468 1.059731 0.043035 -0.016158 371493.000000 0 0 1
3.339038 -33.275330 19.560337 38.742787 -1.470785 1.041557 0.035760 -0.017372 437520.000000 0 0 1
3.753438 -32.373890 20.654837 38.584704 -1.455371 1.005920 0.041719 -0.022340 449126.000000 0 0 1
2.585738 -31.483620 21.147937 38.014992 -1.488851 0.980864 0.027691 -0.019116 453411.000000 0 0 1
1.526138 -32.251840 21.694437 38.899343 -1.523512 0.979176 0.038893 -0.013414 394814.000000 0 0 1
0.572138 -31.518770 22.496337 38.727838 -1.552646 0.950983 0.036591 -0.012323 728721.000000 0 0 1
-0.600362 -32.458180 22.943437 39.752927 1.552302 0.955561 0.030225 -0.010633 -681721.000000 0 0 1
-1.469462 -32.846190 21.901637 39.505863 1.526088 0.983167 0.020936 -0.010479 -420217.000000 0 0 1
-2.203662 -33.964780 22.200437 40.636459 1.506006 0.992834 0.033383 -0.010538 -863459.000000 0 0 1
-3.434062 -33.768340 23.109437 41.062631 1.469450 0.973045 0.051438 -0.012633 -574948.000000 0 0 1
-4.466462 -33.207350 22.307937 40.253217 1.437097 0.983407 0.036700 -0.013911 -426029.000000 0 0 1
-5.554762 -32.783760 23.083337 40.478028 1.402954 0.963964 0.037078 -0.006283 -379933.000000 0 0 1
-6.798862 -32.291990 22.372637 39.868936 1.363284 0.975016 0.045722 -0.002215 52458.500000 0 0 1
-7.673662 -33.229980 21.740637 40.444678 1.343849 1.003279 0.028058 0.009112 -83233.400000 0 0 1
-8.688462 -32.572050 21.028737 39.732048 1.310120 1.013064 0.048234 -0.006049 -713096.000000 0 0 1
-9.829762 -33.542120 20.801737 40.674443 1.285721 1.033960 0.066831 -0.008469 -539408.000000 0 0 1
-10.388062 -34.013930 22.026237 41.833173 1.274387 1.016288 0.079432 -0.018412 425064.000000 0 0 1
-11.717862 33.893947 21.768537 41.952081 -1.237938 1.025244 0.065654 -0.019215 994681.000000 0 0 1
-12.415462 33.535354 23.110937 42.577917 -1.216223 0.997039 0.064158 -0.019252 13697.200000 0 0 1
-12.654062 -33.784910 23.987837 43.323917 1.212422 0.984012 0.075735 -0.023470 459487.000000 0 0 1
-11.495362 -33.459760 24.761737 43.183822 1.239872 0.960143 0.067971 -0.025808 283552.000000 0 0 1
-11.642562 -32.122410 25.486137 42.625599 1.223079 0.929909 0.071621 -0.028924 5271.040000 0 0 1
-12.395762 -32.009040 26.669137 43.468108 1.201322 0.910269 0.076763 -0.028256 302196.000000 0 0 1
-13.243062 -30.848880 26.686737 42.886059 1.165299 0.899156 0.088848 -0.028851 187610.000000 0 0 1
-14.071962 -30.758270 27.994737 43.906681 1.141721 0.879422 0.064318 -0.021074 -361826.000000 0 0 1
-13.369762 -30.409290 29.160837 44.202148 1.156574 0.850356 0.067120 -0.012925 -119104.000000 0 0 1
-14.235962 -30.043640 30.204237 44.917467 1.128293 0.833298 0.066368 -0.019288 -88304.000000 0 0 1
-13.496562 -29.527080 31.473637 45.217203 1.142061 0.800909 0.049858 -0.015663 -61751.800000 0 0 1
-14.373962 -29.052550 32.469137 45.879258 1.111352 0.784547 0.052023 -0.017733 221233.000000 0 0 1
-13.752462 -28.555620 33.661137 46.234466 1.121975 0.755319 0.040916 -0.013186 -66447.000000 0 0 1
-12.998762 -29.656300 -33.867457 46.855828 1.157703 2.378644 0.040540 -0.007032 -304161.000000 0 0 1
-11.669962 -29.896740 34.180137 46.885871 1.198643 0.753926 0.049830 -0.006240 -567477.000000 0 0 1
-11.200762 -31.061780 -33.554557 47.076529 1.224713 2.364230 0.042511 -0.002607 297868.000000 0 0 1
-9.730262 -31.473230 -33.852357 47.235837 1.270957 2.369807 0.032159 -0.008194 120309.000000 0 0 1
-8.818262 -30.580410 -33.279157 46.048078 1.290049 2.378504 0.052548 -0.014192 -802312.000000 0 0 1
-7.608362 -31.252240 -33.035157 46.107605 1.331992 2.369539 0.068278 -0.019356 -272307.000000 0 0 1
-6.654862 -30.370060 -32.194857 44.756414 1.355080 2.373641 0.081163 -0.019600 -332863.000000 0 0 1
-6.962462 -30.162800 -30.830557 43.689743 1.343940 2.354165 0.073781 -0.026109 -276429.000000 0 0 1
-5.874562 -29.702380 -30.060857 42.666111 1.375535 2.352600 0.075009 -0.021405 22880.200000 0 0 1
-6.053562 -29.825150 -28.514657 41.704566 1.370548 2.323658 0.063020 -0.015760 -119469.000000 0 0 1
-5.844562 -31.136530 -28.062157 42.321709 1.385248 2.295706 0.058778 -0.006935 132211.000000 0 0 1
-6.631462 -31.321590 -26.888657 41.809307 1.362156 2.269370 0.062733 -0.011551 399390.000000 0 0 1
-6.159762 -32.566750 -26.070957 42.169073 1.383862 2.237308 0.055581 -0.018706 720068.000000 0 0 1
-4.978662 -32.442120 -25.277557 41.427444 1.418521 2.227065 0.030045 -0.016764 359290.000000 0 0 1
-4.884262 -33.575230 -24.449457 41.820187 1.426337 2.195224 0.050949 -0.024305 -167828.000000 0 0 1
-3.971762 -33.446150 -23.208357 40.902906 1.452599 2.174143 0.049315 -0.030900 -109586.000000 0 0 1
-4.483862 -32.969240 -21.969357 39.871399 1.435624 2.154365 0.064942 -0.027324 44854.100000 0 0 1
-4.839762 -31.556270 -22.064657 38.808125 1.418613 2.175548 0.039186 -0.014142 -331262.000000 0 0 1
-5.340162 -30.963550 -20.755757 37.657140 1.400010 2.154571 0.067563 -0.024869 71498.200000 0 0 1
-6.761162 -31.041120 -20.607457 37.867291 1.356333 2.146234 0.085099 -0.033545 408798.000000 0 0 1
-7.235462 -29.744970 -20.251657 36.704833 1.332181 2.155250 0.081845 -0.031708 -124056.000000 0 0 1
-7.386762 -28.656150 -21.367357 36.500728 1.318516 2.196164 0.091989 -0.041690 -571881.000000 0 0 1
-6.153762 -28.288290 -21.934957 36.321323 1.356596 2.219199 0.077607 -0.021452 -589308.000000 0 0 1
-6.287962 -27.539990 -23.157557 36.527551 1.346323 2.257479 0.112221 -0.037783 -574625.000000 0 0 1
-5.141762 -27.858210 -24.187557 37.249906 1.388281 2.277502 0.109334 -0.033093 299306.000000 0 0 1
-3.862762 -27.393220 -23.906357 36.562595 1.430708 2.283455 0.099337 -0.026477 -565881.000000 0 0 1
-3.260762 -27.750500 -22.679857 35.987480 1.453830 2.252627 0.048606 -0.024725 -1591520.000000 0 0 1
-1.826062 -27.165170 -22.682057 35.436657 1.503677 2.265390 0.056716 -0.021777 -253542.000000 0 0 1
-1.665062 -25.750060 -22.888157 34.492112 1.506224 2.296386 0.078569 -0.021868 212956.000000 0 0 1
-2.299362 -24.818490 -21.973757 33.227858 1.478413 2.293354 0.084981 -0.031614 -1126160.000000 0 0 1
-2.352562 -23.348390 -22.509057 32.516757 1.470376 2.335370 0.095698 -0.026348 -96710.000000 0 0 1
-3.145862 -23.221490 -23.660957 33.301275 1.436144 2.361022 0.077595 -0.034234 276203.000000 0 0 1
-4.516362 -23.500490 -23.393957 33.465621 1.380930 2.344857 0.080819 -0.038936 -1353980.000000 0 0 1
-5.411962 -23.554790 -24.578857 34.470824 1.344955 2.364612 0.064249 -0.030896 -548850.000000 0 0 1
-5.868862 -22.305990 -24.974857 33.996238 1.313520 2.395926 0.087096 -0.029197 -272925.000000 0 0 1
-6.437062 -22.364390 -26.241757 35.074656 1.290545 2.416094 0.091248 -0.035670 -290104.000000 0 0 1
-6.415462 -20.964090 -26.956657 34.746404 1.273824 2.458796 0.111641 -0.026162 -67393.300000 0 0 1
-6.495462 -21.085690 -28.361757 35.933085 1.271970 2.480454 0.116470 -0.030937 168407.000000 0 0 1
-5.304662 -21.579190 -28.948857 36.494345 1.329753 2.486912 0.095092 -0.034257 -21725.400000 0 0 1
-5.491462 -21.964190 -30.413757 37.915411 1.325800 2.501679 0.107325 -0.040860 -8487.150000 0 0 1
-5.547062 -20.914790 -31.301957 38.052738 1.311543 2.536754 0.126258 -0.041786 -217296.000000 0 0 1
-6.471762 -21.301690 -32.290557 39.221496 1.275844 2.537974 0.116300 -0.039438 94467.900000 0 0 1
-6.557162 -20.455890 -33.596257 39.876664 1.260593 2.572711 0.094397 -0.034324 664863.000000 0 0 1
-5.414362 -20.758990 34.000137 40.202740 1.315660 0.562889 0.097759 -0.032109 124871.000000 0 0 1
-5.617762 -20.478590 32.691637 38.983010 1.303059 0.576065 0.099213 -0.033959 -172425.000000 0 0 1
-4.451562 -20.744890 31.732337 38.172085 1.359416 0.589359 0.068877 -0.027047 -857610.000000 0 0 1
-4.135062 -22.144690 31.514837 38.738495 1.386193 0.620603 0.086822 -0.025568 638608.000000 0 0 1
-2.977462 -22.311490 30.692937 38.062111 1.438130 0.632773 0.078291 -0.012909 -437666.000000 0 0 1
-1.633062 -22.104890 31.308837 38.360609 1.497052 0.616042 0.059251 -0.018865 -1744580.000000 0 0 1
-1.008562 -20.859390 31.121837 37.479329 1.522483 0.591019 0.043300 -0.015273 -68545.000000 0 0 1
-0.188862 -20.458990 32.206837 38.156078 1.561565 0.565947 0.048836 -0.016951 -385501.000000 0 0 1
-0.935862 -19.985590 33.456237 38.982297 1.524004 0.538962 0.041514 -0.019165 386605.000000 0 0 1
-1.888562 -18.921090 33.251137 38.304209 1.471313 0.519474 0.038533 -0.021465 476285.000000 0 0 1
-2.499162 -18.517790 -33.934157 38.738629 1.436647 2.638254 0.051350 -0.026324 93128.100000 0 0 1
-3.560762 -17.432390 -34.026757 38.397753 1.369307 2.659799 0.064050 -0.029557 78826.100000 0 0 1
-2.956762 -16.143190 34.200637 37.934531 1.389646 0.447411 0.051287 -0.027312 80213.300000 0 0 1
-3.869662 -15.127590 -33.891957 37.315989 1.320365 2.709860 0.064951 -0.029951 -165032.000000 0 0 1
-3.368662 -13.663490 -34.109857 36.898797 1.329072 2.750299 0.047165 -0.034288 411995.000000 0 0 1
-2.264062 -13.285390 -33.243457 35.871367 1.402001 2.756439 0.050053 -0.033475 742150.000000 0 0 1
-1.894862 -11.934390 -33.304457 35.428901 1.413337 2.793533 0.044695 -0.029318 -184100.000000 0 0 1
-1.285662 -11.370690 33.817837 35.701423 1.458206 0.326282 0.035915 -0.027104 -660565.000000 0 0 1
-2.187162 -11.161590 32.747937 34.666874 1.377294 0.334281 0.034041 -0.021867 227433.000000 0 0 1
-1.517362 -10.799490 31.542537 33.374586 1.431207 0.332876 0.023041 -0.012620 182273.000000 0 0 1
-0.662562 -11.849690 30.783537 32.992125 1.514941 0.367977 0.022933 -0.019516 -155796.000000 0 0 1
-1.383962 -12.924690 30.298237 32.968866 1.464124 0.405271 0.032682 -0.021931 -265511.000000 0 0 1
-0.511662 -13.840890 29.671137 32.744594 1.533846 0.436733 0.033718 -0.023678 -134321.000000 0 0 1
-0.670662 -15.311690 30.110537 33.786715 1.527024 0.470824 0.032004 -0.022429 -351166.000000 0 0 1
-1.608362 -16.109990 29.478837 33.632134 1.471290 0.502237 0.040731 -0.025568 -291139.000000 0 0 1
-1.649662 -17.306890 30.212437 34.857441 1.475765 0.522162 0.055393 -0.021611 74589.000000 0 0 1
-2.449962 -18.498990 29.602437 34.993131 1.439125 0.562452 0.054456 -0.012370 -353444.000000 0 0 1
-3.848062 -18.355290 29.518837 34.972646 1.364146 0.565996 0.058369 -0.015317 -206000.000000 0 0 1
-4.505262 -19.225190 28.633837 34.782207 1.340608 0.603715 0.063161 -0.027251 86216.900000 0 0 1
-4.273362 -18.871890 27.103737 33.301988 1.348111 0.620002 0.060740 -0.020641 -356790.000000 0 0 1
-4.906062 -19.640290 26.064537 33.002584 1.326010 0.660358 0.072339 -0.020581 -88262.800000 0 0 1
-4.745462 -21.046490 26.176837 33.921983 1.349030 0.689322 0.067936 -0.010535 -161585.000000 0 0 1
-29.109642 34.173610 -0.556463 44.894504 -0.865249 1.583192 0.057209 -0.009428 -23364.500000 0 0 1
-28.555942 -33.000422 -0.169663 43.640560 0.857475 1.574684 0.055394 0.005391 -65617.600000 0 0 1
-29.216042 -32.491922 0.974237 43.706421 0.838435 1.548504 0.031978 0.010232 24668.300000 0 0 1
-28.630562 -31.110722 1.449937 42.304709 0.826889 1.536516 0.043715 -0.003422 438287.000000 0 0 1
-27.231882 -31.146822 1.692837 41.407314 0.852359 1.529902 0.049372 -0.010540 -117562.000000 0 0 1
-26.710232 -29.817622 1.840237 40.073851 0.840314 1.524859 0.061185 -0.012230 907548.000000 0 0 1
-25.150312 -29.890022 1.963137 39.112728 0.871300 1.520583 0.066725 -0.016765 604870.000000 0 0 1
-24.678862 -30.649822 3.083537 39.471078 0.892900 1.492595 0.057524 -0.013853 106861.000000 0 0 1
-23.314562 -30.325322 3.311137 38.394760 0.915362 1.484450 0.067117 -0.011825 289943.000000 0 0 1
-22.768062 -30.946522 4.628737 38.697507 0.936495 1.450896 0.073690 -0.016521 470398.000000 0 0 1
-23.432162 -30.368622 5.805337 38.794605 0.913619 1.420589 0.064228 -0.012713 590050.000000 0 0 1
-22.853762 -30.986122 6.992637 39.132227 0.935312 1.391139 0.047533 -0.005208 214159.000000 0 0 1
-23.351662 -30.441422 8.308437 39.255706 0.916440 1.357534 0.047503 0.005281 -91432.100000 0 0 1
-22.831462 -29.157922 8.581937 38.014599 0.906490 1.343080 0.068458 -0.010558 166024.000000 0 0 1
-23.385262 -28.620122 9.771137 38.229007 0.885720 1.312333 0.053592 -0.008357 -74057.800000 0 0 1
-22.630362 -27.360522 10.203037 36.943652 0.879738 1.290981 0.053748 -0.008132 657840.000000 0 0 1
-21.365662 -27.666922 10.802337 36.587437 0.913209 1.271082 0.058247 -0.015297 277997.000000 0 0 1
-20.757662 -26.614222 11.487037 35.653182 0.908403 1.242756 0.051772 -0.011360 71255.000000 0 0 1
-19.419362 -26.915222 12.185337 35.355668 0.945785 1.218930 0.042820 -0.012060 -231790.000000 0 0 1
-19.410862 -27.898322 13.234637 36.472641 0.962914 1.199456 0.044762 -0.004235 -361705.000000 0 0 1
-18.120862 -28.129422 13.752837 36.176934 0.998512 1.180833 0.057244 -0.011994 -63467.800000 0 0 1
-18.157562 -29.190322 14.880637 37.459382 1.014328 1.162281 0.082479 -0.026071 -179584.000000 0 0 1
-18.299562 -30.515222 14.344637 38.364324 1.030607 1.187580 0.081183 -0.027446 -16501.000000 0 0 1
-18.046362 -31.424922 15.419537 39.382217 1.049512 1.168497 0.094668 -0.025585 102292.000000 0 0 1
-17.847462 -32.889722 15.019137 40.321709 1.073617 1.189114 0.084703 -0.039173 58790.800000 0 0 1
-17.666562 -33.809822 16.071737 41.394592 1.089290 1.172057 0.094963 -0.034249 280430.000000 0 0 1
-17.163562 33.330410 15.617737 40.613025 -1.095259 1.176076 0.075376 -0.035282 -125078.000000 0 0 1
-17.190262 32.262110 16.732737 40.203648 -1.081230 1.141535 0.061348 -0.029283 210549.000000 0 0 1
-18.491862 31.834210 17.094437 40.590463 -1.044554 1.136090 0.072444 -0.032784 190265.000000 0 0 1
-18.416562 30.770910 18.002237 40.126041 -1.031476 1.105551 0.039894 -0.020906 362086.000000 0 0 1
-19.190662 30.980710 19.363837 41.267955 -1.016206 1.082387 0.036392 -0.026577 455593.000000 0 0 1
-18.624762 32.111810 20.070537 42.200433 -1.045215 1.075150 0.042677 -0.023695 -128900.000000 0 0 1
-19.237462 32.268310 21.297737 43.184689 -1.033196 1.055057 0.037605 -0.019284 -451671.000000 0 0 1
-18.777762 33.326810 22.285837 44.271200 -1.057691 1.043275 0.030199 -0.008879 -119169.000000 0 0 1
-17.565662 32.959710 22.919737 43.820193 -1.081143 1.020382 0.029914 -0.019983 -238642.000000 0 0 1
-17.263262 33.719010 24.095537 44.895286 -1.097615 1.004269 0.034800 -0.022159 -79224.700000 0 0 1
-17.930562 33.234110 25.414337 45.518124 -1.076033 0.978419 0.015795 -0.025433 1171270.000000 0 0 1
-19.372762 33.345710 25.350837 46.150896 -1.044489 0.989266 -0.014499 -0.027398 982262.000000 0 0 1
-20.004362 32.164610 25.813437 45.837432 -1.014403 0.972601 -0.019984 -0.017592 -881698.000000 0 0 1
-21.507262 32.284310 25.645937 46.503259 -0.983129 0.986651 0.034855 -0.021873 -815390.000000 0 0 1
-21.876462 32.131710 24.291637 45.837866 -0.973047 1.012258 0.016878 -0.013117 -817890.000000 0 0 1
-23.241062 32.245710 24.116937 46.492574 -0.946280 1.025435 0.002406 -0.008353 -909921.000000 0 0 1
-23.700062 31.801910 22.715637 45.706176 -0.930348 1.050667 0.002689 -0.004411 78696.000000 0 0 1
-23.146562 32.713610 21.769637 45.605490 -0.955020 1.073163 0.004188 -0.004237 357420.000000 0 0 1
-23.544462 32.274910 20.479737 44.893553 -0.940547 1.097094 -0.001279 -0.002372 108335.000000 0 0 1
-23.167062 33.169010 19.233537 44.797599 -0.961108 1.127031 0.012874 -0.000300 -878409.000000 0 0 1
-21.827662 33.125410 18.894837 43.940351 -0.988162 1.126291 0.030289 -0.000105 -962602.000000 0 0 1
-21.570462 34.182910 18.004537 44.248384 -1.007872 1.151742 0.041054 -0.004069 -304574.000000 0 0 1
-20.360962 -33.354722 18.327837 43.162668 1.022738 1.132252 0.055161 -0.016456 -470272.000000 0 0 1
-20.616262 -32.634322 19.526637 43.258742 1.007368 1.102472 0.052157 -0.023312 343073.000000 0 0 1
-19.466162 -31.969522 20.014837 42.444970 1.023860 1.079751 0.062143 -0.030644 -98532.200000 0 0 1
-19.744062 -30.794722 21.016437 42.188073 1.000667 1.049320 0.050034 -0.019085 -145271.000000 0 0 1
-20.088862 -29.567222 20.365637 41.140517 0.974009 1.052931 0.069331 -0.019359 290197.000000 0 0 1
-20.714662 -28.780422 21.374737 41.403977 0.946939 1.028332 0.077171 -0.015312 44379.000000 0 0 1
-21.422662 -27.511222 20.809437 40.605793 0.909186 1.032732 0.062128 -0.008451 -253351.000000 0 0 1
-20.486062 -26.654722 20.183137 39.211120 0.915515 1.030104 0.051281 0.002345 155625.000000 0 0 1
-20.791562 -25.284322 20.086737 38.406549 0.882599 1.020426 0.039633 0.016338 -944362.000000 0 0 1
-21.986262 -24.889222 19.237037 38.378805 0.847248 1.045764 0.025117 0.013068 -398009.000000 0 0 1
-23.250762 -25.045822 19.856737 39.524437 0.822548 1.044434 0.025864 0.014621 193141.000000 0 0 1
-24.271262 -25.068422 18.870337 39.668748 0.801553 1.075039 0.023976 0.017958 -90983.100000 0 0 1
-25.574822 -25.661922 19.459437 41.125120 0.787098 1.077903 0.031115 0.004997 -159604.000000 0 0 1
-25.801632 -27.066822 19.576137 42.208556 0.809325 1.088522 0.022618 0.006366 34932.800000 0 0 1
-25.882502 -27.739922 18.349737 42.144039 0.820023 1.120308 0.008339 0.002656 138872.000000 0 0 1
-26.987752 -28.864022 18.351137 43.568736 0.818979 1.136029 0.015883 -0.002769 996689.000000 0 0 1
-28.296662 -28.300522 18.476537 44.079508 0.785466 1.138272 0.029287 -0.009639 181314.000000 0 0 1
-29.265742 -29.088322 17.828737 44.949728 0.782358 1.162946 0.030581 -0.004182 -218502.000000 0 0 1
-30.729472 -28.759522 18.128737 45.826430 0.752296 1.164080 0.029432 -0.008252 -59364.300000 0 0 1
-31.151632 -27.504322 17.645037 45.147085 0.723297 1.169258 0.053355 -0.005573 2086490.000000 0 0 1
-32.586122 -27.224422 17.905337 46.082812 0.695992 1.171742 0.047855 0.007716 2141630.000000 0 0 1
-32.991972 -25.881122 17.333737 45.373573 0.665198 1.178812 0.063737 -0.011971 -280256.000000 0 0 1
-33.284202 -25.837822 15.940837 45.050432 0.660109 1.209118 0.085838 -0.026499 253308.000000 0 0 1
-33.959452 -24.626922 15.650437 44.773495 0.627430 1.213709 0.083751 -0.026579 -61086.900000 0 0 1
-33.072512 -23.492422 15.064737 43.273910 0.617626 1.215226 0.075438 -0.024418 117003.000000 0 0 1
-32.160502 -22.854322 15.939437 42.552128 0.617827 1.186846 0.072774 -0.012016 131243.000000 0 0 1
-31.853432 -21.472022 15.673137 41.488988 0.593123 1.183414 0.067140 -0.012431 180555.000000 0 0 1
-32.997792 -20.466422 16.020337 42.004522 0.555166 1.179491 0.065736 -0.021700 270712.000000 0 0 1
-33.140922 -20.138822 17.391937 42.501439 0.546042 1.149210 0.064642 -0.011701 -247981.000000 0 0 1
-34.153214 -19.209822 17.584137 42.949519 0.512359 1.148985 0.078830 -0.012988 -567233.000000 0 0 1
-34.607325 -19.063822 19.086737 43.879378 0.503504 1.120778 0.052494 -0.007458 -425840.000000 0 0 1
-35.697376 -19.830122 19.531337 45.265986 0.507061 1.124664 0.048336 -0.001483 -94301.900000 0 0 1
-35.762688 -19.644622 20.923437 45.854893 0.502309 1.096967 0.041192 0.008813 893658.000000 0 0 1
35.594591 -19.970822 21.576337 46.166514 -0.511297 1.084495 0.038447 0.009992 1491250.000000 0 0 1
35.224611 -21.327822 21.763237 46.575613 -0.544440 1.084600 0.041895 0.000354 12763.200000 0 0 1
35.989481 -22.016622 22.741037 47.928376 -0.549016 1.076424 0.027646 0.018261 -422226.000000 0 0 1
35.437081 -23.338122 23.219137 48.369236 -0.582383 1.070097 0.025412 0.019655 587060.000000 0 0 1
34.267551 -23.267522 24.060437 47.901433 -0.596490 1.044551 0.034417 0.006637 715309.000000 0 0 1
33.922271 -24.530222 24.551937 48.530917 -0.626082 1.040368 0.035250 -0.006277 -734943.000000 0 0 1
33.005231 -24.528522 25.787537 48.538549 -0.639116 1.010686 0.038564 -0.011749 3506.990000 0 0 1
31.653751 -24.269722 25.423237 47.300321 -0.654119 1.003344 0.044621 -0.012695 23860.500000 0 0 1
30.963351 -24.379322 26.668237 47.584402 -0.666986 0.975878 0.042380 -0.016711 -69393.600000 0 0 1
29.484881 -24.795522 26.533937 46.778478 -0.699221 0.967664 0.042316 -0.021808 42595.200000 0 0 1
28.606521 -23.832122 25.972137 45.396641 -0.694601 0.961713 0.055379 -0.019693 -630854.000000 0 0 1
27.308101 -24.335022 26.031737 44.895178 -0.727892 0.952272 0.054545 -0.011440 -491880.000000 0 0 1
26.239301 -23.379322 25.462437 43.398495 -0.727823 0.943803 0.046217 -0.016338 -202260.000000 0 0 1
26.316901 -23.056722 24.115837 42.494298 -0.719463 0.967321 0.050122 -0.014157 222181.000000 0 0 1
27.280201 -22.050922 23.777537 42.377162 -0.679789 0.975090 0.052357 -0.009634 397820.000000 0 0 1
27.020401 -21.538522 22.351437 41.153332 -0.672983 0.996641 0.051874 -0.010576 223769.000000 0 0 1
25.986301 -20.602822 22.163137 39.886950 -0.670356 0.981653 0.044247 -0.011683 -37617.100000 0 0 1
26.037201 -20.101222 20.834737 38.936888 -0.657445 1.006182 0.033102 -0.006062 -108956.000000 0 0 1
25.235601 -18.768522 20.792937 37.701979 -0.639477 0.986626 0.044229 -0.003839 -343272.000000 0 0 1
25.673901 -17.582622 21.449937 37.794148 -0.600482 0.967273 0.043058 -0.012405 -69547.600000 0 0 1
25.744401 -17.636422 22.854337 38.679947 -0.600628 0.938675 0.045776 -0.009524 -188171.000000 0 0 1
25.773301 -16.246222 23.572137 38.520753 -0.562438 0.912293 0.050600 -0.003471 -386209.000000 0 0 1
24.547701 -15.627822 23.347337 37.308399 -0.566919 0.894648 0.022084 -0.001709 -545164.000000 0 0 1
24.593801 -14.356222 23.972137 37.223911 -0.528373 0.871083 0.020172 -0.004317 221209.000000 0 0 1
23.290001 -13.556722 23.732837 35.909002 -0.527141 0.848758 0.012163 -0.002297 -333147.000000 0 0 1
22.175301 -14.251922 24.165437 35.760727 -0.571222 0.828810 0.031261 0.005891 -681696.000000 0 0 1
21.036601 -13.408522 24.248737 34.789773 -0.567460 0.799580 0.033759 0.006206 -395691.000000 0 0 1
19.833601 -14.191022 24.736437 34.736842 -0.621056 0.778298 0.050605 0.004755 -657899.000000 0 0 1
19.340901 -15.096922 23.776837 34.166146 -0.662780 0.801099 0.058709 -0.005285 274819.000000 0 0 1
18.211601 -15.813522 24.275637 34.220410 -0.715035 0.782163 0.053380 0.006151 282121.000000 0 0 1
17.774901 -16.939822 23.209337 33.787246 -0.761347 0.813546 0.053271 -0.006535 -126367.000000 0 0 1
18.570001 -18.087822 23.129937 34.742024 -0.772245 0.842281 0.036624 -0.006865 -38489.300000 0 0 1
17.975101 -19.061122 22.274037 34.388419 -0.814713 0.866209 0.048293 -0.013871 66711.000000 0 0 1
18.394101 -20.525222 22.654837 35.677295 -0.840101 0.882797 0.038112 -0.009393 -55929.000000 0 0 1
17.795801 -20.846622 23.880337 36.353029 -0.864185 0.854095 0.046623 -0.015842 68592.200000 0 0 1
18.187901 -22.104322 24.361937 37.588626 -0.882294 0.865683 0.054588 -0.023078 -285517.000000 0 0 1
17.653101 -23.393222 23.695737 37.687701 -0.924342 0.890865 0.044893 -0.018967 -375473.000000 0 0 1
18.268601 -23.751822 22.504137 37.474352 -0.915154 0.926644 0.050452 -0.008103 216274.000000 0 0 1
19.467701 -24.519322 22.663037 38.649732 -0.899741 0.944226 0.054707 -0.017396 632350.000000 0 0 1
20.366901 -24.446522 21.383237 38.336483 -0.876184 0.979090 0.055326 -0.010858 290897.000000 0 0 1
19.640901 -25.080922 20.347737 37.800107 -0.906445 1.002380 0.066184 -0.017691 228248.000000 0 0 1
20.468701 -25.381322 19.253637 37.866632 -0.892136 1.037402 0.059977 -0.006831 167340.000000 0 0 1
19.709201 -26.077322 18.072237 37.350838 -0.923594 1.065747 0.056571 -0.006528 109017.000000 0 0 1
19.303201 -27.339922 18.461837 38.222040 -0.956025 1.066701 0.069598 -0.019118 412675.000000 0 0 1
18.356401 -27.867422 17.494337 37.677613 -0.988326 1.087934 0.069092 -0.017582 64981.400000 0 0 1
17.639801 -29.038822 18.071437 38.483667 -1.024913 1.081973 0.068110 -0.015315 -574361.000000 0 0 1
16.656901 -28.654522 18.994037 38.200883 -1.044240 1.050411 0.060168 -0.020274 -172889.000000 0 0 1
15.867901 -29.775622 19.406237 38.922744 -1.081164 1.048832 0.065687 -0.024339 1371110.000000 0 0 1
14.507101 -29.191822 20.042337 38.266353 -1.109586 1.019539 0.052816 -0.016815 1370160.000000 0 0 1
13.571501 -28.800422 19.048537 37.101169 -1.130432 1.031629 0.059620 -0.010317 806999.000000 0 0 1
12.343201 -28.267422 19.601937 36.546378 -1.159093 1.004681 0.036655 -0.007433 1095450.000000 0 0 1
11.416201 -27.606222 18.546437 35.162529 -1.178675 1.015201 0.040318 -0.012044 -78025.800000 0 0 1
10.923801 -28.626822 17.680237 35.375347 -1.206258 1.047440 0.052786 -0.018133 -41063.000000 0 0 1
10.354701 -28.172722 16.497337 34.250317 -1.218579 1.068237 0.052577 -0.021245 -251250.000000 0 0 1
10.272101 -29.278922 15.426837 34.651965 -1.233377 1.109406 0.058448 -0.016352 -191186.000000 0 0 1
9.255401 -30.222622 15.629437 35.261149 -1.273624 1.111577 0.056319 -0.021906 -259419.000000 0 0 1
9.435101 -31.300422 14.762537 35.870183 -1.278022 1.146637 0.048671 -0.022819 224625.000000 0 0 1
8.167801 -32.185922 14.503137 36.235170 -1.322273 1.159006 0.041913 -0.026651 221461.000000 0 0 1
7.901701 -33.013022 15.620237 37.366942 -1.335865 1.139528 0.048200 -0.022912 389668.000000 0 0 1
6.880101 -33.973722 15.279037 37.881375 -1.370986 1.155633 0.050241 -0.011249 529686.000000 0 0 1
6.757701 33.225910 16.309637 37.624884 1.370147 1.122445 0.041263 -0.013179 -614829.000000 0 0 1
7.930701 32.465010 16.260537 37.165548 1.331204 1.117961 0.043762 -0.016086 -421697.000000 0 0 1
7.950601 31.479010 17.207437 36.745558 1.323402 1.083446 0.037850 -0.017091 169142.000000 0 0 1
9.259101 30.640810 17.228937 36.351430 1.277339 1.077020 0.042503 -0.018104 15850.400000 0 0 1
9.641301 30.063810 16.010837 35.399636 1.260463 1.101467 0.046149 -0.014702 -158438.000000 0 0 1
10.671801 29.152810 16.360337 35.091798 1.219883 1.085788 0.046436 -0.012242 468330.000000 0 0 1
11.502101 28.483410 15.159437 34.255094 1.187003 1.112361 0.048542 -0.013559 501068.000000 0 0 1
10.738501 27.604010 14.338237 32.907170 1.199791 1.119961 0.057545 -0.017472 64069.900000 0 0 1
11.545201 27.001210 13.351037 32.258444 1.166742 1.144087 0.053061 -0.013797 -3600.830000 0 0 1
-9.778662 -8.960490 19.363331 23.470220 0.741765 0.600564 0.035136 -0.015335 -121171.000000 0 1 0
-9.984262 -9.301390 18.004931 22.591567 0.750005 0.648525 0.036692 -0.016713 15283.500000 0 1 0
-9.681362 -10.657390 17.659231 22.785021 0.833350 0.684023 0.026919 -0.021951 -212821.000000 0 1 0
-10.129462 -11.017390 16.206631 22.060004 0.827362 0.745629 0.042127 -0.018109 1068540.000000 0 1 0
-11.557662 -10.868090 15.996531 22.529624 0.754659 0.781267 0.043873 -0.022031 1169760.000000 0 1 0
-12.005962 -11.099390 14.688031 21.979032 0.746182 0.838909 0.062061 -0.024738 86513.600000 0 1 0
-11.957662 -12.547690 14.149531 22.374974 0.809471 0.886172 0.049264 -0.029012 1305930.000000 0 1 0
-10.568262 -12.969790 13.940631 21.777163 0.887074 0.876104 0.058533 -0.028387 1447420.000000 0 1 0
-10.450462 -14.363890 13.791131 22.488415 0.941818 0.910622 0.060184 -0.027743 192090.000000 0 1 0
-9.767262 -15.040690 15.017331 23.391067 0.994851 0.873677 0.050325 -0.031092 175431.000000 0 1 0
-10.589962 -14.854790 16.169431 24.377502 0.951466 0.845586 0.053664 -0.012709 -248273.000000 0 1 0
-10.102762 -15.313890 17.401331 25.286110 0.987624 0.811822 0.044002 -0.009895 -340658.000000 0 0 1
-11.145462 -15.153790 18.560131 26.426069 0.936646 0.792114 0.037823 -0.005560 182085.000000 0 0 1
-11.592262 -13.818090 18.801631 26.054203 0.872770 0.764635 0.036452 -0.010832 -211533.000000 0 0 1
-12.576662 -13.424390 17.907831 25.672497 0.817990 0.798825 0.035277 -0.020253 -519980.000000 0 0 1
-14.053862 -13.594190 18.393831 26.844852 0.768774 0.815931 0.015671 -0.016392 336378.000000 0 0 1
-14.570462 -14.903390 18.529031 27.887890 0.796693 0.844090 0.019574 -0.012729 -470897.000000 0 0 1
-15.381862 -14.898690 19.634431 29.053116 0.769443 0.828731 0.025777 -0.006724 -480141.000000 0 0 1
-15.861562 -16.296790 20.131931 30.372178 0.798931 0.846189 0.038995 -0.006429 482883.000000 0 0 1
-16.993862 -16.778590 19.393031 30.763649 0.779024 0.888744 0.052259 -0.002795 386111.000000 0 0 1
-17.318962 -18.122390 19.806931 31.948114 0.808064 0.902090 0.028992 -0.004179 354578.000000 0 0 1
-18.738062 -18.519790 19.274231 32.643431 0.779540 0.939183 0.048601 -0.005271 420658.000000 0 0 1
-18.926662 -18.604390 17.839031 31.977694 0.776812 0.978993 0.049874 -0.009998 23902.900000 0 0 1
-19.202762 -17.369190 17.235031 31.104359 0.735304 0.983511 0.049487 -0.016484 -475696.000000 0 0 1
-18.854362 -17.401990 15.758831 30.110745 0.745361 1.020004 0.048340 -0.023715 -46406.900000 0 0 1
-19.596562 -18.304390 14.920931 30.687296 0.751318 1.063032 0.051715 -0.020921 141937.000000 0 0 1
-18.952362 -18.392990 13.679331 29.742532 0.770421 1.092886 0.043936 -0.026375 86838.300000 0 0 1
-19.309762 -19.540690 12.701031 30.265850 0.791342 1.137738 0.059781 -0.014202 -279515.000000 0 0 1
-18.564862 -20.669590 13.036631 30.689409 0.838992 1.132064 0.051070 -0.005575 -91079.500000 0 0 1
-18.591062 -21.720090 12.076131 31.035832 0.862865 1.171139 0.039951 -0.007543 26104.000000 0 0 1
-17.728862 -22.964190 12.564831 31.615527 0.913349 1.162086 0.031182 -0.004503 495556.000000 0 0 1
-17.977862 -24.160090 11.865231 32.368151 0.931073 1.195475 0.041260 -0.015287 773988.000000 0 0 1
-16.987662 -24.181490 10.796031 31.462349 0.958390 1.220537 0.037007 -0.013411 582182.000000 0 0 1
-17.032262 -25.436530 9.870831 32.164395 0.980767 1.258876 0.043217 -0.017061 -306926.000000 0 0 1
-18.115962 -25.498120 8.974931 32.540615 0.953070 1.291367 0.041468 -0.013086 -345674.000000 0 0 1
-18.091262 -26.723380 8.181231 33.292121 0.975686 1.322513 0.060026 -0.015293 -112761.000000 0 0 1
-19.282362 -26.651550 7.242331 33.683319 0.944473 1.354092 0.052846 -0.017223 27534.000000 0 0 1
-19.028662 -25.601110 6.261331 32.507093 0.931613 1.376971 0.058144 -0.023654 -618983.000000 0 0 1
-20.085062 -25.513060 5.391631 32.914976 0.903881 1.406250 0.066425 -0.022760 -533960.000000 0 0 1
-19.999662 -24.234590 4.539831 31.747628 0.880846 1.427307 0.069411 -0.028881 333521.000000 0 0 1
-21.092562 -24.213690 3.627031 32.316471 0.854179 1.458325 0.082517 -0.033916 376571.000000 0 0 1
-21.273662 -22.976990 2.928031 31.449708 0.823872 1.477559 0.078347 -0.025723 -234951.000000 0 0 1
-22.206762 -23.051990 1.736731 32.055433 0.804071 1.516591 0.073982 -0.022863 -460717.000000 0 0 1
-21.678062 -23.820890 0.691731 32.215705 0.832460 1.549323 0.076561 -0.032694 -140888.000000 0 0 1
-22.109162 -23.400790 -0.543069 32.197934 0.813772 1.587664 0.071182 -0.030643 -389741.000000 0 0 1
-21.308962 -24.026190 -1.707869 32.159703 0.845263 1.623927 0.070211 -0.031856 -573640.000000 0 0 1
-20.000762 -23.516490 -1.862369 30.927726 0.866012 1.631050 0.061794 -0.028055 -140133.000000 0 0 1
-19.295262 -24.073690 -2.942169 30.992032 0.895136 1.665873 0.050147 -0.020794 188873.000000 0 0 1
-18.918262 -25.584240 -2.958369 31.956313 0.934082 1.663504 0.068731 -0.019861 -112724.000000 0 0 1
-20.015862 -26.434610 -3.329569 33.324306 0.922713 1.670877 0.077906 -0.022201 275948.000000 0 0 1
-19.628562 -27.764790 -3.554869 34.187733 0.955415 1.674965 0.078716 -0.014364 -227193.000000 0 0 1
-20.749262 -28.542100 -4.256569 35.542956 0.942198 1.690843 0.073125 -0.017633 1676.450000 0 0 1
-21.047562 -28.047920 -5.529969 35.500229 0.927030 1.727206 0.056947 -0.008660 -212062.000000 0 0 1
-21.813762 -29.014820 -6.204869 36.826626 0.926135 1.740093 0.058276 -0.016134 -250936.000000 0 0 1
-22.322762 -28.570140 -7.582869 37.041308 0.907542 1.776968 0.045865 0.003793 237003.000000 0 0 1
-21.334262 -28.448930 -8.612869 36.587892 0.927350 1.808429 0.051678 0.002617 295156.000000 0 0 1
-21.918762 -28.462790 -9.888569 37.260520 0.914564 1.839405 0.044597 0.002239 89881.000000 0 0 1
-22.665762 -27.178460 -10.339169 36.868739 0.875688 1.855040 0.040744 0.008713 -164891.000000 0 0 1
-21.883162 -26.046170 -10.579969 35.625995 0.872038 1.872318 0.029269 0.011478 -178936.000000 0 0 1
-21.794562 -25.179880 -9.418769 34.608417 0.857341 1.846426 0.018905 0.009856 128076.000000 0 0 1
-21.514562 -23.625390 -9.693469 33.391597 0.832126 1.865333 0.013602 0.009212 635284.000000 0 0 1
-22.627862 -23.040390 -10.371469 33.918241 0.794431 1.881552 0.015929 0.008717 634256.000000 0 0 1
-22.371862 -21.643590 -10.451769 32.835723 0.768854 1.894737 0.025985 0.012473 84377.300000 0 0 1
-23.694262 -20.878190 -10.612369 33.315751 0.722302 1.894984 0.044463 0.008035 -544652.000000 0 0 1
-24.255362 -21.013290 -11.892269 34.224363 0.713902 1.925678 0.042987 0.007046 56986.200000 0 0 1
-25.458932 -20.300890 -12.074369 34.728572 0.673152 1.925890 0.048325 -0.003074 -165622.000000 0 0 1
-25.382892 -18.725690 -11.995169 33.746507 0.635601 1.934191 0.056567 -0.010774 -782929.000000 0 0 1
-24.708562 -18.043390 -13.084369 33.275782 0.630740 1.974917 0.071650 -0.001784 677564.000000 0 0 1
-24.642062 -16.603590 -12.934869 32.407117 0.592918 1.981371 0.069593 -0.010549 -203155.000000 0 0 1
-23.743062 -16.080190 -11.794869 31.006845 0.595300 1.961020 0.067841 -0.006163 -386136.000000 0 0 1
-24.325962 -16.246790 -10.466869 31.068730 0.588841 1.914412 0.067853 -0.008333 950101.000000 0 0 1
-23.378962 -16.137290 -9.380969 29.916393 0.604151 1.889750 0.066423 -0.008004 415605.000000 0 0 1
-23.979162 -16.628090 -8.035569 30.266549 0.606309 1.839512 0.056052 -0.010761 137363.000000 0 0 1
-24.093262 -18.050790 -7.932169 31.132549 0.642992 1.828424 0.056842 -0.007104 212133.000000 0 0 1
-25.309322 -18.401190 -7.302969 32.132521 0.628652 1.800076 0.066747 -0.005016 127856.000000 0 0 1
-25.438712 -19.826290 -6.769769 32.955115 0.662037 1.777693 0.069095 0.007013 -46042.000000 0 0 1
-25.427892 -20.736890 -7.838469 33.734817 0.684131 1.805295 0.056895 -0.008392 104672.000000 0 0 1
-25.599442 -21.984190 -7.328969 34.530419 0.709567 1.784670 0.058835 0.004659 -53906.500000 0 0 1
-25.561202 -23.100390 -8.352269 35.450860 0.734871 1.808634 0.045887 0.014087 -14914.400000 0 0 1
-25.977502 -24.392890 -7.973769 36.516088 0.753949 1.790933 0.052559 0.009385 -186484.000000 0 0 1
-25.717972 -25.354210 -8.999869 37.218916 0.778276 1.815026 0.038491 0.014875 -68081.200000 0 0 1
-26.305352 -26.685010 -8.505869 38.424096 0.792563 1.794013 0.058453 -0.001217 317397.000000 0 0 1
-25.670452 -27.301030 -7.364569 38.191036 0.816171 1.764847 0.072572 -0.011747 243288.000000 0 0 1
-26.382582 -28.470750 -7.026769 39.446162 0.823448 1.749888 0.077365 -0.012336 106916.000000 0 0 1
-26.081492 -29.004810 -5.586269 39.404691 0.838416 1.713042 0.096673 -0.015722 109691.000000 0 0 1
-26.803612 -28.319030 -4.558469 39.257875 0.812883 1.687175 0.067896 -0.016963 43511.700000 0 0 1
-26.331542 -28.529240 -3.259069 38.960097 0.825436 1.654546 0.067343 -0.014868 -338287.000000 0 0 1
-26.783552 -29.821910 -2.574969 40.166347 0.839023 1.634948 0.063121 -0.003612 -263825.000000 0 0 1
-26.314772 -31.042070 -3.160569 40.817478 0.867631 1.648306 0.092603 -0.020127 -56739.100000 0 0 1
-26.205242 -32.152070 -2.276969 41.541003 0.886951 1.625636 0.086501 -0.022902 291073.000000 0 0 1
-25.089422 -32.103440 -1.185869 40.761701 0.907427 1.599893 0.090634 -0.022976 -469276.000000 0 0 1
-23.775362 -32.044280 -1.618869 39.934001 0.932465 1.611346 0.092287 -0.035427 -984689.000000 0 0 1
-22.892962 -32.026300 -0.531269 39.370723 0.950195 1.584291 0.074250 -0.026774 122054.000000 0 0 1
-21.860262 -30.877440 -0.468869 37.835264 0.954742 1.583189 0.081248 -0.019459 -226408.000000 0 0 1
-22.359862 -29.611330 -0.021869 37.105185 0.924032 1.571386 0.077583 -0.030404 9630.440000 0 0 1
-22.864662 -28.882700 -1.137969 36.855096 0.901175 1.601678 0.093302 -0.035093 -38462.800000 0 0 1
-23.565462 -27.536060 -0.858869 36.253321 0.862943 1.594489 0.057931 -0.026419 220227.000000 0 0 1
-24.898862 -27.637090 -0.382269 37.200917 0.837472 1.581072 0.072484 -0.025804 341178.000000 0 0 1
-25.649342 -26.431370 -0.182469 36.831228 0.800413 1.575751 0.080565 -0.028163 475759.000000 0 0 1
-25.185572 -25.476690 0.972031 35.837405 0.791144 1.543670 0.084973 -0.023262 -156551.000000 0 0 1
-25.366732 -26.092720 2.226531 36.458999 0.799505 1.509689 0.065651 -0.020895 -102475.000000 0 0 1
-24.713562 -25.374930 3.253431 35.570100 0.798601 1.479203 0.086334 -0.024471 -114198.000000 0 0 1
-25.498882 -24.207990 3.854931 35.370613 0.759434 1.461593 0.103442 -0.024857 -133879.000000 0 0 1
-25.817652 -23.195590 2.918531 34.829648 0.731952 1.486904 0.103066 -0.028758 163543.000000 0 0 1
-26.596372 -22.130690 3.420831 34.768327 0.694007 1.472248 0.091315 -0.025115 23916.000000 0 0 1
-26.694302 -20.891390 2.524531 33.991311 0.664051 1.496458 0.084185 -0.022149 793493.000000 0 0 1
-25.427632 -20.207690 2.503131 32.575771 0.671509 1.493880 0.079960 -0.019374 651911.000000 0 0 1
-25.292002 -19.350690 1.409531 31.876658 0.653090 1.526564 0.069900 -0.012793 -366145.000000 0 0 1
-23.958462 -18.631790 1.535531 30.389297 0.660976 1.520246 0.084319 -0.007468 -673043.000000 0 0 1
-22.812462 -19.432790 1.442031 30.002020 0.705567 1.522713 0.076580 -0.013004 234469.000000 0 0 1
-21.646862 -18.632990 1.654731 28.609668 0.710714 1.512926 0.061934 -0.008016 883374.000000 0 0 1
-20.274362 -19.380290 1.670331 28.096893 0.762856 1.511312 0.045266 -0.021965 437865.000000 0 0 1
-19.944162 -19.821290 0.335331 28.120555 0.782308 1.558871 0.034695 -0.014780 115754.000000 0 0 1
-18.727562 -20.539390 0.317431 27.797282 0.831507 1.559377 0.041822 -0.012114 51216.300000 0 0 1
-18.250762 -21.097390 -1.043369 27.915566 0.857617 1.608181 0.034439 -0.012923 -147723.000000 0 0 1
-17.615362 -20.108190 -1.794869 26.792944 0.851384 1.637837 0.028442 -0.015439 -299413.000000 0 0 1
-17.633462 -20.482190 -3.153969 27.210414 0.859999 1.686968 0.044802 -0.011437 -82951.200000 0 0 1
-17.164762 -19.426090 -4.132569 26.250336 0.847120 1.728883 0.055043 -0.005773 -991833.000000 0 0 1
-15.795262 -19.298690 -4.101769 25.273588 0.884898 1.733812 0.074733 -0.015075 -1143760.000000 0 0 1
-15.269962 -18.431890 -5.044169 24.461193 0.878945 1.778498 0.082006 -0.010724 -294867.000000 0 1 0
-13.757362 -18.186890 -5.107569 23.369109 0.923184 1.791136 0.092119 -0.020996 69120.600000 0 1 0
-13.002262 -19.395190 -5.358369 23.957135 0.980223 1.796369 0.070820 -0.020523 463448.000000 0 1 0
-11.636862 -19.055190 -5.578469 23.013825 1.022552 1.815632 0.063431 -0.028113 987136.000000 0 1 0
-10.614762 -20.250690 -5.684169 23.559996 1.088002 1.814464 0.068145 -0.029661 719683.000000 0 1 0
-10.828262 -21.075890 -6.855169 24.666531 1.096190 1.852418 0.064555 -0.023761 -243338.000000 0 1 0
-9.766762 -21.973390 -7.050969 25.058645 1.152541 1.856027 0.063320 -0.020701 682.948000 0 0 1
-10.199462 -23.045490 -7.999269 26.440725 1.154130 1.878148 0.063607 -0.006965 -74993.600000 0 0 1
-10.466862 -22.751490 -9.356069 26.734276 1.139615 1.928330 0.054748 -0.007215 -33252.600000 0 0 1
-10.796462 -23.886690 -10.122369 28.099821 1.146292 1.939310 0.059056 -0.003399 190091.000000 0 0 1
-11.599362 -23.529090 -11.372569 28.591933 1.112781 1.979864 0.066825 -0.008654 632040.000000 0 0 1
-10.688162 -22.907290 -12.279769 28.102909 1.134238 2.023009 0.049812 -0.003290 665623.000000 0 0 1
-11.484262 -22.346690 -13.315369 28.435223 1.096080 2.058128 0.053885 -0.016211 -3255.020000 0 0 1
-10.848862 -21.201890 -14.144669 27.699993 1.097838 2.106723 0.022782 0.000427 -282296.000000 0 0 1
-10.589862 -20.057690 -13.303369 26.295166 1.085024 2.101250 0.022716 0.000130 -150074.000000 0 0 1
-10.785062 -18.894890 -14.098269 25.924807 1.052130 2.145771 0.002152 0.014874 -359635.000000 0 0 1
-10.336762 -17.594790 -13.438269 24.433836 1.039626 2.153144 0.023740 0.008588 -582803.000000 0 1 0
-11.206762 -17.057890 -12.428369 23.896181 0.989527 2.117763 0.028500 -0.006198 153217.000000 0 1 0
-10.687262 -15.996990 -11.644469 22.488106 0.981816 2.115080 0.033236 -0.011506 6246.680000 0 1 0
-10.222262 -14.684190 -12.301869 21.713039 0.962665 2.173129 0.030056 -0.001899 127499.000000 0 1 0
-11.252862 -13.878290 -12.831169 21.997107 0.889490 2.193596 0.032713 0.001354 -131961.000000 0 1 0
-11.307962 -14.002690 -14.236969 22.948565 0.891465 2.240031 0.031984 0.000912 -729123.000000 0 1 0
-12.582062 -13.373790 -14.756669 23.556864 0.815892 2.247758 0.034037 -0.002461 -730027.000000 0 1 0
-12.621462 -12.007790 -14.506669 22.670063 0.760487 2.265170 0.030927 0.004421 -259734.000000 0 1 0
-13.777462 -11.415390 -15.039169 23.373194 0.691912 2.269776 0.052920 -0.015265 -346103.000000 0 1 0
-14.121762 -10.018690 -14.486969 22.575885 0.617040 2.267510 0.055852 -0.016971 342097.000000 0 1 0
-13.270362 -8.849890 -14.701269 21.692173 0.588158 2.315457 0.050163 -0.012222 324928.000000 0 1 0
-13.190062 -8.379490 -15.993269 22.360193 0.565963 2.367787 0.048446 -0.008923 -37274.800000 0 1 0
-12.128662 -7.238990 -16.090569 21.410601 0.538100 2.421165 0.041773 0.001577 605437.000000 0 1 0
-10.826162 -7.781690 -15.877669 20.733086 0.623223 2.443101 0.035425 -0.007300 -334609.000000 0 1 0
-9.865662 -6.791190 -15.907569 19.912365 0.602875 2.496225 0.027389 0.006626 -281066.000000 0 1 0
11.327838 22.237110 16.130731 29.715475 1.099648 0.996982 0.086307 -0.012508 193303.000000 0 0 1
12.154138 22.153910 17.322231 30.636228 1.069011 0.969858 0.096006 -0.025072 100303.000000 0 0 1
12.599938 20.870010 17.457131 29.984449 1.027636 0.949357 0.080738 -0.015910 -652803.000000 0 0 1
13.778838 20.783010 18.412231 30.996776 0.985346 0.934768 0.076174 -0.020830 159405.000000 0 0 1
14.976538 21.382010 17.890331 31.647290 0.959784 0.969995 0.063393 -0.016506 650847.000000 0 0 1
16.077938 21.092410 18.759231 32.485360 0.919494 0.955173 0.054151 -0.016350 277868.000000 0 0 1
17.444538 21.520110 18.213731 33.153688 0.889616 0.989183 0.045157 -0.007295 -905209.000000 0 0 1
17.808838 22.878710 18.513631 34.399776 0.909364 1.002508 0.047155 -0.006654 -278639.000000 0 0 1
18.948638 23.329610 17.833731 34.948012 0.888652 1.035271 0.039138 -0.008888 215355.000000 0 0 1
20.308238 22.846910 18.409831 35.683718 0.844157 1.028719 0.029365 -0.010092 -447407.000000 0 0 1
20.604438 21.447410 18.272831 34.906025 0.805441 1.019859 0.032640 -0.005084 -86624.600000 0 0 1
21.886138 21.092010 18.727631 35.701542 0.766923 1.018597 0.040799 -0.009670 -227998.000000 0 0 1
22.126838 19.616310 18.586231 34.926273 0.725328 1.009651 0.031276 -0.006563 -147255.000000 0 0 1
22.108238 19.248510 17.220531 33.997441 0.716360 1.039647 0.009802 0.001119 44887.000000 0 0 1
21.658238 17.935610 16.860431 32.787795 0.691653 1.030688 0.015812 0.006229 -113414.000000 0 0 1
22.453438 16.656510 17.355831 32.906247 0.638248 1.015220 0.026696 0.001177 1337430.000000 0 0 1
23.773038 16.747510 16.733031 33.550421 0.613723 1.048649 0.029345 -0.014175 1265450.000000 0 0 1
24.599238 15.684210 17.209131 33.871391 0.567601 1.037851 0.011452 -0.004026 -1467350.000000 0 0 1
25.968438 15.619710 16.609431 34.557319 0.541513 1.069418 0.099915 -0.022723 -2574870.000000 0 0 1
26.810338 16.548710 17.164731 35.878713 0.553008 1.071953 0.071884 -0.019375 -390670.000000 0 0 1
27.827338 15.912310 17.920531 36.724757 0.519443 1.061035 0.075624 -0.026433 -243083.000000 0 0 1
29.048438 15.472310 17.100131 37.089333 0.489416 1.091615 0.084619 -0.042668 -1021080.000000 0 0 1
29.872038 16.423510 16.428031 37.841122 0.502686 1.121722 0.123292 -0.029756 -182328.000000 0 0 1
30.927238 15.850910 15.731531 38.147431 0.473615 1.145723 0.117253 -0.025397 -223543.000000 0 0 1
30.547838 15.320910 14.350731 37.065404 0.464877 1.173233 0.073328 -0.026357 -237210.000000 0 0 1
30.178238 16.318910 13.456731 36.852632 0.495714 1.197003 0.085061 -0.007866 -274874.000000 0 0 1
29.576238 15.818910 12.271831 35.715397 0.491139 1.220048 0.067291 -0.011906 1259830.000000 0 0 1
28.093238 16.366610 12.045131 34.672484 0.527514 1.216002 0.052579 -0.014883 1059330.000000 0 0 1
27.856838 17.760110 11.850831 35.097965 0.567573 1.226377 0.030603 -0.003807 -100470.000000 0 0 1
28.302638 18.636510 12.876331 36.251327 0.582308 1.207672 0.052399 -0.010487 -570182.000000 0 0 1
27.614538 18.660710 14.249331 36.246769 0.594269 1.166774 0.043584 -0.007842 -137286.000000 0 0 1
26.282838 19.162510 14.177931 35.482433 0.629983 1.159742 0.035128 -0.001334 145027.000000 0 0 1
25.690938 19.107210 15.452131 35.551064 0.639478 1.121151 0.026366 -0.005378 -21004.000000 0 0 1
26.224538 20.041910 16.620231 36.954521 0.652554 1.104313 0.045977 -0.020449 -184528.000000 0 0 1
26.191738 21.461910 16.366531 37.609627 0.686468 1.120571 0.031905 -0.017499 928188.000000 0 0 1
24.924738 22.039110 16.754331 37.251477 0.724032 1.104297 0.017654 -0.009848 536148.000000 0 0 1
24.880738 23.562810 16.478931 38.023839 0.758199 1.122552 0.024889 -0.004519 -142941.000000 0 0 1
24.666138 23.879910 15.123631 37.515233 0.769204 1.155858 0.039199 -0.020598 292423.000000 0 0 1
24.756638 25.284310 14.896231 38.393817 0.795943 1.172352 0.055325 -0.025524 -512715.000000 0 0 1
24.632838 25.622610 13.380131 37.977925 0.805090 1.210754 0.059756 -0.022581 -87207.900000 0 0 1
23.388938 25.287010 12.813831 36.751456 0.824372 1.214653 0.053071 -0.016919 142603.000000 0 0 1
23.483938 25.605810 11.466931 36.587475 0.828596 1.252013 0.060480 -0.025451 -142423.000000 0 0 1
22.701738 24.628110 10.543531 35.115221 0.826077 1.265836 0.065316 -0.028277 -1658420.000000 0 0 1
21.339738 24.695010 10.757431 34.364957 0.858155 1.252409 0.062291 -0.021467 -1136960.000000 0 0 1
20.758438 23.471110 11.085731 33.237015 0.846653 1.230745 0.066584 -0.025101 -243330.000000 0 0 1
20.646838 22.422310 9.946731 32.062273 0.826599 1.255360 0.087154 -0.033071 -901979.000000 0 0 1
19.586938 22.413610 9.026631 31.104632 0.852598 1.276358 0.101735 -0.036683 -252226.000000 0 0 1
19.649838 23.384210 7.961231 31.564515 0.871958 1.315822 0.082309 -0.028277 -663563.000000 0 0 1
18.352038 23.594710 7.203831 30.747403 0.909737 1.334307 0.076840 -0.024053 -960949.000000 0 0 1
17.919838 22.419610 6.495831 29.427119 0.896487 1.348220 0.095852 -0.020781 298547.000000 0 0 1
17.569838 22.607910 5.121831 29.086938 0.910142 1.393786 0.085314 -0.022467 677385.000000 0 0 1
16.162338 23.287210 4.847131 28.757781 0.964079 1.401438 0.070548 -0.008728 821575.000000 0 0 1
16.193938 24.666010 5.183031 29.958629 0.989845 1.396915 0.071291 -0.017765 126752.000000 0 0 1
14.853638 25.021410 5.420531 29.598711 1.035069 1.386623 0.057466 -0.013081 -274965.000000 0 0 1
14.678438 26.553710 5.396831 30.816908 1.065819 1.394763 0.050068 -0.012336 -264075.000000 0 0 1
14.761538 27.038010 4.065831 31.072302 1.071064 1.439569 0.048739 -0.014730 377507.000000 0 0 1
14.497638 28.419710 3.920931 32.143975 1.099081 1.448512 0.055676 -0.019913 -175810.000000 0 0 1
13.748738 28.684810 2.575831 31.913649 1.123842 1.489996 0.067924 -0.018224 -246739.000000 0 0 1
14.495338 28.369410 1.427531 31.890062 1.098427 1.526017 0.093132 -0.025324 98041.200000 0 0 1
14.140438 27.092710 0.937331 30.575243 1.089761 1.540135 0.077600 -0.020647 119380.000000 0 0 1
15.226038 26.628410 -0.060869 30.674226 1.051373 1.572781 0.076226 -0.026800 48772.700000 0 0 1
15.324338 27.330910 -1.283169 31.360174 1.059778 1.611725 0.067924 -0.009029 -140662.000000 0 0 1
16.340938 26.862810 -2.143969 31.515606 1.024288 1.638878 0.059002 -0.009133 -35878.100000 0 0 1
16.297338 27.405010 -3.586069 32.085786 1.034294 1.682795 0.066479 -0.023440 202880.000000 0 0 1
15.236038 26.925610 -4.396569 31.248282 1.055861 1.711963 0.090334 -0.028608 82745.300000 0 0 1
15.517138 27.478510 -5.688869 32.065765 1.056737 1.749153 0.095577 -0.025979 245100.000000 0 0 1
14.359938 27.234910 -6.682269 31.505569 1.085578 1.784518 0.120590 -0.042594 255644.000000 0 0 1
14.181738 25.841710 -6.939769 30.283264 1.068881 1.802013 0.068247 -0.029855 438726.000000 0 0 1
13.217838 25.787710 -8.034269 30.071027 1.097149 1.841258 0.053392 -0.036094 556137.000000 0 0 1
12.689638 24.421410 -8.442669 28.787338 1.091583 1.868449 0.059497 -0.016940 -297585.000000 0 0 1
13.432738 23.724810 -9.368869 28.828471 1.055609 1.901794 0.059621 -0.021191 32153.000000 0 0 1
12.588838 22.707110 -9.948469 27.804023 1.064581 1.936714 0.060402 -0.006451 431963.000000 0 0 1
13.192738 21.918310 -11.148469 27.906075 1.028977 1.981767 0.075282 -0.015470 267342.000000 0 0 1
12.223638 20.976710 -11.633169 26.921558 1.043176 2.017631 0.075249 -0.010598 -4300.090000 0 0 1
12.342238 20.490010 -12.975169 27.212614 1.028648 2.067815 0.070865 -0.010482 656391.000000 0 0 1
13.681238 19.771310 -13.372369 27.511838 0.965477 2.078371 0.053192 -0.001818 1478340.000000 0 0 1
14.919238 20.491310 -13.260869 28.606434 0.941475 2.052808 0.036935 -0.003239 -317972.000000 0 0 1
15.914938 19.782210 -13.904269 28.947362 0.893313 2.071827 0.038253 0.001424 6423.240000 0 0 1
17.253138 20.601610 -13.963869 30.283440 0.873624 2.050037 0.036989 0.005573 258991.000000 0 0 1
17.340538 21.865910 -14.660969 31.523900 0.900314 2.054515 0.029744 -0.000423 -324974.000000 0 0 1
16.382638 22.843110 -14.294369 31.536130 0.948632 2.041226 0.029392 -0.003462 17479.700000 0 0 1
16.867938 24.273010 -14.700069 33.012094 0.963484 2.032298 0.035923 -0.011591 150254.000000 0 0 1
17.074738 24.387610 -16.107469 33.848970 0.959976 2.066741 0.027766 -0.006781 -217220.000000 0 0 1
15.891638 24.717910 -16.786269 33.842252 0.999414 2.089800 0.037488 -0.002467 57829.600000 0 0 1
16.086138 24.709310 -18.335969 34.720622 0.993708 2.127158 0.020618 0.008237 207692.000000 0 0 1
16.491338 23.461810 -18.772069 34.275521 0.958126 2.150387 0.019845 0.010610 -267329.000000 0 0 1
16.312638 23.526910 -20.148569 35.008320 0.964540 2.184056 0.024098 0.011654 -91644.200000 0 0 1
16.604538 22.191210 -20.905369 34.715917 0.928417 2.217030 0.029143 0.006037 -488278.000000 0 0 1
15.672638 21.177510 -20.778169 33.553700 0.933687 2.238585 0.036766 0.005932 -264210.000000 0 0 1
16.068238 20.130010 -21.677669 33.664921 0.897140 2.270413 0.032775 0.004478 5980.540000 0 0 1
15.030638 19.011310 -21.751369 32.564890 0.901804 2.302233 0.030623 0.002525 -553409.000000 0 0 1
14.748638 18.224110 -20.599569 31.208697 0.890415 2.291693 0.036086 -0.003112 894631.000000 0 0 1
13.789138 17.160910 -20.932969 30.378057 0.893913 2.331018 0.035778 -0.005646 1363290.000000 0 0 1
12.268738 17.508310 -20.913769 29.907333 0.959575 2.345194 0.044681 -0.007868 254503.000000 0 0 1
11.585838 17.031010 -19.716869 28.513889 0.973429 2.334336 0.047346 -0.014409 -135996.000000 0 0 1
10.243738 17.336810 -19.997369 28.379463 1.037120 2.352715 0.043482 -0.014748 383472.000000 0 0 1
9.112938 16.810710 -19.034869 26.980953 1.074045 2.353915 0.055865 -0.022119 22942.300000 0 0 1
8.941938 15.449610 -19.048169 26.105199 1.046125 2.388635 0.066586 -0.030963 -270842.000000 0 0 1
7.633238 14.992310 -18.775969 25.210567 1.099861 2.410980 0.072916 -0.027373 100590.000000 0 0 1
7.181838 15.131910 -17.311169 24.087965 1.127662 2.372676 0.073664 -0.031986 -487041.000000 0 1 0
7.025638 16.502310 -16.987269 24.703302 1.168302 2.329046 0.083342 -0.026912 -470591.000000 0 1 0
6.690438 16.606710 -15.596669 23.744491 1.187813 2.287435 0.068691 -0.037105 -176950.000000 0 1 0
6.231838 18.000910 -15.282669 24.421886 1.237515 2.246924 0.077043 -0.023714 448615.000000 0 1 0
7.290438 18.969410 -15.085669 25.309413 1.203875 2.209369 0.069922 -0.022516 627812.000000 0 0 1
7.853638 19.617410 -16.255569 26.660193 1.189997 2.226519 0.078212 -0.017083 641414.000000 0 0 1
9.171238 20.428110 -16.004969 27.524140 1.148814 2.191353 0.058006 -0.005272 505663.000000 0 0 1
9.050338 21.672510 -15.284269 28.021691 1.175214 2.147715 0.056441 -0.012811 -107707.000000 0 0 1
8.777938 21.567910 -13.892469 27.115081 1.184278 2.108718 0.063416 -0.017682 -195402.000000 0 0 1
8.500538 22.838410 -13.130969 27.681663 1.214480 2.065029 0.062899 -0.020090 68807.600000 0 0 1
7.186338 23.300910 -13.430269 27.837887 1.271638 2.074241 0.053532 -0.016256 162071.000000 0 0 1
6.740738 24.499310 -12.786869 28.445698 1.302300 2.037023 0.040249 -0.019873 179079.000000 0 0 1
6.061738 24.172110 -11.407869 27.407573 1.325089 2.000092 0.035431 -0.015454 -115037.000000 0 0 1
6.998938 23.841910 -10.390569 26.932986 1.285262 1.966864 0.035929 -0.016493 -43680.000000 0 0 1
6.426738 23.139510 -9.373069 25.779726 1.299886 1.942908 0.050517 -0.017375 -182269.000000 0 0 1
7.415738 23.018610 -8.205369 25.537769 1.259133 1.897902 0.037171 -0.014601 62744.800000 0 0 1
7.643938 24.286910 -7.583069 26.566647 1.265877 1.860257 0.039999 -0.011290 605297.000000 0 0 1
8.623538 24.080510 -6.540769 26.401099 1.226912 1.821149 0.047347 -0.010984 371604.000000 0 0 1
8.974038 25.338810 -5.728769 27.484676 1.230419 1.780771 0.041736 -0.009770 92291.000000 0 0 1
9.735738 26.182210 -6.583869 28.699129 1.214794 1.802268 0.046713 -0.025737 130713.000000 0 0 1
10.053538 27.420910 -5.911169 29.798017 1.219377 1.770496 0.049364 -0.015192 196502.000000 0 0 1
10.135938 28.614110 -6.904769 31.131662 1.230359 1.794449 0.046220 -0.017364 -430821.000000 0 0 1
11.388138 28.798110 -7.471369 31.856588 1.194221 1.807533 0.062015 -0.025133 -798833.000000 0 0 1
11.415438 30.022410 -8.214369 33.153177 1.207448 1.821174 0.060345 -0.022376 -152475.000000 0 0 1
12.788838 30.448110 -8.753269 34.165209 1.173151 1.829890 0.085252 -0.036981 242053.000000 0 0 1
13.818938 30.467410 -7.759569 34.342933 1.144982 1.798708 0.079024 -0.029108 370306.000000 0 0 1
15.063438 30.789510 -8.394969 35.289893 1.115794 1.810985 0.075621 -0.028889 368259.000000 0 0 1
16.178638 31.061210 -7.380169 35.791256 1.090598 1.778487 0.070692 -0.027752 -380876.000000 0 0 1
16.855138 29.888910 -7.006169 35.021836 1.057324 1.772207 0.066526 -0.031443 -731420.000000 0 0 1
17.941638 30.286610 -6.228469 35.748775 1.035987 1.745919 0.059859 -0.018324 -21732.500000 0 0 1
19.149338 29.322910 -6.122069 35.552917 0.992280 1.743855 0.051198 -0.012749 -53697.900000 0 0 1
18.859438 28.254610 -5.325469 34.385491 0.982230 1.726298 0.065830 -0.017714 80223.700000 0 0 1
19.962938 27.375110 -5.132469 34.267445 0.940717 1.721139 0.050516 -0.013813 82923.200000 0 0 1
20.209138 26.292610 -6.136769 33.724924 0.915482 1.753781 0.042115 -0.004971 -129305.000000 0 0 1
20.601338 26.795210 -7.409369 34.601982 0.915344 1.786599 0.033662 -0.002731 198699.000000 0 0 1
20.158438 25.939810 -8.403969 33.909631 0.910161 1.821240 0.026849 -0.000096 -1360730.000000 0 0 1
20.706138 26.334610 -9.783169 34.899373 0.904483 1.854929 0.025731 0.001281 -1642670.000000 0 0 1
22.038538 26.268010 -10.024569 35.723906 0.872730 1.855228 0.034325 0.000589 -1571420.000000 0 0 1
22.535038 24.931210 -9.940769 35.045856 0.835837 1.858395 0.041553 0.000993 -1447290.000000 0 0 1
24.029538 24.949610 -9.630069 35.953302 0.804181 1.841956 0.023516 0.003368 22636.200000 0 0 1
24.905738 25.246810 -10.733969 37.052871 0.792199 1.864703 0.025700 0.002167 -155044.000000 0 0 1
26.252338 25.268010 -10.387969 37.888883 0.766295 1.848522 0.015048 0.009110 -347520.000000 0 0 1
27.218238 25.322810 -11.617069 38.949114 0.749339 1.873668 0.017878 0.013540 155395.000000 0 0 1
27.150938 26.528410 -12.354869 39.919579 0.773802 1.885457 0.018372 0.016876 -76570.800000 0 0 1
27.989938 26.455910 -13.481969 40.805824 0.757230 1.907517 0.023757 0.016397 51888.600000 0 0 1
27.599238 27.401810 -14.646969 41.558523 0.781809 1.930976 0.025200 0.010478 90529.900000 0 0 1
27.936638 28.765310 -14.332969 42.583245 0.800012 1.914086 0.015791 0.015532 134893.000000 0 0 1
27.861538 29.544910 -15.531069 43.478513 0.814714 1.936078 0.033729 0.014806 -116716.000000 0 0 1
28.197738 31.075410 -15.375969 44.690200 0.833909 1.922030 0.022270 0.008363 1127400.000000 0 0 1
29.539238 31.406810 -14.950669 45.634162 0.816032 1.904580 0.005817 0.003962 966947.000000 0 0 1
30.042038 32.653110 -15.337669 46.946711 0.827021 1.903610 0.009244 -0.006988 -190863.000000 0 0 1
15.812138 -32.172322 -27.980583 45.475213 -1.113986 2.233554 0.101344 -0.034043 470834.000000 0 0 1
16.926038 -32.955922 -27.529163 46.156672 -1.096331 2.209841 0.075922 -0.023485 527083.000000 0 0 1
17.413438 -32.721822 -26.272493 45.433351 -1.081748 2.187396 0.078518 -0.022335 145215.000000 0 0 1
18.703238 -33.496422 -25.889183 46.282515 -1.061553 2.164425 0.026930 -0.014673 1596760.000000 0 0 1
20.027638 -33.135522 -26.367003 46.843227 -1.027136 2.168660 0.047341 -0.018058 1573620.000000 0 0 1
20.318738 -33.537022 -27.683963 47.999841 -1.026079 2.185542 0.058967 -0.014290 -203578.000000 0 0 1
21.809038 -33.197722 -27.933143 48.559071 -0.989555 2.183694 0.068423 -0.010971 148134.000000 0 0 1
22.083038 -31.794422 -28.030743 47.794021 -0.963733 2.197515 0.068680 -0.022966 -95450.900000 0 0 1
23.387638 -31.514422 -27.580553 47.966940 -0.932354 2.183389 0.031555 -0.012891 -224387.000000 0 0 1
23.919138 -30.230922 -28.270983 47.804626 -0.901436 2.203573 0.012297 -0.006379 -35212.700000 0 0 1
24.216538 -30.369322 -29.680843 48.884444 -0.897642 2.223282 0.014878 -0.010788 -33736.600000 0 0 1
24.654438 -29.191922 -30.325963 48.781899 -0.869467 2.241662 0.019425 -0.019142 72951.200000 0 0 1
24.978938 -29.414122 -31.854853 50.038681 -0.866758 2.260884 0.025547 -0.016049 301392.000000 0 0 1
26.013838 -30.367422 -32.051363 51.246365 -0.862462 2.246488 0.029130 -0.017669 -53801.500000 0 0 1
26.172038 -30.593322 -33.455313 52.346775 -0.863128 2.264136 0.019585 -0.017919 -53274.900000 0 0 1
27.383238 -31.460422 -33.868543 53.727815 -0.854576 2.252829 0.014392 -0.021680 83671.000000 0 0 1
28.583638 -30.769022 -33.737953 53.870275 -0.822202 2.247570 0.023001 -0.022690 -879409.000000 0 0 1
29.790138 -31.443322 -33.924593 55.018295 -0.812390 2.235220 0.025906 -0.013518 -686638.000000 0 0 1
30.943738 -30.532922 -34.145174 55.278089 -0.778716 2.236609 0.041006 -0.018132 -818065.000000 0 0 1
30.859138 -29.880222 33.004087 54.169953 -0.769283 0.915658 0.048960 -0.016809 437981.000000 0 0 1
32.052838 -29.116822 32.823026 54.337140 -0.737437 0.922207 0.059571 -0.020754 460959.000000 0 0 1
32.162238 -28.265522 31.514781 53.165127 -0.721002 0.936300 0.048674 -0.015429 575842.000000 0 0 1
33.452138 -27.612622 31.466121 53.587491 -0.690060 0.943211 0.037556 -0.018751 1045090.000000 0 0 1
33.563438 -26.673322 30.375991 52.542091 -0.671509 0.954365 0.044869 -0.012245 122519.000000 0 0 1
34.361938 -27.152722 29.100721 52.581984 -0.668735 0.984313 0.048937 -0.009747 122711.000000 0 0 1
33.713338 -28.205922 28.348601 52.304937 -0.696686 0.997997 0.051010 -0.021141 177124.000000 0 0 1
32.642238 -27.711422 27.603121 50.944783 -0.703881 0.998190 0.045275 -0.022398 -380927.000000 0 0 1
31.704938 -28.819522 27.021481 50.654994 -0.737761 1.008132 0.040938 -0.011852 226860.000000 0 0 1
30.571338 -28.186922 26.441731 49.277525 -0.744840 1.004408 0.037172 -0.005651 307347.000000 0 0 1
29.949138 -29.018222 25.445051 48.851394 -0.769613 1.022931 0.042548 -0.006924 817638.000000 0 0 1
28.638238 -28.415522 24.821851 47.367867 -0.781495 1.019229 0.050013 -0.000698 813529.000000 0 0 1
27.538938 -28.264222 25.693131 47.089238 -0.798395 0.993660 0.054229 -0.003801 -112779.000000 0 0 1
26.347038 -27.916522 25.039431 45.830904 -0.814313 0.992804 0.056782 0.001933 117798.000000 0 0 1
25.154038 -27.781222 26.012061 45.619615 -0.834988 0.964054 0.061086 -0.003947 -88779.900000 0 0 1
25.184938 -26.717422 26.931221 45.534519 -0.814916 0.937945 0.048161 -0.010388 -169899.000000 0 0 1
23.951838 -26.642122 27.593091 45.220260 -0.838522 0.914492 0.051186 -0.016860 -200684.000000 0 0 1
23.955038 -25.419322 28.499421 45.079960 -0.815046 0.886411 0.055143 -0.003624 -114782.000000 0 0 1
22.791838 -25.434322 29.316451 45.009187 -0.840137 0.861442 0.074873 -0.004665 377304.000000 0 0 1
22.769038 -24.472522 30.341771 45.143732 -0.821442 0.833735 0.081536 -0.004614 -495739.000000 0 0 1
22.125338 -23.145422 29.999451 43.877195 -0.807927 0.817956 0.081009 -0.011962 -515778.000000 0 0 1
22.846838 -22.461422 28.959801 43.187540 -0.776892 0.835834 0.078277 -0.013010 208752.000000 0 0 1
22.535138 -21.160722 28.551971 42.081156 -0.753954 0.825081 0.085542 -0.011246 -378335.000000 0 0 1
23.242738 -20.112022 29.371971 42.513892 -0.713312 0.808092 0.090375 -0.010491 -74040.800000 0 0 1
22.758838 -20.065422 30.695501 43.160163 -0.722586 0.779593 0.094693 -0.006824 615100.000000 0 0 1
23.714338 -19.326622 31.456871 43.879641 -0.683806 0.771465 0.089667 -0.012943 165106.000000 0 0 1
23.224438 -19.016322 32.881077 44.521458 -0.686104 0.739887 0.116966 -0.015198 -279033.000000 0 0 1
23.210138 -20.202222 33.703782 45.637542 -0.716222 0.739939 0.086114 -0.009539 309943.000000 0 0 1
22.444738 -19.980322 -33.535613 45.029067 -0.727375 2.410964 0.084616 -0.014451 30453.700000 0 0 1
22.425238 -21.183622 -32.541043 44.839231 -0.756934 2.382887 0.059277 -0.005053 -694506.000000 0 0 1
23.573638 -21.299922 -31.787313 44.942590 -0.734772 2.356450 0.043962 0.004592 -748036.000000 0 0 1
23.480438 -22.366022 -30.824103 44.740309 -0.761095 2.330844 0.028190 0.006153 -295066.000000 0 0 1
24.722338 -22.563422 -29.952143 44.915842 -0.739773 2.300770 0.025960 0.005218 -180116.000000 0 0 1
25.765238 -23.272222 -30.604213 46.282412 -0.734603 2.293279 0.040976 0.002768 -214835.000000 0 0 1
26.723138 -23.584022 -29.598473 46.329276 -0.723080 2.263827 0.039794 -0.007056 300457.000000 0 0 1
27.922338 -24.425422 -30.139703 47.798116 -0.718696 2.253074 0.030723 -0.002464 261067.000000 0 0 1
28.840538 -23.723222 -30.969403 48.514656 -0.688350 2.263151 0.031398 0.002191 182271.000000 0 0 1
28.631038 -23.777422 -32.409813 49.350766 -0.693050 2.287262 0.033033 0.003078 -95213.100000 0 0 1
29.074838 -25.039922 -33.150943 50.708273 -0.710974 2.283337 0.025093 -0.005686 -458274.000000 0 0 1
28.293238 -26.142722 -32.823643 50.609691 -0.745913 2.276493 0.045477 -0.012332 -127031.000000 0 0 1
28.625938 -27.378522 -33.449743 51.845088 -0.763128 2.272063 0.034363 -0.014083 57683.600000 0 0 1
27.938138 -27.481422 33.570779 51.601990 -0.777157 0.862460 0.044262 -0.007500 -64563.600000 0 0 1
28.619738 -26.712722 32.583675 50.934809 -0.750947 0.876671 0.030944 -0.010665 23797.400000 0 0 1
28.313238 -26.940222 31.205861 50.012206 -0.760554 0.896990 0.028074 -0.003924 -428598.000000 0 0 1
29.361138 -26.197322 30.349801 49.693929 -0.728514 0.913808 0.032949 -0.015295 -156609.000000 0 0 1
29.391238 -24.767422 30.307601 48.947122 -0.700229 0.903085 0.022674 -0.013089 100092.000000 0 0 1
29.902038 -24.181322 31.518751 49.722227 -0.680014 0.884215 0.021837 -0.005605 -978168.000000 0 0 1
30.331938 -22.691422 31.324171 49.154153 -0.642286 0.879854 0.013456 -0.000404 1092740.000000 0 0 1
31.617038 -22.464022 30.684491 49.455105 -0.617741 0.901478 0.008529 -0.002661 1807530.000000 0 0 1
32.746038 -22.795422 31.509481 50.840748 -0.608122 0.902349 0.011324 -0.006147 -1312420.000000 0 0 1
34.090138 -22.306322 31.139261 51.277316 -0.579416 0.918174 0.012020 -0.011455 -1342780.000000 0 0 1
34.552238 -22.870122 29.930611 51.114979 -0.584695 0.945232 0.012326 -0.010196 157673.000000 0 0 1
35.824438 -22.400022 29.536801 51.551663 -0.558795 0.960689 0.003170 -0.009467 99036.200000 0 0 1
36.205238 -22.697522 28.068371 51.125632 -0.559974 0.989620 0.021465 -0.007553 -178014.000000 0 0 1
-36.144225 -24.004322 27.819491 51.541600 0.586242 1.000658 0.028323 -0.005214 301359.000000 0 0 1
-35.890525 -24.174322 26.415461 50.698168 0.592758 1.022735 0.024576 0.005002 -376519.000000 0 0 1
-35.592425 -25.701822 26.162551 51.106589 0.625415 1.033376 0.011450 0.003009 175719.000000 0 0 1
36.014338 -26.495122 26.192881 51.817864 -0.634275 1.040858 0.026737 -0.002567 456602.000000 0 0 1
36.203038 -27.876222 25.795321 52.470395 -0.656177 1.056851 0.028101 -0.003988 519499.000000 0 0 1
-35.583925 -28.779822 26.654271 52.961723 0.680076 1.043413 0.024424 -0.014046 -37491.000000 0 0 1
-35.447425 -30.095522 26.114731 53.331413 0.703924 1.059086 0.025842 -0.008281 720377.000000 0 0 1
-34.314025 -30.861022 26.556661 53.245763 0.732467 1.048633 0.022513 -0.013982 -42165.900000 0 0 1
-32.912225 -30.340022 26.341551 51.938510 0.744755 1.038901 0.024539 -0.005376 -1616560.000000 0 0 1
-32.547425 -30.266722 25.027611 51.007751 0.749105 1.057946 0.018302 0.002987 -559044.000000 0 0 1
-31.307525 -29.663622 24.868351 49.784802 0.758443 1.047755 0.001054 0.006393 -640348.000000 0 0 1
-30.817425 -29.367522 23.436371 48.594532 0.761312 1.067536 0.006523 0.006522 -419693.000000 0 0 1
-30.650625 -30.589122 22.773331 48.926269 0.784394 1.086640 0.009419 0.006915 440759.000000 0 0 1
-29.988125 -30.333522 21.541831 47.785570 0.791124 1.103133 0.012858 0.005761 -571853.000000 0 0 1
-30.171625 -31.661222 20.756931 48.410847 0.809484 1.127670 0.018597 0.004642 804374.000000 0 0 1
-29.277125 -32.742022 21.177031 48.761221 0.841208 1.121535 0.015762 -0.000924 1405740.000000 0 0 1
-27.873025 -32.480022 21.032631 47.688876 0.861585 1.114041 0.023086 -0.002451 29361.300000 0 0 1
-27.025825 -33.707922 21.203031 48.126788 0.894980 1.114567 0.012511 0.009137 -673000.000000 0 0 1
-27.035825 33.760410 20.127831 47.705667 -0.895559 1.135238 0.016095 0.004761 385016.000000 0 0 1
-28.130225 32.834010 20.109831 47.684243 -0.862402 1.135445 0.029656 0.001011 378942.000000 0 0 1
-28.229425 31.737910 21.173931 47.460834 -0.843838 1.108354 0.037001 0.000796 29003.500000 0 0 1
-27.253425 30.737610 20.948531 46.112805 -0.845407 1.099223 0.036296 0.000825 -60909.000000 0 0 1
-27.244325 29.740410 21.967031 45.927069 -0.829173 1.072076 0.045241 -0.001198 -76989.100000 0 0 1
-26.257525 28.582310 21.777231 44.504537 -0.827765 1.059479 0.042423 -0.004691 -467462.000000 0 0 1
-24.908025 28.939110 21.817531 43.975976 -0.860120 1.051668 0.027694 -0.000492 -506570.000000 0 0 1
-24.191925 28.035210 20.968431 42.554639 -0.858854 1.055559 0.024008 -0.006069 664555.000000 0 0 1
-22.644125 28.242710 21.012131 41.855904 -0.894978 1.044874 0.010269 -0.000092 583053.000000 0 0 1
-22.057025 28.181010 22.299731 42.165859 -0.906699 1.013542 0.009549 -0.003505 222181.000000 0 0 1
-20.809025 28.832910 22.406131 42.028406 -0.945647 1.008514 0.009504 -0.006739 56243.300000 0 0 1
-20.270925 28.695310 23.873051 42.476509 -0.955775 0.973959 -0.002683 -0.003789 -455247.000000 0 0 1
-20.170325 27.354010 24.379311 41.826244 -0.935420 0.948539 0.002146 -0.010815 249361.000000 0 0 1
-20.060025 27.372510 25.812511 42.637362 -0.938360 0.920532 0.006720 -0.011584 701999.000000 0 0 1
-18.768325 28.011010 26.499011 42.884313 -0.980466 0.904704 0.018229 -0.009026 401103.000000 0 0 1
-18.500125 29.357410 26.298911 43.540152 -1.008489 0.922267 -0.006333 -0.005403 1010370.000000 0 0 1
-17.140825 29.793010 26.548161 43.430821 -1.048714 0.913126 0.016246 -0.007415 595589.000000 0 0 1
-16.753425 30.084510 27.977751 44.367889 -1.062687 0.888489 0.008753 0.002546 -464621.000000 0 0 1
-16.648625 28.898310 28.794231 44.061284 -1.048128 0.858592 0.013472 0.007966 80224.900000 0 0 1
-17.082425 29.015210 30.103481 45.165376 -1.038697 0.841270 0.013082 0.009461 -248118.000000 0 0 1
-16.786525 27.731510 30.942311 44.813510 -1.026472 0.808660 0.012627 0.013734 -262681.000000 0 0 1
-15.404625 27.667910 31.232731 44.478075 -1.062771 0.792306 0.014989 0.015817 130775.000000 0 0 1
-15.035625 26.674710 32.199011 44.434069 -1.057522 0.760274 0.025146 0.014400 -138159.000000 0 0 1
-15.555925 26.820210 33.638281 45.747616 -1.045207 0.744685 0.022176 0.019474 748207.000000 0 0 1
-16.981625 26.751810 33.805220 46.333873 -1.005192 0.753059 0.018460 0.016683 576721.000000 0 0 1
-17.445525 27.053110 -33.319853 46.329577 -0.998041 2.373435 0.020301 0.012498 15468.700000 0 0 1
-18.634325 26.209910 -32.815723 45.946372 -0.952749 2.366302 0.013892 0.012343 -734881.000000 0 0 1
-19.729225 26.420610 -33.612473 47.085978 -0.929387 2.365781 0.017299 0.013422 -1175200.000000 0 0 1
-20.818425 25.651410 -33.192293 46.830865 -0.889028 2.358549 0.031380 0.002746 294765.000000 0 0 1
-22.170925 25.743510 -33.974813 48.047540 -0.859822 2.356197 0.053465 -0.013490 242690.000000 0 0 1
-22.301225 24.980410 33.202838 47.157120 -0.842002 0.789656 0.051706 -0.009506 13852.400000 0 0 1
-22.300525 23.579110 33.304015 46.502099 -0.813259 0.772479 0.047870 -0.008499 -461274.000000 0 0 1
-22.533925 22.917610 31.883611 45.272058 -0.793840 0.789406 0.041307 -0.003287 874746.000000 0 0 1
-23.901425 22.818610 31.430081 45.605011 -0.762226 0.810439 0.055527 -0.010646 616348.000000 0 0 1
-24.040025 22.451110 30.106371 44.591128 -0.751235 0.829608 0.078451 -0.008073 194466.000000 0 0 1
-25.476325 22.028210 29.732351 44.925470 -0.712940 0.847559 0.087673 -0.025591 152548.000000 0 0 1
-25.863525 20.785410 30.294641 44.930173 -0.676967 0.830833 0.103120 -0.029791 -1233040.000000 0 0 1
-27.149125 20.557610 29.873231 45.300113 -0.648100 0.850707 0.114866 -0.037824 -1215110.000000 0 0 1
-27.593625 19.150610 30.324921 45.252125 -0.606703 0.836409 0.135780 -0.040985 -550625.000000 0 0 1
-28.246225 19.167610 31.598071 46.515423 -0.596212 0.823984 0.130972 -0.034878 79877.800000 0 0 1
-28.570925 17.947310 32.183131 46.627863 -0.560873 0.809014 0.106127 -0.026251 -92017.900000 0 0 1
-29.399525 16.889410 31.408151 46.217488 -0.521443 0.823616 0.099716 -0.025099 -18533.600000 0 0 1
-30.784625 17.208110 31.394741 47.216967 -0.509714 0.843431 0.084127 -0.021859 -49078.500000 0 0 1
-31.561625 16.134310 30.959471 47.063159 -0.472568 0.852865 0.081057 -0.004279 80141.400000 0 0 1
-33.086625 16.374410 31.049241 48.237967 -0.459555 0.871515 0.076061 -0.001415 57222.800000 0 0 1
-33.539625 16.351810 32.408765 49.422831 -0.453628 0.855628 0.062981 -0.000485 1375420.000000 0 0 1
-34.983425 16.429910 32.418283 50.445288 -0.439073 0.872854 0.063108 -0.004704 917213.000000 0 0 1
-35.592425 16.660410 33.778767 51.820798 -0.437794 0.860791 0.055772 0.000487 848659.000000 0 0 1
35.816438 17.061910 33.882277 52.172164 0.444566 0.863959 0.045406 -0.003607 902815.000000 0 0 1
35.544338 17.352110 -33.143433 51.604097 0.454149 2.268244 0.042559 -0.008723 423933.000000 0 0 1
34.045538 17.599310 -32.824593 50.460760 0.477103 2.279035 0.052453 -0.011196 515527.000000 0 0 1
33.216538 16.445110 -32.945083 49.589903 0.459710 2.297421 0.067567 -0.002278 219.928000 0 0 1
31.948038 16.740510 -32.398563 48.482870 0.482656 2.302647 0.067753 -0.004452 294696.000000 0 0 1
30.929838 15.542110 -32.586303 47.540290 0.465642 2.326012 0.078981 -0.003190 300284.000000 0 0 1
30.611738 15.343210 -33.969213 48.232769 0.464623 2.352200 0.069623 -0.010024 -292712.000000 0 0 1
30.016338 14.072510 34.199223 47.629853 0.438401 0.769842 0.065483 -0.014216 -26467.300000 0 0 1
30.936338 12.821710 -34.109463 47.800719 0.392905 2.365386 0.071172 -0.008057 121591.000000 0 0 1
31.195738 12.311010 -32.782163 46.897817 0.375875 2.344812 0.076289 0.000365 98889.000000 0 0 1
32.270238 11.421310 -32.966103 47.524504 0.340169 2.337362 0.082318 -0.000397 -138865.000000 0 0 1
17.552738 -20.949190 9.706937 29.003307 -0.873386 1.229527 0.025547 -0.013680 -276986.000000 0 0 1
17.471738 -22.074890 10.569137 30.071067 -0.901275 1.211653 0.027292 -0.011468 -385209.000000 0 0 1
18.553938 -22.947890 10.596937 31.355213 -0.890879 1.226043 0.018515 -0.010110 -948065.000000 0 0 1
18.387038 -24.203590 11.477237 32.490367 -0.921127 1.209753 0.027426 0.004627 183165.000000 0 0 1
17.528138 -25.226820 10.994437 32.626764 -0.963554 1.227093 0.030185 -0.005097 -87482.800000 0 0 1
16.154538 -25.065070 11.236937 31.866842 -0.998294 1.210425 0.035508 -0.005511 -701489.000000 0 0 1
15.330638 -26.119370 10.580137 32.080980 -1.040031 1.234710 0.042554 -0.000960 -458550.000000 0 0 1
15.106338 -25.971280 9.178437 31.415801 -1.043975 1.274312 0.036739 -0.007204 141678.000000 0 0 1
14.121638 -26.805140 8.575937 31.487821 -1.085919 1.294954 0.042273 0.001525 129605.000000 0 0 1
13.828338 -26.248550 7.214637 30.532938 -1.085921 1.332250 0.044221 -0.006333 -229647.000000 0 0 1
13.109638 -25.041490 7.350337 29.205587 -1.088513 1.316385 0.053360 -0.017621 -13365.400000 0 0 1
12.821738 -24.578790 6.064037 28.377569 -1.089972 1.355444 0.051776 -0.000662 -212329.000000 0 0 1
12.323638 -23.143190 6.108937 26.922081 -1.081492 1.341891 0.063304 -0.003055 -256144.000000 0 0 1
11.717838 -22.672090 4.938337 25.994587 -1.093768 1.379659 0.067124 -0.001781 286273.000000 0 0 1
11.002438 -21.448890 5.203037 24.661308 -1.096834 1.358219 0.069498 -0.006011 239883.000000 0 1 0
10.229438 -20.866290 4.015637 23.583232 -1.114989 1.399687 0.060944 -0.008803 -59774.500000 0 1 0
11.000638 -20.050390 3.161137 23.087334 -1.068991 1.433444 0.048026 -0.005010 -112351.000000 0 1 0
10.187138 -19.473590 2.166937 22.083798 -1.088820 1.472515 0.036089 -0.005376 182859.000000 0 1 0
10.980538 -19.034490 0.876237 21.992086 -1.047553 1.530942 0.042225 0.000244 453877.000000 0 1 0
11.877138 -17.964390 1.081537 21.562826 -0.986623 1.520618 0.034289 -0.001791 -635620.000000 0 1 0
12.714338 -17.851190 -0.009263 21.916192 -0.951903 1.571219 0.049337 -0.004129 -1208770.000000 0 1 0
13.773138 -16.812490 0.256037 21.735333 -0.884445 1.559016 0.040234 0.003466 -976204.000000 0 1 0
14.814938 -17.335390 1.013937 22.825999 -0.863634 1.526361 0.044219 -0.011717 -770871.000000 0 1 0
16.022738 -16.630090 0.834237 23.108094 -0.803996 1.534687 0.044049 -0.014721 326175.000000 0 1 0
17.189838 -17.511790 1.404637 24.578982 -0.794676 1.513617 0.041208 -0.006294 123759.000000 0 1 0
17.584138 -18.677290 0.708937 25.662145 -0.815535 1.543167 0.046018 -0.012637 511885.000000 0 0 1
18.779638 -19.229290 1.293537 26.909360 -0.797228 1.522708 0.050123 -0.005045 1075440.000000 0 0 1
19.218538 -20.492690 0.432337 28.097855 -0.817473 1.555409 0.032440 -0.000737 280061.000000 0 0 1
18.439038 -21.558490 0.936137 28.383851 -0.863232 1.537809 0.035477 0.000160 86215.700000 0 0 1
18.587938 -22.673190 0.030937 29.318696 -0.884086 1.569741 0.034951 -0.003425 -158847.000000 0 0 1
17.645838 -23.877290 0.242237 29.691064 -0.934358 1.562638 0.035189 0.005096 -7848.050000 0 0 1
17.794338 -24.475790 1.521937 30.298829 -0.942167 1.520544 0.024775 0.006149 -94258.000000 0 0 1
16.603038 -25.141320 1.864137 30.186452 -0.987153 1.509003 0.023877 0.002806 -590079.000000 0 0 1
16.674538 -25.865040 3.279437 30.948267 -0.998174 1.464632 0.030149 -0.001810 169008.000000 0 0 1
17.609838 -26.911540 3.444637 32.345060 -0.991362 1.464097 0.013888 0.000351 -150887.000000 0 0 1
18.895138 -26.438880 3.771037 32.714849 -0.950291 1.455270 0.021935 0.004609 167926.000000 0 0 1
20.053638 -27.494290 3.904737 34.253925 -0.940627 1.456554 0.042684 0.004842 544099.000000 0 0 1
20.467838 -27.966660 2.609837 34.754535 -0.939003 1.495632 0.038344 0.000153 -195389.000000 0 0 1
21.396138 -29.048760 2.707037 36.179459 -0.935953 1.495904 0.060124 -0.002724 58471.200000 0 0 1
20.896438 -30.528220 3.031737 37.119062 -0.970552 1.489029 0.062601 -0.006101 64802.100000 0 0 1
20.634838 -30.641430 4.406137 37.203600 -0.978126 1.452085 0.071709 -0.007145 -154798.000000 0 0 1
19.797238 -31.756240 4.646837 37.709184 -1.013339 1.447254 0.071993 -0.017989 -64146.700000 0 0 1
19.598338 -31.954320 6.133537 37.984124 -1.020638 1.408610 0.087075 -0.026069 -428544.000000 0 0 1
20.651838 -32.686010 6.670137 39.234735 -1.007304 1.399961 0.080869 -0.033372 -232357.000000 0 0 1
20.285438 -33.323440 7.873837 39.798844 -1.023972 1.371642 0.076183 -0.032201 -338569.000000 0 0 1
21.387138 34.189995 8.394437 41.192621 1.011810 1.365574 0.072699 -0.032424 -32181.100000 0 0 1
22.528538 -33.557520 8.926537 41.392333 -0.979565 1.353432 0.076077 -0.030445 956548.000000 0 0 1
23.505938 33.893112 9.466437 42.318856 0.964425 1.345194 0.093176 -0.035359 808947.000000 0 0 1
24.512038 -33.795910 10.401237 43.025449 -0.943294 1.326631 0.087475 -0.032569 -120405.000000 0 0 1
25.352338 -32.855840 9.758937 42.631961 -0.913599 1.339837 0.079688 -0.030196 33567.400000 0 0 1
26.126438 -32.126150 10.695237 42.767609 -0.888031 1.318036 0.068132 -0.022309 265213.000000 0 0 1
26.913138 -31.031680 9.873637 42.246549 -0.856356 1.334900 0.071696 -0.023406 181883.000000 0 0 1
26.072538 -29.946100 9.471837 40.819871 -0.854436 1.336622 0.057545 -0.021143 446866.000000 0 0 1
26.652338 -29.113670 8.448137 40.364885 -0.829506 1.359943 0.064058 -0.017389 119977.000000 0 0 1
25.946238 -27.747420 8.370737 38.899818 -0.818931 1.353913 0.052589 -0.008765 -12428.200000 0 0 1
26.377638 -26.900650 9.431037 38.837730 -0.795214 1.325512 0.068375 -0.016323 242135.000000 0 0 1
25.911338 -25.556090 9.311537 37.566154 -0.778496 1.320315 0.047319 -0.012522 -292947.000000 0 0 1
26.594538 -24.785190 10.419837 37.817299 -0.750198 1.291654 0.045350 -0.016699 1349730.000000 0 0 1
27.973138 -24.587990 9.987337 38.559209 -0.721083 1.308796 0.072858 -0.014635 1000300.000000 0 0 1
28.675738 -23.702990 10.857237 38.755765 -0.690744 1.286851 0.052212 -0.018399 1402260.000000 0 0 1
30.182238 -23.396990 10.463137 39.596261 -0.659429 1.303375 0.069258 -0.021883 1494190.000000 0 0 1
30.201438 -22.594790 9.324337 38.853503 -0.642307 1.328444 0.076071 -0.020210 802656.000000 0 0 1
31.547038 -22.446390 8.799537 39.705011 -0.618417 1.347318 0.078371 -0.023182 1261080.000000 0 0 1
31.705538 -21.719590 7.442637 39.145556 -0.600616 1.379505 0.078932 -0.009173 -130892.000000 0 0 1
31.348538 -20.382190 7.539337 38.144542 -0.576502 1.371834 0.078553 -0.004572 -99886.700000 0 0 1
31.580038 -19.735790 6.333337 37.774481 -0.558560 1.402339 0.068060 -0.005826 887.500000 0 0 1
31.290838 -18.215990 6.381337 36.764933 -0.527192 1.396341 0.077750 -0.006743 -63288.800000 0 0 1
32.063638 -17.548090 7.318337 37.276942 -0.500760 1.373189 0.087690 -0.007034 -64773.200000 0 0 1
31.651438 -16.222290 7.338337 36.315664 -0.473621 1.367324 0.091253 -0.009917 -57720.400000 0 0 1
32.153938 -15.505990 8.550537 36.707263 -0.449341 1.335698 0.091765 -0.025014 -54356.100000 0 0 1
33.503338 -15.094690 8.562937 37.731250 -0.423305 1.341856 0.090030 -0.015962 -123696.000000 0 0 1
33.983838 -14.819190 9.871437 38.366065 -0.411206 1.310573 0.086710 -0.027546 -831703.000000 0 0 1
35.493438 -14.795690 9.829937 39.690355 -0.394953 1.320526 0.076421 -0.033875 -949745.000000 0 0 1
36.053338 -13.782790 9.018837 39.637708 -0.365146 1.341254 0.084899 -0.021317 470798.000000 0 0 1
-35.358825 -14.103490 8.835837 39.079751 0.379530 1.342727 0.080779 -0.023762 937667.000000 0 0 1
-34.420425 -13.191690 7.995337 37.718852 0.365985 1.357204 0.084154 -0.029510 6968.630000 0 0 1
-34.765525 -13.173090 6.599537 37.758786 0.362196 1.395112 0.092667 -0.033480 1017370.000000 0 0 1
-33.688125 -12.668890 5.721437 36.443455 0.359703 1.413149 0.070987 -0.025401 1616730.000000 0 0 1
-32.577625 -13.751190 5.427037 35.774986 0.399416 1.418509 0.050269 -0.013924 -170080.000000 0 0 1
-31.829625 -14.054890 6.548137 35.405410 0.415818 1.384778 0.063747 -0.019000 -796513.000000 0 0 1
-30.807925 -14.883590 6.095437 34.753473 0.450044 1.394494 0.064657 -0.008745 -371753.000000 0 0 1
-30.144025 -15.760390 7.183637 34.765742 0.481749 1.362667 0.052396 -0.016835 367141.000000 0 0 1
-31.011425 -16.797790 7.674837 36.094007 0.496421 1.356526 0.071289 -0.024993 307018.000000 0 0 1
-30.842825 -16.899190 9.096837 36.326505 0.501240 1.317684 0.047097 -0.019861 102076.000000 0 0 1
-31.923425 -17.790390 9.773337 37.830162 0.508418 1.309485 0.028320 -0.024165 45508.700000 0 0 1
-33.217125 -17.144090 9.715537 38.622388 0.476462 1.316513 0.044737 -0.020069 1910490.000000 0 0 1
-34.210425 -17.741990 10.651437 39.982303 0.478427 1.301136 0.064337 -0.030446 1150860.000000 0 0 1
-34.624125 -19.194290 10.341237 40.916891 0.506186 1.315288 0.065665 -0.022108 -1130220.000000 0 0 1
-33.769725 -20.285590 10.732037 40.829844 0.540937 1.304824 0.061338 -0.008897 -239436.000000 0 0 1
-33.631025 -20.611090 12.092137 41.256305 0.549821 1.273331 0.062479 -0.029879 -169724.000000 0 0 1
-34.886525 -21.195390 12.774837 42.772779 0.545954 1.267500 0.071270 -0.049740 -69475.000000 0 0 1
-34.917825 -22.598190 12.657537 43.475809 0.574392 1.275378 0.087990 -0.055216 64941.000000 0 0 1
-35.870125 -22.959390 11.669437 44.158524 0.569363 1.303357 0.083367 -0.034650 -235295.000000 0 0 1
-36.336925 -24.397190 11.937437 45.366259 0.591283 1.304526 0.086075 -0.026089 96565.000000 0 0 1
35.815838 -24.607290 13.231237 45.424207 -0.601982 1.275230 0.134774 -0.029277 175613.000000 0 0 1
35.052338 -25.782870 13.203537 45.472587 -0.634191 1.276191 0.095438 -0.021189 -818036.000000 0 0 1
33.913638 -25.816190 14.187937 44.921132 -0.650652 1.249453 0.090918 -0.019987 -283497.000000 0 0 1
33.000738 -24.761690 13.795937 43.503079 -0.643717 1.248099 0.087469 -0.023547 109267.000000 0 0 1
32.043638 -24.505890 14.809937 42.972871 -0.652885 1.218947 0.059791 -0.005317 -342997.000000 0 0 1
32.113238 -22.997690 15.156837 42.307015 -0.621479 1.204395 0.076832 -0.008421 879129.000000 0 0 1
33.326038 -22.487490 15.759137 43.181737 -0.593593 1.197218 0.077075 -0.015192 456380.000000 0 0 1
34.372338 -22.222290 14.838937 43.537132 -0.573923 1.222992 0.079676 -0.027508 -77307.100000 0 0 1
35.669338 -21.866790 15.600137 44.652239 -0.549954 1.213898 0.075216 -0.028099 -290068.000000 0 0 1
35.770338 -20.570990 16.129837 44.304112 -0.521898 1.198161 0.066100 -0.016564 -234859.000000 0 0 1
34.825938 -20.239890 17.106037 43.762034 -0.526461 1.169201 0.062951 -0.027100 -518814.000000 0 0 1
34.814238 -18.808190 17.702737 43.349349 -0.495322 1.150125 0.059673 -0.011534 -582040.000000 0 0 1
34.159238 -17.829490 16.891037 42.071979 -0.481055 1.157665 0.066674 -0.018045 189671.000000 0 0 1
34.009138 -16.528290 17.465737 41.651624 -0.452381 1.138090 0.069787 -0.019340 302422.000000 0 0 1
35.263838 -15.712690 17.945337 42.573020 -0.419168 1.135677 0.051019 -0.019446 317720.000000 0 0 1
35.945138 -16.267390 19.051137 43.813545 -0.424982 1.120955 0.051477 0.002377 561144.000000 0 0 1
-35.820325 -15.413390 19.564637 43.628469 0.406349 1.105780 0.054357 -0.011022 261651.000000 0 0 1
-35.430625 -15.635690 21.018837 44.063540 0.415599 1.073544 0.035761 0.001987 -258707.000000 0 0 1
-34.451025 -16.584790 21.323137 43.779043 0.448659 1.062073 0.030770 0.009664 -148941.000000 0 0 1
-34.110825 -16.611590 22.702637 44.214286 0.453185 1.031575 0.026863 0.009721 309642.000000 0 0 1
-33.225025 -17.848890 23.143937 44.250729 0.492972 1.020408 0.030514 0.012752 -598689.000000 0 0 1
-33.892025 -19.089890 23.104137 45.242617 0.512964 1.034830 0.028631 0.015732 287190.000000 0 0 1
-33.072525 -20.200790 23.499237 45.321937 0.548325 1.025705 0.019520 0.020463 391277.000000 0 0 1
-31.827725 -20.497790 22.604637 44.092325 0.572162 1.032509 0.018694 0.026418 -579898.000000 0 0 1
-30.743725 -19.669390 22.801137 43.034328 0.569161 1.012389 0.032510 0.026548 -363504.000000 0 0 1
-29.569525 -20.333290 22.306137 42.253559 0.602385 1.014657 0.036573 0.019909 491954.000000 0 0 1
-28.331325 -19.412490 22.449637 41.030415 0.600721 0.991845 0.044791 0.015918 -121133.000000 0 0 1
-28.105225 -19.046990 23.800337 41.462604 0.595604 0.959390 0.033907 0.015362 -57888.600000 0 0 1
-27.033625 -18.144390 23.832237 40.348622 0.591120 0.938922 0.051703 0.003849 -329310.000000 0 0 1
-26.640925 -17.755090 25.275237 40.789946 0.587859 0.902508 0.049947 -0.007078 -1657120.000000 0 0 1
-25.608125 -16.839090 25.232637 39.699081 0.581677 0.882014 0.058858 -0.018627 -674738.000000 0 0 1
-25.097125 -16.572490 26.501937 40.085731 0.583606 0.848471 0.057807 -0.019756 330979.000000 0 0 1
-24.001825 -17.570490 27.010937 40.179603 0.631913 0.833546 0.046514 -0.018926 -602209.000000 0 0 1
-24.456325 -18.848090 27.319637 41.227720 0.656608 0.846442 0.053952 -0.012510 -1112630.000000 0 0 1
-23.554425 -19.578290 28.006737 41.502984 0.693474 0.830086 0.052532 -0.018512 -1346360.000000 0 0 1
-24.176925 -20.797790 28.716637 42.915231 0.710405 0.837735 0.055565 -0.016674 -239700.000000 0 0 1
-25.149725 -20.475390 29.692337 43.970276 0.683303 0.829449 0.048226 -0.020920 141554.000000 0 0 1
-25.683825 -21.714790 30.165937 45.179362 0.701856 0.839691 0.047769 -0.016437 -950384.000000 0 0 1
-26.929025 -21.443390 30.985737 46.315303 0.672476 0.837911 0.055273 -0.014839 -1231860.000000 0 0 1
-26.566025 -20.924290 32.255537 46.733278 0.667155 0.809024 0.072668 -0.026502 508365.000000 0 0 1
-27.559025 -20.814490 33.275437 47.958290 0.646865 0.803987 0.077844 -0.024829 331851.000000 0 0 1
-28.822325 -19.943890 33.105037 48.212329 0.605309 0.813924 0.062116 -0.029634 -280665.000000 0 0 1
-29.786625 -20.369190 32.210337 48.369957 0.599796 0.842075 0.058977 -0.024688 544393.000000 0 0 1
-31.011525 -19.644590 32.397037 48.961134 0.564660 0.847727 0.063872 -0.028792 349006.000000 0 0 1
-32.200225 -20.023190 31.517837 49.306761 0.556319 0.877314 0.056261 0.004830 -682268.000000 0 0 1
-32.177925 -19.647890 30.133537 48.264775 0.548178 0.896512 0.046208 -0.017027 367242.000000 0 0 1
-33.265425 -20.197390 29.412237 48.781172 0.545667 0.923612 0.039715 -0.012201 -22727.700000 0 0 1
-33.488525 -19.465490 28.086137 47.845770 0.526525 0.943431 0.030331 -0.006248 -240204.000000 0 0 1
-34.648625 -19.926390 27.445137 48.485295 0.521909 0.969089 0.008011 0.000100 159374.000000 0 0 1
-35.352125 -18.861290 26.835837 48.225337 0.490108 0.980668 0.017188 0.006796 378990.000000 0 0 1
36.179338 -19.296090 26.015637 48.560241 -0.489967 1.005413 0.008853 0.007687 439994.000000 0 0 1
35.120338 -19.821890 26.772437 48.405670 -0.513831 0.984734 0.011587 0.004233 -695412.000000 0 0 1
34.143838 -20.361390 25.960137 47.479644 -0.537725 0.992302 0.042948 0.002232 -372134.000000 0 0 1
32.914438 -20.850990 26.767637 47.271878 -0.564682 0.968849 0.041570 -0.006364 451250.000000 0 0 1
31.975438 -19.859790 27.253537 46.471445 -0.555786 0.944118 0.032686 -0.013935 627356.000000 0 0 1
31.158338 -20.517590 28.189937 46.759877 -0.582324 0.923708 0.035880 -0.004279 -675567.000000 0 0 1
-30.188402 -6.427090 33.588598 45.616236 0.209767 0.743166 0.003803 0.006185 -872556.000000 0 0 1
-31.207142 -5.950690 32.817990 45.676218 0.188422 0.769165 0.003324 0.007168 -400977.000000 0 0 1
-30.932362 -4.614290 32.325021 44.977880 0.148082 0.768884 0.018322 0.005542 102771.000000 0 0 1
-31.669792 -4.380390 30.941651 44.492126 0.137442 0.801763 0.016441 -0.001372 285326.000000 0 0 1
-31.245522 -5.265790 29.959651 43.607246 0.166961 0.813397 0.005368 0.001162 84452.300000 0 0 1
-29.885192 -5.160390 29.566411 42.354775 0.170988 0.798104 0.027348 -0.007066 106929.000000 0 0 1
-29.531522 -6.182590 28.470201 41.483582 0.206375 0.814406 0.037803 -0.007838 -195898.000000 0 0 1
-30.087082 -5.954790 27.169941 40.974354 0.195393 0.845849 0.035496 -0.007224 -68064.800000 0 0 1
-29.556872 -6.818290 26.195111 40.078443 0.226718 0.858470 0.051306 -0.009901 44809.400000 0 0 1
-30.271692 -6.538390 24.866651 39.717455 0.212722 0.894269 0.039560 -0.005560 19050.300000 0 0 1
-29.900902 -5.319590 24.310331 38.901853 0.176065 0.895774 0.064835 -0.012870 -171121.000000 0 0 1
-30.658942 -5.013790 23.171131 38.755775 0.162099 0.929948 0.077878 -0.012408 -325844.000000 0 0 1
-30.246042 -3.687090 22.600031 37.936514 0.121305 0.932618 0.094705 -0.016455 1346170.000000 0 0 1
-28.886122 -3.767790 22.081931 36.554288 0.129704 0.922178 0.094159 -0.015033 1073160.000000 0 0 1
-28.454642 -2.576190 21.497931 35.755621 0.090291 0.925737 0.095396 -0.016874 1329610.000000 0 0 1
-26.928632 -2.647190 21.053531 34.284253 0.097989 0.909567 0.084398 -0.015021 1379260.000000 0 0 1
-26.721802 -3.307190 19.797331 33.420451 0.123138 0.936797 0.096476 -0.012818 17749.800000 0 0 1
-25.478382 -3.043390 19.168731 32.028900 0.118887 0.929191 0.072693 -0.012294 -161257.000000 0 0 1
-25.237872 -3.789590 17.833531 31.134322 0.149041 0.960887 0.068740 -0.015773 83659.900000 0 0 1
-26.054162 -3.357390 16.731231 31.145233 0.128156 1.003682 0.079240 -0.010377 409435.000000 0 0 1
-25.628912 -3.876890 15.473931 30.187977 0.150132 1.032603 0.076627 -0.013947 497394.000000 0 0 1
-26.795082 -3.895490 14.421731 30.677966 0.144369 1.081392 0.095299 -0.022252 118989.000000 0 0 1
-27.496982 -2.751090 14.138031 31.040883 0.099719 1.097902 0.104747 -0.022789 -615741.000000 0 0 1
-28.639682 -3.115790 13.431931 31.786102 0.108367 1.134515 0.107595 -0.022510 -733267.000000 0 0 1
-29.177342 -2.036990 12.505531 31.809667 0.069701 1.166756 0.116329 -0.011254 -165118.000000 0 0 1
-28.475732 -1.813990 11.259331 30.674589 0.063617 1.194953 0.122019 -0.019632 394067.000000 0 0 1
-29.016092 -0.715290 10.561331 30.886679 0.024647 1.221818 0.122389 -0.019744 723490.000000 0 0 1
-30.388112 -0.890990 9.810831 31.945009 0.029312 1.258635 0.115130 -0.019926 607811.000000 0 0 1
-30.377712 -1.458790 8.480631 31.573004 0.047985 1.298853 0.111623 -0.028483 -223553.000000 0 0 1
-31.670832 -1.547590 7.927231 32.684517 0.048826 1.325815 0.099018 -0.023848 -58865.100000 0 0 1
-31.744622 -2.231290 6.527331 32.485470 0.070173 1.368488 0.101764 -0.029644 -428614.000000 0 0 1
-31.178592 -1.591590 5.422431 31.686598 0.051003 1.398823 0.113520 -0.040472 566223.000000 0 0 1
-31.888142 -0.404990 5.041331 32.286725 0.012700 1.414012 0.114190 -0.034859 -116411.000000 0 0 1
-31.289582 0.092010 3.725231 31.510693 -0.002941 1.452298 0.114537 -0.035713 -427187.000000 0 0 1
-31.645132 -0.724290 2.653031 31.764407 0.022884 1.487177 0.109921 -0.043925 196897.000000 0 0 1
-31.216642 -0.307790 1.399531 31.249514 0.009859 1.525996 0.100890 -0.047890 -146280.000000 0 0 1
-31.999572 -0.966390 0.187931 32.014713 0.030191 1.564926 0.089860 -0.040418 1779020.000000 0 0 1
-33.427412 -0.637990 0.222631 33.434241 0.019084 1.564138 0.088076 -0.033306 1608950.000000 0 0 1
-34.041312 -1.161990 -0.936969 34.074023 0.034121 1.598298 0.081399 -0.029745 -830524.000000 0 0 1
-35.543009 -0.933590 -0.891569 35.566444 0.026260 1.595867 0.065983 -0.027579 -957190.000000 0 0 1
-36.173342 -1.648190 0.126731 36.211093 0.045532 1.567297 0.065263 -0.025521 -7572.990000 0 0 1
35.212051 -1.514890 0.035731 35.244641 -0.042995 1.569783 0.063159 -0.021732 -183022.000000 0 0 1
34.433921 -2.698090 0.580931 34.544350 -0.078196 1.553979 0.071925 -0.030916 -579716.000000 0 0 1
34.536351 -2.845090 1.998331 34.710912 -0.082194 1.513194 0.069540 -0.022709 267409.000000 0 0 1
33.830041 -4.015690 2.439731 34.154791 -0.118149 1.499304 0.065093 -0.010191 88226.000000 0 0 1
33.847041 -4.195690 3.972631 34.336683 -0.123331 1.454840 0.064107 -0.007990 -113752.000000 0 0 1
33.268871 -3.139390 4.687531 33.743837 -0.094086 1.431430 0.053707 -0.010562 -18086.900000 0 0 1
33.273171 -3.404590 6.064131 33.992188 -0.101968 1.391438 0.051762 -0.012160 -314807.000000 0 0 1
32.683881 -2.287690 6.924931 33.487674 -0.069880 1.362503 0.045951 -0.008726 -18687.100000 0 0 1
31.274791 -2.207090 6.877031 32.097934 -0.070454 1.354871 0.048534 -0.002547 36549.400000 0 0 1
30.771291 -1.245490 7.772031 31.762054 -0.040454 1.323591 0.072894 -0.007756 -488366.000000 0 0 1
29.288541 -1.471990 8.102531 30.424273 -0.050216 1.301225 0.069093 -0.006773 -697813.000000 0 0 1
28.460401 -1.261190 6.973631 29.329449 -0.044285 1.330728 0.085649 -0.005281 -121582.000000 0 0 1
27.136401 -1.686790 7.200031 28.125966 -0.062080 1.311922 0.092522 -0.004331 -163929.000000 0 0 1
26.863601 -3.226990 7.066631 27.964331 -0.119552 1.315325 0.120817 -0.008563 -799520.000000 0 0 1
27.237801 -3.956690 8.164831 28.709192 -0.144256 1.282418 0.091549 -0.002941 337127.000000 0 0 1
27.016801 -5.335890 7.979231 28.671369 -0.194993 1.288773 0.117419 -0.008549 -102874.000000 0 0 1
27.232101 -6.187290 9.256031 29.420129 -0.223413 1.250745 0.081035 -0.014631 -723809.000000 0 0 1
26.128701 -6.082290 10.074531 28.656578 -0.228709 1.211558 0.088496 -0.006086 -114185.000000 0 0 1
26.414501 -6.640290 11.388631 29.521522 -0.246285 1.174750 0.076311 -0.000577 -540425.000000 0 0 1
25.278201 -6.503090 12.395731 28.895186 -0.251801 1.127423 0.074752 -0.014274 -1161570.000000 0 0 1
24.218301 -7.247190 11.937531 27.956261 -0.290763 1.129616 0.098243 -0.027388 -1461360.000000 0 0 1
23.049801 -6.784490 12.538731 27.102443 -0.286257 1.089823 0.115965 -0.035179 -541628.000000 0 0 1
21.945201 -7.854090 12.430731 26.415936 -0.343691 1.080852 0.113413 -0.036122 -182581.000000 0 0 1
22.257601 -8.995690 13.233031 27.412340 -0.384090 1.067016 0.088466 -0.031386 71956.500000 0 0 1
21.296401 -10.001290 13.116331 26.936976 -0.439052 1.062229 0.116230 -0.049011 -393594.000000 0 0 1
21.489901 -11.147490 14.143531 28.037865 -0.478520 1.042058 0.092973 -0.035350 -134343.000000 0 0 1
21.450201 -10.715690 15.471431 28.535983 -0.463297 0.997776 0.062854 -0.037940 370602.000000 0 0 1
21.985801 -11.716390 16.320031 29.782422 -0.489625 0.990854 0.059156 -0.033275 -295418.000000 0 0 1
22.044501 -11.395990 17.824231 30.553753 -0.477119 0.947921 0.072128 -0.025899 404371.000000 0 0 1
20.803001 -11.442590 18.545131 30.126726 -0.502878 0.907686 0.080454 -0.030151 225585.000000 0 0 1
20.785301 -11.787590 19.926431 31.113320 -0.515886 0.875716 0.106399 -0.017263 -49784.700000 0 0 1
21.288201 -10.819690 21.023331 31.815620 -0.470224 0.848930 0.074551 -0.005161 31906.000000 0 0 1
20.467801 -9.682590 21.296231 31.083965 -0.441868 0.816029 0.078123 -0.002954 97935.000000 0 0 1
20.570401 -8.583690 20.379731 30.201897 -0.395317 0.830125 0.067589 -0.001155 -861622.000000 0 0 1
21.588401 -7.494890 20.852731 30.936529 -0.334153 0.831120 0.046890 0.003518 295200.000000 0 0 1
22.955901 -7.788790 20.801931 31.943059 -0.327105 0.861607 0.052514 0.006245 -62574.500000 0 0 1
23.505101 -8.134390 19.534731 31.626947 -0.333169 0.905031 0.057975 -0.013063 -957312.000000 0 0 1
24.785201 -8.989690 19.628831 32.869617 -0.347947 0.930825 0.034970 -0.006574 -119278.000000 0 0 1
24.600801 -10.262690 20.179531 33.432555 -0.395219 0.922801 0.025273 -0.004841 -260766.000000 0 0 1
25.787101 -10.994690 20.062231 34.472466 -0.403025 0.949637 0.029796 -0.012763 -81765.000000 0 0 1
25.567501 -12.450990 20.469431 35.038863 -0.453182 0.946912 0.024872 -0.013578 -104775.000000 0 0 1
24.721301 -13.113390 19.568631 34.147256 -0.487709 0.960554 0.036831 -0.020784 -10470.100000 0 0 1
24.638001 -14.478890 19.877131 34.810483 -0.531300 0.963061 0.031641 -0.016303 -69974.500000 0 0 1
23.575701 -15.191490 19.008431 33.880902 -0.572408 0.975159 0.045956 -0.014910 -495486.000000 0 0 1
23.886501 -15.163290 17.616131 33.328942 -0.565620 1.013901 0.035465 -0.020438 453563.000000 0 0 1
22.880101 -15.649690 16.731131 32.378119 -0.599898 1.027755 0.043730 -0.014496 -204802.000000 0 0 1
22.723801 -17.223390 16.675531 33.031646 -0.648567 1.041606 0.041591 -0.019505 -1062060.000000 0 0 1
23.825901 -17.928590 16.265431 33.965750 -0.645088 1.071421 0.038585 -0.010715 -828122.000000 0 0 1
23.608501 -19.285890 16.476631 34.652363 -0.684964 1.075283 0.032471 -0.004068 427721.000000 0 0 1
24.890001 -20.165290 16.253831 35.921277 -0.680915 1.101247 0.022917 0.002575 387853.000000 0 0 1
25.214901 -20.342590 14.929331 35.672078 -0.678855 1.138986 0.019819 -0.005770 -410914.000000 0 0 1
26.222501 -21.295590 14.815731 36.886686 -0.682082 1.157473 0.016702 -0.008770 -273460.000000 0 0 1
26.795001 -21.465690 13.376031 36.846522 -0.675416 1.199289 0.023045 -0.025231 -141992.000000 0 0 1
25.793801 -21.847490 12.446031 36.021337 -0.702753 1.218005 0.016154 -0.014027 189901.000000 0 0 1
25.922701 -21.249390 11.191331 35.337925 -0.686651 1.248554 0.040499 -0.018153 -199783.000000 0 0 1
24.575501 -21.158190 10.455031 34.072451 -0.710815 1.258918 0.022331 -0.010575 -187618.000000 0 0 1
24.121301 -22.383690 9.896631 34.362917 -0.748052 1.278655 0.018122 -0.012884 -57999.400000 0 0 1
22.739701 -22.307490 9.621731 33.276055 -0.775804 1.277459 0.007057 -0.005784 99122.500000 0 0 1
22.256801 -23.373590 8.624931 33.407774 -0.809868 1.309667 0.014743 -0.009529 -220768.000000 0 0 1
22.376101 -24.726190 9.087631 34.563846 -0.835250 1.304746 0.010852 0.002269 -55148.600000 0 0 1
22.100901 -25.740100 8.140231 34.889339 -0.861321 1.335310 0.022831 0.003129 -102192.000000 0 0 1
20.631601 -26.210940 8.091231 34.324108 -0.903948 1.332826 0.023350 0.012309 278279.000000 0 0 1
19.749301 -25.156690 7.687831 32.893718 -0.905237 1.334897 0.030976 0.006998 -366211.000000 0 0 1
18.438401 -25.666720 7.563931 32.495665 -0.947842 1.335874 0.032345 -0.006611 428211.000000 0 0 1
17.369701 -24.513790 7.484931 30.962181 -0.954343 1.326633 0.031806 -0.006625 145310.000000 0 0 1
17.331301 -23.755790 6.303031 30.073905 -0.940505 1.359646 0.035388 -0.000533 776329.000000 0 0 1
16.322401 -22.704090 6.368931 28.678560 -0.947486 1.346849 0.038670 -0.005231 664778.000000 0 0 1
16.098801 -21.946190 5.049231 27.682150 -0.937901 1.387369 0.049145 -0.003475 -125886.000000 0 0 1
15.228601 -20.868590 5.321431 26.376618 -0.940390 1.367654 0.058183 -0.006552 -109528.000000 0 0 1
14.877401 -20.285590 4.086731 25.486145 -0.938006 1.409750 0.045612 -0.006838 31815.700000 0 0 1
14.318001 -18.854290 4.147931 24.035281 -0.921305 1.397351 0.061402 -0.004347 261961.000000 0 1 0
15.251601 -17.836190 4.473431 23.890429 -0.863353 1.382437 0.054255 -0.008366 397259.000000 0 1 0
14.568001 -16.637490 4.669331 22.601668 -0.851619 1.362705 0.040897 -0.007619 472573.000000 0 1 0
15.719901 -15.602790 4.659131 22.633379 -0.781659 1.363462 0.045151 -0.008878 307658.000000 0 1 0
16.532001 -15.642390 5.822531 23.492410 -0.757756 1.320339 0.071558 -0.017476 28933.500000 0 1 0
17.454801 -14.566290 5.852731 23.475548 -0.695435 1.318827 0.071538 -0.020265 406629.000000 0 1 0
18.907301 -15.044290 5.555531 24.792754 -0.672105 1.344799 0.098224 -0.029929 254382.000000 0 1 0
19.805901 -13.966590 5.346431 24.817810 -0.614189 1.353667 0.108697 -0.031304 956187.000000 0 1 0
21.186101 -14.343890 5.363131 26.141179 -0.595151 1.364169 0.110440 -0.028764 1386090.000000 0 0 1
22.246601 -13.186690 5.159431 26.370813 -0.535072 1.373877 0.113437 -0.027390 337398.000000 0 0 1
22.210201 -12.255990 6.232231 26.121697 -0.504238 1.329888 0.139907 -0.038045 1119490.000000 0 0 1
23.409901 -11.449590 6.225131 26.793075 -0.454883 1.336312 0.134814 -0.039026 778971.000000 0 0 1
23.661201 -10.802490 7.583331 27.093415 -0.428286 1.287111 0.144916 -0.036998 -28030.400000 0 0 1
24.119301 -11.749890 8.560731 28.161796 -0.453321 1.261925 0.113620 -0.022579 416302.000000 0 0 1
24.281201 -11.139290 9.830031 28.465594 -0.430116 1.218206 0.119767 -0.037521 -141123.000000 0 0 1
24.658301 -12.232890 10.865731 29.592897 -0.460520 1.194828 0.089840 -0.029452 -879963.000000 0 0 1
23.616601 -13.027190 11.292131 29.239763 -0.504080 1.174298 0.090481 -0.029560 -258070.000000 0 0 1
23.986901 -13.905090 12.279831 30.323542 -0.525356 1.153861 0.070050 -0.029364 349463.000000 0 0 1
22.781501 -14.816590 12.692431 29.993765 -0.576641 1.133856 0.054623 -0.034759 888967.000000 0 0 1
21.713901 -14.188690 13.425831 29.207283 -0.578788 1.093168 0.063780 -0.040878 995563.000000 0 0 1
20.615701 -15.109690 13.487331 28.900138 -0.632481 1.085255 0.058575 -0.034361 806267.000000 0 0 1
19.310501 -14.511190 14.108631 27.973623 -0.644439 1.042162 0.048797 -0.038133 -758924.000000 0 0 1
19.399901 -14.390790 15.516631 28.709177 -0.638231 0.999793 0.049666 -0.035668 125819.000000 0 0 1
18.651601 -13.301190 15.956331 27.917887 -0.619490 0.962409 0.067162 -0.049302 -999780.000000 0 0 1
17.141701 -13.449990 15.998431 27.031277 -0.665302 0.937446 0.067212 -0.043534 -1391830.000000 0 0 1
16.569401 -13.301690 14.670531 25.820622 -0.676438 0.966515 0.062779 -0.054656 834490.000000 0 0 1
15.140401 -13.180390 14.836131 24.961274 -0.716301 0.934319 0.080232 -0.053308 768204.000000 0 1 0
14.625501 -11.802590 14.497831 23.735912 -0.678987 0.913729 0.060792 -0.048787 -600113.000000 0 1 0
14.986301 -10.829190 15.417931 24.074326 -0.625737 0.875738 0.052589 -0.036964 113077.000000 0 1 0
14.594201 -9.527990 15.043931 23.023752 -0.578384 0.858717 0.038723 -0.032505 -572573.000000 0 1 0
15.234301 -8.343690 15.894331 23.544232 -0.501069 0.829718 0.051422 -0.031127 578195.000000 0 1 0
16.654001 -8.312490 15.827631 24.432911 -0.462950 0.866104 0.055093 -0.040113 503363.000000 0 1 0
17.334201 -9.108490 16.805131 25.804100 -0.483810 0.861555 0.080504 -0.032798 459613.000000 0 0 1
18.885001 -9.056190 16.643031 26.751604 -0.447149 0.899333 0.076160 -0.031072 462211.000000 0 0 1
19.478001 -7.828190 16.991431 27.007070 -0.382142 0.890340 0.067460 -0.031044 -138746.000000 0 0 1
20.686301 -7.646890 16.315531 27.433457 -0.354080 0.933865 0.069463 -0.017230 -394636.000000 0 0 1
21.389601 -6.289690 16.428831 27.694435 -0.285993 0.935746 0.071025 -0.010337 -108688.000000 0 0 1
22.215201 -6.068190 17.551731 28.955161 -0.266650 0.919561 0.075409 -0.006727 352440.000000 0 0 1
22.569801 -4.668090 17.713131 29.067886 -0.203953 0.915529 0.087614 -0.011310 -123831.000000 0 0 1
-5.415662 -33.016522 -6.078863 34.005480 1.408215 1.750524 0.038463 -0.021936 -8703.170000 0 0 1
-5.871262 -31.731622 -6.464063 32.911270 1.387837 1.768490 0.034565 -0.022885 -29702.400000 0 0 1
-5.560362 -30.745422 -5.495663 31.723823 1.391879 1.744909 0.034445 -0.024171 -725382.000000 0 0 1
-6.162462 -29.392822 -5.941263 30.613927 1.364131 1.766106 0.039200 -0.024919 1895400.000000 0 0 1
-7.595462 -29.238122 -5.698463 30.741362 1.316635 1.757243 0.034663 -0.027199 1690540.000000 0 0 1
-8.451662 -30.022822 -6.552263 31.870560 1.296390 1.777863 0.032425 -0.020502 -383007.000000 0 0 1
-9.911862 -29.764522 -6.131663 31.965123 1.249337 1.763816 0.068961 -0.008027 669315.000000 0 0 1
-10.952262 -30.469822 -6.856463 33.096423 1.225731 1.779474 0.041882 -0.009791 -75205.000000 0 0 1
-12.192462 -30.104122 -6.346163 33.093626 1.185979 1.763755 0.043785 -0.003845 104498.000000 0 0 1
-13.400662 -30.617222 -7.216463 34.191656 1.158232 1.783455 0.053461 -0.009699 581550.000000 0 0 1
-13.446862 -30.074822 -8.522363 34.028572 1.150345 1.823939 0.072453 -0.013161 -86921.300000 0 0 1
-14.533062 -30.567422 -9.276363 35.094559 1.126987 1.838300 0.076783 -0.011980 -20932.300000 0 0 1
-14.744862 -29.824822 -10.616063 34.923227 1.111653 1.879667 0.086471 -0.010065 -485864.000000 0 0 1
-15.247362 -28.498222 -10.518163 33.989152 1.079520 1.885418 0.083508 -0.016334 94095.300000 0 0 1
-14.373462 -27.486122 -9.981563 32.583967 1.088969 1.882135 0.072910 -0.011541 100747.000000 0 0 1
-14.991462 -26.094622 -9.654863 31.605215 1.049335 1.881242 0.065076 0.003409 20862.300000 0 0 1
-15.364462 -25.384022 -10.839263 31.589633 1.026503 1.921041 0.068955 -0.007353 59603.100000 0 0 1
-15.827262 -24.126122 -10.391163 30.668359 0.990200 1.916463 0.049835 0.003223 -259608.000000 0 0 1
-16.425262 -23.192422 -11.404763 30.622643 0.954577 1.952421 0.073663 0.002868 558976.000000 0 0 1
-17.701362 -23.658522 -11.881563 31.847063 0.928447 1.953125 0.080449 -0.006766 322907.000000 0 0 1
-18.240062 -22.794522 -12.898263 31.916380 0.895937 1.986820 0.081875 -0.008654 -69902.200000 0 0 1
-19.621262 -23.364822 -13.294763 33.281520 0.872267 1.981728 0.061344 -0.001492 -221548.000000 0 0 1
-19.739262 -24.685322 -13.849663 34.508213 0.896278 1.983780 0.082500 -0.002726 -106203.000000 0 0 1
-19.520762 -25.677322 -12.849963 34.720406 0.920778 1.949911 0.088085 -0.008459 -1082100.000000 0 0 1
-19.532462 -27.122222 -13.334663 35.985348 0.946665 1.950406 0.086838 -0.012876 68378.500000 0 0 1
-18.526762 -27.641822 -14.167063 36.166516 0.980321 1.973294 0.096802 -0.020116 549590.000000 0 0 1
-17.166962 -27.607722 -13.719063 35.286025 1.014489 1.970121 0.103216 -0.025789 698973.000000 0 0 1
-16.397262 -28.905722 -14.181063 36.131891 1.054793 1.974123 0.095362 -0.028954 90473.500000 0 0 1
-16.388262 -29.081522 -15.581463 36.838730 1.057626 2.007510 0.107586 -0.034534 -160106.000000 0 0 1
-15.754762 -30.268422 -16.026263 37.699218 1.090882 2.009878 0.119270 -0.031312 223215.000000 0 0 1
-16.472462 -31.647922 -15.743763 38.997424 1.090891 1.986368 0.110406 -0.034351 97056.900000 0 0 1
-16.509762 -31.887922 -14.331563 38.662715 1.093055 1.950539 0.114097 -0.033473 -5645.200000 0 0 1
-16.748962 -33.231022 -14.031263 39.770654 1.103941 1.931363 0.088868 -0.030043 -124364.000000 0 0 1
-17.527662 -33.458722 -12.667863 39.839425 1.088244 1.894387 0.086404 -0.022257 1630950.000000 0 0 1
-18.922262 -33.055722 -12.560063 40.105959 1.050892 1.889328 0.087828 -0.017969 1336010.000000 0 0 1
-19.194262 -31.637422 -12.513563 39.063223 1.025469 1.896886 0.093904 -0.019900 -297322.000000 0 0 1
-18.460462 -30.711922 -11.455263 37.619594 1.029580 1.880212 0.096588 -0.020775 -208440.000000 0 0 1
-18.805362 -30.883422 -10.097163 37.541711 1.023848 1.843108 0.091940 -0.019664 -44994.100000 0 0 1
-18.217862 -29.913722 -9.267063 36.229818 1.023776 1.829456 0.082498 -0.013085 -388281.000000 0 0 1
-18.468162 -30.119722 -7.805863 36.182899 1.020758 1.788239 0.090699 -0.017441 347876.000000 0 0 1
-17.685762 -31.210022 -7.265063 36.600994 1.055245 1.770617 0.087960 -0.018146 446368.000000 0 0 1
-18.049962 -31.392422 -5.917163 36.691935 1.048978 1.732770 0.095723 -0.022906 -56709.200000 0 0 1
-17.323062 -32.600222 -5.234663 37.286253 1.082362 1.711653 0.088573 -0.015694 330573.000000 0 0 1
-15.985662 -32.257322 -4.914863 36.334998 1.110701 1.706478 0.083546 -0.008368 171837.000000 0 0 1
-15.775362 -32.008922 -3.526963 35.859066 1.112891 1.669312 0.074196 -0.011323 -462587.000000 0 0 1
-14.616762 -31.093122 -3.148563 34.501383 1.131357 1.662183 0.075389 -0.013290 -954903.000000 0 0 1
-13.359462 -31.653722 -3.288463 34.514451 1.171427 1.666219 0.055537 -0.012857 -1142730.000000 0 0 1
-12.486662 -30.858922 -2.523263 33.384977 1.186299 1.646449 0.064434 -0.007821 -35323.500000 0 0 1
-11.072262 -31.444922 -2.327363 33.418479 1.232238 1.640496 0.064411 -0.013571 -217554.000000 0 0 1
-11.056262 -32.606222 -1.536563 34.464006 1.243879 1.615396 0.063737 -0.009431 -276526.000000 0 0 1
-9.833262 -33.290322 -1.608963 34.749494 1.283584 1.617115 0.070217 -0.013556 581871.000000 0 0 1
-8.649162 -32.836422 -0.668863 33.963009 1.313245 1.590491 0.055472 -0.018112 94814.800000 0 0 1
-8.956662 -32.701622 0.712037 33.913491 1.303462 1.549799 0.065875 -0.015725 -790037.000000 0 0 1
-7.915262 -32.401722 1.579437 33.391879 1.331203 1.523479 0.060082 -0.017566 285041.000000 0 0 1
-6.962962 -33.611922 1.985637 34.382945 1.366528 1.513014 0.062594 -0.021854 116376.000000 0 0 1
-7.629562 33.878710 2.801137 34.839971 -1.349289 1.490309 0.080968 -0.023152 -125130.000000 0 0 1
-6.838162 32.762610 3.243337 33.625411 -1.365032 1.474191 0.071231 -0.022969 -277401.000000 0 0 1
-6.138262 33.053210 4.560137 33.926211 -1.387180 1.435975 0.066321 -0.026561 -747375.000000 0 0 1
-5.159762 34.001010 4.375837 34.667561 -1.420192 1.444236 0.057309 -0.021255 -1066500.000000 0 0 1
-4.686362 -33.923122 5.586037 34.697896 1.433519 1.409102 0.057785 -0.024602 119613.000000 0 0 1
-3.551162 -32.881722 5.431937 33.516031 1.463215 1.408008 0.045523 -0.017477 180565.000000 0 0 1
-3.978362 -31.722922 4.715637 32.317308 1.446038 1.424357 0.041134 -0.011115 133959.000000 0 0 1
-3.711062 -31.843022 3.326537 32.230667 1.454777 1.467402 0.040471 -0.018197 -263251.000000 0 0 1
-3.983262 -30.620022 2.433637 30.973775 1.441436 1.492144 0.041608 -0.015509 -59353.000000 0 0 1
-3.059762 -29.583822 2.620337 29.856839 1.467736 1.482920 0.035877 -0.012582 -170158.000000 0 0 1
-3.425462 -28.454622 1.877637 28.721505 1.450990 1.505376 0.038561 -0.013551 390167.000000 0 0 1
-2.836562 -27.130922 2.503737 27.393461 1.466624 1.479270 0.033882 -0.012163 254297.000000 0 0 1
-3.086462 -26.026022 1.689037 26.262767 1.452756 1.506439 0.037848 -0.018668 -269987.000000 0 0 1
-2.829362 -24.755122 2.337237 25.025668 1.456996 1.477266 0.026136 -0.016268 -87912.500000 0 0 1
-3.903062 -24.154322 3.277237 24.686139 1.410593 1.437647 0.026333 -0.014322 -120586.000000 0 1 0
-4.039062 -24.820222 4.475537 25.541885 1.409478 1.394664 0.039175 -0.012282 288100.000000 0 0 1
-5.059262 -24.257322 5.322537 25.344491 1.365178 1.359214 0.036678 -0.009542 381895.000000 0 0 1
-5.592762 -25.345522 6.333937 26.716909 1.353616 1.331441 0.045953 -0.007656 -48745.100000 0 0 1
-4.736562 -25.800922 7.348037 27.241811 1.389237 1.297680 0.033316 -0.010100 382808.000000 0 0 1
-5.548762 -26.617322 8.193737 28.397322 1.365275 1.278096 0.038787 -0.007447 794349.000000 0 0 1
-4.695762 -27.032822 9.407437 29.005577 1.398807 1.240491 0.029466 -0.008447 284905.000000 0 0 1
-4.222662 -26.099822 10.307737 28.377474 1.410397 1.199057 0.026708 -0.011937 73133.500000 0 0 1
-5.274862 -25.511522 11.054637 28.299592 1.366906 1.169482 0.034689 -0.015081 234874.000000 0 0 1
-4.789262 -24.566022 12.151937 27.822582 1.378257 1.118797 0.016276 -0.019193 359773.000000 0 0 1
-3.978962 -25.121622 13.194637 28.653560 1.413713 1.092251 0.004133 -0.018089 47302.900000 0 0 1
-3.506862 -24.137022 14.093037 28.169267 1.426516 1.046853 0.013688 -0.024078 -486093.000000 0 0 1
-2.396362 -24.616022 15.036937 28.944785 1.473752 1.024526 0.022956 -0.019865 -131381.000000 0 0 1
-2.790962 -25.594722 16.013137 30.319958 1.462181 1.014389 0.020098 -0.015759 -234090.000000 0 0 1
-1.702462 -25.767122 16.874337 30.847791 1.504821 0.991997 0.023315 -0.019856 -93438.100000 0 0 1
-2.050762 -26.343022 18.274837 32.126782 1.493105 0.965708 0.020128 -0.016955 -24764.500000 0 0 1
-2.477562 -25.336022 19.146137 31.853209 1.473318 0.925952 0.036782 -0.010437 -64190.900000 0 0 1
-2.888762 -25.895122 20.410537 33.098222 1.459699 0.906296 0.059362 -0.009324 6222.270000 0 0 1
-3.347162 -24.820522 21.391537 32.937208 1.436750 0.863917 0.073782 -0.007948 -145755.000000 0 0 1
-2.927362 -24.979722 22.738837 33.905909 1.454139 0.835718 0.077417 -0.008656 -37283.500000 0 0 1
-3.100762 -23.837322 23.617537 33.698972 1.441443 0.794224 0.078494 -0.010494 431159.000000 0 0 1
-2.177362 -22.557222 23.366237 32.550733 1.474568 0.770101 0.079328 -0.017710 499317.000000 0 0 1
-2.423862 -21.756922 22.234237 31.202565 1.459847 0.777632 0.084002 -0.012578 -63488.200000 0 0 1
-1.383162 -20.805122 22.115337 30.394973 1.504412 0.755982 0.079708 -0.013589 -257353.000000 0 0 1
-1.856762 -19.540322 21.389737 29.030891 1.476059 0.742483 0.076021 -0.007518 -123871.000000 0 0 1
-2.723262 -18.648822 22.115937 29.057003 1.425793 0.705754 0.078082 -0.021239 1542140.000000 0 0 1
-4.093262 -19.085222 22.281137 29.621775 1.359524 0.719420 0.077873 -0.021305 638405.000000 0 0 1
-5.122862 -18.911922 21.139537 28.823333 1.306264 0.747461 0.057611 -0.026379 -371674.000000 0 0 1
-5.052062 -19.785722 20.040537 28.611558 1.320799 0.794790 0.070138 -0.035105 -395317.000000 0 0 1
-5.484562 -21.077122 20.166837 29.682096 1.316228 0.823814 0.066172 -0.016749 -286891.000000 0 0 1
-5.504362 -21.872722 18.864437 29.403758 1.324261 0.874259 0.044709 -0.024602 -243110.000000 0 0 1
-5.865462 -23.244522 19.062637 30.628346 1.323619 0.899010 0.049877 -0.020520 -144950.000000 0 0 1
-5.755162 -24.046522 17.885437 30.516323 1.335881 0.944567 0.043800 -0.023310 -210467.000000 0 0 1
-6.432962 -25.400422 17.923437 31.746087 1.322750 0.970863 0.034373 -0.030004 -120867.000000 0 0 1
-7.820162 -25.280522 17.708237 31.840876 1.270797 0.981053 0.066609 -0.029652 -568554.000000 0 0 1
-8.325062 -26.579522 17.466137 32.876186 1.267262 1.010697 0.087897 -0.037869 -158323.000000 0 0 1
-9.840562 -26.737622 17.625337 33.502084 1.218140 1.016792 0.087920 -0.038742 -1451720.000000 0 0 1
-10.607962 -26.202422 16.587137 32.775431 1.186119 1.040157 0.105767 -0.042363 772831.000000 0 0 1
-12.025462 -26.441922 16.712337 33.512523 1.143968 1.048710 0.092880 -0.027512 1074400.000000 0 0 1
-12.697062 -25.629422 17.806137 33.691856 1.110828 1.013964 0.075416 -0.013781 -1348260.000000 0 0 1
-12.906762 -24.271122 17.554537 32.616463 1.082053 1.002483 0.062396 -0.019720 -67488.500000 0 0 1
-13.038962 -23.543622 18.771837 32.813085 1.065024 0.961752 0.048542 -0.002608 -357670.000000 0 0 1
-11.773062 -22.844022 19.276937 32.125607 1.094931 0.927234 0.045005 -0.006418 -139552.000000 0 0 1
-10.958262 -23.719422 20.030637 32.922954 1.138012 0.916741 0.063197 -0.005543 680222.000000 0 0 1
-9.603362 -23.236222 20.048237 32.157089 1.178883 0.897653 0.071275 -0.022662 1217990.000000 0 0 1
-8.575862 -24.057022 20.876637 32.986659 1.228360 0.885527 0.073239 -0.019880 279325.000000 0 0 1
-8.673862 -23.749622 22.252837 33.681882 1.220626 0.849076 0.067065 -0.013423 -60635.000000 0 0 1
-7.597962 -24.300822 22.968137 34.289857 1.267763 0.836826 0.068832 -0.010170 139478.000000 0 0 1
-7.743762 -24.028022 24.502137 35.180483 1.259026 0.800330 0.067809 -0.009352 812086.000000 0 0 1
-6.536562 -24.467422 25.147137 35.689773 1.309739 0.788932 0.076887 -0.012607 642845.000000 0 0 1
-6.600762 -24.267322 26.547437 36.568284 1.305219 0.758354 0.075739 -0.009912 -176650.000000 0 0 1
-5.391162 -24.892222 27.262837 37.308841 1.357510 0.751400 0.081186 -0.014422 -697026.000000 0 0 1
-4.191562 -24.318822 26.858137 36.473742 1.400115 0.743108 0.082129 -0.005096 -1129310.000000 0 0 1
-3.175862 -24.630822 27.779737 37.262277 1.442565 0.729483 0.079127 -0.006927 -491294.000000 0 0 1
-1.975562 -23.775522 27.343637 36.288466 1.487895 0.717415 0.072005 -0.008397 -867679.000000 0 0 1
-2.112062 -22.364922 27.417037 35.444950 1.476639 0.686435 0.076825 -0.008810 319664.000000 0 0 1
-0.888962 -21.729022 27.052637 34.710025 1.529908 0.677105 0.084978 -0.010717 246186.000000 0 0 1
0.186638 -21.532822 28.103537 35.404888 -1.562129 0.653804 0.087001 -0.012565 -577109.000000 0 0 1
0.979238 -22.659522 28.351437 36.307256 -1.527608 0.674731 0.084463 -0.015143 -501877.000000 0 0 1
1.639538 -22.611422 29.515337 37.217195 -1.498414 0.654986 0.066764 -0.019612 -522648.000000 0 0 1
2.357738 -23.916922 29.913237 38.371602 -1.472533 0.676822 0.071920 -0.024979 -103678.000000 0 0 1
3.489438 -24.338522 29.171437 38.151181 -1.428396 0.700333 0.058660 -0.025137 179529.000000 0 0 1
3.965438 -25.510422 29.787637 39.418392 -1.416587 0.714107 0.034367 -0.016255 658619.000000 0 0 1
5.275138 -25.344022 30.694037 40.153088 -1.365585 0.700647 0.021004 -0.017927 1168960.000000 0 0 1
6.469638 -24.975922 30.046037 39.603248 -1.317332 0.709518 0.026955 -0.019707 -43598.700000 0 0 1
7.158238 -25.901422 29.276137 39.739354 -1.301162 0.742613 0.031786 -0.020307 -1143160.000000 0 0 1
8.364038 -25.310422 28.592537 39.091019 -1.251636 0.750372 0.038570 -0.025054 -658405.000000 0 0 1
8.096738 -24.378822 27.567037 37.680574 -1.250137 0.750133 0.047478 -0.025269 -66740.400000 0 0 1
9.303938 -24.188122 26.873137 37.333551 -1.203593 0.767265 0.023269 -0.019603 -173979.000000 0 0 1
9.267138 -22.955322 25.945737 35.860953 -1.187102 0.761924 0.039137 -0.010908 39515.500000 0 0 1
8.391038 -22.948222 24.813937 34.824731 -1.220247 0.777688 0.051271 -0.015568 253269.000000 0 0 1
8.349738 -21.783422 24.030937 33.492112 -1.204763 0.770575 0.044370 -0.007958 42233.100000 0 0 1
7.482538 -22.136022 22.795837 32.644173 -1.244829 0.797759 0.054935 -0.006941 92111.500000 0 0 1
8.091838 -23.028822 21.873837 32.776047 -1.232894 0.840121 0.043154 -0.004584 31686.700000 0 0 1
7.396838 -23.087422 20.651637 31.847015 -1.260745 0.865232 0.061506 -0.012186 -91116.400000 0 0 1
8.173238 -23.851722 19.548837 31.903973 -1.240668 0.911273 0.067868 -0.018119 869586.000000 0 0 1
9.365438 -23.160322 19.132337 31.466780 -1.186525 0.917236 0.054094 -0.016274 635374.000000 0 0 1
10.103438 -23.878422 18.143437 31.645581 -1.170519 0.960229 0.068069 -0.025567 -215704.000000 0 0 1
11.328138 -23.134922 17.656837 31.230037 -1.115459 0.969903 0.056334 -0.026827 -374251.000000 0 0 1
10.933038 -22.015922 16.884537 29.821464 -1.109875 0.968923 0.053713 -0.025510 102597.000000 0 0 1
11.898838 -21.709022 15.898037 29.421278 -1.069409 0.999933 0.054676 -0.027382 229415.000000 0 0 1
-12.392962 22.509510 10.903237 27.913153 -1.067519 1.169499 0.006769 -0.008260 -398611.000000 0 0 1
-13.468962 21.715510 10.560737 27.649692 -1.015623 1.178893 0.000295 -0.015964 -357329.000000 0 0 1
-12.903862 20.529010 10.061437 26.252284 -1.009636 1.177474 0.033919 -0.021520 590315.000000 0 0 1
-13.905962 19.827910 9.094937 25.869667 -0.959176 1.211551 0.051264 -0.021066 -722725.000000 0 0 1
-13.908962 20.517510 7.855537 26.002632 -0.975052 1.263896 0.056436 -0.017567 616889.000000 0 0 1
-14.806362 19.952710 6.859237 25.775727 -0.932388 1.301439 0.063271 -0.015283 1017920.000000 0 0 1
-16.329462 19.823210 7.139637 26.656808 -0.881738 1.299651 0.050205 -0.016520 -395006.000000 0 0 1
-16.641262 18.973110 8.249337 26.551122 -0.850780 1.254871 0.041335 -0.019146 -1006510.000000 0 0 1
-17.978562 19.145910 8.552837 27.621469 -0.816832 1.255977 0.050748 -0.015949 -965651.000000 0 0 1
-18.592262 18.118110 9.508037 27.646715 -0.772483 1.219716 0.040201 -0.019454 -160103.000000 0 0 1
-18.691362 16.839810 8.815737 26.658271 -0.733335 1.233757 0.039047 -0.021638 74568.300000 0 0 1
-19.271162 15.808610 9.571237 26.700157 -0.687012 1.204167 0.050200 -0.026563 -366526.000000 0 0 1
-18.309762 15.108710 10.556437 25.979970 -0.689903 1.152363 0.047895 -0.021805 709337.000000 0 0 1
-17.248962 14.298410 10.002337 24.536054 -0.692142 1.150908 0.026805 -0.007149 692373.000000 0 1 0
-16.655162 13.315110 10.874137 23.936028 -0.674411 1.099210 0.034253 -0.006169 -150660.000000 0 1 0
-17.528562 12.351210 11.664937 24.410523 -0.613829 1.072574 0.030738 -0.006061 -849221.000000 0 1 0
-18.385062 11.627210 10.857537 24.312314 -0.563922 1.107850 0.027966 -0.005226 -278495.000000 0 1 0
-19.210362 10.761310 11.628237 24.900998 -0.510627 1.084925 0.040516 -0.009849 -360581.000000 0 1 0
-20.135362 9.884410 10.817537 24.902881 -0.456340 1.121437 0.045782 -0.014402 -749067.000000 0 1 0
-19.593062 8.882610 9.960837 23.706689 -0.425640 1.137164 0.030720 -0.014005 239563.000000 0 1 0
-19.062862 9.292210 8.673237 22.912069 -0.453558 1.182573 0.039753 -0.011089 -727987.000000 0 1 0
-20.088862 9.519710 7.598737 23.493149 -0.442534 1.241429 0.060208 -0.017401 -469749.000000 0 1 0
-20.770762 8.345310 7.191637 23.511452 -0.382041 1.259936 0.056575 -0.018093 657079.000000 0 1 0
-21.388862 8.534410 5.892237 23.770528 -0.379654 1.320305 0.049039 -0.019008 199877.000000 0 1 0
-21.522862 7.257710 5.083437 23.275508 -0.325235 1.350619 0.063068 -0.020678 -300696.000000 0 1 0
-22.475862 6.445610 5.712537 24.069552 -0.279284 1.331175 0.095495 -0.025081 229970.000000 0 1 0
-22.204162 5.127110 5.312237 23.399400 -0.226930 1.341775 0.103387 -0.027234 -326600.000000 0 1 0
-23.362862 4.183010 5.615237 24.389583 -0.177168 1.338481 0.132668 -0.027623 -919591.000000 0 1 0
-24.486862 4.309510 4.816837 25.325485 -0.174209 1.379433 0.150125 -0.032912 -539199.000000 0 0 1
-25.217172 3.110310 4.940237 25.884083 -0.122721 1.378758 0.150934 -0.032725 -267751.000000 0 0 1
-26.489372 3.121110 4.079337 26.982756 -0.117284 1.419031 0.161987 -0.038738 -230093.000000 0 0 1
-26.177932 2.814210 2.736137 26.470556 -0.107092 1.467246 0.163518 -0.034678 189385.000000 0 0 1
-27.333502 2.825610 1.959537 27.548942 -0.103009 1.499607 0.164523 -0.029715 -335459.000000 0 0 1
-26.951142 2.548710 0.438037 27.074930 -0.094287 1.554617 0.172939 -0.031169 -72638.900000 0 0 1
-26.252212 3.646910 -0.127563 26.504619 -0.138035 1.575609 0.168644 -0.041986 290275.000000 0 0 1
-26.419262 3.884610 -1.484763 26.744572 -0.145991 1.626341 0.199210 -0.033915 186052.000000 0 0 1
-27.770622 4.549410 -1.888363 28.204086 -0.162379 1.637800 0.169985 -0.034236 -20534.500000 0 0 1
-28.839702 3.684410 -1.986763 29.141903 -0.127066 1.639025 0.140447 -0.034000 737467.000000 0 0 1
-30.122012 4.310210 -2.228763 30.510341 -0.142127 1.643911 0.112607 -0.020519 846979.000000 0 0 1
-31.292552 3.344010 -2.402263 31.562273 -0.106459 1.646982 0.097925 -0.014730 -530981.000000 0 0 1
-31.270122 2.762410 -3.709463 31.610308 -0.088111 1.688417 0.086673 -0.017388 416521.000000 0 0 1
-32.196982 1.713510 -3.915263 32.479394 -0.053169 1.691636 0.092961 -0.021644 -173126.000000 0 0 1
-32.188562 1.289110 -5.393363 32.662726 -0.040027 1.736679 0.086303 -0.021656 163479.000000 0 0 1
-30.963542 0.783910 -5.953563 31.540456 -0.025312 1.760695 0.105496 -0.031817 808568.000000 0 0 1
-31.109862 0.021910 -7.118663 31.913937 -0.000704 1.795747 0.115700 -0.030914 -257719.000000 0 0 1
-31.456842 0.748110 -8.432963 32.576179 -0.023778 1.832647 0.110873 -0.032558 20136.100000 0 0 1
-32.829982 1.090210 -8.516763 33.934223 -0.033196 1.824487 0.107948 -0.028209 299540.000000 0 0 1
-33.155222 1.854010 -9.643463 34.578931 -0.055861 1.853427 0.103599 -0.028563 20721.700000 0 0 1
-34.679035 2.136210 -9.640163 36.057338 -0.061522 1.841445 0.095528 -0.029441 126820.000000 0 0 1
-34.903316 2.955610 -8.555563 36.057936 -0.084478 1.810354 0.078229 -0.027870 876956.000000 0 0 1
-36.317482 2.936010 -8.280663 37.365078 -0.080667 1.794267 0.074613 -0.024880 705467.000000 0 0 1
36.140951 3.616110 -6.933663 36.977294 0.099724 1.759424 0.090269 -0.022154 -390098.000000 0 0 1
34.769081 3.655010 -6.643163 35.586229 0.104738 1.758576 0.101041 -0.024643 -64568.500000 0 0 1
34.581661 4.371210 -5.441963 35.279083 0.125736 1.725669 0.100414 -0.022376 1286390.000000 0 0 1
33.031851 4.235310 -5.090463 33.689076 0.127523 1.722479 0.104718 -0.027675 1564900.000000 0 0 1
32.731731 3.091610 -4.263463 33.152698 0.094174 1.699754 0.095245 -0.031199 -134000.000000 0 0 1
31.651471 2.329410 -4.765463 32.092856 0.073463 1.719837 0.115857 -0.036198 118805.000000 0 0 1
31.535051 1.055210 -3.918663 31.795107 0.033449 1.694358 0.129827 -0.025449 125940.000000 0 0 1
32.575501 0.136510 -4.223863 32.848484 0.004191 1.699740 0.090582 -0.030098 323238.000000 0 0 1
32.402941 -1.066290 -3.538663 32.613030 -0.032895 1.679515 0.094961 -0.026925 -59187.500000 0 0 1
33.519271 -2.034890 -3.939763 33.811301 -0.060634 1.687584 0.073511 -0.032427 -370670.000000 0 0 1
33.359031 -3.231990 -3.268463 33.674227 -0.096584 1.668011 0.063801 -0.027252 -37216.200000 0 0 1
34.516091 -4.052590 -3.209563 34.901079 -0.116877 1.662888 0.081505 -0.028358 53792.000000 0 0 1
34.438111 -5.471990 -2.565663 34.964393 -0.157576 1.644242 0.078554 -0.029845 -342635.000000 0 0 1
34.147021 -5.615690 -1.194663 34.626323 -0.162997 1.605305 0.077022 -0.032224 -103787.000000 0 0 1
34.314621 -6.976290 -0.771263 35.025087 -0.200570 1.592818 0.087244 -0.033521 -91224.600000 0 0 1
33.770541 -7.223890 0.659737 34.540835 -0.210735 1.551695 0.084421 -0.024467 292704.000000 0 0 1
32.349701 -7.157490 0.738237 33.140275 -0.217746 1.548518 0.082172 -0.024622 198292.000000 0 0 1
31.782291 -7.587990 1.930437 32.732525 -0.234362 1.511786 0.087994 -0.027149 -896801.000000 0 0 1
31.689271 -9.160390 2.103937 33.053732 -0.281399 1.507101 0.094953 -0.026896 -145000.000000 0 0 1
30.542701 -9.722290 1.519537 32.088760 -0.308176 1.523424 0.096169 -0.039182 741952.000000 0 0 1
29.259311 -9.367990 2.049537 30.790699 -0.309858 1.504184 0.095536 -0.041702 -276001.000000 0 0 1
28.117091 -10.296290 1.533037 29.982238 -0.351027 1.519643 0.105954 -0.043407 -242964.000000 0 0 1
26.858201 -9.963890 2.106437 28.724191 -0.355243 1.497397 0.113553 -0.049782 685034.000000 0 0 1
26.085001 -9.063390 1.325837 27.646522 -0.334407 1.522821 0.125900 -0.050795 -336180.000000 0 0 1
25.310201 -9.466090 0.084937 27.022590 -0.357896 1.567653 0.116597 -0.043309 -590279.000000 0 0 1
26.215301 -9.689290 -0.979563 27.965763 -0.354032 1.605831 0.110736 -0.045754 876069.000000 0 0 1
25.569901 -9.982390 -2.249663 27.541404 -0.372200 1.652570 0.104143 -0.049541 -30251.700000 0 0 1
24.803701 -11.346990 -2.340263 27.376169 -0.429050 1.656386 0.091764 -0.036940 314857.000000 0 0 1
23.466101 -11.221290 -1.864963 26.077833 -0.446049 1.642373 0.074181 -0.025110 170051.000000 0 0 1
22.989401 -12.523090 -1.749663 26.237410 -0.498791 1.637532 0.061909 -0.014393 198844.000000 0 0 1
21.456901 -12.720490 -1.552463 24.992391 -0.535138 1.632954 0.056172 -0.012101 -30619.200000 0 1 0
20.700601 -12.359690 -2.650563 24.254944 -0.538262 1.680294 0.058279 -0.006900 668810.000000 0 1 0
19.313901 -12.523490 -2.280863 23.131514 -0.575263 1.669561 0.056504 -0.008849 807607.000000 0 1 0
18.385701 -12.083190 -3.440963 22.268312 -0.581424 1.725941 0.044124 0.001452 -134837.000000 0 1 0
18.568301 -12.788090 -4.671063 23.024680 -0.603105 1.775086 0.056855 -0.000599 243838.000000 0 1 0
17.943701 -12.158990 -5.760063 22.427567 -0.595547 1.830537 0.062306 -0.005849 -169073.000000 0 1 0
18.109601 -12.948490 -7.074863 23.359682 -0.620727 1.878495 0.061331 -0.012179 314039.000000 0 1 0
17.073101 -13.939790 -7.186663 23.183112 -0.684707 1.885985 0.064839 -0.013690 728211.000000 0 1 0
17.143301 -14.626290 -8.395763 24.048076 -0.706336 1.927433 0.068964 -0.014611 -391356.000000 0 1 0
16.097501 -15.723990 -8.593863 24.087920 -0.773661 1.935605 0.062178 -0.020929 -299896.000000 0 1 0
14.762601 -15.235490 -8.562163 22.877176 -0.801161 1.954402 0.073701 -0.019662 93514.900000 0 1 0
13.922701 -16.054090 -9.317363 23.203204 -0.856380 1.984010 0.069044 -0.021817 -462992.000000 0 1 0
13.739001 -15.797790 -10.826563 23.569998 -0.854988 2.048045 0.069725 -0.029435 -1025670.000000 0 1 0
12.976701 -14.716790 -11.247963 22.616263 -0.848150 2.091326 0.054733 -0.027135 -61097.700000 0 1 0
13.326101 -13.371190 -10.849363 21.773433 -0.787087 2.092415 0.059882 -0.023220 -414150.000000 0 1 0
13.430501 -12.439890 -12.054863 21.919146 -0.747126 2.153124 0.075398 -0.018669 -71674.200000 0 1 0
14.559301 -12.506390 -12.915263 23.134110 -0.709694 2.163105 0.085341 -0.020980 357440.000000 0 1 0
14.390701 -11.705290 -14.070263 23.282577 -0.682854 2.219716 0.096468 -0.023009 -542976.000000 0 1 0
15.747901 -11.360190 -14.730963 24.373173 -0.624930 2.219799 0.103113 -0.030454 -67344.700000 0 1 0
16.387401 -12.518390 -15.185363 25.609613 -0.652340 2.205521 0.094043 -0.019672 -52263.900000 0 0 1
17.549901 -12.101390 -15.891863 26.589359 -0.603672 2.211398 0.089930 -0.014223 72375.600000 0 0 1
18.481101 -13.292790 -16.239463 27.963718 -0.623538 2.190426 0.074602 -0.011952 -293204.000000 0 0 1
19.286201 -13.621790 -15.129563 28.043081 -0.614940 2.140653 0.063613 -0.022110 -147531.000000 0 0 1
20.322001 -14.490490 -15.527163 29.394742 -0.619427 2.127310 0.050347 -0.018839 233212.000000 0 0 1
21.508101 -14.527390 -14.496763 29.728768 -0.594051 2.080174 0.028404 -0.016473 180453.000000 0 0 1
22.112901 -13.261890 -14.504363 29.584365 -0.540225 2.083197 0.031010 -0.011031 -279880.000000 0 0 1
23.169501 -13.211690 -13.567363 29.924035 -0.518234 2.041365 0.029629 -0.008932 -159825.000000 0 0 1
23.889901 -11.847790 -13.658663 29.960918 -0.460389 2.044160 0.043720 -0.015014 -568874.000000 0 0 1
23.260501 -10.658490 -13.198363 28.789774 -0.429671 2.047035 0.036824 -0.002239 26443.800000 0 0 1
24.088901 -9.524290 -13.275163 29.106996 -0.376518 2.044383 0.051753 -0.008019 -47167.800000 0 0 1
25.018701 -9.199390 -12.081863 29.266630 -0.352356 1.996345 0.064470 -0.009867 149533.000000 0 0 1
26.133901 -10.069090 -12.003663 30.470564 -0.367760 1.975714 0.053422 -0.008038 -453721.000000 0 0 1
27.003101 -9.651590 -11.030463 30.724449 -0.343274 1.938006 0.062850 -0.006273 -1072030.000000 0 0 1
28.314661 -10.447490 -11.127263 32.166537 -0.353481 1.924023 0.073632 -0.004255 -111001.000000 0 0 1
29.073921 -9.959990 -12.234663 33.078411 -0.330045 1.949664 0.055600 -0.000777 1004000.000000 0 0 1
30.307061 -10.645090 -12.537263 34.482153 -0.337780 1.942912 0.045215 -0.000059 525852.000000 0 0 1
30.935171 -10.308190 -13.913763 35.451889 -0.321648 1.974111 0.023437 0.006515 -250662.000000 0 0 1
30.221001 -10.749690 -15.046263 35.429575 -0.341746 2.009406 0.010870 0.005780 -219818.000000 0 0 1
30.994961 -10.595890 -16.183963 36.536026 -0.329403 2.029693 0.001732 0.008753 -444289.000000 0 0 1
30.494741 -11.263390 -17.499463 36.919160 -0.353813 2.064618 -0.005958 0.014122 -280307.000000 0 0 1
29.415781 -10.580290 -18.131363 36.138304 -0.345273 2.096384 -0.000313 0.008050 208617.000000 0 0 1
29.712521 -9.434490 -18.943963 36.478997 -0.307457 2.116841 0.009896 0.016620 735935.000000 0 0 1
28.395491 -8.891890 -19.649663 35.657803 -0.303472 2.154433 -0.037050 0.013067 1079290.000000 0 0 1
27.789811 -9.737890 -20.612863 35.944266 -0.337042 2.181528 -0.015716 0.018375 1345240.000000 0 0 1
26.443901 -9.295790 -20.902463 34.965763 -0.338036 2.211548 0.019224 0.021799 1262580.000000 0 0 1
25.746101 -9.821490 -22.208263 35.391105 -0.364435 2.249147 0.030254 0.013063 239560.000000 0 0 1
25.336501 -11.178590 -22.210863 35.499600 -0.415516 2.246780 0.027133 0.010807 118811.000000 0 0 1
24.649301 -11.496490 -23.413263 35.887856 -0.436410 2.281544 0.036838 0.003303 -394794.000000 0 0 1
24.838401 -12.939790 -23.855263 36.789372 -0.480274 2.276314 0.020471 0.007916 429937.000000 0 0 1
25.993701 -13.339490 -24.595263 38.190856 -0.474137 2.270524 0.015915 0.011066 678306.000000 0 0 1
27.175701 -13.482290 -23.797563 38.556645 -0.460535 2.235989 -0.001719 0.016024 -115771.000000 0 0 1
28.353771 -14.093790 -24.529963 40.053593 -0.461300 2.229925 -0.009497 0.022022 -352291.000000 0 0 1
28.927491 -13.258990 -25.531843 40.797985 -0.429778 2.246968 0.008265 0.008484 -616658.000000 0 0 1
30.266391 -13.599190 -25.659433 41.945189 -0.422285 2.229051 0.006625 0.003724 -640823.000000 0 0 1
31.024821 -13.014190 -26.885493 43.066674 -0.397183 2.245001 0.027833 -0.000899 200127.000000 0 0 1
30.569081 -13.621890 -28.086613 43.690759 -0.419197 2.269010 0.029339 -0.004864 280715.000000 0 0 1
31.461921 -13.266690 -29.113293 44.871387 -0.399051 2.276824 0.023612 -0.009619 89274.900000 0 0 1
31.382571 -14.178890 -30.362463 45.910629 -0.424356 2.293398 0.024693 -0.012759 -20444.600000 0 0 1
31.882231 -15.449690 -30.002133 46.425183 -0.451241 2.273452 0.034479 -0.008722 -63292.900000 0 0 1
32.073811 -16.292190 -31.173873 47.602260 -0.469995 2.284823 0.020089 -0.007396 192414.000000 0 0 1
30.827531 -16.937790 -31.841423 47.445776 -0.502411 2.306504 0.014572 -0.001313 273163.000000 0 0 1
30.130411 -16.060790 -32.693993 47.272485 -0.489731 2.334508 0.013391 -0.007812 240909.000000 0 0 1
28.969051 -16.664090 -33.272063 47.158541 -0.522013 2.353976 0.007933 -0.010627 452274.000000 0 0 1
28.346551 -15.713190 34.082089 47.032118 -0.506157 0.760262 0.036132 -0.007899 -206183.000000 0 0 1
27.656601 -14.550890 -33.868153 46.083270 -0.484330 2.396365 0.042356 -0.017303 718547.000000 0 0 1
28.509971 -13.496290 -33.395203 45.936999 -0.442133 2.384707 0.030231 -0.020141 154115.000000 0 0 1
27.650701 -12.220890 -33.265443 44.949985 -0.416159 2.403948 0.049015 -0.027565 403266.000000 0 0 1
27.104101 -11.805790 33.872127 44.959204 -0.410791 0.717583 0.071046 -0.035964 324527.000000 0 0 1
26.402601 -10.579790 34.125369 44.424882 -0.381118 0.694836 0.056054 -0.031791 52295.800000 0 0 1
20.518138 -29.681522 9.433637 37.295848 -0.965949 1.315078 0.036202 -0.008385 413974.000000 0 0 1
21.195438 -29.176222 8.247037 36.993407 -0.942530 1.345975 0.040209 -0.012227 851414.000000 0 0 1
22.430138 -29.816222 7.924837 38.143430 -0.925838 1.361508 0.058503 -0.015235 651324.000000 0 0 1
22.985038 -29.469022 6.514537 37.936453 -0.908387 1.398219 0.052437 -0.016806 130432.000000 0 0 1
23.337538 -28.114822 6.212337 37.063149 -0.877981 1.402386 0.051369 -0.007780 -162341.000000 0 0 1
24.052038 -28.104922 5.039837 37.333459 -0.862948 1.435388 0.054663 -0.005344 -380982.000000 0 0 1
24.285138 -26.642022 4.525937 36.332484 -0.831645 1.445902 0.050715 -0.005959 139492.000000 0 0 1
24.995638 -25.828722 5.452837 36.354343 -0.801788 1.420237 0.050470 -0.006447 69157.000000 0 0 1
24.821038 -24.462322 5.259137 35.244115 -0.778120 1.421017 0.042788 -0.002436 140646.000000 0 0 1
25.645538 -23.528122 6.207337 35.352471 -0.742365 1.394297 0.035690 -0.006183 544033.000000 0 0 1
27.042038 -23.452622 5.895937 36.277533 -0.714432 1.407549 0.048441 -0.003159 948508.000000 0 0 1
27.796438 -22.590622 6.783337 36.455340 -0.682447 1.383633 0.054301 -0.008048 449646.000000 0 0 1
27.391738 -21.090522 6.775937 35.228267 -0.656153 1.377246 0.043633 -0.005316 -441900.000000 0 0 1
27.509238 -20.525122 5.510037 34.762039 -0.641012 1.411618 0.054650 -0.002588 168743.000000 0 0 1
27.239338 -19.155322 5.641337 33.774733 -0.612886 1.402981 0.050807 -0.008520 -174010.000000 0 0 1
27.178138 -18.454522 4.267737 33.127544 -0.596507 1.441610 0.048844 -0.004100 -532645.000000 0 0 1
28.449438 -18.011322 3.934637 33.900732 -0.564402 1.454471 0.073139 -0.006562 -332497.000000 0 0 1
28.355638 -17.330622 2.688137 33.340947 -0.548605 1.490083 0.065300 -0.001775 -1074590.000000 0 0 1
29.535738 -16.528422 2.288237 33.923216 -0.510190 1.503292 0.079666 -0.023109 -1006520.000000 0 0 1
29.626738 -15.289722 2.971737 33.471636 -0.476428 1.481896 0.089039 -0.027346 828658.000000 0 0 1
30.989838 -14.909722 3.178237 34.536518 -0.448427 1.478641 0.105675 -0.028923 537970.000000 0 0 1
30.929438 -13.663222 4.103737 34.061040 -0.415976 1.450021 0.106970 -0.031565 356513.000000 0 0 1
30.324138 -13.915422 5.387037 33.796634 -0.430222 1.410718 0.082423 -0.018782 108804.000000 0 0 1
29.925238 -12.699922 5.920137 33.043243 -0.401352 1.390660 0.063635 -0.021751 -146398.000000 0 0 1
29.479638 -12.879322 7.391537 33.008496 -0.411897 1.344953 0.067736 -0.015210 -205436.000000 0 0 1
28.154938 -13.386522 7.429837 32.048432 -0.443823 1.336836 0.047668 -0.011899 114177.000000 0 0 1
27.563938 -13.216222 8.725937 31.789640 -0.447093 1.292737 0.058659 -0.004590 41615.300000 0 0 1
27.944038 -14.262022 9.810537 32.871282 -0.471915 1.267725 0.060768 -0.006785 -94007.900000 0 0 1
28.941738 -13.996422 10.782837 33.908607 -0.450447 1.247180 0.053065 0.001428 173427.000000 0 0 1
29.172538 -15.165022 11.585237 34.860186 -0.479393 1.232019 0.058689 -0.010807 824702.000000 0 0 1
30.094438 -15.009122 12.894137 36.016770 -0.462634 1.204667 0.054556 -0.011208 1610510.000000 0 0 1
31.520338 -14.901522 12.773937 37.131665 -0.441618 1.219604 0.062517 -0.011644 678037.000000 0 0 1
32.115638 -14.883622 14.038937 38.079235 -0.433973 1.193211 0.065249 -0.011410 737863.000000 0 0 1
33.681738 -14.855822 13.971337 39.374525 -0.415398 1.208062 0.068176 -0.019202 774431.000000 0 0 1
34.285638 -13.642222 13.595037 39.324804 -0.378694 1.217799 0.068894 -0.020223 1254850.000000 0 0 1
35.708838 -13.713822 13.354737 40.515911 -0.366677 1.234898 0.081735 -0.022853 867685.000000 0 0 1
36.168838 -12.337022 12.911437 40.337231 -0.328720 1.244975 0.084187 -0.029190 -739232.000000 0 0 1
-35.303125 -12.383122 12.451237 39.429502 0.337357 1.249513 0.099057 -0.027883 -200956.000000 0 0 1
-34.716325 -11.096322 12.522337 38.537780 0.309366 1.239852 0.109382 -0.032789 -651429.000000 0 0 1
-33.504925 -10.973622 11.614537 37.120047 0.316512 1.252561 0.105760 -0.027874 -383790.000000 0 0 1
-32.367525 -11.657222 12.094137 36.466638 0.345690 1.232745 0.088881 -0.024187 78612.000000 0 0 1
-32.208025 -12.929822 11.439937 36.543253 0.381753 1.252392 0.080960 -0.020270 322402.000000 0 0 1
-30.984025 -13.788122 11.934637 35.952158 0.418694 1.232417 0.057189 -0.014097 961407.000000 0 0 1
-29.723925 -13.564322 11.341837 34.585254 0.428117 1.236676 0.054620 -0.015517 820253.000000 0 0 1
-28.741225 -14.589622 11.706337 34.292177 0.469725 1.222422 0.058527 -0.016707 685164.000000 0 0 1
-27.357825 -14.479422 11.074837 32.874858 0.486781 1.227197 0.057019 -0.013735 -295715.000000 0 0 1
-27.427625 -14.710022 9.662337 32.588650 0.492281 1.269777 0.052438 -0.012432 119751.000000 0 0 1
-26.168325 -14.496422 9.058637 31.256782 0.505885 1.276764 0.047060 -0.009434 81943.700000 0 0 1
-26.204825 -14.420122 7.515637 30.840194 0.503062 1.324621 0.067289 -0.003034 -63348.600000 0 0 1
-26.426625 -15.621122 6.826437 31.448151 0.533859 1.351985 0.062427 0.000362 182301.000000 0 0 1
-26.467425 -15.425222 5.453937 31.116033 0.527677 1.394609 0.074182 0.001223 -287215.000000 0 0 1
-26.939425 -16.627722 4.565937 31.985333 0.552990 1.427556 0.073260 -0.000219 -426878.000000 0 0 1
-28.329625 -16.754522 4.609437 33.234449 0.534082 1.431653 0.055389 -0.008264 -594026.000000 0 0 1
-28.791225 -17.710222 3.666437 34.000432 0.551467 1.462751 0.061237 -0.011055 301410.000000 0 0 1
-30.313625 -17.961422 3.800737 35.439726 0.534901 1.463345 0.067656 -0.016908 198752.000000 0 0 1
-31.191425 -16.947322 3.335037 35.654442 0.497710 1.477122 0.074559 -0.017702 -235273.000000 0 0 1
-32.502925 -17.350622 3.652937 37.024697 0.490334 1.471973 0.076714 -0.015505 -350438.000000 0 0 1
-33.509225 -16.449822 2.911737 37.442530 0.456345 1.492952 0.070651 -0.023295 -145162.000000 0 0 1
-33.673225 -16.776822 1.555237 37.653242 0.462226 1.529480 0.067690 -0.018726 52312.200000 0 0 1
-34.674025 -15.929922 1.018037 38.171807 0.430659 1.544123 0.088461 -0.023308 -173681.000000 0 0 1
-35.282125 -16.515522 -0.250063 38.957071 0.437803 1.577215 0.080606 -0.020557 -421426.000000 0 0 1
-34.309925 -16.738922 -1.259863 38.196200 0.453900 1.603786 0.082434 -0.015383 482569.000000 0 0 1
-34.695025 -17.761722 -2.172563 39.037720 0.473153 1.626478 0.070997 -0.003590 552238.000000 0 0 1
-33.486525 -18.094022 -3.113163 38.189433 0.495394 1.652406 0.064109 -0.005283 643293.000000 0 0 1
-33.843025 -19.138022 -3.994563 39.084150 0.514661 1.673179 0.063151 -0.010777 74425.100000 0 0 1
-32.693425 -19.597822 -4.677063 38.403250 0.540009 1.692888 0.064647 -0.011578 -167295.000000 0 0 1
-32.895525 -20.708622 -5.721363 39.289905 0.561848 1.716935 0.071339 -0.011033 -325623.000000 0 0 1
-33.332525 -21.952122 -5.181063 40.246693 0.582383 1.699887 0.068218 -0.015138 89903.800000 0 0 1
-33.745225 -22.843522 -6.169063 41.214367 0.595082 1.721043 0.071034 -0.011058 271408.000000 0 0 1
-34.511325 -24.095322 -5.650363 42.468138 0.609507 1.704241 0.051452 -0.011236 107885.000000 0 0 1
-33.606225 -25.003822 -5.084363 42.195026 0.639665 1.691587 0.062820 -0.007868 -415988.000000 0 0 1
-34.183625 -26.256722 -4.822663 43.372731 0.654990 1.682218 0.043501 0.003953 -127237.000000 0 0 1
-33.259825 -27.260722 -4.118263 43.200961 0.686596 1.666269 0.049316 0.002667 -790279.000000 0 0 1
-32.303925 -27.785722 -5.006563 42.902862 0.710348 1.687758 0.051303 -0.002531 379122.000000 0 0 1
-31.384025 -28.777022 -4.548563 42.822464 0.742092 1.677216 0.057846 -0.001707 350540.000000 0 0 1
-30.493225 -28.500422 -3.336563 41.871751 0.751631 1.650566 0.064840 -0.005201 -399389.000000 0 0 1
-31.201925 -28.550822 -2.093363 42.344914 0.741059 1.620252 0.050779 -0.002401 -89118.400000 0 0 1
-30.255425 -28.379222 -1.085163 41.496368 0.753411 1.596950 0.047730 -0.005393 -52480.300000 0 0 1
-30.803125 -28.213522 0.368437 41.772851 0.741547 1.561976 0.047340 0.001558 325008.000000 0 0 1
-31.378725 -29.454422 0.870637 43.045852 0.753776 1.550569 0.044322 0.009362 -6307.040000 0 0 1
-32.104925 -29.275122 2.051837 43.496770 0.739328 1.523607 0.046246 0.017195 -15918.200000 0 0 1
-32.803125 -30.559022 2.581237 44.906143 0.749996 1.513284 0.032409 0.011579 -66120.300000 0 0 1
-33.701425 -30.448722 3.701037 45.569819 0.734737 1.489490 0.029877 0.013622 618894.000000 0 0 1
-34.213525 -31.707522 4.161937 46.832190 0.747401 1.481810 0.029827 0.007945 253357.000000 0 0 1
-35.218725 -32.448122 3.231937 47.996715 0.744476 1.503409 0.022540 0.009831 -291159.000000 0 0 1
-35.964325 -33.394422 3.982237 49.238992 0.748363 1.489832 0.032220 -0.001612 -181288.000000 0 0 1
35.870438 -34.089322 3.246237 49.591413 -0.759945 1.505290 0.029874 0.000091 -554650.000000 0 0 1
34.726938 33.710510 4.083237 48.569862 0.770547 1.486628 0.035841 -0.006571 -80871.200000 0 0 1
33.912638 -33.821222 4.885537 48.143645 -0.784049 1.469143 0.031473 -0.009420 926555.000000 0 0 1
33.146138 -32.709722 4.333437 46.769339 -0.778771 1.478008 0.034654 -0.009513 862477.000000 0 0 1
32.049938 -33.030222 3.239637 46.137722 -0.800460 1.500522 0.036266 -0.002684 111606.000000 0 0 1
32.569638 -33.657622 2.061237 46.881399 -0.801825 1.526815 0.043194 -0.000967 -310080.000000 0 0 1
31.641138 -33.391522 1.051137 46.013696 -0.812307 1.547950 0.041918 0.007688 -751732.000000 0 0 1
32.038138 -33.980822 -0.332063 46.703842 -0.814816 1.577906 0.053239 0.000227 1515940.000000 0 0 1
33.195638 -33.491022 -1.076163 47.167331 -0.789828 1.593614 0.029547 0.014559 1122930.000000 0 0 1
34.449938 -33.486522 -0.394963 48.044785 -0.771218 1.579017 0.020873 0.016278 17250.300000 0 0 1
35.658738 -33.196622 -1.306763 48.736731 -0.749656 1.597612 0.013932 0.020941 -22378.500000 0 0 1
35.987638 34.101110 -2.136563 49.624195 0.758488 1.613865 0.007098 0.004490 200543.000000 0 0 1
-35.829825 -33.945122 -3.101663 49.453695 0.758394 1.633556 -0.001933 0.007019 -300101.000000 0 0 1
-35.313625 33.344310 -4.116863 48.742627 -0.756723 1.655358 -0.006658 0.004671 -609880.000000 0 0 1
-34.257925 32.641610 -3.565463 47.453057 -0.761243 1.646004 0.002999 0.005416 -648816.000000 0 0 1
-33.728125 31.773610 -4.582863 46.563412 -0.755568 1.669378 0.023074 -0.011070 116467.000000 0 0 1
-32.397625 31.150110 -4.108363 45.131077 -0.765770 1.661954 0.041728 -0.023345 -172344.000000 0 0 1
-31.280525 32.001810 -4.096263 44.937361 -0.796796 1.662078 0.044039 -0.016431 269930.000000 0 0 1
-30.012025 31.411910 -3.813563 43.611615 -0.808185 1.658352 0.084203 -0.026165 1042460.000000 0 0 1
-29.606825 31.082710 -2.328863 42.989796 -0.809712 1.624995 0.069653 -0.024805 -2093.500000 0 0 1
-30.594225 30.286610 -1.706763 43.083621 -0.780345 1.610422 0.044910 -0.010243 -47911.200000 0 0 1
-30.292025 30.154710 -0.325263 42.743644 -0.783126 1.578406 0.041255 -0.002992 -469495.000000 0 0 1
-31.456525 29.554610 0.435437 43.164540 -0.754235 1.560708 0.037447 -0.004818 -427544.000000 0 0 1
-31.722725 28.244710 -0.049663 42.474668 -0.727465 1.571966 0.036496 -0.009786 531867.000000 0 0 1
-33.027725 28.236210 -0.647763 43.457264 -0.707346 1.585703 0.031999 -0.007126 402936.000000 0 0 1
-33.396125 26.789310 -1.097063 42.827232 -0.676062 1.596415 0.038595 -0.009816 -479597.000000 0 0 1
-33.506525 25.860710 -0.044563 42.325708 -0.657315 1.571849 0.034692 -0.005594 22582.800000 0 0 1
-33.892825 24.597710 -0.564163 41.881848 -0.627799 1.584267 0.076503 -0.002943 -177553.000000 0 0 1
-33.750025 23.456010 0.478637 41.103256 -0.607357 1.559151 0.081460 -0.016247 -456716.000000 0 0 1
-32.453025 23.069810 0.835637 39.826037 -0.617983 1.549813 0.080778 -0.022731 -329368.000000 0 0 1
-31.920425 23.814310 1.917337 39.871181 -0.640970 1.522689 0.066508 -0.023041 -918916.000000 0 0 1
-30.413525 23.559510 2.158037 38.531677 -0.659085 1.514760 0.052207 -0.027328 146530.000000 0 0 1
-29.580225 24.399510 1.377537 38.369563 -0.689716 1.534887 0.059983 -0.022678 -79534.600000 0 0 1
-29.519325 25.741710 1.779637 39.207057 -0.717145 1.525390 0.030217 -0.015351 -832768.000000 0 0 1
-28.895825 26.668410 0.760037 39.328748 -0.745332 1.551470 0.036475 -0.019847 780681.000000 0 0 1
-27.474925 26.475310 0.684937 38.161272 -0.766872 1.552847 0.040333 -0.023581 918560.000000 0 0 1
-26.850425 27.376310 -0.323963 38.347263 -0.795096 1.579245 0.052559 -0.024308 -210009.000000 0 0 1
-25.674125 26.754310 -1.012463 37.094189 -0.805998 1.598094 0.055408 -0.025959 -967857.000000 0 0 1
-25.952225 25.696710 -1.988963 36.575878 -0.780451 1.625202 0.060530 -0.036725 130099.000000 0 0 1
-24.777925 25.085810 -2.518863 35.349513 -0.791573 1.642113 0.043126 -0.027143 627746.000000 0 0 1
-23.979025 24.083310 -1.638863 34.024775 -0.787568 1.618982 0.031364 -0.024629 220446.000000 0 0 1
-24.632025 22.828610 -1.615163 33.622773 -0.747418 1.618853 0.017838 -0.020325 -93150.000000 0 0 1
-23.665225 21.839310 -1.382863 32.232137 -0.745294 1.613713 0.017449 -0.030852 -957318.000000 0 0 1
-24.176525 20.496110 -0.836163 31.706372 -0.703197 1.597171 0.020960 -0.024971 -1436030.000000 0 0 1
-24.836025 20.494410 0.449837 32.203281 -0.689912 1.556827 0.008395 -0.024337 1087960.000000 0 0 1
-26.125125 21.146510 0.457137 33.614075 -0.680466 1.557196 0.008274 -0.024762 819664.000000 0 0 1
-27.151825 20.620510 -0.610463 34.099849 -0.649523 1.588700 0.023691 -0.030972 -1440210.000000 0 0 1
-27.555425 19.229110 -0.457663 33.604606 -0.609271 1.584416 0.039546 -0.031532 107298.000000 0 0 1
-28.427225 18.859110 -1.488763 34.146589 -0.585750 1.614409 0.059800 -0.027612 -150175.000000 0 0 1
-28.812825 17.362010 -1.535863 33.674577 -0.542314 1.616421 0.051421 -0.017469 578154.000000 0 0 1
-29.658225 16.924310 -0.420163 34.149950 -0.518555 1.583100 0.064421 -0.024992 889141.000000 0 0 1
-29.853125 15.506910 -0.364363 33.642326 -0.479078 1.581627 0.070762 -0.027830 -47790.000000 0 0 1
-28.651325 14.675010 0.170837 32.191358 -0.473354 1.565489 0.067057 -0.019099 -301001.000000 0 0 1
-28.490825 14.690810 1.579337 32.094257 -0.476076 1.521567 0.069299 -0.019067 153737.000000 0 0 1
-27.227125 14.302510 2.075637 30.825094 -0.483685 1.503409 0.063491 -0.024829 -114308.000000 0 0 1
-26.879625 12.822610 1.999037 29.848446 -0.445110 1.503773 0.079063 -0.022041 -460671.000000 0 0 1
-26.688425 12.407310 0.683537 29.439439 -0.435171 1.547576 0.074195 -0.026861 211407.000000 0 0 1
-26.254125 11.043910 0.749137 28.492249 -0.398184 1.544501 0.100873 -0.020814 -101586.000000 0 0 1
-26.168825 10.325010 -0.602463 28.138518 -0.375803 1.592209 0.096858 -0.018515 94947.400000 0 0 1
-27.472525 9.978010 -1.059263 29.247604 -0.348385 1.607021 0.094778 -0.019668 611615.000000 0 0 1
-27.450325 8.937110 -2.006163 28.938158 -0.314751 1.640178 0.113224 -0.025307 -822301.000000 0 0 1
-28.826325 8.625810 -2.535863 30.195897 -0.290754 1.654876 0.104311 -0.023488 -1001330.000000 0 0 1
-28.836425 7.604310 -3.571563 30.035329 -0.257835 1.689990 0.128554 -0.027192 1276600.000000 0 0 1
-30.126825 7.562710 -4.236363 31.349114 -0.245947 1.706346 0.121365 -0.021005 989785.000000 0 0 1
-11.335962 18.207910 -19.884363 29.247562 -1.013936 2.318373 0.084350 -0.006019 106843.000000 0 0 1
-11.652162 17.188210 -20.826763 29.410228 -0.975046 2.357667 0.073279 -0.010739 -45311.200000 0 0 1
-10.785362 17.130210 -21.952163 29.860770 -1.008888 2.396685 0.069468 -0.016009 194974.000000 0 0 1
-11.024962 15.852110 -22.876863 29.936433 -0.963105 2.440567 0.070953 -0.016111 -308605.000000 0 0 1
-10.319262 14.772810 -22.426263 28.769087 -0.961057 2.464706 0.064073 -0.016738 -472480.000000 0 0 1
-10.441662 13.687410 -23.377763 29.032625 -0.919112 2.506849 0.054529 -0.016208 -36357.700000 0 0 1
-9.725762 12.361610 -23.010863 27.872920 -0.904174 2.541996 0.035434 -0.008981 -448714.000000 0 0 1
-8.359162 12.386810 -23.261963 27.648283 -0.977154 2.570578 0.043826 -0.010986 -826628.000000 0 0 1
-7.658762 11.408610 -22.528463 26.388343 -0.979583 2.593899 0.028474 -0.008217 29389.100000 0 0 1
-6.137662 11.571810 -22.440963 25.984120 -1.083127 2.613245 0.027896 -0.007182 -300866.000000 0 0 1
-5.456462 11.430810 -23.610563 26.793564 -1.125435 2.649197 0.023301 -0.014187 121412.000000 0 0 1
-4.027162 11.471610 -23.452263 26.416368 -1.233182 2.663323 0.032046 -0.010604 1578900.000000 0 0 1
-3.204462 11.263810 -24.796263 27.422557 -1.293627 2.700366 0.048349 -0.018548 258552.000000 0 0 1
-3.298862 9.936710 -25.332473 27.410853 -1.250258 2.749671 0.039776 -0.015770 58615.700000 0 0 1
-2.513762 9.686610 -26.500403 28.327032 -1.316888 2.780514 0.040339 -0.016459 -121782.000000 0 0 1
-2.285962 8.268210 -27.082303 28.408450 -1.301058 2.834838 0.035904 -0.000249 -634469.000000 0 0 1
-1.362962 7.513610 -26.390293 27.472888 -1.391349 2.859928 0.035410 -0.005567 -415274.000000 0 0 1
-1.874162 6.867110 -25.258553 26.242412 -1.304366 2.866901 0.040657 -0.020246 7932.920000 0 0 1
-0.786262 6.005110 -24.579163 25.314320 -1.440605 2.900003 -0.026553 -0.009546 232031.000000 0 0 1
0.147438 6.670510 -23.756663 24.675828 1.548697 2.867793 0.013184 -0.008358 -126885.000000 0 1 0
1.144438 5.844910 -23.243963 23.994885 1.377442 2.890755 0.014639 -0.003705 -208236.000000 0 1 0
1.574438 6.265810 -21.806863 22.743757 1.324619 2.853567 0.032914 -0.008796 84876.600000 0 1 0
2.163838 7.545110 -21.775163 23.146676 1.291505 2.795622 0.020868 -0.011960 -88453.300000 0 1 0
2.440638 8.015610 -20.458563 22.107906 1.275229 2.752875 0.044085 -0.013752 131963.000000 0 1 0
2.975238 9.468110 -20.568963 22.838112 1.266329 2.692041 0.042803 -0.017899 -99737.400000 0 1 0
3.135338 10.138810 -19.360963 22.078784 1.270883 2.640178 0.045794 -0.025292 -64336.400000 0 1 0
3.644538 11.441210 -19.560063 22.951688 1.262414 2.591025 0.067695 -0.024199 1298110.000000 0 1 0
5.043238 11.696210 -18.826163 22.730156 1.163698 2.546767 0.059721 -0.018596 1716610.000000 0 1 0
6.056438 10.773910 -19.266863 22.890382 1.058681 2.571223 0.066636 -0.018585 -177332.000000 0 1 0
6.943338 10.464410 -18.230563 22.137462 0.984976 2.538378 0.062769 -0.019089 -2185.150000 0 1 0
8.103838 9.546310 -18.699063 22.504648 0.866943 2.551516 0.082465 -0.022780 -233958.000000 0 1 0
7.791738 8.185510 -19.008563 22.114231 0.810039 2.605209 0.084168 -0.018508 41136.900000 0 1 0
7.091638 8.048010 -20.246863 22.912818 0.848484 2.654394 0.073099 -0.008021 98135.100000 0 1 0
6.816038 6.629010 -20.695163 22.774809 0.771488 2.710923 0.067297 0.000495 -446849.000000 0 1 0
7.948438 5.876310 -20.979363 23.191428 0.636620 2.701277 0.074255 0.010445 -313874.000000 0 1 0
7.594938 4.548410 -21.258563 23.028192 0.539591 2.747001 0.065610 0.011722 -80360.500000 0 1 0
7.309338 4.206110 -22.734463 24.248167 0.522167 2.786386 0.076765 -0.000664 -168000.000000 0 1 0
6.128738 4.788210 -23.223563 24.491269 0.663216 2.818438 0.073613 -0.008924 -278268.000000 0 1 0
5.827238 4.459310 -24.559563 25.632290 0.653192 2.851262 0.077955 -0.014981 148260.000000 0 0 1
4.613638 5.296810 -25.071633 26.037063 0.854224 2.868424 0.053425 -0.014454 229732.000000 0 0 1
4.896838 6.672810 -25.209853 26.533792 0.937712 2.824364 0.075170 -0.019773 106761.000000 0 0 1
4.698038 7.468010 -24.032363 25.600727 1.009262 2.789745 0.070052 -0.028593 -720032.000000 0 0 1
4.589738 8.968510 -24.370163 26.370527 1.097784 2.749585 0.077399 -0.030595 362728.000000 0 0 1
3.574738 9.423310 -25.237113 27.175161 1.208217 2.761642 0.076900 -0.027597 -35757.800000 0 0 1
2.235438 9.330710 -24.814363 26.604735 1.335650 2.772638 0.059400 -0.013112 -290812.000000 0 0 1
1.224238 9.987410 -25.763853 27.659053 1.448827 2.769256 0.044236 -0.005032 -335072.000000 0 0 1
1.229438 11.407610 -25.751373 28.191812 1.463437 2.722441 0.067771 -0.024887 257770.000000 0 0 1
0.249338 11.999810 -26.605603 29.187595 1.550021 2.717805 0.068956 -0.023190 59659.700000 0 0 1
0.205338 13.493410 -26.675713 29.894948 1.555580 2.673244 0.068925 -0.030995 -4108.840000 0 0 1
-0.263462 14.035810 -25.455633 29.069961 -1.552028 2.637614 0.067936 -0.035738 22680.200000 0 0 1
-0.556862 15.418910 -25.561303 29.856877 -1.534696 2.598526 0.063921 -0.049733 -391185.000000 0 0 1
-1.062562 16.070710 -24.328663 29.176713 -1.504774 2.556821 0.076469 -0.036559 61104.900000 0 0 1
-2.307862 15.477410 -23.990263 28.642785 -1.422775 2.563612 0.056404 -0.030696 -492529.000000 0 0 1
-2.748062 15.863610 -22.740763 27.863027 -1.399268 2.525535 0.054413 -0.035826 -779896.000000 0 0 1
-3.910262 15.010510 -22.192863 27.076350 -1.315958 2.531579 0.050498 -0.024411 664012.000000 0 0 1
-5.226262 15.049010 -22.732763 27.759053 -1.236544 2.530343 0.051098 -0.023560 239250.000000 0 0 1
-5.247462 14.812210 -24.138363 28.802743 -1.230326 2.564510 0.047960 -0.027325 -990232.000000 0 0 1
-6.627362 15.061410 -24.786563 29.751331 -1.156270 2.555529 0.026131 -0.027908 106686.000000 0 0 1
-7.094062 16.344010 -24.864663 30.589276 -1.161288 2.519834 0.035017 -0.031505 -1254700.000000 0 0 1
-8.350562 16.319510 -25.417463 31.338566 -1.097839 2.516759 0.055294 -0.023018 -1070330.000000 0 0 1
-8.886662 17.709510 -25.876993 32.591690 -1.105708 2.488116 0.065812 -0.025701 -216345.000000 0 0 1
-9.376662 18.429910 -24.793863 32.284966 -1.100154 2.446461 0.065114 -0.024138 -590258.000000 0 0 1
-10.408362 19.272110 -25.162393 33.360069 -1.075606 2.425333 0.068208 -0.019467 -380537.000000 0 0 1
-10.930262 20.254110 -24.096663 33.321896 -1.075929 2.379146 0.051311 -0.014801 129254.000000 0 0 1
-10.250062 21.526210 -23.870463 33.737820 -1.126397 2.356791 0.064342 -0.012168 268172.000000 0 0 1
-10.710562 22.685610 -24.588063 35.127281 -1.129692 2.346153 0.054551 -0.016866 -175259.000000 0 0 1
-10.473162 22.777410 -26.092933 36.184785 -1.139819 2.376188 0.040677 -0.015331 -186121.000000 0 0 1
-11.252962 21.913010 -26.890213 36.467694 -1.096384 2.399966 0.039774 -0.017166 26186.800000 0 0 1
-11.386462 22.443210 -28.222493 37.813467 -1.101290 2.413374 0.047555 -0.008536 110050.000000 0 0 1
-12.133762 21.365610 -29.139813 38.116219 -1.054306 2.441060 0.035018 -0.011368 24950.800000 0 0 1
-11.343562 20.321410 -29.618203 37.667944 -1.061674 2.475589 0.051038 -0.023138 -276345.000000 0 0 1
-10.992662 19.313710 -28.673003 36.276702 -1.053359 2.482253 0.054736 -0.020850 83783.500000 0 0 1
-9.836262 18.392910 -29.174013 35.863271 -1.079709 2.520905 0.040328 -0.020134 489419.000000 0 0 1
-8.585062 19.131110 -29.183063 35.935412 -1.148983 2.518534 0.037707 -0.024926 1484720.000000 0 0 1
-7.481862 18.463210 -29.853513 35.890119 -1.185789 2.553145 0.044032 -0.022204 1080600.000000 0 0 1
-6.888462 17.182510 -29.203203 34.576243 -1.189515 2.576620 0.051335 -0.030646 -402072.000000 0 0 1
-7.837162 16.095710 -29.245673 34.289975 -1.117675 2.592298 0.054507 -0.024555 459341.000000 0 0 1
-7.513062 14.884310 -28.504193 33.022383 -1.103345 2.612327 0.026943 -0.021283 -22261.000000 0 0 1
-8.780162 13.972110 -28.537163 32.964841 -1.009751 2.617313 0.052944 -0.013043 507903.000000 0 0 1
-9.814362 14.548210 -27.749423 32.832950 -0.977315 2.577679 0.074249 -0.018224 283308.000000 0 0 1
-10.997962 13.738510 -27.822203 32.920765 -0.895738 2.577598 0.105992 -0.017762 456226.000000 0 0 1
-12.032862 14.181210 -26.795783 32.617640 -0.867169 2.534854 0.082991 -0.012137 -341529.000000 0 0 1
-12.639662 15.397710 -26.956703 33.518866 -0.883453 2.505166 0.068040 -0.018269 -777872.000000 0 0 1
-13.559462 15.682610 -25.950453 33.214895 -0.857877 2.467526 0.062303 -0.017508 -351167.000000 0 0 1
-14.527962 16.777210 -26.260113 34.382117 -0.857124 2.439934 0.038968 -0.012782 -154610.000000 0 0 1
-13.882762 18.059110 -26.353793 34.833675 -0.915409 2.428834 0.045817 -0.008343 5123.610000 0 0 1
-14.847362 19.040110 -26.629363 35.945694 -0.908498 2.405090 0.020629 -0.005701 -271759.000000 0 0 1
-14.407062 20.534810 -26.471383 36.468835 -0.959003 2.383085 0.016077 -0.007227 -495511.000000 0 0 1
-15.416862 21.448210 -26.805243 37.632783 -0.947567 2.363544 -0.021683 -0.001903 -219984.000000 0 0 1
-15.026462 22.799310 -26.981223 38.387361 -0.988068 2.350217 -0.016488 -0.005549 -170498.000000 0 0 1
-14.578462 23.553510 -25.725693 37.803580 -1.016559 2.319254 -0.030925 -0.004947 16585.400000 0 0 1
-13.873262 24.721710 -25.952163 38.433645 -1.059412 2.312094 -0.010933 -0.008894 -85035.200000 0 0 1
-13.501662 25.479310 -24.804463 38.036186 -1.083510 2.281184 0.012479 -0.008433 -81389.800000 0 0 1
-13.213662 26.944810 -25.039563 39.084567 -1.114860 2.266142 0.030582 -0.012352 -161878.000000 0 0 1
-14.259062 27.834110 -25.352763 40.259423 -1.097367 2.252008 0.040901 -0.015895 -589548.000000 0 0 1
-14.726062 28.535410 -24.241463 40.234003 -1.094381 2.217441 0.054504 -0.021946 -965802.000000 0 0 1
-15.964462 29.288510 -24.648463 41.475626 -1.071741 2.207176 0.041146 -0.023938 -818548.000000 0 0 1
-17.068262 28.428310 -24.648363 41.316294 -1.030085 2.210026 0.021171 -0.018907 -143638.000000 0 0 1
-18.256762 29.063910 -25.129853 42.538567 -1.009928 2.202790 0.030409 -0.018704 911104.000000 0 0 1
-19.546262 28.216710 -25.291313 42.636716 -0.964973 2.205801 0.048580 -0.011685 210037.000000 0 0 1
-20.108062 27.861710 -24.059863 41.946228 -0.945648 2.181676 0.058645 -0.020427 256007.000000 0 0 1
-21.193762 26.926310 -24.254463 41.981909 -0.903969 2.186749 0.060739 -0.035728 385595.000000 0 0 1
-21.883162 26.588510 -22.926463 41.369606 -0.882169 2.158181 0.046831 -0.029261 -16853.500000 0 0 1
-22.698762 27.708610 -22.550263 42.326295 -0.884460 2.132669 0.041891 -0.021951 3216.220000 0 0 1
-23.011962 27.769010 -21.138963 41.803398 -0.878803 2.100961 0.012681 -0.008672 48699.000000 0 0 1
-24.337362 28.517110 -20.859363 42.902748 -0.864314 2.078533 -0.003100 -0.000986 1169430.000000 0 0 1
-25.500362 27.780310 -21.320263 43.319368 -0.828163 2.085371 -0.005305 -0.003719 1056280.000000 0 0 1
-26.734322 28.480910 -21.132263 44.412371 -0.817020 2.066692 0.014382 -0.001710 681922.000000 0 0 1
-27.990692 27.644010 -21.389963 44.779467 -0.779167 2.068801 0.014120 -0.001097 -139948.000000 0 0 1
-28.018292 27.288810 -22.729163 45.236254 -0.772209 2.097232 0.008705 0.000686 37646.300000 0 0 1
-29.357482 27.193110 -23.189363 46.250119 -0.747144 2.096001 0.018466 -0.003054 158808.000000 0 0 1
-29.478292 26.775710 -24.674263 46.847920 -0.737393 2.125497 0.016798 0.005301 131318.000000 0 0 1
-28.977102 25.500410 -24.938163 45.954927 -0.721666 2.144404 0.011886 0.016578 -203471.000000 0 0 1
-29.282442 25.165210 -26.285373 46.708351 -0.709924 2.168512 0.023753 0.008052 -24760.100000 0 0 1
-29.274612 23.665810 -26.592703 46.089536 -0.679846 2.185822 0.021436 0.011262 -469529.000000 0 0 1
-28.043972 22.986710 -26.560063 44.947638 -0.686618 2.202984 0.023219 -0.010059 -190900.000000 0 0 1
-28.099642 21.849910 -27.415673 44.929139 -0.660924 2.227107 0.040183 -0.008057 102474.000000 0 0 1
-27.004632 20.806110 -27.118083 43.560702 -0.656470 2.242775 0.046908 -0.002896 50667.800000 0 0 1
-27.302802 20.116810 -25.975333 42.718227 -0.635002 2.224414 0.030290 -0.001268 139575.000000 0 0 1
-26.621582 18.836810 -25.909023 41.651068 -0.615793 2.242154 0.023235 -0.009425 277135.000000 0 0 1
-27.545822 17.590610 -25.714713 41.586636 -0.568315 2.237426 0.015300 0.001853 -128990.000000 0 0 1
-28.289022 17.307810 -26.880853 42.689686 -0.549066 2.251938 0.015473 0.003400 -69387.900000 0 0 1
-28.836852 16.028210 -26.812383 42.513191 -0.507303 2.253230 0.000776 -0.001830 -395737.000000 0 0 1
-29.606202 15.573910 -28.085383 43.679086 -0.484258 2.269197 -0.006925 -0.006676 -381422.000000 0 0 1
-30.851382 16.198710 -28.142313 44.790576 -0.483491 2.250174 -0.013268 -0.006766 -662964.000000 0 0 1
-31.519872 15.823310 -29.320873 45.864944 -0.465255 2.264367 0.007217 -0.003479 -54531.600000 0 0 1
-32.830862 16.582110 -29.522533 47.163670 -0.467701 2.247157 0.019214 -0.004385 -70124.100000 0 0 1
-33.865352 16.443010 -28.579063 47.265182 -0.452013 2.220127 0.017846 -0.006032 531792.000000 0 0 1
-35.160270 16.693910 -29.119123 48.609202 -0.443281 2.213105 0.037376 -0.008926 770083.000000 0 0 1
-36.355502 16.340710 -28.194513 48.822862 -0.422413 2.186442 0.052561 -0.008246 92224.900000 0 0 1
36.286541 17.334610 -27.198873 48.548743 0.445661 2.165470 0.054374 -0.025590 -151032.000000 0 0 1
35.409821 17.042010 -26.141323 47.198033 0.448559 2.157795 0.085329 -0.026494 -128382.000000 0 0 1
34.903831 18.251010 -25.291893 46.808724 0.481795 2.141619 0.101477 -0.030880 -267746.000000 0 0 1
33.925141 18.944610 -26.014123 46.760539 0.509288 2.160755 0.101770 -0.039840 -76231.400000 0 0 1
33.314191 19.966010 -25.249633 46.325164 0.539923 2.147248 0.114198 -0.041357 -963161.000000 0 0 1
32.622121 21.012810 -26.107653 46.769119 0.572236 2.163040 0.121824 -0.046962 -195812.000000 0 0 1
31.290911 20.718410 -26.433943 45.903453 0.584850 2.184451 0.114681 -0.046437 -610373.000000 0 0 1
30.374591 21.030610 -25.413403 44.841313 0.605590 2.173341 0.106078 -0.038101 -1363040.000000 0 0 1
28.940531 21.029710 -25.909363 44.171236 0.628391 2.197609 0.069276 -0.032085 -541297.000000 0 0 1
28.463941 19.717210 -26.116573 43.370954 0.605815 2.217009 0.078171 -0.047704 -497414.000000 0 0 1
27.139601 19.709210 -26.576243 42.793780 0.628105 2.240853 0.073747 -0.041231 -344455.000000 0 0 1
26.538001 18.296610 -26.757193 41.892467 0.603610 2.263619 0.089867 -0.034474 -135082.000000 0 0 1
27.232101 17.510310 -27.717773 42.620103 0.571440 2.278835 0.093764 -0.031591 1544420.000000 0 0 1
28.507391 16.967510 -27.227203 42.917226 0.536880 2.258044 0.093433 -0.029320 1188440.000000 0 0 1
29.011311 15.954410 -28.279683 43.542391 0.502795 2.277690 0.087183 -0.023533 -281742.000000 0 0 1
28.279871 14.738010 -28.402953 42.704658 0.480423 2.298427 0.101305 -0.018454 -27895.700000 0 0 1
28.056351 13.852410 -27.269373 41.505021 0.458623 2.287647 0.114963 -0.020959 945057.000000 0 0 1
29.219701 13.398910 -26.232713 41.490685 0.429947 2.255257 0.108305 -0.019331 1064720.000000 0 0 1
29.520821 14.369510 -25.226843 41.404774 0.452998 2.225941 0.109168 -0.031590 395009.000000 0 0 1
30.709961 14.060810 -24.492063 41.721328 0.429370 2.198193 0.096591 -0.023565 391849.000000 0 0 1
-14.181862 -31.542922 -23.790463 41.976985 1.148271 2.173352 0.089618 -0.006673 305834.000000 0 0 1
-13.452762 -30.686022 -24.694363 41.622354 1.157630 2.205943 0.091165 -0.013343 406042.000000 0 0 1
-14.105262 -30.518322 -25.952723 42.471993 1.137852 2.228189 0.065713 -0.007149 286358.000000 0 0 1
-13.592262 -29.232822 -26.682093 41.847838 1.135567 2.262172 0.072883 -0.009135 271906.000000 0 0 1
-13.925462 -28.013722 -26.004173 40.680513 1.109476 2.264292 0.071200 0.002078 -216864.000000 0 0 1
-13.282362 -26.975522 -26.645613 40.175722 1.113259 2.295918 0.072528 -0.005590 -367783.000000 0 0 1
-13.653662 -25.542122 -26.241073 39.082175 1.079889 2.306938 0.036238 0.003723 -263221.000000 0 0 1
-13.367462 -25.246922 -24.929363 37.915290 1.083852 2.288294 0.041925 -0.016967 66027.800000 0 0 1
-13.692362 -23.861322 -24.776663 37.023324 1.049841 2.303952 0.039823 -0.011020 -137065.000000 0 0 1
-13.325562 -23.193622 -23.372463 35.521638 1.049311 2.288927 0.039303 -0.009750 -450957.000000 0 0 1
-11.957062 -23.104722 -23.119063 34.803600 1.093234 2.297316 0.049540 -0.027080 -747405.000000 0 0 1
-11.651962 -22.177222 -22.121263 33.420767 1.087034 2.294149 0.025333 -0.016100 270568.000000 0 0 1
-10.129262 -21.959322 -21.968563 32.671571 1.138607 2.308251 0.021771 -0.020790 14106.700000 0 0 1
-9.569262 -21.018122 -22.817563 32.464957 1.143555 2.350174 0.027683 -0.023583 -477766.000000 0 0 1
-8.174462 -21.007722 -22.664563 31.966054 1.199707 2.358903 0.050000 -0.025199 -355469.000000 0 0 1
-7.567862 -19.886822 -23.551463 31.740032 1.207172 2.406862 0.053041 -0.017355 -321761.000000 0 0 1
-7.530162 -18.681722 -22.731363 30.371449 1.187641 2.416511 0.036994 -0.013719 23863.500000 0 0 1
-7.638162 -17.460822 -23.305363 30.105843 1.158431 2.456111 0.024783 -0.018922 230157.000000 0 0 1
-6.501962 -17.015522 -24.286363 30.358375 1.205799 2.498073 0.047316 -0.029178 269327.000000 0 0 1
-6.493262 -17.699422 -25.523523 31.731407 1.219179 2.505396 0.076366 -0.031535 100108.000000 0 0 1
-5.500562 -17.061922 -26.310043 31.836830 1.258929 2.543485 0.058233 -0.031353 -273708.000000 0 0 1
-5.315362 -17.606722 -27.765333 33.304106 1.277603 2.556554 0.069649 -0.019481 -304619.000000 0 0 1
-6.309862 -17.306822 -28.713493 34.114588 1.221185 2.571179 0.096264 -0.018955 -220411.000000 0 0 1
-6.275562 -18.115422 -29.920443 35.535674 1.237314 2.571745 0.087601 -0.025846 -41804.800000 0 0 1
-7.554062 -17.838422 -30.749143 36.342578 1.170221 2.579406 0.100487 -0.026745 143546.000000 0 0 1
-7.530762 -16.703122 -31.639583 36.561864 1.147228 2.616687 0.090707 -0.023776 -162187.000000 0 0 1
-7.278362 -15.440322 -31.045603 35.428909 1.130300 2.638880 0.072617 -0.022173 -184971.000000 0 0 1
-7.693162 -14.339722 -31.996793 35.897174 1.078382 2.671101 0.065965 -0.023245 414807.000000 0 0 1
-6.833562 -14.093322 -33.152483 36.666148 1.119318 2.700232 0.076741 -0.030698 64471.900000 0 0 1
-7.401262 -13.331322 -34.152861 37.402149 1.063986 2.721683 0.076189 -0.028593 -433797.000000 0 0 1
-7.709262 -11.812122 -33.838233 36.660400 0.992556 2.746650 0.050195 -0.022208 64712.600000 0 0 1
-6.531562 -11.050122 -33.766703 36.124185 1.036958 2.778322 0.043405 -0.023710 -199508.000000 0 0 1
-6.090962 -10.603322 33.366214 35.536383 1.049384 0.351286 0.034321 -0.022744 -263011.000000 0 0 1
-4.994162 -9.549222 33.372236 35.069009 1.088925 0.312343 0.036338 -0.021471 -277011.000000 0 0 1
-4.850962 -8.813722 32.178771 33.714787 1.067656 0.303016 0.034807 -0.019170 -496754.000000 0 0 1
-3.864862 -7.841522 32.263381 33.426821 1.112868 0.264611 0.025485 -0.026148 -874663.000000 0 0 1
-3.745262 -6.844822 31.057401 32.022504 1.070131 0.246134 0.031279 -0.022363 451484.000000 0 0 1
-4.787462 -5.851822 30.976241 31.885594 0.885107 0.239399 0.035130 -0.017419 -193052.000000 0 0 1
-5.922762 -6.344022 30.337571 31.554618 0.819726 0.278640 0.026793 -0.011445 -129151.000000 0 0 1
-7.144262 -5.357722 30.366881 31.652696 0.643459 0.286009 0.023456 -0.009761 941708.000000 0 0 1
-8.322162 -5.933722 29.815941 31.519165 0.619399 0.330247 0.045049 -0.005932 409414.000000 0 0 1
-9.457962 -5.045922 29.845461 31.712236 0.490095 0.344827 0.038440 -0.009468 280347.000000 0 0 1
-10.570962 -5.639222 29.003951 31.381129 0.490059 0.391735 0.047246 -0.009709 -441689.000000 0 0 1
-10.341462 -5.425522 27.584521 29.954765 0.483163 0.400484 0.042668 -0.005831 470052.000000 0 0 1
-11.396762 -6.114922 26.939141 29.883035 0.492458 0.447605 0.051594 -0.012242 72324.800000 0 0 1
-11.352462 -6.184422 25.418841 28.517415 0.498815 0.470494 0.044127 -0.012677 -297088.000000 0 0 1
-10.201662 -6.886222 25.005201 27.870308 0.593756 0.457412 0.036732 -0.008229 143885.000000 0 0 1
-9.630162 -6.242722 23.849271 26.466948 0.575142 0.448505 0.029905 -0.006506 -76488.000000 0 0 1
-10.330762 -6.516222 22.490831 25.593423 0.562730 0.497509 0.025665 -0.011506 1431900.000000 0 0 1
-11.735462 -6.140622 22.473731 26.086335 0.482077 0.532553 0.037633 -0.009049 1272740.000000 0 0 1
-12.381862 -6.221122 21.225031 25.347876 0.465596 0.578380 0.034380 -0.015666 -81646.000000 0 0 1
-13.474962 -5.152722 21.081831 25.545425 0.365236 0.600119 0.033712 -0.010788 -228096.000000 0 0 1
-13.015162 -3.816522 20.850231 24.873528 0.285240 0.576731 0.019274 -0.005364 -227810.000000 0 1 0
-14.080762 -2.907222 20.885231 25.355723 0.203607 0.602910 0.026323 -0.004849 -131665.000000 0 0 1
-13.839562 -1.468222 20.313131 24.623413 0.105693 0.600679 0.024788 -0.003091 -210260.000000 0 1 0
-12.933162 -0.668222 21.001431 24.673332 0.051621 0.552568 0.020380 -0.004330 -302788.000000 0 1 0
-13.265662 0.715778 20.771331 24.656405 -0.053905 0.569016 0.021710 -0.011798 -85132.400000 0 1 0
-12.800162 1.463778 19.477631 23.353049 -0.113862 0.584386 0.040441 -0.015204 259669.000000 0 1 0
-13.415462 1.079778 18.205331 22.640111 -0.080314 0.636605 0.044118 -0.012897 957631.000000 0 1 0
-14.780562 1.528778 18.112031 23.427502 -0.103065 0.687067 0.045637 -0.015248 958404.000000 0 1 0
-15.619762 0.671778 17.079931 23.154963 -0.042982 0.741234 0.060694 -0.015610 105013.000000 0 1 0
-15.955562 -0.523222 17.706731 23.840764 0.032781 0.733691 0.041394 -0.013316 1037250.000000 0 1 0
-16.938662 -1.248222 16.897831 23.958569 0.073558 0.787959 0.046131 -0.000691 795926.000000 0 1 0
-16.922362 -2.743222 17.390731 24.419851 0.160708 0.778232 0.048671 0.004090 64359.500000 0 1 0
-17.516962 -2.965222 18.664631 25.768294 0.167688 0.760741 0.039442 0.002270 164682.000000 0 0 1
-17.391962 -4.330622 18.928231 26.067462 0.244039 0.758127 0.041877 -0.000025 76741.200000 0 0 1
-18.243562 -4.817722 20.150531 27.605831 0.258184 0.752566 0.031742 0.002410 -323463.000000 0 0 1
-17.832262 -4.318222 21.420331 28.204028 0.237584 0.708286 0.025936 0.001384 105778.000000 0 0 1
-18.745462 -4.551622 22.474231 29.617574 0.238202 0.709306 0.032088 -0.004211 -640798.000000 0 0 1
-18.915462 -6.002922 23.029931 30.400781 0.307302 0.711254 0.047350 -0.008382 747226.000000 0 0 1
-17.779162 -6.551822 23.755121 30.386358 0.353070 0.673298 0.050870 -0.015424 1436770.000000 0 0 1
-16.656962 -6.849522 22.898831 29.132916 0.390133 0.666464 0.035944 -0.016715 842847.000000 0 0 1
-15.393262 -7.422422 23.651631 29.179522 0.449295 0.625696 0.038209 -0.017546 703291.000000 0 0 1
-15.606862 -8.722822 24.089711 29.999599 0.509658 0.638482 0.043889 -0.019760 134636.000000 0 0 1
-14.691962 -9.101922 25.127391 30.497287 0.554647 0.602499 0.063830 -0.015355 146828.000000 0 0 1
-15.283962 -9.803622 26.309621 31.967275 0.570328 0.604094 0.056515 -0.023852 -203337.000000 0 0 1
-15.459062 -11.201722 26.154491 32.380837 0.627050 0.630530 0.050016 -0.029968 13789.800000 0 0 1
-14.778162 -11.881322 27.202451 33.159210 0.677162 0.608758 0.057262 -0.031377 70858.400000 0 0 1
-14.867462 -13.376922 26.964941 33.572184 0.732674 0.638160 0.037466 -0.030453 378373.000000 0 0 1
-16.165862 -13.936522 27.179151 34.558183 0.711475 0.665715 0.043487 -0.032280 436784.000000 0 0 1
-16.260262 -15.336722 26.852001 34.937675 0.756178 0.694196 0.044115 -0.027632 -195060.000000 0 0 1
-15.432162 -16.361322 27.692141 35.674909 0.814615 0.682123 0.041388 -0.026957 569945.000000 0 0 1
-14.086562 -16.376122 27.239071 34.764574 0.860417 0.670470 0.057440 -0.030214 426454.000000 0 0 1
-13.130262 -17.040122 28.024921 35.329389 0.914273 0.654674 0.065658 -0.029630 199930.000000 0 0 1
-11.774762 -17.387122 27.387591 34.511407 0.975529 0.654125 0.066384 -0.030055 -84386.900000 0 0 1
-10.813062 -17.890222 28.288181 35.173904 1.027139 0.636405 0.088986 -0.033359 -202699.000000 0 0 1
-9.737762 -18.369122 27.510861 34.483273 1.083347 0.647154 0.079294 -0.024550 472281.000000 0 0 1
-8.672162 -19.213322 28.331811 35.313590 1.146810 0.639671 0.099557 -0.031039 664537.000000 0 0 1
-9.179162 -20.469122 28.738971 36.457790 1.149241 0.662787 0.097303 -0.021167 719289.000000 0 0 1
-8.286762 -21.046622 29.735981 37.361200 1.195704 0.650295 0.087372 -0.024092 621315.000000 0 0 1
-8.683762 -22.500022 30.191691 38.641906 1.202465 0.674018 0.080910 -0.027798 -182611.000000 0 0 1
-8.494262 -23.492422 29.197361 38.425672 1.223848 0.707729 0.090794 -0.023855 47025.600000 0 0 1
-8.507462 -24.752622 29.838061 39.691046 1.239745 0.720072 0.089743 -0.023556 -208388.000000 0 0 1
-8.715862 -26.053322 28.966261 39.922251 1.247961 0.758939 0.087918 -0.019556 464954.000000 0 0 1
-10.025662 -26.173322 28.380611 39.887539 1.204988 0.779143 0.074720 -0.016711 825057.000000 0 0 1
-10.254262 -27.355322 27.574211 40.172138 1.212153 0.814267 0.077102 -0.011678 980555.000000 0 0 1
-11.694762 -27.467922 26.899121 40.184785 1.168282 0.837415 0.080942 -0.014590 1095080.000000 0 0 1
-11.883562 -26.874122 25.617251 38.983087 1.154453 0.853781 0.077709 -0.015730 174670.000000 0 0 1
-11.821762 -25.474222 25.585461 37.990866 1.136306 0.831912 0.064068 -0.002459 -356201.000000 0 0 1
-12.223762 -24.949822 24.189621 36.838183 1.115234 0.854434 0.066734 -0.020507 1300160.000000 0 0 1
-13.619762 -25.010422 23.795131 37.111014 1.072137 0.874751 0.057122 -0.012253 1204350.000000 0 0 1
-13.658862 -24.605922 22.470331 36.012938 1.064042 0.897007 0.062740 -0.012535 62572.700000 0 0 1
-15.017662 -24.804422 21.756731 36.251136 1.026384 0.927087 0.050089 -0.011969 -248019.000000 0 0 1
-15.251462 -26.141122 21.391431 37.061553 1.042651 0.955517 0.068357 -0.011222 -1028970.000000 0 0 1
-16.363262 -26.120722 20.614531 37.081092 1.011157 0.981314 0.058673 -0.013689 -1087610.000000 0 0 1
-16.715062 -27.514322 20.015431 37.908425 1.024877 1.014559 0.067966 -0.022534 -23235.900000 0 0 1
-15.679162 -27.973622 19.198331 37.375601 1.059929 1.031352 0.072892 -0.022193 -33227.300000 0 0 1
-16.049862 -29.240522 18.675431 38.227973 1.068805 1.060395 0.092313 -0.019110 263164.000000 0 0 1
-14.964062 -29.837322 17.770931 37.815274 1.105932 1.081573 0.098464 -0.032985 15211.000000 0 0 1
-15.216462 -29.400122 16.460631 36.971073 1.093196 1.109365 0.087306 -0.037224 383404.000000 0 0 1
-14.106562 -29.592422 15.583131 36.297941 1.125966 1.127066 0.105836 -0.040237 369410.000000 0 0 1
-14.369462 -28.902122 14.229031 35.274345 1.109410 1.155587 0.066282 -0.030230 -259514.000000 0 0 1
-14.203662 -27.485822 14.226731 34.053110 1.093828 1.139795 0.066936 -0.030734 -118554.000000 0 0 1
-14.388362 -26.858622 12.972231 33.116300 1.078993 1.168299 0.056244 -0.022483 78155.500000 0 0 1
-13.419562 -27.220922 11.820331 32.569671 1.112775 1.199392 0.054332 -0.014765 120252.000000 0 0 1
-13.696762 -26.489622 10.648131 31.665187 1.093593 1.227840 0.036820 -0.011970 91933.600000 0 0 1
-12.807462 -26.869922 9.609531 31.278857 1.126005 1.258525 0.043480 -0.012273 196717.000000 0 0 1
-13.232762 -26.256722 8.206431 30.526496 1.103973 1.298618 0.039384 -0.004157 -282119.000000 0 0 1
-14.522662 -26.619522 7.815631 31.314386 1.071365 1.318544 0.038544 -0.009915 -615868.000000 0 0 1
-14.641862 -26.011922 6.550931 30.560087 1.058110 1.354757 0.037793 -0.013996 36146.300000 0 0 1
-15.537662 -26.567022 5.412431 31.249320 1.041593 1.396717 0.043187 -0.019139 -257478.000000 0 0 1
-15.083962 -27.689522 4.784831 31.892478 1.071990 1.420198 0.045006 -0.018099 -200470.000000 0 0 1
-15.762462 -27.831622 3.552431 32.181892 1.055486 1.460185 0.061932 -0.018068 45960.200000 0 0 1
-15.260162 -29.039922 2.709931 32.917068 1.086966 1.488377 0.061930 -0.018298 618312.000000 0 0 1
-13.935662 -28.855522 2.199131 32.119776 1.120885 1.502276 0.051291 -0.013727 178844.000000 0 0 1
-13.424662 -29.972422 1.522231 32.876813 1.149690 1.524479 0.062748 -0.009858 49183.700000 0 0 1
-12.061062 -29.659422 0.878131 32.030012 1.184569 1.543377 0.056694 -0.012768 -65756.900000 0 0 1
-12.106162 -28.752722 -0.245369 31.198372 1.172281 1.578661 0.059815 -0.014642 -165232.000000 0 0 1
-12.217362 -27.358722 0.029931 29.962719 1.150805 1.569797 0.053990 -0.017312 -198671.000000 0 0 1
-11.947862 -26.498122 -1.241269 29.093687 1.147199 1.613474 0.054349 -0.008993 925010.000000 0 0 1
-10.594062 -26.697622 -1.680869 28.771905 1.193037 1.629250 0.051504 -0.014374 292080.000000 0 0 1
-10.328862 -25.963422 -2.840069 28.086486 1.192168 1.672088 0.067940 -0.017666 405169.000000 0 0 1
-8.981862 -26.319822 -3.517969 28.031821 1.241930 1.696627 0.052594 -0.020948 249117.000000 0 0 1
-8.593962 -25.410422 -4.569769 27.210816 1.244667 1.739535 0.050611 -0.024754 -176885.000000 0 0 1
-7.385762 -25.903022 -5.128069 27.419211 1.293036 1.758929 0.047985 -0.018085 655929.000000 0 0 1
-6.612262 -24.853622 -6.032969 26.416307 1.310771 1.801210 0.037793 -0.019848 513565.000000 0 0 1
-7.025262 -24.834522 -7.430669 26.857450 1.295116 1.851124 0.050241 -0.014782 86353.900000 0 0 1
-6.377762 -23.739922 -8.048469 25.865761 1.308342 1.887213 0.047536 -0.013036 -122946.000000 0 0 1
-6.447762 -23.631922 -9.600269 26.309818 1.304438 1.944314 0.050263 -0.015995 -320350.000000 0 0 1
-5.842262 -24.709622 -10.262569 27.386452 1.338623 1.954904 0.046599 -0.019448 -248512.000000 0 0 1
-5.969962 -24.794822 -11.654269 28.040072 1.334519 1.999431 0.040151 -0.007704 -377874.000000 0 0 1
-7.375362 -25.205822 -12.096669 28.914682 1.286137 2.002432 0.042274 -0.017358 -195008.000000 0 0 1
-7.630862 -25.178622 -13.518669 29.579511 1.276526 2.045447 0.046718 -0.017063 -47155.000000 0 0 1
-8.750062 -25.940422 -13.924769 30.714301 1.245468 2.041333 0.052176 -0.018825 -442536.000000 0 0 1
-8.873762 -26.029622 -15.505469 31.570626 1.242242 2.084190 0.061219 -0.022361 126088.000000 0 0 1
-7.846062 -26.783322 -16.108069 32.223856 1.285824 2.094257 0.052896 -0.026757 13670.800000 0 0 1
-6.592462 -26.150922 -16.227569 31.474836 1.323849 2.112472 0.058318 -0.022686 -484037.000000 0 0 1
-5.502262 -27.087722 -16.737569 32.313554 1.370395 2.115277 0.047083 -0.021509 -602433.000000 0 0 1
-5.628962 -27.293222 -18.138169 33.250539 1.367408 2.147782 0.071655 -0.022751 509859.000000 0 0 1
-4.499962 -27.838222 -18.843269 33.915853 1.410536 2.159867 0.057261 -0.025981 324186.000000 0 0 1
-25.209062 14.740310 -5.961063 29.804493 -0.529110 1.772160 0.078175 -0.018260 -6430.210000 0 0 1
-25.231252 13.533710 -5.225463 29.104688 -0.492332 1.751315 0.065964 -0.019333 94463.900000 0 0 1
-23.965662 12.924010 -5.106163 27.702994 -0.494569 1.756174 0.087020 -0.026452 -375080.000000 0 0 1
-23.991162 11.464710 -4.509063 26.969373 -0.445789 1.738777 0.087141 -0.032756 -53016.700000 0 0 1
-24.537862 10.409810 -5.288663 27.174267 -0.401222 1.766667 0.090748 -0.020965 342259.000000 0 0 1
-25.940832 10.356010 -5.456963 28.459658 -0.379831 1.763735 0.086911 -0.021144 -128488.000000 0 0 1
-26.260052 9.623610 -6.738763 28.768301 -0.351274 1.807236 0.101900 -0.022267 -238603.000000 0 0 1
-25.977422 10.427110 -7.883663 29.080977 -0.381705 1.845325 0.130373 -0.019925 127537.000000 0 0 1
-26.264222 9.864310 -9.131663 29.504258 -0.359279 1.885467 0.130758 -0.014822 -141110.000000 0 0 1
-26.946192 10.812410 -10.131563 30.751488 -0.381591 1.906534 0.106648 -0.012918 534205.000000 0 0 1
-26.003852 11.735710 -10.724263 30.478468 -0.423940 1.930358 0.130669 -0.018652 406933.000000 0 0 1
-26.617362 12.555810 -11.635663 31.646816 -0.440765 1.947301 0.119291 -0.027896 -416695.000000 0 0 1
-25.686372 13.542610 -12.348863 31.554499 -0.485193 1.972895 0.101755 -0.024428 -25668.300000 0 0 1
-25.253162 14.570110 -11.457163 31.325339 -0.523307 1.945232 0.106074 -0.023285 279985.000000 0 0 1
-24.587362 15.649410 -12.131663 31.569283 -0.566813 1.965232 0.096932 -0.025046 138259.000000 0 0 1
-24.497962 16.868210 -11.199563 31.782335 -0.603004 1.930913 0.107030 -0.026463 887530.000000 0 0 1
-23.230362 16.951610 -10.506563 30.616901 -0.630394 1.921078 0.087776 -0.021170 1021750.000000 0 0 1
-23.223062 18.253310 -9.846363 31.135908 -0.666145 1.892558 0.045320 -0.010793 42283.900000 0 0 1
-22.040862 18.602310 -8.919163 30.189352 -0.700996 1.870713 0.040029 -0.009741 -246307.000000 0 0 1
-22.170462 18.029610 -7.623763 29.575631 -0.682754 1.831512 0.056864 -0.014140 324277.000000 0 0 1
-22.946962 18.696210 -6.644163 30.335725 -0.683675 1.791607 0.045894 -0.011299 -258382.000000 0 0 1
-23.268262 17.970310 -5.346163 29.881859 -0.657627 1.750675 0.042067 -0.007881 -6427.920000 0 0 1
-22.237462 17.905310 -4.367963 28.882242 -0.677896 1.722612 0.036135 -0.019497 482190.000000 0 0 1
-22.651062 17.236910 -3.146163 28.637039 -0.650489 1.680882 0.031028 -0.017769 87953.900000 0 0 1
-21.430562 17.117010 -2.205863 27.515938 -0.673960 1.651049 0.023844 -0.026171 99485.000000 0 0 1
-20.969462 18.379010 -1.805263 27.942178 -0.719659 1.635448 0.024962 -0.027209 194961.000000 0 0 1
-19.747062 18.325710 -1.092063 26.962394 -0.748083 1.611311 0.049816 -0.036910 -9228.170000 0 0 1
-19.372662 19.708010 -0.523163 27.640177 -0.793979 1.589725 0.056424 -0.043284 -761107.000000 0 0 1
-20.401262 20.268310 0.220137 28.758726 -0.782129 1.563142 0.054444 -0.027003 -187741.000000 0 0 1
-20.139662 21.632210 0.490937 29.560100 -0.821114 1.554187 0.065230 -0.031018 520345.000000 0 0 1
-21.201562 22.163310 1.522337 30.708892 -0.807573 1.521203 0.035176 -0.029102 424372.000000 0 0 1
-20.941462 21.768710 2.844637 30.339966 -0.804765 1.476900 0.054510 -0.028427 286381.000000 0 0 1
-22.106762 21.932710 3.636837 31.352500 -0.781446 1.454536 0.028461 -0.026253 207050.000000 0 0 1
-21.845462 21.597710 5.149937 31.148148 -0.779695 1.404697 0.046618 -0.027819 -55234.700000 0 0 1
-21.013062 22.517010 5.847137 31.348900 -0.819934 1.383179 0.044958 -0.022343 106513.000000 0 0 1
-20.414862 21.980410 7.028537 30.810799 -0.822309 1.340651 0.048400 -0.016621 224785.000000 0 0 1
-21.258962 21.865910 8.348637 31.619001 -0.799471 1.303589 0.041014 -0.031410 -674592.000000 0 0 1
-22.445562 21.152010 8.192037 31.911130 -0.755737 1.311176 0.052087 -0.027642 107236.000000 0 0 1
-22.973362 20.408410 9.310737 32.108696 -0.726342 1.276595 0.074319 -0.023958 63141.100000 0 0 1
-23.505762 21.227810 10.508837 33.370292 -0.734519 1.250428 0.081956 -0.025301 284190.000000 0 0 1
-24.658862 21.995010 10.076337 34.545224 -0.728362 1.274808 0.090055 -0.026847 1027980.000000 0 0 1
-25.218672 22.712110 11.157837 35.725602 -0.733150 1.253162 0.102699 -0.022432 -142186.000000 0 0 1
-26.419002 23.627610 10.883037 37.076517 -0.729680 1.272880 0.098632 -0.029656 -126596.000000 0 0 1
-27.019722 24.164110 12.027437 38.191999 -0.729665 1.250424 0.096444 -0.020213 43751.600000 0 0 1
-27.485462 25.480410 11.851837 39.308624 -0.747561 1.264523 0.093014 -0.020855 -56200.200000 0 0 1
-27.794562 26.215810 13.137837 40.403083 -0.756176 1.239606 0.110159 -0.023394 318393.000000 0 0 1
-26.700542 26.148610 14.050637 39.926046 -0.774955 1.211178 0.091397 -0.017384 361232.000000 0 0 1
-27.040132 26.828110 15.214837 41.017161 -0.781462 1.190777 0.094174 -0.016755 323984.000000 0 0 1
-25.873322 26.880410 16.239437 40.690349 -0.804486 1.160263 0.083244 -0.016716 187274.000000 0 0 1
-25.601672 25.650610 16.876437 39.977663 -0.786353 1.134984 0.086890 -0.010010 487120.000000 0 0 1
-24.416462 25.760010 17.672937 39.649394 -0.812168 1.108806 0.075923 -0.012155 225707.000000 0 0 1
-24.045662 24.475710 18.422937 38.944304 -0.794261 1.078037 0.082135 -0.003577 -332956.000000 0 0 1
-22.821262 24.384010 19.091937 38.469364 -0.818491 1.051477 0.072490 -0.010370 -45938.600000 0 0 1
-22.483162 23.048710 19.534937 37.660979 -0.797818 1.025461 0.073584 -0.008814 534289.000000 0 0 1
-21.007862 22.992310 20.058037 37.044587 -0.830469 0.998628 0.046101 -0.012675 809670.000000 0 0 1
-20.052862 22.957110 18.965837 35.900545 -0.852821 1.014213 0.043783 -0.018931 13889.800000 0 0 1
-18.730462 22.683610 19.290137 35.177916 -0.880564 0.990395 0.028234 -0.019006 -603727.000000 0 0 1
-18.477662 21.141510 19.286037 34.063744 -0.852533 0.968938 0.031916 -0.003318 -611365.000000 0 0 1
-19.045162 20.521610 20.408137 34.646020 -0.822696 0.940917 0.050700 -0.000522 -336198.000000 0 0 1
-18.194062 20.546810 21.509437 34.869057 -0.846054 0.906045 0.053012 -0.003182 -744139.000000 0 0 1
-18.871762 20.336010 22.829637 35.928944 -0.822727 0.882256 0.035698 0.000992 -68582.000000 0 0 1
-19.768462 21.443810 23.016137 37.153353 -0.826027 0.902703 0.016694 0.000058 71150.900000 0 0 1
-20.568162 21.257310 24.157737 38.190559 -0.801873 0.885945 0.032269 0.005492 184208.000000 0 0 1
-21.743162 22.245110 24.363137 39.511675 -0.796809 0.906372 0.027441 0.005131 -447707.000000 0 0 1
-21.308462 23.592210 24.476437 40.121551 -0.836217 0.914664 0.029614 -0.003415 -410710.000000 0 0 1
-22.248362 24.555310 24.861737 41.425340 -0.834648 0.927098 0.030155 -0.001995 -662320.000000 0 0 1
-23.377762 24.875510 23.888537 41.665009 -0.816428 0.960210 0.036348 -0.008715 -528840.000000 0 0 1
-24.296862 23.849310 23.670237 41.465735 -0.776103 0.963270 0.045970 -0.007480 -649027.000000 0 0 1
-25.068132 24.175610 22.546637 41.487615 -0.767276 0.996249 0.048181 -0.008602 -406357.000000 0 0 1
-25.982912 23.053610 22.104237 41.172539 -0.725732 1.004075 0.064607 -0.002261 -446347.000000 0 0 1
-27.279502 23.106810 22.630937 42.311407 -0.702773 1.006447 0.087801 -0.015099 -320979.000000 0 0 1
-28.095552 22.071310 22.123437 42.023199 -0.665886 1.016368 0.092894 -0.015102 34262.900000 0 0 1
-29.589312 22.220110 22.471437 43.292334 -0.644109 1.025042 0.095550 -0.014620 -438002.000000 0 0 1
-30.176922 23.269410 21.729337 43.866572 -0.656869 1.052558 0.099381 -0.017270 429025.000000 0 0 1
-31.578672 23.438610 21.908737 45.017482 -0.638509 1.062521 0.107005 -0.027999 232854.000000 0 0 1
-32.516922 22.562710 21.101637 44.852036 -0.606604 1.080970 0.100778 -0.037369 -1058540.000000 0 0 1
-32.882232 21.328410 21.707037 44.803322 -0.575412 1.065009 0.100345 -0.029003 475246.000000 0 0 1
-33.663512 20.424610 20.941637 44.597633 -0.545352 1.081995 0.093318 -0.020390 252796.000000 0 0 1
-35.139948 20.732310 20.615937 45.712815 -0.533029 1.102924 0.097068 -0.031505 -273488.000000 0 0 1
-35.678118 19.867610 19.666637 45.325783 -0.508092 1.121985 0.100529 -0.026644 -59666.600000 0 0 1
35.726161 20.072010 19.479337 45.372775 0.511880 1.127059 0.112354 -0.037283 150397.000000 0 0 1
35.196941 19.343810 18.223937 44.103509 0.502527 1.144822 0.122243 -0.026994 75195.000000 0 0 1
35.464081 17.929210 18.319237 43.757880 0.468085 1.138838 0.125291 -0.041085 389221.000000 0 0 1
34.679891 17.197610 17.389637 42.436448 0.460359 1.148583 0.135586 -0.047440 146346.000000 0 0 1
35.029141 15.711510 17.459037 42.174758 0.421628 1.143987 0.128082 -0.056211 -206116.000000 0 0 1
34.298071 14.890610 16.598437 40.909608 0.409598 1.153014 0.143648 -0.058212 145531.000000 0 0 1
34.918301 13.637710 16.348937 40.896976 0.372342 1.159542 0.126911 -0.054111 179329.000000 0 0 1
33.871651 12.812010 15.580137 39.423052 0.361618 1.164507 0.111826 -0.050920 41688.000000 0 0 1
33.641981 13.198210 14.239737 38.842577 0.373863 1.195443 0.110877 -0.039869 208220.000000 0 0 1
33.010801 12.158910 13.534837 37.692757 0.352911 1.203511 0.115955 -0.027879 -340921.000000 0 0 1
32.972871 12.465510 12.066237 37.258465 0.361445 1.240998 0.118673 -0.027866 498012.000000 0 0 1
34.257341 12.495210 11.423037 38.212321 0.349750 1.267219 0.107666 -0.022871 852798.000000 0 0 1
34.160131 12.536810 10.034437 37.746206 0.351740 1.301722 0.100234 -0.015529 -847206.000000 0 0 1
35.537461 12.829310 9.481537 38.953843 0.346448 1.324922 0.072134 -0.007958 -1075220.000000 0 0 1
-36.370172 11.779510 9.695737 39.440507 -0.313217 1.322418 0.105681 -0.023818 -80646.300000 0 0 1
-35.022997 11.919110 9.290537 38.144325 -0.328027 1.324759 0.120663 -0.017120 9266.670000 0 0 1
-34.733899 11.696710 7.825837 37.476666 -0.324824 1.360429 0.127400 -0.033499 -832141.000000 0 0 1
-35.147182 12.779110 7.101337 38.066508 -0.348729 1.383146 0.118980 -0.034276 67401.900000 0 0 1
-34.752615 12.609910 5.750037 37.414128 -0.348074 1.416499 0.124164 -0.043917 -65723.200000 0 0 1
-35.710382 13.321510 4.740837 38.407936 -0.357054 1.447047 0.128255 -0.047042 40450.400000 0 0 1
35.815241 12.646310 4.716837 38.274132 0.339433 1.447244 0.124011 -0.040365 710667.000000 0 0 1
34.724231 13.579010 4.613437 37.569210 0.372770 1.447687 0.122524 -0.036897 429590.000000 0 0 1
34.394331 14.469410 5.783437 37.759528 0.398216 1.417026 0.100164 -0.016783 -1370930.000000 0 0 1
33.595291 15.621710 5.459137 37.449747 0.435255 1.424503 0.077392 -0.020050 586741.000000 0 0 1
32.981461 16.243010 6.633037 37.357855 0.457621 1.392296 0.059873 -0.012890 286741.000000 0 0 1
31.735421 15.531910 7.175837 36.053707 0.455147 1.370426 0.090320 -0.005018 -739243.000000 0 0 1
32.046581 14.282310 7.822637 35.946646 0.419250 1.351423 0.107654 -0.008951 -796596.000000 0 0 1
30.971301 13.538610 8.252137 34.793868 0.412103 1.331342 0.104632 -0.017177 -993252.000000 0 0 1
30.732771 12.232910 7.441437 33.904606 0.378817 1.349513 0.115422 -0.011908 -179055.000000 0 0 1
30.282181 12.395710 6.133037 33.290814 0.388532 1.385512 0.104720 -0.023527 145873.000000 0 0 1
30.539981 11.240010 5.397337 32.987263 0.352657 1.406439 0.128728 -0.029101 -96064.400000 0 0 1
30.176941 11.474310 3.890537 32.518362 0.363352 1.450868 0.111761 -0.041611 434100.000000 0 0 1
28.764541 11.461210 3.714437 31.185817 0.379169 1.451406 0.079734 -0.039402 435509.000000 0 0 1
28.504721 11.497410 2.310137 30.822821 0.383392 1.495777 0.098530 -0.040295 -707867.000000 0 0 1
27.016101 11.448410 2.009337 29.410428 0.400822 1.502422 0.104019 -0.022248 -712742.000000 0 0 1
26.575301 10.133710 1.888137 28.504452 0.364300 1.504508 0.067822 -0.020693 827564.000000 0 0 1
25.153901 10.024510 1.705437 27.131496 0.379236 1.507897 0.055782 -0.018876 636931.000000 0 0 1
24.693001 8.515410 1.534437 26.165072 0.332081 1.512118 0.051955 -0.018547 -94320.600000 0 0 1
25.118501 7.661710 2.590937 26.388518 0.296058 1.472454 0.066019 -0.019197 846365.000000 0 0 1
26.464101 7.214110 2.472137 27.540942 0.266133 1.480913 0.093453 -0.025534 322351.000000 0 0 1
27.072101 6.459710 3.738237 28.082039 0.234232 1.437282 0.091143 -0.032169 104250.000000 0 0 1
28.488351 6.452010 3.700837 29.443349 0.222722 1.444769 0.113138 -0.031550 319254.000000 0 0 1
28.973001 5.806110 4.820337 29.939629 0.197778 1.409091 0.103060 -0.026840 8764.820000 0 0 1
30.502961 5.822010 5.062737 31.463594 0.188599 1.409186 0.103634 -0.027769 204066.000000 0 0 1
31.027101 7.013210 5.618937 32.302300 0.222299 1.395958 0.119563 -0.029988 279018.000000 0 0 1
32.382511 6.854810 6.028137 33.644522 0.208603 1.390652 0.093132 -0.018629 274703.000000 0 0 1
32.916271 7.900210 6.994637 34.566156 0.235554 1.367034 0.085294 -0.016266 -184527.000000 0 0 1
32.346141 7.836910 8.266237 34.293158 0.237702 1.327353 0.085034 -0.017404 -294132.000000 0 0 1
32.884351 8.794010 9.058837 35.224674 0.261308 1.310701 0.096948 -0.017626 -429872.000000 0 0 1
32.404541 8.842910 10.550737 35.207519 0.266404 1.266447 0.082161 -0.013240 194452.000000 0 0 1
31.052761 9.247310 10.731337 34.131339 0.289431 1.250958 0.083871 -0.013213 421361.000000 0 0 1
30.556301 8.888810 12.009137 34.013495 0.283087 1.209946 0.075326 -0.017632 240431.000000 0 0 1
29.144301 9.454910 12.341537 33.031790 0.313705 1.187881 0.070615 -0.018804 -27242.600000 0 0 1
29.078631 10.873410 12.470237 33.456011 0.357833 1.188841 0.089222 -0.031353 222258.000000 0 0 1
29.158971 11.683510 11.273337 33.374214 0.381095 1.226233 0.091078 -0.031197 -318352.000000 0 0 1
27.898251 11.649510 10.374137 31.963201 0.395562 1.240245 0.068442 -0.024240 -223483.000000 0 0 1
28.030001 12.652310 9.386937 32.153950 0.424005 1.274545 0.049876 -0.005924 -283790.000000 0 0 1
26.907001 12.853910 8.592637 31.032936 0.445662 1.290243 0.056399 -0.014767 -664843.000000 0 0 1
26.928301 14.150210 7.707837 31.381087 0.483821 1.322637 0.051664 -0.013286 -100205.000000 0 0 1
26.950101 15.259510 8.561837 32.132004 0.515206 1.301080 0.050834 -0.001879 344534.000000 0 0 1
27.425701 16.422010 7.891137 32.926001 0.539523 1.328778 0.058786 0.003036 -1338720.000000 0 0 1
27.074301 17.759110 8.635937 33.510941 0.580539 1.310150 0.060549 -0.011984 364664.000000 0 0 1
25.760001 18.281210 8.774537 32.783728 0.617189 1.299844 0.072172 -0.017070 520801.000000 0 0 1
24.700701 17.330410 8.899237 31.458928 0.611810 1.283996 0.092244 -0.016458 -941404.000000 0 0 1
23.384201 18.104510 9.112537 30.945637 0.658822 1.271896 0.097094 -0.023441 -415575.000000 0 0 1
22.695801 18.442210 7.920137 30.297575 0.682366 1.306312 0.104379 -0.030669 -382006.000000 0 0 1
21.656701 19.291110 8.280337 30.161625 0.727691 1.292693 0.159724 -0.043094 -467767.000000 0 0 1
20.830001 19.702710 7.042037 29.524160 0.757593 1.329957 0.130463 -0.032322 -57727.000000 0 0 1
21.566001 20.581010 6.196137 30.447701 0.762032 1.365864 0.088205 -0.017768 454186.000000 0 0 1
20.830701 20.936910 5.025537 29.958777 0.787941 1.402251 0.107269 -0.022568 -28963.400000 0 0 1
18.628938 16.784510 33.297064 41.682749 0.733362 0.645463 0.069268 -0.022236 -668042.000000 0 0 1
17.688338 17.546910 32.633867 41.057772 0.781384 0.652072 0.059262 -0.018907 58536.700000 0 0 1
17.015238 16.695410 31.672921 39.641253 0.775911 0.645184 0.063755 -0.027378 354256.000000 0 0 1
16.298238 17.464510 30.541111 38.773717 0.819928 0.663769 0.060092 -0.026091 -337961.000000 0 0 1
17.218538 17.866610 29.543481 38.581227 0.803867 0.698593 0.053495 -0.013931 -192610.000000 0 0 1
16.642338 18.149010 28.325271 37.532319 0.828677 0.715615 0.055267 -0.019161 -429291.000000 0 0 1
17.656438 18.322610 27.170801 37.225264 0.803912 0.752617 0.043304 -0.012799 171045.000000 0 0 1
18.305138 19.642810 27.239241 38.247801 0.820634 0.778200 0.043525 -0.014349 466846.000000 0 0 1
19.198538 19.852310 26.146391 38.030670 0.802138 0.812744 0.041549 -0.009305 -172293.000000 0 0 1
20.099738 21.070710 26.398021 39.304323 0.808978 0.834388 0.061959 -0.011199 -170493.000000 0 0 1
19.319738 22.287710 26.439071 39.610842 0.856610 0.839990 0.053388 -0.011384 364994.000000 0 0 1
20.028738 23.497810 26.694921 40.815637 0.864930 0.857888 0.075711 -0.019279 -416210.000000 0 0 1
19.157938 24.742510 26.755201 41.171096 0.911928 0.863404 0.082860 -0.022801 -264051.000000 0 0 1
18.984238 25.333010 25.491761 40.644711 0.927687 0.892862 0.078385 -0.018834 307875.000000 0 0 1
17.925438 26.268610 25.375771 40.685267 0.971987 0.897317 0.067572 -0.026699 -95432.100000 0 0 1
17.782638 26.953910 24.010891 40.240009 0.987603 0.931424 0.044677 -0.021440 -58001.900000 0 0 1
18.813338 27.907310 23.765971 41.201711 0.977640 0.955966 0.089953 -0.028948 248230.000000 0 0 1
18.497938 28.740010 22.690731 41.024763 0.998912 0.984718 0.088985 -0.026895 140523.000000 0 0 1
19.628638 29.780810 22.419331 42.128452 0.988048 1.009639 0.100568 -0.029206 369125.000000 0 0 1
20.816738 29.266910 21.868231 42.048878 0.952545 1.023867 0.102109 -0.035681 556277.000000 0 0 1
21.903538 30.229510 21.922431 43.291815 0.943767 1.039806 0.122184 -0.042060 1042040.000000 0 0 1
22.655338 30.297910 20.556531 43.055762 0.928735 1.073058 0.146982 -0.043134 -8096.670000 0 0 1
21.978838 31.073510 19.598931 42.810635 0.955176 1.095271 0.103941 -0.033444 98175.200000 0 0 1
22.601838 31.073710 18.321031 42.568518 0.941942 1.125872 0.104804 -0.016836 187961.000000 0 0 1
22.049138 32.267810 17.430131 42.792353 0.971355 1.151280 0.102198 -0.024541 238149.000000 0 0 1
22.682138 33.551910 17.752631 44.219520 0.976339 1.157679 0.115722 -0.023849 446422.000000 0 0 1
22.901438 -33.967922 16.668831 44.228334 -0.977591 1.184369 0.110051 -0.019814 411720.000000 0 0 1
24.037238 34.031210 15.645931 44.505137 0.955835 1.211566 0.093395 -0.020997 142758.000000 0 0 1
23.737938 32.960110 14.773531 43.221705 0.946640 1.221956 0.105422 -0.032847 150332.000000 0 0 1
22.648738 33.197910 13.887231 42.519663 0.972094 1.238085 0.078520 -0.027679 174535.000000 0 0 1
22.146038 31.893610 13.253831 41.028202 0.963857 1.241854 0.076085 -0.037003 587041.000000 0 0 1
23.136238 31.304310 12.346131 40.837143 0.934324 1.263664 0.092519 -0.047875 715933.000000 0 0 1
22.636938 30.149810 11.666631 39.465837 0.926774 1.270699 0.090755 -0.049698 -1957860.000000 0 0 1
23.542538 29.432610 10.654931 39.167042 0.896129 1.295286 0.086606 -0.048128 679086.000000 0 0 1
24.709138 28.749810 11.163431 39.518543 0.860839 1.284412 0.086772 -0.042061 1012590.000000 0 0 1
25.622738 29.645710 11.799231 40.922056 0.858060 1.278310 0.084965 -0.038396 -1361830.000000 0 0 1
27.001938 29.017810 12.113231 41.447175 0.821368 1.274210 0.091017 -0.037106 87079.000000 0 0 1
27.044238 28.012010 13.080731 41.075163 0.802974 1.246694 0.089141 -0.032803 404739.000000 0 0 1
28.401438 27.729210 13.424731 41.901959 0.773423 1.244661 0.072578 -0.020268 543353.000000 0 0 1
28.631138 26.649210 14.453931 41.699383 0.749561 1.216829 0.061631 -0.031417 -510684.000000 0 0 1
29.932438 26.722810 14.941531 42.817155 0.728807 1.214334 0.057648 -0.032058 -372650.000000 0 0 1
30.291038 25.706010 15.904431 42.793654 0.703701 1.190006 0.065504 -0.034958 -204562.000000 0 0 1
31.465138 26.054010 16.813331 44.176401 0.691599 1.180356 0.063795 -0.037751 156889.000000 0 0 1
32.719738 26.069410 16.115631 44.832008 0.672755 1.203100 0.063574 -0.034891 57349.300000 0 0 1
33.713438 26.282110 17.094531 46.038768 0.662161 1.190380 0.056684 -0.032708 883142.000000 0 0 1
35.147838 26.481110 16.457931 46.983861 0.645687 1.212917 0.071667 -0.040748 960973.000000 0 0 1
35.254838 27.734510 15.842531 47.571971 0.666570 1.231289 0.059104 -0.028512 -314872.000000 0 0 1
-36.228225 27.960610 15.371131 48.275788 -0.657302 1.246753 0.082326 -0.031575 4297.590000 0 0 1
-36.115525 29.105610 14.329531 48.546917 -0.678330 1.271164 0.056099 -0.024726 21662.800000 0 0 1
36.228338 30.332310 14.903031 49.544342 0.697047 1.265263 0.051301 -0.032280 166840.000000 0 0 1
36.138538 31.405810 14.011831 49.886373 0.715444 1.286091 0.043560 -0.024043 -321559.000000 0 0 1
35.306938 32.543310 14.580031 50.181911 0.744689 1.276001 0.033232 -0.027767 -856748.000000 0 0 1
35.376338 33.711010 13.748831 50.763647 0.761298 1.296531 0.004404 -0.033732 314247.000000 0 0 1
34.387538 -33.729522 14.088531 50.186354 -0.775738 1.286248 0.009137 -0.022733 128676.000000 0 0 1
32.996138 -33.978222 13.470231 49.241363 -0.800061 1.293709 0.050146 -0.022379 45006.800000 0 0 1
32.255238 33.451510 14.245831 48.603987 0.803602 1.273329 0.043493 -0.027281 -108308.000000 0 0 1
31.194238 32.845010 13.554931 47.282252 0.811170 1.280036 0.059205 -0.025285 -339954.000000 0 0 1
30.625638 31.583010 14.326531 46.267329 0.800787 1.255975 0.085035 -0.042607 -515809.000000 0 0 1
29.750938 31.941310 15.333031 46.265186 0.820888 1.232992 0.093346 -0.036609 -332475.000000 0 0 1
29.507538 30.845110 16.171931 45.646982 0.807557 1.208650 0.089710 -0.043205 -343236.000000 0 0 1
28.440438 30.975010 17.265731 45.457840 0.828031 1.181196 0.100433 -0.039724 -158772.000000 0 0 1
28.307438 29.852110 18.146431 44.963902 0.811951 1.155372 0.099197 -0.037682 88346.600000 0 0 1
29.160038 29.965610 19.271331 46.039437 0.799022 1.138912 0.099724 -0.036345 96612.300000 0 0 1
28.913338 28.809610 20.320231 45.594808 0.783601 1.108874 0.099685 -0.039494 293721.000000 0 0 1
27.648138 28.917910 20.967531 45.169707 0.807842 1.088071 0.116900 -0.043342 403670.000000 0 0 1
27.691138 28.331110 22.310331 45.466491 0.796821 1.057905 0.112262 -0.045657 568166.000000 0 0 1
26.323438 28.430310 23.065831 45.091446 0.823858 1.033827 0.113502 -0.038887 571046.000000 0 0 1
25.314538 27.511110 22.720431 43.748200 0.826956 1.024711 0.131620 -0.039976 225995.000000 0 0 1
24.168338 27.563510 23.550941 43.571808 0.850934 0.999755 0.135388 -0.041182 260498.000000 0 0 1
24.016238 26.358810 24.562761 43.300067 0.831867 0.967611 0.118828 -0.041154 -215562.000000 0 0 1
25.077838 26.264910 25.479431 44.361524 0.808515 0.958976 0.117656 -0.044634 68218.900000 0 0 1
24.791938 25.256910 26.487751 44.205799 0.794688 0.928305 0.124155 -0.037974 302116.000000 0 0 1
26.018038 25.016310 27.445941 45.343508 0.765772 0.920667 0.110839 -0.039366 487448.000000 0 0 1
26.311138 26.122210 28.308641 46.647883 0.781795 0.918695 0.127628 -0.035595 661415.000000 0 0 1
27.107638 27.135110 27.639481 47.276624 0.785905 0.946369 0.100640 -0.027731 -177083.000000 0 0 1
27.581838 28.360710 28.484221 48.748728 0.799320 0.946771 0.059141 -0.017695 431309.000000 0 0 1
28.596038 28.255010 29.507251 49.867393 0.779400 0.937613 0.047894 -0.016605 424159.000000 0 0 1
28.877638 29.537910 29.989291 51.046681 0.796701 0.942846 0.051154 -0.019610 -472390.000000 0 0 1
30.382538 29.714610 30.147721 52.105103 0.774284 0.953792 0.031701 -0.014779 -402247.000000 0 0 1
31.066038 29.787310 28.906501 51.845620 0.764388 0.979365 0.024151 -0.016670 250833.000000 0 0 1
32.445238 30.122710 29.107681 52.984226 0.748295 0.989192 0.025279 -0.021690 453486.000000 0 0 1
33.043538 30.344910 27.743791 52.748525 0.742851 1.016949 0.017753 -0.013836 -758134.000000 0 0 1
32.722738 31.610510 27.211621 53.013906 0.768111 1.031780 0.030342 -0.014172 284817.000000 0 0 1
33.405838 31.853710 25.987251 52.971181 0.761619 1.058027 0.040772 -0.019423 49184.500000 0 0 1
33.135338 33.313410 25.597331 53.506609 0.788078 1.071969 0.037861 -0.022945 -178638.000000 0 0 1
33.732838 34.161310 26.559221 54.866125 0.791709 1.065493 0.041516 -0.020662 231728.000000 0 0 1
33.243638 -32.915822 26.493531 53.763352 -0.780443 1.055514 0.048028 -0.021375 -523440.000000 0 0 1
34.121738 -31.848922 27.145241 53.995472 -0.750960 1.044040 0.041278 -0.018665 -259573.000000 0 0 1
34.193938 -32.144622 28.512591 54.913295 -0.754516 1.024847 0.048184 -0.027746 344810.000000 0 0 1
35.143538 -31.281422 29.114581 55.328604 -0.727321 1.016656 0.048710 -0.028949 -264859.000000 0 0 1
34.927638 -30.840322 30.590801 55.739236 -0.723330 0.989844 0.058047 -0.024120 -241401.000000 0 0 1
34.912238 -31.912622 31.528721 56.844877 -0.740541 0.982860 0.057420 -0.018526 283698.000000 0 0 1
33.620938 -32.495922 31.594241 56.431804 -0.768384 0.976572 0.057471 -0.025002 -215056.000000 0 0 1
33.466138 -33.522822 32.738447 57.580968 -0.786244 0.966038 0.063015 -0.023375 -142298.000000 0 0 1
33.242838 -32.952522 34.057436 57.886647 -0.781012 0.941783 0.057756 -0.020031 265578.000000 0 0 1
33.880138 -33.670322 -33.294693 58.224487 -0.782292 2.179535 0.050559 -0.020027 -19180.400000 0 0 1
33.162838 33.432110 -32.843633 57.412403 0.789442 2.179818 0.040876 -0.017805 -1057.980000 0 0 1
33.237538 32.500210 -33.874203 57.519207 0.774182 2.200518 0.052526 -0.021339 -34272.100000 0 0 1
32.408638 31.378310 -33.633363 56.268297 0.769247 2.211465 0.051311 -0.018719 125435.000000 0 0 1
32.507238 30.304810 33.622945 55.727950 0.750349 0.923113 0.040335 -0.013434 446783.000000 0 0 1
33.804338 29.716210 33.574420 56.151831 0.721128 0.929890 0.047234 -0.020379 424138.000000 0 0 1
33.826438 28.877510 32.433712 55.046200 0.706636 0.940717 0.037757 -0.013982 227015.000000 0 0 1
35.250938 28.386310 32.045871 55.455830 0.677942 0.954689 0.043136 -0.011549 199977.000000 0 0 1
35.658938 27.311010 32.853644 55.649017 0.653597 0.939276 0.042137 -0.006298 -743674.000000 0 0 1
-35.880625 26.827610 32.547210 55.375634 -0.642022 0.942517 0.025733 0.001048 -781229.000000 0 0 1
-35.528125 25.603910 33.458166 55.111312 -0.624461 0.918388 0.033286 0.001525 -140836.000000 0 0 1
-36.257025 24.451510 33.164707 54.884843 -0.593333 0.921960 0.026550 -0.000189 -60576.900000 0 0 1
-36.199225 23.436210 34.088736 54.969826 -0.574561 0.901881 0.024068 -0.010464 55230.100000 0 0 1
35.988238 22.083410 33.583399 53.950672 0.550380 0.898884 0.024760 -0.014333 -109459.000000 0 0 1
-36.005525 21.338810 32.717836 53.124377 -0.535000 0.907304 0.028122 -0.013650 -316757.000000 0 0 1
35.985938 20.771610 31.754081 52.295021 0.523497 0.918251 0.011266 -0.004161 -116863.000000 0 0 1
-35.965125 19.903210 30.802041 51.365297 -0.505452 0.927712 0.024468 -0.003389 299599.000000 0 0 1
-35.246625 20.598710 29.786071 50.535546 -0.528882 0.940470 0.026116 -0.005266 698844.000000 0 0 1
-34.317425 19.829910 28.975761 49.096901 -0.523964 0.939521 0.071837 -0.014799 738877.000000 0 0 1
-34.979925 18.751610 28.062781 48.608000 -0.492084 0.955343 0.083768 -0.011397 -320955.000000 0 0 1
-35.523225 17.625710 28.642741 48.918011 -0.460582 0.945268 0.075936 -0.008659 85223.900000 0 0 1
-35.959925 16.666010 27.709641 48.360069 -0.433991 0.960652 0.080356 -0.017715 69679.600000 0 0 1
-36.345825 15.280610 28.293231 48.528579 -0.397987 0.948353 0.053801 -0.008657 411327.000000 0 0 1
-35.217625 14.469010 28.602091 47.620510 -0.389821 0.926513 0.064111 -0.015631 489386.000000 0 0 1
-35.691525 13.277010 29.092541 47.922228 -0.356132 0.918418 0.064606 -0.023515 -444472.000000 0 0 1
-34.559325 12.337610 29.475831 47.067910 -0.342895 0.894075 0.064190 -0.016788 -776554.000000 0 0 1
-33.947925 12.858010 30.630511 47.497560 -0.362060 0.869922 0.074225 -0.011303 331773.000000 0 0 1
-33.078925 11.917110 31.264271 47.049840 -0.345788 0.843982 0.066999 -0.009403 -538162.000000 0 0 1
-31.600125 12.154310 31.035731 45.929421 -0.367185 0.828846 0.076311 -0.007536 -1908210.000000 0 0 1
-31.239625 12.094110 29.656991 44.740572 -0.369371 0.846157 0.064442 -0.015376 695649.000000 0 0 1
-29.890325 12.445110 29.327481 43.685392 -0.394529 0.834789 0.075155 -0.013459 418123.000000 0 0 1
-28.738325 11.657810 29.927491 43.098151 -0.385371 0.803206 0.068812 -0.015934 -1065760.000000 0 0 1
-28.432325 10.533310 29.134241 42.049396 -0.354793 0.805352 0.062669 -0.023103 -364470.000000 0 0 1
-27.344325 9.804210 29.632941 41.496335 -0.344268 0.775445 0.066428 -0.020567 -406406.000000 0 0 1
-26.996425 8.676210 28.652321 40.311774 -0.310958 0.780207 0.055123 -0.021874 371375.000000 0 0 1
-27.804325 7.482410 28.741531 40.683443 -0.262882 0.786302 0.053295 -0.022172 365339.000000 0 0 1
-29.100325 7.589610 28.165881 41.203737 -0.255125 0.818146 0.060166 -0.024021 -73097.100000 0 0 1
-29.816225 6.249910 28.207161 41.517618 -0.206623 0.823849 0.057023 -0.026031 -424042.000000 0 0 1
-30.290225 5.896310 29.451071 42.657119 -0.192256 0.808735 0.056967 -0.023599 -49991.800000 0 0 1
-30.905525 4.612310 29.315171 42.846285 -0.148146 0.817298 0.072194 -0.028432 -185798.000000 0 0 1
-31.664625 4.172610 30.575131 44.214226 -0.131020 0.807202 0.055064 -0.022351 -188122.000000 0 0 1
-32.925025 4.818510 30.646761 45.238250 -0.145316 0.826503 0.055129 -0.027132 -396579.000000 0 0 1
-33.557225 4.234810 31.765641 46.401260 -0.125533 0.816761 0.052748 -0.027018 62043.000000 0 0 1
-35.052725 4.645410 31.802901 47.557312 -0.131759 0.838300 0.042981 -0.021599 82033.600000 0 0 1
-35.304425 6.036010 31.945041 47.992932 -0.169333 0.842472 0.040546 -0.010658 -1018710.000000 0 0 1
36.140538 6.338010 31.962091 48.660910 0.173606 0.854185 0.044105 -0.000298 -800022.000000 0 0 1
35.913438 7.815610 32.203921 48.866669 0.214282 0.851286 0.043159 -0.001803 -87814.500000 0 0 1
36.356338 8.190710 33.529230 50.130632 0.221590 0.838153 0.044732 -0.006630 188454.000000 0 0 1
35.958138 9.502410 33.761036 50.230380 0.258357 0.833723 0.056849 -0.012909 46344.800000 0 0 1
36.112138 10.010410 -33.159973 50.038771 0.270414 2.295195 0.060725 -0.017345 -469046.000000 0 0 1
35.294438 9.357210 -32.255683 48.720466 0.259156 2.294355 0.102865 -0.004193 -396148.000000 0 0 1
35.455838 9.754010 -30.891623 48.026550 0.268462 2.269492 0.105801 0.008357 -491267.000000 0 0 1
34.326938 9.461410 -29.906983 46.500372 0.268948 2.269409 0.102047 0.006461 -219096.000000 0 0 1
34.139538 8.042910 -29.713703 45.968474 0.231370 2.273644 0.077249 0.002321 885388.000000 0 0 1
32.774138 7.750410 -29.376593 44.690012 0.232214 2.288082 0.082526 -0.000503 677050.000000 0 0 1
35.020611 6.440410 -20.613763 41.144250 0.181871 2.095564 0.025770 -0.005354 -340947.000000 0 0 1
34.436021 7.078210 -19.467463 40.186101 0.202723 2.076511 0.018589 -0.012399 305957.000000 0 0 1
35.152541 8.206510 -19.091863 40.835612 0.229347 2.057291 0.019746 -0.009654 589920.000000 0 0 1
-36.213642 8.043710 -18.399663 41.408655 -0.218570 2.031238 0.029405 -0.019745 1618930.000000 0 0 1
-35.016579 7.607810 -19.037963 40.576886 -0.213938 2.059161 0.039357 -0.017356 704141.000000 0 0 1
-34.690828 8.360410 -20.206363 41.007891 -0.236488 2.086036 0.031896 -0.013848 -683359.000000 0 0 1
-33.500092 7.828410 -21.050863 40.332109 -0.229564 2.119918 0.029117 -0.006086 46737.400000 0 0 1
-33.695122 6.716910 -21.866963 40.726431 -0.196764 2.137582 0.012743 0.000152 -138785.000000 0 0 1
-34.568912 6.937710 -22.940763 42.064475 -0.198061 2.147629 0.012753 0.000904 -68969.900000 0 0 1
-34.703889 5.737710 -23.946263 42.552376 -0.163851 2.168503 0.029164 0.001885 -25754.200000 0 0 1
-33.505412 5.624810 -24.664663 41.983291 -0.166327 2.198747 0.023500 -0.005319 -220693.000000 0 0 1
-33.427562 4.311510 -25.184013 42.074048 -0.128272 2.212504 0.031771 -0.000316 351233.000000 0 0 1
-32.097042 4.104310 -25.966473 41.488832 -0.127182 2.247038 0.042364 -0.005577 184044.000000 0 0 1
-30.948732 4.068010 -25.170253 40.098807 -0.130694 2.249399 0.041022 -0.007389 243119.000000 0 0 1
-29.792472 3.626610 -25.912583 39.651048 -0.121133 2.283016 0.039373 -0.006139 358940.000000 0 0 1
-28.471602 3.994310 -25.240613 38.258008 -0.139381 2.291279 0.033798 -0.013385 -386271.000000 0 0 1
-28.287852 5.410410 -25.209863 38.275479 -0.188980 2.289810 0.024580 -0.006492 -208144.000000 0 0 1
-27.000592 5.710010 -24.743763 37.066022 -0.208407 2.301722 0.051265 -0.014345 -178936.000000 0 0 1
-26.604092 7.194210 -25.025963 37.226780 -0.264101 2.308050 0.045075 -0.015240 -25028.200000 0 0 1
-27.207482 8.075010 -24.105063 37.235828 -0.288513 2.274915 0.039181 -0.018497 -114516.000000 0 0 1
-26.910512 9.433010 -24.337763 37.489786 -0.337149 2.277307 0.032002 -0.015125 -163869.000000 0 0 1
-25.584262 10.011510 -23.809863 36.355115 -0.372997 2.284879 0.058160 -0.015150 -67403.100000 0 0 1
-25.636232 10.508610 -22.490663 35.685812 -0.389022 2.252660 0.054025 -0.015041 286992.000000 0 0 1
-24.300062 10.593410 -22.020563 34.461842 -0.411102 2.263973 0.085274 -0.022096 100942.000000 0 0 1
-24.181062 11.080910 -20.559663 33.618597 -0.429691 2.228822 0.105965 -0.033118 -1258360.000000 0 0 1
-24.372262 12.467410 -20.284263 34.071906 -0.472838 2.208481 0.090743 -0.040153 1172070.000000 0 0 1
-25.687372 13.079110 -20.411863 35.320650 -0.470953 2.186952 0.071632 -0.031196 984519.000000 0 0 1
-26.727242 12.381210 -19.490163 35.320055 -0.433812 2.155336 0.069705 -0.019423 -1121430.000000 0 0 1
-26.415282 12.350710 -18.151063 34.347754 -0.437360 2.127570 0.071655 -0.026385 316973.000000 0 0 1
-27.515012 11.838510 -17.394763 34.638187 -0.406314 2.096919 0.075202 -0.026081 -270073.000000 0 0 1
-27.120022 11.160010 -16.064763 33.438272 -0.390384 2.071942 0.103432 -0.030881 508443.000000 0 0 1
-26.291932 9.974510 -16.025563 32.366266 -0.362601 2.088783 0.122698 -0.026510 702005.000000 0 0 1
-25.004562 10.109510 -16.562963 31.650625 -0.384213 2.121522 0.110602 -0.018424 -651725.000000 0 0 1
-23.931162 9.044210 -16.285263 30.326688 -0.361334 2.137667 0.093435 -0.016480 -246005.000000 0 0 1
-22.582262 9.427810 -16.254563 29.377763 -0.395490 2.157111 0.092300 -0.009799 -315748.000000 0 0 1
-21.867462 8.275410 -15.988863 28.325113 -0.361779 2.170595 0.084734 -0.005403 -1411540.000000 0 0 1
-20.384962 8.496710 -15.869663 27.195348 -0.394915 2.193881 0.093021 -0.010122 -1105090.000000 0 0 1
-19.672062 8.792710 -17.053863 27.479738 -0.420327 2.240301 0.088776 -0.015283 473234.000000 0 0 1
-18.276862 8.809110 -16.747263 26.308077 -0.449129 2.260855 0.080192 -0.016796 -259895.000000 0 0 1
-17.423162 9.272310 -17.923863 26.660967 -0.489061 2.308092 0.062112 -0.009422 -413619.000000 0 0 1
-17.195662 8.351110 -19.022363 26.968169 -0.452104 2.353732 0.083237 -0.018052 182216.000000 0 0 1
-16.512162 7.179210 -18.643463 25.918550 -0.410128 2.373604 0.082164 -0.015297 -713657.000000 0 0 1
-16.041462 6.297410 -19.798863 26.248445 -0.374086 2.425364 0.062940 -0.023032 443881.000000 0 0 1
-17.003862 5.544410 -20.567163 27.255825 -0.315197 2.425836 0.064933 -0.017495 383746.000000 0 0 1
-17.723762 6.248310 -21.587363 28.621449 -0.338935 2.425288 0.055107 -0.015867 -279509.000000 0 0 1
-18.712162 5.346910 -22.305963 29.602203 -0.278328 2.424202 0.070348 -0.016154 -872092.000000 0 0 1
-19.564962 4.832810 -21.343563 29.354582 -0.242166 2.384877 0.097417 -0.018427 -368399.000000 0 0 1
-20.377962 3.828210 -21.899563 30.158040 -0.185696 2.383516 0.063227 -0.005724 -228277.000000 0 0 1
-21.352862 3.178110 -20.865863 30.023813 -0.147753 2.339184 0.077749 -0.009317 -108706.000000 0 0 1
-21.927762 1.988710 -21.387763 30.695572 -0.090446 2.341681 0.082627 -0.006291 309059.000000 0 0 1
-22.590362 1.329810 -20.328163 30.419189 -0.058798 2.302674 0.084378 -0.008975 -260591.000000 0 0 1
-23.366562 0.073510 -20.790763 31.277107 -0.003146 2.297926 0.085930 -0.002798 -500029.000000 0 0 1
-22.549762 -1.039790 -20.882063 30.751154 0.046078 2.317286 0.073284 -0.014918 -269687.000000 0 0 1
-23.224362 -2.235490 -21.148763 31.490293 0.095961 2.307157 0.078777 -0.015809 -506082.000000 0 0 1
-23.555062 -2.511090 -22.623963 32.756529 0.106204 2.333212 0.073439 -0.018166 438734.000000 0 0 1
-22.465562 -2.434690 -23.553263 32.640242 0.107953 2.376910 0.045227 -0.015081 359654.000000 0 0 1
-21.534562 -3.488290 -23.550463 32.101866 0.160591 2.394425 0.038554 -0.024646 614669.000000 0 0 1
-20.503362 -3.497290 -24.755463 32.333448 0.168946 2.442817 0.043277 -0.022738 741629.000000 0 0 1
-21.267762 -3.623990 -25.927303 33.729454 0.168777 2.447578 0.042090 -0.026137 74316.600000 0 0 1
-20.447362 -3.727390 -27.047213 34.110699 0.180312 2.486390 0.046343 -0.034170 -257531.000000 0 0 1
-21.202162 -3.833290 -28.420163 35.664148 0.178865 2.492915 0.051435 -0.036991 275930.000000 0 0 1
-21.920162 -5.072090 -28.496243 36.307788 0.227387 2.473254 0.058741 -0.034101 515139.000000 0 0 1
-22.756462 -5.140990 -29.649533 37.727724 0.222184 2.474917 0.024956 -0.030832 -630595.000000 0 0 1
-22.323262 -6.331790 -30.499633 38.322933 0.276382 2.491221 0.044825 -0.025499 -977747.000000 0 0 1
-21.123562 -6.096590 -31.129203 38.110373 0.280980 2.526668 0.036292 -0.026654 -1126520.000000 0 0 1
-20.513062 -7.325090 -31.382353 38.200716 0.342981 2.534854 0.042469 -0.023908 -493694.000000 0 0 1
-19.153162 -7.082990 -32.078403 38.026784 0.354211 2.574700 0.050536 -0.027025 -475533.000000 0 0 1
-19.063262 -6.607090 -33.432753 39.048823 0.333632 2.598623 0.058175 -0.032871 245526.000000 0 0 1
-19.395262 -7.589190 33.987571 39.861347 0.372976 0.549770 0.053011 -0.025827 -449247.000000 0 0 1
-19.186162 -7.210690 32.496583 38.420447 0.359496 0.562706 0.060910 -0.024041 -495244.000000 0 0 1
-17.892662 -6.928490 32.048561 37.353201 0.369445 0.539458 0.072095 -0.026267 -146772.000000 0 0 1
-17.481262 -5.552190 32.135991 37.001936 0.307532 0.518639 0.065379 -0.032117 -552642.000000 0 0 1
-16.262962 -5.219790 31.311261 35.666864 0.310575 0.499377 0.058266 -0.025049 -446093.000000 0 0 1
-16.506662 -5.351490 29.975201 34.635546 0.313510 0.524756 0.057762 -0.031348 82746.500000 0 0 1
-15.315062 -4.959190 29.341081 33.467054 0.313156 0.501806 0.049624 -0.018974 111508.000000 0 0 1
-15.423962 -5.041290 27.791861 32.182305 0.315902 0.528477 0.053204 -0.017881 61906.600000 0 0 1
-16.356362 -4.087490 27.340661 32.120864 0.244887 0.552566 0.033923 -0.014893 -136576.000000 0 0 1
-16.696262 -4.126190 25.967651 31.146581 0.242278 0.584978 0.037737 -0.014154 295002.000000 0 0 1
-15.681262 -3.442090 24.985631 29.699019 0.216077 0.571122 0.030011 -0.008556 297769.000000 0 0 1
-15.527862 -2.075290 25.267351 29.729789 0.132862 0.555001 0.030983 -0.008062 494340.000000 0 0 1
-14.464762 -1.613990 24.402281 28.413124 0.111121 0.537799 0.028960 -0.003556 503807.000000 0 0 1
-14.298262 -0.098890 24.504151 28.370821 0.006916 0.528212 0.025980 0.003549 -764713.000000 0 0 1
-15.311462 0.475810 23.774251 28.282190 -0.031065 0.572391 0.023026 -0.000693 -512872.000000 0 0 1
-15.486662 1.795310 24.245741 28.825610 -0.115411 0.571449 0.009163 0.003932 -10356.900000 0 0 1
-16.382462 2.678010 23.320231 28.624989 -0.162035 0.618618 0.014450 0.000237 74863.900000 0 0 1
-15.650262 3.156010 22.198431 27.343398 -0.198990 0.623502 0.018390 0.005299 394751.000000 0 0 1
-16.362262 4.000810 21.325231 27.175275 -0.239809 0.668537 0.013554 0.002105 -231118.000000 0 0 1
-15.332762 4.640310 20.409631 25.945695 -0.293877 0.665467 0.008806 0.001364 567659.000000 0 0 1
-14.466762 5.596210 21.060731 26.156436 -0.369104 0.634811 0.011477 0.004281 793067.000000 0 0 1
-13.208962 5.704710 20.400431 24.963934 -0.407685 0.614267 0.011967 0.005046 980322.000000 0 1 0
-12.216062 6.885110 20.753731 25.047041 -0.513233 0.594212 -0.000601 0.010507 451886.000000 0 0 1
-12.532862 8.153510 20.249631 25.171411 -0.576776 0.636015 0.003793 0.008761 214760.000000 0 0 1
-11.506562 9.136110 20.367531 25.113857 -0.671066 0.624924 -0.001231 0.007288 108481.000000 0 0 1
-12.052662 10.601410 20.426831 25.979068 -0.721424 0.666031 -0.009762 0.011069 -228406.000000 0 0 1
-12.475762 10.999310 19.166131 25.376565 -0.722586 0.714732 -0.004812 0.012271 81010.200000 0 0 1
-13.264562 12.138210 19.316131 26.389347 -0.741087 0.749592 -0.009872 0.012164 -629110.000000 0 0 1
-13.669562 12.901310 17.989831 26.017970 -0.756493 0.807318 -0.000838 0.008844 735723.000000 0 0 1
-12.510662 13.504210 17.371131 25.310799 -0.823571 0.814389 -0.002122 0.010618 940937.000000 0 0 1
-12.071462 14.769410 17.815931 26.101016 -0.885578 0.819514 0.009771 -0.000196 -641659.000000 0 0 1
-12.986262 15.969610 17.413231 26.960936 -0.888067 0.868635 0.005276 0.002740 20158.200000 0 0 1
-13.085162 16.366510 16.064531 26.403660 -0.896355 0.916727 0.011017 -0.003231 308805.000000 0 0 1
-13.732862 15.440410 15.161831 25.629648 -0.843863 0.937787 0.036798 -0.007354 -307569.000000 0 0 1
-14.129862 16.127110 13.815631 25.507025 -0.851312 0.998409 0.033501 -0.011973 -396593.000000 0 0 1
-15.299462 16.881910 13.919031 26.698536 -0.834531 1.022375 0.025155 -0.010921 -302653.000000 0 0 1
-15.786262 17.395410 12.705031 26.706257 -0.833855 1.075000 0.025916 -0.014436 981.930000 0 0 1
-16.970762 18.373310 12.770731 28.083391 -0.825060 1.098712 0.031377 -0.012972 -99269.100000 0 0 1
-18.151662 17.760110 13.238131 28.638304 -0.774495 1.090262 0.044982 -0.012933 552909.000000 0 0 1
-19.214162 18.731710 13.422231 30.003621 -0.772685 1.106992 0.055111 -0.018405 2008400.000000 0 0 1
-20.690762 18.155310 13.448731 30.636437 -0.720221 1.116335 0.066610 -0.016749 1307280.000000 0 0 1
-21.133062 17.622310 12.238931 30.115503 -0.695057 1.152286 0.067526 -0.021462 819971.000000 0 0 1
-22.527362 17.258810 12.196231 30.888454 -0.653742 1.164894 0.078702 -0.013851 994642.000000 0 0 1
-22.932262 16.421010 10.943931 30.254055 -0.621427 1.200669 0.070184 -0.013154 -274342.000000 0 0 1
-22.326262 15.179310 10.856931 29.098907 -0.597099 1.188443 0.062296 -0.012081 -151457.000000 0 0 1
-22.773262 14.382710 9.780131 28.655449 -0.563304 1.222496 0.056528 -0.019986 -601119.000000 0 0 1
-22.148262 13.006710 9.621231 27.427871 -0.530997 1.212389 0.072865 -0.021906 -553576.000000 0 0 1
-22.621762 11.875310 10.356931 27.568698 -0.483408 1.185669 0.084267 -0.020454 617999.000000 0 0 1
-23.921262 11.338510 10.053031 28.316992 -0.442626 1.207863 0.097990 -0.011597 533368.000000 0 0 1
-24.117262 10.760610 8.575231 27.766304 -0.419672 1.256827 0.097105 -0.013115 -431780.000000 0 0 1
-24.350462 11.747710 7.640131 28.094933 -0.449504 1.295388 0.087644 -0.010227 727474.000000 0 0 1
-25.623602 11.390210 7.070731 28.918871 -0.418288 1.323790 0.115644 -0.015410 647596.000000 0 0 1
-26.455592 12.574110 6.474331 29.998726 -0.443686 1.353265 0.099668 -0.008018 -333588.000000 0 0 1
-26.061552 13.100010 5.234731 29.634729 -0.465771 1.393223 0.089108 -0.016007 24866.900000 0 0 1
-24.767862 13.652410 5.177031 28.751294 -0.503775 1.389746 0.076019 -0.013840 -544069.000000 0 0 1
-24.463462 14.970510 5.938831 29.289023 -0.549163 1.366614 0.072104 -0.021428 810301.000000 0 0 1
-23.049362 15.323710 5.957031 28.312107 -0.586724 1.358806 0.054504 -0.021435 1779980.000000 0 0 1
-22.833462 16.607210 6.630031 29.002133 -0.628827 1.340152 0.049880 -0.021209 -146389.000000 0 0 1
-21.431762 17.224010 6.494231 28.251760 -0.676973 1.338852 0.045664 -0.016687 -38478.000000 0 0 1
-21.155862 17.890910 5.235831 28.196969 -0.701976 1.384025 0.043827 -0.026530 -322384.000000 0 0 1
-19.790262 18.161110 5.154831 27.350551 -0.742497 1.381190 0.056906 -0.024053 -735927.000000 0 0 1
-19.360462 18.994810 3.963331 27.410550 -0.775865 1.425696 0.067208 -0.027253 -361880.000000 0 0 1
-17.965662 19.219710 4.071131 26.622103 -0.819110 1.417271 0.058864 -0.030322 173797.000000 0 0 1
-17.485162 20.098810 3.108131 26.820767 -0.854828 1.454650 0.063975 -0.024721 26824.500000 0 0 1
-17.626062 21.593510 3.489131 28.091489 -0.886215 1.446269 0.059517 -0.031971 -488431.000000 0 0 1
-16.838162 21.793910 4.618531 27.925419 -0.912982 1.404645 0.076351 -0.033283 -89287.300000 0 0 1
-16.843662 23.184010 4.929331 29.077578 -0.942492 1.400450 0.054743 -0.041002 -57416.700000 0 0 1
-16.008862 23.635110 6.175231 29.206772 -0.975445 1.357757 0.050601 -0.023303 70897.200000 0 0 1
-16.547862 23.096910 7.352731 29.348963 -0.949113 1.317571 0.049071 -0.017588 371238.000000 0 0 1
-15.761762 23.449310 8.494231 29.503478 -0.978998 1.278757 0.039646 -0.025913 112156.000000 0 0 1
-16.298962 22.763510 9.719831 29.636273 -0.949404 1.236642 0.021065 -0.018472 -282071.000000 0 0 1
-17.534162 23.285510 10.118931 30.855381 -0.925373 1.236667 0.024043 -0.025301 -330197.000000 0 0 1
-18.337562 22.451510 10.936131 30.982825 -0.885917 1.210049 0.028703 -0.024228 68430.600000 0 0 1
-19.406562 23.256010 11.707131 32.473274 -0.875385 1.201975 0.046827 -0.026430 206850.000000 0 0 1
-20.430662 23.830310 10.863531 33.216139 -0.862057 1.237610 0.065689 -0.017453 519417.000000 0 0 1
-20.012462 25.049310 10.293631 33.673809 -0.896713 1.260137 0.027848 -0.022930 -681215.000000 0 0 1
-21.113962 25.924510 9.637431 34.795972 -0.887312 1.290157 0.040842 -0.022921 -138648.000000 0 0 1
-21.890062 26.463410 10.661331 35.960407 -0.879699 1.269798 0.061448 -0.029875 -439590.000000 0 0 1
-23.011762 27.165110 10.209731 37.036779 -0.867984 1.291515 0.061014 -0.023135 -226233.000000 0 0 1
-23.876062 27.679510 11.412331 38.294424 -0.859039 1.268183 0.060331 -0.031893 -121445.000000 0 0 1
-23.345962 28.749510 12.135031 38.972134 -0.888753 1.254154 0.064624 -0.025152 -14989.700000 0 0 1
-24.279362 29.094010 13.085531 40.089649 -0.875362 1.238297 0.069717 -0.028027 -387056.000000 0 0 1
9.389838 -32.852822 28.419581 44.442655 -1.292403 0.876992 0.048988 -0.026657 -75947.100000 0 0 1
10.731938 -33.048722 28.020981 44.638189 -1.256808 0.892155 0.031220 -0.036088 362584.000000 0 0 1
10.842238 -32.495222 26.729271 43.450518 -1.248755 0.908200 0.045287 -0.031380 -163690.000000 0 0 1
12.221638 -32.571922 26.043151 43.457385 -1.211833 0.928195 0.009152 -0.015115 -154450.000000 0 0 1
12.646238 -33.885222 25.869841 44.467789 -1.213598 0.949898 0.021899 -0.025850 -407595.000000 0 0 1
14.034638 -33.903322 25.713341 44.806051 -1.178313 0.959559 0.035215 -0.015650 -630033.000000 0 0 1
14.711338 33.141310 25.416061 44.280312 1.153029 0.959437 0.049223 -0.006833 -94298.500000 0 0 1
14.514338 32.575710 24.110221 43.048178 1.151643 0.976320 0.019719 -0.011000 322607.000000 0 0 1
15.382538 31.466210 23.939291 42.424456 1.116101 0.971235 0.021568 -0.009109 -196314.000000 0 0 1
15.531638 30.922610 22.462231 41.255198 1.105331 0.995039 0.021550 -0.021954 -587835.000000 0 0 1
14.548938 30.055010 21.964731 39.967795 1.119968 0.988958 0.020092 -0.012039 -301231.000000 0 0 1
14.529538 28.700910 22.402031 39.200774 1.102169 0.962501 0.024529 -0.008647 -171015.000000 0 0 1
14.061738 28.291310 23.778621 39.541794 1.109524 0.925601 0.027793 -0.015353 150639.000000 0 0 1
15.097638 28.624010 24.711451 40.717667 1.085433 0.918645 0.029715 -0.013742 657636.000000 0 0 1
14.724838 28.235810 26.023511 41.125478 1.090101 0.885654 0.016534 -0.012944 -444987.000000 0 0 1
15.801738 28.692510 27.025531 42.465685 1.067395 0.880963 0.029652 -0.019656 -47044.500000 0 0 1
15.782338 30.050110 27.401851 43.622846 1.087192 0.891618 0.035363 -0.023065 -29524.300000 0 0 1
16.429438 30.245710 28.635631 44.774198 1.073190 0.876875 0.059023 -0.030884 -58369.500000 0 0 1
16.346738 31.625610 29.304021 46.109876 1.093734 0.882107 0.070200 -0.035061 598.590000 0 0 1
16.881538 32.648710 28.457151 46.483696 1.093589 0.911961 0.063042 -0.021251 26937.900000 0 0 1
16.429638 33.943110 28.749711 47.419549 1.120002 0.919417 0.064276 -0.010299 36608.100000 0 0 1
17.188238 -33.328822 27.968141 46.781009 -1.094654 0.929977 0.044515 -0.012571 -413300.000000 0 0 1
17.006538 -33.294822 26.607241 45.888046 -1.098557 0.952277 0.055360 -0.007147 -77459.200000 0 0 1
17.511038 -32.073722 26.042991 44.873127 -1.071058 0.951614 0.056251 -0.013515 1529670.000000 0 0 1
19.088438 -31.756422 26.045271 45.290120 -1.029576 0.958099 0.081143 -0.007174 1556420.000000 0 0 1
19.531038 -31.080522 27.232681 45.706446 -1.009755 0.932514 0.066057 -0.011956 425540.000000 0 0 1
20.619538 -30.189022 26.980021 45.436373 -0.971561 0.935026 0.077265 -0.012648 129978.000000 0 0 1
20.883338 -29.367622 28.274651 45.804224 -0.952659 0.905498 0.078068 -0.012706 -940264.000000 0 0 1
19.839738 -28.558022 28.646941 45.053558 -0.963625 0.881697 0.085415 -0.019355 -726313.000000 0 0 1
20.133138 -27.596922 29.656531 45.237630 -0.940517 0.855856 0.098646 -0.015180 -446133.000000 0 0 1
18.825538 -27.103422 30.271121 44.780991 -0.963716 0.828501 0.085031 -0.021455 -313900.000000 0 0 1
18.073638 -26.327622 29.345111 43.369755 -0.969195 0.827625 0.088791 -0.021983 -222862.000000 0 0 1
16.870838 -26.045722 30.007351 43.167649 -0.996012 0.802188 0.078045 -0.021335 -217449.000000 0 0 1
15.689638 -25.411922 29.215711 41.779041 -1.017672 0.796391 0.059635 -0.017014 -101322.000000 0 0 1
15.161738 -26.335022 28.244631 41.486996 -1.048417 0.821933 0.056413 -0.021276 310431.000000 0 0 1
14.559638 -25.709522 27.111581 40.099881 -1.055515 0.828338 0.051885 -0.038107 564310.000000 0 0 1
13.069838 -25.176822 27.278431 39.354871 -1.091969 0.804960 0.014634 -0.023754 956958.000000 0 0 1
12.017238 -26.095822 27.437871 39.727103 -1.139241 0.808397 0.010962 -0.017883 106243.000000 0 0 1
11.872238 -27.110722 26.473071 39.708498 -1.158036 0.841044 0.013643 -0.018257 -942540.000000 0 0 1
10.944938 -28.289422 26.864011 40.518615 -1.201641 0.845972 0.032026 -0.017274 18813.200000 0 0 1
9.566838 -27.977222 26.795811 39.903193 -1.241310 0.834537 0.027379 -0.025250 -13709.200000 0 0 1
8.877338 -29.257622 26.828791 40.676770 -1.276205 0.850562 0.022357 -0.024107 495914.000000 0 0 1
7.347938 -29.044422 27.121111 40.411945 -1.323006 0.835083 0.024304 -0.016868 727604.000000 0 0 1
6.484638 -28.686322 26.029241 39.274381 -1.348480 0.846306 0.041299 -0.027398 306124.000000 0 0 1
6.798638 -27.517122 25.283741 37.982641 -1.328578 0.842411 0.053026 -0.025464 -385310.000000 0 0 1
5.616138 -27.134622 24.322761 36.870387 -1.366705 0.850400 0.069152 -0.024492 19492.400000 0 0 1
5.279638 -28.026122 23.243031 36.790985 -1.384596 0.886976 0.057807 -0.017824 231653.000000 0 0 1
4.440838 -29.134822 23.554531 37.727640 -1.419537 0.896522 0.062396 -0.017385 539013.000000 0 0 1
2.940238 -28.860722 23.910381 37.593784 -1.469270 0.881467 0.052501 -0.020439 41354.900000 0 0 1
2.178838 -28.457422 22.755831 36.502056 -1.494381 0.897697 0.054241 -0.018632 -322206.000000 0 0 1
0.942138 -27.881522 23.023731 36.171247 -1.537018 0.880818 0.051451 -0.016171 -376532.000000 0 0 1
0.978138 -26.428822 23.593601 35.441465 -1.533803 0.842357 0.062209 -0.014183 -506348.000000 0 0 1
1.391338 -26.349322 24.925701 36.297564 -1.518042 0.813850 0.064575 -0.012983 -8445.750000 0 0 1
1.377138 -25.013622 25.297061 35.602235 -1.515796 0.780521 0.074260 -0.011437 30713.600000 0 0 1
2.636738 -24.619122 26.105881 35.980142 -1.464102 0.758943 0.078485 -0.007988 -554648.000000 0 0 1
3.808838 -24.568122 25.334091 35.495296 -1.416989 0.775986 0.090119 -0.013882 735975.000000 0 0 1
4.900938 -23.787922 25.918181 35.519523 -1.367613 0.752930 0.082818 -0.014424 1131200.000000 0 0 1
4.564638 -22.300622 26.208041 34.713327 -1.368899 0.715165 0.092989 -0.012647 -713964.000000 0 0 1
4.533938 -21.487222 25.061221 33.321496 -1.362841 0.719548 0.098042 -0.020080 114039.000000 0 0 1
4.014138 -20.242222 25.409221 32.733612 -1.375031 0.682113 0.098298 -0.023097 -161076.000000 0 0 1
4.044738 -19.251622 24.183391 31.174048 -1.363710 0.682887 0.102821 -0.027777 742639.000000 0 0 1
5.366738 -18.780922 23.891431 30.859770 -1.292459 0.685357 0.092886 -0.022965 493071.000000 0 0 1
5.370038 -18.237822 22.606231 29.538063 -1.284443 0.699250 0.083069 -0.024812 -233540.000000 0 0 1
6.697138 -17.593222 22.187531 29.097417 -1.207068 0.703588 0.069683 -0.017909 -1340630.000000 0 0 1
7.691238 -18.532722 22.082131 29.836847 -1.177419 0.737583 0.053100 -0.022181 -2246700.000000 0 0 1
8.789238 -17.822422 21.708531 29.430422 -1.112639 0.741254 0.024867 -0.013873 -1159280.000000 0 0 1
9.996038 -18.031022 22.654531 30.631133 -1.064597 0.738333 0.024360 -0.009303 -449681.000000 0 0 1
9.837838 -17.375822 23.872331 31.122186 -1.055616 0.696563 0.039012 -0.003866 52322.600000 0 0 1
11.045838 -17.312722 24.608971 32.052182 -1.002890 0.695430 0.044482 0.000864 -100674.000000 0 0 1
11.055538 -16.516022 25.912461 32.656692 -0.980916 0.654289 0.048926 -0.013116 -405342.000000 0 0 1
11.195338 -15.123222 25.675401 31.831960 -0.933549 0.632433 0.065071 -0.013327 269718.000000 0 0 1
11.146538 -14.461722 26.879001 32.494114 -0.914140 0.596697 0.057007 -0.016417 -198859.000000 0 0 1
11.443038 -12.890322 26.778521 31.846393 -0.844806 0.571917 0.072096 -0.007471 -301105.000000 0 0 1
10.354738 -12.061622 26.430621 30.842845 -0.861396 0.541484 0.067058 0.000252 -127750.000000 0 0 1
10.685138 -10.728522 26.260161 30.312859 -0.787424 0.523041 0.068558 0.001620 271621.000000 0 0 1
9.661438 -9.951122 25.334011 28.882180 -0.800167 0.500901 0.059314 0.004708 882075.000000 0 0 1
8.338038 -9.820822 25.834781 28.868795 -0.866874 0.462582 0.039775 0.005099 153668.000000 0 0 1
7.463238 -9.270522 24.892281 27.591088 -0.892983 0.445987 0.037743 0.010772 141920.000000 0 0 1
5.946738 -9.349822 25.149891 27.482720 -1.004307 0.414999 0.025675 0.009833 -497031.000000 0 0 1
5.444938 -8.417322 26.062881 27.924406 -0.996623 0.367198 0.027165 0.012147 1550930.000000 0 0 1
4.059638 -8.551722 26.519341 28.158268 -1.127580 0.342863 0.025438 0.006257 2115280.000000 0 0 1
2.922738 -8.385322 25.475841 26.979149 -1.235410 0.335400 0.019908 0.005651 -228937.000000 0 0 1
2.881438 -7.072322 24.983381 26.124505 -1.183906 0.296655 0.022749 0.000053 481933.000000 0 0 1
1.866138 -7.010622 23.951051 25.025670 -1.310642 0.294114 0.050932 -0.014249 731432.000000 0 0 1
1.820038 -5.676122 23.285731 24.036559 -1.260506 0.250603 0.041732 -0.021624 894.852000 0 1 0
1.378338 -4.616922 24.166891 24.642533 -1.280679 0.196795 0.037151 -0.017766 128587.000000 0 1 0
1.690138 -3.346222 23.660651 23.955796 -1.103086 0.157136 0.039549 -0.018124 -1012400.000000 0 1 0
0.907038 -2.896222 22.412831 22.617379 -1.267292 0.134592 0.031334 -0.026766 -178579.000000 0 1 0
-0.205062 -2.103222 22.709131 22.807241 1.473605 0.092788 0.034045 -0.028121 138103.000000 0 1 0
-1.378962 -2.732222 23.234431 23.435131 1.103393 0.130968 0.038964 -0.025107 -231231.000000 0 1 0
-2.338162 -1.651222 23.704781 23.876980 0.614878 0.120172 0.040485 -0.032891 -60284.000000 0 1 0
-1.702762 -0.880222 24.780111 24.854136 0.477106 0.077199 0.046418 -0.028877 1112090.000000 0 1 0
-2.496962 0.261778 25.253111 25.377608 -0.104457 0.099094 0.036470 -0.024371 -59249.000000 0 0 1
-1.800562 1.019778 26.367821 26.448893 -0.515322 0.078317 0.073833 -0.030102 -221336.000000 0 0 1
-1.786062 0.388778 27.622291 27.682705 -0.214330 0.066078 0.082623 -0.025169 -7399.760000 0 0 1
-1.038462 -0.807222 27.736461 27.767630 0.660761 0.047386 0.080934 -0.029822 -316433.000000 0 0 1
0.277738 -0.573222 28.578061 28.585159 -1.119609 0.022285 0.072976 -0.029566 196337.000000 0 0 1
1.297638 0.191778 27.983671 28.014398 0.146728 0.046841 0.061224 -0.025756 73062.700000 0 0 1
2.051638 -0.423222 26.957141 27.038413 -0.203431 0.077554 0.057487 -0.024184 -372593.000000 0 0 1
3.156638 -1.409222 27.414451 27.631547 -0.419882 0.125436 0.053411 -0.025478 -648881.000000 0 0 1
2.683538 -2.661222 27.916881 28.171541 -0.781223 0.134561 0.048532 -0.023431 176009.000000 0 0 1
3.736838 -3.582722 28.164701 28.636519 -0.764346 0.181778 0.039610 -0.004529 146321.000000 0 0 1
4.306138 -4.261022 26.947101 27.619656 -0.780132 0.221134 0.044745 -0.011029 -173568.000000 0 0 1
5.133238 -3.461122 26.140071 26.863224 -0.593239 0.232557 0.039064 -0.008896 -116842.000000 0 0 1
5.732638 -4.224522 25.078391 26.069818 -0.635080 0.276670 0.035540 -0.003025 904348.000000 0 0 1
7.041338 -3.516222 24.466651 25.701387 -0.463142 0.311227 0.040358 -0.005109 1700610.000000 0 0 1
8.280838 -3.611722 25.197871 26.768443 -0.411280 0.344254 0.047986 0.002179 642798.000000 0 0 1
8.846338 -4.904822 25.319151 27.264893 -0.506251 0.380078 0.041482 0.000870 -594614.000000 0 0 1
9.525538 -5.504922 24.065901 26.461437 -0.524020 0.428787 0.041603 -0.009832 -504371.000000 0 0 1
8.689138 -5.731922 22.941031 25.192200 -0.583140 0.425965 0.040015 -0.006121 -293029.000000 0 0 1
9.365838 -5.558022 21.747131 24.321765 -0.535579 0.464283 0.051375 -0.004473 -141146.000000 0 1 0
9.384338 -4.106422 21.145931 23.496359 -0.412480 0.451104 0.058313 -0.021490 434138.000000 0 1 0
8.107738 -3.850022 20.581531 22.453452 -0.443332 0.411227 0.053028 -0.035628 -70793.900000 0 1 0
8.055238 -2.490222 20.116031 21.811528 -0.299824 0.396894 0.039658 -0.031811 378548.000000 0 1 0
6.626638 -1.866222 20.065331 21.213501 -0.274514 0.330514 0.039612 -0.024877 463729.000000 0 1 0
6.151138 -1.566222 21.364231 22.287214 -0.249325 0.288798 0.046490 -0.016741 679920.000000 0 1 0
4.814138 -1.055222 21.255831 21.819711 -0.215780 0.227837 0.028985 -0.012673 814597.000000 0 1 0
4.182238 -0.380222 22.519931 22.908142 -0.090664 0.184361 0.028426 -0.024763 98240.000000 0 1 0
2.947238 0.229778 22.238731 22.434352 0.077806 0.132155 0.027766 -0.023804 188387.000000 0 1 0
2.197538 0.544778 23.467971 23.576930 0.243005 0.096177 0.039767 -0.024301 537779.000000 0 1 0
0.786338 1.088778 23.196431 23.235279 0.945312 0.057834 0.041829 -0.034240 -264650.000000 0 1 0
0.803038 2.421778 22.840431 22.982497 1.250615 0.111246 0.040379 -0.023583 74051.100000 0 1 0
-0.529162 2.834778 22.664731 22.847451 -1.386252 0.126555 0.028271 -0.025846 -237293.000000 0 1 0
-0.820662 4.306778 22.333231 22.759504 -1.382502 0.193846 0.031440 -0.020349 -308742.000000 0 1 0
-0.640362 5.291778 23.350421 23.951099 -1.450371 0.224432 0.046412 -0.014668 -392210.000000 0 1 0
-1.451562 6.388778 23.099331 24.010469 -1.347384 0.276369 0.043128 -0.018275 -451379.000000 0 1 0
-1.179562 7.727778 23.832051 25.081399 -1.419326 0.316957 0.048851 -0.013463 -788626.000000 0 0 1
-0.029762 8.433778 23.553161 25.017612 -1.567267 0.343852 0.046446 -0.009542 -743746.000000 0 0 1
-0.121262 9.734778 24.059561 25.954635 -1.558340 0.384503 0.073748 -0.010964 -632141.000000 0 0 1
0.663338 10.811778 23.243531 25.643640 1.509520 0.436102 0.091065 -0.022532 1360190.000000 0 0 1
2.099038 10.796778 23.411991 25.866923 1.378778 0.439196 0.077016 -0.025396 928635.000000 0 0 1
2.588538 11.193778 24.700631 27.241923 1.343543 0.435370 0.096331 -0.023315 -880976.000000 0 0 1
3.981738 11.833778 24.631911 27.615640 1.246223 0.469145 0.079935 -0.029954 276135.000000 0 0 1
5.170938 11.146778 24.272421 27.205508 1.136447 0.468630 0.048516 -0.021828 427434.000000 0 0 1
5.146838 10.446778 23.051531 25.826308 1.113028 0.467805 0.062109 -0.029142 -115512.000000 0 0 1
6.562938 10.110778 22.436531 25.469549 0.995052 0.493002 0.045091 -0.026314 930560.000000 0 0 1
7.257338 11.202778 21.860731 25.613722 0.995958 0.548174 0.042282 -0.028972 221175.000000 0 0 1
8.422038 10.717778 21.205631 25.208734 0.904774 0.571294 0.046160 -0.024009 354203.000000 0 0 1
9.284138 11.859778 20.549831 25.478326 0.906616 0.632485 0.037181 -0.042103 -536599.000000 0 0 1
8.725138 12.485778 19.380531 24.650105 0.960872 0.666120 0.033897 -0.039789 -90799.900000 0 1 0
9.424538 13.559778 18.805931 25.027036 0.963409 0.720578 0.051513 -0.036373 195456.000000 0 0 1
10.865638 13.218778 18.283631 25.041752 0.882793 0.752290 0.033393 -0.032815 197210.000000 0 0 1
11.814038 13.012778 19.287831 26.094526 0.833645 0.738985 0.041967 -0.038595 -30385.800000 0 0 1
13.021138 12.479778 18.737031 26.007138 0.764172 0.766335 0.044260 -0.038950 1512150.000000 0 0 1
14.266738 12.325778 19.721231 27.283540 0.712538 0.762914 0.051558 -0.030989 831667.000000 0 0 1
14.937438 13.525778 20.078431 28.446742 0.735843 0.787209 0.050527 -0.031591 -172084.000000 0 0 1
15.945338 13.068778 20.954431 29.396172 0.686578 0.777273 0.046204 -0.024923 -10516.400000 0 0 1
16.795338 14.209778 21.576131 30.814454 0.702199 0.795126 0.045500 -0.017349 32243.500000 0 0 1
16.196338 14.903778 22.634731 31.571744 0.743861 0.771408 0.045996 -0.019696 -461298.000000 0 0 1
17.099438 15.768778 23.192331 32.847060 0.744936 0.786863 0.038320 -0.012757 -731032.000000 0 0 1
-21.213362 12.676510 -24.293963 34.653965 -0.538632 2.347657 0.024938 -0.002515 -112285.000000 0 0 1
-20.846662 12.647310 -25.635653 35.379718 -0.545319 2.381230 0.016486 -0.022159 -34330.700000 0 0 1
-21.596262 13.579910 -26.389093 36.704178 -0.561333 2.373111 0.021824 -0.020808 -173312.000000 0 0 1
-21.426062 13.528410 -27.920753 37.704939 -0.563188 2.404620 0.010263 -0.004127 -298837.000000 0 0 1
-20.267362 14.081210 -28.482253 37.686671 -0.607209 2.427617 0.021501 -0.001965 -459133.000000 0 0 1
-20.291162 14.175610 -29.883703 38.803542 -0.609793 2.449838 0.016085 0.001217 -1087210.000000 0 0 1
-18.933862 14.524310 -30.412933 38.657382 -0.654360 2.476290 0.008393 -0.006196 -1530410.000000 0 0 1
-18.056662 13.466610 -30.462103 37.885780 -0.640806 2.504874 0.003739 -0.015069 -1197360.000000 0 0 1
-16.745862 13.934910 -30.419723 37.416108 -0.694034 2.520102 0.029041 -0.002313 -157269.000000 0 0 1
-15.900462 13.473610 -29.194433 35.870291 -0.702967 2.521611 0.060068 -0.008067 -137626.000000 0 0 1
-16.311762 14.051410 -27.989843 35.312137 -0.711091 2.485925 0.061396 -0.010121 -345032.000000 0 0 1
-16.985062 13.105710 -27.229413 34.665442 -0.657184 2.474286 0.051105 -0.003102 -117756.000000 0 0 1
-17.711462 13.667810 -25.963963 34.272909 -0.657241 2.430371 0.047483 -0.005362 -391497.000000 0 0 1
-16.859062 14.131610 -24.970063 33.278137 -0.697616 2.419379 0.112483 -0.019915 -309263.000000 0 0 1
-17.589862 14.647510 -23.877363 33.076899 -0.694379 2.377303 0.091129 -0.022314 -77861.300000 0 0 1
-16.751362 15.325410 -22.781463 32.163199 -0.740973 2.357895 0.091544 -0.013748 26375.800000 0 0 1
-16.132262 16.535110 -23.185963 32.729934 -0.797729 2.358028 0.075513 -0.018018 -312.370000 0 0 1
-15.318362 17.066810 -22.144963 31.879893 -0.839335 2.338712 0.079516 -0.013297 -169836.000000 0 0 1
-14.991262 18.565110 -22.479563 32.783105 -0.891501 2.326369 0.077221 -0.015518 1038000.000000 0 0 1
-16.097762 19.519810 -22.460263 33.832297 -0.881182 2.296779 0.052150 -0.017360 890852.000000 0 0 1
-17.101262 19.312710 -23.429763 34.848066 -0.846054 2.308162 0.041237 -0.013215 -332019.000000 0 0 1
-18.313162 20.237210 -23.263463 35.862310 -0.835267 2.276656 0.023598 -0.018218 -169307.000000 0 0 1
-18.056562 21.598710 -23.585063 36.725997 -0.874485 2.268148 0.013780 -0.017756 105899.000000 0 0 1
-19.272162 22.312910 -23.504463 37.705993 -0.858389 2.243831 0.040682 -0.032983 18106.000000 0 0 1
-19.027562 23.757810 -23.935963 38.722241 -0.895509 2.237177 0.028003 -0.032656 -110440.000000 0 0 1
-18.446762 24.421110 -22.875363 38.209369 -0.923873 2.212654 0.023090 -0.025739 -537419.000000 0 0 1
-17.550762 25.445110 -23.285563 38.700133 -0.966983 2.216414 0.014607 -0.012371 -341131.000000 0 0 1
-16.507462 25.721610 -22.197163 37.773159 -1.000226 2.198940 0.014825 -0.021271 -193975.000000 0 0 1
-15.471562 24.762910 -22.030563 36.577543 -1.012350 2.217172 0.026164 -0.029364 137848.000000 0 0 1
-15.910662 23.478110 -21.616863 35.660336 -0.975207 2.222055 0.034265 -0.013002 -1460240.000000 0 0 1
-14.753162 22.494910 -21.497563 34.435766 -0.990323 2.245006 0.065975 -0.014189 -294795.000000 0 0 1
-13.814062 22.981010 -20.567863 33.793374 -1.029563 2.225137 0.074837 -0.023079 -385814.000000 0 0 1
-12.907462 21.955610 -20.231863 32.526599 -1.039330 2.242103 0.066585 -0.020503 -206765.000000 0 0 1
-12.064962 22.241510 -18.995963 31.640080 -1.073766 2.214768 0.058305 -0.025552 -175889.000000 0 0 1
-12.789862 22.196010 -17.799563 31.194036 -1.048043 2.178042 0.069010 -0.023824 287356.000000 0 0 1
-13.661062 23.330210 -17.533863 32.223588 -1.041068 2.146150 0.065016 -0.031832 -185058.000000 0 0 1
-14.386262 23.117310 -16.227563 31.697135 -1.014130 2.108258 0.081785 -0.036637 -507670.000000 0 0 1
-13.580962 23.266710 -15.079563 30.873541 -1.042442 2.081086 0.094896 -0.052706 -231957.000000 0 0 1
-14.322162 23.307710 -13.873863 30.673404 -1.019796 2.040149 0.101189 -0.046130 -255445.000000 0 0 1
-13.441162 23.641410 -12.693163 30.011622 -1.053828 2.007485 0.129865 -0.045870 -465001.000000 0 0 1
-12.939962 24.964910 -12.689663 30.849909 -1.092596 1.994715 0.120380 -0.049864 499850.000000 0 0 1
-12.028762 25.241110 -11.608863 30.274914 -1.126081 1.964323 0.099204 -0.039994 226893.000000 0 0 1
-11.448562 26.647910 -11.729963 31.285343 -1.165016 1.955123 0.119768 -0.044895 -154671.000000 0 0 1
-10.553862 26.929610 -12.762363 31.614329 -1.197287 1.986342 0.114114 -0.047459 -204192.000000 0 0 1
-10.631262 28.292710 -13.070263 32.929211 -1.211360 1.978955 0.093853 -0.025437 -93988.000000 0 0 1
-9.809062 28.609110 -14.367163 33.483044 -1.240492 2.014279 0.135144 -0.046135 1148690.000000 0 0 1
-8.374662 28.601010 -14.363263 33.082564 -1.285949 2.019907 0.097882 -0.040392 605859.000000 0 0 1
-7.907562 27.252610 -14.469263 31.852690 -1.288393 2.042333 0.101602 -0.048522 -1028390.000000 0 0 1
-6.511162 27.252510 -15.060563 31.810613 -1.336273 2.063994 0.108729 -0.044254 -267899.000000 0 0 1
-5.539662 27.900010 -14.251663 31.815221 -1.374791 2.035269 0.098542 -0.044175 -1287990.000000 0 0 1
-4.314462 27.875810 -14.879963 31.891827 -1.417240 2.056212 0.106474 -0.046522 -796773.000000 0 0 1
-3.288962 28.782110 -14.169763 32.249175 -1.457019 2.025709 0.073849 -0.031804 -382142.000000 0 0 1
-3.354862 30.186410 -14.440863 33.630536 -1.460112 2.014622 0.060185 -0.021267 -224935.000000 0 0 1
-4.347562 30.771810 -13.626363 33.933513 -1.430441 1.984017 0.059107 -0.015439 116723.000000 0 0 1
-4.669362 32.274410 -13.837763 35.424909 -1.427116 1.972104 0.052900 -0.018571 -225111.000000 0 0 1
-3.577362 33.117710 -13.547363 35.959856 -1.463194 1.957066 0.030535 -0.018761 -171111.000000 0 0 1
-3.908462 -33.903622 -13.754663 36.795685 1.456021 1.953912 0.036903 -0.019102 162617.000000 0 0 1
-3.078062 -32.880922 -12.987163 35.486560 1.477456 1.945476 0.038716 -0.020953 -42179.500000 0 0 1
-3.275062 -32.918722 -11.639963 35.069318 1.471633 1.909127 0.037917 -0.024774 -537355.000000 0 0 1
-2.365062 -32.140422 -10.920863 34.027423 1.497343 1.897521 0.020946 -0.027234 -348523.000000 0 0 1
-2.716162 -32.038522 -9.458163 33.515687 1.486221 1.856884 0.020937 -0.031334 -249014.000000 0 0 1
-1.970062 -31.060022 -8.764863 32.333094 1.507454 1.845311 0.031559 -0.024206 -265857.000000 0 0 1
-2.170062 -31.287922 -7.403463 32.225060 1.501549 1.802609 0.017149 -0.036465 538592.000000 0 0 1
-0.977962 -30.788322 -6.508963 31.484024 1.539043 1.779037 0.028582 -0.030202 671496.000000 0 0 1
-1.183362 -31.065522 -5.103463 31.504164 1.532722 1.733507 0.026565 -0.028454 424087.000000 0 0 1
-0.152162 -30.336522 -4.417763 30.656881 1.565781 1.715403 0.023811 -0.020472 286278.000000 0 0 1
-0.287362 -30.471722 -2.853263 30.606364 1.561366 1.664156 0.034287 -0.015737 -462138.000000 0 0 1
-0.065062 -31.798122 -2.339863 31.884162 1.568750 1.644249 0.035588 -0.020021 -10837.600000 0 0 1
1.175538 -32.428622 -2.556263 32.550452 -1.534562 1.649410 0.032358 -0.022082 149265.000000 0 0 1
2.429738 -31.826222 -1.871063 31.973629 -1.494600 1.629349 0.047739 -0.023382 -867358.000000 0 0 1
2.796138 -32.329422 -0.550963 32.454791 -1.484522 1.587773 0.040425 -0.015305 285295.000000 0 0 1
4.144538 -32.114122 -0.186363 32.380994 -1.442449 1.576552 0.043080 -0.010843 193151.000000 0 0 1
4.458038 -30.636122 0.093637 30.958922 -1.426295 1.567772 0.035889 -0.014982 -943391.000000 0 0 1
4.559538 -29.882922 -1.101763 30.248840 -1.419384 1.607228 0.050611 -0.022408 11974.900000 0 0 1
4.242938 -28.530222 -0.842763 28.856305 -1.423161 1.600006 0.055452 -0.015053 -577912.000000 0 0 1
3.686538 -27.761622 -2.055463 28.080654 -1.438776 1.644060 0.058045 -0.016026 -481717.000000 0 0 1
2.470738 -28.235722 -2.565063 28.459447 -1.483515 1.661049 0.041774 -0.014242 139444.000000 0 0 1
1.846338 -27.260222 -3.478163 27.543171 -1.503169 1.697415 0.037683 -0.012716 173703.000000 0 0 1
2.480438 -27.208822 -4.888063 27.755463 -1.479885 1.747831 0.040152 -0.017173 -119357.000000 0 0 1
2.217638 -28.311922 -5.744663 28.973850 -1.492627 1.770390 0.034009 -0.018029 20322.300000 0 0 1
2.821138 -28.124222 -7.029563 29.126370 -1.470821 1.814550 0.044576 -0.023724 -26628.700000 0 0 1
2.050938 -28.867622 -8.151263 30.066411 -1.499869 1.845341 0.035661 -0.022465 -267639.000000 0 0 1
0.795238 -28.282222 -8.355263 29.501304 -1.542686 1.857943 0.029244 -0.020318 -687114.000000 0 0 1
0.622138 -27.970422 -9.722063 29.618408 -1.548557 1.905240 0.042315 -0.021353 -475088.000000 0 0 1
-0.736762 -27.377122 -10.038663 29.168894 1.543891 1.922137 0.036697 -0.026528 -1000190.000000 0 0 1
-0.966062 -26.053822 -9.504063 27.749993 1.533734 1.920361 0.033353 -0.013309 1242110.000000 0 0 1
-2.377562 -25.706122 -9.400763 27.474204 1.478569 1.920018 0.048105 -0.023692 2043290.000000 0 0 1
-3.309562 -26.502222 -8.442763 28.010734 1.446561 1.876969 0.047173 -0.022017 -205249.000000 0 0 1
-2.989362 -26.287122 -7.034763 27.375846 1.457563 1.830682 0.045811 -0.021998 -404705.000000 0 0 1
-1.982062 -27.186122 -6.659463 28.059976 1.498018 1.810412 0.031260 -0.023090 -146231.000000 0 0 1
-1.479162 -26.985122 -5.210963 27.523424 1.516037 1.761274 0.038068 -0.016926 -140330.000000 0 0 1
-2.432262 -27.247222 -4.196663 27.675603 1.481766 1.723021 0.039103 -0.022867 100307.000000 0 0 1
-1.971762 -26.760522 -2.945963 26.994297 1.497247 1.680147 0.039499 -0.019376 468121.000000 0 0 1
-3.076762 -26.879422 -1.815963 27.115817 1.456827 1.637817 0.025180 -0.015813 1046420.000000 0 0 1
-4.158062 -25.974222 -2.081363 26.387152 1.412059 1.649756 0.030973 -0.013918 628916.000000 0 0 1
-5.142262 -26.025322 -1.048263 26.549183 1.375722 1.610290 0.045178 -0.018466 -41341.800000 0 0 1
-6.297262 -25.038522 -1.017263 25.838303 1.324404 1.610177 0.049920 -0.020424 -300850.000000 0 0 1
-5.908762 -23.665122 -0.878863 24.407455 1.326117 1.606812 0.041539 -0.019039 -192887.000000 0 1 0
-6.716462 -23.015822 0.061537 23.975878 1.286862 1.568230 0.053429 -0.018775 -334317.000000 0 1 0
-6.139662 -21.696022 0.487837 22.553288 1.295021 1.549164 0.032286 -0.017774 -109950.000000 0 1 0
-4.938162 -21.760222 1.209437 22.346263 1.347641 1.516647 0.024627 -0.019821 -121378.000000 0 1 0
-4.300962 -20.478522 1.250637 20.962639 1.363782 1.511101 0.008171 -0.011296 317309.000000 0 1 0
-3.257362 -20.327322 2.411337 20.727397 1.411902 1.454197 0.013016 -0.007645 -106591.000000 0 1 0
-3.732162 -20.336222 3.751137 21.013377 1.389293 1.391323 0.007196 0.001774 -568238.000000 0 1 0
-2.822062 -20.009222 4.763437 20.761102 1.430682 1.339294 0.016482 -0.008319 -526571.000000 0 1 0
-2.049062 -21.249722 5.292837 21.994624 1.474666 1.327769 0.018089 -0.013266 203285.000000 0 1 0
-1.113162 -21.575022 4.265737 22.020836 1.519247 1.375850 0.033330 -0.016809 -318055.000000 0 1 0
-0.453562 -22.817022 4.574137 23.275415 1.550921 1.372987 0.034400 -0.015200 -362411.000000 0 1 0
0.513938 -23.157922 3.362737 23.406441 -1.548607 1.426630 0.036600 -0.025267 1136050.000000 0 1 0
1.725738 -22.396622 3.203137 22.690239 -1.493895 1.429155 0.021662 -0.022496 416487.000000 0 1 0
2.631338 -22.777022 4.192237 23.308615 -1.455780 1.389954 0.037148 -0.021453 -1518600.000000 0 1 0
3.857038 -21.877222 4.387237 22.643706 -1.396286 1.375812 0.045215 -0.021218 -109847.000000 0 1 0
4.685238 -21.789222 3.233837 22.520643 -1.358996 1.426704 0.035697 -0.014922 117974.000000 0 1 0
5.781038 -20.926922 3.605137 22.008032 -1.301269 1.406245 0.053233 -0.015757 300650.000000 0 1 0
6.700438 -20.674422 2.427537 21.868254 -1.257385 1.459560 0.063984 -0.009879 -101347.000000 0 1 0
7.541338 -21.710222 1.907137 23.061715 -1.236472 1.488005 0.063552 -0.008352 52064.700000 0 1 0
7.254238 -21.964222 0.558237 23.137905 -1.251801 1.546667 0.062135 -0.008846 528174.000000 0 1 0
8.432338 -22.598722 -0.243863 24.121900 -1.213663 1.580906 0.062469 -0.006697 649655.000000 0 1 0
9.547438 -21.819522 -0.631063 23.825267 -1.158332 1.597287 0.055806 -0.005462 -563191.000000 0 1 0
10.448938 -22.624622 -1.315663 24.955657 -1.138141 1.623541 0.060141 -0.007866 -190819.000000 0 1 0
11.742638 -21.962622 -1.823163 24.971388 -1.079803 1.643871 0.062246 -0.006646 -152892.000000 0 1 0
11.534538 -20.879022 -2.699863 24.005591 -1.066077 1.683503 0.063094 -0.003396 -561761.000000 0 1 0
12.526638 -20.675322 -3.660163 24.449589 -1.026069 1.721064 0.061664 0.002943 -311833.000000 0 1 0
12.445438 -19.356422 -4.365563 23.422599 -0.999385 1.758275 0.055655 -0.019163 -492735.000000 0 1 0
12.940738 -18.322422 -3.583763 22.716012 -0.955869 1.729222 0.073345 -0.013614 1358.810000 0 1 0
13.092538 -17.218422 -4.402063 22.074120 -0.920685 1.771564 0.083441 -0.021698 -498158.000000 0 1 0
13.655338 -15.911522 -3.670763 21.286599 -0.861558 1.744107 0.099606 -0.021721 50424.700000 0 1 0
15.004038 -15.871422 -3.315363 22.091058 -0.813484 1.721443 0.082751 -0.015482 290356.000000 0 1 0
15.962838 -15.885322 -4.396963 22.945347 -0.782964 1.763617 0.081876 -0.014082 -628156.000000 0 1 0
17.391938 -15.620422 -3.979163 23.713094 -0.731787 1.739398 0.071403 -0.011196 -783695.000000 0 1 0
17.952338 -16.599522 -3.162363 24.654231 -0.746265 1.699419 0.071077 -0.013079 1408920.000000 0 1 0
19.365638 -16.311022 -2.979263 25.494183 -0.699987 1.687924 0.045396 -0.002372 1016510.000000 0 0 1
20.165438 -17.200122 -2.038563 26.582792 -0.706205 1.647559 0.056503 -0.014064 -287305.000000 0 0 1
21.534538 -16.913622 -2.207463 27.471437 -0.665786 1.651238 0.049136 -0.009576 -118655.000000 0 0 1
22.262838 -17.681022 -1.266963 28.457999 -0.671191 1.615331 0.037951 -0.010039 16879.700000 0 0 1
23.802238 -17.625522 -1.376263 29.649615 -0.637392 1.617231 0.051587 -0.013294 49079.300000 0 0 1
24.411438 -16.368722 -1.263463 29.418527 -0.590676 1.613757 0.061572 -0.017251 -126540.000000 0 0 1
25.699538 -16.510122 -0.719563 30.554348 -0.571034 1.594349 0.071871 -0.017299 -85687.200000 0 0 1
26.253438 -15.146522 -0.190463 30.310005 -0.523287 1.577080 0.070565 -0.019745 -522944.000000 0 0 1
25.555138 -14.613022 0.841837 29.450198 -0.519444 1.542207 0.074056 -0.018997 -416300.000000 0 0 1
26.277138 -13.635522 1.567237 29.645770 -0.478662 1.517906 0.066449 -0.022585 249448.000000 0 0 1
25.504238 -13.073422 2.812437 28.797401 -0.473675 1.472978 0.084094 -0.026795 -42949.500000 0 0 1
25.079138 -13.916722 3.840337 28.937631 -0.506607 1.437693 0.088017 -0.021005 -110482.000000 0 0 1
26.066438 -14.552622 4.614137 30.208083 -0.509185 1.417451 0.090162 -0.021673 -93085.200000 0 0 1
25.426838 -15.125722 5.886437 30.165572 -0.536641 1.374399 0.068876 -0.012784 240340.000000 0 0 1
24.575738 -16.237122 5.651437 29.992495 -0.583859 1.381235 0.083234 -0.018591 287670.000000 0 0 1
23.880338 -16.591122 6.850637 29.874188 -0.607201 1.339421 0.067158 -0.014123 -99306.500000 0 0 1
23.197138 -17.980122 6.744937 30.114551 -0.659373 1.344904 0.062392 -0.010941 -55812.800000 0 0 1
24.128938 -19.032822 6.764737 31.467692 -0.667872 1.354131 0.064204 -0.011888 -133731.000000 0 0 1
23.517238 -20.267622 6.484537 31.715709 -0.711316 1.364886 0.037684 -0.006337 -228821.000000 0 0 1
1.789438 23.213610 -3.334863 23.520099 1.493863 1.713064 0.002307 -0.001022 262146.000000 0 1 0
2.646238 24.273710 -2.951963 24.595318 1.462209 1.691108 0.007989 -0.000206 217777.000000 0 1 0
3.337138 24.877410 -4.045863 25.424221 1.437449 1.730610 0.026750 -0.002654 164493.000000 0 0 1
4.364638 25.961710 -3.652163 26.578163 1.404236 1.708645 0.012455 0.009254 594273.000000 0 0 1
5.378338 25.382610 -2.785163 26.095220 1.361994 1.677731 0.004005 0.008533 380360.000000 0 0 1
5.999938 26.301310 -1.922963 27.045442 1.346511 1.641958 -0.000950 0.003901 -929376.000000 0 0 1
7.096838 25.717810 -1.082463 26.700985 1.301547 1.611348 -0.007429 -0.003112 -502143.000000 0 0 1
8.173638 25.430610 -1.978063 26.785015 1.259815 1.644713 0.017237 -0.007079 -322818.000000 0 0 1
9.284038 24.953010 -1.264263 26.654163 1.214605 1.618246 0.021944 0.001502 -124153.000000 0 0 1
10.399738 24.439910 -2.212963 26.652597 1.168483 1.653922 0.045776 -0.007763 -831147.000000 0 0 1
11.389238 25.391310 -2.432563 27.934758 1.149150 1.657987 0.049017 -0.009560 -295193.000000 0 0 1
12.186438 25.125810 -3.586363 28.154531 1.119207 1.698525 0.073413 -0.015690 805545.000000 0 0 1
13.246238 23.976810 -3.595863 27.627531 1.066066 1.701322 0.064597 -0.014338 -38575.200000 0 0 1
12.634638 22.704610 -3.825563 26.263441 1.062992 1.716978 0.053843 -0.014631 130187.000000 0 0 1
12.489538 22.292310 -5.180563 26.072473 1.060108 1.770826 0.075917 -0.026992 111153.000000 0 0 1
11.476138 21.073410 -5.327763 24.579980 1.072125 1.789283 0.066021 -0.024782 1315230.000000 0 1 0
10.105338 21.408710 -5.097763 24.216480 1.129782 1.782891 0.052514 -0.019151 799669.000000 0 1 0
9.235138 20.257710 -5.087663 22.837401 1.143061 1.795459 0.028753 -0.011937 1649820.000000 0 1 0
7.712438 20.667110 -4.902563 22.597483 1.213627 1.789487 0.017491 -0.003064 1178930.000000 0 1 0
7.412738 21.048410 -3.584363 22.601591 1.232185 1.730058 0.006808 -0.003621 340135.000000 0 1 0
6.172438 21.753410 -3.519763 22.884461 1.294318 1.725215 0.009547 0.014106 602676.000000 0 1 0
5.830038 22.384010 -2.132063 23.228838 1.316002 1.662711 0.005329 0.011245 247159.000000 0 1 0
5.354038 21.348610 -1.249163 22.045164 1.325073 1.627490 -0.004087 0.002212 313538.000000 0 1 0
4.596838 21.970810 -0.187463 22.447328 1.364547 1.579148 0.004953 0.000386 406395.000000 0 1 0
4.315738 21.082510 1.011637 21.543473 1.368879 1.523821 -0.005039 -0.006179 481506.000000 0 1 0
3.330338 21.550010 1.954337 21.893230 1.417469 1.481411 -0.006440 -0.012116 653376.000000 0 1 0
3.352538 20.808410 3.179337 21.315197 1.411055 1.421079 0.007419 -0.008696 -239230.000000 0 1 0
2.323538 21.292810 4.201837 21.827460 1.462103 1.377085 0.000966 -0.018579 735106.000000 0 1 0
0.977038 21.430510 3.688737 21.767594 1.525237 1.400515 -0.000274 -0.018462 801596.000000 0 1 0
0.215338 22.261310 4.510837 22.714751 1.561123 1.370881 0.001356 -0.009926 -1182590.000000 0 1 0
-1.215462 22.404910 4.096637 22.808765 -1.516600 1.390208 -0.000137 -0.005761 -1229900.000000 0 1 0
-2.080762 22.933410 5.072937 23.579770 -1.480313 1.353962 0.013973 -0.008776 759139.000000 0 1 0
-3.374062 23.094010 4.432137 23.756292 -1.425722 1.383130 0.024870 -0.011855 815848.000000 0 1 0
-4.587562 23.293310 5.341937 24.334344 -1.376337 1.349471 0.036685 -0.024114 -113777.000000 0 1 0
-4.866662 24.653310 5.726437 25.773284 -1.375898 1.346741 0.059464 -0.022858 -359538.000000 0 0 1
-6.049962 24.651510 6.460737 26.192367 -1.330133 1.321559 0.067017 -0.029646 -500882.000000 0 0 1
-6.491262 26.010910 6.954937 27.696120 -1.326233 1.316963 0.070495 -0.037545 -343386.000000 0 0 1
-5.613162 26.671410 7.849537 28.363479 -1.363367 1.290388 0.051471 -0.033509 -209906.000000 0 0 1
-6.038762 27.907810 8.388237 29.760293 -1.357699 1.285064 0.060996 -0.039350 -266245.000000 0 0 1
-6.405762 29.072710 7.530137 30.707641 -1.353926 1.323049 0.065385 -0.036816 782388.000000 0 0 1
-7.668862 28.860910 6.888537 30.646623 -1.311080 1.344086 0.065291 -0.040123 -68062.800000 0 0 1
-7.922062 29.880410 5.902037 31.471130 -1.311633 1.382141 0.080472 -0.037770 287691.000000 0 0 1
-9.414462 29.868510 5.433337 31.784920 -1.265456 1.399012 0.100662 -0.035612 1196790.000000 0 0 1
-10.294462 30.455110 6.426637 32.784010 -1.244833 1.373489 0.084919 -0.028867 143668.000000 0 0 1
-10.750462 29.614710 7.462637 32.377375 -1.222578 1.338216 0.067961 -0.030351 -517697.000000 0 0 1
-11.592262 30.287910 8.556637 33.540335 -1.205261 1.312830 0.051024 -0.025721 -190305.000000 0 0 1
-10.829462 31.008810 9.501737 34.192200 -1.234800 1.289197 0.048266 -0.028700 -176234.000000 0 0 1
-11.604562 31.404110 10.600737 35.117796 -1.216835 1.264151 0.039343 -0.023830 -139471.000000 0 0 1
-10.732162 31.865910 11.779937 35.628393 -1.245937 1.233822 0.030718 -0.022569 -130238.000000 0 0 1
-10.240362 33.182010 11.578437 36.605614 -1.271458 1.248967 0.040198 -0.023073 52554.900000 0 0 1
-9.236462 33.467110 12.527337 36.909265 -1.301513 1.224508 0.039760 -0.024747 -196586.000000 0 0 1
-8.850562 -33.457822 12.626937 36.840166 1.312191 1.220955 0.044166 -0.022995 -819933.000000 0 0 1
-9.831862 -32.682722 13.250137 36.611364 1.278581 1.200477 0.054955 -0.021736 -342337.000000 0 0 1
-9.479262 -31.306422 13.329537 35.321736 1.276782 1.183836 0.058288 -0.020563 751393.000000 0 0 1
-10.600262 -30.470022 14.073737 35.197413 1.236001 1.159442 0.059635 -0.022663 600639.000000 0 0 1
-10.725162 -30.738422 15.466037 36.042725 1.235087 1.127297 0.063785 -0.033370 780764.000000 0 0 1
-9.566762 -30.329522 16.227637 35.703488 1.265247 1.098973 0.068997 -0.032811 764110.000000 0 0 1
-9.710362 -30.742022 17.667737 36.762916 1.264848 1.069474 0.069127 -0.037888 241195.000000 0 0 1
-10.437962 -29.747622 18.421437 36.513305 1.233334 1.041978 0.104875 -0.038852 70416.500000 0 0 1
-11.174562 -30.383522 19.395837 37.738942 1.218367 1.031016 0.092595 -0.036237 -420415.000000 0 0 1
-11.436662 -29.432922 20.554737 37.677465 1.200185 0.993758 0.110146 -0.046810 -81639.100000 0 0 1
-10.259962 -29.179922 21.278437 37.543396 1.232688 0.968217 0.100714 -0.039016 20618.600000 0 0 1
-10.492162 -28.328622 22.389137 37.601459 1.216088 0.932992 0.081731 -0.033486 -30631.400000 0 0 1
-9.331262 -28.320822 23.397037 37.902015 1.252514 0.905486 0.085872 -0.031030 -3180.910000 0 0 1
-9.192662 -29.508522 24.185937 39.245604 1.268799 0.906797 0.095806 -0.021468 393566.000000 0 0 1
-7.977262 -29.458522 24.940337 39.413978 1.306342 0.885659 0.091944 -0.022816 424192.000000 0 0 1
-7.899762 -30.534822 26.013537 40.883807 1.317634 0.881130 0.091891 -0.026871 -30927.500000 0 0 1
-7.808362 -31.877322 25.529337 41.579818 1.330576 0.909698 0.105729 -0.021888 211447.000000 0 0 1
-7.938662 -32.932522 26.467337 42.989456 1.334251 0.907560 0.102770 -0.017989 -344156.000000 0 0 1
-7.766862 34.100510 25.773937 43.444962 -1.346853 0.935700 0.086703 -0.012501 409922.000000 0 0 1
-6.409062 33.701910 25.501537 42.746031 -1.382871 0.931560 0.074880 -0.007389 840006.000000 0 0 1
-6.182862 32.384510 25.003437 41.378208 -1.382146 0.921952 0.070888 -0.006559 -217473.000000 0 0 1
-6.959962 32.006810 23.722137 40.442759 -1.356677 0.943990 0.068074 -0.005906 -801321.000000 0 0 1
-8.245562 31.571310 24.033837 40.526068 -1.315330 0.935959 0.061536 -0.003067 -642027.000000 0 0 1
-8.875562 31.332510 22.807937 39.758065 -1.294758 0.959819 0.048198 0.005224 -579060.000000 0 0 1
-9.833562 30.157810 22.803637 39.066588 -1.255597 0.947503 0.042858 -0.011435 -694427.000000 0 0 1
-9.281062 28.917810 22.659237 37.892200 -1.260235 0.929803 0.042864 -0.006022 -277506.000000 0 0 1
-10.216962 27.873710 22.730637 37.389997 -1.219459 0.917341 0.031127 -0.008294 -92452.100000 0 0 1
-9.527662 26.545410 22.325037 35.970021 -1.226198 0.901216 0.030223 -0.015025 323876.000000 0 0 1
-8.394962 26.165910 23.088337 35.891524 -1.260335 0.872020 0.031333 -0.017324 147184.000000 0 0 1
-8.047462 24.825810 22.877537 34.705391 -1.257327 0.851052 0.038507 -0.019608 -5026.040000 0 0 1
-6.637362 24.467610 23.389537 34.493317 -1.305900 0.825637 0.047641 -0.013632 138269.000000 0 0 1
-5.572262 25.007010 22.660737 34.203942 -1.351550 0.846621 0.032278 -0.006541 -1015350.000000 0 0 1
-4.346662 24.901710 23.287537 34.370016 -1.397985 0.826365 0.064503 -0.001860 508165.000000 0 0 1
-3.146262 25.506110 22.420337 34.104723 -1.448063 0.853437 0.052863 -0.000230 927288.000000 0 0 1
-2.655762 24.731710 21.345837 32.777360 -1.463823 0.861583 0.053586 0.000629 -212663.000000 0 0 1
-1.806662 25.467710 20.525837 32.759400 -1.499976 0.893661 0.062246 -0.001194 15957.800000 0 0 1
-1.167562 24.535710 19.418337 31.311916 -1.523246 0.901852 0.049751 -0.011268 187533.000000 0 0 1
-0.183062 23.609010 19.871837 30.859500 -1.563043 0.871152 0.049499 -0.004093 229764.000000 0 0 1
0.201738 22.797310 18.785637 29.540789 1.561947 0.881594 0.050301 -0.005226 -158172.000000 0 0 1
1.199838 21.641310 19.084937 28.879417 1.515411 0.848847 0.047118 -0.001835 -476098.000000 0 0 1
2.498438 22.093510 19.201237 29.377762 1.458190 0.858468 0.035911 -0.009694 -1458000.000000 0 0 1
3.422038 21.084310 19.468037 28.900916 1.409897 0.831710 0.033845 -0.010512 138192.000000 0 0 1
4.875838 21.572810 19.304937 29.357120 1.348513 0.853182 0.028935 -0.017236 716971.000000 0 0 1
5.880638 20.543310 19.124537 28.676775 1.291996 0.840756 0.040705 -0.018596 694658.000000 0 0 1
7.066238 21.115410 18.584637 29.003120 1.247863 0.875282 0.057950 -0.020228 277118.000000 0 0 1
8.228038 20.115310 18.348737 28.442968 1.182518 0.869634 0.057004 -0.012343 143327.000000 0 0 1
8.725138 19.636310 19.580737 29.070913 1.152662 0.831794 0.070537 -0.016761 -321858.000000 0 0 1
9.810038 18.771910 19.399837 28.722380 1.089239 0.829254 0.053253 -0.016650 -44219.500000 0 0 1
10.269838 17.954310 20.639337 29.220011 1.051221 0.786478 0.068142 -0.022596 17095.300000 0 0 1
9.335938 16.935710 20.922237 28.490665 1.066988 0.746082 0.071240 -0.025381 -204881.000000 0 0 1
9.831038 16.239410 21.986237 29.047588 1.026429 0.712234 0.068342 -0.036006 429528.000000 0 0 1
8.880838 15.067510 22.487037 28.487997 1.038205 0.661045 0.060748 -0.032769 554127.000000 0 0 1
7.741338 15.510610 23.212137 28.970858 1.107869 0.641459 0.063345 -0.018023 94804.800000 0 0 1
6.919738 14.460410 23.725037 28.633261 1.124472 0.594224 0.059560 -0.014764 291431.000000 0 0 1
7.571038 13.492710 24.767437 29.202736 1.059455 0.558369 0.068462 -0.015480 -460980.000000 0 0 1
7.572238 14.083610 26.039537 30.557231 1.077474 0.550704 0.071286 -0.021486 -258921.000000 0 0 1
7.974038 13.136610 27.022037 31.086111 1.025239 0.517085 0.081613 -0.022234 -745219.000000 0 0 1
9.040638 13.726810 27.942537 32.418264 0.988391 0.531716 0.040677 -0.013439 -470807.000000 0 0 1
10.306838 13.927110 27.374837 32.397176 0.933690 0.564276 0.061757 -0.013623 -202356.000000 0 0 1
10.424138 15.060410 26.482337 32.199267 0.965355 0.605089 0.052295 -0.012727 -792317.000000 0 0 1
11.751138 14.993410 25.698937 31.989482 0.906041 0.637887 0.061403 -0.018619 -226729.000000 0 0 1
11.570738 14.155110 24.538137 30.600152 0.885520 0.640335 0.060456 -0.030710 178023.000000 0 0 1
12.758238 13.863410 23.849837 30.393774 0.826888 0.668593 0.071993 -0.028882 -143454.000000 0 0 1
12.337638 12.646710 22.900137 28.923569 0.797768 0.657133 0.056222 -0.034482 247848.000000 0 0 1
12.146238 11.420310 23.523237 28.832226 0.754605 0.616571 0.056995 -0.030438 766621.000000 0 0 1
10.838138 11.250410 24.090337 28.712041 0.804060 0.575294 0.069599 -0.025408 285983.000000 0 0 1
10.605938 9.882410 24.619537 28.570431 0.750099 0.532158 0.052363 -0.017277 -159152.000000 0 0 1
10.452938 8.818510 23.690537 27.354553 0.700790 0.523540 0.054146 -0.015146 180561.000000 0 0 1
10.100038 7.668510 24.389237 27.489120 0.649398 0.479486 0.054945 -0.018315 -184498.000000 0 0 1
10.473738 6.382710 23.617737 26.612698 0.547304 0.478989 0.063580 -0.019610 -225296.000000 0 0 1
11.865838 6.339110 23.402937 26.994071 0.490657 0.521715 0.067189 -0.018809 68994.100000 0 0 1
12.311738 5.338710 22.475337 26.176736 0.409156 0.538264 0.075649 -0.027940 13268.100000 0 0 1
12.188238 3.833710 22.919537 26.240344 0.304744 0.508560 0.068999 -0.030627 -888394.000000 0 0 1
12.991138 3.438310 23.974237 27.483735 0.258733 0.510897 0.073093 -0.027676 -501872.000000 0 0 1
12.666138 2.168310 24.603837 27.757547 0.169546 0.481322 0.070423 -0.021127 -621677.000000 0 0 1
13.827738 1.482710 25.328337 28.895145 0.106819 0.502128 0.048541 -0.018995 -512839.000000 0 0 1
14.737938 0.928510 24.433637 28.549458 0.062918 0.543633 0.055615 -0.024149 -231169.000000 0 0 1
16.076038 1.270910 24.736337 29.528640 0.078892 0.577726 0.054616 -0.028313 -54714.400000 0 0 1
17.082738 0.572710 23.773937 29.280506 0.033513 0.623333 0.051390 -0.032139 -105868.000000 0 0 1
17.234938 -0.806590 24.000337 29.558583 -0.046766 0.623297 0.056631 -0.031598 679565.000000 0 0 1
18.280638 -1.447990 23.243137 29.606111 -0.079044 0.667973 0.059240 -0.019053 138478.000000 0 0 1
18.387238 -2.936190 23.593037 30.055667 -0.158349 0.668136 0.065165 -0.008299 -457539.000000 0 0 1
17.382138 -3.785390 23.098537 29.154936 -0.214427 0.656278 0.062443 -0.000925 177750.000000 0 0 1
17.695438 -5.164290 23.274537 29.690108 -0.283957 0.669849 0.071400 0.003168 461945.000000 0 0 1
16.538938 -6.043990 22.683137 28.715693 -0.350363 0.660116 0.076682 0.001756 348297.000000 0 0 1
16.444638 -6.063090 21.234537 27.533484 -0.353233 0.690032 0.060265 -0.003268 103688.000000 0 0 1
15.787138 -7.230990 20.727037 27.039434 -0.429512 0.697347 0.075250 -0.003770 -41265.100000 0 0 1
16.537938 -8.631390 20.880337 27.999871 -0.481025 0.729167 0.078056 -0.004430 289859.000000 0 0 1
16.531138 -9.111090 22.244737 29.173941 -0.503724 0.703649 0.073327 -0.001504 87336.400000 0 0 1
17.212438 -10.350790 22.275137 29.993143 -0.541415 0.733741 0.060175 -0.005683 23563.500000 0 0 1
16.916438 -11.207690 23.528137 31.070105 -0.585135 0.711689 0.067719 0.002690 221188.000000 0 0 1
15.641238 -11.832490 23.535037 30.635831 -0.647644 0.694741 0.074309 -0.003016 264537.000000 0 0 1
15.539238 -12.810190 24.563837 31.763989 -0.689429 0.686730 0.071243 0.003354 553861.000000 0 0 1
14.313838 -13.780590 24.448337 31.504155 -0.766420 0.682441 0.081062 -0.000232 277854.000000 0 0 1
14.397238 -14.513990 23.226437 30.941942 -0.789436 0.721757 0.080180 -0.008515 562136.000000 0 0 1
13.199238 -15.186690 22.870637 30.461804 -0.855299 0.721528 0.075189 -0.009467 -123906.000000 0 0 1
13.552738 -16.111490 21.707537 30.240271 -0.871442 0.770108 0.055298 -0.018306 -20183.200000 0 0 1
14.429038 -17.131490 22.132037 31.488286 -0.870817 0.791378 0.073627 -0.025388 150760.000000 0 0 1
14.615638 -18.159190 21.211037 31.516363 -0.893098 0.832516 0.059600 -0.021408 -283554.000000 0 0 1
-25.128042 -32.568722 26.279931 48.813676 0.913652 1.002292 0.001102 -0.011773 -306831.000000 0 0 1
-24.518062 -33.873722 26.371681 49.437132 0.944270 1.008135 0.022159 -0.008033 -6396.310000 0 0 1
-25.168852 33.485010 27.040681 49.858955 -0.926243 0.997572 0.021086 -0.017971 -389492.000000 0 0 1
-25.522902 33.740610 28.596421 51.064690 -0.923183 0.976406 0.009815 -0.008710 656046.000000 0 0 1
-26.661302 -33.815822 28.860841 51.839010 0.903152 0.980340 0.035419 -0.015162 694410.000000 0 0 1
-26.740332 -33.653122 30.224251 52.546012 0.899365 0.957953 0.015879 -0.017855 -733645.000000 0 0 1
-27.925052 -32.867322 30.707451 52.943526 0.866517 0.952063 0.007336 -0.020040 -1035180.000000 0 0 1
-27.847202 -31.472322 30.537591 51.947264 0.846434 0.942388 -0.008487 -0.009403 -87406.800000 0 0 1
-28.687792 -30.816522 31.435891 52.543912 0.821157 0.929445 -0.006409 0.006093 -368273.000000 0 0 1
-28.898402 -29.348422 31.029161 51.567978 0.793124 0.925151 -0.013619 0.009040 -399841.000000 0 0 1
-29.654002 -29.317522 29.863831 51.290597 0.779692 0.949306 -0.003154 0.010251 37541.400000 0 0 1
-30.050122 -27.960622 29.664441 50.643709 0.749395 0.944994 0.003462 0.013624 -121296.000000 0 0 1
-30.670022 -27.687422 28.267731 50.063042 0.734333 0.970796 -0.002027 0.008501 -15120.100000 0 0 1
-29.730362 -27.529922 27.221491 48.813939 0.746988 0.979234 0.003554 0.008661 284909.000000 0 0 1
-29.167142 -26.225122 27.172291 47.715958 0.732336 0.964949 0.008210 0.005966 -168698.000000 0 0 1
-28.216922 -26.030022 25.966091 46.346463 0.745106 0.976096 0.022464 0.015362 171080.000000 0 0 1
-28.878852 -26.017622 24.683571 46.045450 0.733325 1.005022 0.011061 0.013558 305975.000000 0 0 1
-27.960762 -25.743122 23.630881 44.754118 0.744128 1.014534 0.033601 0.014383 11263.900000 0 0 1
-28.408352 -25.951422 22.138231 44.391576 0.740231 1.048694 0.015368 0.019110 -203028.000000 0 0 1
-29.324362 -24.991022 21.680231 44.209748 0.705786 1.058254 0.020859 0.012914 65104.900000 0 0 1
-29.581622 -25.336622 20.349931 43.944698 0.708255 1.089329 0.019058 0.015570 -260693.000000 0 0 1
-30.248042 -24.194622 19.626831 43.422762 0.674664 1.101797 0.028042 0.009842 686693.000000 0 0 1
-31.513962 -23.775322 20.198231 44.343706 0.646335 1.097871 0.041034 0.006871 1062660.000000 0 0 1
-32.104772 -22.817622 19.300231 43.861819 0.617887 1.115171 0.054745 0.000716 -145254.000000 0 0 1
-33.600182 -22.632522 19.598731 45.003484 0.592776 1.120210 0.054466 0.009476 461213.000000 0 0 1
-34.451936 -23.740722 19.171131 46.022712 0.603371 1.141140 0.049981 -0.004430 1246890.000000 0 0 1
-35.840636 -23.431222 19.033531 46.859883 0.579015 1.152527 0.037166 -0.004134 875464.000000 0 0 1
36.124971 -24.493322 18.259531 47.311170 -0.595819 1.174564 0.037687 -0.002737 27150.100000 0 0 1
36.001881 -25.748622 18.899931 48.128312 -0.620856 1.167232 0.023043 0.004812 -93047.600000 0 0 1
35.151031 -26.544722 18.111931 47.626246 -0.646797 1.180683 0.043695 0.008181 -35711.700000 0 0 1
34.762971 -27.820022 18.874531 48.359753 -0.674910 1.169845 0.039163 0.010422 -213613.000000 0 0 1
33.659341 -27.704022 19.735531 47.853477 -0.688651 1.145692 0.030799 0.005448 -211929.000000 0 0 1
33.920781 -26.972122 20.965531 48.142167 -0.671777 1.120212 0.028566 0.004180 -640343.000000 0 0 1
32.740971 -27.066722 21.965431 47.823204 -0.690806 1.093584 0.031560 -0.003659 268930.000000 0 0 1
31.675691 -26.228122 21.554731 46.431350 -0.691595 1.088034 0.034824 -0.002943 -320891.000000 0 0 1
30.773511 -25.981422 22.591631 46.178188 -0.701163 1.059593 0.036234 -0.000676 -91592.600000 0 0 1
29.655411 -24.936022 22.292531 44.701293 -0.699163 1.048698 0.050977 0.000758 98727.600000 0 0 1
30.060031 -23.692322 21.759431 44.027315 -0.667484 1.053852 0.046818 0.007633 -311695.000000 0 0 1
31.039601 -23.000322 22.514431 44.714330 -0.637716 1.043132 0.049289 -0.000218 111847.000000 0 0 1
31.639881 -21.826122 21.637031 44.109215 -0.603867 1.058095 0.050014 0.002609 195728.000000 0 0 1
30.784991 -20.742222 21.358731 42.826988 -0.592909 1.048673 0.057598 -0.005047 122048.000000 0 0 1
31.554951 -19.759722 20.685331 42.591601 -0.559462 1.063670 0.067734 -0.007046 363919.000000 0 0 1
30.906921 -18.320322 20.867631 41.549128 -0.535077 1.044609 0.054895 0.001628 285993.000000 0 0 1
30.769621 -17.850522 22.145831 41.902847 -0.525685 1.013959 0.049483 -0.002018 289986.000000 0 0 1
29.827491 -18.486722 23.002331 41.958853 -0.554843 0.990572 0.056302 -0.001521 -137640.000000 0 0 1
30.039881 -18.023922 24.465731 42.729711 -0.540419 0.961160 0.047861 0.000929 29050.700000 0 0 1
29.716971 -16.652322 24.648521 42.046971 -0.510765 0.944419 0.049707 -0.008492 260544.000000 0 0 1
29.891251 -16.216322 25.948391 42.775869 -0.497075 0.919003 0.046399 -0.005224 -342413.000000 0 0 1
29.543341 -14.738422 26.055051 42.058243 -0.462747 0.902692 0.056016 -0.014654 850711.000000 0 0 1
28.100681 -14.621522 25.988871 40.973877 -0.479776 0.883721 0.058785 -0.017656 1346400.000000 0 0 1
27.545701 -13.461922 26.579931 40.576862 -0.454577 0.856546 0.044810 -0.019640 142667.000000 0 0 1
27.981501 -12.108722 25.923961 40.020461 -0.408408 0.866146 0.056081 -0.029014 -469740.000000 0 0 1
27.459901 -12.061322 24.624391 38.805699 -0.413865 0.883362 0.045000 -0.017351 293248.000000 0 0 1
28.141561 -11.141022 23.782951 38.492838 -0.376960 0.904786 0.041708 -0.014466 273385.000000 0 0 1
29.257901 -11.725222 22.860531 38.937251 -0.381156 0.943310 0.046371 -0.026680 25222.900000 0 0 1
28.821341 -12.612022 21.834531 38.294641 -0.412489 0.964081 0.044619 -0.024283 4978.200000 0 0 1
28.907361 -14.003122 22.173531 39.030609 -0.451101 0.966594 0.050164 -0.022060 -217789.000000 0 0 1
28.340951 -14.967822 21.082331 38.362871 -0.485901 0.988970 0.054265 -0.018768 -18152.600000 0 0 1
28.897151 -14.921422 19.768431 38.058968 -0.476652 1.024629 0.051920 -0.018727 -136513.000000 0 0 1
28.259781 -15.935422 19.034431 37.614658 -0.513445 1.040212 0.054956 -0.020196 -146533.000000 0 0 1
28.836281 -16.108222 17.588831 37.421557 -0.509429 1.081484 0.057601 -0.018005 -275498.000000 0 0 1
28.331671 -17.086222 16.713631 37.067075 -0.542680 1.103020 0.060807 -0.018374 -529326.000000 0 0 1
26.954301 -17.036522 16.452831 35.881375 -0.563654 1.094451 0.038662 -0.017543 -600121.000000 0 0 1
26.489701 -15.985022 15.392131 34.556373 -0.542947 1.109152 0.041321 -0.014237 -567960.000000 0 0 1
26.619801 -16.161722 14.007931 34.147287 -0.545647 1.148100 0.056860 -0.021107 -51861.200000 0 0 1
25.878101 -17.225922 13.526531 33.902442 -0.587303 1.160388 0.035848 -0.022362 -602805.000000 0 0 1
26.223101 -17.604822 12.116031 33.828671 -0.591236 1.204501 0.040109 -0.016604 -320205.000000 0 0 1
25.874701 -16.618722 11.115031 32.699021 -0.570927 1.223965 0.034658 -0.016082 -100174.000000 0 0 1
25.706301 -17.189422 9.813231 32.443638 -0.589399 1.263513 0.039089 -0.023216 514917.000000 0 0 1
26.929401 -17.711222 8.921131 33.443484 -0.581763 1.300775 0.051400 -0.016471 802585.000000 0 0 1
27.567201 -18.844622 9.475331 34.710982 -0.599626 1.294309 0.058414 -0.013492 902852.000000 0 0 1
29.000541 -18.627122 9.422531 35.732131 -0.570945 1.303941 0.071891 -0.007347 1390620.000000 0 0 1
29.875341 -19.445922 10.411131 37.135853 -0.577009 1.286635 0.089221 -0.020913 124167.000000 0 0 1
29.645931 -19.007222 11.754131 37.125669 -0.570122 1.248649 0.086497 -0.032801 100122.000000 0 0 1
30.117841 -19.857122 12.766031 38.266973 -0.582895 1.230672 0.076064 -0.027954 -130889.000000 0 0 1
30.136101 -19.203422 14.144631 38.432104 -0.567341 1.193894 0.084723 -0.023687 106742.000000 0 0 1
30.498441 -20.151822 15.095731 39.549108 -0.583895 1.179166 0.083126 -0.015854 -155425.000000 0 0 1
30.206791 -19.671422 16.392631 39.599665 -0.577236 1.143998 0.086039 -0.018292 184434.000000 0 0 1
29.889821 -20.781722 17.466531 40.377730 -0.607550 1.123446 0.064752 -0.010454 130571.000000 0 0 1
28.627261 -21.376322 17.272831 39.683976 -0.641394 1.120470 0.043369 -0.001326 -139345.000000 0 0 1
28.309461 -22.154922 18.430931 40.397591 -0.664039 1.097033 0.050665 -0.003393 276317.000000 0 0 1
27.021401 -23.023622 18.395031 39.982752 -0.705684 1.092718 0.034709 0.006060 83656.300000 0 0 1
25.849501 -22.303422 18.677031 38.916203 -0.711889 1.070222 0.046623 -0.000461 -417171.000000 0 0 1
24.704801 -23.104022 18.544131 38.574705 -0.751928 1.069306 0.054760 0.001895 -284931.000000 0 0 1
23.535701 -22.672922 19.441931 38.026035 -0.766729 1.034123 0.049231 -0.004278 -421513.000000 0 0 1
22.890701 -21.541622 18.908331 36.681748 -0.755045 1.029241 0.035574 -0.007479 854514.000000 0 0 1
21.732801 -21.061422 19.652231 36.084738 -0.769711 0.994868 0.048189 -0.015752 1027810.000000 0 0 1
21.997901 -20.428622 21.068631 36.675925 -0.748427 0.958859 0.030596 -0.011499 -579096.000000 0 0 1
22.178301 -21.405522 22.080831 37.916178 -0.767669 0.949169 0.047261 -0.010098 -63906.600000 0 0 1
22.438901 -20.693322 23.304731 38.403494 -0.744950 0.918719 0.053174 -0.013412 148729.000000 0 0 1
22.757001 -21.699022 24.447431 39.829707 -0.761604 0.909933 0.057808 -0.018433 238131.000000 0 0 1
21.657501 -22.554422 24.706601 39.851794 -0.805682 0.902102 0.059565 -0.017922 -27172.300000 0 0 1
21.974801 -23.425122 25.700241 41.135515 -0.817333 0.895959 0.063461 -0.019839 -675854.000000 0 0 1
20.845501 -24.114322 26.437321 41.412165 -0.857976 0.878385 0.075160 -0.022182 -716719.000000 0 0 1
20.165001 -25.157522 25.818391 41.305175 -0.895111 0.895582 0.075600 -0.015331 114949.000000 0 0 1
19.229901 -25.788522 26.680671 41.793483 -0.930068 0.878388 0.077055 -0.022742 77254.500000 0 0 1
18.393701 -26.897222 25.968491 41.667149 -0.970991 0.897922 0.079000 -0.016478 -113009.000000 0 0 1
17.540001 -26.322122 25.013501 40.325935 -0.983006 0.901693 0.074971 -0.024460 38066.600000 0 0 1
17.231301 -27.266922 24.004051 40.206930 -1.007216 0.931024 0.065031 -0.028484 -662234.000000 0 0 1
16.341101 -26.732122 22.873331 38.792103 -1.022116 0.940185 0.051371 -0.026066 -675364.000000 0 0 1
15.112101 -26.324422 23.381541 38.315105 -1.049660 0.914428 0.036365 -0.020095 -395422.000000 0 0 1
14.342901 -25.474222 22.507431 36.894976 -1.058000 0.914685 0.017857 -0.016833 -434187.000000 0 0 1
13.008201 -25.110422 23.090431 36.509103 -1.092821 0.886075 0.014432 -0.015808 -968403.000000 0 0 1
12.053001 -26.129622 23.142631 36.927136 -1.138604 0.893471 0.013218 -0.013617 1277880.000000 0 0 1
10.718001 -25.520722 23.070431 36.033701 -1.173192 0.875978 0.014303 -0.011902 1948420.000000 0 0 1
9.491601 -26.452422 22.885831 36.243377 -1.226288 0.887376 0.026626 -0.007822 112415.000000 0 0 1
9.320301 -27.054622 21.601231 35.852947 -1.239030 0.924172 0.031000 -0.013671 1346000.000000 0 0 1
7.966501 -27.527422 21.362031 35.742978 -1.289090 0.930221 0.037818 -0.010784 1167530.000000 0 0 1
7.751401 -28.161622 20.016531 35.409359 -1.302201 0.970012 0.047910 -0.014516 -117027.000000 0 0 1
8.331001 -29.445322 19.950631 36.530265 -1.295072 0.993047 0.052872 -0.019297 195220.000000 0 0 1
7.968201 -30.180922 18.779331 36.428609 -1.312672 1.029193 0.050677 -0.021818 -63836.200000 0 0 1
8.468901 -31.651622 18.840031 37.795426 -1.309354 1.048959 0.044016 -0.016968 42546.900000 0 0 1
7.910001 -32.511522 19.836731 38.898112 -1.332135 1.035651 0.042530 -0.019417 135568.000000 0 0 1
8.687101 -33.667522 19.982231 40.103084 -1.318278 1.049192 0.042691 -0.016625 108783.000000 0 0 1
8.094401 33.718610 21.038331 40.559528 1.335197 1.025464 0.055732 -0.020440 213162.000000 0 0 1
7.027701 32.884710 20.662931 39.468335 1.360256 1.019805 0.045393 -0.020857 -189100.000000 0 0 1
7.140301 31.648010 21.386331 38.858147 1.348896 0.987990 0.042323 -0.029824 466894.000000 0 0 1
6.147001 30.556310 20.873131 37.512149 1.372276 0.980705 0.031744 -0.022889 441588.000000 0 0 1
4.776401 30.688810 21.179731 37.592527 1.416395 0.972298 0.058094 -0.027339 -541025.000000 0 0 1
4.151401 29.501210 20.889731 36.385936 1.430995 0.959273 0.065384 -0.020627 -65742.400000 0 0 1
2.657101 29.413110 21.256631 36.387300 1.480704 0.946930 0.061381 -0.016100 23131.900000 0 0 1
2.650301 29.173110 22.662531 37.036263 1.480198 0.912334 0.053290 -0.015887 -645156.000000 0 0 1
1.359601 28.856310 23.047531 36.955701 1.523715 0.897389 0.058013 -0.007878 -704101.000000 0 0 1
1.290001 28.378410 24.504341 37.516143 1.525370 0.859036 0.061764 -0.004991 -158704.000000 0 0 1
1.230001 29.406810 25.468241 38.921776 1.528994 0.857481 0.064981 -0.011603 80685.200000 0 0 1
1.048801 29.008910 26.848031 39.540278 1.534658 0.824390 0.061961 -0.006206 548895.000000 0 0 1
2.238701 28.243210 27.576041 39.536423 1.491697 0.798915 0.047299 -0.006516 529861.000000 0 0 1
2.438001 26.931310 27.087321 38.274825 1.480516 0.784550 0.041444 -0.006275 6000.790000 0 0 1
3.292901 26.237810 27.960781 38.484687 1.445947 0.757519 0.010849 0.006381 -40179.900000 0 0 1
3.970901 24.950010 27.407391 37.275141 1.412966 0.744727 0.007371 0.025314 201843.000000 0 0 1
3.030701 24.015610 26.865141 36.161727 1.445263 0.733380 0.021748 0.024778 -3321.120000 0 0 1
3.604501 22.738410 26.727551 35.275908 1.413584 0.711058 0.009689 0.028074 521375.000000 0 0 1
2.529701 21.611510 26.447171 34.247768 1.454273 0.688452 0.020645 0.027842 369201.000000 0 0 1
3.015201 20.306710 26.528811 33.544474 1.423390 0.658592 0.037638 0.025582 43028.900000 0 0 1
3.779801 19.765610 25.459911 32.452632 1.381846 0.668866 0.050135 0.017676 -32929.400000 0 0 1
3.984501 18.217310 25.622021 31.689661 1.355467 0.629148 0.047236 -0.000714 -219706.000000 0 0 1
4.983901 17.903710 26.554151 32.411495 1.299297 0.610639 0.040277 0.003679 691917.000000 0 0 1
6.236901 17.620310 25.872521 31.918045 1.230597 0.625634 0.065260 0.001734 841249.000000 0 0 1
7.434201 17.319610 26.871271 32.822270 1.165343 0.611670 0.044212 -0.001913 911889.000000 0 0 1
8.005601 18.495210 27.539361 34.125926 1.162298 0.631755 0.045412 0.005718 380697.000000 0 0 1
8.637001 19.431210 26.676391 34.114506 1.152533 0.672982 0.034740 -0.005899 -450605.000000 0 0 1
9.108501 20.725510 27.364951 35.515519 1.156723 0.691160 0.030976 0.001344 55223.400000 0 0 1
10.126601 20.506810 28.321511 36.403095 1.112108 0.679324 0.037677 -0.017771 44969.100000 0 0 1
10.362301 21.649110 29.150651 37.760054 1.124376 0.688819 0.056578 -0.021714 -596477.000000 0 0 1
11.397201 21.442910 30.221171 38.768721 1.082257 0.676890 0.077166 -0.022813 -337336.000000 0 0 1
12.688501 21.300910 29.638941 38.641864 1.033560 0.696618 0.068865 -0.023074 221834.000000 0 0 1
13.656701 21.315210 30.701841 39.792546 1.000985 0.689526 0.068985 -0.014496 479033.000000 0 0 1
15.126501 21.147710 30.267441 39.901813 0.949890 0.709714 0.041918 -0.020656 -45502.300000 0 0 1
15.730101 22.229810 29.597971 40.219901 0.954979 0.743796 0.034618 -0.021954 -530397.000000 0 0 1
17.054101 21.873810 29.331561 40.368879 0.908582 0.757453 0.065493 -0.012698 -421501.000000 0 0 1
-8.608862 16.912710 4.095137 19.414490 -1.099961 1.358268 0.033835 -0.013248 -86087.500000 0 1 0
-8.469362 18.172010 4.749737 20.603690 -1.134662 1.338176 0.038497 -0.011212 463571.000000 0 1 0
-7.108662 18.424210 5.107837 20.397906 -1.202563 1.317693 0.025786 -0.006954 386013.000000 0 1 0
-6.828962 19.853110 5.658437 21.743932 -1.239500 1.307535 0.028783 -0.008415 -145077.000000 0 1 0
-6.988962 21.020310 4.845137 22.675413 -1.249808 1.355462 0.034222 -0.011412 345316.000000 0 1 0
-8.318862 21.307710 4.418137 23.296822 -1.198580 1.379995 0.038766 -0.013761 378164.000000 0 1 0
-8.405262 22.296510 3.222237 24.045074 -1.210294 1.436384 0.069316 -0.023970 526804.000000 0 1 0
-7.703762 21.958610 1.986837 23.355428 -1.233381 1.485624 0.040651 -0.024610 -254902.000000 0 1 0
-8.282462 20.949610 1.293037 22.564514 -1.194304 1.513461 0.061387 -0.025862 -986015.000000 0 1 0
-7.661362 20.755210 -0.138863 22.124522 -1.217182 1.577073 0.035644 -0.017645 522475.000000 0 1 0
-6.309662 20.343310 -0.131163 21.299749 -1.270046 1.576954 0.014868 -0.011600 -278428.000000 0 1 0
-5.394362 21.352610 0.117537 22.023780 -1.323342 1.565459 0.022938 -0.013191 -1237870.000000 0 1 0
-3.991062 21.232610 -0.469763 21.609557 -1.384996 1.592537 0.013329 -0.005968 -531958.000000 0 1 0
-3.913162 21.467310 -1.886063 21.902408 -1.390491 1.657015 0.013156 -0.011853 563.997000 0 1 0
-2.623062 21.514410 -2.462363 21.813150 -1.449474 1.683922 0.003890 -0.000549 139797.000000 0 1 0
-2.771862 21.754110 -3.972063 22.286808 -1.444061 1.749978 0.006678 -0.007528 -599826.000000 0 1 0
-1.560862 22.070410 -4.558863 22.590319 -1.500192 1.773998 0.020020 -0.002940 -710017.000000 0 1 0
-1.595962 22.415310 -5.935063 23.242594 -1.499717 1.829009 0.019580 -0.011029 648465.000000 0 1 0
-0.278862 23.149110 -6.433563 24.028104 -1.558751 1.841855 0.013781 -0.012244 693005.000000 0 1 0
0.846738 22.338110 -6.225063 23.204731 1.532909 1.842390 0.021304 0.003694 -461077.000000 0 1 0
1.918138 22.802110 -7.011963 23.932887 1.486873 1.868143 0.023753 -0.000214 -452400.000000 0 1 0
3.146238 21.939110 -7.161663 23.291903 1.428360 1.883334 0.027541 0.005124 -435916.000000 0 1 0
2.912938 20.878110 -8.055463 22.567037 1.432170 1.935805 0.026238 -0.005820 -72614.800000 0 1 0
3.784538 19.784210 -7.860563 21.622353 1.381789 1.942860 0.020541 -0.008296 208106.000000 0 1 0
3.492438 18.622710 -8.876363 20.923486 1.385413 2.008907 0.015440 -0.009395 -599123.000000 0 1 0
3.916238 18.833310 -10.184563 21.765932 1.365776 2.057724 0.028322 -0.015788 -181860.000000 0 1 0
2.896738 18.732110 -11.166763 21.999537 1.417371 2.103183 0.030566 -0.015081 -300600.000000 0 1 0
3.365238 19.084410 -12.582363 23.105311 1.396256 2.146668 0.042735 -0.019179 89457.100000 0 1 0
3.527038 20.453510 -12.792363 24.380948 1.400034 2.123144 0.062966 -0.024583 -15505.200000 0 1 0
4.110038 20.666310 -14.064863 25.333952 1.374482 2.159374 0.092903 -0.023783 261548.000000 0 0 1
4.494438 22.097510 -14.479363 26.798356 1.370142 2.141599 0.081866 -0.021418 444024.000000 0 0 1
3.362638 22.861810 -14.919963 27.505908 1.424758 2.144120 0.111302 -0.024246 346412.000000 0 0 1
3.708938 24.206610 -15.338763 28.896260 1.418759 2.130366 0.089033 -0.015032 -386438.000000 0 0 1
2.510538 25.046310 -15.759063 29.697954 1.470894 2.130157 0.106161 -0.017607 -193839.000000 0 0 1
1.787738 25.576010 -14.651163 29.529390 1.501011 2.089961 0.118530 -0.029825 -214874.000000 0 0 1
1.958838 26.995110 -14.524263 30.716888 1.498361 2.063311 0.080918 -0.022519 -856282.000000 0 0 1
1.105938 27.594510 -13.316863 30.659728 1.530740 2.020106 0.082601 -0.025320 1224340.000000 0 0 1
-0.326562 27.602910 -13.424763 30.696116 -1.558966 2.023439 0.078381 -0.031513 547148.000000 0 0 1
-0.914862 26.374010 -13.708763 29.738116 -1.536122 2.049899 0.069638 -0.032980 -1982460.000000 0 0 1
-1.116662 25.403010 -12.512063 28.339223 -1.526867 2.028078 0.082885 -0.032699 -307965.000000 0 0 1
-2.100662 25.651310 -11.512563 28.194708 -1.489086 1.991413 0.068560 -0.040166 69366.700000 0 0 1
-2.129962 24.487510 -10.673463 26.797345 -1.484033 1.980462 0.067540 -0.027468 127834.000000 0 0 1
-3.242262 24.493310 -9.593963 26.504313 -1.439188 1.941185 0.041735 -0.023943 -37856.000000 0 0 1
-2.985062 24.968910 -8.310063 26.484225 -1.451810 1.889962 0.056282 -0.025755 -208194.000000 0 0 1
-2.499862 26.354310 -8.275663 27.735997 -1.476223 1.873784 0.052724 -0.035899 -335328.000000 0 0 1
-2.222162 26.712110 -6.807063 27.655215 -1.487798 1.819492 0.039644 -0.032252 71557.900000 0 0 1
-0.995062 26.165810 -6.365563 26.947359 -1.532786 1.809272 0.030799 -0.023530 -63478.400000 0 0 1
-0.632662 26.534110 -5.009463 27.010257 -1.546957 1.757342 0.026191 -0.024465 203292.000000 0 0 1
-1.483662 25.846610 -3.863663 26.175874 -1.513457 1.718942 0.024154 -0.015424 -428614.000000 0 0 1
-2.737962 26.425310 -3.734663 26.827992 -1.467553 1.710458 0.025455 -0.014930 -588547.000000 0 0 1
-3.461362 26.034910 -2.582063 26.390616 -1.438621 1.668793 0.016632 -0.005673 361897.000000 0 0 1
-4.528862 24.905410 -2.762763 25.464149 -1.390919 1.679507 0.028225 -0.012883 1545560.000000 0 0 1
-5.801262 25.396910 -3.318763 26.261604 -1.346225 1.697508 0.020576 -0.013351 1148850.000000 0 0 1
-6.723462 24.371610 -3.611763 25.538699 -1.301619 1.712695 0.003985 -0.018449 -351754.000000 0 0 1
-8.040862 24.974410 -4.059463 26.549121 -1.259313 1.724302 0.031476 -0.011326 -861778.000000 0 0 1
-8.745762 25.573010 -3.013663 27.194657 -1.241273 1.681843 0.046962 -0.016214 316194.000000 0 0 1
-10.012062 26.150410 -3.412563 28.208703 -1.205149 1.692069 0.068717 -0.018447 1060630.000000 0 0 1
-10.944062 26.456310 -2.206663 28.715469 -1.178565 1.647718 0.067589 -0.015885 -196841.000000 0 0 1
-11.438362 25.299110 -1.591863 27.810342 -1.146177 1.628068 0.069472 -0.017198 -802939.000000 0 0 1
-10.566562 24.616210 -0.768963 26.799278 -1.165330 1.599494 0.076390 -0.028197 -688381.000000 0 0 1
-11.013762 23.212810 -0.284163 25.694712 -1.127781 1.581856 0.075327 -0.029423 -147475.000000 0 0 1
-12.064962 23.247110 0.645837 26.199399 -1.092074 1.546143 0.098723 -0.034912 -145566.000000 0 0 1
-12.642862 21.960710 0.744837 25.350927 -1.048433 1.541411 0.097986 -0.039778 176020.000000 0 0 1
-13.573462 21.848310 1.995337 25.798622 -1.014892 1.493376 0.101096 -0.039594 365627.000000 0 0 1
-12.873862 21.790610 3.233437 25.515135 -1.037170 1.443728 0.103999 -0.035711 228695.000000 0 0 1
-12.611262 23.067710 3.897337 26.577291 -1.070485 1.423624 0.089553 -0.037605 -2462.240000 0 0 1
-12.377662 22.903410 5.375837 26.583309 -1.075331 1.367166 0.084808 -0.037878 403849.000000 0 0 1
-11.026162 22.619610 5.748937 25.812270 -1.117231 1.346192 0.076115 -0.031914 482012.000000 0 0 1
-10.984262 22.263310 7.109137 25.823416 -1.112459 1.291897 0.050481 -0.028594 55221.100000 0 0 1
-9.570362 22.035410 7.693937 25.225935 -1.161060 1.260857 0.042887 -0.022277 53902.200000 0 0 1
-9.027262 23.211310 8.274737 26.243621 -1.199881 1.250019 0.044945 -0.028101 357564.000000 0 0 1
-7.958662 22.950310 9.199737 25.974837 -1.236995 1.208761 0.046081 -0.025217 143873.000000 0 0 1
-8.265062 22.706510 10.714837 26.433020 -1.221708 1.153426 0.035867 -0.028801 -484247.000000 0 0 1
-9.032862 21.564310 10.941437 25.813312 -1.174121 1.133085 0.042095 -0.026230 -157855.000000 0 0 1
-8.952862 21.091610 12.236937 25.975996 -1.169370 1.080274 0.029806 -0.015830 219598.000000 0 0 1
-9.975262 19.931410 12.573637 25.590297 -1.106765 1.057164 0.028565 -0.010990 179417.000000 0 0 1
-9.918962 18.713610 11.861537 24.275112 -1.083407 1.060278 0.042416 -0.023521 -373515.000000 0 1 0
-10.658562 17.710510 12.495137 24.153583 -1.029039 1.027080 0.042603 -0.022147 -326152.000000 0 1 0
-10.909062 16.462410 11.640337 22.924136 -0.985569 1.038195 0.047472 -0.025929 -79641.300000 0 1 0
-11.426662 15.299510 12.302037 22.715275 -0.929305 0.998486 0.036983 -0.022487 5677.320000 0 1 0
-11.624062 14.228210 11.409437 21.627206 -0.885791 1.015082 0.035098 -0.011688 35808.500000 0 1 0
-11.930862 12.874910 12.109937 21.325087 -0.823437 0.966877 0.027240 -0.015573 -60113.500000 0 1 0
-13.046162 12.955810 12.955037 22.491962 -0.781923 0.956987 0.039199 -0.007691 -181040.000000 0 1 0
-13.468562 11.678610 13.450137 22.331553 -0.714339 0.924426 0.026969 0.003473 591030.000000 0 1 0
-14.600062 11.814710 14.533337 23.747991 -0.680340 0.912232 0.030761 -0.003389 17664.200000 0 1 0
-15.696962 12.546510 14.102137 24.549538 -0.674311 0.958881 0.039623 -0.011145 -839252.000000 0 1 0
-16.363962 13.031710 15.246537 25.885548 -0.672521 0.940978 0.034442 -0.002907 -611590.000000 0 0 1
-17.424562 14.075310 14.932537 26.920445 -0.679470 0.982804 0.046508 -0.010466 -810739.000000 0 0 1
-18.534762 13.549810 14.290037 27.043297 -0.631261 1.014066 0.050974 -0.012700 -670123.000000 0 0 1
-19.594562 14.493410 14.349437 28.282718 -0.636854 1.038681 0.072749 -0.015627 545274.000000 0 0 1
-20.861862 13.982710 13.589737 28.555462 -0.590481 1.074802 0.063374 -0.014230 177.037000 0 0 1
-21.575562 13.004310 14.242337 28.938920 -0.542427 1.056237 0.058141 -0.008339 295082.000000 0 0 1
-22.783462 12.732510 13.503237 29.386057 -0.509612 1.093351 0.054654 -0.008474 825596.000000 0 0 1
-23.626762 11.646810 14.237037 29.942700 -0.457992 1.075291 0.069682 -0.015954 229460.000000 0 0 1
-24.502362 12.063510 15.268637 31.289380 -0.457501 1.061021 0.067147 -0.012408 514456.000000 0 0 1
-25.283102 10.992310 15.802537 31.777135 -0.410116 1.050321 0.078159 -0.023928 8311.180000 0 0 1
-26.062892 11.411510 17.079637 33.184498 -0.412700 1.030154 0.066677 -0.011181 728438.000000 0 0 1
-27.109032 12.400910 16.800937 34.219200 -0.429028 1.057582 0.065356 -0.002989 969114.000000 0 0 1
-27.656622 12.885110 18.013537 35.431657 -0.435994 1.037468 0.049295 0.004907 -560935.000000 0 0 1
-28.739022 13.897610 17.748737 36.525232 -0.450425 1.063368 0.033225 0.006188 -404283.000000 0 0 1
-28.284192 15.205710 17.381337 36.514655 -0.493277 1.074684 0.036395 0.010807 407245.000000 0 0 1
-29.411202 16.057010 17.184237 37.658258 -0.499728 1.096941 0.041045 0.002971 228972.000000 0 0 1
-28.901682 17.478110 16.834737 37.738573 -0.543900 1.108406 0.055068 0.005852 -199782.000000 0 0 1
-28.227112 18.139010 17.857037 38.008779 -0.571162 1.081717 0.057625 0.012104 -351101.000000 0 0 1
-29.033612 18.575510 18.944637 39.330643 -0.569167 1.068230 0.060970 -0.004630 -711855.000000 0 0 1
-28.327752 18.815110 20.276737 39.593130 -0.586288 1.033136 0.071567 -0.007148 76167.500000 0 0 1
-27.839272 17.711410 21.032537 39.129103 -0.566614 1.003307 0.069237 -0.008382 586625.000000 0 0 1
-26.984322 16.735810 20.368137 37.724024 -0.555144 1.000449 0.073893 0.008873 14633.300000 0 0 1
-26.594232 15.522310 21.164137 37.364635 -0.528327 0.968639 0.064641 -0.000323 -357179.000000 0 0 1
-27.595962 14.569710 21.295637 37.779859 -0.485769 0.971966 0.039509 -0.011982 -29863.200000 0 0 1
-27.102002 13.369210 21.853637 37.293910 -0.458267 0.944702 0.044869 -0.006696 511514.000000 0 0 1
-28.333952 12.422910 22.030937 37.980307 -0.413204 0.951991 0.042702 -0.015714 904467.000000 0 0 1
-29.064052 12.165210 20.811937 37.760405 -0.396408 0.987045 0.041954 -0.016852 -364985.000000 0 0 1
-30.201642 11.411210 20.991837 38.509896 -0.361253 0.994285 0.062562 -0.023139 -524105.000000 0 0 1
-31.119352 11.327210 19.706537 38.536572 -0.349085 1.034015 0.076778 -0.020319 -331230.000000 0 0 1
-30.591122 10.829910 18.480837 37.344946 -0.340253 1.053113 0.083984 -0.022426 -15251.400000 0 0 1
-30.037962 9.540110 18.578937 36.585103 -0.307526 1.038135 0.096601 -0.024148 -435226.000000 0 0 1
-29.247402 9.103810 17.348137 35.202951 -0.301763 1.055488 0.104268 -0.030340 -453052.000000 0 0 1
-29.932282 8.811210 16.138137 35.128598 -0.286285 1.093475 0.109473 -0.023567 307044.000000 0 0 1
-30.487682 9.944810 15.379637 35.565872 -0.315309 1.123614 0.100351 -0.018024 518776.000000 0 0 1
-29.470052 11.026410 14.803137 34.773532 -0.358031 1.131060 0.088971 -0.012679 267857.000000 0 0 1
-28.963202 10.588110 13.593937 33.701191 -0.350479 1.155603 0.100230 -0.024890 389251.000000 0 0 1
-27.952402 11.490210 13.117937 32.946046 -0.390007 1.161282 0.087297 -0.022091 243741.000000 0 0 1
-27.622692 11.484210 11.599137 32.084890 -0.394012 1.200905 0.100493 -0.016677 -387083.000000 0 0 1
-26.910332 10.374910 11.079037 30.895789 -0.367976 1.204035 0.120541 -0.014603 381194.000000 0 0 1
-27.510722 9.085810 11.212537 31.066264 -0.318986 1.201539 0.114035 -0.016201 -350344.000000 0 0 1
-26.765072 7.938310 10.511237 29.830721 -0.288327 1.210702 0.128616 -0.019980 -289740.000000 0 0 1
-26.618602 8.157610 9.100937 29.290333 -0.297375 1.254851 0.124628 -0.012644 216117.000000 0 0 1
-26.166842 7.026910 8.470437 28.387134 -0.262353 1.267791 0.153844 -0.030210 -39289.000000 0 0 1
-25.454172 7.205710 7.106837 27.392412 -0.275868 1.308348 0.137922 -0.016113 293241.000000 0 0 1
-26.418192 7.620110 6.149937 28.174610 -0.280819 1.350745 0.137430 -0.018580 279232.000000 0 0 1
-25.831322 7.742410 4.895737 27.407487 -0.291209 1.391205 0.139951 -0.019268 366539.000000 0 0 1
-26.814602 8.375310 3.831937 28.352291 -0.302740 1.435227 0.121927 -0.020442 545620.000000 0 0 1
-27.651982 7.503610 3.059037 28.814822 -0.264978 1.464434 0.155487 -0.030423 624175.000000 0 0 1
-27.008492 6.517110 2.206437 27.871127 -0.236772 1.491548 0.168688 -0.029144 189658.000000 0 0 1
-25.936802 6.824710 1.103737 26.842366 -0.257296 1.529666 0.171781 -0.026118 717782.000000 0 0 1
-24.748962 7.425910 1.591737 25.888006 -0.291502 1.509272 0.144246 -0.024358 894460.000000 0 0 1
-23.740762 7.571910 0.583937 24.925862 -0.308742 1.547367 0.149568 -0.014917 258393.000000 0 1 0
-22.521362 8.420810 0.991637 24.064603 -0.357809 1.529577 0.123312 -0.016931 -63385.000000 0 1 0
-22.892762 9.740710 1.350337 24.915525 -0.402288 1.516573 0.108895 -0.017539 704791.000000 0 1 0
-21.761362 10.410910 1.904637 24.198586 -0.446229 1.492006 0.104924 -0.022741 241532.000000 0 1 0
-22.125362 11.752310 2.604337 25.187914 -0.488271 1.467215 0.093415 -0.025394 877110.000000 0 0 1
-20.915462 12.429410 3.029037 24.517786 -0.536195 1.446935 0.080288 -0.025233 1539160.000000 0 1 0
-21.279562 13.618010 3.692337 25.532397 -0.569283 1.425674 0.064982 -0.032138 312736.000000 0 0 1
-20.021062 14.280410 4.356337 24.975001 -0.619576 1.395472 0.031216 -0.026487 596768.000000 0 1 0
-19.397862 13.371410 5.247937 24.137367 -0.603525 1.351626 0.029702 -0.031434 22649.200000 0 1 0
-18.664962 14.083510 6.229537 24.197793 -0.646402 1.310422 0.040619 -0.029411 -275529.000000 0 1 0
-18.056462 13.122910 7.270237 23.475581 -0.628468 1.255926 0.023539 -0.032732 -824773.000000 0 1 0
-17.181562 12.259810 6.694337 22.143242 -0.619759 1.263671 0.038862 -0.026023 -444568.000000 0 1 0
-16.480862 11.529010 7.727837 21.546609 -0.610417 1.203968 0.022013 -0.022488 -180905.000000 0 1 0
10.868638 -32.793422 -14.182163 37.345275 -1.250762 1.960331 0.038099 -0.013256 -497810.000000 0 0 1
12.080138 -32.898522 -13.488963 37.552558 -1.218887 1.938209 0.016019 -0.007664 -71999.300000 0 0 1
12.770838 -31.642922 -13.662263 36.756309 -1.187197 1.951634 0.009229 -0.009468 590166.000000 0 0 1
14.235338 -31.629522 -13.127663 37.086481 -1.147888 1.932614 0.027815 -0.005451 893851.000000 0 0 1
15.153838 -32.483922 -13.838763 38.423370 -1.134304 1.939241 0.022389 -0.006756 1239400.000000 0 0 1
16.512738 -32.044022 -13.636663 38.541516 -1.094973 1.932446 0.035534 -0.010670 1278100.000000 0 0 1
17.649138 -33.046722 -13.972163 39.984988 -1.080269 1.927765 0.048728 -0.011457 251735.000000 0 0 1
17.851838 -34.010022 -12.968063 40.540602 -1.087428 1.896397 0.046012 -0.013557 -493368.000000 0 0 1
18.379538 33.264210 -13.578263 40.356961 1.066011 1.913945 0.051100 -0.008521 -177886.000000 0 0 1
18.336238 31.991410 -12.663163 38.987480 1.050345 1.901597 0.045891 -0.021407 684836.000000 0 0 1
19.443338 32.066310 -11.737863 39.294644 1.025722 1.874141 0.046701 -0.024150 608343.000000 0 0 1
19.496238 30.815610 -11.072863 38.109230 1.006698 1.865604 0.035721 -0.024320 -14713.500000 0 0 1
20.548038 30.785610 -9.966163 38.331450 0.982248 1.833818 0.044573 -0.020449 922999.000000 0 0 1
21.796338 30.116710 -10.282663 38.572396 0.944322 1.840640 0.035756 -0.015946 1238780.000000 0 0 1
22.612538 30.058410 -9.087663 38.696518 0.925833 1.807855 0.028201 -0.012141 1067850.000000 0 0 1
23.896338 29.147110 -9.314463 38.824582 0.884067 1.813071 0.003281 -0.000191 864387.000000 0 0 1
24.909538 29.822710 -10.025163 40.129578 0.874926 1.823290 0.013528 -0.004889 -213102.000000 0 0 1
26.030038 29.029510 -10.301963 40.328721 0.839821 1.829109 0.007760 0.011840 -288479.000000 0 0 1
27.030538 29.608810 -11.282963 41.648972 0.830888 1.845131 0.018677 0.010644 -345826.000000 0 0 1
27.547238 30.854310 -10.841363 42.759489 0.841964 1.827137 0.003181 0.002213 -127677.000000 0 0 1
28.476438 31.325010 -11.766163 43.938666 0.832996 1.841891 -0.001005 0.006906 -192057.000000 0 0 1
28.984838 32.791810 -11.632763 45.285150 0.846945 1.830587 -0.001232 0.001355 -99778.200000 0 0 1
28.082938 33.798310 -12.008363 45.554121 0.877497 1.837555 0.019219 0.002755 -135972.000000 0 0 1
28.414538 -33.402322 -11.378363 45.305278 -0.865910 1.824663 0.043578 0.002169 -365690.000000 0 0 1
27.422938 -32.273322 -11.696363 43.936201 -0.866471 1.840258 0.048560 -0.007739 -17993.600000 0 0 1
26.206638 -32.467822 -10.986763 43.146915 -0.891706 1.828268 0.037979 -0.010338 637852.000000 0 0 1
25.057138 -31.662322 -11.317063 41.933742 -0.901330 1.844064 0.048773 -0.016307 1031240.000000 0 0 1
25.217738 -30.144222 -11.007663 40.813932 -0.874151 1.843881 0.056686 -0.010471 -40516.900000 0 0 1
26.191638 -29.499422 -11.855563 41.191895 -0.844724 1.862739 0.043894 -0.002910 309158.000000 0 0 1
26.519338 -28.229222 -11.330063 40.355106 -0.816620 1.855381 0.044840 0.003009 6286.880000 0 0 1
27.340838 -27.375822 -12.327663 40.606999 -0.786038 1.879249 0.047507 -0.002970 452371.000000 0 0 1
28.616338 -27.852322 -12.717663 41.909254 -0.771869 1.879115 0.038200 0.004665 206608.000000 0 0 1
28.503538 -28.683222 -13.843463 42.741319 -0.788540 1.900634 0.037644 -0.003782 -567282.000000 0 0 1
29.807138 -29.444322 -14.024263 44.182729 -0.779275 1.893799 0.029760 0.006000 -375834.000000 0 0 1
30.137538 -30.406322 -13.015063 44.746033 -0.789838 1.865927 0.026266 -0.004663 -305623.000000 0 0 1
31.074938 -31.285322 -13.549563 46.130400 -0.788772 1.868916 0.009719 -0.007406 -758209.000000 0 0 1
31.790338 -32.066722 -12.473563 46.845384 -0.789726 1.840319 0.015395 -0.008485 -550309.000000 0 0 1
32.932538 -32.681222 -13.000763 48.183339 -0.781568 1.844001 0.008525 -0.004898 -399984.000000 0 0 1
33.868138 -33.243422 -12.132563 48.983415 -0.776090 1.821089 0.006367 0.000533 -97617.900000 0 0 1
33.417338 33.884710 -11.352263 48.926127 0.792342 1.804959 -0.005223 0.012230 -267818.000000 0 0 1
32.453538 34.026410 -10.327763 48.142407 0.809053 1.787002 -0.009375 0.009830 -118041.000000 0 0 1
32.273738 32.891610 -9.490663 47.048112 0.794879 1.773913 0.000741 0.013062 -607610.000000 0 0 1
31.576438 33.272810 -8.151663 46.589708 0.811551 1.746669 -0.017109 0.010458 695774.000000 0 0 1
30.249638 33.743010 -8.428863 46.094219 0.839934 1.754693 -0.000603 0.001538 104545.000000 0 0 1
29.583638 33.954810 -7.202163 45.606928 0.854086 1.729378 0.014993 0.003557 186069.000000 0 0 1
28.553738 -33.311422 -7.284163 44.475002 -0.862151 1.735319 0.027886 -0.006101 -504944.000000 0 0 1
29.164038 -32.038622 -7.502363 43.969306 -0.832332 1.742263 0.024784 -0.014666 -137907.000000 0 0 1
28.351938 -30.991422 -7.942063 42.747830 -0.829847 1.757671 0.029099 -0.008975 792977.000000 0 0 1
27.073938 -30.532722 -7.114763 41.423002 -0.845368 1.743411 0.042591 -0.013866 1142360.000000 0 0 1
26.410638 -29.399022 -7.651163 40.253753 -0.838893 1.762033 0.048764 -0.015834 -103185.000000 0 0 1
25.282038 -29.016822 -6.902563 39.099908 -0.854072 1.748263 0.059869 -0.027134 -61809.600000 0 0 1
24.323938 -28.040922 -7.623563 37.895461 -0.856262 1.773352 0.072247 -0.028474 -26029.700000 0 0 1
23.486238 -28.779622 -8.518763 38.110882 -0.886332 1.796227 0.083153 -0.027965 116306.000000 0 0 1
22.610838 -27.943822 -9.218563 37.109151 -0.890499 1.821843 0.088500 -0.023613 480240.000000 0 0 1
21.348438 -28.673022 -9.817363 37.071264 -0.930794 1.838818 0.081075 -0.016161 574927.000000 0 0 1
21.649638 -29.429922 -10.982963 38.150395 -0.936553 1.862815 0.085747 -0.014938 472694.000000 0 0 1
20.489638 -30.142622 -11.444363 38.201785 -0.973786 1.875045 0.075751 -0.016594 805208.000000 0 0 1
20.282738 -31.525522 -10.830463 39.019827 -0.999092 1.852053 0.074104 -0.021815 104524.000000 0 0 1
21.409238 -32.342222 -11.031063 40.324424 -0.986060 1.847886 0.073361 -0.021779 -121367.000000 0 0 1
21.171538 -33.632122 -10.457963 41.094071 -1.008965 1.828115 0.058288 -0.020924 337095.000000 0 0 1
22.399538 33.860010 -10.702063 41.985399 0.986356 1.828540 0.049235 -0.019243 21649.700000 0 0 1
23.403338 34.003410 -9.735263 42.411360 0.967990 1.802405 0.046935 -0.018276 -777956.000000 0 0 1
24.514638 33.222610 -10.059463 42.495907 0.935091 1.809781 0.037825 -0.014144 497463.000000 0 0 1
25.795538 33.604110 -9.198463 43.350406 0.916107 1.784610 0.032772 -0.010840 400814.000000 0 0 1
25.731238 33.180510 -7.827963 42.712057 0.911179 1.755111 0.022640 -0.010417 54121.000000 0 0 1
26.091638 31.814310 -7.604663 41.842022 0.883905 1.753559 0.019628 -0.001875 -153467.000000 0 0 1
25.946938 31.459410 -6.104663 41.233542 0.881130 1.719393 0.023144 -0.004052 92705.600000 0 0 1
27.009438 31.921910 -5.267663 42.145775 0.868565 1.696111 0.026245 -0.000967 256370.000000 0 0 1
27.759838 30.975110 -4.515363 41.838434 0.840086 1.678931 0.025621 0.001552 124297.000000 0 0 1
27.055738 30.034610 -3.494863 40.574682 0.837529 1.657037 0.030975 0.007497 -525782.000000 0 0 1
26.678738 30.675210 -2.306763 40.719095 0.854967 1.627477 0.049517 -0.001549 -19394.400000 0 0 1
26.571838 29.797410 -1.177863 39.941652 0.842558 1.600290 0.049030 0.008937 285343.000000 0 0 1
25.324538 28.854010 -1.178163 38.409298 0.850451 1.601475 0.027222 0.017000 60490.300000 0 0 1
24.110638 29.577410 -1.070363 38.174490 0.886873 1.598839 0.020983 0.011745 -38896.600000 0 0 1
23.049038 28.608910 -1.185163 36.757754 0.892614 1.603044 0.030935 0.008044 817891.000000 0 0 1
21.708538 29.238110 -0.687163 36.422519 0.932129 1.589664 0.026931 -0.002450 326328.000000 0 0 1
21.822638 29.359210 0.711037 36.588199 0.931598 1.551362 0.035982 -0.006159 -265014.000000 0 0 1
20.827138 30.147610 1.256737 36.663707 0.966245 1.536512 0.037527 -0.006908 -515725.000000 0 0 1
19.930738 29.466810 2.310637 35.649211 0.976100 1.505935 0.054106 -0.013899 65494.700000 0 0 1
19.222938 28.339610 1.767837 34.289650 0.974779 1.519217 0.071146 -0.012128 373813.000000 0 0 1
18.639538 27.543710 2.780637 33.373946 0.975862 1.487382 0.082394 -0.016641 -96335.000000 0 0 1
18.196238 26.199710 2.167437 31.972264 0.963757 1.502953 0.075839 -0.006130 136862.000000 0 0 1
19.249838 25.306110 1.826237 31.847929 0.920495 1.513422 0.081709 -0.015959 635215.000000 0 0 1
19.906438 24.625010 2.921737 31.799276 0.890965 1.478786 0.082735 -0.012813 308617.000000 0 0 1
21.130138 23.740710 2.613137 31.889379 0.843512 1.488761 0.075696 -0.012059 -15443.800000 0 0 1
20.690038 22.794010 1.667037 30.828940 0.833745 1.516696 0.079970 -0.011336 956644.000000 0 0 1
21.762338 21.913910 1.255537 30.909467 0.788868 1.530165 0.045645 -0.008924 496774.000000 0 0 1
21.436838 20.966210 0.099337 29.985494 0.774300 1.567483 0.073248 -0.013267 -216214.000000 0 0 1
21.264038 21.539410 -1.155363 30.289278 0.791831 1.608950 0.062173 -0.013741 226830.000000 0 0 1
21.553338 20.555610 -2.090163 29.857131 0.761709 1.640859 0.091260 -0.018653 -38244.900000 0 0 1
21.452638 21.029610 -3.538063 30.248604 0.775441 1.688031 0.072816 -0.005759 659208.000000 0 0 1
22.456038 22.045210 -3.813763 31.698734 0.776167 1.691401 0.064474 -0.008007 961779.000000 0 0 1
22.114038 22.755210 -4.958963 32.115753 0.799687 1.725826 0.052773 -0.007445 -195138.000000 0 0 1
23.147838 23.855110 -5.341663 33.666334 0.800444 1.730135 0.040819 0.007379 -108795.000000 0 0 1
23.182138 25.113510 -4.606663 34.486537 0.825367 1.704775 0.021371 0.012566 136212.000000 0 0 1
23.551138 25.019310 -3.212563 34.510035 0.815617 1.664022 0.043298 0.006231 -844555.000000 0 0 1
22.459938 24.676210 -2.223063 33.441085 0.832382 1.637322 0.036640 -0.001695 -1675440.000000 0 0 1
21.494138 25.702310 -2.139363 33.573555 0.874326 1.634561 0.037000 -0.003374 392600.000000 0 0 1
20.434238 25.412110 -1.249163 32.632711 0.893552 1.609085 0.056818 -0.002347 322958.000000 0 0 1
19.440338 24.241610 -1.609063 31.115454 0.894873 1.622532 0.083799 -0.018748 -783810.000000 0 0 1
18.658138 24.583310 -2.730063 30.982551 0.921575 1.659027 0.063480 -0.009589 -67038.800000 0 0 1
17.906138 23.555210 -3.268163 29.768416 0.920813 1.680804 0.067259 -0.016779 -221694.000000 0 0 1
17.298038 23.863210 -4.628763 29.834550 0.943565 1.726573 0.064389 -0.024853 157177.000000 0 0 1
16.553738 22.769410 -5.186063 28.624596 0.942168 1.752977 0.067790 -0.025905 295456.000000 0 0 1
15.976638 23.185810 -6.396463 28.874720 0.967444 1.794174 0.057598 -0.028965 -434907.000000 0 0 1
15.384938 21.962110 -7.087863 27.735688 0.959720 1.829213 0.072402 -0.021332 -444077.000000 0 0 1
16.328738 21.108410 -7.710363 27.778451 0.912383 1.852056 0.055370 -0.011775 991127.000000 0 0 1
15.532738 19.994310 -8.183563 26.608440 0.910327 1.883419 0.080943 -0.015154 934875.000000 0 0 1
16.390138 18.703010 -8.471963 26.271912 0.851210 1.899136 0.073665 -0.007951 331337.000000 0 0 1
17.243438 18.860510 -9.586463 27.293868 0.830158 1.929682 0.064205 -0.010106 294183.000000 0 0 1
18.017638 17.688610 -9.882163 27.114191 0.776184 1.943854 0.071470 -0.008377 299066.000000 0 0 1
19.399038 18.104410 -10.446663 28.517102 0.750892 1.945858 0.054455 -0.003660 -60247.100000 0 0 1
19.445438 18.350110 -11.838463 29.240397 0.756426 1.987629 0.050103 -0.006157 -86534.700000 0 0 1
20.770238 18.709910 -12.152463 30.481894 0.733259 1.980871 0.047219 -0.000125 46900.500000 0 0 1
21.004138 18.971910 -13.688363 31.440077 0.734606 2.021256 0.042237 -0.006847 -63536.000000 0 0 1
21.146438 17.804610 -14.516463 31.223447 0.699812 2.054343 0.034384 -0.004496 144889.000000 0 0 1
21.098138 18.222810 -15.865563 32.076757 0.712403 2.088185 0.029455 -0.013064 34461.000000 0 0 1
20.998238 17.126410 -16.956963 31.965270 0.684188 2.129964 0.030775 -0.015888 810038.000000 0 0 1
22.157338 16.224110 -16.912563 32.252196 0.632026 2.122789 0.041084 -0.015016 1112850.000000 0 0 1
22.204338 15.354010 -17.982563 32.436874 0.604990 2.158422 0.057870 -0.026560 -416812.000000 0 0 1
23.195838 15.797010 -19.045963 33.916679 0.597879 2.167056 0.066769 -0.027144 -114106.000000 0 0 1
24.571938 15.687210 -18.682663 34.625288 0.568191 2.140719 0.080346 -0.028399 1087680.000000 0 0 1
25.419238 16.014010 -19.819663 35.991738 0.562184 2.153966 0.103868 -0.035786 -114844.000000 0 0 1
26.869538 16.252010 -19.425263 36.924798 0.543977 2.124777 0.100737 -0.040995 -463317.000000 0 0 1
26.922838 17.494010 -18.726063 37.169141 0.576223 2.098796 0.088684 -0.039884 33620.300000 0 0 1
28.233238 17.738610 -18.268863 38.020065 0.560960 2.072028 0.081005 -0.048495 -212293.000000 0 0 1
28.367538 18.798710 -17.179563 38.121465 0.585240 2.038293 0.077104 -0.037248 -53924.400000 0 0 1
27.570238 18.570210 -16.039963 36.908686 0.592760 2.020374 0.068001 -0.035326 130812.000000 0 0 1
26.354638 19.294310 -16.095463 36.412927 0.631948 2.028652 0.086768 -0.029623 507181.000000 0 0 1
25.310438 19.040210 -14.936963 35.018006 0.644950 2.011472 0.078428 -0.024214 437631.000000 0 0 1
25.830738 19.566110 -13.762763 35.206155 0.648267 1.972426 0.074888 -0.025499 490958.000000 0 0 1
25.007238 19.314510 -12.612063 34.021704 0.657657 1.950566 0.068158 -0.023434 -143720.000000 0 0 1
25.693938 19.743910 -11.360363 34.337418 0.655190 1.907995 0.070549 -0.023042 -437488.000000 0 0 1
25.727738 21.159510 -11.261563 35.163392 0.688275 1.896804 0.066313 -0.018575 16054.200000 0 0 1
26.265638 21.562710 -10.012363 35.427131 0.687384 1.857319 0.063201 -0.013178 91397.400000 0 0 1
25.410438 21.332010 -8.720063 34.304293 0.698365 1.827814 0.064267 -0.010741 -295231.000000 0 0 1
25.299938 20.013910 -8.274863 33.303405 0.669269 1.821896 0.082863 -0.022147 585868.000000 0 0 1
24.573338 19.948310 -7.022763 32.420722 0.681887 1.789140 0.079779 -0.018250 1257330.000000 0 0 1
23.005338 19.814510 -7.126763 31.187355 0.711018 1.801348 0.081824 -0.015184 864484.000000 0 0 1
22.294238 20.968210 -7.609263 31.537276 0.754757 1.814479 0.065816 -0.006188 -261065.000000 0 0 1
20.984138 20.609610 -7.923863 30.461084 0.776394 1.833954 0.059695 -0.007355 -695424.000000 0 0 1
20.115538 21.860610 -8.081963 30.786998 0.826947 1.836421 0.026096 0.000201 -681044.000000 0 0 1
20.397038 22.631610 -9.253263 31.841040 0.837284 1.865659 0.038186 -0.004057 -14679.300000 0 0 1
19.712238 22.282610 -10.455863 31.534300 0.846529 1.908765 0.034344 0.012220 509907.000000 0 0 1
18.180638 22.588810 -10.438863 30.818173 0.893104 1.916357 0.041097 -0.001040 192330.000000 0 0 1
18.025638 23.957710 -10.289063 31.697954 0.925765 1.901382 0.049442 -0.012582 -618556.000000 0 0 1
16.675138 24.285210 -10.286763 31.203351 0.969095 1.906749 0.053695 -0.012332 -583913.000000 0 0 1
16.521138 25.744410 -9.854163 32.137628 1.000252 1.882440 0.062081 -0.017250 -251204.000000 0 0 1
17.186438 26.668210 -10.691363 33.479431 0.998330 1.895831 0.082456 -0.015593 110845.000000 0 0 1
17.230738 27.873110 -9.957463 34.248499 1.017113 1.865798 0.086963 -0.033686 -190215.000000 0 0 1
20.373738 29.026210 33.165376 48.554631 0.958791 0.818862 0.046317 0.006406 -178093.000000 0 0 1
19.000938 29.276310 33.249986 48.204767 0.995110 0.809631 0.070786 -0.019281 -782615.000000 0 0 1
18.304238 28.053310 33.407554 47.308540 0.992679 0.786732 0.064590 -0.016586 642724.000000 0 0 1
16.790138 28.372010 33.696825 47.141868 1.036439 0.774464 0.098319 -0.032326 717654.000000 0 0 1
16.204838 29.004610 32.558567 46.518001 1.061299 0.795520 0.080308 -0.029700 -579380.000000 0 0 1
14.871338 29.336010 32.807547 46.455283 1.101619 0.786655 0.113716 -0.041271 -577969.000000 0 0 1
13.990738 29.509910 31.594671 45.440057 1.128080 0.801953 0.096053 -0.038167 -282860.000000 0 0 1
13.452838 28.270310 31.227471 44.219274 1.126643 0.786685 0.080246 -0.038648 -680893.000000 0 0 1
12.120938 28.356610 30.825651 43.603156 1.166855 0.785607 0.078426 -0.012513 -795662.000000 0 0 1
11.524838 26.955710 30.687161 42.439770 1.166770 0.762552 0.057548 -0.009847 -260997.000000 0 0 1
11.923338 26.223210 29.529241 41.252864 1.144052 0.773012 0.051110 -0.005899 360995.000000 0 0 1
13.194738 25.605410 29.534481 41.255590 1.094975 0.772898 0.037937 -0.011754 -181054.000000 0 0 1
13.421138 24.725610 28.277911 39.888883 1.073495 0.782835 0.039911 -0.002018 -255217.000000 0 0 1
13.204038 25.441210 27.086361 39.436946 1.092063 0.813682 0.020793 0.000045 236729.000000 0 0 1
13.348438 24.709810 25.875371 38.187568 1.075502 0.826321 0.025668 -0.001732 -94165.600000 0 0 1
12.174638 23.750410 25.614961 36.992297 1.097114 0.805930 0.036513 0.003693 -233673.000000 0 0 1
12.146038 23.278610 24.280371 35.762499 1.089886 0.824487 0.047468 -0.002792 86353.400000 0 0 1
11.055038 22.385510 24.139771 34.728280 1.112082 0.802232 0.065744 -0.009212 268349.000000 0 0 1
10.799038 21.933810 22.695531 33.358633 1.113290 0.822557 0.078922 -0.012270 -146056.000000 0 0 1
10.588538 22.960110 21.800831 33.385027 1.138691 0.859241 0.076980 -0.020037 -34234.500000 0 0 1
10.500738 22.492310 20.505731 32.197120 1.134011 0.880351 0.083071 -0.012646 -257433.000000 0 0 1
9.972338 23.482910 19.431431 32.069847 1.169211 0.919887 0.066291 -0.022404 -448508.000000 0 0 1
8.612338 23.773410 19.364931 31.848829 1.223235 0.917224 0.064379 -0.023564 -715918.000000 0 0 1
8.272938 24.870610 20.202731 33.092886 1.249671 0.914123 0.059580 -0.019533 42260.100000 0 0 1
6.921938 25.519110 19.797331 33.031387 1.305924 0.928109 0.056653 -0.018110 67020.500000 0 0 1
7.106538 26.433810 18.737331 33.171324 1.308163 0.970526 0.054300 -0.027751 -250267.000000 0 0 1
5.838938 26.958910 18.472531 33.198048 1.357504 0.980708 0.046843 -0.025823 -500595.000000 0 0 1
5.827038 28.059710 17.377031 33.515114 1.366041 1.025720 0.047521 -0.022887 33068.900000 0 0 1
6.087438 27.655810 16.029431 32.539874 1.354137 1.055711 0.051143 -0.015967 -103748.000000 0 0 1
6.815738 28.624710 15.317231 33.172969 1.337042 1.090842 0.043520 -0.013377 -124179.000000 0 0 1
7.338538 28.071810 13.968231 32.202362 1.315098 1.122130 0.052416 -0.013936 -272810.000000 0 0 1
6.334138 27.819910 13.040431 31.370711 1.346929 1.142097 0.054619 -0.018500 -478520.000000 0 0 1
6.583038 26.632410 12.312931 30.070416 1.328472 1.148923 0.043566 -0.018987 -12467.100000 0 0 1
6.046938 26.831410 10.870231 29.574515 1.349132 1.194419 0.044964 -0.018567 -126540.000000 0 0 1
6.879738 27.432210 9.904731 29.965991 1.325074 1.233929 0.037852 -0.014978 -60369.400000 0 0 1
6.974738 28.874210 10.056731 31.360880 1.333781 1.244352 0.032710 -0.008715 -125380.000000 0 0 1
7.057538 29.546110 8.732631 31.607599 1.336325 1.290872 0.031425 -0.000611 589389.000000 0 0 1
5.812338 29.534610 8.009431 31.148474 1.376482 1.310738 0.043659 -0.010023 499991.000000 0 0 1
5.676738 28.441410 7.127531 29.865379 1.373791 1.329815 0.029754 -0.001038 -761073.000000 0 0 1
4.208438 28.188910 6.854531 29.313993 1.422597 1.334780 0.037378 -0.004645 -195749.000000 0 0 1
3.468238 29.272110 6.236231 30.129316 1.452863 1.362307 0.058221 -0.011884 590104.000000 0 0 1
2.108638 28.928310 5.975431 29.614173 1.498033 1.367625 0.032881 -0.010145 290670.000000 0 0 1
1.371438 29.991810 5.244031 30.477686 1.525101 1.397875 0.035673 -0.013587 -610851.000000 0 0 1
1.893238 30.038910 3.957531 30.357577 1.507853 1.440060 0.029752 -0.011777 493181.000000 0 0 1
1.009038 30.634010 2.990531 30.796168 1.537870 1.473536 0.032659 -0.016951 657081.000000 0 0 1
-0.093362 29.842710 2.262931 29.928530 -1.567668 1.495113 0.039871 -0.021045 207120.000000 0 0 1
0.441438 28.844910 1.422631 28.883344 1.555494 1.521522 0.029742 -0.010827 19986.100000 0 0 1
-0.546862 27.894910 1.043631 27.919782 -1.551194 1.533408 0.036279 -0.015334 157054.000000 0 0 1
-0.857962 27.989410 -0.463369 28.006390 -1.540153 1.587342 0.024129 -0.012449 -245104.000000 0 0 1
-1.560962 29.152210 -0.802169 29.204989 -1.517302 1.598267 0.024759 -0.015300 -12828.000000 0 0 1
-1.233362 29.468310 -2.155669 29.572781 -1.528967 1.643755 0.026848 -0.015685 -204295.000000 0 0 1
-2.145162 30.567910 -2.839369 30.774354 -1.500734 1.663192 0.038733 -0.023162 1260010.000000 0 0 1
-3.502762 30.215110 -3.157469 30.580906 -1.455384 1.674230 0.040915 -0.024151 807277.000000 0 0 1
-3.581962 29.369410 -4.270569 29.893652 -1.449433 1.714145 0.027032 -0.024767 941103.000000 0 0 1
-5.038062 29.248610 -4.926969 30.085516 -1.400221 1.735303 0.037601 -0.022699 1324420.000000 0 0 1
-5.423062 30.410710 -5.596769 31.393386 -1.394324 1.750033 0.054244 -0.022891 108262.000000 0 0 1
-6.398962 30.102010 -6.583969 31.471040 -1.361338 1.781561 0.053699 -0.019145 388829.000000 0 0 1
-7.191762 31.299610 -7.215569 32.915824 -1.344945 1.791804 0.056686 -0.009705 321288.000000 0 0 1
-8.222162 31.908810 -6.454169 33.577260 -1.318606 1.764219 0.042879 -0.006629 -8658.360000 0 0 1
-8.477062 33.179610 -6.927769 34.939105 -1.320657 1.770400 0.038979 -0.013674 320494.000000 0 0 1
-9.639562 33.911710 -6.181269 35.792922 -1.293847 1.744362 0.043589 -0.014281 369070.000000 0 0 1
-10.900662 33.350010 -6.423269 35.669398 -1.254886 1.751862 0.051403 -0.005641 -201970.000000 0 0 1
-11.945662 34.185510 -5.927469 36.694452 -1.234624 1.733043 0.056911 -0.006977 274545.000000 0 0 1
-13.385762 33.780010 -6.258669 36.870566 -1.193516 1.741369 0.069195 -0.007220 -28780.400000 0 0 1
-13.711762 33.896210 -7.636669 37.353503 -1.186398 1.776691 0.070362 -0.009258 -427088.000000 0 0 1
-15.104462 33.793010 -7.742869 37.816191 -1.150465 1.777005 0.082482 -0.009210 -878658.000000 0 0 1
-15.573362 33.866510 -9.217969 38.398451 -1.139785 1.813225 0.095242 -0.018497 976196.000000 0 0 1
-16.942562 33.530710 -9.482969 38.746427 -1.102930 1.818052 0.109893 -0.024356 1353150.000000 0 0 1
-17.962562 -33.941222 -9.102969 39.465482 1.084043 1.803549 0.104247 -0.026104 -96549.900000 0 0 1
-19.457962 34.079310 -9.360369 40.343874 -1.052003 1.804945 0.099136 -0.031333 732667.000000 0 0 1
-20.033562 33.237110 -8.366869 39.699541 -1.028360 1.783143 0.088014 -0.030775 53415.900000 0 0 1
-19.978862 33.776210 -7.048869 39.870714 -1.036645 1.748524 0.066581 -0.017644 -1000440.000000 0 0 1
-20.518762 32.811010 -5.987469 39.159057 -1.011937 1.724300 0.067139 -0.018322 -457565.000000 0 0 1
-20.287662 33.230610 -4.659569 39.211914 -1.022684 1.689908 0.070181 -0.022190 464090.000000 0 0 1
-21.467362 33.139510 -3.874869 39.674795 -0.995978 1.668618 0.073738 -0.021485 396733.000000 0 0 1
-22.507962 -34.118422 -4.010469 41.070171 0.987632 1.668601 0.082327 -0.029090 -191840.000000 0 0 1
-23.139662 -33.970922 -5.256169 41.437843 0.972826 1.697984 0.090323 -0.030829 20527.900000 0 0 1
-23.820662 -32.704822 -5.267369 40.801648 0.941294 1.700255 0.098111 -0.034994 144617.000000 0 0 1
-24.465662 -32.374922 -6.631269 41.117854 0.923658 1.732778 0.110989 -0.028835 398443.000000 0 0 1
-23.473462 -31.981622 -7.605769 40.394001 0.937635 1.760217 0.114385 -0.023179 443457.000000 0 0 1
-23.742462 -32.352822 -8.946469 41.115069 0.937705 1.790147 0.087882 -0.017111 -218290.000000 0 0 1
-24.930762 -31.695222 -9.651169 41.464142 0.904293 1.805710 0.083217 -0.013756 439338.000000 0 0 1
-26.229802 -32.132022 -9.182169 42.482721 0.886187 1.788654 0.088468 -0.013237 730373.000000 0 0 1
-27.329072 -31.789522 -9.982269 43.094055 0.860705 1.804559 0.054331 -0.006004 -19676.400000 0 0 1
-27.812192 -30.313922 -9.849769 42.302126 0.828411 1.805797 0.042090 0.000573 -463951.000000 0 0 1
-26.970962 -29.339622 -10.490069 41.210287 0.827438 1.828178 0.051761 0.000808 -80315.900000 0 0 1
-27.128842 -29.218622 -11.886769 41.605255 0.822469 1.860537 0.033836 -0.000603 -207513.000000 0 0 1
-26.018982 -28.517222 -12.683469 40.633604 0.831175 1.888244 0.050950 0.002684 -70676.000000 0 0 1
-24.766362 -29.175122 -12.673769 40.313582 0.866949 1.890599 0.050467 -0.005948 185548.000000 0 0 1
-23.895262 -28.657122 -13.685969 39.743175 0.875763 1.922354 0.043859 -0.003006 57809.400000 0 0 1
-22.546962 -29.392022 -13.695469 39.494586 0.916433 1.924920 0.063063 -0.016703 -562255.000000 0 0 1
-22.491362 -30.686722 -14.288969 40.641246 0.938307 1.930063 0.075166 -0.015429 -6686.210000 0 0 1
-23.092662 -31.774422 -13.568369 41.557016 0.942330 1.903395 0.058826 -0.012799 39295.000000 0 0 1
-23.264562 -32.986122 -14.445569 42.871885 0.956533 1.914469 0.052757 -0.013411 -104698.000000 0 0 1
-23.712562 -34.087922 -13.702969 43.726918 0.963010 1.889542 0.038921 -0.014973 -127414.000000 0 0 1
-23.724362 33.081210 -14.439569 43.193899 -0.948649 1.911655 0.023650 -0.017881 -339067.000000 0 0 1
-24.219762 31.854410 -13.549769 42.248036 -0.920719 1.897285 0.014395 -0.011930 57991.400000 0 0 1
-23.400262 31.438410 -12.446069 41.119953 -0.930940 1.878297 0.010882 -0.011607 246177.000000 0 0 1
-23.099962 32.319010 -11.397669 41.328362 -0.950241 1.850201 0.051798 -0.013314 87979.600000 0 0 1
-22.484462 31.668410 -10.083269 40.126195 -0.953393 1.824808 0.055026 -0.017656 261035.000000 0 0 1
-23.346362 30.900710 -9.269869 39.822568 -0.923766 1.805731 0.053484 -0.008795 337140.000000 0 0 1
-22.585162 30.426910 -8.162969 38.762359 -0.932257 1.782975 0.048017 -0.006136 217739.000000 0 0 1
-23.391962 29.437810 -7.308169 38.303758 -0.899343 1.762768 0.046823 -0.015389 -72524.200000 0 0 1
-23.471862 28.249110 -8.027069 37.594871 -0.877503 1.785968 0.041362 -0.005250 8382.490000 0 0 1
-23.973162 27.134810 -7.288069 36.934081 -0.847182 1.769426 0.036237 -0.013267 -297369.000000 0 0 1
-23.017362 26.468710 -6.277469 35.634227 -0.855029 1.747884 0.043517 -0.011356 -253601.000000 0 0 1
-22.962462 27.298610 -5.155269 36.042552 -0.871458 1.714321 0.056361 -0.013587 110877.000000 0 0 1
-21.921662 26.917910 -4.273969 34.977135 -0.887343 1.693296 0.048900 -0.010427 506701.000000 0 0 1
-20.625662 27.799310 -4.440569 34.898971 -0.932468 1.698383 0.036585 -0.014498 296917.000000 0 0 1
-19.983562 27.436710 -5.658669 34.411282 -0.941295 1.735989 0.028777 -0.016876 828036.000000 0 0 1
-18.739362 28.183010 -5.795769 34.337103 -0.984006 1.740399 0.058292 -0.016837 1125520.000000 0 0 1
-17.920762 27.769810 -7.025369 33.788635 -0.997709 1.780245 0.080189 -0.024515 -204166.000000 0 0 1
-18.307062 28.367110 -8.234269 34.751182 -0.997688 1.810021 0.083117 -0.027002 76883.300000 0 0 1
-18.360362 29.774710 -8.301869 35.952152 -1.018229 1.803814 0.096238 -0.025390 -1935.340000 0 0 1
-18.336662 30.297710 -9.750469 36.732221 -1.026550 1.839464 0.076630 -0.020731 73826.500000 0 0 1
-17.041362 30.154010 -10.295169 36.133957 -1.056401 1.859716 0.090243 -0.027280 127639.000000 0 0 1
-16.965162 30.889010 -11.483869 37.065171 -1.068545 1.885810 0.086749 -0.030887 -256803.000000 0 0 1
-15.618962 30.795610 -12.215969 36.627195 -1.101420 1.910833 0.107212 -0.031147 -57412.700000 0 0 1
-15.613862 31.543810 -13.434769 37.673567 -1.111165 1.935433 0.108924 -0.031944 -358646.000000 0 0 1
-16.235462 30.961910 -14.527769 37.858766 -1.087844 1.964635 0.107890 -0.039159 -405993.000000 0 0 1
-15.741662 31.490610 -15.893969 38.627408 -1.107241 1.994861 0.165521 -0.042757 -2103050.000000 0 0 1
-14.436362 31.259710 -16.069569 37.997487 -1.138156 2.007452 0.157341 -0.050771 -2327020.000000 0 0 1
-13.996362 31.557510 -17.360469 38.641434 -1.153345 2.036745 0.113913 -0.059666 -1137980.000000 0 0 1
-12.536562 31.904310 -17.514869 38.494428 -1.196389 2.043166 0.141865 -0.056883 -1614360.000000 0 0 1
-11.685962 30.833610 -17.347069 37.258476 -1.208523 2.055094 0.154723 -0.063720 -178985.000000 0 0 1
-10.337862 31.054910 -17.749869 37.233542 -1.249445 2.067713 0.138139 -0.057764 538004.000000 0 0 1
-10.071562 31.112310 -19.274869 37.959620 -1.257726 2.103394 0.147195 -0.061924 -702367.000000 0 0 1
-10.363762 29.844010 -19.895469 37.334999 -1.236561 2.132809 0.133143 -0.065026 160936.000000 0 0 1
-10.113962 29.815410 -21.305569 38.015499 -1.243758 2.165718 0.110660 -0.060142 450231.000000 0 0 1
-11.411362 29.659410 -22.202369 38.766544 -1.203508 2.180616 0.107041 -0.050600 903837.000000 0 0 1
-12.331662 30.702510 -22.170369 39.827619 -1.188868 2.161154 0.113727 -0.051255 -702275.000000 0 0 1
-13.280962 30.780710 -21.164669 39.645671 -1.163458 2.133938 0.106674 -0.052413 -876499.000000 0 0 1
-14.137762 32.021910 -21.409469 41.032236 -1.155031 2.119723 0.128172 -0.055097 -384544.000000 0 0 1
-14.744362 31.913410 -22.687069 41.839754 -1.137999 2.143894 0.091541 -0.045510 -502756.000000 0 0 1
-15.619062 32.964610 -22.931169 43.086646 -1.128317 2.132006 0.088539 -0.043809 -37362.600000 0 0 1
-15.997062 33.166510 -24.439869 44.195368 -1.121388 2.156752 0.079230 -0.035348 362740.000000 0 0 1
-14.861962 33.354310 -25.280269 44.412610 -1.151625 2.176346 0.077510 -0.028693 -23839.300000 0 0 1
-15.119462 33.317710 -26.669969 45.276430 -1.144790 2.200676 0.075747 -0.017745 135519.000000 0 0 1
-15.681762 -33.762822 -27.336169 46.185625 1.135976 2.204181 0.062971 -0.009320 116652.000000 0 0 1
-17.015062 -33.469522 -27.022569 46.259491 1.100471 2.194631 0.057967 -0.006672 -607640.000000 0 0 1
-17.572962 -32.707522 -28.041369 46.528587 1.077775 2.217639 0.042437 -0.001338 59435.300000 0 0 1
-18.992162 -32.139322 -27.777669 46.532109 1.037071 2.210499 0.054318 -0.012072 166065.000000 0 0 1
-19.907462 -33.183122 -27.594969 47.527981 1.030430 2.190268 0.052550 -0.010458 -918554.000000 0 0 1
-21.211262 -32.647722 -27.477569 47.652998 0.994631 2.185379 0.047239 -0.010171 304964.000000 0 0 1
-22.319362 -33.712822 -27.555269 48.928531 0.986001 2.169018 0.023051 0.001453 -146853.000000 0 0 1
-22.365962 33.797810 -26.456669 48.399210 -0.986200 2.149136 0.055917 -0.007754 135690.000000 0 0 1
-23.451562 32.842510 -26.354769 48.199378 -0.950696 2.149318 0.036998 -0.007220 877760.000000 0 0 1
-23.475762 31.633710 -27.370869 47.968401 -0.932363 2.178035 0.058416 -0.016032 41458.100000 0 0 1
-22.605862 30.594610 -26.963069 46.626840 -0.934448 2.187407 0.070316 -0.043911 -248606.000000 0 0 1
-23.153862 29.747510 -25.945769 45.762415 -0.909399 2.173615 0.053028 -0.034144 62556.400000 0 0 1
31.014041 10.082710 -27.007433 42.343042 0.314324 2.262467 0.091389 -0.006669 35535.300000 0 0 1
30.919601 8.740110 -26.534213 41.671042 0.275485 2.261078 0.073949 -0.000952 565420.000000 0 0 1
29.598801 8.197310 -26.642543 40.658456 0.270176 2.285345 0.079759 -0.004516 630610.000000 0 0 1
29.493741 6.748810 -26.109073 39.963870 0.224949 2.282754 0.063923 -0.000942 28480.500000 0 0 1
29.758781 6.642910 -24.693963 39.236528 0.219625 2.251528 0.051614 0.004529 77215.900000 0 0 1
29.359421 5.420610 -24.229563 38.450362 0.182573 2.252545 0.055190 0.001655 1253.230000 0 0 1
29.284861 5.301810 -22.713163 37.437949 0.179103 2.222684 0.051355 0.005175 749053.000000 0 0 1
30.578521 4.933710 -22.213863 38.116180 0.159967 2.192958 0.045268 0.002580 855932.000000 0 0 1
30.509071 4.810410 -20.818363 37.247117 0.156384 2.163886 0.039154 0.000247 448630.000000 0 0 1
31.917381 4.535310 -20.192063 38.039554 0.141150 2.130361 0.031569 0.000577 176625.000000 0 0 1
32.406441 3.248310 -20.316363 38.385981 0.099903 2.128531 0.035482 0.004138 -15922.700000 0 0 1
33.336931 3.045210 -19.273563 38.627639 0.091094 2.093192 0.043574 0.002306 70143.200000 0 0 1
33.808391 1.541410 -19.151263 38.886426 0.045561 2.085747 0.057420 -0.006529 756377.000000 0 0 1
32.707421 0.694610 -18.796563 37.730209 0.021234 2.092299 0.065476 0.000521 736594.000000 0 0 1
33.275491 -0.595890 -18.795363 38.221448 -0.017906 2.084894 0.072748 0.005132 -21511.100000 0 0 1
32.327061 -1.743290 -18.435063 37.254926 -0.053874 2.088442 0.058135 0.005975 -130066.000000 0 0 1
32.160951 -1.874690 -17.052563 36.450393 -0.058225 2.057629 0.062514 0.002078 297334.000000 0 0 1
30.817811 -1.615290 -16.658363 35.069185 -0.052366 2.065777 0.061616 -0.002532 171376.000000 0 0 1
30.549541 -1.968090 -15.206063 34.181460 -0.064334 2.031817 0.069971 0.000492 -181088.000000 0 0 1
30.382891 -3.364990 -14.987463 34.045077 -0.110303 2.026645 0.073326 0.005164 322465.000000 0 0 1
29.232621 -3.525390 -14.192763 32.686527 -0.120018 2.019956 0.071622 0.000102 -302305.000000 0 0 1
29.004751 -4.978490 -13.753263 32.484045 -0.169988 2.007975 0.064310 0.002078 -229264.000000 0 0 1
28.642491 -5.899790 -14.737063 32.747227 -0.203139 2.037589 0.048951 0.003749 331017.000000 0 0 1
28.179811 -7.053990 -14.084663 32.283715 -0.245280 2.022254 0.043790 0.000635 -252336.000000 0 0 1
27.461901 -8.072790 -15.035563 32.332555 -0.285909 2.054463 0.024452 0.003943 166344.000000 0 0 1
26.226501 -7.503690 -15.461763 31.356034 -0.278666 2.086450 0.040500 -0.006456 375858.000000 0 0 1
25.752901 -8.112190 -16.701663 31.748466 -0.305162 2.124760 0.031406 -0.007321 -79084.700000 0 0 1
24.299701 -7.796290 -17.066363 30.700462 -0.310464 2.160241 0.035097 -0.007643 -582409.000000 0 0 1
24.128001 -6.516290 -17.549763 30.538773 -0.263779 2.182999 0.032994 -0.000969 134384.000000 0 0 1
22.821501 -6.307290 -18.056763 29.776661 -0.269644 2.222330 0.065860 -0.014332 108883.000000 0 0 1
22.613901 -6.802390 -19.534363 30.647225 -0.292196 2.261908 0.041664 -0.004055 -212329.000000 0 0 1
23.373101 -6.078490 -20.486963 31.669631 -0.254428 2.274304 0.038734 -0.005868 452278.000000 0 0 1
23.080001 -6.631690 -21.769263 32.412445 -0.279797 2.307207 0.050701 -0.003625 -47759.200000 0 0 1
23.676701 -5.796190 -22.908363 33.451085 -0.240084 2.325169 0.057758 -0.008590 -127453.000000 0 0 1
23.493901 -6.375090 -24.152463 34.292078 -0.264970 2.352256 0.067353 -0.014272 288328.000000 0 0 1
23.533201 -5.453590 -25.211583 34.916717 -0.227721 2.377556 0.066529 -0.019224 -169153.000000 0 0 1
23.432901 -6.080190 -26.650323 36.004295 -0.253874 2.404162 0.077465 -0.021379 -663254.000000 0 0 1
22.182901 -6.599190 -26.951573 35.524888 -0.289152 2.432061 0.077011 -0.018569 -753418.000000 0 0 1
22.035501 -6.699190 -28.343323 36.521041 -0.295139 2.459225 0.067674 -0.023492 481538.000000 0 0 1
20.697501 -7.416990 -28.716093 36.166453 -0.344096 2.488154 0.073346 -0.030410 420083.000000 0 0 1
20.658901 -8.748190 -28.243093 36.069285 -0.400564 2.470308 0.073165 -0.024129 644201.000000 0 0 1
19.782801 -9.533090 -29.085553 36.444594 -0.449053 2.494892 0.066554 -0.030898 252010.000000 0 0 1
19.841701 -11.029190 -28.814063 36.682235 -0.507330 2.474307 0.075299 -0.032227 137219.000000 0 0 1
19.012901 -11.379490 -27.681603 35.457783 -0.539326 2.466569 0.073047 -0.023566 738964.000000 0 0 1
19.208801 -12.752690 -27.208073 35.663544 -0.586084 2.438599 0.065140 -0.022729 -380169.000000 0 0 1
19.026801 -13.955490 -28.227453 36.790814 -0.632834 2.445326 0.052603 -0.014827 -19411.800000 0 0 1
17.696701 -14.105490 -28.708603 36.555738 -0.672951 2.474038 0.054282 -0.014906 625828.000000 0 0 1
17.681401 -14.855090 -29.926623 37.800905 -0.698750 2.484368 0.053460 -0.011647 -875651.000000 0 0 1
16.294601 -14.954490 -30.532023 37.700865 -0.742540 2.514692 0.062965 -0.018058 -723746.000000 0 0 1
15.460101 -15.957490 -30.006643 37.337044 -0.801228 2.504233 0.056924 -0.023508 41323.100000 0 0 1
14.440801 -16.330690 -30.890363 37.807971 -0.846738 2.527043 0.059316 -0.030166 -663047.000000 0 0 1
13.394501 -17.181290 -30.186003 37.226391 -0.908620 2.516445 0.071420 -0.031414 -361977.000000 0 0 1
13.846701 -18.467690 -29.919653 37.788521 -0.927436 2.484491 0.057935 -0.025952 -153429.000000 0 0 1
12.918301 -19.073190 -29.068943 37.090060 -0.975467 2.471460 0.060491 -0.020398 -433570.000000 0 0 1
13.378901 -20.168790 -28.163193 37.134089 -0.985096 2.431680 0.068170 -0.026749 -178583.000000 0 0 1
14.231501 -19.846890 -27.082883 36.468030 -0.948709 2.407811 0.054635 -0.024590 76498.400000 0 0 1
14.120901 -20.844990 -26.062223 36.237452 -0.975383 2.373456 0.046575 -0.017049 -22277.200000 0 0 1
15.172101 -20.657290 -24.942863 35.763986 -0.937311 2.342601 0.043853 -0.006918 -837843.000000 0 0 1
16.473901 -21.023090 -25.223393 36.736621 -0.906130 2.327600 0.036328 -0.001007 -863092.000000 0 0 1
17.313601 -20.848290 -24.108063 36.271348 -0.877758 2.297833 0.029239 0.005666 -416380.000000 0 0 1
18.755401 -21.236290 -24.504763 37.459692 -0.847354 2.283872 0.004756 0.008946 -270791.000000 0 0 1
18.993601 -22.590190 -24.870263 38.595383 -0.871674 2.271014 0.022694 -0.006109 146418.000000 0 0 1
18.615201 -23.494290 -23.874763 38.321165 -0.900751 2.243391 0.034030 -0.020133 -793456.000000 0 0 1
19.332401 -24.853590 -24.047863 39.619975 -0.909707 2.223030 0.034374 -0.021419 -273728.000000 0 0 1
20.675901 -24.699590 -23.625463 39.946529 -0.873842 2.203624 0.036518 -0.019450 188745.000000 0 0 1
21.301801 -25.968240 -23.373663 40.919975 -0.883798 2.178769 0.051346 -0.033465 47703.600000 0 0 1
21.196101 -26.281900 -21.874163 40.230486 -0.892110 2.145661 0.074333 -0.036217 -316139.000000 0 0 1
19.877201 -26.496610 -21.414363 39.442977 -0.927181 2.144706 0.065123 -0.033037 207206.000000 0 0 1
19.957801 -26.622590 -20.045263 38.844417 -0.927515 2.113017 0.058166 -0.031249 -19665.800000 0 0 1
18.653701 -27.128910 -19.419163 38.223582 -0.968445 2.103706 0.053194 -0.029957 -901210.000000 0 0 1
18.612101 -28.524300 -19.578863 39.285848 -0.992666 2.092513 0.052950 -0.025965 199786.000000 0 0 1
17.503601 -29.232700 -19.034963 39.028920 -1.031283 2.080266 0.034485 -0.011070 -206317.000000 0 0 1
16.106401 -28.926650 -19.560263 38.454793 -1.062746 2.104419 0.028508 -0.014740 -1057300.000000 0 0 1
15.543901 -27.750050 -19.060463 37.080715 -1.060202 2.110668 0.029459 -0.010223 -503117.000000 0 0 1
14.244501 -27.573520 -19.571463 36.691239 -1.093956 2.133423 0.027227 -0.003487 18637.100000 0 0 1
13.377301 -26.523190 -18.854763 35.184285 -1.103665 2.136353 0.028240 -0.008732 -861000.000000 0 0 1
12.981101 -26.924610 -17.570163 34.672096 -1.121548 2.102210 0.023402 -0.004206 133514.000000 0 0 1
12.005501 -26.023650 -17.040063 33.342558 -1.138560 2.107214 0.027892 -0.003967 1075320.000000 0 0 1
10.525701 -26.174550 -17.530363 33.214622 -1.188451 2.126793 0.037330 -0.009504 -239120.000000 0 0 1
9.836301 -27.202690 -16.850163 33.476367 -1.223831 2.098262 0.047732 -0.000809 -1031340.000000 0 0 1
8.463301 -27.009390 -16.896063 32.963792 -1.267140 2.108965 0.041587 0.004255 -349977.000000 0 0 1
7.749401 -27.905000 -17.949363 34.072304 -1.299916 2.125630 0.048877 -0.004122 -341718.000000 0 0 1
7.770901 -27.373820 -19.293463 34.379509 -1.294193 2.166620 0.043513 -0.008523 -163855.000000 0 0 1
6.772401 -28.006650 -20.054063 35.105602 -1.333537 2.178824 0.041600 -0.006124 -93259.200000 0 0 1
6.703801 -27.604230 -21.544563 35.652527 -1.332554 2.219674 0.040351 -0.012183 -71707.900000 0 0 1
6.228301 -26.274110 -21.521263 34.529485 -1.338042 2.243716 0.060413 -0.016596 -8634.610000 0 0 1
6.252701 -25.821610 -22.841763 35.037094 -1.333219 2.280924 0.050991 -0.007607 -204739.000000 0 0 1
5.026601 -25.006790 -23.302663 34.548812 -1.372430 2.311064 0.036285 -0.006447 681814.000000 0 0 1
3.809301 -25.781970 -23.206363 34.896361 -1.424107 2.298301 0.028341 0.000499 63368.200000 0 0 1
2.754801 -25.092600 -23.803163 34.696082 -1.461449 2.326839 0.042129 -0.006010 5446.500000 0 0 1
1.705501 -26.131580 -24.296163 35.722147 -1.505623 2.318754 0.025174 -0.007150 100487.000000 0 0 1
2.177601 -26.800820 -25.461703 37.031395 -1.489723 2.328934 0.021113 0.001910 680777.000000 0 0 1
1.257401 -27.823170 -25.897763 38.031618 -1.525634 2.319860 0.021109 -0.012802 213177.000000 0 0 1
1.841201 -28.645360 -27.014633 39.417472 -1.506609 2.325876 0.011926 -0.002287 -665465.000000 0 0 1
1.932901 -28.006300 -28.307313 39.867191 -1.501889 2.360352 0.015669 -0.006389 143457.000000 0 0 1
2.319401 -28.935570 -29.333683 41.268775 -1.490810 2.361426 0.020568 -0.011785 517205.000000 0 0 1
3.767301 -29.535890 -29.353183 41.811132 -1.443931 2.349058 0.018669 -0.007740 126211.000000 0 0 1
4.025601 -30.371660 -28.243083 41.669113 -1.439020 2.315555 0.011728 -0.013483 -274087.000000 0 0 1
5.130001 -31.177860 -28.607363 42.623434 -1.407718 2.306576 0.016349 -0.004227 271452.000000 0 0 1
5.711701 -31.950680 -27.406383 42.480340 -1.393899 2.272022 0.033969 -0.012548 -26690.400000 0 0 1
4.865601 -33.057330 -27.201813 43.085958 -1.424659 2.254074 0.038865 -0.022480 144763.000000 0 0 1
5.531301 -34.129926 -26.539803 43.586790 -1.410127 2.225464 0.063904 -0.036038 290563.000000 0 0 1
4.544901 33.175212 -26.011133 42.400823 1.434647 2.231228 0.078709 -0.046261 329062.000000 0 0 1
3.999301 32.285932 -26.984313 42.267351 1.447553 2.263240 0.083011 -0.046798 1199530.000000 0 0 1
2.631201 31.907772 -26.720213 41.701306 1.488520 2.266274 0.063516 -0.037442 1086080.000000 0 0 1
1.591101 32.366467 -27.753853 42.666100 1.521677 2.279025 0.069462 -0.026649 -183205.000000 0 0 1
1.385201 31.457062 -28.835393 42.695965 1.526790 2.312257 0.080355 -0.030260 299544.000000 0 0 1
0.397701 31.912092 -29.764293 43.640038 1.558335 2.321346 0.075296 -0.038820 249050.000000 0 0 1
0.117001 30.940712 -30.949933 43.763451 1.567015 2.356340 0.065975 -0.032450 -262725.000000 0 0 1
1.162501 30.672282 -31.835963 44.222944 1.532914 2.374450 0.083919 -0.037637 -130117.000000 0 0 1
0.610601 29.893722 -32.901083 44.457718 1.550373 2.403946 0.089958 -0.033894 249146.000000 0 0 1
1.677301 29.322752 -33.878723 44.837540 1.513657 2.427348 0.081732 -0.022220 395188.000000 0 0 1
2.202401 30.403252 33.721218 45.456890 1.498483 0.735003 0.075679 -0.028703 491789.000000 0 0 1
3.110301 30.076332 32.645499 44.497060 1.467749 0.747111 0.051249 -0.025127 489057.000000 0 0 1
2.450301 29.233542 31.475131 43.026594 1.487174 0.750237 0.055159 -0.013567 120384.000000 0 0 1
2.225001 27.869672 31.741781 42.299053 1.491129 0.722109 0.052953 -0.012332 -339791.000000 0 0 1
3.410801 27.094642 31.685481 41.829689 1.445570 0.711340 0.039695 -0.006663 -130423.000000 0 0 1
3.268301 25.578302 32.066331 41.148279 1.443709 0.677269 0.038765 -0.007219 20202.700000 0 0 1
2.514401 24.893642 31.061181 39.884992 1.470132 0.678096 0.037704 -0.000787 425699.000000 0 0 1
3.083401 23.595152 30.830771 38.945796 1.440853 0.657320 0.030151 0.009215 194089.000000 0 0 1
2.187501 22.746542 29.907721 37.638572 1.474923 0.652443 0.023410 0.018758 389602.000000 0 0 1
0.925601 22.331442 30.404151 37.735427 1.529372 0.633908 0.023818 0.001881 151850.000000 0 0 1
0.189601 21.605742 29.440571 36.518369 1.562021 0.633120 0.029835 0.013154 -1239460.000000 0 0 1
-1.215899 21.256842 29.790191 36.616761 -1.513658 0.620536 0.040728 0.008305 -1394610.000000 0 0 1
-2.030299 22.376942 29.995441 37.477675 -1.480312 0.642909 0.050271 -0.001127 -335644.000000 0 0 1
-3.370299 21.987042 30.120741 37.443931 -1.418695 0.636094 0.047242 -0.007424 -303606.000000 0 0 1
-4.369599 23.072142 30.525271 38.512456 -1.383625 0.655722 0.035287 -0.014541 13329.000000 0 0 1
-4.266499 23.407512 31.867791 39.770224 -1.390505 0.641335 0.050811 -0.016009 281741.000000 0 0 1
-5.258999 24.408062 32.081081 40.652261 -1.358579 0.661358 0.034031 -0.016935 424052.000000 0 0 1
-5.253899 24.975032 33.526317 42.135135 -1.363454 0.650658 0.045960 -0.012198 223657.000000 0 0 1
-6.422299 25.735062 33.798521 42.963698 -1.326237 0.665390 0.038754 -0.011216 253150.000000 0 0 1
-6.410599 26.213582 -33.281883 42.847770 -1.330951 2.460281 0.041891 -0.008325 -556289.000000 0 0 1
-7.808999 26.603742 -32.846063 42.983757 -1.285286 2.440520 0.036737 -0.000660 -916617.000000 0 0 1
-8.394499 27.749372 -33.395543 44.223947 -1.277037 2.426673 0.035334 -0.000859 -103222.000000 0 0 1
-9.726499 27.974192 -32.989913 44.333898 -1.236176 2.410019 0.030554 0.001741 148008.000000 0 0 1
-9.967599 28.431012 -31.529483 43.609446 -1.233597 2.378926 0.022866 0.003937 -264437.000000 0 0 1
-9.290299 29.678732 -31.207063 44.056981 -1.267430 2.357932 0.026687 0.000994 474499.000000 0 0 1
-9.338099 29.866752 -29.829873 43.232445 -1.267767 2.332269 0.038561 -0.002071 -211694.000000 0 0 1
-8.738299 31.178852 -29.289223 43.661622 -1.297543 2.306114 0.039080 -0.011158 596205.000000 0 0 1
-7.308399 31.172202 -29.270483 43.380641 -1.340503 2.311403 0.032603 -0.011384 423170.000000 0 0 1
-6.790599 32.459468 -28.939403 44.013842 -1.364568 2.288301 0.043344 -0.007405 203202.000000 0 0 1
-5.243299 32.462012 -28.792863 43.707017 -1.410658 2.289979 0.044793 -0.011138 174209.000000 0 0 1
-4.669199 33.741508 -28.509203 44.419201 -1.433288 2.267668 0.052045 -0.017235 -86425.800000 0 0 1
-4.742999 -33.599080 -29.481883 44.950814 1.430558 2.286131 0.054319 -0.016664 431588.000000 0 0 1
-3.642799 -33.804430 -30.635533 45.766203 1.463450 2.304186 0.065830 -0.033869 671454.000000 0 0 1
-3.998699 33.622303 -31.595713 46.311315 -1.452422 2.321627 0.064646 -0.026886 339834.000000 0 0 1
-4.858799 33.980967 -32.678463 47.394050 -1.428773 2.331603 0.075167 -0.030072 90432.800000 0 0 1
-4.278599 -33.384550 -33.667683 47.606171 1.443330 2.356344 0.043794 -0.032911 -318216.000000 0 0 1
-4.180699 -32.112000 -33.167893 46.354805 1.441333 2.368168 0.039130 -0.031913 51154.100000 0 0 1
-3.366599 -31.347020 -34.027973 46.388281 1.463809 2.394322 0.034993 -0.032891 -82234.500000 0 0 1
32.655481 19.716410 12.746831 40.219386 0.543187 1.248303 0.096618 -0.018412 294452.000000 0 0 1
33.383781 18.602210 13.288931 40.461275 0.508372 1.236149 0.108543 -0.023521 146126.000000 0 0 1
33.376521 17.435810 12.494631 39.675124 0.481405 1.250420 0.105270 -0.020053 -6597.700000 0 0 1
34.417111 16.380410 12.934031 40.251019 0.444213 1.243658 0.119097 -0.024709 -982009.000000 0 0 1
35.757461 16.591210 12.692331 41.412070 0.434429 1.259294 0.101005 -0.012066 -1021470.000000 0 0 1
-36.375192 15.521010 13.299231 41.724404 -0.403303 1.246397 0.109634 -0.017913 69069.400000 0 0 1
-35.300850 14.788610 12.441831 40.244902 -0.396719 1.256494 0.104402 -0.021210 424191.000000 0 0 1
-34.603447 13.700410 13.035531 39.433803 -0.376990 1.233892 0.078242 -0.019280 486828.000000 0 0 1
-35.455816 12.568010 13.187131 39.861889 -0.340651 1.233623 0.080176 -0.020184 201878.000000 0 0 1
-34.818808 11.589510 14.157631 39.333251 -0.321317 1.202592 0.090967 -0.032953 -32313.100000 0 0 1
-34.781454 12.153810 15.457331 39.954896 -0.336170 1.173562 0.090082 -0.028215 313860.000000 0 0 1
-34.217294 11.323110 16.489731 39.635177 -0.319575 1.141713 0.084562 -0.029139 64312.900000 0 0 1
-33.937602 12.111110 17.769731 40.177147 -0.342777 1.112652 0.080050 -0.025111 -235049.000000 0 0 1
-35.139775 12.423510 18.433031 41.580332 -0.339830 1.111507 0.093707 -0.032908 -6481.440000 0 0 1
-34.903182 13.134210 19.677831 42.165823 -0.359913 1.085266 0.091367 -0.037078 832935.000000 0 0 1
-36.189332 13.300710 20.604231 43.716255 -0.352207 1.080012 0.109266 -0.044003 729352.000000 0 0 1
36.124191 12.041510 20.972031 43.471614 0.321753 1.067369 0.098682 -0.027109 -395556.000000 0 0 1
35.064741 12.253210 21.852631 43.095414 0.336181 1.039008 0.101876 -0.037830 -378668.000000 0 0 1
34.664681 10.948610 22.506231 42.755615 0.305928 1.016444 0.093561 -0.033106 -989650.000000 0 0 1
35.644061 10.535710 23.368861 43.904487 0.287398 1.009521 0.089873 -0.024031 -854115.000000 0 0 1
35.475791 10.767010 24.743461 44.572403 0.294667 0.982278 0.086310 -0.020101 -1692980.000000 0 0 1
-35.990957 10.756410 25.449441 45.373157 -0.290414 0.975333 0.075902 -0.019585 -632843.000000 0 0 1
-35.136535 11.846210 25.189741 44.826687 -0.325180 0.974072 0.071658 -0.025672 -381350.000000 0 0 1
-34.349913 11.799610 24.069711 43.571760 -0.330883 0.985537 0.073785 -0.028734 -1039230.000000 0 0 1
-33.288782 12.915510 23.965441 43.003439 -0.370105 0.979676 0.073742 -0.028469 912683.000000 0 0 1
-32.328822 13.084010 25.032081 42.929583 -0.384566 0.948262 0.063147 -0.027711 813527.000000 0 0 1
-32.989702 13.735610 26.133201 44.271115 -0.394530 0.939367 0.064104 -0.020565 -538358.000000 0 0 1
-32.087242 14.464510 27.095521 44.418244 -0.423508 0.914725 0.074954 -0.018820 -641684.000000 0 0 1
-31.795292 15.728010 26.512381 44.285632 -0.459370 0.928959 0.116795 -0.025772 -47239.500000 0 0 1
-31.230772 16.589010 27.476901 44.783216 -0.488276 0.910243 0.125124 -0.028543 -90825.500000 0 0 1
-30.596122 17.938110 27.079591 44.622894 -0.530275 0.918700 0.123920 -0.024497 -255280.000000 0 0 1
-31.481102 18.900710 26.552461 45.313682 -0.540701 0.944720 0.095481 -0.038864 128126.000000 0 0 1
-30.859352 20.040010 25.943631 45.021923 -0.575952 0.956670 0.111385 -0.050326 392884.000000 0 0 1
-31.942132 20.980910 25.282521 45.822530 -0.581170 0.986337 0.133670 -0.032453 453053.000000 0 0 1
-32.725532 21.652710 26.249051 47.210306 -0.584519 0.981228 0.107920 -0.034928 635328.000000 0 0 1
-33.778602 22.468310 25.713091 48.031052 -0.586962 1.005882 0.096477 -0.024912 -56222.500000 0 0 1
-33.410232 23.851710 25.124801 48.129027 -0.619997 1.021567 0.099663 -0.033104 -153869.000000 0 0 1
-34.586239 24.531610 24.734541 49.089768 -0.616932 1.042731 0.088507 -0.026858 66361.700000 0 0 1
-34.355712 25.888810 24.564901 49.537660 -0.645770 1.051945 0.086782 -0.020880 291100.000000 0 0 1
-35.266587 26.549710 23.507721 50.012320 -0.645309 1.081462 0.082942 -0.018225 -276212.000000 0 0 1
-34.899587 26.086810 22.237931 48.918589 -0.641888 1.098884 0.085753 -0.032333 62123.900000 0 0 1
-35.781033 26.417210 21.186631 49.264842 -0.635972 1.126242 0.075691 -0.033992 -256326.000000 0 0 1
-35.226136 25.970310 19.818431 48.042771 -0.635288 1.145582 0.103778 -0.051986 74758.300000 0 0 1
-35.333307 24.580510 19.459031 47.236616 -0.607818 1.146205 0.109386 -0.046381 -290639.000000 0 0 1
-34.665767 24.256210 18.291731 46.094105 -0.610536 1.162731 0.116922 -0.036870 -149406.000000 0 0 1
-35.252518 23.030410 17.477631 45.591747 -0.578690 1.177375 0.106851 -0.035025 -472264.000000 0 0 1
36.238801 23.284310 17.070631 46.333748 0.571102 1.193479 0.098934 -0.044772 -1063950.000000 0 0 1
35.960911 22.469410 15.980931 45.315027 0.558476 1.210381 0.089612 -0.034405 415605.000000 0 0 1
34.506271 22.421610 15.415031 43.943538 0.576223 1.212380 0.088620 -0.029277 902087.000000 0 0 1
33.515161 21.868310 16.289631 43.206956 0.578124 1.184226 0.096625 -0.042480 -532441.000000 0 0 1
32.374391 21.633210 15.557231 41.929994 0.589077 1.190680 0.102382 -0.039233 -712116.000000 0 0 1
31.283471 20.745310 16.272631 40.912369 0.585557 1.161740 0.087715 -0.038042 738911.000000 0 0 1
30.508651 21.269510 17.331531 41.031108 0.608820 1.134705 0.083262 -0.031281 122297.000000 0 0 1
29.538011 22.235910 16.941831 40.668851 0.645284 1.141116 0.073374 -0.024126 -109522.000000 0 0 1
28.781821 22.746410 18.216831 40.959069 0.668801 1.109893 0.062543 -0.013650 -21125.400000 0 0 1
29.626271 23.313810 19.198531 42.306421 0.666721 1.099774 0.034296 -0.014303 -81947.300000 0 0 1
29.024651 24.447310 19.815231 42.810568 0.700004 1.089579 0.024261 -0.012784 1303070.000000 0 0 1
30.082461 25.116810 20.866431 44.398385 0.695681 1.081526 0.028721 -0.022626 1291950.000000 0 0 1
31.055471 25.880610 20.203731 45.193351 0.694758 1.107331 0.048233 -0.029020 156410.000000 0 0 1
31.991921 26.450810 21.117631 46.573412 0.690868 1.100190 0.050869 -0.034593 -454940.000000 0 0 1
32.955241 27.467610 20.534131 47.562254 0.694826 1.124385 0.049891 -0.031517 888286.000000 0 0 1
34.079791 27.935810 21.346931 48.964611 0.686649 1.119684 0.047781 -0.024867 1234130.000000 0 0 1
33.638951 28.593310 22.512031 49.557522 0.704498 1.099254 0.024446 -0.012364 -720098.000000 0 0 1
34.655921 28.613510 23.660941 50.789821 0.690184 1.086190 0.023799 -0.019874 -238053.000000 0 0 1
35.787671 29.416910 23.389431 51.895833 0.688003 1.103247 0.042082 -0.018391 82335.700000 0 0 1
-36.372172 29.902910 24.597641 53.124033 -0.688094 1.089394 0.052040 -0.005083 -591494.000000 0 0 1
-35.060615 30.604210 24.369631 52.533259 -0.717636 1.088416 0.053684 -0.005777 -1240420.000000 0 0 1
-33.993892 29.803410 23.934201 51.153435 -0.719808 1.083894 0.053055 -0.006074 -356138.000000 0 0 1
-33.014152 30.808410 23.669181 50.983551 -0.750851 1.088007 0.053816 -0.007212 252161.000000 0 0 1
-31.534562 30.328010 23.505191 49.665992 -0.765897 1.077803 0.081095 -0.007319 542831.000000 0 0 1
-31.211782 29.825810 22.185031 48.537922 -0.762695 1.096103 0.064901 -0.006592 201523.000000 0 0 1
-31.835532 28.599210 21.820531 48.036980 -0.731899 1.099272 0.076477 -0.005133 -221981.000000 0 0 1
-31.282342 27.337510 22.548531 47.269024 -0.718204 1.073529 0.079033 -0.006532 18462.400000 0 0 1
-29.908302 27.076110 22.284831 46.089434 -0.735738 1.066133 0.065292 -0.006570 449073.000000 0 0 1
-29.374522 26.023710 23.069131 45.522311 -0.724986 1.039368 0.072428 -0.005125 100814.000000 0 0 1
-29.015552 26.395110 24.537821 46.267794 -0.738142 1.011791 0.081643 -0.005120 -256753.000000 0 0 1
-30.178752 26.463710 25.345531 47.470843 -0.719904 1.007569 0.072821 -0.006230 125037.000000 0 0 1
-29.936362 26.916510 26.681551 48.296888 -0.732331 0.985497 0.087440 -0.019481 -1080870.000000 0 0 1
-31.227322 27.266710 27.344701 49.662378 -0.717792 0.987699 0.085457 -0.025524 -1236550.000000 0 0 1
-31.982132 26.163810 27.651081 49.719051 -0.685666 0.981054 0.074370 -0.017846 -957640.000000 0 0 1
-32.990202 26.513610 28.536811 51.045808 -0.676982 0.977565 0.060670 -0.010986 -601884.000000 0 0 1
-33.635172 25.293510 29.148481 51.192972 -0.644777 0.965039 0.059710 -0.013098 -282162.000000 0 0 1
-32.836902 24.698110 30.102531 50.935460 -0.644872 0.938506 0.063461 -0.012658 -129433.000000 0 0 1
-33.394942 23.414610 30.365021 50.847818 -0.611492 0.930822 0.044493 -0.023854 524817.000000 0 0 1
-32.570352 22.626510 31.437361 50.607257 -0.607158 0.900520 0.065296 -0.031239 953256.000000 0 0 1
-31.333642 22.019210 30.996011 49.268605 -0.612558 0.890372 0.079132 -0.027248 890062.000000 0 0 1
-30.788392 21.060210 31.925081 49.098557 -0.599928 0.862917 0.070365 -0.025070 15846.300000 0 0 1
-29.875622 21.578410 33.036096 49.493072 -0.625520 0.839964 0.057129 -0.026015 -475615.000000 0 0 1
-30.556432 22.365310 34.010470 50.898081 -0.631839 0.839000 0.066734 -0.025566 120566.000000 0 0 1
-30.340772 21.977410 -33.043233 49.954221 -0.626884 2.293574 0.056797 -0.014430 115755.000000 0 0 1
-28.999802 22.419410 -32.399853 48.922070 -0.658115 2.294647 0.056903 -0.014536 138995.000000 0 0 1
-29.114682 23.787410 -32.123963 49.451537 -0.685036 2.277861 0.048659 -0.016517 242816.000000 0 0 1
-28.122552 24.238410 -31.211063 48.502669 -0.711354 2.269847 0.090052 -0.011898 -106934.000000 0 0 1
-28.584292 25.423910 -30.276533 48.786324 -0.726948 2.240297 0.064681 -0.009424 -369849.000000 0 0 1
-28.317132 26.731610 -30.789413 49.642994 -0.756604 2.239815 0.065727 -0.014164 87436.200000 0 0 1
-29.221892 27.174410 -31.807863 51.030458 -0.749109 2.243767 0.048304 -0.010197 -98452.800000 0 0 1
-29.114962 28.617010 -32.294783 52.053504 -0.776773 2.240068 0.056027 -0.009562 -105879.000000 0 0 1
-29.443172 29.562110 -31.303183 52.160406 -0.787414 2.214464 0.045751 -0.017563 115165.000000 0 0 1
-28.636712 30.701910 -31.544923 52.514290 -0.820188 2.215163 0.060909 -0.032330 -94747.500000 0 0 1
-29.069032 31.969210 -30.759073 53.039227 -0.832877 2.189440 0.051273 -0.021994 -155674.000000 0 0 1
-28.442402 32.063510 -29.520193 52.043066 -0.845174 2.173930 0.038886 -0.021205 -133478.000000 0 0 1
-28.781612 33.233810 -28.818123 52.567590 -0.857067 2.151020 0.028928 -0.015416 -324810.000000 0 0 1
-27.764392 33.353510 -27.648323 51.456271 -0.876593 2.138049 0.019181 -0.015756 1198040.000000 0 0 1
-26.423282 33.783710 -27.962663 51.199994 -0.907047 2.148553 0.012182 -0.017651 885980.000000 0 0 1
-26.293452 -33.213522 -28.279633 50.933499 0.901168 2.159432 0.020502 -0.002077 -643065.000000 0 0 1
-26.538492 -32.126522 -27.225923 49.776057 0.880365 2.149535 0.016687 -0.004199 192260.000000 0 0 1
-27.930582 -31.940422 -27.030883 50.308812 0.852273 2.138028 0.008185 -0.014462 -48868.800000 0 0 1
-28.184712 -31.125122 -25.910433 49.340670 0.834935 2.123668 0.003156 -0.005835 -122034.000000 0 0 1
-29.669652 -30.918522 -25.558153 49.894513 0.806008 2.108592 -0.013743 -0.004528 -1457.060000 0 0 1
-30.287982 -30.101422 -26.527383 50.270861 0.782309 2.126674 0.003119 -0.010590 -1025080.000000 0 0 1
-31.643292 -29.964922 -26.318383 50.910232 0.758162 2.114088 0.006757 -0.012728 -1081180.000000 0 0 1
-32.315852 -28.976022 -27.306273 51.279203 0.730961 2.132350 0.021472 -0.018330 -176436.000000 0 0 1
-33.719422 -28.929822 -27.205843 52.096947 0.709096 2.120243 0.024833 -0.021799 -151726.000000 0 0 1
-34.185258 -27.787222 -27.917403 52.154990 0.682523 2.135633 0.030234 -0.021232 9427.920000 0 0 1
-35.681171 -27.855222 -28.313733 53.392198 0.662843 2.129747 0.027669 -0.031740 307757.000000 0 0 1
36.292381 -27.587422 -27.178333 53.074142 -0.649961 2.108404 0.019930 -0.024810 28320.900000 0 0 1
34.932351 -27.585222 -27.587723 52.366937 -0.668414 2.125646 0.031172 -0.021715 617482.000000 0 0 1
33.851441 -27.176622 -26.545863 50.883904 -0.676458 2.119633 0.033996 -0.021894 148486.000000 0 0 1
33.615531 -28.107622 -25.496693 50.696388 -0.696398 2.097781 0.038813 -0.020479 -321591.000000 0 0 1
32.647171 -27.637622 -24.611563 49.349822 -0.702491 2.092913 0.046948 -0.017860 -149050.000000 0 0 1
32.605181 -28.436122 -23.283363 49.130702 -0.717205 2.064518 0.034744 -0.008290 -5495.980000 0 0 1
31.958881 -29.690922 -23.519663 49.559010 -0.748627 2.065282 0.051210 -0.016616 50242.700000 0 0 1
31.618491 -30.362622 -22.289963 49.177843 -0.765139 2.041207 0.061164 -0.019314 -133934.000000 0 0 1
32.663741 -30.447622 -21.133363 49.402396 -0.750298 2.012832 0.046238 -0.011429 -409453.000000 0 0 1
33.839841 -31.141222 -21.518063 50.773395 -0.743893 2.008439 0.032508 -0.013107 -541014.000000 0 0 1
34.888521 -31.080222 -20.640163 51.080382 -0.727733 1.986761 0.025755 -0.011044 -519414.000000 0 0 1
35.721601 -29.793822 -20.782663 50.947264 -0.695165 1.990977 0.017354 -0.012336 -1151380.000000 0 0 1
35.240251 -28.656522 -20.129663 49.681736 -0.682724 1.987964 0.016948 -0.009977 -308939.000000 0 0 1
35.682341 -27.473322 -20.746163 49.582418 -0.656142 2.002499 0.009224 -0.013201 129871.000000 0 0 1
34.674661 -26.298822 -20.538563 48.122684 -0.648884 2.011743 0.017396 -0.015662 209363.000000 0 0 1
33.434111 -26.413322 -21.184463 47.584502 -0.668620 2.032190 0.033820 -0.016115 -265896.000000 0 0 1
32.553601 -25.436122 -20.706563 46.211416 -0.663272 2.035417 0.049688 -0.017688 -672059.000000 0 0 1
31.147821 -25.346322 -21.280263 45.447469 -0.683065 2.058093 0.056488 -0.022733 -474266.000000 0 0 1
30.474211 -26.587422 -21.190863 45.657653 -0.717388 2.053443 0.066406 -0.017807 -796271.000000 0 0 1
29.331721 -26.457122 -21.967063 45.198242 -0.733917 2.078322 0.066912 -0.024120 -500952.000000 0 0 1
28.762201 -27.804322 -22.522863 45.908865 -0.768466 2.083574 0.067232 -0.018176 183282.000000 0 0 1
28.125841 -28.546222 -21.473763 45.465066 -0.792816 2.062710 0.070221 -0.018260 -108044.000000 0 0 1
27.532901 -29.696022 -21.946663 46.060508 -0.823178 2.067437 0.064299 -0.017481 -307688.000000 0 0 1
26.794101 -30.458722 -20.777163 45.577935 -0.849319 2.044135 0.075537 -0.011366 -207874.000000 0 0 1
27.559201 -31.008622 -19.734963 45.940320 -0.844226 2.014822 0.088355 -0.015868 -62860.300000 0 0 1
28.556281 -31.952622 -20.087363 47.327935 -0.841469 2.009128 0.079056 -0.009983 588801.000000 0 0 1
29.538341 -32.386722 -18.935063 47.748822 -0.831363 1.978558 0.062720 -0.009832 145434.000000 0 0 1
28.895461 -33.032422 -17.857463 47.381194 -0.852102 1.957232 0.065093 -0.013727 -61724.100000 0 0 1
28.416391 -32.105522 -16.877163 46.077049 -0.846278 1.945806 0.057288 -0.013954 -354516.000000 0 0 1
27.842971 -32.821322 -15.711663 45.818409 -0.867279 1.920811 0.057576 -0.008350 -798978.000000 0 0 1
26.539701 -33.224122 -16.043763 45.448876 -0.896783 1.931579 0.066175 -0.011474 -313024.000000 0 0 1
25.928401 -33.741622 -14.869663 45.076445 -0.915598 1.906969 0.054365 -0.003979 -1220990.000000 0 0 1
24.445801 -33.911522 -14.983263 44.408183 -0.946200 1.914949 0.052428 -0.002454 -1255780.000000 0 0 1
23.679701 -32.762422 -14.770363 43.037985 -0.944951 1.921111 0.058190 -0.001783 -278583.000000 0 0 1
22.326701 -33.121222 -14.644263 42.543523 -0.977672 1.922202 0.068977 -0.013909 -229203.000000 0 0 1
0.087938 -7.174990 -28.983523 29.858547 -1.558541 2.898900 0.067133 -0.018778 70468.500000 0 0 1
-0.219662 -8.542090 -28.937183 30.172440 1.545087 2.854461 0.051115 -0.016085 -37009.400000 0 0 1
-0.206862 -9.111990 -30.233103 31.577075 1.548098 2.848789 0.051303 -0.024161 -45450.900000 0 0 1
-0.194462 -10.667690 -30.136123 31.969100 1.552569 2.801321 0.056093 -0.016973 7438.210000 0 0 1
1.066438 -11.059090 -29.647633 31.661063 -1.474663 2.783043 0.024165 -0.019905 -119829.000000 0 0 1
1.144238 -12.386790 -29.257503 31.792190 -1.478682 2.739575 0.031876 -0.021433 7943.920000 0 0 1
2.577338 -12.692390 -28.774133 31.554559 -1.370459 2.718650 0.027676 -0.015579 -410791.000000 0 0 1
3.521138 -12.676890 -29.856683 32.627036 -1.299866 2.726528 0.031428 -0.013447 1600030.000000 0 0 1
4.928538 -12.799990 -29.511803 32.543459 -1.203251 2.706528 0.060844 -0.023821 1705700.000000 0 0 1
5.253238 -14.229190 -28.961943 32.693432 -1.217131 2.659150 0.075419 -0.035307 -1312730.000000 0 0 1
4.790738 -14.497090 -27.655883 31.590579 -1.251632 2.637157 0.072275 -0.027875 24103.700000 0 0 1
5.611838 -15.404690 -26.919033 31.518749 -1.221445 2.594545 0.085471 -0.034981 -4706.660000 0 0 1
5.371138 -16.991890 -27.101333 32.435408 -1.264635 2.559925 0.075153 -0.029157 -306172.000000 0 0 1
5.771338 -17.391890 -28.391093 33.791128 -1.250390 2.568437 0.070581 -0.030612 203695.000000 0 0 1
5.442838 -18.759190 -28.617843 34.648415 -1.288407 2.542681 0.062717 -0.027712 -659418.000000 0 0 1
5.533638 -19.191590 -30.106213 36.129245 -1.290074 2.555832 0.062121 -0.029824 791993.000000 0 0 1
6.893638 -19.126890 -30.577763 36.720019 -1.224872 2.554812 0.057986 -0.032940 898672.000000 0 0 1
7.052338 -20.014090 -31.682103 38.132072 -1.232013 2.551433 0.049208 -0.032026 -549981.000000 0 0 1
8.420438 -19.922390 -32.335543 38.902349 -1.170908 2.552055 0.053512 -0.027115 -455505.000000 0 0 1
8.644538 -18.633590 -32.861383 38.753183 -1.136425 2.582932 0.055254 -0.031769 429051.000000 0 0 1
9.891138 -18.470690 -33.535483 39.542757 -1.079150 2.583150 0.038757 -0.028177 170910.000000 0 0 1
10.025038 -17.024790 -34.114770 39.422866 -1.038616 2.616654 0.036884 -0.021123 328373.000000 0 0 1
9.220738 -16.846390 33.096700 38.265055 -1.069996 0.525780 0.044420 -0.018897 366147.000000 0 0 1
9.100638 -15.466390 32.731998 37.328468 -1.038940 0.501496 0.049652 -0.018127 -156661.000000 0 0 1
8.145638 -15.340890 31.522531 35.991170 -1.082676 0.503621 0.048733 -0.030512 -51638.000000 0 0 1
8.587438 -16.052490 30.378501 35.415814 -1.079574 0.539887 0.054431 -0.025976 -56221.600000 0 0 1
7.846938 -15.576090 29.300601 34.098596 -1.104129 0.536915 0.055586 -0.022411 -243070.000000 0 0 1
8.116638 -16.482490 28.067241 33.545824 -1.113215 0.579597 0.053832 -0.022312 -549506.000000 0 0 1
7.646638 -17.748690 28.367811 34.325206 -1.163999 0.598037 0.064815 -0.024164 378130.000000 0 0 1
7.956938 -18.561690 27.230811 33.902305 -1.165817 0.638125 0.052726 -0.024581 59912.900000 0 0 1
7.423038 -19.983390 27.477861 34.777439 -1.215132 0.659815 0.057391 -0.022083 52490.800000 0 0 1
8.182338 -20.644190 28.490691 36.122745 -1.193440 0.662074 0.061222 -0.019141 727987.000000 0 0 1
7.391638 -21.652890 29.102861 37.019731 -1.241831 0.666250 0.040377 -0.013417 40250.300000 0 0 1
7.864138 -21.925290 30.548521 38.415819 -1.226411 0.651448 0.033875 -0.012934 -94279.900000 0 0 1
7.293138 -21.113490 31.594341 38.693303 -1.238203 0.615417 0.053778 -0.019831 285045.000000 0 0 1
7.337938 -19.689390 31.439251 37.814599 -1.214057 0.589165 0.047151 -0.024004 -323705.000000 0 0 1
6.799438 -18.854290 32.624370 38.289243 -1.224682 0.550906 0.046500 -0.020383 -1662030.000000 0 0 1
5.444938 -19.006290 32.673583 38.189651 -1.291788 0.544162 0.057157 -0.022154 -1786630.000000 0 0 1
4.882138 -18.060990 33.525045 38.392230 -1.306792 0.509015 0.060417 -0.016431 -174106.000000 0 0 1
3.423038 -18.235490 33.954474 38.693108 -1.385243 0.500104 0.052374 -0.018022 -199182.000000 0 0 1
3.207538 -19.322590 -33.622193 38.911472 -1.406297 2.614094 0.041436 -0.018167 -141925.000000 0 0 1
2.299438 -19.023090 -32.593913 37.809107 -1.450504 2.610127 0.047512 -0.025015 -246243.000000 0 0 1
1.895538 -20.209990 -31.731413 37.668546 -1.477278 2.572490 0.055749 -0.019186 -1264750.000000 0 0 1
0.915638 -21.062990 -32.211403 38.497564 -1.527352 2.562049 0.047639 -0.023381 78693.100000 0 0 1
0.060138 -21.653290 -31.212193 37.987756 -1.568019 2.535075 0.055940 -0.025475 618214.000000 0 0 1
-0.746462 -20.734390 -30.285733 36.711003 1.534811 2.540958 0.056937 -0.028239 -1061590.000000 0 0 1
-1.741662 -19.999990 -30.960503 36.899671 1.483932 2.566323 0.064048 -0.032174 -298179.000000 0 0 1
-2.339662 -19.033190 -30.137413 35.721142 1.448485 2.574908 0.076015 -0.019017 89195.700000 0 0 1
-1.706562 -17.641290 -30.220223 35.034117 1.474360 2.611172 0.052807 -0.015234 -25216.800000 0 0 1
-2.576162 -16.708890 -29.605183 34.092382 1.417822 2.622725 0.062351 -0.017502 -105987.000000 0 0 1
-2.193962 -15.397990 -29.967643 33.763459 1.429265 2.662853 0.070445 -0.026535 496265.000000 0 0 1
-3.230262 -14.300690 -29.519673 32.959906 1.348643 2.680628 0.064365 -0.021275 551622.000000 0 0 1
-3.217062 -13.951590 -28.139733 31.572788 1.344170 2.670924 0.056330 -0.025383 300607.000000 0 0 1
-4.324862 -13.134990 -27.734033 30.990466 1.252714 2.679051 0.052798 -0.022671 259925.000000 0 0 1
-4.373362 -12.824390 -26.246673 29.537758 1.242145 2.665038 0.045156 -0.023581 -524770.000000 0 0 1
-4.726062 -13.971790 -25.467383 29.430158 1.244621 2.616644 0.042056 -0.022308 267197.000000 0 0 1
-4.744362 -13.812290 -24.025563 28.116116 1.239934 2.595407 0.025680 -0.015212 -247126.000000 0 0 1
-5.826362 -12.802490 -23.558563 27.438224 1.143713 2.603336 0.027983 -0.015805 114909.000000 0 0 1
-7.168162 -13.178490 -23.803563 28.136538 1.072626 2.579238 0.029541 -0.015767 -239990.000000 0 0 1
-8.077862 -12.212390 -23.381363 27.587723 0.986415 2.582106 0.022600 -0.014911 353560.000000 0 0 1
-9.560662 -12.523890 -23.759263 28.508887 0.918778 2.556025 0.052025 -0.022528 436620.000000 0 0 1
-10.102462 -13.540490 -22.960163 28.505678 0.929801 2.507246 0.034429 -0.022926 -85755.200000 0 0 1
-10.898362 -14.514490 -23.648863 29.811297 0.926745 2.486982 0.025675 -0.015400 355614.000000 0 0 1
-11.636862 -15.440890 -22.643663 29.775378 0.924970 2.434853 0.012894 -0.017775 90746.900000 0 0 1
-10.846262 -16.529290 -22.199863 29.726970 0.990086 2.414022 0.015716 -0.015130 351889.000000 0 0 1
-11.656362 -17.658990 -21.753363 30.346656 0.987367 2.370040 0.021660 -0.005306 851678.000000 0 0 1
-12.323762 -18.642190 -22.772963 31.906335 0.986680 2.365626 0.005253 0.002262 191565.000000 0 0 1
-13.382462 -18.060790 -23.493063 32.514711 0.933101 2.378261 0.013272 0.002745 -832278.000000 0 0 1
-14.042762 -19.008090 -24.229763 33.846537 0.934516 2.368667 0.012548 0.004258 -656578.000000 0 0 1
-15.007162 -18.271390 -25.136783 34.509658 0.883173 2.386778 0.019306 -0.006144 -562364.000000 0 0 1
-16.028462 -17.609790 -24.437763 34.120676 0.832373 2.369161 0.013005 0.004889 -90146.900000 0 0 1
-17.047062 -17.201090 -25.348433 35.057423 0.789896 2.379010 0.001989 0.001296 266204.000000 0 0 1
-17.758062 -15.916790 -24.835863 34.431280 0.730775 2.376498 0.002157 0.002665 -315749.000000 0 0 1
-18.685762 -16.186990 -23.820463 34.330610 0.713866 2.337625 0.016384 0.002024 24079.400000 0 0 1
-19.322962 -14.941190 -23.528663 33.914805 0.658206 2.337490 0.030970 -0.001566 -125911.000000 0 0 1
-20.159462 -14.927190 -22.293163 33.559053 0.637365 2.297349 0.039557 -0.013416 -262357.000000 0 0 1
-19.304862 -14.775990 -21.175463 32.239848 0.653286 2.287377 0.041139 -0.003109 465033.000000 0 0 1
-19.963862 -14.872290 -19.899163 31.870323 0.640268 2.245133 0.048643 -0.013519 61438.500000 0 0 1
-20.355062 -13.502290 -19.242963 31.095530 0.585695 2.238053 0.074870 -0.014560 354793.000000 0 0 1
-21.615862 -12.994890 -19.677863 31.989544 0.541282 2.233353 0.082020 -0.023550 446807.000000 0 0 1
-22.107262 -11.930190 -18.860963 31.413316 0.494862 2.214814 0.098187 -0.025162 92868.200000 0 0 1
-23.599662 -11.643390 -19.114763 32.525171 0.458330 2.198999 0.098038 -0.024686 -38919.600000 0 0 1
-23.890662 -10.893290 -20.260063 33.164705 0.427803 2.227983 0.099565 -0.025763 -971679.000000 0 0 1
-25.249432 -10.684490 -20.352563 34.145556 0.400309 2.209373 0.109007 -0.029989 -877284.000000 0 0 1
-25.797312 -9.792790 -21.498363 34.979703 0.362802 2.232669 0.118553 -0.018746 -32672.300000 0 0 1
-25.640912 -10.297690 -22.794963 35.820513 0.381895 2.260575 0.090454 -0.017308 401042.000000 0 0 1
-26.471742 -9.562790 -23.696363 36.792903 0.346657 2.270573 0.079369 -0.015913 84767.900000 0 0 1
-26.663332 -10.178390 -25.137143 38.031682 0.364664 2.292884 0.063708 -0.004584 -464934.000000 0 0 1
-25.634732 -9.749190 -25.961133 37.764621 0.363419 2.328763 0.051155 -0.008067 141993.000000 0 0 1
-24.664362 -10.814490 -26.100733 37.503763 0.413221 2.340538 0.047407 -0.000051 153607.000000 0 0 1
-23.601762 -10.615090 -27.187473 37.535077 0.422653 2.380846 0.046352 -0.008031 -227465.000000 0 0 1
-24.153562 -10.481290 -28.464103 38.774439 0.409422 2.395129 0.042576 0.000645 527176.000000 0 0 1
-23.133762 -10.529490 -29.491753 38.933335 0.427134 2.430262 0.034911 0.002400 726658.000000 0 0 1
-23.688462 -11.142790 -30.809313 40.429182 0.439679 2.437279 0.034129 -0.001325 762098.000000 0 0 1
-24.629962 -10.256390 -31.467593 41.255763 0.394580 2.438342 0.030505 -0.002314 585759.000000 0 0 1
-23.991962 -9.216790 -32.177963 41.182336 0.366778 2.467628 0.029064 -0.009690 -482045.000000 0 0 1
-25.000162 -8.164390 -32.708783 41.970583 0.315654 2.464386 0.036148 -0.016311 -375566.000000 0 0 1
-25.890172 -8.682790 -33.715543 43.386976 0.323583 2.460824 0.055463 -0.011512 1349910.000000 0 0 1
-27.084962 -9.387890 -33.353653 43.979470 0.333651 2.431638 0.053378 -0.016149 -26555.000000 0 0 1
-28.040682 -8.700090 -32.390563 43.716358 0.300849 2.405244 0.035625 -0.006490 -103817.000000 0 0 1
-29.386992 -9.241590 -32.504473 44.783290 0.304687 2.383018 0.024266 -0.006451 1504400.000000 0 0 1
-30.296982 -8.675090 -31.564753 44.603788 0.278874 2.356991 0.022454 -0.000317 982638.000000 0 0 1
-31.806812 -9.002390 -31.822853 45.884750 0.275819 2.337186 0.021977 -0.002859 590808.000000 0 0 1
-31.976752 -10.396390 -31.682913 46.199617 0.314344 2.326475 0.027767 -0.008047 594108.000000 0 0 1
-33.333412 -10.818190 -31.798753 47.321351 0.313820 2.307668 0.021022 -0.006922 254227.000000 0 0 1
-33.367022 -12.361390 -31.489163 47.515571 0.354791 2.295231 0.030311 -0.010199 -796260.000000 0 0 1
-34.633806 -12.927690 -31.564423 48.610066 0.357251 2.277512 0.027555 -0.012849 -591504.000000 0 0 1
-34.540194 -14.356390 -31.485433 48.892366 0.393919 2.270478 0.031240 -0.013419 239797.000000 0 0 1
-35.735961 -15.092590 -30.823533 49.547304 0.399612 2.242222 0.025102 -0.017797 326891.000000 0 0 1
-35.670838 -14.881590 -29.398393 48.560642 0.395239 2.221059 0.044386 -0.015844 764974.000000 0 0 1
36.073071 -15.637490 -28.729363 48.694701 -0.409044 2.201842 0.042846 -0.015463 806183.000000 0 0 1
36.255651 -15.642290 -27.207983 47.952350 -0.407316 2.174137 0.055014 -0.021148 -249794.000000 0 0 1
-35.462355 -16.439090 -26.752543 47.365820 0.434077 2.170996 0.057938 -0.025860 183504.000000 0 0 1
-35.109794 -16.171690 -25.396873 46.251728 0.431637 2.152085 0.068073 -0.026586 -40534.400000 0 0 1
-33.687422 -15.694090 -25.049363 44.817602 0.435976 2.163877 0.080286 -0.022719 -195783.000000 0 0 1
-32.704232 -16.691790 -25.148023 44.503997 0.471922 2.171318 0.078635 -0.019385 -887373.000000 0 0 1
-31.441212 -16.126390 -25.045363 43.311436 0.473919 2.187393 0.080907 -0.013778 260193.000000 0 0 1
-30.244582 -17.150290 -25.266773 42.979961 0.515842 2.199224 0.081907 -0.018218 779041.000000 0 0 1
-30.094682 -18.226090 -24.343263 42.784047 0.544545 2.176061 0.084048 -0.022241 -214576.000000 0 0 1
-30.951752 -19.261390 -24.693163 44.031402 0.556658 2.166158 0.073648 -0.028218 -252248.000000 0 0 1
-30.735462 -20.493490 -23.799063 43.943682 0.588074 2.143113 0.069720 -0.029515 1284250.000000 0 0 1
-29.447312 -21.143590 -24.014763 43.484531 0.622714 2.155869 0.072332 -0.022372 1196980.000000 0 0 1
-29.382962 -22.325690 -23.207263 43.593256 0.649755 2.132181 0.056623 -0.019015 -173205.000000 0 0 1
-28.112682 -23.219090 -23.361763 43.303822 0.690353 2.140622 0.058787 -0.012699 1396670.000000 0 0 1
-26.816252 -22.657990 -23.063063 42.004771 0.701546 2.152033 0.056610 -0.008584 875870.000000 0 0 1
-26.495642 -22.445090 -21.705763 40.950473 0.702822 2.129455 0.044428 -0.016227 -346336.000000 0 0 1
-26.506152 -23.527690 -20.588163 40.987812 0.725939 2.097053 0.047452 -0.008432 -176001.000000 0 0 1
-26.538692 -22.990090 -19.248363 40.041802 0.713873 2.072257 0.043892 -0.011749 19148.700000 0 0 1
-26.478592 -24.000090 -18.261163 40.132160 0.736338 2.043197 0.028701 0.018497 -129793.000000 0 0 1
-26.507132 -23.466390 -16.805363 39.188260 0.724626 2.014001 0.022986 0.015537 -72253.700000 0 0 1
-27.762232 -22.976690 -16.391763 39.589894 0.691359 1.997683 0.025446 0.001825 -258881.000000 0 0 1
-27.632692 -21.953690 -15.441763 38.522438 0.671368 1.983242 0.024020 0.001924 205346.000000 0 0 1
-28.994592 -21.390990 -14.980063 39.021316 0.635620 1.964806 0.045317 -0.003889 -127828.000000 0 0 1
-29.763542 -20.701890 -15.895463 39.586645 0.607730 1.983990 0.059710 -0.013087 -625923.000000 0 0 1
-30.934642 -20.252090 -15.253963 39.997283 0.579654 1.962080 0.072877 -0.016218 -272563.000000 0 0 1
-31.873642 -19.574190 -16.281763 40.794286 0.550736 1.981352 0.079752 -0.037006 -498222.000000 0 0 1
-32.532472 -20.517590 -17.025463 42.061855 0.562674 1.987526 0.061097 -0.029780 -761468.000000 0 0 1
-33.240452 -19.897390 -18.054963 42.741262 0.539382 2.006915 0.060992 -0.031829 -48953.500000 0 0 1
-33.784012 -20.936590 -19.098663 44.096022 0.554793 2.018743 0.051975 -0.030164 669886.000000 0 0 1
-34.911083 -21.773090 -18.803863 45.237556 0.557644 1.999475 0.049214 -0.026603 304233.000000 0 0 1
-34.725583 -22.635690 -17.709763 45.076338 0.577671 1.974562 0.037723 -0.019863 76860.700000 0 0 1
-35.692998 -23.874890 -17.569863 46.397204 0.589544 1.959170 0.041102 -0.014537 -99974.300000 0 0 1
35.743621 -23.589590 -17.370463 46.214805 -0.583350 1.956125 0.044151 -0.017753 -374179.000000 0 0 1
35.099501 -24.798890 -17.078363 46.245329 -0.615096 1.949051 0.047611 -0.021739 547495.000000 0 0 1
33.621691 -24.741790 -16.587963 44.919203 -0.634408 1.949035 0.046326 -0.015065 492020.000000 0 0 1
32.598921 -24.279290 -17.439763 44.230294 -0.640157 1.976096 0.051667 -0.016252 -216122.000000 0 0 1
31.385481 -24.328590 -16.733563 43.092237 -0.659406 1.969604 0.062422 -0.009680 121216.000000 0 0 1
30.138411 -24.336090 -17.661063 42.573258 -0.679284 1.998563 0.054018 -0.023301 60080.600000 0 0 1
29.632861 -23.125290 -18.117963 41.727043 -0.662671 2.019948 0.034630 -0.024913 -319616.000000 0 0 1
28.451041 -23.293090 -18.834963 41.313262 -0.686045 2.044186 0.054365 -0.029514 -640778.000000 0 0 1
34.766961 29.822110 -18.198863 49.287914 0.708989 1.948983 0.038504 0.000778 -299895.000000 0 0 1
33.974871 30.007710 -19.311663 49.271643 0.723474 1.973539 0.041665 -0.005291 -418090.000000 0 0 1
34.518691 29.222410 -20.343563 49.591832 0.702498 1.993492 0.046268 -0.002339 -49939.800000 0 0 1
33.747701 29.179210 -21.660963 49.593658 0.712925 2.022800 0.049595 -0.002292 -578833.000000 0 0 1
32.630641 28.328410 -21.759663 48.381200 0.714939 2.037287 0.052589 -0.004279 186817.000000 0 0 1
31.854311 28.549110 -22.919163 48.528722 0.730734 2.062672 0.057208 0.004517 610980.000000 0 0 1
30.691131 29.587510 -22.860163 48.373064 0.767092 2.063013 0.049839 0.005260 43359.900000 0 0 1
31.269501 30.843110 -22.686863 49.434531 0.778533 2.047584 0.049965 -0.003762 553065.000000 0 0 1
30.236811 31.834710 -22.754263 49.451693 0.811135 2.048939 0.063567 -0.002313 85139.400000 0 0 1
30.765131 33.260810 -22.565763 50.616089 0.824358 2.032889 0.061169 -0.008058 -74227.600000 0 0 1
31.047111 33.480210 -21.187663 50.336514 0.823087 2.005256 0.066607 -0.017085 -484689.000000 0 0 1
32.389071 33.303310 -20.848863 50.919912 0.799314 1.992641 0.058505 -0.014628 -882081.000000 0 0 1
32.625961 33.333610 -19.365863 50.503659 0.796126 1.964330 0.048622 -0.013318 -250683.000000 0 0 1
32.459291 -33.782922 -18.793763 50.478678 -0.805377 1.952294 0.052478 -0.012518 -51727.000000 0 0 1
32.660231 -33.754322 -17.390463 50.084660 -0.801870 1.925403 0.028607 -0.023560 -566750.000000 0 0 1
32.731811 -32.355222 -16.785063 48.989491 -0.779612 1.920507 0.027093 -0.001253 151202.000000 0 0 1
33.853221 -31.584822 -17.194963 49.389354 -0.750747 1.926395 0.036374 -0.008344 -345108.000000 0 0 1
34.980841 -31.818022 -16.389663 50.046647 -0.738085 1.904440 0.038140 -0.004441 -567699.000000 0 0 1
36.116481 -30.919022 -16.937663 50.470492 -0.708020 1.913033 0.037522 -0.005473 -122864.000000 0 0 1
-35.800378 -31.602922 -17.820863 50.970530 0.723205 1.927973 0.032412 -0.004409 180593.000000 0 0 1
-34.525719 -30.953122 -17.839063 49.682524 0.730891 1.938058 0.017752 0.000250 712215.000000 0 0 1
-33.449982 -31.703622 -18.671363 49.725655 0.758601 1.955719 0.002459 0.003701 -552778.000000 0 0 1
-32.835372 -32.818122 -18.018263 49.798078 0.785135 1.941023 0.026998 -0.002654 354509.000000 0 0 1
-31.943672 -33.631322 -18.766663 50.036503 0.811129 1.955257 0.018508 0.003889 780712.000000 0 0 1
-30.619122 -32.949222 -19.228763 48.917555 0.822037 1.974781 0.008310 0.003993 -792957.000000 0 0 1
-30.817922 -32.087922 -20.364663 48.929526 0.805584 2.000063 -0.003497 0.009325 -196750.000000 0 0 1
-29.682732 -31.602122 -21.035163 48.189592 0.816707 2.022511 0.004712 0.001320 21937.800000 0 0 1
-28.802882 -32.588722 -21.834663 48.666039 0.846987 2.036065 0.011212 0.009540 -188538.000000 0 0 1
-29.604242 -33.228122 -22.767763 49.988901 0.843010 2.043681 0.003149 0.015854 -216140.000000 0 0 1
-28.904142 34.149010 -23.457763 50.516046 -0.868389 2.053711 0.003640 0.005813 -318234.000000 0 0 1
-29.627762 33.625110 -24.717263 51.180029 -0.848511 2.074814 -0.000325 -0.003738 99923.700000 0 0 1
-30.641662 32.652610 -24.377763 50.984112 -0.817159 2.069337 0.000765 -0.005416 619764.000000 0 0 1
-31.339042 31.962910 -25.412543 51.473882 -0.795253 2.087133 0.003326 -0.002790 518625.000000 0 0 1
-32.253302 32.813510 -26.330753 53.012361 -0.794008 2.090578 0.018535 -0.012270 -436997.000000 0 0 1
-31.576612 33.520310 -27.345413 53.558054 -0.815248 2.106650 0.009851 -0.018629 -413921.000000 0 0 1
-32.360532 -33.764322 -27.729493 54.370564 0.806624 2.105992 0.016846 -0.020412 237723.000000 0 0 1
-31.730102 -32.848722 -28.827873 54.008186 0.802718 2.133847 0.023280 -0.016351 -178407.000000 0 0 1
-31.549152 -33.398322 -30.136143 54.945282 0.813862 2.151336 0.033859 -0.014396 -287755.000000 0 0 1
-32.639942 -33.877822 -30.898473 56.283108 0.804006 2.151943 0.037599 -0.017843 -339510.000000 0 0 1
-32.278742 33.596910 -32.072603 56.562544 -0.805405 2.173691 0.055455 -0.019800 -241122.000000 0 0 1
-31.540762 34.126510 -33.109833 57.058736 -0.824754 2.189864 0.045177 -0.025180 -315553.000000 0 0 1
-31.803922 33.362810 34.120665 57.347941 -0.809315 0.933560 0.043126 -0.041309 -336852.000000 0 0 1
-30.960622 33.738410 32.878953 56.372564 -0.828306 0.948080 0.053500 -0.037302 991108.000000 0 0 1
-29.568752 33.375810 32.892081 55.408887 -0.845807 0.935241 0.054544 -0.030181 837007.000000 0 0 1
-29.384342 31.964410 32.658416 54.329874 -0.827429 0.925903 0.059877 -0.037236 -1464570.000000 0 0 1
-27.989742 31.477010 32.909013 53.453072 -0.843973 0.907571 0.042775 -0.027637 -1117890.000000 0 0 1
-27.540482 31.327710 -34.177724 53.926064 -0.849644 2.257238 0.045174 -0.032613 -56910.200000 0 0 1
-26.171182 31.019110 -34.026843 52.961703 -0.869964 2.268527 0.043174 -0.027324 -286449.000000 0 0 1
-25.690722 29.592010 34.144215 51.976222 -0.855851 0.854070 0.050689 -0.032569 -489038.000000 0 0 1
-25.886102 28.711410 -33.172533 50.939692 -0.837100 2.279977 0.063982 -0.028794 81864.900000 0 0 1
-25.534452 27.380510 -33.505363 50.242511 -0.820271 2.300801 0.062216 -0.021274 -258378.000000 0 0 1
-25.510542 26.355010 -32.328023 48.892488 -0.801679 2.293222 0.078839 -0.023814 -300102.000000 0 0 1
-24.471162 26.426610 -31.341223 47.743855 -0.823798 2.286893 0.074130 -0.022768 161676.000000 0 0 1
-24.384862 27.594310 -30.446243 47.781180 -0.847065 2.261658 0.063007 -0.029419 -219091.000000 0 0 1
-23.023962 27.719810 -29.772263 46.742682 -0.877676 2.261318 0.096710 -0.028694 -5605.510000 0 0 1
-21.812062 27.825410 -30.501213 46.694148 -0.905956 2.282616 0.087314 -0.021906 1612970.000000 0 0 1
-20.592362 28.003710 -29.709893 45.726698 -0.936741 2.278022 0.053837 -0.021802 1524310.000000 0 0 1
-20.402962 29.305410 -28.856233 45.910457 -0.962613 2.250462 0.040808 -0.012747 -730252.000000 0 0 1
-20.009962 30.420010 -29.594083 46.921054 -0.988965 2.253278 0.034988 0.001216 -48758.800000 0 0 1
-19.863662 31.596710 -28.859473 47.178240 -1.009568 2.229019 0.040955 -0.002703 -83821.400000 0 0 1
-19.489062 32.763510 -29.757603 48.360997 -1.034179 2.233591 0.041327 0.003473 500560.000000 0 0 1
-18.149462 32.776710 -30.240433 48.147684 -1.065094 2.249875 0.039323 0.002849 39894.100000 0 0 1
-17.903162 33.857210 -31.070663 49.317542 -1.084387 2.252366 0.035204 0.007826 -535920.000000 0 0 1
-16.482062 34.014410 -31.582373 49.255301 -1.119576 2.266854 0.028263 0.009518 -665558.000000 0 0 1
-15.557462 -33.926022 -30.584183 48.253516 1.140838 2.257282 0.036964 -0.002215 430159.000000 0 0 1
-14.191662 -34.014622 -30.967773 48.139389 1.175532 2.269589 0.043742 -0.001821 550237.000000 0 0 1
-13.589062 32.988910 -30.811853 47.141288 -1.180050 2.283136 0.048424 -0.001863 -771466.000000 0 0 1
-13.355062 32.547110 -29.487653 45.904180 -1.181416 2.268388 0.059214 -0.013049 -91005.500000 0 0 1
-13.042662 31.133810 -29.454453 44.799441 -1.174084 2.288257 0.044736 -0.009231 -381366.000000 0 0 1
-12.755262 30.609010 -28.026053 43.417368 -1.175963 2.272478 0.035616 -0.017740 739363.000000 0 0 1
-11.509862 31.146510 -27.530343 43.133534 -1.216822 2.263030 0.048809 -0.012200 479679.000000 0 0 1
-11.342162 30.573610 -26.234523 41.852604 -1.215556 2.248276 0.035764 -0.018656 96901.800000 0 0 1
-10.049762 30.884010 -25.460823 41.268308 -1.256200 2.235668 0.051985 -0.018384 121188.000000 0 0 1
-8.892162 30.250810 -25.934803 40.826413 -1.284901 2.259123 0.056667 -0.008105 777348.000000 0 0 1
-7.670662 30.703210 -25.275693 40.501689 -1.325975 2.244731 0.071762 -0.012906 1000620.000000 0 0 1
-6.444862 29.904410 -25.688733 39.946476 -1.358528 2.269308 0.052629 -0.017514 -422383.000000 0 0 1
-6.225862 28.660210 -24.992263 38.532872 -1.356890 2.276535 0.055744 -0.025384 488448.000000 0 0 1
-5.025262 28.018910 -25.449893 38.183892 -1.393331 2.300312 0.059421 -0.029347 559791.000000 0 0 1
-4.753562 26.764910 -24.622163 36.677073 -1.395025 2.306789 0.061453 -0.035029 -141127.000000 0 0 1
-5.624262 25.686910 -24.951263 36.249347 -1.355244 2.329971 0.066392 -0.031053 289314.000000 0 0 1
-5.381162 24.672610 -24.047263 34.870696 -1.356056 2.331750 0.060579 -0.042960 -544133.000000 0 0 1
-6.245762 23.448010 -24.273263 34.322150 -1.310474 2.356353 0.056573 -0.034866 -437551.000000 0 0 1
-6.083162 22.680110 -25.486733 34.654953 -1.308748 2.397116 0.048068 -0.038095 266952.000000 0 0 1
-6.980362 21.568110 -25.513783 34.130074 -1.257793 2.415155 0.052669 -0.041910 -519760.000000 0 0 1
-6.758762 20.669710 -26.731723 34.460162 -1.254767 2.458665 0.043714 -0.036582 292109.000000 0 0 1
-5.470262 20.053210 -26.688263 33.827775 -1.304488 2.479887 0.042932 -0.036332 9354.120000 0 0 1
-5.338262 19.017210 -25.736923 32.442881 -1.297132 2.487006 0.049460 -0.040802 -113607.000000 0 0 1
-4.049162 18.225710 -26.136433 32.119859 -1.352179 2.521313 0.041626 -0.043300 374218.000000 0 0 1
-4.093962 17.641810 -27.471543 32.904098 -1.342772 2.558743 0.045155 -0.039159 -219864.000000 0 0 1
-3.059362 16.723210 -27.763323 32.554993 -1.389856 2.592145 0.053456 -0.034899 -182558.000000 0 0 1
-2.801762 16.502310 -29.278833 33.725749 -1.402620 2.622248 0.067764 -0.024352 40727.700000 0 0 1
-2.186162 17.686110 -29.819823 34.739022 -1.447811 2.602930 0.075154 -0.029002 288799.000000 0 0 1
-1.975662 17.712310 -31.209423 35.939633 -1.459714 2.622732 0.077765 -0.026694 -4088.810000 0 0 1
-1.252562 18.947310 -31.790083 37.029432 -1.504785 2.603150 0.083129 -0.021556 -159459.000000 0 0 1
0.144638 18.968810 -31.592733 36.850203 1.563171 2.600854 0.090880 -0.022149 -124063.000000 0 0 1
0.749438 20.230710 -31.899603 37.781317 1.533769 2.576095 0.094588 -0.018142 248719.000000 0 0 1
0.321638 21.483010 -31.132013 37.826253 1.555826 2.537515 0.087105 -0.025594 -328053.000000 0 0 1
0.903638 21.632910 -29.829363 36.859059 1.529049 2.513725 0.105339 -0.044920 -142684.000000 0 0 1
0.447238 22.787310 -29.149283 37.001922 1.551172 2.477989 0.095153 -0.046773 -25939.100000 0 0 1
1.336138 23.201610 -27.964553 36.360916 1.513272 2.448201 0.102674 -0.045795 1157560.000000 0 0 1
2.593538 23.841210 -28.291393 37.088174 1.462439 2.438451 0.093347 -0.050314 602647.000000 0 0 1
3.672638 23.270410 -27.579953 36.271946 1.414263 2.434673 0.097658 -0.045477 276910.000000 0 0 1
4.846438 24.238210 -27.339933 36.857166 1.373449 2.406518 0.099670 -0.043424 37489.000000 0 0 1
5.541938 24.698310 -28.472583 38.097343 1.350067 2.414882 0.088615 -0.046688 112891.000000 0 0 1
6.097738 25.991710 -28.256283 38.873756 1.340360 2.384554 0.095305 -0.053195 21392.100000 0 0 1
6.834838 26.641910 -29.466413 40.308508 1.319668 2.390615 0.088701 -0.046101 343028.000000 0 0 1
8.128438 26.066510 -29.655713 40.311236 1.268518 2.397450 0.084233 -0.048816 187398.000000 0 0 1
8.842538 26.985110 -30.495503 41.669681 1.254140 2.391813 0.101261 -0.045868 -188486.000000 0 0 1
10.322138 26.947010 -30.076863 41.680997 1.204984 2.376902 0.105245 -0.051079 -334720.000000 0 0 1
11.185838 27.731910 -30.866193 42.975617 1.187400 2.372045 0.115419 -0.050503 -470728.000000 0 0 1
12.380638 27.940110 -30.166433 42.941164 1.153684 2.349709 0.111252 -0.049943 -345641.000000 0 0 1
13.280038 28.937110 -30.902793 44.370016 1.140543 2.341276 0.113563 -0.049267 -74319.400000 0 0 1
12.684438 30.209610 -30.884173 45.026077 1.173270 2.326660 0.119020 -0.044648 -31271.000000 0 0 1
13.416338 31.071210 -31.672413 46.352561 1.163186 2.323061 0.145009 -0.051584 -261059.000000 0 0 1
12.914238 32.508210 -31.590723 47.133163 1.192654 2.305334 0.149935 -0.054450 -471916.000000 0 0 1
11.778538 32.669010 -32.367133 47.472407 1.224761 2.321030 0.125674 -0.056128 -428068.000000 0 0 1
11.188838 33.934310 -32.254583 48.136115 1.252301 2.305100 0.105965 -0.035676 457563.000000 0 0 1
9.901138 -34.198722 -33.105663 48.616561 -1.288984 2.319861 0.081016 -0.035249 525621.000000 0 0 1
10.162038 -33.664522 34.073228 48.964803 -1.277632 0.801163 0.071712 -0.025271 -769878.000000 0 0 1
8.939638 -33.378222 33.521186 48.142422 -1.309110 0.800578 0.070004 -0.030586 -777803.000000 0 0 1
9.052938 -32.600722 32.193701 46.703289 -1.299930 0.810241 0.070803 -0.027505 -49152.600000 0 0 1
8.983838 -31.193322 32.364543 45.838808 -1.290380 0.786890 0.046476 -0.030864 -21198.900000 0 0 1
9.174138 -30.519422 31.186041 44.588890 -1.278789 0.796221 0.075431 -0.030819 -480237.000000 0 0 1
8.753038 -29.040522 31.237681 43.540330 -1.278049 0.770672 0.056084 -0.043424 286836.000000 0 0 1
7.374538 -28.718022 31.171011 43.020234 -1.319436 0.760391 0.022303 -0.030455 52544.000000 0 0 1
6.731238 -28.826222 32.442117 43.917555 -1.341396 0.739649 0.023256 -0.020507 968828.000000 0 0 1
5.144138 -28.810622 32.380631 43.646528 -1.394108 0.734922 0.026643 -0.013916 1439090.000000 0 0 1
4.466138 -29.952322 31.748581 43.875510 -1.422779 0.761784 0.028816 -0.022350 251021.000000 0 0 1
4.751538 -30.313722 30.391261 43.187123 -1.415316 0.790189 0.038983 -0.030329 -582610.000000 0 0 1
4.368338 -29.294522 29.284921 41.651627 -1.422769 0.791060 0.023262 -0.025850 -200728.000000 0 0 1
3.018138 -29.420422 28.901441 41.351707 -1.468567 0.796913 0.042905 -0.028371 48108.700000 0 0 1
2.714138 -28.688722 27.733211 39.994254 -1.476471 0.804558 0.054254 -0.021846 -50920.200000 0 0 1
1.319038 -29.053022 27.174981 39.803235 -1.525426 0.819300 0.057516 -0.015945 -64000.200000 0 0 1
1.258138 -30.302422 26.554581 40.310861 -1.529301 0.851647 0.055870 -0.024478 37424.600000 0 0 1
0.902738 -31.338122 27.397151 41.635282 -1.541998 0.852600 0.077456 -0.035247 -823672.000000 0 0 1
1.145938 -32.805422 26.761771 42.352111 -1.535879 0.886810 0.087156 -0.045070 -319438.000000 0 0 1
2.468538 -33.238722 26.685501 42.696865 -1.496665 0.895666 0.077788 -0.036806 -176065.000000 0 0 1
3.269738 -32.570622 25.719611 41.629737 -1.470742 0.904831 0.069356 -0.044268 -380915.000000 0 0 1
4.793738 -32.562122 25.912371 41.889410 -1.424628 0.903849 0.089146 -0.032033 452381.000000 0 0 1
5.534438 -32.315722 24.672571 41.032568 -1.401180 0.925679 0.080779 -0.048146 459594.000000 0 0 1
6.838838 -31.860522 24.949201 41.040531 -1.359355 0.917363 0.069309 -0.041954 -201300.000000 0 0 1
7.702738 -31.562722 23.704791 40.217592 -1.331430 0.940464 0.058006 -0.031408 -208418.000000 0 0 1
9.011538 -31.139222 24.009561 40.340030 -1.289097 0.933307 0.040381 -0.013689 -175701.000000 0 0 1
9.693738 -31.150922 22.772331 39.786022 -1.269109 0.961403 0.035613 -0.011899 -151710.000000 0 0 1
10.864438 -30.158622 22.720531 39.291234 -1.225025 0.954203 0.018532 -0.004111 7157.740000 0 0 1
11.988638 -30.391422 23.559821 40.279414 -1.195062 0.946028 0.017819 -0.006456 -66255.400000 0 0 1
12.706938 -29.185422 23.549791 39.596058 -1.160161 0.933841 0.021375 -0.000122 -183566.000000 0 0 1
14.084738 -29.347622 24.236121 40.583893 -1.123335 0.930808 0.046717 -0.006709 -273145.000000 0 0 1
14.025238 -29.490422 25.618051 41.505142 -1.126870 0.905584 0.045026 -0.009227 380943.000000 0 0 1
15.329338 -29.416922 26.180641 42.258371 -1.090407 0.902643 0.053871 -0.023004 -48591.500000 0 0 1
-10.925062 -13.812090 25.912981 31.330710 0.901581 0.596905 0.075066 -0.028389 898724.000000 0 0 1
-9.528262 -13.699590 25.582281 30.543733 0.963087 0.577990 0.062373 -0.023405 868268.000000 0 0 1
-8.740362 -14.128290 26.704951 31.450865 1.016782 0.556516 0.079019 -0.029810 427154.000000 0 0 1
-7.213562 -14.001290 26.480381 30.810423 1.095057 0.536580 0.082235 -0.026063 543285.000000 0 0 1
-6.442862 -14.913590 25.693481 30.398694 1.163001 0.563826 0.074928 -0.033715 396759.000000 0 0 1
-6.712262 -14.725890 24.304391 29.199482 1.143118 0.587450 0.065345 -0.023622 -372514.000000 0 0 1
-6.202862 -15.787590 23.327831 28.842871 1.196430 0.628704 0.056950 -0.026642 99412.200000 0 0 1
-6.925162 -17.010190 23.223531 29.608054 1.184168 0.669124 0.068713 -0.023400 -167298.000000 0 0 1
-6.940062 -17.781790 24.451561 31.019919 1.198688 0.662831 0.079582 -0.023161 -100007.000000 0 0 1
-7.511962 -19.236790 24.365281 31.939796 1.198507 0.703086 0.076249 -0.014823 251325.000000 0 0 1
-8.930862 -19.226990 24.312501 32.257327 1.135953 0.717115 0.063104 -0.006887 53295.900000 0 0 1
-9.480762 -20.529490 24.320701 33.209055 1.138163 0.749027 0.052128 -0.005081 245982.000000 0 0 1
-11.014762 -20.688590 24.290291 33.754422 1.081560 0.767544 0.037365 -0.004561 -33493.700000 0 0 1
-11.666262 -20.528090 25.490391 34.745708 1.054006 0.747152 0.045282 -0.017014 442113.000000 0 0 1
-13.094062 -20.548690 25.341021 35.154950 1.003457 0.765786 0.044051 -0.018159 957077.000000 0 0 1
-13.867862 -20.416590 26.694661 36.356013 0.974136 0.746225 0.048905 -0.017882 -631704.000000 0 0 1
-13.723162 -21.595690 27.595961 37.632912 1.004712 0.747643 0.045785 -0.017208 467316.000000 0 0 1
-12.467962 -21.546790 28.275391 37.672430 1.046226 0.721888 0.061972 -0.021950 495803.000000 0 0 1
-11.957762 -22.932490 28.762611 38.680421 1.090150 0.732364 0.062891 -0.014574 -509638.000000 0 0 1
-12.811362 -23.470590 29.724521 39.981830 1.071147 0.732581 0.056883 -0.012710 -57394.000000 0 0 1
-12.364062 -24.697590 30.220841 40.940692 1.106654 0.740455 0.053248 -0.007027 -92261.500000 0 0 1
-13.509362 -25.334720 31.023081 42.270350 1.080915 0.746720 0.045436 -0.016463 217434.000000 0 0 1
-13.764262 -24.756490 32.288891 42.952430 1.063369 0.720106 0.052858 -0.017392 432307.000000 0 0 1
-15.057662 -25.044790 32.828074 43.950622 1.029473 0.727362 0.052114 -0.019927 232586.000000 0 0 1
-15.059362 -24.613390 -34.057773 44.637823 1.021719 2.438707 0.053176 -0.022212 -34747.800000 0 0 1
-14.957162 -23.212590 -33.787203 43.636179 0.998399 2.456394 0.057536 -0.023438 -165744.000000 0 0 1
-16.057562 -22.469190 34.163031 43.929745 0.950307 0.679839 0.047205 -0.030102 -420467.000000 0 0 1
-16.069562 -20.981990 -33.885733 42.973453 0.917213 2.479207 0.030988 -0.022378 -190512.000000 0 0 1
-16.310362 -20.662890 -32.515923 41.836207 0.902580 2.461031 0.023357 -0.015519 122921.000000 0 0 1
-16.181662 -19.280390 -32.357893 40.995279 0.872558 2.480477 0.005645 -0.014758 -310338.000000 0 0 1
-16.195062 -18.957890 -30.862463 39.675852 0.863831 2.462058 0.006037 -0.003468 561892.000000 0 0 1
-17.392562 -19.381790 -30.189143 39.869027 0.839438 2.429824 0.007285 -0.007431 547330.000000 0 0 1
-17.299862 -19.273790 -28.786033 38.722085 0.839317 2.408937 -0.009144 0.003693 -172181.000000 0 0 1
-16.484562 -20.338090 -28.037253 38.359696 0.889670 2.390442 -0.006844 0.010847 -751917.000000 0 0 1
-15.127062 -20.309390 -28.321493 37.992187 0.930612 2.412015 0.001600 0.009303 -1053690.000000 0 0 1
-14.518162 -21.452490 -27.769263 37.975233 0.975839 2.390944 0.010415 0.004496 -1221170.000000 0 0 1
-13.025362 -21.420590 -27.855333 37.475610 1.024459 2.408775 0.051729 -0.006494 -1582090.000000 0 0 1
-12.469662 -20.397090 -27.041813 36.094230 1.022077 2.417650 0.050659 -0.012562 25978.200000 0 0 1
-11.082562 -20.469790 -26.798463 35.496382 1.074572 2.426394 0.036785 -0.024120 182530.000000 0 0 1
-10.476562 -21.596890 -25.940603 35.342593 1.119143 2.394954 0.061576 -0.033871 -716628.000000 0 0 1
-10.315862 -22.870190 -26.575883 36.547779 1.147060 2.384964 0.073482 -0.037364 226512.000000 0 0 1
-10.003862 -23.716590 -25.521723 36.247927 1.171632 2.351934 0.091463 -0.035598 -450578.000000 0 0 1
-9.951462 -25.184610 -25.904803 37.474725 1.194486 2.334029 0.083218 -0.031087 -649754.000000 0 0 1
-8.957762 -25.416580 -26.859473 38.048329 1.231951 2.354532 0.095380 -0.034686 -90916.700000 0 0 1
-9.110162 -26.637480 -27.538653 39.381821 1.241261 2.345177 0.083178 -0.027226 -181559.000000 0 0 1
-9.022262 -28.001460 -26.812753 39.804607 1.259093 2.309878 0.096792 -0.018791 -448578.000000 0 0 1
-9.927762 -28.125360 -25.758083 39.409075 1.231467 2.283138 0.098988 -0.023298 -208602.000000 0 0 1
-9.635262 -29.287510 -24.993163 39.689479 1.252961 2.251986 0.114275 -0.021279 52864.100000 0 0 1
-10.597362 -29.472120 -23.787763 39.328967 1.225619 2.220362 0.115924 -0.025901 140099.000000 0 0 1
-10.470562 -28.466540 -22.728663 37.902094 1.218335 2.213882 0.104667 -0.031407 -56075.800000 0 0 1
-11.217162 -27.322550 -23.065563 37.474880 1.181232 2.233809 0.098540 -0.025560 -227000.000000 0 0 1
-11.160562 -26.193800 -22.009463 35.987356 1.168014 2.228863 0.089443 -0.028842 76689.300000 0 0 1
-11.773862 -26.634900 -20.803563 35.788685 1.154576 2.191108 0.079807 -0.029649 228334.000000 0 0 1
-11.864462 -25.501840 -19.986063 34.504377 1.135342 2.188583 0.065009 -0.023854 -95951.300000 0 0 1
-12.470762 -25.678610 -18.564263 34.052060 1.118696 2.147392 0.077223 -0.027104 -496204.000000 0 0 1
-13.822262 -25.982920 -18.640263 34.837142 1.081897 2.135385 0.085774 -0.026708 -603000.000000 0 0 1
-14.447662 -26.371270 -17.436863 34.759503 1.069601 2.096293 0.087824 -0.026952 1144590.000000 0 0 1
-16.020962 -26.467070 -17.355063 35.473585 1.026477 2.082013 0.097613 -0.030396 182975.000000 0 0 1
-16.663862 -25.154270 -17.358063 34.809826 0.985707 2.092842 0.083013 -0.017603 -10461.800000 0 0 1
-18.018362 -25.236750 -17.001563 35.363937 0.950754 2.072317 0.084577 -0.014027 -615834.000000 0 0 1
-19.012362 -25.873810 -17.931263 36.775728 0.937087 2.080117 0.078793 -0.014347 -1761640.000000 0 0 1
-18.927562 -27.283660 -18.245263 37.888525 0.964289 2.073220 0.092681 -0.020653 -5821.960000 0 0 1
-19.265162 -28.155220 -17.134163 38.176464 0.970720 2.036235 0.099189 -0.028584 278039.000000 0 0 1
-20.743462 -28.626590 -16.919463 39.192360 0.943736 2.017176 0.075914 -0.020261 754318.000000 0 0 1
-21.217662 -29.550870 -17.931363 40.558315 0.948089 2.028750 0.071411 -0.019999 353430.000000 0 0 1
-22.540062 -29.949640 -17.574363 41.399198 0.925634 2.009217 0.064427 -0.009914 333114.000000 0 0 1
-23.155762 -30.905600 -18.584963 42.857278 0.927781 2.019333 0.040758 -0.016327 -251252.000000 0 0 1
-22.581562 -32.196260 -18.518963 43.468127 0.959150 2.010902 0.045596 -0.018424 -91698.300000 0 0 1
-22.907762 -33.024420 -19.599663 44.716045 0.964337 2.024518 0.022697 0.003902 -199335.000000 0 0 1
-22.314362 33.961585 -19.691963 45.156322 -0.989483 2.022039 0.015252 -0.002198 -302436.000000 0 0 1
-22.906062 33.071372 -18.820663 44.414194 -0.965037 2.008381 0.009975 0.003311 -578385.000000 0 0 1
-22.124362 31.938302 -18.614663 43.081878 -0.964972 2.017590 -0.001057 -0.005961 -340536.000000 0 0 1
-22.850762 30.645232 -18.124563 42.305878 -0.930082 2.013537 -0.001206 -0.012034 68549.800000 0 0 1
-23.464162 30.650712 -16.851563 42.118977 -0.917427 1.982416 -0.016590 -0.016058 -262475.000000 0 0 1
-24.127362 29.470032 -16.442563 41.484578 -0.884751 1.978338 -0.004826 -0.009361 -335821.000000 0 0 1
-23.345862 28.166212 -16.200863 40.010408 -0.878704 1.987684 -0.001441 -0.020092 -333316.000000 0 0 1
-22.903162 27.548762 -17.389863 39.823315 -0.877219 2.022696 -0.012579 -0.016860 299454.000000 0 0 1
-22.076862 26.406382 -17.114463 38.439429 -0.874461 2.032230 -0.005870 -0.013579 498431.000000 0 0 1
-21.181362 25.820232 -18.270363 38.067580 -0.883776 2.071389 0.023372 -0.014175 -681079.000000 0 0 1
-20.802162 24.488002 -18.060563 36.858867 -0.866602 2.082877 0.030911 -0.022011 148835.000000 0 0 1
-20.072962 23.918272 -19.180663 36.645673 -0.872587 2.121643 0.028672 -0.013867 98781.900000 0 0 1
-18.664262 24.467782 -19.392163 36.374208 -0.919147 2.133092 0.034232 -0.021750 -861118.000000 0 0 1
-17.725762 24.161172 -18.340263 35.133034 -0.937844 2.120018 0.044176 -0.021367 1147730.000000 0 0 1
-16.703962 25.168222 -18.076563 35.202611 -0.984856 2.110056 0.062569 -0.030660 424059.000000 0 0 1
-17.035062 26.406492 -17.158163 35.803613 -0.997867 2.070573 0.052101 -0.049210 -23295.700000 0 0 1
-18.056162 27.247522 -17.696563 37.170160 -0.985565 2.067006 0.037164 -0.041235 192310.000000 0 0 1
-17.998762 28.503942 -17.027763 37.767378 -1.007574 2.038524 0.051517 -0.049618 315149.000000 0 0 1
-19.130962 29.441982 -17.569763 39.262203 -0.994572 2.034762 0.035238 -0.041100 269347.000000 0 0 1
-18.976062 29.881012 -18.901363 40.127638 -1.005000 2.061256 0.046380 -0.038562 65905.600000 0 0 1
-19.376662 28.975762 -19.915263 40.145579 -0.981374 2.089870 0.032382 -0.022499 -251833.000000 0 0 1
-19.358062 29.663842 -21.260063 41.311843 -0.992609 2.111365 0.045999 -0.028545 594426.000000 0 0 1
-20.459062 30.585462 -21.251663 42.493257 -0.981239 2.094532 0.051268 -0.026650 450174.000000 0 0 1
-20.839562 30.883022 -22.592063 43.571202 -0.977191 2.115903 0.056246 -0.027575 114222.000000 0 0 1
-21.360862 32.284832 -22.912163 44.984041 -0.986283 2.105214 0.053105 -0.029213 5078.370000 0 0 1
-20.360762 33.259874 -22.792063 45.169215 -1.021475 2.099707 0.036201 -0.020216 157420.000000 0 0 1
-20.855762 -34.061434 -23.560263 46.370574 1.021383 2.103758 0.043422 -0.008972 -51295.700000 0 0 1
-19.770262 -32.979340 -23.843863 45.244115 1.030764 2.125869 0.050864 -0.011011 61965.100000 0 0 1
-19.441762 -32.160060 -22.742363 43.925695 1.027052 2.115011 0.058433 -0.014913 276216.000000 0 0 1
-18.757162 -32.802790 -21.657563 43.553464 1.051358 2.091239 0.073953 -0.029950 -477802.000000 0 0 1
-18.463862 -31.952700 -20.422663 42.177890 1.046823 2.076248 0.088628 -0.032312 -712818.000000 0 0 1
-17.360362 -31.156350 -20.634863 41.205557 1.062441 2.095294 0.096272 -0.033123 -662365.000000 0 0 1
-17.125062 -30.231220 -19.609763 39.896582 1.055397 2.084625 0.097069 -0.033282 -309962.000000 0 0 1
-15.934662 -29.282740 -19.823663 38.786208 1.072443 2.107261 0.114139 -0.033235 588535.000000 0 0 1
-14.705562 -30.041470 -19.770063 38.853557 1.115577 2.104628 0.118418 -0.039784 48769.000000 0 0 1
-13.641262 -29.156200 -19.894263 37.841112 1.133183 2.124371 0.100709 -0.039417 -1176220.000000 0 0 1
-12.250662 -29.743500 -20.164963 37.965514 1.180093 2.130741 0.122653 -0.043931 -96825.000000 0 0 1
-11.503562 -30.354510 -19.154463 37.691135 1.208546 2.103885 0.124413 -0.039027 129847.000000 0 0 1
-10.987062 -29.376170 -18.227363 36.275497 1.212891 2.097250 0.102108 -0.033458 -8836.460000 0 0 1
-10.102362 -30.071950 -17.114263 36.045498 1.246702 2.065529 0.098810 -0.019946 412593.000000 0 0 1
-10.923462 -30.741510 -16.173763 36.413639 1.229379 2.031041 0.115887 -0.029601 134633.000000 0 0 1
-11.260962 -32.105180 -16.493063 37.809694 1.233452 2.022182 0.122742 -0.031726 201016.000000 0 0 1
-12.306262 -32.768200 -15.580163 38.313712 1.211539 1.989577 0.140978 -0.033908 141091.000000 0 0 1
-11.787662 -32.939880 -14.279163 37.787289 1.227142 1.958305 0.131020 -0.028008 -199626.000000 0 0 1
-12.804562 -33.433310 -13.437963 38.240318 1.205041 1.929871 0.130973 -0.021968 -202391.000000 0 0 1
-12.482562 -33.990560 -12.120163 38.184694 1.218850 1.893792 0.100450 -0.014265 -177626.000000 0 0 1
-12.139462 -32.924080 -11.232063 36.844550 1.217551 1.880577 0.070695 -0.005177 -23342.100000 0 0 1
-11.778062 -33.297990 -9.948363 36.693989 1.230814 1.845350 0.075307 -0.006346 17176.900000 0 0 1
-10.556362 -32.476220 -9.445063 35.430931 1.256520 1.840636 0.060679 -0.010096 411954.000000 0 0 1
-9.355662 -32.718310 -10.152963 35.511954 1.292283 1.860745 0.043076 -0.009980 16622.300000 0 0 1
-8.237062 -32.256820 -9.382263 34.588705 1.320781 1.845490 0.028206 -0.012613 706292.000000 0 0 1
-6.897362 -32.840510 -9.901963 34.987449 1.363779 1.857732 0.035083 -0.021177 112012.000000 0 0 1
-6.671462 34.190240 -9.704463 36.161547 -1.378090 1.842491 0.032235 -0.016005 -716625.000000 0 0 1
-5.435162 33.835225 -10.220363 35.760582 -1.411521 1.860637 0.038029 -0.013895 -571737.000000 0 0 1
-4.639062 32.717334 -9.508563 34.385427 -1.429943 1.850977 0.043174 -0.021257 19903.200000 0 0 1
-4.126862 33.049995 -8.233863 34.309323 -1.446572 1.813151 0.043007 -0.029870 -27795.300000 0 0 1
-3.142762 32.148812 -7.773863 33.224328 -1.473349 1.806967 0.048496 -0.033501 48804.500000 0 0 1
-2.577962 32.503527 -6.396263 33.227057 -1.491649 1.764507 0.047427 -0.033224 -346451.000000 0 0 1
-1.716062 33.631489 -6.355463 34.269721 -1.519815 1.757330 0.031209 -0.027655 -278047.000000 0 0 1
-1.465662 34.124604 -5.065563 34.529649 -1.527872 1.718030 0.039797 -0.026484 479842.000000 0 0 1
-0.446562 33.323647 -4.134963 33.582180 -1.557396 1.694239 0.036990 -0.025386 -292588.000000 0 0 1
0.863538 33.435706 -4.570163 33.757644 1.544975 1.706595 0.035571 -0.026141 -216271.000000 0 0 1
1.839138 32.722518 -3.785263 32.992026 1.514651 1.685782 0.036864 -0.022530 1392030.000000 0 0 1
3.334738 32.752800 -4.218563 33.191304 1.469331 1.698239 0.032690 -0.016807 624468.000000 0 0 1
4.022238 33.940396 -4.042463 34.416135 1.452838 1.688526 0.034057 -0.014191 -174205.000000 0 0 1
5.430838 33.855629 -4.174963 34.541684 1.411740 1.691960 0.052196 -0.012890 753418.000000 0 0 1
6.147338 -33.282740 -3.562963 34.032709 -1.388154 1.675681 0.051271 -0.010969 87456.600000 0 0 1
5.908938 -32.190990 -4.421663 33.026149 -1.389258 1.705083 0.056016 -0.011610 -121656.000000 0 0 1
6.332638 -30.973450 -3.867463 31.849870 -1.369122 1.692525 0.048313 -0.017587 -134667.000000 0 0 1
6.165138 -29.755160 -4.845763 30.771089 -1.366492 1.728932 0.056259 -0.019923 514441.000000 0 0 1
7.173238 -29.644020 -5.870763 31.059445 -1.333381 1.760957 0.073928 -0.022333 160278.000000 0 0 1
6.905438 -28.559360 -6.828263 30.165333 -1.333557 1.799137 0.068019 -0.021159 261763.000000 0 0 1
7.118138 -27.099520 -6.387363 28.737611 -1.313932 1.794933 0.068532 -0.015486 -11337.700000 0 0 1
6.150638 -26.672090 -5.486663 27.916558 -1.344156 1.768622 0.065360 -0.017064 -663580.000000 0 0 1
6.627038 -25.575320 -4.692563 26.833464 -1.317254 1.746577 0.064100 -0.017527 57586.500000 0 0 1
5.807638 -25.107480 -3.459263 26.001552 -1.343483 1.704233 0.061472 -0.025471 322135.000000 0 0 1
4.673538 -24.379790 -3.939963 25.134427 -1.381397 1.728201 0.049999 -0.025192 207950.000000 0 0 1
3.980738 -23.657590 -2.907663 24.165727 -1.404093 1.691410 0.041723 -0.028174 179219.000000 0 1 0
2.667238 -23.008990 -3.371063 23.407090 -1.455390 1.715318 0.041173 -0.023472 125560.000000 0 1 0
1.632138 -23.948490 -3.614663 24.274675 -1.502750 1.720259 0.038853 -0.016414 -743922.000000 0 1 0
0.456738 -23.299590 -3.978763 23.641279 -1.551196 1.739898 0.024425 -0.019213 -444392.000000 0 1 0
-15.324562 23.498510 18.144931 33.410488 -0.992911 0.996683 -0.022231 -0.000064 -219040.000000 0 0 1
-15.215362 22.827310 19.368231 33.581568 -0.982880 0.956049 -0.005761 -0.005724 220918.000000 0 0 1
-15.215262 23.739410 20.485131 34.852609 -1.000825 0.942503 -0.003798 -0.010871 -1088050.000000 0 0 1
-15.369862 22.957210 21.823431 35.206935 -0.980834 0.902230 0.010194 -0.011142 -20331.700000 0 0 1
-14.343662 21.975510 22.167231 34.351853 -0.992518 0.869381 0.007890 -0.011902 749878.000000 0 0 1
-12.996862 22.382410 22.167431 34.077642 -1.044709 0.862557 -0.000997 -0.018305 -384446.000000 0 0 1
-12.562762 23.526210 23.114331 35.292745 -1.080328 0.856704 0.020203 -0.011267 -858198.000000 0 0 1
-12.358062 23.258310 24.471601 35.951772 -1.082392 0.822108 0.011556 -0.011336 -19186.900000 0 0 1
-12.170262 24.374810 25.234851 37.135486 -1.107712 0.823668 0.040255 -0.013079 83993.300000 0 0 1
-11.531062 24.002910 26.625931 37.656942 -1.122949 0.785456 0.040630 -0.017904 116330.000000 0 0 1
-10.190462 23.603810 26.463641 36.895930 -1.163240 0.770947 0.021777 -0.018210 -373048.000000 0 0 1
-9.818662 22.835410 27.613761 37.153491 -1.164719 0.732904 0.017528 -0.009410 -970938.000000 0 0 1
-8.344262 22.393810 27.642541 36.540655 -1.214119 0.712871 0.022894 -0.021809 312288.000000 0 0 1
-7.388662 23.291710 28.166151 37.288445 -1.263615 0.714595 0.032565 -0.016338 -877.306000 0 0 1
-7.180862 24.426710 27.342221 37.360755 -1.284875 0.749773 0.031529 -0.015660 -852760.000000 0 0 1
-6.146762 25.468810 27.870591 38.251965 -1.333980 0.754513 0.036428 -0.015296 973233.000000 0 0 1
-4.814362 24.968110 27.714571 37.612259 -1.380314 0.742398 0.035337 -0.015796 565680.000000 0 0 1
-3.799262 25.807610 28.260141 38.459104 -1.424631 0.745410 0.039058 -0.010965 1147840.000000 0 0 1
-2.338562 25.265810 28.105571 37.864933 -1.478501 0.734362 0.049368 -0.012388 562339.000000 0 0 1
-1.861862 25.191610 26.788491 36.819926 -1.497022 0.756046 0.047251 -0.010130 -753927.000000 0 0 1
-0.519962 24.833110 26.723851 36.484489 -1.549861 0.748851 0.057661 0.002711 -468122.000000 0 0 1
0.108738 24.687610 25.374801 35.402972 1.566392 0.771677 0.049787 -0.002034 -128107.000000 0 0 1
-0.337162 23.525310 24.745181 34.144954 -1.556465 0.760183 0.058386 0.001824 -134023.000000 0 0 1
0.384838 23.379610 23.547701 33.185064 1.554337 0.781884 0.065960 -0.001844 229670.000000 0 0 1
-0.054162 22.093310 22.742031 31.706738 -1.568345 0.770932 0.039908 0.005167 363423.000000 0 0 1
0.686038 20.948210 23.147031 31.226322 1.538059 0.735841 0.062590 0.000405 55352.300000 0 0 1
0.300138 19.801810 22.379031 29.883487 1.555640 0.724432 0.065676 -0.003496 68427.400000 0 0 1
1.155838 18.554910 22.674331 29.321424 1.508584 0.686763 0.071540 0.006117 330463.000000 0 0 1
2.483338 18.695510 22.210831 29.137777 1.438739 0.703985 0.067870 -0.000881 -212758.000000 0 0 1
3.253338 17.510010 22.142831 28.416362 1.387092 0.677363 0.070890 -0.008775 -657621.000000 0 0 1
4.651538 17.780610 21.640331 28.391739 1.314923 0.704083 0.062601 -0.009673 -1079260.000000 0 0 1
5.512938 18.274710 22.591231 29.575686 1.277808 0.701547 0.047907 -0.004405 -956750.000000 0 0 1
6.770338 18.599110 22.055231 29.634399 1.221692 0.731394 0.052204 -0.011734 -293821.000000 0 0 1
7.716638 19.348210 23.044131 31.063350 1.191299 0.734982 0.063089 -0.016709 -273598.000000 0 0 1
7.337838 20.598310 23.610041 32.180247 1.228578 0.747073 0.044754 -0.002906 -175565.000000 0 0 1
7.114638 21.574410 22.646531 32.077073 1.252254 0.786957 0.049268 -0.007443 443170.000000 0 0 1
5.819438 22.321810 23.159831 32.688023 1.315767 0.783410 0.027044 -0.000510 681853.000000 0 0 1
5.727338 23.608110 22.603431 33.182229 1.332794 0.821408 0.025393 -0.004467 -617324.000000 0 0 1
4.517038 24.204810 22.914731 33.635715 1.386301 0.821311 0.011355 -0.001704 -879061.000000 0 0 1
4.307438 25.652210 22.363231 34.303119 1.404432 0.860669 0.026239 -0.005222 -87761.300000 0 0 1
4.135538 25.882810 20.987931 33.578502 1.412356 0.895613 0.037435 -0.005161 -156935.000000 0 0 1
2.970038 25.243010 20.487931 32.646378 1.453677 0.892366 0.042732 -0.006283 -228678.000000 0 0 1
2.555738 25.610110 19.063731 32.028665 1.471332 0.933271 0.041708 -0.017282 -427392.000000 0 0 1
1.921638 26.899910 19.025531 33.004071 1.499481 0.956406 0.051725 -0.018008 143650.000000 0 0 1
1.470338 27.199710 17.752731 32.513775 1.516792 0.993206 0.055247 -0.017272 -267680.000000 0 0 1
0.374838 28.275110 17.823531 33.426047 1.557540 1.008391 0.050500 -0.006776 -247318.000000 0 0 1
0.831538 29.435610 18.361131 34.702705 1.542554 1.013259 0.050361 -0.005284 -221502.000000 0 0 1
-0.222462 30.337910 18.518831 35.544133 -1.563464 1.022763 0.040034 -0.002582 -215776.000000 0 0 1
0.325438 31.690110 18.928731 36.914304 1.560527 1.032382 0.033108 0.002240 -92566.000000 0 0 1
0.635238 31.726710 20.297631 37.669370 1.550777 1.001741 0.044898 -0.002514 -62459.100000 0 0 1
0.965138 33.000810 20.841431 39.042927 1.541559 1.007699 0.033591 -0.010387 -220383.000000 0 0 1
1.356638 32.950810 22.328831 39.826788 1.529648 0.975628 0.043937 -0.021290 313241.000000 0 0 1
0.247238 32.581410 23.147531 39.967707 1.563208 0.953104 0.046386 -0.010665 303852.000000 0 0 1
0.620438 32.660710 24.497111 40.831549 1.551802 0.927351 0.062141 -0.024869 -424891.000000 0 0 1
-0.385362 32.107710 25.482151 40.992604 -1.558795 0.899977 0.064701 -0.022022 -527894.000000 0 0 1
-1.435562 32.985410 25.819781 41.913711 -1.527303 0.907113 0.062915 -0.016663 953731.000000 0 0 1
-2.355962 32.585710 26.891011 42.314365 -1.498621 0.882133 0.061208 -0.015179 987761.000000 0 0 1
-1.841362 33.182510 28.232651 43.606790 -1.515361 0.866580 0.074162 -0.024631 -8701.820000 0 0 1
-0.571862 32.652910 28.554171 43.380643 -1.553285 0.852339 0.080121 -0.028253 -130231.000000 0 0 1
-0.276662 32.931710 29.861421 44.455354 -1.562395 0.834272 0.081558 -0.032512 -1207540.000000 0 0 1
0.884438 32.135010 30.452571 44.280923 1.543281 0.812462 0.074503 -0.025189 344998.000000 0 0 1
2.166238 32.523910 29.934001 44.255415 1.504290 0.827944 0.068666 -0.025525 583645.000000 0 0 1
2.469438 32.102610 28.616661 43.076548 1.494024 0.844211 0.074800 -0.025402 -315859.000000 0 0 1
4.023938 32.110110 28.371101 43.036852 1.446129 0.851005 0.064335 -0.024452 763253.000000 0 0 1
4.594038 31.022610 29.093421 42.777735 1.423778 0.822888 0.063411 -0.021102 552030.000000 0 0 1
6.015438 31.027010 28.874961 42.809160 1.379295 0.830503 0.060313 -0.033197 742806.000000 0 0 1
6.613438 29.668610 29.279541 42.204923 1.351472 0.804118 0.059769 -0.012794 -53631.600000 0 0 1
6.723038 29.598610 30.715481 43.182377 1.347446 0.779455 0.063692 -0.026463 28689.200000 0 0 1
7.290638 28.380710 31.121461 42.745332 1.319346 0.755299 0.051080 -0.023205 16428.900000 0 0 1
7.175838 28.416410 32.701569 43.913297 1.323443 0.730734 0.073258 -0.032849 -587503.000000 0 0 1
5.884338 28.389810 33.231683 44.101604 1.366421 0.717388 0.066175 -0.031460 -625640.000000 0 0 1
5.908938 28.341410 -33.753223 44.468316 1.365250 2.432633 0.084281 -0.035313 51091.300000 0 0 1
5.955538 26.853510 -33.182733 43.100733 1.352550 2.449462 0.080759 -0.032265 370739.000000 0 0 1
7.226138 26.241410 -33.419203 43.100717 1.302085 2.458104 0.067028 -0.030025 359270.000000 0 0 1
7.217338 24.896110 -33.092313 42.035787 1.288633 2.477119 0.073634 -0.035653 134301.000000 0 0 1
8.588838 24.199710 -33.270993 42.028003 1.229750 2.484283 0.075480 -0.031811 -73275.000000 0 0 1
9.048938 24.027310 33.796794 42.443117 1.210614 0.649668 0.049482 -0.014766 324993.000000 0 0 1
10.279938 23.365710 33.569126 42.172500 1.156324 0.650146 0.061615 -0.030021 -19529.000000 0 0 1
10.270038 21.867910 33.975065 41.689138 1.131731 0.618133 0.043649 -0.030494 -780727.000000 0 0 1
9.731038 21.009710 33.007830 40.318952 1.137046 0.611709 0.037019 -0.021519 -21629.000000 0 0 1
9.649538 19.683010 33.539294 40.067677 1.114981 0.578898 0.026537 -0.016122 -128420.000000 0 0 1
8.299338 19.215710 34.132368 40.039244 1.163093 0.550099 0.038180 -0.020181 -127423.000000 0 0 1
8.054238 19.660410 -32.998123 39.246383 1.181983 2.569545 0.045870 -0.015784 477817.000000 0 0 1
6.966038 20.606610 -32.990063 39.515849 1.244808 2.558668 0.069062 -0.025149 -162867.000000 0 0 1
6.748938 21.211310 -31.521693 38.588664 1.262748 2.526750 0.077874 -0.037703 545076.000000 0 0 1
7.941038 21.813810 -30.975453 38.708927 1.221671 2.498449 0.092330 -0.035524 746652.000000 0 0 1
7.744438 22.537410 -29.836683 38.185584 1.239811 2.467638 0.074026 -0.032389 -1350100.000000 0 0 1
9.073538 22.978210 -29.363633 38.373821 1.194715 2.442148 0.070549 -0.035759 -763158.000000 0 0 1
9.956238 21.949410 -28.913663 37.641774 1.144953 2.446707 0.058585 -0.032650 118092.000000 0 0 1
11.321538 22.273710 -29.115763 38.366952 1.100538 2.432382 0.069717 -0.035703 189634.000000 0 0 1
12.203338 21.037010 -29.033343 37.873635 1.045146 2.444302 0.061394 -0.045741 -254677.000000 0 0 1
12.113438 20.114610 -30.173043 38.232779 1.028745 2.480290 0.045249 -0.036725 -555040.000000 0 0 1
10.870338 19.500010 -30.354373 37.680268 1.062249 2.507446 0.047712 -0.030663 -523080.000000 0 0 1
10.760938 18.393610 -31.426373 37.970246 1.041452 2.545718 0.049910 -0.024690 -259899.000000 0 0 1
11.336538 17.120510 -31.086173 37.255591 0.985919 2.557845 0.044833 -0.019701 63175.000000 0 0 1
11.286538 16.148110 -32.106123 37.668960 0.960783 2.591207 0.038308 -0.012046 -679382.000000 0 0 1
12.351438 16.122410 -33.179053 38.901667 0.917068 2.592303 0.033856 -0.003958 -696026.000000 0 0 1
12.327038 17.367910 -33.896183 40.031879 0.953550 2.580604 0.039711 -0.010741 -174169.000000 0 0 1
13.131138 17.468510 33.360020 39.880654 0.926206 0.579939 0.042473 -0.012635 -193310.000000 0 0 1
12.716938 16.676710 32.104251 38.347309 0.919307 0.578659 0.052865 -0.020779 -584848.000000 0 0 1
13.308038 17.153810 30.883951 37.751497 0.910983 0.612722 0.043877 -0.027304 -95569.500000 0 0 1
12.542838 16.942710 29.685731 36.409076 0.933526 0.617482 0.056143 -0.023655 1013800.000000 0 0 1
11.092538 17.577610 29.563901 36.139189 1.007851 0.612773 0.044348 -0.018865 1045610.000000 0 0 1
10.230838 16.788110 30.355531 36.165853 1.023487 0.574724 0.035232 -0.013050 779957.000000 0 0 1
8.890838 17.335310 30.552991 36.235966 1.096902 0.567649 0.037264 -0.012256 1814140.000000 0 0 1
7.993138 16.348810 31.376251 36.271793 1.116058 0.525583 0.047260 -0.005892 144425.000000 0 0 1
8.251338 16.334910 32.760166 37.525223 1.103049 0.509441 0.051569 -0.004063 -389625.000000 0 0 1
7.433038 15.454410 33.413392 37.557205 1.122492 0.474182 0.056368 -0.007375 -616014.000000 0 0 1
7.517338 15.489110 -33.460543 37.630185 1.118953 2.666377 0.055223 -0.011859 -126053.000000 0 0 1
7.029838 16.660610 -32.795173 37.450206 1.171517 2.637681 0.057753 -0.013585 207731.000000 0 0 1
6.914338 16.448510 -31.391543 36.108039 1.172860 2.624739 0.068245 -0.016516 -95416.100000 0 0 1
6.312838 17.637510 -30.637213 35.910618 1.227082 2.592794 0.068748 -0.029008 -347203.000000 0 0 1
6.106738 17.445110 -29.240523 34.592373 1.234073 2.577901 0.070256 -0.035705 199204.000000 0 0 1
5.269638 18.444310 -28.640353 34.470733 1.292505 2.551448 0.082271 -0.040984 472263.000000 0 0 1
3.744438 18.456310 -28.859743 34.460716 1.370632 2.563430 0.102029 -0.041634 -776409.000000 0 0 1
3.014038 17.556610 -28.006883 33.191934 1.400778 2.575095 0.108883 -0.043822 1300950.000000 0 0 1
1.606838 17.459910 -28.346473 33.330960 1.479025 2.587645 0.096255 -0.039051 1114870.000000 0 0 1
0.760038 18.669910 -28.016823 33.676187 1.530110 2.553405 0.088482 -0.045361 -1208500.000000 0 0 1
0.431838 18.853910 -26.631463 32.632671 1.547896 2.525423 0.107651 -0.051899 416485.000000 0 0 1
-0.371462 20.047110 -26.539343 33.262010 -1.552269 2.494579 0.117908 -0.055073 293556.000000 0 0 1
-0.856362 20.546210 -25.097153 32.446066 -1.529141 2.455147 0.081527 -0.051099 102101.000000 0 0 1
-1.684962 19.624310 -24.438463 31.387754 -1.485145 2.463226 0.065580 -0.049725 -39695.000000 0 0 1
-2.378062 20.197910 -23.350363 30.965306 -1.453598 2.425051 0.080967 -0.046057 -91060.500000 0 0 1
-3.274162 19.263810 -22.562963 29.847978 -1.402441 2.427869 0.064013 -0.043551 -605111.000000 0 0 1
-4.659862 19.400910 -22.674463 30.203326 -1.335074 2.419959 0.055733 -0.033425 -678870.000000 0 0 1
-5.274162 18.444110 -21.829563 29.060829 -1.292275 2.420626 0.043873 -0.034757 741517.000000 0 0 1
-6.864262 18.409110 -21.885763 29.410883 -1.213892 2.410040 0.073131 -0.021441 1205160.000000 0 0 1
-7.482262 19.383910 -21.145563 29.645489 -1.202414 2.364965 0.039724 -0.010795 -280179.000000 0 0 1
-7.286362 20.702410 -21.635163 30.818195 -1.232379 2.349034 0.040333 -0.021352 -1041070.000000 0 0 1
-7.927362 21.778710 -20.770263 31.121682 -1.221708 2.301493 0.051364 -0.027476 -232996.000000 0 0 1
-7.454662 21.945510 -19.459463 30.262982 -1.243336 2.269221 0.054429 -0.032053 -95191.400000 0 0 1
-7.877062 23.145210 -18.893063 30.898166 -1.242760 2.228704 0.076528 -0.033378 -330784.000000 0 0 1
-7.320862 23.307710 -17.487763 30.044404 -1.266458 2.192061 0.096982 -0.045588 -713125.000000 0 0 1
-5.940162 23.435810 -17.580963 29.893360 -1.322559 2.199532 0.112615 -0.049527 -1006890.000000 0 0 1
-5.350762 23.750210 -16.324463 29.311964 -1.349203 2.161471 0.124822 -0.039617 65820.200000 0 0 1
-3.818862 23.857510 -16.339063 29.167267 -1.412073 2.165405 0.125340 -0.038758 -39631.600000 0 0 1
-3.422762 25.186710 -16.664363 30.393859 -1.435728 2.151103 0.108199 -0.037631 -915574.000000 0 0 1
-2.209762 25.179310 -17.326763 30.644696 -1.483260 2.171724 0.099940 -0.040092 -518428.000000 0 0 1
-1.431162 26.512410 -17.403363 31.746388 -1.516868 2.151007 0.087595 -0.054505 -109130.000000 0 0 1
-2.040462 27.442410 -18.259463 33.025101 -1.496579 2.156633 0.090765 -0.054856 -250631.000000 0 0 1
-1.215862 28.482710 -18.764563 34.129927 -1.528135 2.152919 0.088496 -0.052423 -806348.000000 0 0 1
-2.026862 29.516110 -19.617763 35.498810 -1.502234 2.156315 0.118145 -0.047567 180426.000000 0 0 1
-2.809162 30.492810 -18.937963 36.004851 -1.478930 2.124668 0.076762 -0.038288 -542199.000000 0 0 1
-3.942962 29.949810 -18.328463 35.333704 -1.439897 2.116155 0.053472 -0.036974 -1255520.000000 0 0 1
-4.622762 31.068810 -17.553563 35.982891 -1.423089 2.080399 0.076903 -0.021926 -248189.000000 0 0 1
-5.362062 31.942810 -18.375263 37.239026 -1.404482 2.086838 0.110850 -0.029590 4575.460000 0 0 1
-5.554462 33.185210 -17.771663 38.051836 -1.404956 2.056735 0.101894 -0.045727 -106156.000000 0 0 1
-6.355862 -34.137722 -18.555363 39.371088 1.386721 2.061554 0.102533 -0.035446 821600.000000 0 0 1
-7.756762 33.929010 -18.512463 39.421521 -1.346041 2.059637 0.129797 -0.045064 633480.000000 0 0 1
-8.485962 -33.409022 -19.075363 39.395987 1.322055 2.076240 0.167885 -0.049561 -58983.200000 0 0 1
29.301738 -20.752490 -26.010913 44.337628 -0.616231 2.197719 0.054197 -0.002090 329646.000000 0 0 1
28.868838 -21.937990 -25.305133 44.215777 -0.649819 2.180116 0.053480 -0.009801 560767.000000 0 0 1
27.475238 -22.172490 -25.559343 43.586558 -0.678994 2.197409 0.032716 -0.012711 642471.000000 0 0 1
26.965138 -23.575890 -25.244103 43.820155 -0.718439 2.184726 0.034223 -0.007645 -21831.200000 0 0 1
27.340238 -24.707990 -26.019233 45.110685 -0.734868 2.185586 0.047964 0.003805 -506318.000000 0 0 1
28.734938 -24.924490 -26.095853 46.129388 -0.714505 2.172090 0.050632 -0.003588 -26043.700000 0 0 1
29.172738 -26.272940 -26.698743 47.477773 -0.733146 2.168012 0.048755 -0.006498 -124961.000000 0 0 1
28.802238 -27.311910 -25.859063 47.372993 -0.758846 2.148213 0.060787 -0.017244 -393774.000000 0 0 1
28.940038 -28.660350 -26.380153 48.526837 -0.780543 2.145540 0.050138 -0.012985 409837.000000 0 0 1
27.843538 -29.159440 -27.377893 48.734840 -0.808479 2.167323 0.057943 -0.014473 -120073.000000 0 0 1
27.826238 -28.468450 -28.595713 49.014967 -0.796806 2.193715 0.034850 -0.013694 198041.000000 0 0 1
28.847838 -28.717060 -29.570943 50.312106 -0.783126 2.199071 0.015804 -0.013407 -326.177000 0 0 1
29.144338 -30.169760 -30.150673 51.659171 -0.802684 2.194008 0.023466 -0.008620 -991438.000000 0 0 1
29.663838 -31.141310 -29.289843 52.034790 -0.809692 2.168674 0.032780 -0.006222 -328035.000000 0 0 1
30.930038 -30.930480 -28.722993 52.329458 -0.785405 2.151829 0.031281 -0.006579 60354.600000 0 0 1
32.172338 -30.730880 -29.638943 53.459454 -0.762487 2.158461 0.024064 -0.010118 -523357.000000 0 0 1
32.143538 -29.543660 -30.311303 53.148942 -0.743277 2.177678 0.033037 -0.019501 -216228.000000 0 0 1
33.419038 -29.196020 -30.815833 54.026431 -0.718056 2.177770 0.040906 -0.020183 60473.100000 0 0 1
33.335938 -27.898920 -31.567363 53.722741 -0.696841 2.198883 0.035061 -0.004042 -5534.680000 0 0 1
33.185838 -26.680130 -30.824633 52.566978 -0.677152 2.197389 0.021054 -0.001532 -434665.000000 0 0 1
31.874938 -26.378040 -30.434693 51.362274 -0.691314 2.205017 0.040327 -0.004381 -488387.000000 0 0 1
31.734138 -25.012890 -29.676383 50.133700 -0.667505 2.204266 0.034315 -0.001271 -273606.000000 0 0 1
32.352438 -24.902290 -28.425593 49.747549 -0.656002 2.179003 0.037412 -0.003739 -30677.300000 0 0 1
32.158938 -23.613990 -27.844413 48.653152 -0.633371 2.180110 0.036284 -0.002893 509244.000000 0 0 1
33.319438 -23.196990 -26.859933 48.679989 -0.608171 2.155276 0.036796 -0.006409 423686.000000 0 0 1
33.358138 -24.032190 -25.685573 48.477419 -0.624306 2.129215 0.049002 -0.019789 400818.000000 0 0 1
32.417938 -23.606290 -24.661463 47.078311 -0.629393 2.122148 0.054595 -0.010779 392427.000000 0 0 1
32.683638 -22.384590 -23.827163 46.227954 -0.600511 2.112303 0.061515 -0.018399 -221757.000000 0 0 1
32.637738 -21.184490 -24.545463 46.005264 -0.575728 2.133572 0.056362 -0.019522 23755.100000 0 0 1
32.835138 -20.100990 -23.687063 45.202578 -0.549327 2.122361 0.045230 -0.025447 -130622.000000 0 0 1
32.844638 -18.708190 -24.296563 44.934281 -0.517764 2.142081 0.035627 -0.022965 -782788.000000 0 0 1
31.673638 -18.330290 -24.922263 44.275705 -0.524628 2.168672 0.056712 -0.020512 -650309.000000 0 0 1
31.846738 -17.323790 -25.868173 44.536399 -0.498205 2.190547 0.055685 -0.020397 -663582.000000 0 0 1
30.724638 -17.296490 -26.896093 44.346046 -0.512733 2.222454 0.034549 -0.000849 -1119030.000000 0 0 1
29.564238 -16.752290 -26.377113 43.016688 -0.515529 2.230880 0.021121 -0.005480 -532724.000000 0 0 1
28.614938 -16.666790 -27.428023 42.998756 -0.527416 2.262538 0.002723 -0.001894 698964.000000 0 0 1
27.088738 -16.730790 -27.076803 41.795602 -0.553281 2.275540 -0.022225 0.002367 857949.000000 0 0 1
26.621438 -17.853990 -26.297793 41.461305 -0.590764 2.257864 -0.000267 0.008648 247477.000000 0 0 1
26.606238 -17.589690 -24.934163 40.484585 -0.584147 2.234315 0.000212 0.011276 -142783.000000 0 0 1
25.737438 -18.623890 -24.136663 39.897914 -0.626397 2.220513 0.010007 0.007915 -24681.400000 0 0 1
25.710438 -18.188190 -22.811263 38.886895 -0.615691 2.197657 0.010127 0.005186 159309.000000 0 0 1
25.036938 -19.055090 -21.890463 38.329324 -0.650554 2.178660 0.028026 -0.009508 44578.400000 0 0 1
25.074638 -18.501090 -20.437163 37.265338 -0.635674 2.151273 0.028342 -0.015671 217911.000000 0 0 1
24.270038 -17.318090 -20.164663 35.993953 -0.619768 2.165452 0.026483 -0.020058 413493.000000 0 0 1
24.634438 -16.095290 -20.828663 36.052006 -0.578737 2.186753 0.020936 -0.011799 -439801.000000 0 0 1
25.995438 -15.459390 -20.553363 36.567694 -0.536511 2.167675 0.018284 -0.016293 -342090.000000 0 0 1
26.024738 -14.753190 -19.299263 35.600634 -0.515719 2.143736 0.025106 -0.023368 96181.800000 0 0 1
27.140038 -13.904390 -19.258463 36.066635 -0.473455 2.134084 0.014629 -0.012497 -472824.000000 0 0 1
27.123638 -12.880990 -18.076063 35.047906 -0.443366 2.112683 0.023599 -0.004759 -420278.000000 0 0 1
27.312338 -13.431090 -16.797263 34.763573 -0.457033 2.075086 0.022827 -0.005323 321164.000000 0 0 1
27.329638 -12.400590 -15.889763 33.958332 -0.425961 2.057731 0.011741 0.001710 -366928.000000 0 0 1
27.801938 -12.889790 -14.493763 33.899316 -0.434130 2.012581 0.022469 -0.003037 -46694.400000 0 0 1
26.919538 -13.817490 -13.872663 33.287165 -0.474222 2.000671 0.049690 -0.012244 525278.000000 0 0 1
27.299638 -13.891790 -12.497463 33.082301 -0.470713 1.958182 0.052123 -0.015804 -55009.300000 0 0 1
26.654338 -15.084090 -11.851163 32.839512 -0.514980 1.940009 0.065374 -0.026178 1227420.000000 0 0 1
25.207538 -15.126590 -11.745663 31.657453 -0.540480 1.950907 0.047081 -0.024518 1437830.000000 0 0 1
24.881538 -16.343990 -11.166963 31.794937 -0.581191 1.929668 0.036987 -0.024492 -361786.000000 0 0 1
23.462138 -16.401490 -10.594663 30.524215 -0.610096 1.925263 0.052472 -0.031168 -514554.000000 0 0 1
23.303538 -15.762190 -9.338663 29.643079 -0.594701 1.891292 0.036236 -0.017973 654303.000000 0 0 1
21.924038 -15.755390 -8.996363 28.457518 -0.623124 1.892447 0.043241 -0.023181 -23944.400000 0 0 1
21.733738 -15.360890 -7.548263 27.663850 -0.615259 1.847157 0.041441 -0.020885 -430200.000000 0 0 1
22.001638 -14.004090 -7.223863 27.062351 -0.566828 1.841007 0.052620 -0.017201 387770.000000 0 0 1
21.862038 -13.660290 -5.836363 26.431333 -0.558485 1.793444 0.051178 -0.016403 124698.000000 0 0 1
22.891038 -14.347990 -4.863563 27.450295 -0.559889 1.748914 0.054551 -0.016825 532880.000000 0 0 1
24.274538 -14.055190 -4.985263 28.489549 -0.524842 1.746688 0.067304 -0.020821 470106.000000 0 0 1
25.014238 -14.773190 -4.039863 29.330526 -0.533473 1.708971 0.070529 -0.029781 -79222.900000 0 0 1
26.552038 -14.697690 -4.191763 30.636640 -0.505559 1.708049 0.085795 -0.029144 158976.000000 0 0 1
27.040338 -13.423190 -3.764463 30.422575 -0.460774 1.694853 0.093092 -0.028466 -787954.000000 0 0 1
28.405338 -13.254390 -3.868563 31.583348 -0.436586 1.693592 0.102856 -0.042186 -986634.000000 0 0 1
28.910838 -11.929590 -3.226763 31.441433 -0.391350 1.673605 0.113793 -0.045069 -714693.000000 0 0 1
29.357238 -12.066090 -1.877563 31.795648 -0.389961 1.629882 0.119294 -0.046474 821790.000000 0 0 1
30.110438 -10.913590 -1.398863 32.057788 -0.347725 1.614446 0.124457 -0.038904 757635.000000 0 0 1
31.554238 -10.626690 -1.915863 33.350667 -0.324845 1.628274 0.119816 -0.041117 -111180.000000 0 0 1
31.582538 -10.400890 -3.330763 33.417499 -0.318138 1.670633 0.129099 -0.044337 445978.000000 0 0 1
32.868838 -10.652090 -3.883363 34.769355 -0.313398 1.682719 0.115295 -0.036778 307369.000000 0 0 1
32.858138 -10.450990 -5.393063 34.899363 -0.307946 1.725950 0.118711 -0.035259 -180392.000000 0 0 1
31.935538 -11.321890 -5.993763 34.409141 -0.340699 1.745880 0.097732 -0.039975 162332.000000 0 0 1
31.836438 -11.219590 -7.446563 34.567171 -0.338823 1.787921 0.089386 -0.032037 58341.800000 0 0 1
30.413738 -11.678590 -7.843263 33.509726 -0.366629 1.807047 0.105999 -0.031588 46573.700000 0 0 1
30.173438 -13.091590 -7.653563 33.769855 -0.409366 1.799422 0.090941 -0.028951 964231.000000 0 0 1
28.832938 -13.477590 -8.007163 32.819178 -0.437260 1.817262 0.090715 -0.029242 855681.000000 0 0 1
28.714538 -15.049190 -8.034263 33.399883 -0.482738 1.813726 0.095109 -0.037501 294037.000000 0 0 1
29.409638 -15.662490 -9.155063 34.555109 -0.489358 1.838939 0.096089 -0.033692 634268.000000 0 0 1
29.532038 -17.073390 -8.986663 35.276083 -0.524184 1.828388 0.087135 -0.026823 -45528.200000 0 0 1
29.940538 -17.852390 -10.285263 36.344605 -0.537666 1.857709 0.072114 -0.030590 324609.000000 0 0 1
31.208938 -17.443690 -10.794663 37.347087 -0.509675 1.864016 0.080829 -0.029553 591342.000000 0 0 1
31.588238 -18.017790 -12.078663 38.319077 -0.518367 1.891477 0.065783 -0.020725 243133.000000 0 0 1
30.810738 -17.412190 -13.300163 37.807146 -0.514388 1.930279 0.051388 -0.028288 51512.200000 0 0 1
31.262938 -16.129490 -13.582063 37.709471 -0.476310 1.939253 0.037479 -0.019670 118072.000000 0 0 1
30.619238 -15.578490 -14.718363 37.374554 -0.470648 1.975566 0.021571 -0.026483 -917400.000000 0 0 1
31.406538 -14.366690 -15.388263 37.809669 -0.429026 1.989956 0.020620 -0.009901 343897.000000 0 0 1
32.480238 -14.744590 -16.214163 39.182495 -0.426139 1.997433 -0.005590 -0.016752 547269.000000 0 0 1
33.569238 -15.453890 -15.621763 40.121764 -0.431435 1.970732 0.015900 -0.012246 -1121240.000000 0 0 1
34.594538 -15.803090 -16.692963 41.535223 -0.428502 1.984386 0.034101 -0.021184 -58567.000000 0 0 1
35.892638 -16.080090 -16.191063 42.532356 -0.421194 1.961324 0.052866 -0.022862 287750.000000 0 0 1
-35.961825 -16.480190 -17.162363 43.120717 0.429709 1.980140 0.061461 -0.029449 374319.000000 0 0 1
-34.476625 -16.363590 -16.711763 41.661586 0.443145 1.983548 0.066445 -0.030629 265781.000000 0 0 1
-34.079525 -17.264090 -15.699663 41.303054 0.468900 1.960710 0.064231 -0.031271 88158.800000 0 0 1
-34.449125 -16.857390 -14.405363 40.968626 0.455085 1.930097 0.070354 -0.032245 -619921.000000 0 0 1
-33.570925 -17.508090 -13.318263 40.136223 0.480719 1.909035 0.075636 -0.027025 496598.000000 0 0 1
-32.191025 -17.121390 -13.282963 38.805170 0.488816 1.920159 0.082797 -0.032466 366552.000000 0 0 1
-31.642325 -17.690490 -12.172363 38.240771 0.509785 1.894741 0.085202 -0.022972 -425943.000000 0 0 1
-30.125625 -17.511590 -11.999763 36.853811 0.526545 1.902447 0.100351 -0.022475 -671950.000000 0 0 1
-29.645525 -16.205790 -11.862563 35.807893 0.500269 1.908460 0.095579 -0.033107 682473.000000 0 0 1
-28.307025 -16.318690 -11.343563 34.587046 0.522953 1.904952 0.093090 -0.019327 513145.000000 0 0 1
-28.275325 -16.371290 -9.758463 34.098985 0.524832 1.861035 0.093307 -0.016126 -496868.000000 0 0 1
-28.896025 -17.497790 -9.268263 35.029325 0.544485 1.838571 0.093495 -0.016809 -378977.000000 0 0 1
-29.375525 -17.234490 -7.987063 34.982028 0.530579 1.801147 0.100922 -0.016623 -67149.300000 0 0 1
-30.081425 -18.499890 -7.373463 36.076392 0.551371 1.776631 0.089500 -0.015224 1079310.000000 0 0 1
-31.356725 -18.865190 -7.953063 37.448509 0.541618 1.784799 0.060371 -0.010741 835629.000000 0 0 1
-31.304325 -19.519490 -9.225163 38.027292 0.557549 1.815834 0.063006 -0.009101 -789629.000000 0 0 1
-32.595425 -20.228090 -9.579863 39.539994 0.555415 1.815514 0.055506 -0.005332 50733.100000 0 0 1
-33.718525 -19.388990 -9.854863 40.124683 0.521853 1.818941 0.072429 -0.006506 1373190.000000 0 0 1
-34.921025 -20.157490 -10.116963 41.571088 0.523509 1.816630 0.075066 -0.017412 883253.000000 0 0 1
-36.111425 -19.351590 -10.630063 42.326319 0.491942 1.824660 0.060865 -0.027753 -244605.000000 0 0 1
-36.111525 -19.248490 -12.054363 42.659750 0.489720 1.857269 0.061534 -0.028377 -302043.000000 0 0 1
35.553538 -18.605390 -12.554463 42.045560 -0.482118 1.874013 0.067174 -0.028665 -626442.000000 0 0 1
35.242138 -18.864390 -14.044063 42.368729 -0.491471 1.908660 0.061400 -0.028893 -50864.200000 0 0 1
34.696638 -20.182290 -14.271563 42.601162 -0.526839 1.912406 0.050215 -0.030862 148451.000000 0 0 1
34.377438 -20.337590 -15.651863 42.899961 -0.534218 1.944263 0.051757 -0.034106 -849086.000000 0 0 1
32.986438 -20.889990 -15.823063 42.129160 -0.564539 1.955824 0.063430 -0.029440 -1584440.000000 0 0 1
32.022938 -20.034890 -15.310763 40.758862 -0.559061 1.955886 0.073231 -0.023915 -477197.000000 0 0 1
30.760438 -20.634790 -15.088263 39.995685 -0.590874 1.957618 0.087855 -0.025515 209773.000000 0 0 1
29.805938 -20.466190 -16.282863 39.653380 -0.601709 1.993941 0.087623 -0.029283 -978933.000000 0 0 1
29.385938 -19.179090 -16.401863 38.734893 -0.578244 2.008034 0.053864 -0.027623 -89021.100000 0 0 1
28.434838 -19.041490 -17.427163 38.403442 -0.590068 2.041812 0.048156 -0.032906 -160854.000000 0 0 1
27.712138 -17.680190 -17.475363 37.228216 -0.567889 2.059421 0.050956 -0.027599 -611726.000000 0 0 1
26.740738 -17.573090 -16.498063 36.000926 -0.581396 2.046842 0.060413 -0.039922 -339376.000000 0 0 1
26.162638 -16.297890 -16.470863 34.948450 -0.557120 2.061549 0.040218 -0.027309 -1574960.000000 0 0 1
24.914938 -16.198590 -15.572063 33.550523 -0.576485 2.053457 0.031864 -0.024030 -181717.000000 0 0 1
23.798338 -16.931890 -15.979563 33.292585 -0.618385 2.071421 0.028543 -0.028808 -59606.300000 0 0 1
23.218738 -16.484290 -17.188363 33.260809 -0.617377 2.113876 0.024343 -0.017775 -1261980.000000 0 0 1
22.173738 -17.392990 -17.851563 33.359692 -0.665154 2.135451 0.025596 -0.015696 82534.100000 0 0 1
20.833638 -17.392590 -17.420063 32.249051 -0.695622 2.141439 0.028028 -0.009318 58003.800000 0 0 1
19.980738 -18.060390 -18.357263 32.594427 -0.734960 2.169053 0.036327 -0.021350 -165943.000000 0 0 1
18.546638 -18.104190 -17.860263 31.475840 -0.773327 2.174175 0.042492 -0.007929 -535109.000000 0 0 1
17.848838 -16.891390 -17.761563 30.321168 -0.757845 2.196640 0.044951 -0.002993 -241834.000000 0 0 1
16.466538 -17.055290 -17.656063 29.559539 -0.802960 2.210933 0.049565 -0.007795 -107946.000000 0 0 1
15.585438 -15.806490 -17.318163 28.154392 -0.792440 2.233327 0.053198 0.001959 170911.000000 0 0 1
15.321638 -15.102490 -18.548663 28.405822 -0.778195 2.282319 0.053447 0.005120 -523882.000000 0 0 1
14.256038 -14.267490 -18.328063 27.252776 -0.785800 2.308406 0.062312 0.002498 -977386.000000 0 0 1
13.390938 -13.897590 -19.497063 27.433478 -0.803963 2.361294 0.064259 -0.000898 -406090.000000 0 0 1
13.846538 -12.776390 -20.131863 27.572716 -0.745223 2.389319 0.076146 -0.007896 -37471.100000 0 0 1
13.120438 -12.567990 -21.334163 28.022255 -0.763896 2.436157 0.082768 -0.003876 74812.000000 0 0 1
13.257438 -11.142290 -21.986363 27.987684 -0.698927 2.474418 0.072491 -0.005817 -770779.000000 0 0 1
14.525638 -10.854890 -22.455063 28.862652 -0.641766 2.462268 0.060822 -0.002414 -763997.000000 0 0 1
14.540538 -9.489190 -22.838063 28.688832 -0.578203 2.491555 0.062339 -0.005536 274451.000000 0 0 1
15.766638 -9.175790 -23.727863 29.929809 -0.527060 2.486159 0.046861 0.000399 222840.000000 0 0 1
15.629938 -9.724790 -25.038963 31.077583 -0.556576 2.507639 0.058063 -0.006691 -114856.000000 0 0 1
16.813538 -9.646390 -25.783063 32.257003 -0.520877 2.496928 0.056284 -0.008333 -551403.000000 0 0 1
22.409238 5.293310 -7.654963 24.265027 0.231959 1.891751 0.115788 0.025558 -275300.000000 0 1 0
22.130738 6.710710 -7.736763 24.385666 0.294418 1.893642 0.086129 0.024696 736010.000000 0 1 0
21.794238 7.226510 -6.478963 23.857666 0.320171 1.845818 0.077404 0.025316 -262360.000000 0 1 0
21.406838 8.714010 -6.508163 24.011307 0.386583 1.845276 0.063843 0.022728 200859.000000 0 1 0
20.122738 9.060910 -7.051063 23.167696 0.423089 1.880051 0.028519 0.005618 1325010.000000 0 1 0
19.730738 10.446910 -7.063463 23.416500 0.486948 1.877214 0.042855 0.003799 138979.000000 0 1 0
19.205938 11.043410 -5.711563 22.878962 0.521834 1.823107 0.053002 0.000752 -513256.000000 0 1 0
20.245038 11.282910 -4.797763 23.668210 0.508444 1.774920 0.063486 0.004176 43913.900000 0 1 0
19.915238 12.310410 -3.954763 23.744537 0.553651 1.738131 0.079814 -0.010873 318032.000000 0 1 0
21.036638 12.593610 -2.882763 24.687030 0.539427 1.687836 0.072583 -0.020109 780020.000000 0 1 0
22.207938 13.323010 -3.300063 26.107193 0.540361 1.697540 0.072725 -0.024833 913975.000000 0 0 1
23.080138 13.662610 -2.272863 26.917013 0.534490 1.655337 0.069697 -0.030585 -81457.600000 0 0 1
23.917038 12.526810 -1.541263 27.042950 0.482475 1.627820 0.058624 -0.024700 -1486430.000000 0 0 1
25.049838 12.236010 -2.277063 27.971402 0.454378 1.652293 0.057935 -0.013904 -429466.000000 0 0 1
25.730238 11.184110 -1.607763 28.101857 0.410031 1.628040 0.060296 -0.015304 -381100.000000 0 0 1
27.094338 10.760110 -2.169163 29.233344 0.378034 1.645066 0.077457 -0.013973 -1036850.000000 0 0 1
28.000738 11.757510 -1.999763 30.434839 0.397543 1.636550 0.070226 -0.028954 92432.300000 0 0 1
29.329238 11.196710 -2.082463 31.462790 0.364683 1.637033 0.072378 -0.023073 187906.000000 0 0 1
30.420738 12.154110 -1.700863 32.802997 0.380104 1.622670 0.066248 -0.019317 -1005370.000000 0 0 1
30.474438 12.462410 -0.346863 32.926028 0.388195 1.581331 0.092620 -0.030002 531072.000000 0 0 1
31.427438 13.427710 0.089537 34.175946 0.403784 1.568176 0.092777 -0.030111 -365404.000000 0 0 1
32.862338 12.955310 0.357137 35.325640 0.375522 1.560686 0.113529 -0.026234 105144.000000 0 0 1
33.856738 13.973910 0.557337 36.631400 0.391438 1.555581 0.123486 -0.040850 719729.000000 0 0 1
34.629338 14.426110 -0.544063 37.517992 0.394723 1.585298 0.115058 -0.022167 -318873.000000 0 0 1
34.023238 15.540110 -1.476363 37.433346 0.428453 1.610246 0.086330 -0.007088 66184.500000 0 0 1
32.807938 15.260310 -2.146063 36.246978 0.435373 1.630038 0.076979 -0.001152 36867.200000 0 0 1
32.370038 16.373610 -2.872263 36.389069 0.468298 1.649811 0.061117 0.011718 -220337.000000 0 0 1
31.072638 16.093710 -3.629363 35.180799 0.477895 1.674143 0.061184 -0.001877 -1161290.000000 0 0 1
31.307038 15.203610 -4.737063 35.124353 0.452085 1.706074 0.039799 -0.003344 -197842.000000 0 0 1
30.268138 14.950210 -5.642763 34.227324 0.458776 1.736414 0.042516 -0.009881 -476055.000000 0 0 1
28.996638 14.361610 -5.004563 32.743037 0.459869 1.724241 0.043797 -0.011907 -934019.000000 0 0 1
27.964938 14.186210 -5.925963 31.912432 0.469459 1.757575 0.067291 -0.020297 -37456.000000 0 0 1
26.811738 13.564110 -5.400263 30.528957 0.468358 1.748622 0.056763 -0.005544 559147.000000 0 0 1
25.649638 13.453310 -6.440063 29.671028 0.483057 1.789587 0.051208 -0.007455 40433.800000 0 0 1
26.021538 12.501010 -7.446563 29.813537 0.447853 1.823240 0.041577 0.004321 731582.000000 0 0 1
24.982738 12.110510 -8.356163 28.993570 0.451377 1.863151 0.056371 0.006296 94705.000000 0 0 1
24.621538 13.157410 -9.371663 29.447676 0.490777 1.894677 0.076529 0.002634 -285201.000000 0 0 1
23.771538 14.112610 -8.780763 29.006095 0.535757 1.878343 0.088701 -0.010873 37380.400000 0 0 1
23.396938 15.213110 -9.611463 29.516701 0.576528 1.902472 0.083025 -0.012968 -524546.000000 0 0 1
22.443838 16.131610 -8.826763 29.014935 0.623202 1.879910 0.084479 -0.005880 1779370.000000 0 0 1
21.040938 15.735710 -8.653763 27.662633 0.642131 1.888970 0.087118 -0.010976 2049240.000000 0 0 1
20.733438 14.504210 -7.983563 26.532712 0.610428 1.876427 0.092060 -0.015764 -858587.000000 0 0 1
19.296938 13.975810 -8.123563 25.173147 0.626816 1.899385 0.099745 -0.025019 -215278.000000 0 0 1
18.388238 14.644710 -7.284163 24.610036 0.672553 1.871281 0.122648 -0.045446 15456.300000 0 1 0
17.053638 14.443310 -7.708763 23.640237 0.702712 1.902957 0.117751 -0.052100 83255.200000 0 1 0
15.985038 14.987810 -6.736763 22.924656 0.753212 1.869065 0.100834 -0.032506 -14253.500000 0 1 0
15.918938 14.421610 -5.425163 22.154634 0.736087 1.818189 0.051819 -0.028201 84723.900000 0 1 0
16.591938 15.099710 -4.416363 22.864774 0.738347 1.765169 0.113431 -0.017218 -261048.000000 0 1 0
16.373438 14.456910 -3.032963 22.051997 0.723314 1.708771 0.075202 0.005781 -557174.000000 0 1 0
17.140838 13.324510 -2.753963 21.884588 0.660779 1.696971 0.065311 -0.009278 129335.000000 0 1 0
16.795038 12.470710 -1.636463 20.982610 0.638699 1.648867 0.047367 -0.006819 -241709.000000 0 1 0
16.696338 13.161710 -0.251963 21.261745 0.667565 1.582647 0.046286 -0.006822 -376491.000000 0 1 0
15.618638 14.054710 -0.216963 21.012468 0.732742 1.581122 0.043914 -0.015300 181748.000000 0 1 0
15.803138 15.003810 0.844237 21.807481 0.759458 1.532073 0.052056 -0.006180 383409.000000 0 1 0
14.569038 15.948310 1.162637 21.632318 0.830564 1.517025 0.058560 -0.000641 517884.000000 0 1 0
14.276938 16.975810 0.253837 22.182730 0.871541 1.559353 0.060566 -0.007208 573610.000000 0 1 0
13.452138 17.979610 0.889437 22.472594 0.928456 1.531207 0.061114 -0.014612 382162.000000 0 1 0
13.188538 19.335110 0.118737 23.405087 0.972183 1.565723 0.049717 -0.008513 -87659.000000 0 1 0
12.500038 19.089010 -1.085163 22.843354 0.991034 1.618319 0.047705 -0.023476 -15203.700000 0 1 0
11.904038 20.291510 -1.639063 23.582579 1.040250 1.640356 0.048287 -0.021941 678721.000000 0 1 0
10.390938 20.499410 -1.332163 23.021122 1.101652 1.628696 0.033684 -0.016895 361046.000000 0 1 0
10.073838 20.571410 0.041937 22.905608 1.115422 1.568965 0.022959 -0.014343 -219039.000000 0 1 0
8.687638 20.383710 0.204537 22.158802 1.167906 1.561566 0.012510 -0.012749 32217.600000 0 1 0
8.334738 20.452710 1.695637 22.150765 1.183830 1.494172 0.012419 -0.008845 -118414.000000 0 1 0
8.259738 21.730510 2.298437 23.360675 1.207563 1.472248 0.010074 0.004992 586681.000000 0 1 0
7.324938 21.711510 3.385837 23.162648 1.245412 1.424094 0.005821 -0.000830 353502.000000 0 1 0
6.895038 23.110310 3.929337 24.434968 1.280851 1.409287 0.007164 0.004091 225782.000000 0 1 0
7.796238 23.554310 4.937837 25.297610 1.251156 1.374345 0.023490 -0.008862 485146.000000 0 0 1
7.411638 24.781410 5.473837 26.438864 1.280183 1.362250 0.025795 -0.008106 -115586.000000 0 0 1
7.915138 25.038010 6.906237 27.152301 1.264612 1.313619 0.026499 -0.008684 -48299.900000 0 0 1
7.367638 24.117610 7.836837 26.407522 1.274312 1.269493 0.030171 -0.018683 221713.000000 0 0 1
8.143438 24.173410 9.005037 27.051063 1.245861 1.231429 0.041556 -0.023593 -262030.000000 0 0 1
7.638838 23.244010 10.089537 26.465725 1.253279 1.179670 0.042432 -0.021026 939847.000000 0 0 1
6.295838 23.558610 10.543037 26.566921 1.309657 1.162716 0.034247 -0.021948 1161170.000000 0 0 1
5.756238 22.618610 11.448337 25.996158 1.321595 1.114768 0.024163 -0.017557 434556.000000 0 0 1
4.393938 23.054510 12.052437 26.383297 1.382466 1.096378 0.027448 -0.023548 958703.000000 0 0 1
3.305338 23.197210 11.137337 25.943710 1.429260 1.127091 0.012260 -0.021281 -3177.450000 0 0 1
2.057038 23.421610 11.730437 26.275585 1.483195 1.108015 0.015318 -0.020584 46104.800000 0 0 1
0.984938 23.530110 10.601137 25.826736 1.528962 1.147825 0.033842 -0.020132 -96166.200000 0 0 1
0.949738 24.818010 9.999337 26.773538 1.532547 1.188040 0.032481 -0.018271 2702.080000 0 0 1
0.111638 24.856910 8.871337 26.392784 1.566305 1.227994 0.028878 -0.019256 -318836.000000 0 0 1
-1.228662 25.563410 9.044937 27.144215 -1.522770 1.231082 0.027107 -0.025017 -40967.700000 0 0 1
-2.132362 24.999210 9.975337 27.000274 -1.485705 1.192376 0.020489 -0.021988 -1162070.000000 0 0 1
-3.415262 25.401710 9.745937 27.420689 -1.437148 1.207430 0.027805 -0.022312 -1349220.000000 0 0 1
-4.491662 24.523510 10.431537 27.025812 -1.389647 1.174522 0.036775 -0.030442 138531.000000 0 0 1
-4.935462 24.706110 11.792337 27.817438 -1.373625 1.133028 0.019520 -0.017029 257419.000000 0 0 1
-5.912262 25.723610 11.906737 28.955644 -1.344882 1.147020 0.022240 -0.014940 -192861.000000 0 0 1
-6.510962 25.892710 13.348937 29.849944 -1.324445 1.107162 0.014766 -0.003867 -235169.000000 0 0 1
-7.380662 24.864010 13.714337 29.338988 -1.282240 1.084399 0.007362 -0.014482 -292234.000000 0 0 1
-7.586362 24.809310 15.106937 30.021231 -1.274039 1.043489 -0.000311 0.005243 278454.000000 0 0 1
-8.791562 23.903610 15.524437 29.827542 -1.218360 1.023391 -0.001039 -0.005852 715700.000000 0 0 1
-10.053362 24.479610 15.201537 30.518980 -1.181114 1.049389 -0.003708 -0.000282 142981.000000 0 0 1
-11.092962 23.515310 15.349837 30.193395 -1.130016 1.037489 -0.001930 -0.001656 334410.000000 0 0 1
-12.479662 24.122510 15.035937 31.043789 -1.093369 1.065181 -0.006819 -0.009488 -143963.000000 0 0 1
-12.908262 24.982510 16.089637 32.397923 -1.093884 1.051090 -0.010627 -0.010652 136509.000000 0 0 1
-13.813662 25.915010 15.492237 33.202626 -1.081070 1.085357 -0.016445 -0.004503 -343890.000000 0 0 1
-14.430662 26.984310 16.411137 34.723514 -1.079714 1.078531 -0.001064 -0.003551 -261746.000000 0 0 1
-15.651562 26.557310 16.967137 35.187296 -1.038244 1.067638 -0.007056 -0.009120 -216888.000000 0 0 1
-16.045762 27.490410 17.993337 36.564317 -1.042459 1.056295 0.008623 -0.012051 -616803.000000 0 0 1
-17.279962 27.039110 18.739237 37.160053 -1.002141 1.042243 0.006447 -0.019407 -37402.600000 0 0 1
-18.470562 27.182610 17.958637 37.450882 -0.973962 1.070683 0.012933 -0.022956 484534.000000 0 0 1
-19.527162 26.338710 18.452537 37.623581 -0.932831 1.058189 0.013650 -0.013611 -343635.000000 0 0 1
-20.781962 26.661510 17.690537 38.153390 -0.908697 1.088665 0.031212 -0.021372 -1349860.000000 0 0 1
-21.321662 27.945510 17.913437 39.451946 -0.919044 1.099483 0.024313 -0.022011 595387.000000 0 0 1
-22.081862 28.281710 16.704537 39.579102 -0.907884 1.135086 0.043681 -0.027079 -136550.000000 0 0 1
-22.870962 29.594410 16.804037 41.003483 -0.912854 1.148540 0.039145 -0.029049 739154.000000 0 0 1
-24.182862 29.317310 17.356537 41.779957 -0.881076 1.142384 0.044026 -0.022477 567814.000000 0 0 1
-24.949162 30.494310 17.360337 43.055138 -0.885081 1.155772 0.042953 -0.023816 794028.000000 0 0 1
-26.313832 30.291610 18.138337 44.034062 -0.855555 1.146241 0.042506 -0.019382 1006420.000000 0 0 1
-27.274562 29.472110 17.456237 43.786153 -0.824104 1.160730 0.063497 -0.019497 1047550.000000 0 0 1
-28.575972 29.493810 18.087037 44.873287 -0.801203 1.155928 0.082124 -0.021514 1143790.000000 0 0 1
-28.813512 28.252710 19.018237 44.610844 -0.775571 1.130382 0.075714 -0.017341 -386162.000000 0 0 1
-29.097972 27.131410 18.242237 43.767392 -0.750438 1.140875 0.088315 -0.009867 -8573.370000 0 0 1
-29.361052 26.069210 19.113937 43.669413 -0.726081 1.117762 0.094675 -0.015221 -8012.160000 0 0 1
-29.458992 24.612110 18.526937 42.624354 -0.695998 1.121140 0.098887 -0.010996 274175.000000 0 0 1
-30.637212 24.392710 17.756437 42.999234 -0.672407 1.145108 0.102060 -0.018495 197113.000000 0 0 1
-30.526512 23.362810 16.789537 41.947317 -0.653239 1.159003 0.100321 -0.010997 -230028.000000 0 0 1
-30.672182 21.895210 17.338037 41.482412 -0.619958 1.139596 0.077563 -0.007911 -1194.210000 0 0 1
-32.004972 21.499110 17.587237 42.377363 -0.591509 1.142837 0.076293 -0.007909 -83093.600000 0 0 1
-32.157102 20.115210 17.387437 41.725578 -0.558980 1.140974 0.074106 -0.013034 -6455.510000 0 0 1
-33.537712 19.670910 16.865137 42.381077 -0.530457 1.161526 0.086455 -0.025090 62862.600000 0 0 1
-33.709182 20.013010 15.484037 42.149554 -0.535771 1.194628 0.070786 -0.023270 170370.000000 0 0 1
-34.935955 19.552910 14.937137 42.731198 -0.510244 1.213694 0.085516 -0.032699 288806.000000 0 0 1
-35.073362 19.933310 13.450337 42.525159 -0.516809 1.248979 0.087506 -0.021349 35429.800000 0 0 1
-35.217399 21.375610 13.357137 43.308140 -0.545523 1.257264 0.082792 -0.028724 36960.700000 0 0 1
-35.580410 21.884810 12.100537 43.489464 -0.551434 1.288834 0.063755 -0.015050 130122.000000 0 0 1
-34.527749 21.714710 10.963137 42.236056 -0.561403 1.308221 0.065746 -0.009989 62505.900000 0 0 1
-34.722352 20.490210 10.234737 41.596157 -0.533120 1.322193 0.083037 -0.017217 87849.100000 0 0 1
-33.661302 20.210910 9.351237 40.360993 -0.540728 1.336982 0.074442 -0.010901 15017.300000 0 0 1
-32.677102 19.132610 9.878937 39.133657 -0.529693 1.315594 0.059114 -0.014355 -217603.000000 0 0 1
-31.930232 19.517810 11.000637 39.006392 -0.548661 1.284896 0.058075 -0.011772 179183.000000 0 0 1
-31.199712 18.345110 11.390837 37.943593 -0.531542 1.265889 0.049749 -0.005889 98396.400000 0 0 1
-30.890272 18.460810 12.909337 38.231680 -0.538672 1.226366 0.049823 -0.008329 799814.000000 0 0 1
-29.837722 19.405510 13.266037 37.984881 -0.576634 1.214031 0.053890 0.000840 659859.000000 0 0 1
-30.322722 20.714810 13.418437 39.097638 -0.599324 1.220471 0.077116 -0.000056 42935.200000 0 0 1
-29.255982 21.825710 13.601837 38.952331 -0.640953 1.214088 0.070688 -0.008367 -227645.000000 0 0 1
-28.529252 21.628810 14.760137 38.724479 -0.648682 1.179748 0.067495 -0.000518 -787949.000000 0 0 1
-27.433252 22.496410 14.712137 38.407275 -0.686843 1.177694 0.095414 -0.003812 -204573.000000 0 0 1
-26.567512 22.402510 16.026437 38.269463 -0.700550 1.138696 0.078603 -0.003757 142047.000000 0 0 1
-25.975602 21.135510 16.278937 37.235003 -0.683020 1.118319 0.093037 0.001808 127454.000000 0 0 1
-25.362862 21.062210 17.546237 37.346511 -0.693025 1.081706 0.089493 0.008346 192348.000000 0 0 1
-24.611262 19.687210 17.749637 36.171122 -0.674696 1.057889 0.082752 0.007806 154109.000000 0 0 1
-23.951562 19.689410 18.972837 36.349948 -0.688043 1.021661 0.077258 0.011577 -427401.000000 0 0 1
-23.209762 18.547010 19.174937 35.360470 -0.674194 0.997659 0.068116 0.005894 -103749.000000 0 0 1
-22.583662 18.397410 20.599537 35.676707 -0.683600 0.955262 0.052877 0.003854 -226069.000000 0 0 1
-23.493462 17.970510 21.543237 36.592254 -0.652979 0.941300 0.058657 0.007495 -381854.000000 0 0 1
-23.059462 18.144810 22.871237 37.203043 -0.666684 0.908705 0.066865 0.001171 -335169.000000 0 0 1
-23.787562 17.254410 23.824137 37.830573 -0.627540 0.889554 0.089882 -0.007561 -409123.000000 0 0 1
-23.547862 15.879310 23.725937 37.007761 -0.593297 0.874856 0.090205 -0.018507 343685.000000 0 0 1
-24.331562 15.129510 24.675737 37.812947 -0.556299 0.859820 0.088145 -0.025114 264968.000000 0 0 1
20.870138 24.658810 33.455684 46.507014 0.868421 0.767903 0.062690 -0.000437 -178291.000000 0 0 1
21.720538 23.615510 33.043245 46.057900 0.827172 0.770693 0.074782 -0.016277 -37135.800000 0 0 1
21.518738 22.331510 33.640058 45.753753 0.803931 0.744773 0.078020 -0.023142 123402.000000 0 0 1
20.417038 21.413310 33.020457 44.336620 0.809211 0.730611 0.076198 -0.030055 177693.000000 0 0 1
20.820138 20.866810 31.792251 43.354920 0.786518 0.747630 0.086507 -0.029380 -187158.000000 0 0 1
19.998538 19.827210 31.368901 42.155281 0.781096 0.731569 0.072671 -0.030695 -636876.000000 0 0 1
20.217538 19.315910 29.913051 40.946842 0.762595 0.751693 0.062637 -0.019502 -951374.000000 0 0 1
21.476638 18.781510 29.725971 41.202238 0.718552 0.764881 0.080900 -0.026919 -1135070.000000 0 0 1
21.556738 17.999810 28.545201 40.043909 0.695719 0.777246 0.049163 -0.021304 -220570.000000 0 0 1
22.763438 17.043410 28.530441 40.281981 0.642681 0.783754 0.060796 -0.013480 108323.000000 0 0 1
24.005238 17.723710 28.364211 41.169282 0.635988 0.810736 0.058661 -0.010922 1068.320000 0 0 1
25.036638 16.856510 28.813061 41.727301 0.592563 0.808604 0.047842 0.003382 -97531.000000 0 0 1
26.352238 17.628510 28.963481 42.942846 0.589586 0.830555 0.041867 -0.008402 62000.600000 0 0 1
27.182638 17.890710 27.798081 42.798442 0.582095 0.863855 0.038740 0.009775 -71148.000000 0 0 1
28.360038 18.512410 28.225801 44.087378 0.578316 0.876006 0.030396 0.012629 -670131.000000 0 0 1
29.314438 18.492610 27.043781 43.962245 0.562785 0.908208 0.024914 0.022242 -526391.000000 0 0 1
29.084138 19.495810 26.074621 43.656151 0.590531 0.930700 0.041891 0.016496 328519.000000 0 0 1
30.006338 19.293610 24.999811 43.561614 0.571428 0.959542 0.029152 0.020199 267606.000000 0 0 1
30.366138 20.522010 24.160871 43.897641 0.594312 0.987964 0.044455 0.003081 -548902.000000 0 0 1
29.416738 20.791210 23.188031 42.840444 0.615263 0.998856 0.042376 0.006223 -433635.000000 0 0 1
29.894638 21.376610 21.965931 42.815312 0.620765 1.032075 0.032675 -0.002291 323107.000000 0 0 1
30.837438 20.436710 21.136731 42.607137 0.585268 1.051713 0.054189 -0.011969 395597.000000 0 0 1
30.067538 19.305110 20.733631 41.311349 0.570772 1.045017 0.074967 -0.019631 404282.000000 0 0 1
30.476638 18.666510 19.557331 40.740069 0.549550 1.070083 0.076319 -0.020141 -384917.000000 0 0 1
31.495038 17.525410 19.672931 41.062168 0.507782 1.071166 0.098743 -0.024859 -281592.000000 0 0 1
31.072738 16.322910 20.343731 40.568705 0.483692 1.045507 0.108344 -0.025857 161745.000000 0 0 1
32.024538 15.254210 20.315431 40.877606 0.444532 1.050679 0.099187 -0.034221 -784817.000000 0 0 1
31.445938 13.878010 20.598531 40.071756 0.415620 1.030907 0.107381 -0.036188 -155417.000000 0 0 1
30.773638 13.668110 21.820031 40.124155 0.417978 0.995822 0.084985 -0.033486 571242.000000 0 0 1
29.504238 14.310010 21.854831 39.406980 0.451588 0.982923 0.078700 -0.020231 -869657.000000 0 0 1
28.598338 13.838410 22.979031 39.209723 0.450676 0.944616 0.054156 -0.014518 -273482.000000 0 0 1
28.214638 12.466510 22.890331 38.411547 0.416052 0.932382 0.066223 -0.013626 -64336.900000 0 0 1
27.595838 11.998810 24.052251 38.522883 0.410146 0.896481 0.049293 -0.001978 210238.000000 0 0 1
26.903838 10.557810 23.887781 37.495466 0.373961 0.880086 0.059610 -0.007652 170902.000000 0 0 1
25.784838 10.619610 23.034431 36.169310 0.390684 0.880390 0.041169 0.006387 -99847.800000 0 0 1
25.421238 9.381510 22.492431 35.215927 0.353537 0.877988 0.040597 0.003027 5331.310000 0 0 1
24.186638 9.345310 21.554031 33.718015 0.368713 0.877282 0.046125 -0.004129 917589.000000 0 0 1
22.945838 9.143110 22.258031 33.249480 0.379182 0.837362 0.031948 -0.000169 1898650.000000 0 0 1
21.799138 9.011510 21.346131 31.813001 0.391995 0.835256 0.020778 0.003972 853120.000000 0 0 1
20.453638 8.955610 22.065331 31.391609 0.412704 0.791322 0.014458 -0.000794 -590884.000000 0 0 1
20.238238 7.895110 22.940831 31.594315 0.371950 0.758154 0.029767 0.007528 -263903.000000 0 0 1
18.942438 7.881210 23.454181 31.161323 0.394275 0.718689 0.031281 0.002144 -558334.000000 0 0 1
18.689138 7.047210 24.745931 31.801072 0.360589 0.679085 0.037601 0.002698 -355648.000000 0 0 1
18.858738 5.678510 24.597151 31.510591 0.292473 0.675172 0.039441 -0.006987 206838.000000 0 0 1
18.726038 4.986310 25.819081 32.282390 0.260238 0.643854 0.050731 -0.023055 -60394.600000 0 0 1
18.990038 3.495510 25.608211 32.072116 0.182033 0.646068 0.048370 -0.025286 536946.000000 0 0 1
20.363838 3.341910 25.253821 32.613030 0.162660 0.685113 0.056630 -0.018417 535637.000000 0 0 1
20.867338 2.048110 24.999141 32.628172 0.097836 0.697917 0.060271 -0.030711 -417722.000000 0 0 1
22.391538 1.979910 24.970571 33.598072 0.088193 0.732934 0.058529 -0.021693 -600665.000000 0 0 1
22.986038 2.323910 26.199441 34.930921 0.100759 0.722680 0.061806 -0.025651 -884235.000000 0 0 1
24.304738 2.688410 26.032551 35.716125 0.110165 0.754121 0.069326 -0.018988 -821274.000000 0 0 1
25.096238 2.992110 27.302891 37.205131 0.118665 0.746828 0.054113 -0.015312 -624963.000000 0 0 1
25.325738 1.876610 28.173301 37.929534 0.073964 0.733583 0.055349 -0.021006 96186.900000 0 0 1
26.038738 2.152510 29.357871 39.300557 0.082478 0.727245 0.056848 -0.004623 667337.000000 0 0 1
27.551338 2.514810 29.227171 40.244602 0.091025 0.757962 0.044961 -0.002596 -535854.000000 0 0 1
27.932438 3.723510 28.549431 40.114282 0.132523 0.778878 0.044353 0.010618 1059850.000000 0 0 1
29.321738 3.770610 28.147821 40.820113 0.127892 0.809918 0.043465 0.012028 1006370.000000 0 0 1
29.695538 2.752710 27.078631 40.282188 0.092434 0.833588 0.055881 0.004384 -989127.000000 0 0 1
29.244438 3.053510 25.800661 39.118221 0.104036 0.850568 0.038384 0.018616 12670.200000 0 0 1
29.418138 2.029510 24.845981 38.559934 0.068879 0.870627 0.048323 0.027978 -100982.000000 0 0 1
29.006338 2.396710 23.365021 37.323399 0.082440 0.894363 0.047716 0.011434 533109.000000 0 0 1
29.804238 3.393010 22.668431 37.598709 0.113355 0.923660 0.053598 0.008624 762042.000000 0 0 1
31.078238 2.939610 22.178231 38.293239 0.094307 0.953088 0.035843 0.009085 628082.000000 0 0 1
31.996338 4.053910 21.667231 38.854456 0.126028 0.979243 0.056196 -0.005463 -269701.000000 0 0 1
31.635338 4.480810 20.367331 37.890638 0.140703 1.003292 0.051650 -0.014402 106481.000000 0 0 1
32.170538 5.767510 20.013031 38.324002 0.177395 1.021360 0.073302 -0.017108 685237.000000 0 0 1
33.702338 5.893310 19.673231 39.466628 0.173113 1.048955 0.059434 -0.016904 449434.000000 0 0 1
34.565938 5.975010 20.782531 40.772766 0.171167 1.035942 0.072131 -0.015662 206470.000000 0 0 1
34.675238 7.190810 21.456331 41.405966 0.204478 1.026058 0.086569 -0.023206 -370167.000000 0 0 1
35.408338 6.973810 22.820231 42.698330 0.194465 1.006936 0.091195 -0.015859 71589.800000 0 0 1
34.590038 6.301010 23.723871 42.414567 0.180187 0.977215 0.085467 0.000292 -95201.100000 0 0 1
35.365538 5.741310 24.735261 43.537536 0.160938 0.966557 0.088793 -0.009507 -78113.200000 0 0 1
34.626138 4.729210 25.644091 43.346906 0.135739 0.937753 0.079023 -0.002905 114010.000000 0 0 1
34.457638 3.443510 25.084511 42.760020 0.099604 0.943899 0.082013 -0.006478 145587.000000 0 0 1
33.598238 2.638110 25.882161 42.493382 0.078359 0.915888 0.058641 0.004849 153099.000000 0 0 1
33.611738 1.093210 25.516411 42.214112 0.032513 0.921718 0.057036 0.003434 364053.000000 0 0 1
32.825438 0.734210 24.351941 40.878668 0.022363 0.932644 0.075004 0.001178 317683.000000 0 0 1
32.970338 -0.658490 24.104831 40.847517 -0.019970 0.939592 0.066187 0.000127 -591200.000000 0 0 1
31.874638 -1.268590 23.258031 39.478322 -0.039778 0.940809 0.064638 0.005417 -683937.000000 0 0 1
30.650238 -1.332890 23.949831 38.920536 -0.043460 0.907964 0.059026 0.010392 -650774.000000 0 0 1
29.789538 -2.199390 23.262831 37.860444 -0.073697 0.909125 0.068369 0.001894 -96649.800000 0 0 1
28.318538 -2.143490 23.712161 36.997307 -0.075548 0.875106 0.033448 0.010429 -78889.100000 0 0 1
27.709738 -0.907190 23.472181 36.326242 -0.032727 0.868268 0.041541 0.012031 405459.000000 0 0 1
26.287638 -1.012490 23.391481 35.202648 -0.038497 0.843998 0.050550 0.007661 820500.000000 0 0 1
25.436638 0.255710 23.461931 34.605638 0.010052 0.825785 0.055596 0.004419 -170131.000000 0 0 1
25.649638 0.992110 22.284931 33.992740 0.038660 0.855847 0.048864 -0.003014 -24831.000000 0 0 1
24.766638 2.049910 22.060631 33.230407 0.082581 0.844816 0.048751 -0.002755 -370837.000000 0 0 1
25.163238 2.890910 20.823531 32.789714 0.114385 0.882706 0.052941 -0.004165 -259664.000000 0 0 1
24.773838 2.404110 19.555231 31.653276 0.096739 0.904861 0.065521 -0.009660 194183.000000 0 0 1
24.061338 3.403610 18.861231 30.761641 0.140523 0.910765 0.053326 -0.005398 -22327.600000 0 0 1
23.629138 2.968510 17.457831 29.528361 0.124974 0.938223 0.058105 -0.005013 -608753.000000 0 0 1
24.718638 2.887810 16.600831 29.915516 0.116300 0.982525 0.047552 -0.009494 -322115.000000 0 0 1
24.439638 2.853610 15.242931 28.944532 0.116235 1.016170 0.038884 -0.008083 -50834.300000 0 0 1
23.734038 1.561510 14.660331 27.940440 0.065697 1.018434 0.057315 0.010724 684784.000000 0 0 1
22.308738 1.586910 14.621231 26.720376 0.071014 0.991788 0.056680 0.011021 697753.000000 0 0 1
21.830438 0.433710 13.988031 25.931085 0.019865 1.001035 0.068074 0.002601 -33022.800000 0 0 1
20.297438 0.261610 13.843331 24.570150 0.012888 0.972276 0.071125 -0.017255 204722.000000 0 1 0
19.591538 1.056710 12.885531 23.473004 0.053885 0.989688 0.077329 -0.010713 575026.000000 0 1 0
19.724938 0.724110 11.470031 22.828910 0.036694 1.044384 0.085705 -0.006342 -1022310.000000 0 1 0
19.661538 -0.793890 11.018631 22.552529 -0.040356 1.060339 0.093925 -0.006283 -515388.000000 0 1 0
20.802838 -1.546090 11.267131 23.708579 -0.074185 1.075566 0.105722 -0.018941 -121336.000000 0 1 0
21.915538 -1.227190 10.458631 24.314189 -0.055938 1.126143 0.104183 -0.013950 -312155.000000 0 1 0
23.165738 -2.112790 10.730631 25.617606 -0.090952 1.138588 0.117370 -0.023691 167589.000000 0 0 1
23.720438 -1.889390 12.017431 26.657975 -0.079485 1.103134 0.109021 -0.030796 310399.000000 0 0 1
24.719238 -2.851190 12.300331 27.757308 -0.114836 1.111700 0.085661 -0.024672 186961.000000 0 0 1
25.246138 -2.924190 13.767831 28.904525 -0.115313 1.074331 0.072840 -0.026375 40436.000000 0 0 1
25.927938 -1.806890 14.287231 29.658857 -0.069576 1.068181 0.068453 -0.025735 130450.000000 0 0 1
26.050938 -1.868590 15.735231 30.491646 -0.071606 1.028563 0.073419 -0.027627 -49826.100000 0 0 1
27.056238 -0.777690 16.250431 31.570894 -0.028736 1.030106 0.075528 -0.024585 387389.000000 0 0 1
28.374638 -1.205790 15.907531 32.551860 -0.042470 1.060217 0.080916 -0.030320 -483004.000000 0 0 1
29.232638 -0.169090 16.138231 33.391889 -0.005784 1.066378 0.061168 -0.030463 -1748860.000000 0 0 1
30.673838 -0.590690 16.194631 34.691488 -0.019255 1.085106 0.059261 -0.028594 -1124190.000000 0 0 1
31.108738 -1.152190 14.979331 34.546512 -0.037021 1.122313 0.054377 -0.026825 783331.000000 0 0 1
32.470938 -1.599790 15.092331 35.842706 -0.049229 1.136170 0.052752 -0.023334 1024100.000000 0 0 1
33.218038 -2.156090 13.827631 36.045668 -0.064816 1.177090 0.048767 -0.023481 197457.000000 0 0 1
33.216338 -1.265490 12.715731 35.589555 -0.038080 1.205433 0.059760 -0.026635 237614.000000 0 0 1
33.769838 -1.924590 11.607631 35.760916 -0.056930 1.240218 0.056936 -0.022766 -189991.000000 0 0 1
33.364738 -1.181090 10.304031 34.939573 -0.035385 1.271435 0.062848 -0.009395 -557509.000000 0 0 1
33.900438 0.097410 10.125631 35.380469 0.002873 1.280545 0.057617 -0.012482 318692.000000 0 0 1
32.833838 0.983510 9.826431 34.286834 0.029945 1.280126 0.049181 -0.011419 -96752.400000 0 0 1
33.278938 2.360910 9.339831 34.645260 0.070824 1.297835 0.049362 -0.018241 -41128.400000 0 0 1
33.870738 2.289210 8.054331 34.890394 0.067484 1.337849 0.065589 -0.017307 187560.000000 0 0 1
34.160538 3.566310 7.575331 35.171673 0.104022 1.353714 0.059260 -0.018806 -245793.000000 0 0 1
34.778738 3.637610 6.206131 35.514911 0.104214 1.395147 0.056734 -0.021744 -157006.000000 0 0 1
35.167738 4.939810 5.720031 35.970686 0.139551 1.411099 0.054932 -0.007711 210599.000000 0 0 1
35.443338 4.903710 4.341731 36.043407 0.137481 1.450045 0.069983 -0.018694 -578559.000000 0 0 1
35.756738 6.346710 3.834531 36.517512 0.175667 1.465597 0.095882 -0.024279 59955.800000 0 0 1
34.637238 7.210310 3.749831 35.577915 0.205235 1.465202 0.090930 -0.027126 -188570.000000 0 0 1
35.044438 8.522110 3.430931 36.228584 0.238550 1.475952 0.098876 -0.029845 -1289450.000000 0 0 1
33.935338 9.569210 3.509031 35.432898 0.274847 1.471601 0.121077 -0.039688 -92263.300000 0 0 1
32.899038 9.500110 2.563531 34.339052 0.281118 1.496073 0.132081 -0.041448 118344.000000 0 0 1
32.085638 8.341310 2.583331 33.252657 0.254340 1.493030 0.127763 -0.034944 -2025320.000000 0 0 1
30.908738 8.344310 1.667131 32.058648 0.263680 1.518770 0.139513 -0.041127 -998710.000000 0 0 1
31.209938 8.304110 0.253531 32.296792 0.260048 1.562946 0.144030 -0.038456 429019.000000 0 0 1
30.088138 8.028610 -0.593769 31.146544 0.260761 1.589861 0.125291 -0.032597 212367.000000 0 0 1
30.524638 7.685110 -2.041269 31.543323 0.246641 1.635555 0.106141 -0.022315 -137172.000000 0 0 1
29.510238 7.039310 -2.787069 30.465945 0.234162 1.662406 0.106698 -0.019356 583510.000000 0 0 1
29.993738 6.739010 -4.098269 31.013455 0.221010 1.703329 0.106796 -0.018899 -542853.000000 0 0 1
29.035638 6.059410 -5.063369 30.090238 0.205736 1.739874 0.104273 -0.005890 -613930.000000 0 0 1
28.780938 4.723110 -4.809769 29.559838 0.162656 1.734236 0.107099 -0.011208 44638.100000 0 0 1
27.701838 4.175610 -5.473069 28.544387 0.149608 1.763730 0.089436 -0.013217 -794426.000000 0 0 1
27.628338 2.609210 -5.387869 28.269457 0.094160 1.762559 0.109908 -0.014141 -360820.000000 0 0 1
27.478738 2.139510 -4.090269 27.863755 0.077704 1.718124 0.117538 -0.023239 474747.000000 0 0 1
27.310938 0.772710 -4.038669 27.618748 0.028286 1.717552 0.117293 -0.027297 -259336.000000 0 0 1
27.457238 0.161010 -2.674569 27.587663 0.005864 1.667897 0.117535 -0.021714 583661.000000 0 0 1
28.681138 0.585410 -2.040269 28.759574 0.020408 1.641798 0.116634 -0.024971 902014.000000 0 0 1
28.683138 0.374110 -0.640069 28.692718 0.013042 1.593106 0.123105 -0.020029 363819.000000 0 0 1
30.062538 0.800610 -0.023369 30.073206 0.026625 1.571573 0.134278 -0.024016 185788.000000 0 0 1
31.093338 -0.118190 -0.233369 31.094438 -0.003801 1.578302 0.103557 -0.018041 -462482.000000 0 0 1
32.293538 0.562610 0.025631 32.298449 0.017420 1.570003 0.065216 -0.021264 -616312.000000 0 0 1
-3.291262 -21.420190 -8.739763 23.367508 1.418336 1.954129 0.032201 0.012486 243881.000000 0 1 0
-3.555962 -21.973490 -7.476463 23.481410 1.410358 1.894837 0.027779 0.002911 -408642.000000 0 1 0
-2.571662 -22.890490 -7.062763 24.092958 1.458919 1.868312 0.032351 -0.005971 126596.000000 0 1 0
-2.915162 -23.524190 -5.661263 24.370794 1.447503 1.805235 0.027322 -0.006293 -97705.800000 0 1 0
-3.015262 -22.613290 -4.601763 23.272923 1.438238 1.769838 0.026034 -0.010707 -96879.300000 0 1 0
-3.371162 -23.322690 -3.426363 23.812866 1.427246 1.715185 0.018594 -0.014360 -251168.000000 0 1 0
-3.093462 -22.527390 -2.083763 22.834073 1.434330 1.662180 0.015108 -0.024352 -450735.000000 0 1 0
-1.720862 -22.399290 -1.879863 22.543812 1.494120 1.654280 0.026896 -0.028347 -1082980.000000 0 1 0
-1.297162 -22.433190 -0.553263 22.477472 1.513037 1.595413 0.024711 -0.023583 578769.000000 0 1 0
0.237438 -22.424090 -0.279263 22.427086 -1.560208 1.583249 0.033868 -0.026696 563345.000000 0 1 0
0.881938 -21.233590 -0.728863 21.264393 -1.529285 1.605079 0.019153 -0.026551 -948304.000000 0 1 0
2.071238 -21.176390 -0.005063 21.277442 -1.473298 1.571034 0.022385 -0.022687 -404609.000000 0 1 0
3.050838 -20.084990 -0.553863 20.322923 -1.420052 1.598053 0.028282 -0.022873 567349.000000 0 1 0
3.756538 -20.525890 -1.732063 20.938572 -1.389785 1.653612 0.028293 -0.017952 -207167.000000 0 1 0
4.615138 -19.550790 -2.278763 20.216965 -1.338981 1.683752 0.033580 -0.014035 -432364.000000 0 1 0
5.508338 -20.162290 -3.349163 21.167821 -1.304104 1.729684 0.035097 -0.008795 -1286700.000000 0 1 0
6.430638 -21.053990 -2.736763 22.183631 -1.274360 1.694480 0.046914 -0.016646 -95783.300000 0 1 0
7.254038 -21.640890 -3.752463 23.130719 -1.247366 1.733745 0.045546 -0.014373 717894.000000 0 1 0
8.447138 -20.789290 -4.297863 22.847765 -1.184852 1.760032 0.060451 -0.015739 -494596.000000 0 1 0
8.106438 -19.774190 -5.209963 21.997196 -1.181742 1.809915 0.039785 -0.010295 -397070.000000 0 1 0
9.225438 -19.127190 -5.744963 21.999153 -1.121392 1.835004 0.051830 -0.014919 -875486.000000 0 1 0
8.861638 -18.035090 -6.719763 21.188401 -1.114088 1.893512 0.027565 -0.010160 75244.800000 0 1 0
9.717538 -17.977590 -7.880563 21.902684 -1.075248 1.938849 0.031675 0.001931 704886.000000 0 1 0
9.307838 -16.851490 -8.655163 21.107355 -1.066154 1.993310 0.017007 0.004456 75885.000000 0 1 0
10.275738 -16.636890 -9.814363 21.879183 -1.017501 2.035962 0.029524 -0.004568 -528361.000000 0 1 0
9.909338 -17.379190 -10.896663 22.780880 -1.052589 2.069543 0.031692 0.000126 275057.000000 0 1 0
9.311538 -16.451590 -11.847763 22.309842 -1.055755 2.130642 0.012451 -0.003701 169215.000000 0 1 0
8.813838 -17.080290 -13.171763 23.300545 -1.094412 2.171591 0.013022 -0.002430 269482.000000 0 1 0
7.681738 -17.929090 -12.985763 23.432700 -1.166006 2.158165 0.017284 0.003735 384842.000000 0 1 0
7.179438 -18.480390 -14.212163 24.393744 -1.200252 2.192739 0.021283 0.006103 -558343.000000 0 1 0
5.910138 -19.235790 -13.924163 24.470956 -1.272704 2.176095 0.027127 0.011033 -633026.000000 0 1 0
6.136638 -20.416290 -13.214363 25.081918 -1.278812 2.125684 0.035058 0.002791 274824.000000 0 0 1
4.899738 -21.094190 -13.031863 25.274528 -1.342564 2.112519 0.066534 -0.005411 558184.000000 0 0 1
5.152238 -22.547390 -12.578463 26.327706 -1.346146 2.068905 0.043930 -0.002371 44536.000000 0 0 1
5.816838 -23.374490 -13.519063 27.621866 -1.326896 2.082236 0.049733 -0.006968 52235.700000 0 0 1
5.231038 -24.674590 -13.653063 28.681096 -1.361888 2.066931 0.045623 -0.015910 798087.000000 0 0 1
3.841538 -24.825690 -14.368963 28.940273 -1.417274 2.090363 0.052880 -0.018711 704002.000000 0 0 1
2.733338 -24.495390 -13.543763 28.123456 -1.459670 2.073256 0.064006 -0.020455 -202294.000000 0 0 1
1.515238 -24.945090 -14.087363 28.688103 -1.510128 2.084094 0.062083 -0.028189 -49368.700000 0 0 1
0.909338 -26.189010 -13.474663 29.466213 -1.536088 2.045744 0.056352 -0.025969 -874740.000000 0 0 1
1.530038 -27.386150 -13.917363 30.757686 -1.514985 2.040345 0.055798 -0.022894 67228.400000 0 0 1
0.980638 -28.596750 -13.420263 31.604418 -1.536518 2.009352 0.050709 -0.015074 941468.000000 0 0 1
-0.521762 -29.005250 -13.664463 32.067029 1.552810 2.010998 0.046069 -0.021592 1428540.000000 0 0 1
-1.519162 -28.175570 -13.079263 31.100446 1.516931 2.004847 0.036138 -0.023605 536799.000000 0 0 1
-2.844462 -28.676810 -13.188163 31.691924 1.471929 1.999989 0.041765 -0.027283 1135290.000000 0 0 1
-4.028962 -27.772570 -12.620163 30.770387 1.426732 1.993404 0.035799 -0.022369 1093950.000000 0 0 1
-4.432162 -27.899830 -11.241063 30.404047 1.413253 1.949507 0.037383 -0.032863 -124652.000000 0 0 1
-4.879062 -29.166670 -10.911463 31.520786 1.405049 1.924279 0.019047 -0.025539 -596168.000000 0 0 1
-5.614262 -29.293630 -9.524063 31.310453 1.381438 1.879875 0.029108 -0.022808 -607244.000000 0 0 1
-6.936862 -28.890910 -9.527963 31.202353 1.335152 1.881113 0.031169 -0.022905 -1085320.000000 0 0 1
-7.242162 -27.524540 -9.325063 29.950059 1.313511 1.887414 0.036570 -0.020627 18237.800000 0 0 1
-8.744762 -27.185720 -8.989763 29.939106 1.259582 1.875770 0.042429 -0.013144 1444150.000000 0 0 1
-9.739762 -27.348300 -10.014663 30.709705 1.228664 1.902979 0.048557 -0.021319 309956.000000 0 0 1
-9.922062 -28.689100 -10.389363 32.085053 1.237825 1.900547 0.056625 -0.027736 -784434.000000 0 0 1
-11.115162 -29.036850 -11.319963 33.088171 1.205209 1.919963 0.065402 -0.029746 -107014.000000 0 0 1
-11.062962 -28.379950 -12.543763 32.941717 1.199100 1.961443 0.071652 -0.029270 32051.000000 0 0 1
-11.873262 -29.006960 -13.519663 34.134431 1.182277 1.978030 0.080458 -0.031484 -264437.000000 0 0 1
-12.037362 -28.077210 -14.772963 33.933291 1.165776 2.021227 0.086215 -0.033603 -39261.800000 0 0 1
-13.158862 -27.210650 -14.835463 33.669958 1.120361 2.027079 0.076920 -0.036496 84042.900000 0 0 1
-13.213462 -26.260420 -13.791263 32.471590 1.104616 2.009446 0.076590 -0.024721 59497.500000 0 0 1
-14.083662 -24.986190 -14.084663 31.953669 1.057528 2.027268 0.088877 -0.015968 292572.000000 0 0 1
-13.587662 -24.136590 -15.090663 31.542474 1.058066 2.069655 0.076701 -0.019455 150545.000000 0 0 1
-14.531962 -23.105990 -15.301563 31.292212 1.009379 2.081727 0.081836 -0.013300 -57456.600000 0 0 1
-14.222862 -22.372490 -16.550363 31.252722 1.004518 2.128885 0.069643 -0.010669 207336.000000 0 0 1
-12.978862 -21.684190 -16.516563 30.190260 1.031451 2.149671 0.050286 -0.004816 425297.000000 0 0 1
-12.765162 -20.832890 -17.684563 30.161274 1.021061 2.197321 0.017041 0.003099 -661378.000000 0 0 1
-13.218562 -19.368690 -17.588863 29.312875 0.971932 2.214346 0.019737 0.002975 -339487.000000 0 0 1
-12.270462 -18.523090 -16.994763 27.973042 0.985725 2.223757 0.006293 0.010127 11432.800000 0 0 1
-12.495562 -17.161890 -17.317963 27.396740 0.941460 2.255079 0.019644 0.007823 243573.000000 0 0 1
-11.177862 -16.445190 -17.759063 26.660330 0.973822 2.299795 0.010958 0.003104 183056.000000 0 0 1
-10.490762 -16.080090 -16.618263 25.392756 0.992731 2.284250 0.014393 0.003616 -1545060.000000 0 0 1
-9.186262 -15.816290 -16.920763 24.916955 1.044607 2.317314 0.012342 0.003532 -1940310.000000 0 1 0
-8.283962 -15.008590 -15.994463 23.445781 1.066459 2.321549 0.004184 0.014330 -263375.000000 0 1 0
-7.997562 -15.651390 -14.783963 22.967206 1.098403 2.270118 0.013872 0.009263 537243.000000 0 1 0
-7.110662 -16.794490 -14.911463 23.557762 1.170288 2.256186 0.030559 0.013186 -836421.000000 0 1 0
-6.791862 -17.411590 -13.538863 23.077991 1.198873 2.197721 0.029855 0.004234 -755771.000000 0 1 0
-5.863962 -16.663590 -12.774563 21.800246 1.232427 2.196888 0.028038 0.001534 204102.000000 0 1 0
-5.605362 -17.335090 -11.553963 21.573583 1.258054 2.135968 0.024871 -0.001632 416880.000000 0 1 0
-4.509262 -18.465790 -11.551663 22.243196 1.331288 2.116869 0.038966 -0.004343 -679451.000000 0 1 0
-3.213062 -18.061190 -11.742263 21.780980 1.394740 2.140172 0.034009 0.002884 -1238010.000000 0 1 0
-2.270462 -19.119290 -11.711463 22.535763 1.452597 2.117277 0.036481 0.009481 664431.000000 0 1 0
-0.849062 -18.701290 -12.156463 22.321262 1.525426 2.146725 0.043083 0.015243 -405592.000000 0 1 0
-0.673462 -18.381890 -13.565363 22.855339 1.534175 2.206236 0.058688 0.007636 344328.000000 0 1 0
0.576038 -17.750290 -13.879863 22.540080 -1.538355 2.234179 0.061791 0.003738 1354460.000000 0 1 0
1.848938 -18.683890 -13.871263 23.343484 -1.472159 2.207097 0.066079 -0.005990 185749.000000 0 1 0
1.860238 -19.549190 -14.985563 24.702195 -1.475925 2.222635 0.089140 -0.006272 147207.000000 0 1 0
1.090838 -20.726090 -14.808363 25.496046 -1.518214 2.190520 0.089664 -0.011577 -424208.000000 0 0 1
1.079538 -21.595490 -16.108863 26.963421 -1.520849 2.211094 0.101105 -0.021662 154159.000000 0 0 1
2.314838 -22.186490 -16.494663 27.742976 -1.466837 2.207506 0.091580 -0.018526 165198.000000 0 0 1
3.228338 -21.320090 -17.186663 27.574441 -1.420516 2.243729 0.086076 -0.004362 -327500.000000 0 0 1
4.561138 -22.075690 -17.158763 28.329547 -1.367050 2.221422 0.079102 -0.015930 -601819.000000 0 0 1
4.591438 -23.244390 -18.050263 29.785818 -1.375778 2.221821 0.067681 -0.020782 186561.000000 0 0 1
5.891238 -23.766590 -18.296463 30.566617 -1.327815 2.212519 0.070886 -0.017866 277581.000000 0 0 1
6.309438 -23.551590 -19.745763 31.374856 -1.309044 2.251513 0.065363 -0.013505 -154643.000000 0 0 1
6.629538 -22.213390 -20.065463 30.659555 -1.280764 2.284265 0.089010 -0.023968 -75120.000000 0 0 1
7.022338 -22.284890 -21.405763 31.688109 -1.265529 2.312458 0.086839 -0.015041 -165878.000000 0 0 1
7.294238 -20.832790 -21.927563 31.113166 -1.234003 2.352892 0.081398 -0.023708 308080.000000 0 0 1
6.132038 -20.022690 -21.935263 30.325992 -1.273611 2.379388 0.111202 -0.026155 111725.000000 0 0 1
6.422538 -18.748090 -22.517363 29.996192 -1.240756 2.419878 0.125318 -0.027852 223923.000000 0 0 1
5.131338 -17.938890 -22.796463 29.458668 -1.292191 2.455687 0.133217 -0.029150 -768079.000000 0 0 1
4.355438 -18.478690 -23.820163 30.460335 -1.339321 2.468674 0.123513 -0.027566 402401.000000 0 0 1
3.299538 -17.633290 -24.316963 30.218116 -1.385816 2.505991 0.116759 -0.023108 391042.000000 0 0 1
2.087338 -17.352590 -23.420763 29.223304 -1.451082 2.500498 0.110513 -0.019247 -778168.000000 0 0 1
2.351538 -16.685590 -22.217463 27.884661 -1.430786 2.492716 0.122699 -0.024089 -415981.000000 0 0 1
1.125138 -16.136490 -21.790463 27.138101 -1.501183 2.503020 0.097448 -0.016777 255327.000000 0 0 1
1.188438 -15.091290 -20.685863 25.633266 -1.492209 2.509839 0.089539 -0.019887 -93938.000000 0 0 1
1.596538 -13.812890 -21.035063 25.215447 -1.455724 2.557501 0.083578 -0.017662 -192539.000000 0 0 1
1.766738 -13.033390 -19.838163 23.802171 -1.436063 2.556137 0.079515 -0.019541 -62472.700000 0 1 0
2.989038 -12.117190 -20.028663 23.598898 -1.328947 2.584341 0.058785 -0.017259 712601.000000 0 1 0
4.260238 -12.799590 -19.815063 23.971146 -1.249488 2.543874 0.064796 -0.013118 1985740.000000 0 1 0
5.477038 -12.009190 -19.870563 23.854934 -1.142906 2.555259 0.068818 -0.011607 1367710.000000 0 1 0
5.645638 -11.185290 -18.591763 22.419581 -1.103366 2.548587 0.065255 -0.003800 -635910.000000 0 1 0
4.762138 -10.082590 -18.364363 21.484562 -1.129543 2.595904 0.035011 0.003658 125565.000000 0 1 0
5.059138 -8.857690 -19.066663 21.623857 -1.051854 2.650339 0.047160 -0.014164 -418564.000000 0 1 0
4.594538 -8.759690 -20.552763 22.809165 -1.087734 2.693038 0.056793 -0.021152 -577893.000000 0 1 0
3.204038 -8.731290 -20.688463 22.682896 -1.219093 2.719109 0.043890 -0.015713 -684283.000000 0 1 0
2.819638 -8.793990 -22.023463 23.881322 -1.260520 2.744539 0.047559 -0.026102 -703403.000000 0 1 0
1.309938 -8.908990 -22.129863 23.891774 -1.424807 2.755147 0.021834 -0.019516 -617451.000000 0 1 0
0.727038 -7.613390 -22.134963 23.418985 -1.475590 2.808916 0.021023 -0.012029 -7137.020000 0 1 0
-0.687662 -7.690690 -22.243763 23.545798 1.481619 2.807481 0.016992 -0.007433 299991.000000 0 1 0
-1.210862 -6.610790 -23.179263 24.133938 1.389640 2.859384 0.030018 -0.000280 -69104.100000 0 1 0
-0.892562 -6.981890 -24.503063 25.493990 1.443646 2.861866 0.033224 -0.003542 17041.100000 0 0 1
-1.504362 -6.089490 -25.453393 26.214885 1.328603 2.899974 0.044968 -0.017527 372240.000000 0 0 1
-0.782562 -4.716890 -25.646193 26.088094 1.406388 2.957273 0.054789 -0.019326 96450.000000 0 0 1
-1.447462 -4.044490 -26.719593 27.062699 1.227114 2.982187 0.045057 -0.019184 336644.000000 0 0 1
-0.885462 -2.792790 -27.098063 27.255985 1.263769 3.033893 0.033719 -0.013362 -995433.000000 0 0 1
-1.240662 -1.606290 -26.162573 26.241182 0.913127 3.064170 0.039391 -0.023842 1243510.000000 0 0 1
-2.647462 -1.258490 -26.148073 26.311871 0.443740 3.029953 0.030699 -0.017004 1179340.000000 0 0 1
-3.203762 -0.824190 -27.408483 27.607396 0.251797 3.021478 0.046636 -0.011427 -255787.000000 0 0 1
-4.749462 -0.986090 -27.289423 27.717185 0.204713 2.965678 0.040722 -0.017047 463396.000000 0 0 1
-5.374762 0.049110 -26.521463 27.060644 -0.009137 2.941635 0.044288 -0.018540 608327.000000 0 0 1
-6.741562 -0.295890 -26.251073 27.104521 0.043862 2.889982 0.046354 -0.032063 1164220.000000 0 0 1
-7.629362 0.902410 -25.645263 26.771272 -0.117734 2.850531 0.045541 -0.020940 -483046.000000 0 0 1
-7.823962 2.071410 -26.455983 27.666300 -0.258814 2.844710 0.059151 -0.021234 361341.000000 0 0 1
-8.833362 1.916310 -27.438583 28.889035 -0.213630 2.823368 0.070510 -0.025338 12329.400000 0 0 1
-10.276862 1.635010 -26.985793 28.922658 -0.157774 2.773549 0.056702 -0.028956 -1017610.000000 0 0 1
-11.246262 1.703210 -28.010843 30.232212 -0.150305 2.755860 0.058373 -0.037115 644066.000000 0 0 1
-12.538962 1.283810 -27.555623 30.301586 -0.102030 2.712585 0.028126 -0.030753 423334.000000 0 0 1
-13.629962 1.912610 -28.443163 31.598219 -0.139414 2.690912 0.014917 -0.027813 -416608.000000 0 0 1
-14.922962 1.414610 -28.116253 31.862511 -0.094512 2.651787 0.019362 -0.026505 193845.000000 0 0 1
-15.975562 2.029610 -28.811973 33.007085 -0.126368 2.631917 0.020783 -0.024717 -192790.000000 0 0 1
-16.475162 3.362210 -28.231833 32.859881 -0.201313 2.604418 0.014509 -0.010003 -693329.000000 0 0 1
-15.691062 4.565610 -28.342873 32.716550 -0.283151 2.618575 0.021036 -0.011702 -120351.000000 0 0 1
-15.577162 5.159210 -29.649753 33.887657 -0.319832 2.636114 0.014548 -0.016046 -469958.000000 0 0 1
-16.814662 5.594710 -30.480663 35.257686 -0.321206 2.614973 0.015004 -0.007176 -292605.000000 0 0 1
-17.419862 6.664010 -29.827683 35.178847 -0.365375 2.582783 0.009851 0.001898 -522205.000000 0 0 1
-18.191562 7.403110 -30.688883 36.435511 -0.386486 2.572294 0.001724 0.004460 -624387.000000 0 0 1
-19.176662 8.339010 -29.967053 36.541862 -0.410186 2.532338 0.002342 -0.002158 -444065.000000 0 0 1
-18.540562 9.380710 -29.309933 35.928016 -0.468401 2.524901 -0.005273 0.001411 49916.100000 0 0 1
-19.465662 10.278910 -28.752703 36.211682 -0.485838 2.488186 0.021138 0.003826 -101873.000000 0 0 1
-9.372762 24.962010 30.321011 40.377151 -1.211604 0.721305 0.027005 -0.005845 -706676.000000 0 0 1
-10.109562 26.115710 30.795861 41.624735 -1.201454 0.737956 0.027381 -0.005229 299480.000000 0 0 1
-9.562762 26.902610 31.892001 42.805333 -1.229267 0.730190 0.044443 -0.009358 -803617.000000 0 0 1
-8.156962 27.436710 31.772831 42.764727 -1.281817 0.733302 0.038646 -0.014228 -972528.000000 0 0 1
-7.986162 28.288210 30.676111 42.485590 -1.295643 0.764056 0.049174 -0.005683 -365794.000000 0 0 1
-6.624762 28.436810 30.398541 42.149863 -1.341914 0.765261 0.051485 -0.008522 -320088.000000 0 0 1
-6.418462 29.583510 29.359511 42.170625 -1.357147 0.800695 0.062866 -0.012845 -175077.000000 0 0 1
-6.728562 30.869310 29.823131 43.446599 -1.356184 0.814225 0.062124 -0.016634 271016.000000 0 0 1
-6.429762 31.894710 28.915521 43.528401 -1.371869 0.844252 0.060182 -0.012941 -298573.000000 0 0 1
-6.556062 33.304110 29.481681 44.959039 -1.376427 0.855627 0.066355 -0.018433 -312792.000000 0 0 1
-5.714962 33.637610 30.556511 45.802292 -1.402505 0.840434 0.068051 -0.022143 -15528.500000 0 0 1
-6.328262 -33.836222 31.482471 46.648503 1.385906 0.829985 0.070261 -0.023774 584339.000000 0 0 1
-7.460362 34.008410 32.388376 47.552454 -1.354849 0.821521 0.042060 -0.023960 244262.000000 0 0 1
-6.940662 33.018410 33.263720 47.379988 -1.363607 0.792506 0.048546 -0.022232 90161.500000 0 0 1
-7.109562 31.652310 33.014491 46.285756 -1.349849 0.776636 0.048224 -0.010408 -260471.000000 0 0 1
-7.016062 30.752510 -34.135492 46.477670 -1.346490 2.395651 0.037248 -0.007721 195882.000000 0 0 1
-5.710962 30.707910 -33.581953 45.862167 -1.386920 2.392396 0.038744 -0.009311 185897.000000 0 0 1
-5.814062 30.226410 -32.266943 44.593663 -1.380767 2.379767 0.040678 -0.008679 -957477.000000 0 0 1
-4.450962 30.123810 -31.588973 43.876169 -1.424102 2.374537 0.047934 -0.011194 -112313.000000 0 0 1
-3.754862 28.900510 -31.737783 43.088575 -1.441596 2.398782 0.054311 -0.006398 171135.000000 0 0 1
-3.165062 28.771910 -33.001933 43.897243 -1.461232 2.421583 0.054475 -0.015792 -1013630.000000 0 0 1
-2.605662 27.372310 -33.289293 43.176496 -1.475889 2.451214 0.055435 -0.018458 127961.000000 0 0 1
-1.365362 27.088210 -32.607353 42.413144 -1.520435 2.447764 0.065462 -0.019407 963665.000000 0 0 1
-0.757362 25.841510 -32.937583 41.871728 -1.541497 2.476129 0.070307 -0.018793 156200.000000 0 0 1
-0.193062 25.628710 34.071811 42.635154 -1.563263 0.644919 0.056898 -0.015228 -238609.000000 0 0 1
-1.213462 25.377710 33.092095 41.720348 -1.523017 0.654769 0.067400 -0.014123 566538.000000 0 0 1
-0.731762 25.249110 31.729181 40.556059 -1.541823 0.672360 0.067346 -0.006228 -108080.000000 0 0 1
-0.431262 26.567410 31.021131 40.845120 -1.554565 0.708280 0.053153 -0.008873 -139684.000000 0 0 1
-1.553462 27.407310 30.699591 41.182991 -1.514176 0.729596 0.059535 -0.014787 202741.000000 0 0 1
-1.276362 28.640510 30.120691 41.583217 -1.526261 0.760709 0.055061 -0.012863 -149770.000000 0 0 1
-2.486862 29.598510 30.223821 42.376121 -1.486973 0.776704 0.061149 -0.011920 100312.000000 0 0 1
-2.667462 30.129010 31.566571 43.718657 -1.482492 0.764052 0.064175 -0.017391 -41771.200000 0 0 1
-3.528162 31.220810 31.720501 44.647252 -1.458267 0.780631 0.063268 -0.013453 -243119.000000 0 0 1
-3.010962 31.970910 32.932665 45.997450 -1.476895 0.772788 0.072942 -0.015511 -465289.000000 0 0 1
-1.818762 32.635610 32.672591 46.215681 -1.515125 0.785607 0.103754 -0.026852 -722234.000000 0 0 1
-1.293162 33.005410 33.936778 47.357515 -1.531636 0.771869 0.082984 -0.028170 -456092.000000 0 0 1
0.167738 33.449010 34.005562 47.699504 1.565782 0.777154 0.081583 -0.031976 -269877.000000 0 0 1
0.272038 -33.655022 33.536240 47.512250 -1.562713 0.787182 0.086581 -0.028001 716346.000000 0 0 1
1.636238 -33.275322 33.326797 47.123240 -1.521663 0.785229 0.066231 -0.030071 480603.000000 0 0 1
1.970138 -31.825322 33.029283 45.909325 -1.508970 0.767792 0.066428 -0.031780 -220894.000000 0 0 1
1.745738 -31.121022 -34.173419 46.253521 -1.514760 2.402127 0.057925 -0.020502 129211.000000 0 0 1
2.268238 -29.810722 34.162826 45.397387 -1.494855 0.718903 0.048811 -0.027724 -510371.000000 0 0 1
1.699138 -28.776322 -33.250903 44.006662 -1.511818 2.427348 0.059272 -0.022811 884328.000000 0 0 1
0.293438 -28.540722 -33.459863 43.979783 -1.560515 2.435343 0.051578 -0.028825 723808.000000 0 0 1
-0.281362 -27.974822 -32.344353 42.764787 1.560739 2.428483 0.048300 -0.029309 -207583.000000 0 0 1
-1.737562 -27.497222 -32.543713 42.640469 1.507690 2.439066 0.070658 -0.021639 35974.700000 0 0 1
-2.130062 -26.875222 -31.359443 41.354920 1.491704 2.431498 0.078095 -0.019324 -687270.000000 0 0 1
-3.365562 -26.259622 -31.477523 41.130636 1.443326 2.442313 0.090610 -0.032568 -698754.000000 0 0 1
-3.803762 -25.538722 -30.172323 39.712265 1.422942 2.433761 0.086089 -0.031655 -159373.000000 0 0 1
-4.087262 -26.538922 -29.182273 39.656338 1.417987 2.397760 0.082942 -0.032665 78259.900000 0 0 1
-4.395062 -26.033822 -27.903733 38.414773 1.403552 2.383837 0.078408 -0.026480 -114725.000000 0 0 1
-3.155962 -25.725422 -27.051003 37.463505 1.448728 2.377576 0.076836 -0.029411 -586114.000000 0 0 1
-2.580962 -24.519922 -27.394143 36.855488 1.465923 2.408764 0.087579 -0.028418 19953.400000 0 0 1
-1.492362 -24.337622 -26.487213 36.001659 1.509554 2.397528 0.081704 -0.019428 -340698.000000 0 0 1
-0.469762 -23.324522 -27.073883 35.738623 1.550659 2.430352 0.080071 -0.017431 255478.000000 0 0 1
0.220138 -23.544322 -28.296063 36.811014 -1.561447 2.447579 0.060476 -0.021194 122201.000000 0 0 1
0.922338 -24.759322 -28.383083 37.675909 -1.533561 2.423935 0.061877 -0.010811 -385729.000000 0 0 1
1.853538 -24.927022 -29.607223 38.747641 -1.496574 2.440447 0.025787 -0.009963 310753.000000 0 0 1
2.865938 -23.953622 -29.763533 38.312629 -1.451717 2.460459 0.032732 -0.016000 -12150.100000 0 0 1
3.773138 -24.364622 -30.733333 39.400624 -1.417155 2.465496 0.029325 -0.013622 -986473.000000 0 0 1
4.689538 -23.218322 -31.282383 39.238626 -1.371502 2.493496 0.034775 -0.020130 -534438.000000 0 0 1
5.865238 -23.051922 -30.539983 38.710240 -1.321647 2.479875 0.027739 -0.012685 801371.000000 0 0 1
6.922538 -24.054022 -30.613613 39.543783 -1.290577 2.456199 0.036673 -0.008863 698192.000000 0 0 1
7.632038 -24.312822 -32.004933 40.910598 -1.266627 2.469168 0.044754 -0.010236 -369141.000000 0 0 1
6.759738 -25.112122 -32.773373 41.837862 -1.307847 2.470821 0.013902 -0.014361 38796.600000 0 0 1
6.858238 -24.757322 -34.146642 42.731178 -1.300554 2.496599 0.024421 -0.016608 -37279.900000 0 0 1
6.204838 -23.494422 33.711647 41.556745 -1.312593 0.624561 0.032273 -0.009923 49622.600000 0 0 1
4.787338 -23.441622 33.739889 41.361919 -1.369343 0.616817 0.037256 -0.012004 79321.400000 0 0 1
4.318338 -22.334122 33.005382 40.085113 -1.379802 0.603450 0.055667 -0.015163 -75752.400000 0 0 1
2.829638 -21.995822 33.232899 39.953080 -1.442855 0.588457 0.039978 -0.020652 71697.200000 0 0 1
1.870738 -23.008622 32.977391 40.254250 -1.489669 0.610734 0.058724 -0.023080 118751.000000 0 0 1
1.626338 -23.879122 34.089114 41.652433 -1.502794 0.612143 0.051703 -0.014697 532770.000000 0 0 1
0.293038 -24.713922 33.925117 41.973532 -1.558940 0.629622 0.064589 -0.015259 952468.000000 0 0 1
0.423338 -25.653522 32.827984 41.664841 -1.554296 0.663395 0.063271 -0.009812 1152750.000000 0 0 1
-0.895662 -25.973722 32.310721 41.465879 1.536327 0.677388 0.062940 -0.018274 1304920.000000 0 0 1
-0.834162 -26.987022 31.151201 41.223689 1.539896 0.714131 0.062435 -0.022611 -430027.000000 0 0 1
-2.066062 -27.105622 30.517201 40.869095 1.494721 0.727700 0.076601 -0.026643 -409684.000000 0 0 1
-2.054962 -28.194722 29.593061 40.925719 1.498040 0.762528 0.078077 -0.026173 230988.000000 0 0 1
-3.449662 -28.287422 28.913471 40.596394 1.449445 0.778144 0.092006 -0.016216 -264521.000000 0 0 1
-4.419462 -28.766722 29.773111 41.635251 1.418357 0.774038 0.105354 -0.018140 -60119.800000 0 0 1
-5.686062 -28.734722 29.103311 41.291867 1.375439 0.788628 0.098612 -0.020799 -111067.000000 0 0 1
-6.806562 -29.312922 29.925351 42.439408 1.342636 0.788188 0.091210 -0.018428 -1061210.000000 0 0 1
-8.016362 -29.457522 29.214171 42.254887 1.305098 0.807399 0.100256 -0.016395 344451.000000 0 0 1
-9.159162 -29.794922 30.000711 43.262805 1.272558 0.804526 0.085725 -0.015366 312441.000000 0 0 1
-9.164062 -31.068322 30.858761 44.737946 1.283965 0.809629 0.050414 -0.009795 -867105.000000 0 0 1
-9.270262 -32.386922 30.245481 45.272946 1.292016 0.839185 0.067657 -0.014541 1703260.000000 0 0 1
-10.638362 -32.652522 29.789241 45.461641 1.255836 0.856268 0.076033 -0.015778 1506160.000000 0 0 1
-10.676962 -33.981622 28.971781 45.914184 1.266365 0.887957 0.086718 -0.012668 -178128.000000 0 0 1
-10.443462 33.367710 29.895411 46.002234 -1.267473 0.863385 0.066240 -0.009881 292159.000000 0 0 1
-10.200962 32.127410 29.278981 44.648503 -1.263348 0.855599 0.057748 -0.024518 -246501.000000 0 0 1
-10.600662 30.994610 30.274661 44.604876 -1.241252 0.824765 0.044606 -0.001149 255345.000000 0 0 1
-11.992062 30.936110 30.522821 45.083201 -1.200991 0.827073 0.041632 0.004526 -58346.900000 0 0 1
-12.426962 29.735610 31.143581 44.816945 -1.174942 0.802507 0.034523 0.000887 121185.000000 0 0 1
-12.325562 29.612910 32.692693 45.800176 -1.176384 0.775871 0.033797 -0.013511 -418096.000000 0 0 1
-13.304662 30.367410 33.345210 47.022299 -1.157863 0.782524 0.027524 0.001931 -84478.900000 0 0 1
-13.405762 30.026710 -33.687243 47.075982 -1.150889 2.368269 0.028453 -0.000131 -143805.000000 0 0 1
-14.810962 30.361010 -33.160013 47.336476 -1.116933 2.346918 0.030639 0.003062 -47082.200000 0 0 1
-14.925662 29.868110 -31.819043 46.122997 -1.107374 2.332111 0.024636 -0.001910 -359976.000000 0 0 1
-16.239762 30.016810 -31.346783 46.339611 -1.074872 2.313738 0.026841 0.000557 -118940.000000 0 0 1
-16.301962 29.728410 -29.866043 45.183103 -1.069211 2.292947 0.045345 -0.011551 -278203.000000 0 0 1
-16.276862 28.370210 -29.547103 44.077617 -1.049916 2.305467 0.028840 -0.014082 -44175.800000 0 0 1
-16.200962 28.203510 -28.170313 43.028777 -1.049390 2.284563 0.021344 -0.013575 -29918.900000 0 0 1
-16.740662 26.844710 -27.622363 41.998609 -1.013196 2.288554 0.010350 -0.020283 -107231.000000 0 0 1
-18.091762 26.518910 -27.803243 42.468632 -0.972102 2.284552 0.017879 -0.018618 -467054.000000 0 0 1
-18.315462 25.236610 -27.302113 41.445723 -0.942997 2.289944 0.011332 -0.016935 715696.000000 0 0 1
-19.743862 24.673410 -27.621613 41.970832 -0.895929 2.289108 0.019143 -0.020134 361050.000000 0 0 1
-20.813162 25.250810 -26.946643 42.390007 -0.881438 2.259690 0.034327 -0.028773 -60232.400000 0 0 1
-22.044362 24.773110 -27.459053 43.054157 -0.843617 2.262408 0.072332 -0.030454 1178800.000000 0 0 1
-23.342862 24.870310 -26.561993 43.231481 -0.817069 2.232438 0.098792 -0.043737 748629.000000 0 0 1
-23.804562 26.171010 -26.325013 44.097451 -0.832715 2.210520 0.064598 -0.027888 586040.000000 0 0 1
-25.114392 26.217310 -25.720623 44.493038 -0.806881 2.187172 0.053704 -0.026352 1047840.000000 0 0 1
-25.259812 25.891410 -24.196963 43.519148 -0.797745 2.160371 0.043896 -0.012440 -489151.000000 0 0 1
-25.020162 24.529210 -23.808663 42.362047 -0.775490 2.167632 0.036193 -0.015163 704754.000000 0 0 1
-26.197082 23.672610 -23.794863 42.577870 -0.734820 2.163801 0.029939 -0.001703 906266.000000 0 0 1
-27.168512 23.621310 -22.564063 42.488013 -0.715671 2.130658 0.016627 -0.004317 126690.000000 0 0 1
-26.619702 23.292710 -21.271563 41.275153 -0.718840 2.112224 0.003262 -0.007327 -316856.000000 0 0 1
-25.742102 24.284510 -20.832763 41.065767 -0.756270 2.102848 0.012057 0.000580 -509791.000000 0 0 1
-24.683662 23.807310 -19.835263 39.617027 -0.767328 2.095175 0.006363 0.000384 -399538.000000 0 0 1
-25.054462 23.630810 -18.482663 39.086443 -0.756165 2.063337 0.001391 0.009866 -417932.000000 0 0 1
-23.945862 23.462910 -17.644263 37.884462 -0.775212 2.055266 0.006849 0.005127 -551674.000000 0 0 1
-24.244562 23.516810 -16.105263 37.419495 -0.770162 2.015730 -0.003988 0.003449 -76112.300000 0 0 1
-24.576062 24.827910 -15.662063 38.284568 -0.790496 1.992259 -0.003966 -0.004272 63161.400000 0 0 1
-25.254322 24.891410 -14.413363 38.276730 -0.778161 1.956873 -0.015774 0.000459 -124575.000000 0 0 1
-25.668792 26.238910 -13.839763 39.228896 -0.796381 1.931353 -0.006112 0.006595 281163.000000 0 0 1
-24.526862 26.903910 -13.323963 38.767452 -0.831584 1.921639 0.000610 -0.004471 223106.000000 0 0 1
-24.818862 27.730710 -12.194363 39.162107 -0.840753 1.887443 0.011793 -0.004086 670089.000000 0 0 1
-23.465762 28.327110 -11.678963 38.593592 -0.878985 1.878230 0.015210 -0.009283 810663.000000 0 0 1
-22.599062 27.353710 -11.130363 37.186396 -0.880295 1.874769 0.023994 -0.017032 -307696.000000 0 0 1
-21.435362 27.869110 -10.559063 36.710432 -0.915155 1.862549 0.030388 -0.020036 33079.600000 0 0 1
-20.597462 26.697710 -9.877463 35.136696 -0.913672 1.855752 0.065650 -0.026003 186140.000000 0 0 1
-19.822562 25.974510 -10.796563 34.411842 -0.918929 1.889932 0.046156 -0.026207 -308046.000000 0 0 1
-19.159162 24.944510 -10.097763 33.034329 -0.915830 1.881443 0.055913 -0.018888 -151335.000000 0 0 1
-18.471062 24.026810 -11.198363 32.308993 -0.915391 1.924742 0.053106 -0.026432 -246346.000000 0 0 1
-17.922962 22.891510 -10.609563 30.948612 -0.906537 1.920705 0.038457 -0.019290 85709.500000 0 0 1
-17.457162 22.034810 -11.662163 30.435036 -0.900797 1.964035 0.050930 -0.016378 157792.000000 0 0 1
-17.085662 20.602410 -11.187263 29.009205 -0.878441 1.966703 0.034841 -0.001309 887659.000000 0 0 1
-18.241362 19.801310 -10.861363 29.031162 -0.826380 1.954252 0.026714 0.001042 586483.000000 0 0 1
-17.756662 18.597210 -10.368163 27.724611 -0.808515 1.954082 0.055905 -0.015371 -241982.000000 0 0 1
-18.707962 17.335710 -10.387963 27.539507 -0.747345 1.957570 0.045891 -0.005297 340568.000000 0 0 1
-19.232562 16.861610 -11.650963 28.106054 -0.719804 1.998229 0.024862 -0.003051 612980.000000 0 0 1
-20.152862 17.787010 -12.266463 29.546263 -0.723121 1.998916 0.029503 0.005397 -145733.000000 0 0 1
-20.959162 17.214110 -13.438463 30.268867 -0.687604 2.030821 0.056653 -0.000734 90846.000000 0 0 1
-20.182862 17.185210 -14.614463 30.269818 -0.705350 2.074653 0.064698 -0.004995 242921.000000 0 0 1
-20.921562 16.524810 -15.632963 30.905835 -0.668519 2.101135 0.063788 -0.000790 225869.000000 0 0 1
-20.064462 16.227110 -16.885263 30.838512 -0.680053 2.150216 0.091925 -0.012589 81298.700000 0 0 1
-19.641762 17.362910 -17.640863 31.598568 -0.723893 2.163108 0.063359 -0.010569 -447610.000000 0 0 1
-18.455462 17.087410 -18.289063 31.097805 -0.746927 2.199522 0.057446 -0.005372 -1145280.000000 0 0 1
-17.857362 18.302610 -18.980463 31.845390 -0.797711 2.209331 0.040308 0.001629 -33605.700000 0 0 1
-17.149262 19.259710 -18.196963 31.562051 -0.843298 2.185291 0.039846 0.002332 534878.000000 0 0 1
-16.564262 20.346810 -18.931063 32.353556 -0.887519 2.195838 0.055525 -0.009861 209513.000000 0 0 1
33.723891 30.315810 2.319937 45.406291 0.732230 1.519681 0.068463 -0.026884 -412513.000000 0 0 1
35.023511 30.657810 1.944137 46.586772 0.719028 1.529053 0.073132 -0.026348 -299277.000000 0 0 1
34.988821 31.158310 0.639437 46.855808 0.727554 1.557149 0.057741 -0.013268 -328894.000000 0 0 1
36.365971 31.084510 -0.001963 47.840680 0.707256 1.570837 0.013009 -0.004786 -543734.000000 0 0 1
-35.535869 32.077010 0.433437 47.874006 -0.734286 1.561742 -0.006971 -0.006039 -504996.000000 0 0 1
-34.399535 32.128410 -0.381363 47.071309 -0.751274 1.578898 0.013178 -0.000861 -310743.000000 0 0 1
-33.403482 33.214810 0.091237 47.106523 -0.782566 1.568860 0.015135 -0.000204 314660.000000 0 0 1
-32.738932 32.834410 1.337937 46.386703 -0.786854 1.541949 0.021408 0.002599 174611.000000 0 0 1
-32.217822 34.001710 1.924137 46.880770 -0.812331 1.529742 0.011504 0.005486 -182819.000000 0 0 1
-31.607822 33.741210 3.342737 46.354046 -0.818033 1.498621 0.033303 0.008765 -20638.000000 0 0 1
-31.360082 -33.429622 3.969037 46.008126 0.817330 1.484421 0.020302 0.014869 -256530.000000 0 0 1
-30.745282 -33.671222 5.191037 45.890853 0.830789 1.457437 0.039578 -0.002259 -432601.000000 0 0 1
-30.689162 -32.333622 6.033137 44.985403 0.811485 1.436278 0.036609 0.002026 794130.000000 0 0 1
-31.879522 -32.000922 6.756737 45.672929 0.787299 1.422314 0.032538 0.002214 557626.000000 0 0 1
-32.451492 -32.898022 7.729537 46.852160 0.792231 1.405061 0.020576 -0.015949 -1078410.000000 0 0 1
-33.517232 -32.255022 8.623837 47.309215 0.766210 1.387485 0.034613 -0.005433 910902.000000 0 0 1
-34.850879 -31.942622 8.197837 47.980406 0.741885 1.399096 0.030807 -0.006646 556988.000000 0 0 1
-35.520463 -33.012922 7.630637 49.089540 0.748826 1.414720 0.027094 -0.015633 -884334.000000 0 0 1
35.741021 -32.841522 7.374737 49.095549 -0.743146 1.420014 0.026079 -0.011338 479226.000000 0 0 1
35.035591 -32.787222 8.605637 48.749888 -0.752260 1.393340 0.018016 -0.012430 -1046400.000000 0 0 1
33.681241 -32.774922 8.347637 47.731589 -0.771761 1.395005 0.016538 -0.006853 -1036940.000000 0 0 1
32.857271 -32.614022 9.663637 47.293346 -0.781683 1.365013 0.025802 -0.019833 1246930.000000 0 0 1
31.428291 -32.751322 9.354837 46.345437 -0.806010 1.367550 0.032562 -0.024615 2078120.000000 0 0 1
30.584711 -32.690122 10.541837 45.991292 -0.818660 1.339526 0.042648 -0.024179 367617.000000 0 0 1
30.659561 -31.376922 11.473837 45.344998 -0.796961 1.314981 0.054079 -0.019122 -659061.000000 0 0 1
30.206851 -30.099522 10.993437 44.037379 -0.783618 1.318489 0.052312 -0.015149 455710.000000 0 0 1
30.851581 -29.621022 9.776737 43.872652 -0.765052 1.346066 0.054779 -0.021208 320456.000000 0 0 1
30.281801 -28.191422 9.470837 42.443380 -0.749664 1.345761 0.054246 -0.014630 228204.000000 0 0 1
30.489061 -27.726022 8.126137 42.004158 -0.737971 1.376108 0.056377 -0.018072 -333128.000000 0 0 1
29.842141 -26.514722 7.905537 40.694980 -0.726425 1.375290 0.064671 -0.019823 -53137.000000 0 0 1
30.107681 -25.957222 6.445137 40.271449 -0.711503 1.410063 0.061480 -0.015685 760929.000000 0 0 1
31.411331 -25.464722 6.134537 40.899344 -0.681223 1.420237 0.056503 -0.016887 166763.000000 0 0 1
31.401001 -24.978422 4.811337 40.411551 -0.671970 1.451455 0.047220 -0.013709 815486.000000 0 0 1
32.871511 -24.602022 4.413037 41.294923 -0.642495 1.463726 0.053453 -0.014234 619343.000000 0 0 1
33.649631 -25.755522 4.243837 42.587026 -0.653286 1.470980 0.042424 -0.007453 -46068.700000 0 0 1
35.003091 -25.336722 4.009737 43.396358 -0.626549 1.478266 0.038202 -0.009672 671363.000000 0 0 1
35.919961 -26.578322 3.940737 44.857332 -0.637026 1.482832 0.030190 -0.003079 -227133.000000 0 0 1
36.043861 -27.200922 5.198937 45.454142 -0.646478 1.456168 0.018110 0.003072 -363271.000000 0 0 1
-36.206952 -28.479722 5.161337 46.353828 0.666505 1.459218 0.023041 -0.000883 -1102830.000000 0 0 1
36.119321 -29.228222 6.411337 46.904153 -0.680333 1.433677 0.021774 -0.000297 -142999.000000 0 0 1
34.851241 -29.790622 6.328437 46.283251 -0.707270 1.433634 0.003666 0.004333 -558785.000000 0 0 1
33.766601 -28.911122 6.357337 44.904923 -0.708085 1.428746 0.017247 0.004743 282248.000000 0 0 1
32.260401 -29.381822 6.239037 44.078913 -0.738734 1.428777 0.042362 -0.006094 987238.000000 0 0 1
31.994691 -29.796822 4.897437 43.994270 -0.749844 1.459245 0.031195 -0.006642 9036.590000 0 0 1
30.819341 -29.165422 4.405037 42.659794 -0.757833 1.467352 0.037406 -0.008427 496395.000000 0 0 1
29.517631 -29.988922 4.588237 42.328217 -0.793318 1.462186 0.036153 -0.014584 -22862.000000 0 0 1
29.400031 -31.113222 3.724937 42.968239 -0.813702 1.483997 0.042840 -0.004933 -1015040.000000 0 0 1
28.280081 -31.896622 3.921837 42.808157 -0.845425 1.479053 0.051779 -0.005445 -872251.000000 0 0 1
28.343581 -33.126322 2.972637 43.698380 -0.863048 1.502717 0.058269 -0.006549 -294970.000000 0 0 1
28.065471 -32.942522 1.580637 43.305645 -0.865170 1.534289 0.056434 -0.000639 196316.000000 0 0 1
27.859751 34.148710 0.993537 44.082732 0.886474 1.548256 0.060742 0.001655 -150843.000000 0 0 1
27.589301 -34.194622 -0.555063 43.940298 -0.891904 1.583429 0.047193 0.001464 -212575.000000 0 0 1
28.659321 -33.730722 -1.346963 44.282419 -0.866505 1.601219 0.051028 -0.000548 -81972.800000 0 0 1
28.467201 -33.948322 -2.720863 44.387760 -0.872990 1.632132 0.052230 -0.000309 -154117.000000 0 0 1
29.669371 -33.410422 -3.503063 44.819631 -0.844635 1.649035 0.038843 0.005333 98465.100000 0 0 1
29.587991 -31.976622 -3.595763 43.713649 -0.824177 1.653147 0.033525 0.006386 77829.200000 0 0 1
30.726571 -31.501622 -4.277863 44.212832 -0.797852 1.667704 0.019899 0.005333 -70675.600000 0 0 1
31.043491 -30.042622 -4.018163 43.386670 -0.769015 1.663542 0.022930 -0.000903 -253110.000000 0 0 1
30.201441 -29.087822 -4.666963 42.190153 -0.766618 1.681641 0.030100 -0.006677 139433.000000 0 0 1
30.777031 -27.807222 -4.750963 41.749717 -0.734749 1.684840 0.038558 -0.009210 133273.000000 0 0 1
31.736231 -27.493722 -5.910463 42.403145 -0.713893 1.710639 0.042317 -0.007976 -374663.000000 0 0 1
33.056131 -27.938122 -5.750263 43.661333 -0.701685 1.702882 0.035558 0.007201 -319032.000000 0 0 1
33.941741 -27.198222 -6.587363 43.990663 -0.675546 1.721106 0.041709 -0.005807 94185.800000 0 0 1
34.288381 -27.770122 -7.961163 44.835844 -0.680748 1.749305 0.037026 -0.011060 -470858.000000 0 0 1
33.189031 -27.808422 -8.872563 44.198897 -0.697416 1.772911 0.039535 -0.011849 220845.000000 0 0 1
33.074231 -29.090222 -9.512163 45.062479 -0.721397 1.783485 0.016599 -0.001375 329659.000000 0 0 1
32.686461 -30.383722 -8.686363 45.464582 -0.748904 1.763036 0.000583 0.005262 269260.000000 0 0 1
33.801381 -30.902822 -7.982663 46.489146 -0.740631 1.743362 0.003898 0.002372 -365070.000000 0 0 1
33.465811 -32.121022 -7.419063 46.976197 -0.764897 1.729393 -0.003789 0.003329 262062.000000 0 0 1
34.615411 -32.834222 -6.670363 48.174750 -0.758997 1.709704 -0.004324 0.004500 -48853.700000 0 0 1
34.341261 -34.133622 -6.205763 48.815345 -0.782366 1.698269 -0.007106 0.000237 -70017.000000 0 0 1
33.774231 34.173810 -4.871063 48.293635 0.791279 1.671832 0.002669 0.001789 -35896.600000 0 0 1
33.624201 32.774910 -4.317863 47.153214 0.772608 1.662496 -0.000667 0.004145 -466833.000000 0 0 1
32.654721 32.021510 -4.963063 46.003694 0.775608 1.678891 0.012778 -0.001756 -570757.000000 0 0 1
32.714571 30.643410 -4.665363 45.066921 0.752720 1.674503 0.014026 0.010112 -147766.000000 0 0 1
31.541961 29.789010 -5.153763 43.690293 0.756824 1.689033 0.031503 -0.004402 -114328.000000 0 0 1
31.567001 29.509510 -6.552963 43.706156 0.751724 1.721296 0.007420 0.011812 -181797.000000 0 0 1
30.308041 29.021710 -6.950463 42.534056 0.763721 1.734942 0.002883 0.007944 29763.600000 0 0 1
30.193561 28.936610 -8.478463 42.671570 0.764144 1.770819 0.001089 0.015109 -41300.500000 0 0 1
30.895871 27.776110 -8.958263 42.500795 0.732275 1.783168 0.000609 0.012569 221246.000000 0 0 1
30.920701 27.709110 -10.391863 42.800413 0.730675 1.816046 -0.004903 0.016556 205856.000000 0 0 1
32.068601 28.560910 -10.977663 44.324145 0.727608 1.821069 0.008322 0.019640 -1591820.000000 0 0 1
33.346441 28.207510 -10.635363 44.952861 0.702105 1.809650 0.011620 0.010302 -1330330.000000 0 0 1
34.312971 29.006410 -11.227963 46.312190 0.701787 1.815677 0.013486 0.009819 -321442.000000 0 0 1
34.625661 30.369310 -10.565363 47.253130 0.720004 1.796293 0.011207 0.000985 -422707.000000 0 0 1
35.511361 30.358110 -9.417863 47.658869 0.707323 1.769715 0.000058 0.010555 445497.000000 0 0 1
35.258021 31.472710 -8.636163 48.044176 0.728734 1.751533 -0.005656 0.005656 -942474.000000 0 0 1
36.205071 31.520410 -7.396063 48.570003 0.716337 1.723667 0.000820 0.010734 1639260.000000 0 0 1
-35.175471 31.630410 -7.701563 47.928182 -0.732383 1.732186 0.016392 0.003518 888168.000000 0 0 1
-34.530337 30.432010 -8.062263 46.727417 -0.722394 1.744202 0.030377 -0.004582 -568002.000000 0 0 1
-33.061082 30.688010 -8.475963 45.898050 -0.748190 1.756532 0.079210 -0.012208 14799.100000 0 0 1
-32.285752 31.250510 -7.395863 45.537489 -0.769106 1.733932 0.071983 -0.014392 59773.100000 0 0 1
-30.960512 31.595110 -7.722663 44.904830 -0.795542 1.743634 0.097647 -0.022427 -244748.000000 0 0 1
-30.752222 32.801310 -8.655363 45.787994 -0.817629 1.760972 0.073254 -0.016519 -498299.000000 0 0 1
-31.040182 34.053710 -8.152163 46.793224 -0.831660 1.745907 0.050731 -0.011674 140843.000000 0 0 1
-29.916862 -33.860322 -7.433363 45.790773 0.847151 1.733851 0.084566 -0.016135 431563.000000 0 0 1
-30.202202 -32.434722 -6.862563 44.847285 0.821025 1.724421 0.057183 -0.022218 260256.000000 0 0 1
-31.095632 -32.371222 -5.735263 45.251824 0.805494 1.697879 0.044109 -0.021788 58764.700000 0 0 1
-30.546582 -32.668322 -4.424863 44.943213 0.818949 1.669411 0.058357 -0.020792 48718.900000 0 0 1
-31.637452 -32.853222 -3.357063 45.733275 0.804248 1.644268 0.048954 -0.013337 -158998.000000 0 0 1
-32.131482 -31.633122 -2.911563 45.183667 0.777583 1.635279 0.038781 -0.008586 -33224.000000 0 0 1
-33.118362 -31.827122 -1.896563 45.971606 0.765519 1.612063 0.036376 -0.001340 -33293.100000 0 0 1
-33.828142 -30.525622 -1.591663 45.592655 0.734125 1.605714 0.043681 0.009655 28748.000000 0 0 1
-34.795813 -30.690022 -0.555563 46.399727 0.722783 1.582770 0.026365 0.022519 -53880.000000 0 0 1
-35.403766 -29.423922 -0.349663 46.036030 0.693416 1.578392 0.041270 0.013060 49897.500000 0 0 1
-36.365542 -29.414822 0.884037 46.781042 0.680123 1.551898 0.039772 0.012676 -804167.000000 0 0 1
35.257721 -30.140322 0.624437 46.388963 -0.707307 1.557335 0.017588 0.010903 -282788.000000 0 0 1
34.365201 -30.025422 1.728737 45.667073 -0.718102 1.532932 0.021533 0.007287 552697.000000 0 0 1
33.506951 -28.724822 1.868437 44.173773 -0.708705 1.528486 0.011180 0.021427 -954405.000000 0 0 1
32.549941 -28.471422 0.891837 43.254086 -0.718660 1.550176 0.016101 0.010555 -540311.000000 0 0 1
31.941091 -27.216522 1.135337 41.979297 -0.705703 1.543748 0.023065 0.011279 528516.000000 0 0 1
30.617781 -27.209422 0.282837 40.961948 -0.726526 1.563891 0.020755 -0.009706 967413.000000 0 0 1
29.437551 -27.827722 0.816337 40.516885 -0.757294 1.550647 0.018721 0.004622 678752.000000 0 0 1
29.347741 -29.235422 0.582437 41.428723 -0.783481 1.556737 0.020929 0.004771 -109415.000000 0 0 1
28.860651 -29.608022 -0.867663 41.356076 -0.798180 1.591778 0.018811 0.002027 445890.000000 0 0 1
27.489001 -29.328722 -1.165263 40.214139 -0.817766 1.599777 0.030357 0.002883 592221.000000 0 0 1
27.333101 -29.808522 -2.503563 40.520541 -0.828692 1.632621 0.034811 0.004068 284487.000000 0 0 1
25.919001 -30.370622 -2.832263 40.027378 -0.864318 1.641614 0.056097 -0.006532 576636.000000 0 0 1
24.928301 -29.366922 -2.998863 38.637152 -0.866967 1.648491 0.065068 -0.010689 -91232.100000 0 0 1
23.671801 -29.989322 -3.194463 38.339512 -0.902589 1.654213 0.045677 -0.013518 118186.000000 0 0 1
22.499101 -28.982722 -3.219863 36.831715 -0.910679 1.658329 0.040429 -0.015141 59212.800000 0 0 1
22.454701 -28.161322 -4.371463 36.281998 -0.897667 1.691575 0.049076 -0.020133 -28525.400000 0 0 1
21.839401 -26.912622 -4.058663 34.895865 -0.889087 1.687368 0.037728 -0.024138 -302002.000000 0 0 1
21.478201 -26.172022 -5.357263 34.278100 -0.883587 1.727728 0.047335 -0.027691 -1223110.000000 0 0 1
20.259701 -26.628622 -5.772363 33.953780 -0.920404 1.741633 0.055805 -0.021464 -1497470.000000 0 0 1
19.788201 -25.954822 -6.940763 33.367647 -0.919400 1.780335 0.058313 -0.018460 1200190.000000 0 0 1
18.236101 -26.193722 -7.165263 32.710969 -0.962624 1.791635 0.063459 -0.013457 1205040.000000 0 0 1
17.546101 -25.362022 -6.202463 31.457406 -0.965577 1.769267 0.058630 -0.016693 -189600.000000 0 0 1
16.202801 -25.200122 -6.602163 30.678420 -0.999382 1.787699 0.047996 -0.015594 -101128.000000 0 0 1
15.428101 -24.368822 -5.550563 29.371322 -1.006388 1.760919 0.039539 -0.012507 -163088.000000 0 0 1
15.408201 -24.961722 -4.278063 29.644596 -1.017773 1.715614 0.028327 -0.013024 92462.700000 0 0 1
14.865101 -24.049122 -3.367763 28.472326 -1.017164 1.689356 0.035815 -0.012365 -131659.000000 0 0 1
14.803901 -24.716822 -1.953963 28.877236 -1.031156 1.638513 0.031962 -0.008229 -108628.000000 0 0 1
13.920101 -25.826622 -1.921463 29.401967 -1.076451 1.636194 0.045955 -0.008599 168371.000000 0 0 1
14.643801 -26.988822 -1.867263 30.762381 -1.073662 1.631533 0.044473 -0.015272 43794.300000 0 0 1
13.702401 -28.254622 -2.136163 31.474476 -1.119252 1.638718 0.041864 -0.009820 654470.000000 0 0 1
12.835701 -28.519722 -1.051963 31.292753 -1.147889 1.604419 0.052258 -0.017233 18004.100000 0 0 1
12.150101 -29.771322 -1.125863 32.174899 -1.183315 1.605795 0.047879 -0.018485 74223.000000 0 0 1
12.959201 -30.957522 -0.533363 33.564767 -1.174348 1.586688 0.047866 -0.020837 93579.300000 0 0 1
14.049901 -31.320822 -1.351863 34.354347 -1.149124 1.610157 0.055320 -0.017066 -313628.000000 0 0 1
14.514801 -32.648822 -1.209563 35.750358 -1.152464 1.604636 0.054101 -0.017081 -442221.000000 0 0 1
15.917101 -32.884522 -1.788163 36.577909 -1.120006 1.619702 0.056955 -0.014278 -375758.000000 0 0 1
16.813801 -32.100522 -1.029863 36.252008 -1.088302 1.599209 0.050162 -0.007593 -507989.000000 0 0 1
17.956801 -31.735922 -1.768963 36.506776 -1.055889 1.619271 0.059847 -0.010313 51320.800000 0 0 1
18.801701 -30.749922 -0.922563 36.054304 -1.022008 1.596387 0.050769 -0.013783 -282885.000000 0 0 1
18.100501 -29.527422 -0.865663 34.644569 -1.020868 1.595786 0.048795 -0.014862 222116.000000 0 0 1
18.706401 -28.385022 -0.219763 33.995400 -0.988104 1.577261 0.029552 -0.011803 -69198.500000 0 0 1
18.365501 -27.122022 -1.005263 32.770509 -0.975576 1.601477 0.018973 -0.010703 8238.520000 0 0 1
19.040901 -27.068322 -2.240263 33.170299 -0.957766 1.638386 0.028935 -0.022556 609060.000000 0 0 1
18.274201 -26.234022 -3.146763 32.125885 -0.962367 1.668905 0.037887 -0.011749 123283.000000 0 0 1
32.257901 -29.363722 14.171937 45.865501 -0.738466 1.256666 0.039307 -0.023940 856483.000000 0 0 1
33.264921 -30.199122 14.821637 47.309860 -0.737128 1.252142 0.056958 -0.009809 681026.000000 0 0 1
32.666351 -30.816822 15.909137 47.643128 -0.756272 1.230334 0.056138 -0.009713 -327672.000000 0 0 1
33.632901 -31.222522 16.998237 48.938308 -0.748250 1.216063 0.048513 -0.003580 -734794.000000 0 0 1
32.974191 -31.538922 18.205137 49.126652 -0.763154 1.191168 0.039786 -0.011307 -115605.000000 0 0 1
33.803971 -31.761922 19.301937 50.240352 -0.754263 1.176464 0.025606 -0.010356 -758979.000000 0 0 1
34.500721 -33.109622 19.393437 51.600894 -0.764826 1.185498 0.018938 -0.011591 -963960.000000 0 0 1
35.579461 -33.044522 18.520337 51.969620 -0.748475 1.206418 0.017946 -0.008901 -624568.000000 0 0 1
36.171461 34.070610 18.389037 52.984316 0.755498 1.216356 0.012921 -0.014453 -499551.000000 0 0 1
-35.515712 34.146010 17.336137 52.228895 -0.765739 1.232452 0.010559 -0.013575 179605.000000 0 0 1
-34.353756 -33.587722 17.873237 51.261762 0.774124 1.214649 0.020027 -0.012575 574943.000000 0 0 1
-33.422452 -33.202822 16.901537 50.051470 0.782102 1.226342 0.029877 -0.003762 -1308020.000000 0 0 1
-32.156202 -32.633022 17.479537 49.035392 0.792758 1.206312 0.024268 -0.007357 -203597.000000 0 0 1
-31.066802 -32.332022 16.592937 47.810369 0.805352 1.216365 0.026877 -0.011790 534848.000000 0 0 1
-31.308842 -31.248322 15.713137 46.942560 0.784431 1.229476 0.034902 -0.009953 -685261.000000 0 0 1
-30.279132 -31.036422 14.573037 45.743401 0.797748 1.246563 0.042479 -0.014780 664317.000000 0 0 1
-28.994902 -30.676822 15.072637 44.821380 0.813577 1.227830 0.038571 -0.020181 144738.000000 0 0 1
-28.067292 -30.328322 14.049537 43.645956 0.824098 1.243063 0.041820 -0.010183 892331.000000 0 0 1
-26.663332 -30.006722 14.639037 42.727486 0.844327 1.221098 0.038154 -0.010679 1212970.000000 0 0 1
-25.556642 -30.127122 13.726137 41.823346 0.867294 1.236406 0.038150 -0.008323 641817.000000 0 0 1
-24.336462 -29.712622 14.327137 40.992318 0.884540 1.213751 0.028183 -0.007371 342767.000000 0 0 1
-23.085862 -29.784022 13.420137 40.001813 0.911418 1.228673 0.043864 -0.004752 254122.000000 0 0 1
-22.569162 -31.085322 13.143037 40.600539 0.942807 1.241142 0.049959 -0.008533 -951038.000000 0 0 1
-21.267062 -31.015522 12.697737 39.692355 0.969738 1.245168 0.058335 -0.017833 -754682.000000 0 0 1
-20.897362 -32.513822 12.312937 40.564230 0.999554 1.262389 0.057637 -0.019300 79086.800000 0 0 1
-21.557962 -32.997722 11.143437 40.960610 0.992093 1.295271 0.045545 -0.014807 165141.000000 0 0 1
-21.901362 33.982610 11.216037 41.955773 -0.998306 1.300175 0.055031 -0.006600 392044.000000 0 0 1
-22.887262 33.537410 10.082737 41.835944 -0.971953 1.327393 0.039458 -0.002951 348894.000000 0 0 1
-22.365762 33.545510 8.793537 41.265662 -0.982751 1.356054 0.028206 0.005455 -698521.000000 0 0 1
-23.440062 33.443010 7.928937 41.602157 -0.959469 1.379034 0.038897 0.000483 -954086.000000 0 0 1
-23.115262 33.609310 6.393237 41.288915 -0.968330 1.415329 0.037231 -0.000623 -690159.000000 0 0 1
-22.372662 32.567910 5.784637 39.933279 -0.968880 1.425427 0.030283 -0.004613 -11654.000000 0 0 1
-20.994362 32.426510 6.035237 39.098157 -0.996220 1.415815 0.018223 -0.001816 147185.000000 0 0 1
-20.051462 33.632610 5.627537 39.558599 -1.033182 1.428054 0.032771 -0.001142 -595615.000000 0 0 1
-20.115762 -33.542522 6.382737 39.629333 1.030591 1.409031 0.046406 -0.008017 -56861.900000 0 0 1
-19.606162 -33.639722 7.691737 39.688730 1.043099 1.375761 0.049954 -0.009481 -387300.000000 0 0 1
-19.567462 -32.271922 8.388837 38.661804 1.025735 1.352077 0.061165 -0.015608 90046.600000 0 0 1
-18.559362 -31.372822 7.925837 37.303120 1.036595 1.356693 0.061957 -0.023525 3545.230000 0 0 1
-18.474962 -30.186122 8.738237 36.453847 1.021575 1.328732 0.064078 -0.020450 340964.000000 0 0 1
-17.844462 -30.295322 10.203037 36.610563 1.038492 1.288365 0.056256 -0.018298 293057.000000 0 0 1
-16.629062 -31.008022 10.167837 36.625238 1.078546 1.289482 0.062479 -0.024608 -244074.000000 0 0 1
-15.895262 -30.978222 11.394737 36.635360 1.096715 1.254519 0.073205 -0.030132 546591.000000 0 0 1
-14.518062 -31.682122 11.333337 36.646630 1.141110 1.256382 0.073351 -0.036819 398836.000000 0 0 1
-13.485662 -30.912222 10.741637 35.395075 1.159430 1.262455 0.063568 -0.027121 62740.900000 0 0 1
-12.410162 -31.763722 10.367637 35.643149 1.198331 1.275657 0.061492 -0.019338 515951.000000 0 0 1
-11.197062 -31.109022 9.654137 34.443400 1.225303 1.286700 0.064104 -0.014438 354118.000000 0 0 1
-10.611862 -30.131122 10.478137 33.619749 1.232172 1.253850 0.057856 -0.018091 -439577.000000 0 0 1
-9.749662 -29.267222 9.777437 32.360848 1.249233 1.263862 0.060735 -0.011316 544892.000000 0 0 1
-8.792662 -28.421622 10.718737 31.622632 1.270770 1.224987 0.063854 -0.007639 637763.000000 0 0 1
-9.509462 -27.631222 11.616037 31.445932 1.239337 1.192436 0.067881 -0.017843 -652652.000000 0 0 1
-8.673562 -27.255822 12.652537 31.276144 1.262702 1.154318 0.058082 -0.017730 -112827.000000 0 0 1
-9.173862 -26.008222 13.436837 30.677939 1.231692 1.117427 0.063079 -0.020703 106691.000000 0 0 1
-8.907062 -24.820122 12.725037 29.279699 1.226246 1.121199 0.055472 -0.017560 410707.000000 0 0 1
-9.679262 -24.532322 11.507837 28.774177 1.194996 1.159349 0.051271 -0.015078 352958.000000 0 0 1
-9.242662 -23.254722 10.829337 27.266893 1.192487 1.162375 0.036957 -0.010924 503796.000000 0 0 1
-7.960262 -23.279522 10.209037 26.636936 1.241317 1.177466 0.032847 -0.011722 7898.360000 0 0 1
-7.491362 -21.999422 9.901137 25.261188 1.242587 1.168045 0.029183 -0.005857 837698.000000 0 0 1
-6.195362 -21.834522 9.021037 24.423513 1.294321 1.192477 0.025316 -0.008342 552978.000000 0 1 0
-5.023762 -22.344222 9.564437 24.818963 1.349639 1.175190 0.023651 -0.011280 -645819.000000 0 1 0
-3.952862 -22.315922 8.639337 24.254147 1.395483 1.206598 0.022754 -0.012765 327940.000000 0 1 0
-2.684362 -23.055822 9.129137 24.942291 1.454889 1.196078 0.024001 -0.013951 286974.000000 0 1 0
-2.040962 -22.395022 10.223737 24.702780 1.479913 1.144095 0.019798 -0.013861 -365812.000000 0 1 0
-1.088962 -23.272522 10.763237 25.664049 1.524039 1.138023 0.026165 -0.016783 -23239.200000 0 0 1
-0.203762 -22.677822 11.884437 25.604003 1.561811 1.088107 0.025941 -0.013375 -112625.000000 0 0 1
-0.806862 -22.503322 13.176137 26.089483 1.534956 1.041372 0.031168 -0.015191 51422.400000 0 0 1
0.133538 -22.246622 14.217337 26.401945 -1.564794 1.002145 0.048216 -0.019787 105620.000000 0 0 1
0.884038 -20.887922 14.197737 25.271774 -1.528499 0.974234 0.049440 -0.022226 -1017620.000000 0 0 1
1.966438 -20.786222 13.381737 24.799290 -1.476474 1.000832 0.048163 -0.020905 -1111900.000000 0 1 0
2.314638 -19.425422 13.102837 23.545465 -1.452200 0.980640 0.045081 -0.018735 -197851.000000 0 1 0
3.714938 -19.264722 12.499737 23.263141 -1.380298 1.003541 0.048603 -0.020408 -116231.000000 0 1 0
3.792238 -19.940422 11.225737 23.195230 -1.382862 1.065613 0.053234 -0.009585 871794.000000 0 1 0
5.226338 -20.025022 11.054637 23.463187 -1.315501 1.080204 0.056013 -0.008801 1225840.000000 0 1 0
5.723138 -20.961122 9.950937 23.898621 -1.304257 1.141335 0.064671 -0.013067 -732843.000000 0 1 0
5.530038 -20.402022 8.677537 22.850021 -1.306103 1.181259 0.050924 -0.008829 -196314.000000 0 1 0
6.094838 -21.183322 7.658437 23.335206 -1.290645 1.236407 0.051166 -0.014659 276618.000000 0 1 0
7.620738 -21.455822 7.621037 24.010584 -1.229512 1.247806 0.053291 -0.006324 107087.000000 0 1 0
8.493738 -20.350522 7.254737 23.214619 -1.175404 1.252965 0.061949 -0.013284 344978.000000 0 1 0
8.978838 -19.539122 8.281737 23.043090 -1.140045 1.203169 0.066693 -0.002460 453782.000000 0 1 0
9.789838 -20.173922 9.474337 24.343195 -1.119000 1.171035 0.055099 0.001035 495592.000000 0 1 0
8.914538 -20.645122 10.533237 24.832220 -1.163181 1.132744 0.065911 -0.001074 245688.000000 0 1 0
9.245338 -19.984522 11.763337 24.964645 -1.137493 1.080146 0.054693 -0.002683 147826.000000 0 1 0
8.400638 -20.390322 13.007137 25.603156 -1.179995 1.037902 0.072166 -0.001793 -41698.000000 0 0 1
8.514538 -21.739322 13.471637 26.955157 -1.197496 1.047452 0.069896 -0.009106 -286644.000000 0 0 1
7.747138 -22.003322 14.609137 27.524375 -1.232261 1.011286 0.090659 0.000357 -311144.000000 0 0 1
8.127438 -23.397422 15.193237 29.057341 -1.236471 1.020581 0.081483 -0.023804 -79857.100000 0 0 1
7.816738 -24.442322 14.363137 29.407962 -1.261272 1.060530 0.084670 -0.016855 -237874.000000 0 0 1
7.892038 -25.731722 14.907837 30.767668 -1.273200 1.064971 0.087348 -0.021413 91191.500000 0 0 1
7.902238 -26.830622 13.829837 31.202437 -1.284372 1.111598 0.092225 -0.030909 -792703.000000 0 0 1
9.145438 -26.946122 13.253637 31.390945 -1.243598 1.134912 0.078886 -0.021736 -987780.000000 0 0 1
9.111438 -27.852722 12.182237 31.736404 -1.254640 1.176827 0.077061 -0.025605 -386414.000000 0 0 1
10.467738 -28.165522 11.526237 32.182671 -1.214965 1.204510 0.072915 -0.025387 -317982.000000 0 0 1
11.305038 -28.873822 12.402037 33.396287 -1.197611 1.190323 0.053119 -0.023115 810399.000000 0 0 1
12.508338 -29.273422 11.683837 33.910232 -1.166985 1.219035 0.073406 -0.021494 1173970.000000 0 0 1
13.602838 -30.073322 12.470737 35.284008 -1.146013 1.209552 0.050414 -0.019547 -183663.000000 0 0 1
14.189338 -29.279522 13.473737 35.216038 -1.119531 1.178185 0.045670 -0.010557 216945.000000 0 0 1
15.022338 -30.053322 14.382737 36.547721 -1.107264 1.166325 0.038982 -0.010013 784112.000000 0 0 1
16.491938 -30.061422 13.879437 36.990700 -1.069022 1.186168 0.051375 -0.005962 -350441.000000 0 0 1
17.092438 -28.791122 13.643737 36.155660 -1.035044 1.183851 0.047483 -0.012762 -54050.200000 0 0 1
18.448738 -28.968922 13.325337 36.839096 -1.003724 1.200687 0.041434 -0.005603 -521578.000000 0 0 1
19.106938 -27.645022 12.907237 35.998876 -0.966033 1.204087 0.023481 -0.000167 1148020.000000 0 0 1
20.485538 -27.965922 12.559637 36.871324 -0.938578 1.223205 0.017187 -0.002217 1266550.000000 0 0 1
21.260638 -26.802722 12.302437 36.355888 -0.900199 1.225592 0.012278 0.001359 -51960.900000 0 0 1
22.588638 -27.102122 11.590637 37.136430 -0.875981 1.253384 0.025184 0.000702 -336785.000000 0 0 1
23.470838 -27.726022 12.458337 38.403421 -0.868322 1.240412 0.036500 -0.002451 -1118900.000000 0 0 1
24.586938 -28.249122 11.861137 39.283801 -0.854600 1.264075 0.026365 -0.012126 -1067400.000000 0 0 1
25.608338 -28.985422 12.805737 40.742221 -0.847178 1.251065 0.044741 -0.011654 646169.000000 0 0 1
26.566138 -28.186522 13.487837 41.014162 -0.814984 1.235702 0.030589 -0.004027 153809.000000 0 0 1
27.620738 -27.755022 12.654637 41.150775 -0.787823 1.258212 0.015112 -0.002062 -409777.000000 0 0 1
28.799138 -27.112622 13.455337 41.779549 -0.755243 1.242896 0.042594 -0.011948 66627.700000 0 0 1
28.621438 -25.747522 13.888637 40.926958 -0.732588 1.224569 0.049980 -0.008803 -197583.000000 0 0 1
27.881138 -25.556122 15.049137 40.705648 -0.741916 1.192103 0.053901 -0.004395 -1244270.000000 0 0 1
28.697838 -25.265722 16.306537 41.567124 -0.721883 1.167672 0.039816 -0.001375 -253248.000000 0 0 1
29.450638 -26.435922 16.680537 42.946925 -0.731507 1.171903 0.046856 0.001985 357108.000000 0 0 1
30.085638 -26.287122 17.945137 43.797104 -0.718118 1.148635 0.055852 0.011144 15762.600000 0 0 1
30.645938 -27.568122 18.570837 45.211181 -0.732577 1.147511 0.044468 0.017893 367124.000000 0 0 1
29.636738 -28.600522 18.766537 45.260458 -0.767607 1.143255 0.039864 0.020905 542595.000000 0 0 1
30.063038 -29.587722 19.625037 46.522700 -0.777430 1.135325 0.061015 0.008366 -199483.000000 0 0 1
28.926038 -30.356622 20.323037 46.596846 -0.809525 1.119485 0.075579 0.002283 -604209.000000 0 0 1
28.197638 -29.556322 21.280037 46.059993 -0.808919 1.090540 0.072348 0.006288 762048.000000 0 0 1
27.002338 -30.066922 21.846337 45.939183 -0.839046 1.075208 0.070293 0.000716 1003730.000000 0 0 1
25.810238 -30.390722 20.881237 45.008782 -0.866720 1.088362 0.097510 -0.006527 -295282.000000 0 0 1
26.062738 -31.569822 20.160537 45.632962 -0.880664 1.113195 0.101419 -0.005455 -3013.990000 0 0 1
25.237638 -31.764522 19.018537 44.806562 -0.899404 1.132432 0.104332 -0.007792 -202909.000000 0 0 1
25.565338 -30.954322 17.740237 43.891600 -0.880458 1.154711 0.090126 0.000467 362846.000000 0 0 1
26.835038 -31.369122 17.223337 44.730129 -0.863141 1.175534 0.081318 -0.013651 657191.000000 0 0 1
27.272838 -30.356322 16.280937 43.936123 -0.838853 1.191185 0.066677 -0.022337 -46184.500000 0 0 1
28.566138 -30.702522 15.506337 44.711471 -0.821428 1.216630 0.062847 -0.025765 -181276.000000 0 0 1
28.522638 -31.720622 14.488837 45.051805 -0.838433 1.243373 0.090365 -0.025397 134964.000000 0 0 1
28.498638 -33.019022 15.056437 46.142437 -0.858747 1.238406 0.066638 -0.030968 -179068.000000 0 0 1
27.714338 -33.987422 14.115237 46.070265 -0.886718 1.259403 0.095833 -0.037374 -138595.000000 0 0 1
28.274138 -34.178322 12.856437 46.183033 -0.879657 1.288689 0.098544 -0.034289 133976.000000 0 0 1
27.616438 33.146510 12.184037 44.830899 0.876159 1.295557 0.101311 -0.035529 -293165.000000 0 0 1
28.116038 32.888610 10.753537 44.584872 0.863472 1.327202 0.105445 -0.034589 4542.820000 0 0 1
29.477238 32.488610 10.790237 45.175730 0.833957 1.329615 0.066267 -0.033138 294652.000000 0 0 1
29.765238 31.515610 9.829137 44.450141 0.813954 1.347826 0.062111 -0.029334 -1282950.000000 0 0 1
31.202938 31.111610 9.909337 45.163598 0.783933 1.349587 0.034376 -0.028418 -1255880.000000 0 0 1
31.449838 30.197410 10.933937 44.950271 0.765085 1.325086 0.031489 -0.018950 -46471.300000 0 0 1
32.815038 29.957810 11.181837 45.818452 0.739913 1.324260 0.038749 -0.019867 -28797.600000 0 0 1
33.061438 29.047010 12.433037 45.731476 0.720852 1.295460 0.029960 -0.005959 -46077.600000 0 0 1
32.875738 27.704610 12.114337 44.666729 0.700245 1.296140 0.033924 -0.009530 171187.000000 0 0 1
33.240538 26.849410 13.175837 44.714951 0.679437 1.271694 0.038788 -0.016561 -172129.000000 0 0 1
33.106638 25.345210 12.784537 43.610475 0.653387 1.273273 0.045765 -0.016882 -496358.000000 0 0 1
33.939738 24.858510 11.784137 43.688868 0.632162 1.297685 0.046240 -0.016874 -573530.000000 0 0 1
33.812038 23.511410 11.327237 42.712371 0.607603 1.302387 0.060288 -0.022289 -674069.000000 0 0 1
32.469738 23.124110 10.708537 41.275672 0.618850 1.308355 0.060760 -0.016284 -418051.000000 0 0 1
31.524338 22.707310 11.670937 40.566200 0.624227 1.278971 0.062042 -0.024529 -366757.000000 0 0 1
30.314938 22.474210 10.978937 39.301687 0.637947 1.287679 0.057090 -0.017589 184791.000000 0 0 1
29.138438 22.151910 11.972237 38.510909 0.650016 1.254678 0.040207 -0.013198 381902.000000 0 0 1
28.418038 23.284910 12.480937 38.801362 0.686441 1.243312 0.042419 -0.015787 327909.000000 0 0 1
27.653138 22.839810 13.605137 38.359519 0.690359 1.208231 0.063797 -0.019869 108616.000000 0 0 1
23.725938 9.749210 25.845511 36.413702 0.389875 0.781619 0.019522 0.004452 -409623.000000 0 0 1
23.678838 8.561910 26.589161 36.619355 0.346958 0.758170 0.033576 0.003715 -63469.100000 0 0 1
22.568938 7.759010 26.304351 35.517293 0.331133 0.736823 0.028851 0.002434 -352253.000000 0 0 1
22.707638 6.315110 26.775521 35.671361 0.271251 0.721801 0.043016 0.008391 -155710.000000 0 0 1
22.694338 6.210910 28.257451 36.770803 0.267135 0.694341 0.045300 0.010998 889726.000000 0 0 1
24.000938 6.195810 28.855531 38.040436 0.252633 0.709713 0.044740 0.000493 517459.000000 0 0 1
23.934538 6.245510 30.438301 39.221916 0.255250 0.682413 0.038462 0.004213 -140497.000000 0 0 1
23.745038 7.509910 31.056111 39.808386 0.306318 0.675907 0.046145 0.002346 251854.000000 0 0 1
23.872838 7.363310 32.418389 40.927774 0.299181 0.656575 0.039657 0.006613 1182.740000 0 0 1
23.824838 8.652910 33.249071 41.809048 0.348375 0.651360 0.058213 -0.003004 754597.000000 0 0 1
24.948838 9.506310 32.916734 42.383084 0.364049 0.681469 0.054219 0.000948 687744.000000 0 0 1
25.401638 10.221510 34.050534 43.693951 0.382570 0.677254 0.068514 0.000652 217569.000000 0 0 1
26.643038 11.153310 33.987751 44.602859 0.396454 0.704387 0.045652 0.000179 -44551.100000 0 0 1
26.537738 12.403910 33.347825 44.386777 0.437234 0.720765 0.030643 -0.003009 67557.700000 0 0 1
26.210638 13.361210 -34.107548 45.042694 0.471427 2.429853 0.040899 -0.015529 -484654.000000 0 0 1
25.958438 14.756510 33.701806 45.026735 0.516911 0.725023 0.040159 -0.015132 -505172.000000 0 0 1
27.096138 15.464610 33.282405 45.618783 0.518620 0.753093 0.023246 -0.014039 -212527.000000 0 0 1
26.740338 16.785410 32.982199 45.657651 0.560552 0.763558 0.044019 -0.020595 -5555.310000 0 0 1
27.092038 17.861210 34.046614 47.033746 0.582871 0.761392 0.044780 -0.021280 -263107.000000 0 0 1
26.487538 17.639510 -33.110673 45.924488 0.587510 2.376013 0.054463 -0.029684 5008.620000 0 0 1
27.375138 17.032010 -32.222573 45.582691 0.556562 2.355907 0.056529 -0.022023 -380271.000000 0 0 1
26.687638 16.543810 -30.909233 44.060281 0.554927 2.348327 0.064748 -0.023084 290652.000000 0 0 1
25.689938 15.500710 -31.049663 43.177847 0.542899 2.373318 0.060249 -0.016858 690631.000000 0 0 1
25.107438 15.252610 -29.789803 41.838474 0.545911 2.363166 0.075748 -0.020700 189108.000000 0 0 1
24.192338 13.991510 -29.926473 40.946616 0.524344 2.390386 0.063382 -0.016752 28774.300000 0 0 1
23.095638 14.036410 -30.829873 40.998907 0.546100 2.421839 0.063332 -0.024649 394307.000000 0 0 1
22.588238 12.737510 -31.160603 40.539559 0.513452 2.447519 0.069193 -0.002440 105233.000000 0 0 1
21.580838 12.136210 -30.146373 39.010562 0.512283 2.453998 0.071769 0.000652 -19133.700000 0 0 1
20.235638 12.594110 -30.274173 38.530743 0.556708 2.474647 0.085490 -0.010819 393468.000000 0 0 1
19.486938 12.003910 -29.225593 37.121017 0.552100 2.477223 0.085307 0.006420 -443876.000000 0 0 1
18.139838 12.694910 -29.046753 36.522983 0.610616 2.490300 0.063138 0.006612 231364.000000 0 0 1
17.099338 12.263810 -29.988073 36.634313 0.622183 2.529729 0.048940 0.002001 1477420.000000 0 0 1
15.886738 12.884910 -29.527353 35.920383 0.681441 2.535749 0.039179 -0.001213 254777.000000 0 0 1
14.741338 12.977610 -30.552463 36.320495 0.721855 2.570278 0.040143 -0.005496 53069.600000 0 0 1
14.259538 11.719010 -31.022043 36.097601 0.687915 2.604879 0.034706 0.006786 465273.000000 0 0 1
12.926838 11.464010 -30.556503 35.103084 0.725495 2.626971 0.024845 0.008576 690746.000000 0 0 1
11.994838 10.949310 -31.676093 35.596887 0.739861 2.667825 0.020322 0.015154 245417.000000 0 0 1
11.633638 11.986210 -32.651823 36.676318 0.800324 2.668734 0.020177 0.015459 -42547.100000 0 0 1
10.470038 11.664610 -33.368733 36.866749 0.839314 2.702452 0.018166 0.019553 47092.800000 0 0 1
10.221038 12.515210 33.790727 37.455485 0.885961 0.446053 0.035998 0.015460 167499.000000 0 0 1
11.243938 12.340610 32.827428 36.828750 0.831864 0.470474 0.032439 0.015181 376132.000000 0 0 1
10.862638 13.072210 31.683481 35.954451 0.877453 0.492377 0.044398 -0.000112 306826.000000 0 0 1
11.797938 12.796210 30.434291 35.059669 0.825966 0.519492 0.045511 0.002277 -29912.000000 0 0 1
11.792538 11.465210 30.019611 34.229987 0.771325 0.501219 0.040411 0.004528 68897.100000 0 0 1
12.012738 11.365410 28.640031 33.071586 0.757716 0.523647 0.052017 0.002745 -252557.000000 0 0 1
12.434438 10.028910 28.084761 32.310185 0.678718 0.517167 0.059416 0.002992 35845.400000 0 0 1
11.536538 8.980710 28.394431 31.937260 0.661467 0.475489 0.051974 -0.008992 545686.000000 0 0 1
12.260838 7.784810 28.234101 31.750526 0.565710 0.475097 0.045656 -0.005881 171487.000000 0 0 1
11.285738 6.636210 28.399561 31.272068 0.531562 0.431965 0.041643 -0.012061 -163203.000000 0 0 1
10.321138 6.391510 27.421021 29.988159 0.554464 0.416786 0.045105 -0.017554 -32610.200000 0 0 1
9.302938 5.476310 27.809091 29.830859 0.532043 0.370281 0.037811 -0.022540 -31113.400000 0 0 1
9.626038 3.974410 27.526861 29.431015 0.391561 0.361687 0.046674 -0.019411 -30189.000000 0 0 1
10.708938 3.551110 28.343871 30.506831 0.320192 0.378827 0.038319 -0.020620 149035.000000 0 0 1
11.153138 2.351010 27.835841 30.079125 0.207752 0.388652 0.017429 -0.016638 -144959.000000 0 0 1
11.727438 1.302610 28.814401 31.136784 0.110620 0.388671 0.013155 -0.008986 -382197.000000 0 0 1
10.733738 1.090110 29.744501 31.640746 0.101212 0.347962 0.019150 -0.015496 -396850.000000 0 0 1
10.718438 -0.216090 30.329171 32.168156 -0.020158 0.339768 0.017896 -0.013708 413153.000000 0 0 1
9.628738 -0.309890 31.425491 32.868984 -0.032173 0.297462 0.032165 -0.012695 279315.000000 0 0 1
10.085638 0.530510 32.498833 34.031980 0.052552 0.301306 0.029167 -0.016161 -269778.000000 0 0 1
9.142838 0.747710 33.477799 34.711865 0.081599 0.267449 0.038640 -0.024807 -479455.000000 0 0 1
9.327238 2.146410 34.181817 35.496494 0.226185 0.273012 0.049173 -0.023920 -260752.000000 0 0 1
9.119238 3.270610 33.376687 34.754290 0.344359 0.282500 0.028729 -0.017502 -25312.800000 0 0 1
10.129338 3.608810 32.448060 34.183382 0.342252 0.320002 0.025564 -0.011881 -227563.000000 0 0 1
9.985838 4.992910 31.839031 33.739739 0.463647 0.337258 0.022695 -0.013000 -21498.200000 0 0 1
10.226338 6.092610 32.722745 34.820625 0.537308 0.348893 0.020067 -0.010891 93905.500000 0 0 1
10.153138 7.297410 31.959131 34.317990 0.623189 0.372928 0.020639 -0.004041 -84684.800000 0 0 1
10.183038 8.605410 32.796438 35.402736 0.701627 0.386109 0.027037 -0.003452 156682.000000 0 0 1
8.946938 9.010910 33.359087 35.694157 0.788960 0.363716 0.027042 0.000151 -201191.000000 0 0 1
8.642538 8.379410 -33.803263 35.882706 0.769941 2.799483 0.029559 0.002203 -85609.000000 0 0 1
7.141538 8.550910 -33.489873 35.294351 0.874970 2.820444 0.028100 0.005330 90719.000000 0 0 1
6.814238 7.756110 -32.362213 33.969161 0.849951 2.832776 0.030915 0.005278 855688.000000 0 0 1
5.409238 7.905610 -32.056813 33.457402 0.970734 2.851223 0.032596 0.002753 1249240.000000 0 0 1
4.882838 7.041210 -30.871023 32.038115 0.964469 2.870847 0.044792 0.001229 -49948.100000 0 0 1
5.362238 7.605210 -29.622033 31.049278 0.956673 2.837213 0.045620 0.001156 540754.000000 0 0 1
4.710338 7.074310 -28.450673 29.692995 0.983368 2.851303 0.037413 -0.000997 762912.000000 0 0 1
3.210038 7.427110 -28.203043 29.340721 1.162838 2.862208 0.040493 -0.001734 138194.000000 0 0 1
2.277938 6.769410 -29.003003 29.869518 1.246194 2.900133 0.032875 0.003324 -393620.000000 0 0 1
0.961338 7.125910 -28.664283 29.552392 1.436699 2.895813 0.032901 0.010143 -782025.000000 0 0 1
-0.047862 6.695510 -29.694713 30.440238 -1.563648 2.919818 0.036746 0.004024 -775877.000000 0 0 1
0.004338 7.360010 -30.959943 31.822756 1.570207 2.908198 0.057281 0.000948 194753.000000 0 0 1
-0.259562 6.461210 -32.014293 32.660826 -1.530646 2.942289 0.066993 -0.008697 -342784.000000 0 0 1
0.134738 6.987610 -33.405813 34.129067 1.551516 2.935355 0.080257 -0.011019 -297704.000000 0 0 1
1.520738 7.117110 -33.586523 34.365978 1.360288 2.928204 0.070346 -0.005595 85832.300000 0 0 1
2.256938 6.034610 -34.169851 34.771957 1.212904 2.955227 0.071147 -0.010423 -24740.400000 0 0 1
2.048938 5.747210 32.715834 33.279939 1.228334 0.184382 0.067344 -0.016869 -179641.000000 0 0 1
0.805038 5.119410 32.447894 32.859128 1.414821 0.158375 0.077966 -0.021415 -19173.900000 0 0 1
0.590838 5.002810 31.050831 31.456817 1.453240 0.160835 0.095406 -0.023251 55853.300000 0 0 1
1.382838 4.012910 30.182601 30.479585 1.238943 0.139711 0.089976 -0.027238 -49077.100000 0 0 1
0.907738 4.109010 28.851611 29.156876 1.353374 0.144831 0.077042 -0.024496 168699.000000 0 0 1
1.796538 3.561910 27.896371 28.180175 1.103655 0.142042 0.060149 -0.019886 106150.000000 0 0 1
1.565738 4.165610 26.468371 26.839868 1.211261 0.166573 0.057573 -0.021670 296251.000000 0 0 1
2.166838 5.470210 26.386941 27.034960 1.193643 0.219390 0.054695 -0.020169 226200.000000 0 0 1
1.978738 5.977910 25.076991 25.855489 1.251140 0.246016 0.048925 -0.013803 -694319.000000 0 0 1
2.819138 7.283110 24.926081 26.120887 1.201478 0.303626 0.060435 -0.014188 -287115.000000 0 0 1
4.188538 7.021510 24.862641 26.172435 1.032933 0.317704 0.046092 -0.008821 -785328.000000 0 0 1
4.703638 6.662010 23.595201 24.964777 0.956029 0.332774 0.045711 -0.014856 -831871.000000 0 1 0
6.244038 6.620810 23.620201 25.312784 0.814677 0.367765 0.047802 -0.016242 -54504.500000 0 0 1
6.926538 5.622710 24.362611 25.944722 0.681873 0.351027 0.050186 -0.016303 7417.500000 0 0 1
6.619938 4.253210 24.136151 25.386358 0.571074 0.315141 0.049730 -0.021876 -1017210.000000 0 0 1
6.803638 3.597610 22.759431 24.025486 0.486404 0.326085 0.044284 -0.019850 -114787.000000 0 1 0
5.810638 3.914610 21.835731 22.932223 0.592854 0.310485 0.034710 -0.021508 -166655.000000 0 1 0
4.534538 3.320810 22.064031 22.768647 0.632101 0.249430 0.037342 -0.020750 -78928.400000 0 1 0
3.499638 3.757310 21.025531 21.643424 0.820890 0.239523 0.023591 -0.018990 -233691.000000 0 1 0
3.236238 5.128010 21.106731 21.960506 1.007829 0.279758 0.028788 -0.024236 -284608.000000 0 1 0
2.034838 5.448410 20.461831 21.272336 1.213364 0.276932 0.030118 -0.018644 -311650.000000 0 1 0
1.527438 6.869210 20.678931 21.843473 1.351996 0.328005 0.035296 -0.011333 -484484.000000 0 1 0
2.406738 7.769510 20.097231 21.680783 1.270403 0.384568 0.036355 -0.010017 -387586.000000 0 1 0
2.074138 9.126010 20.316631 22.368540 1.347315 0.431671 0.048684 -0.013545 366831.000000 0 1 0
3.111138 10.097010 19.648331 22.308870 1.271902 0.493372 0.065906 -0.028595 -164117.000000 0 1 0
3.162638 10.137410 18.206631 21.077257 1.268388 0.528024 0.036233 -0.022738 304606.000000 0 1 0
4.005238 11.209710 17.683531 21.316820 1.227632 0.592481 0.033956 -0.025792 -45754.100000 0 1 0
5.502238 10.984110 17.819331 21.643795 1.106407 0.603596 0.037921 -0.023810 -686428.000000 0 1 0
6.095238 9.877710 17.086231 20.655759 1.017920 0.596708 0.025464 -0.019237 731419.000000 0 1 0
7.357638 9.473510 17.644731 21.335856 0.910454 0.597048 0.032080 -0.004960 653085.000000 0 1 0
7.384638 8.003710 18.151031 21.167243 0.825606 0.540395 0.035791 -0.006852 -22407.800000 0 1 0
6.837038 7.789210 19.483131 22.068287 0.850407 0.488886 0.034633 -0.008482 96578.300000 0 1 0
6.932038 6.448410 20.010631 22.137310 0.749269 0.441920 0.045684 -0.012180 -317786.000000 0 1 0
8.310138 5.858510 20.323331 22.724839 0.614063 0.463882 0.051872 -0.006511 -206249.000000 0 1 0
9.143238 5.788710 19.181331 22.023429 0.564413 0.513662 0.050878 -0.008016 2394410.000000 0 1 0
10.514838 5.189610 19.308331 22.589943 0.458475 0.545763 0.061719 -0.011989 2686110.000000 0 1 0
10.588338 3.641810 19.278131 22.293991 0.331271 0.526197 0.071617 -0.012077 -338944.000000 0 1 0
9.982438 3.017410 20.382031 22.895000 0.293540 0.472926 0.072958 -0.014842 201534.000000 0 1 0
10.071838 1.588110 20.289931 22.707825 0.156391 0.465669 0.066054 -0.022393 -570448.000000 0 1 0
9.150938 1.003310 21.302031 23.206095 0.109204 0.407915 0.068938 -0.027324 -481162.000000 0 1 0
9.572838 1.111810 22.656631 24.621094 0.115624 0.402174 0.057911 -0.025118 240512.000000 0 1 0
8.779638 0.244410 23.444561 25.035759 0.027831 0.358446 0.057285 -0.033511 -496925.000000 0 0 1
9.172138 0.289010 24.922401 26.558195 0.031499 0.352805 0.045830 -0.028916 210542.000000 0 0 1
10.478338 -0.186690 25.256521 27.344511 -0.017815 0.393321 0.037447 -0.026103 609209.000000 0 0 1
10.596838 -1.560490 25.080101 27.271589 -0.146209 0.403628 0.042801 -0.024490 -824592.000000 0 0 1
12.010338 -2.115290 25.311991 28.096611 -0.174335 0.448978 0.039763 -0.019951 -286731.000000 0 0 1
12.060338 -3.503090 25.270541 28.219207 -0.282685 0.461224 0.042990 -0.010977 545246.000000 0 0 1
13.382538 -4.058990 25.289081 28.898189 -0.294486 0.505134 0.045205 -0.004985 410423.000000 0 0 1
13.440738 -5.617190 25.125481 29.043004 -0.395861 0.525421 0.055296 -0.006237 -237643.000000 0 0 1
13.225638 -6.247790 23.890281 28.012460 -0.441325 0.549387 0.055443 -0.008775 314438.000000 0 0 1
12.794738 -7.573890 24.211131 28.412110 -0.534482 0.550733 0.067383 -0.007293 -7178.750000 0 0 1
12.771138 -8.593290 23.013031 27.686571 -0.592284 0.589537 0.074404 -0.011694 110651.000000 0 0 1
12.150938 -9.807390 23.327731 28.071573 -0.679074 0.589877 0.066482 -0.003890 -368868.000000 0 0 1
12.175838 -10.665390 22.195831 27.471012 -0.719366 0.630093 0.070920 -0.011458 -8212.480000 0 0 1
11.569738 -12.044290 22.302831 27.862879 -0.805492 0.642751 0.066356 -0.007540 273066.000000 0 0 1
10.151138 -12.024290 22.313931 27.304591 -0.869668 0.614221 0.067930 -0.006216 96550.600000 0 0 1
9.587838 -13.308690 22.629131 27.948622 -0.946497 0.627209 0.063232 -0.003086 -551327.000000 0 0 1
8.086538 -13.257490 22.854231 27.630943 -1.023086 0.596824 0.049812 0.001176 -288520.000000 0 0 1
7.422138 -12.639790 21.725431 26.207762 -1.039839 0.593534 0.054252 -0.005793 -91093.100000 0 0 1
6.032138 -12.501790 21.944931 25.966545 -1.121245 0.564001 0.034208 -0.007437 321495.000000 0 0 1
5.380038 -11.304690 21.200331 24.621025 -1.126604 0.533434 0.026950 0.000019 340119.000000 0 1 0
5.776038 -10.036690 21.831531 24.712619 -1.048592 0.487693 0.025998 0.008841 442738.000000 0 1 0
5.002338 -8.983790 21.216131 23.576601 -1.062733 0.451300 0.021111 0.004266 413034.000000 0 1 0
5.335938 -7.626290 21.846531 23.746652 -0.960287 0.402758 0.020090 -0.004029 153239.000000 0 1 0
4.794038 -6.536690 21.106831 22.609941 -0.938001 0.366688 0.022162 -0.016129 -36302.000000 0 1 0
5.400838 -5.299990 21.452431 22.747873 -0.775974 0.339107 0.043142 -0.025132 33039.200000 0 1 0
-8.474062 -15.113490 -20.711063 27.003249 1.059779 2.444924 0.014588 -0.003015 -101847.000000 0 0 1
-7.916262 -14.465290 -19.572063 25.592528 1.070060 2.441460 0.017253 -0.007654 298416.000000 0 0 1
-6.991262 -13.417390 -19.850563 24.958945 1.090443 2.490346 0.016570 -0.016685 480428.000000 0 1 0
-6.058262 -13.014390 -18.655663 23.539555 1.135124 2.485733 0.001860 -0.011230 -74348.100000 0 1 0
-5.165362 -14.043390 -18.358763 23.684213 1.218340 2.457745 0.011968 -0.004571 -351138.000000 0 1 0
-4.448162 -13.693390 -17.170463 22.408032 1.256709 2.443802 0.024163 -0.003326 151894.000000 0 1 0
-3.519062 -14.781890 -16.620463 22.519500 1.337081 2.400969 0.035904 0.007755 -242459.000000 0 1 0
-2.208662 -14.730390 -17.113263 22.687581 1.421966 2.425385 0.038104 -0.011200 -748467.000000 0 1 0
-1.365962 -15.546390 -16.369763 22.616924 1.483158 2.380067 0.051606 -0.006890 -946417.000000 0 1 0
-0.059962 -15.838690 -17.061663 23.280207 1.567011 2.393346 0.057789 -0.007297 -706035.000000 0 1 0
-0.155462 -16.685090 -18.183763 24.679255 1.561479 2.399127 0.087524 -0.011422 -49662.300000 0 1 0
-0.553162 -18.068690 -18.017563 25.522855 1.540191 2.354543 0.085574 -0.004205 -11310.100000 0 0 1
-0.881762 -18.725390 -19.412063 26.986032 1.523742 2.373644 0.085454 -0.011836 527806.000000 0 0 1
-2.169262 -18.294090 -19.862663 27.090678 1.452770 2.393800 0.077531 -0.016831 328825.000000 0 0 1
-2.501462 -18.873490 -21.118163 28.433128 1.439026 2.407936 0.066549 -0.022186 7932.840000 0 0 1
-3.778662 -18.193190 -21.656263 28.535315 1.366011 2.432462 0.051724 -0.013722 -58450.900000 0 0 1
-3.703462 -16.810890 -21.944863 27.890835 1.353959 2.476424 0.048378 -0.010330 -365314.000000 0 0 1
-4.051262 -15.989390 -20.855963 26.590309 1.322647 2.472435 0.012759 -0.007220 -167255.000000 0 0 1
-3.035162 -14.881390 -20.488563 25.503905 1.369599 2.503696 0.031327 -0.007703 -33400.700000 0 0 1
-2.792862 -14.019590 -21.587063 25.891123 1.374159 2.556685 0.024477 -0.010638 -112557.000000 0 0 1
-1.961462 -12.923190 -21.267863 24.963537 1.420168 2.590508 0.022263 -0.003052 -67575.400000 0 1 0
-1.685962 -11.869490 -22.381063 25.389747 1.429699 2.649826 0.020708 -0.007523 -489911.000000 0 0 1
-2.758662 -11.051390 -22.692963 25.391219 1.326174 2.676395 0.013246 -0.008647 -433757.000000 0 0 1
-2.709962 -10.626090 -24.038663 26.421866 1.321090 2.713603 0.016453 -0.010113 -518425.000000 0 0 1
-3.497362 -9.347990 -24.336963 26.304072 1.212789 2.752402 0.010881 -0.001337 -696288.000000 0 0 1
-4.869362 -9.566790 -24.162563 26.439811 1.099986 2.723513 0.032119 -0.015260 -324707.000000 0 0 1
-5.467362 -8.275690 -24.163063 26.119585 0.986968 2.752079 0.019219 -0.015373 -178884.000000 0 0 1
-6.958762 -8.267590 -23.688763 26.037183 0.871145 2.713611 0.012711 -0.027968 968945.000000 0 0 1
-7.957962 -8.680490 -24.630663 27.301092 0.828796 2.695607 0.035145 -0.023561 478885.000000 0 0 1
-8.208262 -7.684590 -25.601713 27.962049 0.752460 2.727764 0.035724 -0.031112 -454748.000000 0 0 1
-9.388362 -8.115290 -26.520313 29.280134 0.712794 2.703929 0.029954 -0.034176 246824.000000 0 0 1
-9.957562 -7.101490 -27.310223 29.923778 0.619514 2.720541 0.044340 -0.040564 152649.000000 0 0 1
-10.725462 -7.679790 -28.376523 31.292839 0.621406 2.706440 0.050852 -0.039302 -51484.600000 0 0 1
-11.613262 -6.644590 -29.102293 32.030640 0.519694 2.710660 0.053942 -0.049299 42746.200000 0 0 1
-10.899762 -5.643190 -29.813983 32.241650 0.477735 2.751054 0.024340 -0.038458 98617.900000 0 0 1
-11.666062 -5.225490 -30.933323 33.470483 0.421125 2.749724 0.055034 -0.041541 8444.420000 0 0 1
-11.045862 -4.069490 -31.721623 33.835384 0.352987 2.786252 0.034410 -0.031428 22438.200000 0 0 1
-9.867262 -4.386590 -32.435323 34.185599 0.418321 2.820214 0.032373 -0.022736 55110.400000 0 0 1
-9.389162 -3.370590 -33.286163 34.748898 0.344659 2.850412 0.033003 -0.021823 -221268.000000 0 0 1
-8.297762 -3.789990 34.140013 35.337761 0.428452 0.261103 0.027706 -0.017371 -338501.000000 0 0 1
-7.120162 -4.177490 -33.622553 34.621152 0.530592 2.900830 0.023018 -0.018584 -594248.000000 0 0 1
-6.106262 -4.409590 33.842628 34.670656 0.625433 0.218990 0.019267 -0.017430 1730260.000000 0 0 1
-4.612062 -3.953890 34.202117 34.737432 0.708713 0.175784 0.038131 -0.023360 1729550.000000 0 0 1
-4.462062 -2.609090 33.948506 34.339750 0.529114 0.151096 0.061132 -0.032504 -478880.000000 0 0 1
-3.126762 -2.192790 33.879562 34.094130 0.611596 0.112250 0.050857 -0.033717 -214972.000000 0 0 1
-2.846262 -0.773290 -34.019063 34.146681 0.265283 3.055109 0.073505 -0.041454 -89771.200000 0 0 1
-2.988262 -0.638390 -32.607353 32.750217 0.210469 3.048154 0.060677 -0.036699 44194.300000 0 0 1
-3.396762 0.578210 -32.151083 32.335189 -0.168608 3.034830 0.081921 -0.038167 -900685.000000 0 0 1
-3.833162 0.518710 -30.684013 30.926863 -0.134505 3.016192 0.102047 -0.038495 761305.000000 0 0 1
-5.000462 -0.279190 -30.419583 30.829103 0.055775 2.978417 0.070742 -0.036904 656102.000000 0 0 1
-6.229962 0.374310 -30.720423 31.347997 -0.060010 2.941159 0.068797 -0.037998 -87354.400000 0 0 1
-7.368862 -0.670790 -30.831923 31.707374 0.090780 2.906058 0.052229 -0.045304 -190628.000000 0 0 1
-7.673762 -1.226290 -29.542273 30.547280 0.158463 2.884369 0.032628 -0.034504 496733.000000 0 0 1
-8.817962 -2.089990 -29.656483 31.010184 0.232721 2.845030 0.035022 -0.033473 468983.000000 0 0 1
-9.140662 -2.783590 -28.314193 29.882998 0.295606 2.816126 0.040432 -0.035024 186854.000000 0 0 1
-10.086362 -2.115090 -27.482433 29.351191 0.206703 2.782827 0.040098 -0.035145 319079.000000 0 0 1
-10.143362 -2.669290 -26.223563 28.243374 0.257322 2.761110 0.031161 -0.025791 -288006.000000 0 0 1
-11.079662 -1.988890 -25.237143 27.633819 0.177617 2.722037 0.033878 -0.020730 -191472.000000 0 0 1
-10.592962 -0.757090 -24.715263 26.900339 0.071350 2.735753 0.032410 -0.016499 227849.000000 0 0 1
-11.398162 -0.280790 -23.644863 26.250266 0.024630 2.692284 0.032903 -0.017710 317503.000000 0 0 1
-10.718362 0.948410 -22.950163 25.347441 -0.088255 2.703172 0.031583 -0.021576 273047.000000 0 0 1
-10.702362 2.076510 -23.784563 26.164057 -0.191642 2.711806 0.026969 -0.021387 -153067.000000 0 0 1
-9.851662 3.088310 -23.334163 25.516192 -0.303778 2.725028 0.034229 -0.018995 -770381.000000 0 0 1
-9.725662 4.395410 -24.173863 26.425060 -0.424466 2.725829 0.045805 -0.028986 297788.000000 0 0 1
-10.956062 5.113710 -24.358063 27.193759 -0.436693 2.680850 0.041845 -0.029157 289604.000000 0 0 1
-11.717362 4.565710 -25.401013 28.343495 -0.371555 2.681891 0.031561 -0.030051 -369955.000000 0 0 1
-13.149462 5.145710 -25.473503 29.125350 -0.373005 2.635440 0.023026 -0.015352 114144.000000 0 0 1
-13.251762 6.409110 -26.003473 29.880872 -0.450476 2.626482 0.027678 -0.013219 -809139.000000 0 0 1
-14.540662 6.639510 -26.478033 30.928954 -0.428343 2.598457 0.028674 -0.023322 -608059.000000 0 0 1
-14.653462 8.107510 -26.925543 31.708682 -0.505360 2.585177 0.048144 -0.009289 -294005.000000 0 0 1
-14.525562 8.992410 -25.801903 30.945009 -0.554327 2.556749 0.067718 -0.014090 -23541.500000 0 0 1
-14.933462 10.303610 -25.957883 31.669928 -0.603961 2.531576 0.060817 -0.010702 -367843.000000 0 0 1
-14.579162 11.196610 -24.741363 30.822899 -0.654914 2.502595 0.057868 -0.010531 538333.000000 0 0 1
-15.397462 11.020110 -23.542963 30.212510 -0.621192 2.464257 0.067112 -0.008450 423206.000000 0 0 1
-14.823562 11.829610 -22.540263 29.457446 -0.673537 2.442118 0.049866 -0.003925 45226.400000 0 0 1
-15.532262 11.835910 -21.156163 28.791026 -0.651150 2.396195 0.053676 -0.007443 347264.000000 0 0 1
-16.795362 12.482510 -21.237563 29.814951 -0.639142 2.363584 0.043818 -0.011831 150381.000000 0 0 1
-17.220462 12.965810 -19.934363 29.360439 -0.645374 2.317132 0.040769 -0.001084 662202.000000 0 0 1
-18.771262 13.174310 -19.929563 30.382728 -0.611956 2.286237 0.057344 -0.012240 551751.000000 0 0 1
-19.084062 14.339710 -20.685563 31.586725 -0.644395 2.284822 0.065076 -0.015856 -423285.000000 0 0 1
-20.466162 14.547710 -20.614463 32.487778 -0.617949 2.258196 0.048207 -0.018786 -381536.000000 0 0 1
-20.823362 15.911710 -21.228563 33.726055 -0.652482 2.251630 0.040536 -0.021951 -125247.000000 0 0 1
-20.791762 15.895910 -22.636863 34.603538 -0.652735 2.283891 0.047401 -0.022564 139790.000000 0 0 1
-21.149862 17.176510 -23.058463 35.693723 -0.682096 2.273141 0.030322 -0.003362 47958.700000 0 0 1
-21.341962 17.193210 -24.600063 36.827285 -0.678150 2.302294 0.032838 -0.016176 -593069.000000 0 0 1
-20.121262 17.325410 -25.233313 36.629975 -0.710874 2.330726 0.035017 -0.014240 -601823.000000 0 0 1
-20.037962 16.723210 -26.524413 37.211962 -0.695471 2.364268 0.029088 -0.013644 520500.000000 0 0 1
-18.860162 17.332610 -27.387243 37.499149 -0.743217 2.389620 0.007192 -0.004716 687380.000000 0 0 1
-19.191462 18.643710 -27.765863 38.559607 -0.770922 2.374709 -0.001951 -0.014830 507024.000000 0 0 1
-18.422262 19.653410 -27.096533 38.208093 -0.817721 2.359135 -0.019009 -0.022039 -1475190.000000 0 0 1
-19.028862 21.017610 -27.229873 39.310348 -0.835018 2.336008 0.030414 -0.020053 58875.100000 0 0 1
-20.123462 21.295410 -26.380973 39.425930 -0.813686 2.303830 0.055071 -0.019278 24570.700000 0 0 1
-21.333362 20.676910 -26.730083 39.964287 -0.769773 2.303456 0.079298 -0.028616 -1245200.000000 0 0 1
-22.570362 21.156810 -25.966263 40.389091 -0.753083 2.269079 0.067075 -0.007846 -85561.500000 0 0 1
-22.614362 20.656810 -24.615663 39.294325 -0.740190 2.247778 0.042420 -0.009840 310075.000000 0 0 1
-23.720762 21.234510 -23.919763 39.821276 -0.730149 2.215145 0.029914 -0.018236 -81634.700000 0 0 1
-23.704662 20.981710 -22.408063 38.784848 -0.724539 2.186769 0.029776 0.003043 -101522.000000 0 0 1
-22.655562 21.649010 -21.714163 38.124257 -0.762683 2.176770 0.025015 0.001451 401618.000000 0 0 1
-21.551762 20.802510 -21.400163 36.812903 -0.767710 2.191149 0.019482 0.002766 -280973.000000 0 0 1
-21.695062 19.906810 -20.156363 35.682429 -0.742440 2.171087 0.047532 -0.012507 -611988.000000 0 0 1
-22.622162 18.813510 -20.268163 35.728263 -0.693738 2.174003 0.076819 -0.020621 498311.000000 0 0 1
-23.132462 18.393610 -19.006263 35.137924 -0.671772 2.142309 0.053984 -0.010009 620522.000000 0 0 1
-24.163162 19.371510 -18.309363 35.977028 -0.675774 2.104724 0.015098 -0.002867 -605547.000000 0 0 1
-25.438022 19.403710 -18.864863 37.141351 -0.651633 2.103566 0.015248 -0.000432 -993968.000000 0 0 1
-26.179022 20.418610 -18.286263 37.903143 -0.662402 2.074243 0.005974 -0.000085 -17181.200000 0 0 1
-27.694202 20.203110 -18.659463 39.029604 -0.630256 2.069269 -0.015940 0.016452 567501.000000 0 0 1
-28.295102 18.960210 -18.283363 38.657259 -0.590368 2.063444 -0.004602 0.008457 53028.200000 0 0 1
-28.348052 18.679410 -16.879463 37.913700 -0.582628 2.032202 -0.005720 0.000513 -804981.000000 0 0 1
-29.267642 17.501910 -16.526463 37.895062 -0.538944 2.022069 0.000429 -0.006159 -165350.000000 0 0 1
-28.769322 16.252010 -16.997963 37.158208 -0.514217 2.045920 0.016134 -0.012651 -192794.000000 0 0 1
-29.577982 15.197710 -16.641063 37.185378 -0.474641 2.034782 0.025129 -0.004770 -232151.000000 0 0 1
-28.983142 14.374510 -15.465763 35.858595 -0.460411 2.016728 0.057881 -0.017170 -55644.900000 0 0 1
-28.686952 14.985110 -14.201863 35.343849 -0.481380 1.984300 0.074258 -0.020474 558529.000000 0 0 1
-29.842552 15.478210 -13.503563 36.228429 -0.478466 1.952750 0.041035 -0.014158 474034.000000 0 0 1
-29.563852 16.153910 -12.161863 35.817329 -0.500081 1.917237 0.067008 -0.009513 72578.900000 0 0 1
-28.811092 17.387610 -12.221663 35.801914 -0.542992 1.919169 0.058183 -0.002895 191145.000000 0 0 1
-29.537802 18.577410 -12.419363 37.038392 -0.561425 1.912731 0.014126 0.003734 -444621.000000 0 0 1
-28.571662 19.760610 -12.612563 36.958061 -0.605077 1.919061 0.045994 -0.005539 314506.000000 0 0 1
-27.987752 20.261510 -11.395263 36.382620 -0.626614 1.889364 0.021108 -0.010494 1039540.000000 0 0 1
-26.804562 21.061310 -11.697663 36.040236 -0.665983 1.901356 0.018298 -0.008741 1229040.000000 0 0 1
-26.092322 21.463210 -10.348863 35.335218 -0.688363 1.868030 0.022101 0.003897 -102934.000000 0 0 1
-26.623272 22.550710 -9.638763 36.197222 -0.702767 1.840333 0.036518 -0.004326 -107318.000000 0 0 1
-26.196962 23.853610 -9.924563 36.793647 -0.738613 1.843915 0.027260 -0.004698 -15456.500000 0 0 1
-26.903402 24.739610 -8.854963 37.606538 -0.743524 1.808492 0.050456 0.003580 283061.000000 0 0 1
-26.349932 24.607910 -7.553363 36.836414 -0.751226 1.777313 0.035137 -0.003528 169589.000000 0 0 1
-27.136922 25.255710 -6.552963 37.645780 -0.749508 1.745757 0.065261 -0.013268 171427.000000 0 0 1
-26.941712 24.481210 -5.254263 36.780331 -0.737586 1.714142 0.072835 -0.016334 12023.500000 0 0 1
-27.382012 23.131110 -5.414163 36.251013 -0.701442 1.720709 0.070538 -0.015070 -9469.240000 0 0 1
-27.161182 22.361010 -4.240363 35.436214 -0.688770 1.690746 0.068909 -0.017034 12330.100000 0 0 1
-27.276902 20.817710 -4.344063 34.587242 -0.651895 1.696726 0.068344 -0.010114 270200.000000 0 0 1
-26.267292 20.179710 -5.124363 33.517912 -0.655076 1.724283 0.053806 -0.018287 164829.000000 0 0 1
-26.351812 20.311510 -6.536763 33.907296 -0.656670 1.764794 0.044918 -0.015290 -454711.000000 0 0 1
-27.411422 19.572510 -7.403263 34.485903 -0.620079 1.787155 0.042359 -0.008028 130592.000000 0 0 1
-27.037232 18.197410 -7.643163 33.474999 -0.592409 1.801153 0.044092 -0.009359 559861.000000 0 0 1
-27.665232 17.744310 -8.844063 34.035908 -0.570301 1.833658 0.034227 -0.004057 -7427.790000 0 0 1
-27.525662 16.178310 -8.977363 33.166140 -0.531366 1.844894 0.068219 -0.008703 17409.200000 0 0 1
-28.243542 15.289610 -8.132563 33.130174 -0.496177 1.818804 0.049585 -0.001992 61864.000000 0 0 1
-28.040072 13.977610 -8.552063 32.477022 -0.462436 1.837265 0.063018 -0.010292 51215.100000 0 0 1
-28.580962 12.868010 -7.607663 32.254203 -0.423045 1.808906 0.057210 -0.015402 274944.000000 0 0 1
-29.956162 12.553110 -7.744263 33.390505 -0.396820 1.804858 0.071341 -0.013950 26675.900000 0 0 1
-30.342502 11.514110 -6.876063 33.174122 -0.362685 1.779582 0.078661 -0.023232 74363.000000 0 0 1
-30.935382 10.216710 -7.503063 33.431646 -0.318982 1.797154 0.067253 -0.018768 -62540.300000 0 0 1
-29.934102 9.507510 -8.210463 32.463131 -0.307538 1.826490 0.076379 -0.015521 167794.000000 0 0 1
-30.327472 8.218310 -8.510963 32.553535 -0.264630 1.835315 0.059080 -0.016123 -417447.000000 0 0 1
-29.160952 7.340710 -8.995763 31.387432 -0.246607 1.861477 0.103969 -0.018646 -154129.000000 0 0 1
-28.824272 7.556610 -10.334563 31.539566 -0.256391 1.904632 0.104619 -0.026711 17301.600000 0 0 1
-27.655572 6.828110 -10.604263 30.395791 -0.242057 1.927164 0.115468 -0.027920 -468055.000000 0 0 1
-26.985262 7.000710 -11.976063 30.342056 -0.253831 1.976540 0.091428 -0.020564 -369932.000000 0 0 1
-26.458982 8.290310 -12.069763 30.240472 -0.303638 1.981360 0.121517 -0.030096 -98964.800000 0 0 1
-25.690412 8.365410 -13.210463 30.074801 -0.314796 2.025564 0.107477 -0.016222 -488307.000000 0 0 1
-30.964802 25.649110 33.330241 52.226438 -0.691779 0.878655 0.026215 0.016585 -172967.000000 0 0 1
-30.801402 27.032410 33.011143 52.623313 -0.720321 0.892702 0.010182 0.002612 92752.400000 0 0 1
-31.872412 27.516410 32.236811 53.030326 -0.712182 0.917391 0.037495 -0.011285 -264777.000000 0 0 1
-31.881762 29.061710 32.093201 53.768051 -0.739158 0.931187 0.048225 -0.018085 31514.900000 0 0 1
-32.900792 29.516210 31.222861 54.115948 -0.731226 0.955792 0.073440 -0.021380 61879.600000 0 0 1
-33.036282 30.937010 31.296641 55.027032 -0.752595 0.965811 0.082799 -0.027336 -35632.500000 0 0 1
-32.417172 31.515610 30.026471 54.274263 -0.771297 0.984553 0.080308 -0.027797 374729.000000 0 0 1
-31.022212 31.355710 29.826101 53.246169 -0.790745 0.976224 0.071065 -0.025078 139964.000000 0 0 1
-30.540212 32.121910 28.709061 52.808445 -0.810634 0.996022 0.051427 -0.008567 -235122.000000 0 0 1
-29.128752 31.763310 28.249261 51.530698 -0.828637 0.990583 0.064791 -0.011147 -527923.000000 0 0 1
-28.858612 30.501510 27.645791 50.273764 -0.813068 0.988546 0.097189 -0.012191 -171823.000000 0 0 1
-27.698622 30.506710 26.853271 49.183037 -0.833605 0.993230 0.067904 -0.001397 -586672.000000 0 0 1
-27.805172 31.076810 25.398481 48.826003 -0.840904 1.023731 0.047851 0.000259 -381933.000000 0 0 1
-27.916252 32.527010 25.460591 49.855443 -0.861533 1.034811 0.031318 0.000080 168638.000000 0 0 1
-28.913172 33.104310 24.622051 50.379681 -0.852876 1.060163 0.030122 -0.003560 162809.000000 0 0 1
-29.273112 -33.873822 25.097031 51.324574 0.858127 1.059869 0.032484 0.004767 -117491.000000 0 0 1
-29.836762 -33.880322 26.381791 52.288694 0.848774 1.041946 0.041589 -0.015262 -30813.400000 0 0 1
-29.891532 -32.557022 26.927861 51.754933 0.828055 1.023599 0.016728 -0.016341 -103467.000000 0 0 1
-30.535282 -32.531522 28.336951 52.855332 0.817040 1.004959 0.037684 -0.025480 -822293.000000 0 0 1
-31.882692 -32.870422 28.338731 53.852153 0.800651 1.016633 0.030182 -0.029108 -818466.000000 0 0 1
-32.220302 -32.987422 29.728161 54.864209 0.797162 0.998160 0.050359 -0.029685 158994.000000 0 0 1
-33.659462 -33.442822 30.069701 56.174448 0.782170 1.005944 0.055957 -0.037583 61844.300000 0 0 1
-33.808512 -33.558422 31.471621 57.093311 0.781686 0.986957 0.051446 -0.044285 106283.000000 0 0 1
-35.175300 -33.566922 31.862141 58.131197 0.762005 0.990697 0.044897 -0.042619 112164.000000 0 0 1
-35.465377 -34.198622 33.218046 59.420344 0.767216 0.977575 0.065480 -0.032671 -199002.000000 0 0 1
-35.473494 32.789710 33.180332 58.604337 -0.746103 0.968938 0.052539 -0.024139 -180469.000000 0 0 1
-36.222452 32.219510 -34.199840 59.327834 -0.726978 2.185180 0.045892 -0.017245 -231151.000000 0 0 1
-35.709037 30.836910 -33.737113 58.002096 -0.712314 2.191556 0.041334 -0.011359 314475.000000 0 0 1
-34.534182 30.925810 -32.954513 56.877195 -0.730331 2.188786 0.037396 -0.010577 -336562.000000 0 0 1
-33.955682 29.645410 -32.829443 55.763886 -0.717731 2.200274 0.032284 -0.004566 342388.000000 0 0 1
-33.062422 29.508010 -31.549723 54.398818 -0.728653 2.189489 0.026434 -0.004257 352799.000000 0 0 1
-33.732432 29.615010 -30.296863 54.155569 -0.720492 2.164508 0.041819 -0.008121 -288215.000000 0 0 1
-34.252804 30.904510 -29.997753 55.029160 -0.734055 2.147334 0.028222 -0.001423 134500.000000 0 0 1
-35.261607 30.930710 -28.825423 55.054471 -0.720062 2.121844 0.025892 0.004997 227173.000000 0 0 1
-34.760254 30.652610 -27.521113 53.900551 -0.722685 2.106668 0.010170 -0.005458 -444099.000000 0 0 1
-35.822784 30.693610 -26.623043 54.167850 -0.708439 2.084598 0.023639 -0.003623 -142853.000000 0 0 1
-35.341127 30.496210 -25.144443 53.021289 -0.711941 2.064889 0.037203 -0.014435 285424.000000 0 0 1
-34.794420 31.754710 -24.619563 53.152010 -0.739754 2.052389 0.032698 -0.011189 -86652.800000 0 0 1
-34.572543 31.715310 -23.199163 52.338540 -0.742321 2.030020 0.026518 -0.016957 -598331.000000 0 0 1
-35.695110 31.333110 -22.217763 52.435996 -0.720413 2.008336 0.018625 -0.010655 320218.000000 0 0 1
36.133981 32.452510 -22.123363 53.369216 0.731773 1.998227 0.025072 -0.014744 477718.000000 0 0 1
-36.365222 33.612610 -21.364263 53.932074 -0.746083 1.978098 0.034362 -0.018484 -370035.000000 0 0 1
-36.310642 33.345210 -19.834463 53.139172 -0.742851 1.953311 0.034909 -0.013676 925751.000000 0 0 1
-35.179143 32.479410 -19.528963 51.709424 -0.745517 1.958072 0.038289 -0.013075 768089.000000 0 0 1
-35.061616 32.203110 -18.170463 50.956088 -0.742927 1.935412 0.060011 -0.004842 397123.000000 0 0 1
-33.810572 31.301910 -17.902663 49.431464 -0.746889 1.941393 0.065067 -0.002902 483543.000000 0 0 1
-33.618192 31.176110 -16.528863 48.737418 -0.747726 1.916800 0.063676 0.006096 251863.000000 0 0 1
-32.445442 30.382610 -16.302263 47.345258 -0.752577 1.922318 0.061283 0.003255 353322.000000 0 0 1
-32.108992 30.323510 -14.846163 46.593038 -0.756807 1.895085 0.080149 -0.003946 1019100.000000 0 0 1
-33.164392 29.619410 -14.094663 46.645963 -0.728995 1.877757 0.068888 0.002870 1228410.000000 0 0 1
-32.761192 29.369910 -12.732363 45.803934 -0.730870 1.852482 0.085265 0.003958 765055.000000 0 0 1
-33.893892 28.648110 -11.890463 45.944458 -0.701718 1.832577 0.080194 0.000020 565857.000000 0 0 1
-33.374702 28.125110 -10.683363 44.933582 -0.700245 1.810854 0.083877 0.004631 519748.000000 0 0 1
-34.107065 27.001210 -10.115963 44.661952 -0.669635 1.799280 0.086155 -0.004332 266299.000000 0 0 1
-33.281642 26.401010 -8.989463 43.422246 -0.670618 1.779329 0.082911 0.000029 12771.500000 0 0 1
-32.868582 27.344710 -8.016163 43.500985 -0.693916 1.756131 0.084557 -0.008955 -58774.200000 0 0 1
-31.860022 26.701610 -7.297163 42.205279 -0.697540 1.744566 0.087795 -0.019912 -458675.000000 0 0 1
-31.358602 27.550110 -6.112263 42.186849 -0.720837 1.716194 0.091348 -0.024470 -212561.000000 0 0 1
-30.345252 26.917010 -5.374263 40.917508 -0.725600 1.702521 0.103631 -0.027797 164728.000000 0 0 1
-30.189372 27.496510 -4.071363 41.036962 -0.738751 1.670172 0.103716 -0.031221 -527547.000000 0 0 1
-29.361982 26.651810 -3.117563 39.776427 -0.737052 1.649254 0.092308 -0.027270 302354.000000 0 0 1
-30.067102 25.389810 -2.886663 39.458914 -0.701256 1.644018 0.077746 -0.021436 645119.000000 0 0 1
-29.311402 24.512210 -2.055563 38.265285 -0.696468 1.624541 0.053832 -0.010295 460723.000000 0 0 1
-30.103002 23.223110 -1.644963 38.055347 -0.657091 1.614035 0.059578 -0.016633 237456.000000 0 0 1
-30.255262 22.263210 -2.715963 37.661756 -0.634381 1.642974 0.054496 -0.008929 340989.000000 0 0 1
-31.322602 21.362710 -2.419263 37.991099 -0.598558 1.634519 0.068484 -0.008283 292734.000000 0 0 1
-31.724712 20.441210 -3.556563 37.907117 -0.572380 1.664758 0.081821 -0.003136 91691.200000 0 0 1
-30.823912 19.363510 -3.774463 36.596525 -0.560895 1.674117 0.063160 -0.005479 288141.000000 0 0 1
-31.155352 18.767010 -5.017863 36.715604 -0.542159 1.707894 0.069877 0.001868 87074.400000 0 0 1
-30.236462 17.564010 -5.373363 35.378116 -0.526248 1.723270 0.062468 0.004836 83653.800000 0 0 1
-30.098352 16.509110 -4.439963 34.614661 -0.501695 1.699419 0.058810 -0.009557 277636.000000 0 0 1
-29.297732 15.431510 -4.939263 33.479619 -0.484789 1.718867 0.060927 -0.011969 132309.000000 0 0 1
-29.038242 14.269810 -3.969963 32.597662 -0.456756 1.692886 0.063598 -0.024195 -340860.000000 0 0 1
-30.095112 13.372310 -3.834463 33.154751 -0.418133 1.686709 0.076414 -0.020727 82258.200000 0 0 1
-29.732072 12.257810 -3.002763 32.299638 -0.391044 1.663897 0.074623 -0.026538 253795.000000 0 0 1
-31.015632 11.474710 -2.642163 33.175585 -0.354349 1.650523 0.092127 -0.022556 214870.000000 0 0 1
-31.727012 10.943410 -3.777463 33.773225 -0.332146 1.682879 0.083835 -0.015954 1054560.000000 0 0 1
-32.983532 10.381010 -3.361163 34.741562 -0.304918 1.667695 0.093446 -0.015060 412949.000000 0 0 1
-33.886632 10.102110 -4.562463 35.653506 -0.289726 1.699115 0.064696 -0.018889 203876.000000 0 0 1
-33.294072 9.129210 -5.449063 34.950393 -0.267622 1.727343 0.062310 -0.019197 1343540.000000 0 0 1
-34.374133 8.716810 -6.303863 36.018085 -0.248351 1.746722 0.061760 -0.015008 717239.000000 0 0 1
-33.847712 7.781610 -7.413563 35.513124 -0.225974 1.781099 0.072718 -0.020510 -389527.000000 0 0 1
-33.595702 6.544110 -6.877963 34.911358 -0.192381 1.769106 0.061886 -0.014383 350130.000000 0 0 1
-33.210402 5.564610 -7.838063 34.573558 -0.166014 1.799492 0.068491 -0.015986 -687139.000000 0 0 1
-32.236432 4.515510 -7.374263 33.375996 -0.139169 1.793580 0.086660 -0.023708 -761730.000000 0 0 1
-30.943272 4.935810 -7.087363 32.125987 -0.158179 1.793238 0.089770 -0.026135 482459.000000 0 0 1
-30.028622 3.941710 -6.576963 30.992122 -0.130519 1.784636 0.083882 -0.026806 155737.000000 0 0 1
-28.650172 4.342410 -6.075463 29.607434 -0.150422 1.777465 0.126985 -0.023366 -381119.000000 0 0 1
-27.783922 4.879810 -7.046563 29.075985 -0.173861 1.815584 0.128100 -0.020080 167401.000000 0 0 1
-26.435262 4.647010 -6.658563 27.654190 -0.174010 1.813965 0.158157 -0.029887 901081.000000 0 0 1
-25.447622 5.024110 -7.863263 27.104502 -0.194923 1.865137 0.150721 -0.029435 374082.000000 0 0 1
-25.626462 4.169910 -9.008763 27.482022 -0.161305 1.904776 0.137650 -0.039525 249590.000000 0 0 1
-24.660762 4.436310 -9.999163 26.978089 -0.177990 1.950494 0.135827 -0.034651 -235173.000000 0 0 1
-24.901262 3.652910 -11.319963 27.596343 -0.145657 1.993467 0.113740 -0.043670 212110.000000 0 0 1
-25.948312 4.177610 -12.140463 28.950961 -0.159628 2.003521 0.102877 -0.019010 357744.000000 0 0 1
-26.220732 3.355910 -13.245563 29.567446 -0.127295 2.035299 0.100510 -0.024023 -199834.000000 0 0 1
-27.069182 4.058010 -14.287863 30.876384 -0.148804 2.051884 0.087288 -0.010920 -578229.000000 0 0 1
-26.346742 4.883610 -15.185063 30.799133 -0.183279 2.086372 0.073959 -0.005121 237406.000000 0 0 1
-27.076502 5.841010 -15.975663 31.976181 -0.212467 2.093946 0.108293 -0.020220 -154836.000000 0 0 1
-27.928362 5.225010 -17.097463 33.160479 -0.184948 2.112501 0.069769 -0.011222 -1290650.000000 0 0 1
-29.122192 4.727310 -16.673563 33.888895 -0.160923 2.085190 0.079355 -0.022909 -1117810.000000 0 0 1
-29.881522 4.226810 -17.762563 35.018280 -0.140520 2.102772 0.077763 -0.015162 -53020.500000 0 0 1
-31.253192 3.635010 -17.405763 35.957418 -0.115788 2.076092 0.073055 -0.018054 -555357.000000 0 0 1
-31.292762 2.472710 -16.599663 35.509154 -0.078855 2.057229 0.075586 -0.028387 -2928.000000 0 0 1
-30.699972 1.274110 -16.982063 35.107009 -0.041478 2.075700 0.090129 -0.029053 -510288.000000 0 0 1
-31.192342 0.059610 -16.222963 35.158929 -0.001911 2.050389 0.090317 -0.021219 -577386.000000 0 0 1
-30.691962 -1.179690 -16.686063 34.954440 0.038418 2.068451 0.098883 -0.008104 307459.000000 0 0 1
-31.167442 -2.314990 -15.982263 35.102726 0.074140 2.043505 0.102159 -0.013811 -155767.000000 0 0 1
-30.851762 -3.626690 -16.733463 35.284457 0.117015 2.064902 0.102165 -0.013154 63849.400000 0 0 1
-31.679632 -3.799090 -17.871263 36.570674 0.119352 2.081370 0.107057 -0.011161 249761.000000 0 0 1
-31.436552 -5.000390 -18.533163 36.833936 0.157741 2.098042 0.102525 -0.011936 39874.500000 0 0 1
-32.530522 -5.243490 -19.598863 38.338551 0.159812 2.107383 0.092352 -0.005367 34140.200000 0 0 1
-32.569012 -6.457590 -20.316563 38.925618 0.195735 2.119912 0.099176 -0.008272 -463353.000000 0 0 1
-33.597262 -6.481090 -21.248263 40.277403 0.190565 2.126508 0.100445 -0.003669 -464021.000000 0 0 1
-33.327582 -7.544690 -22.298363 40.802782 0.222627 2.148965 0.099712 -0.006170 647597.000000 0 0 1
-32.043562 -7.364390 -22.910663 40.073964 0.225902 2.179384 0.087696 -0.009708 514150.000000 0 0 1
-31.809782 -8.248390 -24.017363 40.702972 0.253716 2.201935 0.076011 -0.002836 1389910.000000 0 0 1
-30.304732 -8.175690 -24.551963 39.849938 0.263509 2.234591 0.070054 -0.003319 1223670.000000 0 0 1
-29.932632 -7.029990 -25.280783 39.805794 0.230680 2.258938 0.069333 -0.005079 -80985.800000 0 0 1
-30.013662 -7.180490 -26.701623 40.808774 0.234827 2.284067 0.052472 -0.004843 -701713.000000 0 0 1
-31.360542 -7.061390 -27.417793 42.250233 0.221474 2.276984 0.048972 -0.006057 -781704.000000 0 0 1
-32.172892 -8.146590 -27.068283 42.827022 0.248000 2.254976 0.049022 -0.005227 -682703.000000 0 0 1
-33.226572 -8.225590 -27.993993 44.219103 0.242681 2.256315 0.041191 -0.000588 323241.000000 0 0 1
-34.270486 -9.376390 -27.694663 45.048610 0.267064 2.232894 0.048669 -0.005303 -233099.000000 0 0 1
-33.834962 -10.682090 -27.970643 45.180400 0.305808 2.238377 0.044022 -0.001616 587643.000000 0 0 1
-34.744154 -11.763690 -27.545203 45.872419 0.326465 2.214890 0.037288 0.000693 815844.000000 0 0 1
-36.081682 -11.894690 -28.331173 47.392265 0.318441 2.211552 0.029951 0.003890 -615741.000000 0 0 1
35.909141 -10.831090 -28.131593 46.884597 -0.292947 2.214320 0.022059 -0.003969 -842887.000000 0 0 1
35.060091 -10.594690 -29.255033 46.875520 -0.293462 2.244776 0.027809 -0.012674 -123158.000000 0 0 1
34.010011 -9.496190 -29.014133 45.702061 -0.272283 2.258616 0.039916 -0.010997 -454462.000000 0 0 1
32.972981 -9.997090 -28.222343 44.538298 -0.294381 2.257077 0.032014 -0.011852 -316021.000000 0 0 1
32.194481 -8.943690 -27.666033 43.380682 -0.270969 2.262370 0.020470 -0.007040 163209.000000 0 0 1
31.084151 -9.427290 -26.697643 42.045956 -0.294466 2.258757 0.013468 -0.004652 105145.000000 0 0 1
31.426931 -9.882290 -25.400013 41.598946 -0.304663 2.227605 -0.003293 0.014188 757309.000000 0 0 1
30.208631 -10.140390 -24.684663 40.307834 -0.323860 2.229894 -0.008441 0.018103 837516.000000 0 0 1
30.586161 -10.362690 -23.180763 39.752313 -0.326665 2.193372 -0.021572 0.019968 -168472.000000 0 0 1
31.376371 -11.420390 -22.816563 40.441285 -0.349075 2.170248 -0.026059 0.016659 -184335.000000 0 0 1
31.422301 -11.494490 -21.409063 39.721937 -0.350687 2.140014 -0.023315 0.016064 50954.600000 0 0 1
32.330251 -12.636790 -20.860363 40.498004 -0.372607 2.111916 -0.013004 0.008357 203852.000000 0 0 1
33.696221 -12.528590 -21.209963 41.740429 -0.355971 2.103820 -0.008200 0.012223 282808.000000 0 0 1
34.452691 -13.538790 -20.553763 42.340807 -0.374429 2.077658 0.016754 0.008093 1583110.000000 0 0 1
35.980851 -13.617690 -21.020763 43.839886 -0.361810 2.070869 0.035543 -0.003301 1090030.000000 0 0 1
-35.964186 -12.436890 -20.874763 43.403394 0.332940 2.072532 0.047866 -0.002175 768948.000000 0 0 1
-36.088002 -11.311290 -21.705663 43.605332 0.303738 2.091828 0.045343 0.009471 -795563.000000 0 0 1
-35.557502 -11.497890 -23.181563 43.976383 0.312748 2.126024 0.039138 0.004681 123663.000000 0 0 1
-36.188902 -12.411190 -24.092163 45.211797 0.330386 2.132789 0.040972 0.006130 1000900.000000 0 0 1
35.219371 -12.086190 -24.323063 44.475741 -0.330576 2.149434 0.043024 0.002723 612503.000000 0 0 1
34.453821 -13.000290 -25.328273 44.694460 -0.360808 2.173289 0.042706 -0.010734 -113685.000000 0 0 1
34.259381 -14.397890 -25.046963 44.814672 -0.397850 2.163856 0.052483 -0.019922 342294.000000 0 0 1
33.363921 -14.653490 -23.983663 43.624444 -0.413838 2.152892 0.037168 -0.014406 -444697.000000 0 0 1
-29.378092 8.539210 -18.958563 35.991909 -0.282872 2.125563 0.049442 -0.001808 114458.000000 0 0 1
-28.348302 7.727910 -19.469463 35.247791 -0.266139 2.155989 0.053975 -0.007150 -410774.000000 0 0 1
-27.619072 8.388910 -20.455763 35.378315 -0.294881 2.187318 0.074493 -0.024033 -116273.000000 0 0 1
-26.350142 7.567910 -20.803863 34.415170 -0.279678 2.219930 0.082512 -0.016417 142377.000000 0 0 1
-25.248592 7.832910 -19.953963 33.121089 -0.300817 2.217370 0.083711 -0.014380 591998.000000 0 0 1
-24.183762 6.883310 -20.167563 32.232978 -0.277293 2.246801 0.087944 -0.013488 1664710.000000 0 0 1
-22.733662 7.274710 -19.669963 30.929730 -0.309700 2.260044 0.076546 -0.015169 1238120.000000 0 0 1
-22.160062 8.296110 -20.462063 31.282420 -0.358220 2.283798 0.071173 -0.018555 -1484740.000000 0 0 1
-20.930062 8.651910 -20.012763 30.223066 -0.391981 2.294505 0.061465 -0.009830 -1157610.000000 0 0 1
-20.168062 9.719610 -20.840263 30.586567 -0.449088 2.320406 0.056813 -0.010144 -39864.900000 0 0 1
-19.718662 9.255410 -22.085363 31.020179 -0.438847 2.363093 0.059145 -0.016840 -33050.500000 0 0 1
-19.098162 10.267510 -22.861963 31.509219 -0.493287 2.382650 0.054399 -0.011792 -9872.890000 0 0 1
-18.214262 9.632810 -23.971963 31.610210 -0.486469 2.431592 0.064994 -0.015443 -142448.000000 0 0 1
-18.938262 8.730610 -24.793163 32.397257 -0.431967 2.442282 0.062803 -0.016997 -322378.000000 0 0 1
-18.076662 7.971910 -25.617303 32.350630 -0.415349 2.484652 0.049576 -0.012170 -620383.000000 0 0 1
-18.658562 6.895810 -26.548373 33.173939 -0.354009 2.498555 0.032118 -0.008477 -315077.000000 0 0 1
-18.979462 5.732610 -25.829163 32.561149 -0.293330 2.486926 0.053468 -0.013460 -155577.000000 0 0 1
-19.766062 4.802710 -26.485463 33.395254 -0.238358 2.486663 0.042971 -0.011169 -783348.000000 0 0 1
-19.977062 3.440010 -25.761653 32.780778 -0.170526 2.474909 0.052832 -0.007845 -78344.900000 0 0 1
-18.917462 2.509910 -25.653503 31.972992 -0.131906 2.502017 0.049331 -0.005839 669464.000000 0 0 1
-17.779562 2.937110 -24.876163 30.717469 -0.163717 2.514672 0.037587 -0.008692 467527.000000 0 0 1
-16.967262 1.772310 -24.158863 29.574985 -0.104077 2.526757 0.040500 -0.011690 38348.200000 0 0 1
-17.529762 1.096910 -23.070263 28.995393 -0.062493 2.490881 0.038114 -0.008062 232249.000000 0 0 1
-18.789662 0.493210 -23.385363 30.002831 -0.026243 2.464565 0.034623 -0.008499 310875.000000 0 0 1
-19.251962 -0.491890 -22.255063 29.430729 0.025545 2.428259 0.056080 -0.011564 -341725.000000 0 0 1
-18.405162 -1.563190 -22.004763 28.729830 0.084729 2.443268 0.061958 -0.008930 -101659.000000 0 0 1
-18.721362 -2.163390 -20.744963 28.027186 0.115047 2.404124 0.069215 -0.009789 -66659.200000 0 0 1
-18.389062 -3.673990 -20.647263 27.892029 0.197196 2.404249 0.047940 -0.017754 99809.500000 0 0 1
-19.285162 -4.346390 -21.515663 29.218698 0.221671 2.398480 0.057148 -0.023950 363357.000000 0 0 1
-19.268562 -5.736790 -21.347163 29.323874 0.289371 2.386166 0.054601 -0.024215 -266750.000000 0 0 1
-19.034462 -6.415390 -22.738663 30.339986 0.325084 2.418045 0.036963 -0.030477 452823.000000 0 0 1
-17.706362 -6.537090 -23.264463 29.958038 0.353671 2.459997 0.037257 -0.014220 523175.000000 0 0 1
-17.683862 -7.449590 -24.359563 31.009735 0.398703 2.474374 0.053992 -0.021423 606081.000000 0 0 1
-16.311862 -7.604090 -25.099233 30.884794 0.436219 2.519521 0.048251 -0.029031 -710711.000000 0 0 1
-16.368862 -8.310590 -26.321813 32.091173 0.469794 2.532591 0.057198 -0.051803 690084.000000 0 0 1
-15.076762 -8.664990 -26.837373 31.978671 0.521627 2.566657 0.065096 -0.052461 948426.000000 0 0 1
-14.193362 -9.582290 -25.908213 31.056518 0.593835 2.557527 0.054372 -0.045433 -538473.000000 0 0 1
-13.562862 -8.921590 -24.774863 29.619923 0.581836 2.561525 0.060921 -0.041501 234008.000000 0 0 1
-12.694262 -9.818390 -24.133263 28.982054 0.658342 2.554757 0.032291 -0.032057 -377500.000000 0 0 1
-11.848362 -9.213790 -23.028863 27.488291 0.660959 2.563982 0.063212 -0.031994 -488337.000000 0 0 1
-12.518962 -8.845190 -21.854563 26.694264 0.615104 2.529938 0.058331 -0.022346 -320644.000000 0 0 1
-11.684662 -8.406990 -20.837463 25.326047 0.623687 2.537060 0.054619 -0.016826 -1002500.000000 0 0 1
-12.455062 -8.186790 -19.533763 24.570714 0.581494 2.489807 0.048535 -0.010659 45612.900000 0 1 0
-13.346662 -7.089890 -19.430863 24.616222 0.488303 2.480549 0.040030 -0.004200 880888.000000 0 1 0
-14.643562 -7.314790 -19.996563 25.841877 0.463266 2.455622 0.038801 -0.012913 483319.000000 0 0 1
-15.682362 -6.187590 -19.669663 25.905953 0.375806 2.432990 0.043547 -0.009630 179114.000000 0 0 1
-16.006562 -5.887390 -18.332163 25.038762 0.352453 2.392271 0.051786 -0.010242 442530.000000 0 0 1
-15.194562 -4.839190 -17.788963 23.890159 0.308325 2.410754 0.049334 -0.017758 -279404.000000 0 1 0
-15.223362 -4.659790 -16.216663 22.725416 0.297039 2.365408 0.069642 -0.013614 603487.000000 0 1 0
-16.447762 -4.270590 -15.555763 23.037981 0.254036 2.312063 0.087342 -0.021524 1032590.000000 0 1 0
-17.009262 -2.982590 -15.927463 23.492444 0.173586 2.315811 0.060948 -0.020699 -421368.000000 0 1 0
-18.064462 -2.600390 -14.923863 23.575591 0.142968 2.256247 0.060310 -0.027082 -632545.000000 0 1 0
-17.466062 -2.416190 -13.678763 22.316134 0.137464 2.230590 0.059577 -0.028832 831427.000000 0 1 0
-18.427462 -1.852490 -12.807363 22.517363 0.100192 2.175815 0.058719 -0.030231 10897.400000 0 1 0
-17.905462 -0.585290 -12.092563 21.614306 0.032676 2.164543 0.051571 -0.026047 -226567.000000 0 1 0
-17.662562 0.381410 -13.070863 21.976329 -0.021591 2.207776 0.067585 -0.026887 601106.000000 0 1 0
-16.836462 1.396010 -12.516463 21.025630 -0.082727 2.208430 0.066732 -0.020905 -551550.000000 0 1 0
-16.318462 2.333610 -13.658163 21.407554 -0.142041 2.262703 0.062783 -0.010655 442896.000000 0 1 0
-15.462862 1.794310 -14.686963 21.401554 -0.115523 2.327127 0.054979 -0.020065 1084050.000000 0 1 0
-14.149062 1.451910 -14.231463 20.120600 -0.102257 2.356479 0.050604 -0.016175 -158197.000000 0 1 0
-13.436962 0.462710 -15.178063 20.276579 -0.034422 2.416671 0.043678 -0.021512 -153606.000000 0 1 0
-13.016462 1.069010 -16.412163 20.974512 -0.081944 2.469437 0.045698 -0.025494 107723.000000 0 1 0
-12.783362 0.075510 -17.407363 21.597137 -0.005907 2.508165 0.030161 -0.013279 -137998.000000 0 1 0
-12.074862 0.538610 -18.709663 22.274287 -0.044576 2.568018 0.030163 -0.012801 -192055.000000 0 1 0
-10.752862 0.925610 -18.432863 21.360038 -0.085869 2.611896 0.006401 -0.006233 -477641.000000 0 1 0
-10.416962 2.011810 -19.285863 22.011474 -0.190779 2.638661 0.004955 -0.010239 -8951.350000 0 1 0
-9.009962 2.580510 -19.072663 21.250998 -0.278939 2.684852 -0.003201 -0.010784 7258.390000 0 1 0
-7.928162 1.751810 -19.510163 21.132228 -0.217466 2.747231 -0.004661 -0.000232 517717.000000 0 1 0
-6.638462 2.337610 -19.451663 20.685763 -0.338572 2.794426 0.007659 0.005411 452066.000000 0 1 0
-6.310462 3.539210 -20.419163 21.663106 -0.511134 2.801063 0.014265 0.008098 -841721.000000 0 1 0
-6.367662 3.047110 -21.741663 22.858957 -0.446324 2.827646 0.014997 0.008776 198568.000000 0 1 0
-6.084362 4.064310 -22.697363 23.847607 -0.588920 2.829740 0.009424 0.008882 -373992.000000 0 1 0
-5.492162 3.528710 -24.025263 24.896363 -0.571084 2.876281 0.023889 -0.003129 -729515.000000 0 1 0
-4.191262 3.088010 -23.830363 24.392390 -0.634982 2.926511 0.034366 -0.010833 -801082.000000 0 1 0
-3.709162 2.509110 -25.045563 25.442754 -0.594754 2.964664 0.048378 -0.012422 31961.900000 0 0 1
-2.297662 1.898910 -24.889363 25.067220 -0.690664 3.022399 0.042343 -0.019440 -733158.000000 0 0 1
-1.307762 2.886410 -24.736763 24.938906 -1.145388 3.014184 0.033931 -0.018899 563335.000000 0 1 0
0.014838 2.328210 -24.788063 24.897165 1.564423 3.047941 0.036345 -0.022022 732445.000000 0 1 0
0.568838 1.332610 -23.679963 23.724251 1.167351 3.080480 0.041926 -0.024462 -971706.000000 0 1 0
0.280938 -0.055690 -23.593063 23.594801 -0.195693 3.129454 0.044861 -0.027488 -300754.000000 0 1 0
0.898438 -0.748190 -22.555863 22.586145 -0.694404 3.089804 0.038958 -0.023466 -391995.000000 0 1 0
0.356538 -2.214890 -22.396963 22.509038 -1.411192 3.041760 0.046568 -0.032933 697763.000000 0 1 0
-0.914162 -2.388190 -21.763563 21.913279 1.205219 3.024631 0.034317 -0.025482 629969.000000 0 1 0
-2.057162 -2.592890 -22.583063 22.824323 0.900102 2.996066 0.042951 -0.023977 735850.000000 0 1 0
-2.961462 -1.308890 -22.758263 22.987431 0.416160 3.000271 0.049610 -0.022530 -632142.000000 0 1 0
-3.525962 -0.898690 -21.496263 21.802050 0.249564 2.973911 0.032019 -0.015591 265869.000000 0 1 0
-4.551662 0.061510 -21.520363 21.996532 -0.013513 2.933141 0.019835 -0.017090 -138701.000000 0 1 0
-5.857662 -0.300490 -22.204663 22.966270 0.051254 2.883341 0.028063 -0.012423 -1071810.000000 0 1 0
-6.505962 -1.465490 -21.733563 22.733741 0.221556 2.843862 0.032495 -0.000711 -514913.000000 0 1 0
-7.892862 -1.310290 -21.724563 23.151042 0.164509 2.788720 0.020297 0.000740 -649118.000000 0 1 0
-8.619562 -2.618190 -21.508663 23.318970 0.294893 2.744961 0.021710 -0.000321 -483047.000000 0 1 0
-8.683762 -3.354790 -22.666263 24.503506 0.368666 2.751888 0.048883 -0.002327 -123090.000000 0 1 0
-9.037562 -4.657390 -22.333163 24.538520 0.475842 2.714386 0.037409 -0.003310 -350199.000000 0 1 0
-9.912862 -5.333090 -23.413163 25.978508 0.493581 2.693445 0.039887 -0.012181 -1317960.000000 0 0 1
-11.232862 -5.009890 -23.306163 26.352484 0.419525 2.656005 0.044857 -0.018449 -1252170.000000 0 0 1
-11.982762 -5.472690 -24.440163 27.764338 0.428423 2.647231 0.046848 -0.037712 1817530.000000 0 0 1
-13.565562 -5.443890 -24.221863 28.290618 0.381628 2.598627 0.060010 -0.042398 1373870.000000 0 0 1
-14.126762 -4.191190 -24.491963 28.582997 0.288412 2.599967 0.054805 -0.042552 263681.000000 0 0 1
-15.535762 -4.130490 -24.307563 29.142383 0.259858 2.557289 0.051171 -0.039517 456175.000000 0 0 1
-16.061962 -2.719490 -24.570863 29.480664 0.167722 2.556131 0.044417 -0.034705 -281402.000000 0 0 1
-15.932562 -2.344490 -25.932323 30.525867 0.146102 2.585870 0.041646 -0.039871 90278.900000 0 0 1
-16.400862 -1.042990 -26.243203 30.964202 0.063508 2.582117 0.030443 -0.033609 388868.000000 0 0 1
-17.846762 -1.090590 -26.835283 32.246375 0.061033 2.553852 0.044201 -0.026797 149194.000000 0 0 1
-18.032762 -1.774890 -28.117723 33.450517 0.098110 2.569143 0.046679 -0.036096 -80760.700000 0 0 1
-17.649962 -1.013690 -29.226593 34.157612 0.057370 2.597581 0.034769 -0.035182 -222217.000000 0 0 1
-17.816362 -1.887690 -30.492403 35.366266 0.105559 2.610371 0.039493 -0.030312 -166353.000000 0 0 1
-19.182662 -2.028090 -30.764263 36.311535 0.105334 2.581548 0.040686 -0.034161 -268776.000000 0 0 1
-19.401862 -2.771290 -31.971683 37.500677 0.141877 2.591666 0.044213 -0.037790 -976541.000000 0 0 1
-20.807862 -3.250690 -32.278043 38.540967 0.154971 2.563487 0.032647 -0.033586 -566603.000000 0 0 1
-21.751262 -2.251590 -32.595963 39.251546 0.103148 2.550689 0.028994 -0.034732 315502.000000 0 0 1
-22.563562 -1.828690 -31.482483 38.776348 0.080869 2.518194 0.020436 -0.019532 -289968.000000 0 0 1
-23.660162 -0.923990 -32.011823 39.817255 0.039033 2.504735 0.027107 -0.016475 -609548.000000 0 0 1
-23.117062 0.319510 -32.467173 39.857471 -0.013821 2.522804 0.038443 -0.022782 221885.000000 0 0 1
-24.015662 1.165910 -33.167323 40.965628 -0.048510 2.514331 0.039220 -0.020450 -163271.000000 0 0 1
-23.420062 2.493010 -33.651273 41.074598 -0.106048 2.530937 0.045873 -0.024761 -433950.000000 0 0 1
-22.898662 3.417410 -32.650923 40.026369 -0.148147 2.524796 0.039274 -0.019467 606763.000000 0 0 1
-23.757062 3.892310 -31.605603 39.729865 -0.162395 2.490649 0.032368 -0.015750 -65818.700000 0 0 1
-24.942662 4.800610 -32.042063 40.888581 -0.190141 2.471305 0.030859 -0.017410 -206219.000000 0 0 1
-25.990392 4.062410 -32.614813 41.901428 -0.155050 2.462862 0.043755 -0.023056 -554856.000000 0 0 1
-26.713832 4.849310 -33.497493 43.118751 -0.179573 2.460470 0.051316 -0.030194 -981015.000000 0 0 1
-28.035612 4.284210 -33.960163 44.245256 -0.151640 2.445796 0.051548 -0.031676 -831402.000000 0 0 1
-27.915462 3.113810 33.721142 43.887176 -0.111085 0.694522 0.058130 -0.035800 192457.000000 0 0 1
-29.151732 2.854410 33.089960 44.191816 -0.097604 0.724576 0.055263 -0.035755 23140.400000 0 0 1
-29.240142 1.326710 32.764108 43.934415 -0.045342 0.729136 0.051931 -0.015087 -145698.000000 0 0 1
-29.460522 0.570510 33.939330 44.945811 -0.019363 0.714964 0.041292 -0.008969 98757.700000 0 0 1
-29.701932 -0.816690 33.743884 44.961333 0.027489 0.721964 0.033442 0.001927 -686509.000000 0 0 1
-29.417202 -1.758690 -33.459273 44.586856 0.059713 2.419507 0.005662 0.005929 270620.000000 0 0 1
-28.088562 -1.873590 -32.959183 43.344958 0.066604 2.434714 0.018129 -0.009026 554729.000000 0 0 1
-27.660472 -0.669290 -32.327783 42.551559 0.024192 2.433697 0.026088 -0.004984 -767863.000000 0 0 1
-27.690552 -0.698290 -30.774433 41.404348 0.025212 2.408735 0.033307 -0.004331 -401518.000000 0 0 1
-26.638832 -1.338190 -30.091463 40.210872 0.050192 2.416354 0.030087 -0.010249 129947.000000 0 0 1
-26.746152 -1.060190 -28.690783 39.238268 0.039618 2.390867 0.035771 -0.012002 -83387.800000 0 0 1
-25.592422 -1.510890 -27.753863 37.782691 0.058968 2.395822 0.037764 -0.012611 -24472.300000 0 0 1
-25.725822 -2.891090 -27.511893 37.776720 0.111911 2.386600 0.016082 -0.005102 -94370.000000 0 0 1
-24.722962 -3.439390 -26.713223 36.560232 0.138230 2.390089 0.039579 -0.009426 -376578.000000 0 0 1
-25.114982 -4.813190 -26.052193 36.505423 0.189350 2.365495 0.046710 -0.021787 -2114.210000 0 0 1
-26.015712 -4.563690 -25.008163 36.373792 0.173654 2.328882 0.052818 -0.010359 -325777.000000 0 0 1
-26.377942 -5.707590 -24.236163 36.273461 0.213092 2.302518 0.054493 -0.014234 -495461.000000 0 0 1
-27.594282 -5.515890 -23.366363 36.576719 0.197292 2.263775 0.072513 -0.015641 -652330.000000 0 0 1
-27.841782 -6.621990 -22.550263 36.435284 0.233505 2.238154 0.086940 -0.024142 8013.040000 0 0 1
-28.938342 -6.317290 -21.702863 36.719886 0.214930 2.203142 0.099090 -0.017524 105960.000000 0 0 1
-29.398622 -7.526490 -20.862363 36.826149 0.250632 2.173060 0.102247 -0.026280 -656007.000000 0 0 1
-28.383642 -8.062890 -20.095563 35.699762 0.276777 2.168692 0.104419 -0.033036 -271542.000000 0 0 1
-28.846262 -9.178190 -19.294563 35.897439 0.308048 2.138256 0.117655 -0.025952 191880.000000 0 0 1
-29.567522 -8.758490 -17.985263 35.699008 0.287985 2.098792 0.117086 -0.034241 152619.000000 0 0 1
-28.681012 -8.032390 -17.147763 34.368089 0.273064 2.093177 0.110977 -0.033358 51132.200000 0 0 1
-29.285462 -7.394190 -16.042263 34.200388 0.247318 2.059030 0.101583 -0.032449 -593541.000000 0 0 1
-28.385212 -6.657890 -15.040863 32.806635 0.230390 2.047069 0.102814 -0.027730 -219995.000000 0 0 1
-27.862212 -5.431690 -15.573363 32.378013 0.192533 2.072575 0.100185 -0.023349 162756.000000 0 0 1
-26.982302 -4.795490 -14.710263 31.103588 0.175891 2.063426 0.099038 -0.033699 -317441.000000 0 0 1
-14.380662 21.303710 -5.124363 26.208979 -0.977025 1.767583 0.074809 -0.025097 68300.300000 0 0 1
-14.296862 20.579210 -6.341463 25.847984 -0.963620 1.818663 0.097126 -0.026102 -177790.000000 0 0 1
-14.966662 19.389710 -6.266363 25.282981 -0.913434 1.821256 0.054818 -0.035621 -605467.000000 0 0 1
-15.309662 18.777910 -7.635963 25.402826 -0.886794 1.876113 0.076794 -0.037040 -986798.000000 0 0 1
-14.214662 18.297210 -8.353663 24.629823 -0.910315 1.916829 0.080658 -0.029536 -477037.000000 0 1 0
-14.329762 17.155210 -9.189063 24.167792 -0.874898 1.960830 0.058536 -0.036524 -534906.000000 0 1 0
-14.772962 15.818510 -8.493563 23.250941 -0.819563 1.944751 0.054087 -0.043174 425842.000000 0 1 0
-16.179062 15.888910 -8.261963 24.134613 -0.776350 1.920190 0.054551 -0.030185 520175.000000 0 1 0
-16.487262 15.056310 -7.124163 23.436637 -0.740065 1.879659 0.068038 -0.018721 -1054450.000000 0 1 0
-17.914262 15.234110 -6.677663 24.445655 -0.704720 1.847476 0.079355 -0.026435 -990137.000000 0 1 0
-18.852862 14.620910 -7.553463 25.025112 -0.659639 1.877414 0.082379 -0.032221 -73638.700000 0 0 1
-20.102262 15.263010 -7.403163 26.303369 -0.649406 1.856104 0.076900 -0.026533 -93147.300000 0 0 1
-21.167362 14.642410 -8.339063 27.055449 -0.605164 1.884119 0.085515 -0.015673 -63853.800000 0 0 1
-21.495262 13.282710 -7.923563 26.481305 -0.553504 1.874665 0.108202 -0.022077 293630.000000 0 0 1
-22.233762 12.571510 -8.909763 27.051190 -0.514608 1.906429 0.117078 -0.021734 390625.000000 0 0 1
-22.669962 11.127010 -8.480563 26.639397 -0.456282 1.894781 0.106241 -0.019367 157022.000000 0 0 1
-21.560762 10.277010 -8.458863 25.338424 -0.444796 1.911166 0.108636 -0.024176 534047.000000 0 0 1
-22.003762 9.254110 -7.540863 25.033352 -0.398112 1.876781 0.120085 -0.028637 33456.700000 0 0 1
-20.813962 8.337710 -7.308563 23.582907 -0.381008 1.885894 0.090702 -0.016231 -601599.000000 0 1 0
-20.684262 7.342310 -8.286963 23.461073 -0.341096 1.931809 0.081590 -0.015538 451731.000000 0 1 0
-19.715762 6.381410 -7.898763 22.177108 -0.313029 1.934959 0.069820 -0.008675 -156560.000000 0 1 0
-19.620062 5.147010 -8.857163 22.133411 -0.256553 1.982500 0.062185 -0.011930 118653.000000 0 1 0
-20.739462 4.238810 -8.733963 22.899234 -0.201607 1.962116 0.086836 -0.013251 1005470.000000 0 1 0
-20.591262 3.349510 -9.757963 23.031221 -0.161254 2.008305 0.084225 -0.010382 -209719.000000 0 1 0
-21.345962 2.023510 -9.738063 23.549407 -0.094513 1.997109 0.082481 -0.010918 -227253.000000 0 1 0
-20.968862 1.167810 -8.663863 22.718263 -0.055635 1.962065 0.077276 -0.016443 364700.000000 0 1 0
-21.772162 0.004010 -8.465563 23.360069 -0.000184 1.941632 0.083236 -0.016773 -25751.100000 0 1 0
-21.482762 -1.115590 -9.514463 23.521875 0.051883 1.987222 0.052165 -0.030482 -152665.000000 0 1 0
-20.422162 -2.011090 -9.281363 22.522275 0.098159 1.995551 0.042985 -0.013171 325217.000000 0 1 0
-20.604862 -3.349990 -9.727663 23.030636 0.161172 2.006865 0.048767 -0.008822 -239457.000000 0 1 0
-21.699962 -4.130990 -8.986263 23.847565 0.188118 1.957158 0.065184 -0.014480 73025.800000 0 1 0
-21.228062 -4.458190 -7.699563 23.017153 0.207006 1.911886 0.050765 -0.009275 380717.000000 0 1 0
-22.205962 -5.070490 -6.886463 23.795756 0.224490 1.864395 0.064694 -0.011346 -141095.000000 0 1 0
-22.326762 -6.614890 -7.008863 24.318002 0.288037 1.863161 0.072093 -0.021781 -708330.000000 0 1 0
-21.230762 -7.341490 -6.586563 23.409945 0.332924 1.856005 0.063988 -0.020745 -5327.940000 0 1 0
-21.566862 -8.704990 -6.633263 24.184842 0.383630 1.848631 0.075357 -0.016854 127346.000000 0 1 0
-20.519162 -9.563190 -5.849963 23.381888 0.436130 1.823675 0.074510 -0.015952 -298140.000000 0 1 0
-19.333262 -9.809990 -6.506163 22.634953 0.469562 1.862348 0.079642 -0.007442 -141499.000000 0 1 0
-18.369162 -10.457190 -5.663563 21.882753 0.517525 1.832590 0.073721 -0.008657 553480.000000 0 1 0
-17.324462 -11.285690 -6.435963 21.654686 0.577380 1.872564 0.045428 -0.012080 -550036.000000 0 1 0
-16.283462 -10.716290 -7.121063 20.753302 0.582055 1.921043 0.053152 -0.029169 -134801.000000 0 1 0
-16.675162 -10.465090 -8.530263 21.455641 0.560456 1.979671 0.061238 -0.028397 -438520.000000 0 1 0
-15.666962 -10.762990 -9.619463 21.303280 0.601939 2.039296 0.063742 -0.021510 -378471.000000 0 1 0
-15.336262 -12.123690 -9.900563 21.913602 0.668936 2.039578 0.050315 -0.022306 147329.000000 0 1 0
-14.431162 -12.226590 -10.976663 21.868586 0.702887 2.096634 0.054844 -0.009701 130828.000000 0 1 0
-14.445462 -13.662790 -11.614963 23.027170 0.757560 2.099486 0.048008 -0.008318 -1058760.000000 0 1 0
-15.605662 -13.836690 -12.298463 24.212453 0.725388 2.103587 0.074272 -0.004983 -1093140.000000 0 1 0
-15.671262 -15.069790 -12.928063 25.294700 0.765835 2.107258 0.063369 0.001087 47001.800000 0 0 1
-16.115462 -14.941090 -14.404663 26.276198 0.747602 2.151009 0.065017 0.002401 -139377.000000 0 0 1
-16.015862 -16.077490 -15.162063 27.292521 0.787318 2.159808 0.049223 0.008074 119037.000000 0 0 1
-16.255462 -15.863590 -16.581163 28.121673 0.773198 2.201387 0.049506 0.006866 -19249.800000 0 0 1
-16.862662 -17.171290 -17.242263 29.605712 0.794466 2.192470 0.048460 -0.005183 -1008900.000000 0 0 1
-18.169362 -17.324690 -16.851763 30.236609 0.761605 2.161963 0.049277 -0.001995 -1490510.000000 0 0 1
-18.973862 -17.737490 -17.945563 31.570069 0.751733 2.175400 0.038948 0.004576 203103.000000 0 0 1
-20.458262 -17.932290 -17.532063 32.364807 0.719696 2.143256 0.032946 -0.000743 673115.000000 0 0 1
-21.149362 -16.707590 -17.120063 31.930168 0.668602 2.136692 0.052992 0.002852 590622.000000 0 0 1
-20.839562 -16.345490 -15.787263 30.833424 0.665125 2.108329 0.046066 -0.003045 -533199.000000 0 0 1
-21.137762 -14.875090 -15.556263 30.167377 0.613219 2.112580 0.067181 -0.009380 -52671.000000 0 0 1
-22.494762 -14.500790 -15.560563 30.958332 0.572591 2.097434 0.070704 -0.008611 219831.000000 0 0 1
-22.609162 -13.120590 -15.246063 30.261635 0.525825 2.098798 0.086532 -0.011771 -25529.600000 0 0 1
-24.034662 -12.735690 -14.781463 30.957300 0.487272 2.068580 0.090696 -0.021434 -228209.000000 0 0 1
-24.460862 -13.344990 -13.563963 30.990379 0.499432 2.023816 0.081612 -0.012767 -1300370.000000 0 0 1
-25.584202 -12.685390 -13.241563 31.477127 0.460305 2.004983 0.083563 -0.015071 -1879460.000000 0 0 1
-26.210762 -13.225690 -11.959963 31.701161 0.467313 1.957645 0.083429 -0.010467 -176639.000000 0 0 1
-27.003452 -12.238490 -11.288063 31.723610 0.425528 1.934593 0.082012 -0.021415 382919.000000 0 0 1
-27.561582 -12.706290 -10.058663 31.972915 0.431976 1.890831 0.080241 -0.016326 -384493.000000 0 0 1
-28.483942 -11.739490 -9.396563 32.209408 0.390931 1.866835 0.075175 -0.018270 -868481.000000 0 0 1
-27.799922 -10.660690 -8.845363 31.060045 0.366184 1.859576 0.086939 -0.022153 268803.000000 0 0 1
-28.657712 -9.739790 -8.136863 31.342248 0.327619 1.833418 0.095994 -0.019510 307419.000000 0 0 1
-27.857952 -8.538290 -7.616763 30.116158 0.297404 1.826486 0.094488 -0.011056 272036.000000 0 0 1
-27.164512 -8.821590 -6.400463 29.269388 0.314003 1.791252 0.094422 -0.012634 90999.000000 0 0 1
-26.431932 -7.819190 -5.744963 28.156551 0.287621 1.776276 0.094023 -0.014472 73596.600000 0 0 1
-27.289532 -6.628490 -5.203063 28.560940 0.238280 1.753993 0.101298 -0.019774 -303011.000000 0 0 1
-28.142632 -6.850190 -4.124063 29.256465 0.238766 1.712230 0.099209 -0.016466 321823.000000 0 0 1
-27.499482 -7.064490 -2.849663 28.535051 0.251458 1.670828 0.102995 -0.012699 248198.000000 0 0 1
-26.798312 -5.869590 -2.079863 27.512314 0.215623 1.646466 0.111889 -0.018154 419145.000000 0 0 1
-27.712972 -4.919390 -1.544263 28.188543 0.175682 1.625607 0.115500 -0.020986 295879.000000 0 0 1
-27.070212 -3.895590 -0.788863 27.360451 0.142926 1.599633 0.109809 -0.029279 128347.000000 0 0 1
-28.126822 -2.931090 -0.137963 28.279470 0.103835 1.575675 0.119652 -0.036763 1138300.000000 0 0 1
-29.109822 -3.369290 0.814737 29.315485 0.115231 1.543001 0.105220 -0.033949 545994.000000 0 0 1
-28.552672 -3.646390 2.084037 28.859911 0.127020 1.498521 0.106615 -0.028750 -95541.800000 0 0 1
-29.584792 -3.713490 3.243537 29.992840 0.124867 1.462441 0.085160 -0.026453 -36119.500000 0 0 1
-30.310912 -4.913690 3.142237 30.866963 0.160712 1.468820 0.084838 -0.028645 -68082.900000 0 0 1
-31.080962 -5.133590 4.310837 31.795648 0.163690 1.434798 0.090894 -0.036872 403289.000000 0 0 1
-31.898292 -6.482190 4.317137 32.835309 0.200484 1.438936 0.084348 -0.029689 368600.000000 0 0 1
-30.990982 -7.570590 4.289637 32.189374 0.239591 1.437136 0.070646 -0.022460 494528.000000 0 0 1
-31.658492 -8.778690 4.107237 33.108834 0.270497 1.446423 0.079279 -0.018721 -41128.200000 0 0 1
-30.705262 -9.921690 4.492137 32.579631 0.312537 1.432474 0.072378 -0.018029 216574.000000 0 0 1
-30.802552 -10.115390 5.888637 32.951394 0.317299 1.391124 0.064936 -0.021792 126211.000000 0 0 1
-29.722892 -10.907890 6.306237 32.283138 0.351726 1.374191 0.055677 -0.016417 -345991.000000 0 0 1
-29.812592 -11.348590 7.770537 32.832337 0.363727 1.331856 0.060301 -0.016340 -80349.700000 0 0 1
-29.507932 -10.278490 8.675937 32.428958 0.335186 1.299961 0.072898 -0.011136 475201.000000 0 0 1
-29.502772 -10.653590 10.032737 32.932785 0.346533 1.261233 0.082504 -0.012581 -319559.000000 0 0 1
-29.614352 -9.422490 10.921537 32.940448 0.308045 1.232846 0.081154 -0.016243 236501.000000 0 0 1
-28.465392 -8.571190 10.890037 31.659702 0.292474 1.219653 0.070421 -0.019662 497049.000000 0 0 1
-28.699742 -7.429290 11.591637 31.831362 0.253302 1.198068 0.091165 -0.028518 -352210.000000 0 0 1
-27.739482 -6.263690 11.407537 30.640571 0.222080 1.189309 0.091091 -0.022575 -406774.000000 0 0 1
-27.914462 -5.698390 10.136737 30.239747 0.201371 1.228966 0.096703 -0.026190 292905.000000 0 0 1
-27.317532 -4.451190 10.038637 29.442060 0.161523 1.222856 0.094849 -0.027420 -515401.000000 0 0 1
-27.498962 -3.874490 8.639537 29.083435 0.139974 1.269184 0.104693 -0.025666 -714037.000000 0 0 1
-26.711472 -4.400190 7.654837 28.132916 0.163264 1.295226 0.095447 -0.019110 -288558.000000 0 0 1
-26.944432 -3.867490 6.398137 27.962404 0.142562 1.339939 0.098997 -0.021728 -517124.000000 0 0 1
-25.933922 -4.270390 5.323037 26.816772 0.163200 1.370973 0.091989 -0.019674 -1700810.000000 0 0 1
-24.765062 -3.585690 5.460237 25.612100 0.143789 1.355958 0.130079 -0.028285 -113627.000000 0 0 1
-23.802662 -4.088590 4.480237 24.563302 0.170110 1.387374 0.125757 -0.026724 -684216.000000 0 1 0
-22.419962 -3.565390 4.621437 23.167313 0.157707 1.369968 0.122827 -0.021262 -1263850.000000 0 1 0
-22.263262 -2.179090 4.325037 22.783924 0.097568 1.379809 0.108090 -0.019845 1229440.000000 0 1 0
-20.867762 -1.819790 4.435937 21.411508 0.086986 1.362110 0.084073 -0.012939 912520.000000 0 1 0
-20.539362 -0.318990 4.674637 21.067021 0.015529 1.347040 0.068350 -0.018291 -485821.000000 0 1 0
-20.590062 0.642510 3.604037 20.912976 -0.031195 1.397597 0.066683 -0.019182 1323090.000000 0 1 0
-21.957862 1.023710 3.280237 22.225113 -0.046588 1.422664 0.079834 -0.025841 1138590.000000 0 1 0
-21.926062 2.203110 2.342537 22.160626 -0.100143 1.464891 0.095218 -0.018868 -233560.000000 0 1 0
-21.433362 3.390610 2.934237 21.897374 -0.156893 1.436393 0.079609 -0.028042 3274.420000 0 1 0
-21.361262 4.528610 2.033337 21.930487 -0.208908 1.477946 0.075572 -0.014725 -577114.000000 0 1 0
-20.476262 4.537110 0.806537 20.988406 -0.218056 1.532359 0.066899 -0.009306 -1265750.000000 0 1 0
-20.869062 5.175810 -0.363663 21.504395 -0.243108 1.587708 0.089324 0.002475 473296.000000 0 1 0
-21.893662 4.513410 -1.122363 22.382203 -0.203303 1.620963 0.123320 -0.015604 173627.000000 0 1 0
-21.524562 3.249410 -1.950063 21.855621 -0.149832 1.660140 0.119373 -0.008195 -295265.000000 0 1 0
-21.325262 2.141710 -1.106163 21.461065 -0.100095 1.622362 0.082634 -0.006359 418683.000000 0 1 0
-20.786462 1.049510 -1.808963 20.891405 -0.050447 1.657494 0.065649 -0.000756 229854.000000 0 1 0
-19.860862 0.096110 -0.977663 19.885143 -0.004839 1.619982 0.051794 -0.000225 45945.800000 0 1 0
-20.606862 -0.645790 -0.044063 20.617026 0.031328 1.572934 0.066250 -0.005938 658849.000000 0 1 0
-19.836862 -1.418790 0.869837 19.906549 0.071401 1.527086 0.054485 -0.010489 60966.900000 0 1 0
-19.050462 -2.691790 0.385837 19.243563 0.140369 1.550745 0.024949 -0.005532 187134.000000 0 1 0
-18.260362 -3.396790 1.296637 18.618815 0.183918 1.501099 0.026660 -0.006771 583182.000000 0 1 0
-17.654962 -4.618490 0.842437 18.268493 0.255864 1.524666 0.018533 -0.004930 -88421.600000 0 1 0
-18.657762 -5.758890 0.688737 19.538456 0.299382 1.535539 0.031659 -0.002329 -261200.000000 0 1 0
-19.187062 -6.258590 1.908537 20.272045 0.315306 1.476510 0.044246 -0.008240 397520.000000 0 1 0
-20.305462 -7.092690 1.731737 21.578159 0.336051 1.490456 0.057209 -0.011777 -460831.000000 0 1 0
-21.062362 -7.317790 3.050837 22.505127 0.334387 1.434816 0.076483 -0.011385 -404727.000000 0 1 0
-20.328462 -8.113290 3.954937 22.242153 0.379739 1.392033 0.068414 -0.010440 459057.000000 0 1 0
-21.003162 -8.482390 5.120937 23.223000 0.383832 1.348458 0.070718 -0.011899 -148881.000000 0 1 0
-20.122162 -9.354090 6.060337 23.002784 0.435147 1.304188 0.059324 -0.007119 170819.000000 0 1 0
-19.652262 -10.549990 5.402837 22.950040 0.492678 1.333148 0.054549 -0.002346 729212.000000 0 1 0
-18.543662 -11.149690 6.075637 22.474349 0.541351 1.297054 0.049686 -0.010613 566955.000000 0 1 0
-18.040662 -12.417390 5.281937 22.529002 0.602830 1.334143 0.033707 -0.009395 14635.800000 0 1 0
-18.987762 -13.450290 5.427737 23.893634 0.616319 1.341633 0.052465 -0.005669 282694.000000 0 1 0
-18.430562 -14.609990 4.891537 24.022168 0.670277 1.365736 0.044373 -0.003285 -293335.000000 0 1 0
-19.276862 -15.856390 5.258937 25.508409 0.688347 1.363142 0.054323 -0.005157 -330936.000000 0 0 1
-18.813962 -17.045990 4.712337 25.821252 0.736136 1.387269 0.054177 -0.013477 -233317.000000 0 0 1
-19.124962 -18.177490 5.467937 26.945940 0.760004 1.366455 0.045288 -0.009716 31796.500000 0 0 1
-18.111062 -19.345890 5.332537 27.031648 0.818353 1.372224 0.045974 -0.018934 -359522.000000 0 0 1
-18.104962 -19.788890 3.990737 27.116707 0.829807 1.423091 0.049071 -0.026799 444292.000000 0 0 1
-17.326262 -21.001690 3.824437 27.493575 0.881000 1.431241 0.043115 -0.029062 1365630.000000 0 0 1
-15.756562 -20.958890 3.956537 26.517890 0.926154 1.421035 0.044910 -0.027408 466674.000000 0 0 1
-15.243862 -22.202690 4.080737 27.239442 0.969136 1.420420 0.037183 -0.025758 -190308.000000 0 0 1
-13.826662 -22.193190 4.117937 26.470204 1.013627 1.414593 0.030260 -0.018562 169841.000000 0 0 1
-13.111862 -23.528890 4.331237 27.281664 1.062391 1.411362 0.045978 -0.012096 -315291.000000 0 0 1
-13.199362 -24.459390 3.325037 27.991799 1.075939 1.451729 0.049639 -0.019042 -110807.000000 0 0 1
-12.401562 -25.577490 3.569937 28.648756 1.119332 1.445861 0.053186 -0.020292 -337644.000000 0 0 1
18.521038 19.353010 -24.536463 36.326380 0.807361 2.312364 0.056916 -0.014664 -580182.000000 0 0 1
17.629938 19.525610 -25.565733 36.683387 0.836374 2.341903 0.045952 -0.019381 -760280.000000 0 0 1
18.215038 19.454910 -26.798113 37.794444 0.818300 2.358945 0.054265 -0.016473 60328.000000 0 0 1
17.193938 19.761410 -27.944113 38.301674 0.854762 2.388503 0.043646 -0.014082 347640.000000 0 0 1
17.121138 21.114910 -28.210553 39.176627 0.889471 2.374723 0.043010 -0.008283 698748.000000 0 0 1
16.308438 21.321110 -29.424273 39.828918 0.917830 2.402035 0.039714 -0.006848 326509.000000 0 0 1
16.071038 22.802810 -29.719613 40.761523 0.956867 2.387816 0.063809 -0.021986 -141227.000000 0 0 1
15.181638 23.381610 -28.728353 40.031239 0.994915 2.371216 0.062007 -0.017977 706196.000000 0 0 1
15.056738 24.774910 -28.924493 40.952751 1.024704 2.355039 0.068262 -0.022592 -89315.200000 0 0 1
14.173938 25.363010 -27.817873 40.224580 1.061189 2.334448 0.067901 -0.021118 727676.000000 0 0 1
12.835938 24.851710 -27.746023 39.398104 1.094035 2.352159 0.074307 -0.030238 761000.000000 0 0 1
12.038338 25.508310 -26.780353 38.894508 1.129849 2.330268 0.068497 -0.021628 -924197.000000 0 0 1
10.606538 25.050210 -26.487113 37.968129 1.170272 2.342859 0.081906 -0.029440 255999.000000 0 0 1
9.858838 25.902710 -25.611683 37.737321 1.207116 2.316764 0.067423 -0.022587 319787.000000 0 0 1
9.529338 27.152610 -26.218643 38.929292 1.233271 2.309722 0.081381 -0.036966 -722097.000000 0 0 1
9.038038 28.276410 -25.248413 38.970807 1.261427 2.275595 0.070472 -0.028541 -294569.000000 0 0 1
10.074938 28.744810 -24.461463 39.065735 1.233680 2.247417 0.060078 -0.019660 -230423.000000 0 0 1
9.491638 29.442710 -23.397263 38.786547 1.258939 2.218343 0.057109 -0.027728 -225874.000000 0 0 1
10.479138 29.846110 -22.301763 38.703633 1.233137 2.184891 0.034923 -0.014548 490417.000000 0 0 1
11.543638 30.755510 -22.672763 39.915049 1.211731 2.174901 0.039458 -0.024219 851043.000000 0 0 1
12.296738 31.138010 -21.551563 39.815264 1.194685 2.142766 0.013683 -0.007920 -151266.000000 0 0 1
13.507938 32.048810 -21.848963 41.072713 1.171911 2.131708 0.010121 0.005583 -176586.000000 0 0 1
14.610338 31.313210 -22.283663 41.116186 1.134235 2.143574 0.016696 -0.002135 -764876.000000 0 0 1
15.574838 32.126910 -22.882163 42.406453 1.119390 2.140748 0.011586 0.003575 -162691.000000 0 0 1
16.843438 31.387310 -23.367163 42.601513 1.078274 2.151372 0.006334 0.006048 451727.000000 0 0 1
17.675438 30.967410 -22.271963 42.040955 1.052143 2.129124 0.009478 0.010276 20117.800000 0 0 1
18.810638 30.304910 -22.775363 42.319556 1.015286 2.139068 0.018166 0.006484 166939.000000 0 0 1
19.769538 29.721610 -21.673963 41.760860 0.983840 2.116479 0.016012 0.012837 413297.000000 0 0 1
20.548738 30.617910 -20.889363 42.380096 0.979707 2.086222 0.019687 0.015689 120331.000000 0 0 1
21.475138 29.857010 -20.170963 41.946279 0.947257 2.072450 0.036870 0.009580 -144547.000000 0 0 1
22.197838 30.549110 -18.996863 42.271420 0.942422 2.036892 0.047012 0.001908 580994.000000 0 0 1
23.345738 31.322310 -19.414863 43.623932 0.930285 2.032027 0.064484 -0.001250 715729.000000 0 0 1
23.948138 31.870210 -18.269263 43.851905 0.926383 2.000512 0.067325 -0.001072 -542422.000000 0 0 1
25.268038 32.596010 -18.542463 45.219426 0.911369 1.993311 0.078021 -0.005912 -241900.000000 0 0 1
26.270138 31.668210 -18.927063 45.290500 0.878299 2.001933 0.085427 -0.003846 -863387.000000 0 0 1
27.464238 32.370510 -18.997363 46.508430 0.867212 1.991575 0.076875 -0.008525 -1016710.000000 0 0 1
28.684138 31.651910 -19.516163 46.962791 0.834546 1.999362 0.074461 -0.006871 -599194.000000 0 0 1
29.134938 30.643810 -18.638463 46.209090 0.810634 1.985972 0.072288 0.005665 936184.000000 0 0 1
30.331638 30.073810 -19.262663 46.856083 0.781130 1.994460 0.045208 0.007770 1132670.000000 0 0 1
31.004538 29.021210 -18.369863 46.270551 0.752369 1.979053 0.032135 0.007762 -233432.000000 0 0 1
31.306538 29.465210 -17.067763 46.255880 0.755108 1.948714 0.020444 0.018223 -78831.600000 0 0 1
31.639138 28.353010 -16.264863 45.491472 0.730677 1.936425 0.028165 0.013937 -120652.000000 0 0 1
32.020038 28.743810 -14.799163 45.502798 0.731533 1.902058 0.021083 0.017613 506188.000000 0 0 1
33.261538 29.439110 -14.669063 46.777906 0.724510 1.889767 -0.000151 0.022833 140188.000000 0 0 1
33.158638 30.816410 -14.909163 47.659517 0.748803 1.888964 0.005341 0.015102 -313623.000000 0 0 1
34.508738 31.556310 -14.991563 49.106014 0.740738 1.881039 0.020913 0.005997 198904.000000 0 0 1
35.129038 31.678410 -13.736463 49.257095 0.733794 1.853416 0.020153 0.004679 -958391.000000 0 0 1
-36.340525 32.080610 -13.833563 50.409987 -0.723218 1.848784 0.054537 -0.012737 -179935.000000 0 0 1
-35.621525 32.333810 -12.442463 49.690876 -0.737055 1.823887 0.049231 0.002445 135549.000000 0 0 1
-36.177825 33.419410 -11.768763 50.637889 -0.745785 1.805351 0.033740 -0.002441 43850.100000 0 0 1
-35.353625 33.744110 -10.663163 50.022463 -0.762109 1.785612 0.034159 0.001685 -290332.000000 0 0 1
-35.847125 -33.450822 -9.863663 50.012656 0.750832 1.769321 0.022554 0.008914 -69998.000000 0 0 1
-35.016025 -32.793822 -8.898063 48.792749 0.752639 1.754187 0.018422 0.002540 -139640.000000 0 0 1
-34.507425 -33.536922 -7.830863 48.752538 0.771136 1.732120 0.008607 -0.000196 -44029.200000 0 0 1
-34.054825 -32.693222 -6.637563 47.672163 0.765002 1.710484 0.010227 -0.006084 -382615.000000 0 0 1
-35.061525 -31.811222 -6.185463 47.744365 0.736832 1.700715 -0.000339 0.002417 -235947.000000 0 0 1
-34.591225 -30.790522 -5.327763 46.615386 0.727333 1.685339 0.027029 0.001882 891281.000000 0 0 1
-35.873225 -30.015822 -4.787763 47.018725 0.696733 1.672800 0.005730 0.002646 891813.000000 0 0 1
36.112538 -30.848022 -3.998163 47.662367 -0.706938 1.654780 -0.001278 0.006784 -744010.000000 0 0 1
34.790538 -30.428522 -3.914163 46.385312 -0.718615 1.655280 0.004759 0.010165 -640246.000000 0 0 1
34.518438 -29.501122 -2.700963 45.487734 -0.707186 1.630209 0.014055 0.007894 -764426.000000 0 0 1
34.779538 -28.135622 -2.907063 44.829460 -0.680187 1.635689 0.039839 0.006543 255030.000000 0 0 1
33.863938 -27.277722 -2.277163 43.543379 -0.678091 1.623117 0.049987 0.003865 -165571.000000 0 0 1
34.288738 -25.816622 -2.553563 42.996933 -0.645366 1.630221 0.069768 -0.009347 -74229.100000 0 0 1
34.169238 -25.462622 -3.945263 42.795409 -0.640416 1.663116 0.053857 -0.017556 408746.000000 0 0 1
33.969038 -24.069822 -4.130463 41.836738 -0.616462 1.669686 0.061072 -0.022811 -311962.000000 0 0 1
33.792038 -23.697922 -5.615863 41.653707 -0.611589 1.706031 0.059875 -0.022110 -555254.000000 0 0 1
35.014038 -23.684422 -6.276263 42.735538 -0.594729 1.718192 0.045048 -0.018719 -262934.000000 0 0 1
34.747638 -23.423222 -7.641663 42.596252 -0.593128 1.751170 0.041387 -0.023368 -155744.000000 0 0 1
35.999838 -23.213422 -8.507163 43.671766 -0.572725 1.766848 0.034416 -0.021516 -154238.000000 0 0 1
-36.086925 -24.395622 -8.850763 44.449393 0.594453 1.771256 0.013431 -0.011943 202871.000000 0 0 1
-35.120325 -24.097422 -9.878063 43.722982 0.601363 1.798688 0.042510 -0.011159 418988.000000 0 0 1
-34.803525 -25.423622 -10.622363 44.390095 0.630897 1.812437 0.029168 -0.014547 1372.120000 0 0 1
-34.082725 -26.373322 -9.846063 44.205534 0.658562 1.795414 0.038001 -0.005527 38777.000000 0 0 1
-34.952525 -27.273322 -9.202663 45.279158 0.662610 1.775465 0.026308 -0.010953 -148994.000000 0 0 1
-34.221725 -28.525822 -8.711863 45.395435 0.694871 1.763905 0.022859 -0.003675 -204876.000000 0 0 1
-33.728525 -29.250722 -9.779163 45.703941 0.714418 1.786431 0.025533 -0.002774 11508.200000 0 0 1
-33.002825 -30.376522 -9.274463 45.803223 0.743984 1.774691 0.030126 -0.005505 108763.000000 0 0 1
-32.249725 -31.170322 -10.378463 46.036358 0.768380 1.798192 0.043723 -0.004921 358454.000000 0 0 1
-31.095225 -30.549722 -10.950163 44.945574 0.776549 1.816905 0.037726 0.003453 439098.000000 0 0 1
-30.635525 -31.319522 -12.048763 45.438096 0.796438 1.839175 0.023562 0.005755 -132015.000000 0 0 1
-30.974825 -30.752922 -13.399363 45.658788 0.781803 1.868648 0.010974 0.008137 -220543.000000 0 0 1
-30.124525 -29.673322 -13.690163 44.445625 0.777853 1.883908 0.012289 0.009742 -61717.900000 0 0 1
-30.491625 -28.992522 -14.891363 44.632480 0.760202 1.910963 -0.005911 0.015484 -291040.000000 0 0 1
-29.512325 -27.884322 -15.305363 43.390862 0.757042 1.931286 -0.001120 0.011611 1127820.000000 0 0 1
-28.253625 -28.488522 -15.729363 43.096126 0.789538 1.944411 0.004159 0.007730 502537.000000 0 0 1
-27.386325 -27.596722 -16.345763 42.175512 0.789225 1.968785 0.028290 0.013572 -81717.600000 0 0 1
-26.119825 -28.361722 -16.828963 42.069544 0.826525 1.982343 0.047537 0.003264 -179594.000000 0 0 1
-26.252125 -29.181822 -17.988963 43.178184 0.838199 2.000522 0.031976 0.006753 -76878.700000 0 0 1
-26.404825 -28.505922 -19.208563 43.344795 0.823643 2.029914 0.023749 0.010802 118182.000000 0 0 1
-25.083725 -27.901222 -19.772563 42.410208 0.838524 2.055812 0.045641 0.007988 405220.000000 0 0 1
-24.693025 -26.641622 -19.249763 41.110520 0.823339 2.058099 0.043266 0.011541 -971197.000000 0 0 1
-23.318625 -26.484622 -19.212263 40.178409 0.848883 2.069371 0.060491 -0.004583 -554046.000000 0 0 1
-22.861125 -25.264122 -18.315063 38.682663 0.835289 2.064022 0.053770 -0.000350 -65446.900000 0 0 1
-23.129925 -25.466222 -16.951063 38.351798 0.833437 2.028611 0.062394 -0.004950 224239.000000 0 0 1
-22.636425 -24.390122 -16.165463 36.994702 0.822673 2.023020 0.062269 -0.005957 -8117.000000 0 0 1
-22.924725 -24.685622 -14.690863 36.752475 0.822367 1.982013 0.044217 -0.004438 415547.000000 0 0 1
-24.302125 -24.436922 -14.411763 37.355794 0.788164 1.966868 0.017512 0.014107 369542.000000 0 0 1
-24.448625 -24.389822 -12.982063 36.893531 0.784194 1.930374 0.019057 0.015407 591347.000000 0 0 1
-25.944125 -24.315222 -12.545663 37.705720 0.753000 1.909989 0.021879 0.021878 523122.000000 0 0 1
-26.729125 -25.466722 -12.906963 39.109970 0.761217 1.907118 0.029660 0.014237 988353.000000 0 0 1
-28.070025 -25.570822 -12.414763 39.948962 0.738840 1.886795 0.029217 0.013981 870033.000000 0 0 1
-29.137325 -24.629522 -13.079663 40.332055 0.701754 1.901067 0.034335 0.011692 -551261.000000 0 0 1
-29.287625 -23.324422 -12.509563 39.475091 0.672537 1.893253 0.040782 0.008635 180139.000000 0 0 1
-29.934925 -23.250322 -11.256963 39.539808 0.660368 1.859489 0.052252 0.002823 -630471.000000 0 0 1
-31.444425 -23.509722 -11.100863 40.800589 0.642001 1.846346 0.040230 0.000283 -559026.000000 0 0 1
-32.338425 -22.556622 -11.575263 41.092112 0.609058 1.856352 0.062618 -0.009339 -202775.000000 0 0 1
-32.554025 -22.696422 -12.940663 41.741501 0.608839 1.886009 0.063585 -0.003791 -1141240.000000 0 0 1
-33.943625 -22.319122 -13.455463 42.794420 0.581654 1.890643 0.033809 -0.015367 -18968.800000 0 0 1
-34.916225 -23.349722 -13.208963 44.032136 0.589434 1.875473 0.037343 -0.012387 -305862.000000 0 0 1
-36.114525 -23.033322 -13.848563 45.017503 0.567741 1.883494 0.059605 -0.018826 -907615.000000 0 0 1
35.559838 -23.902422 -13.286963 44.859461 -0.591806 1.871498 0.057879 -0.007817 -747577.000000 0 0 1
35.545138 -25.148022 -13.873463 45.698499 -0.615739 1.879251 0.042280 -0.004369 146543.000000 0 0 1
34.716938 -26.085822 -13.192563 45.384795 -0.644388 1.865736 0.044745 -0.011526 252981.000000 0 0 1
34.487438 -27.456722 -13.890663 46.219103 -0.672381 1.876055 0.037185 -0.016715 363912.000000 0 0 1
33.639838 -27.406622 -15.033863 45.921440 -0.683645 1.904328 0.047385 -0.018087 34056.900000 0 0 1
33.543838 -28.595922 -15.782763 46.818922 -0.705940 1.914634 0.036641 -0.005139 -217562.000000 0 0 1
32.744338 -28.444822 -17.087963 46.618645 -0.715247 1.946092 0.036303 -0.018469 -450833.000000 0 0 1
31.370038 -28.305022 -16.891263 45.503498 -0.734082 1.951106 0.059982 -0.016359 -544060.000000 0 0 1
30.698238 -28.158822 -18.149463 45.439015 -0.742279 1.981686 0.057992 -0.022419 517424.000000 0 0 1
29.156338 -28.106822 -18.001963 44.318802 -0.767072 1.989080 0.058638 -0.022199 526294.000000 0 0 1
28.607738 -27.023322 -17.202063 42.948499 -0.756925 1.982889 0.054296 -0.018050 -916948.000000 0 0 1
27.230038 -27.082922 -17.137263 42.055266 -0.782689 1.990504 0.076695 -0.015375 -995657.000000 0 0 1
26.639438 -26.115722 -16.115863 40.637564 -0.775471 1.978580 0.063378 -0.015639 -98349.500000 0 0 1
26.361538 -24.791922 -16.649663 39.834424 -0.754723 2.002008 0.070750 -0.021801 4569.560000 0 0 1
26.333138 -23.862722 -15.608063 38.813339 -0.736222 1.984640 0.058536 -0.020254 -20655.500000 0 0 1
26.159538 -22.372622 -15.863663 37.901338 -0.707527 2.002646 0.060291 -0.023027 396650.000000 0 0 1
24.842738 -22.007822 -16.262163 36.958948 -0.724962 2.026402 0.064458 -0.033020 357444.000000 0 0 1
24.665738 -20.614822 -16.060663 35.934864 -0.696173 2.034136 0.054715 -0.030176 -683841.000000 0 0 1
23.197938 -20.255522 -15.998063 34.704013 -0.717787 2.049902 0.058445 -0.030396 -760593.000000 0 0 1
22.475138 -20.747722 -14.856963 34.004840 -0.745454 2.022954 0.056530 -0.025492 353915.000000 0 0 1
21.121138 -20.337522 -14.868763 32.875483 -0.766499 2.040111 0.053124 -0.026739 164768.000000 0 0 1
20.754438 -18.980722 -14.218663 31.514836 -0.740789 2.038876 0.035980 -0.019590 -414555.000000 0 0 1
20.685438 -19.152022 -12.859763 30.984848 -0.746925 1.998776 0.041237 -0.022029 84661.800000 0 0 1
20.505938 -17.945522 -12.130263 29.827480 -0.718908 1.989614 0.045475 -0.027841 -46790.900000 0 0 1
19.555138 -18.049622 -10.893163 28.755057 -0.745384 1.959324 0.048710 -0.014536 86704.600000 0 0 1
20.167338 -18.625322 -9.743763 29.130140 -0.745669 1.911861 0.048181 -0.025023 155035.000000 0 0 1
19.325238 -18.465122 -8.601663 28.078714 -0.762642 1.882143 0.045424 -0.028153 -107035.000000 0 0 1
19.719338 -19.083922 -7.228163 28.377715 -0.769024 1.828347 0.051191 -0.030186 -606455.000000 0 0 1
20.780338 -18.380822 -6.666563 28.532791 -0.724202 1.806622 0.047039 -0.025806 -376025.000000 0 0 1
21.442238 -19.243522 -5.750263 29.379385 -0.731409 1.767792 0.052916 -0.020562 -896916.000000 0 0 1
22.820838 -18.713222 -5.408963 30.003870 -0.686821 1.752063 0.052436 -0.021471 -930957.000000 0 0 1
23.666338 -18.772622 -6.538363 30.907234 -0.670593 1.783955 0.035902 -0.027759 458076.000000 0 0 1
24.641038 -17.723822 -6.440163 31.028863 -0.623549 1.779870 0.048059 -0.028949 183250.000000 0 0 1
25.664238 -17.651422 -7.609163 32.064391 -0.602479 1.810391 0.060434 -0.036258 394815.000000 0 0 1
26.770338 -18.542222 -7.648063 33.450828 -0.605770 1.801473 0.075115 -0.042963 577361.000000 0 0 1
26.434338 -19.861322 -8.018863 34.022765 -0.644362 1.808726 0.075634 -0.047573 -136667.000000 0 0 1
27.544938 -20.831922 -7.562763 35.353755 -0.647514 1.786379 0.081522 -0.050192 1389410.000000 0 0 1
28.814038 -20.777922 -8.270363 36.474234 -0.624750 1.799531 0.081663 -0.028859 1439920.000000 0 0 1
29.660638 -21.877822 -7.917763 37.697261 -0.635521 1.782408 0.091158 -0.042903 146806.000000 0 0 1
-30.322792 30.229410 4.215837 43.023972 -0.783856 1.472651 0.054603 -0.011164 313393.000000 0 0 1
-29.381222 30.918210 3.425437 42.789315 -0.810882 1.490657 0.047850 -0.007364 -355684.000000 0 0 1
-28.408792 31.589810 4.197837 42.691889 -0.838367 1.472309 0.038828 -0.000292 231224.000000 0 0 1
-27.746482 32.680610 3.288837 42.996581 -0.866872 1.494231 0.041594 -0.004850 28110.900000 0 0 1
-26.717772 32.196310 2.418237 41.908109 -0.878123 1.513061 0.048192 -0.011402 270034.000000 0 0 1
-26.235772 33.196910 1.571237 42.341697 -0.901993 1.533679 0.057324 -0.017490 293708.000000 0 0 1
-25.044732 34.066310 2.118437 42.334854 -0.936850 1.520735 0.060543 -0.014275 289661.000000 0 0 1
-23.766362 33.642110 1.697737 41.225160 -0.955757 1.529603 0.051214 -0.017949 -894684.000000 0 0 1
-22.757862 -34.150922 2.436537 41.111342 0.982985 1.511495 0.041437 -0.013613 -296020.000000 0 0 1
-21.405962 33.627910 2.032037 39.914668 -1.003932 1.519865 0.040904 -0.014878 -159558.000000 0 0 1
-21.015562 -34.197822 0.819837 40.147441 1.019762 1.550374 0.060794 -0.022189 -366736.000000 0 0 1
-19.707762 33.772410 0.509237 39.105382 -1.042563 1.557774 0.055958 -0.017644 -315780.000000 0 0 1
-19.108462 -33.999422 -0.762663 39.008662 1.058769 1.590349 0.061967 -0.019135 -30335.900000 0 0 1
-18.893562 -32.599122 -0.870663 37.688559 1.045532 1.593900 0.067340 -0.020819 148887.000000 0 0 1
-18.225362 -31.982822 0.188937 36.811689 1.052842 1.565664 0.068539 -0.016457 -512017.000000 0 0 1
-18.213962 -30.432922 0.031537 35.467057 1.031484 1.569907 0.076671 -0.025692 -582673.000000 0 0 1
-17.131062 -29.976522 -0.713363 34.533665 1.051609 1.591455 0.087256 -0.018412 -202557.000000 0 0 1
-17.113162 -28.552922 -0.597563 33.293945 1.030856 1.588745 0.062162 -0.022101 625828.000000 0 0 1
-15.985862 -27.969722 -1.544663 32.252738 1.051565 1.618707 0.064095 -0.016266 663957.000000 0 0 1
-16.299762 -28.216422 -2.894863 32.714354 1.046958 1.659401 0.065175 -0.011105 -23174.400000 0 0 1
-15.395962 -27.576322 -3.760763 31.806171 1.061600 1.689314 0.053694 0.003962 -29619.500000 0 0 1
-15.920662 -27.659322 -5.228763 32.339535 1.048512 1.733192 0.067198 -0.003797 895275.000000 0 0 1
-17.061862 -26.777722 -5.333563 32.196280 1.003496 1.737221 0.065573 -0.001297 281714.000000 0 0 1
-17.527962 -26.630522 -6.666063 32.570701 0.988685 1.776917 0.075931 0.000062 -82608.400000 0 0 1
-18.351862 -25.380022 -6.771363 32.043528 0.944746 1.783719 0.054672 0.001384 -258396.000000 0 0 1
-17.504362 -24.263322 -6.714463 30.662608 0.945830 1.791564 0.048524 0.010977 27902.900000 0 0 1
-18.130562 -23.049622 -7.055263 30.162545 0.904287 1.806892 0.034070 0.008260 126629.000000 0 0 1
-17.105062 -21.872722 -6.961963 28.626352 0.907111 1.816461 0.035530 0.009608 -283476.000000 0 0 1
-16.074762 -22.032222 -7.858263 28.382549 0.940478 1.851331 0.057766 0.001721 -1030220.000000 0 0 1
-15.003162 -21.194022 -7.452563 27.015220 0.954791 1.850286 0.089971 -0.015029 409135.000000 0 0 1
-13.810162 -21.122422 -8.423563 26.605144 0.991744 1.892954 0.075043 -0.008802 529096.000000 0 0 1
-14.197262 -20.314722 -9.576563 26.569922 0.960832 1.939524 0.078550 -0.004097 -72053.000000 0 0 1
-13.092062 -20.302922 -10.436163 26.315855 0.998060 1.978577 0.060651 -0.001072 96598.900000 0 0 1
-13.369062 -19.460022 -11.668663 26.335945 0.968848 2.029816 0.056027 -0.002358 -311165.000000 0 0 1
-14.368762 -20.080422 -12.436163 27.646751 0.949703 2.037364 0.060929 0.014009 -316225.000000 0 0 1
-14.671962 -19.252422 -13.543163 27.736970 0.919606 2.080904 0.049107 0.001270 -838437.000000 0 0 1
-15.816562 -19.682522 -14.413863 29.074469 0.893874 2.089502 0.055826 0.000522 299097.000000 0 0 1
-17.064062 -19.563822 -13.676863 29.342494 0.853540 2.055686 0.070379 -0.001811 889808.000000 0 0 1
-18.161762 -19.691822 -14.551563 30.485496 0.825797 2.068407 0.053179 0.008200 784905.000000 0 0 1
-19.613462 -19.626922 -13.972463 31.066601 0.785741 2.037291 0.048802 0.012469 231106.000000 0 0 1
-20.636162 -20.165222 -14.720963 32.391266 0.773856 2.042577 0.055942 0.001510 -1582060.000000 0 0 1
-21.856062 -19.832422 -14.175563 32.740785 0.736894 2.018574 0.044524 0.003910 -1131400.000000 0 0 1
-22.931362 -20.502122 -15.054963 34.246697 0.729526 2.025953 0.042178 -0.001955 -570559.000000 0 0 1
-23.045362 -19.951622 -16.358763 34.594292 0.713569 2.063347 0.043990 -0.011949 306012.000000 0 0 1
-23.786462 -20.757122 -17.256063 35.978127 0.717494 2.071025 0.049994 -0.016838 -317904.000000 0 0 1
-24.004062 -20.082822 -18.632163 36.423512 0.696688 2.107775 0.055832 -0.014745 687525.000000 0 0 1
-22.863362 -19.874322 -19.502563 36.028766 0.715573 2.142785 0.030613 -0.012646 808614.000000 0 0 1
-23.284662 -19.528022 -20.768063 36.808037 0.697876 2.170292 0.043548 -0.012795 232259.000000 0 0 1
-22.105562 -18.774722 -21.457163 36.077083 0.704100 2.207762 0.024323 -0.003629 911890.000000 0 0 1
-20.955762 -19.561822 -21.770563 35.996753 0.751008 2.220301 0.006515 0.001276 271765.000000 0 0 1
-20.135462 -18.861422 -22.673963 35.711324 0.752739 2.258706 0.006307 0.003339 105381.000000 0 0 1
-18.762262 -19.465322 -23.039663 35.521083 0.803788 2.276565 0.016673 0.007485 -57766.400000 0 0 1
-18.900062 -20.739622 -23.636863 36.688494 0.831772 2.270849 -0.002780 0.015144 584147.000000 0 0 1
-17.612962 -21.331122 -23.822963 36.507078 0.880584 2.281751 -0.000703 0.013676 372179.000000 0 0 1
-17.631962 -22.743122 -24.410663 37.736139 0.911320 2.274279 0.006882 0.011857 -112400.000000 0 0 1
-18.057862 -22.720422 -25.771493 38.813320 0.899243 2.296933 0.014597 0.011651 213128.000000 0 0 1
-18.317762 -24.059422 -26.203523 40.012758 0.920068 2.284819 0.026999 0.001156 -15979.600000 0 0 1
-18.277662 -24.223822 -27.760853 41.128232 0.924401 2.311738 0.020025 0.008407 -366579.000000 0 0 1
-16.978262 -24.098522 -28.257483 40.834856 0.957033 2.335044 0.025321 0.011241 -316742.000000 0 0 1
-16.979762 -24.099322 -29.709963 41.854170 0.957007 2.360074 0.034259 0.007807 -811473.000000 0 0 1
-15.630062 -23.814222 -30.325483 41.605900 0.989982 2.387473 0.026379 -0.002313 -786407.000000 0 0 1
-14.695262 -24.848722 -30.115553 41.717577 1.036732 2.377328 0.033257 -0.002750 -601012.000000 0 0 1
-13.502762 -24.523822 -30.779063 41.606408 1.067494 2.403521 0.043794 -0.006067 -234599.000000 0 0 1
-12.449762 -25.600522 -30.384613 41.636619 1.118161 2.388763 0.064192 -0.008764 -466415.000000 0 0 1
-12.513062 -26.836822 -31.059843 42.912767 1.134499 2.380076 0.047106 -0.001424 362591.000000 0 0 1
-11.556162 -27.779422 -30.583573 42.902169 1.176576 2.364375 0.044677 -0.002325 553901.000000 0 0 1
-10.111662 -27.716322 -31.141533 42.897964 1.220974 2.383203 0.053886 -0.012054 -39206.900000 0 0 1
-9.315062 -26.691522 -30.629373 41.681725 1.235022 2.396226 0.074339 -0.031293 -673325.000000 0 0 1
-8.232762 -26.462522 -31.473673 41.936089 1.269178 2.419638 0.074344 -0.023234 -562390.000000 0 0 1
-7.448262 -25.165522 -31.123273 40.711647 1.283040 2.441032 0.101838 -0.034439 -293393.000000 0 0 1
-8.136462 -23.935622 -31.184803 40.144837 1.243120 2.460376 0.094214 -0.029142 318467.000000 0 0 1
-8.951062 -23.741822 -29.991773 39.284883 1.210259 2.439424 0.081143 -0.021583 342713.000000 0 0 1
-9.460862 -22.266922 -29.833943 38.410778 1.169024 2.460218 0.080248 -0.033541 -108472.000000 0 0 1
-10.198662 -21.825922 -30.934553 39.208802 1.133671 2.479927 0.067072 -0.028711 -167008.000000 0 0 1
-10.531862 -20.427822 -30.876983 38.491611 1.094775 2.501724 0.078052 -0.026217 4081.900000 0 0 1
-11.291662 -19.990022 -32.122173 39.483371 1.056612 2.521048 0.064321 -0.023361 -98833.500000 0 0 1
-11.855862 -18.698322 -32.028013 38.935618 1.005708 2.536746 0.064584 -0.017946 66822.100000 0 0 1
-12.425862 -18.324122 -33.253923 39.949955 0.974910 2.554202 0.057940 -0.022946 -1027310.000000 0 0 1
-13.326562 -17.129122 -33.226033 39.685934 0.909611 2.562984 0.064328 -0.015926 -1027320.000000 0 0 1
-12.836162 -15.849822 -33.159533 38.929918 0.890071 2.590160 0.081335 -0.019926 31407.300000 0 0 1
-12.059862 -15.412722 -31.995643 37.506179 0.906841 2.592650 0.074408 -0.011782 633611.000000 0 0 1
-11.794262 -13.861822 -32.077173 36.880886 0.865812 2.625493 0.062981 -0.016766 -373577.000000 0 0 1
-10.890062 -13.378122 -33.043573 37.275264 0.887565 2.660467 0.073320 -0.021843 -96796.000000 0 0 1
-11.266862 -13.507822 33.987355 38.269358 0.875606 0.477582 0.074249 -0.022334 14024.600000 0 0 1
-12.008562 -12.260222 33.388460 37.540749 0.795767 0.474782 0.062574 -0.018576 493925.000000 0 0 1
-13.204462 -11.788322 33.975488 38.310001 0.728797 0.480299 0.053622 -0.011579 -187640.000000 0 0 1
-13.975862 -11.118322 33.002225 37.524508 0.672014 0.496018 0.050768 -0.023132 -248006.000000 0 0 1
-14.984862 -10.152422 33.551505 38.122451 0.595473 0.494727 0.063697 -0.026279 -93864.000000 0 0 1
-14.371762 -8.978622 34.123408 38.099477 0.558413 0.460929 0.066221 -0.025361 -176494.000000 0 0 1
-15.151462 -8.508422 -33.236163 37.504701 0.511673 2.659845 0.066559 -0.029881 -179599.000000 0 0 1
-14.415762 -7.546822 -32.291283 36.159310 0.482280 2.674827 0.069251 -0.048320 -496307.000000 0 0 1
-14.360762 -6.162922 -32.709473 36.250830 0.405381 2.695894 0.067525 -0.052834 1590440.000000 0 0 1
-15.638162 -5.430022 -32.640303 36.598178 0.334204 2.672228 0.068342 -0.043980 1583240.000000 0 0 1
-16.059062 -4.957122 -31.204493 35.442727 0.299402 2.647544 0.074090 -0.054769 -288925.000000 0 0 1
-16.485362 -5.974222 -30.315723 35.021444 0.347675 2.617210 0.073835 -0.060410 6460.120000 0 0 1
-16.832562 -5.414322 -29.053023 34.010707 0.311206 2.594868 0.077204 -0.062010 416977.000000 0 0 1
-15.604762 -4.944622 -28.193683 32.601252 0.306858 2.615556 0.073875 -0.063256 739088.000000 0 0 1
-14.952562 -3.812122 -28.747383 32.627035 0.249630 2.648960 0.068811 -0.056501 1382060.000000 0 0 1
-13.636762 -3.475222 -28.177743 31.496407 0.249531 2.678407 0.056624 -0.049595 1701310.000000 0 0 1
-13.230662 -2.154222 -28.756633 31.727512 0.161404 2.705390 0.029450 -0.028063 -113964.000000 0 0 1
-13.144762 -2.298222 -30.157303 32.977712 0.173090 2.725006 0.034180 -0.035907 9083.170000 0 0 1
-13.464062 -1.055222 -30.749323 33.584451 0.078213 2.727749 0.033972 -0.035562 -57328.800000 0 0 1
-13.735262 -1.191222 -32.240973 35.065036 0.086511 2.737507 0.031255 -0.034434 -812702.000000 0 0 1
-14.976062 -1.709222 -32.586653 35.903953 0.113639 2.708343 0.017676 -0.037006 -356082.000000 0 0 1
-15.045762 -1.666222 -34.021553 37.237311 0.110294 2.722950 0.024227 -0.027701 -288375.000000 0 0 1
-16.489962 -1.744222 33.882370 37.722356 0.105383 0.455130 0.021516 -0.025898 -232463.000000 0 0 1
-16.438862 -1.949222 32.508533 36.480685 0.118023 0.470997 0.030537 -0.020446 27986.700000 0 0 1
-17.651462 -1.604222 31.885321 36.480424 0.090634 0.507342 0.035557 -0.017323 -186949.000000 0 0 1
-17.615662 -1.757222 30.347671 35.133752 0.099424 0.528081 0.039021 -0.008587 314038.000000 0 0 1
-16.735262 -0.793222 29.741741 34.136042 0.047363 0.513010 0.019491 0.001882 364412.000000 0 0 1
-16.873862 -0.680222 28.360521 33.007712 0.040290 0.537075 0.020205 -0.008547 -35206.400000 0 0 1
-16.033362 0.500778 27.800321 32.096376 -0.031223 0.523347 0.017125 -0.008003 35024.900000 0 0 1
-16.540662 1.791778 28.196431 32.739009 -0.107905 0.533074 0.027082 -0.007356 1786300.000000 0 0 1
-17.950762 2.073778 27.895111 33.236541 -0.115016 0.574820 0.045257 -0.016165 1663660.000000 0 0 1
-18.244562 2.898778 26.570081 32.361028 -0.157567 0.607545 0.040569 -0.016461 -279952.000000 0 0 1
-17.834662 4.284778 26.666161 32.365393 -0.235781 0.602521 0.038251 -0.011664 145186.000000 0 0 1
-18.145562 5.019778 25.504521 31.700792 -0.269890 0.635898 0.039309 -0.005505 -277269.000000 0 0 1
-17.855262 6.528778 25.668321 31.942104 -0.350548 0.637495 0.031215 -0.001509 1148030.000000 0 0 1
-16.518762 6.981778 25.346371 31.049207 -0.399885 0.615770 0.023979 0.005070 900747.000000 0 0 1
-16.268662 7.045778 23.900561 29.758178 -0.408702 0.638217 0.014878 0.005582 -193682.000000 0 0 1
-15.097762 7.980778 23.568171 29.104878 -0.486270 0.627041 -0.002542 0.006932 -550770.000000 0 0 1
-13.900462 7.571778 24.134811 28.862498 -0.498776 0.580480 -0.005995 0.016242 -381517.000000 0 0 1
-12.879862 8.549778 23.942061 28.499330 -0.586022 0.573343 -0.003160 0.012990 432304.000000 0 0 1
-11.474562 8.258778 24.491881 28.279413 -0.623856 0.523515 -0.002340 0.020568 93818.600000 0 0 1
-10.486662 9.224778 24.176091 27.920422 -0.721468 0.523864 -0.000149 0.019622 462040.000000 0 0 1
-9.286962 9.056778 24.912291 28.087277 -0.772850 0.480076 0.010757 0.004980 82732.500000 0 0 1
-9.250362 10.318778 25.762931 29.253632 -0.839941 0.493512 0.013398 -0.002758 163491.000000 0 0 1
-10.411462 10.408778 26.619671 30.419535 -0.785269 0.505185 -0.001881 -0.000851 948514.000000 0 0 1
-10.459462 11.580778 27.363181 31.500134 -0.836230 0.518288 0.006825 -0.003210 -720007.000000 0 0 1
-11.014762 12.836778 26.599251 31.521866 -0.861640 0.566406 -0.004542 -0.005857 -337991.000000 0 0 1
-12.400762 12.892778 26.375211 31.869333 -0.804848 0.595969 0.005854 -0.008404 -198252.000000 0 0 1
-12.765962 12.144778 25.236621 30.779091 -0.760467 0.609512 -0.001771 0.005188 9051.880000 0 0 1
-14.314862 12.058778 25.094121 31.305659 -0.700063 0.640856 0.000280 -0.001527 413675.000000 0 0 1
-14.990062 13.244778 24.724781 31.803159 -0.723664 0.680224 0.014032 -0.009140 9546.930000 0 0 1
-16.231662 13.104778 24.064711 31.848271 -0.679212 0.714219 0.029073 0.002941 39645.600000 0 0 1
-16.179762 12.598778 22.576331 30.499256 -0.661602 0.737390 0.015737 0.007109 -401635.000000 0 0 1
-15.809662 11.251778 22.429431 29.658511 -0.618537 0.713224 0.011225 -0.000208 9876.100000 0 0 1
-15.936062 10.947778 21.036231 28.571576 -0.601935 0.743263 0.005415 0.007117 -493008.000000 0 0 1
-16.228662 9.495778 20.546431 27.851303 -0.529409 0.741111 -0.002504 -0.000370 372533.000000 0 0 1
-17.588962 9.182778 20.790231 28.738975 -0.481152 0.762059 0.014203 -0.000222 -152023.000000 0 0 1
-17.841962 7.788778 20.477931 28.255023 -0.411607 0.760120 0.008895 -0.002174 284806.000000 0 0 1
-19.324862 7.384778 20.687731 29.256921 -0.365015 0.785400 0.035026 -0.006296 495934.000000 0 0 1
-19.786962 7.653778 22.033431 30.587191 -0.369083 0.766492 0.031490 -0.009694 -711443.000000 0 0 1
-21.132162 7.366778 22.230131 31.543881 -0.335432 0.788744 0.027291 -0.009918 -720521.000000 0 0 1
-21.531962 7.868778 23.619331 32.915283 -0.350369 0.770476 0.058320 -0.012289 -746159.000000 0 0 1
-21.598762 9.311778 23.817781 33.473907 -0.407048 0.779119 0.055730 -0.020666 638367.000000 0 0 1
-20.423062 10.133778 23.647581 32.848181 -0.460597 0.767130 0.043141 -0.016180 517208.000000 0 0 1
-19.307862 9.886778 24.672271 32.852136 -0.473249 0.721206 0.054519 -0.023104 -271418.000000 0 0 1
-19.689162 10.316778 25.982941 34.193745 -0.482649 0.707677 0.070049 -0.022324 142660.000000 0 0 1
-18.712162 9.849778 26.871061 34.193816 -0.484531 0.666734 0.069335 -0.022151 142016.000000 0 0 1
-31.468642 -14.142690 20.575131 40.169978 0.422373 1.033050 0.078413 -0.016296 272780.000000 0 0 1
-30.350432 -15.032790 20.429631 39.553803 0.459886 1.028035 0.072965 -0.012409 446103.000000 0 0 1
-30.349572 -15.852690 19.320231 39.315082 0.481357 1.057076 0.060549 0.000808 -78161.200000 0 0 1
-30.031412 -15.201190 17.947131 38.145267 0.468576 1.080945 0.062952 0.003031 -469152.000000 0 0 1
-31.041302 -14.354190 17.493331 38.413824 0.433136 1.097984 0.078109 -0.016337 -410341.000000 0 0 1
-30.849602 -14.050490 16.127131 37.539294 0.427378 1.126739 0.075146 -0.015540 -1404380.000000 0 0 1
-31.963502 -13.294190 15.462831 37.914378 0.394153 1.150714 0.072250 -0.019823 611941.000000 0 0 1
-33.232552 -14.009990 15.266131 39.162956 0.398965 1.170371 0.085492 -0.021960 1646290.000000 0 0 1
-34.112049 -14.033790 16.351231 40.347762 0.390298 1.153536 0.095752 -0.022606 -403787.000000 0 0 1
-34.918495 -12.714590 16.652831 40.721970 0.349200 1.149504 0.094560 -0.026862 -164163.000000 0 0 1
-35.914221 -12.908590 17.641331 42.043781 0.345049 1.137798 0.062437 -0.020205 106870.000000 0 0 1
36.341621 -11.672190 18.091031 42.240252 -0.310773 1.128198 0.064972 -0.019480 -98729.800000 0 0 1
35.350571 -11.856190 19.243031 41.958627 -0.323599 1.094356 0.063704 -0.009971 -257200.000000 0 0 1
35.950781 -12.348590 20.466831 43.172185 -0.330860 1.076884 0.054651 -0.004983 -216006.000000 0 0 1
35.271871 -12.064590 21.664131 43.116051 -0.329571 1.044354 0.037490 -0.007062 -1047090.000000 0 0 1
36.015781 -12.399090 22.996331 44.493878 -0.331559 1.027638 0.027559 -0.010213 363416.000000 0 0 1
-35.545345 -11.723990 23.248331 44.061416 0.318596 1.014983 0.037969 -0.012447 549662.000000 0 0 1
-34.440774 -12.372290 22.633431 43.029207 0.344877 1.016904 0.037819 -0.015145 -444536.000000 0 0 1
-33.155952 -11.564390 22.492931 41.701130 0.335594 1.001091 0.047847 -0.011219 -359357.000000 0 0 1
-33.285242 -10.491390 21.562531 41.023400 0.305340 1.017358 0.063122 -0.015579 350894.000000 0 0 1
-32.100622 -9.673790 21.469031 39.811449 0.292703 1.001229 0.081280 -0.020364 324617.000000 0 0 1
-32.237082 -8.293190 20.774031 39.237314 0.251796 1.012849 0.081314 -0.007633 -53248.200000 0 0 1
-32.498412 -8.353690 19.395231 38.757011 0.251602 1.046699 0.087470 -0.009468 66254.600000 0 0 1
-33.827702 -8.617290 18.997931 39.742829 0.249435 1.072395 0.076537 -0.011099 -305907.000000 0 0 1
-34.085277 -8.462090 17.467631 39.224115 0.243343 1.109255 0.089587 -0.011660 -440718.000000 0 0 1
-35.408626 -8.825690 17.190831 40.338422 0.244275 1.130547 0.037231 -0.014533 -311836.000000 0 0 1
-35.717475 -8.662090 15.848831 40.024433 0.237923 1.163663 0.054414 -0.008314 -549778.000000 0 0 1
35.589131 -8.666790 15.514931 39.779550 -0.238874 1.170140 0.059999 -0.016953 -420151.000000 0 0 1
34.963111 -9.926090 15.748431 39.610093 -0.276623 1.161912 0.054343 -0.003853 -519260.000000 0 0 1
33.586201 -9.771490 15.643631 38.317596 -0.283122 1.150247 0.036231 -0.008046 -594015.000000 0 0 1
32.665361 -11.016090 15.777031 37.911671 -0.325263 1.141587 0.031414 -0.005867 178658.000000 0 0 1
32.565241 -11.496090 17.062931 38.520107 -0.339360 1.111897 0.019792 -0.008207 -30193.900000 0 0 1
31.687471 -12.602690 17.089031 38.143920 -0.378538 1.106253 0.034522 -0.004967 158984.000000 0 0 1
31.321931 -13.038590 18.528331 38.657047 -0.394459 1.070939 0.025566 -0.005433 96972.400000 0 0 1
32.364311 -13.834690 19.037631 40.015980 -0.403959 1.074979 0.032031 -0.006907 -117626.000000 0 0 1
32.179501 -13.941390 20.424331 40.583691 -0.408828 1.043424 0.031292 -0.005364 -161733.000000 0 0 1
33.045171 -15.044890 21.021231 41.955026 -0.427238 1.045994 0.023234 0.001532 -32011.800000 0 0 1
33.375731 -14.955690 22.383231 42.879146 -0.421273 1.021594 0.019813 -0.004739 -223152.000000 0 0 1
33.756971 -16.180590 22.942731 43.905734 -0.446972 1.020963 0.023982 0.007131 68535.500000 0 0 1
34.087711 -16.043990 24.436371 44.905656 -0.439908 0.995395 0.035774 0.003384 -151543.000000 0 0 1
35.229911 -15.283590 24.685511 45.652045 -0.409321 0.999490 0.028349 0.004982 -361902.000000 0 0 1
35.606651 -15.377090 26.028061 46.709191 -0.407667 0.979742 0.020470 0.000448 485605.000000 0 0 1
-35.927545 -14.499790 26.415561 46.891516 0.383592 0.972381 0.017490 -0.004717 -49029.300000 0 0 1
-34.740351 -14.912890 25.780011 45.759100 0.405479 0.972319 0.009009 -0.000473 168748.000000 0 0 1
-33.836832 -13.790290 26.037111 44.866853 0.387000 0.951675 0.017204 -0.009700 -675931.000000 0 0 1
-32.390342 -14.134290 25.835241 43.776387 0.411465 0.939535 0.020144 -0.006449 -1430810.000000 0 0 1
-32.046592 -14.397690 24.478551 42.819120 0.422250 0.962252 0.027618 -0.005501 -384774.000000 0 0 1
-30.749442 -14.891990 24.299511 41.925718 0.451010 0.952577 0.040274 -0.011896 -304931.000000 0 0 1
-30.460452 -16.381790 24.705351 42.503606 0.493432 0.950529 0.041066 -0.006505 -776865.000000 0 0 1
-30.277662 -16.577590 26.081021 43.263992 0.500936 0.923748 0.036763 -0.008414 321794.000000 0 0 1
-29.943532 -17.947390 26.465361 43.807982 0.539959 0.922133 0.037710 -0.014022 -485702.000000 0 0 1
-29.651842 -18.227790 27.936501 44.631067 0.551178 0.894456 0.045312 -0.017886 431699.000000 0 0 1
-28.519062 -17.426790 28.309741 43.800358 0.548510 0.868024 0.046495 -0.020056 503940.000000 0 0 1
-28.029392 -17.717690 29.584381 44.438710 0.563697 0.842319 0.061176 -0.022298 341225.000000 0 0 1
-26.792092 -16.861390 30.012751 43.622103 0.561716 0.812043 0.057931 -0.027264 344310.000000 0 0 1
-27.064622 -15.591990 30.586481 43.716550 0.522662 0.795883 0.073508 -0.032078 -245697.000000 0 0 1
-25.958332 -14.770490 30.338251 42.572431 0.517319 0.777561 0.052841 -0.029995 -570403.000000 0 0 1
-25.987752 -13.391090 31.031621 42.633860 0.475800 0.755596 0.060348 -0.019548 -58027.600000 0 0 1
-25.545902 -13.539090 32.367824 43.400186 0.487351 0.729063 0.063974 -0.018089 120560.000000 0 0 1
-25.191612 -12.294790 32.934265 43.248642 0.454043 0.705157 0.065010 -0.016981 -371912.000000 0 0 1
-24.349662 -12.365390 -34.196880 43.763404 0.469889 2.467708 0.069448 -0.015845 273877.000000 0 0 1
-22.964462 -12.634890 34.001086 42.931117 0.502992 0.656732 0.037788 -0.017680 443384.000000 0 0 1
-22.529962 -13.985490 34.003225 43.120905 0.555538 0.662340 0.033511 -0.009805 -178860.000000 0 0 1
-22.401262 -14.672790 -33.023063 42.516232 0.579881 2.460232 0.033004 -0.010170 -1052370.000000 0 0 1
-21.429962 -14.278190 -32.149613 41.191111 0.587730 2.466260 0.013551 -0.005908 -724263.000000 0 0 1
-21.443962 -15.224990 -31.139583 40.759262 0.617399 2.440268 0.031344 -0.009006 492658.000000 0 0 1
-20.133562 -15.342190 -30.287433 39.472417 0.651150 2.445426 0.023528 -0.007772 498837.000000 0 0 1
-19.643362 -14.309490 -29.420233 38.159839 0.629575 2.451165 0.013490 -0.004264 471825.000000 0 0 1
-20.515462 -13.981690 -28.317803 37.659923 0.598215 2.421788 0.026406 -0.004728 7410.420000 0 0 1
-20.170862 -12.777490 -27.470313 36.397061 0.564662 2.426054 0.031771 -0.007141 -706572.000000 0 0 1
-19.007962 -12.958690 -26.730043 35.266492 0.598373 2.430953 0.025858 -0.009005 -263798.000000 0 0 1
-18.559862 -11.760490 -26.054403 34.082393 0.564797 2.440989 0.036376 -0.016684 134099.000000 0 0 1
-17.167362 -11.662190 -25.420353 32.816449 0.596714 2.456914 0.035467 -0.015332 -788288.000000 0 0 1
-17.190962 -12.411590 -24.166163 32.149342 0.625328 2.421409 0.037155 -0.013439 1038300.000000 0 0 1
-15.911062 -12.640190 -23.531863 31.091556 0.671334 2.429287 0.034005 -0.019537 1460040.000000 0 0 1
-14.829662 -13.497090 -24.301063 31.506063 0.738390 2.451699 0.024492 -0.010074 102805.000000 0 0 1
-14.085962 -12.757590 -25.259173 31.610066 0.735953 2.496570 0.044700 -0.021315 -125018.000000 0 0 1
-13.460762 -13.595790 -26.165703 32.414220 0.790389 2.510239 0.052530 -0.014847 -493226.000000 0 0 1
-12.574162 -12.870290 -27.166803 32.585105 0.797036 2.556604 0.057176 -0.011082 -202290.000000 0 0 1
-13.299962 -11.983590 -27.965413 33.204815 0.733381 2.572165 0.057284 -0.021075 -188331.000000 0 0 1
-12.477762 -11.445990 -28.964273 33.550475 0.742297 2.612577 0.071888 -0.036951 79842.100000 0 0 1
-13.193662 -10.375590 -29.811983 34.212277 0.666397 2.628810 0.052860 -0.030246 430632.000000 0 0 1
-12.180162 -9.592690 -30.433313 34.154979 0.667114 2.670418 0.057351 -0.027597 518947.000000 0 0 1
-11.706262 -10.068690 -31.675653 35.238645 0.710335 2.688025 0.073546 -0.020524 -138447.000000 0 0 1
-10.922062 -9.007790 -32.479013 35.430467 0.689641 2.730531 0.052985 -0.020008 -1379810.000000 0 0 1
-9.609862 -8.935390 -32.113043 34.690606 0.749045 2.753674 0.035004 -0.019081 -1610960.000000 0 0 1
-9.026362 -7.820390 -32.730213 34.841076 0.713935 2.791715 0.020354 -0.020757 365193.000000 0 0 1
-7.495662 -7.665290 -32.442573 34.168145 0.796586 2.822427 0.038132 -0.020368 500268.000000 0 0 1
-7.066462 -7.558690 -31.048233 32.727075 0.819042 2.819900 0.021900 -0.018143 21345.100000 0 0 1
-7.576562 -6.448590 -30.282163 31.874723 0.705146 2.824150 0.021202 -0.011923 -332581.000000 0 0 1
-6.950362 -5.086390 -30.574353 31.764287 0.631762 2.867011 0.023427 -0.017859 605690.000000 0 0 1
-5.607962 -4.849290 -30.128333 31.027106 0.712975 2.900312 0.029290 -0.018153 467534.000000 0 0 1
-5.186862 -3.574390 -30.543953 31.186742 0.603389 2.938210 0.038670 -0.025027 159479.000000 0 0 1
-3.681362 -3.333590 -30.283123 30.687665 0.735863 2.979040 0.041963 -0.017195 -38942.000000 0 0 1
-2.697562 -4.083890 -31.034203 31.417778 0.987049 2.985172 0.029833 -0.023101 -79623.500000 0 0 1
-1.399362 -3.801090 -30.650913 30.917389 1.218047 3.010205 0.046488 -0.023122 -699425.000000 0 0 1
-0.807662 -2.426290 -31.038443 31.143605 1.249454 3.059391 0.048021 -0.022518 470805.000000 0 0 1
0.504738 -2.236590 -30.388323 30.474699 -1.348841 3.066284 0.055535 -0.021775 1515780.000000 0 0 1
1.108338 -1.004390 -30.659513 30.695976 -0.736237 3.092846 0.036349 -0.015995 -86031.500000 0 0 1
1.088238 0.011410 -29.585583 29.605593 0.010484 3.104824 0.040455 -0.018439 -1435820.000000 0 0 1
-0.103962 0.604110 -29.369623 29.376019 -1.400374 3.120724 0.043303 -0.017134 -1614490.000000 0 0 1
0.098438 1.886210 -28.862733 28.924468 1.518655 3.076246 0.055805 -0.023951 -346820.000000 0 0 1
-1.114662 2.465610 -28.129043 28.258888 -1.146211 3.045693 0.044561 -0.015619 -314184.000000 0 0 1
-2.023962 2.951610 -29.109613 29.328791 -0.969722 3.019261 0.047791 -0.022971 250329.000000 0 0 1
-2.938162 3.972710 -28.644463 29.067516 -0.933993 2.970774 0.074410 -0.021108 -547665.000000 0 0 1
-4.054262 4.076510 -29.615813 30.168715 -0.788134 2.949847 0.085574 -0.026114 -1193050.000000 0 0 1
-3.642362 4.490010 -30.909293 31.445371 -0.889254 2.956679 0.096645 -0.024691 551133.000000 0 0 1
-4.749662 5.000410 -31.676043 32.418129 -0.811110 2.927215 0.103257 -0.018917 -84977.400000 0 0 1
-4.411162 5.576910 -33.086263 33.841706 -0.901586 2.929902 0.107035 -0.017048 -214747.000000 0 0 1
-4.122162 4.699510 -34.194524 34.761230 -0.850751 2.960776 0.111304 -0.022907 395276.000000 0 0 1
-2.919062 3.978510 -33.939823 34.296662 -0.937804 2.997214 0.103137 -0.021450 -339210.000000 0 0 1
-2.406362 3.406410 33.172587 33.433737 -0.955773 0.125069 0.087578 -0.024647 -25022.000000 0 0 1
-3.145962 2.241910 32.738834 32.965960 -0.619153 0.117453 0.087132 -0.034207 257655.000000 0 0 1
-2.657662 1.578510 31.576281 31.727218 -0.535957 0.097582 0.097328 -0.029803 -150638.000000 0 0 1
-2.452162 2.355910 30.254821 30.445322 -0.765382 0.111926 0.095226 -0.029961 -403591.000000 0 0 1
-3.522062 3.169610 29.851461 30.225173 -0.732777 0.157416 0.085516 -0.032526 -502676.000000 0 0 1
-3.317062 4.005210 28.741021 29.207720 -0.879103 0.179005 0.087347 -0.033492 434912.000000 0 0 1
-4.555762 4.948410 28.679401 29.457593 -0.826688 0.230367 0.073628 -0.026002 523577.000000 0 0 1
-4.592962 5.718310 27.502421 28.463618 -0.894106 0.260619 0.065844 -0.011430 7379.490000 0 0 1
-5.855162 6.337610 27.300671 28.631711 -0.824946 0.306114 0.052187 -0.010245 157516.000000 0 0 1
-5.951062 7.113610 25.981121 27.586903 -0.874148 0.342875 0.054304 -0.009664 -158551.000000 0 0 1
-5.287162 8.343410 26.127581 27.932366 -1.005970 0.361444 0.066901 -0.011689 -14025.900000 0 0 1
-5.454762 9.138710 24.950001 27.125136 -1.032670 0.403198 0.059571 -0.011530 -59537.800000 0 0 1
-4.947562 10.580010 25.146931 27.726939 -1.133376 0.434812 0.062509 -0.006566 -325018.000000 0 0 1
-4.770262 11.278210 23.933211 26.884047 -1.170653 0.472928 0.063973 -0.009099 204851.000000 0 0 1
-4.150362 12.540410 23.945271 27.347091 -1.251184 0.504108 0.063913 -0.002505 -420704.000000 0 0 1
-2.614862 12.583310 24.045111 27.264346 -1.365908 0.490866 0.073275 -0.002776 -401856.000000 0 0 1
-1.958062 12.188410 25.265581 28.120116 -1.411508 0.454484 0.082672 -0.005026 33419.500000 0 0 1
-2.269562 13.015210 26.356541 29.482433 -1.398155 0.464659 0.085864 -0.003643 -792137.000000 0 0 1
-1.479462 12.789510 27.659121 30.508808 -1.455630 0.435653 0.081542 -0.002838 658309.000000 0 0 1
-0.102262 13.128410 27.506731 30.479269 -1.563007 0.445319 0.087118 -0.003361 495358.000000 0 0 1
0.724338 12.605410 28.568461 31.234244 1.513397 0.416150 0.080321 -0.005177 269132.000000 0 0 1
2.229238 12.556710 28.283251 31.025518 1.395093 0.423606 0.063164 -0.006313 -77737.300000 0 0 1
2.846838 13.825510 28.508061 31.811299 1.367723 0.459754 0.065529 0.002054 -671526.000000 0 0 1
4.226938 13.603910 28.588951 31.941532 1.269539 0.462275 0.061192 0.005331 -223826.000000 0 0 1
5.047038 14.924010 28.815751 32.841227 1.244688 0.500326 0.068801 0.000411 -167476.000000 0 0 1
5.023338 15.540810 30.073281 34.222112 1.258161 0.497523 0.069959 0.008745 722538.000000 0 0 1
3.846938 16.331210 30.335291 34.666082 1.339456 0.505213 0.041336 0.011955 652332.000000 0 0 1
3.982938 17.735310 29.681501 34.805122 1.349885 0.549490 0.051245 0.015061 263565.000000 0 0 1
4.899938 18.641710 30.302641 35.913407 1.313762 0.566528 0.059413 0.014642 246048.000000 0 0 1
5.128238 19.807910 29.436991 35.849527 1.317460 0.607415 0.039103 0.013300 -315482.000000 0 0 1
6.167438 20.777610 29.943811 36.964553 1.282249 0.626528 0.044576 0.008798 -445067.000000 0 0 1
5.794538 21.549310 31.105981 38.282261 1.308113 0.622295 0.038395 -0.002516 491488.000000 0 0 1
6.883238 22.353610 31.598981 39.313591 1.272085 0.637196 0.038254 -0.003914 414155.000000 0 0 1
7.019138 23.779210 31.054491 39.737898 1.283768 0.673757 0.038972 0.007846 -203390.000000 0 0 1
7.527538 23.773910 29.744941 38.815256 1.264153 0.697702 0.023295 0.013037 259142.000000 0 0 1
7.614038 25.051910 29.142561 39.177297 1.275738 0.731964 0.025325 0.012756 -61925.700000 0 0 1
8.090038 25.045010 27.687641 38.200873 1.258356 0.760066 0.041699 0.011050 -311643.000000 0 0 1
7.190238 24.432110 26.802131 36.972716 1.284582 0.759883 0.028464 0.009473 -23339.400000 0 0 1
7.654938 24.373510 25.468871 36.073944 1.266484 0.786936 0.039061 0.001993 -184147.000000 0 0 1
29.270141 2.362910 6.973037 30.181911 0.080553 1.337656 0.080121 0.000210 18908.500000 0 0 1
29.265731 3.051510 8.170137 30.537614 0.103894 1.299954 0.071816 -0.005304 500065.000000 0 0 1
28.059071 2.904910 8.914037 29.583949 0.103161 1.264727 0.068064 0.003184 174257.000000 0 0 1
28.140011 3.922310 10.153737 30.171893 0.138493 1.227567 0.049688 0.000096 -25700.000000 0 0 1
28.035611 5.336810 9.913037 30.211676 0.188108 1.236484 0.056531 0.000911 -177425.000000 0 0 1
29.031191 5.925610 9.128337 31.004023 0.201346 1.271943 0.072589 -0.017143 -424568.000000 0 0 1
28.817801 7.410010 8.741737 31.012770 0.251681 1.285048 0.084634 -0.020531 -26132.100000 0 0 1
27.820891 7.659710 7.785937 29.888024 0.268666 1.307253 0.080314 -0.023167 22761.500000 0 0 1
27.957901 9.013410 7.447537 30.304317 0.311871 1.322494 0.088540 -0.032598 42709.300000 0 0 1
27.078401 9.314810 6.233937 29.306441 0.331314 1.356443 0.088617 -0.029062 -182799.000000 0 0 1
25.702401 9.465710 6.455437 28.140465 0.352867 1.339335 0.077071 -0.028365 -184490.000000 0 0 1
24.982701 9.623410 5.261437 27.284210 0.367686 1.376743 0.094950 -0.036228 -21071.400000 0 0 1
23.506701 10.023010 5.451637 26.129410 0.403047 1.360612 0.037280 -0.031536 -104368.000000 0 0 1
23.393701 11.355810 5.802937 26.643831 0.451917 1.351240 0.036557 -0.014263 956275.000000 0 0 1
22.038901 11.831810 5.729537 25.661888 0.492699 1.345628 0.031015 -0.017449 584620.000000 0 0 1
21.908501 13.317910 6.228937 26.384632 0.546199 1.332464 0.032148 -0.007407 -498457.000000 0 0 1
22.385701 14.345510 5.355637 27.121875 0.569904 1.372024 0.045385 -0.008391 525401.000000 0 0 1
22.175501 15.596410 5.996137 27.766068 0.612949 1.353130 0.084580 -0.013851 -136236.000000 0 0 1
22.073301 16.838110 5.071537 28.221854 0.651660 1.390112 0.087420 -0.016621 118556.000000 0 0 1
20.787001 16.921210 4.458237 27.171725 0.683237 1.405975 0.099848 -0.009069 710348.000000 0 0 1
20.681401 17.745810 3.345637 27.455918 0.709153 1.448638 0.095123 -0.013391 -295753.000000 0 0 1
19.189901 17.844510 2.979737 26.373427 0.749086 1.457572 0.095869 -0.004648 -396792.000000 0 0 1
18.462601 18.727310 3.778937 26.568029 0.792516 1.428076 0.099116 -0.011825 96492.200000 0 0 1
17.095001 18.415810 3.565737 25.379039 0.822576 1.429831 0.092678 -0.017975 282652.000000 0 0 1
16.114101 19.312610 4.381637 25.531155 0.875439 1.398323 0.087689 -0.024129 1298210.000000 0 0 1
14.721701 18.910610 4.400437 24.366032 0.909310 1.389203 0.082657 -0.029199 838389.000000 0 1 0
13.926101 20.033810 4.486937 24.807709 0.963346 1.388927 0.067984 -0.029306 29055.100000 0 1 0
12.435001 19.733910 4.164437 23.693860 1.008514 1.394118 0.056076 -0.020223 174197.000000 0 1 0
11.659801 19.073810 5.139837 22.938594 1.022110 1.344808 0.042183 -0.025718 -55684.000000 0 1 0
10.318701 19.325910 4.761737 22.419646 1.080374 1.356775 0.038044 -0.003839 73158.000000 0 1 0
9.239701 18.817210 5.742437 21.735571 1.114355 1.303427 0.018432 -0.009015 -596047.000000 0 1 0
9.271301 19.532310 6.989637 22.722746 1.127621 1.258121 0.036091 -0.015219 -199402.000000 0 1 0
8.684601 18.800210 8.021137 22.208305 1.138056 1.201266 0.035263 -0.015362 -383340.000000 0 1 0
7.683001 19.576610 8.914637 22.841692 1.196808 1.169862 0.031431 -0.015683 822887.000000 0 1 0
6.440101 19.911510 8.285537 22.507626 1.257980 1.193809 0.026118 -0.020696 357272.000000 0 1 0
6.450101 21.020610 7.394437 23.198007 1.273070 1.246383 0.024843 -0.017426 -1021510.000000 0 1 0
5.098301 21.159210 6.723937 22.779731 1.334354 1.271161 0.011648 -0.007219 1019350.000000 0 1 0
3.889401 21.551810 7.478237 23.141564 1.392251 1.241738 0.007291 -0.002269 1525890.000000 0 1 0
3.682701 22.876510 7.995937 24.511875 1.411184 1.238508 0.017057 -0.010222 -227618.000000 0 1 0
3.913201 24.010010 6.947037 25.299309 1.409235 1.292629 0.022595 -0.013244 -133579.000000 0 0 1
2.847101 24.072010 6.026337 24.977678 1.453069 1.327123 0.020922 -0.013342 247742.000000 0 1 0
3.059301 25.117910 5.074037 25.807258 1.449596 1.372894 0.029651 -0.007749 163230.000000 0 0 1
1.782801 25.424410 4.233537 25.836057 1.500789 1.406192 0.023645 -0.006924 417526.000000 0 0 1
0.738201 26.017210 5.023237 26.507981 1.542430 1.380144 0.036783 -0.012338 -591691.000000 0 0 1
-0.329799 26.230110 4.200237 26.566321 -1.558224 1.412026 0.035060 -0.008935 -322671.000000 0 0 1
-1.671799 26.644610 4.906437 27.144120 -1.508134 1.389042 0.040739 -0.016061 1107860.000000 0 0 1
-2.580299 27.258410 3.979437 27.667937 -1.476417 1.426467 0.071820 -0.020505 -297483.000000 0 0 1
-3.720099 27.804710 4.539937 28.417460 -1.437792 1.410350 0.059601 -0.027808 -686273.000000 0 0 1
-4.666799 28.425410 3.509837 29.018992 -1.408071 1.449550 0.055322 -0.032063 -96188.600000 0 0 1
-4.096799 29.501910 2.776737 29.914156 -1.432813 1.477839 0.055204 -0.029809 100080.000000 0 0 1
-4.886699 29.742510 1.630137 30.185329 -1.407951 1.516766 0.066439 -0.028476 -96702.600000 0 0 1
-4.249899 30.662910 0.553037 30.960968 -1.433073 1.552933 0.059690 -0.024166 -185809.000000 0 0 1
-4.136899 32.105910 0.884437 32.383416 -1.442651 1.543482 0.055718 -0.020156 66117.900000 0 0 1
-3.292499 32.412710 1.997137 32.640663 -1.469563 1.509573 0.050934 -0.024826 -439562.000000 0 0 1
-2.525099 33.714110 1.797637 33.856297 -1.496039 1.517675 0.050821 -0.018871 -602666.000000 0 0 1
-1.684499 33.718710 0.625437 33.766553 -1.520880 1.552273 0.034324 -0.018490 325248.000000 0 0 1
-0.734899 -33.638322 0.654837 33.652721 1.548953 1.551336 0.038324 -0.011566 954160.000000 0 0 1
0.575801 -33.883122 1.489937 33.920752 -1.553804 1.526858 0.035497 -0.007653 309507.000000 0 0 1
0.205501 -33.892422 2.903537 34.017187 -1.564733 1.485337 0.034562 -0.014134 292614.000000 0 0 1
1.373901 -34.115022 3.681637 34.340600 -1.530545 1.463380 0.033546 -0.011353 261343.000000 0 0 1
1.217801 -34.019822 5.198137 34.436201 -1.535015 1.419267 0.039821 -0.017994 104691.000000 0 0 1
0.274201 33.502610 5.784937 33.999493 1.562612 1.399817 0.041172 -0.029437 -86554.300000 0 0 1
-0.182699 33.935310 7.047437 34.659847 -1.565413 1.366037 0.049176 -0.031289 -115748.000000 0 0 1
0.733401 33.652010 8.226037 34.650589 1.549006 1.331108 0.055751 -0.021959 -131366.000000 0 0 1
1.098501 32.277910 8.374737 33.364748 1.536777 1.317077 0.059463 -0.023636 334130.000000 0 0 1
2.245801 32.258910 9.230637 33.628642 1.501290 1.292740 0.073941 -0.019988 613763.000000 0 0 1
2.887501 30.827110 9.429737 32.366160 1.477401 1.275163 0.059511 -0.018154 496184.000000 0 0 1
2.000801 29.975710 10.141437 31.707966 1.504148 1.245237 0.068854 -0.026299 543010.000000 0 0 1
2.539601 28.652910 10.112537 30.491019 1.482394 1.232738 0.072475 -0.027667 384060.000000 0 0 1
1.886301 27.786510 11.256537 30.039272 1.503015 1.186694 0.053045 -0.026638 -5945.660000 0 0 1
2.270301 28.157910 12.555037 30.913607 1.490343 1.152578 0.066092 -0.022177 -281121.000000 0 0 1
2.201201 27.086210 13.488137 30.338719 1.489708 1.110086 0.054104 -0.017282 -937780.000000 0 0 1
0.819501 26.722710 14.027937 30.192016 1.540139 1.087586 0.044546 -0.023021 -168247.000000 0 0 1
0.033601 27.636210 14.826537 31.362197 1.569580 1.078385 0.046220 -0.022410 393598.000000 0 0 1
-0.395299 28.721910 14.035037 31.970090 -1.557034 1.116305 0.061186 -0.024003 -1013220.000000 0 0 1
-1.005799 29.955510 14.741237 33.401321 -1.537233 1.113708 0.040140 -0.021090 515550.000000 0 0 1
-2.288499 29.706410 15.306637 33.496286 -1.493911 1.096216 0.029175 -0.014961 322905.000000 0 0 1
-2.930199 30.920210 15.630237 34.769955 -1.476312 1.104554 0.013097 -0.013312 413480.000000 0 0 1
-4.357299 30.781610 16.261437 35.084582 -1.430175 1.088864 0.000681 0.004303 304782.000000 0 0 1
-5.320099 30.371310 15.327937 34.433495 -1.397387 1.109459 0.006322 -0.002142 -116608.000000 0 0 1
-6.412799 29.860510 16.070637 34.511439 -1.359251 1.086415 0.006794 0.004810 -539469.000000 0 0 1
-7.371299 28.987810 15.287737 33.590833 -1.321784 1.098293 -0.001036 -0.004693 -187697.000000 0 0 1
-8.633899 28.862310 15.903037 34.065873 -1.280128 1.085091 -0.002597 -0.001524 -660502.000000 0 0 1
-9.561199 28.277210 15.052937 33.430645 -1.244741 1.103725 0.006455 -0.006856 -485627.000000 0 0 1
-10.798299 27.780310 15.809237 33.738418 -1.200066 1.083111 0.004294 -0.002422 -484327.000000 0 0 1
-11.553799 28.845610 16.404637 35.137894 -1.189825 1.085054 0.006822 -0.005600 293430.000000 0 0 1
-11.119899 29.260810 17.694037 35.957281 -1.207626 1.056313 0.014633 -0.006712 -866298.000000 0 0 1
-12.000999 30.391810 18.102637 37.354940 -1.194715 1.064877 0.030154 -0.007045 126695.000000 0 0 1
-13.204499 30.010710 18.794537 37.792011 -1.156295 1.050295 0.027307 -0.007407 538323.000000 0 0 1
-13.823299 31.233910 19.125737 39.146322 -1.154135 1.060346 0.050058 -0.016390 -612387.000000 0 0 1
-15.035799 31.116810 20.014237 39.936209 -1.120675 1.045863 0.052392 -0.016157 -478728.000000 0 0 1
-14.656699 30.632010 21.295437 40.082845 -1.124515 1.010679 0.041635 -0.017006 -426160.000000 0 0 1
-15.714999 30.632510 22.174337 40.951350 -1.096789 0.998600 0.030064 -0.010601 -772066.000000 0 0 1
-15.205199 30.609410 23.629937 41.551269 -1.109753 0.965880 0.026563 -0.004375 -448925.000000 0 0 1
-14.253299 29.602310 23.834437 40.589822 -1.122064 0.943198 0.017144 -0.007557 165528.000000 0 0 1
-13.881199 29.242910 25.157137 40.996549 -1.127604 0.910133 0.034188 -0.006928 -57959.300000 0 0 1
-13.156899 30.260810 26.096637 42.069645 -1.160668 0.901646 0.030913 -0.010905 -524555.000000 0 0 1
-14.027199 31.291410 26.451537 43.308180 -1.149377 0.913758 0.039227 -0.012189 -60226.500000 0 0 1
-13.412999 32.467510 26.889637 44.239126 -1.179030 0.917478 0.048011 -0.011251 -352202.000000 0 0 1
-14.446299 33.561010 27.285137 45.601706 -1.164320 0.929374 0.064104 -0.016786 260394.000000 0 0 1
-15.253899 33.245910 28.429837 46.327396 -1.140632 0.910093 0.034995 -0.021731 189677.000000 0 0 1
-14.617099 33.349110 29.673537 46.971710 -1.157710 0.887011 0.052116 -0.008638 -293337.000000 0 0 1
-15.278799 32.504810 30.804937 47.317528 -1.131397 0.861861 0.029256 -0.013207 970273.000000 0 0 1
-16.506199 33.066010 31.322537 48.444989 -1.107797 0.867731 0.024533 -0.005411 623695.000000 0 0 1
-17.097799 32.314410 32.376137 48.834107 -1.084135 0.846001 0.015393 0.000696 -139768.000000 0 0 1
-18.528999 32.782410 32.629937 49.826930 -1.056349 0.856792 0.021299 0.000739 -318241.000000 0 0 1
-18.630299 34.047910 33.133537 51.031162 -1.070122 0.864158 0.033525 -0.002286 -180513.000000 0 0 1
-19.976999 -33.927322 33.098037 51.435627 1.038640 0.871754 0.027461 0.004376 -62536.400000 0 0 1
-20.152999 -32.405122 33.287337 50.638741 1.014424 0.853501 0.028467 0.009865 -251928.000000 0 0 1
-19.860199 -31.779022 -33.868657 50.511580 1.012235 2.305696 0.025816 0.011924 -305098.000000 0 0 1
-20.537499 -32.245122 -32.746957 50.337858 1.003673 2.279096 0.031374 0.009034 -6363.390000 0 0 1
-20.087999 -31.396922 -31.471857 48.782909 1.001619 2.272004 0.043402 0.001927 53919.000000 0 0 1
-20.535999 -30.083222 -31.527157 48.173531 0.971817 2.284251 0.046613 0.003665 -173701.000000 0 0 1
-19.815899 -29.290422 -30.631557 46.785585 0.975995 2.284611 0.045479 -0.000098 -209104.000000 0 0 1
-20.293199 -27.824222 -30.748257 46.167700 0.940652 2.299646 0.045298 -0.009486 -868221.000000 0 0 1
-21.560799 -27.673922 -30.248857 46.321781 0.908929 2.282356 0.051162 -0.006884 -1273060.000000 0 0 1
-21.835299 -26.270622 -30.197857 45.594259 0.877337 2.294704 0.052296 -0.007337 262086.000000 0 0 1
-23.185299 -25.867122 -29.549057 45.604965 0.840016 2.275667 0.062151 -0.013156 139966.000000 0 0 1
-23.279199 -25.968522 -28.103557 44.789454 0.839952 2.249082 0.057368 -0.013319 -136733.000000 0 0 1
-22.438299 -25.117322 -27.376357 43.403019 0.841673 2.253313 0.059275 -0.015414 -321239.000000 0 0 1
-22.127299 -25.584022 -25.956257 42.636684 0.857723 2.225315 0.051842 -0.011456 -472102.000000 0 0 1
-23.273299 -25.459422 -25.167257 42.699174 0.830228 2.201123 0.053160 -0.011968 -279807.000000 0 0 1
-23.151799 -26.046422 -23.859157 42.233651 0.844166 2.171148 0.046280 -0.006062 -469710.000000 0 0 1
-24.397499 -25.888922 -22.947057 42.332513 0.815048 2.143691 0.039142 -0.002120 747731.000000 0 0 1
-25.617799 -26.564822 -23.202457 43.592607 0.803544 2.132060 0.041179 -0.000495 251492.000000 0 0 1
-25.455899 -28.008122 -23.390357 44.492319 0.833099 2.124354 0.045133 0.000426 -1171090.000000 0 0 1
-26.787199 -28.754522 -23.572857 45.826370 0.820804 2.111098 0.021116 0.000171 89460.400000 0 0 1
-27.602199 -28.761222 -22.421657 45.736418 0.805959 2.083157 0.014337 0.011744 324241.000000 0 0 1
-28.747499 -27.909722 -22.610357 46.006516 0.770612 2.084562 0.019632 0.007376 410027.000000 0 0 1
-29.324999 -27.414022 -21.274657 45.432314 0.751731 2.058130 0.016824 0.002557 -301125.000000 0 0 1
-30.123199 -28.317322 -20.578157 46.181581 0.754507 2.032632 0.001605 0.013933 -105313.000000 0 0 1
-30.609499 -27.647322 -19.430357 45.594458 0.734595 2.011036 -0.002366 0.013723 -777001.000000 0 0 1
-31.576799 -28.502722 -18.534457 46.400706 0.734276 1.981706 -0.004217 0.013418 -354497.000000 0 0 1
-32.887799 -28.476822 -19.057857 47.494617 0.713640 1.983692 0.001655 0.012444 167632.000000 0 0 1
-33.700099 -27.312122 -18.861357 47.301157 0.681078 1.980950 -0.001658 0.006509 -400026.000000 0 0 1
-33.994599 -26.930322 -17.368757 46.717756 0.669963 1.951723 0.011098 0.000027 -727315.000000 0 0 1
-32.893899 -26.288622 -16.724357 45.307884 0.674250 1.948866 0.007505 0.006966 363769.000000 0 0 1
-33.154699 -25.587822 -15.470557 44.646487 0.657289 1.924647 0.014015 0.001970 -200107.000000 0 0 1
-33.207699 -26.461722 -14.204157 44.774234 0.672820 1.893614 0.009096 0.003875 -266731.000000 0 0 1
-34.193899 -27.453822 -14.203057 46.094055 0.676499 1.884025 0.020597 0.000723 -15738.200000 0 0 1
-34.128499 -28.208422 -13.002857 46.146980 0.690713 1.856435 0.011325 -0.004499 -129379.000000 0 0 1
-34.950099 -29.510822 -12.999757 47.554092 0.701217 1.847689 0.026355 -0.005480 -207578.000000 0 0 1
-34.445099 -30.563722 -13.770757 48.064953 0.725764 1.861371 0.020947 -0.001042 57930.400000 0 0 1
-34.863799 -31.845122 -13.323257 49.062261 0.740178 1.845808 0.024722 -0.003635 -264802.000000 0 0 1
-34.398599 -32.994522 -14.200057 49.734733 0.764567 1.860341 0.026038 0.011479 197619.000000 0 0 1
-33.023899 -33.322622 -14.035857 48.969177 0.789901 1.861500 0.031476 0.008685 344324.000000 0 0 1
-32.550799 34.159910 -14.979857 49.506061 -0.809514 1.878201 0.053872 -0.006341 1647800.000000 0 0 1
-30.968699 33.935110 -15.020157 48.334843 -0.831071 1.886781 0.049475 0.000646 1831800.000000 0 0 1
-30.561899 32.952810 -15.965557 47.695035 -0.823024 1.912128 0.062510 0.001097 -826879.000000 0 0 1
-29.159199 32.933410 -16.005457 46.808578 -0.846107 1.919771 0.044357 0.002324 -420795.000000 0 0 1
9.731838 20.261110 -9.642463 24.458093 1.123015 1.976042 0.056341 -0.011573 -113757.000000 0 1 0
8.404638 19.882310 -9.311663 23.508536 1.170859 1.978059 0.052926 -0.016073 308116.000000 0 1 0
7.553838 19.739110 -10.449963 23.577418 1.205306 2.029983 0.053920 -0.024573 246498.000000 0 1 0
7.685138 18.519110 -11.421763 23.075429 1.177440 2.088602 0.050792 -0.014054 32041.300000 0 1 0
8.962838 18.402710 -12.045363 23.750431 1.117571 2.102687 0.075325 -0.015405 360707.000000 0 1 0
9.006938 17.060710 -12.527763 23.002991 1.085052 2.146726 0.067548 -0.030151 162724.000000 0 1 0
10.144338 16.775110 -13.539663 23.825079 1.026909 2.175228 0.083644 -0.018459 249726.000000 0 1 0
10.054838 15.413710 -14.028963 23.140744 0.992784 2.222127 0.084851 -0.034557 240523.000000 0 1 0
11.053538 15.140910 -15.002463 24.010451 0.940190 2.245711 0.092713 -0.031340 -7084.580000 0 1 0
11.000538 13.667810 -15.499363 23.410491 0.893105 2.294373 0.079363 -0.039819 -525839.000000 0 1 0
11.120238 12.604610 -14.565663 22.241727 0.847883 2.284820 0.084350 -0.038741 461836.000000 0 1 0
12.411738 12.374310 -14.029063 22.449708 0.783888 2.245813 0.115928 -0.035506 -498573.000000 0 1 0
13.466138 11.723610 -14.876863 23.240072 0.716332 2.265475 0.107872 -0.032820 -929969.000000 0 1 0
13.873038 12.497310 -16.068463 24.634111 0.733276 2.281392 0.077307 -0.020561 589304.000000 0 1 0
14.874238 11.714310 -16.732263 25.267304 0.667108 2.294561 0.069718 -0.021889 352723.000000 0 0 1
15.553738 12.436810 -17.931263 26.797821 0.674499 2.303836 0.043048 -0.018190 -101442.000000 0 0 1
16.541338 13.372110 -17.579463 27.594686 0.679845 2.261474 0.024536 -0.009169 -34177.000000 0 0 1
17.073238 14.033210 -18.725163 28.966501 0.687978 2.273708 0.007731 -0.004650 132339.000000 0 0 1
18.351138 14.880610 -18.534463 30.028705 0.681341 2.236007 0.004438 0.006365 -422695.000000 0 0 1
18.166138 16.172810 -17.959363 30.234204 0.727415 2.206828 0.005397 -0.000341 276921.000000 0 0 1
17.328738 17.104410 -18.679863 30.688488 0.778883 2.225208 0.007605 -0.003071 364732.000000 0 0 1
17.009938 18.410410 -17.945063 30.827041 0.824916 2.192131 0.016552 -0.001714 605546.000000 0 0 1
18.148638 19.286910 -18.083963 32.068484 0.815795 2.169918 0.015965 -0.001978 807378.000000 0 0 1
17.841538 20.650510 -17.723263 32.540407 0.858244 2.146773 0.010426 0.000060 -196042.000000 0 0 1
18.979538 21.654310 -17.923463 33.917289 0.851130 2.127566 0.028274 -0.006071 813698.000000 0 0 1
20.164638 21.627510 -17.096963 34.156521 0.820387 2.095027 0.026232 -0.003745 396511.000000 0 0 1
20.012238 22.519310 -16.004963 34.114041 0.844276 2.059136 0.031814 -0.003806 -636453.000000 0 0 1
21.228838 23.092410 -15.264063 34.884303 0.827420 2.023682 0.035318 -0.004426 -415495.000000 0 0 1
21.938938 22.106810 -14.535763 34.370284 0.789209 2.007458 0.035346 -0.005718 -308736.000000 0 0 1
22.793138 22.832510 -13.664163 35.036552 0.786261 1.971425 0.047455 -0.010118 -679444.000000 0 0 1
24.276438 22.637110 -13.910563 35.990109 0.750469 1.967642 0.051346 -0.011190 -1039550.000000 0 0 1
24.692838 22.958210 -15.248363 37.004435 0.749011 1.995519 0.058703 -0.004115 -1133460.000000 0 0 1
26.047138 23.152210 -15.082363 37.973094 0.726625 1.979244 0.058887 0.000603 -1190820.000000 0 0 1
26.685738 23.645010 -16.410063 39.249271 0.725057 2.002147 0.067883 0.001420 -364632.000000 0 0 1
27.048338 22.601210 -17.309063 39.268702 0.696066 2.027270 0.068668 -0.011982 212186.000000 0 0 1
26.856638 23.040410 -18.656163 40.002399 0.709065 2.055986 0.057338 0.002106 -882996.000000 0 0 1
27.317138 21.982010 -19.670063 40.203808 0.677598 2.082036 0.058281 -0.013059 -1336220.000000 0 0 1
28.686238 21.921510 -19.724363 41.140045 0.652516 2.070818 0.056518 -0.005234 -1576440.000000 0 0 1
29.002238 21.166910 -20.847663 41.518585 0.630471 2.096855 0.072192 -0.023825 244581.000000 0 0 1
30.532238 21.316510 -21.063363 42.781730 0.609493 2.085578 0.101898 -0.031788 173634.000000 0 0 1
30.856538 22.567010 -21.620363 43.918515 0.631460 2.085508 0.081457 -0.010711 -89695.600000 0 0 1
32.268038 22.675810 -21.591563 44.962364 0.612558 2.071695 0.111581 -0.022622 171900.000000 0 0 1
32.786238 24.017610 -22.086863 46.255946 0.632240 2.068595 0.102512 -0.018326 -181107.000000 0 0 1
32.905938 24.303910 -23.476463 47.165932 0.636157 2.091790 0.091444 -0.022656 53610.400000 0 0 1
31.695738 24.473710 -24.191663 46.784814 0.657524 2.114237 0.086663 -0.026352 -129452.000000 0 0 1
31.866138 24.939410 -25.653343 47.911574 0.664060 2.135814 0.080168 -0.023790 -389451.000000 0 0 1
31.809938 26.319810 -25.846423 48.709774 0.691231 2.130129 0.071237 -0.015817 54026.300000 0 0 1
30.491038 26.774510 -26.114073 48.254767 0.720589 2.142625 0.056887 -0.005720 72416.700000 0 0 1
30.013238 26.528710 -27.569053 48.627354 0.723849 2.173589 0.061916 -0.006745 -387387.000000 0 0 1
29.511638 25.202310 -27.666263 47.660417 0.706799 2.190123 0.066077 -0.021026 -115830.000000 0 0 1
29.345738 24.849810 -29.036553 48.185130 0.702630 2.217556 0.064320 -0.023791 -300232.000000 0 0 1
28.643138 23.482210 -29.316773 47.236815 0.686710 2.240347 0.073548 -0.022170 -34387.100000 0 0 1
27.320238 23.622410 -28.867843 46.235982 0.712937 2.245107 0.057555 -0.017776 -606743.000000 0 0 1
26.522738 22.521210 -29.151703 45.392536 0.703988 2.268179 0.070936 -0.023861 128162.000000 0 0 1
25.057738 22.683610 -28.665793 44.318891 0.735710 2.274187 0.055139 -0.019943 121491.000000 0 0 1
24.939838 22.477210 -27.256213 43.244903 0.733509 2.252705 0.036873 -0.009242 -155543.000000 0 0 1
23.642438 22.551710 -26.746453 42.224605 0.761791 2.256778 0.036444 -0.016484 -724305.000000 0 0 1
23.690038 22.689710 -25.213163 41.373233 0.763833 2.226110 0.038962 -0.014729 -237332.000000 0 0 1
24.114038 21.512510 -24.516563 40.562751 0.728442 2.219822 0.028093 -0.011855 229928.000000 0 0 1
24.486638 21.823310 -23.206163 40.179327 0.727951 2.186539 0.031623 -0.012425 79950.500000 0 0 1
25.092138 20.572610 -22.434963 39.448387 0.686748 2.175741 0.042488 -0.016445 -72581.700000 0 0 1
26.311838 20.039710 -22.872963 40.212874 0.650899 2.175839 0.039641 -0.019737 -136092.000000 0 0 1
26.439538 18.696710 -22.407663 39.379176 0.615508 2.176114 0.070958 -0.030636 389612.000000 0 0 1
27.685438 18.092910 -23.128663 40.358046 0.578844 2.181064 0.093581 -0.042824 269855.000000 0 0 1
28.934438 18.296210 -22.531563 40.983220 0.563855 2.152892 0.127072 -0.055738 -304917.000000 0 0 1
29.979738 17.992610 -23.437163 42.092984 0.540536 2.161319 0.118893 -0.049804 165709.000000 0 0 1
31.352938 17.759810 -22.789863 42.635612 0.515383 2.134744 0.118547 -0.047711 -329379.000000 0 0 1
32.038038 18.840710 -22.291763 43.339715 0.531604 2.111045 0.114760 -0.047093 18525.700000 0 0 1
33.357238 18.401110 -21.952063 43.968162 0.504100 2.093554 0.117474 -0.039411 560660.000000 0 0 1
34.136338 19.363710 -21.086063 44.551822 0.515988 2.063821 0.104142 -0.047227 433364.000000 0 0 1
33.363438 19.576910 -19.866863 43.486396 0.530640 2.045250 0.105880 -0.041365 388070.000000 0 0 1
34.034738 20.430510 -18.994763 44.006478 0.540628 2.017102 0.079320 -0.022612 -206423.000000 0 0 1
33.448038 20.545310 -17.549263 42.998345 0.550828 1.991210 0.080902 -0.026179 -67003.500000 0 0 1
33.515338 19.314710 -16.816463 42.179726 0.522807 1.980880 0.085140 -0.036958 328740.000000 0 0 1
33.228938 19.662210 -15.475363 41.596294 0.534309 1.951999 0.071983 -0.029962 -356725.000000 0 0 1
33.532438 18.555610 -14.498163 40.974770 0.505421 1.932461 0.059519 -0.018730 -415697.000000 0 0 1
34.921638 18.302210 -14.436663 41.987009 0.482736 1.921796 0.043373 -0.019298 78861.800000 0 0 1
35.327938 17.269510 -13.556563 41.594225 0.454675 1.902785 0.038283 -0.002108 -10002.700000 0 0 1
35.210438 17.576010 -12.072563 41.163550 0.462984 1.868455 0.041285 -0.011827 -398123.000000 0 0 1
35.932138 18.708110 -11.634163 42.148139 0.480032 1.850458 0.033979 -0.014755 230043.000000 0 0 1
35.615238 18.991010 -10.247163 41.642622 0.489875 1.819424 0.041605 -0.011912 -520012.000000 0 0 1
34.458238 19.942910 -10.054463 41.063147 0.524652 1.818165 0.052223 -0.019652 -92790.400000 0 0 1
33.204838 19.403610 -10.458063 39.855143 0.528841 1.836307 0.049275 -0.030233 637124.000000 0 0 1
32.096938 20.187710 -9.931763 39.196900 0.561442 1.826970 0.045179 -0.021918 374936.000000 0 0 1
30.767938 19.668110 -10.460763 37.985894 0.568774 1.849787 0.053137 -0.025097 -562913.000000 0 0 1
30.697038 19.473910 -11.857463 38.237949 0.565324 1.886091 0.061887 -0.029422 -216671.000000 0 0 1
29.393238 19.014610 -12.098763 37.039140 0.574196 1.903551 0.062776 -0.030353 -116180.000000 0 0 1
29.322938 18.377910 -13.458963 37.131199 0.559851 1.941714 0.089424 -0.029538 190911.000000 0 0 1
30.246238 17.293610 -13.550263 37.383332 0.519396 1.941711 0.086821 -0.023049 304467.000000 0 0 1
29.927938 16.517410 -14.653063 37.191646 0.504305 1.975763 0.071117 -0.017096 -162111.000000 0 0 1
31.142238 15.957310 -15.406463 38.233936 0.473519 1.985537 0.083348 -0.021562 -208410.000000 0 0 1
31.861838 14.918610 -14.772563 38.157178 0.437909 1.968335 0.066772 -0.021502 163248.000000 0 0 1
33.043038 14.629510 -15.503363 39.321994 0.416801 1.976066 0.073062 -0.022386 145559.000000 0 0 1
33.932638 13.646510 -14.693463 39.415086 0.382371 1.952808 0.047462 -0.021767 -130262.000000 0 0 1
34.526638 14.116410 -13.508963 39.671827 0.388117 1.918264 0.053414 -0.012484 106418.000000 0 0 1
35.121838 13.043610 -12.781163 39.585823 0.355595 1.899559 0.050766 -0.012705 -371675.000000 0 0 1
36.054138 13.470510 -11.664263 40.217043 0.357559 1.865057 0.063192 -0.010792 441068.000000 0 0 1
-35.434425 13.751810 -12.190663 39.916450 -0.370199 1.881160 0.037068 -0.005695 -116229.000000 0 0 1
-34.573525 14.274310 -11.263063 39.063297 -0.391550 1.863277 0.020199 -0.012123 -472516.000000 0 0 1
-33.105825 14.484910 -11.738763 37.994826 -0.412439 1.884892 0.040090 -0.011897 295325.000000 0 0 1
-32.292925 13.379110 -12.132763 37.000507 -0.392777 1.904885 0.035049 -0.020507 229217.000000 0 0 1
-32.146825 12.338510 -11.162663 36.197545 -0.366478 1.884288 0.056421 -0.018998 -1515740.000000 0 0 1
-30.950525 11.459210 -11.390163 34.913956 -0.354593 1.903114 0.062797 -0.020961 -743006.000000 0 0 1
-30.981025 10.808310 -12.633763 35.160424 -0.335667 1.938333 0.060351 -0.016072 -240391.000000 0 0 1
-30.281125 9.621110 -12.621963 34.188101 -0.307639 1.948935 0.078887 -0.032185 -482427.000000 0 0 1
-30.100425 8.936310 -14.031563 34.391539 -0.288595 1.991053 0.083247 -0.031649 506455.000000 0 0 1
-31.314825 8.511210 -14.659263 35.608327 -0.265384 1.995094 0.072525 -0.032746 681830.000000 0 0 1
-31.028525 7.524410 -15.663663 35.563133 -0.237907 2.026892 0.079692 -0.038374 -362377.000000 0 0 1
-32.262725 7.099210 -16.485263 36.919454 -0.216592 2.033668 0.073050 -0.041609 -300228.000000 0 0 1
-33.112925 6.490610 -15.535363 37.147562 -0.193560 2.002267 0.087891 -0.043998 669565.000000 0 0 1
-34.189725 5.785210 -16.217463 38.280701 -0.167621 2.008263 0.064219 -0.042043 297057.000000 0 0 1
-35.161625 5.150210 -15.246163 38.669239 -0.145438 1.976071 0.059972 -0.038363 -592212.000000 0 0 1
-36.392025 4.717910 -15.765763 39.939923 -0.128922 1.976578 0.052095 -0.023788 118994.000000 0 0 1
35.490338 4.362610 -14.731563 38.673187 0.122310 1.961592 0.055636 -0.031934 23902.600000 0 0 1
34.608938 3.222710 -15.122263 37.905769 0.092850 1.981161 0.051297 -0.028940 -308599.000000 0 0 1
35.404838 2.044810 -15.195263 38.582118 0.057691 1.975604 0.055647 -0.031116 763656.000000 0 0 1
34.579238 0.875010 -15.178663 37.774080 0.025299 1.984308 0.064144 -0.004335 777591.000000 0 0 1
33.797538 0.458310 -13.849363 36.527914 0.013560 1.959668 0.070035 -0.019204 541275.000000 0 0 1
34.721738 -0.121890 -12.942563 37.055686 -0.003510 1.927592 0.076291 -0.020904 464645.000000 0 0 1
34.279038 -0.190590 -11.559063 36.175969 -0.005560 1.896023 0.076589 -0.013868 -202440.000000 0 0 1
34.303438 1.177910 -10.751763 35.968232 0.034324 1.874361 0.078632 -0.024395 303890.000000 0 0 1
33.219838 1.944410 -11.289663 35.139648 0.058465 1.897877 0.074354 -0.018018 847563.000000 0 0 1
33.295638 3.282610 -10.822063 35.163789 0.098272 1.883636 0.076169 -0.027630 -324709.000000 0 0 1
32.157538 4.088210 -11.455163 34.380830 0.126452 1.910475 0.070765 -0.025583 -204826.000000 0 0 1
32.436538 4.536710 -12.743463 35.144083 0.138963 1.941859 0.066291 -0.022928 674777.000000 0 0 1
31.420338 5.487210 -13.083063 34.474826 0.172895 1.960048 0.074501 -0.024344 300205.000000 0 0 1
31.689838 6.304610 -14.371663 35.362956 0.196383 1.989312 0.049739 -0.020761 -245513.000000 0 0 1
31.602038 5.499410 -15.553563 35.648922 0.172295 2.022277 0.036297 -0.012170 164563.000000 0 0 1
32.134938 6.169310 -16.716463 36.744452 0.189674 2.043099 0.035052 -0.007823 -1411160.000000 0 0 1
31.155738 7.130810 -17.410863 36.395970 0.225001 2.069598 0.044575 -0.007957 160605.000000 0 0 1
30.115838 6.420110 -18.086863 35.711568 0.210036 2.101883 0.044084 -0.009494 422553.000000 0 0 1
29.141238 5.804610 -17.260763 34.363341 0.196615 2.097055 0.050187 -0.006894 -1141230.000000 0 0 1
27.741138 5.764310 -17.945963 33.538867 0.204874 2.135398 0.059491 -0.010338 170810.000000 0 0 1
27.681738 4.839710 -18.981463 33.911611 0.173085 2.164860 0.057203 -0.006387 -57025.600000 0 0 1
26.464538 5.019310 -19.659063 33.347324 0.187435 2.201266 0.068703 -0.009836 -140471.000000 0 0 1
26.060338 3.741410 -20.438763 33.329902 0.142593 2.230935 0.068998 0.000625 -252860.000000 0 0 1
25.376738 2.831810 -19.615663 32.198947 0.111131 2.225850 0.072278 -0.007905 24561.800000 0 0 1
24.848538 1.741310 -20.366763 32.175877 0.069963 2.256196 0.072822 -0.011415 -360350.000000 0 0 1
23.793938 0.985510 -19.535763 30.802090 0.041395 2.257815 0.069607 -0.014801 33853.400000 0 0 1
22.525238 1.621110 -19.489563 29.830478 0.071845 2.282789 0.057520 -0.018738 136793.000000 0 0 1
21.667138 0.833310 -18.695063 28.629786 0.038441 2.282327 0.058069 -0.021494 -390839.000000 0 0 1
20.336238 1.549610 -18.450563 27.502493 0.076052 2.306176 0.045522 -0.025793 -634743.000000 0 0 1
19.421338 1.489810 -19.543463 27.592659 0.076560 2.357862 0.036705 -0.023108 1037530.000000 0 0 1
18.268938 2.349010 -19.482163 26.810942 0.127878 2.384229 0.023805 -0.021478 1544580.000000 0 0 1
17.100538 1.886110 -18.533463 25.287844 0.109851 2.393371 0.039838 -0.030150 -604155.000000 0 0 1
17.445438 2.292110 -17.219863 24.619520 0.130639 2.345409 0.052884 -0.029355 324946.000000 0 1 0
16.362638 2.324710 -16.320263 23.226949 0.141130 2.349902 0.035655 -0.014923 184044.000000 0 1 0
15.340538 3.486010 -16.410063 22.732676 0.223447 2.377299 0.043615 -0.012862 1493.400000 0 1 0
14.656038 3.571410 -17.662763 23.227734 0.239023 2.434751 0.035632 -0.008427 151155.000000 0 1 0
13.587038 4.450910 -17.398163 22.519198 0.316568 2.453711 0.038989 -0.009596 -335071.000000 0 1 0
-20.057462 -21.620590 -17.875163 34.485840 0.822885 2.115697 0.054926 -0.005132 69067.300000 0 0 1
-19.736962 -22.441390 -18.984463 35.405840 0.849429 2.136720 0.054445 -0.008039 124115.000000 0 0 1
-20.754262 -22.287490 -19.931463 36.396907 0.821005 2.150307 0.060859 -0.005050 -308669.000000 0 0 1
-20.459362 -23.042690 -21.264863 37.439891 0.844713 2.174838 0.046601 0.007465 -82159.300000 0 0 1
-20.418162 -24.446690 -20.991763 38.147033 0.874951 2.153503 0.039839 0.003947 102554.000000 0 0 1
-19.711562 -25.172490 -21.942963 38.777488 0.906471 2.172283 0.035883 -0.001940 -269567.000000 0 0 1
-19.628762 -26.706910 -21.565863 39.542810 0.936984 2.147639 0.047758 0.005835 -44495.400000 0 0 1
-20.782262 -27.370190 -22.005063 40.807506 0.921368 2.140331 0.047929 0.013401 -47950.800000 0 0 1
-20.511862 -28.714740 -21.755463 41.455675 0.950516 2.123263 0.071760 -0.009329 413066.000000 0 0 1
-21.806962 -29.577080 -21.831463 42.742953 0.935478 2.106867 0.062987 -0.010196 599934.000000 0 0 1
-22.589162 -29.636120 -23.020063 43.800607 0.919522 2.124175 0.051408 -0.008337 214350.000000 0 0 1
-22.001062 -30.391080 -24.063463 44.572578 0.944189 2.141081 0.051451 -0.012462 -578772.000000 0 0 1
-22.309662 -29.814900 -25.497393 45.130548 0.928402 2.171193 0.044189 -0.008253 -1048410.000000 0 0 1
-23.614062 -29.914200 -25.908903 46.084211 0.902557 2.167849 0.044392 -0.004672 -900659.000000 0 0 1
-24.060562 -29.030810 -26.935553 46.338133 0.878743 2.191100 0.038326 -0.001247 -65387.500000 0 0 1
-23.620762 -29.311540 -28.387143 47.148029 0.892497 2.216907 0.039828 -0.015413 -370394.000000 0 0 1
-24.016362 -30.556560 -28.932543 48.451843 0.904673 2.210727 0.038211 -0.004431 127975.000000 0 0 1
-23.544062 -30.705930 -30.258133 49.119564 0.916655 2.234464 0.047464 -0.003462 -327131.000000 0 0 1
-24.253762 -31.800590 -31.033193 50.621948 0.919228 2.230697 0.036904 0.002628 -208032.000000 0 0 1
-23.872462 -33.110660 -30.568853 50.996716 0.946121 2.213582 0.031567 -0.007337 46856.900000 0 0 1
-24.597262 -34.199225 -31.158713 52.397306 0.947278 2.207642 0.037104 -0.007896 -278456.000000 0 0 1
-24.031062 32.777566 -30.901153 51.056263 -0.938163 2.220860 0.044841 -0.007641 -113325.000000 0 0 1
-23.026662 32.475454 -31.830913 50.971455 -0.954024 2.245268 0.043735 -0.012630 -318027.000000 0 0 1
-22.748862 31.084462 -31.703393 49.888472 -0.939019 2.259433 0.061017 -0.014286 -305360.000000 0 0 1
-21.573562 30.557552 -32.523603 49.567805 -0.956056 2.286494 0.052026 -0.001251 -301444.000000 0 0 1
-21.812062 30.413922 -33.915703 50.507896 -0.948637 2.307018 0.039660 0.008487 449230.000000 0 0 1
-20.859562 29.512672 33.883261 49.539827 -0.955521 0.817619 0.037618 0.009612 463941.000000 0 0 1
-21.067662 29.265752 32.381384 48.465293 -0.946856 0.839096 0.023119 0.006398 91060.400000 0 0 1
-20.533262 30.330942 31.561191 48.349660 -0.975692 0.859562 0.021118 0.007419 228796.000000 0 0 1
-20.815262 30.087932 30.211571 47.447843 -0.965585 0.880543 0.018970 0.005256 -372905.000000 0 0 1
-20.429262 31.321882 29.325851 47.522842 -0.992851 0.905758 0.008651 -0.014078 -95034.200000 0 0 1
-21.353662 32.351718 29.450971 48.682360 -0.987390 0.921078 -0.009806 -0.006155 -94400.500000 0 0 1
-20.693762 33.538526 29.029681 48.946776 -1.017960 0.935909 0.003400 -0.023166 282194.000000 0 0 1
-21.534562 -33.579450 29.157111 49.411071 1.000560 0.939623 0.019168 -0.024082 -42844.800000 0 0 1
-21.960762 -33.182210 30.449561 50.104989 0.986154 0.917616 0.010575 -0.005976 158989.000000 0 0 1
-22.981262 -32.181600 30.407701 49.884086 0.950662 0.915282 0.021674 -0.008715 158399.000000 0 0 1
-22.586862 -30.759040 29.917131 48.490408 0.937409 0.905909 0.034412 -0.014546 -664591.000000 0 0 1
-22.329562 -30.614090 28.537431 47.436450 0.940618 0.925303 0.020940 -0.008239 -151295.000000 0 0 1
-22.317562 -29.229220 28.169851 46.324523 0.918688 0.917134 0.035771 -0.016800 870860.000000 0 0 1
-23.755762 -28.787380 27.643301 46.445684 0.880869 0.933313 0.025247 -0.006333 -310962.000000 0 0 1
-24.604262 -28.729680 28.734311 47.501841 0.862595 0.921144 0.028260 -0.002239 -105020.000000 0 0 1
-25.718342 -29.630540 28.758801 48.646384 0.855963 0.938274 0.019616 0.000020 379616.000000 0 0 1
-26.817472 -29.458460 27.680471 48.509650 0.832293 0.963538 0.018941 0.004420 -674311.000000 0 0 1
-26.331222 -29.890860 26.456341 47.819816 0.848628 0.984535 0.013703 0.011922 29663.000000 0 0 1
-27.340172 -29.584490 25.518121 47.685444 0.824804 1.006129 0.022656 0.008426 -48672.100000 0 0 1
-26.917482 -29.810110 24.039621 46.809154 0.836346 1.031460 0.023494 0.006389 -372083.000000 0 0 1
-26.016572 -28.830060 23.560031 45.421465 0.836651 1.025469 0.003235 0.007380 424665.000000 0 0 1
-25.457442 -29.134990 22.295931 44.654648 0.852660 1.048009 0.017761 0.001955 266545.000000 0 0 1
-24.255762 -30.109110 22.172831 44.570561 0.892653 1.050108 0.019327 -0.006440 -600820.000000 0 0 1
-24.638162 -31.437540 21.772431 45.490622 0.906063 1.071721 0.017292 -0.005051 277620.000000 0 0 1
-23.524162 -32.286540 21.695431 45.458757 0.941129 1.073268 0.027135 -0.003039 133379.000000 0 0 1
-22.818662 -32.668030 23.090131 46.054812 0.961077 1.045624 0.023855 -0.010915 418850.000000 0 0 1
-22.101162 -31.626460 23.798341 45.332719 0.960864 1.018116 0.050097 -0.024067 402292.000000 0 0 1
-21.551162 -32.168220 25.000531 46.089842 0.980523 0.997469 0.049122 -0.038254 29019.100000 0 0 1
-20.417662 -31.306620 25.602791 45.304396 0.992888 0.970208 0.044971 -0.018351 -1056090.000000 0 0 1
-19.232862 -31.341050 24.856021 44.384527 1.020391 0.976392 0.056841 -0.023370 139527.000000 0 0 1
-18.131162 -30.709760 25.504911 43.844371 1.037463 0.949961 0.072912 -0.029422 320341.000000 0 0 1
-17.471162 -31.519680 26.641421 44.816259 1.064663 0.934204 0.055481 -0.033930 -762022.000000 0 0 1
-18.293562 -31.740820 27.826761 46.005029 1.047954 0.921202 0.044498 -0.029521 419600.000000 0 0 1
-17.603562 -32.379080 28.866061 46.813884 1.072825 0.906363 0.054982 -0.025091 -291324.000000 0 0 1
-17.983162 -31.769650 30.198321 47.377668 1.055715 0.879683 0.054131 -0.018136 -50244.400000 0 0 1
-17.555262 -30.443760 30.496911 46.530327 1.047726 0.856058 0.063589 -0.019589 179134.000000 0 0 1
-18.252262 -29.867710 31.587241 47.148478 1.022252 0.836652 0.045527 -0.008181 -124473.000000 0 0 1
-18.108162 -28.303890 31.559271 46.097758 1.001642 0.816719 0.047302 -0.012283 186385.000000 0 0 1
-18.897662 -27.510420 30.640601 45.307740 0.968898 0.828099 0.054688 -0.016842 100821.000000 0 0 1
-18.781462 -27.704290 29.247801 44.448902 0.975039 0.852624 0.072335 -0.013221 319778.000000 0 0 1
-17.388262 -27.680030 28.508271 43.373462 1.009908 0.853600 0.055895 -0.008904 601854.000000 0 0 1
-16.873062 -26.359770 28.545641 42.360257 1.001408 0.831351 0.048532 -0.009102 -238518.000000 0 0 1
-15.710262 -26.217380 27.776861 41.300331 1.030943 0.833137 0.040738 -0.012852 -250983.000000 0 0 1
-15.488962 -24.874990 27.078311 39.898722 1.013873 0.824838 0.039274 -0.003532 178450.000000 0 0 1
-16.337262 -24.627390 25.908091 39.301955 0.985074 0.851034 0.062386 -0.018241 502582.000000 0 0 1
-16.151162 -23.433590 25.140721 37.974321 0.967334 0.847252 0.047636 -0.009863 -383963.000000 0 0 1
-16.768962 -22.203690 25.819591 37.958573 0.923954 0.822755 0.047474 -0.018697 -589899.000000 0 0 1
-16.768162 -21.043190 24.939511 36.687414 0.897982 0.823328 0.032929 -0.010840 62512.700000 0 0 1
-17.226862 -19.882890 25.505531 36.641864 0.856849 0.800879 0.042586 -0.017343 -666195.000000 0 0 1
-17.078962 -18.584690 24.648761 35.279499 0.827593 0.797258 0.036080 -0.018384 724659.000000 0 0 1
-15.674062 -18.275190 24.636311 34.447157 0.861867 0.773898 0.038920 -0.017064 723198.000000 0 0 1
-15.493362 -17.098990 23.912961 33.230249 0.834622 0.767550 0.038308 -0.011160 -27382.000000 0 0 1
-14.015662 -16.639990 23.988651 32.384926 0.870797 0.736632 0.053860 -0.014365 -302000.000000 0 0 1
-13.028762 -17.414790 23.362801 31.919336 0.928484 0.749642 0.016931 -0.001932 -414080.000000 0 0 1
-11.841062 -16.660990 23.463881 31.118372 0.952921 0.716635 0.017172 -0.011649 -562524.000000 0 0 1
-11.361462 -15.925290 22.171231 29.567908 0.951119 0.722975 0.020882 -0.011609 -197507.000000 0 0 1
-10.830562 -16.815190 21.212031 29.154793 0.998584 0.756029 0.048435 -0.006420 -650193.000000 0 0 1
-9.479262 -17.126390 21.358931 28.971945 1.065279 0.741838 0.042539 -0.006526 -909148.000000 0 0 1
-9.130962 -18.488890 20.763631 29.263320 1.112071 0.781945 0.044299 -0.000806 -206521.000000 0 0 1
-9.008462 -18.300990 19.330631 28.102525 1.113377 0.812258 0.036809 -0.004570 -138942.000000 0 0 1
-8.699662 -19.497890 18.646431 28.346803 1.151120 0.852907 0.030177 -0.007720 -122773.000000 0 0 1
-8.251362 -19.264090 17.209631 27.117551 1.166110 0.883266 0.033207 -0.020234 -200329.000000 0 0 1
-7.037962 -18.593390 16.950031 26.125670 1.208944 0.864805 0.047514 -0.019574 -191449.000000 0 0 1
-6.971962 -18.255290 15.627631 25.021725 1.205977 0.896225 0.065384 -0.021472 281552.000000 0 0 1
-5.895762 -17.188290 15.314531 23.764095 1.240362 0.870506 0.048977 -0.019977 316200.000000 0 1 0
-6.217262 -15.957190 15.930631 23.389555 1.199269 0.821532 0.042862 -0.022880 -501242.000000 0 1 0
-5.205762 -15.037190 15.691131 22.347900 1.237518 0.792412 0.033854 -0.005772 -344447.000000 0 1 0
-5.191962 -13.859090 16.642831 22.271387 1.212354 0.726846 0.005186 -0.001760 -130240.000000 0 1 0
-4.759762 -14.033490 17.966431 23.289200 1.243801 0.689681 0.014066 -0.002131 -6188.750000 0 1 0
-5.637062 -14.802490 18.758431 24.551353 1.206934 0.701231 0.040415 -0.019652 443734.000000 0 1 0
-6.935262 -14.197890 19.411831 25.029925 1.116414 0.683218 0.060248 -0.025855 696074.000000 0 0 1
-6.769362 -13.099390 20.263831 25.060749 1.093824 0.629047 0.048458 -0.024484 -1053730.000000 0 0 1
-7.981562 -12.745090 20.824231 25.686402 1.011302 0.625432 0.047024 -0.015576 -370853.000000 0 0 1
-7.832562 -11.785190 21.976231 26.137989 0.984219 0.572079 0.050786 -0.010757 -449641.000000 0 0 1
-7.408262 -10.497390 21.587031 25.121255 0.956239 0.536871 0.038705 -0.007733 31278.000000 0 0 1
-6.952662 -9.698490 22.687831 25.634701 0.948831 0.484208 0.040786 -0.009366 -445836.000000 0 0 1
-5.580862 -9.974990 23.273131 25.928461 1.060700 0.456524 0.056662 -0.007864 -869522.000000 0 0 1
-5.445962 -11.184390 24.015341 27.045992 1.117663 0.477939 0.065739 -0.003514 -388107.000000 0 0 1
-4.086562 -11.379490 24.295571 27.137936 1.226023 0.461777 0.049045 -0.004391 -520309.000000 0 0 1
-3.898462 -12.387290 25.471311 28.590744 1.265895 0.471488 0.045619 -0.006287 -285132.000000 0 0 1
-2.553862 -12.746190 25.719031 28.817636 1.373052 0.467993 0.039134 -0.009694 198354.000000 0 0 1
-2.506462 -13.715190 26.732681 30.150042 1.390040 0.480736 0.034998 -0.017529 -114297.000000 0 0 1
-2.649962 -15.180690 26.205001 30.400292 1.397976 0.531598 0.044286 -0.026010 -62298.100000 0 0 1
-1.596562 -15.652890 25.380351 29.861752 1.469150 0.554947 0.043477 -0.025215 21701.200000 0 0 1
-1.831862 -16.950090 24.893691 30.172125 1.463140 0.600495 0.062137 -0.022473 123295.000000 0 0 1
-0.539862 -17.851690 24.893031 30.637188 1.540564 0.622351 0.068123 -0.026233 812595.000000 0 0 1
-0.010262 -18.339090 26.120211 31.915322 1.570237 0.612136 0.065182 -0.023914 -140384.000000 0 0 1
0.524638 -17.385290 26.955071 32.079579 -1.540628 0.573040 0.077886 -0.024580 -798003.000000 0 0 1
1.401938 -18.018590 28.064451 33.380360 -1.493148 0.572134 0.070770 -0.024398 957956.000000 0 0 1
2.756838 -18.300990 27.595961 33.227451 -1.421282 0.590761 0.077073 -0.025919 1617220.000000 0 0 1
3.692938 -18.598490 28.639581 34.347740 -1.374785 0.584818 0.069366 -0.025238 786835.000000 0 0 1
4.408738 -17.379490 29.317061 34.365298 -1.322362 0.548897 0.065007 -0.025377 -734446.000000 0 0 1
3.480738 -16.527190 29.887741 34.329879 -1.363223 0.514367 0.050612 -0.025644 -342513.000000 0 0 1
4.077138 -15.444090 30.576521 34.497342 -1.312691 0.481407 0.051265 -0.028293 -435100.000000 0 0 1
3.061838 -14.612790 31.317271 34.694091 -1.364253 0.444865 0.038106 -0.024210 -636069.000000 0 0 1
2.407738 -15.253990 32.372267 35.867048 -1.414245 0.445111 0.054958 -0.030697 -424067.000000 0 0 1
1.519938 -14.337590 32.938645 35.955960 -1.465180 0.412596 0.037582 -0.021706 -224062.000000 0 0 1
0.770238 -14.870190 34.167824 37.271383 -1.519045 0.410977 0.035273 -0.022189 -80157.100000 0 0 1
1.639138 -15.132790 -33.185323 36.509639 -1.462900 2.711547 0.049090 -0.014433 -544747.000000 0 0 1
1.008838 -15.747990 -32.126633 35.792981 -1.506822 2.685018 0.045567 -0.017209 -326469.000000 0 0 1
1.881038 -15.796090 -30.867503 34.725459 -1.452272 2.665737 0.044040 -0.017175 -110273.000000 0 0 1
1.292338 -16.539290 -29.843273 34.144387 -1.492817 2.634235 0.048518 -0.015548 -253441.000000 0 0 1
1.868938 -16.228890 -28.588793 32.927024 -1.456140 2.622455 0.048394 -0.019866 194320.000000 0 0 1
1.455538 -17.338690 -27.601163 32.627794 -1.487045 2.579122 0.078202 -0.016828 330481.000000 0 0 1
2.170638 -18.517690 -27.978403 33.621534 -1.454109 2.553783 0.073979 -0.015816 508743.000000 0 0 1
1.695738 -19.611990 -27.218113 33.590644 -1.484546 2.515441 0.109097 -0.025533 -686528.000000 0 0 1
2.543438 -20.808990 -27.633913 34.685967 -1.449172 2.492593 0.094710 -0.020831 829246.000000 0 0 1
3.936538 -20.995090 -27.337683 34.693502 -1.385450 2.478313 0.068013 -0.016532 976740.000000 0 0 1
4.312938 -20.871590 -25.956043 33.584831 -1.367023 2.454117 0.086002 -0.021771 -631147.000000 0 0 1
5.733038 -21.379490 -25.615583 33.854223 -1.308804 2.428961 0.071259 -0.018982 63508.800000 0 0 1
5.949338 -22.811090 -25.611133 34.809059 -1.315671 2.397585 0.067124 -0.017609 22874.900000 0 0 1
6.244638 -23.357190 -26.878333 36.152436 -1.309552 2.409044 0.056174 -0.011520 -300091.000000 0 0 1
5.650138 -24.810290 -27.036243 37.127254 -1.346881 2.386495 0.027484 -0.000586 -42580.200000 0 0 1
6.217638 -25.887730 -26.342693 37.453586 -1.335084 2.350885 0.037909 0.006739 -496102.000000 0 0 1
5.625538 -27.145200 -26.705683 38.492883 -1.366450 2.337524 0.028888 0.009244 76039.100000 0 0 1
5.839138 -28.257000 -25.666333 38.617538 -1.367021 2.297793 0.031131 0.004169 -120728.000000 0 0 1
7.207538 -28.533900 -25.528253 38.959258 -1.323376 2.285317 0.040544 0.001228 -385464.000000 0 0 1
7.559938 -29.766010 -24.914963 39.546471 -1.322076 2.252372 0.032135 0.003248 517457.000000 0 0 1
9.017038 -30.187670 -25.290713 40.400774 -1.280533 2.247204 0.051565 -0.003971 503442.000000 0 0 1
9.158838 -30.358100 -26.694963 41.450206 -1.277787 2.270544 0.049203 -0.000692 -548247.000000 0 0 1
10.483938 -30.447910 -27.106263 42.092014 -1.239187 2.270481 0.083878 -0.014919 -421690.000000 0 0 1
10.611538 -30.380110 -28.666813 43.096891 -1.234752 2.298519 0.091314 -0.012835 -119663.000000 0 0 1
9.993338 -31.450840 -29.333093 44.152605 -1.263141 2.297430 0.088909 -0.022976 103811.000000 0 0 1
9.887438 -31.223730 -30.692043 44.885234 -1.264122 2.323740 0.093175 -0.021866 1931.500000 0 0 1
-34.969147 -4.699090 -5.620963 35.728391 0.133578 1.728777 0.093056 -0.027366 -116304.000000 0 0 1
-34.531464 -4.093790 -4.412263 35.052092 0.118002 1.697008 0.094218 -0.033890 574469.000000 0 0 1
-33.740852 -2.902690 -4.598663 34.176284 0.085818 1.705763 0.101078 -0.034493 174029.000000 0 0 1
-34.458576 -1.595090 -5.107263 34.871506 0.046257 1.717785 0.105073 -0.030339 45179.200000 0 0 1
-35.292810 -0.963490 -4.145963 35.548555 0.027293 1.687691 0.079545 -0.025430 578078.000000 0 0 1
-36.222402 -0.068790 -4.727063 36.529608 0.001899 1.700564 0.077991 -0.031393 -123410.000000 0 0 1
35.788471 0.833510 -3.766763 35.995804 0.023286 1.675633 0.077405 -0.023628 -91263.300000 0 0 1
-36.166202 1.687210 -2.984963 36.328375 -0.046618 1.653055 0.072244 -0.016255 642480.000000 0 0 1
35.832701 2.561910 -2.187163 35.990687 0.071375 1.631604 0.077931 -0.019064 306111.000000 0 0 1
-36.227892 3.917410 -2.002563 36.494061 -0.107714 1.625698 0.071836 -0.018812 -62340.400000 0 0 1
-36.051282 4.640110 -3.231463 36.492025 -0.128005 1.659465 0.081496 -0.022431 1353800.000000 0 0 1
-34.683412 4.683810 -3.748463 35.198411 -0.134233 1.677494 0.062903 -0.013711 1086290.000000 0 0 1
-33.946032 5.935810 -3.222363 34.611422 -0.173110 1.664032 0.059285 -0.012840 -511817.000000 0 0 1
-33.648572 5.971610 -1.841163 34.223916 -0.175641 1.624620 0.067003 -0.020539 449801.000000 0 0 1
-33.104342 7.241210 -1.483663 33.919520 -0.215347 1.614551 0.075763 -0.031016 -223428.000000 0 0 1
-32.619112 7.373310 -0.023063 33.442080 -0.222307 1.571486 0.085785 -0.023196 -75904.600000 0 0 1
-31.241682 6.974710 -0.001263 32.010768 -0.219648 1.570836 0.099753 -0.025923 1001180.000000 0 0 1
-30.529382 7.416910 1.167637 31.439101 -0.238326 1.533648 0.106185 -0.036475 78973.900000 0 0 1
-30.325762 8.942110 1.378037 31.646677 -0.286742 1.527238 0.104896 -0.032329 -809422.000000 0 0 1
-31.512842 9.665810 1.589937 33.000227 -0.297616 1.522598 0.102840 -0.030555 -7767.590000 0 0 1
-31.252772 11.005310 1.789537 33.182149 -0.338579 1.516839 0.111541 -0.021611 357052.000000 0 0 1
-32.498262 11.880610 1.442837 34.631888 -0.350484 1.529122 0.118526 -0.030290 -263135.000000 0 0 1
-32.793552 12.003910 0.046237 34.921527 -0.350897 1.569472 0.114519 -0.033179 433456.000000 0 0 1
-33.890952 12.847810 -0.254863 36.245383 -0.362354 1.577828 0.114657 -0.032425 771696.000000 0 0 1
-35.319094 12.263910 0.028537 37.387735 -0.334207 1.570033 0.136554 -0.039786 -136681.000000 0 0 1
-35.843194 11.395210 -0.927063 37.622398 -0.307814 1.595440 0.126890 -0.039233 -257868.000000 0 0 1
35.724691 10.889610 -0.455863 37.350301 0.295873 1.583002 0.141339 -0.038582 -43173.600000 0 0 1
35.127201 9.661610 -1.245863 36.452972 0.268409 1.604980 0.130011 -0.033785 471723.000000 0 0 1
34.522901 9.913510 -2.530363 36.007098 0.279633 1.641128 0.118685 -0.028136 303657.000000 0 0 1
34.312441 8.646510 -3.155663 35.525540 0.246854 1.659742 0.106640 -0.032612 220957.000000 0 0 1
33.556231 8.870210 -4.521663 35.002096 0.258428 1.700341 0.087170 -0.019138 509965.000000 0 0 1
32.184971 9.223210 -4.458463 33.775995 0.279090 1.703184 0.093282 -0.020175 447367.000000 0 0 1
31.679371 9.583210 -5.737563 33.590774 0.293755 1.742446 0.077774 -0.008866 434210.000000 0 0 1
30.284561 10.256610 -5.887263 32.511730 0.326550 1.752882 0.089408 -0.009158 969052.000000 0 0 1
29.150121 9.411810 -5.633363 31.145570 0.312308 1.752669 0.077605 -0.004600 1556640.000000 0 0 1
27.921271 10.066710 -6.008063 30.282550 0.346033 1.770522 0.082188 0.006198 117477.000000 0 0 1
26.794501 9.083510 -6.221863 28.968380 0.326848 1.787264 0.092740 0.010562 -820566.000000 0 0 1
27.014401 8.262110 -7.353363 29.190962 0.296807 1.825445 0.087308 0.000684 144779.000000 0 0 1
25.961001 7.370610 -7.656263 28.052056 0.276632 1.847234 0.095887 -0.003314 -212581.000000 0 0 1
26.182501 6.301610 -8.760263 28.319178 0.236188 1.885296 0.090753 -0.017957 363717.000000 0 0 1
27.035601 5.194710 -8.291163 28.751559 0.189830 1.863323 0.091547 -0.021527 1198720.000000 0 0 1
27.026901 4.134410 -9.256763 28.865800 0.151797 1.897247 0.081641 -0.022238 -247855.000000 0 0 1
28.083991 3.021610 -8.904663 29.616443 0.107180 1.876187 0.089753 -0.019616 66271.100000 0 0 1
29.409461 3.379910 -9.309363 31.032313 0.114424 1.875478 0.101394 -0.015128 594807.000000 0 0 1
30.414241 2.968910 -8.435563 31.701723 0.097307 1.840133 0.077612 -0.021381 -394574.000000 0 0 1
30.711781 1.434710 -8.245863 31.831842 0.046681 1.832829 0.084284 -0.024388 -448544.000000 0 0 1
29.617861 0.836910 -7.535163 30.572811 0.028249 1.819829 0.101365 -0.028496 849435.000000 0 0 1
29.855761 -0.497090 -7.099063 30.692186 -0.016648 1.804209 0.098802 -0.030920 -211490.000000 0 0 1
29.903111 -1.668390 -8.147463 31.038053 -0.055735 1.836408 0.092254 -0.020628 -172612.000000 0 0 1
31.059411 -1.700890 -8.950263 32.367997 -0.054708 1.850963 0.087027 -0.018615 303823.000000 0 0 1
30.915431 -2.808490 -9.844463 32.566316 -0.090596 1.877890 0.080241 -0.019144 -80206.500000 0 0 1
31.909611 -2.946990 -11.044363 33.895221 -0.092093 1.902695 0.077531 -0.014356 -558275.000000 0 0 1
33.180501 -3.236890 -10.575763 34.975275 -0.097246 1.877983 0.080354 -0.016206 -614757.000000 0 0 1
34.071031 -3.799290 -11.491663 36.156992 -0.111052 1.894233 0.069620 -0.011189 353864.000000 0 0 1
35.464061 -4.193990 -10.918063 37.342915 -0.117714 1.867504 0.076071 -0.012068 270329.000000 0 0 1
35.333331 -5.266490 -10.009263 37.099401 -0.147962 1.843977 0.070329 -0.015025 -298709.000000 0 0 1
-36.191072 -5.814090 -9.900663 37.968677 0.159289 1.834604 0.065424 -0.009581 -599635.000000 0 0 1
-36.200592 -7.034290 -8.948663 37.947894 0.191923 1.808853 0.062868 -0.018840 -264751.000000 0 0 1
-36.384892 -6.779190 -7.569463 37.777170 0.184207 1.772533 0.063590 -0.020978 304506.000000 0 0 1
36.026361 -7.941090 -6.908963 37.532564 -0.216955 1.755931 0.066932 -0.020563 -416946.000000 0 0 1
35.522851 -7.732990 -5.508163 36.769715 -0.214346 1.721164 0.080922 -0.023146 -332533.000000 0 0 1
-36.243972 -7.465690 -4.551663 37.283772 0.203143 1.693183 0.079776 -0.024819 433344.000000 0 0 1
-36.110312 -8.502090 -3.576063 37.269671 0.231236 1.666895 0.091518 -0.022485 -86974.600000 0 0 1
-35.466415 -9.885490 -3.916663 37.026069 0.271829 1.676776 0.094323 -0.022572 424708.000000 0 0 1
-36.303202 -10.640290 -4.806663 38.134528 0.285110 1.697177 0.082529 -0.022025 722706.000000 0 0 1
-35.425379 -11.478690 -5.468663 37.638067 0.313349 1.716609 0.074225 -0.020010 -55801.400000 0 0 1
-36.170502 -12.030090 -6.674363 38.698519 0.321085 1.744134 0.074506 -0.020158 128966.000000 0 0 1
36.353881 -11.053890 -7.662463 38.762179 -0.295181 1.769786 0.072675 -0.021312 167555.000000 0 0 1
35.744551 -11.609890 -8.781163 38.594965 -0.314053 1.800327 0.074199 -0.024341 -165665.000000 0 0 1
36.021431 -10.748690 -10.026563 38.905139 -0.289986 1.831456 0.056780 -0.014659 -201589.000000 0 0 1
35.171801 -9.636390 -10.165563 37.858345 -0.267418 1.842648 0.047718 -0.008452 222553.000000 0 0 1
35.301241 -9.179290 -11.482263 38.239762 -0.254394 1.875772 0.039518 -0.003914 -208299.000000 0 0 1
34.208011 -8.210390 -11.968463 37.159691 -0.235558 1.898724 0.044286 0.001293 -184275.000000 0 0 1
34.499291 -7.887490 -13.310463 37.809814 -0.224765 1.930543 0.047604 0.006751 916460.000000 0 0 1
33.495021 -7.053990 -13.912763 36.949157 -0.207565 1.956853 0.041281 0.010367 401775.000000 0 0 1
33.878451 -6.642090 -15.379363 37.794069 -0.193601 1.989882 0.031703 0.009886 -439009.000000 0 0 1
34.872181 -5.679290 -15.513763 38.587565 -0.161443 1.984541 0.038456 0.007769 72684.200000 0 0 1
34.391811 -4.332690 -15.640763 38.028967 -0.125320 1.994660 0.055242 0.007211 274005.000000 0 0 1
35.609651 -3.373390 -15.636163 39.037375 -0.094451 1.982906 0.055246 0.000372 215926.000000 0 0 1
36.350081 -3.418990 -16.870663 40.219860 -0.093781 2.003648 0.055533 0.002627 -701023.000000 0 0 1
-35.158415 -2.938990 -16.917763 39.127516 0.083399 2.017921 0.067317 0.001292 -914415.000000 0 0 1
-34.869221 -1.464690 -16.480763 38.595640 0.041981 2.011981 0.060431 -0.004551 -913662.000000 0 0 1
-35.371995 -0.438590 -17.307163 39.381573 0.012399 2.025809 0.048497 0.002113 244577.000000 0 0 1
-34.962736 0.875010 -16.903963 38.844595 -0.025022 2.021022 0.063510 -0.010486 -454523.000000 0 0 1
-35.404553 2.024210 -17.794363 39.676431 -0.057112 2.035868 0.044967 -0.015135 -308217.000000 0 0 1
-34.647271 2.227410 -18.970863 39.563726 -0.064200 2.070883 0.056294 -0.010131 111472.000000 0 0 1
-34.613949 3.567110 -19.343563 39.812349 -0.102692 2.078153 0.045829 -0.000007 -204308.000000 0 0 1
-33.802572 3.885810 -20.586663 39.768380 -0.114454 2.114915 0.044727 0.002097 2277220.000000 0 0 1
-32.321022 3.813310 -20.561863 38.496493 -0.117439 2.134266 0.049174 -0.004396 2541240.000000 0 0 1
-31.746062 4.167510 -21.784263 38.726408 -0.130530 2.168223 0.038049 -0.005195 -873321.000000 0 0 1
-30.331252 4.697310 -21.652963 37.561954 -0.153646 2.185186 0.073423 -0.011862 -575680.000000 0 0 1
-29.393862 3.694710 -21.352563 36.518241 -0.125041 2.195318 0.066670 -0.002932 758925.000000 0 0 1
-28.058032 4.093710 -21.707163 35.710118 -0.144879 2.224174 0.064166 -0.012894 992991.000000 0 0 1
-26.883652 3.243810 -21.152463 34.361021 -0.120081 2.233937 0.089077 -0.004268 194548.000000 0 0 1
-26.690572 3.443810 -19.795663 33.408303 -0.128318 2.205001 0.078926 -0.001370 -378687.000000 0 0 1
-26.040952 2.360810 -19.289963 32.493188 -0.090410 2.206398 0.090126 -0.001649 -741564.000000 0 0 1
-25.391282 2.600410 -17.925463 31.189767 -0.102058 2.183061 0.086337 -0.005430 261474.000000 0 0 1
-24.119062 3.234010 -18.000863 30.269110 -0.133290 2.207681 0.076722 -0.002018 396872.000000 0 0 1
-23.393062 3.247510 -16.790163 28.977426 -0.137942 2.188816 0.088676 -0.006291 127250.000000 0 0 1
-22.178662 4.197910 -16.866863 28.178122 -0.187064 2.212524 0.076287 -0.005793 855688.000000 0 0 1
-21.094362 3.661610 -17.690363 27.772800 -0.171870 2.261354 0.096916 -0.013321 1024950.000000 0 0 1
-19.971062 4.550910 -17.659763 27.044802 -0.224049 2.282311 0.083357 -0.012814 550427.000000 0 0 1
-18.653562 3.827210 -18.070363 26.251494 -0.202365 2.330016 0.084876 -0.022105 27603.600000 0 0 1
-18.370962 2.843910 -17.080063 25.244972 -0.153585 2.313895 0.102105 -0.021388 -17627.200000 0 0 1
-17.442962 1.931710 -17.639963 24.882860 -0.110295 2.358762 0.082775 -0.021477 -671960.000000 0 1 0
-17.497762 0.521510 -17.077263 24.455604 -0.029796 2.343811 0.099822 -0.027782 -17229.800000 0 1 0
-18.406762 -0.484790 -17.506663 25.407226 0.026332 2.330964 0.074935 -0.025638 -30428.400000 0 0 1
-19.741262 -0.121590 -17.193963 26.179468 0.006159 2.287327 0.078651 -0.024835 -843586.000000 0 0 1
-20.724762 -1.103490 -17.798663 27.340919 0.053195 2.279684 0.067494 -0.027677 -726916.000000 0 0 1
-20.668562 -2.393490 -17.201063 26.996200 0.115290 2.261612 0.061178 -0.024510 401699.000000 0 0 1
-21.685562 -3.238390 -17.714463 28.187816 0.148238 2.250348 0.065571 -0.014714 112370.000000 0 0 1
-21.999062 -4.398190 -16.722963 27.981428 0.197325 2.211357 0.079405 -0.018516 -93208.200000 0 0 1
-22.556662 -3.892690 -15.540863 27.667209 0.170891 2.167244 0.079343 -0.025697 317631.000000 0 0 1
-22.933462 -4.883790 -14.600863 27.622098 0.209820 2.127739 0.094830 -0.039640 -70598.800000 0 0 1
-23.137662 -4.347890 -13.166663 26.974369 0.185748 2.080728 0.093799 -0.040674 421509.000000 0 0 1
-24.149262 -3.319990 -13.104363 27.675504 0.136621 2.064057 0.086550 -0.034994 946242.000000 0 0 1
-24.353762 -2.902090 -11.753363 27.196864 0.118605 2.017682 0.097677 -0.035609 -465296.000000 0 0 1
-25.126812 -1.604990 -11.617163 27.728886 0.063789 2.003091 0.117725 -0.037925 -486432.000000 0 0 1
-25.324172 -1.299990 -10.275163 27.360238 0.051289 1.955787 0.112500 -0.038978 639498.000000 0 0 1
-25.934522 -0.035690 -10.091163 27.828623 0.001376 1.941872 0.119399 -0.041459 -291874.000000 0 0 1
-26.227512 0.319010 -8.623663 27.610717 -0.012163 1.888441 0.135633 -0.041245 -10776.900000 0 0 1
-25.056652 0.424710 -7.835563 26.256661 -0.016948 1.873835 0.121312 -0.037790 589079.000000 0 0 1
-25.394772 0.736910 -6.478063 26.218367 -0.029010 1.820463 0.114176 -0.036512 183407.000000 0 0 1
-24.171262 1.328410 -5.736963 24.878250 -0.054903 1.803492 0.087917 -0.024693 94195.700000 0 1 0
-23.870162 2.672710 -6.078363 24.776491 -0.111504 1.818654 0.114603 -0.022679 411057.000000 0 1 0
-22.516762 2.978810 -5.778063 23.436380 -0.131529 1.819907 0.108928 -0.009461 107428.000000 0 1 0
-22.216462 4.495510 -5.825463 23.403350 -0.199655 1.822357 0.111816 -0.015938 -157376.000000 0 1 0
-22.916962 5.285410 -4.845463 24.012522 -0.226670 1.773980 0.127324 -0.016289 868901.000000 0 1 0
-22.565562 6.656910 -4.941663 24.040363 -0.286866 1.777829 0.123712 -0.019387 -395032.000000 0 1 0
-23.172662 7.520410 -3.764863 24.651633 -0.313814 1.724119 0.129148 -0.022929 308393.000000 0 1 0
-22.449662 7.475510 -2.495363 23.792802 -0.321441 1.675868 0.111086 -0.024444 1502130.000000 0 1 0
-21.067262 7.833410 -2.412563 22.605581 -0.355987 1.677724 0.115917 -0.025005 335826.000000 0 1 0
-20.759862 9.349610 -2.534663 22.908767 -0.423161 1.681665 0.107012 -0.022817 -497690.000000 0 1 0
-20.644162 9.745110 -3.876763 23.155515 -0.441040 1.739011 0.092960 -0.023040 810653.000000 0 1 0
-20.005762 11.040210 -3.951163 23.188972 -0.504264 1.742022 0.091199 -0.020876 22205.900000 0 1 0
-19.725862 11.523110 -5.399163 23.474298 -0.528693 1.802877 0.079343 -0.023222 -207036.000000 0 1 0
-18.625662 10.877810 -6.023763 22.394815 -0.528589 1.843130 0.062523 -0.023095 209609.000000 0 1 0
-18.467862 11.509410 -7.259063 22.939539 -0.557313 1.892774 0.060967 -0.014182 547350.000000 0 1 0
-17.166462 11.198210 -8.093163 22.036030 -0.578012 1.946868 0.046167 -0.012966 341872.000000 0 1 0
-16.910962 9.916010 -8.609463 21.410996 -0.530334 1.984611 0.027717 -0.008518 26543.800000 0 1 0
-17.859962 9.392010 -9.509463 22.307352 -0.484128 2.011187 0.044807 -0.004715 -265152.000000 0 1 0
-17.858862 10.038910 -10.941863 23.225913 -0.512104 2.061340 0.039580 -0.004514 -570231.000000 0 1 0
-16.681662 9.852610 -11.637863 22.600699 -0.533498 2.111727 0.022449 -0.005638 -617919.000000 0 1 0
-16.763262 10.427010 -12.941363 23.605261 -0.556450 2.151055 0.021836 -0.003208 490499.000000 0 1 0
-15.725962 9.842610 -13.972163 23.225077 -0.559234 2.216297 0.020464 0.004022 -127117.000000 0 1 0
-16.010262 8.599210 -14.566463 23.290701 -0.492890 2.246466 0.029598 -0.004239 -35597.700000 0 1 0
-15.668262 7.539910 -13.696863 22.134785 -0.448513 2.238002 0.022486 -0.004869 -154606.000000 0 1 0
-15.771362 6.141510 -14.354963 22.192768 -0.371343 2.274218 0.041271 -0.013517 17373.700000 0 1 0
-14.942462 6.130510 -15.507763 22.390869 -0.389332 2.335874 0.064929 -0.010678 423399.000000 0 1 0
-14.758362 4.865610 -16.063763 22.350120 -0.318463 2.372774 0.053468 -0.018292 78576.500000 0 1 0
32.425691 -16.290490 28.504091 46.144217 -0.465561 0.904959 0.018965 -0.005763 -471613.000000 0 0 1
31.603901 -15.157090 28.544901 45.203488 -0.447191 0.887342 0.026668 -0.002508 584325.000000 0 0 1
30.494211 -15.187390 29.483741 45.053798 -0.462080 0.857392 0.033815 -0.007476 822648.000000 0 0 1
30.802281 -15.102990 30.983301 46.226029 -0.455874 0.836242 0.029738 -0.010522 -385913.000000 0 0 1
31.346031 -13.851090 31.244981 46.375373 -0.416078 0.831537 0.020473 -0.015909 -108686.000000 0 0 1
31.482891 -13.811590 32.660474 47.419817 -0.413418 0.811031 0.016741 -0.017195 -212614.000000 0 0 1
31.951591 -12.432090 33.137817 47.682030 -0.371067 0.802411 0.027545 -0.016834 -8342.320000 0 0 1
31.999981 -12.364190 -33.868313 48.207205 -0.368711 2.349781 0.010169 -0.025914 30105.800000 0 0 1
32.247771 -11.062190 -33.510523 47.804246 -0.330459 2.347588 0.032776 -0.019464 -372076.000000 0 0 1
31.739071 -10.656890 -32.108293 46.388365 -0.323938 2.335277 0.036516 -0.018105 -120839.000000 0 0 1
30.336141 -10.725790 -32.002503 45.381541 -0.339847 2.353484 0.070336 -0.026936 -113777.000000 0 0 1
29.972441 -10.351090 -30.712353 44.144546 -0.332529 2.340222 0.058887 -0.020974 -399665.000000 0 0 1
28.495321 -10.432790 -30.286143 42.872799 -0.350965 2.355222 0.064396 -0.004785 -165833.000000 0 0 1
28.261921 -10.153490 -28.957613 41.717777 -0.344904 2.338009 0.061002 -0.009323 611361.000000 0 0 1
27.252701 -11.027890 -28.420883 40.890961 -0.384511 2.339273 0.067655 -0.006320 -146478.000000 0 0 1
26.799301 -10.762590 -26.969653 39.514530 -0.381885 2.322008 0.060618 -0.000065 230102.000000 0 0 1
25.833601 -9.715990 -26.612513 38.340595 -0.359734 2.337976 0.053403 -0.000762 1364880.000000 0 0 1
24.595901 -9.649790 -27.310483 37.999201 -0.373880 2.372744 0.055871 -0.007067 204010.000000 0 0 1
23.568601 -10.760590 -27.091813 37.486472 -0.428300 2.378510 0.045965 0.009003 -690330.000000 0 0 1
24.052801 -11.914990 -27.770833 38.622835 -0.459935 2.373197 0.040363 -0.000324 -50506.700000 0 0 1
23.286401 -13.061090 -27.516413 38.340599 -0.511165 2.371266 0.029984 -0.013946 -202782.000000 0 0 1
23.899801 -14.379390 -28.026263 39.540344 -0.541634 2.358594 0.036822 0.001121 -46105.900000 0 0 1
24.072001 -14.299190 -29.436603 40.625628 -0.536009 2.381224 0.041251 -0.011671 562520.000000 0 0 1
25.148701 -15.079190 -29.957183 41.919828 -0.540126 2.366892 0.029584 -0.006093 92434.500000 0 0 1
25.221301 -15.200790 -31.533473 43.145544 -0.542400 2.390382 0.055205 -0.019312 -270457.000000 0 0 1
24.110501 -15.852490 -32.117063 43.175496 -0.581625 2.409642 0.071294 -0.020417 79366.200000 0 0 1
24.227001 -16.219290 -33.516403 44.422542 -0.589942 2.425674 0.088024 -0.022640 -40574.700000 0 0 1
24.382901 -15.067090 33.865396 44.366746 -0.553504 0.702381 0.062120 -0.026905 261143.000000 0 0 1
23.269101 -14.184690 33.921581 43.512414 -0.547444 0.676795 0.082686 -0.031245 240491.000000 0 0 1
23.284401 -13.174590 32.920995 42.420810 -0.514902 0.682406 0.065487 -0.030425 116803.000000 0 0 1
22.300701 -11.894690 33.112669 41.656377 -0.489992 0.651953 0.083195 -0.032788 1617650.000000 0 0 1
20.901301 -12.203990 33.050481 40.965059 -0.528487 0.632086 0.074787 -0.028633 807579.000000 0 0 1
20.428501 -12.563790 31.764201 39.801218 -0.551385 0.646709 0.064240 -0.017255 -1005690.000000 0 0 1
18.896601 -12.684590 31.785351 39.093336 -0.591178 0.621402 0.065534 -0.008045 -530278.000000 0 0 1
18.248501 -11.472690 31.868691 38.473938 -0.561250 0.594696 0.073983 -0.012913 273449.000000 0 0 1
16.949301 -11.585590 32.468423 38.414883 -0.599596 0.563849 0.062189 -0.013252 697573.000000 0 0 1
16.312901 -10.191890 32.731716 37.965124 -0.558437 0.531294 0.071875 -0.016763 -211170.000000 0 0 1
15.526701 -9.691990 31.620821 36.536139 -0.558034 0.524715 0.078380 -0.028648 986759.000000 0 0 1
14.614601 -8.597890 31.875181 36.104535 -0.531778 0.488883 0.093539 -0.021216 1604380.000000 0 0 1
13.395001 -8.944890 32.827364 36.566008 -0.588772 0.456147 0.098508 -0.028091 -500742.000000 0 0 1
12.530401 -9.982290 32.454900 36.193613 -0.672692 0.458534 0.094117 -0.033134 655530.000000 0 0 1
11.310901 -10.170590 33.171329 36.492663 -0.732365 0.429951 0.095958 -0.033011 701658.000000 0 0 1
10.183901 -9.201090 32.734376 35.495229 -0.734742 0.397016 0.077575 -0.032458 -896754.000000 0 0 1
10.524601 -7.826290 32.939264 35.454382 -0.639405 0.378931 0.095989 -0.025140 561849.000000 0 0 1
9.562701 -6.964590 32.325641 34.422345 -0.629473 0.350827 0.077795 -0.009485 408272.000000 0 0 1
10.062701 -5.476490 32.408627 34.373958 -0.498408 0.339789 0.078781 -0.007741 157554.000000 0 0 1
10.105101 -4.987190 33.686318 35.521165 -0.458460 0.322819 0.078086 -0.012104 269792.000000 0 0 1
10.624601 -3.681690 33.703374 35.529627 -0.333576 0.322017 0.068789 -0.012040 -249590.000000 0 0 1
10.411701 -2.821790 -33.451423 35.147741 -0.264663 2.829645 0.063764 -0.023721 -425292.000000 0 0 1
9.043101 -2.572390 -33.302953 34.604646 -0.277139 2.866440 0.056591 -0.009851 -464152.000000 0 0 1
8.784601 -1.917590 -32.081303 33.317508 -0.214919 2.868333 0.053526 -0.014176 859204.000000 0 0 1
7.270301 -1.532990 -31.919753 32.773129 -0.207812 2.912889 0.048789 -0.013859 396429.000000 0 0 1
6.781701 -0.462190 -32.640403 33.340681 -0.068047 2.936275 0.066602 -0.014461 169083.000000 0 0 1
5.405801 -0.275090 -32.328623 32.778624 -0.050844 2.975701 0.071453 -0.018359 410631.000000 0 0 1
4.733301 0.762610 -33.278273 33.621855 0.159743 2.998509 0.060409 -0.013770 61999.500000 0 0 1
5.480301 1.963710 -33.344633 33.848994 0.344069 2.968749 0.049659 -0.016386 327739.000000 0 0 1
4.989501 2.688410 33.909920 34.380305 0.494214 0.165609 0.056609 -0.017497 570768.000000 0 0 1
5.714301 4.052610 33.846837 34.564219 0.616877 0.204094 0.039098 -0.012520 139282.000000 0 0 1
5.360201 4.832010 32.735239 33.521276 0.733621 0.216984 0.055291 -0.028498 -502941.000000 0 0 1
6.222901 5.895910 32.566250 33.675613 0.758423 0.257391 0.041436 -0.021177 -673478.000000 0 0 1
5.802501 6.968410 31.547471 32.824849 0.876440 0.279893 0.058713 -0.018348 298212.000000 0 0 1
4.731701 7.732010 32.174341 33.426953 1.021627 0.274625 0.059618 -0.011514 691446.000000 0 0 1
4.309901 8.941610 31.576911 33.100286 1.121648 0.304567 0.059779 -0.016260 139570.000000 0 0 1
3.807801 8.845310 30.054821 31.559961 1.164286 0.310082 0.064491 -0.021568 -6219.340000 0 0 1
2.440101 8.524310 29.904611 31.191405 1.292000 0.288241 0.066044 -0.023639 -170448.000000 0 0 1
2.223101 8.161410 28.524611 29.752382 1.304857 0.288282 0.063282 -0.009812 -571216.000000 0 0 1
0.784301 7.835910 28.178921 29.258643 1.471038 0.272514 0.069621 -0.020349 -604690.000000 0 0 1
-0.100299 8.947710 28.203481 29.588983 -1.559587 0.307230 0.078380 -0.018032 325107.000000 0 0 1
-1.200499 8.770810 27.298861 28.698364 -1.434767 0.313584 0.079230 -0.010765 285365.000000 0 0 1
-2.584699 8.600910 27.920481 29.329330 -1.278868 0.311208 0.081110 -0.008984 -432155.000000 0 0 1
-2.920799 9.805410 28.588351 30.363974 -1.281289 0.343677 0.074529 -0.009356 -547580.000000 0 0 1
-4.177599 9.683010 29.187951 31.034650 -1.163487 0.346711 0.057520 0.000358 -677756.000000 0 0 1
-4.510899 11.009010 29.991861 32.265434 -1.181916 0.377646 0.043961 0.006960 54787.200000 0 0 1
-4.877399 12.188210 29.235091 32.047340 -1.190140 0.422060 0.040351 -0.000363 768329.000000 0 0 1
-5.979299 12.103610 28.303801 31.358484 -1.111953 0.445052 0.035469 -0.006596 319949.000000 0 0 1
-6.387399 13.479710 27.743651 31.499391 -1.128284 0.493315 0.032063 -0.002028 -332657.000000 0 0 1
-5.447299 14.122510 26.933171 30.895211 -1.202663 0.512016 0.035925 0.002277 -274412.000000 0 0 1
-5.739699 15.493310 26.736931 31.430085 -1.216009 0.553520 0.019422 0.004051 -254830.000000 0 0 1
-4.594399 16.173310 26.005351 30.967123 -1.294015 0.573932 0.078658 -0.005261 -154618.000000 0 0 1
-4.638699 15.994210 24.590811 29.699163 -1.288517 0.595271 0.070709 0.014572 511201.000000 0 0 1
-3.652399 16.835210 23.928791 29.484765 -1.357157 0.623971 0.091053 0.009055 623713.000000 0 0 1
-3.565099 16.542210 22.405031 28.077394 -1.358528 0.646870 0.083869 0.001875 -128377.000000 0 0 1
-2.828299 15.384810 22.040931 27.027658 -1.388989 0.617212 0.073135 -0.008794 94609.400000 0 0 1
-2.723099 15.296910 20.619031 25.817730 -1.394626 0.645767 0.070318 -0.010759 -328295.000000 0 0 1
-1.795099 14.214310 20.154031 24.727595 -1.445173 0.617994 0.062097 -0.012680 -329195.000000 0 1 0
-2.386399 12.880710 20.307831 24.166414 -1.387604 0.572899 0.062198 -0.009059 907934.000000 0 1 0
-1.540599 11.879110 19.649431 23.012754 -1.441826 0.547460 0.052042 -0.008661 -27820.200000 0 1 0
-2.252699 10.593510 19.235431 22.074848 -1.361268 0.512802 0.043886 -0.015150 -693888.000000 0 1 0
-2.476999 9.665110 20.316431 22.634205 -1.319913 0.456505 0.071393 -0.027048 -156855.000000 0 1 0
-3.483599 10.033810 21.216131 23.726294 -1.236631 0.464148 0.069897 -0.018637 -943421.000000 0 1 0
-4.957099 9.961210 20.833631 23.618609 -1.109038 0.490526 0.055662 -0.011392 -753818.000000 0 1 0
-5.438699 8.633110 20.767931 23.139079 -1.008623 0.456669 0.037781 -0.020915 -60553.700000 0 1 0
-6.843999 8.641810 20.611631 23.374356 -0.900975 0.491120 0.029923 -0.013177 32411.600000 0 1 0
-7.477699 7.291510 20.902731 23.366777 -0.772792 0.463375 0.030032 -0.007227 -307749.000000 0 1 0
-7.437199 6.719410 22.213731 24.370315 -0.734738 0.423861 0.028494 -0.006342 -21874.300000 0 1 0
-7.922199 5.399210 22.244431 24.222457 -0.598222 0.406933 0.027541 -0.002681 73294.400000 0 1 0
-7.913599 4.774010 23.607971 25.352564 -0.542818 0.373142 0.029976 -0.010111 115119.000000 0 0 1
-8.806899 5.460410 24.478501 26.581470 -0.555007 0.400449 0.017432 -0.002973 243295.000000 0 0 1
-8.846799 4.760510 25.706651 27.600004 -0.493665 0.372555 0.019383 0.003003 -47379.200000 0 0 1
-9.802399 5.350410 26.796011 29.029987 -0.499633 0.394872 0.018126 0.008260 -56827.800000 0 0 1
-9.401099 6.577110 27.378641 29.685502 -0.610465 0.396832 0.019037 0.004296 -78263.000000 0 0 1
-10.235899 6.981910 28.449641 31.030675 -0.598611 0.410746 0.027848 0.007973 -16387.800000 0 0 1
-9.571999 8.016410 29.344541 31.890251 -0.697184 0.402275 0.039932 -0.000104 481942.000000 0 0 1
-8.325399 7.591110 29.890841 31.943694 -0.739297 0.360458 0.047819 -0.007344 301882.000000 0 0 1
-7.840099 8.483710 30.877901 32.967943 -0.824805 0.357988 0.049297 -0.009188 164661.000000 0 0 1
-6.761299 7.801210 31.754001 33.389978 -0.856687 0.314329 0.076122 -0.006757 -93910.300000 0 0 1
-5.476299 7.625710 31.235391 32.615808 -0.948002 0.291978 0.078609 -0.012455 -799992.000000 0 0 1
-4.609899 7.107210 32.198251 33.294008 -0.995390 0.257269 0.085862 -0.009918 850674.000000 0 0 1
-3.077099 7.254510 31.865411 32.825308 -1.169634 0.242430 0.073733 -0.007719 1032930.000000 0 0 1
-2.682499 8.599510 31.808511 33.059473 -1.268425 0.275974 0.069844 -0.002308 555915.000000 0 0 1
-1.259099 8.755710 31.673471 32.885507 -1.427972 0.272341 0.073591 -0.006524 1129470.000000 0 0 1
-0.805999 10.220110 31.415001 33.045462 -1.492095 0.315440 0.079240 -0.001574 -69.248900 0 0 1
-1.148499 11.066010 32.495854 34.347579 -1.467380 0.329857 0.079981 -0.010186 -257.147000 0 0 1
-1.496999 12.341810 32.086061 34.410414 -1.450091 0.369655 0.078065 -0.009675 -68043.300000 0 0 1
-1.539699 13.371310 33.222007 35.845005 -1.456152 0.384932 0.067494 -0.008268 8593.670000 0 0 1
-0.300699 13.900110 33.610191 36.372358 -1.549167 0.392231 0.100139 -0.012142 -309560.000000 0 0 1
-0.517699 14.795610 -33.722043 36.828715 -1.535821 2.727907 0.102122 -0.017324 -342685.000000 0 0 1
0.780101 15.170710 -33.028583 36.354453 1.519420 2.710514 0.081114 -0.011982 -447981.000000 0 0 1
1.559701 16.017610 -33.843913 37.475418 1.473728 2.697722 0.076097 -0.016356 -963681.000000 0 0 1
2.847701 16.184910 -33.405833 37.229160 1.396631 2.684417 0.073703 -0.012600 -720432.000000 0 0 1
3.684101 17.210910 34.173541 38.439809 1.359922 0.475608 0.071142 -0.005279 198579.000000 0 0 1
3.245301 18.523810 -34.136430 38.973829 1.397360 2.638055 0.067360 0.000181 -575980.000000 0 0 1
4.024901 19.333410 33.483127 38.872874 1.365544 0.532876 0.051559 0.011994 -431868.000000 0 0 1
3.661901 20.798810 33.605154 39.690130 1.396519 0.561067 0.054113 -0.003613 -298026.000000 0 0 1
4.032501 21.375010 -33.616773 40.040474 1.384333 2.567287 0.072649 -0.022611 -230508.000000 0 0 1
3.594301 22.708010 -33.648793 40.753085 1.413815 2.542194 0.064692 -0.020001 17779.400000 0 0 1
3.641101 23.409510 -32.279603 40.040424 1.416493 2.508456 0.078345 -0.025560 -170471.000000 0 0 1
3.379201 24.778410 -32.279763 40.833463 1.435256 2.482458 0.083570 -0.032575 94056.000000 0 0 1
3.208101 25.097610 -30.925653 39.957201 1.443661 2.455882 0.096869 -0.036710 -336045.000000 0 0 1
2.722201 26.541410 -30.713103 40.683553 1.468589 2.426339 0.098338 -0.051140 -233588.000000 0 0 1
3.611101 27.624010 -30.870213 41.582400 1.440810 2.407422 0.093950 -0.046188 34642.200000 0 0 1
3.059901 28.754610 -30.270363 41.862698 1.464781 2.379057 0.090967 -0.045060 -166781.000000 0 0 1
4.185201 29.822910 -30.185773 42.639216 1.431372 2.357366 0.101202 -0.051702 177309.000000 0 0 1
5.139101 29.445810 -29.226813 41.805175 1.398009 2.344962 0.098994 -0.058157 -228481.000000 0 0 1
5.952201 30.572210 -28.930563 42.509601 1.378509 2.319330 0.086201 -0.055585 -430031.000000 0 0 1
7.080601 30.404610 -27.902273 41.870181 1.341995 2.300166 0.090075 -0.055150 494117.000000 0 0 1
8.228201 29.738510 -28.498363 42.002845 1.300864 2.316497 0.095777 -0.050299 1188450.000000 0 0 1
9.439401 30.498210 -28.594773 42.859120 1.270641 2.301214 0.111621 -0.045591 349136.000000 0 0 1
9.456501 31.837110 -29.361163 44.329503 1.282069 2.294733 0.122782 -0.048776 -1930470.000000 0 0 1
9.006201 32.890310 -28.650773 44.539319 1.303522 2.269557 0.113485 -0.040782 17954.900000 0 0 1
8.595901 34.000310 -29.369003 45.743294 1.323167 2.267952 0.080596 -0.027070 -242864.000000 0 0 1
7.258501 33.827910 -30.111393 45.866211 1.359430 2.286972 0.064993 -0.022007 -718531.000000 0 0 1
7.391501 33.194510 -31.387533 46.278364 1.351698 2.316152 0.056446 -0.026971 -658710.000000 0 0 1
6.148801 32.848310 -31.895253 46.196606 1.385750 2.332872 0.055457 -0.030532 -705205.000000 0 0 1
6.205101 32.236710 -33.318373 46.774167 1.380637 2.363601 0.066237 -0.042541 16404.700000 0 0 1
6.190001 33.133810 33.999134 47.875950 1.386107 0.781084 0.064225 -0.038767 90476.900000 0 0 1
6.006601 32.447810 32.758766 46.498133 1.387753 0.789053 0.083647 -0.039616 161329.000000 0 0 1
5.507501 33.341410 31.571481 46.246520 1.407090 0.819375 0.065172 -0.038459 263597.000000 0 0 1
6.612301 33.978610 30.983601 46.456991 1.378597 0.840714 0.064466 -0.033373 147265.000000 0 0 1
6.155501 -33.706322 29.867871 45.454330 -1.390165 0.853836 0.044217 -0.034809 -116591.000000 0 0 1
17.710838 -21.922490 29.666481 40.919060 -0.891266 0.759756 0.087749 -0.017049 449456.000000 0 0 1
16.567838 -21.058390 29.815491 40.086314 -0.904183 0.732085 0.079022 -0.013756 1429000.000000 0 0 1
15.301238 -21.728090 29.977381 40.060968 -0.957247 0.725310 0.086823 -0.011715 713410.000000 0 0 1
14.900238 -22.095490 31.396791 41.182354 -0.977489 0.703806 0.081028 -0.013182 -784603.000000 0 0 1
15.517238 -23.265490 31.918571 42.436575 -0.982588 0.719481 0.101816 -0.022456 273197.000000 0 0 1
15.094138 -23.567890 33.225041 43.441706 -1.001161 0.700036 0.087803 -0.023280 129714.000000 0 0 1
15.966538 -24.680890 33.933328 44.894849 -0.996590 0.713860 0.098142 -0.026898 239944.000000 0 0 1
15.909038 -25.959400 33.428269 45.215452 -1.020987 0.738750 0.104133 -0.035714 17378.000000 0 0 1
16.757038 -26.890150 34.110494 46.555390 -1.013517 0.748536 0.104669 -0.035431 269718.000000 0 0 1
16.545938 -28.342850 33.767089 47.088231 -1.042390 0.771160 0.106491 -0.032138 -150792.000000 0 0 1
17.260538 -28.710110 32.640265 46.771610 -1.029494 0.798384 0.101395 -0.034412 33933.400000 0 0 1
16.760538 -30.008160 32.215151 47.108611 -1.061426 0.817772 0.114846 -0.039474 -299326.000000 0 0 1
17.552438 -30.809020 31.209701 47.236948 -1.052941 0.849038 0.107512 -0.036994 -570409.000000 0 0 1
18.715038 -31.363540 31.774001 48.409828 -1.032797 0.854820 0.098508 -0.040082 -169380.000000 0 0 1
19.467038 -31.898830 30.696311 48.360774 -1.022856 0.883130 0.068275 -0.024926 -1131300.000000 0 0 1
20.849538 -32.395030 31.039881 49.473381 -0.998931 0.892579 0.060190 -0.023660 -655486.000000 0 0 1
21.764938 -31.297930 31.201711 49.262762 -0.963157 0.884892 0.049026 -0.020580 835907.000000 0 0 1
23.061638 -31.835010 31.490901 50.368481 -0.943874 0.895395 0.032658 -0.013092 -136388.000000 0 0 1
24.192438 -30.838330 31.560311 50.322261 -0.905583 0.892890 0.026803 -0.012150 -645562.000000 0 0 1
24.772238 -30.701910 30.293441 49.738955 -0.891885 0.915936 0.024277 -0.011209 -477796.000000 0 0 1
25.627138 -29.580010 30.314451 49.504476 -0.856877 0.911757 0.026693 -0.005596 146766.000000 0 0 1
26.687138 -29.682630 29.162661 49.434023 -0.838488 0.939823 0.035541 -0.006708 384381.000000 0 0 1
27.741338 -30.608150 29.446651 50.730129 -0.834490 0.951507 0.041698 -0.003486 -69094.800000 0 0 1
28.427638 -30.890960 28.247231 50.599289 -0.826901 0.978517 0.042355 -0.007065 -414521.000000 0 0 1
29.696238 -31.689030 28.542831 51.968783 -0.817850 0.989353 0.055794 -0.015150 -368413.000000 0 0 1
29.408638 -33.006690 28.930221 52.832445 -0.842981 0.991322 0.054273 -0.010581 -361787.000000 0 0 1
30.498938 -33.596240 29.558671 54.153556 -0.833684 0.993416 0.055434 -0.014969 -675783.000000 0 0 1
30.050238 33.380876 30.112111 54.074384 0.837858 0.980190 0.039258 -0.008564 -1254340.000000 0 0 1
29.354938 33.347756 31.302011 54.347043 0.848991 0.957012 0.035546 -0.012273 1548760.000000 0 0 1
27.998738 33.904350 31.436371 54.052564 0.880511 0.950116 0.022716 -0.007797 1617570.000000 0 0 1
27.035838 33.476010 30.292421 52.623289 0.891427 0.957402 0.033948 -0.009450 -1537960.000000 0 0 1
26.576838 32.150602 30.286781 51.548798 0.880024 0.942786 0.027588 0.002744 -705008.000000 0 0 1
25.212138 32.142132 30.585071 51.031511 0.905643 0.928124 0.029981 -0.001630 -370385.000000 0 0 1
24.548238 30.752522 30.459601 49.760636 0.897123 0.912054 0.048294 -0.003746 -55075.800000 0 0 1
24.400538 30.325092 29.142431 48.623849 0.893237 0.928114 0.057226 -0.016680 169192.000000 0 0 1
23.914238 28.982472 28.986931 47.456471 0.880920 0.913712 0.096353 -0.039718 -295238.000000 0 0 1
23.186938 28.738002 27.658621 46.135736 0.891899 0.927913 0.108880 -0.039915 -26200.100000 0 0 1
21.953438 29.412012 27.548811 45.890706 0.929596 0.926903 0.125186 -0.038733 -86568.200000 0 0 1
21.303338 29.056102 26.331581 44.625569 0.938148 0.939668 0.131245 -0.035041 34959.900000 0 0 1
19.991138 29.826142 26.104041 44.392176 0.980313 0.942172 0.098687 -0.030416 -202368.000000 0 0 1
20.121438 31.159392 25.709651 45.130545 0.997409 0.964688 0.112372 -0.034232 248327.000000 0 0 1
18.881138 31.825742 25.527311 44.955743 1.035343 0.966927 0.076372 -0.027766 116759.000000 0 0 1
19.199838 33.184943 24.955341 45.745418 1.046283 0.993779 0.074124 -0.020084 270351.000000 0 0 1
19.811338 33.147460 23.654761 45.285659 1.032090 1.021197 0.095577 -0.024240 1261590.000000 0 0 1
21.161838 33.634718 23.521451 46.177660 1.009206 1.036345 0.120172 -0.023288 869100.000000 0 0 1
21.493738 33.916224 22.018731 45.794274 1.005944 1.069208 0.128180 -0.028684 -61701.000000 0 0 1
20.995238 -33.250810 21.549231 44.841786 -1.007593 1.069502 0.103383 -0.019022 299333.000000 0 0 1
21.326538 -33.078550 20.195431 44.236491 -0.998139 1.096702 0.114747 -0.023304 -124328.000000 0 0 1
20.998838 -31.663480 19.638431 42.769091 -0.985206 1.093732 0.109686 -0.021740 -313714.000000 0 0 1
21.700138 -30.605610 20.252931 42.635438 -0.954039 1.075803 0.107063 -0.014047 209682.000000 0 0 1
21.493638 -29.344690 19.619431 41.328070 -0.938620 1.076146 0.103381 -0.020080 -401597.000000 0 0 1
22.205638 -29.126210 18.279031 40.933476 -0.919410 1.107885 0.086992 -0.018061 -422281.000000 0 0 1
21.737338 -29.896420 17.174031 40.758498 -0.942121 1.135851 0.078128 -0.018323 152576.000000 0 0 1
22.412438 -29.455640 16.045431 40.341145 -0.920363 1.161740 0.062068 -0.008651 -334326.000000 0 0 1
21.973638 -30.037160 14.672831 40.004546 -0.939209 1.195252 0.048723 -0.016870 -249721.000000 0 0 1
22.579238 -31.294770 14.414231 41.194110 -0.945785 1.213321 0.073708 -0.015187 110573.000000 0 0 1
22.578838 -31.671160 13.021331 41.017330 -0.951455 1.247747 0.060034 -0.015338 126307.000000 0 0 1
21.205638 -31.879360 12.317531 40.220570 -0.983821 1.259546 0.056238 -0.012821 -59516.100000 0 0 1
20.535838 -33.037550 12.619931 40.895758 -1.014652 1.257088 0.058808 -0.015437 -1049400.000000 0 0 1
19.253538 -33.077410 12.091331 40.137440 -1.043661 1.264795 0.065563 -0.006848 -512890.000000 0 0 1
18.253538 -33.821590 13.004331 40.573443 -1.075895 1.244525 0.065179 -0.010414 -177551.000000 0 0 1
17.874338 -33.107750 14.166131 40.203164 -1.075753 1.210701 0.066610 -0.011011 441993.000000 0 0 1
18.679238 -33.537090 15.257431 41.309074 -1.062616 1.192489 0.059558 -0.014706 -508946.000000 0 0 1
18.481938 -32.548730 16.429031 40.876826 -1.054372 1.157189 0.066087 -0.014121 1305540.000000 0 0 1
17.103738 -32.194120 16.742431 40.116184 -1.082448 1.140271 0.060944 -0.019270 1778750.000000 0 0 1
16.168538 -33.166480 17.229631 40.722196 -1.117202 1.133931 0.061377 -0.016086 -94492.200000 0 0 1
16.467338 -33.792890 18.624131 41.952246 -1.117359 1.110809 0.047079 -0.018868 -395640.000000 0 0 1
17.307938 33.489985 18.434631 41.964025 1.093792 1.115981 0.049447 -0.019267 -110341.000000 0 0 1
17.796738 33.036426 19.662531 42.364424 1.076670 1.088146 0.050529 -0.019861 342830.000000 0 0 1
18.642538 31.724972 19.473031 41.631923 1.039522 1.084061 0.068105 -0.018802 492564.000000 0 0 1
17.843338 30.598002 19.165731 40.273411 1.042856 1.074820 0.038736 -0.017535 210037.000000 0 0 1
18.737138 29.510742 18.920731 39.748689 1.005091 1.074685 0.048203 -0.023707 334779.000000 0 0 1
18.138638 28.104402 18.698231 38.320901 0.997660 1.061070 0.044473 -0.015646 -277579.000000 0 0 1
17.414738 27.609112 19.792431 38.174291 1.008065 1.025729 0.046863 -0.024285 -142992.000000 0 0 1
17.131138 26.278162 19.550131 36.962485 0.993076 1.013471 0.040095 -0.019498 -541676.000000 0 0 1
17.171838 25.388092 20.829231 37.057848 0.976104 0.973906 0.043372 -0.010966 597458.000000 0 0 1
15.962838 25.350582 21.602831 36.934354 1.008836 0.946042 0.040649 -0.006860 267201.000000 0 0 1
14.982738 24.454742 21.156631 35.638741 1.021111 0.935220 0.035427 -0.005947 -47318.600000 0 0 1
13.632638 24.683372 21.898831 35.702611 1.066189 0.910479 0.045697 -0.015547 59388.200000 0 0 1
12.971438 25.761522 21.278831 35.842752 1.104337 0.935182 0.046504 -0.018604 -374488.000000 0 0 1
11.720638 26.027482 21.874131 35.962213 1.147678 0.916938 0.039063 -0.023408 -154349.000000 0 0 1
10.932938 27.070212 21.071831 36.004827 1.186955 0.945608 0.037139 -0.022416 -442497.000000 0 0 1
11.405838 28.392192 21.354931 37.312770 1.188804 0.961461 0.024333 -0.020195 -97450.500000 0 0 1
10.781838 29.383782 20.543531 37.439168 1.219118 0.989967 0.036423 -0.024240 -238134.000000 0 0 1
11.308338 30.824142 20.545231 38.731289 1.219176 1.011658 0.033791 -0.025795 -391493.000000 0 0 1
10.801338 31.696002 21.541231 39.816204 1.242360 0.999151 0.029397 -0.021174 -56849.500000 0 0 1
11.582538 31.750462 22.726331 40.727548 1.220999 0.978812 0.019455 -0.019960 -55511.800000 0 0 1
10.905938 32.624136 23.815451 41.838373 1.248185 0.965233 0.010467 -0.015399 -317523.000000 0 0 1
9.805738 32.018342 24.405641 41.436240 1.273612 0.940985 0.023311 -0.015102 -783687.000000 0 0 1
9.331238 32.807747 25.432981 42.547112 1.293692 0.930092 0.021484 -0.018498 18253.600000 0 0 1
8.010538 32.345422 26.116151 42.337317 1.328025 0.906051 0.093412 -0.041943 358422.000000 0 0 1
6.818238 33.069660 25.834781 42.515017 1.367467 0.917682 0.086760 -0.040491 399862.000000 0 0 1
6.012338 32.580782 24.782301 41.374122 1.388313 0.928569 0.079154 -0.045403 157210.000000 0 0 1
5.221438 31.257832 24.898471 40.301977 1.405280 0.904857 0.074004 -0.028721 -913446.000000 0 0 1
6.054238 30.185922 25.013061 39.667328 1.372858 0.888508 0.064078 -0.028640 -1164330.000000 0 0 1
5.473738 28.932592 24.666821 38.412351 1.383817 0.873485 0.053421 -0.020287 -517764.000000 0 0 1
6.454338 27.713512 24.681541 37.667966 1.341980 0.856297 0.048312 -0.019166 169350.000000 0 0 1
7.478638 27.687452 23.688411 37.197659 1.306983 0.880423 0.025677 -0.014792 -122814.000000 0 0 1
8.442238 28.670282 23.626771 38.098304 1.284430 0.901859 0.050053 -0.017981 -1127610.000000 0 0 1
9.632238 28.395232 24.561211 38.759802 1.243757 0.884499 0.050257 -0.023878 -1058170.000000 0 0 1
9.236638 28.445042 25.940951 39.590009 1.256819 0.856296 0.050147 -0.019616 -286267.000000 0 0 1
10.205238 28.126702 26.898161 40.233932 1.222737 0.838547 0.038020 -0.007156 -43432.200000 0 0 1
11.383538 29.135382 27.054311 41.356876 1.198323 0.857715 0.026911 -0.013828 -307418.000000 0 0 1
11.098838 30.327282 27.671401 42.528046 1.219967 0.862340 0.041022 -0.024431 338786.000000 0 0 1
12.281138 31.082632 27.927381 43.553358 1.194510 0.874706 0.042795 -0.009085 349998.000000 0 0 1
11.914338 32.365983 28.769071 44.912891 1.218077 0.875579 0.025630 -0.018769 57278.800000 0 0 1
11.709738 32.211332 30.149951 45.647644 1.222121 0.849321 0.039407 -0.038025 142176.000000 0 0 1
10.357838 31.975952 30.505801 45.391081 1.257536 0.833801 0.066323 -0.034781 -16499.600000 0 0 1
10.239038 31.757942 32.036351 46.257243 1.258910 0.805751 0.093145 -0.040019 -175689.000000 0 0 1
10.440138 30.392732 32.451934 45.671026 1.239917 0.780505 0.088850 -0.043688 105942.000000 0 0 1
10.502238 30.272222 33.843516 46.605665 1.236862 0.758065 0.123742 -0.042458 -92955.400000 0 0 1
10.533338 28.838252 -34.022753 45.827325 1.220596 2.407460 0.114905 -0.041994 -970797.000000 0 0 1
11.734738 28.237432 34.103870 45.805355 1.176937 0.730952 0.121975 -0.034794 -811156.000000 0 0 1
11.643838 26.836092 -34.035523 44.879523 1.161422 2.431613 0.121837 -0.035856 202262.000000 0 0 1
13.010638 26.131582 34.150329 44.926398 1.108839 0.707269 0.107017 -0.033335 278014.000000 0 0 1
13.083738 24.760122 -33.915883 43.983348 1.084672 2.451375 0.090768 -0.032676 -343860.000000 0 0 1
13.380838 24.519112 -32.564313 42.903009 1.071237 2.432605 0.096744 -0.035167 -150172.000000 0 0 1
13.432138 23.008842 -32.207293 41.798790 1.042387 2.450471 0.072267 -0.045002 -53022.400000 0 0 1
14.506338 22.351842 -32.863343 42.308840 0.995125 2.460283 0.070870 -0.031392 157051.000000 0 0 1
14.402638 20.915842 -32.792483 41.475961 0.967763 2.482647 0.063626 -0.032379 -153767.000000 0 0 1
15.627538 20.121842 -33.292863 41.922824 0.910459 2.488398 0.069910 -0.037828 -108901.000000 0 0 1
16.724338 20.278142 -32.424873 41.740614 0.881147 2.460394 0.065592 -0.033832 -213414.000000 0 0 1
17.863738 19.659542 -33.013913 42.373685 0.833220 2.464047 0.069022 -0.032078 -198781.000000 0 0 1
19.106938 19.726242 -32.121743 42.261165 0.801345 2.434228 0.053024 -0.030946 -139017.000000 0 0 1
19.673238 21.075942 -32.122453 43.163452 0.819807 2.410140 0.043750 -0.020313 629499.000000 0 0 1
20.701338 21.326042 -31.140843 43.047620 0.800261 2.379517 0.033760 -0.010061 583484.000000 0 0 1
20.217438 21.797042 -29.748133 42.057190 0.822977 2.356504 0.021638 -0.011933 25926.600000 0 0 1
19.784338 23.188042 -29.811143 42.635778 0.864440 2.345081 0.016920 0.001962 928.692000 0 0 1
19.351738 23.751022 -28.627503 41.930117 0.887111 2.322307 0.030107 0.002463 -429384.000000 0 0 1
20.517938 24.133992 -27.697353 42.078245 0.866205 2.289267 0.012799 0.006177 658190.000000 0 0 1
21.394938 25.239912 -28.144263 43.438417 0.867661 2.275636 0.017873 0.005408 694510.000000 0 0 1
20.816638 26.554932 -28.144343 43.938603 0.905945 2.265995 0.008971 0.008891 -363266.000000 0 0 1
21.610338 27.512582 -29.029573 45.460587 0.904977 2.263429 0.003322 0.011381 -640181.000000 0 0 1
21.497038 27.333802 -30.443183 46.217386 0.904364 2.289880 0.009511 0.011814 -38831.200000 0 0 1
22.124638 26.239152 -31.090213 46.309762 0.870268 2.306830 0.013253 0.013698 86744.300000 0 0 1
23.615338 25.967402 -30.765673 46.674584 0.832800 2.290488 0.030245 0.006912 120278.000000 0 0 1
24.561538 26.866892 -31.365183 48.050741 0.830195 2.282007 0.027051 0.014074 729996.000000 0 0 1
25.869438 26.506212 -30.924143 48.250489 0.797555 2.266477 0.044612 -0.003222 287731.000000 0 0 1
26.978538 27.534972 -31.171183 49.574780 0.795605 2.250768 0.030773 0.002282 -117187.000000 0 0 1
26.971238 28.547952 -30.206653 49.546696 0.813790 2.226428 0.014615 0.005153 -184095.000000 0 0 1
28.030838 29.391942 -30.534083 50.812836 0.809097 2.215439 0.019984 -0.001018 -287745.000000 0 0 1
28.167838 30.564442 -29.538933 50.991771 0.826181 2.188652 0.016416 0.003122 -276947.000000 0 0 1
28.616738 30.170122 -28.293083 50.295651 0.811816 2.168246 0.033978 0.001208 -42516.300000 0 0 1
28.175338 31.044682 -27.334633 50.048018 0.833813 2.148579 0.029267 0.010012 -407558.000000 0 0 1
28.766738 30.703642 -25.948323 49.432320 0.817956 2.123425 0.048079 0.002910 -608111.000000 0 0 1
28.575238 29.397052 -25.367093 48.210168 0.799573 2.124895 0.049496 0.009258 -34246.200000 0 0 1
27.248838 28.989212 -25.140943 47.063155 0.816335 2.134353 0.052858 0.004994 -498131.000000 0 0 1
26.560938 29.338862 -23.771063 46.166174 0.835052 2.111690 0.060244 0.010612 18611.900000 0 0 1
26.333838 30.712272 -23.620463 46.846995 0.862001 2.099257 0.082008 0.001934 659514.000000 0 0 1
25.652238 30.953482 -22.344663 45.993905 0.878778 2.078095 0.072276 0.007986 455566.000000 0 0 1
3.156738 -25.914520 -19.591963 32.640042 -1.449580 2.214601 0.051708 -0.012326 -238578.000000 0 0 1
3.250438 -27.044500 -18.765263 33.077265 -1.451182 2.174039 0.054876 -0.014289 175874.000000 0 0 1
3.209438 -26.617510 -17.422263 31.973858 -1.450799 2.147055 0.066298 -0.017903 -161703.000000 0 0 1
3.266038 -27.750200 -16.450563 32.424707 -1.453641 2.102899 0.061775 -0.024244 -505398.000000 0 0 1
4.533038 -28.275310 -16.189063 32.895704 -1.411831 2.085335 0.055941 -0.025880 -523480.000000 0 0 1
4.523638 -29.200500 -15.123363 33.194105 -1.417102 2.043847 0.057561 -0.033504 -171226.000000 0 0 1
5.910138 -29.758360 -14.794063 33.754319 -1.374743 2.024488 0.082887 -0.030766 -223347.000000 0 0 1
6.798738 -28.850860 -14.142863 32.842283 -1.339367 2.015987 0.065678 -0.014838 -132003.000000 0 0 1
8.079338 -29.420340 -13.953863 33.549105 -1.302786 1.999754 0.065783 -0.008366 108350.000000 0 0 1
8.289138 -30.365090 -12.741563 33.957266 -1.304307 1.955434 0.064231 -0.016021 -923444.000000 0 0 1
8.647238 -29.757640 -11.529863 33.064023 -1.287996 1.926994 0.058900 -0.020226 -78708.300000 0 0 1
8.720338 -30.685270 -10.468863 33.574204 -1.293910 1.887897 0.065471 -0.018732 -410963.000000 0 0 1
9.951638 -31.574790 -10.412563 34.704812 -1.265475 1.875523 0.062209 -0.018071 -683696.000000 0 0 1
11.102838 -30.869080 -10.032363 34.304831 -1.225528 1.867582 0.064657 -0.018291 -209788.000000 0 0 1
12.218638 -31.727150 -9.843663 35.394984 -1.203186 1.852621 0.053419 -0.014056 882767.000000 0 0 1
13.288638 -31.055470 -8.885763 34.928311 -1.166472 1.828024 0.055230 -0.010468 538390.000000 0 0 1
14.235738 -30.116870 -9.349963 34.599190 -1.129240 1.844435 0.043933 -0.014349 326135.000000 0 0 1
15.230038 -29.940190 -8.340263 34.611111 -1.100227 1.814162 0.042204 -0.011234 103567.000000 0 0 1
16.480138 -29.163050 -8.809863 34.636572 -1.056431 1.827973 0.050945 -0.010471 -127075.000000 0 0 1
16.360738 -27.765590 -9.046463 33.472978 -1.038322 1.844461 0.054947 -0.010059 -90125.500000 0 0 1
15.676638 -27.445360 -10.231763 33.221887 -1.051827 1.883868 0.043125 -0.006754 -445801.000000 0 0 1
15.409138 -25.912020 -10.402663 31.891844 -1.034304 1.903062 0.053231 -0.004631 -977901.000000 0 0 1
14.428938 -25.395820 -9.544663 30.728530 -1.054116 1.886634 0.040678 -0.001515 125835.000000 0 0 1
13.795538 -24.183490 -9.923563 29.557320 -1.052386 1.913187 0.038998 0.002165 521449.000000 0 0 1
13.070038 -24.086890 -11.347263 29.660825 -1.073636 1.963370 0.012735 0.007076 221093.000000 0 0 1
14.046638 -23.893590 -12.376363 30.354342 -1.039334 1.990763 0.019669 0.006600 85817.400000 0 0 1
13.441738 -23.656590 -13.632963 30.433078 -1.054085 2.035285 0.019219 0.000404 430605.000000 0 0 1
14.349238 -23.070390 -14.790763 30.933965 -1.014374 2.069332 0.017436 0.001647 902841.000000 0 0 1
15.311838 -23.956990 -15.398563 32.334278 -1.002094 2.067159 0.026154 -0.004357 743440.000000 0 0 1
15.767138 -23.491390 -16.690963 32.848688 -0.979670 2.103793 0.030691 -0.007240 -515029.000000 0 0 1
16.728338 -24.439690 -17.440363 34.370074 -0.970567 2.102995 0.037981 -0.014217 824414.000000 0 0 1
18.031038 -24.709190 -16.928163 34.960336 -0.940395 2.076257 0.061597 -0.022843 654482.000000 0 0 1
18.941738 -23.599690 -16.989663 34.704228 -0.894456 2.082377 0.067234 -0.031890 -781660.000000 0 0 1
20.349438 -23.895290 -16.508363 35.462805 -0.865369 2.055009 0.062140 -0.027339 -741224.000000 0 0 1
21.033738 -24.798990 -17.309963 36.838063 -0.867366 2.059966 0.081814 -0.029324 -1107820.000000 0 0 1
22.296438 -25.002390 -16.757363 37.457441 -0.842546 2.034620 0.090388 -0.017563 -698025.000000 0 0 1
22.995438 -26.096340 -17.528663 38.949495 -0.848480 2.037602 0.090139 -0.021853 -587753.000000 0 0 1
23.559438 -25.583840 -18.710063 39.492359 -0.826569 2.064356 0.094508 -0.023624 -181011.000000 0 0 1
24.132338 -26.568060 -19.500963 40.847511 -0.833403 2.068500 0.087330 -0.028075 -992431.000000 0 0 1
25.310638 -26.107840 -20.317663 41.653993 -0.800901 2.080332 0.067901 -0.031362 -727727.000000 0 0 1
25.091038 -25.184010 -21.360563 41.473705 -0.787247 2.111849 0.065815 -0.036774 -365648.000000 0 0 1
25.713238 -23.978190 -21.079463 40.993511 -0.750496 2.110888 0.072174 -0.037484 -682681.000000 0 0 1
24.786638 -22.704290 -21.019363 39.644367 -0.741579 2.129630 0.080572 -0.036676 217983.000000 0 0 1
24.406938 -22.104390 -22.259163 39.746359 -0.735933 2.165219 0.073786 -0.024895 363016.000000 0 0 1
23.688738 -22.981790 -23.149163 40.313803 -0.770252 2.182453 0.043099 -0.020748 -768420.000000 0 0 1
22.887738 -22.285890 -24.215863 40.086375 -0.772076 2.219422 0.025339 -0.012611 14896.700000 0 0 1
23.719138 -21.704790 -25.231263 40.869451 -0.741082 2.236182 0.006324 -0.004063 537135.000000 0 0 1
22.917838 -20.932490 -26.120223 40.566766 -0.740154 2.270358 -0.000148 0.007848 312671.000000 0 0 1
23.732738 -20.199190 -27.250103 41.398288 -0.705139 2.289278 0.003384 0.007846 587332.000000 0 0 1
22.865138 -19.354190 -28.046953 41.036944 -0.702429 2.323283 0.006568 0.008668 732025.000000 0 0 1
23.483738 -18.831690 -29.210723 41.945022 -0.675900 2.341172 0.028992 0.002123 -14996.300000 0 0 1
22.571038 -17.807390 -29.954573 41.519048 -0.667966 2.376713 0.050409 -0.000026 -36774.000000 0 0 1
21.412338 -18.395590 -30.532433 41.582634 -0.709760 2.395371 0.052145 -0.002277 -73886.100000 0 0 1
20.648338 -17.317390 -30.983583 41.063710 -0.697887 2.425726 0.054278 -0.006738 -46844.300000 0 0 1
19.225338 -17.799990 -31.389153 40.886822 -0.746921 2.446053 0.047855 -0.008924 150320.000000 0 0 1
19.323038 -18.455390 -32.598523 42.150266 -0.762435 2.454965 0.062840 -0.013064 507965.000000 0 0 1
18.150238 -19.214890 -32.865613 42.175724 -0.813884 2.464271 0.059875 -0.018644 197798.000000 0 0 1
18.150738 -19.895390 34.157253 43.497055 -0.831222 0.667652 0.093918 -0.013648 181364.000000 0 0 1
18.998938 -21.052090 34.196636 44.424769 -0.836617 0.692323 0.098004 -0.009248 429449.000000 0 0 1
18.788138 -21.974390 33.173764 44.004166 -0.863406 0.716852 0.083845 -0.015073 212052.000000 0 0 1
19.734538 -23.250290 33.274053 45.135248 -0.867007 0.741868 0.076323 -0.003012 238835.000000 0 0 1
19.480438 -24.232890 -34.177578 46.204191 -0.893691 2.403432 0.085061 -0.003798 67547.400000 0 0 1
19.700538 -23.910090 -32.793023 45.113035 -0.881626 2.384605 0.089828 -0.005882 31833.200000 0 0 1
18.923938 -24.892490 -31.811723 44.606471 -0.920782 2.364798 0.087089 -0.012476 304869.000000 0 0 1
19.416338 -26.254560 -31.863513 45.624331 -0.934022 2.343940 0.092321 -0.024862 604417.000000 0 0 1
20.542138 -26.551980 -31.029573 45.714565 -0.912326 2.316880 0.075082 -0.022348 440358.000000 0 0 1
20.834738 -28.028820 -30.971653 46.679164 -0.931576 2.296284 0.073128 -0.029668 -462412.000000 0 0 1
19.726838 -28.732820 -30.497663 46.312315 -0.969147 2.289649 0.075121 -0.028864 -428597.000000 0 0 1
19.699738 -30.104120 -30.699183 47.294583 -0.991343 2.277205 0.077177 -0.031493 -258457.000000 0 0 1
18.411838 -30.728970 -30.121773 46.803703 -1.030988 2.269959 0.109323 -0.031577 309249.000000 0 0 1
17.248838 -30.671600 -30.925683 46.847277 -1.058504 2.291799 0.129467 -0.041645 96496.100000 0 0 1
17.187838 -31.737360 -31.962913 48.211094 -1.074452 2.295587 0.133436 -0.045778 785060.000000 0 0 1
15.712938 -32.101020 -32.427073 48.258543 -1.115597 2.307628 0.148741 -0.052860 1366860.000000 0 0 1
14.963238 -31.078590 -33.060583 47.778441 -1.122087 2.334991 0.149939 -0.046275 324563.000000 0 0 1
13.648438 -31.510750 -33.394533 47.899917 -1.162055 2.342243 0.102435 -0.036250 690732.000000 0 0 1
12.805738 -30.482560 34.201371 47.570024 -1.173083 0.768479 0.097040 -0.026077 391787.000000 0 0 1
12.113938 -29.540240 -33.401593 46.206490 -1.181628 2.378753 0.106590 -0.032621 335613.000000 0 0 1
11.036038 -28.923630 -34.105194 46.060121 -1.206289 2.404535 0.075086 -0.026690 223129.000000 0 0 1
10.085938 -28.046700 -33.263323 44.663097 -1.225584 2.410973 0.078527 -0.030122 90185.600000 0 0 1
9.049838 -28.885090 -32.792083 44.626995 -1.267178 2.396174 0.067533 -0.014998 328392.000000 0 0 1
7.971838 -28.122980 -32.227393 43.509276 -1.294579 2.404910 0.024812 -0.012533 1193100.000000 0 0 1
6.729738 -28.855190 -31.597353 43.316326 -1.341668 2.388323 0.013584 -0.010707 713095.000000 0 0 1
5.933738 -29.569090 -32.539563 44.366243 -1.372753 2.394151 0.019822 -0.012434 83246.600000 0 0 1
6.385838 -30.851090 -32.890333 45.544952 -1.366690 2.377703 0.020190 -0.006932 350428.000000 0 0 1
5.194638 -31.871650 -32.947943 46.134080 -1.409231 2.366245 0.034767 -0.015460 858762.000000 0 0 1
4.445938 -32.015940 -31.725493 45.291210 -1.432812 2.346863 0.037188 -0.030075 627176.000000 0 0 1
3.426038 -33.016150 -31.891693 46.031337 -1.467398 2.336197 0.061780 -0.059867 -210919.000000 0 0 1
2.551338 -33.230610 -30.642423 45.274064 -1.494170 2.314231 0.060558 -0.065710 380847.000000 0 0 1
1.486638 -32.325120 -30.371653 44.379734 -1.524839 2.324520 0.053855 -0.053158 946712.000000 0 0 1
0.279938 -32.428920 -31.132853 44.955175 -1.562164 2.335788 0.041117 -0.019229 453501.000000 0 0 1
-0.680862 -31.217760 -30.940323 43.958113 1.548990 2.351612 0.025792 -0.009329 264838.000000 0 0 1
-1.272562 -31.151750 -29.621183 43.005412 1.529969 2.330598 0.022562 -0.018757 198297.000000 0 0 1
-1.650762 -29.843750 -29.298683 41.854358 1.515539 2.346215 0.043728 -0.009417 -7836.220000 0 0 1
-2.353162 -29.722610 -27.906193 40.837808 1.491790 2.323127 0.044950 -0.006455 -35673.800000 0 0 1
-1.494962 -29.913000 -26.779923 40.176943 1.520861 2.300367 0.024726 -0.003387 443052.000000 0 0 1
-2.188262 -30.009220 -25.520763 39.454418 1.498006 2.274232 0.039973 -0.006311 178043.000000 0 0 1
-1.148262 -30.312490 -24.434463 38.951361 1.532934 2.248887 0.022005 -0.004030 -134228.000000 0 0 1
-1.742362 -30.445040 -23.161663 38.293589 1.513629 2.220367 0.040534 -0.013990 699074.000000 0 0 1
-0.761862 -30.883000 -22.170463 38.024592 1.546132 2.193281 0.021248 -0.010259 992460.000000 0 0 1
-1.394162 -30.957890 -20.726063 37.281421 1.525793 2.160284 0.008313 -0.004148 147414.000000 0 0 1
-1.403562 -29.651940 -20.170263 35.889372 1.523497 2.167613 0.015484 -0.013627 181442.000000 0 0 1
-0.173062 -29.361500 -19.533763 35.266068 1.564902 2.157834 0.037074 -0.026126 -248967.000000 0 0 1
-0.137762 -27.925110 -19.005963 33.779541 1.565863 2.168381 0.030478 -0.026826 119238.000000 0 0 1
-1.054962 -27.799810 -17.919063 33.091316 1.532866 2.143021 0.037258 -0.028631 284529.000000 0 0 1
-0.893062 -26.545920 -17.232663 31.661461 1.537167 2.146326 0.047534 -0.030040 -118161.000000 0 0 1
-1.859362 -26.360360 -16.063863 30.925289 1.500377 2.116993 0.047252 -0.024950 -332049.000000 0 0 1
-1.779062 -25.043790 -15.573563 29.544752 1.499877 2.126002 0.045370 -0.019588 -226945.000000 0 0 1
-2.735162 -24.898090 -14.578863 28.981705 1.461381 2.097905 0.049234 -0.019596 -479060.000000 0 0 1
-2.581362 -23.675890 -13.631263 27.441256 1.462196 2.090639 0.053419 -0.014556 -76776.400000 0 0 1
-1.418262 -23.825990 -12.850063 27.107442 1.511341 2.064672 0.052737 -0.013119 -270648.000000 0 0 1
-1.302862 -22.707690 -12.054063 25.741738 1.513484 2.058127 0.056707 -0.011032 781452.000000 0 0 1
0.132338 -22.583790 -11.426363 25.310213 -1.564937 2.039189 0.052717 -0.006307 692020.000000 0 0 1
0.375938 -21.396990 -10.804563 23.973133 -1.553228 2.038340 0.044803 -0.003289 -96253.700000 0 1 0
1.674638 -21.511890 -10.244663 23.885539 -1.493106 2.014078 0.036548 0.001286 328670.000000 0 1 0
2.194438 -20.166490 -9.636063 22.457885 -1.462407 2.014262 0.038970 0.002787 -873862.000000 0 1 0
2.607538 -19.286790 -10.680563 22.200314 -1.436413 2.072705 0.037296 0.009806 -103626.000000 0 1 0
3.437738 -18.215090 -10.354263 21.232483 -1.384260 2.080205 0.017723 0.008986 -701906.000000 0 1 0
4.826338 -18.527690 -9.846063 21.529371 -1.315966 2.045789 0.024832 -0.005794 -1315890.000000 0 1 0
4.821038 -19.065890 -8.551063 21.444609 -1.323126 1.980951 0.026264 -0.007826 -821467.000000 0 1 0
5.856538 -19.936590 -8.251663 22.357473 -1.285076 1.948814 0.031077 -0.007109 -757131.000000 0 1 0
5.395438 -20.915490 -7.172763 22.759987 -1.318337 1.891409 0.042056 -0.012820 -68393.500000 0 1 0
4.440438 -21.849890 -7.602363 23.556976 -1.370302 1.899401 0.036696 -0.015649 -128958.000000 0 1 0
4.380838 -22.930290 -6.700763 24.287655 -1.382021 1.850314 0.047963 -0.018138 -239250.000000 0 1 0
3.593038 -24.082090 -7.254363 25.406353 -1.422689 1.860359 0.047070 -0.011108 -124059.000000 0 0 1
4.220938 -24.697190 -8.344263 26.408223 -1.401524 1.892277 0.051057 -0.010453 -238624.000000 0 0 1
3.261738 -25.113270 -9.286263 26.973134 -1.441638 1.922266 0.045081 -0.012443 -60758.500000 0 0 1
3.805738 -25.807490 -10.510963 28.124554 -1.424385 1.953822 0.036853 -0.014456 -248311.000000 0 0 1
4.133738 -27.179190 -10.240663 29.337133 -1.419861 1.927373 0.049681 -0.013598 83291.600000 0 0 1
4.724038 -27.871450 -11.345563 30.460730 -1.402898 1.952460 0.058470 -0.008968 356228.000000 0 0 1
4.825438 -29.400930 -11.086863 31.790220 -1.408121 1.927034 0.064308 -0.019332 -250612.000000 0 0 1
3.569238 -29.982870 -11.256263 32.224454 -1.452311 1.927629 0.076845 -0.019048 -351811.000000 0 0 1
3.663238 -31.382550 -11.102063 33.489395 -1.454594 1.908700 0.072792 -0.019665 49189.500000 0 0 1
2.367938 -32.110900 -11.518063 34.196240 -1.497187 1.914336 0.061114 -0.028232 -21179.600000 0 0 1
2.051738 -31.814920 -12.873263 34.381967 -1.506396 1.954566 0.067542 -0.037237 200916.000000 0 0 1
1.474538 -32.901230 -13.551763 35.613417 -1.526009 1.961159 0.061167 -0.031514 -190432.000000 0 0 1
0.931038 -32.627940 -14.997063 35.921598 -1.542269 2.001482 0.070695 -0.029113 616347.000000 0 0 1
-0.181662 -31.710190 -15.011863 35.084544 1.565068 2.012939 0.060626 -0.029969 308678.000000 0 0 1
-0.581462 -31.766810 -16.360763 35.737136 1.552494 2.046325 0.027458 -0.022856 -499981.000000 0 0 1
-1.793762 -30.909770 -16.678763 35.168347 1.512829 2.064914 0.026296 -0.013486 597727.000000 0 0 1
-3.023462 -31.387910 -16.066863 35.390483 1.474767 2.042033 0.029851 -0.015775 461873.000000 0 0 1
-4.120062 -30.792330 -16.715563 35.278216 1.437785 2.064421 0.031319 -0.009762 355884.000000 0 0 1
-5.480862 -30.986720 -15.998163 35.300962 1.395729 2.041141 0.041941 -0.021614 -156623.000000 0 0 1
-5.704162 -30.015860 -14.985363 34.030140 1.382997 2.026791 0.027311 -0.014506 333078.000000 0 0 1
-7.067362 -29.756580 -14.647463 33.910910 1.337611 2.017438 0.043890 -0.012508 727586.000000 0 0 1
-7.727262 -30.832580 -13.727663 34.623797 1.325234 1.978476 0.039125 -0.014425 -132282.000000 0 0 1
-7.737062 -32.119410 -14.295463 35.998318 1.334415 1.979167 0.053446 -0.008462 -286450.000000 0 0 1
-8.234762 -33.158720 -13.440963 36.714732 1.327377 1.945602 0.072246 -0.008022 363018.000000 0 0 1
-8.732462 33.917363 -14.098363 37.754566 -1.318806 1.953491 0.098050 -0.008335 5677.130000 0 0 1
-7.665562 33.156724 -14.623963 37.040376 -1.343596 1.976659 0.098400 -0.010744 -148277.000000 0 0 1
-8.020862 31.912442 -15.133563 36.218267 -1.324557 2.001867 0.113205 -0.023540 -572739.000000 0 0 1
-7.740162 -22.318090 -3.485463 23.877934 1.236965 1.717290 0.052778 -0.004629 259164.000000 0 1 0
-7.451362 -21.161490 -4.249763 22.834009 1.232235 1.758003 0.042721 -0.008394 702772.000000 0 1 0
-6.118162 -21.185790 -4.800863 22.568073 1.289659 1.785162 0.032861 -0.009093 952864.000000 0 1 0
-5.892662 -20.107190 -5.851263 21.754536 1.285716 1.843117 0.024364 -0.015313 776147.000000 0 1 0
-6.774162 -20.283290 -7.007363 22.503428 1.248466 1.887453 0.029050 -0.014385 286267.000000 0 1 0
-6.781662 -19.094690 -7.802163 21.713403 1.229532 1.938341 0.016066 -0.017391 -39200.500000 0 1 0
-7.755262 -19.226990 -8.991663 22.598036 1.187403 1.980018 0.017374 -0.025302 186758.000000 0 1 0
-7.289262 -20.134190 -9.933563 23.604970 1.223441 2.005151 0.025057 -0.009241 229049.000000 0 1 0
-8.236662 -20.242790 -11.014563 24.473123 1.184361 2.037638 0.033650 -0.003636 373255.000000 0 1 0
-7.804462 -21.203790 -12.050263 25.607014 1.218116 2.060749 0.032518 -0.005526 -94931.200000 0 0 1
-6.754762 -20.718290 -12.867263 25.306932 1.255634 2.104178 0.034288 -0.000487 -78209.700000 0 0 1
-6.710562 -21.515290 -14.008463 26.536322 1.268461 2.126920 0.028232 -0.001218 571932.000000 0 0 1
-5.794162 -20.890690 -15.166963 26.458080 1.300241 2.181257 0.031147 0.008590 732404.000000 0 0 1
-4.461462 -20.701890 -14.727163 25.794616 1.358533 2.178446 0.028757 -0.002117 65226.500000 0 0 1
-3.534262 -20.013890 -15.526363 25.575667 1.396008 2.223172 0.034930 -0.002406 69129.800000 0 0 1
-3.696362 -18.452590 -15.648963 24.475523 1.373096 2.264478 0.052680 0.006625 36224.300000 0 1 0
-4.879862 -18.023090 -16.337863 24.810695 1.306380 2.289621 0.047932 0.007571 353491.000000 0 1 0
-4.715862 -18.139390 -17.742563 25.808436 1.316448 2.328798 0.033396 0.001260 -359419.000000 0 0 1
-6.070762 -17.864990 -18.415763 26.365742 1.243225 2.344058 0.025801 0.007838 35596.200000 0 0 1
-6.929662 -18.992590 -18.270263 27.249609 1.220944 2.305649 0.022408 0.013489 -410722.000000 0 0 1
-8.203562 -18.778390 -18.794863 27.805993 1.158922 2.313020 0.003420 0.006302 -497442.000000 0 0 1
-9.178462 -19.831090 -18.230363 28.458082 1.137323 2.266081 0.005668 0.004298 -702886.000000 0 0 1
-8.694862 -21.107090 -18.379563 29.307307 1.180039 2.248663 0.018223 0.005362 409525.000000 0 0 1
-9.573262 -22.157690 -17.943863 30.076449 1.162968 2.210065 0.028399 0.002024 -302498.000000 0 0 1
-8.963162 -23.527490 -18.197963 31.065204 1.206806 2.196662 0.047719 -0.013468 -530514.000000 0 0 1
-8.728662 -23.798690 -19.588863 32.035773 1.219260 2.228711 0.046643 -0.018056 307255.000000 0 0 1
-7.919162 -24.920890 -19.919963 32.872007 1.263116 2.221801 0.051686 -0.032913 1165380.000000 0 0 1
-6.358562 -24.756390 -19.689063 32.264057 1.319385 2.227169 0.044058 -0.022116 395907.000000 0 0 1
-5.793462 -23.762890 -20.524863 31.929753 1.331659 2.268961 0.042312 -0.019164 -23256.200000 0 0 1
-5.805462 -22.428790 -20.084563 30.661763 1.317515 2.285027 0.041968 -0.020203 -565896.000000 0 0 1
-4.785162 -22.243490 -18.954263 29.613084 1.358899 2.265378 0.055634 -0.005418 7028.800000 0 0 1
-3.438362 -22.498290 -19.332463 29.862008 1.419142 2.274956 0.063625 -0.020842 -224589.000000 0 0 1
-2.592262 -22.353490 -18.243063 28.969082 1.455345 2.252018 0.059151 -0.025498 -444484.000000 0 0 1
-1.246362 -23.050390 -18.476463 29.567780 1.516778 2.245781 0.089714 -0.030647 -55963.200000 0 0 1
-0.378862 -22.428590 -19.406863 29.661617 1.553906 2.284020 0.105549 -0.025226 -120409.000000 0 0 1
0.885638 -23.060890 -19.480763 30.200814 -1.532411 2.271873 0.083858 -0.026147 332819.000000 0 0 1
1.824738 -22.335090 -20.473563 30.353792 -1.489279 2.311080 0.100026 -0.027303 184216.000000 0 0 1
1.348838 -22.508990 -21.794063 31.360089 -1.510943 2.339163 0.082837 -0.030571 -93094.000000 0 0 1
0.871838 -21.364190 -22.418563 30.980327 -1.530011 2.379856 0.111364 -0.022904 -120488.000000 0 0 1
0.635238 -21.514090 -23.924963 32.181726 -1.541278 2.408985 0.107435 -0.024185 350683.000000 0 0 1
0.144038 -20.369390 -24.731463 32.040257 -1.563725 2.452601 0.096263 -0.029403 1469730.000000 0 0 1
-1.279662 -20.080190 -24.647663 31.817587 1.507155 2.456966 0.079700 -0.027480 1352430.000000 0 0 1
-1.755262 -18.855390 -25.480563 31.746902 1.477973 2.502464 0.067386 -0.018558 -156064.000000 0 0 1
-1.206062 -17.666390 -25.059063 30.684077 1.502633 2.526430 0.065704 -0.018695 -90049.200000 0 0 1
-1.897962 -16.550190 -25.566333 30.514725 1.456616 2.564103 0.069317 -0.023114 -362377.000000 0 0 1
-1.339362 -15.266290 -25.010963 29.332606 1.483287 2.591866 0.058389 -0.020699 239185.000000 0 0 1
0.036938 -15.115290 -25.363773 29.526164 -1.568353 2.604162 0.062214 -0.032612 228164.000000 0 0 1
0.660138 -13.976190 -24.808163 28.481830 -1.523598 2.628065 0.054311 -0.031934 178110.000000 0 0 1
0.327738 -12.696690 -25.566373 28.547378 -1.544989 2.680523 0.044107 -0.022170 -122874.000000 0 0 1
1.117338 -11.536490 -25.273003 27.804024 -1.474245 2.711601 0.036586 -0.020220 180849.000000 0 0 1
0.696738 -10.419090 -26.001243 28.019770 -1.504024 2.759699 0.030681 -0.020321 -422873.000000 0 0 1
1.609738 -9.177290 -25.832453 27.461419 -1.397158 2.795430 0.041750 -0.018788 995190.000000 0 0 1
2.969838 -9.339790 -26.264863 28.033813 -1.262930 2.784450 0.049188 -0.022588 371189.000000 0 0 1
3.221138 -9.274190 -27.650283 29.341515 -1.236508 2.800413 0.046889 -0.022173 340233.000000 0 0 1
4.711438 -8.998690 -28.062463 29.844194 -1.088472 2.794304 0.038496 -0.018971 93716.600000 0 0 1
4.947138 -7.621390 -27.831863 29.277506 -0.995045 2.826033 0.040222 -0.021890 -182141.000000 0 0 1
6.102138 -7.179890 -28.493903 30.011488 -0.866364 2.822222 0.052832 -0.015912 -269043.000000 0 0 1
7.417238 -7.313990 -27.633403 29.531590 -0.778390 2.781101 0.069762 -0.018307 -27669.400000 0 0 1
7.889238 -8.602290 -27.404033 29.786247 -0.828609 2.738936 0.059024 -0.020565 195274.000000 0 0 1
8.431938 -9.316890 -28.483693 31.132343 -0.835217 2.726113 0.062649 -0.027176 -753267.000000 0 0 1
8.951638 -10.690790 -27.979673 31.261589 -0.873708 2.679267 0.073808 -0.029658 601872.000000 0 0 1
7.903538 -11.609090 -27.558993 30.931133 -0.973069 2.670293 0.071846 -0.032168 658722.000000 0 0 1
8.360238 -12.763790 -26.967573 30.984801 -0.990917 2.626706 0.075520 -0.025399 -314279.000000 0 0 1
9.177938 -13.796090 -27.764153 32.332876 -0.983771 2.603519 0.086861 -0.035896 65956.800000 0 0 1
8.430238 -14.467390 -28.770913 33.288733 -1.043190 2.614521 0.088539 -0.041709 -374490.000000 0 0 1
9.203838 -15.272490 -29.594473 34.551301 -1.028437 2.599318 0.086536 -0.041247 -165089.000000 0 0 1
8.356638 -15.972090 -30.685873 35.588817 -1.088759 2.610459 0.079807 -0.042010 65523.600000 0 0 1
7.872338 -15.052790 -31.658563 35.928050 -1.088933 2.649118 0.079110 -0.040520 416221.000000 0 0 1
6.849538 -15.591090 -32.483583 36.676715 -1.156856 2.658738 0.071300 -0.032386 433983.000000 0 0 1
5.902838 -14.456190 -33.022833 36.528515 -1.183133 2.699899 0.064567 -0.020790 347197.000000 0 0 1
6.544038 -13.811490 -34.081403 37.351355 -1.128318 2.720039 0.074475 -0.021341 263577.000000 0 0 1
5.629338 -12.959190 33.673306 36.517415 -1.161000 0.397281 0.041858 -0.014669 5281.430000 0 0 1
6.366338 -11.874490 32.848959 35.504759 -1.078660 0.389237 0.068559 -0.022989 260291.000000 0 0 1
7.121938 -12.409690 31.745721 34.821161 -1.049788 0.423444 0.059488 -0.029949 421132.000000 0 0 1
7.410938 -11.318490 30.877761 33.711517 -0.991079 0.412950 0.065056 -0.025222 -20089.200000 0 0 1
7.836338 -11.801690 29.454431 32.684118 -0.984641 0.448301 0.048656 -0.012137 302693.000000 0 0 1
6.752338 -12.314290 28.695821 31.948176 -1.069233 0.455141 0.046640 -0.013482 331076.000000 0 0 1
7.173638 -12.563390 27.372821 30.960801 -1.051977 0.486206 0.037841 -0.001254 -447654.000000 0 0 1
6.139938 -13.259290 26.527781 30.285818 -1.137129 0.503469 0.037025 -0.024400 -577522.000000 0 0 1
5.873338 -14.620790 26.855801 31.136757 -1.188815 0.530585 0.046691 -0.017366 -32500.800000 0 0 1
5.546538 -15.434890 25.730061 30.512882 -1.225816 0.567491 0.032772 -0.018992 -541361.000000 0 0 1
4.045938 -15.558390 25.472301 30.120944 -1.316383 0.562982 0.050704 -0.027200 -247901.000000 0 0 1
3.350238 -14.348190 25.108701 29.112567 -1.341411 0.530667 0.038557 -0.026488 331404.000000 0 0 1
2.011438 -14.621690 24.728431 28.798177 -1.434089 0.538107 0.034737 -0.025689 565536.000000 0 0 1
1.154938 -13.323090 24.651971 28.045647 -1.484326 0.497047 0.030912 -0.022573 -103744.000000 0 0 1
1.586938 -12.560790 23.518511 26.709777 -1.445122 0.493837 0.022628 -0.008890 471754.000000 0 0 1
0.799038 -11.344190 23.305231 25.931890 -1.500477 0.453979 0.017525 0.000770 1869990.000000 0 0 1
-0.718162 -11.548190 22.885731 25.644359 1.508688 0.468099 0.020918 -0.004845 685527.000000 0 0 1
-0.842762 -12.234290 21.630631 24.865082 1.502020 0.515756 0.019112 -0.007544 30537.500000 0 1 0
-2.010562 -13.044390 21.643431 25.350278 1.417867 0.547603 0.038643 -0.008083 248121.000000 0 0 1
-2.242362 -13.917890 20.385531 24.785192 1.411055 0.605024 0.060760 -0.013533 -359861.000000 0 1 0
-1.269062 -14.873390 20.129231 25.060211 1.485678 0.638090 0.068096 -0.028057 -892433.000000 0 0 1
-1.496162 -15.520490 18.866631 24.475986 1.474694 0.690666 0.072710 -0.032368 504556.000000 0 1 0
-2.556462 -16.679690 18.921931 25.353245 1.418712 0.728263 0.055914 -0.033497 350103.000000 0 0 1
-2.523162 -17.379290 17.716831 24.945785 1.426622 0.780995 0.047407 -0.036787 -188225.000000 0 1 0
-3.445062 -18.460490 17.860031 25.915996 1.386300 0.810480 0.048202 -0.027819 7061.200000 0 0 1
-3.172662 -19.659890 16.882031 26.107088 1.410798 0.867618 0.052439 -0.032062 -337152.000000 0 0 1
-1.944962 -20.232990 17.227731 26.644915 1.474963 0.867720 0.054316 -0.031856 -623666.000000 0 0 1
-2.080562 -21.546590 17.727931 27.979704 1.474534 0.884599 0.059421 -0.038886 -717503.000000 0 0 1
-0.843062 -22.204390 18.317131 28.796927 1.532846 0.881390 0.073174 -0.031492 -136741.000000 0 0 1
0.130938 -22.605790 17.370931 28.509440 -1.565004 0.915613 0.065060 -0.034136 317713.000000 0 0 1
1.129138 -23.454090 17.985131 29.577597 -1.522691 0.917174 0.078142 -0.020183 22761.700000 0 0 1
2.446538 -23.540190 17.232131 29.275800 -1.467238 0.941454 0.065644 -0.030531 -479707.000000 0 0 1
3.177938 -22.329290 17.343731 28.451740 -1.429424 0.915260 0.077244 -0.025184 -30975.400000 0 0 1
4.340338 -22.356490 16.520031 28.134723 -1.379040 0.943231 0.062178 -0.022493 89522.900000 0 0 1
5.246538 -21.179190 16.867231 27.578755 -1.327963 0.912712 0.068961 -0.016521 -640584.000000 0 0 1
5.924238 -21.246690 18.159831 28.570928 -1.298872 0.882004 0.071990 -0.008105 509588.000000 0 0 1
6.513938 -19.966090 18.578931 28.040200 -1.255434 0.846536 0.067030 -0.011812 971653.000000 0 0 1
7.671238 -19.280690 17.757331 27.311458 -1.192126 0.862977 0.067828 -0.007195 226869.000000 0 0 1
7.219938 -18.674090 16.562731 25.984095 -1.201870 0.879654 0.063738 -0.008071 -73127.200000 0 0 1
8.231138 -17.870390 16.005131 25.362703 -1.139161 0.887890 0.061934 -0.014695 -247332.000000 0 0 1
7.712538 -16.664890 15.223131 23.852579 -1.137348 0.878616 0.066598 -0.003449 -345080.000000 0 1 0
7.046538 -17.207390 14.131731 23.354952 -1.182122 0.920924 0.056956 -0.004455 -137596.000000 0 1 0
6.410338 -16.194790 13.383331 21.965364 -1.193892 0.915628 0.050753 -0.004713 18729.400000 0 1 0
6.637638 -16.414690 11.867631 21.315275 -1.186527 0.980308 0.052383 -0.003717 -157555.000000 0 1 0
7.982738 -16.124590 11.601531 21.408457 -1.111104 0.998084 0.051435 -0.000698 -464934.000000 0 1 0
8.338338 -16.437390 10.251831 21.090655 -1.101343 1.063193 0.050217 -0.003446 566516.000000 0 1 0
9.838238 -16.054790 10.065631 21.350975 -1.021024 1.079877 0.048382 -0.005296 530559.000000 0 1 0
10.334238 -16.418490 8.804931 21.304697 -1.009020 1.144737 0.047969 -0.009997 -1039120.000000 0 1 0
11.640738 -15.985790 8.605931 21.566509 -0.941398 1.160325 0.044857 -0.015042 -501543.000000 0 1 0
12.355738 -17.068190 7.718231 22.440109 -0.944207 1.219678 0.043202 -0.022668 -201656.000000 0 1 0
12.637938 -18.248190 8.412531 23.737831 -0.965082 1.208531 0.057228 -0.022638 -2788.120000 0 1 0
13.582738 -19.048090 7.741731 24.642543 -0.951348 1.251223 0.063921 -0.021363 191542.000000 0 1 0
14.155738 -20.180690 8.620431 26.114307 -0.959098 1.234383 0.068024 -0.020627 -597366.000000 0 0 1
13.161138 -21.107390 8.932431 26.429639 -1.013253 1.226037 0.063043 -0.016036 -306230.000000 0 0 1
13.591038 -22.287290 9.622431 27.821409 -1.023194 1.217637 0.046587 -0.007824 -249835.000000 0 0 1
12.428238 -23.062190 10.249431 28.131416 -1.076514 1.197871 0.054847 -0.011116 6778.300000 0 0 1
12.056238 -22.549690 11.523931 28.047146 -1.079813 1.147380 0.056515 -0.016438 -275769.000000 0 0 1
11.205938 -23.338890 12.354531 28.686430 -1.123162 1.125556 0.084099 -0.017378 23802.800000 0 0 1
11.709838 -24.703790 12.844031 30.205408 -1.128156 1.131588 0.074946 -0.014997 -411135.000000 0 0 1
12.838238 -24.678390 13.663131 30.992329 -1.091102 1.114245 0.051028 -0.021885 -458920.000000 0 0 1
13.064938 -26.030890 14.099031 32.358655 -1.105629 1.119968 0.044017 -0.025765 -63307.400000 0 0 1
14.219338 -26.095550 15.115931 33.341546 -1.071881 1.100258 0.045923 -0.015501 -204221.000000 0 0 1
14.032338 -25.399280 16.317631 33.291065 -1.066059 1.058534 0.039437 -0.009611 -139790.000000 0 0 1
14.737238 -25.963890 17.366431 34.538424 -1.054537 1.043944 0.035053 -0.007977 -859153.000000 0 0 1
14.414138 -25.293700 18.725231 34.614635 -1.052825 0.999215 0.029874 -0.008523 -286637.000000 0 0 1
14.928838 -24.025190 19.011931 34.081278 -1.014802 0.979014 0.027711 -0.010145 -1070250.000000 0 0 1
16.285338 -24.067390 19.276331 34.871599 -0.975910 0.985099 0.030284 -0.010658 -1103650.000000 0 0 1
16.749738 -22.674190 19.696031 34.389043 -0.934558 0.960950 0.026542 -0.015976 -214683.000000 0 0 1
16.885238 -21.735690 18.681131 33.264638 -0.910335 0.974489 0.021941 -0.016352 275436.000000 0 0 1
15.708638 -20.975490 18.445331 32.046259 -0.927997 0.957478 0.035337 -0.012097 -125040.000000 0 0 1
15.861938 -20.008190 17.241531 30.809076 -0.900478 0.976863 0.030471 -0.014002 599363.000000 0 0 1
16.697838 -18.827390 17.488731 30.645459 -0.845271 0.963463 0.029118 -0.019118 105315.000000 0 0 1
18.020438 -18.947290 17.063631 31.223445 -0.810465 0.992616 0.029405 -0.012594 -555197.000000 0 0 1
18.771538 -17.597990 17.268131 30.987873 -0.753142 0.979721 0.037846 -0.010383 -274805.000000 0 0 1
19.007438 -17.436990 18.631331 31.819142 -0.742333 0.945252 0.034618 -0.010707 56318.100000 0 0 1
19.596038 -16.200790 18.882931 31.670734 -0.690833 0.932004 0.043352 -0.010599 -448887.000000 0 0 1
20.143138 -16.085790 20.311731 32.818670 -0.673871 0.903445 0.047445 -0.008778 -641030.000000 0 0 1
21.353338 -16.751690 20.473531 33.996318 -0.665218 0.924507 0.040803 -0.010222 -603538.000000 0 0 1
21.871238 -16.715390 21.791131 35.108528 -0.652567 0.901188 0.045613 -0.001511 135703.000000 0 0 1
34.056451 -0.721290 -7.567763 34.894601 -0.021176 1.789408 0.092379 -0.029567 -87554.700000 0 0 1
35.352501 -0.568390 -8.096463 36.272236 -0.016076 1.795907 0.079701 -0.031491 314676.000000 0 0 1
36.082111 -1.820190 -8.115963 37.028377 -0.050403 1.791773 0.082438 -0.032393 609255.000000 0 0 1
-35.327628 -1.740490 -8.811263 36.451460 0.049227 1.814940 0.070555 -0.029686 -35702.100000 0 0 1
-34.505517 -2.838190 -8.583663 35.670230 0.082068 1.813821 0.087233 -0.024729 747937.000000 0 0 1
-33.225202 -2.666990 -9.252863 34.592519 0.080098 1.841575 0.132691 -0.024748 979451.000000 0 0 1
-32.183162 -3.703790 -8.764763 33.560319 0.114581 1.835025 0.121747 -0.019571 -471195.000000 0 0 1
-31.621362 -3.414990 -7.528863 32.684193 0.107579 1.803236 0.121701 -0.020798 111516.000000 0 0 1
-30.556452 -4.296590 -7.247863 31.696829 0.139696 1.801499 0.117815 -0.024551 -117270.000000 0 0 1
-30.169912 -4.132490 -5.780663 30.995437 0.136127 1.758395 0.117973 -0.037151 -194346.000000 0 0 1
-29.581242 -2.862890 -5.516063 30.227024 0.096480 1.754312 0.122380 -0.034720 502566.000000 0 0 1
-29.686872 -2.571690 -4.133063 30.083320 0.086411 1.708619 0.117131 -0.033534 -302286.000000 0 0 1
-29.408112 -1.132490 -3.716463 29.663642 0.038490 1.696413 0.130788 -0.033374 368275.000000 0 0 1
-28.014772 -0.856490 -3.547563 28.251482 0.030563 1.696700 0.125633 -0.027672 828607.000000 0 0 1
-27.651832 0.431210 -3.136463 27.832484 -0.015593 1.683727 0.138228 -0.031827 271085.000000 0 0 1
-26.184932 0.435910 -2.608063 26.318105 -0.016646 1.670057 0.145251 -0.020168 245238.000000 0 0 1
-26.006692 -0.397990 -1.466063 26.051022 0.015302 1.627103 0.147202 -0.027749 574168.000000 0 0 1
-24.645362 -0.248190 -1.091763 24.670780 0.010070 1.615064 0.125213 -0.024748 361151.000000 0 1 0
-24.152262 -1.210690 0.071437 24.182693 0.050085 1.567842 0.110748 -0.022888 54249.600000 0 1 0
-24.191762 -2.600990 -0.282463 24.332823 0.107104 1.582405 0.112492 -0.021106 702747.000000 0 1 0
-23.394762 -3.312790 0.690037 23.638224 0.140669 1.541601 0.096125 -0.018132 264904.000000 0 1 0
-23.710262 -4.875090 0.622637 24.214267 0.202785 1.545080 0.099481 -0.014753 290633.000000 0 1 0
-24.960262 -5.254690 1.202037 25.535688 0.207492 1.523706 0.105596 -0.016879 529463.000000 0 0 1
-25.243372 -6.632990 1.297037 26.132483 0.256953 1.521143 0.101962 -0.020567 114033.000000 0 0 1
-26.533832 -7.056590 2.045337 27.532219 0.259930 1.496439 0.098735 -0.022241 20715.300000 0 0 1
-26.379562 -6.969190 3.432337 27.499670 0.258288 1.445656 0.098670 -0.022824 179173.000000 0 0 1
-27.543902 -7.490390 4.029237 28.827196 0.265523 1.430565 0.075883 -0.014490 -85945.100000 0 0 1
-27.460002 -7.665590 5.560937 29.047151 0.272225 1.378162 0.079975 -0.017516 -171753.000000 0 0 1
-26.683002 -8.778490 5.976237 28.718633 0.317838 1.361168 0.079318 -0.006786 214068.000000 0 0 1
-26.558832 -8.934690 7.432637 28.990418 0.324518 1.311519 0.057950 -0.010236 -114008.000000 0 0 1
-25.906012 -7.802190 8.284837 28.295479 0.292533 1.273645 0.067470 -0.012383 -625890.000000 0 0 1
-24.517962 -7.745790 8.131537 26.967566 0.306000 1.264499 0.085193 -0.013696 -386974.000000 0 0 1
-24.108762 -6.431990 8.408537 26.330712 0.260718 1.245760 0.085524 -0.018304 90045.900000 0 0 1
-22.697662 -6.089490 7.876137 24.785062 0.262115 1.247412 0.102716 -0.018617 528092.000000 0 1 0
-21.579762 -6.661190 8.547737 24.147907 0.299399 1.208979 0.104339 -0.020484 173251.000000 0 1 0
-20.393962 -6.205590 7.951637 22.751957 0.295384 1.213767 0.093241 -0.018328 345150.000000 0 1 0
-19.096562 -6.384290 8.808537 21.977902 0.322635 1.158417 0.083034 -0.019046 368429.000000 0 1 0
-19.160062 -5.525090 9.948237 22.284569 0.280749 1.108038 0.090282 -0.006044 567661.000000 0 1 0
-18.063362 -5.675990 10.849737 21.822436 0.304457 1.050448 0.079038 -0.015534 83878.400000 0 1 0
-17.891662 -4.431390 11.752637 21.860313 0.242793 1.003179 0.082657 -0.011536 -352230.000000 0 1 0
-18.954662 -4.302790 12.637237 23.183895 0.223221 0.994304 0.087924 -0.010503 -175356.000000 0 1 0
-19.015562 -3.017790 13.147037 23.314014 0.157389 0.971682 0.094789 -0.011354 -118158.000000 0 1 0
-20.186762 -2.900190 14.112237 24.800639 0.142692 0.965474 0.086602 -0.015487 -267457.000000 0 1 0
-19.954862 -3.664390 15.224237 25.365364 0.181611 0.927048 0.078353 -0.009020 826665.000000 0 0 1
-21.166062 -3.879490 15.959837 26.791212 0.181276 0.932645 0.060972 -0.003111 509051.000000 0 0 1
-20.854262 -4.742090 17.160537 27.420279 0.223590 0.894596 0.060329 0.006562 -353462.000000 0 0 1
-21.916662 -4.706290 18.059237 28.785852 0.211524 0.892631 0.040927 -0.000592 97692.500000 0 0 1
-21.633462 -5.461090 19.224337 29.451746 0.247271 0.859601 0.057918 0.000284 -178160.000000 0 0 1
-22.667162 -5.225290 20.368537 30.918946 0.226565 0.851611 0.055698 -0.003143 -48470.600000 0 0 1
-22.582862 -3.874490 20.761137 30.919608 0.169913 0.834625 0.046458 0.000291 223495.000000 0 0 1
-22.938462 -3.659590 22.107337 32.067117 0.158206 0.810124 0.049237 -0.011883 -193221.000000 0 0 1
-22.867362 -2.204990 22.592837 32.221336 0.096128 0.793750 0.041162 -0.004207 156911.000000 0 0 1
-23.714462 -1.259490 21.916437 32.315511 0.053061 0.825483 0.044515 -0.009799 241100.000000 0 0 1
-23.582062 0.030210 22.466837 32.571050 -0.001281 0.809612 0.040648 -0.013279 373920.000000 0 0 1
-24.846862 0.773210 21.950737 33.163221 -0.031109 0.847446 0.047304 -0.018158 515137.000000 0 0 1
-26.067912 0.332010 22.500837 34.437391 -0.012736 0.858750 0.060186 -0.020211 -15085.800000 0 0 1
-27.178162 1.042810 21.971237 34.963913 -0.038351 0.891305 0.069851 -0.021893 736253.000000 0 0 1
-28.317032 1.224710 23.048137 36.531778 -0.043223 0.888075 0.071829 -0.024575 186601.000000 0 0 1
-27.898082 1.971010 24.142937 36.946844 -0.070533 0.858662 0.061935 -0.025077 409054.000000 0 0 1
-28.886272 1.846410 25.170937 38.358858 -0.063833 0.855030 0.058906 -0.027233 136660.000000 0 0 1
-28.634572 2.732810 26.457237 39.081867 -0.095149 0.827159 0.072693 -0.025373 -463967.000000 0 0 1
-27.579652 2.209710 27.200037 38.798995 -0.079950 0.793927 0.056369 -0.024576 -239460.000000 0 0 1
-27.178682 3.128310 28.139537 39.246664 -0.114597 0.771319 0.051640 -0.027550 440434.000000 0 0 1
-25.976832 2.694410 29.064237 39.074103 -0.103354 0.732023 0.067501 -0.029968 597919.000000 0 0 1
-26.375842 1.791710 30.099337 40.060771 -0.067826 0.720703 0.060945 -0.031274 533056.000000 0 0 1
-25.273902 1.506310 30.952637 39.988809 -0.059529 0.685611 0.065785 -0.038546 413966.000000 0 0 1
-25.563482 0.332510 31.919937 40.896021 -0.013006 0.675308 0.051483 -0.038330 -36260.700000 0 0 1
-25.718052 -0.949490 31.316037 40.534108 0.036902 0.687894 0.043943 -0.027724 -333117.000000 0 0 1
-26.313202 -1.825090 32.175937 41.605366 0.069249 0.686672 0.035034 -0.019723 -1030040.000000 0 0 1
-27.081242 -2.899990 31.414337 41.577207 0.106678 0.714278 0.043423 -0.010471 135184.000000 0 0 1
-28.360482 -2.513590 30.916637 42.029436 0.088399 0.744252 0.029713 -0.008907 304216.000000 0 0 1
-28.350412 -1.661490 29.793037 41.159828 0.058539 0.761448 0.038007 -0.014267 -258601.000000 0 0 1
-29.773642 -1.346890 29.265437 41.770201 0.045207 0.794517 0.034226 -0.022701 412907.000000 0 0 1
-30.536152 -0.459990 30.008237 42.815447 0.015063 0.794174 0.055315 -0.027640 -367714.000000 0 0 1
-31.865992 -0.285290 29.547237 43.457589 0.008953 0.823157 0.048122 -0.027419 616466.000000 0 0 1
-32.807722 0.031710 30.735837 44.955971 -0.000967 0.817993 0.036779 -0.015768 -444433.000000 0 0 1
-32.646302 -0.969190 31.724937 45.532318 0.029679 0.799931 0.036990 -0.011232 438553.000000 0 0 1
-33.603822 -0.795490 32.792537 46.959559 0.023668 0.797756 0.043415 -0.012535 429060.000000 0 0 1
-33.876432 -2.013190 33.670937 47.805832 0.059358 0.789322 0.042751 -0.011205 -167340.000000 0 0 1
-34.523233 -3.032290 32.982437 47.842341 0.087608 0.810138 0.027929 -0.009508 -240237.000000 0 0 1
-34.504127 -4.237990 33.769737 48.465353 0.122213 0.799896 0.017897 -0.000961 -616815.000000 0 0 1
-35.577488 -5.247990 33.405537 49.083897 0.146453 0.822242 0.016003 -0.005789 94856.100000 0 0 1
35.918841 -4.869490 33.847737 49.593794 -0.134748 0.819619 0.019418 -0.016887 -57446.400000 0 0 1
34.898491 -5.666990 33.324437 48.585364 -0.160980 0.814964 0.018079 -0.017270 49315.800000 0 0 1
33.463611 -5.315090 33.822437 47.875053 -0.157516 0.786294 0.041673 -0.021101 120587.000000 0 0 1
33.054451 -5.699390 -33.237257 47.220706 -0.170745 2.351628 0.055173 -0.033056 367715.000000 0 0 1
32.776261 -7.132290 -33.093557 47.120445 -0.214265 2.349445 0.056842 -0.031589 -535207.000000 0 0 1
31.399681 -7.548390 -33.650257 46.639661 -0.235920 2.376755 0.063332 -0.036716 -53530.900000 0 0 1
30.327661 -7.238590 -32.773957 45.236009 -0.234296 2.381120 0.067483 -0.038856 841261.000000 0 0 1
29.050841 -7.561690 -33.342857 44.865094 -0.254641 2.408607 0.070358 -0.036802 1044200.000000 0 0 1
27.808091 -7.227590 -32.461257 43.350446 -0.254283 2.417061 0.086262 -0.037355 677740.000000 0 0 1
26.548901 -7.585890 -33.014857 43.039176 -0.278317 2.445087 0.078600 -0.037001 439113.000000 0 0 1
25.488601 -7.106190 -32.206457 41.682402 -0.271894 2.453822 0.081380 -0.034758 -156769.000000 0 0 1
24.102001 -7.641490 -32.595957 41.252821 -0.307023 2.481852 0.074686 -0.036135 -196063.000000 0 0 1
23.902201 -9.083290 -32.541857 41.385914 -0.363164 2.475598 0.076871 -0.043732 413099.000000 0 0 1
23.386901 -9.477590 -31.258257 40.172758 -0.385026 2.462425 0.084140 -0.040983 -158088.000000 0 0 1
23.295601 -11.018890 -31.046057 40.347969 -0.441818 2.448788 0.087583 -0.036569 -243983.000000 0 0 1
22.190601 -11.568890 -31.712357 40.397223 -0.480575 2.473514 0.103486 -0.046945 15329.600000 0 0 1
21.986601 -12.922390 -31.443457 40.485674 -0.531356 2.460137 0.082414 -0.027880 -168092.000000 0 0 1
20.735101 -13.534090 -32.126257 40.561218 -0.578281 2.484946 0.071341 -0.020010 826700.000000 0 0 1
19.449601 -12.980090 -31.872457 39.530030 -0.588490 2.508640 0.066644 -0.018724 443081.000000 0 0 1
19.095401 -11.887990 -32.676257 39.669843 -0.556841 2.538711 0.066168 -0.026171 130460.000000 0 0 1
17.670901 -11.336990 -32.360157 38.574186 -0.570421 2.566068 0.053712 -0.028106 426603.000000 0 0 1
16.534001 -12.082390 -32.729857 38.608301 -0.631074 2.582509 0.048519 -0.022355 -181294.000000 0 0 1
15.434801 -11.600090 -31.970057 37.348089 -0.644495 2.598283 0.078650 -0.029256 1365960.000000 0 0 1
14.065301 -11.997390 -32.712857 37.575272 -0.706220 2.627207 0.076165 -0.028058 314773.000000 0 0 1
13.909301 -13.410090 -32.799857 38.067437 -0.767127 2.609259 0.079317 -0.026665 172434.000000 0 0 1
12.702401 -13.788790 -33.425257 38.324007 -0.826385 2.630428 0.062291 -0.029857 -401592.000000 0 0 1
11.449101 -13.668090 -32.581157 37.140684 -0.873515 2.640871 0.045227 -0.024052 -881580.000000 0 0 1
10.830301 -12.355390 -32.485857 36.404423 -0.851081 2.673344 0.081388 -0.021376 15142.200000 0 0 1
9.788101 -12.410290 -31.545057 35.283322 -0.902978 2.677102 0.083296 -0.024273 27391.700000 0 0 1
8.556701 -11.521390 -31.857157 34.940493 -0.931997 2.718332 0.080905 -0.017567 -54492.300000 0 0 1
8.819701 -10.166990 -31.947357 34.666820 -0.856239 2.742861 0.080725 -0.017377 162157.000000 0 0 1
7.672001 -9.529190 -32.445357 34.675153 -0.892950 2.781019 0.073974 -0.014376 -49568.900000 0 0 1
7.986001 -8.019790 -32.731457 34.632954 -0.787509 2.808684 0.086986 -0.014850 26814.400000 0 0 1
8.240501 -7.299890 -31.504557 33.372614 -0.724945 2.805420 0.071459 -0.016774 347463.000000 0 0 1
8.728301 -5.982690 -31.708357 33.427470 -0.600884 2.819490 0.075362 -0.012524 -1091.930000 0 0 1
9.091701 -5.338590 -30.352957 32.131940 -0.530950 2.807277 0.069663 -0.015009 704491.000000 0 0 1
7.925701 -4.934290 -29.608957 31.046003 -0.556849 2.836145 0.072214 -0.018438 771690.000000 0 0 1
8.317301 -3.828990 -28.882757 30.299378 -0.431440 2.834597 0.073193 -0.020005 174331.000000 0 0 1
7.083401 -3.150190 -28.244057 29.288650 -0.418461 2.873714 0.067632 -0.021687 -621197.000000 0 0 1
6.303901 -2.586590 -29.267457 30.050186 -0.389368 2.912852 0.063236 -0.017478 -267379.000000 0 0 1
5.138201 -1.927390 -28.850057 29.367358 -0.358867 2.953620 0.073114 -0.027646 78559.900000 0 0 1
3.906401 -2.877790 -28.762157 29.168533 -0.634925 2.974473 0.055907 -0.024580 -466031.000000 0 0 1
3.929001 -3.765390 -27.700757 28.230252 -0.764138 2.947607 0.059693 -0.030731 -927653.000000 0 0 1
2.759501 -4.467890 -27.532357 28.028692 -1.017515 2.953122 0.067422 -0.030836 -798008.000000 0 0 1
2.806001 -5.507590 -26.415457 27.129017 -1.099594 2.911729 0.044590 -0.033422 -170099.000000 0 0 1
2.732701 -4.904290 -25.134257 25.753652 -1.062437 2.921830 0.051765 -0.037572 26203.200000 0 0 1
2.861301 -5.818790 -24.077857 24.935688 -1.113783 2.878531 0.042763 -0.040161 -24024.600000 0 1 0
2.876801 -5.030990 -22.709457 23.437284 -1.051358 2.891727 0.047052 -0.047419 372236.000000 0 1 0
3.949301 -4.092490 -22.660557 23.363354 -0.803202 2.895694 0.050122 -0.041541 307047.000000 0 1 0
3.818101 -3.454190 -21.402157 22.012761 -0.735399 2.905509 0.050371 -0.037928 121548.000000 0 1 0
4.851501 -2.295390 -21.221157 21.889344 -0.441921 2.893874 0.065632 -0.036494 307047.000000 0 1 0
6.071601 -2.825190 -20.736757 21.791263 -0.435514 2.829225 0.059393 -0.041921 59335.700000 0 1 0
7.029201 -1.783490 -20.515557 21.759563 -0.248482 2.801817 0.081292 -0.025717 576878.000000 0 1 0
8.480601 -2.239990 -20.231457 22.051077 -0.258234 2.732499 0.078442 -0.028689 -955213.000000 0 1 0
9.073901 -2.868290 -21.366457 23.389918 -0.306164 2.722577 0.083764 -0.039660 271053.000000 0 1 0
10.207801 -3.689390 -21.103957 23.731578 -0.346820 2.666559 0.066413 -0.043397 406552.000000 0 1 0
11.461401 -2.982190 -20.536257 23.706434 -0.254550 2.618490 0.056089 -0.031472 -864975.000000 0 1 0
11.333601 -2.547590 -19.192157 22.433894 -0.221107 2.597309 0.052591 -0.016973 32984.400000 0 1 0
12.628501 -2.263890 -18.700057 22.678103 -0.177384 2.540267 0.050510 -0.019624 79318.500000 0 1 0
13.007401 -0.736290 -18.550757 22.668595 -0.056545 2.529324 0.052493 -0.016484 -11245.700000 0 1 0
13.494201 -0.126790 -19.744357 23.915459 -0.009396 2.542043 0.054077 -0.024449 337682.000000 0 1 0
13.711301 1.245510 -19.523357 23.889591 0.090590 2.527389 0.082112 -0.032294 -378152.000000 0 1 0
13.811001 2.098210 -20.839757 25.088677 0.150770 2.551059 0.049591 -0.029608 -432821.000000 0 0 1
14.990001 1.895310 -21.573857 26.338634 0.125771 2.530629 0.038625 -0.022072 -164357.000000 0 0 1
15.316201 3.024410 -22.357357 27.268746 0.194957 2.532014 0.042873 -0.028570 -551046.000000 0 0 1
16.724401 3.029910 -22.947057 28.556144 0.179223 2.504077 0.032318 -0.026655 -363661.000000 0 0 1
16.930901 2.070910 -23.952157 29.404930 0.121711 2.522771 0.030027 -0.023662 31082.800000 0 0 1
17.802001 1.029310 -23.570157 29.555423 0.057756 2.493920 0.023644 -0.019172 -485072.000000 0 0 1
9.702538 26.869710 2.903837 28.715028 1.224271 1.469497 0.020959 0.000529 113150.000000 0 0 1
9.571438 27.400110 4.212637 29.327884 1.234726 1.426658 0.028193 -0.002257 -332043.000000 0 0 1
10.822638 27.727210 4.715837 30.135806 1.198658 1.413664 0.026485 -0.009708 -824664.000000 0 0 1
10.741938 28.364510 6.075637 30.932960 1.208777 1.373098 0.021953 -0.005934 -137683.000000 0 0 1
10.450038 27.409710 7.089237 30.178681 1.206555 1.333672 0.023786 -0.007151 172441.000000 0 0 1
10.421538 28.041710 8.358737 31.061462 1.214971 1.298335 0.024605 -0.009147 -795097.000000 0 0 1
10.351538 26.909210 9.527637 30.365042 1.203563 1.251635 0.042030 -0.013371 -220399.000000 0 0 1
11.555738 26.353910 9.979937 30.457557 1.157561 1.236963 0.041473 -0.009186 -45254.300000 0 0 1
12.387638 25.758910 8.998637 29.965822 1.122540 1.265793 0.035122 -0.008103 -725423.000000 0 0 1
13.660338 25.084510 9.499637 30.101172 1.072130 1.249718 0.049051 -0.011927 -681890.000000 0 0 1
14.532838 26.013410 10.043737 31.444833 1.061323 1.245691 0.046932 -0.011132 -451365.000000 0 0 1
15.614438 25.389810 10.689937 31.665879 1.019429 1.226446 0.064068 -0.015328 -223327.000000 0 0 1
16.717538 26.354010 11.175937 33.149834 1.005505 1.226925 0.055311 -0.011171 -745889.000000 0 0 1
17.430638 26.899110 10.072137 33.598172 0.995828 1.266332 0.041921 -0.012547 818216.000000 0 0 1
18.844238 26.672210 10.168637 34.203995 0.955713 1.268939 0.063483 -0.024202 1034480.000000 0 0 1
19.633738 27.552510 11.220037 35.644266 0.951668 1.250573 0.053037 -0.017193 -755682.000000 0 0 1
19.667138 28.924010 11.095237 36.694672 0.973648 1.263622 0.055589 -0.028916 -475387.000000 0 0 1
18.513038 29.684310 11.267437 36.753856 1.013158 1.259214 0.048253 -0.015992 -628654.000000 0 0 1
18.785138 31.197010 11.172737 38.091533 1.028801 1.273106 0.046298 -0.006044 -970620.000000 0 0 1
18.936338 31.782810 9.887437 38.294821 1.033468 1.309645 0.061628 -0.027187 676581.000000 0 0 1
17.768438 31.906210 9.046037 37.623854 1.062674 1.327984 0.059977 -0.034122 1366240.000000 0 0 1
16.516738 32.604010 9.710737 37.816961 1.101894 1.311105 0.043864 -0.026205 -27870.000000 0 0 1
16.657038 34.007110 9.829137 39.122275 1.115334 1.316834 0.043521 -0.025909 -213733.000000 0 0 1
15.380338 -33.838522 9.820737 38.445380 -1.144189 1.312487 0.050178 -0.017354 -201516.000000 0 0 1
15.602438 -32.280122 9.889137 37.191900 -1.120561 1.301664 0.051747 -0.012428 58982.700000 0 0 1
16.252638 -31.781222 8.770937 36.757634 -1.098077 1.329857 0.056385 -0.019232 -180808.000000 0 0 1
16.403338 -30.391222 8.880137 35.658838 -1.075865 1.319117 0.043917 -0.019121 119905.000000 0 0 1
17.043738 -29.741522 7.616737 35.114980 -1.050420 1.352150 0.048335 -0.014547 201854.000000 0 0 1
16.268738 -29.977822 6.449737 34.712257 -1.073581 1.383904 0.048663 -0.004923 195702.000000 0 0 1
16.871738 -29.294522 5.370237 34.229578 -1.048260 1.413257 0.040707 -0.005214 175270.000000 0 0 1
16.277738 -29.721322 3.989837 34.120969 -1.069737 1.453596 0.049541 -0.015592 83531.700000 0 0 1
16.684738 -31.033722 3.734237 35.431863 -1.077498 1.465208 0.057328 -0.020581 -106464.000000 0 0 1
16.578938 -31.368622 2.377437 35.559863 -1.084594 1.503889 0.053991 -0.021672 -124957.000000 0 0 1
17.050438 -32.777022 2.014037 37.001445 -1.091124 1.516338 0.067328 -0.023771 -99876.000000 0 0 1
18.433638 -33.033622 2.117237 37.888018 -1.061812 1.514886 0.059737 -0.013377 -61960.000000 0 0 1
18.804938 34.144010 1.444737 39.006748 1.067375 1.533750 0.094111 -0.016810 344489.000000 0 0 1
20.289838 33.777010 1.704437 39.439435 1.029863 1.527566 0.104184 -0.019027 244187.000000 0 0 1
20.372838 33.550610 3.102037 39.374085 1.025080 1.491931 0.086096 -0.036470 -19227.700000 0 0 1
21.650238 33.091610 3.475837 39.697215 0.991438 1.483125 0.057577 -0.020349 -198895.000000 0 0 1
21.965038 33.048210 5.001637 39.995793 0.984201 1.445414 0.058652 -0.012888 -136756.000000 0 0 1
21.239638 32.062010 5.718437 38.881811 0.985715 1.423189 0.061758 -0.022875 83204.800000 0 0 1
22.002838 30.898910 5.951437 38.396447 0.952002 1.415169 0.055622 -0.027796 127114.000000 0 0 1
21.231438 29.809710 6.714837 37.208625 0.951908 1.389338 0.062992 -0.034103 -779654.000000 0 0 1
20.176738 29.277610 6.006337 36.060439 0.967388 1.403453 0.069225 -0.027130 -872121.000000 0 0 1
19.236338 28.749010 6.910337 35.274566 0.981102 1.373620 0.069416 -0.031426 755946.000000 0 0 1
17.753738 28.721410 6.338137 34.355299 1.017148 1.385246 0.066989 -0.026897 688534.000000 0 0 1
17.208738 30.005710 6.255437 35.151298 1.050078 1.391886 0.059648 -0.037324 -138800.000000 0 0 1
17.594838 30.752710 5.131737 35.800031 1.051114 1.426956 0.076271 -0.036890 -700312.000000 0 0 1
17.635338 32.286210 5.289937 37.167027 1.070861 1.427983 0.086895 -0.036873 -110263.000000 0 0 1
16.364038 32.811110 5.541437 37.081777 1.108161 1.420796 0.072155 -0.035741 -714158.000000 0 0 1
16.426438 -34.138922 5.473637 38.278644 -1.122330 1.427310 0.072108 -0.038144 703928.000000 0 0 1
15.095638 -33.291722 5.653437 36.988896 -1.145089 1.417353 0.062784 -0.035064 672329.000000 0 0 1
14.189038 -33.562722 4.635437 36.732443 -1.170823 1.444264 0.060872 -0.028504 -1382870.000000 0 0 1
13.175838 -32.656022 4.580837 35.510598 -1.187299 1.441437 0.053161 -0.021925 -1142180.000000 0 0 1
12.231438 -32.783922 3.408137 35.156920 -1.213699 1.473703 0.050634 -0.024040 -417011.000000 0 0 1
11.253738 -31.773922 3.485137 33.887681 -1.230401 1.467770 0.049587 -0.023601 -562282.000000 0 0 1
10.548638 -31.739922 2.286237 33.524965 -1.249935 1.502548 0.047156 -0.018654 -102004.000000 0 0 1
9.501438 -30.546922 2.217337 32.067247 -1.269238 1.501595 0.049947 -0.018366 239315.000000 0 0 1
9.092438 -30.104222 0.984037 31.462755 -1.277476 1.539515 0.059343 -0.008430 265965.000000 0 0 1
8.082938 -30.937322 0.386937 31.978141 -1.315241 1.558696 0.053008 -0.013720 -230796.000000 0 0 1
8.420238 -31.303522 -1.040563 32.432910 -1.308029 1.602885 0.059179 -0.018196 -585067.000000 0 0 1
9.603738 -32.023422 -1.182563 33.453398 -1.279434 1.606153 0.044691 -0.018559 -609304.000000 0 0 1
9.600438 -32.973922 -2.203363 34.413700 -1.287476 1.634866 0.039484 -0.006296 137179.000000 0 0 1
10.808638 -33.967522 -2.127263 35.709165 -1.262722 1.630404 0.041333 -0.009602 389250.000000 0 0 1
10.843238 33.650210 -0.923063 35.366149 1.259068 1.596899 0.041888 -0.004563 113321.000000 0 0 1
11.937638 32.727510 -1.010463 34.851372 1.221035 1.599794 0.068470 -0.014549 72547.300000 0 0 1
12.145238 31.916110 0.290037 34.150095 1.207181 1.562303 0.055028 -0.017355 -115675.000000 0 0 1
12.653638 32.734210 1.383237 35.122021 1.201932 1.531402 0.056799 -0.022032 845262.000000 0 0 1
14.028038 33.100810 1.361837 35.976438 1.169945 1.532934 0.066758 -0.020080 1522550.000000 0 0 1
15.253938 32.061510 1.373737 35.531819 1.126719 1.532125 0.072104 -0.024125 855574.000000 0 0 1
15.527938 31.507010 0.106437 35.125772 1.112893 1.567766 0.083541 -0.023271 -120029.000000 0 0 1
16.540938 30.552210 0.202537 34.743074 1.074580 1.564967 0.093940 -0.020023 -162073.000000 0 0 1
17.328238 30.197010 -1.098263 34.832936 1.049835 1.602331 0.084767 -0.020855 923145.000000 0 0 1
18.460738 31.029910 -1.413263 36.133799 1.034110 1.609918 0.073986 -0.014965 670536.000000 0 0 1
18.070238 32.256410 -2.018163 37.028131 1.060151 1.625327 0.073543 -0.016198 196067.000000 0 0 1
19.239838 33.087210 -2.632063 38.364861 1.044099 1.639456 0.077930 -0.009328 -89645.400000 0 0 1
20.210938 33.524610 -1.755663 39.184995 1.028270 1.615616 0.063497 -0.008783 -299287.000000 0 0 1
21.155438 -34.030922 -2.391763 40.141957 -1.014607 1.630414 0.045589 -0.003786 -816232.000000 0 0 1
22.236838 -33.433322 -1.433563 40.178590 -0.983872 1.606484 0.044947 -0.001300 241955.000000 0 0 1
23.264038 34.150310 -0.860663 41.330375 0.972783 1.591622 0.044808 -0.003883 959380.000000 0 0 1
23.901938 33.170410 -1.715063 40.920901 0.946391 1.612720 0.049640 0.004990 -85482.700000 0 0 1
24.726338 33.684810 -2.991163 41.892783 0.937582 1.642258 0.035323 0.005251 -682991.000000 0 0 1
23.889638 -34.131222 -3.951463 41.848168 -0.960114 1.665361 0.033092 -0.011668 -354648.000000 0 0 1
24.563438 -33.459322 -4.987863 41.806309 -0.937531 1.690390 0.039020 -0.011624 -867301.000000 0 0 1
23.669238 -33.038122 -6.101663 41.097210 -0.949134 1.719816 0.034599 -0.018870 -244530.000000 0 0 1
22.716438 -32.017822 -5.732963 39.674228 -0.953727 1.715805 0.049285 -0.019241 265677.000000 0 0 1
22.052138 -31.600022 -6.858163 39.139399 -0.961513 1.746930 0.057714 -0.022450 -271158.000000 0 0 1
21.039538 -30.432022 -6.691363 37.597134 -0.965891 1.749725 0.072298 -0.027743 -70090.900000 0 0 1
19.922738 -30.805122 -5.931763 37.162573 -0.996720 1.731099 0.069115 -0.022080 -464628.000000 0 0 1
19.123738 -29.631822 -5.761863 35.734595 -0.997677 1.732744 0.068204 -0.030158 301526.000000 0 0 1
17.903138 -29.825922 -4.844563 35.122326 -1.030190 1.709171 0.055579 -0.020771 578620.000000 0 0 1
16.765138 -30.506522 -5.375663 35.222372 -1.068292 1.724016 0.057006 -0.021294 -336432.000000 0 0 1
15.729938 -30.445222 -4.458763 34.557533 -1.093907 1.700181 0.042679 -0.018540 -405084.000000 0 0 1
14.432438 -31.160522 -4.880663 34.685649 -1.137049 1.711976 0.036413 -0.013714 -67542.800000 0 0 1
14.569538 -32.562222 -5.051863 36.029031 -1.150076 1.711476 0.044461 -0.004232 258989.000000 0 0 1
13.325338 -33.233122 -5.276163 36.191752 -1.189458 1.717101 0.035429 -0.004333 263206.000000 0 0 1
13.469438 33.609210 -5.305463 36.594435 1.189630 1.716289 0.046540 -0.007394 -142508.000000 0 0 1
13.522538 32.933210 -4.030463 35.828759 1.181181 1.683527 0.063688 -0.010740 29316.700000 0 0 1
14.012338 31.612510 -4.224263 34.835912 1.153567 1.692357 0.066804 -0.017714 -233282.000000 0 0 1
12.998138 30.562810 -4.715363 33.545068 1.168678 1.711831 0.061830 -0.020397 -347380.000000 0 0 1
12.041838 30.053010 -3.836863 32.602312 1.189698 1.688757 0.059916 -0.015811 -135916.000000 0 0 1
12.643438 29.345010 -2.765563 32.072332 1.163977 1.657132 0.070506 -0.020011 -37846.600000 0 0 1
11.647138 28.499210 -1.922863 30.847337 1.182827 1.633172 0.058123 -0.014757 961648.000000 0 0 1
10.755238 29.317710 -1.107363 31.247872 1.219189 1.606242 0.041329 -0.012653 -364596.000000 0 0 1
9.677038 28.589610 -0.656163 30.190088 1.244420 1.592532 0.026614 -0.001023 -526649.000000 0 0 1
8.637238 29.499810 0.053537 30.738307 1.285968 1.569055 0.011460 0.013451 -219361.000000 0 0 1
7.661038 28.736310 0.678537 29.747730 1.310258 1.547985 0.015843 0.004551 -854617.000000 0 0 1
6.483738 29.482810 0.836337 30.198914 1.354326 1.543099 0.018312 0.002890 -379495.000000 0 0 1
5.421538 28.693510 1.650537 29.247818 1.384051 1.514334 0.009462 -0.000096 -26677.500000 0 0 1
4.934038 27.623410 0.881237 28.074438 1.394042 1.539402 0.004810 -0.001041 435102.000000 0 0 1
3.782438 27.063610 1.552437 27.370712 1.431935 1.514047 0.004657 -0.002719 766500.000000 0 0 1
3.233338 25.891410 0.677937 26.101325 1.446559 1.544820 -0.001864 -0.004660 -849576.000000 0 0 1
2.140738 25.270210 1.237037 25.390875 1.486284 1.522057 0.012399 -0.007047 -564289.000000 0 0 1
1.533838 24.458310 0.224837 24.507389 1.508166 1.561622 0.000826 -0.003730 -215541.000000 0 1 0
0.183438 23.895210 0.687937 23.905814 1.563120 1.542015 -0.001131 -0.002054 521463.000000 0 1 0
-0.954362 24.734910 0.428237 24.757018 -1.532232 1.553498 0.006497 -0.010004 331464.000000 0 1 0
-2.135762 24.154210 0.893737 24.264915 -1.482604 1.533956 0.010107 -0.001728 -102979.000000 0 1 0
-3.376962 25.046510 1.137037 25.298703 -1.436777 1.525837 0.033995 -0.013513 -874180.000000 0 0 1
-4.415662 24.328610 1.715637 24.785535 -1.391250 1.501522 0.032723 -0.014830 412531.000000 0 1 0
-5.526062 25.121610 2.214737 25.817391 -1.354272 1.484906 0.036765 -0.019301 797357.000000 0 0 1
-6.506062 25.565910 1.111537 26.404168 -1.321604 1.528687 0.048954 -0.021640 -852034.000000 0 0 1
-6.177362 26.753310 0.373337 27.459766 -1.343873 1.557200 0.050931 -0.019661 442664.000000 0 0 1
-7.146262 26.859810 -0.679363 27.802517 -1.310762 1.595234 0.047569 -0.016200 165551.000000 0 0 1
-6.942562 28.039410 -1.615763 28.931270 -1.328078 1.626674 0.048363 -0.011120 -104970.000000 0 0 1
-7.375262 29.278010 -1.100163 30.212691 -1.324026 1.607218 0.062752 -0.024759 -89738.300000 0 0 1
-7.324962 30.356910 -2.015563 31.293123 -1.334028 1.635250 0.068085 -0.026549 -168530.000000 0 0 1
-7.190362 31.805710 -1.391863 32.638042 -1.348462 1.613455 0.061893 -0.021257 -516276.000000 0 0 1
-7.353862 32.860510 -2.359363 33.755873 -1.350634 1.640748 0.055069 -0.009055 119142.000000 0 0 1
-6.374762 32.954110 -3.390463 33.735829 -1.379713 1.671467 0.049016 -0.014232 643847.000000 0 0 1
-4.927662 33.335910 -2.950763 33.827086 -1.424041 1.658138 0.049826 -0.020452 -43630.400000 0 0 1
-4.923062 -33.687222 -2.790763 34.159242 1.425683 1.652586 0.049465 -0.018566 122891.000000 0 0 1
-3.888862 -33.418022 -1.861563 33.694998 1.454947 1.626072 0.039167 -0.014396 155449.000000 0 0 1
-3.650162 -31.927522 -1.689563 32.179885 1.456964 1.623324 0.038531 -0.016472 1014140.000000 0 0 1
-4.853062 -31.283422 -1.180363 31.679614 1.416891 1.608064 0.043081 -0.018160 949303.000000 0 0 1
-5.098562 -30.047422 -1.865363 30.533956 1.402713 1.631926 0.043462 -0.011451 454055.000000 0 0 1
-6.549762 -29.491722 -1.714363 30.258885 1.352255 1.627483 0.060918 -0.015054 546602.000000 0 0 1
-6.914862 -29.068922 -0.399963 29.882729 1.337259 1.584181 0.055796 -0.013724 -478127.000000 0 0 1
-8.143762 -28.403422 -0.369863 29.550162 1.291569 1.583313 0.055913 -0.014691 -219069.000000 0 0 1
-8.426862 -27.797422 1.008037 29.064150 1.276450 1.536106 0.056019 -0.006528 301364.000000 0 0 1
-7.405062 -26.852822 1.329437 27.886850 1.301719 1.523106 0.070757 -0.020459 1657.220000 0 0 1
-7.175062 -26.464522 2.673637 27.549969 1.306041 1.473597 0.070008 -0.011217 -179404.000000 0 0 1
-8.215662 -25.562222 3.340937 27.057091 1.259825 1.447003 0.060180 -0.010122 -98413.400000 0 0 1
-8.062462 -24.204422 2.999537 25.687635 1.249257 1.453760 0.060703 -0.017769 367832.000000 0 0 1
-9.181562 -23.437822 3.461937 25.409006 1.197430 1.434123 0.061463 -0.019459 565157.000000 0 0 1
-8.671362 -22.034222 3.775337 23.978170 1.195871 1.412690 0.050507 -0.000099 787557.000000 0 1 0
-7.614462 -21.868622 4.741337 23.636771 1.235734 1.368835 0.040377 -0.007969 70583.400000 0 1 0
-7.063962 -20.600822 4.755237 22.291382 1.240463 1.355823 0.017787 -0.010700 -21646.000000 0 1 0
-7.785362 -19.496822 5.550737 21.715170 1.190881 1.312312 0.027806 -0.015706 -76664.600000 0 1 0
-7.934562 -19.845722 6.898437 22.458816 1.190452 1.258590 0.022418 -0.012902 -229894.000000 0 1 0
-8.805062 -18.940922 7.489337 22.189588 1.135646 1.226520 0.020668 -0.014092 -434162.000000 0 1 0
-27.235402 28.865710 -5.185763 40.023599 -0.814450 1.700729 0.109775 -0.016747 -415815.000000 0 0 1
-26.612092 29.777810 -4.334563 40.171007 -0.841479 1.678910 0.104998 -0.032676 20622.200000 0 0 1
-25.289032 29.414410 -3.993463 38.996030 -0.860669 1.673383 0.087940 -0.019990 182585.000000 0 0 1
-24.424962 30.494910 -3.352363 39.214240 -0.895475 1.656389 0.070510 -0.025093 -294536.000000 0 0 1
-24.871162 30.697310 -2.012763 39.559458 -0.889863 1.621698 0.063202 -0.032343 522365.000000 0 0 1
-24.071262 31.650510 -1.298163 39.785244 -0.920588 1.603431 0.060494 -0.031440 152289.000000 0 0 1
-22.759962 31.144510 -0.703763 38.580975 -0.939706 1.589039 0.049757 -0.025159 -610286.000000 0 0 1
-21.751962 30.749310 -1.560063 37.697503 -0.955123 1.612192 0.048498 -0.022527 -122859.000000 0 0 1
-20.555362 30.425310 -0.869363 36.728438 -0.976634 1.594469 0.035899 -0.017351 263442.000000 0 0 1
-19.425662 29.803310 -1.698563 35.615709 -0.993160 1.618506 0.051847 -0.018959 -331539.000000 0 0 1
-18.188262 29.773110 -1.045163 34.904775 -1.022404 1.600744 0.053013 -0.011507 -88232.400000 0 0 1
-17.211562 29.125110 -1.881363 33.882878 -1.037056 1.626350 0.062435 -0.012208 574525.000000 0 0 1
-15.791762 29.295610 -1.270463 33.305053 -1.076400 1.608952 0.072605 -0.013436 122194.000000 0 0 1
-15.499262 28.636210 -0.031163 32.561643 -1.074698 1.571753 0.071599 -0.022020 665386.000000 0 0 1
-14.333962 29.208710 0.596937 32.541781 -1.114582 1.552452 0.068048 -0.022130 772602.000000 0 0 1
-13.833962 28.377110 1.827637 31.622446 -1.117195 1.512969 0.059935 -0.026201 -394905.000000 0 0 1
-14.719062 28.407910 2.910837 32.126828 -1.092748 1.480067 0.051281 -0.022015 -352649.000000 0 0 1
-14.267262 27.877010 4.144237 31.588877 -1.097759 1.439224 0.049676 -0.026891 121746.000000 0 0 1
-13.131662 28.579810 4.916337 31.834202 -1.140092 1.415740 0.057301 -0.030460 -39616.600000 0 0 1
-13.551762 29.742310 5.605137 33.161315 -1.143263 1.400955 0.047518 -0.021489 -288711.000000 0 0 1
-13.750362 30.903610 4.776037 34.160153 -1.152155 1.430524 0.049279 -0.015662 157976.000000 0 0 1
-13.428362 32.169510 5.612137 35.308559 -1.175359 1.411174 0.056110 -0.018762 439326.000000 0 0 1
-14.510562 32.590710 6.446037 36.252754 -1.151911 1.392038 0.058026 -0.019097 -33317.200000 0 0 1
-14.165062 33.654010 7.356137 37.247203 -1.172401 1.371994 0.072760 -0.022163 242223.000000 0 0 1
-15.337762 -34.107122 8.166537 38.278389 1.148197 1.355798 0.067108 -0.020603 241163.000000 0 0 1
-15.700262 33.341910 9.117937 37.964693 -1.130709 1.328257 0.044164 -0.021008 -455421.000000 0 0 1
-16.730362 33.853110 9.920037 39.042863 -1.111796 1.313899 0.063301 -0.023700 -675243.000000 0 0 1
-16.863762 33.110210 11.266737 38.827977 -1.099719 1.276391 0.057365 -0.022837 685433.000000 0 0 1
-16.083162 33.617210 12.397937 39.274594 -1.124561 1.249630 0.065349 -0.029819 191702.000000 0 0 1
-14.696862 33.403410 12.318137 38.516516 -1.156305 1.245263 0.060365 -0.024545 -576781.000000 0 0 1
-13.892062 33.600610 13.588937 38.815584 -1.178752 1.213129 0.066011 -0.025836 -372599.000000 0 0 1
-14.035262 32.748610 14.749437 38.561716 -1.165901 1.178308 0.057866 -0.021487 -519375.000000 0 0 1
-13.360362 31.562210 14.796437 37.331045 -1.170364 1.163250 0.029579 -0.014321 -409532.000000 0 0 1
-14.154462 30.372310 14.168037 36.380754 -1.134691 1.170775 0.027285 -0.019929 296738.000000 0 0 1
-14.050662 30.346510 12.771837 35.797368 -1.137178 1.205976 0.027748 -0.020183 -218975.000000 0 0 1
-15.189262 29.751410 12.225437 35.571356 -1.098753 1.219955 0.009773 -0.019299 -331828.000000 0 0 1
-15.309662 29.576310 10.706737 34.982539 -1.093142 1.259745 0.012772 -0.011153 70564.500000 0 0 1
-14.661562 28.418510 10.191837 33.562578 -1.094497 1.262258 0.009273 -0.012880 60065.300000 0 0 1
-14.690662 28.376710 8.830037 33.151512 -1.093088 1.301188 0.012630 -0.015085 -421746.000000 0 0 1
-14.077062 27.091710 8.274437 31.632115 -1.091586 1.306134 0.021253 -0.020938 565603.000000 0 0 1
-12.651262 27.152510 8.212637 31.060596 -1.134771 1.303207 0.035093 -0.022350 317971.000000 0 0 1
-12.078262 25.899810 7.964637 29.666816 -1.134433 1.298992 0.034801 -0.026358 800660.000000 0 0 1
-10.759062 26.036810 7.091037 29.050915 -1.178941 1.324215 0.063404 -0.034799 799174.000000 0 0 1
-10.961462 26.185810 5.664737 28.947185 -1.174356 1.373833 0.072765 -0.034625 94669.500000 0 0 1
-9.748262 26.046710 4.974337 28.252500 -1.212674 1.393807 0.075818 -0.027034 -200416.000000 0 0 1
-9.987662 26.324010 3.455637 28.366323 -1.208163 1.448671 0.072175 -0.025555 28993.900000 0 0 1
-9.934862 27.689610 3.134937 29.584520 -1.226309 1.464632 0.069174 -0.021019 67700.900000 0 0 1
-9.956962 27.989510 1.751337 29.759384 -1.229018 1.511912 0.073178 -0.023325 71827.800000 0 0 1
-9.491062 29.443110 1.341837 30.964132 -1.258961 1.527448 0.077145 -0.021083 356571.000000 0 0 1
-10.405962 30.451510 1.783637 32.229798 -1.241515 1.515427 0.062759 -0.024461 107207.000000 0 0 1
-10.088862 31.781610 1.407937 33.374214 -1.263414 1.528597 0.065167 -0.018690 -173800.000000 0 0 1
-10.721562 32.898010 2.246337 34.673866 -1.255748 1.505966 0.061752 -0.019393 644280.000000 0 0 1
-12.093162 33.277310 2.118937 35.469900 -1.222229 1.511022 0.080004 -0.018465 403310.000000 0 0 1
-12.361362 -34.121522 1.081337 36.307724 1.223229 1.541009 0.072984 -0.013629 -560371.000000 0 0 1
-13.834862 -33.959322 0.758737 36.677168 1.183931 1.550108 0.075168 -0.014096 -269932.000000 0 0 1
-14.528362 33.403810 0.040537 36.426494 -1.160544 1.569683 0.063419 -0.008760 106837.000000 0 0 1
-14.685962 33.569810 -1.393963 36.668143 -1.158407 1.608821 0.062120 -0.007076 273498.000000 0 0 1
-13.423762 33.427110 -2.307863 36.095641 -1.188926 1.634777 0.070777 -0.006612 166847.000000 0 0 1
-13.024962 32.137410 -2.595563 34.773549 -1.185738 1.645508 0.068043 -0.005050 699284.000000 0 0 1
-11.645162 31.857810 -2.308463 33.997924 -1.220349 1.638749 0.061377 -0.004189 732820.000000 0 0 1
-11.257262 30.380310 -2.433863 32.490196 -1.215937 1.645777 0.042721 -0.009761 -81938.200000 0 0 1
-11.345762 29.726810 -3.701463 32.032957 -1.206193 1.686607 0.051513 -0.015112 159040.000000 0 0 1
-10.263262 29.963710 -4.589863 32.003520 -1.240798 1.714710 0.044617 -0.008054 197832.000000 0 0 1
-10.523262 29.254410 -5.945263 31.652894 -1.225493 1.759745 0.050599 -0.008689 1600.390000 0 0 1
-10.577062 27.867410 -5.849063 30.375620 -1.208043 1.764564 0.061048 -0.009872 105651.000000 0 0 1
-10.259362 27.308210 -7.128463 30.030115 -1.211423 1.810461 0.070366 -0.011961 156610.000000 0 0 1
-10.904262 25.912410 -7.320963 29.050859 -1.172478 1.825548 0.078697 -0.017808 478871.000000 0 0 1
-10.226162 24.919110 -6.505963 27.710359 -1.181379 1.807793 0.044399 -0.010131 386057.000000 0 0 1
-10.852762 23.634410 -6.619663 26.836313 -1.140324 1.820037 0.091373 -0.022141 299211.000000 0 0 1
-10.313362 22.502710 -5.609563 25.381185 -1.141048 1.793649 0.069688 -0.020460 190258.000000 0 0 1
-8.961662 22.125710 -5.802963 24.566904 -1.185958 1.809261 0.055319 -0.024451 26850.700000 0 1 0
-8.548562 20.940710 -5.171163 23.201986 -1.183218 1.795560 0.056926 -0.022385 -366684.000000 0 1 0
-8.514862 20.740210 -3.588563 22.705439 -1.181230 1.729510 0.045111 -0.028937 -9592.610000 0 1 0
-9.730262 20.606610 -2.862863 22.967506 -1.129642 1.695770 0.063443 -0.025159 -229139.000000 0 1 0
-10.383762 19.406110 -3.154263 22.234410 -1.079482 1.713141 0.063321 -0.027653 -1067800.000000 0 1 0
-11.739162 19.222410 -2.510863 22.663040 -1.022545 1.681815 0.067594 -0.030771 -903104.000000 0 1 0
-11.769462 19.273110 -1.086663 22.608711 -1.022570 1.618879 0.074442 -0.033517 211620.000000 0 1 0
-11.205462 18.105410 -0.460263 21.297420 -1.016595 1.592409 0.065489 -0.028208 55325.900000 0 1 0
-11.063362 18.278910 1.073037 21.393175 -1.026523 1.520617 0.066990 -0.023562 448190.000000 0 1 0
-12.302962 18.039010 1.731337 21.903568 -0.972240 1.491670 0.095953 -0.034791 331169.000000 0 1 0
-12.129962 18.252310 3.125137 22.137056 -0.984246 1.429151 0.097518 -0.029767 -107457.000000 0 1 0
-13.399262 18.203210 3.989537 22.952418 -0.936255 1.396091 0.078052 -0.029306 -165355.000000 0 1 0
-14.012362 16.930610 4.094237 22.355192 -0.879431 1.386612 0.069444 -0.029020 248575.000000 0 1 0
-15.050362 17.049910 5.056737 23.297712 -0.847608 1.352006 0.070628 -0.029918 183970.000000 0 1 0
-15.416662 15.623110 5.626937 22.658717 -0.792049 1.319836 0.049319 -0.031048 -272968.000000 0 1 0
-14.615462 15.321210 6.743537 22.222207 -0.808968 1.262475 0.049648 -0.018495 245484.000000 0 1 0
-15.077262 15.983410 7.925637 23.358273 -0.814563 1.224616 0.041015 -0.009400 -292592.000000 0 1 0
-14.018762 15.808210 9.074537 22.995052 -0.845321 1.165131 0.035685 -0.009573 846630.000000 0 1 0
-12.821362 16.522710 8.871337 22.717568 -0.910872 1.169616 0.041201 -0.013307 171122.000000 0 1 0
-11.888562 16.095310 7.888437 21.508704 -0.934608 1.195277 0.040417 -0.014793 37593.000000 0 1 0
-10.728162 17.127610 7.657537 21.612181 -1.011215 1.208614 0.062465 -0.020013 465719.000000 0 1 0
-9.745862 17.233510 8.639637 21.601366 -1.056117 1.159325 0.055238 -0.015302 -489295.000000 0 1 0
-8.990962 18.397710 8.509837 22.174996 -1.116229 1.176934 0.046257 -0.019638 -578530.000000 0 1 0
-7.842162 18.490510 9.490537 22.214157 -1.169673 1.129370 0.046716 -0.012306 -672136.000000 0 1 0
-6.783862 17.573510 9.184937 20.957388 -1.202393 1.117126 0.030967 -0.008949 96153.500000 0 1 0
-5.594762 17.822710 9.907437 21.144920 -1.266626 1.083148 0.025172 -0.010734 539869.000000 0 1 0
-4.665062 18.838110 9.176837 21.467453 -1.328040 1.129097 0.013726 -0.014592 -1074550.000000 0 1 0
-5.079562 20.199310 9.261337 22.794439 -1.324433 1.152397 0.025743 -0.020027 -387487.000000 0 1 0
-4.487962 21.000110 8.334437 23.034957 -1.360252 1.200580 0.026559 -0.028976 141347.000000 0 1 0
-3.032962 21.529810 8.493637 23.342524 -1.430845 1.198377 0.030296 -0.024934 790960.000000 0 1 0
-1.960662 20.604710 8.334337 22.312764 -1.475926 1.187992 0.015223 -0.010514 913209.000000 0 1 0
-0.733062 21.316410 8.043637 22.795324 -1.536420 1.210167 0.008419 -0.015866 1135520.000000 0 1 0
0.549338 20.464010 7.924437 21.951633 1.543959 1.201461 0.005017 -0.011497 288534.000000 0 1 0
0.876138 20.008510 9.234337 22.054049 1.527036 1.138768 0.009224 -0.009145 -356272.000000 0 1 0
2.193538 19.483310 9.189137 21.652972 1.458683 1.132517 0.006283 -0.014564 111034.000000 0 1 0
2.647438 18.997510 10.596037 21.913245 1.432331 1.066096 -0.007828 -0.020515 726300.000000 0 1 0
3.996238 18.487810 10.561337 21.663584 1.357916 1.061554 0.012240 -0.006370 640860.000000 0 1 0
4.367038 18.098910 11.875837 22.083411 1.334034 1.003004 0.007045 -0.003749 204332.000000 0 1 0
5.904438 18.042410 11.992037 22.454396 1.254528 1.007399 0.021799 -0.009384 98053.400000 0 1 0
6.645338 17.042110 11.303837 21.502808 1.198996 1.017269 0.009318 -0.007476 88904.900000 0 1 0
7.469138 16.369310 12.246537 21.765110 1.142725 0.973186 0.013935 0.002244 -601587.000000 0 1 0
8.753738 15.799110 11.657437 21.497340 1.064837 0.997656 0.016692 -0.004461 191421.000000 0 1 0
9.670238 16.835710 11.180937 22.404642 1.049422 1.048299 0.027813 -0.011231 795962.000000 0 1 0
10.828638 16.203010 10.614837 22.191703 0.981657 1.072050 0.027473 -0.012150 765619.000000 0 1 0
11.767038 17.289810 9.998737 23.181360 0.973226 1.124834 0.035144 -0.014397 -19474.300000 0 1 0
12.808638 16.897210 9.166137 23.099675 0.922174 1.162760 0.050678 -0.010366 -580818.000000 0 1 0
13.467438 18.015610 8.639437 24.095102 0.928870 1.204076 0.069230 -0.012265 -178331.000000 0 1 0
14.564738 17.730610 7.619337 24.177684 0.883115 1.250193 0.077336 -0.012749 -1097350.000000 0 1 0
15.779738 17.419810 8.181837 24.887595 0.834758 1.235815 0.084935 -0.013508 -986426.000000 0 1 0
16.707038 17.184910 7.144837 25.009897 0.799497 1.281080 0.085975 -0.005203 -2547.750000 0 0 1
18.168138 16.949010 7.567437 25.973376 0.750696 1.275155 0.090317 -0.016012 -55517.200000 0 0 1
18.422338 15.737010 8.295037 25.609445 0.706948 1.240942 0.095960 -0.020526 79701.900000 0 0 1
19.616438 15.803510 9.034237 26.761409 0.678162 1.226447 0.116244 -0.027590 -21095.000000 0 0 1
20.077538 14.625310 9.918337 26.746600 0.629560 1.190898 0.115059 -0.027769 187108.000000 0 0 1
20.650938 13.453310 9.348737 26.360039 0.577403 1.208251 0.109421 -0.031422 425160.000000 0 0 1
20.491838 12.368810 10.271637 26.046294 0.543060 1.165424 0.095182 -0.036362 -380389.000000 0 0 1
21.442338 11.231310 9.935537 26.165456 0.482499 1.181303 0.075104 -0.022411 -274606.000000 0 0 1
22.843738 11.545810 10.072537 27.506328 0.467979 1.195885 0.070280 -0.028092 1751520.000000 0 0 1
23.666538 10.830010 9.142937 27.586001 0.429163 1.232973 0.066689 -0.020349 -85161.000000 0 0 1
23.838838 9.355510 9.484137 27.308691 0.373979 1.216113 0.072452 -0.020839 -1626070.000000 0 0 1
22.708438 8.596510 9.224337 25.974248 0.361888 1.207739 0.074752 -0.020231 -153346.000000 0 0 1
22.656438 7.313610 9.731037 25.719568 0.312245 1.182782 0.071008 -0.011968 21411.400000 0 0 1
23.708838 6.227310 9.288737 26.213909 0.256856 1.208584 0.075082 -0.012299 343556.000000 0 0 1
23.485438 5.900810 7.971737 25.493802 0.246159 1.252769 0.067050 -0.007946 -92056.000000 0 0 1
24.616238 5.385910 7.355437 26.250136 0.215401 1.286788 0.068094 -0.011890 -614844.000000 0 0 1
24.452538 5.013710 5.827437 25.632458 0.202235 1.341445 0.083862 -0.023495 -497811.000000 0 0 1
23.594338 3.929710 5.600337 24.566220 0.165038 1.340805 0.082210 -0.016185 356413.000000 0 1 0
23.384138 3.774610 4.228837 24.061352 0.160037 1.394126 0.088867 -0.017608 -187243.000000 0 1 0
22.269838 2.814310 3.795437 22.765574 0.125707 1.403296 0.083462 -0.010982 -155226.000000 0 1 0
22.688938 1.466410 3.967737 23.079887 0.064541 1.398025 0.093981 -0.012868 3365.360000 0 1 0
21.712738 0.606410 3.540737 22.007897 0.027921 1.409209 0.089507 -0.012021 -880409.000000 0 1 0
22.247838 -0.816390 3.586637 22.549873 -0.036679 1.411064 0.104424 -0.018850 -184170.000000 0 1 0
22.180038 -1.365190 4.910137 22.758016 -0.061473 1.353332 0.097265 -0.021446 833799.000000 0 1 0
22.722938 -2.684890 5.067837 23.435518 -0.117612 1.352828 0.109280 -0.027912 -538759.000000 0 1 0
22.584138 -3.209090 6.483437 23.714479 -0.141150 1.293875 0.135395 -0.027534 -266481.000000 0 1 0
22.525438 -4.637890 6.678437 23.948004 -0.203058 1.288177 0.119635 -0.031080 473289.000000 0 1 0
22.383438 -4.883390 8.019337 24.272939 -0.214804 1.234088 0.139479 -0.028613 -95980.800000 0 1 0
22.178838 -6.360990 8.436937 24.567152 -0.279307 1.220237 0.149612 -0.044548 -855105.000000 0 1 0
20.957038 -6.902990 8.105137 23.506211 -0.318195 1.218762 0.165029 -0.052820 -332051.000000 0 1 0
20.641838 -8.041090 8.892937 23.871090 -0.371468 1.189052 0.141738 -0.047920 -204044.000000 0 1 0
-26.365112 -32.625422 5.930837 42.364043 0.891126 1.430338 0.043194 -0.002614 94145.800000 0 0 1
-26.982012 -33.903322 6.051237 43.750219 0.898590 1.432038 0.047773 -0.012818 201640.000000 0 0 1
-26.972282 34.106510 7.378037 44.104347 -0.901675 1.402720 0.040673 -0.006546 -472352.000000 0 0 1
-27.775132 32.824410 7.639037 43.672127 -0.868528 1.394974 0.053095 -0.022188 -1127900.000000 0 0 1
-29.141302 33.018110 7.562137 44.683296 -0.847686 1.400739 0.051968 -0.022409 -1506640.000000 0 0 1
-29.704042 31.771610 7.857137 44.198415 -0.819018 1.392077 0.071717 -0.032513 96050.900000 0 0 1
-31.219852 31.887310 8.151837 45.364437 -0.795974 1.390118 0.067464 -0.032195 464494.000000 0 0 1
-31.983522 32.178810 6.988637 45.904929 -0.788442 1.417960 0.056257 -0.019439 -498224.000000 0 0 1
-33.367912 32.149710 7.172637 46.887825 -0.766807 1.417219 0.043120 -0.017352 -262247.000000 0 0 1
-34.180175 32.279410 5.884437 47.380072 -0.756806 1.446278 0.024917 -0.010968 -190361.000000 0 0 1
-33.997712 31.088310 5.177237 46.358723 -0.740727 1.458885 0.032616 -0.020825 639929.000000 0 0 1
-34.816666 31.093610 3.991137 46.850208 -0.728971 1.485504 0.039072 -0.013035 317597.000000 0 0 1
-34.324569 29.980610 3.050237 45.676219 -0.717948 1.503967 0.036647 -0.013551 43749.800000 0 0 1
-34.756893 28.706010 3.512537 45.215202 -0.690340 1.493033 0.054321 -0.020037 221996.000000 0 0 1
-34.120183 27.655410 2.846637 44.012634 -0.681128 1.506073 0.045570 -0.015135 -376202.000000 0 0 1
-34.399240 26.296010 3.496137 43.439738 -0.652676 1.490227 0.061751 -0.021082 507354.000000 0 0 1
-35.741170 25.813910 3.319037 44.213179 -0.625501 1.495657 0.073700 -0.021621 450454.000000 0 0 1
-36.050182 24.801810 4.225537 43.961353 -0.602613 1.474528 0.080485 -0.022131 171788.000000 0 0 1
35.221361 24.518910 4.111937 43.111823 0.608129 1.475273 0.083399 -0.025651 -36674.100000 0 0 1
34.791141 23.780010 2.999737 42.248205 0.599571 1.499734 0.086674 -0.023401 5112.410000 0 0 1
35.037321 22.383110 3.102337 41.692229 0.568487 1.496317 0.090129 -0.022943 -481107.000000 0 0 1
34.318511 21.514510 1.992337 40.553714 0.559969 1.521648 0.097307 -0.024021 166627.000000 0 0 1
32.936171 21.266410 2.104337 39.261684 0.573336 1.517173 0.093948 -0.028046 221101.000000 0 0 1
32.335211 20.509310 3.118137 38.417710 0.565239 1.489543 0.069838 -0.026955 -372593.000000 0 0 1
32.668451 19.010410 3.151737 37.928312 0.527019 1.487603 0.088484 -0.031826 -510911.000000 0 0 1
32.117061 18.257310 2.071037 37.001678 0.516906 1.514796 0.080250 -0.034480 234556.000000 0 0 1
32.216611 16.867610 1.972337 36.418627 0.482324 1.516612 0.081596 -0.030028 -645381.000000 0 0 1
31.568761 16.017710 3.037937 35.530026 0.469543 1.485188 0.092498 -0.034828 258657.000000 0 0 1
30.139431 15.990210 3.014337 34.251399 0.487781 1.482676 0.058464 -0.026007 718446.000000 0 0 1
29.609091 15.047510 3.954037 33.447874 0.470191 1.452304 0.052936 -0.021249 -69084.900000 0 0 1
28.099081 15.134710 4.212537 32.192597 0.494064 1.439566 0.041873 -0.013535 157492.000000 0 0 1
27.261901 14.814510 3.095337 31.181117 0.497773 1.471363 0.038505 -0.023098 159407.000000 0 0 1
25.919401 15.197710 3.233837 30.219918 0.530319 1.463581 0.016433 -0.011080 -118365.000000 0 0 1
25.042601 14.547610 2.134337 29.039976 0.526268 1.497233 0.033319 -0.019039 -408932.000000 0 0 1
25.292001 15.025310 0.845837 29.430608 0.536050 1.542052 0.049686 -0.019143 1408270.000000 0 0 1
26.442301 14.419010 0.179437 30.118687 0.499228 1.564839 0.052277 -0.021801 120649.000000 0 0 1
26.868401 15.149310 -1.101563 30.864640 0.513402 1.606494 0.073509 -0.026336 174325.000000 0 0 1
27.554701 16.401910 -0.915363 32.079933 0.536919 1.599334 0.052077 -0.018945 1621860.000000 0 0 1
28.848421 16.421610 -0.264763 33.195945 0.517493 1.578772 0.074526 -0.027198 570199.000000 0 0 1
29.392161 17.873010 -0.210563 34.400406 0.546345 1.576917 0.085475 -0.017192 -83151.900000 0 0 1
29.664511 18.529710 -1.483263 35.007620 0.558342 1.613179 0.077390 -0.009460 585704.000000 0 0 1
30.596991 19.608110 -1.379363 36.366970 0.569917 1.608734 0.075645 0.000032 384000.000000 0 0 1
30.661311 20.490510 -2.615463 36.970497 0.589122 1.641600 0.080874 -0.002681 -530003.000000 0 0 1
31.684961 21.409510 -2.461463 38.319221 0.594230 1.635076 0.056272 0.001079 -274241.000000 0 0 1
31.621641 22.473410 -3.387763 38.941742 0.617869 1.657902 0.061081 -0.003794 880.248000 0 0 1
32.807421 23.481010 -3.353563 40.483714 0.621200 1.653729 0.052790 -0.003647 -5640.790000 0 0 1
32.830391 24.387610 -2.274163 40.960492 0.638901 1.626346 0.073966 -0.002257 246800.000000 0 0 1
33.637931 23.971110 -1.184563 41.322242 0.619147 1.599467 0.077245 0.004826 -159550.000000 0 0 1
33.446361 24.847710 0.049837 41.666176 0.638949 1.569600 0.074612 -0.019537 -194646.000000 0 0 1
33.894961 26.163510 0.014637 42.818195 0.657370 1.570454 0.077707 -0.015206 455032.000000 0 0 1
35.147161 26.280010 0.719537 43.891680 0.642036 1.554402 0.082179 -0.023076 1335050.000000 0 0 1
36.079271 27.498710 0.275637 45.364841 0.651248 1.564720 0.044218 -0.021039 -34916.700000 0 0 1
-36.301662 27.623810 -1.086863 45.629670 -0.650473 1.594618 0.034055 -0.016027 -639283.000000 0 0 1
35.470001 27.586210 -2.030563 44.980475 0.661016 1.615955 0.032869 -0.014140 -858595.000000 0 0 1
35.983541 27.196610 -3.438963 45.236018 0.647207 1.646892 0.026039 -0.005337 300791.000000 0 0 1
-36.001169 28.159110 -4.132263 45.892213 -0.663775 1.660961 0.017852 -0.002238 350513.000000 0 0 1
-35.633035 27.778910 -5.476063 45.512287 -0.662167 1.691409 0.026467 -0.001558 -61269.300000 0 0 1
36.022691 27.733810 -6.522363 45.927548 0.656115 1.713292 0.009140 0.008831 -225317.000000 0 0 1
35.072491 26.749510 -6.222463 44.545875 0.651575 1.710941 0.020496 0.009902 -548905.000000 0 0 1
33.983021 26.915610 -7.101763 43.928702 0.669863 1.733175 0.003564 0.015064 101914.000000 0 0 1
32.825001 25.902510 -6.867063 42.374252 0.668065 1.733572 0.028302 0.005772 -72786.200000 0 0 1
32.985101 24.505310 -7.231463 41.723149 0.638955 1.744996 0.025696 0.005249 211476.000000 0 0 1
34.114481 23.788910 -6.725363 42.130043 0.608929 1.731116 0.035929 0.006703 335154.000000 0 0 1
34.050621 22.310210 -7.148763 41.331526 0.580027 1.744632 0.047506 0.009712 -235973.000000 0 0 1
33.116071 21.590910 -6.409663 40.049037 0.577764 1.731533 0.047447 0.009699 -159505.000000 0 0 1
33.387071 20.233210 -6.357263 39.553686 0.544834 1.732221 0.051864 -0.001921 16991.100000 0 0 1
32.170601 19.404010 -5.869663 38.025204 0.542740 1.725778 0.064132 -0.002361 77933.400000 0 0 1
31.016001 19.452810 -6.658063 37.212013 0.560170 1.750687 0.054880 -0.009936 -364078.000000 0 0 1
29.885851 19.016910 -5.956163 35.920507 0.566697 1.737381 0.085105 -0.018506 -378540.000000 0 0 1
28.678131 18.677510 -6.840163 34.900894 0.577275 1.768061 0.063445 -0.027350 -264489.000000 0 0 1
28.728061 17.607910 -7.734063 34.571024 0.549863 1.796421 0.055982 -0.022765 -661017.000000 0 0 1
27.589501 17.512010 -8.513663 33.768825 0.565569 1.825663 0.067534 -0.028263 -527301.000000 0 0 1
27.760101 16.440410 -9.590563 33.658419 0.534688 1.859738 0.059178 -0.023848 -250646.000000 0 0 1
26.745501 16.582810 -10.542763 33.188270 0.555012 1.894063 0.064010 -0.020676 196528.000000 0 0 1
27.035501 15.607910 -11.538163 33.281442 0.523570 1.924830 0.061663 -0.015003 316225.000000 0 0 1
26.202601 15.783610 -12.853063 33.179811 0.542159 1.968580 0.069206 -0.008551 1148180.000000 0 0 1
24.776501 15.566810 -12.724563 31.907916 0.560961 1.980994 0.052628 -0.008838 1318200.000000 0 0 1
24.148301 15.408710 -13.986763 31.877866 0.567955 2.025016 0.041307 -0.011214 -377863.000000 0 0 1
24.047601 13.950010 -14.513763 31.361429 0.525659 2.051937 0.039498 -0.015050 -319425.000000 0 0 1
25.252401 13.388410 -15.003263 32.280508 0.487502 2.054180 0.062901 -0.022294 39704.700000 0 0 1
25.643501 13.997610 -16.220063 33.415755 0.499655 2.077619 0.077144 -0.030010 -211414.000000 0 0 1
27.006501 13.360910 -16.633963 34.417347 0.459422 2.075219 0.111260 -0.033329 219210.000000 0 0 1
27.023301 12.053510 -17.117263 34.184011 0.419557 2.095248 0.118687 -0.031638 -304140.000000 0 0 1
28.265641 11.687310 -17.662063 35.319798 0.392074 2.094466 0.113677 -0.022057 -150157.000000 0 0 1
28.418161 10.254110 -18.309863 35.326898 0.346290 2.115656 0.096151 -0.017410 -468319.000000 0 0 1
27.878441 10.188310 -19.609663 35.574542 0.350376 2.154631 0.101775 -0.019344 83330.500000 0 0 1
28.300221 9.014010 -20.327463 35.991119 0.308354 2.170976 0.070390 -0.004534 -71358.200000 0 0 1
29.779461 8.989910 -20.757363 37.396563 0.293183 2.159232 0.067190 -0.006567 -604249.000000 0 0 1
30.053841 10.017610 -21.782563 38.445623 0.321740 2.173147 0.071991 -0.014284 102904.000000 0 0 1
30.551631 9.575810 -23.058363 39.456133 0.303732 2.194943 0.056797 -0.007177 1064920.000000 0 0 1
31.986701 8.910710 -23.100563 40.449794 0.271687 2.178632 0.049632 -0.005386 581821.000000 0 0 1
33.068761 9.801510 -23.095063 41.508969 0.288149 2.160828 0.049304 -0.005504 -507001.000000 0 0 1
34.293181 9.136210 -23.263263 42.434326 0.260367 2.151028 0.010761 0.001974 12351.500000 0 0 1
35.476101 10.090410 -22.918263 43.423691 0.277110 2.126784 0.033569 -0.011237 6843.960000 0 0 1
35.429981 10.549410 -21.578963 42.804500 0.289395 2.099169 0.029399 -0.012852 71616.900000 0 0 1
36.118091 11.776510 -21.441663 43.622788 0.315186 2.084636 0.013624 -0.011648 -128787.000000 0 0 1
35.891541 12.394210 -20.027863 42.929413 0.332503 2.056160 0.007038 -0.009606 21797.500000 0 0 1
-36.344672 11.642210 -18.964863 42.616221 -0.310000 2.031987 0.017661 -0.011821 92836.200000 0 0 1
36.209171 12.257710 -17.771363 42.156576 0.326416 2.005957 0.032013 -0.007629 -349355.000000 0 0 1
-35.995328 11.520210 -16.548563 41.258136 -0.309746 1.983512 0.029378 -0.012303 -482611.000000 0 0 1
35.999671 10.486310 -16.015563 40.772997 0.283446 1.974469 0.027344 -0.017028 39126.300000 0 0 1
-36.117972 9.660310 -15.140363 40.336833 -0.261348 1.955569 0.050175 -0.028981 676579.000000 0 0 1
35.661771 8.437910 -14.926963 39.569868 0.232337 1.957600 0.067129 -0.028545 1498630.000000 0 0 1
34.484471 8.732310 -14.171963 38.291990 0.248011 1.949916 0.072186 -0.028922 773850.000000 0 0 1
34.647191 8.418710 -12.820363 37.890160 0.238364 1.915966 0.066710 -0.028616 420700.000000 0 0 1
33.382911 8.854310 -11.972463 36.553487 0.259265 1.904487 0.076796 -0.020180 535676.000000 0 0 1
33.373451 10.219710 -11.859063 36.862814 0.297156 1.898329 0.081307 -0.025844 243852.000000 0 0 1
32.461111 10.798810 -10.936463 35.915794 0.321153 1.880213 0.054279 -0.007817 -403967.000000 0 0 1
32.698511 10.426810 -9.453463 35.598862 0.308684 1.839576 0.068509 -0.006551 -378471.000000 0 0 1
33.771461 11.042710 -8.783463 36.600577 0.316025 1.813143 0.071498 -0.006529 -113432.000000 0 0 1
33.770441 12.457010 -8.596963 37.007129 0.353388 1.805244 0.071987 -0.007965 -480929.000000 0 0 1
33.377341 12.874710 -7.172663 36.486328 0.368146 1.768670 0.066990 -0.013231 178230.000000 0 0 1
34.429311 12.592810 -6.249563 37.188888 0.350644 1.739647 0.089665 -0.012851 608601.000000 0 0 1
34.115081 12.953110 -4.929563 36.822852 0.362875 1.705072 0.100190 -0.014881 410006.000000 0 0 1
35.432851 12.756110 -4.106263 37.882274 0.345563 1.679405 0.113713 -0.017368 942744.000000 0 0 1
36.355501 13.803110 -4.442863 39.140610 0.362859 1.684552 0.105978 -0.010994 686960.000000 0 0 1
-35.177402 13.597310 -3.790863 37.903919 -0.368845 1.670976 0.090382 -0.018802 651287.000000 0 0 1
-34.194204 14.759610 -3.739063 37.430873 -0.407482 1.670856 0.087703 -0.018976 302199.000000 0 0 1
-34.636420 15.745410 -2.797563 38.150044 -0.426665 1.644193 0.111835 -0.013219 146099.000000 0 0 1
-33.646462 16.735110 -2.728163 37.677462 -0.461550 1.643268 0.121200 -0.014471 33395.800000 0 0 1
-33.792612 17.761010 -1.570663 38.208128 -0.483908 1.611916 0.121667 -0.012451 252018.000000 0 0 1
-34.818448 18.730310 -1.775063 39.576504 -0.493539 1.615663 0.096419 -0.005706 413953.000000 0 0 1
-35.208275 19.450310 -0.582163 40.227802 -0.504711 1.585268 0.084623 -0.008426 336818.000000 0 0 1
-36.289182 20.567110 -0.776463 41.719463 -0.515617 1.589409 0.076813 -0.007457 158499.000000 0 0 1
-35.958014 21.683710 -1.566663 42.019239 -0.542643 1.608089 0.082105 0.003559 -73436.300000 0 0 1
-36.261922 21.519410 -2.962863 42.270445 -0.535585 1.640947 0.049610 0.008036 -6866.600000 0 0 1
-35.805611 22.766010 -3.790263 42.599285 -0.566344 1.659889 0.064239 -0.011706 358763.000000 0 0 1
-34.388663 22.860110 -3.831563 41.471022 -0.586679 1.663320 0.074025 -0.003593 173740.000000 0 0 1
-33.994322 24.006910 -4.598263 41.869914 -0.614877 1.680841 0.075887 -0.010755 440556.000000 0 0 1
-32.480542 24.028810 -4.928663 40.702101 -0.636935 1.692185 0.080715 -0.020204 332362.000000 0 0 1
-31.993082 23.011710 -5.779563 39.830885 -0.623543 1.716413 0.080432 -0.006925 -464525.000000 0 0 1
-30.706412 23.280810 -6.254463 39.038419 -0.648712 1.731703 0.074558 0.004048 -217285.000000 0 0 1
-30.257032 22.379010 -7.434863 38.361247 -0.636831 1.765842 0.078286 -0.011247 423777.000000 0 0 1
-31.011132 22.737610 -8.590263 39.401546 -0.632667 1.790580 0.065986 -0.022063 213553.000000 0 0 1
-30.340872 22.221510 -9.678863 38.833547 -0.632139 1.822691 0.030850 -0.016493 239768.000000 0 0 1
-31.300482 22.082710 -10.897463 39.826134 -0.614412 1.847957 0.039799 -0.005022 63627.100000 0 0 1
-31.788882 23.304810 -11.349063 41.017660 -0.632605 1.851141 0.049479 -0.002847 253170.000000 0 0 1
-32.465502 23.268010 -12.629863 41.891796 -0.621846 1.877049 0.029111 0.002734 -246915.000000 0 0 1
-33.091812 24.563010 -13.108263 43.246226 -0.638535 1.878748 0.064489 0.003157 121062.000000 0 0 1
-32.238352 25.691310 -13.252663 43.301129 -0.672859 1.881846 0.062689 -0.003325 -223078.000000 0 0 1
-31.188812 25.718110 -14.183363 42.840763 -0.689558 1.908235 0.053597 -0.006294 40727.100000 0 0 1
-30.026882 26.688310 -13.746663 42.459984 -0.726600 1.900493 0.035098 0.001847 413953.000000 0 0 1
-29.080582 26.063310 -12.876363 41.119060 -0.730736 1.889303 0.030514 -0.001094 178876.000000 0 0 1
-29.508732 25.756410 -11.543463 40.833925 -0.717605 1.857397 0.052814 -0.004000 -573238.000000 0 0 1
-29.806562 27.003710 -10.686563 41.615311 -0.736101 1.830500 0.067464 0.006779 -440564.000000 0 0 1
-28.750412 27.902410 -10.539263 41.427125 -0.770431 1.828029 0.067385 0.010955 -634539.000000 0 0 1
-28.933322 28.849710 -9.505263 41.949886 -0.783951 1.799368 0.054163 0.002679 -343169.000000 0 0 1
-27.690952 29.691410 -9.264563 41.643736 -0.820246 1.795146 0.061370 0.000049 -302779.000000 0 0 1
-27.860712 30.814510 -8.411763 42.385269 -0.835697 1.770582 0.066588 -0.009480 829510.000000 0 0 1
-26.616012 31.543310 -8.167663 42.072594 -0.869917 1.766169 0.077636 -0.013429 1293700.000000 0 0 1
34.588581 -25.467260 33.921387 54.732182 -0.634669 0.902346 0.021112 0.003627 -320370.000000 0 0 1
34.406501 -24.139090 -34.078291 54.109453 -0.611789 2.252096 0.015544 -0.006404 613822.000000 0 0 1
33.405331 -24.121890 -33.030543 52.809076 -0.625403 2.246531 0.019904 -0.002365 358602.000000 0 0 1
32.960521 -22.737090 -32.697503 51.696208 -0.603866 2.255564 0.007898 -0.004444 -181632.000000 0 0 1
32.337841 -22.125390 -33.792643 51.741778 -0.600040 2.282469 -0.001789 -0.007793 -26315.200000 0 0 1
32.154531 -20.742790 -33.526053 50.874094 -0.572921 2.290285 -0.007354 -0.003528 -2064.410000 0 0 1
31.750601 -19.871590 33.688512 50.377541 -0.559221 0.838309 -0.007724 0.001773 83582.700000 0 0 1
32.849311 -19.539390 32.847942 50.396948 -0.536601 0.860861 0.011190 -0.011202 406913.000000 0 0 1
32.492111 -18.972190 31.576781 49.120000 -0.528498 0.872583 0.011012 0.000160 170631.000000 0 0 1
33.754431 -18.774790 30.683181 49.328612 -0.507604 0.899482 0.002922 -0.001725 590160.000000 0 0 1
34.657681 -17.696390 30.964721 49.730585 -0.472096 0.898672 0.000279 -0.013752 1199570.000000 0 0 1
35.679961 -17.590290 29.945441 49.791640 -0.458034 0.925525 0.017683 -0.012739 -261072.000000 0 0 1
-35.990789 -16.648890 30.304501 49.908769 0.433272 0.918267 0.015211 -0.020485 -1101120.000000 0 0 1
-35.031164 -16.569290 29.252251 48.553249 0.441805 0.924194 0.033562 -0.019326 500100.000000 0 0 1
-33.963962 -15.666990 29.449831 47.605649 0.432197 0.903811 0.038787 -0.026639 88628.500000 0 0 1
-32.831752 -16.222690 30.336271 47.554064 0.458929 0.878986 0.053363 -0.027955 -834772.000000 0 0 1
-32.167452 -15.253190 31.140081 47.298091 0.442780 0.852133 0.052943 -0.033302 674231.000000 0 0 1
-30.915612 -15.789690 31.584571 46.932659 0.472199 0.832571 0.064171 -0.032117 693269.000000 0 0 1
-29.903662 -14.637790 31.893071 46.104901 0.455211 0.806887 0.064633 -0.033712 -108991.000000 0 0 1
-30.120622 -14.062290 33.133740 46.934471 0.436791 0.787022 0.067300 -0.030731 210935.000000 0 0 1
-29.170452 -13.067390 33.429318 46.251392 0.421162 0.762988 0.059652 -0.028331 -143263.000000 0 0 1
-29.424142 -12.459690 -33.601743 46.369183 0.400558 2.381333 0.054164 -0.014481 -115831.000000 0 0 1
-29.386342 -13.377390 -32.549703 45.847517 0.427190 2.360232 0.064305 -0.015397 333581.000000 0 0 1
-29.731212 -12.804690 -31.287853 45.020382 0.406673 2.339176 0.065098 -0.001979 -427213.000000 0 0 1
-29.906432 -13.768790 -30.106683 44.613749 0.431465 2.311530 0.069041 -0.005739 -129873.000000 0 0 1
-30.996462 -14.655990 -30.151563 45.658465 0.441675 2.292110 0.072000 -0.009331 -47012.800000 0 0 1
-31.020442 -15.369990 -28.889393 45.089926 0.460025 2.266214 0.080763 -0.004054 -305103.000000 0 0 1
-32.346212 -16.095490 -28.758213 46.177668 0.461726 2.243078 0.076483 -0.012846 -545744.000000 0 0 1
-32.374272 -17.273190 -29.563623 47.121804 0.490124 2.248990 0.086270 -0.016640 643494.000000 0 0 1
-33.466082 -18.170890 -29.284503 48.038963 0.497426 2.226351 0.074765 -0.012258 331588.000000 0 0 1
-33.337242 -19.531990 -29.994713 48.913732 0.529981 2.230923 0.066844 -0.017605 -175090.000000 0 0 1
-34.485784 -20.332990 -30.063753 50.065248 0.532741 2.214912 0.034539 -0.016804 -178909.000000 0 0 1
-34.181572 -21.471390 -30.900703 50.835557 0.560866 2.224154 0.024262 -0.018194 113806.000000 0 0 1
-35.393101 -22.383790 -31.230083 52.240059 0.563927 2.211574 0.012637 -0.015141 -89383.000000 0 0 1
-36.008531 -22.853590 -30.068603 52.182581 0.565524 2.184891 0.013030 -0.010156 -164043.000000 0 0 1
35.813871 -23.861290 -30.298983 52.631007 -0.587720 2.184240 0.019575 -0.012270 -87653.600000 0 0 1
36.381121 -25.272470 -30.578203 53.826668 -0.607132 2.174975 0.018189 -0.004431 45233.500000 0 0 1
-35.972733 -25.528030 -31.912663 54.443878 0.617173 2.197104 0.026599 -0.001579 264001.000000 0 0 1
-35.213572 -26.771170 -32.095453 54.651709 0.650030 2.198481 0.012190 0.004406 430917.000000 0 0 1
-35.572081 -27.546000 -33.403133 56.035028 0.658917 2.209446 0.021966 -0.006420 637551.000000 0 0 1
35.954491 -28.221800 -33.317183 56.561737 -0.665485 2.200668 0.019334 0.000570 195356.000000 0 0 1
35.907361 -29.475290 -33.997183 57.566829 -0.687338 2.202560 0.024081 0.000078 170595.000000 0 0 1
-36.173472 -30.635580 -33.241123 57.896728 0.702696 2.182356 0.029470 -0.012219 310964.000000 0 0 1
36.040151 -30.968720 -31.972913 57.273216 -0.709859 2.163074 0.034926 -0.020308 -36762.900000 0 0 1
-35.909742 -31.837290 -31.222243 57.253394 0.725358 2.147584 0.040239 -0.021941 50119.100000 0 0 1
36.272141 -32.302720 -29.899443 57.036047 -0.727578 2.122595 0.034138 -0.018472 658411.000000 0 0 1
35.355281 -33.427360 -30.041043 57.182590 -0.757376 2.123926 0.050774 -0.016154 602288.000000 0 0 1
34.807731 -33.820800 -28.777833 56.423296 -0.771018 2.106021 0.039854 -0.018192 469862.000000 0 0 1
33.625691 33.552577 -28.850153 55.576918 0.784310 2.116598 0.039314 -0.018830 688745.000000 0 0 1
32.514611 34.138768 -29.490293 55.608747 0.809761 2.129771 0.047247 -0.018865 -758435.000000 0 0 1
31.282741 33.525690 -29.296343 54.413762 0.819993 2.139333 0.039038 -0.019911 -599914.000000 0 0 1
30.159381 34.138529 -30.086103 54.591217 0.847205 2.154498 0.018855 -0.014005 -480067.000000 0 0 1
30.127351 33.528075 -31.321593 54.889264 0.838771 2.178072 0.018962 -0.008991 -519732.000000 0 0 1
29.000981 33.911278 -32.040133 54.932702 0.863290 2.193535 0.013610 0.005961 -325064.000000 0 0 1
28.879581 33.116055 -33.354373 55.165365 0.853627 2.220092 0.010546 -0.003762 121670.000000 0 0 1
28.214801 31.864622 -33.185293 53.969369 0.846074 2.233044 0.001048 -0.003570 62980.700000 0 0 1
27.965641 31.228222 34.002837 53.976586 0.840459 0.889301 0.014725 -0.004034 -22606.100000 0 0 1
28.044621 29.711152 34.192832 53.276665 0.814245 0.873956 0.030431 -0.020731 -833871.000000 0 0 1
29.366101 29.279312 -34.156814 53.724612 0.783918 2.259810 0.028362 -0.013189 -783833.000000 0 0 1
29.393311 27.870042 -34.078391 52.934324 0.758803 2.270232 0.034122 -0.013800 368461.000000 0 0 1
30.795131 27.267392 -33.788753 53.230918 0.724715 2.258492 0.047883 -0.015583 281793.000000 0 0 1
31.251051 27.473372 -32.467573 52.778382 0.721158 2.233395 0.049066 -0.014125 -529580.000000 0 0 1
32.359461 26.709942 -32.105603 52.832996 0.690046 2.223934 0.048495 -0.017031 -102259.000000 0 0 1
33.023861 27.063272 -30.761403 52.623759 0.686523 2.195126 0.078989 -0.026182 -178481.000000 0 0 1
33.695201 28.321972 -30.602793 53.609995 0.698973 2.178326 0.056727 -0.020746 242919.000000 0 0 1
32.915751 29.515722 -30.561413 53.745925 0.730992 2.175633 0.073588 -0.016210 -27756.300000 0 0 1
32.011311 29.700502 -29.369323 52.625098 0.747970 2.162874 0.047186 -0.004447 -434504.000000 0 0 1
32.802971 29.917082 -28.231433 52.612551 0.739418 2.137189 0.031863 -0.003044 501773.000000 0 0 1
32.057061 29.903422 -26.972023 51.471932 0.750654 2.122354 0.040188 -0.002360 110160.000000 0 0 1
32.933481 30.486182 -25.837103 51.783949 0.746828 2.093172 0.054030 -0.001195 72910.000000 0 0 1
33.037111 31.892932 -25.849883 52.695600 0.767778 2.083518 0.046205 -0.006623 151813.000000 0 0 1
33.765381 32.421944 -24.748163 52.950495 0.765103 2.057125 0.035651 -0.014696 -6844.580000 0 0 1
34.159991 33.888581 -24.957363 54.205266 0.781410 2.049268 0.040067 -0.016225 -29135.300000 0 0 1
33.034191 -33.669910 -25.056463 53.411113 -0.794928 2.059096 0.062043 -0.011288 53083.200000 0 0 1
33.324311 -32.291450 -24.615763 52.527928 -0.769658 2.058527 0.051838 -0.022396 -822378.000000 0 0 1
33.698271 -31.418800 -25.843313 52.826048 -0.750407 2.081986 0.045671 -0.026367 50926.500000 0 0 1
34.990221 -31.722850 -26.326393 54.071562 -0.736461 2.079311 0.048609 -0.027357 938975.000000 0 0 1
36.072931 -31.028430 -25.603233 54.032818 -0.710362 2.064449 0.049810 -0.025672 451143.000000 0 0 1
-35.314783 -31.371330 -26.121603 53.978073 0.726332 2.075936 0.027330 -0.021209 -372949.000000 0 0 1
-34.814599 -32.720840 -25.899963 54.346276 0.754406 2.067549 0.029615 -0.018726 10892.200000 0 0 1
-34.452808 -33.089570 -24.572263 53.718821 0.765217 2.045892 0.040565 -0.013599 74575.500000 0 0 1
-33.089322 -32.532450 -24.074763 52.276742 0.776912 2.049383 0.024194 -0.015077 7408.510000 0 0 1
-33.047872 -31.135540 -23.894863 51.308364 0.755612 2.055234 0.022643 -0.015488 -144743.000000 0 0 1
-33.234792 -30.811150 -22.510363 50.602320 0.747574 2.031801 0.011439 -0.016204 -188119.000000 0 0 1
-33.173442 -29.284690 -22.209063 49.510734 0.723217 2.035962 0.007155 -0.005193 1170.110000 0 0 1
-34.310465 -28.494790 -22.478163 49.944258 0.693063 2.037634 0.000636 -0.010933 -357334.000000 0 0 1
-34.408678 -28.202260 -23.850363 50.479346 0.686594 2.062896 0.004988 -0.007922 -477582.000000 0 0 1
-35.649317 -27.376510 -24.137463 51.019253 0.654884 2.063608 0.012808 -0.013173 -543844.000000 0 0 1
-35.585382 -26.076370 -23.705963 50.082623 0.632391 2.063872 0.011531 -0.014944 -259731.000000 0 0 1
36.280871 -25.104250 -24.169463 50.305943 -0.605297 2.071963 0.025900 -0.012429 -80079.700000 0 0 1
-36.198602 -24.604090 -25.598783 50.705007 0.596970 2.100013 0.023792 -0.006764 -954776.000000 0 0 1
-35.150128 -23.722390 -25.490283 49.477650 0.593673 2.112023 0.020180 -0.015287 -773845.000000 0 0 1
-34.897282 -23.045790 -26.764093 49.651238 0.583644 2.140095 0.035444 -0.016750 -469662.000000 0 0 1
-33.727482 -22.074990 -26.730503 48.367014 0.579539 2.156349 0.034719 -0.023524 -719869.000000 0 0 1
-33.758222 -20.964490 -25.883213 47.424341 0.555731 2.148115 0.051527 -0.025078 -332307.000000 0 0 1
-34.694223 -19.957890 -26.192433 47.833566 0.522023 2.150259 0.055937 -0.019074 314965.000000 0 0 1
-35.888054 -19.997790 -25.182493 48.187363 0.508375 2.120689 0.054359 -0.023175 320925.000000 0 0 1
-35.473608 -19.511490 -23.905763 47.016599 0.502865 2.104184 0.061507 -0.032026 177421.000000 0 0 1
-34.668637 -20.344690 -23.079763 46.351874 0.530681 2.092001 0.038671 -0.027377 364398.000000 0 0 1
-35.440549 -21.633290 -22.512763 47.231941 0.548039 2.067628 0.054312 -0.028585 779451.000000 0 0 1
36.331911 -21.264890 -21.571263 47.302460 -0.529537 2.044324 0.048327 -0.028203 113623.000000 0 0 1
35.684531 -22.468190 -21.225263 47.209291 -0.561925 2.037113 0.046989 -0.020030 -267751.000000 0 0 1
34.588411 -22.239390 -20.181263 45.806463 -0.571419 2.027037 0.050114 -0.026701 -133509.000000 0 0 1
33.396981 -21.682190 -20.660463 44.859006 -0.575831 2.049427 0.055403 -0.023321 -343014.000000 0 0 1
32.337921 -21.558090 -19.722463 43.582886 -0.587991 2.040394 0.058656 -0.023454 -131541.000000 0 0 1
31.100761 -21.043790 -20.449663 42.758475 -0.594870 2.069469 0.053752 -0.022890 -1455400.000000 0 0 1
30.471971 -21.947290 -21.315063 43.180510 -0.624185 2.087052 0.050651 -0.021774 876609.000000 0 0 1
29.176391 -21.472890 -21.742163 42.250071 -0.634460 2.111345 0.057161 -0.021784 794595.000000 0 0 1
29.138471 -20.182790 -22.589763 42.032046 -0.605777 2.138196 0.048653 -0.019566 -939853.000000 0 0 1
29.315921 -19.001490 -21.797263 41.177670 -0.575083 2.128627 0.047705 -0.018867 -35920.700000 0 0 1
29.498211 -17.846890 -22.527163 41.184087 -0.544100 2.149557 0.036403 -0.016403 -639612.000000 0 0 1
30.244681 -16.775290 -21.837163 40.902479 -0.506408 2.133983 0.035214 -0.023006 -801983.000000 0 0 1
29.520671 -16.469790 -20.666863 39.621247 -0.508894 2.119534 0.009799 -0.018053 229140.000000 0 0 1
30.278541 -15.846590 -19.658063 39.425169 -0.482161 2.092799 0.001139 -0.016260 -245048.000000 0 0 1
31.369301 -16.696990 -18.978363 40.286484 -0.489130 2.061317 0.023237 -0.025312 -556233.000000 0 0 1
32.406901 -17.104790 -19.791463 41.647126 -0.485650 2.066008 0.034800 -0.028169 -728217.000000 0 0 1
33.233781 -18.082790 -19.197663 42.426664 -0.498309 2.040352 0.037324 -0.025610 389121.000000 0 0 1
34.450171 -18.447890 -20.116263 43.952281 -0.491639 2.046185 0.052131 -0.030344 348704.000000 0 0 1
35.396581 -17.401690 -20.211163 44.319611 -0.456922 2.044328 0.052807 -0.036235 132252.000000 0 0 1
-36.366272 -17.819090 -21.091463 45.660437 0.455607 2.050955 0.059918 -0.036097 45391.300000 0 0 1
-35.457585 -16.719290 -21.652063 44.783779 0.440613 2.075422 0.059413 -0.031723 51344.900000 0 0 1
-34.481647 -16.168090 -20.784363 43.386413 0.438451 2.070371 0.076324 -0.034673 -25557.500000 0 0 1
-33.778802 -15.065090 -21.312963 42.687314 0.419516 2.093565 0.086224 -0.031509 -1345160.000000 0 0 1
-32.562722 -14.779590 -20.441563 41.190104 0.426076 2.090098 0.089311 -0.030365 -670858.000000 0 0 1
-31.424692 -15.577390 -20.587263 40.669420 0.460206 2.101581 0.092830 -0.038360 -60446.700000 0 0 1
-31.561872 -16.887790 -20.050363 41.028847 0.491308 2.081383 0.088242 -0.042175 -523361.000000 0 0 1
-30.294672 -17.728990 -20.325663 40.561272 0.529480 2.095677 0.078070 -0.048741 65645.700000 0 0 1
-30.345362 -18.952890 -19.637563 40.812828 0.558292 2.072776 0.072902 -0.042645 311299.000000 0 0 1
-29.201682 -19.771790 -19.835563 40.461234 0.595175 2.083157 0.065120 -0.039215 122403.000000 0 0 1
-29.468672 -21.158290 -19.272563 41.079284 0.622700 2.059130 0.050005 -0.014480 123683.000000 0 0 1
-30.422812 -21.825890 -20.086063 42.489609 0.622321 2.063181 0.055012 -0.018375 112977.000000 0 0 1
-30.803322 -23.069090 -19.607263 43.191114 0.642807 2.042007 0.035315 -0.001791 23074.300000 0 0 1
-31.867022 -23.835990 -20.439663 44.737471 0.642209 2.045281 0.016371 -0.005012 -22209.800000 0 0 1
-31.426982 -24.149590 -21.718963 45.194814 0.655195 2.072093 0.012856 -0.008095 205406.000000 0 0 1
-32.345112 -25.006490 -22.443163 46.639322 0.658131 2.072827 0.014847 -0.011257 408967.000000 0 0 1
-32.162942 -25.146460 -23.989663 47.352964 0.663573 2.102049 0.015592 -0.009260 284955.000000 0 0 1
-31.007922 -25.869690 -24.407663 47.185444 0.695304 2.114455 0.029744 -0.010272 47778.200000 0 0 1
-30.794282 -25.898130 -25.826703 47.812337 0.699248 2.141433 0.027585 -0.007236 -477216.000000 0 0 1
-29.453732 -26.396950 -26.368513 47.535458 0.730721 2.158814 0.034354 -0.008225 -145313.000000 0 0 1
-28.475952 -25.387260 -26.095103 46.220636 0.728118 2.170717 0.046039 -0.011754 -511595.000000 0 0 1
-27.171252 -25.846170 -26.346763 45.830703 0.760410 2.183243 0.045924 -0.010455 -122476.000000 0 0 1
-26.254232 -24.592790 -26.291173 44.556883 0.752734 2.201928 0.053056 -0.010045 -242914.000000 0 0 1
-26.310922 -23.892290 -27.508173 44.942249 0.737259 2.229482 0.065851 -0.016537 -403333.000000 0 0 1
-25.461492 -22.811490 -27.482863 43.862962 0.730557 2.247930 0.068097 -0.018074 -387684.000000 0 0 1
-25.556672 -22.072690 -28.812043 44.390100 0.712380 2.277151 0.061197 -0.023071 1600.040000 0 0 1
-24.928762 -22.741390 -29.889603 45.077737 0.739545 2.295706 0.064474 -0.010904 184957.000000 0 0 1
-24.956262 -22.067190 -31.111423 45.581757 0.724036 2.322030 0.059871 -0.013973 -142043.000000 0 0 1
-24.391262 -22.860790 -32.312303 46.493379 0.753020 2.339198 0.048999 -0.035127 247207.000000 0 0 1
-25.352812 -23.785290 -32.777583 47.779442 0.753509 2.326799 0.026895 -0.031414 -69738.900000 0 0 1
-24.787162 -24.487990 -33.866773 48.590363 0.779327 2.341981 0.046481 -0.004688 333775.000000 0 0 1
-19.659962 -15.116490 -11.635063 27.393376 0.655486 2.009471 0.063115 0.006943 230538.000000 0 0 1
-20.151462 -14.582390 -10.406063 26.963191 0.626416 1.967018 0.066661 -0.001452 829468.000000 0 0 1
-19.219562 -14.968890 -9.368163 26.100224 0.661702 1.937918 0.060479 -0.005877 559521.000000 0 0 1
-19.533862 -14.260190 -8.053963 25.491000 0.630593 1.892257 0.073168 -0.016545 -479288.000000 0 0 1
-20.690262 -14.729890 -7.437363 26.464523 0.618684 1.855665 0.082398 -0.009982 -219587.000000 0 0 1
-20.868362 -14.039690 -6.230963 25.911896 0.592219 1.813644 0.075623 -0.026190 40868.900000 0 0 1
-22.077662 -14.543290 -5.396963 26.982544 0.582490 1.772171 0.084405 -0.021543 -155663.000000 0 0 1
-22.112162 -15.898090 -5.081363 27.704101 0.623348 1.755256 0.067045 -0.023180 732493.000000 0 0 1
-21.067462 -16.275390 -4.167863 26.946194 0.657769 1.726093 0.073218 -0.018739 90695.500000 0 0 1
-21.044762 -17.750190 -3.687063 27.776711 0.700679 1.703929 0.050934 -0.021958 -240671.000000 0 0 1
-22.078262 -18.047890 -2.772963 28.650747 0.685291 1.667733 0.066645 -0.019787 155302.000000 0 0 1
-21.926762 -19.301890 -2.096763 29.287237 0.721818 1.642451 0.041106 -0.017257 68216.400000 0 0 1
-23.208062 -20.173190 -1.903963 30.809038 0.715554 1.632635 0.071243 -0.032970 210800.000000 0 0 1
-23.530362 -20.955690 -3.039063 31.655249 0.727587 1.666949 0.053597 -0.029798 125053.000000 0 0 1
-24.686662 -21.725690 -2.756463 33.000530 0.721687 1.654422 0.063850 -0.020916 146594.000000 0 0 1
-24.881062 -22.771290 -3.891163 33.952026 0.741153 1.685656 0.063338 -0.017914 109202.000000 0 0 1
-23.806562 -23.713590 -3.785163 33.814408 0.783442 1.682971 0.055930 -0.022469 117266.000000 0 0 1
-23.716162 -24.547390 -4.914663 34.484556 0.802619 1.713801 0.046310 -0.019632 -629311.000000 0 0 1
-22.364862 -24.459890 -5.606463 33.614070 0.830110 1.738369 0.035839 -0.011357 -413689.000000 0 0 1
-22.012562 -23.303090 -6.333963 32.675771 0.813869 1.765874 0.014112 -0.000021 173359.000000 0 0 1
-21.730762 -22.169190 -5.468263 31.521436 0.795385 1.745156 0.012864 -0.005770 -942432.000000 0 0 1
-21.492862 -20.835690 -6.181063 30.565907 0.769874 1.774421 0.024603 -0.001618 599831.000000 0 0 1
-20.174762 -20.633290 -6.701063 29.625292 0.796634 1.798965 0.005042 0.008852 447574.000000 0 0 1
-20.228262 -19.383090 -7.365763 28.967935 0.764065 1.827892 0.002165 0.006787 208671.000000 0 0 1
-18.934962 -18.960090 -8.090563 27.990624 0.786061 1.864026 0.026746 0.005391 -256209.000000 0 0 1
-18.872262 -19.782090 -9.218663 28.852679 0.808931 1.896007 0.015048 0.012021 116759.000000 0 0 1
-17.606062 -19.723890 -9.863563 28.218702 0.842070 1.927876 0.049958 0.012256 282244.000000 0 0 1
-17.258562 -18.344590 -10.632863 27.339344 0.815892 1.970257 0.049139 0.010187 -185709.000000 0 0 1
-16.895162 -17.221590 -9.847363 26.057633 0.794966 1.958331 0.064255 0.000489 -17264.200000 0 0 1
-15.565562 -17.190990 -9.380763 25.016306 0.834979 1.955178 0.057437 -0.002471 -199091.000000 0 0 1
-15.315162 -15.922390 -8.507463 23.673902 0.804835 1.938379 0.055313 -0.003736 249153.000000 0 1 0
-16.185862 -16.021990 -7.363363 23.935443 0.780310 1.883502 0.043596 -0.005188 725654.000000 0 1 0
-16.004662 -14.971190 -6.444763 22.843395 0.752047 1.856808 0.037826 -0.009765 2110.820000 0 1 0
-17.015862 -15.186090 -5.281163 23.410416 0.728637 1.798345 0.053573 -0.016939 104005.000000 0 1 0
-17.421062 -13.977490 -4.638563 22.811837 0.676162 1.775564 0.048917 -0.013409 282368.000000 0 1 0
-17.895262 -14.290090 -3.350463 23.144604 0.673850 1.716069 0.038133 -0.011114 -560898.000000 0 1 0
-18.662462 -13.187790 -2.659763 23.006078 0.615174 1.686667 0.045290 -0.010436 -618241.000000 0 1 0
-19.972762 -13.102490 -3.161663 24.095281 0.580594 1.702391 0.069915 -0.020046 -123027.000000 0 1 0
-20.696962 -12.189690 -2.390963 24.138548 0.532263 1.670011 0.074077 -0.008179 -1730470.000000 0 1 0
-22.179162 -12.262290 -2.525763 25.468774 0.505047 1.670131 0.079577 -0.007780 -1469570.000000 0 0 1
-22.576762 -11.612390 -3.709963 25.657779 0.475063 1.715899 0.090490 -0.023299 125545.000000 0 0 1
-23.974362 -11.491290 -3.819863 26.859098 0.446964 1.713499 0.094031 -0.017837 -103732.000000 0 0 1
-24.465662 -10.759190 -5.110363 27.211112 0.414312 1.759722 0.099605 -0.021090 -177941.000000 0 0 1
-24.166062 -11.532790 -6.254463 27.497675 0.445267 1.800259 0.099980 -0.026999 146749.000000 0 0 1
-24.878062 -11.081390 -7.369263 28.213848 0.419046 1.835054 0.108133 -0.022989 -481562.000000 0 0 1
-24.220462 -11.349390 -8.772563 28.149552 0.438203 1.887716 0.105037 -0.026117 278120.000000 0 0 1
-23.018262 -10.562290 -8.803863 26.812504 0.430202 1.905352 0.104485 -0.029804 53607.100000 0 0 1
-22.193362 -11.127190 -9.782163 26.684272 0.464747 1.946137 0.087137 -0.024719 -852446.000000 0 0 1
-20.777762 -10.578590 -9.639163 25.229654 0.470925 1.962817 0.101115 -0.034740 -788693.000000 0 0 1
-20.732962 -9.204490 -10.022763 24.799882 0.417815 1.986841 0.095528 -0.029108 333773.000000 0 1 0
-19.524462 -8.540790 -9.708363 23.417985 0.412360 1.998265 0.093464 -0.023743 -290561.000000 0 1 0
-19.320362 -7.239890 -10.457463 23.131168 0.358533 2.039908 0.070122 -0.030536 -109596.000000 0 1 0
-19.053762 -7.414890 -11.844363 23.628698 0.371123 2.095862 0.095627 -0.029526 361738.000000 0 1 0
-19.236862 -6.160490 -12.537163 23.773703 0.309924 2.126280 0.102240 -0.042238 -22793.700000 0 1 0
-18.547062 -6.109290 -13.955863 24.001730 0.318201 2.191309 0.118243 -0.036179 190691.000000 0 1 0
-19.174562 -7.001790 -14.846763 25.241142 0.350116 2.199624 0.109191 -0.039161 473530.000000 0 0 1
-18.630262 -6.677290 -16.119763 25.524882 0.344148 2.254323 0.101263 -0.042312 -205805.000000 0 0 1
-19.202062 -7.537290 -17.243663 26.886313 0.374046 2.267059 0.089128 -0.034471 501299.000000 0 0 1
-20.527162 -7.219390 -17.706663 28.053696 0.338188 2.253858 0.087793 -0.035278 973025.000000 0 0 1
-20.896062 -7.942290 -18.856563 29.245433 0.363222 2.271518 0.097521 -0.038928 -317092.000000 0 0 1
-22.357262 -7.675190 -19.258563 30.490129 0.330691 2.254454 0.090303 -0.037650 -638251.000000 0 0 1
-22.560262 -6.427890 -19.899663 30.761661 0.277566 2.274306 0.088465 -0.041805 574123.000000 0 0 1
-23.707462 -6.343790 -20.750063 32.138023 0.261461 2.272677 0.083767 -0.039819 897121.000000 0 0 1
-25.067972 -6.079290 -20.035263 32.661487 0.237919 2.231182 0.112318 -0.039309 29268.400000 0 0 1
-25.252522 -4.781990 -19.596363 32.319881 0.187151 2.222228 0.097729 -0.028814 161909.000000 0 0 1
-26.257562 -4.668190 -18.606363 32.518430 0.175946 2.179957 0.110483 -0.019803 -158699.000000 0 0 1
-26.376482 -3.308990 -17.931263 32.065533 0.124800 2.164225 0.093446 -0.015932 40814.000000 0 0 1
-26.720332 -2.100290 -18.610563 32.630360 0.078441 2.177722 0.099165 -0.007109 272916.000000 0 0 1
-28.020312 -2.055690 -19.168363 34.011614 0.073233 2.169513 0.106899 -0.002179 97465.200000 0 0 1
-28.178392 -0.759390 -20.071163 34.604191 0.026943 2.189551 0.097996 -0.003471 119006.000000 0 0 1
-27.411772 -0.743890 -21.260463 34.698212 0.027131 2.230300 0.097946 -0.010361 198403.000000 0 0 1
-28.075582 -1.486090 -22.269763 35.866267 0.052882 2.240701 0.089564 -0.003336 -597.899000 0 0 1
-27.379362 -1.567990 -23.674163 36.229188 0.057207 2.282937 0.081350 -0.009764 -444340.000000 0 0 1
-27.429692 -0.447190 -24.610963 36.854952 0.016302 2.302017 0.071665 -0.001364 140190.000000 0 0 1
-26.844472 0.732610 -24.109663 36.089309 -0.027284 2.302389 0.066978 -0.002227 549411.000000 0 0 1
-25.292512 0.760410 -23.899563 34.806300 -0.030056 2.327660 0.074098 -0.005175 459025.000000 0 0 1
-24.493462 0.718810 -25.093073 35.072905 -0.029339 2.368071 0.060130 -0.007078 -740732.000000 0 0 1
-23.164162 0.662410 -24.721263 33.884481 -0.028589 2.388496 0.057111 -0.006505 -746980.000000 0 0 1
-22.207162 0.027210 -25.772663 34.020419 -0.001225 2.430370 0.047649 -0.008562 26895.000000 0 0 1
-22.043962 0.989210 -26.819923 34.730722 -0.044844 2.453132 0.036964 -0.009111 -191940.000000 0 0 1
-21.230062 0.412010 -27.790993 34.974628 -0.019404 2.489152 0.027662 -0.012958 -316080.000000 0 0 1
-21.049862 1.255210 -29.096483 35.934351 -0.059560 2.514458 0.020090 -0.001610 -606950.000000 0 0 1
-20.166662 2.320510 -28.999673 35.398588 -0.114563 2.530868 0.026870 -0.000903 -39356.300000 0 0 1
-20.162262 3.176610 -30.141123 36.401854 -0.156268 2.546347 0.016137 -0.001018 -114143.000000 0 0 1
-19.614462 2.539910 -31.441123 37.144616 -0.128775 2.580082 0.014129 -0.006844 111143.000000 0 0 1
-18.211562 2.320910 -31.377463 36.353718 -0.126758 2.612203 0.017234 -0.004852 146602.000000 0 0 1
-17.671562 1.790010 -32.552683 37.083223 -0.100949 2.642104 0.012497 -0.007414 -792330.000000 0 0 1
-16.164962 1.681910 -32.466483 36.307125 -0.103674 2.677477 0.020654 -0.017801 -768116.000000 0 0 1
-15.496162 2.946210 -32.303283 35.948759 -0.187883 2.687347 0.021192 -0.012081 -620981.000000 0 0 1
-14.125862 2.747010 -32.402673 35.454467 -0.192069 2.723644 0.011469 -0.005756 -938846.000000 0 0 1
-13.434062 3.970410 -32.975713 35.827864 -0.287367 2.739881 0.032824 -0.003097 -547327.000000 0 0 1
-13.256262 5.084110 -32.109503 35.108358 -0.366224 2.725272 0.044786 -0.016763 155651.000000 0 0 1
-12.631562 6.187810 -32.725883 35.620623 -0.455510 2.735659 0.056875 -0.006204 -78975.000000 0 0 1
-12.314062 7.260810 -31.659273 34.737085 -0.532764 2.717462 0.061930 -0.014121 -3378.110000 0 0 1
-11.347162 6.939110 -30.665083 33.425389 -0.548853 2.732341 0.078883 -0.024729 350754.000000 0 0 1
-11.759362 6.014310 -29.692683 32.497845 -0.472765 2.723048 0.078279 -0.026913 6426.940000 0 0 1
-10.489362 5.293310 -29.134343 31.414261 -0.467350 2.758262 0.096994 -0.029532 790064.000000 0 0 1
-9.723262 4.447410 -30.033933 31.880376 -0.428990 2.799582 0.075025 -0.037810 617848.000000 0 0 1
-10.508962 3.390710 -30.579563 32.512226 -0.312104 2.795059 0.074532 -0.034263 -456215.000000 0 0 1
-9.889262 2.615010 -31.715623 33.324413 -0.258512 2.829599 0.066676 -0.030777 -99006.600000 0 0 1
-10.710462 1.447910 -31.842463 33.626669 -0.134372 2.814376 0.064483 -0.029215 805727.000000 0 0 1
-10.328062 0.557610 -32.886203 34.474369 -0.053937 2.836876 0.056993 -0.027784 -387908.000000 0 0 1
-10.519062 1.067310 34.092943 35.694798 -0.101118 0.300720 0.057843 -0.024420 1145160.000000 0 0 1
-11.923462 0.852910 33.741552 35.796491 -0.071410 0.340482 0.015551 -0.010190 1516090.000000 0 0 1
-12.203862 1.584510 32.574464 34.821554 -0.129114 0.361214 0.008311 0.005667 -58274.200000 0 0 1
-13.559462 1.189110 31.944901 34.723907 -0.087472 0.402796 0.003476 0.006624 450867.000000 0 0 1
-14.653362 1.980310 32.430838 35.642698 -0.134330 0.427784 0.008435 0.011891 714094.000000 0 0 1
-15.858562 1.605610 31.761911 35.537177 -0.100902 0.465125 0.009180 0.011515 461497.000000 0 0 1
-16.643462 2.877210 31.264961 35.535629 -0.171181 0.495313 0.026568 0.003234 -88558.300000 0 0 1
-17.270562 3.639610 32.285831 36.795298 -0.207701 0.500288 0.034155 -0.007372 497898.000000 0 0 1
-16.493862 4.728310 32.791206 37.009020 -0.279184 0.482079 0.025939 0.000927 -207811.000000 0 0 1
-17.221762 5.375110 33.989839 38.481035 -0.302531 0.487966 0.027581 0.000359 -16443.400000 0 0 1
-18.511062 5.780610 33.595940 38.791263 -0.302683 0.523510 0.026996 -0.001799 -316407.000000 0 0 1
-19.451862 5.234110 -33.885843 39.421075 -0.262854 2.605257 0.020112 0.001553 996090.000000 0 0 1
-20.870462 5.925110 -33.993543 40.326717 -0.276621 2.573546 0.013046 0.001894 739337.000000 0 0 1
-20.935562 7.292410 -33.540763 40.205221 -0.335183 2.557548 0.016193 -0.002354 270331.000000 0 0 1
-20.597562 8.191610 33.814182 40.432177 -0.378520 0.580263 0.005389 -0.000174 -399653.000000 0 0 1
-20.565662 9.611110 -34.037163 40.912692 -0.437178 2.553403 -0.005092 0.007709 -119874.000000 0 0 1
-19.440762 9.905610 -33.197823 39.726059 -0.471241 2.560145 -0.001424 0.005771 548310.000000 0 0 1
-19.288462 11.269710 -32.783573 39.671322 -0.528775 2.543444 -0.002209 0.009483 -273062.000000 0 0 1
-18.399462 12.097010 -33.722003 40.274698 -0.581605 2.563122 -0.010813 -0.008163 -575886.000000 0 0 1
-18.978462 12.196910 33.428265 40.328595 -0.571206 0.593663 0.007152 -0.012382 34043.500000 0 0 1
-18.051262 12.416410 32.400948 39.113127 -0.602519 0.594568 0.019780 -0.013017 51799.600000 0 0 1
-18.716462 12.074210 30.954591 38.135013 -0.572931 0.623721 0.045295 -0.016162 369760.000000 0 0 1
-19.046362 10.747310 30.554501 37.574541 -0.513734 0.621218 0.033812 -0.011776 -167172.000000 0 0 1
-17.969962 9.844610 30.551191 36.786018 -0.501181 0.590772 0.032718 -0.021421 -232068.000000 0 0 1
-18.283962 8.397610 30.918061 36.888340 -0.430551 0.576909 0.047352 -0.010715 -386513.000000 0 0 1
-18.954362 7.682410 29.936971 36.256165 -0.385076 0.599342 0.049788 -0.013166 28631.700000 0 0 1
-19.051162 6.323610 30.245631 36.300592 -0.320485 0.585928 0.054460 -0.011544 -147379.000000 0 0 1
-19.565162 5.458610 29.064161 35.458672 -0.272078 0.609974 0.057654 -0.017230 571654.000000 0 0 1
-20.979262 5.585510 28.883581 36.132930 -0.260204 0.644550 0.087090 -0.032151 501887.000000 0 0 1
-21.471162 4.780910 27.786551 35.439530 -0.219092 0.669624 0.070968 -0.027225 1060770.000000 0 0 1
-23.023962 4.905110 27.534221 36.225630 -0.209906 0.707367 0.061577 -0.019270 963523.000000 0 0 1
-23.274462 5.959110 26.637781 35.871757 -0.250652 0.733877 0.066704 -0.023358 -268419.000000 0 0 1
-24.633662 6.286910 26.575151 36.777455 -0.249882 0.763250 0.060881 -0.021397 -704155.000000 0 0 1
-25.042842 7.127710 25.322511 36.320487 -0.277288 0.799317 0.057772 -0.022836 -90767.500000 0 0 1
-25.196522 6.368110 24.111801 35.451326 -0.247554 0.822845 0.055923 -0.018544 205836.000000 0 0 1
-26.225132 5.405110 24.092531 36.019756 -0.203258 0.838109 0.050696 -0.013183 -407949.000000 0 0 1
-26.276062 4.710810 22.702331 35.043102 -0.177397 0.866051 0.052864 -0.013214 -100529.000000 0 0 1
-26.706652 5.472610 21.626431 34.797949 -0.202118 0.900159 0.060150 -0.012068 -25554.600000 0 0 1
-26.617952 4.654110 20.413031 33.865439 -0.173099 0.923830 0.055149 -0.008206 -288221.000000 0 0 1
-27.493542 5.093910 19.221931 33.931186 -0.183199 0.968547 0.101197 -0.013657 -808363.000000 0 0 1
-28.837312 4.920910 19.496831 35.155829 -0.169016 0.982934 0.110817 -0.013690 -650319.000000 0 0 1
-29.680792 5.238410 18.387831 35.305845 -0.174693 1.022990 0.114439 -0.016702 -63683.300000 0 0 1
-31.182272 5.195110 18.673231 36.715294 -0.165088 1.037244 0.111004 -0.019667 -274962.000000 0 0 1
-31.617202 6.244610 19.555831 37.697124 -0.194997 1.025394 0.112800 -0.016984 -481017.000000 0 0 1
-32.991902 6.165210 19.806531 38.971452 -0.184740 1.037666 0.113860 -0.016348 -255111.000000 0 0 1
-33.549372 7.367210 20.597731 40.051250 -0.216162 1.030623 0.114655 -0.018822 88958.600000 0 0 1
-33.246462 7.254510 22.015831 40.529643 -0.214837 0.996549 0.088817 -0.026227 87662.500000 0 0 1
-33.456472 8.457110 22.668631 41.288316 -0.247593 0.989590 0.101857 -0.019335 86124.700000 0 0 1
-1.018762 32.174910 11.433837 34.161313 -1.539144 1.229508 0.050455 -0.005331 -113911.000000 0 0 1
-1.012262 32.353210 12.853537 34.827694 -1.539519 1.192798 0.030665 -0.008347 -15229.400000 0 0 1
-0.527962 33.609310 13.201037 36.112765 -1.555089 1.196572 0.026897 -0.014178 -296212.000000 0 0 1
-0.457962 33.851510 14.725837 36.918623 -1.557269 1.160509 0.011835 -0.010803 -373609.000000 0 0 1
-1.682262 34.038510 15.385837 37.392167 -1.521414 1.146728 0.007476 0.006130 -172269.000000 0 0 1
-1.395362 -34.012022 16.761937 37.943738 1.529794 1.113239 0.002383 -0.006191 -270032.000000 0 0 1
-2.607262 -33.651322 17.603137 38.066780 1.493472 1.090065 0.000872 0.004651 -602156.000000 0 0 1
-3.306962 33.641810 18.141137 38.364153 -1.472812 1.078255 0.004466 0.006350 -97185.600000 0 0 1
-4.186962 34.135310 19.138037 39.357521 -1.448748 1.062990 0.009566 0.004591 -711648.000000 0 0 1
-5.241362 33.113610 19.475837 38.772300 -1.413814 1.044524 0.006495 0.003775 -472868.000000 0 0 1
-6.223862 33.026510 18.448137 38.338239 -1.384530 1.068780 0.008825 -0.004492 -463199.000000 0 0 1
-7.295862 32.293810 18.965237 38.154947 -1.348605 1.050591 0.018777 -0.014268 108259.000000 0 0 1
-8.432462 32.110510 17.891637 37.713418 -1.313987 1.076502 0.005402 -0.017932 -181692.000000 0 0 1
-9.206462 33.221910 17.663037 38.735476 -1.300460 1.097311 0.029790 -0.022281 -331245.000000 0 0 1
-9.917762 33.113910 16.401937 38.261163 -1.279794 1.127761 0.033962 -0.018804 228795.000000 0 0 1
-10.875162 -34.061122 16.317637 39.302601 1.261743 1.142656 0.083394 -0.027013 -706067.000000 0 0 1
-12.036962 34.104410 17.026537 39.973769 -1.231501 1.130793 0.082288 -0.027076 -800298.000000 0 0 1
-12.867062 -33.140022 17.044137 39.424928 1.200448 1.123734 0.074015 -0.031467 391156.000000 0 0 1
-14.266062 -33.399322 17.662537 40.385647 1.167118 1.118150 0.098706 -0.031331 279756.000000 0 0 1
-14.278962 -33.406422 19.064137 41.028272 1.166868 1.087547 0.094433 -0.022090 4646.250000 0 0 1
-15.615962 -33.493522 19.511237 41.789504 1.134521 1.085022 0.086985 -0.029074 307350.000000 0 0 1
-15.620862 -33.264522 21.048437 42.350637 1.131767 1.050654 0.082460 -0.040149 -94105.600000 0 0 1
-15.303962 -31.950422 21.297637 41.335579 1.124097 1.029512 0.088893 -0.033137 -9323.220000 0 0 1
-15.301862 -31.703322 22.697837 41.886029 1.121118 0.998106 0.076462 -0.026667 56763.900000 0 0 1
-14.954562 -30.239022 22.887537 40.766122 1.111522 0.974677 0.089491 -0.037188 -68884.100000 0 0 1
-15.014462 -29.805122 24.260737 41.259699 1.104150 0.942211 0.085769 -0.038591 -141205.000000 0 0 1
-14.875462 -28.400122 24.430537 40.307536 1.088305 0.919644 0.080038 -0.006221 689698.000000 0 0 1
-16.087462 -27.514422 23.932937 39.857689 1.041709 0.926720 0.072487 -0.006415 757537.000000 0 0 1
-17.296362 -27.509422 24.656737 40.790773 1.009510 0.921698 0.075907 -0.009689 599216.000000 0 0 1
-18.230262 -26.541122 24.169937 40.261141 0.968938 0.926884 0.067014 -0.007387 -720943.000000 0 0 1
-19.280662 -26.013722 25.138937 40.992973 0.932969 0.910628 0.070613 -0.013092 -747894.000000 0 0 1
-20.079362 -26.960422 25.727037 42.331142 0.930650 0.917564 0.086455 -0.015441 76748.000000 0 0 1
-20.987062 -27.710922 24.902937 42.761060 0.922603 0.949150 0.061095 -0.011863 -543580.000000 0 0 1
-22.384562 -27.087322 24.759737 42.986465 0.880173 0.956983 0.039289 -0.004122 -561862.000000 0 0 1
-22.369062 -25.859722 24.103037 41.833677 0.857649 0.956769 0.055419 -0.005903 -312245.000000 0 0 1
-23.478262 -25.690822 23.278237 41.870317 0.830367 0.981278 0.048835 -0.000133 -506508.000000 0 0 1
-24.000162 -24.247522 23.261837 41.292411 0.790525 0.972369 0.061541 0.001690 -75785.300000 0 0 1
-24.631662 -23.705122 24.402637 42.001670 0.766232 0.950849 0.058048 -0.005361 8115.820000 0 0 1
-25.118002 -22.437622 24.067237 41.395565 0.729095 0.950352 0.051165 -0.001843 165407.000000 0 0 1
-25.702892 -21.707222 25.336837 42.116475 0.701318 0.925307 0.058627 -0.002849 38326.800000 0 0 1
-26.880222 -22.312022 25.801137 43.428923 0.692800 0.934650 0.043486 0.003719 -54091.500000 0 0 1
-27.411912 -21.571622 26.877837 44.035962 0.666729 0.914280 0.034136 0.000296 -221410.000000 0 0 1
-28.547682 -22.243522 27.725737 45.590141 0.661911 0.917066 0.030761 0.002888 1035950.000000 0 0 1
-29.931142 -22.099922 27.394137 46.203015 0.636009 0.936131 0.030344 0.003783 883496.000000 0 0 1
-30.321912 -22.624722 26.184237 46.009897 0.641033 0.965385 0.027007 0.010832 -323356.000000 0 0 1
-31.886592 -22.737622 26.095837 47.061098 0.619449 0.983023 0.013194 0.013130 741809.000000 0 0 1
-32.403772 -23.036222 24.819137 46.868556 0.618012 1.012729 0.007440 0.011936 116310.000000 0 0 1
-32.062822 -24.347622 24.316937 47.033442 0.649473 1.027438 0.011141 0.010175 -568545.000000 0 0 1
-32.726482 -24.814422 23.027137 47.085318 0.648752 1.059795 0.009304 0.005754 -538373.000000 0 0 1
-34.051477 -25.241622 23.046537 48.247129 0.637896 1.072788 0.001078 0.003848 -435904.000000 0 0 1
-34.309330 -25.821122 21.777637 48.146920 0.645162 1.101436 0.009807 0.003552 187193.000000 0 0 1
-35.482819 -26.845722 21.789837 49.543115 0.647701 1.115403 0.014443 0.004476 -568583.000000 0 0 1
-35.340681 -27.944922 22.732837 50.464485 0.669063 1.103502 0.009818 0.010832 279664.000000 0 0 1
-34.286359 -28.870422 22.537837 50.169809 0.699854 1.104892 -0.002279 0.011745 -493322.000000 0 0 1
-34.568231 -30.003922 21.484037 50.564432 0.714830 1.131962 0.004691 0.008061 -260815.000000 0 0 1
-34.668435 -29.524222 20.194237 49.813525 0.705432 1.153384 0.001894 0.003646 432146.000000 0 0 1
-34.984285 -30.615022 19.319237 50.342951 0.718891 1.176940 0.012163 0.001818 -191470.000000 0 0 1
-35.465218 -30.271522 17.867537 49.933913 0.706554 1.204860 0.021920 0.004015 -537598.000000 0 0 1
-34.509240 -29.614122 17.059937 48.568769 0.709207 1.211887 0.053320 -0.011538 105150.000000 0 0 1
-34.948707 -29.207622 15.789037 48.205715 0.696150 1.237103 0.063753 -0.006406 -51044.200000 0 0 1
-35.398801 -30.282922 14.776437 48.872012 0.707666 1.263640 0.046180 -0.010087 463252.000000 0 0 1
-34.255996 -30.891122 14.183837 48.258843 0.733794 1.272480 0.040184 -0.018199 342072.000000 0 0 1
-34.589556 -31.789022 13.156137 48.785892 0.743233 1.297745 0.040992 -0.017291 128086.000000 0 0 1
-34.893987 -31.174422 11.729737 48.239213 0.729159 1.325176 0.045716 -0.018521 372937.000000 0 0 1
-36.101712 -30.421022 11.721437 48.643235 0.700210 1.327434 0.039176 -0.015163 235363.000000 0 0 1
-36.136752 -29.592222 10.592137 47.893192 0.686157 1.347791 0.030238 -0.011836 1040330.000000 0 0 1
35.218101 -28.952422 10.385937 46.759225 -0.688066 1.346813 0.064964 -0.005965 1041680.000000 0 0 1
35.313831 -27.859922 9.525337 45.977973 -0.667951 1.362113 0.080633 -0.033564 -582426.000000 0 0 1
34.247871 -27.006822 9.630637 44.665807 -0.667732 1.353474 0.080680 -0.026219 -902777.000000 0 0 1
34.270411 -25.876122 8.589637 43.792884 -0.646730 1.373374 0.068252 -0.022474 454010.000000 0 0 1
35.301531 -24.912922 8.770337 44.088214 -0.614553 1.370533 0.076345 -0.028331 326263.000000 0 0 1
35.156271 -24.108322 7.620837 43.304177 -0.601096 1.393891 0.074413 -0.029789 62883.400000 0 0 1
35.737221 -22.693922 7.712237 43.030706 -0.565774 1.390596 0.077686 -0.035706 -198666.000000 0 0 1
34.963361 -21.742022 8.443137 42.029022 -0.556332 1.368532 0.079184 -0.033314 279409.000000 0 0 1
35.460051 -20.386122 8.230437 41.722288 -0.521762 1.372227 0.087320 -0.026662 -92213.500000 0 0 1
34.628601 -19.440322 9.063537 40.733449 -0.511550 1.346410 0.094640 -0.018907 17676.800000 0 0 1
34.941211 -19.575022 10.500337 41.404430 -0.510661 1.314392 0.087499 -0.033810 289655.000000 0 0 1
34.063391 -18.731122 11.245437 40.467634 -0.502759 1.289202 0.088724 -0.021027 263210.000000 0 0 1
34.448961 -18.680722 12.757237 41.212224 -0.496891 1.256077 0.077998 -0.037224 643521.000000 0 0 1
35.722631 -18.044722 12.888937 42.045726 -0.467747 1.259234 0.036107 -0.022816 645532.000000 0 0 1
36.216251 -18.071522 14.204337 42.894754 -0.462839 1.233281 0.043142 -0.019093 181087.000000 0 0 1
-35.344644 -17.204022 14.649737 41.950412 0.452992 1.214062 0.062883 -0.026308 -389489.000000 0 0 1
-34.237922 -17.646322 13.958337 40.969051 0.475894 1.223130 0.062929 -0.023498 -944026.000000 0 0 1
-33.070392 -17.117022 14.534237 39.973583 0.477623 1.198671 0.060979 -0.022166 94212.800000 0 0 1
-31.809942 -17.084622 13.628837 38.594066 0.492873 1.209879 0.082106 -0.019516 372997.000000 0 0 1
-31.367772 -18.432322 13.338237 38.750435 0.531267 1.219400 0.067517 -0.023988 2004670.000000 0 0 1
-30.068502 -18.437822 12.621937 37.461732 0.550064 1.227143 0.044813 -0.007659 2002640.000000 0 0 1
-29.283182 -19.758822 12.348137 37.421816 0.593578 1.234523 0.039606 -0.014809 292503.000000 0 0 1
-29.932202 -20.684022 11.513137 38.161732 0.604680 1.264328 0.051061 -0.020573 -238478.000000 0 0 1
-29.014742 -21.678222 11.119037 37.887116 0.641671 1.272933 0.050824 -0.022817 -306447.000000 0 0 1
-29.539932 -22.438422 9.937437 38.403685 0.649614 1.309055 0.061828 -0.024212 418321.000000 0 0 1
-30.374952 -23.574022 10.198237 39.779093 0.659997 1.311530 0.063286 -0.023398 8922.860000 0 0 1
-31.727772 -23.249122 10.396037 40.684773 0.632382 1.312404 0.079202 -0.027995 -501155.000000 0 0 1
-32.695842 -24.444422 10.536237 42.161121 0.641983 1.318215 0.087377 -0.031528 -45481.600000 0 0 1
-33.137442 -25.162222 9.367037 42.649371 0.649445 1.349362 0.076154 -0.023102 198658.000000 0 0 1
-33.832372 -26.386422 9.635437 43.974019 0.662374 1.349887 0.078713 -0.016539 192972.000000 0 0 1
-33.829482 -27.277922 8.367437 44.255315 0.678592 1.380579 0.062098 -0.012873 69602.200000 0 0 1
-32.548552 -27.588922 7.859137 43.385745 0.703113 1.388645 0.051374 -0.014285 -330005.000000 0 0 1
-32.575502 -28.432222 6.689737 43.752796 0.717588 1.417296 0.045821 -0.002724 -350032.000000 0 0 1
-31.251072 -28.745722 5.979737 42.880104 0.743664 1.430888 0.050289 0.004974 -29590.400000 0 0 1
-30.870732 -27.603322 5.199637 41.737054 0.729578 1.445891 0.049500 0.008718 -802152.000000 0 0 1
-29.691352 -27.840122 4.502037 40.950178 0.753232 1.460634 0.046735 0.003196 -629116.000000 0 0 1
-29.127122 -26.518722 4.017837 39.595137 0.738557 1.469148 0.054150 0.000377 -34542.700000 0 0 1
-29.657962 -26.140922 2.763737 39.630553 0.722451 1.501002 0.055476 -0.000231 -206258.000000 0 0 1
-29.112412 -24.946322 2.315937 38.408529 0.708484 1.510462 0.060319 -0.014532 -147707.000000 0 0 1
-29.598712 -24.555922 0.900637 38.469315 0.692548 1.547382 0.067543 -0.010206 -153139.000000 0 0 1
-28.943762 -25.243322 -0.157763 38.405619 0.717214 1.574904 0.062432 -0.009519 -149331.000000 0 0 1
-29.071302 -24.726422 -1.528563 38.195197 0.704810 1.610827 0.064516 -0.012681 -97876.900000 0 0 1
-30.522222 -24.623222 -2.044863 39.269461 0.678832 1.622892 0.087012 -0.009951 245200.000000 0 0 1
-31.163392 -23.395122 -1.607063 39.000915 0.643965 1.612014 0.067497 -0.003566 -33633.000000 0 0 1
-32.411092 -23.246622 -2.253363 39.949493 0.622205 1.627232 0.072423 -0.006186 -116978.000000 0 0 1
-33.118532 -21.961122 -1.857263 39.781622 0.585534 1.617500 0.066089 -0.006908 -268701.000000 0 0 1
-33.423372 -21.801622 -0.473663 39.908105 0.577981 1.582665 0.070649 -0.014239 855449.000000 0 0 1
-34.384371 -20.728822 -0.278563 40.150300 0.542517 1.577734 0.064778 -0.013970 452087.000000 0 0 1
-34.584413 -20.467122 1.223737 40.205500 0.534370 1.540355 0.069005 -0.017387 -252156.000000 0 0 1
-35.089057 -21.528222 1.977837 41.214295 0.550309 1.522789 0.057120 -0.021734 190020.000000 0 0 1
-35.245605 -21.059622 3.310637 41.191269 0.538587 1.490337 0.054346 -0.022309 -799457.000000 0 0 1
36.395781 -21.879522 3.979937 42.652154 -0.541269 1.477349 0.067209 -0.012296 2135180.000000 0 0 1
35.036521 -21.732722 3.450337 41.373589 -0.555203 1.487305 0.059870 -0.010495 1503680.000000 0 0 1
34.530541 -20.419522 3.575537 40.275298 -0.534032 1.481902 0.063645 -0.023413 -1060870.000000 0 0 1
33.183841 -20.147122 2.881137 38.927815 -0.545650 1.496716 0.050830 -0.015175 -260230.000000 0 0 1
32.104051 -20.798122 3.493837 38.411442 -0.574852 1.479712 0.053428 -0.006514 -1042950.000000 0 0 1
30.937461 -20.415722 2.820937 37.173726 -0.583305 1.494838 0.051903 -0.018261 -106011.000000 0 0 1
29.788761 -21.401722 3.202937 36.819327 -0.623001 1.483696 0.047004 -0.002798 53777.200000 0 0 1
29.617661 -22.593122 2.499837 37.335027 -0.651659 1.503789 0.033200 -0.000041 -380178.000000 0 0 1
28.402151 -23.147922 2.933537 36.757504 -0.683824 1.490904 0.037365 -0.003028 -121230.000000 0 0 1
28.031341 -24.342422 2.032437 37.181184 -0.715080 1.516106 0.030648 -0.003391 -104929.000000 0 0 1
27.545401 -24.094822 0.701337 36.603298 -0.718678 1.551635 0.025694 -0.002316 207928.000000 0 0 1
27.171101 -25.281722 0.101737 37.113940 -0.749393 1.568055 0.022642 -0.005744 10515.400000 0 0 1
26.287201 -25.191922 -1.195963 36.429112 -0.764125 1.603632 0.040171 -0.016322 40726.600000 0 0 1
26.877601 -24.681522 -2.372863 36.567929 -0.742830 1.635731 0.024702 -0.020718 88611.300000 0 0 1
27.193001 -25.628622 -3.381863 37.519629 -0.755791 1.661055 0.033482 -0.022023 620209.000000 0 0 1
25.979401 -25.982522 -4.361663 37.000606 -0.785458 1.688952 0.046365 -0.027208 885759.000000 0 0 1
25.628501 -24.938322 -5.216863 36.138008 -0.771750 1.715662 0.044548 -0.033404 547237.000000 0 0 1
24.577301 -24.080822 -4.738363 34.733008 -0.775195 1.707646 0.044923 -0.036377 -271677.000000 0 0 1
24.102901 -23.155422 -5.823863 33.926992 -0.765352 1.743309 0.039922 -0.033021 -304364.000000 0 0 1
23.425001 -23.826122 -6.908463 34.119520 -0.793887 1.774684 0.037061 -0.028000 440442.000000 0 0 1
22.373701 -23.016322 -7.422763 32.945880 -0.799555 1.798049 0.039584 -0.028300 -73621.600000 0 0 1
22.675701 -21.640522 -8.094263 32.373086 -0.762043 1.823508 0.035768 -0.022405 -768880.000000 0 0 1
23.219101 -21.656522 -9.359863 33.101943 -0.750592 1.857465 0.042258 -0.023584 -59488.500000 0 0 1
22.922401 -20.506622 -10.013263 32.345378 -0.729830 1.885541 0.036927 -0.020685 -122870.000000 0 0 1
23.678101 -20.343122 -11.362463 33.220486 -0.709784 1.919875 0.035393 -0.014122 1821620.000000 0 0 1
25.136601 -20.243722 -11.302463 34.196530 -0.677994 1.907645 0.057807 -0.017445 1633980.000000 0 0 1
25.610001 -19.803122 -12.563563 34.725767 -0.658220 1.940988 0.058804 -0.026395 -468699.000000 0 0 1
27.117401 -19.541922 -12.698663 35.756065 -0.624445 1.933868 0.049908 -0.012406 578568.000000 0 0 1
28.013371 -20.653922 -12.990563 37.149538 -0.635316 1.928029 0.037406 -0.009934 854129.000000 0 0 1
28.254281 -21.458822 -11.852363 37.406737 -0.649547 1.893204 0.065428 -0.017955 -528879.000000 0 0 1
28.440211 -22.978022 -12.226963 38.552999 -0.679564 1.893516 0.059496 -0.003609 302393.000000 0 0 1
29.626961 -23.165122 -12.995163 39.790124 -0.663602 1.903493 0.053521 -0.015557 562128.000000 0 0 1
29.758761 -24.578022 -13.341563 40.836997 -0.690341 1.903609 0.048263 -0.011472 -182682.000000 0 0 1
-3.625662 -8.918490 -27.864853 29.481094 1.184671 2.808933 0.018403 -0.004089 197946.000000 0 0 1
-3.642862 -7.657890 -27.303703 28.590312 1.126777 2.840451 0.016043 -0.001066 -264959.000000 0 0 1
-4.758162 -6.911590 -27.716263 28.958616 0.967876 2.847616 0.018605 -0.007547 -225163.000000 0 0 1
-4.874762 -5.446690 -27.109273 28.077436 0.840753 2.878223 0.013554 -0.011370 -109828.000000 0 0 1
-5.413662 -5.384290 -25.803363 26.909327 0.782678 2.853897 0.015035 -0.008961 267101.000000 0 0 1
-5.125062 -4.118490 -25.200343 26.043915 0.676931 2.886380 0.019757 -0.014136 217542.000000 0 0 1
-5.504162 -4.134590 -23.662563 24.643610 0.644253 2.858480 0.017842 -0.014839 127072.000000 0 1 0
-4.631262 -4.954390 -22.898863 23.882054 0.819095 2.853654 0.004623 -0.017510 649197.000000 0 1 0
-5.160062 -4.993990 -21.590263 22.753146 0.769044 2.820501 0.005468 -0.012210 -47201.800000 0 1 0
-4.613162 -6.179190 -20.777063 22.161904 0.929498 2.786207 0.008972 -0.007800 -428468.000000 0 1 0
-5.204662 -7.465690 -21.008763 22.895265 0.961990 2.732804 0.006969 -0.003856 133637.000000 0 1 0
-4.433862 -8.474190 -20.436363 22.563598 1.088746 2.703878 0.010458 -0.006350 -1144610.000000 0 1 0
-5.197762 -9.840790 -20.459863 23.290854 1.084855 2.643406 0.016400 0.000290 136107.000000 0 1 0
-6.222562 -9.903890 -19.495963 22.735432 1.009831 2.601215 0.019809 -0.004623 129304.000000 0 1 0
-7.403662 -9.207190 -19.868363 23.115761 0.893550 2.605118 0.017050 -0.008013 -1055680.000000 0 1 0
-8.526362 -9.281790 -18.819663 22.650170 0.827793 2.551491 0.016877 -0.000455 -352922.000000 0 1 0
-9.132962 -10.561390 -18.822263 23.435689 0.857801 2.503352 0.030817 -0.003647 161826.000000 0 1 0
-9.956162 -10.716290 -17.681263 22.947573 0.822152 2.450432 0.033908 -0.002980 -186207.000000 0 1 0
-10.746562 -12.026690 -17.658663 23.915649 0.841551 2.401451 0.017677 0.002263 84787.000000 0 1 0
-11.798362 -12.091290 -18.617863 25.140117 0.797659 2.404705 0.036737 -0.007412 288730.000000 0 0 1
-11.366862 -12.520690 -19.888863 26.106323 0.833663 2.436947 0.041960 -0.011206 -659241.000000 0 0 1
-12.529962 -12.384090 -20.893163 27.329286 0.779543 2.441057 0.037132 -0.013101 1202160.000000 0 0 1
-13.651662 -13.306490 -20.910363 28.296181 0.772595 2.402354 0.026654 -0.002314 804261.000000 0 0 1
-14.503562 -13.145190 -19.762363 27.815469 0.736308 2.360978 0.021823 0.001115 68641.900000 0 0 1
-15.794162 -14.029590 -19.845363 28.984882 0.726300 2.324961 0.025549 0.007734 607361.000000 0 0 1
-15.458962 -15.422090 -19.915963 29.554457 0.784204 2.310235 0.019914 0.008684 -161520.000000 0 0 1
-16.105362 -16.046290 -20.989863 30.942535 0.783561 2.316311 0.029913 0.007584 -94634.800000 0 0 1
-15.609662 -17.438390 -21.294963 31.642289 0.840677 2.309041 0.011228 0.012820 -358268.000000 0 0 1
-15.891662 -18.427790 -20.262863 31.665628 0.859162 2.265166 0.013978 0.016074 202242.000000 0 0 1
-15.604762 -19.727890 -20.825763 32.655944 0.901567 2.262347 0.011649 0.012793 -459971.000000 0 0 1
-16.371762 -20.929690 -20.275663 33.424378 0.906987 2.222590 0.017853 0.005653 -324863.000000 0 0 1
-15.913662 -22.131590 -20.798063 34.287189 0.947401 2.222553 0.021300 0.005185 133943.000000 0 0 1
-16.674862 -23.301790 -20.426563 35.189045 0.949674 2.190115 0.043070 0.001400 64069.000000 0 0 1
-16.026662 -24.664890 -20.776463 36.012111 0.994578 2.185761 0.059682 -0.002522 -102045.000000 0 0 1
-16.251662 -25.116230 -22.078363 37.180582 0.996492 2.206588 0.041762 -0.001771 -111742.000000 0 0 1
-15.598762 -26.341330 -22.306563 37.878355 1.036148 2.200493 0.050342 -0.001207 -207086.000000 0 0 1
-15.839862 -27.021410 -23.656963 39.251876 1.040588 2.217672 0.047178 0.002110 -620236.000000 0 0 1
-17.138362 -27.477840 -23.872163 40.232267 1.013121 2.206021 0.059988 -0.003676 -723586.000000 0 0 1
-17.145962 -28.880660 -23.752163 41.136867 1.035035 2.186329 0.064225 -0.000485 -139672.000000 0 0 1
-18.115262 -29.638050 -24.694363 42.619107 1.022170 2.188813 0.074255 -0.012641 -205198.000000 0 0 1
-17.973062 -29.500020 -26.113693 43.303662 1.023599 2.218099 0.056667 -0.006432 -22733.600000 0 0 1
-18.171562 -28.190830 -26.631853 42.827376 0.998233 2.241889 0.067353 -0.010951 -16675.200000 0 0 1
-17.114462 -27.806480 -27.703713 42.820566 1.019069 2.274403 0.066715 -0.011480 57193.800000 0 0 1
-17.210862 -28.401780 -28.967563 44.068068 1.025993 2.288076 0.063126 -0.005709 812557.000000 0 0 1
-15.983562 -28.120270 -29.682553 43.900772 1.053936 2.313291 0.044502 -0.003460 822570.000000 0 0 1
-16.047762 -28.345390 -31.224453 45.121594 1.055638 2.335062 0.055233 -0.004445 -155198.000000 0 0 1
-16.165162 -29.641900 -31.662053 46.286502 1.071531 2.324090 0.038666 -0.009460 94045.700000 0 0 1
-16.730962 -29.741210 -32.928993 47.421337 1.058368 2.338371 0.043920 -0.008255 -361502.000000 0 0 1
-16.723362 -31.206040 -33.398753 48.672009 1.078842 2.327049 0.040240 -0.006929 -516631.000000 0 0 1
-15.462562 -31.607670 -33.850633 48.826233 1.115824 2.336838 0.047853 -0.010731 -472320.000000 0 0 1
-15.560662 -32.765640 33.758694 49.551698 1.127423 0.821283 0.048557 -0.010134 360117.000000 0 0 1
-14.229562 -33.173580 33.050612 48.941902 1.165591 0.829421 0.042636 -0.013921 66528.800000 0 0 1
-13.384962 -33.879940 33.880725 49.748478 1.194547 0.821614 0.038156 -0.009355 -826164.000000 0 0 1
-12.301362 34.041541 33.144592 49.078651 -1.224034 0.829376 0.043425 -0.007428 -282436.000000 0 0 1
-11.313962 33.124124 33.908335 48.733854 -1.241658 0.801283 0.038844 -0.006824 -152932.000000 0 0 1
-10.500162 33.781775 -33.602113 48.791021 -1.269440 2.330483 0.034126 -0.004876 -272247.000000 0 0 1
-9.896562 32.968494 -32.585963 47.399457 -1.279172 2.328803 0.035339 -0.011016 474574.000000 0 0 1
-9.135062 33.932729 -31.584003 47.248584 -1.307820 2.302939 0.021857 -0.008328 545856.000000 0 0 1
-10.004862 -33.741110 -30.697273 46.699918 1.282537 2.288067 0.030526 -0.010244 74392.100000 0 0 1
-9.384362 -32.602610 -30.173843 45.403273 1.290532 2.297720 0.034131 -0.006989 -309625.000000 0 0 1
-10.215562 -31.857990 -29.117653 44.352305 1.260495 2.286977 0.044679 -0.002918 39123.900000 0 0 1
-10.318162 -32.317740 -27.751453 43.829715 1.261754 2.256432 0.080204 -0.007782 -73132.700000 0 0 1
-10.906262 -33.587750 -27.497803 44.757264 1.256827 2.232392 0.078507 -0.012919 43307.100000 0 0 1
-11.183562 -33.790060 -25.952803 44.049838 1.251173 2.200826 0.088717 -0.014169 567843.000000 0 0 1
-9.998062 -34.064567 -25.208123 43.540848 1.285310 2.188241 0.093909 -0.024466 -3180.660000 0 0 1
-10.284562 -34.124599 -23.831063 42.874002 1.278072 2.160169 0.104348 -0.036099 -710403.000000 0 0 1
-9.095662 34.112251 -22.954263 42.110271 -1.310220 2.147303 0.118470 -0.037637 -527103.000000 0 0 1
-8.368162 32.866419 -22.942763 40.946282 -1.321482 2.165561 0.095738 -0.035138 418471.000000 0 0 1
-7.444662 32.953719 -21.835163 40.226172 -1.348613 2.144575 0.109610 -0.032957 272155.000000 0 0 1
-6.567862 31.696322 -21.667263 38.952072 -1.366476 2.160668 0.100055 -0.038003 584809.000000 0 0 1
-5.459562 31.620402 -22.580163 39.236722 -1.399823 2.183994 0.067934 -0.041516 874571.000000 0 0 1
-4.472162 30.649632 -22.222263 38.121242 -1.425906 2.193134 0.052826 -0.026294 125498.000000 0 0 1
-3.126362 30.857412 -22.923763 38.567511 -1.469824 2.207291 0.053364 -0.037688 -392809.000000 0 0 1
-3.254162 30.987642 -24.354263 39.546854 -1.466165 2.234239 0.057934 -0.036064 -154650.000000 0 0 1
-2.217262 31.788712 -24.874263 40.424836 -1.501159 2.233590 0.040334 -0.038901 -46737.800000 0 0 1
-2.499062 32.132802 -26.369633 41.642764 -1.493180 2.256522 0.050500 -0.024645 -789465.000000 0 0 1
-1.660862 33.001524 -27.008233 42.676735 -1.520512 2.256033 0.054811 -0.030152 -852154.000000 0 0 1
-1.913562 -34.032580 -26.748053 43.328242 1.514628 2.236147 0.052976 -0.020125 -289873.000000 0 0 1
-0.712562 -33.146080 -27.095923 42.817747 1.549302 2.255986 0.008443 -0.007104 -109566.000000 0 0 1
0.294638 -33.092060 -26.106453 42.151135 -1.561893 2.238715 0.036981 -0.010283 -288369.000000 0 0 1
1.290838 -32.192110 -26.541673 41.742767 -1.530720 2.259891 0.025585 -0.001060 170595.000000 0 0 1
2.459738 -32.053830 -25.508973 41.039079 -1.494209 2.241551 0.026732 -0.005169 -351238.000000 0 0 1
2.207738 -31.494210 -24.246863 39.807911 -1.500811 2.225717 0.016097 -0.003401 -578866.000000 0 0 1
3.371838 -30.957030 -23.712863 39.140859 -1.462304 2.221610 0.017641 -0.000258 -678711.000000 0 0 1
3.331638 -30.130800 -22.376563 37.678581 -1.460671 2.206669 0.024144 -0.010940 -264056.000000 0 0 1
3.094838 -30.898160 -21.227563 37.614941 -1.470967 2.170428 0.038740 -0.011117 347108.000000 0 0 1
3.270338 -30.063100 -20.068463 36.293640 -1.462440 2.156693 0.047932 -0.017260 -709939.000000 0 0 1
3.448138 -30.855040 -18.722363 36.255345 -1.459505 2.113441 0.045767 -0.015202 -779021.000000 0 0 1
2.371438 -31.627480 -18.281163 36.607679 -1.495956 2.093680 0.049145 -0.019829 -262855.000000 0 0 1
2.051938 -32.782010 -19.039263 37.965302 -1.508284 2.096118 0.045327 -0.014315 -304179.000000 0 0 1
2.662038 -34.129009 -18.566463 38.943411 -1.492955 2.067756 0.041868 -0.023020 829100.000000 0 0 1
4.095438 -34.135078 -18.643263 39.109429 -1.451390 2.067687 0.045636 -0.025805 651527.000000 0 0 1
4.671038 33.222105 -17.838263 37.996453 1.431112 2.059489 0.047686 -0.038428 224725.000000 0 0 1
5.837538 32.482241 -18.508663 37.838385 1.392980 2.081912 0.049789 -0.025820 436545.000000 0 0 1
7.016438 33.269591 -18.642963 38.777006 1.362946 2.072333 0.075126 -0.031094 234241.000000 0 0 1
8.090338 32.504538 -19.172363 38.595052 1.326854 2.090654 0.048127 -0.037122 1077790.000000 0 0 1
9.462238 33.250326 -19.422263 39.652773 1.293550 2.082666 0.026767 -0.035198 819854.000000 0 0 1
10.225338 33.293086 -18.249663 39.319681 1.272810 2.053455 0.018084 -0.030176 -469920.000000 0 0 1
11.466638 33.922856 -18.392563 40.255811 1.244833 2.045295 0.023842 -0.019150 -135825.000000 0 0 1
12.311138 33.944459 -17.102763 39.953659 1.222866 2.013147 0.006263 -0.012648 -189250.000000 0 0 1
12.814138 32.651714 -16.776963 38.881911 1.196816 2.016935 0.004186 -0.014602 -8000.330000 0 0 1
13.672238 32.821243 -15.643263 38.844250 1.176090 1.985280 0.001761 -0.017436 717942.000000 0 0 1
14.749338 31.686382 -15.467963 38.220775 1.135145 1.987448 0.013065 -0.009794 733357.000000 0 0 1
14.330538 30.466162 -14.755463 36.759693 1.131128 1.983845 0.041409 -0.019443 -1169570.000000 0 0 1
15.404538 29.659192 -14.548263 36.450232 1.091761 1.981361 0.039356 -0.003801 -1068360.000000 0 0 1
15.219038 28.452682 -13.693463 35.052605 1.079628 1.972139 0.054922 -0.020683 -640685.000000 0 0 1
15.159238 28.749022 -12.289963 34.746970 1.085551 1.932319 0.055065 -0.029741 449698.000000 0 0 1
13.876938 28.630082 -11.647463 33.880885 1.119465 1.921732 0.075006 -0.031460 654838.000000 0 0 1
13.260938 27.238512 -11.576663 32.431591 1.117728 1.935804 0.067098 -0.033169 -793254.000000 0 0 1
12.460338 26.865322 -12.689463 32.218442 1.136520 1.975620 0.049640 -0.027326 380448.000000 0 0 1
11.722738 25.627262 -12.570163 30.857546 1.141779 1.990359 0.064843 -0.029543 614476.000000 0 0 1
10.717038 25.478642 -11.383063 29.892979 1.172634 1.961451 0.059244 -0.026209 -634830.000000 0 0 1
9.614938 26.343852 -11.527263 30.320345 1.220840 1.960790 0.054259 -0.026190 87484.500000 0 0 1
9.008638 26.642472 -10.260863 29.937638 1.244734 1.920630 0.038357 -0.015983 -417861.000000 0 0 1
8.000238 27.731312 -10.249763 30.628208 1.289931 1.912031 0.053279 -0.015710 -639542.000000 0 0 1
8.580438 28.906752 -10.728863 32.005198 1.282249 1.912638 0.059744 -0.023539 -93374.000000 0 0 1
7.721938 30.014632 -10.521163 32.729212 1.318985 1.898068 0.041351 -0.018333 27181.000000 0 0 1
8.337238 31.360552 -10.937763 34.243662 1.310955 1.895903 0.063461 -0.029161 -67486.500000 0 0 1
9.376638 31.759492 -10.062063 34.609706 1.283713 1.865786 0.048339 -0.025461 -304909.000000 0 0 1
9.771638 33.086143 -10.199763 35.975171 1.283621 1.858261 0.061178 -0.025112 -142904.000000 0 0 1
10.937838 33.258756 -11.173363 36.750853 1.253067 1.879716 0.060924 -0.022966 -1101470.000000 0 0 1
12.206438 32.932654 -10.706063 36.717524 1.215846 1.866674 0.055905 -0.019355 -884174.000000 0 0 1
13.085338 33.046592 -11.788363 37.446880 1.193772 1.891045 0.064436 -0.017118 575530.000000 0 0 1
14.608638 32.982507 -11.412963 37.835351 1.153845 1.877217 0.059431 -0.018505 821082.000000 0 0 1
15.035038 34.051928 -10.561263 38.692718 1.155006 1.847257 0.065419 -0.013303 -42464.500000 0 0 1
16.430838 33.919947 -10.381363 39.093579 1.119706 1.839572 0.051509 -0.018459 -53777.100000 0 0 1
17.048538 -33.623790 -9.286563 38.825921 -1.101534 1.812322 0.067556 -0.019374 -55855.300000 0 0 1
16.725438 -34.076115 -7.997963 38.792903 -1.114515 1.778456 0.061255 -0.024212 -30997.700000 0 0 1
17.200938 -33.222120 -7.018763 38.063691 -1.093045 1.756253 0.059003 -0.022583 -1186770.000000 0 0 1
17.467238 -33.929350 -5.642663 38.576481 -1.095369 1.717595 0.072933 -0.022275 560260.000000 0 0 1
18.465538 33.457308 -5.820963 38.655545 1.066485 1.721957 0.068780 -0.030348 1513200.000000 0 0 1
19.817138 33.939797 -6.067063 39.767298 1.042306 1.723959 0.073130 -0.026325 27674.100000 0 0 1
20.743738 33.024994 -6.878863 39.601409 1.009955 1.745384 0.049837 -0.021204 162775.000000 0 0 1
21.159738 31.809012 -6.271063 38.715294 0.983801 1.733492 0.052191 -0.010362 699922.000000 0 0 1
22.165938 31.927312 -5.221563 39.216664 0.963931 1.704339 0.045327 -0.003379 50764.000000 0 0 1
22.555138 30.632772 -4.597263 38.317565 0.936116 1.691064 0.022680 0.003403 -99530.900000 0 0 1
23.155538 29.795872 -5.600263 38.148864 0.910151 1.718129 0.016622 0.002476 4546.760000 0 0 1
23.554538 28.613502 -5.068363 37.406377 0.882070 1.706709 0.014194 0.009835 -324656.000000 0 0 1
24.332538 27.642422 -6.014663 37.314234 0.848995 1.732692 0.012738 0.013620 37037.500000 0 0 1
25.628638 28.160642 -6.302563 38.594962 0.832436 1.734831 0.031393 0.009881 282028.000000 0 0 1
26.489438 27.165592 -6.831963 38.553021 0.797999 1.748947 0.017097 0.012006 427842.000000 0 0 1
27.314138 26.381932 -5.742663 38.406336 0.768039 1.720883 0.023652 0.013620 -300156.000000 0 0 1
28.420638 27.031562 -5.161763 39.561115 0.760353 1.701645 0.037489 0.007152 -118660.000000 0 0 1
29.080838 26.169412 -4.291063 39.356657 0.732752 1.680044 0.046607 0.009047 -451078.000000 0 0 1
30.396738 26.678512 -3.705263 40.613220 0.720344 1.662156 0.059365 0.004613 -353128.000000 0 0 1
30.371038 27.683392 -2.700263 41.183268 0.739136 1.636410 0.072022 -0.007833 460363.000000 0 0 1
31.683538 27.777212 -2.134763 42.189777 0.719797 1.621417 0.102185 -0.024512 492499.000000 0 0 1
31.790438 28.749632 -0.946463 42.872708 0.735212 1.592874 0.083581 -0.021338 -86757.500000 0 0 1
31.872038 30.103982 -1.316663 43.861260 0.756878 1.600820 0.053301 -0.001659 -414538.000000 0 0 1
30.686438 30.854372 -1.318163 43.536046 0.788127 1.601078 0.071253 -0.012263 -171649.000000 0 0 1
33.392011 22.705710 19.515131 44.848813 0.597159 1.120612 0.108530 -0.043637 135781.000000 0 0 1
33.693281 22.752510 20.893831 45.710678 0.593944 1.096077 0.081123 -0.046342 -251422.000000 0 0 1
34.581851 23.737610 21.323131 47.053740 0.601552 1.100483 0.075283 -0.035919 -282822.000000 0 0 1
34.480541 23.927010 22.846731 47.784753 0.606639 1.072286 0.048589 -0.016805 323745.000000 0 0 1
33.188221 24.360010 23.250931 47.280798 0.633179 1.056683 0.023831 -0.008513 217903.000000 0 0 1
32.959021 24.350510 24.645801 47.819033 0.636302 1.029325 0.008772 -0.002982 -283221.000000 0 0 1
31.595501 24.953810 24.992551 47.387719 0.668484 1.015252 0.017475 -0.013624 -305655.000000 0 0 1
31.621661 26.410110 24.923351 48.151810 0.695833 1.026753 0.012687 -0.020050 953500.000000 0 0 1
30.379061 26.939610 25.428781 47.908797 0.725464 1.011282 0.020383 -0.022969 761351.000000 0 0 1
30.319721 28.486510 25.512821 48.802364 0.754234 1.020689 0.018493 -0.013670 -71131.700000 0 0 1
30.405871 29.144510 24.262751 48.606590 0.764220 1.048160 0.031170 -0.026819 213123.000000 0 0 1
30.177021 30.538910 24.332851 49.349420 0.791358 1.055178 0.046937 -0.024365 -141751.000000 0 0 1
30.644431 31.152010 23.010331 49.386276 0.793612 1.086116 0.048887 -0.020634 1234120.000000 0 0 1
32.078961 31.297110 22.876831 50.318170 0.773062 1.098824 0.016874 -0.018241 988470.000000 0 0 1
32.398171 31.849710 21.611931 50.310248 0.776862 1.126776 0.025876 -0.011662 -267215.000000 0 0 1
33.858141 32.290810 21.515331 51.497375 0.761709 1.139780 0.003764 -0.026831 -288786.000000 0 0 1
34.173281 33.444410 22.277731 52.750725 0.774619 1.134792 0.019146 -0.005086 1074120.000000 0 0 1
35.583891 33.749010 22.298531 53.874237 0.758940 1.144063 0.006298 -0.005967 917346.000000 0 0 1
35.905311 -33.467722 23.170531 54.278479 -0.750275 1.129754 0.006628 -0.001203 -259260.000000 0 0 1
35.375401 -32.218922 22.676231 52.949876 -0.738735 1.128232 0.001145 0.003998 560938.000000 0 0 1
35.610671 -31.246022 23.727611 52.985218 -0.720207 1.106475 0.012628 0.003471 -498048.000000 0 0 1
34.578601 -30.079622 23.589161 51.545241 -0.715929 1.095457 0.011641 -0.004073 590869.000000 0 0 1
33.264251 -30.468522 23.974961 51.084636 -0.741560 1.082278 0.018836 -0.000577 564999.000000 0 0 1
32.425221 -30.794922 22.867231 50.225815 -0.759616 1.098100 0.032305 0.001165 -230212.000000 0 0 1
31.715691 -32.149822 23.005931 50.683025 -0.792196 1.099639 0.034961 0.001221 -436264.000000 0 0 1
30.718981 -32.153322 23.978591 50.521924 -0.808208 1.076267 0.062445 -0.004848 -436667.000000 0 0 1
30.228731 -33.436922 24.062111 51.095882 -0.835747 1.080462 0.058872 -0.008749 102588.000000 0 0 1
29.328961 -33.632822 25.347531 51.321068 -0.853649 1.054226 0.053046 -0.009480 334238.000000 0 0 1
28.972241 33.407010 25.563141 51.077326 0.856372 1.046644 0.065821 -0.015685 -478007.000000 0 0 1
28.020291 33.351010 26.558271 51.017334 0.872041 1.023274 0.062582 -0.010148 -1256030.000000 0 0 1
27.427301 31.960210 26.747641 49.891364 0.861578 1.004965 0.062138 -0.010915 22778.000000 0 0 1
26.651501 31.418110 25.730891 48.574468 0.867299 1.012525 0.073853 -0.018865 134982.000000 0 0 1
25.376501 32.043910 25.598881 48.229469 0.900996 1.011284 0.069070 -0.018058 -141990.000000 0 0 1
24.587801 31.732210 24.302301 46.926484 0.911578 1.026425 0.121917 -0.027935 266132.000000 0 0 1
25.040801 32.498110 23.140331 47.102482 0.914284 1.057242 0.136776 -0.035890 1476020.000000 0 0 1
26.403301 32.440210 22.642231 47.562298 0.887633 1.074634 0.112205 -0.026122 1056660.000000 0 0 1
26.630301 33.121010 21.227031 47.505379 0.893603 1.107573 0.122568 -0.032854 420905.000000 0 0 1
28.002481 33.022210 20.856731 48.058387 0.867471 1.121882 0.116954 -0.031104 400104.000000 0 0 1
28.317641 33.872610 19.775531 48.376793 0.874484 1.149678 0.102026 -0.030112 685199.000000 0 0 1
29.842711 34.063210 19.473931 49.296285 0.851345 1.164687 0.097632 -0.033602 733045.000000 0 0 1
30.436301 33.068010 18.633631 48.652584 0.826816 1.177761 0.095316 -0.038172 597807.000000 0 0 1
31.578261 33.628510 17.938431 49.495965 0.816830 1.199931 0.074993 -0.027267 458715.000000 0 0 1
32.489101 32.517010 17.366431 49.137466 0.785827 1.209566 0.049476 -0.034497 -270625.000000 0 0 1
33.185711 31.783110 18.385631 49.492312 0.763813 1.190189 0.024771 -0.030135 114909.000000 0 0 1
33.935011 30.756110 17.769531 49.125141 0.736298 1.200684 0.032577 -0.038724 -411186.000000 0 0 1
34.890591 30.006210 18.669331 49.661554 0.710276 1.185395 0.026932 -0.042399 14543.100000 0 0 1
35.975821 30.873210 19.001531 51.073212 0.709216 1.189585 0.034523 -0.034125 393585.000000 0 0 1
-35.788483 30.272510 19.755731 50.867763 -0.702093 1.171930 0.046228 -0.031909 340005.000000 0 0 1
-34.781363 31.217610 20.452931 51.015730 -0.731453 1.158282 0.046197 -0.025006 220904.000000 0 0 1
-34.002372 31.946710 19.502831 50.567915 -0.754238 1.174856 0.051047 -0.025218 816154.000000 0 0 1
-32.780392 32.526710 20.000131 50.324409 -0.781514 1.162088 0.051593 -0.006813 861155.000000 0 0 1
-32.922382 33.812910 20.799931 51.573571 -0.798742 1.155669 0.031216 -0.001535 -337446.000000 0 0 1
-33.117832 33.615010 22.177331 52.140135 -0.792848 1.131458 0.039049 0.000529 188476.000000 0 0 1
-33.045142 -33.465222 22.767031 52.251700 0.791714 1.119960 0.030786 0.004105 -118068.000000 0 0 1
-32.999862 -33.532322 24.348071 52.973919 0.793401 1.093225 0.034098 -0.003147 908762.000000 0 0 1
-34.258509 -33.994022 24.919181 54.315786 0.781523 1.094171 0.025564 -0.002148 862136.000000 0 0 1
-34.091134 33.670210 26.102941 54.564200 -0.779186 1.071976 0.040951 -0.006344 478245.000000 0 0 1
-35.416342 33.478110 26.910191 55.670993 -0.757272 1.066286 0.032652 -0.015739 633170.000000 0 0 1
-35.324967 32.859310 28.211791 55.888216 -0.749252 1.041658 0.053280 -0.025648 162423.000000 0 0 1
36.174121 32.944510 28.828571 56.789033 0.738706 1.038349 0.052358 -0.031762 689528.000000 0 0 1
35.910911 31.893510 29.962461 56.608644 0.726218 1.013031 0.056862 -0.024143 -237602.000000 0 0 1
35.791991 30.528210 29.545741 55.551679 0.706195 1.010000 0.040956 -0.022483 -19803.000000 0 0 1
-35.936501 29.916310 28.838891 54.937231 -0.694233 1.018149 0.044874 -0.019275 -301128.000000 0 0 1
-36.266202 28.454610 28.445991 54.167118 -0.665282 1.017902 0.049739 -0.019652 -489277.000000 0 0 1
35.400211 28.402210 27.603841 53.120924 0.676152 1.024365 0.026021 -0.007895 -172534.000000 0 0 1
35.104751 27.107510 27.137741 51.996323 0.657552 1.021700 0.034238 -0.018678 19601.500000 0 0 1
34.620191 25.954610 28.009721 51.543611 0.643306 0.996293 0.019441 -0.017355 -271439.000000 0 0 1
35.676051 25.272010 28.704301 52.300975 0.616324 0.989833 0.029348 -0.011564 516512.000000 0 0 1
35.240061 23.980110 29.020981 51.566704 0.597504 0.973045 0.038391 -0.007653 221036.000000 0 0 1
35.832891 22.977710 27.981971 50.940769 0.570197 0.989265 0.010038 0.003124 153074.000000 0 0 1
35.097701 22.941910 26.738281 49.730429 0.578943 1.003132 0.016067 -0.000096 189419.000000 0 0 1
35.493761 21.937610 25.791271 49.053598 0.553600 1.017168 0.023951 -0.009178 -394142.000000 0 0 1
35.136351 20.504010 26.367331 48.479003 0.528240 0.995728 0.014803 0.001337 491736.000000 0 0 1
33.737591 20.164910 26.295461 47.289533 0.538726 0.981168 0.014731 0.010133 1036470.000000 0 0 1
33.515941 18.963810 27.037721 47.052978 0.514904 0.958653 0.029382 0.013730 -113868.000000 0 0 1
33.487091 19.089510 28.595501 47.994764 0.518111 0.932529 0.013486 0.009637 -60889.400000 0 0 1
32.375331 19.779010 29.157031 47.848759 0.548416 0.915545 0.014130 0.006020 444806.000000 0 0 1
32.549061 21.190110 29.108221 48.536076 0.577092 0.927641 0.006085 0.008261 -420579.000000 0 0 1
31.483101 22.012810 29.901781 48.681269 0.610185 0.909379 0.015593 -0.004274 1026220.000000 0 0 1
30.132451 21.961710 29.401421 47.483943 0.629820 0.903090 0.031640 -0.014980 892041.000000 0 0 1
29.844421 22.765510 28.228611 46.966077 0.651647 0.925991 0.030015 -0.015564 -339572.000000 0 0 1
29.978751 24.335010 28.302321 47.874206 0.681860 0.938274 0.041524 -0.009113 171572.000000 0 0 1
31.272241 24.943410 28.281181 48.989305 0.673289 0.955387 0.038267 -0.013611 328475.000000 0 0 1
31.292281 26.111410 29.160411 50.113293 0.695389 0.949746 0.030939 -0.010606 -283594.000000 0 0 1
31.450051 25.859510 30.675281 50.978357 0.688156 0.925129 0.023093 -0.013689 167486.000000 0 0 1
32.731951 25.350810 31.017151 51.731111 0.658996 0.927815 -0.005086 -0.003657 -26438.100000 0 0 1
32.992851 25.234710 32.394146 52.675417 0.652940 0.908440 0.016791 -0.002815 -210296.000000 0 0 1
32.403951 24.097410 33.232302 52.298060 0.639429 0.882218 0.021170 -0.003111 -251369.000000 0 0 1
32.772101 24.085710 -33.841333 52.909053 0.633796 2.264791 0.035331 -0.019233 201939.000000 0 0 1
32.206191 22.953510 -33.164843 51.614040 0.619202 2.268624 0.037607 -0.024438 -77549.700000 0 0 1
32.813981 22.739610 -31.786263 51.031497 0.606003 2.243209 0.043275 -0.032118 -492073.000000 0 0 1
32.210561 23.552610 -30.806043 50.410891 0.631365 2.228245 0.031721 -0.031848 165979.000000 0 0 1
32.639411 23.292010 -29.480353 49.768867 0.619806 2.204763 0.076816 -0.039385 -459783.000000 0 0 1
34.067491 23.725710 -29.122043 50.710913 0.608328 2.182515 0.071684 -0.014470 -394728.000000 0 0 1
34.594381 22.996310 -28.064803 50.132172 0.586668 2.164960 0.074462 -0.024837 -1157090.000000 0 0 1
35.844171 23.475210 -27.748433 51.047680 0.579829 2.145491 0.088106 -0.021831 -780499.000000 0 0 1
-36.204642 22.673510 -26.639043 50.343845 -0.559505 2.128385 0.073385 -0.021165 36127.300000 0 0 1
-35.306655 21.672710 -27.075723 49.491019 -0.550535 2.149673 0.062685 -0.018171 171060.000000 0 0 1
-35.312113 20.682910 -26.120753 48.549169 -0.529851 2.138891 0.034983 -0.014841 -672412.000000 0 0 1
-34.266767 19.645910 -26.443153 47.533288 -0.520573 2.160733 0.034056 -0.003294 157197.000000 0 0 1
-32.973562 19.952810 -25.920913 46.446358 -0.544172 2.162870 0.043255 -0.001870 289968.000000 0 0 1
-31.998772 18.949910 -26.127543 45.449631 -0.534670 2.183239 -0.008016 0.003937 650615.000000 0 0 1
-30.661092 19.330210 -25.409933 44.265384 -0.562507 2.182223 -0.019673 0.008345 -35223.500000 0 0 1
-30.697972 19.238210 -23.989363 43.450705 -0.559816 2.155683 -0.016249 0.006726 -378891.000000 0 0 1
-29.570242 19.736210 -23.355163 42.536817 -0.588534 2.152033 -0.027265 0.015390 -386460.000000 0 0 1
-29.978732 20.078910 -21.878063 42.196405 -0.590149 2.115871 -0.031687 0.010307 495072.000000 0 0 1
-30.674492 19.006210 -21.218863 41.861684 -0.554714 2.102358 -0.023569 0.012444 285345.000000 0 0 1
-31.241762 19.473510 -20.014363 41.902744 -0.557388 2.068761 -0.014058 0.015341 -766656.000000 0 0 1
-32.226722 18.510410 -19.359263 41.904390 -0.521369 2.051030 -0.004595 0.007100 170601.000000 0 0 1
-33.036092 19.049310 -18.334263 42.313175 -0.523052 2.018947 0.005129 -0.001899 821272.000000 0 0 1
-34.164197 19.861410 -18.739563 43.736017 -0.526595 2.013595 0.015570 -0.000787 666526.000000 0 0 1
-35.280143 19.995010 -17.644963 44.224808 -0.515612 1.981204 0.032377 -0.011402 186890.000000 0 0 1
-34.917261 20.785410 -16.549063 43.876188 -0.536939 1.957542 0.027868 -0.013142 243830.000000 0 0 1
-35.931134 20.597510 -15.570363 44.246356 -0.520518 1.930398 0.033809 -0.006212 -465002.000000 0 0 1
-35.784049 21.299010 -14.226163 44.006019 -0.536890 1.899987 0.027671 -0.000154 -180198.000000 0 0 1
-35.982893 22.729410 -14.212363 44.870769 -0.563383 1.893087 0.033304 -0.004808 2682070.000000 0 0 1
35.373401 23.073110 -14.436863 44.632599 0.577971 1.900180 0.048938 0.000303 2315580.000000 0 0 1
35.019761 24.540010 -14.759263 45.237502 0.611227 1.903142 0.042974 -0.003214 -32704.900000 0 0 1
35.266721 25.395110 -13.657663 45.554198 0.624080 1.875291 0.043327 0.002121 -71135.900000 0 0 1
35.085201 26.788510 -13.887363 46.275852 0.652103 1.875593 0.025233 0.013991 -167767.000000 0 0 1
36.252391 27.601710 -14.488563 47.812223 0.650742 1.878667 0.050824 0.011975 69010.200000 0 0 1
-36.280922 27.295210 -15.882763 48.099854 -0.644990 1.907316 0.055323 0.014348 180889.000000 0 0 1
-35.019582 27.787210 -16.311163 47.587332 -0.670750 1.920653 0.072559 0.002158 -244279.000000 0 0 1
-34.673012 27.627810 -17.798063 47.773263 -0.672793 1.952555 0.058425 0.001690 -1629.160000 0 0 1
-34.218639 26.347510 -18.278963 46.895917 -0.656163 1.971186 0.058686 -0.005003 357468.000000 0 0 1
-32.896222 26.019910 -17.891463 45.599359 -0.669210 1.973995 0.048751 0.002496 9491.780000 0 0 1
-32.290982 24.809310 -18.614263 44.773878 -0.655113 1.999552 0.039891 0.000410 -40553.400000 0 0 1
-31.996712 24.930010 -19.996463 45.223373 -0.661893 2.028814 0.028877 0.004202 495633.000000 0 0 1
-31.276382 23.839210 -20.623563 44.405533 -0.651271 2.053795 0.009750 0.009274 313456.000000 0 0 1
-31.035202 23.840310 -22.190463 44.988452 -0.655029 2.086616 0.007778 0.009138 -474939.000000 0 0 1
-32.251112 23.688910 -22.860263 46.085684 -0.633517 2.089826 0.038154 0.001860 -119253.000000 0 0 1
-32.060492 23.170810 -24.191463 46.367968 -0.625813 2.119671 0.028642 -0.001182 283362.000000 0 0 1
-33.019802 23.951710 -25.177343 47.936315 -0.627553 2.123776 0.019658 0.006652 267784.000000 0 0 1
-32.752932 25.357710 -25.256253 48.514393 -0.658818 2.118342 0.010012 0.016741 -414932.000000 0 0 1
-33.628052 26.001510 -26.124823 49.894196 -0.658190 2.121873 0.031384 0.009109 -387711.000000 0 0 1
-33.292582 27.496410 -26.401713 50.611254 -0.690337 2.119588 0.018556 0.013740 -471663.000000 0 0 1
-32.136722 27.471910 -27.176043 50.259447 -0.707300 2.142083 0.008834 0.013404 -795513.000000 0 0 1
-31.683252 28.776610 -27.449763 50.846939 -0.737360 2.141056 0.015120 0.002672 992996.000000 0 0 1
-30.253562 28.863610 -28.111753 50.385083 -0.761891 2.162695 0.019073 -0.003001 564396.000000 0 0 1
-29.214632 28.509910 -27.236263 49.072637 -0.773190 2.159183 0.003448 -0.004095 -47901.800000 0 0 1
-27.987872 28.440110 -27.977263 48.732823 -0.793412 2.182295 0.031529 -0.010906 1269090.000000 0 0 1
-26.962502 29.643110 -27.822893 48.783233 -0.832719 2.177713 0.037846 -0.027128 615138.000000 0 0 1
-26.346362 29.795010 -26.516903 47.801878 -0.846749 2.158829 0.031683 -0.024369 -577008.000000 0 0 1
-27.241032 30.190510 -25.540253 48.019217 -0.836709 2.131610 0.016877 -0.010944 -795855.000000 0 0 1
-26.701192 30.642610 -24.199063 47.302408 -0.854023 2.107821 -0.011920 -0.008033 -145043.000000 0 0 1
-26.069462 31.920810 -24.255163 47.821207 -0.885960 2.102735 -0.010628 -0.003908 214044.000000 0 0 1
-25.624122 32.425010 -22.998663 47.296040 -0.902024 2.078613 0.022138 -0.000870 -131070.000000 0 0 1
-24.926762 33.792610 -23.091563 47.921855 -0.935253 2.073571 0.010891 0.010535 -139490.000000 0 0 1
-25.820802 -33.607622 -23.549863 48.484865 0.915684 2.077978 -0.007722 -0.001267 -66611.000000 0 0 1
-25.187562 -32.384922 -23.810263 47.435483 0.909767 2.096649 0.012039 -0.008448 -200121.000000 0 0 1
16.593638 8.594810 -25.545883 31.651409 0.477911 2.510022 0.042237 -0.010907 588788.000000 0 0 1
15.295538 8.014210 -25.309593 30.639134 0.482629 2.542867 0.031714 -0.013738 720194.000000 0 0 1
15.378038 6.574110 -25.463433 30.464560 0.403986 2.560454 0.031929 -0.017453 -107611.000000 0 0 1
14.034138 5.826110 -25.436003 29.629223 0.393488 2.603089 0.041255 -0.021558 -112688.000000 0 0 1
13.531038 5.895310 -24.118963 28.276634 0.410888 2.592435 0.067652 -0.036397 837576.000000 0 0 1
12.245738 5.244010 -24.043263 27.487019 0.404604 2.635640 0.068709 -0.035378 602387.000000 0 0 1
11.407738 5.452010 -22.781563 26.054952 0.445830 2.634924 0.073917 -0.036716 84242.500000 0 0 1
12.064438 4.789610 -21.715063 25.298913 0.377919 2.602821 0.083852 -0.028484 552113.000000 0 0 1
11.347838 4.919710 -20.475663 23.921324 0.409079 2.598198 0.084479 -0.026547 87820.600000 0 1 0
11.522938 6.382410 -19.857063 23.828894 0.505823 2.555881 0.064092 -0.026917 102066.000000 0 1 0
11.172438 6.531210 -18.473063 22.555135 0.529006 2.530494 0.057287 -0.017556 -209209.000000 0 1 0
11.215838 7.877810 -18.007263 22.629990 0.612323 2.491001 0.042136 -0.016462 1065640.000000 0 1 0
12.691138 8.308610 -17.618463 23.248833 0.579657 2.430764 0.021035 -0.014393 1175690.000000 0 1 0
13.158238 7.716710 -16.422263 22.413781 0.530400 2.393057 0.030952 -0.018828 348602.000000 0 1 0
14.563138 7.783510 -16.277263 23.186576 0.490839 2.349016 0.026800 -0.020509 -24172.200000 0 1 0
15.058238 7.923310 -14.834663 22.574246 0.484370 2.287828 0.041949 -0.021890 -254787.000000 0 1 0
16.458038 7.758910 -14.735363 23.413642 0.440536 2.251512 0.039285 -0.029135 536891.000000 0 1 0
16.986938 7.934410 -13.416963 23.054844 0.436974 2.191931 0.042838 -0.028390 288323.000000 0 1 0
17.589738 9.303810 -13.058663 23.801018 0.486526 2.151557 0.067218 -0.028021 -336675.000000 0 1 0
16.529738 10.233410 -12.967263 23.368886 0.554339 2.159032 0.070520 -0.027099 821995.000000 0 1 0
17.012838 11.517610 -12.504963 24.051322 0.595119 2.117563 0.096083 -0.041799 452918.000000 0 1 0
15.865938 12.574410 -12.527463 23.807165 0.670176 2.124929 0.092566 -0.030557 450703.000000 0 1 0
14.798038 12.527710 -11.574963 22.581081 0.702505 2.109001 0.081359 -0.024578 589208.000000 0 1 0
14.880838 13.420710 -10.447763 22.598906 0.733852 2.051398 0.052428 -0.026586 -286383.000000 0 1 0
14.647738 14.934110 -10.731163 23.510460 0.795079 2.044789 0.062247 -0.017667 -870977.000000 0 1 0
13.309738 15.288510 -10.702363 22.922221 0.854480 2.056577 0.078567 -0.023170 -749728.000000 0 1 0
13.235538 16.654610 -10.870463 23.889798 0.899291 2.043197 0.087311 -0.014224 139187.000000 0 1 0
12.179238 17.284510 -9.950163 23.368651 0.956968 2.010632 0.084206 -0.013009 89202.300000 0 1 0
12.612538 17.228410 -8.584563 23.012799 0.938864 1.953074 0.082039 -0.010174 328807.000000 0 1 0
11.534438 17.307010 -7.676163 22.169784 0.982936 1.924361 0.065984 -0.011896 170677.000000 0 1 0
11.991638 17.103710 -6.216563 21.794080 0.959324 1.860054 0.054856 -0.016636 36681.200000 0 1 0
12.786238 18.101310 -5.654563 22.871803 0.955807 1.820615 0.058189 -0.013322 -32235.400000 0 1 0
13.319738 17.616010 -4.421263 22.523028 0.923393 1.768379 0.070932 -0.022912 159297.000000 0 1 0
14.373438 18.607610 -3.858363 23.826998 0.913082 1.733445 0.076240 -0.023539 263876.000000 0 1 0
15.624838 18.638310 -4.528963 24.739314 0.873123 1.754902 0.085542 -0.032921 480533.000000 0 1 0
16.477438 19.668610 -4.019163 25.971404 0.873455 1.726174 0.068699 -0.024867 212266.000000 0 0 1
17.793938 19.811810 -4.822163 27.062618 0.839005 1.749938 0.064512 -0.023609 -120240.000000 0 0 1
18.749038 18.855310 -4.435963 26.957873 0.788224 1.736100 0.077744 -0.040304 -95238.900000 0 0 1
19.167038 18.097310 -5.559863 26.940676 0.756700 1.778664 0.087002 -0.039074 -96315.700000 0 0 1
20.268238 17.072210 -5.243263 27.013952 0.700015 1.766131 0.090528 -0.043177 105153.000000 0 0 1
21.609738 17.510210 -5.141063 28.284603 0.680985 1.753574 0.082855 -0.040179 431376.000000 0 0 1
22.279838 16.662710 -4.204463 28.137423 0.642145 1.720784 0.086115 -0.042474 328842.000000 0 0 1
23.831838 16.610510 -4.288463 29.364204 0.608702 1.717364 0.086930 -0.033688 403936.000000 0 0 1
24.439038 17.827710 -3.907763 30.501876 0.630236 1.699265 0.089934 -0.033654 187024.000000 0 0 1
25.849338 17.751110 -3.854063 31.593417 0.601754 1.693090 0.073483 -0.022555 310814.000000 0 0 1
26.488038 19.134910 -3.330463 32.845896 0.625601 1.672368 0.090847 -0.025188 10459.700000 0 0 1
26.489938 20.305910 -4.114463 33.629981 0.654010 1.693449 0.091994 -0.024575 313609.000000 0 0 1
26.853938 21.498210 -3.421463 34.568966 0.675083 1.669934 0.100947 -0.004445 -327868.000000 0 0 1
26.766238 22.764910 -4.336063 35.404436 0.704789 1.693577 0.068048 -0.001317 -354258.000000 0 0 1
27.859038 23.084210 -5.148663 36.544705 0.691943 1.712153 0.072270 0.002651 -32228.400000 0 0 1
28.217938 22.127110 -6.162463 36.384570 0.665002 1.740987 0.069676 -0.000378 -144164.000000 0 0 1
29.159038 22.700210 -7.234763 37.654891 0.661491 1.764132 0.053190 0.001928 -97478.800000 0 0 1
28.499538 23.593810 -8.125663 37.880311 0.691503 1.786985 0.030551 0.002753 557601.000000 0 0 1
29.400438 24.511010 -8.762663 39.267794 0.694952 1.795843 0.007961 0.006768 516924.000000 0 0 1
30.613838 24.056310 -9.630563 40.108115 0.666021 1.813281 0.019674 -0.003592 344914.000000 0 0 1
30.229238 23.473110 -10.827763 39.774793 0.660249 1.846503 0.027829 0.000121 628372.000000 0 0 1
31.399838 23.374910 -11.653763 40.842948 0.639925 1.860148 0.030366 -0.003045 655395.000000 0 0 1
31.220038 22.603710 -13.007863 40.679515 0.626661 1.896277 0.019254 -0.003175 41274.200000 0 0 1
30.414738 23.215610 -13.996563 40.742172 0.651960 1.921480 0.041690 0.002095 130394.000000 0 0 1
30.168938 22.376210 -15.120863 40.490741 0.638166 1.953511 0.054174 -0.002616 -99709.600000 0 0 1
30.317638 22.952410 -16.584963 41.485338 0.648007 1.982072 0.057698 -0.000133 696094.000000 0 0 1
31.584838 23.608310 -16.833263 42.875553 0.641872 1.974261 0.056881 0.008217 694653.000000 0 0 1
31.650238 24.177910 -18.138763 43.764410 0.652344 1.998150 0.067082 -0.000241 -162567.000000 0 0 1
32.919938 24.991910 -18.441263 45.259232 0.649346 1.990466 0.055420 -0.005257 629624.000000 0 0 1
34.061838 24.101110 -18.507863 45.646613 0.615788 1.988278 0.067059 0.002089 90761.300000 0 0 1
35.198338 24.824410 -18.941063 47.052505 0.614256 1.985099 0.062811 -0.010803 -314096.000000 0 0 1
-36.384625 23.890210 -18.962163 47.477855 -0.581002 1.981647 0.058218 -0.016373 -476524.000000 0 0 1
-36.388325 22.994810 -20.029163 47.476719 -0.563566 2.006307 0.060755 -0.007982 420441.000000 0 0 1
-35.231325 23.110610 -20.869463 47.020007 -0.580559 2.030678 0.068089 -0.010263 433543.000000 0 0 1
-35.111325 22.153110 -22.067263 47.016269 -0.562859 2.059355 0.079171 -0.019699 -82105.500000 0 0 1
-34.967125 20.800910 -21.683163 46.103549 -0.536639 2.060443 0.057929 -0.017079 37181.700000 0 0 1
-34.546825 20.186510 -22.876863 46.090445 -0.528813 2.090182 0.034345 -0.013176 76332.100000 0 0 1
-34.286925 18.674910 -22.748463 45.186702 -0.498739 2.098363 0.016668 -0.005670 -212682.000000 0 0 1
-35.463225 17.933610 -22.571063 45.702380 -0.468194 2.087332 0.043164 -0.022714 -327706.000000 0 0 1
-35.294825 16.515310 -22.474163 44.984088 -0.437659 2.093936 0.021295 -0.019472 443017.000000 0 0 1
36.203038 15.657610 -22.234963 45.279292 0.408201 2.084105 0.035863 -0.023367 681938.000000 0 0 1
35.200238 15.746910 -23.227763 45.017229 0.420650 2.112942 0.093265 -0.027971 46994.200000 0 0 1
34.164738 14.806710 -23.211763 43.877716 0.408957 2.128230 0.102718 -0.027598 -386337.000000 0 0 1
34.528438 13.478210 -23.869363 44.086525 0.372161 2.142922 0.063470 -0.026083 -632287.000000 0 0 1
34.668438 13.531810 -25.239063 44.966885 0.372134 2.166729 0.082955 -0.020561 241406.000000 0 0 1
34.939738 12.220510 -25.777393 45.106542 0.336461 2.179102 0.055937 -0.013451 -64530.100000 0 0 1
34.636538 12.160910 -27.321653 45.760793 0.337655 2.210620 0.077176 -0.011523 922413.000000 0 0 1
33.247138 12.225710 -27.706063 44.971837 0.352375 2.234547 0.094730 -0.006847 942472.000000 0 0 1
32.924838 13.344210 -28.557543 45.581204 0.385061 2.247877 0.096162 -0.006587 -169089.000000 0 0 1
33.460838 13.365010 -30.002043 46.886818 0.380008 2.265141 0.080744 -0.006086 -435304.000000 0 0 1
34.829938 13.660210 -30.058113 47.991833 0.373762 2.247616 0.082731 -0.002698 -329085.000000 0 0 1
35.351938 13.514210 -31.358723 49.150411 0.365135 2.262715 0.068463 -0.009748 -903614.000000 0 0 1
-35.983225 13.922310 -31.524803 49.824054 -0.369172 2.255860 0.066305 -0.008650 -1009490.000000 0 0 1
-35.007325 13.070610 -31.041203 48.578904 -0.357339 2.263975 0.056866 -0.007485 -124468.000000 0 0 1
-34.838125 12.949110 -29.655783 47.548290 -0.355869 2.244261 0.042536 -0.004876 174353.000000 0 0 1
-33.641125 11.963410 -29.319783 46.200629 -0.341671 2.258311 0.027175 -0.004020 1098320.000000 0 0 1
-34.126725 10.682510 -29.681293 46.472880 -0.303363 2.263578 0.028599 -0.011739 1433750.000000 0 0 1
-33.026925 9.751910 -29.731833 45.495708 -0.287113 2.283007 0.027325 -0.010030 842662.000000 0 0 1
-33.632325 8.380810 -30.117923 45.917976 -0.244215 2.286180 0.028855 -0.005359 -258359.000000 0 0 1
-33.802825 8.358010 -31.536263 46.978965 -0.242396 2.306737 0.023641 -0.011671 205893.000000 0 0 1
-34.170525 7.119410 -32.136413 47.445335 -0.205411 2.314931 0.024716 -0.010763 842212.000000 0 0 1
-35.481025 6.332310 -31.658153 47.971241 -0.176611 2.291536 0.037319 0.007492 847938.000000 0 0 1
-35.317425 5.721010 -30.406373 46.953147 -0.160593 2.275213 0.043147 0.002015 1213130.000000 0 0 1
36.294238 4.918810 -30.110853 47.414448 0.134705 2.258878 0.050777 0.012026 927846.000000 0 0 1
36.384038 4.124610 -28.748413 46.554075 0.112881 2.236391 0.048185 0.009011 321422.000000 0 0 1
-35.379825 3.130710 -28.858373 45.763949 -0.088259 2.253112 0.039430 0.012352 481820.000000 0 0 1
-35.562325 2.070510 -27.862693 45.224945 -0.058156 2.234567 0.046962 0.019316 -530817.000000 0 0 1
-34.552325 0.947010 -27.831623 44.377463 -0.027401 2.248694 0.073105 0.013303 65284.900000 0 0 1
-33.364925 1.271110 -27.098413 43.001836 -0.038079 2.252567 0.076230 0.007832 271775.000000 0 0 1
-32.566025 0.149110 -26.839783 42.201211 -0.004579 2.260094 0.075651 -0.001591 -24646.500000 0 0 1
-31.538925 0.440410 -25.731083 40.706098 -0.013963 2.255081 0.069529 -0.000684 136192.000000 0 0 1
-32.224125 0.476310 -24.491263 40.477686 -0.014780 2.220632 0.075781 0.000726 413073.000000 0 0 1
-31.312025 0.741610 -23.460263 39.132810 -0.023680 2.213677 0.086117 0.002465 -93914.400000 0 0 1
-31.860225 0.398510 -22.063163 38.755850 -0.012507 2.176433 0.080500 0.006081 -508642.000000 0 0 1
-31.956525 -0.996490 -21.766063 38.677823 0.031173 2.168509 0.089968 0.000222 260892.000000 0 0 1
-32.493825 -1.271190 -20.484163 38.432610 0.039101 2.132926 0.079105 -0.000763 -116.213000 0 0 1
-34.004425 -1.021890 -20.251863 39.591453 0.030043 2.107750 0.073069 0.003592 -623981.000000 0 0 1
-34.754025 -2.143290 -20.584063 40.449223 0.061592 2.104687 0.072117 0.003762 -545091.000000 0 0 1
-36.106625 -1.887590 -20.303763 41.466784 0.052231 2.082472 0.066287 0.008588 -333660.000000 0 0 1
35.887238 -3.181790 -20.166263 41.287962 -0.088430 2.081086 0.059126 0.005431 -8781.730000 0 0 1
35.203238 -3.869390 -21.228363 41.290235 -0.109476 2.110784 0.057987 0.008628 353721.000000 0 0 1
36.079938 -4.308290 -22.231163 42.597510 -0.118847 2.119860 0.061595 0.003522 -132343.000000 0 0 1
35.406738 -5.296690 -23.203963 42.662817 -0.148494 2.145864 0.053154 0.008601 -660811.000000 0 0 1
35.200038 -6.641590 -22.741063 42.430052 -0.186489 2.136448 0.055120 0.008244 312752.000000 0 0 1
34.681338 -7.531290 -23.736063 42.695623 -0.213837 2.160286 0.058417 0.007048 1612220.000000 0 0 1
33.167238 -7.281090 -24.189963 41.692137 -0.216099 2.189776 0.035126 0.011435 906447.000000 0 0 1
33.006238 -6.190290 -25.094023 41.921849 -0.185395 2.212537 0.049406 0.007016 -171568.000000 0 0 1
31.680338 -6.010290 -25.530563 41.128786 -0.187489 2.240491 0.033091 0.009840 -98038.700000 0 0 1
31.518838 -4.929990 -26.623523 41.551822 -0.155157 2.266246 0.065216 -0.017028 116707.000000 0 0 1
32.044738 -5.244290 -27.928813 42.829737 -0.162217 2.281133 0.069451 -0.024669 510659.000000 0 0 1
31.775338 -4.147690 -28.797833 43.083531 -0.129798 2.302877 0.071386 -0.027852 -26094.100000 0 0 1
31.196438 -4.550490 -30.173663 43.639141 -0.144844 2.334271 0.076293 -0.023972 24611.400000 0 0 1
30.673738 -3.460890 -30.901053 43.677581 -0.112354 2.356724 0.063166 -0.039863 123975.000000 0 0 1
30.158938 -3.870390 -32.161913 44.259802 -0.127635 2.384247 0.074216 -0.045844 -683475.000000 0 0 1
29.575438 -2.704290 -32.941783 44.352912 -0.091183 2.407919 0.079038 -0.038891 606614.000000 0 0 1
28.431738 -1.955790 -32.379253 43.134729 -0.068681 2.419848 0.068427 -0.038354 2003100.000000 0 0 1
27.203938 -2.649890 -32.116473 42.172787 -0.097102 2.436490 0.082659 -0.035408 403932.000000 0 0 1
26.399238 -3.155290 -33.324353 42.630835 -0.118958 2.468177 0.079689 -0.042521 -1201520.000000 0 0 1
27.119338 -4.125090 -33.990163 43.678439 -0.150952 2.462576 0.086573 -0.049001 -230017.000000 0 0 1
26.549638 -4.395390 33.159934 42.705784 -0.164066 0.681745 0.075678 -0.037814 -362673.000000 0 0 1
27.351338 -5.479490 32.366581 42.728399 -0.197720 0.711328 0.054443 -0.050397 914643.000000 0 0 1
28.654638 -5.127590 31.875011 43.167080 -0.177070 0.740087 0.059358 -0.044125 690473.000000 0 0 1
28.686338 -4.156790 30.844961 42.327255 -0.143903 0.754337 0.080791 -0.043346 -821857.000000 0 0 1
29.371038 -2.857990 31.342331 43.048434 -0.097001 0.755292 0.060021 -0.042309 308351.000000 0 0 1
30.777638 -3.069090 31.486551 44.137118 -0.099390 0.776486 0.057129 -0.040323 -47639.400000 0 0 1
31.331338 -1.841790 31.744301 44.640179 -0.058717 0.779713 0.048538 -0.034012 293964.000000 0 0 1
32.793538 -2.006390 32.306381 46.077587 -0.061106 0.793815 0.042562 -0.033881 399870.000000 0 0 1
33.672838 -2.403190 31.280301 46.022740 -0.071248 0.823483 0.049072 -0.023999 -1667740.000000 0 0 1
34.943238 -2.300890 31.769031 47.282082 -0.065752 0.834019 0.040634 -0.023766 -810625.000000 0 0 1
36.070738 -2.732390 30.761021 47.484782 -0.075606 0.866093 0.024429 -0.014272 409932.000000 0 0 1
36.154738 -1.940490 29.590581 46.760379 -0.053620 0.885615 0.022915 -0.009191 365993.000000 0 0 1
-35.588325 -2.441190 28.749781 45.815262 0.068488 0.892438 0.019251 -0.004809 558931.000000 0 0 1
-35.553125 -1.621290 27.414991 44.924771 0.045570 0.914430 0.032584 -0.002144 -369021.000000 0 0 1
36.245038 -1.931990 26.505061 44.943894 -0.053253 0.940064 0.042719 -0.015497 -632341.000000 0 0 1
-36.214725 -1.442390 25.226521 44.158399 0.039808 0.962740 0.063664 -0.017168 143273.000000 0 0 1
-26.693522 15.193810 12.377737 33.115017 -0.517460 1.187715 0.061638 -0.008833 -900015.000000 0 0 1
-27.882452 14.542810 12.612837 33.882268 -0.480759 1.189359 0.049189 -0.002239 -817739.000000 0 0 1
-28.705442 15.393510 13.357337 35.204843 -0.492231 1.181630 0.047367 -0.004467 -83979.800000 0 0 1
-30.065122 14.732910 13.740837 36.190894 -0.455642 1.181350 0.042438 -0.006115 -175725.000000 0 0 1
-30.854822 15.534410 14.513637 37.469769 -0.466418 1.173049 0.047690 -0.012013 -910518.000000 0 0 1
-32.012672 14.833910 14.897737 38.298807 -0.433922 1.171265 0.065708 -0.011789 382126.000000 0 0 1
-33.090792 15.692510 15.649737 39.826745 -0.442817 1.166964 0.061763 -0.009903 404790.000000 0 0 1
-32.595892 16.044510 16.921037 40.077924 -0.457408 1.134922 0.049314 -0.004680 296066.000000 0 0 1
-33.630952 16.106910 17.877737 41.353198 -0.446651 1.123734 0.066725 -0.022085 282644.000000 0 0 1
-32.898402 16.372810 19.201837 41.461841 -0.461788 1.089283 0.074287 -0.017042 238433.000000 0 0 1
-32.061202 15.271810 19.491937 40.510301 -0.444535 1.068819 0.066164 -0.020110 -27465.600000 0 0 1
-31.055922 15.494010 20.481237 40.299078 -0.462773 1.037667 0.061270 -0.015851 264719.000000 0 0 1
-31.478992 15.812510 21.919637 41.490154 -0.465501 1.014188 0.079262 -0.026314 -620843.000000 0 0 1
-32.196352 17.051510 21.931037 42.524457 -0.487054 1.028940 0.087274 -0.027466 128154.000000 0 0 1
-32.687772 17.506210 23.178137 43.728524 -0.491688 1.012141 0.103286 -0.037127 -197595.000000 0 0 1
-33.766382 16.605710 23.869237 44.560730 -0.457052 1.005512 0.080088 -0.028627 1345270.000000 0 0 1
-35.073325 16.587910 23.204937 45.208030 -0.441774 1.031780 0.073872 -0.015795 1402610.000000 0 0 1
-35.915416 17.668810 23.569337 46.450162 -0.457192 1.038618 0.067663 -0.012334 -415497.000000 0 0 1
35.391761 17.410010 23.234937 45.777150 0.457165 1.038439 0.051881 -0.014676 3495.500000 0 0 1
34.938841 16.469610 24.170937 45.565391 0.440494 1.011645 0.054383 -0.007116 -611794.000000 0 0 1
33.745911 15.807410 23.869637 44.254043 0.438070 1.001099 0.073344 -0.009174 -68213.500000 0 0 1
33.131611 14.975710 25.024437 44.138396 0.424521 0.967993 0.053545 -0.001093 -257715.000000 0 0 1
32.684081 15.746310 26.156537 44.725383 0.448960 0.946132 0.061731 0.000437 238805.000000 0 0 1
32.746801 14.984810 27.371937 45.234063 0.429153 0.920882 0.050298 0.003557 592157.000000 0 0 1
31.647161 13.856710 27.447637 44.123962 0.412704 0.899429 0.053556 0.005448 306083.000000 0 0 1
32.177251 12.743710 26.766337 43.751736 0.377094 0.912490 0.059597 -0.001854 -197649.000000 0 0 1
31.314471 11.651210 26.752637 42.802458 0.356200 0.895632 0.068593 -0.005092 -265855.000000 0 0 1
31.996091 10.284910 26.537737 42.822666 0.311011 0.902420 0.073858 -0.012851 -142481.000000 0 0 1
32.880201 9.866410 27.535937 44.007744 0.291522 0.894759 0.073082 -0.012991 217108.000000 0 0 1
33.715981 8.794210 27.032637 44.100669 0.255147 0.910975 0.070500 -0.009150 123229.000000 0 0 1
34.588231 8.060010 28.057337 45.260619 0.228942 0.902173 0.056161 -0.002709 682803.000000 0 0 1
35.875041 8.663910 28.200237 46.447124 0.236965 0.918331 0.063723 -0.009842 799799.000000 0 0 1
-35.883070 7.872610 28.792037 46.674984 -0.215974 0.906046 0.062977 -0.012903 439962.000000 0 0 1
-34.533080 8.596210 28.835137 45.802768 -0.243968 0.889822 0.071601 -0.016832 -178754.000000 0 0 1
-33.928542 8.900310 27.599337 44.632778 -0.256545 0.904136 0.061216 -0.014696 -482494.000000 0 0 1
-32.647882 9.392010 27.813437 43.905368 -0.280112 0.884746 0.067283 -0.010306 -563126.000000 0 0 1
-31.851942 9.940110 26.622437 42.686135 -0.302495 0.897356 0.064058 -0.016350 -23145.100000 0 0 1
-31.133332 8.945610 25.924637 41.489699 -0.279795 0.895863 0.057749 -0.019732 -17757.700000 0 0 1
-30.246102 9.573010 25.033237 40.412030 -0.306528 0.902754 0.057767 -0.014285 -137545.000000 0 0 1
-29.603062 8.566110 24.041237 39.085811 -0.281672 0.908298 0.060816 -0.013775 -438625.000000 0 0 1
-28.680122 9.235310 23.265637 38.067443 -0.311526 0.913260 0.058352 -0.021804 -594308.000000 0 0 1
-28.218802 8.401110 22.236137 36.896141 -0.289357 0.923956 0.049233 -0.008370 -592570.000000 0 0 1
-26.968742 8.943610 21.572637 35.674639 -0.320216 0.921401 0.039300 -0.010421 -1464340.000000 0 0 1
-25.898842 9.140710 22.469237 35.484774 -0.339291 0.885106 0.048157 -0.021264 -521143.000000 0 0 1
-24.785962 9.819210 22.024237 34.580743 -0.377192 0.880335 0.053740 -0.011458 -426625.000000 0 0 1
-23.974562 9.343410 20.811337 33.093665 -0.371615 0.890708 0.054947 -0.011278 -1305570.000000 0 0 1
-24.621562 9.397310 19.537337 32.806071 -0.364605 0.932858 0.055969 -0.015043 -135994.000000 0 0 1
-23.971762 8.787210 18.480337 31.517984 -0.351355 0.944260 0.067766 -0.019224 -595038.000000 0 0 1
-23.795162 7.225910 18.457637 30.969467 -0.294822 0.932293 0.061761 -0.009152 329165.000000 0 0 1
-22.694762 6.690610 19.238337 30.494755 -0.286687 0.888118 0.040214 -0.007390 993330.000000 0 0 1
-22.712462 5.298910 19.575337 30.448780 -0.229204 0.872526 0.031542 -0.009002 -547650.000000 0 0 1
-23.064662 4.229910 18.521237 29.881549 -0.181378 0.902281 0.037421 -0.008524 196075.000000 0 0 1
-24.436062 4.045310 18.133837 30.697259 -0.164059 0.938831 0.061292 -0.008715 947561.000000 0 0 1
-24.690562 2.951310 17.278037 30.279773 -0.118967 0.963544 0.067841 -0.011198 -179528.000000 0 0 1
-24.553162 1.502710 17.856237 30.396728 -0.061126 0.942905 0.060959 -0.004361 199386.000000 0 0 1
-23.202962 1.064610 18.122437 29.460712 -0.045850 0.908234 0.032064 -0.003890 1381140.000000 0 0 1
-23.315062 -0.227090 18.673837 29.872326 0.009740 0.895509 0.045064 -0.010351 -329294.000000 0 0 1
-21.957562 -0.949790 18.748037 28.888155 0.043229 0.864544 0.044198 -0.000939 245638.000000 0 0 1
-21.111662 -0.474490 19.831137 28.968973 0.022471 0.816790 0.026206 0.005115 -76874.100000 0 0 1
-20.148862 -1.432190 20.108237 28.502088 0.070961 0.787667 0.033087 -0.001753 98786.100000 0 0 1
-19.012962 -0.987190 21.105037 28.423403 0.051875 0.733967 0.032971 -0.000426 783322.000000 0 0 1
-19.429062 -0.908790 22.495237 29.738023 0.046741 0.712933 0.027660 -0.001525 -75211.800000 0 0 1
-18.297062 -0.694790 23.293537 29.628602 0.037955 0.666186 0.022632 -0.004915 -426241.000000 0 0 1
-18.626162 -0.834790 24.803837 31.030004 0.044788 0.644583 0.025683 -0.002141 297330.000000 0 0 1
-19.353462 0.280610 25.372337 31.912235 -0.014498 0.651680 0.021593 -0.016338 985373.000000 0 0 1
-20.772762 0.016610 25.356437 32.778908 -0.000800 0.686357 0.066360 -0.017753 461883.000000 0 0 1
-21.574862 1.141110 25.972837 33.784095 -0.052841 0.693851 0.054583 -0.026317 -481387.000000 0 0 1
-21.430762 2.351210 25.220037 33.179150 -0.109275 0.707303 0.048954 -0.021415 254016.000000 0 0 1
-22.656562 2.751610 24.637337 33.584067 -0.120857 0.747189 0.051430 -0.018209 -417556.000000 0 0 1
-22.458762 3.999010 23.740437 32.924101 -0.176213 0.765457 0.046531 -0.010998 383493.000000 0 0 1
-21.821462 3.917010 22.424737 31.533918 -0.177611 0.779691 0.040204 -0.011344 1185340.000000 0 0 1
-20.560062 3.234810 22.349537 30.539842 -0.156055 0.749814 0.024744 -0.002497 119426.000000 0 0 1
-20.148562 2.550110 21.078737 29.270818 -0.125896 0.766809 0.026409 0.000723 -391190.000000 0 0 1
-19.527962 3.367310 20.155937 28.265560 -0.170756 0.776898 0.016985 0.002251 29154.600000 0 0 1
-19.339162 2.588410 18.904637 27.167782 -0.133052 0.801197 0.036457 -0.003342 54197.600000 0 0 1
-18.802462 3.518010 17.784737 26.119070 -0.184965 0.821792 0.027220 -0.001341 -631792.000000 0 0 1
-17.473662 3.906610 17.889537 25.310591 -0.219954 0.785831 0.023596 -0.012779 -661334.000000 0 0 1
-17.187862 4.699210 16.771537 24.470178 -0.266881 0.815662 0.033409 -0.004342 1967180.000000 0 1 0
-15.608962 5.089110 16.671337 23.398124 -0.315170 0.777731 0.026813 -0.008530 2149810.000000 0 1 0
-15.192362 5.968410 17.658937 24.047200 -0.374333 0.746095 0.020371 -0.008117 34311.500000 0 1 0
-15.689662 7.329110 17.622137 24.706701 -0.437007 0.776667 0.013781 -0.017746 -523215.000000 0 1 0
-15.282262 8.302610 16.485837 23.963799 -0.497672 0.812139 0.011073 -0.004214 -70990.800000 0 1 0
-15.555962 7.912010 15.135237 23.101153 -0.470517 0.856386 0.014252 -0.006496 305991.000000 0 1 0
-16.906062 8.157810 14.783337 23.893762 -0.449580 0.903695 0.018062 -0.007090 -26648.700000 0 1 0
-17.291262 7.372310 13.498337 23.141819 -0.403022 0.948026 0.022839 -0.007640 -284216.000000 0 1 0
-17.181862 5.990210 13.721837 22.790081 -0.335459 0.924672 0.025891 -0.004798 230451.000000 0 1 0
-17.580062 5.312110 12.583537 22.262581 -0.293443 0.970081 0.016238 -0.007923 -352100.000000 0 1 0
-17.279862 3.808010 12.649937 21.751218 -0.216906 0.950134 0.028587 -0.007952 -102157.000000 0 1 0
-18.076862 3.231310 13.684437 22.901487 -0.176886 0.930373 0.045412 -0.014448 372726.000000 0 1 0
-17.891362 1.841810 13.750737 22.640138 -0.102583 0.918062 0.047360 -0.015675 -661851.000000 0 1 0
-18.842362 1.189410 14.699437 23.927448 -0.063041 0.909255 0.061586 -0.015371 2182740.000000 0 1 0
-20.260262 1.209710 14.204737 24.773295 -0.059638 0.960160 0.078421 -0.015997 2823820.000000 0 1 0
-21.159662 0.760510 15.207737 26.068850 -0.035926 0.947927 0.062014 -0.015959 1230970.000000 0 0 1
-22.636262 0.546410 14.662637 26.975764 -0.024134 0.996137 0.072881 -0.021383 1040740.000000 0 0 1
-22.657662 -0.591590 13.762137 26.516335 0.026104 1.025109 0.091205 -0.020415 716645.000000 0 0 1
-24.014662 -0.886690 13.448137 27.538021 0.036906 1.060601 0.100416 -0.022827 347490.000000 0 0 1
-24.139262 -1.912890 12.336537 27.176336 0.079079 1.099610 0.096771 -0.025085 -198386.000000 0 0 1
-23.755562 -3.109290 12.849337 27.186391 0.130147 1.078514 0.086333 -0.016407 105396.000000 0 0 1
-23.725362 -4.024190 11.786537 26.795697 0.168016 1.115346 0.098636 -0.013566 -134662.000000 0 0 1
-23.473262 -5.415290 12.280637 27.039479 0.226733 1.099351 0.092041 -0.013158 -383779.000000 0 0 1
-24.457362 -5.871390 13.156337 28.385295 0.235608 1.088865 0.074894 -0.016780 -63699.600000 0 0 1
-24.379962 -7.244290 13.470837 28.780649 0.288832 1.083711 0.080041 -0.022408 212364.000000 0 0 1
-25.196572 -7.488690 14.789837 30.161018 0.288896 1.058290 0.081271 -0.015691 354960.000000 0 0 1
-26.579562 -7.237890 14.820837 31.281262 0.265864 1.077204 0.087087 -0.025757 103979.000000 0 0 1
-27.265372 -7.725590 15.951637 32.519840 0.276111 1.058110 0.098312 -0.018677 -742949.000000 0 0 1
-28.678422 -7.148290 16.063037 33.638833 0.244279 1.072972 0.100166 -0.020587 -135000.000000 0 0 1
-29.743462 -7.404290 15.169837 34.199722 0.243979 1.111223 0.095500 -0.024563 648491.000000 0 0 1
-30.089252 -8.780490 14.908537 34.709142 0.283931 1.126827 0.107344 -0.041921 -386418.000000 0 0 1
-30.471262 -9.829290 16.044737 35.812656 0.312038 1.106248 0.103774 -0.040067 -287918.000000 0 0 1
-29.348952 -10.041190 16.870937 35.310268 0.329648 1.072658 0.113775 -0.021483 -119039.000000 0 0 1
-29.555642 -10.970490 17.907937 36.257163 0.355418 1.054210 0.099295 -0.015180 -6853.470000 0 0 1
-28.420152 -11.309490 18.906037 35.958974 0.378728 1.017180 0.110252 -0.012904 -226091.000000 0 0 1
-27.331712 -12.006890 18.426137 35.081483 0.413922 1.017801 0.099899 -0.020497 -718144.000000 0 0 1
-26.253512 -12.073890 19.337237 34.770022 0.431053 0.981054 0.102533 -0.022279 259771.000000 0 0 1
-25.148352 -12.996990 18.732037 33.944817 0.477007 0.986230 0.079328 -0.015001 -210043.000000 0 0 1
-24.587562 -12.414590 17.606437 32.690318 0.467571 1.002042 0.072252 -0.013191 -99606.500000 0 0 1
-23.772762 -13.330390 16.916537 32.078228 0.511053 1.015315 0.071223 -0.015768 -306998.000000 0 0 1
-23.566162 -12.807390 15.504837 30.980529 0.497812 1.046654 0.055743 -0.010444 13528.500000 0 0 1
-22.588062 -11.760790 15.328137 29.723535 0.480042 1.028983 0.053520 -0.015203 282946.000000 0 0 1
-22.191262 -11.777490 13.945237 28.733796 0.487926 1.064061 0.061048 -0.013294 315307.000000 0 0 1
-20.966062 -10.863490 13.751637 27.325788 0.478059 1.043443 0.054675 -0.016023 -21520.100000 0 0 1
-21.386962 -9.540890 13.478537 27.020394 0.419612 1.048550 0.054131 -0.015340 995639.000000 0 0 1
-20.273062 -8.671290 13.162037 25.679321 0.404176 1.032640 0.063810 -0.019072 570715.000000 0 0 1
-19.579362 -8.837390 11.844137 24.530276 0.423986 1.066904 0.080789 -0.014696 -577339.000000 0 1 0
-18.784962 -9.968690 11.621137 24.234282 0.487885 1.070674 0.055596 -0.018214 129050.000000 0 1 0
-18.693062 -10.073390 10.231737 23.571003 0.494269 1.121778 0.074078 -0.018507 -674564.000000 0 1 0
-18.109062 -11.458890 9.713637 23.528685 0.564168 1.145224 0.055906 -0.014276 437712.000000 0 1 0
-16.738662 -11.811390 9.814637 22.716048 0.614498 1.124023 0.062744 -0.020222 740628.000000 0 1 0
-16.159662 -11.762590 11.164737 22.894204 0.629205 1.061381 0.065491 -0.015018 384598.000000 0 1 0
-14.625362 -12.061290 11.007537 21.921264 0.689612 1.044725 0.066770 -0.018442 481760.000000 0 1 0
-14.296862 -13.419990 10.768737 22.371010 0.753772 1.068579 0.059784 -0.023101 529533.000000 0 1 0
-12.882162 -13.628590 10.772437 21.627158 0.813546 1.049393 0.070273 -0.026971 545611.000000 0 1 0
-12.423962 -15.070390 10.591437 22.218236 0.881356 1.073899 0.079137 -0.030908 -287501.000000 0 1 0
-12.684362 -15.665490 9.396437 22.239462 0.890168 1.134581 0.063539 -0.033583 141132.000000 0 1 0
-12.511062 -17.086490 9.475737 23.200526 0.938772 1.150065 0.056023 -0.026377 58191.700000 0 1 0
-13.020062 -17.837390 8.255637 23.576472 0.940264 1.213050 0.045793 -0.022249 -678027.000000 0 1 0
-12.153562 -17.729090 7.183437 22.663439 0.969858 1.248272 0.056554 -0.029029 -80361.100000 0 1 0
-12.599162 -18.527390 6.093137 23.219160 0.973600 1.305269 0.045170 -0.018662 -955.370000 0 1 0
-11.522362 -18.479290 5.002237 22.344381 1.013256 1.345013 0.044302 -0.014472 -140921.000000 0 1 0
-11.898162 -19.209990 3.867237 22.924779 1.016253 1.401293 0.049898 -0.021225 -121528.000000 0 1 0
-11.004562 -19.020090 2.841737 22.157159 1.046279 1.442188 0.054435 -0.028902 -260464.000000 0 1 0
-11.498562 -19.931890 1.704437 23.073844 1.047541 1.496860 0.062767 -0.025857 176439.000000 0 1 0
-11.177662 -21.272490 2.056937 24.118249 1.086995 1.485407 0.049745 -0.029351 -92013.000000 0 1 0
-11.577562 -22.185990 1.023937 25.046089 1.089829 1.529903 0.051194 -0.029689 618073.000000 0 0 1
-10.602462 -22.131290 -0.252663 24.541191 1.124032 1.581092 0.060260 -0.027811 658920.000000 0 1 0
-10.708762 -20.960690 -1.036263 23.560602 1.098469 1.614793 0.064399 -0.041119 -589182.000000 0 1 0
-11.725362 -21.123490 -1.966263 24.239475 1.064056 1.652004 0.074847 -0.031122 -473808.000000 0 1 0
-12.759862 -19.977890 -1.944463 23.784682 1.002407 1.652640 0.076982 -0.032668 467053.000000 0 1 0
-13.675162 -20.058090 -0.826163 24.290319 0.972405 1.604815 0.077516 -0.030472 -253140.000000 0 1 0
-14.686462 -19.136890 -0.957263 24.141853 0.916225 1.610458 0.079634 -0.022733 -586355.000000 0 1 0
26.616238 -20.109290 -4.161463 33.617339 -0.647029 1.694904 0.057948 -0.017720 -514510.000000 0 0 1
25.546238 -20.165990 -3.255663 32.708971 -0.668239 1.670496 0.067455 -0.023973 7015.360000 0 0 1
25.539338 -21.370790 -2.547563 33.398481 -0.696769 1.647148 0.051327 -0.017835 -457689.000000 0 0 1
24.225338 -21.667390 -1.807063 32.551625 -0.729718 1.626339 0.038174 -0.017936 161509.000000 0 0 1
23.229238 -22.240990 -2.666263 32.270236 -0.763668 1.653514 0.038907 -0.026186 315755.000000 0 0 1
22.133838 -22.702790 -1.881863 31.762633 -0.798087 1.630079 0.038423 -0.025018 534329.000000 0 0 1
21.009738 -23.384990 -2.746263 31.556439 -0.838850 1.657934 0.041152 -0.021778 532447.000000 0 0 1
20.305838 -22.396490 -3.524163 30.435991 -0.834318 1.686846 0.043335 -0.024508 -418220.000000 0 0 1
19.421438 -22.963390 -4.412763 30.397073 -0.868771 1.716482 0.050445 -0.023097 -667331.000000 0 0 1
18.477038 -22.019590 -5.148963 29.202313 -0.872654 1.748043 0.051202 -0.011787 420564.000000 0 0 1
17.347738 -21.512390 -4.409363 27.985164 -0.892161 1.729016 0.059017 -0.009015 712759.000000 0 0 1
17.702038 -20.538590 -3.415963 27.328824 -0.859439 1.696119 0.046509 -0.013245 -258047.000000 0 0 1
16.576738 -19.984590 -2.491063 26.084047 -0.878339 1.666443 0.065665 -0.004406 106303.000000 0 0 1
16.118438 -20.954390 -1.554363 26.482193 -0.915110 1.629525 0.056282 -0.009046 409781.000000 0 0 1
15.248638 -20.274790 -0.632663 25.376925 -0.925954 1.595730 0.059720 -0.000876 42288.300000 0 0 1
14.834338 -21.044790 0.655537 25.755980 -0.956794 1.545342 0.044777 -0.000386 103140.000000 0 0 1
14.088838 -22.221090 0.543037 26.316670 -1.005730 1.550160 0.060015 -0.005451 -320891.000000 0 0 1
13.408038 -22.575590 1.699237 26.311978 -1.034861 1.506171 0.045631 0.001688 -147339.000000 0 0 1
12.597438 -23.867690 1.520137 27.030962 -1.085155 1.514530 0.056577 -0.000362 5516.930000 0 0 1
13.360838 -25.065540 1.450537 28.441121 -1.081070 1.519773 0.035070 -0.002306 504692.000000 0 0 1
12.492138 -26.179040 1.155037 29.029808 -1.125570 1.530998 0.032994 -0.012500 306978.000000 0 0 1
12.862538 -27.472080 1.900737 30.393632 -1.132907 1.508218 0.034639 -0.008737 2723.880000 0 0 1
12.414738 -27.502640 3.232337 30.347470 -1.146777 1.464083 0.056070 -0.011983 37375.600000 0 0 1
12.594638 -28.753950 3.869637 31.628921 -1.157954 1.448144 0.059860 -0.019083 -160530.000000 0 0 1
12.151438 -28.756190 5.326437 31.669336 -1.170988 1.401804 0.064719 -0.015318 -53314.100000 0 0 1
12.296138 -30.020130 5.933637 32.978952 -1.182045 1.389889 0.050540 -0.024706 -261735.000000 0 0 1
12.152238 -30.043650 7.317337 33.224106 -1.186429 1.348734 0.047890 -0.017415 62653.600000 0 0 1
11.854938 -31.447010 7.879237 34.518638 -1.210290 1.340506 0.030358 -0.016731 -90869.200000 0 0 1
11.851338 -31.435410 9.292837 34.856793 -1.210268 1.300932 0.026889 -0.012769 -166456.000000 0 0 1
11.172438 -32.593190 9.677337 35.788130 -1.240564 1.296981 0.031182 -0.013922 28729.100000 0 0 1
10.999238 -32.780830 11.180737 36.339716 -1.247062 1.258050 0.030257 -0.013023 -289573.000000 0 0 1
12.220338 -33.147440 11.778637 37.240109 -1.217590 1.248981 0.026577 -0.011234 -70094.100000 0 0 1
12.199538 -33.353320 13.173037 37.878775 -1.220145 1.215607 0.028981 -0.007912 -434748.000000 0 0 1
11.198338 33.992863 13.647437 38.303656 1.252561 1.206496 0.026515 -0.012276 -337510.000000 0 0 1
11.385738 32.694620 13.165637 37.039265 1.235686 1.207400 0.028730 -0.010803 -775260.000000 0 0 1
10.322438 31.854402 13.389537 36.062936 1.257423 1.190406 0.028693 -0.004607 -841205.000000 0 0 1
10.387838 30.665932 12.431437 34.682087 1.244186 1.204200 0.035930 -0.005266 -410746.000000 0 0 1
10.172738 30.849342 11.022037 34.302358 1.252269 1.243673 0.041136 -0.003569 107706.000000 0 0 1
11.092338 31.696402 10.351437 35.140491 1.234161 1.271788 0.021948 -0.007062 -207830.000000 0 0 1
10.692138 32.081002 8.933537 34.976000 1.249089 1.312515 0.019527 -0.009180 371310.000000 0 0 1
9.471038 32.830159 8.908537 35.311215 1.289936 1.315754 0.028990 -0.009097 669747.000000 0 0 1
8.767638 32.718811 7.641737 34.724461 1.308978 1.348912 0.033376 -0.009483 328164.000000 0 0 1
9.055838 33.873948 6.613837 35.681863 1.309566 1.384362 0.033119 -0.009335 -251709.000000 0 0 1
8.602838 -33.240300 6.987837 35.039353 -1.317546 1.370022 0.039160 -0.007071 -78818.200000 0 0 1
8.858638 -32.225550 6.067537 33.967287 -1.302528 1.391204 0.048372 -0.015790 -117428.000000 0 0 1
8.212338 -30.877690 6.511637 32.607908 -1.310851 1.369750 0.041974 -0.012641 103773.000000 0 0 1
8.696838 -30.462760 7.773037 32.619547 -1.292703 1.330188 0.049284 -0.015959 -47277.900000 0 0 1
8.131638 -29.196690 8.169737 31.389725 -1.299168 1.307497 0.061969 -0.011336 14392.300000 0 0 1
8.817238 -27.912270 7.661237 30.257777 -1.264825 1.314811 0.067935 -0.012052 -199228.000000 0 0 1
9.371038 -27.170750 8.729337 30.037765 -1.238677 1.275930 0.069388 -0.011374 53520.600000 0 0 1
9.993138 -25.920310 8.304437 28.994637 -1.202823 1.280316 0.067829 -0.016329 -43309.700000 0 0 1
9.319138 -24.940890 7.302837 27.608437 -1.213211 1.303096 0.057329 -0.015764 -418428.000000 0 0 1
9.213038 -25.411660 5.996537 27.687380 -1.222984 1.352486 0.053099 -0.010362 -276138.000000 0 0 1
8.471138 -24.507090 5.225637 26.451180 -1.237992 1.371930 0.059266 -0.008291 88714.300000 0 0 1
8.289938 -24.941090 3.734437 26.546696 -1.249903 1.429654 0.064058 -0.008872 309954.000000 0 0 1
7.392738 -26.032160 3.582437 27.297615 -1.294096 1.439180 0.058877 -0.010389 150348.000000 0 0 1
7.990738 -27.315070 3.914837 28.727877 -1.286198 1.434098 0.057920 -0.010145 799855.000000 0 0 1
7.047738 -28.531970 3.542437 29.602243 -1.328632 1.450841 0.058927 -0.011749 -27108.100000 0 0 1
5.976538 -28.777380 4.394537 29.718152 -1.366025 1.422378 0.055245 -0.006392 473837.000000 0 0 1
4.888638 -29.545720 3.797237 30.187205 -1.406822 1.444673 0.047381 -0.001303 1225480.000000 0 0 1
5.033238 -31.086280 4.066237 31.752552 -1.410277 1.442384 0.044851 -0.001547 -181931.000000 0 0 1
6.096438 -31.671450 3.365237 32.427953 -1.380632 1.466833 0.049543 -0.005384 -358154.000000 0 0 1
5.994438 -33.090350 3.555737 33.816384 -1.391586 1.465453 0.047372 -0.008217 73936.300000 0 0 1
7.232038 -33.827430 3.017637 34.723242 -1.360175 1.483781 0.042059 -0.010970 -43122.500000 0 0 1
7.182338 -33.917630 1.618637 34.707515 -1.362121 1.524143 0.047516 -0.012252 -115511.000000 0 0 1
8.089538 33.497034 1.152637 34.479276 1.333833 1.537360 0.033935 -0.011060 -524810.000000 0 0 1
7.736338 33.005665 -0.259763 33.901214 1.340558 1.578459 0.032834 -0.004932 52030.400000 0 0 1
6.583838 32.211722 -0.343563 32.879476 1.369181 1.581246 0.032878 -0.002039 309468.000000 0 0 1
5.315038 32.886993 -0.258763 33.314725 1.410567 1.578564 0.035448 -0.008900 644876.000000 0 0 1
4.128538 31.941892 0.094337 32.207735 1.442257 1.567867 0.028031 -0.006412 78330.200000 0 0 1
3.844638 30.992012 -0.909663 31.242815 1.447374 1.599916 0.035083 -0.002849 -302453.000000 0 0 1
2.729238 30.236792 -0.514063 30.364067 1.480778 1.587727 0.022079 -0.008900 -198527.000000 0 0 1
2.439238 29.181032 -1.581963 29.325503 1.487400 1.624767 0.021942 -0.007900 -300805.000000 0 0 1
2.180338 29.693112 -2.853163 29.909452 1.497499 1.666335 0.035040 -0.018285 -31483.000000 0 0 1
2.440538 28.751152 -3.879963 29.114242 1.486114 1.704461 0.032833 -0.021256 -390943.000000 0 0 1
2.076238 29.244852 -5.295663 29.792888 1.499920 1.749495 0.039575 -0.031877 671388.000000 0 0 1
0.710538 29.683882 -5.455663 30.189434 1.546864 1.752509 0.041501 -0.033095 822257.000000 0 0 1
0.438938 30.527632 -6.551963 31.225906 1.556419 1.782192 0.041391 -0.029273 -195125.000000 0 0 1
0.581938 30.038712 -7.968563 31.083128 1.551426 1.830054 0.047032 -0.029981 -576998.000000 0 0 1
-0.574162 29.354252 -8.382063 30.532945 -1.551239 1.848892 0.071520 -0.034633 2842.500000 0 0 1
-0.808062 29.098962 -9.783563 30.710269 -1.543034 1.895023 0.074782 -0.035803 -62638.600000 0 0 1
-0.929662 30.261522 -10.784463 32.139207 -1.540085 1.912990 0.066330 -0.030728 515247.000000 0 0 1
0.325538 30.871852 -11.141863 32.822527 1.560252 1.917137 0.052915 -0.030107 516908.000000 0 0 1
0.147138 32.177942 -11.717063 34.245162 1.566224 1.920003 0.044925 -0.028023 82853.000000 0 0 1
-0.303562 33.236642 -10.696663 34.916831 -1.561663 1.882149 0.041973 -0.025784 -407070.000000 0 0 1
0.695538 33.477499 -9.771963 34.881484 1.550023 1.854744 0.045107 -0.034451 -15600.700000 0 0 1
0.136838 34.172785 -8.596363 35.237698 1.566792 1.817237 0.043388 -0.025334 -287644.000000 0 0 1
1.215238 -33.867420 -7.583463 34.727336 -1.534929 1.790942 0.046376 -0.025940 -113885.000000 0 0 1
2.134738 -32.861090 -7.986263 33.884934 -1.505925 1.808722 0.053775 -0.025130 -240159.000000 0 0 1
3.006038 -32.523920 -6.953663 33.394537 -1.478633 1.780559 0.051235 -0.031359 -146107.000000 0 0 1
4.292538 -31.755480 -7.480963 32.905945 -1.436436 1.800146 0.042435 -0.029200 719941.000000 0 0 1
5.117338 -32.458030 -8.369763 33.908167 -1.414423 1.820210 0.043725 -0.022023 -440295.000000 0 0 1
6.007738 -33.248270 -7.655163 34.643064 -1.392032 1.793608 0.051065 -0.010704 -1344780.000000 0 0 1
6.450738 33.890382 -8.361863 35.497757 1.382705 1.808591 0.045128 -0.010613 -79377.200000 0 0 1
5.433938 32.918604 -8.478363 34.424479 1.407200 1.819646 0.042289 -0.019060 -102806.000000 0 0 1
4.537038 33.169353 -9.552163 34.814286 1.434856 1.848736 0.049605 -0.024639 105021.000000 0 0 1
3.562738 31.992592 -9.741163 33.631968 1.459892 1.864647 0.047225 -0.037368 -155179.000000 0 0 1
4.241138 30.866352 -10.282763 32.809360 1.434248 1.889578 0.027285 -0.021787 -1244.190000 0 0 1
3.433338 29.723632 -10.395063 31.675534 1.455797 1.905165 0.022757 -0.026018 -80594.000000 0 0 1
4.132338 28.645192 -11.272963 31.059667 1.427525 1.942223 0.022508 -0.022399 115240.000000 0 0 1
4.211238 29.007062 -12.635263 31.918553 1.426624 1.977800 0.030274 -0.013559 533004.000000 0 0 1
5.478338 28.731632 -13.271263 32.119235 1.382385 1.996748 0.015635 -0.012256 845022.000000 0 0 1
5.577838 29.249862 -14.726363 33.219459 1.382363 2.030079 0.022673 -0.010720 -747009.000000 0 0 1
4.757938 28.567772 -15.558163 32.875705 1.405762 2.063764 0.050643 -0.014285 -529503.000000 0 0 1
5.118938 28.827692 -16.910963 33.811537 1.395058 2.094573 0.064639 -0.018281 -335419.000000 0 0 1
3.980838 28.412342 -17.822663 33.775073 1.431593 2.126671 0.062182 -0.022320 -182593.000000 0 0 1
4.177938 27.031292 -18.201063 32.854598 1.417450 2.157944 0.070588 -0.012098 -48229.500000 0 0 1
3.297838 26.674772 -19.242363 33.055827 1.447789 2.192126 0.107415 -0.027298 23099.000000 0 0 1
3.700338 25.420462 -19.979063 32.543130 1.426246 2.231821 0.113714 -0.034264 124021.000000 0 0 1
3.665638 24.193832 -19.268163 31.145473 1.420429 2.237820 0.121399 -0.038269 443879.000000 0 0 1
4.724838 23.306842 -19.683863 30.870494 1.370784 2.262210 0.107893 -0.028760 500136.000000 0 0 1
4.922538 22.054242 -18.828463 29.413126 1.351194 2.265474 0.103707 -0.025814 439748.000000 0 0 1
3.852438 21.110542 -18.818563 28.541804 1.390294 2.290728 0.135273 -0.023078 -33318.300000 0 0 1
4.330238 20.090142 -18.044363 27.348927 1.358504 2.291327 0.106112 -0.015380 -404275.000000 0 0 1
3.496338 18.840142 -17.922063 26.236914 1.387305 2.322776 0.099125 -0.025415 -576838.000000 0 0 1
2.353138 19.120642 -17.136263 25.783477 1.448344 2.297784 0.089769 -0.017838 -148165.000000 0 0 1
1.584438 17.927142 -16.945863 24.719529 1.482643 2.326121 0.059894 -0.011550 185841.000000 0 1 0
2.193738 16.910542 -15.883863 23.303991 1.441791 2.320735 0.051950 -0.007044 275692.000000 0 1 0
3.387538 16.212642 -16.202463 23.169915 1.364816 2.345198 0.058619 -0.018643 -202920.000000 0 1 0
3.292838 15.083342 -17.045863 22.998074 1.355859 2.405632 0.061606 -0.021407 -164566.000000 0 1 0
3.104538 15.354442 -18.547363 24.277597 1.371294 2.440240 0.068859 -0.020067 -715101.000000 0 1 0
4.314238 15.721942 -19.115963 25.123936 1.302980 2.435444 0.079580 -0.022012 -702484.000000 0 0 1
4.125238 16.175342 -20.483663 26.424226 1.321087 2.457804 0.070794 -0.023198 -275729.000000 0 0 1
4.370838 15.035242 -21.547763 26.635856 1.287888 2.513204 0.072431 -0.037733 -112862.000000 0 0 1
3.490138 13.943942 -21.685963 26.017217 1.325537 2.556251 0.072925 -0.034818 -451102.000000 0 0 1
2.295338 14.373742 -22.288363 26.620371 1.412444 2.563062 0.066540 -0.033513 14056.200000 0 0 1
1.293338 13.290542 -22.838063 26.455403 1.473789 2.612502 0.066308 -0.026588 285607.000000 0 0 1
0.665138 12.541942 -21.820663 25.177054 1.517813 2.619322 0.069384 -0.018353 292651.000000 0 0 1
-0.006262 11.426342 -22.474563 25.212443 -1.570248 2.671238 0.049430 -0.008513 29236.800000 0 0 1
-0.455862 10.404142 -21.424863 23.821812 -1.527009 2.689146 0.041202 -0.011168 -835456.000000 0 1 0
-1.487262 10.991342 -20.667763 23.455873 -1.436301 2.649051 0.034697 -0.009188 -218760.000000 0 1 0
-2.025462 10.241542 -19.601063 22.207957 -1.375547 2.652191 0.022639 -0.003825 399847.000000 0 1 0
-3.126562 9.253342 -20.067963 22.318666 -1.244955 2.688633 0.015184 -0.003802 -107304.000000 0 1 0
-2.577162 8.133142 -20.749763 22.435294 -1.263934 2.751494 0.016372 -0.004934 -860825.000000 0 1 0
-3.545662 7.191342 -20.993963 22.472952 -1.112727 2.776773 0.009741 -0.002217 -521794.000000 0 1 0
-3.020362 5.965842 -21.742363 22.747400 -1.102141 2.843225 0.015165 -0.016692 151934.000000 0 1 0
-2.140262 5.107842 -21.010463 21.728100 -1.174006 2.883866 0.021636 -0.007196 269439.000000 0 1 0
-1.923562 3.845842 -21.649363 22.072279 -1.107015 2.945521 0.030198 -0.017941 -317906.000000 0 1 0
-1.068562 2.881342 -20.797563 21.023382 -1.215664 2.994892 0.032441 -0.018586 160186.000000 0 1 0
0.280238 3.324642 -20.812563 21.078296 1.486704 2.982637 0.025692 -0.013229 -96785.000000 0 1 0
1.112138 2.505042 -20.053363 20.239799 1.152977 3.005758 0.027127 -0.006871 -333019.000000 0 1 0
2.615938 2.512842 -20.354563 20.675245 0.765299 2.965237 0.024148 -0.001991 -50394.100000 0 1 0
3.014738 1.768842 -21.463463 21.746211 0.530606 2.980159 0.045859 -0.006844 1181810.000000 0 1 0
4.441638 1.484542 -21.366863 21.874068 0.322560 2.925826 0.068677 -0.004532 1351890.000000 0 1 0
5.021938 1.006442 -22.717263 23.287482 0.197789 2.919842 0.066837 -0.004519 -575081.000000 0 1 0
6.409138 0.847442 -22.622963 23.528571 0.131461 2.863243 0.067273 -0.010384 -492088.000000 0 1 0
7.004038 0.507642 -23.852763 24.865006 0.072352 2.855275 0.066947 -0.016623 349852.000000 0 1 0
8.550238 0.429542 -23.630763 25.133723 0.050195 2.794018 0.066364 -0.027654 549030.000000 0 0 1
9.116838 1.717042 -23.637563 25.392900 0.186157 2.767591 0.068398 -0.029340 -812303.000000 0 0 1
10.496738 1.699342 -23.487763 25.782635 0.160500 2.716478 0.060499 -0.030383 -858286.000000 0 0 1
14.266238 -21.610890 22.723531 34.451633 -0.987325 0.850539 0.032908 -0.000968 -551794.000000 0 0 1
12.992938 -22.132390 23.082031 34.517232 -1.039949 0.838323 0.022574 0.009728 -206338.000000 0 0 1
11.976938 -21.289190 22.656331 33.316452 -1.058344 0.822987 0.019260 -0.001915 -333303.000000 0 0 1
11.633738 -21.114490 21.143231 32.065586 -1.067198 0.850810 0.016888 -0.016379 -750368.000000 0 0 1
11.962338 -19.866790 20.652631 31.053471 -1.028814 0.843213 0.011589 -0.018260 166621.000000 0 0 1
11.460938 -19.795490 19.296431 29.926022 -1.045986 0.870029 0.036768 -0.019261 123124.000000 0 0 1
11.573738 -18.436390 18.573831 28.615365 -1.010210 0.864414 0.057922 -0.028495 -361266.000000 0 0 1
10.783638 -17.390690 19.057531 27.962697 -1.015742 0.820939 0.059933 -0.032705 -109670.000000 0 0 1
10.942138 -16.227990 18.256231 26.765052 -0.977544 0.820177 0.066406 -0.030213 -553441.000000 0 0 1
9.976638 -15.069090 18.632531 25.957311 -0.985990 0.770138 0.073571 -0.017266 541358.000000 0 0 1
8.633938 -15.352190 18.278631 25.383912 -1.058489 0.766868 0.060177 -0.019874 -433492.000000 0 0 1
7.718038 -14.525790 18.926631 25.075567 -1.082397 0.715472 0.042487 -0.013561 -167350.000000 0 0 1
6.277938 -14.922390 18.553031 24.623265 -1.172568 0.717464 0.029502 -0.007260 -349804.000000 0 1 0
5.919438 -14.884890 17.184131 23.492426 -1.192291 0.750313 0.019832 -0.006778 106212.000000 0 1 0
4.524538 -15.012390 16.964731 23.100766 -1.278068 0.746044 0.007522 -0.000285 307908.000000 0 1 0
3.842938 -16.436790 17.116631 24.039869 -1.341121 0.778439 0.006310 0.004611 -163344.000000 0 1 0
2.582138 -16.481390 16.489331 23.456379 -1.415390 0.791219 0.009726 0.001489 -459442.000000 0 1 0
2.107838 -17.785390 16.455431 24.321684 -1.452831 0.827696 0.031397 -0.010080 -269230.000000 0 1 0
0.598938 -17.782990 16.207331 24.068050 -1.537129 0.832003 0.035650 -0.003179 -299221.000000 0 1 0
0.231038 -17.624490 14.855631 23.051373 -1.557688 0.870483 0.033798 -0.003653 66387.400000 0 1 0
-1.175562 -17.770390 14.733231 23.113563 1.504740 0.879641 0.025921 -0.002095 21518.900000 0 1 0
-1.617262 -18.409190 13.367831 22.808172 1.483170 0.944561 0.017036 -0.002476 -524229.000000 0 1 0
-3.011662 -18.401390 13.257831 22.879059 1.408570 0.952713 0.013484 -0.012292 -644103.000000 0 1 0
-3.404662 -19.496190 12.450631 23.381860 1.397908 1.009255 0.026508 -0.023063 2659140.000000 0 1 0
-5.028962 -19.620290 12.495831 23.798992 1.319884 1.018014 0.035205 -0.026267 2835010.000000 0 1 0
-5.701462 -20.189390 13.661331 25.034978 1.295564 0.993584 0.032118 -0.032338 80772.900000 0 0 1
-5.797762 -21.577990 13.643531 26.179565 1.308307 1.022596 0.004318 -0.018368 144022.000000 0 0 1
-6.728962 -22.237890 14.753231 27.522001 1.276965 1.005043 0.024710 -0.020976 716498.000000 0 0 1
-8.105062 -21.934590 14.556331 27.544601 1.216847 1.014006 0.028292 -0.015394 82839.100000 0 0 1
-8.849062 -22.669190 15.536931 28.872033 1.198631 1.002578 0.035274 -0.019603 160200.000000 0 0 1
-10.322962 -22.212390 15.470931 28.970736 1.135753 1.007449 0.046627 -0.010201 29872.500000 0 0 1
-10.441362 -20.871390 15.943031 28.263355 1.106932 0.971467 0.026925 -0.002071 -336837.000000 0 0 1
-11.766362 -20.386990 15.805231 28.352812 1.047347 0.979487 0.025687 -0.001742 -71263.000000 0 0 1
-12.134962 -19.293090 16.755931 28.288546 1.009340 0.936858 0.036502 0.002475 -611350.000000 0 0 1
-12.417662 -19.764690 18.042531 29.502106 1.009845 0.912756 0.038493 0.005601 3192.710000 0 0 1
-12.550662 -18.757590 19.043531 29.530025 0.981113 0.869921 0.034134 0.001202 -139995.000000 0 0 1
-12.995162 -19.335090 20.408731 30.971539 0.979040 0.851373 0.034094 0.000517 56017.500000 0 0 1
-14.370862 -19.651690 20.487131 31.818755 0.939385 0.871251 0.032473 0.001604 101922.000000 0 0 1
-14.662062 -20.164590 21.779031 33.104576 0.942100 0.852788 0.029307 0.008898 -64978.600000 0 0 1
-16.053662 -20.820590 21.687131 34.081501 0.913960 0.881063 0.037306 -0.005241 -864898.000000 0 0 1
-16.114462 -21.932990 20.798231 34.253443 0.937151 0.918281 0.041017 -0.005265 860904.000000 0 0 1
-17.422562 -22.212890 20.268131 34.752774 0.905674 0.948123 0.039930 -0.004863 669454.000000 0 0 1
-18.395662 -22.867290 21.257931 36.238281 0.893346 0.943923 0.045334 -0.010875 -888729.000000 0 0 1
-18.859562 -22.038790 22.261631 36.564622 0.862977 0.916212 0.043399 -0.011037 108417.000000 0 0 1
-19.778462 -22.667490 23.163131 37.967530 0.853357 0.914638 0.049629 -0.020460 364945.000000 0 0 1
-20.473162 -21.606990 24.059471 38.273627 0.812336 0.891022 0.045274 -0.015266 35821.300000 0 0 1
-21.521662 -20.851890 23.487741 38.074365 0.769593 0.906010 0.055422 -0.009207 322916.000000 0 0 1
-21.704562 -19.687890 24.258991 38.042078 0.736716 0.879303 0.059114 -0.015952 -256412.000000 0 0 1
-22.636562 -18.703390 23.575771 37.656974 0.690542 0.894298 0.068891 -0.014511 -161059.000000 0 0 1
-22.054962 -17.830490 22.610731 36.271103 0.679876 0.897737 0.071878 -0.016529 334464.000000 0 0 1
-23.060762 -16.990290 22.021531 36.130549 0.634975 0.915368 0.068263 -0.014603 218003.000000 0 0 1
-22.643162 -16.430390 20.671631 34.784865 0.627716 0.934438 0.063228 -0.009006 -637502.000000 0 0 1
-21.643862 -15.478790 20.778531 33.760881 0.620827 0.907825 0.088564 -0.014856 -663901.000000 0 0 1
-21.265662 -15.047990 19.482031 32.530292 0.615821 0.928683 0.077482 -0.007853 -729623.000000 0 0 1
-20.142862 -14.079490 19.326131 31.264457 0.610042 0.904409 0.071828 -0.018989 -687732.000000 0 0 1
-19.788162 -14.066590 17.950131 30.193501 0.617977 0.934149 0.073152 -0.019246 165555.000000 0 0 1
-18.928762 -12.967590 17.610731 28.923939 0.600638 0.916169 0.071724 -0.023347 -732053.000000 0 0 1
-18.313862 -13.188690 16.224031 27.794933 0.624120 0.947513 0.052540 -0.028327 252263.000000 0 0 1
-17.651562 -12.056590 15.603331 26.465127 0.599247 0.940257 0.048717 -0.015413 603607.000000 0 0 1
-16.574662 -11.512790 16.352731 25.974518 0.607094 0.889799 0.032513 -0.018407 -771968.000000 0 0 1
-16.011662 -10.272090 15.689931 24.658935 0.570404 0.881133 0.039697 -0.007488 -204334.000000 0 1 0
-16.850262 -9.143590 15.878231 24.892866 0.497173 0.879076 0.047912 -0.007594 221129.000000 0 1 0
-16.531862 -8.014190 15.066131 23.759588 0.451391 0.883943 0.046011 -0.002399 -771899.000000 0 1 0
-16.869362 -6.674090 15.849431 24.089901 0.376737 0.852732 0.066796 0.000017 88833.200000 0 1 0
-15.983662 -6.272990 16.857031 24.062156 0.373992 0.794612 0.044200 -0.000874 724219.000000 0 1 0
-14.593762 -6.184690 16.476831 22.862945 0.400845 0.766016 0.042908 -0.007469 210953.000000 0 1 0
-13.696362 -6.217990 17.729231 23.250363 0.426166 0.703573 0.036431 -0.000797 -256912.000000 0 1 0
-13.717362 -7.400590 18.537331 24.219154 0.494750 0.699134 0.028787 -0.012357 19845.400000 0 1 0
-13.223862 -8.592190 17.893831 23.851320 0.576199 0.722396 0.034225 -0.014785 -883921.000000 0 1 0
-13.358662 -9.840690 18.791631 25.068275 0.634904 0.723312 0.032257 -0.015606 -73104.500000 0 0 1
-14.620562 -10.379490 19.137331 26.224647 0.617355 0.752846 0.036365 -0.017288 41442.300000 0 0 1
-15.403662 -9.586090 19.990331 26.995912 0.556674 0.736990 0.029739 -0.015403 -1214870.000000 0 0 1
-16.777562 -10.070590 20.410431 28.275238 0.540597 0.764327 0.032475 -0.012677 686898.000000 0 0 1
-17.902562 -10.077990 19.483431 28.313808 0.512720 0.811895 0.055284 -0.011516 1253420.000000 0 0 1
-18.347362 -8.820290 18.974831 27.829255 0.448120 0.820534 0.051496 -0.010280 -670646.000000 0 0 1
-19.523462 -8.832590 18.005331 27.988786 0.424855 0.871989 0.066504 -0.008120 -965529.000000 0 0 1
-20.781162 -8.955790 18.559331 29.266220 0.406906 0.883881 0.069953 -0.016113 -525268.000000 0 0 1
-21.725662 -8.951790 17.473831 29.282652 0.390840 0.931377 0.068760 -0.011436 561847.000000 0 0 1
-23.208862 -9.212690 17.837031 30.686880 0.377872 0.950521 0.078485 -0.009781 95091.900000 0 0 1
-23.864762 -8.167590 18.508431 31.285754 0.329749 0.937763 0.085378 -0.006023 164427.000000 0 0 1
-25.193832 -8.549290 18.782931 32.567131 0.327147 0.956058 0.092699 -0.002144 -11217.000000 0 0 1
-25.962742 -7.474990 19.649731 33.407355 0.280331 0.941983 0.088579 -0.006189 55048.300000 0 0 1
-25.778352 -7.621990 21.067731 34.153586 0.287483 0.906059 0.096760 -0.008111 327169.000000 0 0 1
-26.336212 -6.489890 21.768131 34.778819 0.241611 0.894509 0.091632 -0.015876 -411876.000000 0 0 1
-26.284742 -6.547590 23.317431 35.741589 0.244134 0.860064 0.084950 -0.011302 594729.000000 0 0 1
-25.027362 -6.316590 23.933941 35.200876 0.247224 0.823137 0.074419 -0.015159 331030.000000 0 0 1
-23.973562 -7.236790 23.732221 34.501031 0.293167 0.812246 0.084688 -0.011852 -249086.000000 0 0 1
-22.768662 -6.980190 24.662091 34.283433 0.297473 0.767917 0.079327 -0.009554 88570.300000 0 0 1
-22.282762 -5.659390 24.522551 33.614070 0.248722 0.753158 0.064135 -0.013645 -191931.000000 0 0 1
-21.496362 -5.286090 25.606601 33.848698 0.241122 0.712849 0.068106 -0.012497 -241191.000000 0 0 1
-21.103162 -3.812690 25.659371 33.440744 0.178741 0.696163 0.056740 -0.014284 -60168.400000 0 0 1
-20.093862 -3.437790 26.563321 33.484201 0.169446 0.654571 0.045027 -0.011636 -321716.000000 0 0 1
-20.365562 -3.581390 27.965991 34.780442 0.174075 0.636683 0.053626 -0.017648 131554.000000 0 0 1
-21.232462 -2.468790 28.600181 35.705500 0.115755 0.641829 0.060548 -0.023923 -106287.000000 0 0 1
-22.526362 -2.266290 28.138051 36.115412 0.100269 0.677544 0.064822 -0.023860 -885864.000000 0 0 1
-23.244462 -1.291490 28.874961 37.090920 0.055504 0.678538 0.071682 -0.024281 1270050.000000 0 0 1
-24.586562 -0.896990 28.123521 37.366242 0.036467 0.718726 0.077400 -0.029758 587465.000000 0 0 1
-24.311962 -0.328490 26.835871 36.212475 0.013511 0.736138 0.064683 -0.035035 -21107.700000 0 0 1
-25.452802 -0.004190 26.054751 36.423827 0.000165 0.773712 0.068347 -0.027115 -80389.200000 0 0 1
-26.221322 -1.220390 25.473101 36.577670 0.046508 0.800412 0.061511 -0.024814 -351644.000000 0 0 1
-27.204492 -1.712490 26.345131 37.908877 0.062866 0.802433 0.058294 -0.021844 -129390.000000 0 0 1
-27.772452 -2.945390 25.953951 38.126001 0.105659 0.822022 0.047589 -0.019908 362928.000000 0 0 1
-26.855652 -4.229790 26.098601 37.686259 0.156218 0.805816 0.061483 -0.022815 385520.000000 0 0 1
-26.582112 -4.508190 27.454821 38.479860 0.167996 0.776336 0.062648 -0.021244 -80601.300000 0 0 1
-25.794102 -5.682190 27.565931 38.177265 0.216827 0.764034 0.072988 -0.019913 197904.000000 0 0 1
-25.424042 -6.249490 29.032211 39.093571 0.241032 0.733802 0.065717 -0.016914 339412.000000 0 0 1
-26.562052 -6.825090 29.652731 40.390703 0.251508 0.746386 0.066331 -0.008580 335617.000000 0 0 1
-26.187782 -7.519790 30.816831 41.134222 0.279625 0.723977 0.074862 -0.005022 -85987.900000 0 0 1
-27.338882 -8.164690 31.655221 42.616073 0.290216 0.733553 0.039168 -0.008063 338402.000000 0 0 1
-28.015992 -9.114090 30.794791 42.617855 0.314519 0.763270 0.029745 -0.012161 1193560.000000 0 0 1
-29.421902 -9.197490 31.105031 43.792295 0.302982 0.780893 0.030854 -0.008896 818483.000000 0 0 1
-30.193652 -9.945090 30.008161 43.715571 0.318186 0.814213 0.020601 -0.025294 -259006.000000 0 0 1
-30.158782 -11.364790 30.202411 44.168951 0.360376 0.817848 0.034763 -0.027910 149236.000000 0 0 1
-30.889652 -12.119490 29.268841 44.246104 0.373892 0.847978 0.012666 -0.019164 -41257.500000 0 0 1
-30.039942 -13.289290 28.622471 43.568902 0.416505 0.854034 0.024081 -0.025158 1090510.000000 0 0 1
-29.025742 -12.772190 27.716381 42.116746 0.414532 0.852524 0.038526 -0.023857 322069.000000 0 0 1
-28.014702 -13.692190 27.420641 41.523381 0.454607 0.849490 0.054410 -0.025248 -537912.000000 0 0 1
-26.882212 -13.006390 26.628511 40.011212 0.450627 0.842598 0.078651 -0.032148 -267795.000000 0 0 1
-25.997982 -12.250590 27.482631 39.765149 0.440354 0.807754 0.080760 -0.034319 -5583.630000 0 0 1
-26.486282 -11.085590 28.139061 40.202241 0.396387 0.795486 0.079811 -0.037991 -854226.000000 0 0 1
-26.714322 -9.838790 27.232601 39.396337 0.352881 0.807583 0.085865 -0.031689 21207.000000 0 0 1
-25.530972 -9.374590 26.621491 38.058077 0.351902 0.796104 0.084760 -0.029275 -41677.100000 0 0 1
-25.002062 -10.211090 25.565861 37.188476 0.387735 0.812801 0.072249 -0.030846 -155798.000000 0 0 1
-25.706192 -10.233590 24.158521 36.731033 0.378866 0.853016 0.081218 -0.023244 -234723.000000 0 0 1
-26.958722 -10.856590 24.106441 37.759221 0.382842 0.878346 0.080251 -0.024367 -737815.000000 0 0 1
-27.587112 -10.783690 22.849031 37.408755 0.372634 0.913734 0.102185 -0.013568 35476.100000 0 0 1
-28.838732 -11.714990 22.788131 38.577356 0.385861 0.938855 0.095256 -0.024952 800916.000000 0 0 1
-30.022332 -11.228290 23.429551 39.703385 0.357892 0.939595 0.081643 -0.020924 136891.000000 0 0 1
-29.923192 -11.090990 24.882771 40.466774 0.354950 0.908545 0.083772 -0.020821 543987.000000 0 0 1
-31.304912 -10.773390 25.647641 41.879171 0.331448 0.911678 0.026432 -0.018719 851610.000000 0 0 1
-31.771142 -9.441890 25.385881 41.749224 0.288872 0.917186 0.030311 -0.019330 909451.000000 0 0 1
-33.182302 -9.221990 25.597081 42.910614 0.271078 0.931637 0.023738 -0.011585 1192610.000000 0 0 1
-33.641882 -9.386290 27.093721 44.203488 0.272087 0.911031 0.007761 -0.006887 -788996.000000 0 0 1
-33.735392 -10.684490 27.607811 44.882360 0.306720 0.908265 0.008133 -0.016646 225567.000000 0 0 1
-34.347207 -10.700490 28.893191 46.141604 0.302009 0.894146 0.010229 -0.015093 -887013.000000 0 0 1
-34.821409 -12.063390 29.478161 47.191290 0.333496 0.896110 0.022643 -0.019628 78532.300000 0 0 1
-35.963587 -12.678290 28.915851 47.856505 0.338928 0.922010 0.012725 -0.020224 -48984.300000 0 0 1
35.610141 -12.057790 29.172471 47.586821 -0.326488 0.910898 0.011602 -0.017763 -323902.000000 0 0 1
34.389631 -12.684190 28.396371 46.366899 -0.353357 0.911668 0.017604 -0.020749 511419.000000 0 0 1
34.344431 -12.367090 27.018211 45.414410 -0.345635 0.933623 0.021196 -0.018301 21115.400000 0 0 1
33.115301 -12.746690 26.426901 44.243445 -0.367438 0.930658 0.035354 -0.011611 -40863.200000 0 0 1
32.950241 -12.140390 24.989831 43.099874 -0.353013 0.952298 0.034162 -0.020323 -171923.000000 0 0 1
32.639531 -10.779990 25.011381 42.510191 -0.318995 0.941765 0.037229 -0.027096 -29978.400000 0 0 1
32.573171 -10.312790 23.669281 41.564408 -0.306619 0.964947 0.033744 -0.020392 -493178.000000 0 0 1
32.272671 -8.789890 23.538601 40.900528 -0.265913 0.957571 0.045796 -0.002679 2147380.000000 0 0 1
30.834861 -8.549490 23.810901 39.885354 -0.270473 0.931060 0.054721 -0.011737 1847430.000000 0 0 1
30.472111 -7.343890 23.222631 39.009907 -0.236494 0.933156 0.060332 -0.003732 -456037.000000 0 0 1
28.952521 -7.184590 23.229331 37.808315 -0.243237 0.909174 0.048516 0.005089 -541428.000000 0 0 1
28.307091 -8.037390 22.340831 36.945958 -0.276654 0.921420 0.041134 0.013701 323613.000000 0 0 1
26.894401 -7.888490 22.216831 35.764853 -0.285311 0.900534 0.039419 -0.004677 525458.000000 0 0 1
14.791938 -17.737290 25.751861 34.591491 -0.875697 0.731076 0.037375 0.011181 -331533.000000 0 0 1
14.199038 -19.006090 25.823851 35.067299 -0.929168 0.743050 0.028803 0.006867 288631.000000 0 0 1
15.045138 -20.011290 26.359781 36.354449 -0.926123 0.759650 0.029532 -0.003740 -862659.000000 0 0 1
14.354638 -21.413490 26.273721 36.808988 -0.980245 0.775908 0.013994 -0.013024 -56393.700000 0 0 1
13.474538 -21.770290 27.283501 37.415213 -1.016565 0.753631 0.010860 -0.016827 807921.000000 0 0 1
12.238238 -21.003990 27.221161 36.495667 -1.043223 0.728951 0.019739 -0.008694 13749.000000 0 0 1
11.538538 -20.903990 28.626281 37.277052 -1.066436 0.695188 0.011099 -0.008069 -214853.000000 0 0 1
12.224938 -20.225190 29.653341 37.918703 -1.027118 0.672889 0.016427 -0.011189 -326416.000000 0 0 1
11.400338 -19.665690 30.655321 38.163540 -1.045432 0.638045 0.018142 -0.009797 -504770.000000 0 0 1
11.113338 -18.174590 30.437061 37.151537 -1.021981 0.610663 0.022064 -0.012091 -259264.000000 0 0 1
12.183438 -17.292690 30.634411 37.228221 -0.957028 0.604333 0.012760 -0.001225 -651953.000000 0 0 1
11.854638 -15.922790 30.149841 36.098208 -0.930820 0.582269 0.029007 -0.007607 -59438.800000 0 0 1
12.924138 -14.870690 30.467111 36.282442 -0.855317 0.574028 0.032950 -0.004160 -139864.000000 0 0 1
12.549638 -13.594890 30.061381 35.298741 -0.825357 0.551714 0.065922 -0.008254 -441995.000000 0 0 1
13.427838 -12.607490 30.424701 35.565687 -0.753900 0.544375 0.064061 -0.006586 -619049.000000 0 0 1
12.989638 -11.228190 29.772441 34.368608 -0.712792 0.523112 0.074193 -0.016363 -123729.000000 0 0 1
13.272538 -10.918690 28.479931 33.263862 -0.688402 0.542961 0.088865 -0.011747 71674.100000 0 0 1
14.648938 -10.692290 28.221141 33.546226 -0.630514 0.571184 0.081480 -0.007806 -19663.300000 0 0 1
14.844738 -9.694490 27.024471 32.321377 -0.578523 0.580629 0.084717 -0.000088 13835.800000 0 0 1
14.968738 -8.311290 27.345821 32.263518 -0.506860 0.559393 0.089168 -0.003847 638977.000000 0 0 1
16.249938 -7.943890 27.860851 33.217358 -0.454693 0.575824 0.090391 -0.007642 159809.000000 0 0 1
16.668038 -6.489490 27.571331 32.865107 -0.371281 0.575493 0.086937 -0.008001 629948.000000 0 0 1
18.081638 -6.330790 27.708081 33.686233 -0.336784 0.604943 0.086581 -0.014325 549560.000000 0 0 1
18.569938 -5.140390 27.200161 33.333391 -0.270050 0.616333 0.079138 -0.014911 -254957.000000 0 0 1
20.093238 -4.999790 27.109181 34.112224 -0.243877 0.652274 0.073170 -0.015362 -581221.000000 0 0 1
20.716038 -5.900390 26.193021 33.912287 -0.277475 0.688224 0.073048 -0.006823 236651.000000 0 0 1
22.109438 -5.869590 26.000881 34.631274 -0.259493 0.721536 0.060440 -0.002103 121039.000000 0 0 1
23.066238 -6.164490 27.157691 36.160648 -0.261148 0.721177 0.057555 -0.014250 -702243.000000 0 0 1
23.352538 -5.036690 28.002791 36.808499 -0.212427 0.706298 0.064737 -0.014271 766861.000000 0 0 1
24.353138 -5.295490 29.030461 38.260753 -0.214113 0.709400 0.075280 -0.028556 668215.000000 0 0 1
25.045338 -3.992090 29.496511 38.900513 -0.158065 0.710164 0.085226 -0.029526 -139612.000000 0 0 1
26.127338 -3.485390 28.732331 38.991443 -0.132617 0.742341 0.063960 -0.023381 217968.000000 0 0 1
26.188838 -2.090090 28.867171 39.032516 -0.079640 0.738369 0.049916 -0.027313 -715307.000000 0 0 1
27.179538 -1.458290 27.911701 38.986112 -0.053603 0.772827 0.048076 -0.025215 489105.000000 0 0 1
28.540438 -1.720290 28.295851 40.226499 -0.060203 0.790608 0.063207 -0.019618 392622.000000 0 0 1
29.407638 -1.138690 27.359561 40.182725 -0.038702 0.821835 0.056575 -0.001069 -196158.000000 0 0 1
30.879438 -0.981190 27.753301 41.530087 -0.031764 0.838916 0.050998 -0.009856 -188175.000000 0 0 1
31.150538 -0.026790 28.754491 42.393130 -0.000860 0.825374 0.037385 0.006805 791448.000000 0 0 1
32.554938 0.072710 29.052591 43.633500 0.002233 0.842188 0.049300 -0.003771 899500.000000 0 0 1
32.784038 1.229910 29.966201 44.432860 0.037498 0.830624 0.039033 -0.020225 -232837.000000 0 0 1
32.595938 2.450610 29.344141 43.926977 0.075040 0.839250 0.032317 -0.007216 135289.000000 0 0 1
33.012838 3.509110 30.196241 44.877325 0.105898 0.832726 0.029598 -0.009180 -98743.000000 0 0 1
32.953638 4.920210 29.582931 44.556711 0.148212 0.844722 0.032631 0.001058 -26852.000000 0 0 1
33.142038 5.928110 30.570771 45.476469 0.176998 0.833576 0.039307 0.000477 5823.850000 0 0 1
31.915238 6.491110 30.971521 44.943877 0.200649 0.810529 0.038895 0.004137 -246066.000000 0 0 1
32.056838 7.336210 32.271441 46.075012 0.224976 0.794823 0.048044 0.001418 -269407.000000 0 0 1
32.405838 6.524910 33.317618 46.933746 0.198693 0.781460 0.037747 0.011328 -40420.100000 0 0 1
32.641438 7.266810 -33.926933 47.637242 0.219053 2.363414 0.036374 0.003361 -34766.600000 0 0 1
33.241938 6.432010 -32.736883 47.096716 0.191129 2.339354 0.060095 0.003402 126037.000000 0 0 1
32.477038 5.377710 -32.152873 46.016138 0.164096 2.344418 0.046556 0.012462 192442.000000 0 0 1
32.653438 4.217310 -32.918983 46.558481 0.128443 2.356108 0.057650 -0.002383 20582.300000 0 0 1
32.391338 2.957310 -32.058243 45.669195 0.091047 2.348951 0.056934 -0.010594 -18129.100000 0 0 1
32.421738 1.741710 -32.769893 46.130993 0.053669 2.360815 0.058379 -0.015276 167252.000000 0 0 1
32.649138 0.728810 -31.844413 45.613200 0.022319 2.343593 0.055346 -0.019520 -187644.000000 0 0 1
32.584338 -0.703590 -32.556043 46.066583 -0.021590 2.355644 0.062971 -0.043275 -1089660.000000 0 0 1
33.689838 -1.085590 -33.339443 47.409937 -0.032212 2.350708 0.053697 -0.036094 -308386.000000 0 0 1
34.377038 -2.206990 -32.906833 47.639387 -0.064112 2.333320 0.057064 -0.027149 410553.000000 0 0 1
35.368238 -1.894590 -31.712273 47.541245 -0.053516 2.301035 0.061258 -0.022105 -576928.000000 0 0 1
34.705638 -1.650790 -30.496033 46.230017 -0.047530 2.291161 0.072058 -0.023261 -178012.000000 0 0 1
35.516638 -1.797790 -29.338943 46.102464 -0.050575 2.260600 0.090060 -0.019478 -185955.000000 0 0 1
34.791438 -1.526990 -27.995913 44.682737 -0.043862 2.247913 0.091784 -0.018342 -19005.500000 0 0 1
34.336938 -0.186890 -27.918593 44.255034 -0.005443 2.253453 0.075664 -0.005911 -70977.500000 0 0 1
33.657638 0.039210 -26.751993 42.994270 0.001165 2.242375 0.076671 -0.003395 -539248.000000 0 0 1
33.011038 1.436810 -26.758173 42.518148 0.043498 2.251494 0.059558 0.004014 -359321.000000 0 0 1
31.877238 1.409410 -27.583663 42.178231 0.044185 2.283628 0.073543 -0.011738 -62817.400000 0 0 1
31.279438 2.700010 -27.511643 41.744267 0.086106 2.290354 0.060614 0.002502 205423.000000 0 0 1
30.359138 3.030010 -28.730613 41.908309 0.099476 2.326167 0.065376 -0.002002 477114.000000 0 0 1
29.487338 4.142410 -28.453733 41.185891 0.139568 2.333476 0.063899 0.002871 359248.000000 0 0 1
28.677538 4.539510 -29.517263 41.403830 0.156992 2.364438 0.052447 0.002232 66679.600000 0 0 1
27.625938 5.631210 -29.163163 40.563445 0.201083 2.373089 0.051934 -0.003281 16786.800000 0 0 1
26.549838 5.144910 -28.405533 39.220381 0.191411 2.380749 0.063705 -0.006820 321021.000000 0 0 1
25.623838 6.145310 -27.996133 38.446448 0.235382 2.386467 0.068188 -0.005136 585899.000000 0 0 1
24.179338 5.660310 -27.653013 37.166768 0.229956 2.409871 0.072230 -0.007031 302541.000000 0 0 1
23.480138 5.266810 -28.831233 37.553910 0.220657 2.446086 0.071197 -0.015489 -424466.000000 0 0 1
22.218638 4.820410 -28.450053 36.418536 0.213643 2.467377 0.079549 -0.017432 -1068250.000000 0 0 1
21.422438 4.259910 -29.577073 36.767797 0.196292 2.505510 0.069190 -0.016937 -490774.000000 0 0 1
21.779138 2.929810 -29.914173 37.118356 0.133721 2.508013 0.063514 -0.022057 499014.000000 0 0 1
20.936038 2.303310 -30.916583 37.409331 0.109576 2.543552 0.041240 -0.017470 105953.000000 0 0 1
20.996038 3.030710 -32.256393 38.606913 0.143357 2.559853 0.051299 -0.008954 -461928.000000 0 0 1
22.165738 2.797010 -32.969433 39.826206 0.125523 2.546029 0.050969 -0.010087 -606591.000000 0 0 1
22.311638 3.349610 34.154364 40.933479 0.149015 0.583777 0.047968 -0.012743 35138.300000 0 0 1
23.711138 3.032710 33.567060 41.208772 0.127212 0.618824 0.043461 -0.004129 110489.000000 0 0 1
23.950838 1.661310 33.303190 41.054903 0.069252 0.624618 0.062794 -0.016616 1257920.000000 0 0 1
25.354138 1.374210 33.059748 41.685342 0.054148 0.654950 0.066903 -0.024138 924621.000000 0 0 1
25.668938 -0.021290 32.483878 41.401657 -0.000829 0.668740 0.063922 -0.036321 -491487.000000 0 0 1
25.030838 -0.397290 31.253301 40.043346 -0.015871 0.675352 0.070825 -0.034213 1193550.000000 0 0 1
23.601338 -0.549490 31.182561 39.111088 -0.023278 0.648018 0.075989 -0.032568 885751.000000 0 0 1
22.958538 -1.639790 32.133771 39.526733 -0.071303 0.621574 0.069695 -0.029827 -381456.000000 0 0 1
23.278038 -3.004590 31.742441 39.477553 -0.128364 0.636698 0.075290 -0.043220 161571.000000 0 0 1
22.553938 -3.826090 32.623887 39.845164 -0.168042 0.611537 0.079967 -0.033319 -179861.000000 0 0 1
22.528938 -5.312190 32.347816 39.776295 -0.231564 0.621092 0.080633 -0.037557 -194607.000000 0 0 1
23.683538 -6.074990 32.599209 40.749527 -0.251093 0.643518 0.080132 -0.032962 -283773.000000 0 0 1
23.426738 -7.375590 32.254391 40.540808 -0.305012 0.650794 0.090956 -0.033665 -671374.000000 0 0 1
24.629138 -8.266890 32.002061 41.219750 -0.323838 0.681900 0.077735 -0.032442 -621190.000000 0 0 1
25.448238 -7.892690 30.947801 40.837162 -0.300740 0.710809 0.083960 -0.032262 297191.000000 0 0 1
26.581438 -8.728590 30.663231 41.508973 -0.317278 0.739637 0.070611 -0.036056 552501.000000 0 0 1
27.015438 -8.392090 29.228301 40.676217 -0.301190 0.769067 0.061784 -0.028984 428832.000000 0 0 1
26.099038 -8.849290 28.216891 39.441890 -0.326901 0.773594 0.052674 -0.019811 269066.000000 0 0 1
26.551938 -8.360590 26.965951 38.756514 -0.305049 0.801293 0.063234 -0.017467 57792.300000 0 0 1
25.936838 -9.037690 25.736771 37.640149 -0.335293 0.817895 0.034864 -0.011855 -325940.000000 0 0 1
24.582138 -8.770190 25.502851 36.491001 -0.342694 0.796965 0.032605 -0.011032 -571364.000000 0 0 1
24.098338 -9.745590 24.609751 35.795897 -0.384302 0.812753 0.037260 -0.011848 132030.000000 0 0 1
22.624538 -9.538490 24.191811 34.468772 -0.398987 0.792809 0.031840 0.004834 494651.000000 0 0 1
21.659038 -9.994290 25.147611 34.661248 -0.432324 0.758999 0.027603 0.010373 213632.000000 0 0 1
20.388038 -9.477490 24.840331 33.504283 -0.435139 0.735631 0.040189 0.012471 -14851.400000 0 0 1
19.399338 -9.269790 25.996201 33.735231 -0.445763 0.691022 0.065466 -0.002591 -100504.000000 0 0 1
18.678538 -10.393290 26.444291 34.003070 -0.507766 0.679793 0.068894 0.005213 99723.400000 0 0 1
19.369938 -11.193890 27.393991 35.368467 -0.524011 0.684822 0.050053 0.007728 194439.000000 0 0 1
18.461438 -12.179290 28.227911 35.860490 -0.583175 0.664607 0.061406 0.000577 417936.000000 0 0 1
17.696838 -13.068890 27.439981 35.169966 -0.636092 0.675794 0.058764 0.002145 288959.000000 0 0 1
16.985938 -14.118690 28.084491 35.729514 -0.693477 0.666435 0.055786 0.003301 -103358.000000 0 0 1
17.784338 -15.251790 28.708881 37.055359 -0.708888 0.684466 0.059846 0.011812 -937428.000000 0 0 1
16.903638 -16.169990 29.256431 37.458515 -0.763220 0.674474 0.056286 0.008544 144709.000000 0 0 1
17.529738 -17.418090 29.579951 38.544197 -0.782203 0.695974 0.055469 0.007049 -21671.800000 0 0 1
17.999038 -18.342790 28.420321 38.316289 -0.794857 0.735151 0.047811 0.005218 -294796.000000 0 0 1
19.007238 -17.830990 27.612681 37.969454 -0.753479 0.756513 0.063795 -0.004617 -161156.000000 0 0 1
19.393738 -18.699990 26.576611 37.843401 -0.767189 0.792203 0.063267 0.003176 191821.000000 0 0 1
20.646038 -18.148490 25.822961 37.715407 -0.721108 0.816633 0.053667 -0.014063 174288.000000 0 0 1
21.862038 -18.290590 26.544731 38.950188 -0.696685 0.820980 0.065110 -0.013399 -603333.000000 0 0 1
22.777738 -17.507090 25.893441 38.675494 -0.655303 0.837254 0.061861 -0.009983 128596.000000 0 0 1
24.225738 -17.566090 26.521981 39.985865 -0.627374 0.845598 0.065118 -0.014922 461270.000000 0 0 1
24.944238 -18.715090 26.349321 40.825927 -0.643678 0.869241 0.068041 -0.020017 -1200060.000000 0 0 1
26.269638 -18.508990 26.650671 41.748472 -0.613791 0.878427 0.053892 -0.019136 -833341.000000 0 0 1
27.042538 -19.825690 26.930761 43.007241 -0.632616 0.894138 0.039287 -0.018329 130099.000000 0 0 1
26.724838 -20.355390 28.200361 43.861364 -0.650925 0.872462 0.043974 -0.015396 81259.000000 0 0 1
27.717538 -21.265890 28.577091 45.134800 -0.654441 0.885180 0.041461 -0.009828 -239760.000000 0 0 1
27.152938 -22.482090 29.411041 45.910083 -0.691571 0.875487 0.047374 -0.005671 148077.000000 0 0 1
26.529738 -22.236990 30.663891 46.244837 -0.697598 0.845874 0.064123 -0.010388 139898.000000 0 0 1
26.166638 -23.458990 31.263071 47.036122 -0.730891 0.843756 0.078972 -0.009691 -412972.000000 0 0 1
25.618138 -23.420490 32.692135 47.682115 -0.740614 0.815332 0.071920 -0.009206 -45436.100000 0 0 1
25.368438 -24.693090 33.241492 48.562364 -0.771909 0.816863 0.060090 -0.004497 -85921.100000 0 0 1
24.898038 -24.609890 -33.854573 48.700011 -0.779578 2.339447 0.069214 -0.001403 -194384.000000 0 0 1
24.622438 -25.962480 -33.096253 48.740915 -0.811883 2.317229 0.059419 -0.005131 624753.000000 0 0 1
23.427838 -26.662330 -33.463613 48.780702 -0.849882 2.326775 0.073042 -0.008666 226399.000000 0 0 1
23.343638 -27.166050 33.589270 49.103552 -0.860931 0.817496 0.070944 -0.005878 848.676000 0 0 1
21.996338 -27.895780 33.392878 48.755490 -0.903096 0.816323 0.092696 -0.011394 345227.000000 0 0 1
22.125938 -29.247250 33.808136 49.879343 -0.923140 0.826032 0.089126 -0.022787 893167.000000 0 0 1
20.803438 -29.720880 34.126416 49.806887 -0.960097 0.815953 0.109362 -0.036416 564728.000000 0 0 1
20.603938 -31.266940 -34.015003 50.588183 -0.988142 2.308230 0.080178 -0.031893 -144804.000000 0 0 1
21.167638 -31.895970 -32.852383 50.445028 -0.984888 2.280028 0.055180 -0.032108 -672001.000000 0 0 1
22.542438 -32.044930 -32.893383 51.156756 -0.957750 2.269195 0.031188 -0.016160 -1214700.000000 0 0 1
23.038338 -32.830850 -31.628843 51.078503 -0.958911 2.238546 0.015784 -0.016021 -1167370.000000 0 0 1
24.150938 -33.618790 -31.918763 52.271391 -0.947844 2.227659 0.006761 -0.011561 -404795.000000 0 0 1
24.721138 -34.133211 -30.759793 52.176390 -0.943977 2.201279 0.003783 0.000099 235869.000000 0 0 1
25.779338 -33.257000 -30.006933 51.681896 -0.911389 2.190272 0.008351 -0.003105 -150871.000000 0 0 1
26.255538 -33.845920 -28.815523 51.625904 -0.911026 2.162963 0.020592 -0.003440 -125479.000000 0 0 1
27.025838 -32.895610 -28.107863 51.015381 -0.883044 2.154321 0.023269 -0.004111 124152.000000 0 0 1
27.731738 -33.303220 -26.764893 50.936365 -0.876429 2.124049 0.024632 -0.008093 750935.000000 0 0 1
28.858938 -34.132300 -27.012763 52.225871 -0.868919 2.114407 0.028697 0.003020 -524011.000000 0 0 1
29.885738 -33.999330 -26.094293 52.249631 -0.849700 2.093721 0.037131 -0.003567 -116902.000000 0 0 1
-27.397322 -30.546422 8.738237 41.952997 0.839692 1.360974 0.043430 -0.000774 80807.500000 0 0 1
-27.488812 -31.728522 9.511537 43.044201 0.856872 1.347986 0.047374 -0.006121 -27923.300000 0 0 1
-26.455992 -31.740322 10.478137 42.628147 0.875952 1.322448 0.038189 -0.003199 164079.000000 0 0 1
-26.523402 -32.902922 11.492937 43.797040 0.892340 1.305274 0.040022 -0.006209 84435.500000 0 0 1
-26.199772 -34.158522 10.920337 44.412683 0.916500 1.322365 0.039649 -0.003868 -192516.000000 0 0 1
-27.011892 33.253210 11.457337 44.347366 -0.888595 1.309478 0.025907 -0.012889 -309655.000000 0 0 1
-26.401652 31.860410 11.241837 42.877871 -0.878819 1.305513 0.049130 -0.012980 61800.500000 0 0 1
-26.317572 31.499510 9.888637 42.221071 -0.874786 1.334389 0.064423 -0.025917 -242344.000000 0 0 1
-26.160932 30.098910 9.713137 41.044899 -0.855280 1.331883 0.073959 -0.026082 -90964.100000 0 0 1
-25.620442 29.679610 8.338637 40.085149 -0.858669 1.361243 0.057836 -0.018369 948271.000000 0 0 1
-24.185662 29.769610 8.228237 39.228558 -0.888523 1.359476 0.039253 -0.014564 1019020.000000 0 0 1
-23.751062 29.602510 6.886437 38.572588 -0.894635 1.391302 0.020098 -0.007146 1422920.000000 0 0 1
-22.414462 28.708610 6.741037 37.040977 -0.907899 1.387788 0.053944 -0.004684 1251250.000000 0 0 1
-22.530062 27.266810 6.892337 36.035911 -0.880234 1.378348 0.056039 -0.012362 187092.000000 0 0 1
-23.252862 26.628010 5.838837 35.830692 -0.852959 1.407110 0.036480 -0.009513 -328913.000000 0 0 1
-23.549262 25.207910 6.160337 35.042206 -0.819404 1.394080 0.051423 -0.013519 -261579.000000 0 0 1
-24.538962 25.038510 7.185437 35.787122 -0.795474 1.368639 0.056700 -0.018711 647524.000000 0 0 1
-24.985562 23.714110 7.527337 35.260433 -0.759296 1.355662 0.056061 -0.026674 3023.830000 0 0 1
-25.477512 22.841510 6.401037 34.811082 -0.730898 1.385865 0.029812 -0.028218 -896276.000000 0 0 1
-26.741322 23.217610 5.921337 35.905681 -0.714983 1.405126 0.034476 -0.026459 -272991.000000 0 0 1
-27.108532 22.480210 4.777937 35.539570 -0.692334 1.435948 0.023264 -0.024803 52280.200000 0 0 1
-26.707212 23.206610 3.442637 35.548188 -0.715380 1.473800 0.012466 -0.025689 -93864.800000 0 0 1
-25.354502 23.600110 3.356237 34.800579 -0.749576 1.474204 0.014016 -0.028734 120093.000000 0 0 1
-25.158892 24.526410 2.264537 35.208561 -0.772669 1.506434 0.018548 -0.021123 -182426.000000 0 0 1
-23.747262 25.123610 2.256937 34.644220 -0.813554 1.505604 0.032512 -0.017427 -208600.000000 0 0 1
-23.465962 25.876710 1.121037 34.950139 -0.834217 1.538715 0.027779 -0.025060 69549.700000 0 0 1
-22.120562 26.327710 1.223237 34.408776 -0.872019 1.535239 0.041121 -0.028170 -184067.000000 0 0 1
-21.554362 26.974210 -0.055763 34.528273 -0.896621 1.572411 0.050063 -0.026538 129625.000000 0 0 1
-21.200562 26.085410 -1.150163 33.633842 -0.888337 1.605000 0.044355 -0.029217 381140.000000 0 0 1
-20.201262 25.079210 -0.908063 32.216181 -0.892712 1.598987 0.042924 -0.036782 104482.000000 0 0 1
-19.793162 24.303410 -2.176063 31.419106 -0.887325 1.640111 0.052110 -0.038540 167098.000000 0 0 1
-20.748662 23.324310 -2.606963 31.326134 -0.843772 1.654113 0.031485 -0.035833 196512.000000 0 0 1
-20.324462 22.489810 -3.665663 30.533791 -0.835930 1.691139 0.029944 -0.032403 -490623.000000 0 0 1
-21.513662 21.829310 -4.389563 30.961665 -0.792681 1.713050 0.029380 -0.025617 -140085.000000 0 0 1
-22.229862 22.798610 -5.128763 32.252869 -0.798028 1.730491 0.018941 -0.017987 317001.000000 0 0 1
-23.358662 22.218210 -5.793163 32.754186 -0.760381 1.748600 0.022614 -0.011134 324538.000000 0 0 1
-23.443462 22.733510 -7.231763 33.447074 -0.770025 1.788733 0.018624 0.002463 -297396.000000 0 0 1
-22.438162 22.201410 -8.027663 32.570187 -0.780095 1.819835 0.011410 -0.000127 -169276.000000 0 0 1
-22.389562 23.010210 -9.230263 33.405987 -0.799068 1.850744 0.012562 -0.005166 -206458.000000 0 0 1
-21.714762 22.279010 -10.410963 32.806605 -0.798223 1.893723 0.009839 -0.005040 -102745.000000 0 0 1
-22.497262 21.324010 -11.105063 32.926625 -0.758631 1.914809 0.009995 -0.001792 -101486.000000 0 0 1
-21.893562 21.103610 -12.340763 32.817447 -0.767028 1.956318 -0.000203 0.002670 -259373.000000 0 0 1
-22.827062 20.876310 -13.523563 33.760655 -0.740792 1.982937 -0.006214 -0.000786 -269207.000000 0 0 1
-23.670062 19.746810 -13.414663 33.617875 -0.695281 1.981259 0.005124 0.005008 358515.000000 0 0 1
-24.632362 19.740610 -14.473963 34.726654 -0.675600 2.000715 0.013982 -0.001445 564576.000000 0 0 1
-25.334982 18.328110 -14.556163 34.491489 -0.626279 2.006471 0.054813 -0.012314 100286.000000 0 0 1
-24.696162 17.460610 -15.456163 33.965663 -0.615420 2.043228 0.049592 -0.015844 -520.810000 0 0 1
-25.458182 16.277310 -15.692263 34.048744 -0.568869 2.049779 0.088031 -0.033272 -53775.900000 0 0 1
-24.880262 15.300210 -16.704163 33.647480 -0.551342 2.090296 0.088346 -0.019127 287367.000000 0 0 1
-23.744962 14.541110 -16.304963 32.266374 -0.549478 2.100553 0.093090 -0.019853 368360.000000 0 0 1
-23.362562 13.645910 -17.324763 32.127365 -0.528641 2.140346 0.112180 -0.036666 290044.000000 0 0 1
-22.230562 12.606910 -16.998163 30.693152 -0.515876 2.157729 0.124765 -0.031652 -335710.000000 0 0 1
-21.075762 13.203310 -16.570863 29.884923 -0.559655 2.158545 0.101828 -0.031983 -751193.000000 0 0 1
-20.068262 12.298710 -16.188363 28.566703 -0.549810 2.173275 0.089043 -0.038286 960547.000000 0 0 1
-18.781062 12.886310 -15.469063 27.533201 -0.601359 2.167396 0.071202 -0.027534 660547.000000 0 0 1
-18.048162 13.734510 -16.297063 27.927892 -0.650499 2.193878 0.057547 -0.012865 -645614.000000 0 0 1
-16.940862 14.180810 -15.581563 27.034668 -0.696944 2.185057 0.050985 0.002062 -331941.000000 0 0 1
-16.057562 15.168910 -16.410863 27.518313 -0.756948 2.209757 0.021444 0.010239 102760.000000 0 0 1
-15.328262 14.657110 -17.523663 27.511184 -0.763019 2.261351 0.045677 0.002669 63020.500000 0 0 1
-14.683262 15.723110 -18.215563 28.189024 -0.819583 2.273382 0.037736 0.008479 79413.700000 0 0 1
-13.629562 15.219710 -19.213863 28.045981 -0.840462 2.325516 0.033664 0.005990 53956.300000 0 0 1
-12.579962 14.493210 -18.620963 26.740397 -0.855950 2.341110 0.035472 0.009925 557543.000000 0 0 1
-11.499862 14.178310 -19.543063 26.743272 -0.889331 2.390239 0.041528 0.000041 1038430.000000 0 0 1
-10.975662 12.741910 -19.480463 25.735381 -0.859731 2.429433 0.034677 -0.005387 235099.000000 0 0 1
-11.799262 11.778810 -20.174063 26.171659 -0.784531 2.450949 0.042635 0.004103 338243.000000 0 0 1
-11.388462 10.395710 -20.063863 25.304672 -0.739857 2.486336 0.030411 0.009082 253857.000000 0 0 1
-12.049162 9.414810 -21.157563 26.104854 -0.663275 2.515774 0.039719 0.003661 532399.000000 0 0 1
-11.510462 9.753110 -22.422763 27.025806 -0.702939 2.549330 0.040549 -0.002512 -15895.700000 0 0 1
-11.882962 8.726610 -23.306563 27.578150 -0.633429 2.577567 0.035403 0.010200 40831.100000 0 0 1
-11.478362 8.908810 -24.774563 28.721049 -0.660022 2.611168 0.037947 -0.012079 -154332.000000 0 0 1
-10.111762 8.932410 -25.147603 28.538353 -0.723550 2.649162 0.046149 -0.017832 -68616.200000 0 0 1
-9.943262 8.484510 -26.469173 29.520713 -0.706402 2.682896 0.034591 -0.022137 -321220.000000 0 0 1
-9.950262 9.715610 -27.494143 30.811178 -0.773467 2.673306 0.075644 -0.024424 103639.000000 0 0 1
-8.684162 10.314510 -27.695193 30.803044 -0.871002 2.688519 0.058193 -0.030075 136942.000000 0 0 1
-8.077362 10.990010 -26.629643 29.919258 -0.936982 2.668252 0.039529 -0.014708 2318940.000000 0 0 1
-6.462062 11.122810 -26.848773 29.771324 -1.044484 2.694790 0.039066 -0.012592 2572160.000000 0 0 1
-6.114062 11.947710 -27.954953 31.009820 -1.097805 2.693990 0.045984 -0.022928 -215210.000000 0 0 1
-4.742062 12.230410 -27.977403 30.899921 -1.200915 2.703164 0.054854 -0.023300 -415345.000000 0 0 1
-4.107762 12.665210 -29.309593 32.192134 -1.257167 2.715187 0.061933 -0.018113 559816.000000 0 0 1
-2.692662 12.824510 -29.205343 32.010475 -1.363840 2.719829 0.070996 -0.025679 733397.000000 0 0 1
-2.039662 12.610110 -30.484353 33.052547 -1.410437 2.744786 0.078950 -0.019272 879167.000000 0 0 1
-0.488462 12.564110 -30.515993 33.004867 -1.531938 2.750756 0.079974 -0.021488 309043.000000 0 0 1
0.171538 11.567610 -29.713413 31.886140 1.555968 2.770302 0.059239 -0.004696 411536.000000 0 0 1
1.550138 11.303910 -29.915093 32.017091 1.434513 2.777220 0.064596 -0.004956 392363.000000 0 0 1
1.881738 10.567410 -31.225173 33.018518 1.394574 2.810497 0.065455 -0.002776 -607056.000000 0 0 1
1.669938 11.399210 -32.367123 34.356387 1.425335 2.799632 0.084422 -0.013694 117161.000000 0 0 1
1.756338 10.686910 -33.618543 35.319983 1.407908 2.829939 0.081745 -0.005562 -79083.600000 0 0 1
2.121238 11.549510 33.602084 35.594815 1.389156 0.336197 0.084703 -0.010594 -183810.000000 0 0 1
3.513738 11.774610 33.579283 35.756902 1.280793 0.350796 0.070977 -0.012964 -329046.000000 0 0 1
3.748938 12.681110 32.507014 35.093747 1.283352 0.386349 0.066992 -0.006919 -1080030.000000 0 0 1
5.205238 12.809910 32.184691 35.029168 1.184832 0.405775 0.064861 -0.005947 -1265780.000000 0 0 1
5.749938 11.588610 31.663071 34.203914 1.110216 0.387875 0.072007 -0.012939 -621664.000000 0 0 1
7.116138 11.814210 31.486681 34.374788 1.028660 0.412848 0.061541 -0.003374 -704845.000000 0 0 1
7.855038 10.727610 30.693471 33.449550 0.938768 0.408784 0.029584 0.001247 -7904.220000 0 0 1
7.241638 10.407510 29.468951 32.080783 0.962889 0.406309 0.040014 -0.014576 201013.000000 0 0 1
8.052538 9.449210 28.800371 31.362275 0.865031 0.407000 0.040629 -0.010640 475997.000000 0 0 1
7.231538 8.626310 27.759331 29.954780 0.873127 0.385241 0.030750 -0.009743 239708.000000 0 0 1
6.569738 7.521710 28.325001 30.034035 0.852852 0.338973 0.031300 -0.008718 -317218.000000 0 0 1
5.940438 6.787310 27.307931 28.758990 0.851838 0.319017 0.043388 -0.012645 -610040.000000 0 0 1
5.253638 5.540010 27.853291 28.880759 0.811923 0.267541 0.054665 -0.025262 160392.000000 0 0 1
6.191338 4.540610 28.306631 29.329425 0.632780 0.264867 0.036318 -0.022321 418147.000000 0 0 1
5.712438 3.848710 29.432611 30.227853 0.592885 0.229889 0.033352 -0.025510 100967.000000 0 0 1
6.669638 2.710710 29.871801 30.727130 0.386033 0.236501 0.057609 -0.018644 340454.000000 0 0 1
6.271738 1.459610 29.275531 29.975355 0.228658 0.216509 0.056477 -0.019203 -108219.000000 0 0 1
7.103938 1.097410 28.199411 29.101152 0.153268 0.249591 0.053725 -0.019014 -44870.100000 0 0 1
6.956838 -0.402890 27.845271 28.703990 -0.057848 0.245221 0.047544 -0.008884 69235.400000 0 0 1
7.614138 -1.149290 28.856381 29.866146 -0.149811 0.260776 0.030152 -0.021964 25521.200000 0 0 1
7.604638 -2.504990 28.494801 29.598297 -0.318209 0.273921 0.038136 -0.022221 -649657.000000 0 0 1
8.283638 -3.440090 29.526191 30.858529 -0.393615 0.294924 0.032988 -0.011171 865041.000000 0 0 1
9.704138 -3.349090 29.704931 31.428803 -0.332321 0.332743 0.037524 -0.015155 891042.000000 0 0 1
10.417738 -3.992090 28.646551 30.742331 -0.365941 0.371380 0.045545 -0.003010 240213.000000 0 0 1
11.961038 -4.151590 28.893561 31.545840 -0.334083 0.412995 0.047736 -0.012315 979763.000000 0 0 1
12.543138 -5.381690 28.437061 31.542976 -0.405300 0.447495 0.064989 -0.009533 295304.000000 0 0 1
12.387438 -6.456190 29.380971 32.532637 -0.480454 0.443808 0.066530 -0.008668 -167117.000000 0 0 1
11.493138 -7.668190 28.936701 32.065964 -0.588370 0.445462 0.072055 -0.001830 -290506.000000 0 0 1
10.153238 -7.312090 29.008181 31.591605 -0.624137 0.407223 0.054322 -0.004529 -972527.000000 0 0 1
9.269238 -8.319190 28.602991 31.197096 -0.731435 0.410684 0.041362 -0.004133 458867.000000 0 0 1
7.789838 -7.857490 28.450611 30.526366 -0.789722 0.370901 0.053283 -0.006147 627895.000000 0 0 1
7.171338 -7.542090 29.716191 31.485921 -0.810591 0.336873 0.057711 -0.006709 403405.000000 0 0 1
5.776638 -7.325690 29.590421 31.026252 -0.903079 0.305416 0.033216 -0.007498 254886.000000 0 0 1
5.125638 -6.637690 30.792321 31.913918 -0.913237 0.265903 0.033019 -0.003429 -42595.100000 0 0 1
5.132938 -7.449090 31.916191 33.173472 -0.967444 0.276196 0.036286 0.000388 109147.000000 0 0 1
4.634838 -6.772690 33.101502 34.103673 -0.970656 0.243027 0.042696 -0.003478 398327.000000 0 0 1
5.573938 -5.659690 33.670277 34.594630 -0.793032 0.231687 0.047248 -0.008576 243373.000000 0 0 1
5.696538 -4.544790 32.817426 33.616798 -0.673408 0.218512 0.049475 -0.002756 -171048.000000 0 0 1
6.353038 -3.506290 33.528784 34.305022 -0.504307 0.213136 0.061736 -0.006058 24708.400000 0 0 1
6.578138 -2.285090 32.621179 33.356182 -0.334336 0.210316 0.049698 -0.001487 74801.800000 0 0 1
5.335038 -1.707290 32.265511 32.748140 -0.309716 0.171895 0.053294 -0.005390 43096.700000 0 0 1
5.451838 -0.592690 31.433251 31.908041 -0.108289 0.172725 0.047920 -0.014710 -60170.500000 0 0 1
4.065138 -0.112090 30.940961 31.207066 -0.027567 0.130685 0.058754 -0.009569 417470.000000 0 0 1
3.240838 0.133610 32.079021 32.242588 0.041204 0.100770 0.055823 -0.021161 -986556.000000 0 0 1
1.914438 0.388110 31.763221 31.823229 0.200017 0.061421 0.071560 -0.027082 -491232.000000 0 0 1
1.019638 0.483410 33.002351 33.021637 0.442713 0.034179 0.071198 -0.028738 -76692.400000 0 0 1
1.385938 1.632210 33.770341 33.838157 0.866815 0.063321 0.067349 -0.021440 356424.000000 0 0 1
0.605638 1.775310 -33.449043 33.501597 1.242032 3.085573 0.053210 -0.021798 137314.000000 0 0 1
1.131838 2.924110 -32.557853 32.708489 1.201485 3.045583 0.049772 -0.016988 -901105.000000 0 0 1
2.254738 2.610310 -31.859583 32.045758 0.858355 3.033748 0.040435 -0.012192 -1217340.000000 0 0 1
2.853538 3.609810 -31.123833 31.462142 0.901878 2.994812 0.031477 -0.002294 -428538.000000 0 0 1
4.013638 3.135810 -30.269773 30.695305 0.663227 2.974888 0.036156 -0.000853 -337711.000000 0 0 1
3.558938 2.432610 -29.114673 29.432088 0.599581 2.994595 0.040702 -0.017128 15067.400000 0 0 1
4.455838 2.607710 -28.071243 28.542062 0.529492 2.959707 0.052121 -0.022785 -190477.000000 0 0 1
3.984338 1.874210 -26.762303 27.122103 0.439684 2.978526 0.048367 -0.027880 87294.000000 0 0 1
4.030338 0.455810 -26.901193 27.205249 0.112616 2.991945 0.061646 -0.030146 364049.000000 0 0 1
3.404138 -0.105790 -25.741853 25.966177 -0.031067 3.010051 0.063468 -0.028095 -67725.000000 0 0 1
3.876638 -1.578990 -25.509923 25.851068 -0.386791 2.978954 0.067141 -0.031615 -266569.000000 0 0 1
5.188038 -1.681290 -25.036063 25.623172 -0.313391 2.927111 0.061116 -0.034905 -522617.000000 0 0 1
5.619138 -2.997790 -25.091863 25.887507 -0.490084 2.893023 0.066991 -0.034325 -367431.000000 0 0 1
7.042838 -3.331090 -24.595863 25.800275 -0.441795 2.834836 0.066216 -0.035001 625063.000000 0 0 1
8.036838 -2.717390 -25.446673 26.823649 -0.326050 2.819786 0.059826 -0.029632 93020.300000 0 0 1
9.309438 -3.147190 -24.982263 26.845556 -0.326003 2.766823 0.063342 -0.028763 280443.000000 0 0 1
-29.930732 -3.036690 17.751431 34.931125 0.101111 1.037722 0.117074 -0.025891 -522670.000000 0 0 1
-31.249282 -3.467990 17.824031 36.141952 0.110526 1.055069 0.116468 -0.005184 -809389.000000 0 0 1
-31.435482 -4.709690 18.494231 36.775091 0.148715 1.043844 0.116413 -0.013636 449426.000000 0 0 1
-32.935022 -4.845290 18.893031 38.277136 0.146069 1.054589 0.105764 -0.013407 36075.700000 0 0 1
-33.771082 -4.737890 17.799031 38.467377 0.139385 1.089753 0.091356 -0.012530 -1282550.000000 0 0 1
-35.075247 -4.918590 18.212631 39.826692 0.139321 1.095843 0.078718 -0.003211 -547273.000000 0 0 1
-36.230112 -4.587390 17.216731 40.374261 0.125948 1.130256 0.051667 -0.005360 784656.000000 0 0 1
35.292171 -5.084590 17.633631 39.778579 -0.143087 1.111525 0.045863 -0.003224 -144815.000000 0 0 1
34.382181 -4.969490 16.584931 38.495326 -0.143543 1.125384 0.024733 -0.005104 -534963.000000 0 0 1
33.002361 -5.471990 17.001731 37.525423 -0.164311 1.100588 0.019491 -0.003461 -127507.000000 0 0 1
32.114771 -4.646190 17.765931 36.994242 -0.143678 1.069874 0.038723 -0.008184 330827.000000 0 0 1
31.000741 -5.414890 18.129531 36.318685 -0.172925 1.048145 0.053952 -0.017554 -667990.000000 0 0 1
30.197311 -4.979590 19.307931 36.186601 -0.163431 1.007985 0.057254 -0.008806 -541864.000000 0 0 1
29.411881 -3.820190 19.219831 35.341965 -0.129163 0.995808 0.060135 -0.008193 204653.000000 0 0 1
30.124081 -2.602590 19.187731 35.810652 -0.086182 1.005329 0.058131 -0.018040 -336363.000000 0 0 1
29.221561 -1.473890 19.700831 35.273145 -0.050396 0.978193 0.070900 -0.004455 152758.000000 0 0 1
29.669331 -0.188390 19.415231 35.457805 -0.006350 0.991352 0.058725 -0.013092 151614.000000 0 0 1
28.646671 0.665310 19.896131 34.884530 0.023221 0.963874 0.057490 -0.014335 397397.000000 0 0 1
28.750721 2.155510 19.379431 34.739208 0.074832 0.978998 0.048207 -0.013513 -97013.200000 0 0 1
28.639981 2.242010 17.985931 33.893493 0.078123 1.011417 0.040458 -0.015373 84150.000000 0 0 1
28.697061 3.514810 17.379331 33.733016 0.121873 1.029553 0.033521 -0.009123 49950.400000 0 0 1
28.513011 3.391710 15.867631 32.806664 0.118397 1.065952 0.033722 -0.012818 -9517.040000 0 0 1
28.395961 4.618610 15.235631 32.554364 0.161238 1.083763 0.029545 0.001347 385936.000000 0 0 1
27.856451 4.393310 13.921531 31.449834 0.156424 1.112235 0.039205 -0.001097 19208.100000 0 0 1
27.491501 5.732810 13.164831 31.015488 0.205584 1.132431 0.040531 0.010485 368267.000000 0 0 1
26.426601 6.409110 13.847531 30.515505 0.237931 1.099786 0.050169 0.008443 611791.000000 0 0 1
25.921701 7.424810 12.979031 29.925201 0.278963 1.122184 0.058169 -0.011872 901007.000000 0 0 1
24.672001 8.242710 13.604831 29.355431 0.322433 1.088910 0.067527 -0.020092 1636470.000000 0 0 1
23.339201 7.775510 13.573131 28.096383 0.321588 1.066614 0.066067 -0.007326 822061.000000 0 0 1
23.092001 6.497010 14.200931 27.876838 0.274263 1.036289 0.079664 -0.005526 -54954.100000 0 0 1
21.676501 5.867510 13.953531 26.438597 0.264350 1.014822 0.084132 0.000572 394487.000000 0 0 1
21.473801 5.662810 12.556831 25.512067 0.257838 1.056190 0.094960 -0.003430 637925.000000 0 0 1
20.436901 4.707510 12.424431 24.376096 0.226395 1.035963 0.099216 -0.002481 36702.700000 0 1 0
19.910701 4.390710 10.958131 23.147246 0.217046 1.077639 0.097776 -0.005558 -11485.000000 0 1 0
20.882201 3.701710 10.200531 23.533377 0.175444 1.122479 0.098415 -0.009595 629583.000000 0 1 0
20.483301 3.541510 8.833231 22.586144 0.171205 1.168980 0.104624 -0.013859 -362419.000000 0 1 0
21.507101 2.858210 7.928131 23.099351 0.132122 1.220455 0.099963 -0.011653 -1322550.000000 0 1 0
21.640101 1.438210 8.192031 23.183438 0.066363 1.209639 0.096170 -0.014141 542583.000000 0 1 0
22.554101 0.730010 7.399731 23.748188 0.032356 1.253929 0.085131 -0.006716 -722712.000000 0 1 0
24.041601 1.054010 7.570331 25.227355 0.043813 1.266015 0.080730 -0.001762 -1076500.000000 0 0 1
24.635701 0.652710 8.770831 26.158580 0.026488 1.228878 0.077277 0.008176 435376.000000 0 0 1
24.491301 1.595410 9.832631 26.439550 0.065050 1.189751 0.068637 0.007854 -503539.000000 0 0 1
25.092201 1.076210 11.184031 27.492896 0.042864 1.151851 0.065111 0.005722 229991.000000 0 0 1
26.499501 1.152710 11.338031 28.846200 0.043472 1.166849 0.048525 0.000992 359637.000000 0 0 1
26.915701 0.712310 12.618131 29.735157 0.026458 1.132552 0.056714 -0.016635 -963282.000000 0 0 1
28.410531 0.545110 12.684231 31.118245 0.019185 1.150957 0.070434 -0.019263 -638937.000000 0 0 1
29.245711 1.709710 12.754731 31.951806 0.058394 1.160167 0.056120 -0.014647 -241321.000000 0 0 1
30.577801 1.321610 12.682131 33.129821 0.043194 1.177970 0.035420 -0.013760 -652765.000000 0 0 1
31.582291 2.409510 13.129631 34.287521 0.076146 1.177833 0.043239 -0.011655 -131609.000000 0 0 1
31.586741 3.467110 12.176531 34.029560 0.109327 1.204862 0.051397 -0.020119 15429.900000 0 0 1
32.212931 4.631410 12.611831 34.902452 0.142796 1.201086 0.041795 -0.022915 580806.000000 0 0 1
33.627681 4.921710 11.972831 36.033219 0.145327 1.232085 0.054713 -0.018018 738659.000000 0 0 1
34.644691 4.160510 12.571831 37.089290 0.119518 1.224984 0.054539 -0.020549 -53769.100000 0 0 1
35.909291 4.382110 11.980131 38.107790 0.121432 1.250998 0.059641 -0.013297 219986.000000 0 0 1
-35.748892 3.587810 12.676331 38.099147 -0.100026 1.231610 0.090903 -0.004643 -739211.000000 0 0 1
-35.651692 2.189410 12.339931 37.790350 -0.061334 1.238159 0.071415 -0.003403 -186563.000000 0 0 1
36.024021 1.354110 12.453531 38.139929 0.037571 1.238175 0.063097 -0.001833 -577648.000000 0 0 1
35.444751 1.077310 13.815831 38.057433 0.030385 1.199283 0.046830 -0.000905 -431955.000000 0 0 1
36.352221 0.427410 14.666431 39.201669 0.011757 1.187340 0.070397 -0.005752 120844.000000 0 0 1
35.884231 0.432010 15.989731 39.287863 0.012038 1.151641 0.075166 -0.019213 75732.400000 0 0 1
-36.042892 -0.450290 16.950531 39.832315 0.012493 1.131230 0.084664 -0.010238 1182130.000000 0 0 1
-34.697793 0.034410 17.142031 38.701256 -0.000992 1.111930 0.109397 -0.016266 1516050.000000 0 0 1
-33.786282 -0.815890 17.895531 38.241712 0.024144 1.083817 0.102056 -0.008559 679746.000000 0 0 1
-33.848642 -0.921890 19.454431 39.051957 0.027229 1.049312 0.111351 -0.019840 84729.800000 0 0 1
-34.871051 -1.824690 19.897431 40.189892 0.052279 1.052863 0.091455 -0.016347 457516.000000 0 0 1
-34.919531 -1.712790 21.305531 40.941824 0.049010 1.023494 0.092042 -0.021286 38613.300000 0 0 1
-35.296991 -3.036790 21.981531 41.692774 0.085824 1.015463 0.062841 -0.015193 -293886.000000 0 0 1
-34.334089 -4.059890 21.985331 40.971541 0.117700 1.004394 0.078788 -0.015362 -312045.000000 0 0 1
-34.618915 -5.242190 22.673831 41.713936 0.150284 0.996129 0.060122 -0.012185 -215433.000000 0 0 1
-34.688323 -5.119390 24.227761 42.620093 0.146525 0.966165 0.053428 -0.019034 303758.000000 0 0 1
-33.439102 -4.730490 24.763351 41.878093 0.140533 0.938102 0.061755 -0.019538 -335747.000000 0 0 1
-33.517082 -4.690090 26.175821 42.785106 0.139029 0.912465 0.048005 -0.018462 -73314.000000 0 0 1
-32.385812 -3.890590 26.822761 42.230771 0.119560 0.882597 0.045112 -0.018844 -329002.000000 0 0 1
-32.500842 -2.517790 26.546271 42.039844 0.077314 0.887368 0.050195 -0.021304 -287890.000000 0 0 1
-31.724232 -2.055090 25.455971 40.726610 0.064689 0.895607 0.071970 -0.028814 -103885.000000 0 0 1
-31.721792 -0.530990 25.462321 40.680263 0.016737 0.894494 0.067037 -0.033490 265959.000000 0 0 1
-33.038902 -0.053190 25.244241 41.579365 0.001610 0.918348 0.076306 -0.033966 153155.000000 0 0 1
-33.039822 1.267810 24.820391 41.343548 -0.038353 0.926864 0.090146 -0.030593 -301823.000000 0 0 1
-34.414625 1.912510 24.582401 42.335783 -0.055515 0.951266 0.091266 -0.023634 -136104.000000 0 0 1
-35.049250 1.316810 23.411091 42.169457 -0.037553 0.982233 0.103838 -0.019739 184191.000000 0 0 1
-36.210672 2.034710 23.049431 42.972422 -0.056132 1.004658 0.094080 -0.005971 163269.000000 0 0 1
-35.831167 3.270410 22.215831 42.286065 -0.091021 1.017646 0.102271 -0.009376 -28447.300000 0 0 1
-35.169029 3.020010 21.014431 41.080255 -0.085661 1.033814 0.117902 -0.028236 501784.000000 0 0 1
-36.047512 3.383610 19.925431 41.326683 -0.093591 1.067696 0.104653 -0.022714 434955.000000 0 0 1
-35.573975 2.933610 18.561131 40.232193 -0.082279 1.091280 0.114644 -0.016728 -61073.400000 0 0 1
-34.509683 3.661610 17.991831 39.090045 -0.105708 1.092501 0.121664 -0.019617 172666.000000 0 0 1
-34.206783 3.150910 16.699131 38.195461 -0.091854 1.118311 0.141271 -0.007692 -511787.000000 0 0 1
-33.238372 3.955410 15.878131 37.047938 -0.118444 1.127872 0.125542 -0.004574 -20812.700000 0 0 1
-33.893802 5.075310 15.272731 37.520726 -0.148637 1.151577 0.126564 -0.011948 705796.000000 0 0 1
-32.987792 5.531510 14.294231 36.374676 -0.166138 1.166935 0.130932 -0.012974 -10363.200000 0 0 1
-33.493672 6.859310 13.732831 36.843817 -0.202001 1.188846 0.132554 -0.026220 437628.000000 0 0 1
-32.688282 7.361410 12.635131 35.810064 -0.221505 1.210194 0.133033 -0.020488 478854.000000 0 0 1
-32.908112 8.740610 12.496731 36.269965 -0.259612 1.219039 0.110262 -0.023104 -310040.000000 0 0 1
-31.981422 9.351710 11.456131 35.235050 -0.284480 1.239642 0.123461 -0.024345 59946.300000 0 0 1
-32.374122 10.676410 11.394431 35.943046 -0.318551 1.248217 0.101638 -0.016431 194803.000000 0 0 1
-31.410212 11.382810 10.640731 35.062729 -0.347672 1.262457 0.098036 -0.023861 -213954.000000 0 0 1
-31.651682 12.850210 10.366031 35.698900 -0.385658 1.276179 0.096193 -0.021120 -106390.000000 0 0 1
-30.751072 13.455910 9.435131 34.867057 -0.412474 1.296777 0.086877 -0.018304 289835.000000 0 0 1
-30.952722 14.844110 9.355131 35.580009 -0.447173 1.304736 0.071849 -0.011819 -332663.000000 0 0 1
-29.966942 15.454910 8.366031 34.739924 -0.476154 1.327587 0.074334 -0.020202 208889.000000 0 0 1
-28.608242 15.456210 8.811831 33.689380 -0.495343 1.306157 0.087147 -0.014909 574021.000000 0 0 1
-27.855672 16.383110 8.057131 33.305587 -0.531655 1.326457 0.062354 -0.026324 -571713.000000 0 0 1
-26.449042 16.589810 8.628331 32.391692 -0.560206 1.301166 0.067702 -0.017288 -622287.000000 0 0 1
-26.311172 17.134110 9.871431 32.913533 -0.577226 1.266187 0.056066 -0.014780 201033.000000 0 0 1
-26.716412 18.472310 9.973431 33.977378 -0.604946 1.272877 0.060249 -0.024368 -257346.000000 0 0 1
-26.800492 18.821210 11.526431 34.718337 -0.612249 1.232375 0.073087 -0.008293 52592.700000 0 0 1
-25.479832 19.014610 11.991231 33.978918 -0.641104 1.210125 0.074607 -0.004014 286221.000000 0 0 1
-25.412042 19.393410 13.380431 34.654179 -0.651869 1.174382 0.075502 -0.002459 910.147000 0 0 1
-25.939132 18.414210 14.457631 34.942020 -0.617340 1.144215 0.064656 0.002808 -109959.000000 0 0 1
-25.022462 17.397610 14.748131 33.857168 -0.607551 1.120093 0.073092 -0.002907 391176.000000 0 0 1
-25.611212 16.456810 15.677631 34.242501 -0.571129 1.095231 0.067914 -0.001585 -480704.000000 0 0 1
-24.577362 15.422810 16.070831 33.168982 -0.560410 1.064989 0.072292 -0.000138 -371017.000000 0 0 1
-23.486662 16.016010 16.714931 32.977641 -0.598488 1.039262 0.067377 0.001289 576203.000000 0 0 1
-22.335462 15.176410 17.031731 31.926104 -0.596818 1.008094 0.047172 -0.014233 1042630.000000 0 0 1
-22.451262 13.911110 17.958531 31.938800 -0.554717 0.973657 0.070044 -0.015111 -487863.000000 0 0 1
-22.753462 14.273610 19.341131 33.098872 -0.560263 0.946725 0.070893 -0.008679 268694.000000 0 0 1
-22.953462 13.164010 20.159931 33.265228 -0.520713 0.919728 0.068852 -0.017548 -620353.000000 0 0 1
-22.801762 13.450510 21.675131 34.214732 -0.532952 0.884724 0.060804 -0.017759 -521939.000000 0 0 1
-21.505662 13.598210 22.163131 33.743284 -0.563838 0.854208 0.056728 -0.012454 -445737.000000 0 0 1
-20.932962 14.869610 21.878831 33.733921 -0.617635 0.865091 0.060649 0.003651 -596092.000000 0 0 1
-19.497862 15.053810 22.419631 33.308012 -0.657480 0.832403 0.068556 -0.004178 951337.000000 0 0 1
-18.379262 14.600610 21.638931 31.925200 -0.671321 0.826029 0.047553 -0.006377 504626.000000 0 0 1
-18.122862 15.399110 20.487031 31.389316 -0.704324 0.859686 0.055813 -0.004190 -2218150.000000 0 0 1
-17.066162 14.797110 19.541631 29.867770 -0.714306 0.857577 0.038299 -0.003509 -97551.700000 0 0 1
-15.776462 14.752510 20.071531 29.485584 -0.751870 0.822046 0.035075 0.000482 -506118.000000 0 0 1
-15.170062 15.964910 20.399331 30.019025 -0.810922 0.823652 0.016332 -0.003812 -1830150.000000 0 0 1
-14.159662 15.772510 21.529831 30.212609 -0.839230 0.777584 -0.006649 0.002481 47810.100000 0 0 1
-12.967362 15.085510 21.174031 29.052791 -0.860761 0.754211 -0.001865 0.007358 6509.470000 0 0 1
-12.187362 14.803210 22.309931 29.417679 -0.882014 0.709964 0.014562 0.015435 527750.000000 0 0 1
-10.841462 14.081210 21.991931 28.274773 -0.914665 0.679649 -0.002149 0.016820 -741557.000000 0 0 1
-10.421362 13.076210 22.811831 28.283771 -0.897905 0.632530 0.007046 0.012157 228046.000000 0 0 1
-9.303962 12.278310 22.437931 27.217299 -0.922350 0.601656 0.014110 0.022895 492001.000000 0 0 1
-7.919462 12.972810 22.492231 27.146126 -1.022717 0.594263 0.012091 0.022952 -438881.000000 0 0 1
-7.752062 13.911410 21.474331 26.735158 -1.062408 0.638108 0.001699 0.022187 -679643.000000 0 0 1
-6.943462 14.973410 21.882631 27.409199 -1.136592 0.646216 0.014416 0.021049 -443256.000000 0 0 1
-7.638562 16.109210 22.671731 28.842012 -1.128022 0.666377 0.020574 0.010593 -111891.000000 0 0 1
-8.637362 16.735210 21.913431 28.894112 -1.094337 0.709934 -0.027316 0.013364 -572026.000000 0 0 1
-8.166462 17.859110 21.182731 28.885065 -1.141912 0.747567 0.005694 0.014999 -1313150.000000 0 0 1
-8.998362 18.266210 19.912631 28.480481 -1.113067 0.796564 0.006113 0.018480 768966.000000 0 0 1
-10.195862 19.018410 20.020931 29.436256 -1.078684 0.822836 -0.013823 0.012706 101808.000000 0 0 1
-11.125862 18.443310 20.917931 30.024995 -1.027993 0.800032 -0.007263 0.014520 -2110660.000000 0 0 1
-12.454662 19.161110 21.002631 31.038319 -0.994423 0.827569 -0.010201 0.003226 -507749.000000 0 0 1
-13.168862 19.011710 19.778731 30.431271 -0.965006 0.863281 -0.001039 0.006944 33222.500000 0 0 1
-14.319062 19.834110 19.720831 31.421945 -0.945496 0.892313 -0.013079 -0.003583 40119.700000 0 0 1
-15.094462 19.649810 18.406531 30.866781 -0.915765 0.931885 0.010074 0.002118 -310833.000000 0 0 1
-15.730662 18.386810 18.256331 30.312079 -0.863094 0.924443 0.026592 0.003454 52844.000000 0 0 1
-16.469162 18.553110 17.045931 30.100082 -0.844832 0.968776 0.041017 -0.007541 -851186.000000 0 0 1
-17.273762 17.272710 16.728031 29.606695 -0.785368 0.970353 0.042583 -0.010085 1075890.000000 0 0 1
-18.484262 17.051910 17.482631 30.628058 -0.745113 0.963311 0.043582 -0.002443 1137370.000000 0 0 1
-19.557262 17.985010 17.296231 31.703417 -0.743543 0.993735 0.058887 -0.002742 -60334.200000 0 0 1
34.119751 -9.633790 11.629537 37.312377 -0.275189 1.253835 0.058373 -0.015211 -124100.000000 0 0 1
32.770631 -10.018790 11.456337 36.132231 -0.296700 1.248161 0.045749 -0.009461 309643.000000 0 0 1
32.351891 -11.194790 12.197137 36.341964 -0.333136 1.228532 0.057065 -0.008966 111612.000000 0 0 1
30.856101 -11.475790 11.899837 35.005698 -0.356062 1.223943 0.039730 -0.005216 -545786.000000 0 0 1
30.018931 -10.540290 12.513337 34.187974 -0.337674 1.196072 0.039464 -0.002689 569080.000000 0 0 1
28.664381 -11.020690 12.568537 33.182382 -0.367050 1.182328 0.038809 -0.000923 848545.000000 0 0 1
28.293641 -12.003290 13.780937 33.682686 -0.401227 1.149285 0.026812 -0.003894 -982771.000000 0 0 1
28.407031 -11.396290 15.097837 34.128867 -0.381522 1.112549 0.032669 -0.003493 92093.200000 0 0 1
27.810231 -12.145390 16.154937 34.378794 -0.411759 1.081608 0.036604 -0.007728 826077.000000 0 0 1
26.245801 -12.005390 16.178637 33.086550 -0.429008 1.059877 0.021976 -0.014265 571542.000000 0 0 1
25.727101 -10.692990 16.298837 32.278102 -0.393909 1.041472 0.023685 -0.016411 -32572.100000 0 0 1
25.370601 -10.025290 15.127737 31.193305 -0.376322 1.064470 0.044425 -0.024072 -189522.000000 0 0 1
25.001301 -8.536890 15.496837 30.628345 -0.329045 1.040297 0.089391 -0.029319 335891.000000 0 0 1
26.111601 -7.717690 15.870037 31.515655 -0.287384 1.043081 0.060987 -0.024052 72114.300000 0 0 1
25.804401 -6.379990 16.186537 31.121944 -0.242383 1.023828 0.082509 -0.027209 -632236.000000 0 0 1
27.042301 -5.516690 16.291937 32.049136 -0.201241 1.037537 0.077241 -0.024725 -403835.000000 0 0 1
27.469301 -5.039290 14.988837 31.695776 -0.181434 1.078221 0.092891 -0.023064 1043300.000000 0 0 1
28.765111 -4.424990 15.169737 32.819706 -0.152635 1.090306 0.070154 -0.022154 661872.000000 0 0 1
29.304051 -3.536990 14.044537 32.687715 -0.120119 1.126682 0.077756 -0.025941 -246986.000000 0 0 1
29.765551 -4.296490 12.905637 32.726187 -0.143354 1.165434 0.047231 -0.016331 421640.000000 0 0 1
29.802171 -3.456590 11.760637 32.224680 -0.115469 1.197209 0.052130 -0.013626 -161167.000000 0 0 1
30.221331 -4.210090 10.497637 32.268469 -0.138418 1.239444 0.061472 -0.010740 674855.000000 0 0 1
31.616031 -4.559890 10.494737 33.622991 -0.143239 1.253362 0.050367 -0.013793 992755.000000 0 0 1
31.872761 -5.299090 9.306137 33.623763 -0.164751 1.290362 0.047068 -0.007457 30672.200000 0 0 1
33.164551 -6.144390 9.213437 34.964674 -0.183193 1.304140 0.053048 -0.016089 764900.000000 0 0 1
34.369441 -5.367690 9.133737 35.965202 -0.154925 1.314024 0.056587 -0.013413 1183050.000000 0 0 1
35.523541 -6.148890 8.779337 37.105358 -0.171395 1.331926 0.070974 -0.026081 407322.000000 0 0 1
-36.072802 -5.334690 8.319437 37.402126 0.146823 1.346488 0.071657 -0.024311 -259773.000000 0 0 1
-36.285182 -4.781990 7.012437 37.264677 0.131034 1.381488 0.064583 -0.022220 66104.900000 0 0 1
-35.215941 -3.922390 6.683137 36.058452 0.110924 1.384377 0.078060 -0.014997 -258983.000000 0 0 1
-35.340749 -3.064690 5.432137 35.886891 0.086502 1.418844 0.068808 -0.025442 -237538.000000 0 0 1
-34.963393 -3.800990 4.241637 35.424256 0.108288 1.450770 0.074956 -0.035835 65534.800000 0 0 1
-34.845395 -2.966790 3.124437 35.110760 0.084937 1.481690 0.078472 -0.026075 267092.000000 0 0 1
-33.854002 -3.516490 2.048637 34.097743 0.103501 1.510679 0.104544 -0.026773 290057.000000 0 0 1
-34.259976 -4.738390 1.379037 34.613582 0.137435 1.530945 0.091505 -0.017003 200814.000000 0 0 1
-35.374922 -4.672190 0.500337 35.685639 0.131316 1.556775 0.073576 -0.020160 -73646.700000 0 0 1
-34.910379 -4.786590 -0.932763 35.249341 0.136261 1.597261 0.091973 -0.020416 -837580.000000 0 0 1
-34.571047 -6.104890 -1.257463 35.128453 0.174788 1.606600 0.085741 -0.023746 594638.000000 0 0 1
-33.568372 -6.208690 -2.274063 34.213372 0.182890 1.637312 0.080328 -0.021190 861830.000000 0 0 1
-32.091952 -5.817990 -1.913963 32.671175 0.179343 1.629413 0.088461 -0.025257 41185.700000 0 0 1
-31.599022 -6.819890 -1.008363 32.342323 0.212566 1.601979 0.086756 -0.023327 -499906.000000 0 0 1
-30.508912 -6.310190 -0.309963 31.156192 0.203955 1.580745 0.095345 -0.028851 -721071.000000 0 0 1
-29.961852 -7.287090 0.692437 30.843050 0.238580 1.548344 0.084964 -0.022207 -296924.000000 0 0 1
-29.391212 -8.405690 -0.022363 30.569584 0.278558 1.571528 0.093788 -0.010353 400083.000000 0 0 1
-29.174132 -9.507590 0.816537 30.695130 0.315038 1.544192 0.087805 -0.010275 51983.500000 0 0 1
-28.570932 -10.789490 0.113037 30.540531 0.361082 1.567095 0.087005 -0.009693 818722.000000 0 0 1
-27.257912 -10.642190 -0.474163 29.265591 0.372226 1.586999 0.096481 -0.013020 1134770.000000 0 0 1
-26.756112 -11.933290 -0.944263 29.311850 0.419525 1.603016 0.095068 -0.002644 79235.100000 0 0 1
-27.554132 -12.764390 -2.016863 30.433987 0.433816 1.637115 0.090763 -0.003428 632266.000000 0 0 1
-28.724512 -13.397790 -1.433963 31.727821 0.436428 1.616007 0.103168 -0.008486 1244210.000000 0 0 1
-29.233562 -14.436490 -2.314963 32.685967 0.458702 1.641680 0.094826 -0.003020 -14543.400000 0 0 1
-30.112002 -15.462690 -1.552063 33.885636 0.474394 1.616615 0.094979 -0.008861 281375.000000 0 0 1
-29.372602 -16.331590 -0.707163 33.615036 0.507449 1.591835 0.080665 -0.004080 351325.000000 0 0 1
-30.252242 -16.993690 0.167737 34.698873 0.511807 1.565962 0.078406 -0.005427 151845.000000 0 0 1
-30.693582 -18.454190 -0.161663 35.814512 0.541330 1.575310 0.077839 -0.006469 545490.000000 0 0 1
-29.611522 -19.411890 -0.105263 35.407270 0.580268 1.573769 0.104502 -0.015540 632668.000000 0 0 1
-29.996302 -20.743490 0.106737 36.470288 0.605022 1.567870 0.080708 -0.014250 -223317.000000 0 0 1
-30.829732 -21.172290 1.343037 37.423816 0.601777 1.534901 0.069769 -0.009161 -412389.000000 0 0 1
-30.231242 -21.144390 2.582537 36.982195 0.610338 1.500908 0.075959 -0.018023 148552.000000 0 0 1
-31.071512 -21.861790 3.491137 38.151864 0.613135 1.479162 0.061297 -0.012494 713463.000000 0 0 1
-30.305512 -22.006290 4.866237 37.767461 0.628060 1.441590 0.060341 -0.017895 241408.000000 0 0 1
-30.049162 -20.749590 5.354637 36.907584 0.604336 1.425200 0.045988 -0.019838 -192940.000000 0 0 1
-29.320152 -20.872890 6.531237 36.578763 0.618665 1.391281 0.048901 -0.022188 -137352.000000 0 0 1
-28.705702 -19.529790 6.983537 35.414684 0.597413 1.372302 0.051802 -0.016868 147391.000000 0 0 1
-27.803922 -19.682790 8.064237 35.007174 0.616018 1.338349 0.037591 -0.022513 -258336.000000 0 0 1
-27.197452 -18.465290 8.399337 33.929592 0.596448 1.320644 0.050303 -0.020795 538400.000000 0 0 1
-25.854822 -18.607990 9.173937 33.149513 0.623832 1.290392 0.055641 -0.011617 433800.000000 0 0 1
-26.190062 -19.224290 10.485637 34.138560 0.633202 1.258600 0.055910 -0.020814 76118.300000 0 0 1
-25.099402 -19.538090 11.319537 33.761648 0.661449 1.228896 0.044922 -0.001651 -250810.000000 0 0 1
-24.798762 -18.407390 12.318637 33.249954 0.638536 1.191264 0.039992 -0.002693 -354794.000000 0 0 1
-24.167062 -17.248990 11.794737 31.948245 0.619888 1.192667 0.037302 -0.006123 49597.400000 0 0 1
-23.966462 -16.151190 12.685537 31.562242 0.592999 1.157182 0.043240 -0.006226 68786.900000 0 0 1
-23.068062 -16.386790 13.915037 31.532374 0.617650 1.113757 0.048487 -0.006358 -471677.000000 0 0 1
-23.767362 -16.988690 14.969437 32.826622 0.620584 1.097284 0.043248 -0.015030 -191408.000000 0 0 1
-22.934362 -17.203490 16.069437 32.865968 0.643577 1.059924 0.056468 -0.018713 206514.000000 0 0 1
-23.722662 -17.735690 17.332037 34.317909 0.641980 1.041364 0.043452 0.002437 560539.000000 0 0 1
-24.693362 -16.880390 17.910937 34.864185 0.599634 1.031264 0.065176 -0.009364 562590.000000 0 0 1
-25.528622 -17.647090 18.810937 36.290242 0.604841 1.025879 0.055185 0.007567 128060.000000 0 0 1
-26.570262 -16.836390 19.598037 37.061111 0.564799 1.013606 0.065920 -0.000604 -172912.000000 0 0 1
-26.021182 -16.149790 20.737537 36.985985 0.555458 0.975582 0.065098 -0.011444 703253.000000 0 0 1
-27.005062 -15.353990 21.421937 37.734835 0.516981 0.967091 0.067252 -0.015611 411186.000000 0 0 1
-26.295792 -14.645590 22.564037 37.617785 0.508168 0.927516 0.071796 -0.017017 -164202.000000 0 0 1
-25.389672 -13.688790 22.112937 36.345569 0.494473 0.916743 0.076292 -0.017141 -51809.600000 0 0 1
-24.293462 -13.545490 23.005137 36.095553 0.508642 0.879755 0.082472 -0.025694 203741.000000 0 0 1
-23.052462 -12.906990 22.339737 34.598703 0.510409 0.868881 0.092054 -0.023237 -80250.200000 0 0 1
-23.154762 -11.538690 22.114337 34.034222 0.462310 0.863518 0.096378 -0.019729 -715336.000000 0 0 1
-22.078262 -11.077090 21.402637 32.683703 0.465022 0.856824 0.085589 -0.018005 -960964.000000 0 0 1
-21.569762 -9.678590 21.909337 32.232729 0.421782 0.823411 0.082554 -0.019786 158031.000000 0 0 1
-21.044662 -9.549890 23.241637 32.775782 0.426003 0.782561 0.091257 -0.022509 -100734.000000 0 0 1
-19.673562 -9.851690 23.192037 31.968350 0.464254 0.759081 0.080404 -0.018216 -303022.000000 0 0 1
-19.056062 -10.201190 24.583537 32.734509 0.491507 0.721225 0.073144 -0.024365 345630.000000 0 0 1
-19.530762 -11.474990 25.003237 33.738523 0.531203 0.736106 0.065246 -0.023704 150496.000000 0 0 1
-18.876962 -11.759090 26.247937 34.403054 0.557112 0.702926 0.066598 -0.016636 -532729.000000 0 0 1
-19.268962 -12.949790 27.143637 35.717881 0.591723 0.707567 0.062654 -0.036655 -319842.000000 0 0 1
-20.551662 -12.853390 27.705137 36.812431 0.558900 0.718790 0.066431 -0.030542 689003.000000 0 0 1
-21.681262 -13.214890 26.829537 36.939606 0.547381 0.757861 0.064543 -0.027548 1627600.000000 0 0 1
-23.023362 -13.396090 27.631137 38.379815 0.526965 0.767081 0.058566 -0.030473 506127.000000 0 0 1
-23.100462 -14.546890 28.527337 39.484837 0.561988 0.763402 0.053490 -0.022726 -346100.000000 0 0 1
-22.278162 -14.361490 29.639737 39.762833 0.572601 0.729642 0.045008 -0.017185 -387188.000000 0 0 1
-22.394662 -15.450090 30.786837 41.085953 0.603916 0.723750 0.023050 -0.018106 -591267.000000 0 0 1
-21.922362 -16.776490 30.502837 41.139563 0.653201 0.735571 0.024138 -0.017686 -108634.000000 0 0 1
-22.160262 -17.730090 31.543137 42.431154 0.674793 0.732663 0.027248 -0.016876 -375795.000000 0 0 1
-23.645862 -17.989190 31.906137 43.597469 0.650362 0.749786 0.047262 -0.020928 -31147.300000 0 0 1
-24.122262 -17.086290 32.864137 44.202673 0.616288 0.732526 0.053861 -0.012729 84201.000000 0 0 1
-25.470592 -17.385990 33.236037 45.339363 0.598946 0.748000 0.068260 -0.025621 466559.000000 0 0 1
-26.136642 -16.249190 34.080537 45.919966 0.556224 0.734490 0.073637 -0.024541 -65668.100000 0 0 1
-25.686712 -16.104490 -33.040957 44.842687 0.560006 2.399150 0.071061 -0.021398 -221694.000000 0 0 1
-26.384772 -15.032690 -32.494457 44.475023 0.517879 2.390030 0.084173 -0.018816 -213602.000000 0 0 1
-25.827542 -14.665990 -31.159457 43.047241 0.516439 2.380153 0.079209 -0.007996 -113520.000000 0 0 1
-26.098722 -15.598190 -30.126557 42.802526 0.538698 2.351599 0.084480 -0.000740 85476.300000 0 0 1
-25.501972 -15.177690 -28.925257 41.441324 0.536851 2.343371 0.086740 0.009835 -313289.000000 0 0 1
-25.856402 -16.098590 -27.739357 41.196967 0.556883 2.309507 0.081364 0.010261 815635.000000 0 0 1
-27.134022 -15.955190 -27.070557 41.516723 0.531560 2.281068 0.086834 0.004591 1147110.000000 0 0 1
-27.338892 -14.799690 -26.291957 40.715020 0.496172 2.272809 0.091967 0.008513 -119022.000000 0 0 1
-26.384212 -14.792490 -25.037157 39.265807 0.510988 2.262217 0.089860 -0.007163 283267.000000 0 0 1
-25.155582 -14.101590 -25.356557 38.400692 0.510926 2.292035 0.077755 -0.004867 791764.000000 0 0 1
-24.135862 -14.277290 -24.402157 37.173191 0.534175 2.286893 0.080983 -0.006106 -20558.400000 0 0 1
-23.445162 -15.677290 -24.427657 37.311707 0.589395 2.284571 0.070477 0.004067 -1146140.000000 0 0 1
-22.611362 -15.780090 -25.551657 37.592181 0.609304 2.318159 0.040984 0.005254 -115025.000000 0 0 1
-22.196262 -17.121090 -25.652457 37.998083 0.657026 2.311895 0.040719 0.006062 201944.000000 0 0 1
-21.214662 -17.485190 -26.814157 38.403031 0.689326 2.343719 0.023626 0.005895 316944.000000 0 0 1
-21.802662 -17.500490 -28.100657 39.639250 0.676371 2.358748 0.033485 0.000398 225007.000000 0 0 1
-22.862862 -18.418690 -28.311557 40.786062 0.678156 2.338032 0.048541 0.000602 -306029.000000 0 0 1
-23.435562 -18.330590 -29.747157 42.072906 0.663774 2.356098 0.063550 -0.009938 -28458.700000 0 0 1
-22.595462 -18.718490 -30.825957 42.557918 0.691830 2.380858 0.054892 -0.014350 277733.000000 0 0 1
-23.315562 -18.530490 -32.047557 43.749747 0.671543 2.392812 0.059130 -0.018548 -345349.000000 0 0 1
-22.573762 -18.898290 -33.328857 44.469459 0.697004 2.418069 0.050499 -0.022226 -360540.000000 0 0 1
-21.386662 -18.127090 -33.589257 43.751787 0.703092 2.446077 0.039947 -0.012698 447551.000000 0 0 1
-20.166362 -18.672590 -33.165757 43.073370 0.746956 2.449611 0.025508 -0.017769 -656186.000000 0 0 1
-19.696562 -19.927490 -33.860057 43.949549 0.791226 2.450312 0.025080 -0.017833 -1799730.000000 0 0 1
-19.155362 -19.540190 33.331437 43.124606 0.795343 0.687382 0.030319 -0.020203 -44930.200000 0 0 1
-19.116662 -20.539490 32.329637 42.807977 0.821262 0.714800 0.034490 -0.028824 -227864.000000 0 0 1
-20.469862 -21.023690 31.741637 43.226639 0.798745 0.746151 0.036589 -0.021491 105438.000000 0 0 1
-21.281562 -21.670790 32.700837 44.630402 0.794460 0.748511 0.032698 -0.022427 796301.000000 0 0 1
-22.593562 -22.060590 32.231437 45.122103 0.773463 0.775150 0.046886 -0.015522 1003400.000000 0 0 1
-22.755762 -23.376290 31.422237 45.294951 0.798848 0.804148 0.050153 -0.010861 -522018.000000 0 0 1
-22.085562 -24.427390 32.059437 45.959514 0.835704 0.798812 0.051253 -0.010690 -145601.000000 0 0 1
-22.313062 -25.578270 31.252637 46.139440 0.853472 0.826639 0.057754 0.000313 -241196.000000 0 0 1
-22.003262 -26.930140 31.929337 47.210789 0.885745 0.828049 0.076181 -0.002229 111327.000000 0 0 1
-22.727862 -27.191010 33.121237 48.506939 0.874569 0.819188 0.041603 -0.000781 -26307.800000 0 0 1
-22.186062 -28.340650 33.732537 49.328469 0.906610 0.817790 0.034664 -0.003769 -353121.000000 0 0 1
-23.189962 -29.085620 -33.726057 50.211498 0.897704 2.307270 0.036360 -0.007549 178334.000000 0 0 1
-24.215362 -29.864170 34.061437 51.365688 0.889474 0.845822 0.016493 -0.002672 808765.000000 0 0 1
-25.216632 -29.180500 33.266837 50.931941 0.858139 0.859043 0.014299 0.004342 191251.000000 0 0 1
-26.239182 -28.467090 34.204537 51.660626 0.826101 0.847178 0.019645 0.013852 -1906900.000000 0 0 1
-27.371312 -27.982440 33.633937 51.608598 0.796438 0.860957 0.016590 0.002036 -1329250.000000 0 0 1
-28.226792 -27.639050 -33.709857 51.932873 0.774878 2.277203 0.015996 0.006094 -467812.000000 0 0 1
-29.478682 -26.902180 -34.195857 52.555462 0.739732 2.279253 0.012185 0.004314 -568677.000000 0 0 1
-30.293952 -27.747220 33.474337 52.992103 0.741548 0.887071 0.002280 0.001427 -1242460.000000 0 0 1
-31.401922 -27.080980 32.994437 52.991443 0.711648 0.898688 0.007074 -0.001671 -688782.000000 0 0 1
