# x y z rho theta phi s1 s2 stress_xx np intf bulk
-0.685314 -10.699829 -14.358954 17.920256 1.506835 2.500210 -0.005784 0.003905 -248270.000000 1 0 0
2.118986 -13.412029 -13.091954 18.861916 -1.414100 2.337958 -0.001084 0.010273 169066.000000 1 0 0
2.184986 -11.181629 -14.768554 18.652431 -1.377820 2.484508 -0.004476 0.012054 -360654.000000 1 0 0
-5.605814 -6.406529 -16.519154 18.583628 0.851957 2.665754 0.011154 0.000999 -926572.000000 1 0 0
4.474986 -14.087629 -11.419354 18.678556 -1.263223 2.228577 -0.001878 0.000273 208933.000000 1 0 0
14.009686 -10.623229 -7.952654 19.296865 -0.648778 1.995578 0.048765 -0.023630 -1014580.000000 1 0 0
7.025886 10.706071 -10.819654 16.764484 0.990038 2.272332 0.027353 -0.015356 -1448040.000000 1 0 0
5.670386 -4.280429 -12.614354 14.477475 -0.646613 2.628660 0.006398 -0.002140 3417110.000000 1 0 0
13.645786 0.516571 -10.038354 16.948241 0.037838 2.204700 0.024241 0.001680 -105307.000000 1 0 0
14.186586 5.109071 -10.401354 18.318024 0.345674 2.174652 0.027630 -0.000178 1059140.000000 1 0 0
4.083686 4.258471 -13.376354 14.619778 0.806347 2.726178 0.004912 -0.001304 819718.000000 1 0 0
10.336686 -4.931529 -13.652254 17.819963 -0.445152 2.443581 0.032476 -0.000250 -840731.000000 1 0 0
2.505586 -7.577729 -11.987154 14.401104 -1.251462 2.554180 -0.002830 0.000965 1857610.000000 1 0 0
-5.612214 -1.968729 -15.136654 16.263184 0.337382 2.767204 0.006320 -0.003490 348242.000000 1 0 0
10.660386 -0.055429 -9.626754 14.363888 -0.005199 2.305282 0.013830 -0.001749 2440850.000000 1 0 0
-1.679514 -9.491729 -16.869354 19.429071 1.395664 2.622467 0.008465 -0.003800 2240540.000000 1 0 0
8.601786 1.561871 -17.811954 19.841771 0.179618 2.685317 0.030782 -0.013444 -1710780.000000 1 0 0
16.382086 -5.765929 -8.681754 19.416270 -0.338425 2.034360 0.065484 -0.017283 -1116000.000000 1 0 0
10.075486 7.509871 -9.974354 16.043731 0.640525 2.241705 0.027412 -0.008107 1631430.000000 1 0 0
13.844086 -2.275929 -10.614854 17.593001 -0.162940 2.218500 0.038887 -0.004586 -1398980.000000 1 0 0
7.170586 -1.860629 -13.609654 15.495223 -0.253882 2.643118 0.015304 -0.006287 -1006250.000000 1 0 0
-2.800114 6.628871 -13.718854 15.491595 -1.171120 2.658511 0.003435 -0.005506 2449940.000000 1 0 0
11.275086 1.917471 -14.004754 18.081410 0.168451 2.456782 0.023562 -0.005200 1186070.000000 1 0 0
-2.245214 10.710671 -12.821554 16.856800 -1.364164 2.435058 0.004736 -0.001678 -1559000.000000 1 0 0
2.797486 -1.063729 -15.221854 15.513294 -0.363361 2.947451 0.003781 -0.008719 766948.000000 1 0 0
-9.138814 0.422071 -15.205554 17.745561 -0.046152 2.599954 0.009480 -0.000693 -1149780.000000 1 0 0
2.211886 -1.749729 -18.014354 18.233786 -0.669264 2.986296 0.019793 -0.017128 407596.000000 1 0 0
1.042486 7.844671 -13.242854 15.427210 1.438679 2.602956 0.000752 -0.000307 -1612770.000000 1 0 0
9.308586 -9.044329 -9.921054 16.336370 -0.771001 2.223452 0.020819 -0.005963 168801.000000 1 0 0
3.904586 7.200171 -13.546354 15.830097 1.073891 2.597764 0.002642 -0.000212 560234.000000 1 0 0
-2.663214 9.133971 -15.455054 18.148852 -1.287089 2.589773 0.002477 0.001516 981309.000000 1 0 0
5.499386 -7.761929 -15.202254 17.933190 -0.954383 2.582461 0.024321 -0.003850 685213.000000 1 0 0
4.209086 7.153471 -16.490154 18.461141 1.038952 2.675288 0.003719 0.004397 -228353.000000 1 0 0
-0.229414 5.035671 -13.403154 14.319747 -1.525270 2.781860 0.004412 -0.006472 1691870.000000 1 0 0
8.719786 4.171971 -16.633154 19.238031 0.446258 2.615145 0.023154 -0.008405 184044.000000 1 0 0
5.278686 0.260871 -14.346054 15.288618 0.049379 2.788618 0.003688 -0.003361 831828.000000 1 0 0
6.213686 7.860771 -11.590754 15.321462 0.901895 2.428748 0.009486 -0.005832 -218173.000000 1 0 0
2.760686 -8.404929 -14.984554 17.401180 -1.253438 2.608270 0.009033 -0.004903 -438850.000000 1 0 0
3.915086 11.509171 -13.789654 18.383239 1.242905 2.419041 0.031605 -0.013553 -131934.000000 1 0 0
0.511986 -4.466829 -13.786254 14.500879 -1.456675 2.826341 0.001259 0.000343 624732.000000 1 0 0
8.451386 -0.149929 -11.617554 14.367184 -0.017738 2.512595 0.004441 -0.004097 1026690.000000 1 0 0
-1.049714 -4.992429 -16.337154 17.115164 1.363554 2.838918 0.000805 -0.007113 524646.000000 1 0 0
4.475086 0.916671 -11.678654 12.540241 0.202044 2.768746 0.002543 -0.006944 51803.900000 1 0 0
-2.921014 -7.136429 -15.616154 17.416234 1.182290 2.682926 -0.001101 -0.000963 2145010.000000 1 0 0
11.342886 -3.719429 -11.288654 16.429514 -0.316860 2.328281 0.023712 -0.003662 -557612.000000 1 0 0
6.523786 -7.042529 -12.495454 15.757327 -0.823617 2.486503 0.015001 -0.000599 -420754.000000 1 0 0
3.380786 -4.030429 -14.665654 15.580612 -0.872831 2.797186 0.012550 -0.004571 3033200.000000 1 0 0
-0.674914 -1.307629 -18.244354 18.303602 1.094323 3.061110 0.020878 -0.017288 -1043570.000000 1 0 0
14.894886 2.943271 -8.504454 17.402477 0.195089 2.081386 0.021355 0.004980 -1366780.000000 1 0 0
6.874886 4.205171 -14.296554 16.411550 0.548957 2.628290 0.009042 -0.003824 3423580.000000 1 0 0
10.232486 -9.664029 -14.004054 19.854741 -0.756835 2.353678 0.056585 -0.007466 94160.700000 1 0 0
8.957986 -3.170729 -15.554154 18.227198 -0.340194 2.593171 0.037398 -0.011588 108676.000000 1 0 0
-5.386714 -2.057229 -17.999654 18.900699 0.364813 2.831572 0.006093 0.003300 -1051980.000000 1 0 0
4.991786 -9.151129 -11.162854 15.273192 -1.071428 2.390405 -0.005681 0.002135 1773650.000000 1 0 0
-2.449614 3.890271 -17.138754 17.744625 -1.008841 2.879524 0.013961 -0.003172 1153200.000000 1 0 0
9.464386 9.274671 -14.457354 19.611456 0.775274 2.399697 0.058028 -0.017647 -1029040.000000 1 0 0
9.713686 9.960371 -11.575554 18.098567 0.797936 2.264753 0.030160 -0.014940 -1183670.000000 1 0 0
11.926986 -5.875229 -9.606454 16.402904 -0.457710 2.196485 0.030818 -0.007530 1146510.000000 1 0 0
8.106886 6.825771 -13.617154 17.255133 0.699815 2.480245 0.017856 -0.005245 86394.700000 1 0 0
3.882386 -4.170129 -17.620954 18.519204 -0.821116 2.828860 0.031136 -0.015277 776467.000000 1 0 0
9.409786 -7.493329 -12.405554 17.279810 -0.672501 2.371609 0.031886 -0.002823 1986730.000000 1 0 0
11.971586 -8.644529 -8.855454 17.218183 -0.625396 2.110997 0.031481 -0.017015 999497.000000 1 0 0
-2.963214 -2.431429 -13.804354 14.326642 0.687139 2.870744 0.002642 -0.004315 -1611090.000000 1 0 0
-0.359914 6.001271 -17.593454 18.592321 -1.510895 2.812312 0.014591 -0.001150 2917210.000000 1 0 0
1.111386 -8.471529 -17.407954 19.391721 -1.440351 2.685318 0.005166 -0.005881 841074.000000 1 0 0
0.004086 8.423671 -16.006954 18.088141 1.570311 2.657166 -0.000301 0.004278 -1858960.000000 1 0 0
1.764086 3.339071 -14.896154 15.367394 1.084753 2.893307 0.008631 -0.006700 2155570.000000 1 0 0
-1.941314 -0.374229 -15.678554 15.802715 0.190435 3.016155 0.011316 -0.013376 1949190.000000 1 0 0
14.052986 -4.204029 -8.414554 16.910499 -0.290682 2.091619 0.037091 -0.007706 1244660.000000 1 0 0
0.564986 0.593671 -14.429254 14.452509 0.810150 3.084856 0.006371 -0.007393 -142589.000000 1 0 0
8.800686 2.607171 -12.571054 15.565372 0.288010 2.510917 0.011747 -0.004902 2153800.000000 1 0 0
5.838786 0.969171 -17.150154 18.142726 0.164489 2.809282 0.019562 -0.002910 187352.000000 1 0 0
15.177786 1.503571 -12.483554 19.709516 0.098742 2.256706 0.033890 -0.004330 -1123670.000000 1 0 0
8.754586 -11.206629 -11.901554 18.543956 -0.907626 2.267643 0.031262 -0.007605 228172.000000 1 0 0
-4.649014 0.734071 -15.025754 15.745650 -0.156605 2.838037 0.010961 -0.008871 -310848.000000 1 0 0
2.391786 4.962471 -17.322954 18.177775 1.121673 2.833700 0.012030 -0.001734 1016160.000000 1 0 0
5.881086 -11.771829 -12.324454 18.029290 -1.107477 2.323452 0.008732 -0.000699 -3127.840000 1 0 0
12.851886 7.188671 -8.694654 17.101022 0.509992 2.104156 0.028372 -0.005721 30558.400000 1 0 0
-5.027014 3.599171 -15.656154 16.832708 -0.621361 2.765490 0.010164 -0.006948 2444010.000000 1 0 0
-0.746314 -4.155629 -19.118554 19.579207 1.393099 2.924243 0.013072 -0.014152 -1485100.000000 1 0 0
9.721686 4.400371 -10.280454 14.817630 0.425043 2.337547 0.006670 -0.003006 -1367850.000000 1 0 0
13.301286 3.704171 -12.908154 18.901469 0.271601 2.322546 0.037029 -0.004557 -1277430.000000 1 0 0
-6.184914 5.889571 -17.006654 19.030672 -0.760943 2.676198 0.013498 -0.002307 -844127.000000 1 0 0
-10.103314 3.141771 -15.325454 18.623029 -0.301485 2.537346 0.017470 -0.009342 -2198530.000000 1 0 0
10.722086 13.382371 -8.458254 19.120487 0.895318 2.029031 0.057994 -0.013896 -1108200.000000 1 0 0
7.503286 13.270171 -12.371254 19.632745 1.056188 2.252522 0.045948 -0.019795 1253170.000000 1 0 0
5.378886 15.056971 -11.309654 19.584511 1.227690 2.186434 0.017287 -0.016213 1423580.000000 1 0 0
14.218986 9.720071 -9.482054 19.661350 0.599633 2.074039 0.064306 -0.021701 -892786.000000 1 0 0
8.373886 -17.346229 -2.056754 19.371212 -1.121044 1.677173 0.022182 -0.001431 -709107.000000 1 0 0
0.694486 -15.953929 -0.006154 15.969039 -1.527293 1.571182 0.008166 -0.004599 2922870.000000 1 0 0
-9.145514 -11.720329 7.552446 16.674711 0.908176 1.100749 0.025404 -0.008292 270338.000000 1 0 0
2.070986 -15.952829 -2.590654 16.293963 -1.441699 1.730469 0.011847 -0.004358 2419670.000000 1 0 0
-1.252714 -11.101829 -9.427454 14.618372 1.458433 2.271695 -0.000641 -0.001317 776525.000000 1 0 0
-4.637814 -12.646729 -12.982854 18.708383 1.219304 2.337770 0.026420 -0.000514 -511333.000000 1 0 0
-8.000614 -17.733529 -1.917954 19.549078 1.146980 1.669064 0.018099 -0.023118 698826.000000 1 0 0
-11.327214 -7.118929 -8.853454 16.042711 0.561098 2.155399 0.024771 -0.003927 3826860.000000 1 0 0
-13.615414 -11.608829 -4.522454 18.455271 0.706015 1.818367 0.019764 -0.002781 -728139.000000 1 0 0
-5.719814 -13.428429 9.728546 17.540912 1.168123 0.982890 0.024346 -0.016118 -422293.000000 1 0 0
0.271786 -14.020129 -3.776054 14.522275 -1.551413 1.833837 0.011573 -0.007191 993915.000000 1 0 0
-14.677814 -11.583329 1.944246 18.798719 0.668104 1.467187 0.006503 -0.000606 294818.000000 1 0 0
-3.899014 -16.486129 -7.584154 18.561093 1.338561 1.991721 0.009281 -0.012040 85207.900000 1 0 0
0.645486 -15.298929 -9.237054 17.882870 -1.528630 2.113591 0.006648 -0.000042 -909265.000000 1 0 0
4.606986 -14.313329 -2.634254 15.265484 -1.259401 1.744227 0.006299 0.001939 -250592.000000 1 0 0
-3.580714 -18.010329 -2.461454 18.527067 1.374541 1.704047 0.004161 -0.017137 849732.000000 1 0 0
-0.923314 -13.424929 0.623546 13.471082 1.502128 1.524492 0.009500 -0.003508 2564410.000000 1 0 0
-8.318414 -11.468629 -10.552254 17.665660 0.943279 2.210966 0.031515 -0.007003 654910.000000 1 0 0
-3.660814 -14.134629 -0.483454 14.609005 1.317369 1.603895 0.001825 -0.003738 4707200.000000 1 0 0
-1.520214 -14.931429 -7.356354 16.714502 1.469333 2.026526 0.001204 -0.002593 -308607.000000 1 0 0
-14.253614 -7.859529 -1.802154 16.376369 0.503922 1.681066 0.008177 -0.002393 1449530.000000 1 0 0
-10.656114 -7.426329 -11.717854 17.493177 0.608648 2.304807 0.025959 -0.003305 451785.000000 1 0 0
-9.507714 -14.720529 6.745346 18.777388 0.997322 1.203357 0.016648 -0.003156 433277.000000 1 0 0
-2.389114 -14.441029 -12.412754 19.191864 1.406842 2.274140 0.017554 0.005736 -82727.600000 1 0 0
2.336186 -17.803529 -4.729954 18.568680 -1.440321 1.828362 0.023280 -0.012181 562284.000000 1 0 0
-6.563914 -9.746729 -9.231554 14.943403 0.978114 2.236697 0.015863 -0.006391 406050.000000 1 0 0
-11.003814 -15.496529 0.367046 19.009499 0.953336 1.551487 0.019557 -0.009083 950336.000000 1 0 0
-12.637114 -11.077129 4.108146 17.299604 0.719710 1.331035 0.020330 0.000061 2297910.000000 1 0 0
-17.062914 -8.852629 -1.422354 19.275248 0.478592 1.644655 0.012359 -0.006784 1611280.000000 1 0 0
-1.441114 -19.211829 -3.969254 19.670439 1.495925 1.773979 0.009366 -0.011679 124693.000000 1 0 0
3.311286 -14.273829 -8.778254 17.081117 -1.342845 2.110540 0.002608 0.000149 1194050.000000 1 0 0
-4.250514 -7.969529 -13.061954 15.880646 1.080829 2.536603 -0.000008 0.004088 1724920.000000 1 0 0
5.576086 -16.632729 1.238946 17.586227 -1.247324 1.500288 0.018953 -0.003667 3629630.000000 1 0 0
-2.682514 -13.753429 -3.379754 14.414418 1.378171 1.807470 0.001524 -0.007229 -1631990.000000 1 0 0
-0.396714 -13.903129 3.619646 14.372064 1.542270 1.316202 0.007658 -0.003392 -3112880.000000 1 0 0
1.293986 -16.161029 7.040346 17.675399 -1.490899 1.161119 0.023073 -0.010073 1258280.000000 1 0 0
-5.437614 -10.340529 -14.633554 18.725253 1.086680 2.467843 0.023113 -0.006639 -1867190.000000 1 0 0
-0.309114 -17.294529 -5.913654 18.280251 1.552925 1.900222 0.017372 -0.007293 344382.000000 1 0 0
-6.505614 -13.453129 -1.282554 14.998488 1.120374 1.656413 0.004741 -0.005293 3488090.000000 1 0 0
-1.683314 -17.677929 -0.156954 17.758586 1.475861 1.579635 0.004166 -0.007472 1875840.000000 1 0 0
-9.476114 -9.777429 -4.872954 14.461692 0.801047 1.914478 0.022228 -0.006321 2091200.000000 1 0 0
-0.736114 -16.589629 4.854546 17.300991 1.526453 1.286384 0.019174 -0.008529 1869860.000000 1 0 0
-6.784914 -9.912329 -6.283954 13.556453 0.970554 2.052782 0.016630 -0.007622 2761600.000000 1 0 0
-6.019614 -14.468129 -8.578254 17.864741 1.176522 2.071654 0.015431 -0.014602 1210340.000000 1 0 0
-5.578714 -12.215529 -10.311054 16.931008 1.142393 2.225601 0.018824 -0.008384 2178070.000000 1 0 0
-10.586514 -12.352329 -8.870054 18.529225 0.862226 2.069977 0.035875 -0.014120 231202.000000 1 0 0
4.057686 -16.984629 6.612446 18.672624 -1.336288 1.208818 0.038722 -0.015738 122351.000000 1 0 0
-6.701514 -14.330129 -4.176254 16.361662 1.133360 1.828899 0.012139 -0.014367 1132380.000000 1 0 0
-2.810414 -12.158029 -7.116354 14.365187 1.343629 2.089079 0.005162 -0.005571 2022590.000000 1 0 0
-7.049414 -12.875529 4.425146 15.331517 1.069871 1.278000 0.008188 -0.001525 2420440.000000 1 0 0
2.572386 -16.389529 2.241946 16.740972 -1.415113 1.436473 0.013178 -0.004425 4031900.000000 1 0 0
-6.268114 -12.001329 7.257946 15.362257 1.089480 1.078724 0.012332 -0.002804 265019.000000 1 0 0
-11.292214 -12.884129 -0.948054 17.158487 0.851149 1.626077 0.015520 -0.001820 904176.000000 1 0 0
-14.233914 -8.704629 4.683146 17.329361 0.548863 1.297150 0.021507 -0.005045 -268412.000000 1 0 0
-7.950214 -15.593829 4.375546 18.042140 1.099315 1.325836 0.008285 0.002887 853414.000000 1 0 0
-16.423414 -9.155429 1.255946 18.844835 0.508554 1.504100 0.000018 0.001783 -45214.700000 1 0 0
-6.592814 -17.067629 2.283946 18.438698 1.202177 1.446610 0.005733 -0.005047 1206140.000000 1 0 0
-11.551514 -14.957429 -4.688454 19.471614 0.913180 1.813970 0.044253 -0.008841 -349342.000000 1 0 0
-10.033914 -10.141829 -12.577754 19.019359 0.790747 2.293364 0.032882 -0.002045 -871326.000000 1 0 0
-4.290814 -15.943929 -4.609054 17.142443 1.307906 1.843014 0.004184 -0.014339 662731.000000 1 0 0
-11.784414 -8.305629 0.000246 14.417208 0.613939 1.570779 -0.000191 0.001760 1579740.000000 1 0 0
-9.643514 -11.206829 3.518146 15.197623 0.860236 1.337184 0.006959 0.004724 1605170.000000 1 0 0
-14.164314 -13.012129 -0.566254 19.242244 0.743027 1.600228 0.013220 -0.000283 717577.000000 1 0 0
5.652186 -14.938029 -7.157154 17.501908 -1.209070 1.992084 0.004245 -0.006879 -673086.000000 1 0 0
-7.554914 -10.611729 -1.333654 13.094432 0.952102 1.672822 0.005590 -0.002704 1140720.000000 1 0 0
-11.666314 -8.268129 -6.058954 15.529835 0.616553 1.971590 0.022972 -0.006042 554588.000000 1 0 0
-14.347014 -6.592829 -9.241454 18.294991 0.430748 2.100336 0.032613 -0.010299 4113480.000000 1 0 0
-3.834914 -16.387429 1.407246 16.888894 1.340917 1.487376 0.003333 -0.008722 694790.000000 1 0 0
-7.984114 -15.635029 0.096146 17.555895 1.098661 1.565320 0.016224 -0.010151 1091390.000000 1 0 0
1.073186 -18.532629 3.681446 18.925198 -1.512953 1.375022 0.014765 -0.010175 1443120.000000 1 0 0
-14.180314 -8.788029 -4.540654 17.289543 0.554804 1.836537 0.018150 -0.006896 852006.000000 1 0 0
-3.275714 -14.461629 11.035746 18.483958 1.348044 0.930984 0.011837 -0.017700 713577.000000 1 0 0
-10.772914 -12.174429 -3.727754 16.678386 0.846398 1.796208 0.019758 -0.009782 2052780.000000 1 0 0
-9.980514 -10.760329 0.583146 14.687934 0.822978 1.531084 0.006540 0.002725 1780160.000000 1 0 0
-0.000614 -13.234329 -11.198754 17.336654 1.570750 2.273074 0.002112 0.001139 902789.000000 1 0 0
-5.853114 -12.590029 -6.327454 15.257931 1.135620 1.998409 0.007902 -0.012298 3312040.000000 1 0 0
1.928786 -15.890629 9.882546 18.812151 -1.450008 1.017696 0.029242 -0.013478 -1019390.000000 1 0 0
-8.981114 -15.727429 -5.569254 18.948061 1.051937 1.869124 0.028620 -0.014381 -1110190.000000 1 0 0
-3.237514 -15.398429 5.773546 16.760876 1.363565 1.219127 0.008453 -0.006628 -1451340.000000 1 0 0
-17.491214 -5.440229 -6.455954 19.422101 0.301542 1.909646 0.038104 -0.012869 266800.000000 1 0 0
18.806786 5.600871 -2.878054 19.833006 0.289447 1.716425 0.018652 0.010394 -1047270.000000 1 0 0
12.877486 -12.501229 -5.928554 18.901273 -0.770574 1.889840 0.045369 -0.014333 -456111.000000 1 0 0
11.067586 -13.516629 -1.570854 17.540191 -0.884689 1.660474 0.025923 -0.008429 2130680.000000 1 0 0
18.754886 -2.816829 4.319146 19.450843 -0.149077 1.346875 0.065786 -0.012791 -71383.900000 1 0 0
8.816286 -16.763429 4.978946 19.583905 -1.086625 1.313738 0.034865 -0.022367 -1501600.000000 1 0 0
18.111186 -1.097229 6.600146 19.307534 -0.060509 1.221919 0.074700 -0.014191 -973130.000000 1 0 0
17.986986 -4.246429 -4.955254 19.134220 -0.231838 1.832756 0.071860 -0.021301 -1246930.000000 1 0 0
5.637986 -11.597029 14.701246 19.555168 -1.118284 0.720034 0.008672 -0.007978 836102.000000 1 0 0
16.037486 -8.869729 -0.840254 18.346091 -0.505191 1.616613 0.035963 -0.009161 686518.000000 1 0 0
13.897286 -12.614229 -1.409854 18.821292 -0.737040 1.645774 0.032080 -0.004210 74984.200000 1 0 0
11.402686 -2.104429 13.879746 18.085829 -0.182502 0.695961 0.038772 0.000512 -1108520.000000 1 0 0
16.884586 -6.083929 -1.459454 18.006483 -0.345843 1.651937 0.036666 -0.013875 -811944.000000 1 0 0
17.768886 3.734571 -0.987554 18.183937 0.207160 1.625132 0.020609 0.009781 243339.000000 1 0 0
9.761986 -11.075129 9.446346 17.526788 -0.848334 1.001587 0.009849 -0.005432 954219.000000 1 0 0
9.115786 -11.129229 4.182746 14.981744 -0.884526 1.287846 0.006130 -0.004786 -192359.000000 1 0 0
14.112986 -10.059229 6.816846 18.623476 -0.619241 1.196051 0.023740 -0.008023 229530.000000 1 0 0
16.360286 -0.623329 -4.737254 17.043740 -0.038082 1.852452 0.036363 -0.004459 474686.000000 1 0 0
15.899286 -0.410329 -1.725454 15.997901 -0.025802 1.678862 0.026951 -0.000381 888782.000000 1 0 0
12.904086 -5.133329 -0.327754 13.891505 -0.378614 1.594392 0.010112 -0.003846 424435.000000 1 0 0
14.319586 -7.480629 1.013346 16.187564 -0.481411 1.508155 0.018305 -0.005609 1141450.000000 1 0 0
15.508486 2.482471 3.594446 16.111978 0.158725 1.345812 0.028643 -0.006344 2023530.000000 1 0 0
15.945286 -7.115829 4.970646 18.154737 -0.419744 1.293461 0.046491 -0.011277 -805828.000000 1 0 0
13.713386 -12.138529 3.273546 18.604218 -0.724555 1.393918 0.016452 -0.005678 621868.000000 1 0 0
14.062386 -0.894229 9.191646 16.823694 -0.063505 0.992795 0.036568 -0.013218 85036.800000 1 0 0
14.258486 -2.773229 -1.537454 14.606813 -0.192098 1.676248 0.010851 -0.003330 1185770.000000 1 0 0
15.086086 1.840771 9.053846 17.690408 0.121418 1.033525 0.054377 -0.011720 -1142240.000000 1 0 0
14.354086 -10.195129 -3.016854 17.862862 -0.617579 1.740499 0.035799 -0.010175 581853.000000 1 0 0
7.362286 -12.617329 6.033246 15.805072 -1.042593 1.179131 0.003224 -0.005901 -1040380.000000 1 0 0
12.430486 -4.585729 7.019346 14.993902 -0.353421 1.083604 0.014495 -0.006727 1015490.000000 1 0 0
14.948886 -9.053229 -5.727554 18.391167 -0.544536 1.887493 0.061821 -0.020496 1090150.000000 1 0 0
14.363186 -4.503829 4.697646 15.768749 -0.303857 1.268295 0.017862 -0.008100 1274120.000000 1 0 0
17.046686 -4.222229 0.944346 17.587169 -0.242800 1.517075 0.019871 -0.011569 -1287270.000000 1 0 0
10.214986 -14.485829 1.090146 17.758761 -0.956608 1.509371 0.018600 -0.007871 454289.000000 1 0 0
16.414986 -2.586929 8.545246 18.685962 -0.156310 1.095830 0.064658 -0.015470 1119890.000000 1 0 0
16.053286 -2.550429 3.193946 16.565445 -0.157556 1.376774 0.023799 -0.003607 1375420.000000 1 0 0
7.743986 -15.200829 2.738446 17.278125 -1.099621 1.411633 0.012100 -0.009614 3208330.000000 1 0 0
16.706386 -6.926129 7.833046 19.708658 -0.393012 1.162069 0.065866 -0.011966 520479.000000 1 0 0
10.295786 -8.618229 5.061146 14.348947 -0.696936 1.210321 0.009810 -0.007122 1384200.000000 1 0 0
10.982786 -11.918029 2.120246 16.344921 -0.826214 1.440711 0.013123 -0.005907 -629577.000000 1 0 0
12.313786 -7.380529 12.002046 18.712312 -0.539957 0.874477 0.037881 -0.017847 1166800.000000 1 0 0
15.173586 -9.878029 4.277946 18.604139 -0.577079 1.338774 0.017101 -0.006135 -565931.000000 1 0 0
7.387686 -10.253329 7.751046 14.825227 -0.946434 1.020631 0.001193 -0.004176 471423.000000 1 0 0
15.200086 -3.359129 -4.368254 16.168117 -0.217498 1.844373 0.040462 -0.006189 2903190.000000 1 0 0
11.808986 -8.985829 9.710046 17.733648 -0.650461 0.991364 0.026922 -0.010669 -2662530.000000 1 0 0
17.009986 -6.692429 2.336846 18.427943 -0.374839 1.443644 0.047858 -0.010120 3400600.000000 1 0 0
17.545886 3.986271 1.997346 18.103531 0.223399 1.460242 0.026731 0.007190 1222280.000000 1 0 0
14.707486 -4.968329 8.811746 17.850526 -0.325774 1.054525 0.051955 -0.011564 1319250.000000 1 0 0
12.841086 -12.648629 6.173246 19.052303 -0.777848 1.240825 0.018150 -0.004303 -782455.000000 1 0 0
18.335286 0.925071 -0.986954 18.385117 0.050410 1.624504 0.035447 0.001247 -232145.000000 1 0 0
11.751786 -2.144729 10.943746 16.200923 -0.180516 0.829152 0.023006 -0.003191 1891720.000000 1 0 0
5.870786 -12.516129 10.536446 17.382068 -1.132208 0.919563 -0.000147 -0.000826 -730651.000000 1 0 0
10.805986 -5.054529 11.114346 16.304793 -0.437519 0.820766 0.024819 -0.004920 175198.000000 1 0 0
17.781786 1.295971 5.101046 18.544328 0.072753 1.292131 0.057890 -0.007086 -879081.000000 1 0 0
12.255686 -7.693029 7.098846 16.117635 -0.560546 1.114708 0.020876 -0.011240 -1632140.000000 1 0 0
10.719486 -7.957529 14.351346 19.600785 -0.638582 0.749276 0.040664 -0.015521 173508.000000 1 0 0
14.168386 -0.219929 3.716346 14.649326 -0.015521 1.314306 0.007530 -0.002436 1653300.000000 1 0 0
11.766986 -7.741729 2.545846 14.313548 -0.581922 1.391982 0.009698 -0.002728 1891720.000000 1 0 0
9.340386 6.131971 3.511946 11.712286 0.580932 1.266259 0.009034 -0.003267 2516800.000000 1 0 0
-3.935614 14.848171 -9.978554 18.317445 -1.311697 2.146896 0.010329 0.001258 410500.000000 1 0 0
8.836386 -6.448529 9.214746 14.303034 -0.630428 0.870753 0.009441 -0.004218 -526628.000000 1 0 0
5.876586 -10.547229 -8.538054 14.787720 -1.062466 2.186306 -0.003863 -0.005115 -1042990.000000 1 0 0
5.410686 1.077271 0.537046 5.542964 0.196531 1.473756 0.005993 -0.001523 4182220.000000 1 0 0
-0.506314 9.847971 10.929146 14.720228 -1.519428 0.734065 0.003240 -0.001030 -391807.000000 1 0 0
-6.314714 -5.179129 1.062746 8.235801 0.686918 1.441396 0.008537 -0.004296 4689560.000000 1 0 0
-1.037814 3.952471 -10.778554 11.527199 -1.314019 2.779208 0.011187 -0.007909 967152.000000 1 0 0
10.988786 5.740671 1.221046 12.457916 0.481416 1.472625 0.007624 -0.001649 1732980.000000 1 0 0
-10.127414 -1.859129 -13.592254 17.051987 0.181553 2.493285 0.007304 -0.002045 807780.000000 1 0 0
7.475786 10.801771 -6.033754 14.455857 0.965400 2.001369 0.005161 -0.005463 475274.000000 1 0 0
-12.433914 -2.822629 -9.553954 15.932592 0.223227 2.213858 0.011569 -0.002430 291481.000000 1 0 0
-3.920014 -8.666629 2.428946 9.817166 1.146022 1.320782 0.011555 -0.001982 -582676.000000 1 0 0
7.951086 -6.664929 -5.941554 11.955882 -0.697628 2.090884 -0.001505 -0.004882 594690.000000 1 0 0
14.368786 3.175771 -4.286854 15.327252 0.217522 1.854266 0.023876 0.001705 1116940.000000 1 0 0
-2.564414 -4.922929 9.800246 11.263049 1.090559 0.515343 0.005547 -0.003695 1870930.000000 1 0 0
3.535886 -1.898029 -4.594954 6.100705 -0.492645 2.423686 -0.000874 -0.000860 -1757310.000000 1 0 0
-4.008114 8.434871 -3.470454 9.962735 -1.127198 1.926600 0.002264 -0.001639 211335.000000 1 0 0
5.783486 0.122271 11.667746 13.023055 0.021138 0.460276 0.009417 0.000377 1750660.000000 1 0 0
7.111086 4.739971 12.393946 15.054725 0.587929 0.603667 0.005591 0.003850 -142691.000000 1 0 0
1.430586 -14.531529 12.362046 19.131965 -1.472666 0.868272 0.005612 -0.009786 -259730.000000 1 0 0
2.999686 8.701271 -9.080454 12.929226 1.238814 2.349448 0.004529 -0.002634 1613650.000000 1 0 0
-4.352314 -8.966629 -4.616454 10.984295 1.118905 2.004548 0.010156 -0.007048 168286.000000 1 0 0
5.711186 -6.504929 -4.028254 9.547700 -0.850282 2.006345 -0.004958 -0.002485 1533130.000000 1 0 0
-3.126414 3.402371 8.640046 9.798009 -0.827641 0.491096 0.001341 -0.000161 2024470.000000 1 0 0
-3.778214 3.134471 -11.043954 12.085890 -0.692541 2.723313 0.008801 -0.010445 1315120.000000 1 0 0
3.039986 -6.123129 8.545546 10.943518 -1.109972 0.674727 0.001629 -0.002500 414362.000000 1 0 0
-5.083514 -8.653229 10.453746 14.491421 1.039641 0.765011 0.010004 -0.007638 2091440.000000 1 0 0
-13.297114 -2.529129 6.521246 15.024526 0.187956 1.121824 0.016366 -0.005339 841821.000000 1 0 0
3.884986 -5.926329 -8.425954 11.009595 -0.990532 2.442347 -0.004029 -0.001312 3241270.000000 1 0 0
2.908386 -0.528929 12.301546 12.651739 -0.179897 0.235831 0.006769 -0.000681 807022.000000 1 0 0
1.394186 -1.470729 -7.524554 7.792670 -0.812109 2.878513 0.005509 -0.005139 -52768.200000 1 0 0
3.611586 -3.458229 3.505746 6.106812 -0.763710 0.959327 0.002676 -0.002670 463005.000000 1 0 0
1.563286 0.460271 -11.695554 11.808543 0.286335 3.003146 0.004392 -0.007219 665207.000000 1 0 0
4.090386 3.526671 -10.554154 11.855751 0.711526 2.668611 -0.001636 -0.003383 -298518.000000 1 0 0
2.810886 3.275971 3.334646 5.454624 0.861658 0.913040 -0.000468 0.000108 -930675.000000 1 0 0
-5.366914 0.833171 2.589946 6.017122 -0.154013 1.125828 0.005299 -0.003784 1721170.000000 1 0 0
-9.403914 -9.317629 5.696046 14.411688 0.780789 1.164469 0.013806 -0.001827 -1758970.000000 1 0 0
-3.065214 3.774471 -0.653854 4.906087 -0.888726 1.704468 0.003985 -0.006224 -238379.000000 1 0 0
-15.916914 -6.499729 4.914046 17.881345 0.387687 1.292400 0.038009 -0.008040 -108510.000000 1 0 0
1.005986 6.729271 -8.071854 10.556985 1.422401 2.441214 0.006697 -0.004012 1017820.000000 1 0 0
-1.642514 6.450171 -9.436854 11.548020 -1.321449 2.527304 0.006935 -0.004242 625369.000000 1 0 0
2.091586 -0.289629 5.243546 5.652733 -0.137598 0.382826 0.006545 -0.002674 3409640.000000 1 0 0
-3.467714 -0.574129 -6.240554 7.162345 0.164076 2.628642 0.009800 -0.008643 -114753.000000 1 0 0
1.938986 -1.117329 -2.471554 3.334167 -0.522769 2.405773 0.005583 -0.001923 1266500.000000 1 0 0
2.493086 -8.632729 -7.720254 11.846595 -1.289651 2.280601 -0.005693 -0.000049 1021470.000000 1 0 0
-2.486114 13.980871 -5.506954 15.230629 -1.394813 1.940749 0.002547 0.000891 1592370.000000 1 0 0
6.765786 -5.065129 -8.229854 11.796690 -0.642629 2.342896 0.000668 -0.005695 2320490.000000 1 0 0
-14.133514 -4.969629 -2.137354 15.133464 0.338117 1.712504 0.005654 -0.004408 168469.000000 1 0 0
-2.770914 6.908871 -6.828054 10.101128 -1.189371 2.313076 0.006491 -0.005890 -2001150.000000 1 0 0
-5.765914 -1.062029 -8.049254 9.958121 0.182149 2.512073 0.007285 -0.007674 -347021.000000 1 0 0
-5.739214 -10.620429 3.422646 12.547773 1.075358 1.294526 0.007782 -0.000934 -4161540.000000 1 0 0
8.149786 -7.569029 6.508546 12.886830 -0.748468 1.041352 0.004293 -0.004541 1799750.000000 1 0 0
8.800886 -6.063629 13.128746 16.928885 -0.603291 0.683253 0.026926 -0.008535 1142010.000000 1 0 0
-4.824714 9.600571 -0.790854 10.773777 -1.105115 1.644268 0.002613 0.000971 -345779.000000 1 0 0
2.797186 6.609671 12.167846 14.126871 1.170455 0.532922 0.003235 -0.000013 534502.000000 1 0 0
6.087686 -2.854129 10.910746 12.816019 -0.438407 0.552269 0.012525 -0.001598 -295515.000000 1 0 0
-9.640614 -6.567529 -1.105054 11.717296 0.598021 1.665246 0.008561 -0.003169 -329080.000000 1 0 0
0.919786 -13.329129 6.255146 14.752577 -1.501900 1.132935 0.006979 -0.005702 995452.000000 1 0 0
-0.639314 -3.140829 8.637746 9.213261 1.369990 0.355323 0.003200 -0.004227 1372440.000000 1 0 0
4.197686 0.733571 3.379546 5.438752 0.173009 0.900290 0.001932 0.000814 1241160.000000 1 0 0
-10.180314 5.488871 8.257246 14.210863 -0.494487 0.950776 -0.003487 -0.005737 1045700.000000 1 0 0
9.395386 7.901571 -0.055854 12.276450 0.699249 1.575346 0.007923 -0.002465 146767.000000 1 0 0
4.310186 2.920471 8.219146 9.729399 0.595516 0.564653 0.000167 -0.001110 3996360.000000 1 0 0
1.404186 2.739571 -9.688354 10.165687 1.097154 2.833932 0.008833 -0.009531 1302960.000000 1 0 0
-1.376614 -10.010229 3.075946 10.562253 1.434133 1.275294 0.008341 -0.001511 -2115760.000000 1 0 0
-9.976514 9.533471 9.065046 16.510390 -0.762694 0.989568 0.014177 -0.007265 3084700.000000 1 0 0
9.698186 -1.945929 -7.606354 12.477903 -0.198019 2.226334 0.014013 -0.003072 1440290.000000 1 0 0
-5.316914 -1.881329 6.650446 8.719943 0.340090 0.703364 0.004018 -0.003686 1106380.000000 1 0 0
3.171586 -7.870429 -4.980954 9.839335 -1.187728 2.101602 -0.005869 -0.002588 1752330.000000 1 0 0
-5.133714 4.898571 -13.028554 14.835574 -0.761964 2.642875 0.005978 -0.010499 1417910.000000 1 0 0
-5.685614 9.605371 5.463446 12.427333 -1.036339 1.115608 0.004312 -0.001581 1349360.000000 1 0 0
-0.540114 -1.745529 -9.351954 9.528780 1.270713 2.948644 0.003788 -0.006468 27402.600000 1 0 0
-16.844114 0.165371 6.335146 17.996822 -0.009817 1.211074 0.035128 -0.013303 378117.000000 1 0 0
-6.020314 -2.943029 4.076146 7.843505 0.454688 1.024315 -0.001922 -0.003250 942521.000000 1 0 0
0.952886 -5.715729 -5.106254 7.723431 -1.405603 2.293131 -0.003030 -0.001804 1181320.000000 1 0 0
-7.160714 1.440971 -8.493454 11.202276 -0.198581 2.431329 0.001738 -0.006044 606248.000000 1 0 0
8.034186 1.975771 4.776446 9.553337 0.241135 1.047224 0.004571 -0.000940 971051.000000 1 0 0
0.534786 -8.002229 -0.523454 8.037143 -1.504066 1.635972 0.001421 -0.000455 47423.400000 1 0 0
5.451286 5.525371 -3.331054 8.446429 0.792147 1.976183 0.006136 -0.001986 963959.000000 1 0 0
-0.731914 -0.393729 -1.238454 1.491472 0.493540 2.550544 0.006106 -0.004295 542315.000000 1 0 0
9.072086 6.289271 -6.285454 12.702937 0.606185 2.088405 0.010156 -0.005975 2016450.000000 1 0 0
-14.863714 -7.087329 2.505346 16.656440 0.444933 1.419810 -0.000758 -0.006046 1087150.000000 1 0 0
-6.418214 6.836371 8.866246 12.905028 -0.816936 0.813391 0.001947 -0.003400 1070090.000000 1 0 0
-9.502914 -3.211229 -9.634354 13.908204 0.325873 2.336036 0.003194 0.000105 558362.000000 1 0 0
14.884886 3.445971 -1.273254 15.331527 0.227500 1.653940 0.008786 0.004735 1128130.000000 1 0 0
12.094586 1.647071 -5.836954 13.530036 0.135350 2.016848 0.015327 0.000566 993235.000000 1 0 0
1.707086 -9.367329 12.725246 15.893171 -1.390536 0.642377 -0.002839 -0.006854 874752.000000 1 0 0
-3.577014 6.302071 7.880946 10.706093 -1.054546 0.743480 0.000599 0.000583 1933320.000000 1 0 0
-4.016614 13.047171 -12.394154 18.438463 -1.272150 2.307959 0.014454 -0.007588 -532332.000000 1 0 0
-10.343114 7.776271 6.536546 14.497477 -0.644672 1.103051 0.001873 -0.004725 2219570.000000 1 0 0
8.050586 -9.250229 -7.156754 14.198514 -0.854628 2.099077 0.000580 -0.005123 -70779.600000 1 0 0
5.798986 -3.795529 -0.304354 6.937356 -0.579543 1.614682 0.001896 -0.000705 -2185000.000000 1 0 0
-1.586114 -4.402929 4.269246 6.334667 1.225028 0.831254 0.006324 -0.003258 1410950.000000 1 0 0
9.935286 -2.002829 -2.592254 10.461406 -0.198922 1.821197 0.005961 -0.002799 -2644050.000000 1 0 0
13.618586 7.041971 1.386246 15.394054 0.477222 1.480623 0.014370 -0.003347 578671.000000 1 0 0
5.458986 -3.655929 -3.257354 7.333260 -0.590106 2.031065 0.000791 -0.002503 -1260510.000000 1 0 0
-12.185814 -5.977329 1.884146 13.703012 0.456031 1.432861 -0.000022 -0.001999 -289056.000000 1 0 0
3.783186 -5.767929 -0.237154 6.902010 -0.990285 1.605163 0.000410 -0.001091 -1554420.000000 1 0 0
-5.247514 3.685671 -8.608954 10.734741 -0.612312 2.501384 0.007847 -0.009929 1750950.000000 1 0 0
-1.707714 -9.237329 7.246046 11.863799 1.387989 0.913764 0.005711 -0.003426 913462.000000 1 0 0
-7.416114 -7.502429 2.616346 10.868784 0.791184 1.327688 0.009948 -0.003284 -5226800.000000 1 0 0
-5.710614 13.092871 -8.509954 16.626897 -1.159509 2.108097 0.015310 -0.007791 1303740.000000 1 0 0
9.302386 -13.938529 -4.167654 17.268072 -0.982296 1.814553 0.015692 -0.003738 1262900.000000 1 0 0
-6.412014 -5.158129 -6.689754 10.605330 0.677447 2.253369 0.009275 -0.001676 2266310.000000 1 0 0
3.372286 0.368571 -6.258854 7.119088 0.108862 2.644904 0.004330 -0.005395 2361010.000000 1 0 0
-3.636414 5.729071 4.936146 8.391144 -1.005231 0.941895 0.002420 0.002274 1113000.000000 1 0 0
-2.560414 -10.788729 -2.881654 11.456715 1.337784 1.825052 0.011021 -0.004682 1094260.000000 1 0 0
-12.600314 -0.440829 1.726746 12.725718 0.034971 1.434687 0.002809 -0.003795 440391.000000 1 0 0
8.455786 -11.967129 -6.065254 15.858745 -0.955665 1.963248 0.006121 -0.009500 746107.000000 1 0 0
6.157186 3.949571 1.037246 7.388229 0.570346 1.429939 0.005913 -0.003280 -245940.000000 1 0 0
3.328886 -4.857429 -11.016254 12.491355 -0.969992 2.650695 -0.001438 -0.000061 -561593.000000 1 0 0
-7.594814 4.215571 8.582146 12.210875 -0.506719 0.791431 -0.001270 -0.000708 895393.000000 1 0 0
8.120386 8.722471 4.135846 12.614570 0.821130 1.236756 0.010193 -0.002641 2319580.000000 1 0 0
0.267886 10.607071 -6.384054 12.382967 1.545546 2.112447 0.004217 0.001225 2481850.000000 1 0 0
5.406786 8.067971 3.302546 10.258279 0.980383 1.243019 0.008285 -0.003321 2681060.000000 1 0 0
8.086186 6.686771 -3.708754 11.128978 0.690952 1.910547 0.005903 -0.002695 -1004950.000000 1 0 0
10.535486 2.511671 -8.283054 13.635026 0.234033 2.223685 0.007862 0.000714 510313.000000 1 0 0
3.427686 -12.477129 -0.407954 12.945818 -1.302693 1.602314 -0.001962 -0.000576 -3256920.000000 1 0 0
0.620486 2.136071 5.218246 5.672556 1.288096 0.402943 0.004308 -0.001341 1667100.000000 1 0 0
-4.908314 13.519671 1.506446 14.461757 -1.222543 1.466439 0.003912 0.001029 1312440.000000 1 0 0
8.242786 4.090171 -8.027554 12.211250 0.460613 2.288146 0.003442 -0.000165 741672.000000 1 0 0
-13.848514 -0.602529 -3.562054 14.311975 0.043481 1.822327 0.004122 -0.004396 521544.000000 1 0 0
-8.625314 0.000771 -0.496454 8.639590 -0.000089 1.628291 0.000035 -0.004155 -753146.000000 1 0 0
1.885086 -3.790329 -1.140054 4.384047 -1.109278 1.833866 0.003668 -0.002073 -1262600.000000 1 0 0
8.072586 -5.567629 -0.286854 9.810577 -0.603777 1.600040 0.001809 -0.001628 3139760.000000 1 0 0
-2.393514 -1.160429 7.365046 7.830671 0.451432 0.346585 0.007161 -0.003449 1588040.000000 1 0 0
-5.805614 8.843671 -11.642054 15.730642 -0.989885 2.403997 0.010526 -0.006068 -865656.000000 1 0 0
-6.175414 9.165771 -8.811354 14.134605 -0.977908 2.243866 0.008548 -0.004934 -391374.000000 1 0 0
-1.569514 13.984571 -8.374454 16.375686 -1.459032 2.107604 0.008835 -0.001170 -1251230.000000 1 0 0
-1.472014 7.164171 9.775746 12.208906 -1.368148 0.642323 0.002534 -0.001989 876212.000000 1 0 0
10.108886 2.376171 -3.977054 11.119924 0.230867 1.936548 0.007466 -0.001614 -1596240.000000 1 0 0
-2.969514 -7.624529 -6.939754 10.729010 1.199402 2.274206 0.004562 -0.003319 498490.000000 1 0 0
-5.464714 -5.035129 -1.569654 7.594698 0.744507 1.778974 0.011272 -0.004362 42509.100000 1 0 0
5.665486 7.360571 -8.808554 12.801030 0.914801 2.329681 0.000954 -0.003373 324971.000000 1 0 0
-9.592214 5.185971 -7.465854 13.215288 -0.495632 2.171158 -0.000041 -0.001933 -70639.400000 1 0 0
-0.516614 6.134971 -5.283454 8.112931 -1.486786 2.280012 0.008041 -0.004239 431418.000000 1 0 0
-8.324114 2.792871 -6.295454 10.803877 -0.323713 2.192847 0.001815 -0.003218 1872170.000000 1 0 0
3.679686 1.465771 -2.024454 4.448256 0.379076 2.043294 0.005355 -0.004192 3105050.000000 1 0 0
-6.848314 12.484671 -3.471154 14.656580 -1.069076 1.809901 0.006145 0.002125 1792900.000000 1 0 0
-6.617614 3.233171 -2.398754 7.745982 -0.454462 1.885650 0.002995 -0.003898 -2199870.000000 1 0 0
12.145686 3.999771 -0.816654 12.813383 0.318131 1.634574 0.005565 -0.001100 -418527.000000 1 0 0
2.310386 12.396971 -5.533854 13.771213 1.386543 1.984324 0.009019 -0.002601 256625.000000 1 0 0
-9.174614 -1.523229 -4.241954 10.221935 0.164526 1.998723 0.003952 -0.001229 28826.600000 1 0 0
-1.215214 5.764671 3.376546 6.790378 -1.363034 1.050365 0.003933 0.000517 1252320.000000 1 0 0
11.496186 2.658071 12.016846 16.841384 0.227220 0.776271 0.022144 0.001669 339200.000000 1 0 0
-7.020914 -2.397229 -5.681154 9.344274 0.329030 2.224313 0.008160 -0.003439 -834141.000000 1 0 0
7.483186 -7.381029 10.785746 15.060212 -0.778526 0.772490 0.005280 -0.002794 -920226.000000 1 0 0
-5.584214 -1.909929 -10.865954 12.365284 0.329551 2.644027 0.008487 -0.002821 157654.000000 1 0 0
0.871786 -6.096029 4.503546 7.629122 -1.428751 0.939354 0.004527 -0.002993 1195410.000000 1 0 0
-4.768814 -9.430729 7.376046 12.887447 1.102625 0.961436 0.004120 -0.002282 2172180.000000 1 0 0
-8.821314 9.316971 1.686646 12.940877 -0.812718 1.440090 0.008257 -0.001431 925768.000000 1 0 0
-8.134614 7.165071 -9.039154 14.114407 -0.722113 2.265842 0.006907 -0.005587 -134699.000000 1 0 0
-1.164214 -10.539529 -0.081454 10.603948 1.460781 1.578478 0.007610 -0.002709 974769.000000 1 0 0
-3.996114 10.272771 7.746846 13.472653 -1.199808 0.958186 0.002299 -0.000937 872112.000000 1 0 0
-7.515114 12.045071 2.019146 14.340071 -1.012977 1.429522 0.008281 -0.004247 2079900.000000 1 0 0
-8.090514 -8.229729 -2.898754 11.899060 0.793928 1.816885 0.019029 -0.004941 1048020.000000 1 0 0
5.392386 4.601371 -7.994554 10.684724 0.706412 2.416176 0.002050 -0.000656 1017000.000000 1 0 0
-9.057614 -0.141529 -10.230754 13.664872 0.015624 2.416880 0.001817 -0.002949 -2844120.000000 1 0 0
-15.205614 -2.241429 -1.518554 15.444763 0.146354 1.669277 0.007240 -0.007244 -353967.000000 1 0 0
-7.277414 -5.760829 8.750046 12.755831 0.669600 0.814868 0.009192 -0.004264 -911316.000000 1 0 0
8.220886 3.475871 -0.931154 8.973945 0.400014 1.674745 0.007528 -0.000649 1563940.000000 1 0 0
11.914986 7.308471 -5.819754 15.141009 0.550203 1.965322 0.011741 -0.007652 468585.000000 1 0 0
3.831886 13.330771 -9.499154 16.811506 1.290896 2.171277 0.001271 -0.005016 -395828.000000 1 0 0
-9.818514 5.419871 -0.466054 11.224769 -0.504381 1.612328 -0.001135 -0.002209 1585530.000000 1 0 0
11.231086 -1.264029 -5.216654 12.447833 -0.112076 2.003230 0.018660 -0.004862 -203823.000000 1 0 0
10.707386 1.730571 -1.235654 10.916493 0.160238 1.684231 0.008218 -0.001759 -798721.000000 1 0 0
14.703486 5.142071 4.761446 16.288178 0.336423 1.274139 0.034410 -0.008735 2309950.000000 1 0 0
0.815786 -0.767329 10.233146 10.294250 -0.754799 0.109010 0.005817 -0.002563 2128060.000000 1 0 0
-8.000414 1.402271 -12.563854 14.960729 -0.173512 2.567691 -0.000416 -0.006279 -759366.000000 1 0 0
3.143886 -11.549129 -7.917754 14.351210 -1.305018 2.155213 -0.007262 -0.001078 437362.000000 1 0 0
2.897486 5.008471 -6.699854 8.852584 1.046323 2.429238 0.004347 -0.002043 -1465830.000000 1 0 0
6.561686 8.062971 0.566246 10.410949 0.887694 1.516380 0.011058 -0.005114 737682.000000 1 0 0
-9.133914 -5.386029 6.737346 12.563022 0.532792 1.004768 0.004510 -0.000746 -1602280.000000 1 0 0
-0.325414 -6.855529 -11.827754 13.674792 1.523365 2.615810 -0.001481 0.001382 815790.000000 1 0 0
6.525986 -13.452929 -4.691854 15.671097 -1.119141 1.874855 0.002811 -0.002298 1488510.000000 1 0 0
-3.317814 -0.383629 10.055246 10.595425 0.115116 0.320691 0.002482 -0.001164 320149.000000 1 0 0
8.586586 8.466471 6.915046 13.900663 0.778355 1.050126 0.002790 -0.000932 -285537.000000 1 0 0
-7.974414 5.774671 -2.661654 10.199143 -0.626751 1.834822 0.004225 -0.004404 1694790.000000 1 0 0
-5.392614 5.854771 -6.449954 10.245025 -0.826465 2.251795 0.005307 -0.006432 -1431540.000000 1 0 0
3.333486 -13.621429 2.435746 14.233352 -1.330790 1.398820 0.008117 -0.004441 -2277320.000000 1 0 0
-11.301114 -6.987229 6.422246 14.757432 0.553751 1.120550 0.021041 -0.007704 -1843950.000000 1 0 0
-12.901014 -3.715529 -6.786354 15.043136 0.280414 2.038823 0.013504 -0.004148 -1446940.000000 1 0 0
6.068786 0.368271 -7.262754 9.471715 0.060608 2.444611 0.000888 -0.002752 1384600.000000 1 0 0
-1.391814 2.175871 -2.578054 3.649373 -1.001725 2.355248 0.007552 -0.007211 1391280.000000 1 0 0
7.604986 1.019871 -4.987054 9.151320 0.133310 2.147131 0.003288 -0.000601 312839.000000 1 0 0
3.696986 -4.440429 10.881246 12.320172 -0.876506 0.488142 0.005354 -0.001976 1107360.000000 1 0 0
6.032586 -2.541829 2.069846 6.865657 -0.398775 1.264554 0.004734 -0.001543 -678026.000000 1 0 0
-6.384814 7.722971 1.137146 10.084802 -0.879968 1.457798 -0.000009 0.000114 2247390.000000 1 0 0
6.090986 -3.503529 7.972846 10.627375 -0.521984 0.722405 0.007135 -0.003801 -447653.000000 1 0 0
6.690586 -2.209929 -7.821454 10.527244 -0.319022 2.408297 0.001063 -0.003625 1492220.000000 1 0 0
12.064186 -8.140229 -5.857454 15.688138 -0.593573 1.953434 0.025725 -0.013436 1219570.000000 1 0 0
5.627086 -9.681629 9.963646 14.989072 -1.044306 0.843668 -0.004228 0.000912 1719230.000000 1 0 0
-6.607514 7.630171 -4.534854 11.065426 -0.857102 1.993055 0.003159 -0.002456 1392500.000000 1 0 0
-1.354314 -7.553529 9.760446 12.415968 1.393386 0.666290 0.003356 -0.005530 -331115.000000 1 0 0
10.117186 -9.313629 0.765646 13.772703 -0.744067 1.515176 0.007910 -0.003415 1224380.000000 1 0 0
11.121386 6.085571 9.805146 16.026861 0.500687 0.912469 0.014087 -0.005908 1363300.000000 1 0 0
-15.281414 -4.271429 -4.952954 16.622229 0.272562 1.873363 0.019579 -0.009732 2136590.000000 1 0 0
-4.783714 -4.624829 7.795546 10.249073 0.768512 0.706544 0.003775 -0.004386 1058200.000000 1 0 0
2.980686 10.939871 -11.054054 15.835320 1.304792 2.343485 0.002738 -0.001454 -643351.000000 1 0 0
9.930286 -1.296029 1.613346 10.143626 -0.129779 1.411068 0.003564 -0.001300 73131.000000 1 0 0
-1.596414 -2.570029 0.728646 3.111995 1.014959 1.334461 0.005930 -0.005847 2489340.000000 1 0 0
1.550786 3.032871 0.845846 3.509800 1.098129 1.327405 0.004399 -0.002377 -1500690.000000 1 0 0
-8.979914 -2.394029 4.270046 10.227587 0.260538 1.140101 -0.001388 -0.003129 4453640.000000 1 0 0
9.954686 4.910371 -2.658854 11.413896 0.458251 1.805905 0.008081 -0.000358 1878190.000000 1 0 0
2.572186 8.401671 2.581446 9.157952 1.273705 1.285043 0.003686 -0.002219 1551660.000000 1 0 0
-8.234114 -0.103229 2.446946 8.590625 0.012536 1.281958 -0.000234 -0.004633 961704.000000 1 0 0
6.875086 2.043771 13.738646 15.498200 0.288952 0.481142 0.014576 0.002105 -1082820.000000 1 0 0
6.814286 4.414971 3.822746 8.974399 0.574897 1.130772 0.003843 -0.001588 595540.000000 1 0 0
-0.344214 3.327371 7.761346 8.451531 -1.467714 0.406940 0.002001 0.000353 411506.000000 1 0 0
2.766386 -10.235529 9.186246 14.028758 -1.306830 0.856858 0.002142 -0.004017 1695310.000000 1 0 0
1.361086 -4.460529 6.886546 8.317054 -1.274631 0.595259 0.002882 -0.003619 601080.000000 1 0 0
-0.223314 10.847071 -1.940054 11.021462 -1.550212 1.747743 0.008123 -0.003080 2758360.000000 1 0 0
8.792186 5.569971 7.972646 13.110690 0.564698 0.917128 0.004172 -0.001276 -26135.200000 1 0 0
2.623986 11.343571 -2.874354 11.992657 1.343475 1.812829 0.009807 -0.005597 2609150.000000 1 0 0
1.493086 2.495171 -6.697554 7.301535 1.031561 2.731993 0.007492 -0.007504 -218141.000000 1 0 0
-13.533014 -2.201029 3.533046 14.158722 0.161230 1.318600 0.006249 -0.004936 1316530.000000 1 0 0
-0.893414 -10.638729 -5.309154 11.923417 1.487015 2.032273 0.003453 -0.003113 246435.000000 1 0 0
-5.687614 2.820271 0.412346 6.361833 -0.460332 1.505935 0.005828 -0.003634 1237610.000000 1 0 0
3.731686 7.305971 -4.971754 9.592759 1.098568 2.115637 0.006576 -0.003747 -559110.000000 1 0 0
3.024386 9.826171 -6.514254 12.171115 1.272209 2.135567 0.009284 -0.001936 1223440.000000 1 0 0
-12.277814 1.742071 -2.502954 12.650862 -0.140947 1.769959 0.002246 -0.003068 824071.000000 1 0 0
-2.489214 9.640871 -5.764854 11.505482 -1.318121 2.095611 0.002576 -0.001034 1386800.000000 1 0 0
-1.346314 3.355871 1.665746 3.981098 -1.189272 1.139098 0.004240 -0.002424 -163166.000000 1 0 0
12.959986 3.787771 9.555646 16.541427 0.284347 0.954913 0.037175 -0.005365 1472600.000000 1 0 0
-2.505014 -9.493829 11.721646 15.290679 1.312819 0.697286 0.001546 -0.009999 1748270.000000 1 0 0
-0.394814 -8.971829 -7.538254 11.724968 1.526819 2.269105 -0.002119 -0.000696 1931350.000000 1 0 0
2.341686 7.593471 -0.409554 7.956885 1.271668 1.622291 0.005860 -0.002720 996069.000000 1 0 0
-11.833614 -1.299429 -5.552954 13.136143 0.109370 2.007245 0.007047 0.000839 -623372.000000 1 0 0
-6.152914 -7.230929 -10.921454 14.471449 0.865771 2.425977 0.003617 0.000461 1591860.000000 1 0 0
-4.707914 -2.270029 -1.388354 5.407866 0.449285 1.830432 0.007058 -0.004066 -1616200.000000 1 0 0
-10.548714 3.726571 4.516546 12.064903 -0.339587 1.187096 -0.002138 -0.004174 3085120.000000 1 0 0
6.807786 9.334171 -3.553054 12.087054 0.940649 1.869159 0.003295 -0.001058 1363630.000000 1 0 0
1.178886 -2.636229 -11.501554 11.858551 -1.150285 2.895597 0.002800 -0.003345 -438999.000000 1 0 0
1.236586 8.834671 7.539346 11.679995 1.431730 0.869129 -0.002462 0.001771 81567.800000 1 0 0
10.394486 0.411271 10.452546 14.746871 0.039546 0.783004 0.010846 0.002568 1659010.000000 1 0 0
-5.313814 -0.790629 -3.887954 6.631584 0.147704 2.197253 0.006405 -0.006032 -1361560.000000 1 0 0
11.774486 5.647771 5.445246 14.148729 0.447245 1.175743 0.006335 -0.003050 2094250.000000 1 0 0
9.987086 -3.475229 3.661346 11.190378 -0.334867 1.237471 0.006918 -0.004427 -1813630.000000 1 0 0
7.373386 -1.651529 -3.373954 8.275139 -0.220348 1.990754 0.003688 -0.001454 -2996230.000000 1 0 0
2.392286 9.231071 10.502346 14.185731 1.317219 0.737212 0.001693 0.001485 2236850.000000 1 0 0
2.443086 -10.807329 6.337746 12.764562 -1.348475 1.051222 -0.001900 -0.000348 150855.000000 1 0 0
5.910286 -7.569229 -1.287854 9.689338 -0.907854 1.704105 -0.002560 -0.002388 317982.000000 1 0 0
-0.169514 -5.458829 -2.287054 5.920994 1.539753 1.967372 0.002394 0.000392 636369.000000 1 0 0
7.748086 -5.026229 2.679346 9.616377 -0.575465 1.288436 0.002916 -0.002148 1150510.000000 1 0 0
-2.603814 -12.348029 4.660246 13.452567 1.362972 1.217044 0.007286 -0.003008 487148.000000 1 0 0
4.967686 -10.308629 -1.210254 11.506974 -1.121737 1.676167 -0.002318 -0.002613 1334180.000000 1 0 0
0.933586 0.218771 1.074946 1.440469 0.230181 0.728390 0.002729 -0.002118 -2811290.000000 1 0 0
-1.635714 8.589871 2.387946 9.064421 -1.382626 1.304208 0.000107 0.002389 1186610.000000 1 0 0
-7.558414 0.662671 -3.127554 8.206726 -0.087450 1.961778 0.003885 -0.002315 -831496.000000 1 0 0
4.384186 -6.366429 12.786746 14.941666 -0.967734 0.543744 0.011576 -0.006353 1530480.000000 1 0 0
-5.162414 12.970171 8.446346 16.316146 -1.191996 1.026673 0.008104 -0.009662 1714230.000000 1 0 0
0.655286 6.056371 8.234646 10.242969 1.463018 0.636920 -0.000938 0.002489 920194.000000 1 0 0
8.010686 -0.538429 -0.701254 8.059327 -0.067113 1.657918 0.005638 -0.001210 4524440.000000 1 0 0
2.483186 -9.192629 -2.407654 9.821784 -1.306965 1.818454 -0.004033 -0.000614 1772540.000000 1 0 0
-7.175414 12.100971 4.911246 14.901020 -1.035568 1.234926 0.008863 -0.005183 1210620.000000 1 0 0
-15.008714 0.251571 0.208446 15.012270 -0.016760 1.556911 0.012478 -0.008587 432924.000000 1 0 0
6.836386 -0.494729 3.976346 7.924156 -0.072241 1.045117 0.003910 -0.000304 245917.000000 1 0 0
-4.228414 -5.063529 5.096346 8.336160 0.875032 0.913026 0.007057 -0.005843 593160.000000 1 0 0
2.903386 5.153971 6.858246 9.056964 1.057777 0.711728 -0.001995 -0.001138 -558319.000000 1 0 0
2.135086 -7.149429 1.813946 7.678758 -1.280590 1.332313 -0.001806 -0.001635 2529230.000000 1 0 0
-2.511614 6.365071 -1.759154 7.065193 -1.194960 1.822432 0.004747 -0.000745 728886.000000 1 0 0
2.681686 -3.862629 -6.518554 8.037592 -0.963930 2.516670 -0.003019 -0.002250 -1099580.000000 1 0 0
-5.175514 0.947871 -12.141454 13.232510 -0.181138 2.732664 0.008613 -0.005755 170262.000000 1 0 0
-7.553614 6.423871 -11.913654 15.500270 -0.704748 2.447461 0.007618 -0.006872 2637040.000000 1 0 0
-1.121914 11.222271 -9.046154 14.457903 -1.471155 2.246811 0.002298 0.002305 459128.000000 1 0 0
4.596286 5.919471 -0.550954 7.514621 0.910569 1.644180 0.007581 -0.002475 259042.000000 1 0 0
-2.668014 13.429371 3.533646 14.140472 -1.374680 1.318224 0.003674 0.000467 905151.000000 1 0 0
1.459486 -7.936329 10.173146 12.984926 -1.388929 0.670585 0.000967 -0.001751 -1071150.000000 1 0 0
13.068486 -0.243029 -1.097354 13.116729 -0.018594 1.654555 0.008582 -0.002226 1550510.000000 1 0 0
-0.997514 3.132671 -5.432654 6.349992 -1.262525 2.597384 0.009015 -0.009284 299860.000000 1 0 0
6.572586 1.077471 7.294946 9.878060 0.162489 0.739954 0.004456 -0.000895 2797180.000000 1 0 0
5.467686 -6.146229 6.816446 10.683429 -0.843757 0.878847 0.001159 -0.003450 2591610.000000 1 0 0
12.248486 -4.921429 2.566746 13.447455 -0.382056 1.378746 0.007219 -0.004095 53328.400000 1 0 0
4.474486 -9.094629 13.831246 17.147497 -1.113576 0.632412 0.005152 -0.003988 1661930.000000 1 0 0
-2.714714 -4.327829 -1.315454 5.275433 1.010567 1.822810 0.009863 -0.004962 2175360.000000 1 0 0
-9.270114 -5.175429 -7.499754 12.998708 0.509187 2.185800 0.009136 0.000345 146115.000000 1 0 0
-10.602014 -3.146629 7.870046 13.573563 0.288514 0.952305 0.006160 -0.001508 -1024530.000000 1 0 0
12.078086 -0.526029 1.640846 12.200379 -0.043525 1.435896 0.004187 -0.002891 678132.000000 1 0 0
-7.657814 4.701371 4.389746 10.000744 -0.550600 1.116376 -0.000463 -0.002001 3003250.000000 1 0 0
-1.159414 10.575771 6.896446 12.678807 -1.461603 0.995677 -0.001884 0.003310 2260840.000000 1 0 0
7.385986 -10.089529 1.857646 12.641291 -0.938886 1.423312 0.003117 -0.004593 3213430.000000 1 0 0
-4.352314 -1.727129 1.653546 4.965866 0.377771 1.231332 0.005548 -0.001701 1190190.000000 1 0 0
6.776086 -15.055729 -0.996554 16.540358 -1.147887 1.631083 0.014876 -0.004578 -1002090.000000 1 0 0
-10.513614 1.722071 2.350746 10.909978 -0.162353 1.353626 -0.002498 -0.002384 258031.000000 1 0 0
-2.966014 8.300371 -11.294254 14.326673 -1.227602 2.478898 0.000582 -0.003796 -1002720.000000 1 0 0
-1.390014 -5.253529 -6.812254 8.714271 1.312137 2.468240 -0.001683 -0.002417 -1044810.000000 1 0 0
12.866286 -0.409729 6.402746 14.377216 -0.031834 1.109243 0.009887 -0.007259 3229500.000000 1 0 0
5.869586 -13.234129 3.717646 14.947077 -1.153345 1.319437 0.006893 -0.005854 530009.000000 1 0 0
-5.609414 3.486771 -4.918454 8.234943 -0.556145 2.210885 0.006154 -0.005744 1375040.000000 1 0 0
-4.438414 8.026071 3.330046 9.757384 -1.065653 1.222513 0.002252 0.001994 1667230.000000 1 0 0
14.124586 6.182971 -4.141154 15.965031 0.412616 1.833186 0.026645 -0.000589 1421530.000000 1 0 0
-6.661614 -8.513529 5.288646 12.034411 0.906834 1.115799 0.011360 -0.000997 1225760.000000 1 0 0
1.680086 11.316271 2.646146 11.742349 1.423407 1.343493 0.003301 -0.003304 1753770.000000 1 0 0
-7.405414 7.233571 6.005546 11.967928 -0.773660 1.045114 0.003285 -0.005387 1048860.000000 1 0 0
-17.460814 -4.047729 5.172646 18.655305 0.227794 1.289840 0.041013 -0.011364 467161.000000 1 0 0
7.536586 -13.049929 -8.609154 17.355642 -1.047071 2.089833 0.012076 -0.008475 -736173.000000 1 0 0
-2.357914 12.884771 -2.736654 13.381568 -1.389799 1.776759 0.001396 0.001743 1999500.000000 1 0 0
-5.463514 13.922771 -5.744454 16.021619 -1.196845 1.937504 0.007669 0.001367 2224630.000000 1 0 0
-5.693314 2.341271 7.400946 9.626494 -0.390151 0.693818 0.002880 -0.001632 2571120.000000 1 0 0
-7.477214 5.052671 1.434046 9.137544 -0.594260 1.413205 0.003094 -0.001506 2569240.000000 1 0 0
10.628586 -5.715529 -5.066454 13.088280 -0.493390 1.968279 0.012065 -0.006092 2511380.000000 1 0 0
-9.533914 -0.793929 6.804946 11.740236 0.083083 0.952527 -0.004230 -0.002963 636787.000000 1 0 0
-11.242914 -4.577729 -2.529354 12.399853 0.386668 1.776221 0.004840 -0.004544 345495.000000 1 0 0
6.551186 -4.348729 13.507846 15.629823 -0.586021 0.527168 0.025047 -0.010948 709041.000000 1 0 0
0.254786 10.177371 -11.592654 15.428332 1.545767 2.420958 0.000677 -0.000781 -1347360.000000 1 0 0
-11.802714 -3.226229 1.396246 12.315118 0.266828 1.457175 -0.001963 -0.004429 1876510.000000 1 0 0
5.227886 5.983371 5.439546 9.629132 0.852683 0.970478 0.003137 -0.000467 -4064480.000000 1 0 0
-7.240614 -0.111429 8.166246 10.914508 0.015388 0.725450 -0.001478 -0.002809 -485300.000000 1 0 0
1.742186 2.110071 9.658246 10.038393 0.880608 0.276082 0.002695 -0.001042 2494070.000000 1 0 0
10.541886 -4.864529 -2.066454 11.792592 -0.432333 1.746939 0.003436 -0.003259 1088360.000000 1 0 0
-9.686214 -2.367129 -1.610354 10.100460 0.239683 1.730913 0.003061 -0.004039 471455.000000 1 0 0
-2.058714 -5.217129 -9.925154 11.400238 1.194948 2.627236 0.001347 -0.001865 160456.000000 1 0 0
7.658586 -1.603129 6.538846 10.197081 -0.206345 0.874674 0.006233 -0.002597 1011020.000000 1 0 0
1.632486 -11.824929 -2.635354 12.224527 -1.433609 1.788081 0.000466 -0.001167 -4032850.000000 1 0 0
-0.756614 -1.444729 4.906246 5.170199 1.088364 0.320915 0.007457 -0.003620 2166210.000000 1 0 0
7.654586 1.588971 9.873746 12.593981 0.204677 0.669705 0.007987 0.000829 1152410.000000 1 0 0
-3.884414 10.736071 -7.954754 13.915100 -1.223640 2.179328 0.008571 0.001247 3106790.000000 1 0 0
-9.637814 12.536571 6.467046 17.084372 -0.915386 1.182582 0.012889 -0.006960 1888750.000000 1 0 0
-2.609414 -2.385629 -11.018654 11.571992 0.740627 2.831099 0.007570 -0.004363 -1445140.000000 1 0 0
1.279386 -11.965029 11.068646 16.349730 -1.464274 0.827128 0.003995 -0.005288 1473160.000000 1 0 0
1.378986 3.465571 -1.995554 4.230132 1.192093 2.062068 0.006228 -0.005090 2016210.000000 1 0 0
-1.867114 -9.400729 -12.006754 15.363006 1.374734 2.467922 -0.003216 0.003368 194128.000000 1 0 0
1.381586 -2.666529 1.546246 3.377874 -1.092757 1.095325 0.006855 -0.003598 4266800.000000 1 0 0
-1.138214 -2.311129 -6.591254 7.076827 1.113173 2.768997 0.003694 -0.006390 -5911.580000 1 0 0
1.770186 5.836271 4.062946 7.328243 1.276308 0.983127 -0.001795 0.001045 -539879.000000 1 0 0
-11.070714 8.593271 3.579446 14.464351 -0.660070 1.320732 -0.000042 -0.005175 1384800.000000 1 0 0
-16.398114 -1.526729 3.927946 16.930972 0.092836 1.336665 0.025365 -0.006382 1026970.000000 1 0 0
-12.216014 0.226571 6.797946 13.981931 -0.018545 1.063066 0.001014 -0.001318 652741.000000 1 0 0
-5.190814 3.000271 4.649146 7.586879 -0.524083 0.911213 0.003001 -0.000091 1937530.000000 1 0 0
5.181886 -5.961629 3.925946 8.820772 -0.855257 1.109533 -0.001573 -0.001716 1538600.000000 1 0 0
9.958786 3.493371 6.279346 12.280523 0.337372 1.034070 0.002934 -0.000166 92023.200000 1 0 0
-12.213114 5.876971 3.143746 13.913378 -0.448496 1.342877 0.001634 -0.005310 963310.000000 1 0 0
-4.916414 12.379471 -1.283854 13.381730 -1.192756 1.666885 0.003373 0.003057 -129826.000000 1 0 0
-1.724814 -12.126429 10.392246 16.063127 1.429508 0.867202 0.008040 -0.010281 3529640.000000 1 0 0
5.205686 6.363771 13.847846 16.104645 0.885164 0.535788 0.002721 -0.001174 837181.000000 1 0 0
12.806886 -3.763129 -5.913954 14.599737 -0.285793 1.987855 0.012868 -0.006229 2384640.000000 1 0 0
3.609186 -2.480529 6.458946 7.803668 -0.602139 0.595834 0.003180 -0.002081 1628590.000000 1 0 0
7.293986 -11.931729 -0.711254 14.002652 -1.022102 1.621612 0.004150 -0.001615 -1887000.000000 1 0 0
-5.924214 -6.634129 -4.093354 9.790992 0.841867 2.002120 0.016644 -0.004195 82184.700000 1 0 0
0.312886 -8.861929 5.146446 10.252687 -1.535504 1.044932 0.003596 -0.003469 2948710.000000 1 0 0
-10.241314 2.498871 -0.413454 10.549873 -0.239323 1.609997 -0.000882 -0.002125 -1462950.000000 1 0 0
-1.978614 8.960071 -0.433654 9.186177 -1.353459 1.618021 0.004194 -0.001647 1058500.000000 1 0 0
-3.518614 2.312271 -6.534154 7.773186 -0.581388 2.569190 0.011311 -0.011145 955889.000000 1 0 0
-12.689614 3.001571 6.469446 14.556424 -0.232269 1.110248 0.000012 -0.005617 -287786.000000 1 0 0
11.425586 1.681271 7.892346 13.987845 0.146101 0.971297 0.009645 -0.006429 -1988340.000000 1 0 0
6.071986 2.700971 -3.185654 7.369711 0.418542 2.017797 0.003963 -0.001619 2218160.000000 1 0 0
10.504186 -2.406729 6.451946 12.560170 -0.225233 1.031324 0.008489 -0.005294 3717700.000000 1 0 0
-1.023314 10.999771 4.012446 11.753376 -1.478033 1.222405 0.001297 0.001673 529038.000000 1 0 0
-1.521414 -12.149829 7.446546 14.331228 1.446224 1.024410 0.006440 -0.004566 801279.000000 1 0 0
8.087386 8.556971 -7.789254 14.117367 0.813604 2.155257 0.010739 -0.006652 569941.000000 1 0 0
-4.641814 -5.991829 -8.692654 11.533026 0.911680 2.424498 0.004882 -0.000999 -385309.000000 1 0 0
-8.485514 -5.360529 -11.622254 15.356302 0.563422 2.429260 0.004341 0.001662 1775020.000000 1 0 0
5.982786 -0.688029 -9.950254 11.630764 -0.114498 2.597335 0.003135 -0.003671 -155613.000000 1 0 0
-11.165414 -5.498129 -5.317454 13.534076 0.457569 1.974573 0.010014 -0.003437 -192513.000000 1 0 0
3.883586 8.868371 -2.631754 10.032765 1.158038 1.836218 0.010573 -0.004867 1722760.000000 1 0 0
11.729986 -10.440729 -4.020854 16.210141 -0.727312 1.821459 0.018440 -0.009832 -80071.300000 1 0 0
3.908386 -11.271729 3.857046 12.538108 -1.237027 1.258099 0.001957 -0.002661 143739.000000 1 0 0
-1.055914 0.845571 3.095746 3.378400 -0.675226 0.411967 0.007059 -0.002165 -773871.000000 1 0 0
-10.648614 -5.056429 4.489946 12.614281 0.443321 1.206875 0.008560 -0.004680 2908720.000000 1 0 0
4.639786 -8.644529 2.746246 10.188099 -1.078198 1.297866 -0.004302 -0.000552 3498650.000000 1 0 0
-3.583014 -5.773329 2.637346 7.288684 1.015357 1.200554 0.007220 -0.001923 3856370.000000 1 0 0
9.931786 5.035571 12.250046 16.554787 0.469244 0.737771 0.017046 0.001556 530315.000000 1 0 0
1.757486 -12.271729 -5.284054 13.476102 -1.428549 1.973716 0.000483 -0.002389 955464.000000 1 0 0
9.859886 -10.726729 -1.781254 14.678315 -0.827480 1.692449 0.009277 -0.003643 369138.000000 1 0 0
9.562886 -4.362729 -9.184354 13.958315 -0.428010 2.288935 0.016388 -0.006580 1569400.000000 1 0 0
-7.437714 -3.068129 -13.032654 15.316105 0.391244 2.588515 0.002644 0.000035 1842020.000000 1 0 0
0.414286 6.250971 -2.455954 6.728891 1.504618 1.944415 0.006242 -0.003876 2055090.000000 1 0 0
-5.998814 -9.470029 0.902646 11.246421 1.006142 1.490449 0.008277 -0.001405 337800.000000 1 0 0
-9.006614 -4.148929 0.592546 9.933973 0.431678 1.511112 0.000605 -0.003655 3310440.000000 1 0 0
1.744286 3.844971 12.098146 12.813722 1.144908 0.335774 0.001673 -0.002354 304192.000000 1 0 0
6.691186 4.364671 9.569646 12.465971 0.577991 0.695612 0.000673 0.000653 1761650.000000 1 0 0
-8.310014 9.868671 -3.666154 13.412222 -0.870930 1.847664 0.001075 -0.001700 2050950.000000 1 0 0
16.477086 2.137171 -6.061354 17.686206 0.128986 1.920603 0.045504 0.005090 -677928.000000 1 0 0
-11.035214 2.711571 -5.011254 12.419390 -0.240946 1.986138 0.000441 0.000158 1528610.000000 1 0 0
-13.776614 4.024371 1.498746 14.430416 -0.284208 1.466748 0.004198 -0.001724 322594.000000 1 0 0
-17.514614 10.413671 3.305746 20.643018 -0.536418 1.409965 0.049802 -0.016605 362728.000000 1 0 0
-14.454614 2.883271 -1.137054 14.783167 -0.196886 1.647788 0.009175 -0.002993 350778.000000 1 0 0
-14.364814 5.114671 5.203246 16.111534 -0.342059 1.241950 0.004477 -0.003865 -41315.500000 1 0 0
-17.463514 7.495371 3.267246 19.282889 -0.405424 1.400537 0.028101 -0.006588 -2193470.000000 1 0 0
-14.917614 12.515971 -3.430954 19.772612 -0.698077 1.745200 0.043002 -0.014574 -555277.000000 1 0 0
-8.481014 12.481171 -9.549854 17.857966 -0.973958 2.135029 0.023264 -0.014233 448706.000000 1 0 0
-12.524014 8.858471 -9.684854 18.141660 -0.615621 2.133939 0.009054 -0.001139 -952238.000000 1 0 0
-13.774914 -3.525629 -12.093754 18.666473 0.250567 2.275603 0.012045 -0.005256 -517483.000000 1 0 0
-14.844114 5.770471 -7.567554 17.632752 -0.370760 2.014377 0.021248 0.004768 -125635.000000 1 0 0
-10.863814 13.538771 -8.239854 19.214993 -0.894580 2.013987 0.028638 -0.016051 928004.000000 1 0 0
-11.018514 13.507671 3.943446 17.872202 -0.886542 1.348319 0.014257 -0.006074 -111024.000000 1 0 0
-15.189514 3.274771 3.073046 15.839479 -0.212344 1.375546 0.008139 -0.000830 1153160.000000 1 0 0
-11.351714 9.508571 -12.412054 19.321838 -0.697270 2.268402 0.025744 -0.010371 -1004010.000000 1 0 0
-13.045814 11.756871 -9.029754 19.747246 -0.733477 2.045715 0.024930 -0.010916 -74248.900000 1 0 0
-8.827414 14.632971 -3.384154 17.421239 -1.027987 1.766294 0.013086 -0.006061 35797.800000 1 0 0
-16.777214 8.192571 -4.008054 19.096011 -0.454256 1.782258 0.038522 -0.006074 -1536890.000000 1 0 0
-16.925714 6.784371 0.370746 18.238557 -0.381224 1.550467 0.028123 -0.004042 675454.000000 1 0 0
-10.518514 2.830971 -12.484554 16.568574 -0.262912 2.424178 0.006296 -0.007435 2102440.000000 1 0 0
-16.955714 0.957271 2.334246 17.142384 -0.056397 1.434204 0.025555 -0.007243 -446254.000000 1 0 0
-12.700514 1.242071 -6.934654 14.523609 -0.097487 2.068575 0.006910 -0.002947 1059090.000000 1 0 0
-12.410514 9.063271 -5.430454 16.298883 -0.630767 1.910470 0.010973 -0.001908 -579639.000000 1 0 0
-9.711314 13.869871 1.339846 16.984644 -0.959954 1.491829 0.021750 -0.008116 24781.100000 1 0 0
-12.313514 11.118871 2.812146 16.827361 -0.734460 1.402891 0.007721 -0.007530 1142500.000000 1 0 0
-12.572014 6.872871 -3.617254 14.777565 -0.500291 1.818089 0.002134 0.000567 567609.000000 1 0 0
-15.822714 3.638671 -9.343754 18.732431 -0.226035 2.093011 0.027924 -0.003066 -692714.000000 1 0 0
-15.128914 5.806171 -4.560754 16.834374 -0.366446 1.845144 0.015041 0.002932 3155050.000000 1 0 0
-17.853514 5.169471 7.533446 20.055528 -0.281842 1.185721 0.019373 -0.011424 427677.000000 1 0 0
-15.858714 10.106071 -2.076554 18.919397 -0.567365 1.680776 0.033382 -0.006687 -1310760.000000 1 0 0
-8.815614 9.896071 -8.357554 15.668311 -0.843076 2.133417 0.007707 -0.005357 622067.000000 1 0 0
-17.076314 4.241071 -1.226854 17.637811 -0.243434 1.640411 0.024834 -0.003043 -964168.000000 1 0 0
-10.179514 5.507171 -4.570854 12.443639 -0.495911 1.946927 0.001828 -0.003169 -14869.400000 1 0 0
-18.327014 2.675971 6.113046 19.504092 -0.144988 1.252000 0.043142 -0.012684 -64478.300000 1 0 0
-10.472214 10.121371 -5.783654 15.670357 -0.768363 1.948818 0.006164 -0.004824 1412010.000000 1 0 0
-15.416414 0.387371 -5.783654 16.470171 -0.025122 1.929605 0.011635 -0.001875 1677500.000000 1 0 0
-16.464614 -4.165529 -8.831554 19.142401 0.247799 2.050325 0.036803 -0.015419 246249.000000 1 0 0
-9.988014 9.642271 -1.127154 13.928542 -0.767787 1.651809 0.001679 -0.000851 1091570.000000 1 0 0
-17.318114 -3.054129 -3.261554 17.885260 0.174560 1.754182 0.024795 -0.012107 -1446540.000000 1 0 0
-11.931114 5.172771 -11.501054 17.360394 -0.409093 2.294932 0.011659 -0.004508 -545972.000000 1 0 0
-16.256514 7.073271 5.906546 18.686699 -0.410397 1.249198 0.015010 -0.005256 -559990.000000 1 0 0
-12.154214 6.066871 -8.721054 16.142758 -0.462974 2.141525 0.007211 -0.001234 1857070.000000 1 0 0
-14.590914 8.387371 -0.076454 16.829992 -0.521710 1.575339 0.022690 -0.008376 559311.000000 1 0 0
-15.089114 11.813371 3.910846 19.558421 -0.664231 1.369482 0.028586 -0.015336 638301.000000 1 0 0
-17.340914 4.053671 -4.026554 18.257949 -0.229640 1.793161 0.021096 -0.000832 -563479.000000 1 0 0
-13.963914 13.350971 -0.799954 19.335958 -0.762962 1.612179 0.035823 -0.012057 -660312.000000 1 0 0
-10.155314 7.030371 -13.012854 17.941318 -0.605529 2.382268 0.009611 -0.010855 1572610.000000 1 0 0
-15.865614 -1.132629 -8.375554 17.976387 0.071268 2.055470 0.017231 -0.005694 376235.000000 1 0 0
-11.544214 11.911571 -0.048254 16.587849 -0.801059 1.573705 0.020063 -0.007827 1852640.000000 1 0 0
-12.041614 7.389171 -0.886354 14.155774 -0.550386 1.633452 -0.000152 -0.001096 1605970.000000 1 0 0
-11.535414 0.188471 -11.755454 16.470944 -0.016337 2.365575 0.006432 -0.003981 -1187700.000000 1 0 0
-19.136614 -1.328429 -4.791254 19.771971 0.069307 1.815558 0.031251 -0.007951 -1461230.000000 1 0 0
-18.003514 1.401271 -5.022154 18.743322 -0.077677 1.842054 0.017210 -0.001936 -1350720.000000 1 0 0
-13.310714 -0.058729 -9.449554 16.323990 0.004412 2.188145 0.009117 -0.002949 -219647.000000 1 0 0
-6.084714 11.204071 -13.168654 18.329441 -1.073281 2.372357 0.012934 -0.008161 379120.000000 1 0 0
16.523386 5.963771 6.974546 18.900612 0.346378 1.192851 0.065119 -0.014679 282760.000000 1 0 0
14.976886 10.227171 -5.432754 18.931903 0.599132 1.861851 0.067902 -0.019222 281939.000000 1 0 0
2.437286 16.953571 4.366146 17.675609 1.428012 1.321197 0.008512 -0.003909 702458.000000 1 0 0
-3.832114 18.112671 -5.882454 19.425684 -1.362300 1.878445 0.005751 -0.009457 -329058.000000 1 0 0
5.450686 14.571871 5.644346 16.550167 1.212854 1.222768 0.010029 -0.008072 719792.000000 1 0 0
9.891186 5.999471 15.038346 18.973167 0.545220 0.655716 0.032657 -0.005837 -514881.000000 1 0 0
4.651586 12.745771 -1.101154 13.612658 1.220864 1.651777 0.003206 -0.006453 1666250.000000 1 0 0
3.553886 13.648971 12.860746 19.087255 1.316075 0.831474 0.023214 -0.016235 -456501.000000 1 0 0
-0.837014 12.314771 9.114446 15.343640 -1.502932 0.934748 0.004730 -0.001740 1419600.000000 1 0 0
-7.874314 13.841171 8.382446 17.995784 -1.053555 1.086257 0.022736 -0.016787 2018190.000000 1 0 0
11.437786 12.820671 -4.280854 17.706447 0.842343 1.814984 0.042208 -0.013919 173335.000000 1 0 0
-5.786614 16.340571 0.933446 17.360025 -1.230451 1.517001 0.006956 0.004552 2050900.000000 1 0 0
3.211986 10.536571 6.728346 12.907626 1.274904 1.022459 0.002471 0.000769 1633510.000000 1 0 0
-1.115214 15.602971 2.506246 15.842275 -1.499443 1.411929 0.005270 -0.003252 -2565740.000000 1 0 0
9.970886 8.894871 9.503446 16.396731 0.728425 0.952566 0.018740 -0.009734 848598.000000 1 0 0
7.241386 12.303171 6.210446 15.568408 1.038817 1.160465 0.007341 -0.005409 402472.000000 1 0 0
11.822586 13.962671 -1.533154 18.359746 0.868205 1.654400 0.035981 -0.007204 25871.100000 1 0 0
9.649686 15.963771 -1.197354 18.692032 1.027094 1.634897 0.018137 -0.000483 1866920.000000 1 0 0
10.066186 13.698471 2.920646 17.248373 0.937068 1.400648 0.027846 -0.007926 2196000.000000 1 0 0
-6.075714 14.543271 6.234246 16.949538 -1.175067 1.194141 -0.000198 -0.007551 1073370.000000 1 0 0
-0.913014 18.095171 -6.136354 19.129131 -1.520383 1.897355 0.020273 -0.007660 -279556.000000 1 0 0
-3.606314 15.750271 5.406046 17.038247 -1.345708 1.247927 0.003893 -0.000974 1091940.000000 1 0 0
7.084486 12.347971 10.593646 17.745074 1.049912 0.931051 0.009728 -0.005567 4075290.000000 1 0 0
1.440186 14.599971 6.156546 15.910259 1.472471 1.173470 0.002260 -0.006519 829903.000000 1 0 0
17.495886 7.728371 -1.461454 19.182533 0.415951 1.647057 0.031089 0.007032 853294.000000 1 0 0
2.090386 16.140571 -3.413154 16.629413 1.442002 1.777513 0.003456 -0.005713 1279350.000000 1 0 0
6.783486 11.193671 0.593746 13.102156 1.025969 1.525464 0.012056 -0.005499 1733980.000000 1 0 0
12.800186 9.304271 3.179046 16.140649 0.628543 1.372541 0.026087 -0.004266 -969256.000000 1 0 0
6.022886 14.186571 -3.480454 15.800238 1.169308 1.792896 -0.000902 -0.004968 -822161.000000 1 0 0
3.019086 16.494771 1.516246 16.837201 1.389767 1.480621 0.007487 -0.013587 -1604340.000000 1 0 0
2.613286 18.891771 -2.673354 19.258118 1.433339 1.710063 0.003211 -0.012887 -1527120.000000 1 0 0
3.942286 11.923171 10.570446 16.414565 1.251471 0.871123 0.010708 -0.009734 2783930.000000 1 0 0
8.032386 11.606571 3.384646 14.515080 0.965422 1.335448 0.010723 -0.002808 233759.000000 1 0 0
0.722986 12.551671 0.180746 12.573775 1.513259 1.556421 0.006759 -0.005007 -970389.000000 1 0 0
12.054986 9.920171 -4.628954 16.283725 0.688555 1.859040 0.031348 -0.011425 150538.000000 1 0 0
-1.379514 16.445571 9.948046 19.269756 -1.487109 1.028328 0.006790 -0.006007 -773871.000000 1 0 0
8.221386 14.674771 -8.119954 18.678162 1.060126 2.020535 0.019280 -0.003231 1357200.000000 1 0 0
14.571486 7.591671 -1.367154 16.487291 0.480302 1.653813 0.021953 0.001633 -28506.900000 1 0 0
12.558486 8.358371 6.025746 16.244616 0.587233 1.190777 0.025205 -0.008525 -2310630.000000 1 0 0
-3.096214 14.115671 10.214646 17.696827 -1.354870 0.955498 0.005899 -0.016109 1665680.000000 1 0 0
-4.585414 17.122371 -3.102854 17.995258 -1.309134 1.744089 0.011020 -0.008645 -741299.000000 1 0 0
-7.117714 16.422871 -1.679954 17.977619 -1.161830 1.664380 0.018163 -0.003168 1258000.000000 1 0 0
8.455086 11.296371 -1.856254 14.231730 0.928270 1.701600 0.012710 -0.004357 -870376.000000 1 0 0
8.542886 12.868871 -4.265054 16.024338 0.984752 1.840205 0.020392 -0.006929 3698340.000000 1 0 0
2.651086 14.824771 -7.302454 16.737023 1.393839 2.022285 -0.000644 -0.002221 336969.000000 1 0 0
11.329486 11.432771 9.672146 18.778070 0.789936 1.029699 0.031214 -0.015748 2234820.000000 1 0 0
8.461086 15.649871 1.486646 17.852690 1.075161 1.487427 0.013836 -0.007352 -93050.400000 1 0 0
6.045686 9.956471 7.732046 13.980921 1.025091 0.984785 0.001707 0.002317 2539000.000000 1 0 0
14.494586 11.481671 2.589746 18.671598 0.669927 1.431648 0.046882 -0.007315 1270590.000000 1 0 0
12.105686 12.597971 1.063046 17.503901 0.805323 1.510027 0.029039 -0.004903 843091.000000 1 0 0
5.053086 15.932571 8.176846 18.607560 1.263677 1.115825 0.015824 -0.007690 313477.000000 1 0 0
11.485586 15.022671 5.061846 19.576047 0.918048 1.309251 0.039635 -0.010274 299888.000000 1 0 0
5.902486 16.735871 1.762846 17.833573 1.231732 1.471785 0.007853 -0.014167 -139600.000000 1 0 0
-0.663914 16.040071 -4.138954 16.578769 -1.529429 1.823119 0.004136 -0.007008 659960.000000 1 0 0
16.146486 6.510071 2.515346 17.590253 0.383252 1.427308 0.026129 -0.006038 -1120540.000000 1 0 0
7.753086 16.613671 -3.216854 18.613773 1.134167 1.744490 0.006299 -0.005603 -574728.000000 1 0 0
14.901186 8.255271 7.496846 18.611758 0.505910 1.156221 0.063150 -0.014600 642038.000000 1 0 0
2.043886 12.920671 8.481846 15.590475 1.413909 0.995551 0.006409 -0.004925 1391390.000000 1 0 0
16.112386 7.512971 -5.943654 18.745152 0.436314 1.893442 0.040713 -0.003302 188873.000000 1 0 0
-2.906314 17.038571 0.682046 17.298114 -1.401850 1.531357 0.003714 -0.003316 816533.000000 1 0 0
-2.983814 18.529571 4.601146 19.324044 -1.411137 1.330382 0.007129 -0.003405 251286.000000 1 0 0
-0.794314 19.087371 0.788246 19.120146 -1.529206 1.529559 0.010571 -0.013169 346601.000000 1 0 0
7.067986 16.661471 -6.150154 19.115058 1.169594 1.898367 0.006365 -0.000862 356940.000000 1 0 0
10.977286 9.959371 0.886446 14.848423 0.736818 1.511061 0.016425 -0.003119 -1697080.000000 1 0 0
9.139586 8.579871 14.267746 18.992493 0.753821 0.720871 0.025786 -0.010915 49842.300000 1 0 0
6.406186 12.328571 -8.399654 16.235365 1.091575 2.114568 0.014276 -0.007779 1381290.000000 1 0 0
6.341586 8.901571 13.281646 17.200459 0.951789 0.688550 0.011200 -0.010699 345568.000000 1 0 0
16.709186 9.484071 2.918146 19.433478 0.516252 1.420065 0.041613 -0.008987 -1699250.000000 1 0 0
2.566686 14.722571 -0.858054 14.969243 1.398194 1.628149 0.004347 -0.010575 901787.000000 1 0 0
9.113786 12.932771 8.249946 17.843185 0.956920 1.090143 0.020076 -0.013597 897813.000000 1 0 0
7.244086 9.425271 10.484046 15.850165 0.915509 0.848050 0.004739 -0.005468 1117170.000000 1 0 0
4.405286 15.820671 -5.303254 17.257598 1.299224 1.883150 0.008097 -0.000620 1238250.000000 1 0 0
0.294786 16.321671 -8.145654 18.243780 1.552737 2.033634 0.005886 -0.002280 -408481.000000 1 0 0
-2.446314 15.679971 -1.955354 15.989664 -1.416029 1.693392 -0.001850 -0.002730 -1505160.000000 1 0 0
13.339286 10.560071 7.638446 18.649330 0.669630 1.148800 0.053427 -0.019502 1162600.000000 1 0 0
-1.047914 15.901171 7.053746 17.427010 -1.504990 1.154081 0.007074 -0.003879 3527260.000000 1 0 0
13.301486 13.398271 6.692646 20.030844 0.789023 1.230128 0.054278 -0.015682 -383628.000000 1 0 0
5.407486 17.360871 4.576046 18.750492 1.268845 1.324257 0.013028 -0.012455 174505.000000 1 0 0
10.807386 9.472171 -1.845154 14.488830 0.719653 1.698493 0.014404 -0.002109 840208.000000 1 0 0
3.159186 12.759371 4.672946 13.950571 1.328080 1.229229 0.000154 -0.001245 1148570.000000 1 0 0
-0.159914 18.147471 3.612146 18.504158 -1.561985 1.374328 0.003902 -0.003896 3967260.000000 1 0 0
-7.691314 15.975271 -5.787554 18.651042 -1.122098 1.886313 0.029772 -0.010265 107079.000000 1 0 0
-12.492614 -9.119429 8.238846 17.524497 0.630568 1.081355 0.039545 -0.009947 161105.000000 1 0 0
-13.304514 -11.736329 6.866846 19.023803 0.722855 1.201498 0.044463 -0.003293 -557331.000000 1 0 0
-6.354414 -12.171329 12.273946 18.416557 1.089641 0.841342 0.033431 -0.022214 -935657.000000 1 0 0
-1.713914 -10.706229 14.428646 18.048453 1.412057 0.644435 0.005146 -0.010689 508720.000000 1 0 0
-8.912114 2.863171 10.951646 14.407015 -0.310852 0.707236 0.001278 -0.002052 2165250.000000 1 0 0
0.464386 10.000271 15.236246 18.230860 1.524392 0.581319 0.012467 -0.007937 -87377.100000 1 0 0
1.003386 -6.692729 16.461346 17.798183 -1.421983 0.390052 0.011106 -0.017424 1156810.000000 1 0 0
5.999486 2.345171 17.792146 18.922318 0.372633 0.347365 0.021012 -0.001380 1356050.000000 1 0 0
-5.064714 -2.949629 17.566146 18.518130 0.527369 0.322040 0.023428 -0.010790 737339.000000 1 0 0
-4.352714 8.103771 13.008846 15.932586 -1.077894 0.615486 0.000851 -0.002528 287101.000000 1 0 0
0.011286 -4.821529 18.508946 19.126640 -1.568456 0.254834 0.020396 -0.018388 179281.000000 1 0 0
-11.691014 1.981071 11.154646 16.279760 -0.167858 0.815939 0.022061 -0.009091 909193.000000 1 0 0
-3.437914 -6.093829 14.348846 15.963815 1.057144 0.453691 0.009968 -0.009113 446801.000000 1 0 0
-7.471514 -2.215729 14.594246 16.544636 0.288295 0.490466 0.016675 -0.003198 1185800.000000 1 0 0
-6.151614 -1.149429 10.613646 12.321243 0.184720 0.532756 0.003783 -0.004651 1435700.000000 1 0 0
-3.957314 2.452371 11.119546 12.054823 -0.554783 0.396509 0.000258 0.001201 371691.000000 1 0 0
-6.455214 6.214871 13.510146 16.211676 -0.766431 0.585639 -0.004499 0.000629 308794.000000 1 0 0
-8.995214 5.393671 12.523546 16.335384 -0.540137 0.697187 -0.000749 -0.004395 -849783.000000 1 0 0
-12.264714 -2.318729 15.827646 20.157234 0.186852 0.667762 0.042860 -0.001784 2062270.000000 1 0 0
-3.503314 -7.552929 16.876246 18.818279 1.136497 0.458312 0.017769 -0.009056 -435250.000000 1 0 0
-0.617414 -5.377529 14.320746 15.309565 1.456483 0.361375 0.008735 -0.005462 1865810.000000 1 0 0
-14.286314 -2.353729 13.653246 19.901004 0.163287 0.814739 0.057940 -0.011581 -233847.000000 1 0 0
-6.491214 1.509471 12.144846 13.853218 -0.228480 0.501878 0.003732 -0.000522 1368630.000000 1 0 0
2.150086 -2.244629 14.542746 14.871203 -0.806908 0.210564 0.007984 -0.002881 -122540.000000 1 0 0
-12.559414 3.933971 9.175446 16.043809 -0.303549 0.961977 0.005719 -0.004795 -839665.000000 1 0 0
-9.114914 -2.997229 12.577146 15.819281 0.317689 0.651704 0.008582 -0.001838 678092.000000 1 0 0
-7.138214 -7.193929 15.254046 18.313728 0.789286 0.586416 0.031064 -0.011450 -1303150.000000 1 0 0
-3.280414 6.152471 19.460246 20.671603 -1.080953 0.344039 0.039614 -0.007889 389077.000000 1 0 0
0.609686 5.527571 16.195246 17.123427 1.460941 0.330763 0.016475 -0.006067 2262310.000000 1 0 0
3.409386 1.505871 16.705946 17.116664 0.415917 0.219508 0.011558 -0.004425 2375880.000000 1 0 0
-11.826814 11.270571 7.805646 18.106005 -0.761320 1.125076 0.012314 -0.014110 -231433.000000 1 0 0
0.703286 -9.434229 15.433546 18.102310 -1.496388 0.549907 -0.001895 -0.003901 808562.000000 1 0 0
-2.580014 -3.574429 18.992946 19.497821 0.945590 0.228063 0.023956 -0.010292 1139020.000000 1 0 0
-12.875614 2.343371 13.760646 18.990213 -0.180030 0.760317 0.029726 -0.017165 515834.000000 1 0 0
-5.395114 -0.559129 15.772846 16.679405 0.103268 0.331215 0.014976 0.001290 1548480.000000 1 0 0
-4.498314 -5.964829 11.688146 13.871798 0.924651 0.568734 0.005290 -0.003312 695342.000000 1 0 0
2.374786 1.909671 13.943246 14.272370 0.677263 0.215172 0.004185 0.001346 -671435.000000 1 0 0
0.084586 3.389571 14.372146 14.766683 1.545847 0.231680 0.010745 -0.003422 -908120.000000 1 0 0
-12.994114 6.790671 12.223846 19.088809 -0.481560 0.875820 0.018299 -0.009940 401363.000000 1 0 0
0.837786 1.501171 18.193746 18.274786 1.061765 0.094210 0.019085 -0.007210 1730840.000000 1 0 0
-2.006014 6.447371 12.488546 14.197058 -1.269154 0.495655 0.002981 -0.002829 2591330.000000 1 0 0
-13.565614 -2.708629 10.822846 17.564070 0.197077 0.906897 0.045751 -0.011167 -337374.000000 1 0 0
-2.607514 3.651071 13.531846 14.256237 -0.950618 0.320151 0.002763 -0.000763 726751.000000 1 0 0
3.539186 6.131871 16.347846 17.815099 1.047326 0.408696 0.010750 -0.003088 172505.000000 1 0 0
-3.714214 12.207771 12.288046 17.714997 -1.275445 0.804249 0.011511 -0.016716 560138.000000 1 0 0
3.706786 -1.485229 17.014146 17.476479 -0.381091 0.230530 0.024466 -0.009723 -369042.000000 1 0 0
-15.833214 0.504871 9.074146 18.256114 -0.031876 1.050604 0.043587 -0.014378 1136990.000000 1 0 0
-4.800314 4.573571 15.280546 16.657000 -0.761214 0.409387 0.010803 0.001376 1044860.000000 1 0 0
-8.074314 -8.180829 10.536346 15.592790 0.791951 0.828857 0.024039 -0.012414 5044580.000000 1 0 0
-2.609814 -0.382429 14.718146 14.952632 0.145499 0.177331 0.010596 -0.000700 3213500.000000 1 0 0
-1.944214 1.036271 17.287746 17.427564 -0.489700 0.126756 0.021289 -0.007911 1079270.000000 1 0 0
-0.726714 -2.440029 14.403546 14.626824 1.281331 0.174951 0.008360 -0.002235 -186737.000000 1 0 0
5.227686 -8.233429 16.506246 19.172225 -1.005085 0.533670 0.023178 -0.010048 560087.000000 1 0 0
-4.494514 9.910471 10.657646 15.231661 -1.145026 0.795814 0.002006 -0.007011 -1207140.000000 1 0 0
-6.283814 2.067571 15.200046 16.577170 -0.317874 0.410487 0.013697 0.002712 -1184720.000000 1 0 0
-5.064014 6.867171 17.260846 19.254586 -0.935393 0.459095 0.025658 -0.002183 -831505.000000 1 0 0
-4.297514 9.224771 15.737446 18.741191 -1.134826 0.574020 0.012902 -0.000100 -154324.000000 1 0 0
-4.341114 -9.873829 18.381946 21.312759 1.156575 0.530636 0.028172 -0.011196 31029.100000 1 0 0
-6.829714 -4.067429 11.082546 13.638614 0.537140 0.622221 0.008552 -0.000204 1439170.000000 1 0 0
-2.314514 -0.761629 19.661246 19.811654 0.317905 0.123301 0.030131 -0.004678 -668210.000000 1 0 0
-5.728714 -4.500129 15.225446 16.878493 0.665861 0.446273 0.017824 -0.007237 1052060.000000 1 0 0
-12.939714 -0.045029 9.701646 16.172822 0.003480 0.927453 0.024274 -0.007013 995293.000000 1 0 0
-14.462214 8.799571 10.664446 20.007961 -0.546611 1.008642 0.014718 -0.006620 -673330.000000 1 0 0
-8.443114 10.594771 12.763046 18.612649 -0.897940 0.815205 0.016037 -0.013647 15380.200000 1 0 0
-10.487014 7.164271 10.750546 16.639666 -0.599332 0.868360 0.014034 -0.004463 -591711.000000 1 0 0
-9.922614 -6.569129 14.780546 18.975676 0.584790 0.677853 0.044535 -0.010759 620295.000000 1 0 0
-0.471914 -13.392829 14.349946 19.634447 1.535575 0.751222 -0.000112 -0.016188 -89637.300000 1 0 0
3.765386 -5.698629 16.840746 18.173146 -0.986899 0.385307 0.032078 -0.019836 1513140.000000 1 0 0
-7.320214 9.297671 10.400046 15.754148 -0.903837 0.849783 0.004670 -0.005632 742549.000000 1 0 0
-10.347814 -6.665929 11.860046 17.093056 0.572278 0.803972 0.038565 -0.014874 3574580.000000 1 0 0
-10.959714 -3.993529 10.724346 15.845353 0.349430 0.827371 0.024611 -0.001705 28415.700000 1 0 0
-10.140014 -10.246629 9.799246 17.430964 0.790628 0.973783 0.039718 -0.015532 1393340.000000 1 0 0
-9.862814 -3.651129 15.266946 18.538756 0.354548 0.603217 0.037033 -0.013361 1278520.000000 1 0 0
5.624186 -3.399629 16.023746 17.319047 -0.543697 0.389209 0.032881 -0.014945 1787710.000000 1 0 0
-11.431914 0.465471 15.315646 19.117383 -0.040694 0.641603 0.034808 -0.008130 -127516.000000 1 0 0
-3.240414 3.339271 18.810146 19.377115 -0.800422 0.242502 0.031779 -0.012849 479507.000000 1 0 0
0.537286 7.387871 13.966246 15.809027 1.498199 0.487653 0.009571 -0.006610 1452300.000000 1 0 0
-13.212014 -7.424029 12.165346 19.433712 0.511945 0.894394 0.058419 -0.014697 -464943.000000 1 0 0
-1.505514 -1.064029 12.137346 12.276559 0.615245 0.150740 0.005696 -0.001062 1575330.000000 1 0 0
1.967686 -4.892029 13.090346 14.112437 -1.188375 0.382927 0.009221 -0.005905 2163340.000000 1 0 0
-14.786614 -4.066729 8.614846 17.589708 0.268392 1.058975 0.044802 -0.010229 -290376.000000 1 0 0
8.007486 0.886471 16.115446 18.017027 0.110256 0.463582 0.029593 -0.002001 355431.000000 1 0 0
-1.246614 11.193371 13.328746 17.449959 -1.459883 0.701575 0.009503 -0.012334 802060.000000 1 0 0
2.863086 -12.306129 -13.921354 18.800058 -1.342208 2.404603 -0.001882 0.014115 -798465.000000 1 0 0
0.852586 -10.696029 -14.036154 17.667642 -1.491254 2.488907 -0.012954 0.012701 -2457900.000000 1 0 0
3.207286 -14.306029 -12.335754 19.160375 -1.350252 2.270271 -0.000103 0.004824 -1011750.000000 1 0 0
-5.027414 -10.352329 -16.180054 19.855472 1.118710 2.523338 0.021923 -0.013279 -427406.000000 1 0 0
-1.063214 -12.121229 -15.066154 19.366043 1.483305 2.462221 0.001978 0.008456 40692.900000 1 0 0
5.664786 -15.003629 -12.019754 20.041786 -1.209782 2.213966 0.011260 0.000817 333603.000000 1 0 0
2.086386 -11.742229 -16.253254 20.159395 -1.394949 2.508560 0.005675 0.011911 -461688.000000 1 0 0
1.229686 -14.355029 -14.074654 20.141372 -1.485343 2.344505 0.011106 0.018994 -335213.000000 1 0 0
-1.191914 -10.698029 -15.883754 19.187551 1.459840 2.545999 0.000690 0.001033 256484.000000 1 0 0
-6.056114 -5.728529 -15.156854 17.298057 0.757608 2.638752 0.010543 0.003236 116714.000000 1 0 0
-6.354314 -7.796129 -16.576554 19.389149 0.886940 2.596231 0.014453 0.001973 197351.000000 1 0 0
4.925786 -12.586629 -11.375554 17.666064 -1.197768 2.270409 -0.003366 0.003857 -513282.000000 1 0 0
-1.821314 -15.640029 -13.280554 20.598563 1.454866 2.271469 0.016797 0.010623 -312880.000000 1 0 0
15.598186 -7.191129 -8.698754 19.253157 -0.431983 2.039589 0.041391 -0.015681 654626.000000 1 0 0
19.289086 -3.718229 -4.222654 20.092906 -0.190428 1.782531 0.080958 -0.032044 132960.000000 1 0 0
14.719986 -11.605429 -8.998054 20.792521 -0.667636 2.018342 0.044787 -0.024794 42915.400000 1 0 0
17.859586 -3.536529 -6.367154 19.287625 -0.195490 1.907223 0.077984 -0.016869 353591.000000 1 0 0
9.707986 -9.212429 -15.464554 20.451559 -0.759213 2.428214 0.072197 -0.010034 341745.000000 1 0 0
1.289286 1.802071 -15.119354 15.280857 0.949778 2.996075 0.008237 -0.010141 -415750.000000 1 0 0
4.796886 -4.404729 -13.990654 15.432114 -0.742806 2.705937 0.009766 -0.002354 881107.000000 1 0 0
13.080686 -5.447429 -8.572054 16.560765 -0.394605 2.114854 0.034710 -0.008416 -566159.000000 1 0 0
2.986986 0.996771 -12.161154 12.562217 0.322085 2.888225 0.002006 -0.007412 -3166460.000000 1 0 0
0.570386 6.345271 -12.919854 14.405222 1.481146 2.683476 0.006265 -0.004352 188663.000000 1 0 0
2.996286 -1.122029 -16.784754 17.086973 -0.358309 2.953234 0.013400 -0.009545 -319672.000000 1 0 0
13.297886 4.446171 -11.542454 18.161235 0.322667 2.259523 0.030687 -0.002739 571654.000000 1 0 0
-3.887114 9.471871 -16.470954 19.393770 -1.181369 2.585437 0.006687 0.001255 329971.000000 1 0 0
-0.369214 -4.854129 -17.768154 18.422980 1.494881 2.874173 0.003477 -0.007292 330612.000000 1 0 0
-0.464714 -8.623029 -17.488054 19.503964 1.516956 2.682920 0.004277 -0.005206 -946046.000000 1 0 0
5.525586 -10.220329 -12.191354 16.840913 -1.075163 2.380254 0.004508 0.000407 422051.000000 1 0 0
1.899286 -9.718129 -18.081554 20.615332 -1.377792 2.640572 0.017593 -0.002759 -353207.000000 1 0 0
10.954386 8.699171 -14.624654 20.237457 0.671149 2.378429 0.073064 -0.021565 -240464.000000 1 0 0
11.011086 -3.792829 -12.824754 17.323507 -0.331727 2.404327 0.026304 -0.001871 -13060.300000 1 0 0
4.876586 7.401471 -12.340954 15.194144 0.988213 2.518740 0.002264 -0.002867 -538411.000000 1 0 0
9.702886 -5.947929 -12.604854 16.982526 -0.549928 2.407181 0.030384 -0.002475 -830535.000000 1 0 0
-3.341614 0.392571 -15.850154 16.203329 -0.116943 2.932422 0.013141 -0.009338 -1461830.000000 1 0 0
-0.677714 10.760571 -12.698154 16.658100 -1.507898 2.437626 -0.004131 -0.001671 -2343720.000000 1 0 0
6.557186 -5.509529 -12.200654 14.906628 -0.698793 2.529542 0.014234 -0.003876 139574.000000 1 0 0
17.797686 -6.010929 -7.968254 20.405439 -0.325708 1.971967 0.064328 -0.021810 364380.000000 1 0 0
13.162986 4.776771 -14.106854 19.876747 0.348115 2.359892 0.043119 -0.005404 474892.000000 1 0 0
14.098186 0.855871 -11.527354 18.231052 0.060633 2.255305 0.025447 -0.000993 -466184.000000 1 0 0
15.077886 6.250271 -11.109854 19.744300 0.392971 2.168429 0.040546 -0.008474 385385.000000 1 0 0
8.188186 1.419771 -11.700254 14.351240 0.171686 2.524006 0.002315 -0.002886 913588.000000 1 0 0
9.962886 1.171871 -8.945054 13.440475 0.117086 2.299002 0.003415 -0.000867 253223.000000 1 0 0
-0.219014 -5.723029 -13.044154 14.246087 1.532546 2.727870 -0.005090 0.001068 539232.000000 1 0 0
10.470086 -5.648629 -8.974254 14.901911 -0.494747 2.217077 0.018437 -0.008634 -492981.000000 1 0 0
10.094986 8.407771 -11.277854 17.314426 0.694462 2.280166 0.033537 -0.016960 583251.000000 1 0 0
8.380786 8.100571 -14.537854 18.633465 0.768398 2.465784 0.039684 -0.013370 818060.000000 1 0 0
8.561886 10.468171 -10.615454 17.192334 0.885237 2.236297 0.040081 -0.014854 -2242510.000000 1 0 0
7.051186 1.727371 -17.896654 19.313033 0.240245 2.756230 0.026231 -0.004021 -2222900.000000 1 0 0
12.134586 2.660171 -12.872554 17.889308 0.215808 2.373975 0.022900 -0.004481 -1801880.000000 1 0 0
2.490586 -0.878229 -19.321554 19.501199 -0.339007 3.005753 0.030594 -0.018408 -560770.000000 1 0 0
10.211486 -2.148729 -15.581654 18.753118 -0.207397 2.551490 0.040688 -0.004455 303937.000000 1 0 0
8.219286 -0.818629 -13.066854 15.458638 -0.099271 2.577882 0.008859 -0.004752 65317.000000 1 0 0
0.555086 4.330971 -14.611554 15.250014 1.443325 2.851208 0.005467 -0.006763 -312961.000000 1 0 0
3.980186 -7.662629 -15.684454 17.904186 -1.091727 2.638346 0.024998 -0.010072 -1300400.000000 1 0 0
11.369886 -5.842329 -14.493654 19.325453 -0.474660 2.418824 0.049637 0.002984 -808764.000000 1 0 0
-5.820614 4.325571 -16.843554 18.338359 -0.639101 2.735035 0.011956 -0.004686 329587.000000 1 0 0
11.453986 7.828571 -9.160554 16.625164 0.599553 2.154365 0.035026 -0.009630 696705.000000 1 0 0
9.550886 6.140971 -13.357354 17.531396 0.571420 2.437054 0.023082 -0.003740 608373.000000 1 0 0
12.088286 0.444671 -10.213554 15.831648 0.036769 2.271997 0.018875 0.000796 -1631900.000000 1 0 0
5.485686 -7.339529 -13.698554 16.480650 -0.928951 2.552041 0.016585 -0.003034 -369547.000000 1 0 0
8.537686 -10.213829 -10.707554 17.084089 -0.874548 2.248179 0.019335 -0.007196 41624.300000 1 0 0
10.055786 4.730271 -15.878254 19.380744 0.439691 2.530950 0.047334 -0.006010 827818.000000 1 0 0
9.874686 -0.489929 -10.960654 14.760941 -0.049574 2.407657 0.009474 -0.002878 -141933.000000 1 0 0
-1.702414 5.455471 -13.887954 15.017844 -1.268316 2.751210 0.005330 -0.007422 527145.000000 1 0 0
1.303286 -0.732929 -14.788254 14.863654 -0.512291 3.040825 0.006477 -0.008739 -1186560.000000 1 0 0
11.606886 -10.491329 -14.095954 21.059053 -0.734959 2.304135 0.086554 -0.015412 -54330.400000 1 0 0
9.313486 -7.756029 -10.827154 16.251900 -0.694408 2.299909 0.023256 -0.004967 -379526.000000 1 0 0
14.079886 -0.991929 -9.693254 17.122683 -0.070334 2.172571 0.028045 0.002772 812428.000000 1 0 0
4.002586 11.246871 -12.241954 17.099071 1.228889 2.368770 0.019376 -0.007667 -537289.000000 1 0 0
-1.279514 2.817471 -16.947354 17.227539 -1.144508 2.960993 0.013789 -0.011599 -146742.000000 1 0 0
5.839586 -0.488429 -17.740854 18.683609 -0.083447 2.822566 0.011853 -0.002710 247614.000000 1 0 0
6.281386 -6.558629 -15.996654 18.394683 -0.806987 2.625258 0.027027 -0.006609 501512.000000 1 0 0
-1.958714 -4.937229 -19.857954 20.556049 1.193118 2.880233 0.011461 -0.018240 -268220.000000 1 0 0
-0.169414 -4.224729 -15.239354 15.815023 1.530717 2.870952 -0.000252 -0.005444 165149.000000 1 0 0
0.487186 0.758871 -12.859554 12.891135 1.000074 3.071581 0.005355 -0.009474 1018040.000000 1 0 0
15.441886 0.586471 -13.805554 20.721706 0.037961 2.299947 0.046831 -0.007456 642939.000000 1 0 0
-0.113414 6.861871 -16.311254 17.696190 -1.554270 2.743335 0.005758 0.004388 -181656.000000 1 0 0
-4.939014 -0.560629 -18.267554 18.931764 0.113027 2.875918 0.008512 -0.003495 -311651.000000 1 0 0
10.527986 -8.413029 -13.078754 18.779546 -0.674199 2.341216 0.037611 -0.007559 671757.000000 1 0 0
4.283486 8.416271 -17.494654 19.880764 1.100012 2.646614 0.020174 -0.007321 43507.300000 1 0 0
9.031086 0.490471 -16.736354 19.023843 0.054256 2.646147 0.024745 -0.012328 -620714.000000 1 0 0
3.406586 4.643171 -18.528454 19.402770 0.937824 2.840249 0.020957 -0.004464 -170260.000000 1 0 0
1.483286 -8.235129 -15.895854 17.963732 -1.392590 2.657045 -0.001099 -0.001186 -415878.000000 1 0 0
4.453786 7.625971 -14.986254 17.394811 1.042203 2.609084 0.005446 -0.001325 705575.000000 1 0 0
-5.674214 -0.445029 -15.064854 16.104179 0.078270 2.780361 0.006023 -0.006015 -947207.000000 1 0 0
2.824286 3.345171 -13.681854 14.365232 0.869628 2.831903 0.002740 -0.004725 -205072.000000 1 0 0
-2.496814 -10.155629 -18.167254 20.962347 1.329722 2.619267 0.015720 -0.004538 646126.000000 1 0 0
6.177686 -9.201829 -15.412354 18.983628 -0.979556 2.518155 0.027809 -0.005051 46421.600000 1 0 0
-1.840314 5.345171 -17.457354 18.349845 -1.239213 2.828425 0.012469 0.001946 1275080.000000 1 0 0
9.966986 -12.159329 -11.623354 19.552300 -0.884159 2.207409 0.057790 -0.015001 -967935.000000 1 0 0
10.824886 3.570171 -9.482954 14.827363 0.318577 2.264719 0.008184 -0.001281 -1451620.000000 1 0 0
4.766386 -0.470929 -10.983854 11.982707 -0.098483 2.730393 0.005108 -0.007213 467428.000000 1 0 0
6.204986 9.452671 -11.373954 16.038132 0.989916 2.359134 0.020590 -0.012050 326572.000000 1 0 0
10.786686 -9.529029 -9.491254 17.240617 -0.723571 2.153780 0.032348 -0.012811 -17454.600000 1 0 0
3.169686 -2.449029 -14.498554 15.041699 -0.657835 2.872042 0.005254 -0.006304 -44259.100000 1 0 0
9.175886 -4.431629 -14.616754 17.818129 -0.449927 2.532785 0.035504 -0.006697 91238.600000 1 0 0
-4.023414 -6.518029 -16.585354 18.268731 1.017772 2.708935 -0.000421 -0.003912 -1358610.000000 1 0 0
5.898486 -7.819429 -11.231254 14.902237 -0.924525 2.424413 0.002781 -0.001344 795900.000000 1 0 0
5.422086 6.208571 -16.928954 18.829096 0.852917 2.688471 0.015330 -0.011248 -1581840.000000 1 0 0
9.085986 1.026071 -19.220154 21.284320 0.112453 2.697543 0.054511 -0.022213 567720.000000 1 0 0
13.169586 5.770771 -9.305954 17.127188 0.412989 2.145212 0.016830 -0.002748 1068940.000000 1 0 0
-1.654014 -0.662029 -17.241854 17.333655 0.380727 3.038629 0.015175 -0.012676 -421196.000000 1 0 0
-0.546014 -0.293829 -19.470154 19.480025 0.493688 3.109757 0.030439 -0.021982 -321547.000000 1 0 0
2.810486 6.374571 -16.620454 18.021473 1.155544 2.744679 0.005921 0.004989 -447884.000000 1 0 0
7.686086 3.639571 -15.550854 17.724318 0.442246 2.641158 0.018133 -0.006036 -70030.300000 1 0 0
3.127086 -9.955029 -14.859254 18.157057 -1.266435 2.529371 0.006986 0.005552 -785320.000000 1 0 0
9.068286 -10.526429 -13.296154 19.230893 -0.859676 2.334215 0.047782 -0.008113 518126.000000 1 0 0
3.726786 0.145971 -14.718854 15.184035 0.039148 2.893424 0.006120 -0.008028 -1731840.000000 1 0 0
-1.272814 -2.665429 -18.816554 19.046976 1.125288 2.985888 0.022940 -0.013327 418223.000000 1 0 0
9.290086 10.124371 -13.099254 18.984179 0.828344 2.332298 0.051801 -0.017908 189322.000000 1 0 0
4.638786 2.087971 -10.651054 11.803513 0.422947 2.696018 -0.001202 -0.002657 -66816.300000 1 0 0
-0.302814 6.923671 -18.929754 20.158485 -1.527088 2.790642 0.028382 -0.001257 39738.800000 1 0 0
0.699686 -1.687529 -17.595954 17.690532 -1.177749 3.038142 0.020092 -0.016186 -3542030.000000 1 0 0
-4.514614 -2.283529 -14.037454 14.921339 0.468283 2.795672 0.008631 -0.005973 -2920290.000000 1 0 0
10.126386 5.936471 -10.413954 15.691903 0.530239 2.296486 0.015857 -0.002149 307670.000000 1 0 0
8.045286 5.324971 -17.504254 19.987017 0.584678 2.637848 0.037958 -0.017527 -739987.000000 1 0 0
11.516886 0.307171 -13.829854 17.999941 0.026665 2.447021 0.026408 0.008940 698296.000000 1 0 0
6.898986 11.861871 -11.908754 18.169161 1.044008 2.285558 0.038144 -0.019076 -225465.000000 1 0 0
-0.918314 0.640571 -14.943254 14.985142 -0.609080 3.066805 0.011122 -0.010498 -796169.000000 1 0 0
-4.511014 -2.971429 -18.954754 19.709423 0.582471 2.863972 0.011297 -0.002049 -27403.400000 1 0 0
5.750186 -12.042729 -13.900254 19.269380 -1.125325 2.376567 0.015332 -0.001937 -247348.000000 1 0 0
2.068686 -4.715629 -14.044154 14.958439 -1.157390 2.790154 0.001418 -0.001593 -450556.000000 1 0 0
11.813286 2.276071 -15.482254 19.606999 0.190338 2.481000 0.050682 -0.007302 328005.000000 1 0 0
9.683886 2.106271 -13.805354 16.994170 0.214167 2.518981 0.013775 -0.005487 539892.000000 1 0 0
-2.395814 -4.105629 -16.469054 17.141349 1.042565 2.860595 0.000807 -0.006397 -888886.000000 1 0 0
-2.693714 10.209571 -14.289054 17.767062 -1.312833 2.505199 0.004102 0.000974 305753.000000 1 0 0
3.494086 5.696271 -13.654254 15.201802 1.020583 2.686453 0.002806 0.000592 -28958.800000 1 0 0
-5.095614 -2.521729 -16.539554 17.489461 0.459545 2.810497 0.005447 -0.002034 322291.000000 1 0 0
-4.352314 6.160671 -13.517654 15.479776 -0.955743 2.632621 0.005926 -0.005176 919758.000000 1 0 0
5.841386 -1.156529 -13.994254 15.208501 -0.195461 2.739285 0.009348 -0.005136 -2310510.000000 1 0 0
6.796886 -3.065129 -12.612654 14.651680 -0.423653 2.607701 0.012522 -0.002894 2175930.000000 1 0 0
2.785186 -3.231829 -18.381154 18.869785 -0.859492 2.913525 0.026762 -0.018045 461481.000000 1 0 0
7.406286 -12.057929 -11.963254 18.530142 -1.019983 2.272619 0.020551 -0.003168 -832262.000000 1 0 0
-6.166514 -5.528229 -17.707254 19.548250 0.730873 2.704115 0.026016 0.001112 325471.000000 1 0 0
0.604786 8.625671 -11.917954 14.724320 1.500796 2.513936 0.001198 0.000477 443399.000000 1 0 0
0.381086 8.556271 -14.471754 16.816262 1.526287 2.607205 -0.002776 0.002354 -254880.000000 1 0 0
7.706986 -2.373429 -14.965354 16.999783 -0.298742 2.647346 0.021243 -0.012435 -25331.100000 1 0 0
14.192986 1.559771 -8.928054 16.839949 0.109458 2.129599 0.014552 0.002592 538114.000000 1 0 0
2.720086 10.836471 -14.622554 18.402365 1.324865 2.489148 0.009765 0.000960 -306556.000000 1 0 0
6.094386 0.916971 -15.563554 16.739372 0.149341 2.764549 0.010405 -0.002231 427277.000000 1 0 0
16.792886 -5.392829 -10.242554 20.395919 -0.310735 2.096922 0.088662 -0.019774 901993.000000 1 0 0
4.728486 -4.149729 -11.291354 12.925692 -0.720302 2.633264 0.001478 0.001011 -1038950.000000 1 0 0
8.652886 -3.635229 -17.061454 19.472559 -0.397728 2.638674 0.031043 -0.012233 571084.000000 1 0 0
13.332686 -9.487729 -8.803454 18.581666 -0.618478 2.064364 0.056318 -0.024438 -293456.000000 1 0 0
2.316686 -7.806129 -13.576454 15.831070 -1.282298 2.601348 -0.000686 0.001015 342239.000000 1 0 0
-6.946914 -2.391429 -18.148954 19.579660 0.331537 2.756940 0.016252 -0.007378 -676475.000000 1 0 0
-1.482414 -6.432729 -15.862654 17.181425 1.344302 2.747237 -0.003241 -0.002627 766654.000000 1 0 0
1.523686 -7.126129 -18.180454 19.586532 -1.360151 2.760374 0.024959 -0.023664 -198793.000000 1 0 0
5.266386 10.828271 -14.467454 18.822686 1.118124 2.447474 0.044185 -0.025427 1171790.000000 1 0 0
5.242886 -3.317129 -17.479954 18.548315 -0.564111 2.800534 0.021493 -0.013459 -564137.000000 1 0 0
4.044386 13.070871 -14.194854 19.715441 1.270720 2.374579 0.028019 -0.011566 -51876.600000 1 0 0
9.277886 10.328171 -15.677154 20.940951 0.838916 2.416799 0.079117 -0.025266 316001.000000 1 0 0
2.586186 3.831171 -16.234154 16.879395 0.977021 2.864203 0.009305 -0.006656 948640.000000 1 0 0
16.517786 1.552071 -11.591054 20.238545 0.093689 2.180619 0.045803 0.000118 127830.000000 1 0 0
9.992386 -3.564329 -10.512154 14.935113 -0.342635 2.351606 0.019611 -0.003558 -1136220.000000 1 0 0
14.607186 -2.268929 -12.014854 19.049269 -0.154098 2.253284 0.051551 -0.005293 56179.900000 1 0 0
-2.730214 -8.639929 -16.031354 18.414852 1.264726 2.627149 0.002541 0.001054 -228439.000000 1 0 0
13.983586 8.210571 -9.020154 18.555789 0.530923 2.078429 0.049343 -0.009426 -355358.000000 1 0 0
-8.262814 0.127971 -16.507154 18.460136 -0.015486 2.677449 0.003469 -0.000937 -32287.300000 1 0 0
-3.434814 3.943171 -15.864954 16.704590 -0.854191 2.823189 0.009818 -0.009263 1178690.000000 1 0 0
15.186286 3.981971 -9.696354 18.452605 0.256435 2.124068 0.028202 0.004306 1426150.000000 1 0 0
5.409486 1.054071 -12.999354 14.119377 0.192445 2.740602 0.005666 -0.004657 440191.000000 1 0 0
7.888086 -7.700729 -12.937054 16.996779 -0.773380 2.435877 0.029012 -0.003010 -932904.000000 1 0 0
3.261486 -6.171529 -11.915854 13.809875 -1.084631 2.611678 -0.000002 -0.000921 -1227820.000000 1 0 0
-3.247614 3.611371 -18.519454 19.145735 -0.838382 2.885112 0.018072 -0.002460 -44211.700000 1 0 0
0.868586 4.939971 -17.758654 18.453389 1.396747 2.866323 0.017984 -0.009771 -148289.000000 1 0 0
6.289686 7.053971 -10.261254 13.950340 0.842613 2.397283 0.003661 -0.001889 681158.000000 1 0 0
9.630686 3.673871 -11.685354 15.581878 0.364436 2.418756 0.013535 -0.002910 254839.000000 1 0 0
4.457786 1.636971 -17.601854 18.231204 0.351929 2.878074 0.016998 -0.002356 -413588.000000 1 0 0
2.593686 8.081071 -13.309154 15.784945 1.260224 2.573921 0.005111 -0.000466 -1813370.000000 1 0 0
14.346686 -3.509729 -9.791154 17.720392 -0.239925 2.156200 0.041275 -0.005473 43918.000000 1 0 0
-1.320414 9.230771 -16.339954 18.813419 -1.428715 2.623018 0.002117 0.004600 -1295610.000000 1 0 0
-5.192014 2.040671 -15.706354 16.667661 -0.374492 2.800307 0.011530 -0.009734 233982.000000 1 0 0
4.515386 4.234471 -11.886354 13.401674 0.753304 2.661453 0.001359 -0.003590 407310.000000 1 0 0
9.207186 2.994771 -17.557154 20.049803 0.314471 2.637633 0.032943 -0.010831 667433.000000 1 0 0
-4.290714 14.219171 -13.428754 20.023149 -1.277730 2.305896 0.025007 -0.011250 -79539.600000 1 0 0
15.494286 -4.729229 -7.917454 18.031211 -0.296243 2.025390 0.048740 -0.011730 121399.000000 1 0 0
1.120286 9.126671 -16.878454 19.220650 1.448659 2.642760 0.000229 0.007994 -640945.000000 1 0 0
0.445186 -3.135129 -12.851654 13.236020 -1.429740 2.900010 -0.000989 -0.002409 234690.000000 1 0 0
7.471286 3.441671 -13.017254 15.398510 0.431678 2.578031 0.004683 -0.003650 1222950.000000 1 0 0
-2.833614 7.611671 -14.933754 16.999527 -1.214419 2.643469 -0.001264 -0.003074 -56186.500000 1 0 0
12.110286 -5.065229 -10.965854 17.104547 -0.396147 2.266737 0.035552 -0.005393 -1113200.000000 1 0 0
0.512086 -4.306329 -20.096654 20.559237 -1.452437 2.929061 0.028113 -0.016622 -567643.000000 1 0 0
3.371386 -4.601329 -16.154054 17.131606 -0.938461 2.802145 0.021878 -0.013484 590860.000000 1 0 0
-5.643114 4.125971 -14.296054 15.913690 -0.631328 2.686794 0.003431 -0.007579 354998.000000 1 0 0
12.115486 -7.435129 -9.871454 17.306408 -0.550424 2.177781 0.023915 -0.007020 -299644.000000 1 0 0
-2.039314 -1.716329 -14.882654 15.119457 0.699609 2.964374 0.007057 -0.004648 552921.000000 1 0 0
7.047186 5.799971 -14.188254 16.870360 0.688620 2.569956 0.014444 -0.007750 -114295.000000 1 0 0
4.144286 -5.514329 -18.439854 19.687843 -0.926305 2.783626 0.044714 -0.018392 -52338.000000 1 0 0
7.576486 7.489671 -12.302954 16.274550 0.779636 2.427920 0.012547 -0.009395 -1047800.000000 1 0 0
12.311986 -2.481929 -10.995954 16.692992 -0.198920 2.289908 0.030045 -0.005239 -1166040.000000 1 0 0
7.362386 -0.834929 -10.693354 13.009598 -0.112922 2.535638 0.002485 -0.004214 -1431260.000000 1 0 0
5.279186 3.898971 -14.351154 15.780602 0.636136 2.712677 0.003680 -0.001342 332450.000000 1 0 0
14.662686 2.909271 -13.046054 19.840810 0.195869 2.288340 0.036728 -0.007348 -280981.000000 1 0 0
-6.573014 6.611771 -15.625154 18.195205 -0.788338 2.603624 0.012398 -0.006362 652523.000000 1 0 0
-10.964314 3.741971 -16.555054 20.206146 -0.328891 2.530999 0.034430 -0.018955 140857.000000 1 0 0
-4.957914 6.558371 -17.792654 19.600298 -0.923487 2.708744 0.011087 0.003236 40360.700000 1 0 0
-10.156014 1.573771 -15.503254 18.600330 -0.153737 2.556197 0.030191 -0.016528 -448860.000000 1 0 0
-7.536414 5.903371 -17.873954 20.276231 -0.664483 2.649874 0.018373 -0.003583 208599.000000 1 0 0
-8.662314 3.747371 -15.391354 18.054702 -0.408295 2.591516 0.008856 -0.007066 -1970500.000000 1 0 0
9.123886 13.308171 -12.311454 20.295926 0.969810 2.222570 0.076300 -0.025090 277231.000000 1 0 0
13.932586 9.779071 -11.067354 20.303534 0.611990 2.147299 0.059384 -0.017728 514203.000000 1 0 0
8.281386 15.810571 -9.236254 20.096365 1.088300 2.048339 0.034081 -0.013143 -113249.000000 1 0 0
7.085086 13.316471 -13.933454 20.534556 1.081835 2.316565 0.065404 -0.026970 -560631.000000 1 0 0
4.822886 15.796371 -12.623754 20.788091 1.274470 2.223402 0.033315 -0.024523 223467.000000 1 0 0
11.023786 10.827671 -11.363254 19.180351 0.776423 2.204884 0.070616 -0.026521 -574957.000000 1 0 0
15.773386 10.033171 -9.120654 20.800253 0.566529 2.024712 0.082825 -0.022291 1209430.000000 1 0 0
13.185986 10.647971 -8.740454 19.069479 0.679311 2.046932 0.081288 -0.025067 -350146.000000 1 0 0
10.322786 11.814071 -8.344954 17.769931 0.852663 2.059646 0.038442 -0.011578 -43041.900000 1 0 0
5.429986 16.144471 -10.159554 19.832933 1.246345 2.108607 0.015433 -0.014353 -278998.000000 1 0 0
6.901186 14.509271 -11.541054 19.782347 1.126826 2.193707 0.032942 -0.010388 1200700.000000 1 0 0
10.845786 13.802071 -9.989354 20.196916 0.904769 2.088169 0.075935 -0.016917 -39297.200000 1 0 0
8.309986 -18.725629 -1.249954 20.524800 -1.153130 1.631734 0.043789 -0.001842 -219999.000000 1 0 0
7.485186 -17.523529 -3.410854 19.358099 -1.167106 1.747919 0.027276 -0.001300 103485.000000 1 0 0
4.498686 -18.315529 5.834946 19.741919 -1.329943 1.270753 0.040979 -0.000446 -27317.500000 1 0 0
9.853686 -17.089729 -2.575854 19.894446 -1.047772 1.700637 0.039711 -0.007400 -1353000.000000 1 0 0
-9.407914 -12.398229 -9.960654 18.478083 0.921680 2.140108 0.037642 -0.009569 -887044.000000 1 0 0
-5.207514 -7.042329 -12.213154 15.029096 0.934076 2.519454 0.000435 0.002946 276684.000000 1 0 0
-10.818114 -9.510629 -5.667054 15.478991 0.721170 1.945624 0.021129 -0.005441 -1173480.000000 1 0 0
-4.480814 -11.453229 -14.048654 18.671337 1.197876 2.422522 0.021516 -0.003432 -19261.900000 1 0 0
-2.819014 -15.363029 7.304146 17.242971 1.389322 1.133379 0.007565 -0.005062 40026.500000 1 0 0
-4.559914 -11.975429 -11.552254 17.252776 1.206974 2.304450 0.013971 -0.002220 1021820.000000 1 0 0
-14.372814 -12.873829 -3.917854 19.689156 0.730438 1.771119 0.024735 -0.010678 28003.300000 1 0 0
-3.130814 -12.239129 -3.306854 13.058850 1.320363 1.826811 0.007437 -0.007127 846192.000000 1 0 0
-2.490814 -17.312829 -1.519954 17.557006 1.427906 1.657477 -0.003417 -0.010292 -540018.000000 1 0 0
-5.828414 -12.151229 3.699246 13.975235 1.123556 1.302903 0.005641 -0.000467 312478.000000 1 0 0
-8.818114 -10.958029 -11.954454 18.459321 0.893186 2.275241 0.031261 -0.000223 142908.000000 1 0 0
-9.988914 -12.325529 -7.400954 17.506319 0.889731 2.007284 0.033848 -0.008654 86405.800000 1 0 0
-10.935114 -14.948629 5.995346 19.467471 0.939232 1.257740 0.049833 -0.013543 216571.000000 1 0 0
-9.480014 -15.920429 0.536646 18.536956 1.033720 1.541842 0.022897 -0.003419 -1977000.000000 1 0 0
-14.832114 -7.563729 -8.058154 18.496904 0.471581 2.021555 0.029071 -0.013938 200525.000000 1 0 0
-2.320414 -16.447929 4.982446 17.341957 1.430645 1.279383 0.012768 -0.005696 -762350.000000 1 0 0
4.562186 -15.679729 5.821746 17.336671 -1.287653 1.228336 0.031349 -0.013168 -356882.000000 1 0 0
4.192386 -14.727029 -10.009254 18.293350 -1.293460 2.149755 0.002070 -0.001672 -421260.000000 1 0 0
-7.625914 -14.154829 -0.385954 16.082995 1.076631 1.594796 0.011662 -0.000710 826336.000000 1 0 0
3.143186 -14.865429 9.614646 17.980601 -1.362423 1.006616 0.028643 -0.015959 -661675.000000 1 0 0
2.528186 -17.367729 10.243746 20.321517 -1.426244 1.042476 0.050591 -0.015793 -518959.000000 1 0 0
-8.277114 -17.152329 -5.674254 19.872347 1.121194 1.860361 0.030076 -0.016169 -359783.000000 1 0 0
-6.503914 -9.230029 -7.701154 13.667557 0.956958 2.169367 0.014672 -0.007728 426485.000000 1 0 0
-6.102414 -12.987329 -4.807954 15.133625 1.131538 1.894099 0.005546 -0.011239 463061.000000 1 0 0
2.284386 -19.396029 -4.934254 20.143764 -1.453560 1.818266 0.023855 -0.014004 183569.000000 1 0 0
-5.447914 -12.882129 8.265646 16.246536 1.170702 1.037048 0.016239 -0.008312 1001840.000000 1 0 0
2.301186 -17.525229 3.349546 17.990235 -1.440236 1.383517 0.016818 -0.006350 1079360.000000 1 0 0
-17.722614 -9.932329 -2.384254 20.455485 0.510818 1.687620 0.033430 -0.016323 607381.000000 1 0 0
-3.548814 -15.334829 2.528146 15.941850 1.343378 1.411538 0.003295 -0.006159 -44683.900000 1 0 0
-10.294714 -10.437129 -14.083054 20.328483 0.792267 2.336126 0.056141 -0.011751 230238.000000 1 0 0
6.226986 -14.635829 -5.715654 16.901229 -1.168535 1.915778 0.000930 -0.005302 267479.000000 1 0 0
-7.111314 -12.479729 -10.758354 17.945936 1.052857 2.213656 0.026495 -0.010544 -1224960.000000 1 0 0
-7.156314 -14.341629 3.839346 16.481375 1.107958 1.335686 0.005215 0.001094 548484.000000 1 0 0
3.301286 -15.037929 -3.143454 15.713660 -1.354694 1.772201 0.006796 -0.003786 -592534.000000 1 0 0
-7.605314 -11.369029 7.796946 15.744459 0.981214 1.052710 0.018508 -0.012091 -2002020.000000 1 0 0
-12.768414 -12.274229 -0.927154 17.735521 0.765667 1.623097 0.012914 -0.000050 -310357.000000 1 0 0
-1.894614 -13.554629 3.935546 14.240999 1.431920 1.290799 0.006108 -0.000117 -2669270.000000 1 0 0
-3.155614 -13.870629 5.169546 15.135272 1.347100 1.222224 0.006268 -0.002482 272686.000000 1 0 0
-14.470614 -10.344829 -4.192754 18.275485 0.620646 1.802278 0.017839 -0.005240 463135.000000 1 0 0
-6.145214 -8.764729 -10.413854 14.934272 0.959312 2.342437 0.009758 -0.002013 336127.000000 1 0 0
0.934286 -19.520229 2.418346 19.691639 -1.522970 1.447675 0.017933 -0.005838 107446.000000 1 0 0
6.500986 -14.201229 -8.275754 17.675572 -1.141495 2.058052 0.007453 -0.004658 -1599820.000000 1 0 0
-3.907614 -16.683529 -5.970454 18.145410 1.340724 1.906077 0.004730 -0.013106 -118250.000000 1 0 0
-3.568314 -13.816529 -13.248454 19.471797 1.318055 2.319094 0.029396 0.006534 -963167.000000 1 0 0
-8.213514 -14.694229 -4.628754 17.458739 1.061099 1.839130 0.019472 -0.013358 -180850.000000 1 0 0
-4.490014 -14.423029 10.000146 18.115930 1.268997 0.986025 0.019972 -0.010220 -561371.000000 1 0 0
-0.268514 -12.238029 -9.978954 15.793068 1.548859 2.254743 0.001517 -0.000502 735592.000000 1 0 0
2.479986 -17.130829 6.705446 18.562830 -1.427028 1.201210 0.027551 -0.015371 -2154540.000000 1 0 0
-2.899614 -19.156229 -3.312254 19.655531 1.420570 1.740119 0.002530 -0.016178 -403354.000000 1 0 0
0.713786 -15.376429 -3.163054 15.714610 -1.524409 1.773462 0.007583 -0.006672 -840799.000000 1 0 0
6.023486 -18.004429 0.573046 18.993952 -1.247946 1.540622 0.018948 -0.005181 -226902.000000 1 0 0
-6.990514 -16.769929 3.829146 18.567719 1.175851 1.363080 0.006964 -0.001331 557113.000000 1 0 0
-5.130914 -13.486929 -9.502154 17.277571 1.207268 2.153125 0.013432 -0.011412 22108.500000 1 0 0
5.692286 -15.313729 -2.142654 16.477360 -1.214912 1.701202 0.010703 -0.000317 -837112.000000 1 0 0
-8.955114 -10.357029 -0.606654 13.705114 0.857863 1.615076 0.005616 0.000759 -469881.000000 1 0 0
-6.973014 -17.894929 -3.143154 19.461008 1.199232 1.733017 0.005837 -0.029893 -598138.000000 1 0 0
7.994686 -16.042429 -1.218354 17.965492 -1.108473 1.638665 0.015688 -0.002553 -484940.000000 1 0 0
-8.038714 -10.259629 -9.589754 16.181604 0.906180 2.205120 0.029536 -0.008686 -673316.000000 1 0 0
-8.969914 -15.165229 -7.062554 18.982181 1.036666 1.952026 0.033859 -0.012563 -378301.000000 1 0 0
-11.419214 -10.603229 -11.951454 19.638334 0.748363 2.225063 0.044089 0.001035 -576637.000000 1 0 0
6.492986 -16.220029 2.499946 17.649304 -1.190026 1.428673 0.021684 -0.008907 1061670.000000 1 0 0
-2.152714 -11.221129 -6.037954 12.923034 1.381255 2.056945 0.005288 -0.004438 -1259000.000000 1 0 0
-12.298014 -15.458629 -3.320854 20.030937 0.898779 1.737352 0.028941 -0.010396 1368.000000 1 0 0
-0.307114 -19.485129 -2.867454 19.697382 1.555036 1.716891 0.026744 -0.020466 -173293.000000 1 0 0
-5.827414 -15.519829 -4.723154 17.237518 1.211603 1.848351 0.006336 -0.017823 -1716770.000000 1 0 0
1.989986 -15.878929 -0.994754 16.034025 -1.446124 1.632876 0.012286 -0.007572 1028180.000000 1 0 0
-13.280014 -11.990929 5.272646 18.653202 0.734432 1.284223 0.036160 -0.003135 272586.000000 1 0 0
2.072286 -15.274329 -8.680754 17.690534 -1.435949 2.083690 0.007674 -0.000097 -3313100.000000 1 0 0
-11.842514 -16.832029 -0.010854 20.580633 0.957678 1.571324 0.057115 -0.017133 460289.000000 1 0 0
-7.466214 -16.575329 -1.029154 18.208379 1.147575 1.627347 0.019797 -0.012119 276445.000000 1 0 0
-2.983214 -14.336229 -1.927454 14.769635 1.365635 1.701671 0.000754 -0.005787 447039.000000 1 0 0
-1.789414 -10.376329 -13.243054 16.918886 1.400024 2.469849 0.000096 0.003751 364520.000000 1 0 0
1.612586 -19.516529 4.895246 20.185608 -1.488357 1.325842 0.033317 -0.007741 109798.000000 1 0 0
-17.244414 -9.311229 2.650546 19.776102 0.495099 1.436364 0.031918 -0.002983 -200386.000000 1 0 0
-2.619814 -15.744429 -8.145054 17.919051 1.405911 2.042660 -0.000736 -0.004779 -966189.000000 1 0 0
-10.464114 -12.209929 0.255546 16.082455 0.862243 1.554906 0.010868 -0.000202 449159.000000 1 0 0
-6.911714 -11.448629 -6.533254 14.883760 1.027649 2.025228 0.017524 -0.008878 194575.000000 1 0 0
-2.322214 -13.650629 -6.907154 15.473885 1.402292 2.033506 0.000543 -0.004258 601198.000000 1 0 0
-14.321414 -14.588329 -0.963754 20.465851 0.794631 1.617905 0.040317 -0.004522 -98877.100000 1 0 0
-9.562914 -11.333629 -4.450654 15.482532 0.869933 1.862373 0.022867 -0.010172 1492420.000000 1 0 0
9.499786 -15.223229 -5.147654 18.667913 -1.012893 1.850165 0.018815 -0.004186 175433.000000 1 0 0
-5.505914 -10.930229 -9.368154 15.412570 1.104167 2.224116 0.014416 -0.007366 -848673.000000 1 0 0
-10.438214 -16.019029 -5.079554 19.783010 0.993288 1.830468 0.039780 -0.010478 -2066130.000000 1 0 0
2.159186 -17.457729 -3.171454 17.874353 -1.447740 1.749171 0.018436 -0.005901 461256.000000 1 0 0
-0.326214 -14.529129 -8.246054 16.709261 1.548348 2.086908 0.004970 -0.003669 -1438610.000000 1 0 0
-0.551214 -18.224229 -7.143654 19.582088 1.540559 1.944220 0.018306 -0.009043 35233.000000 1 0 0
-1.775414 -10.063129 -10.549954 14.687416 1.396166 2.372150 -0.001539 0.000160 604390.000000 1 0 0
-5.053314 -17.263829 1.913246 18.089674 1.286040 1.464834 0.007016 -0.008242 -1094700.000000 1 0 0
0.434786 -12.822029 -2.724154 13.115429 -1.536900 1.780026 0.007567 -0.004713 -2220510.000000 1 0 0
2.519486 -14.909829 2.922846 15.401099 -1.403396 1.379857 0.013211 -0.002625 -1274380.000000 1 0 0
-9.341614 -13.104929 6.750746 17.452149 0.951510 1.173622 0.016271 -0.007326 -1226140.000000 1 0 0
-1.109314 -17.801629 -4.671954 18.437888 1.508561 1.826978 0.011298 -0.011187 -168932.000000 1 0 0
-9.536614 -17.422529 -2.444754 20.011705 1.069973 1.693268 0.041083 -0.027419 1518310.000000 1 0 0
1.181986 -16.334129 1.438646 16.439908 -1.498559 1.483175 0.009380 -0.005034 409363.000000 1 0 0
-0.344814 -17.910429 4.124346 18.382399 1.551547 1.344506 0.018246 -0.010936 428260.000000 1 0 0
-17.463714 -9.222129 0.071446 19.749281 0.485854 1.567179 0.012961 -0.003321 565558.000000 1 0 0
-14.673114 -7.350629 -10.618354 19.546904 0.464415 2.145069 0.045053 -0.012303 630287.000000 1 0 0
2.924786 -12.712129 -8.990054 15.842149 -1.344654 2.174235 -0.003088 0.001075 267151.000000 1 0 0
-11.562114 -14.851529 1.723746 18.900310 0.909295 1.479467 0.028439 -0.001874 -99133.500000 1 0 0
-2.116014 -15.430529 10.482546 18.773985 1.434515 0.978395 0.007546 -0.011009 -84130.600000 1 0 0
-7.085614 -15.883529 1.363746 17.445694 1.151192 1.492546 0.011003 -0.007603 -1001650.000000 1 0 0
-12.625814 -14.849229 -5.872554 20.356760 0.866147 1.863437 0.051122 -0.019056 137498.000000 1 0 0
1.038486 -13.697429 -5.146354 14.669116 -1.495125 1.929253 0.008650 -0.004935 478604.000000 1 0 0
5.817286 -16.485829 -7.529854 19.034760 -1.231571 1.977500 0.020774 -0.009774 116541.000000 1 0 0
-6.623214 -12.930429 5.989546 15.714249 1.097421 1.179752 0.011156 -0.002270 -700079.000000 1 0 0
-2.535214 -13.570129 0.534946 13.815277 1.386102 1.532065 0.007367 -0.003798 1050160.000000 1 0 0
-4.206914 -15.514029 0.112646 16.074698 1.305996 1.563789 0.000905 -0.006497 317441.000000 1 0 0
-17.601614 -7.417329 -1.897854 19.194672 0.398818 1.669832 0.004083 -0.008387 172131.000000 1 0 0
1.229886 -12.665929 -12.031154 17.512483 -1.473998 2.328155 -0.000892 0.008407 -715257.000000 1 0 0
1.248086 -17.030329 -5.598554 17.970354 -1.497641 1.887614 0.020221 -0.013756 -405287.000000 1 0 0
-12.722914 -6.314529 -9.055654 16.844901 0.460692 2.138373 0.023997 -0.005191 3159630.000000 1 0 0
-11.502114 -13.666029 -8.982954 19.993810 0.871166 2.036763 0.050595 -0.014979 297767.000000 1 0 0
-4.300514 -9.957429 3.378546 11.360431 1.163104 1.268832 0.009333 -0.000070 -4835200.000000 1 0 0
-6.999514 -14.335329 9.705646 18.673361 1.116576 1.024228 0.023570 -0.013852 -1581750.000000 1 0 0
-5.275114 -15.780329 -8.001554 18.462678 1.248190 2.019048 0.010461 -0.022188 -205792.000000 1 0 0
-0.186214 -13.400729 2.073346 13.561452 1.556901 1.417309 0.007832 -0.003020 728071.000000 1 0 0
-10.909314 -13.527529 -4.551354 17.964465 0.892133 1.826941 0.036616 -0.009276 -879310.000000 1 0 0
-9.751514 -10.506529 6.662246 15.807109 0.822651 1.135729 0.023205 -0.003567 -165393.000000 1 0 0
-15.606114 -8.159329 -4.942354 18.290771 0.481744 1.844408 0.031914 -0.006697 -15967.600000 1 0 0
-14.604914 -7.305729 5.444646 17.213988 0.463827 1.248978 0.032138 -0.006314 138892.000000 1 0 0
-1.487514 -19.270929 0.027946 19.328274 1.493760 1.569350 0.016319 -0.011950 -142197.000000 1 0 0
-15.397114 -12.270529 -1.257154 19.728595 0.672870 1.634562 0.014928 0.003969 272319.000000 1 0 0
-4.364614 -12.030429 -6.768054 14.477142 1.222766 2.057256 0.004798 -0.007611 830704.000000 1 0 0
-7.371314 -18.394229 1.852746 19.902678 1.189652 1.477571 0.017965 -0.009184 -839.851000 1 0 0
-2.532714 -11.666729 -8.621354 14.725996 1.357025 2.196233 0.000062 -0.003940 631905.000000 1 0 0
-1.408814 -20.344029 -5.078454 21.015589 1.501657 1.814864 0.023518 -0.009332 -46091.500000 1 0 0
-5.221314 -8.863129 -14.012554 17.383005 1.038426 2.508339 0.010229 0.003994 645126.000000 1 0 0
-7.987214 -19.095829 -1.064954 20.726322 1.174640 1.622201 0.025472 -0.014045 155347.000000 1 0 0
-17.139914 -7.260629 5.570746 19.430044 0.400692 1.280008 0.055669 -0.010238 -913270.000000 1 0 0
-3.502214 -14.541729 -4.434654 15.601075 1.334458 1.859024 0.001943 -0.010825 -1977280.000000 1 0 0
-2.912414 -14.959129 -10.993054 18.791087 1.378510 2.195694 0.013561 -0.002920 -146425.000000 1 0 0
-0.035114 -16.540529 6.262646 17.686466 1.568673 1.208853 0.028421 -0.014842 -1377070.000000 1 0 0
-11.124914 -11.617429 3.897946 16.550600 0.807051 1.333046 0.015479 0.002161 -545825.000000 1 0 0
-0.157414 -14.594829 -0.130354 14.596260 1.560011 1.579727 0.003035 -0.001710 649446.000000 1 0 0
-7.308214 -9.571129 -2.552154 12.309752 0.918668 1.779639 0.012697 -0.001269 -220642.000000 1 0 0
-11.186314 -14.482129 -0.829554 18.318129 0.913099 1.616098 0.022998 -0.009959 -146636.000000 1 0 0
0.479186 -14.622329 -10.666454 18.105672 -1.538037 2.200768 0.000636 0.000882 -198826.000000 1 0 0
-1.300714 -13.990929 -4.007854 14.611668 1.478094 1.848649 0.005213 -0.007037 -3490530.000000 1 0 0
-11.527614 -8.163829 -7.654754 16.066402 0.616207 2.067403 0.027246 -0.004416 658205.000000 1 0 0
-0.200814 -17.189529 -0.402454 17.195412 1.559114 1.594203 0.004381 -0.006557 -1304060.000000 1 0 0
-12.880614 -9.570729 4.652446 16.707912 0.639028 1.288608 0.019805 -0.001274 -264204.000000 1 0 0
3.970586 -16.728229 1.462946 17.255127 -1.337751 1.485911 0.018347 -0.010827 2007480.000000 1 0 0
-3.796414 -17.966729 -8.169054 20.098496 1.362557 1.989363 0.023457 -0.014053 90047.800000 1 0 0
-13.305314 -11.201729 2.675646 17.597420 0.699772 1.418157 0.007593 -0.000563 -290415.000000 1 0 0
-8.513414 -12.179729 4.125746 15.422250 0.960754 1.299979 0.011492 -0.002195 1124510.000000 1 0 0
-8.225614 -9.362329 -5.828954 13.758294 0.849939 2.008288 0.020381 -0.006803 611004.000000 1 0 0
3.817986 -17.324829 -5.163554 18.476715 -1.353887 1.854031 0.008681 -0.009492 -19998.400000 1 0 0
-2.731814 -12.995429 11.329046 17.455408 1.363600 0.864490 0.013014 -0.013071 629272.000000 1 0 0
0.320786 -16.841329 -9.416154 19.297596 -1.551751 2.080530 0.017383 -0.001985 -349738.000000 1 0 0
-6.967114 -10.703629 -14.468254 19.298672 0.993781 2.418408 0.028551 -0.005580 -1515280.000000 1 0 0
-4.657014 -18.679329 -1.464154 19.306705 1.326464 1.646706 0.016532 -0.023583 -752288.000000 1 0 0
-2.447914 -17.124629 1.156146 17.337297 1.428811 1.504061 0.009806 -0.011976 159415.000000 1 0 0
4.179186 -14.470029 -7.413754 16.787230 -1.289631 2.028212 0.005567 -0.008319 -1406590.000000 1 0 0
-0.925014 -15.852829 -6.203354 17.048444 1.512512 1.943212 0.004148 -0.004445 -62996.800000 1 0 0
-9.594214 -15.223329 8.262546 19.800716 1.008444 1.140340 0.032672 -0.013636 -403386.000000 1 0 0
-7.262814 -12.117829 -1.789454 14.240520 1.030855 1.696789 0.005796 -0.005939 1033940.000000 1 0 0
-7.290614 -15.032129 -9.451054 19.194801 1.119219 2.085613 0.035993 -0.015166 687000.000000 1 0 0
-5.027714 -13.229629 -0.586654 14.164927 1.207619 1.612224 0.002577 -0.003316 3403940.000000 1 0 0
-6.540414 -13.623629 -7.327454 16.794995 1.123212 2.022265 0.018007 -0.015269 471835.000000 1 0 0
5.850886 -15.415829 0.271346 16.491036 -1.208053 1.554341 0.011075 -0.001766 399238.000000 1 0 0
-14.358614 -12.813829 0.988146 19.270196 0.728608 1.519495 0.005354 -0.003860 887865.000000 1 0 0
1.091586 -15.478629 11.117646 19.088781 -1.500391 0.949096 0.018790 -0.009716 -379239.000000 1 0 0
-9.334814 -10.856129 2.026746 14.460359 0.860602 1.430175 0.008606 0.003415 -108840.000000 1 0 0
-9.437014 -8.803729 -3.587454 13.395250 0.750694 1.841921 0.015117 -0.003293 169301.000000 1 0 0
-12.095514 -7.348529 -12.449154 18.848973 0.545946 2.292239 0.033681 -0.002652 -291.903000 1 0 0
-13.259114 -8.358029 -0.633054 15.686348 0.562445 1.611164 -0.000316 -0.001242 -26313.000000 1 0 0
-11.246714 -9.758029 0.516046 14.898793 0.714643 1.536153 0.001902 0.004254 910347.000000 1 0 0
-15.661714 -12.202029 3.038846 20.085154 0.661866 1.418915 0.042165 0.003719 -275496.000000 1 0 0
-10.442114 -12.510829 -2.214854 16.445795 0.875284 1.705883 0.023366 -0.009388 354421.000000 1 0 0
-3.365714 -8.898329 -12.086554 15.381583 1.209187 2.474754 -0.001582 0.002671 -860605.000000 1 0 0
-0.308314 -15.487029 3.779346 15.944484 1.550891 1.331487 0.014465 -0.006883 -783830.000000 1 0 0
-15.637014 -7.718029 1.257446 17.483288 0.458494 1.498811 -0.003631 -0.002486 736216.000000 1 0 0
-6.029914 -13.325829 -13.259554 19.742172 1.145867 2.307211 0.021954 -0.005799 -1724100.000000 1 0 0
-15.294214 -10.313629 1.213146 18.486635 0.593302 1.505126 0.005052 0.000562 446351.000000 1 0 0
-9.753314 -8.597429 -12.392254 17.961372 0.722493 2.332201 0.022460 -0.005365 974095.000000 1 0 0
-13.542314 -11.848729 -6.117454 19.005523 0.718797 1.898508 0.042925 -0.004815 51676.200000 1 0 0
-12.162014 -11.428329 -3.940154 17.147773 0.754307 1.802644 0.012917 -0.001284 -2121780.000000 1 0 0
-11.604814 -11.132429 -9.010554 18.433469 0.764625 2.081527 0.036063 -0.014400 588091.000000 1 0 0
-13.211114 -8.574729 -5.826054 16.792928 0.575710 1.925097 0.020515 -0.005594 -460352.000000 1 0 0
-13.622914 -7.999229 -3.285154 16.135789 0.530947 1.775824 0.015743 -0.007181 332696.000000 1 0 0
-4.242714 -16.885529 -3.341754 17.728199 1.324629 1.760430 0.002255 -0.018180 -461235.000000 1 0 0
-15.455314 -8.893229 -1.699454 17.912130 0.522147 1.665817 0.008149 -0.003795 -380566.000000 1 0 0
-9.313314 -15.685729 3.535146 18.581635 1.034989 1.379380 0.015535 -0.004912 -1241130.000000 1 0 0
4.743186 -16.961929 8.042946 19.362175 -1.298124 1.142420 0.048021 -0.032291 -46870.000000 1 0 0
-8.346814 -15.473329 5.953746 18.561797 1.076103 1.244272 0.015947 -0.000229 -300185.000000 1 0 0
1.064086 -15.922629 8.582046 18.119435 -1.504067 1.077380 0.021700 -0.014991 -560288.000000 1 0 0
-10.909414 -7.857529 -10.206154 16.879623 0.624189 2.220115 0.026612 -0.003855 957911.000000 1 0 0
-4.696414 -16.026429 5.700846 17.646597 1.285735 1.241839 0.007826 -0.004801 -1202040.000000 1 0 0
-1.281714 -13.355029 -12.126454 18.084537 1.475117 2.305736 0.003202 0.008113 -1324790.000000 1 0 0
-6.397714 -14.311729 -2.620754 15.894172 1.150418 1.736441 0.007397 -0.009832 400508.000000 1 0 0
-17.743914 -6.817229 -7.211954 20.330602 0.366813 1.933426 0.050541 -0.021234 357485.000000 1 0 0
-17.447114 -4.044829 -10.139054 20.580643 0.227809 2.085929 0.063018 -0.018864 1217270.000000 1 0 0
-15.303114 -5.286129 -9.094554 18.569851 0.332596 2.082597 0.027765 -0.012522 1502130.000000 1 0 0
-16.059114 -5.408329 -5.721954 17.885355 0.324846 1.896446 0.026109 -0.010503 206700.000000 1 0 0
-15.149114 -4.406329 -12.220254 19.956102 0.283054 2.229835 0.043308 -0.019425 702165.000000 1 0 0
-18.708814 -5.218429 -5.428654 20.167350 0.272015 1.843338 0.045231 -0.018233 -87995.800000 1 0 0
-17.441914 -4.352229 -7.570654 19.505822 0.244533 1.969390 0.042699 -0.017588 1108660.000000 1 0 0
12.091586 -7.790129 8.679346 16.799512 -0.572330 1.027871 0.029868 -0.012030 136448.000000 1 0 0
15.944086 -3.447729 1.835046 16.415483 -0.212960 1.458775 0.019463 -0.006760 96900.100000 1 0 0
12.085186 -2.000129 12.464846 17.476402 -0.164016 0.776688 0.035088 -0.005074 130710.000000 1 0 0
9.719986 -10.096429 5.220746 14.955674 -0.804392 1.214206 0.005448 -0.005756 184339.000000 1 0 0
17.053786 -2.141329 7.185446 18.629212 -0.124910 1.174821 0.066159 -0.014780 145827.000000 1 0 0
5.153786 -12.810429 9.124346 16.550598 -1.188299 0.986875 0.007835 -0.001446 -431999.000000 1 0 0
15.201886 -9.163329 -2.129454 17.877318 -0.542458 1.690195 0.029387 -0.007916 -52651.800000 1 0 0
11.185386 -8.554629 6.337746 15.442200 -0.652909 1.147885 0.015617 -0.008073 -2276350.000000 1 0 0
20.020786 -2.974129 3.330146 20.512610 -0.147474 1.407728 0.090651 -0.015258 534508.000000 1 0 0
13.604686 -8.497029 6.879646 17.453266 -0.558287 1.165626 0.025833 -0.010404 -1524980.000000 1 0 0
8.311086 -11.030729 8.774746 16.362986 -0.925092 1.004801 0.001736 -0.006503 -1471380.000000 1 0 0
16.968886 0.169271 -0.760554 16.986765 0.009975 1.615585 0.026319 0.001967 -2103550.000000 1 0 0
12.465186 -12.407029 2.280146 17.734551 -0.783060 1.441869 0.012273 -0.007486 -1223890.000000 1 0 0
10.455186 -11.596029 3.539846 16.009663 -0.837088 1.347847 0.007100 -0.007396 -969871.000000 1 0 0
16.299886 3.045571 2.362546 16.749430 0.184716 1.429272 0.017638 0.001338 -716908.000000 1 0 0
18.175386 -3.233229 0.392846 18.464906 -0.176049 1.549519 0.037643 -0.009129 228281.000000 1 0 0
13.452486 -11.608729 -0.234554 17.770396 -0.711960 1.583996 0.027667 -0.003351 -687139.000000 1 0 0
16.980986 -7.575529 -0.926354 18.617214 -0.419621 1.620575 0.041134 -0.012559 372527.000000 1 0 0
10.136586 -5.678229 9.795446 15.196823 -0.510619 0.870333 0.019406 -0.007316 221742.000000 1 0 0
11.343386 -13.229629 6.082846 18.457966 -0.862009 1.234968 0.015550 -0.006598 -348823.000000 1 0 0
13.152886 -1.781229 10.207646 16.744170 -0.134606 0.915210 0.028540 -0.006782 1473940.000000 1 0 0
15.681186 -1.992529 -1.402854 15.869397 -0.126388 1.659312 0.021565 -0.005181 528767.000000 1 0 0
10.556086 -12.340329 8.922446 18.529023 -0.863168 1.068387 0.018480 -0.014266 80393.400000 1 0 0
14.567486 1.247671 3.241846 14.975910 0.085439 1.352598 0.009335 -0.002787 662608.000000 1 0 0
15.136786 -5.757929 5.243346 17.022594 -0.363490 1.257682 0.041076 -0.010006 -761948.000000 1 0 0
14.381286 -3.384329 -2.981754 15.072024 -0.231123 1.769944 0.017395 -0.003173 1010130.000000 1 0 0
14.148886 0.665571 9.637746 17.132428 0.047006 0.973337 0.040763 -0.005077 611698.000000 1 0 0
15.389986 -3.323829 4.437246 16.358137 -0.212706 1.296098 0.026504 -0.005605 -154608.000000 1 0 0
18.522586 4.793171 -4.230954 19.594939 0.253220 1.788431 0.021265 0.002127 435317.000000 1 0 0
18.188986 -5.802829 -5.115554 19.765650 -0.308823 1.832587 0.077870 -0.021927 694658.000000 1 0 0
17.275586 0.025171 5.891546 18.252584 0.001457 1.242132 0.056863 -0.008188 186350.000000 1 0 0
17.115386 -6.765729 3.967246 18.826857 -0.376449 1.358482 0.062294 -0.013219 -244202.000000 1 0 0
9.637186 -6.779929 14.302046 18.530820 -0.613083 0.689133 0.031241 -0.013069 -26794.300000 1 0 0
8.584786 -12.369629 5.111346 15.900696 -0.964094 1.243532 0.004595 -0.005194 -2237740.000000 1 0 0
16.981086 -10.176329 -0.666754 19.808067 -0.539886 1.604463 0.052950 -0.008248 288571.000000 1 0 0
15.036486 -8.776729 0.413846 17.415457 -0.528345 1.547031 0.032494 -0.008884 178657.000000 1 0 0
10.005386 -12.966929 1.496446 16.446530 -0.913609 1.479682 0.012013 -0.007104 -105458.000000 1 0 0
17.114886 -8.124329 8.828546 20.901370 -0.443198 1.134715 0.069781 -0.009438 246349.000000 1 0 0
19.247986 0.102471 -2.028854 19.354888 0.005324 1.675813 0.057503 -0.001438 245237.000000 1 0 0
13.400586 -1.156529 7.734046 15.515435 -0.086091 1.048958 0.013664 -0.009181 348104.000000 1 0 0
12.809486 -9.769029 -3.058754 16.397342 -0.651542 1.758435 0.020040 -0.008183 -1364290.000000 1 0 0
8.806186 -15.200729 1.478046 17.629399 -1.045717 1.486858 0.020239 -0.005642 1397590.000000 1 0 0
11.370286 -8.367729 11.141246 17.984150 -0.634435 0.902686 0.032927 -0.015399 163659.000000 1 0 0
13.922386 -3.926929 -0.523354 14.475065 -0.274917 1.606960 0.010298 -0.005576 -1026800.000000 1 0 0
7.293786 -13.303329 10.618146 18.518177 -1.069284 0.960158 0.012222 -0.002418 294937.000000 1 0 0
15.427186 -6.714129 1.838046 16.925011 -0.410490 1.461982 0.018617 -0.008558 888772.000000 1 0 0
15.866786 -6.165829 -2.709754 17.237027 -0.370640 1.728657 0.044657 -0.010813 -78315.500000 1 0 0
11.337186 -8.509129 3.847246 14.688035 -0.643853 1.305774 0.012881 -0.008511 750119.000000 1 0 0
10.627286 -14.556329 -0.472854 18.029129 -0.940166 1.597027 0.025581 -0.009265 587086.000000 1 0 0
13.521086 -12.838029 4.729646 19.235496 -0.759490 1.322368 0.016777 -0.003869 214944.000000 1 0 0
12.901886 -11.070929 6.596846 18.235748 -0.709170 1.200648 0.015979 -0.008743 -205305.000000 1 0 0
10.982386 -10.579229 1.282446 15.302861 -0.766702 1.486894 0.009672 -0.003429 612879.000000 1 0 0
13.896986 -7.724729 11.740146 19.764328 -0.507328 0.934766 0.050616 -0.026313 841072.000000 1 0 0
15.328786 -1.825329 -4.914854 16.200595 -0.118520 1.879029 0.033359 -0.005795 15143.200000 1 0 0
12.907286 -11.427529 -7.129754 18.655290 -0.724665 1.962955 0.052763 -0.017515 22665.900000 1 0 0
17.708486 -5.314129 1.913846 18.587448 -0.291539 1.467649 0.065703 -0.010227 412614.000000 1 0 0
10.667786 -9.815929 8.998846 17.062630 -0.743835 1.015258 0.014659 -0.007893 -679305.000000 1 0 0
16.566386 1.872371 9.690346 19.283509 0.112545 1.044285 0.075561 -0.016302 357236.000000 1 0 0
18.127386 3.714671 0.551546 18.512296 0.202122 1.540998 0.015263 0.007418 605611.000000 1 0 0
13.305786 -4.084929 5.817846 15.085686 -0.297870 1.174880 0.015931 -0.009871 -1526510.000000 1 0 0
12.081986 -6.134629 6.623446 15.082377 -0.469828 1.116142 0.015299 -0.007454 -46834.400000 1 0 0
16.594486 -10.142229 3.543446 19.768606 -0.548600 1.390576 0.023708 -0.005248 433412.000000 1 0 0
16.257186 -8.106229 -5.538454 18.991617 -0.462547 1.866723 0.064157 -0.019386 913469.000000 1 0 0
14.060886 -0.324429 5.314746 15.035301 -0.023069 1.209503 0.014307 -0.006314 798131.000000 1 0 0
18.440186 -4.227329 4.969146 19.560245 -0.225352 1.313938 0.088588 -0.014225 191820.000000 1 0 0
13.563286 -13.552829 7.281246 20.509959 -0.785013 1.207871 0.022368 0.002064 -120563.000000 1 0 0
15.057786 -13.547729 -0.793554 20.270856 -0.732658 1.609954 0.035350 -0.003651 349468.000000 1 0 0
17.821686 -5.770229 7.799546 20.291401 -0.313124 1.176264 0.078080 -0.019156 -414948.000000 1 0 0
14.474886 3.292071 9.274346 17.503529 0.223629 1.012366 0.051874 -0.012442 364812.000000 1 0 0
18.761086 3.761571 3.101246 19.384155 0.197875 1.410117 0.047556 0.002559 1229140.000000 1 0 0
14.870086 -10.425829 8.198546 19.925700 -0.611482 1.146746 0.024462 -0.007057 -761640.000000 1 0 0
14.818786 -4.926529 10.369946 18.745743 -0.320957 0.984608 0.055007 -0.014500 218733.000000 1 0 0
17.869286 -7.975329 1.898046 19.660107 -0.419785 1.474103 0.079148 -0.014766 -83676.200000 1 0 0
18.383186 -5.822629 -2.011054 19.387854 -0.306740 1.674711 0.053806 -0.020885 529457.000000 1 0 0
14.376886 -12.991529 -5.644354 20.182502 -0.734823 1.854242 0.067526 -0.021454 -571416.000000 1 0 0
15.517286 -1.433029 9.252846 18.123324 -0.092089 1.034973 0.071816 -0.015468 -1531930.000000 1 0 0
13.004686 -9.973229 10.038946 19.218938 -0.654227 1.021196 0.026048 -0.022136 -2501490.000000 1 0 0
16.543486 2.236871 4.810346 17.373254 0.134397 1.290248 0.043890 -0.006791 -891939.000000 1 0 0
14.997886 2.441671 0.004346 15.195340 0.161385 1.570510 0.013669 0.005396 -1288220.000000 1 0 0
15.079386 -9.920029 -7.038254 19.373484 -0.581876 1.942596 0.065338 -0.020017 162348.000000 1 0 0
16.238286 -0.078029 -3.262654 16.562999 -0.004805 1.769078 0.026227 0.001645 154811.000000 1 0 0
11.973686 2.670071 13.548546 18.277350 0.219405 0.735828 0.035836 -0.003990 -182664.000000 1 0 0
17.608186 -2.942329 9.591046 20.265578 -0.165570 1.077800 0.060839 -0.018152 571380.000000 1 0 0
7.923486 -18.079529 4.665646 20.283472 -1.157750 1.338696 0.050981 -0.017928 67968.600000 1 0 0
6.871286 -11.200929 6.572146 14.692463 -1.020541 1.107036 0.004447 -0.005354 274666.000000 1 0 0
18.098486 2.354371 -1.582054 18.319420 0.129360 1.657263 0.027765 0.010209 454199.000000 1 0 0
17.562186 -2.183729 3.446146 18.029835 -0.123708 1.378477 0.036681 -0.006392 -1745530.000000 1 0 0
12.666586 -13.542929 -1.811954 18.631599 -0.818822 1.668202 0.032338 -0.003118 31249.900000 1 0 0
15.032186 -8.260929 4.311046 17.686002 -0.502497 1.324561 0.020529 -0.005212 -349963.000000 1 0 0
12.167186 -3.247629 14.642646 19.313068 -0.260836 0.710290 0.056221 -0.013236 -442658.000000 1 0 0
12.031686 -13.773529 -6.485654 19.404517 -0.852796 1.911589 0.027916 -0.014672 21754.900000 1 0 0
10.634886 -12.023829 -1.210254 16.097763 -0.846620 1.646049 0.019850 -0.006167 -785807.000000 1 0 0
13.250186 -8.050729 2.033546 15.637038 -0.545984 1.440380 0.011829 -0.000651 -1049150.000000 1 0 0
8.754686 -7.859229 9.966446 15.418886 -0.731552 0.867967 0.008810 -0.004899 -1420040.000000 1 0 0
15.590786 -3.831429 8.113246 17.988252 -0.240974 1.102877 0.058546 -0.018307 -1102870.000000 1 0 0
10.303386 -17.260929 5.151246 20.751741 -1.032645 1.319942 0.041536 -0.017972 -1491500.000000 1 0 0
15.234986 -6.390629 8.271146 18.475843 -0.397178 1.106634 0.053932 -0.008315 828095.000000 1 0 0
16.545286 -4.993629 -0.372754 17.286462 -0.293122 1.592361 0.026381 -0.010375 -1205420.000000 1 0 0
13.993386 -10.562029 3.505046 17.878944 -0.646558 1.373475 0.021147 -0.007214 -348173.000000 1 0 0
14.915186 -10.070829 -4.503354 18.551673 -0.593891 1.815992 0.054316 -0.020939 -185552.000000 1 0 0
13.651486 -6.550929 -0.086454 15.142167 -0.447414 1.576506 0.013056 -0.006051 -79193.200000 1 0 0
17.939586 -1.027729 -4.858754 18.614308 -0.057226 1.834878 0.067565 -0.008280 1115440.000000 1 0 0
14.500386 0.292971 -1.588654 14.590094 0.020202 1.679898 0.013628 0.001228 -1568560.000000 1 0 0
5.036986 -13.047429 11.777546 18.284344 -1.202372 0.870907 0.006043 0.000621 -1117060.000000 1 0 0
12.051186 -7.522229 13.590346 19.659921 -0.558017 0.807549 0.042865 -0.019133 392037.000000 1 0 0
12.107886 -5.853729 11.558246 17.733023 -0.450332 0.860851 0.036552 -0.012924 64041.900000 1 0 0
13.193886 -4.682129 8.407646 16.330630 -0.341008 1.029976 0.027038 -0.011737 -1258510.000000 1 0 0
15.258686 -1.189829 3.054246 15.606781 -0.077820 1.373825 0.015348 -0.000930 -207660.000000 1 0 0
15.264586 -10.390029 5.751546 19.340128 -0.597629 1.268839 0.023224 -0.007347 506210.000000 1 0 0
13.661186 -8.071029 -5.708554 16.862891 -0.533627 1.916148 0.045448 -0.015900 -307817.000000 1 0 0
9.871686 -2.571229 13.750046 17.120898 -0.254804 0.638292 0.034874 0.003095 -216652.000000 1 0 0
10.094286 -9.287329 13.826946 19.476486 -0.743787 0.781397 0.043397 -0.004845 -454822.000000 1 0 0
20.237386 6.318571 -3.125254 21.429963 0.302632 1.717154 0.063173 0.005564 56405.500000 1 0 0
11.192786 -3.577929 10.632546 15.847115 -0.309398 0.835314 0.019586 -0.001931 700143.000000 1 0 0
10.388286 -13.967829 -2.965254 17.658127 -0.931320 1.739521 0.023789 -0.006255 1138580.000000 1 0 0
15.026886 -12.688829 2.602146 19.838973 -0.701239 1.439254 0.025377 -0.001059 -653553.000000 1 0 0
11.436386 -0.731429 14.668146 18.613984 -0.063869 0.663214 0.048122 0.004575 445127.000000 1 0 0
19.018186 -1.842329 5.569546 19.902397 -0.096571 1.287166 0.087389 -0.014101 191398.000000 1 0 0
19.016786 -0.540629 7.818446 20.568386 -0.028421 1.180871 0.091170 -0.019720 330466.000000 1 0 0
19.120186 0.767771 0.415346 19.140101 0.040133 1.549094 0.044667 -0.002290 319241.000000 1 0 0
18.573786 0.852471 3.769846 18.971662 0.045864 1.370756 0.045858 -0.007509 175074.000000 1 0 0
16.671686 -3.995329 -4.132754 17.634835 -0.235212 1.807348 0.048066 -0.013218 -434918.000000 1 0 0
11.157286 -8.300929 15.886746 21.113483 -0.639645 0.719029 0.063726 -0.022040 492905.000000 1 0 0
16.533586 -7.581029 6.402246 19.282640 -0.429919 1.232351 0.048073 -0.007819 308043.000000 1 0 0
18.646986 2.147571 6.168546 19.757862 0.114665 1.253281 0.051653 -0.006926 277320.000000 1 0 0
15.278986 1.674971 7.473146 17.090958 0.109190 1.118250 0.043311 -0.013439 -252494.000000 1 0 0
8.682486 -15.554529 3.960846 18.248760 -1.061682 1.352008 0.020127 -0.018818 478587.000000 1 0 0
11.398986 -15.162729 1.886746 19.063185 -0.926159 1.471661 0.019817 -0.007123 -422163.000000 1 0 0
8.347386 -16.132629 6.336546 19.237785 -1.093308 1.235149 0.030786 -0.012093 -152955.000000 1 0 0
14.520486 -11.633829 -2.477754 18.770449 -0.675473 1.703186 0.034949 -0.010234 263710.000000 1 0 0
13.678286 -4.957029 3.286446 14.915373 -0.347680 1.348634 0.011013 -0.004290 -896271.000000 1 0 0
-1.029414 10.234971 -5.518254 11.673279 -1.470555 2.063177 0.003341 0.001364 -235295.000000 1 0 0
8.217586 -1.670829 -8.045354 11.621020 -0.200589 2.335482 0.000532 -0.003506 -2454180.000000 1 0 0
3.056886 -10.134829 7.630446 13.049253 -1.277852 0.946234 0.000230 -0.003172 257480.000000 1 0 0
-6.376914 1.254171 8.356246 10.586068 -0.194195 0.661026 -0.000418 -0.002480 438320.000000 1 0 0
7.140086 -6.294029 -7.262254 11.972300 -0.722503 2.222558 -0.001616 -0.004905 123900.000000 1 0 0
-11.305414 -4.530929 -4.094254 12.849305 0.381174 1.895087 0.008011 -0.004110 311448.000000 1 0 0
2.152886 -3.096529 2.925946 4.773318 -0.963260 0.910970 0.004252 -0.003641 811820.000000 1 0 0
-3.722314 -4.207729 8.970546 10.584484 0.846534 0.559504 0.002343 -0.003861 -627233.000000 1 0 0
-4.892514 -1.000929 -2.349054 5.518751 0.201799 2.010476 0.006213 -0.005944 -303426.000000 1 0 0
4.992286 -5.113629 -3.722654 8.057932 -0.797405 2.051030 -0.001008 -0.001439 437716.000000 1 0 0
2.779786 14.308471 -8.827954 17.040901 1.378911 2.115360 0.004827 -0.004623 -321321.000000 1 0 0
5.407586 -5.482629 13.622746 15.648655 -0.792289 0.514502 0.022254 -0.009278 -317011.000000 1 0 0
-4.767514 -1.020029 9.822646 10.966040 0.210776 0.460719 0.004908 -0.003042 -1919800.000000 1 0 0
-0.954714 12.069171 -2.643954 12.392210 -1.491857 1.785805 0.002628 -0.001362 1090210.000000 1 0 0
3.122686 9.427271 -10.482254 14.439607 1.250931 2.383193 0.004024 -0.002338 -494908.000000 1 0 0
-10.683114 2.729771 1.122746 11.083372 -0.250169 1.469322 -0.003202 -0.001955 -17997.500000 1 0 0
5.806686 -9.045129 -0.738954 10.773951 -1.000088 1.639437 -0.004208 -0.002228 530208.000000 1 0 0
-6.965014 5.425171 9.364146 12.869776 -0.661753 0.755968 0.000409 -0.001291 24019.700000 1 0 0
-5.709914 -1.829129 5.121746 7.885500 0.310014 0.863851 0.001862 -0.005059 381787.000000 1 0 0
6.601386 -3.722529 -7.348254 10.556152 -0.513453 2.340763 -0.000142 -0.004454 437429.000000 1 0 0
6.221486 4.858971 11.049146 13.579400 0.663047 0.620359 0.002830 0.000377 444942.000000 1 0 0
3.801286 -9.784529 3.394746 11.032275 -1.200243 1.258011 -0.005221 -0.000978 814710.000000 1 0 0
-6.624514 6.634971 -5.772954 11.010632 -0.786187 2.122698 0.003036 -0.005686 -137713.000000 1 0 0
-11.106414 8.349871 5.175246 14.827540 -0.644656 1.214261 0.001608 -0.006010 671473.000000 1 0 0
-9.220014 -5.457829 5.151346 11.888353 0.534483 1.122634 0.004192 -0.001606 -1440380.000000 1 0 0
3.356986 9.773171 -8.026754 13.084839 1.239933 2.231205 0.005949 -0.003388 742505.000000 1 0 0
-8.058314 -8.639529 6.059346 13.277559 0.820192 1.096896 0.008819 0.000360 -2653430.000000 1 0 0
-7.770714 -5.632129 -7.413454 12.127002 0.627170 2.228521 0.005066 -0.000285 -1375440.000000 1 0 0
9.194886 -1.617529 7.015746 11.678314 -0.174134 0.926358 0.007207 -0.004765 1112970.000000 1 0 0
-4.139414 -0.428329 -4.820454 6.368280 0.103109 2.429426 0.010087 -0.008205 -1839900.000000 1 0 0
9.074686 1.257771 -4.452154 10.185950 0.137725 2.023155 0.004474 -0.001148 -2420070.000000 1 0 0
-1.845514 -10.592329 10.778446 15.224265 1.398297 0.784165 0.000293 -0.010180 277469.000000 1 0 0
-12.877714 0.282571 -2.645154 13.149609 -0.021939 1.773337 0.002736 -0.003681 -534672.000000 1 0 0
-9.781414 -5.236529 -6.013954 12.620022 0.491530 2.067512 0.009181 -0.001062 -1201380.000000 1 0 0
-5.723614 8.408071 -0.209654 10.173464 -0.973122 1.591406 0.000881 0.002745 985855.000000 1 0 0
6.406586 9.667771 0.450846 11.606610 0.985563 1.531943 0.010864 -0.005311 139872.000000 1 0 0
-0.528914 -12.018229 -0.103754 12.030309 1.526815 1.579421 0.009552 -0.001229 -536111.000000 1 0 0
6.233486 4.761071 2.379146 8.196614 0.652268 1.276298 0.007482 -0.003935 294218.000000 1 0 0
3.540186 -7.529529 -8.284454 11.741333 -1.131293 2.354038 -0.003562 -0.002248 634313.000000 1 0 0
-6.468214 -9.908929 4.597146 12.694819 0.992479 1.200247 0.010105 0.000316 -2435610.000000 1 0 0
-0.085214 6.510371 -9.183254 11.257191 -1.557708 2.524852 0.005437 -0.003263 -1758830.000000 1 0 0
-17.317214 -2.779629 4.241546 18.044472 0.159155 1.333515 0.040145 -0.008845 254866.000000 1 0 0
-8.533114 0.868571 -9.151754 12.542849 -0.101439 2.388590 -0.001541 -0.004639 1453050.000000 1 0 0
-9.944314 -5.961929 -11.952754 16.652397 0.540075 2.371405 0.012409 0.005324 86894.700000 1 0 0
2.177486 9.384771 6.350946 11.539059 1.342807 0.987969 -0.000928 0.001048 -93025.300000 1 0 0
-11.382514 1.679771 -1.160554 11.564175 -0.146517 1.671323 0.000814 -0.003681 -1047160.000000 1 0 0
-5.789014 -5.384929 -3.108454 8.495448 0.749251 1.945392 0.015537 -0.005115 626304.000000 1 0 0
-6.926814 -8.266929 1.319146 10.865681 0.873372 1.449091 0.011177 -0.002326 -589622.000000 1 0 0
-0.098314 11.057871 -7.838054 13.554382 -1.561906 2.187399 0.003079 0.002232 763173.000000 1 0 0
-2.917214 9.187271 -4.279754 10.546676 -1.263338 1.988641 0.003926 -0.002060 -712763.000000 1 0 0
3.492486 -4.814629 9.364146 11.093482 -0.943232 0.565889 0.007242 -0.004683 -950622.000000 1 0 0
-8.969914 1.582871 -0.402654 9.117399 -0.174666 1.614974 -0.000874 -0.002295 -2288960.000000 1 0 0
2.533786 3.569871 -10.376254 11.261914 0.953544 2.742356 0.001617 -0.005170 -2326430.000000 1 0 0
-13.731214 0.499971 1.144846 13.787925 -0.036395 1.487668 0.004912 -0.005480 -593501.000000 1 0 0
9.535086 -12.651929 -5.073454 16.635177 -0.924965 1.880717 0.017036 -0.007958 -1416580.000000 1 0 0
-4.768714 9.424171 -8.212654 13.379212 -1.102353 2.231708 0.006193 -0.002503 -2076160.000000 1 0 0
-2.295314 7.115471 8.407546 11.251010 -1.258754 0.726852 0.002024 -0.000679 -1066930.000000 1 0 0
-10.753214 -1.477329 -4.399254 11.711855 0.136530 1.955866 0.004687 -0.004189 -2033560.000000 1 0 0
2.700486 -7.157229 9.713646 12.364201 -1.210003 0.667088 0.001378 -0.003010 -2230870.000000 1 0 0
-16.059714 -6.420929 3.331646 17.613705 0.380348 1.380499 0.022862 -0.008936 -13916.800000 1 0 0
-10.822714 -0.142929 6.116046 12.432119 0.013206 1.056462 -0.001266 -0.003038 -1007740.000000 1 0 0
-8.416114 9.876871 9.398446 16.022308 -0.865082 0.943961 0.010520 -0.008930 1257290.000000 1 0 0
0.299386 -6.015529 -3.669654 7.052842 -1.521069 2.118009 -0.002173 -0.000810 358154.000000 1 0 0
4.925586 1.571671 -3.030054 5.992727 0.308871 2.100899 0.002525 -0.001558 887930.000000 1 0 0
0.293486 5.384071 3.683546 6.530150 1.516340 0.971474 0.001687 0.001247 -1498010.000000 1 0 0
6.122886 -11.365929 -1.645954 13.014732 -1.076666 1.697604 -0.003112 -0.001689 -1263600.000000 1 0 0
6.223386 -13.443129 5.267946 15.722579 -1.137232 1.229132 0.009743 -0.007924 -282588.000000 1 0 0
8.185686 -8.247829 -5.905154 13.034684 -0.789180 2.040962 -0.001793 -0.004282 720557.000000 1 0 0
-13.115214 -1.362729 -4.698354 13.997872 0.103533 1.913089 0.004390 -0.002058 -3925530.000000 1 0 0
-6.765314 -1.496929 -6.936954 9.804673 0.217757 2.356772 0.008754 -0.003763 -825896.000000 1 0 0
-5.757614 12.850771 -4.591354 14.811245 -1.149576 1.885980 0.004869 0.002939 738714.000000 1 0 0
-4.335214 6.954171 -6.771854 10.630738 -1.013350 2.261406 0.007379 -0.005379 -3370240.000000 1 0 0
-9.373614 -3.704029 -8.110554 12.936984 0.376323 2.248400 0.003857 0.000622 735767.000000 1 0 0
-2.203614 -6.377929 9.191146 11.402239 1.238130 0.633294 0.003341 -0.004186 -718267.000000 1 0 0
7.517186 -5.974529 9.978746 13.848410 -0.671552 0.766173 0.010851 -0.002215 -765034.000000 1 0 0
9.805186 -5.085429 12.317046 16.544270 -0.478454 0.731026 0.031333 -0.002566 -463936.000000 1 0 0
-6.572114 2.822171 -9.068954 11.550033 -0.405605 2.473797 0.003620 -0.007555 1002200.000000 1 0 0
7.452986 5.615871 8.862846 12.869928 0.645741 0.811174 0.001128 -0.003422 231230.000000 1 0 0
12.609786 3.315471 11.048346 17.089909 0.257109 0.867830 0.030262 -0.001454 5394.400000 1 0 0
-7.346014 -7.330929 -3.996954 11.121245 0.784370 1.938419 0.015757 -0.006010 -892296.000000 1 0 0
2.251386 1.451271 -5.800854 6.389431 0.572578 2.709002 0.007625 -0.004646 552766.000000 1 0 0
12.797886 6.938371 -7.134354 16.211905 0.496796 2.026472 0.018383 -0.003337 963204.000000 1 0 0
0.893686 -7.805929 0.993546 7.919491 -1.456805 1.445009 -0.001591 -0.000194 1272510.000000 1 0 0
-10.045214 -6.198329 -8.454854 14.519303 0.552857 2.192374 0.013008 0.001274 887362.000000 1 0 0
-6.767414 0.139971 3.087446 7.439745 -0.020680 1.142861 0.002414 -0.004827 1229900.000000 1 0 0
10.725386 -7.947329 1.330946 13.415117 -0.637705 1.471420 0.006595 -0.003481 371754.000000 1 0 0
6.310786 1.146471 10.577446 12.370237 0.179709 0.545106 0.006357 0.000755 -826196.000000 1 0 0
-12.930414 5.308771 1.854546 14.100284 -0.389581 1.438889 0.004023 -0.003220 -723263.000000 1 0 0
2.092886 7.392571 3.743946 8.546778 1.294909 1.117364 -0.000492 0.000180 -212806.000000 1 0 0
10.087986 -9.489529 -0.832654 13.874867 -0.754839 1.630844 0.004412 -0.003048 831373.000000 1 0 0
6.818686 -11.696729 -9.082054 16.303118 -1.043003 2.161655 -0.001677 -0.007770 -714162.000000 1 0 0
10.190686 3.528571 11.784046 15.973873 0.333334 0.741128 0.013563 0.000169 -1077610.000000 1 0 0
-11.082714 -3.087129 -1.967554 11.671683 0.271667 1.740180 0.002354 -0.002290 112682.000000 1 0 0
12.388886 1.054271 6.730046 14.138228 0.084894 1.074676 0.009940 -0.005880 410093.000000 1 0 0
-9.629614 9.070271 3.046346 13.574959 -0.755495 1.344460 0.002770 -0.003751 291791.000000 1 0 0
-6.626714 7.653871 -8.798554 13.413040 -0.857201 2.286264 0.009113 -0.007721 -785532.000000 1 0 0
8.414786 5.476771 12.003546 15.648922 0.576973 0.696562 0.008170 0.001275 -3267150.000000 1 0 0
1.256686 4.888271 -2.693354 5.720892 1.319164 2.060985 0.007289 -0.004449 685843.000000 1 0 0
1.456086 0.501771 9.450946 9.575612 0.331858 0.161539 0.005704 -0.002102 892742.000000 1 0 0
2.648986 12.493071 -3.968054 13.373085 1.361855 1.872052 0.011374 -0.005839 418460.000000 1 0 0
2.116186 0.647771 12.994746 13.181854 0.297046 0.168689 0.005954 -0.001523 -206255.000000 1 0 0
-12.194514 -1.747829 0.784246 12.344073 0.142360 1.507221 -0.002277 -0.003900 34247.300000 1 0 0
3.271386 8.714671 -1.151054 9.379359 1.211685 1.693829 0.009054 -0.002725 71140.800000 1 0 0
3.681786 -2.889729 -5.837854 7.482421 -0.665448 2.465797 -0.001649 -0.001691 -1412220.000000 1 0 0
-7.928714 -7.102129 9.370946 14.181656 0.730461 0.848940 0.014383 -0.004772 225313.000000 1 0 0
-7.116414 10.907971 -3.501254 13.486510 -0.992732 1.833416 0.004242 0.002430 146396.000000 1 0 0
0.334686 0.410371 2.482946 2.538787 0.886634 0.210125 0.004639 -0.001926 -2213920.000000 1 0 0
-7.099214 4.681771 -1.936254 8.721634 -0.583009 1.794668 0.004031 -0.003293 -993181.000000 1 0 0
-6.566314 -3.860129 -5.881554 9.623396 0.531451 2.228337 0.010593 -0.001754 428912.000000 1 0 0
2.847786 -6.195329 13.310146 14.954998 -1.139933 0.473422 0.012002 -0.007084 246255.000000 1 0 0
-5.536814 -0.537329 -11.713454 12.967268 0.096744 2.698218 0.009902 -0.005276 -703941.000000 1 0 0
11.937886 2.431371 -0.570954 12.196338 0.200920 1.617627 0.003139 -0.000639 -2157910.000000 1 0 0
6.110386 -10.956629 10.769846 16.534029 -1.062069 0.861402 0.000056 -0.000169 331823.000000 1 0 0
-8.200414 6.434971 -10.446354 14.757437 -0.665350 2.357275 0.008872 -0.006514 368020.000000 1 0 0
2.875586 7.907171 11.267946 14.062679 1.221997 0.641388 0.002211 -0.001372 816317.000000 1 0 0
-6.296714 -10.153529 -0.483354 11.957274 1.015692 1.611231 0.014460 -0.001457 96933.700000 1 0 0
11.329986 4.271671 6.072046 13.545682 0.360544 1.105974 0.006096 -0.003864 -156051.000000 1 0 0
-7.776614 10.535571 1.553246 13.186605 -0.934936 1.452733 0.004409 -0.001475 945266.000000 1 0 0
4.404086 -2.545629 -3.476054 6.161100 -0.524097 2.170253 0.002021 -0.001778 -5647720.000000 1 0 0
6.381286 6.530271 6.267746 11.074741 0.796937 0.969212 0.004625 -0.001185 -5980710.000000 1 0 0
-0.388914 10.312271 -10.110754 14.447198 -1.533100 2.345972 0.000156 -0.001190 2869.590000 1 0 0
14.163286 6.530571 -2.551054 15.803635 0.432039 1.732928 0.015751 0.002393 982875.000000 1 0 0
1.455786 9.540871 -6.298854 11.524890 1.419380 2.149028 0.006411 -0.001984 -288331.000000 1 0 0
0.679086 7.370271 7.275546 10.378614 1.478917 0.793979 -0.001872 0.002691 -73940.100000 1 0 0
12.321586 6.271571 1.890546 13.954506 0.470814 1.434899 0.010532 -0.002335 -848865.000000 1 0 0
-6.872114 6.809971 -3.183554 10.185120 -0.780856 1.888693 0.003304 -0.003516 598427.000000 1 0 0
1.077386 9.878771 11.103646 14.901068 1.462165 0.730025 0.004859 -0.001997 -1310690.000000 1 0 0
-3.518014 13.717371 -11.053054 17.964206 -1.319743 2.233540 0.009296 0.000996 304539.000000 1 0 0
-10.020914 -5.578229 -2.251854 11.687866 0.507941 1.764675 0.006371 -0.004430 -3033.250000 1 0 0
-4.047814 3.936671 -12.386954 13.613185 -0.771479 2.713895 0.009240 -0.011807 -331651.000000 1 0 0
-3.242414 8.504971 2.401646 9.413590 -1.206568 1.312819 0.002354 0.003089 -1247510.000000 1 0 0
7.044886 8.941371 7.053146 13.391243 0.903479 1.016084 0.005901 0.000270 -297189.000000 1 0 0
-1.409114 -2.305429 -8.136654 8.573549 1.022171 2.820977 0.003949 -0.006633 -1418850.000000 1 0 0
0.837086 -1.263429 4.958846 5.185279 -0.985649 0.296614 0.007214 -0.002687 -137141.000000 1 0 0
2.854486 -8.863029 -6.170154 11.170147 -1.259220 2.156012 -0.004397 -0.002043 332918.000000 1 0 0
5.378086 4.023871 8.734046 11.018117 0.642347 0.655573 0.000710 -0.001341 32603.600000 1 0 0
6.116586 -7.469529 -2.874054 10.073067 -0.884654 1.860137 -0.004503 -0.002439 731479.000000 1 0 0
1.902986 2.310671 -8.226054 8.753772 0.881851 2.792593 0.004983 -0.007261 104525.000000 1 0 0
-5.439114 11.034571 -0.639654 12.318883 -1.112832 1.622744 0.003144 0.001882 481835.000000 1 0 0
-5.424514 3.488571 -3.355754 7.270252 -0.571518 2.050564 0.004081 -0.003968 -563115.000000 1 0 0
2.061586 13.794771 -6.244854 15.282148 1.422447 1.991757 -0.001020 -0.001066 321080.000000 1 0 0
-5.300314 -2.620529 2.661346 6.484078 0.459166 1.147856 0.001415 -0.003580 772145.000000 1 0 0
10.477186 -3.295429 -1.822854 11.133466 -0.304737 1.735264 0.001753 -0.000637 -105938.000000 1 0 0
2.353986 -3.199029 7.111846 8.145759 -0.936417 0.509326 0.003029 -0.003633 -931955.000000 1 0 0
-2.847214 9.857971 -11.615054 15.498248 -1.289624 2.418017 0.001882 -0.002092 -3010240.000000 1 0 0
0.337186 -1.958129 9.188446 9.400825 -1.400271 0.212965 0.004937 -0.003984 476909.000000 1 0 0
9.478586 2.607771 5.067846 11.060159 0.268480 1.094819 0.004792 -0.002056 -205081.000000 1 0 0
13.513186 2.077971 -5.131054 14.603146 0.152578 1.929826 0.017824 0.000868 -312453.000000 1 0 0
-6.460514 3.747771 7.623946 10.672796 -0.525662 0.775124 0.000765 -0.000694 -638937.000000 1 0 0
10.629986 0.185871 1.835046 10.788815 0.017484 1.399878 0.002622 -0.000663 2061390.000000 1 0 0
15.584686 6.604571 -4.732054 17.575412 0.400842 1.843403 0.038345 -0.001633 1196760.000000 1 0 0
8.020986 -4.778929 -9.196654 13.105450 -0.537328 2.348637 0.005749 -0.003762 96334.800000 1 0 0
4.468286 5.676471 -2.074754 7.516150 0.903934 1.850467 0.006862 -0.003571 348816.000000 1 0 0
-1.476314 -10.464929 1.521346 10.677487 1.430649 1.427828 0.008029 -0.001304 -707556.000000 1 0 0
-2.734614 12.232171 -12.801454 17.915952 -1.350854 2.366746 0.006357 -0.004777 -253993.000000 1 0 0
8.345086 4.239371 -9.577154 13.391587 0.470034 2.367652 0.004930 -0.002162 -2343860.000000 1 0 0
4.103186 7.562071 -8.922454 12.394807 1.073652 2.374389 0.003448 -0.003657 -1806640.000000 1 0 0
-1.699214 -5.047129 -2.344154 5.818582 1.246046 1.985451 0.005862 -0.002668 -374204.000000 1 0 0
-3.250514 -9.239529 6.958746 12.014944 1.232514 0.953081 0.006655 -0.002705 -2277450.000000 1 0 0
1.069686 7.257371 -1.345554 7.458162 1.424457 1.752203 0.007254 -0.002941 682537.000000 1 0 0
0.361886 -0.994729 -2.173454 2.417509 -1.221878 2.688384 0.007802 -0.001667 -1024380.000000 1 0 0
4.131386 -6.728129 7.530046 10.910438 -1.020112 0.809074 0.002809 -0.002898 369635.000000 1 0 0
-13.973214 3.801571 6.034046 15.687969 -0.265632 1.175991 0.001637 -0.000904 -972631.000000 1 0 0
4.306286 6.393771 12.560446 14.737340 0.978069 0.550454 0.004269 -0.001547 -2460810.000000 1 0 0
8.217786 10.019671 -7.159354 14.804802 0.883880 2.075540 0.016540 -0.010002 -417723.000000 1 0 0
12.497786 5.351171 9.516446 16.594952 0.404552 0.960080 0.038389 -0.006133 -338181.000000 1 0 0
7.601686 3.960971 0.434446 8.582754 0.480357 1.520156 0.008098 0.000186 -1451020.000000 1 0 0
-10.795814 -7.658529 -1.010454 13.274927 0.617006 1.646988 0.010133 -0.003108 -1410840.000000 1 0 0
10.444186 6.749571 0.134046 12.436064 0.573736 1.560017 0.007476 -0.002716 -756899.000000 1 0 0
14.552386 3.664171 4.173346 15.576100 0.246664 1.299550 0.024972 -0.006700 1089690.000000 1 0 0
2.214286 5.633971 8.241446 10.225758 1.196318 0.633518 -0.002444 0.001450 366489.000000 1 0 0
4.195586 0.110471 11.669546 12.401349 0.026324 0.345252 0.007537 0.000189 -1865830.000000 1 0 0
-1.611114 -1.484229 -0.423954 2.231224 0.744429 1.761968 0.009210 -0.006308 -683714.000000 1 0 0
2.986986 -5.288729 -9.567454 11.332648 -1.056674 2.575938 -0.005665 -0.001882 198567.000000 1 0 0
-3.934614 -5.347929 -1.211754 6.749065 0.936493 1.751319 0.009010 -0.005275 -1066070.000000 1 0 0
-1.330314 -8.762329 8.714146 12.429179 1.420125 0.793852 0.004678 -0.005073 59495.900000 1 0 0
3.901086 8.531171 -6.013654 11.142862 1.141910 2.140861 0.008737 -0.002579 509369.000000 1 0 0
-14.145514 -1.824929 -2.585054 14.495118 0.128302 1.750095 0.002021 -0.006519 -840525.000000 1 0 0
8.869586 -10.505629 -6.547854 15.228663 -0.869638 2.015255 -0.003439 -0.006969 538573.000000 1 0 0
14.916586 6.120771 1.602446 16.202969 0.389382 1.471736 0.015570 -0.002226 -842360.000000 1 0 0
-5.968414 0.434471 -8.461554 10.363814 -0.072667 2.526035 0.008431 -0.008124 -1018000.000000 1 0 0
-7.979114 -4.591829 -12.947754 15.886960 0.522196 2.523513 0.003442 0.000057 613363.000000 1 0 0
1.053886 -10.677429 12.017846 16.110456 -1.472413 0.728813 0.003048 -0.008240 -73333.000000 1 0 0
0.283686 11.667271 3.362246 12.145385 1.546486 1.290299 0.005069 -0.001027 -225194.000000 1 0 0
5.264286 -13.320829 -3.718654 14.798161 -1.194442 1.824811 0.003668 -0.001684 284787.000000 1 0 0
-7.571614 1.601471 -7.003054 10.437280 -0.208438 2.306306 0.002006 -0.003860 846282.000000 1 0 0
1.469686 2.787071 4.039146 5.122738 1.085530 0.662472 0.001502 -0.001484 -1481780.000000 1 0 0
17.305786 5.549671 2.101846 18.294994 0.310322 1.455656 0.026326 -0.001124 -695558.000000 1 0 0
2.435686 -8.170829 -3.602754 9.256071 -1.281088 1.970593 -0.004748 -0.000185 646486.000000 1 0 0
-0.430014 -9.216029 -0.658054 9.249494 1.524171 1.642001 0.007247 -0.000588 -1578390.000000 1 0 0
0.823786 11.829971 -5.569754 13.101488 1.501273 2.009895 0.008033 -0.000661 -900251.000000 1 0 0
6.056786 -5.049229 7.842646 11.121442 -0.694924 0.788116 0.004111 -0.003321 -1022950.000000 1 0 0
-6.123314 -1.857129 -9.377554 11.352640 0.294471 2.542813 0.007240 -0.004529 -335069.000000 1 0 0
2.003586 -1.295129 11.195746 11.447115 -0.573844 0.209952 0.006548 -0.000086 361537.000000 1 0 0
18.058686 2.273071 -5.841154 19.115493 0.125213 1.881335 0.044900 0.002925 -250432.000000 1 0 0
-8.851214 4.739671 7.740046 12.677412 -0.491629 0.914056 -0.001944 -0.005523 -484171.000000 1 0 0
11.354886 -7.132529 -4.865154 14.264506 -0.560859 1.918848 0.012796 -0.007928 257175.000000 1 0 0
10.898186 0.620471 8.938446 14.108552 0.056872 0.884666 0.006945 -0.002489 103265.000000 1 0 0
-8.361214 -7.361529 -1.596954 11.253989 0.721902 1.713178 0.014078 -0.004328 -938085.000000 1 0 0
10.297986 -10.463529 -3.282154 15.043487 -0.793372 1.790743 0.012150 -0.005346 658479.000000 1 0 0
7.757186 -13.816529 -3.772154 16.288019 -1.059211 1.804509 0.010290 -0.006931 -1707070.000000 1 0 0
1.708086 -1.126729 -11.547454 11.727351 -0.583125 2.966211 0.003087 -0.005892 -97083.900000 1 0 0
-11.919314 -2.579729 -6.394154 13.769904 0.213145 2.053705 0.008515 -0.002906 -374252.000000 1 0 0
2.819486 -12.052229 -6.413554 13.940567 -1.340990 2.048864 -0.001453 -0.002833 92085.800000 1 0 0
-5.600014 1.443171 1.141046 5.894479 -0.252220 1.375988 0.004706 -0.004135 567998.000000 1 0 0
0.044986 6.855571 -3.926754 7.900650 1.564235 2.090954 0.009293 -0.004736 1192930.000000 1 0 0
5.397686 -11.742029 3.621246 13.421016 -1.139914 1.297591 -0.002446 -0.005540 -3048840.000000 1 0 0
-4.417514 -9.254829 1.029746 10.306632 1.125457 1.470718 0.012308 -0.001335 -191408.000000 1 0 0
7.124586 -6.207429 -4.676954 10.543519 -0.716713 2.030392 -0.001631 -0.003238 -550650.000000 1 0 0
-7.053014 -5.999129 2.206546 9.518582 0.704829 1.336854 0.006148 -0.002619 606446.000000 1 0 0
-6.293014 -0.749529 7.088146 9.508188 0.118546 0.729544 0.001499 -0.003600 -1336730.000000 1 0 0
4.127986 -4.948829 3.221646 7.204872 -0.875586 1.107222 -0.001022 -0.001225 -568715.000000 1 0 0
-2.547414 10.558371 -8.850754 14.010866 -1.334051 2.254549 0.001593 0.000346 -436222.000000 1 0 0
-2.200714 -4.889229 2.849346 6.071777 1.147847 1.082324 0.006225 -0.004120 1439270.000000 1 0 0
15.294586 5.180871 6.232146 17.309114 0.326608 1.202475 0.051045 -0.014049 780290.000000 1 0 0
6.854086 0.379071 0.092846 6.865188 0.055250 1.557272 0.006477 -0.001160 4487880.000000 1 0 0
-9.707414 9.204871 0.385946 13.383292 -0.758832 1.541954 0.000902 -0.003669 -1364630.000000 1 0 0
7.277986 10.437071 -2.530754 12.973290 0.961871 1.767129 0.005302 -0.002557 215065.000000 1 0 0
1.612886 -4.303629 -5.426154 7.110961 -1.212224 2.438845 -0.002228 -0.001671 -447435.000000 1 0 0
0.966986 -8.205429 -7.897354 11.429450 -1.453490 2.333620 -0.007191 0.000176 -126391.000000 1 0 0
-10.494214 0.279071 -10.547854 14.881654 -0.026587 2.358567 0.004177 -0.002366 -5495760.000000 1 0 0
5.742986 -2.429129 0.494246 6.255144 -0.400153 1.491700 0.002608 -0.000704 231651.000000 1 0 0
-3.414114 5.180971 -1.283054 6.335997 -0.988140 1.774709 0.003402 -0.004987 577898.000000 1 0 0
-0.361014 4.557071 -5.176354 6.905930 -1.491741 2.418181 0.008455 -0.006442 -1458230.000000 1 0 0
4.036786 -9.785429 10.098146 14.629519 -1.179535 0.808950 -0.000441 -0.000126 -819288.000000 1 0 0
7.375786 -13.561429 -0.797054 15.458003 -1.072664 1.622382 0.010710 -0.004469 433592.000000 1 0 0
13.048886 -0.060829 0.476346 13.057719 -0.004662 1.534308 0.004075 -0.002243 228205.000000 1 0 0
9.439786 2.479271 -0.633454 9.780470 0.256840 1.635609 0.006848 -0.001922 -857701.000000 1 0 0
-0.703514 -5.716229 4.588046 7.363448 1.448339 0.898117 0.003856 -0.001049 533536.000000 1 0 0
11.481186 -3.732029 3.280446 12.510275 -0.314283 1.305474 0.007291 -0.004211 -2044340.000000 1 0 0
1.594086 -8.184029 11.741746 14.400974 -1.378425 0.617473 0.004083 -0.002226 252284.000000 1 0 0
9.300486 -5.891329 -5.945154 12.512060 -0.564648 2.065935 -0.000224 -0.006711 -1812230.000000 1 0 0
3.131086 6.248171 -0.128154 6.989976 1.106253 1.589131 0.003445 -0.001452 -2023470.000000 1 0 0
6.374186 -1.342729 11.347746 13.084514 -0.207616 0.521113 0.011920 -0.000434 513914.000000 1 0 0
-4.734014 -7.647929 -3.802554 9.765302 1.016528 1.970770 0.013861 -0.005654 154882.000000 1 0 0
-3.425014 -8.684829 -5.849554 11.016999 1.195155 2.130526 0.009863 -0.006782 -1297700.000000 1 0 0
9.788186 5.373571 2.206746 11.382160 0.502064 1.375683 0.007592 -0.003430 373801.000000 1 0 0
8.864286 -1.411529 0.381446 8.984068 -0.157912 1.528326 0.003492 0.000224 979518.000000 1 0 0
-4.023914 9.572471 9.185246 13.863363 -1.172860 0.846571 0.002957 -0.003037 259537.000000 1 0 0
-14.335114 -3.640229 -6.118754 16.005809 0.248681 1.963062 0.017045 -0.004384 -737201.000000 1 0 0
10.650086 6.381571 -5.940554 13.763682 0.539834 2.017074 0.007395 -0.006515 -573622.000000 1 0 0
-1.925014 4.580771 2.554946 5.587208 -1.172966 1.095857 0.006027 0.000482 689646.000000 1 0 0
7.112186 -3.632129 2.436746 8.349448 -0.472164 1.274641 0.002555 -0.003853 -2109500.000000 1 0 0
8.376686 -11.201829 -1.589354 14.077496 -0.928707 1.683938 0.008512 -0.004340 -3070400.000000 1 0 0
4.516786 0.502671 1.790546 4.884679 0.110833 1.195483 0.005831 -0.000368 490062.000000 1 0 0
-10.881214 2.341671 3.772746 11.752355 -0.211970 1.243990 -0.003919 -0.003454 7441.090000 1 0 0
-0.807514 -3.003729 4.506746 5.475877 1.308169 0.604092 0.007014 -0.002579 531296.000000 1 0 0
8.647686 -8.669529 -8.499254 14.905721 -0.786660 2.177547 0.005350 -0.006771 -775435.000000 1 0 0
12.179786 -4.736129 1.009646 13.107154 -0.370859 1.493690 0.003287 -0.001690 -279725.000000 1 0 0
2.922686 4.848771 3.581546 6.699264 1.028344 1.006741 -0.000395 -0.001316 -707135.000000 1 0 0
6.129786 7.486571 1.993346 9.879091 0.884714 1.367627 0.007136 -0.004194 -272920.000000 1 0 0
-1.742414 -1.271429 -10.284854 10.508604 0.630378 2.934865 0.007215 -0.005957 841059.000000 1 0 0
-0.937014 -8.456529 6.139346 10.492018 1.460443 0.945738 0.002283 -0.002841 501042.000000 1 0 0
-4.292914 -0.276629 2.312346 4.883910 0.064350 1.077579 0.005620 -0.003028 -146771.000000 1 0 0
-8.403414 6.138671 -7.891854 13.060705 -0.630902 2.219613 0.002117 -0.005414 -1003210.000000 1 0 0
6.431186 11.139471 -9.428654 15.948275 1.047210 2.203345 0.015135 -0.010827 62888.300000 1 0 0
-11.103514 -5.786729 3.099546 12.898893 0.480433 1.328126 0.000699 -0.002711 815810.000000 1 0 0
1.629186 -6.261829 3.069746 7.161570 -1.316262 1.127808 -0.002144 -0.003159 318421.000000 1 0 0
10.139186 2.300271 7.296146 12.701499 0.223093 0.958886 0.006248 -0.001389 -1928960.000000 1 0 0
-4.106514 -2.406329 -10.496954 11.525620 0.530046 2.715892 0.006289 -0.002533 -1389610.000000 1 0 0
-8.293014 11.775771 6.022146 15.611185 -0.957228 1.174767 0.010956 -0.006126 282199.000000 1 0 0
6.911886 6.025671 -2.894354 9.615621 0.717006 1.876543 0.008466 -0.001920 -2239630.000000 1 0 0
3.964686 -9.836829 -2.342254 10.861312 -1.187668 1.788155 -0.007423 -0.001857 -1261920.000000 1 0 0
8.503186 -12.854829 -7.374854 17.086230 -0.986395 2.017090 0.008377 -0.010401 707787.000000 1 0 0
-1.129814 9.463671 3.579346 10.180828 -1.451974 1.211541 0.001664 0.002367 -299050.000000 1 0 0
0.575486 -13.220829 4.711246 14.046969 -1.527295 1.228775 0.006378 -0.005845 -873097.000000 1 0 0
-11.254214 -7.069229 -5.072554 14.225405 0.560855 1.935405 0.013620 -0.004876 46508.200000 1 0 0
3.622686 10.255171 -3.314354 11.370019 1.231225 1.866590 0.012451 -0.003747 -708810.000000 1 0 0
11.599786 -8.128129 -7.402154 15.981658 -0.611205 2.052360 0.028585 -0.012992 177892.000000 1 0 0
11.649386 -4.840729 -5.887854 13.921482 -0.393827 2.007476 0.018172 -0.007686 -809940.000000 1 0 0
1.370286 -10.294929 -2.681254 10.726247 -1.438471 1.823447 -0.001565 -0.000493 -873124.000000 1 0 0
2.552486 -12.017629 -3.906054 12.891697 -1.361511 1.878625 -0.002907 -0.000515 -1277910.000000 1 0 0
-7.690414 -5.681429 7.266346 12.009200 0.636274 0.920949 0.005061 -0.000337 -2537790.000000 1 0 0
-7.332914 -0.942329 9.547646 12.075478 0.127806 0.658903 0.000441 -0.003781 160349.000000 1 0 0
16.126486 2.686071 -7.516454 17.993766 0.165048 2.001737 0.039712 0.001153 -316845.000000 1 0 0
-2.109514 6.275471 -5.538154 8.631497 -1.246511 2.267407 0.006453 -0.004453 249928.000000 1 0 0
7.705486 1.163771 8.349846 11.421418 0.149899 0.750909 0.007769 -0.001242 -827136.000000 1 0 0
7.951086 8.244071 -3.661254 12.024527 0.803487 1.880191 0.006916 -0.000994 -230256.000000 1 0 0
8.010086 0.580371 4.082646 9.009234 0.072329 1.100487 0.003332 -0.000979 500220.000000 1 0 0
-6.976014 5.785271 5.392546 10.545790 -0.692359 1.034046 0.003976 -0.004853 125860.000000 1 0 0
-6.101214 -2.028229 -4.490254 7.842252 0.320938 2.180436 0.006474 -0.004609 -1862910.000000 1 0 0
-15.093914 -2.112829 3.151746 15.563541 0.139075 1.366878 0.009387 -0.006062 114407.000000 1 0 0
1.089886 1.304471 -10.426954 10.564604 0.874781 2.979990 0.006527 -0.007964 731372.000000 1 0 0
1.546986 -9.265229 9.336846 13.244407 -1.405356 0.788422 0.001750 -0.002906 -963308.000000 1 0 0
-0.004814 -6.582729 -1.099754 6.673965 1.570065 1.736334 0.002636 -0.000089 474513.000000 1 0 0
-0.350714 -10.295529 -8.433754 13.313494 1.536745 2.256831 -0.002736 -0.001798 -743451.000000 1 0 0
-4.420714 6.453471 3.717046 8.660625 -0.970199 1.127202 0.002802 0.002244 19339.000000 1 0 0
10.837086 -1.235829 -8.547554 13.857503 -0.113547 2.235490 0.019516 -0.002411 1361240.000000 1 0 0
3.182086 -0.934729 6.246646 7.072480 -0.285711 0.488084 0.002970 -0.002170 1152880.000000 1 0 0
1.955586 -12.257329 6.772646 14.139843 -1.412586 1.071308 0.003769 -0.003873 -304822.000000 1 0 0
2.961086 -4.989229 -1.355954 5.958108 -1.035173 1.800389 0.002142 -0.000378 -785005.000000 1 0 0
-1.189414 9.596971 -1.703754 9.819335 -1.447489 1.745189 0.005264 -0.002767 581614.000000 1 0 0
4.599386 -2.560029 2.735846 5.932365 -0.507898 1.091480 0.004004 0.000469 -1956590.000000 1 0 0
17.758586 6.761471 -2.673754 19.189419 0.363797 1.710586 0.021739 0.010509 -269805.000000 1 0 0
-7.122214 3.455571 -5.485954 9.631334 -0.451723 2.176809 0.004287 -0.005463 50195.400000 1 0 0
-13.716214 -5.977629 2.274446 15.134057 0.410989 1.419938 -0.005418 -0.004590 -572472.000000 1 0 0
6.676986 -6.016029 3.314646 9.579229 -0.733373 1.217466 0.000549 -0.002202 92407.000000 1 0 0
-4.728414 1.960271 3.542046 6.224681 -0.393005 0.965467 0.005313 -0.003130 473153.000000 1 0 0
6.948786 -12.075629 -5.453054 14.961358 -1.048632 1.943866 0.002253 -0.004779 884545.000000 1 0 0
2.855686 -12.218229 3.056046 12.914313 -1.341195 1.331890 0.003227 -0.003064 367234.000000 1 0 0
3.341086 11.357471 -6.162754 13.346705 1.284692 2.050756 0.008245 0.000094 -733702.000000 1 0 0
-5.615114 -8.364829 6.515346 11.997900 0.979609 0.996743 0.007700 -0.001843 -28077.200000 1 0 0
-3.905014 6.509871 6.322746 9.879508 -1.030479 0.876316 0.004450 0.000779 470870.000000 1 0 0
4.322286 4.391371 -6.872154 9.229994 0.793326 2.410651 0.001781 -0.000794 -2696950.000000 1 0 0
-0.257414 -2.654029 1.668246 3.145342 1.474109 1.011740 0.005167 -0.004822 2035750.000000 1 0 0
-13.251514 -0.971129 6.580946 14.827494 0.073154 1.110924 0.008549 -0.004385 157803.000000 1 0 0
-0.423314 -9.302129 -5.969454 11.060885 1.525320 2.140866 -0.000670 -0.001512 333556.000000 1 0 0
2.111886 -1.758429 -3.900254 4.771176 -0.694326 2.527787 0.001706 -0.000871 -1048740.000000 1 0 0
11.351886 -1.872429 1.072046 11.555111 -0.163472 1.477886 0.002931 -0.002907 968549.000000 1 0 0
0.624786 -4.097229 -2.036354 4.617833 -1.419472 2.027482 0.003022 -0.000475 -1297480.000000 1 0 0
1.090086 -7.347829 -11.279354 13.505655 -1.423516 2.559216 -0.010150 0.000378 -979762.000000 1 0 0
-4.488814 4.079971 -9.945254 11.649193 -0.737721 2.593901 0.008020 -0.009905 343203.000000 1 0 0
-1.068914 5.819271 -2.074754 6.269856 -1.389136 1.908063 0.005829 -0.004439 -2118670.000000 1 0 0
-11.366014 1.731971 -3.794054 12.107058 -0.151218 1.889542 0.001674 -0.000977 -44306.200000 1 0 0
-1.587514 -11.162229 4.180146 12.024524 1.429522 1.215749 0.013429 -0.001047 -228393.000000 1 0 0
-3.587114 -5.466429 -9.733654 11.725752 0.990069 2.550100 -0.000803 0.001565 -2842550.000000 1 0 0
-12.906314 -3.686829 -8.363454 15.814962 0.278250 2.128020 0.017744 -0.002016 31254.600000 1 0 0
11.414286 4.423771 0.511946 12.252255 0.369740 1.529000 0.008015 -0.000411 48588.300000 1 0 0
-8.856514 -2.398429 -2.965154 9.642741 0.264466 1.883362 0.006342 -0.004203 -117996.000000 1 0 0
-2.564514 -6.229029 -6.280854 9.210139 1.180241 2.321222 0.001781 -0.002425 -11323.100000 1 0 0
-0.065314 2.747371 -1.972054 3.382501 -1.547027 2.193233 0.006425 -0.005172 -1332450.000000 1 0 0
8.087086 5.942771 -5.115954 11.264567 0.633732 2.042229 0.007122 -0.003414 -730988.000000 1 0 0
-9.841614 -0.929329 -0.889954 9.925374 0.094149 1.660581 0.000191 -0.002828 -953921.000000 1 0 0
6.196486 0.536871 -8.868454 10.832089 0.086425 2.529976 0.001398 -0.002770 578912.000000 1 0 0
-4.159114 2.471971 7.848346 9.219838 -0.536255 0.552442 0.000045 -0.000017 -325540.000000 1 0 0
-10.195714 -3.371529 1.427846 10.833215 0.319362 1.438609 -0.000655 -0.003731 978441.000000 1 0 0
-1.767714 -8.205429 -7.847854 11.490983 1.358607 2.322600 -0.002940 -0.001891 98561.600000 1 0 0
-9.377414 -9.809329 4.203346 14.206581 0.807905 1.270427 0.005037 -0.000272 -204606.000000 1 0 0
-1.023214 -10.663729 7.357046 12.995700 1.475136 0.969012 0.006726 -0.004353 -307945.000000 1 0 0
9.521486 3.803971 -3.727254 10.909689 0.380088 1.919464 0.006418 -0.000931 -760225.000000 1 0 0
12.837086 -0.833729 3.045446 13.219706 -0.064856 1.338337 0.004496 -0.002002 -239173.000000 1 0 0
6.481986 11.848571 -6.848054 15.142675 1.070206 2.040066 0.002948 -0.005795 1343050.000000 1 0 0
-11.786814 0.011571 -6.460854 13.441420 -0.000982 2.072212 0.005268 -0.000578 747486.000000 1 0 0
-7.600614 -6.660029 -11.350554 15.197381 0.719537 2.414147 0.010264 -0.002013 -1198590.000000 1 0 0
4.103586 6.074971 6.575946 9.848236 0.976710 0.839643 -0.000233 0.000804 -2821110.000000 1 0 0
-4.311514 -1.267429 -7.410354 8.666538 0.285910 2.596450 0.008049 -0.008799 -673169.000000 1 0 0
9.625286 9.161171 0.898146 13.318402 0.760698 1.503309 0.013798 -0.004251 -2267420.000000 1 0 0
-8.984214 3.913471 4.888646 10.951266 -0.410810 1.108058 -0.002023 -0.003823 986155.000000 1 0 0
-7.004114 7.892771 -12.128154 16.076242 -0.844981 2.425558 0.007234 -0.006582 63705.900000 1 0 0
11.222986 -3.570129 7.302346 13.857326 -0.307986 1.015769 0.012308 -0.006069 -95104.800000 1 0 0
11.849486 6.971071 6.359046 15.147396 0.531773 1.137559 0.016891 -0.007025 304639.000000 1 0 0
-10.006714 -0.882229 -14.821954 17.905390 0.087936 2.545958 0.006790 0.004230 745724.000000 1 0 0
1.984586 -13.114729 11.895546 17.816810 -1.420611 0.839737 0.007093 -0.009001 -176990.000000 1 0 0
2.836586 3.129471 13.037946 13.705030 0.834451 0.313287 -0.000793 -0.001116 -1143500.000000 1 0 0
-2.659114 -1.363529 11.079046 11.474988 0.473816 0.263458 0.006932 -0.001389 -537068.000000 1 0 0
2.558686 -10.089529 -8.334754 13.334676 -1.322434 2.245984 -0.009170 -0.000646 -1009460.000000 1 0 0
13.888586 3.671671 -7.552654 16.230113 0.258453 2.054824 0.020139 0.004768 -2754730.000000 1 0 0
7.375586 -1.633229 4.972546 9.043944 -0.217921 0.988647 0.003170 -0.001366 425615.000000 1 0 0
-1.113914 8.698471 10.047746 13.336469 -1.443431 0.717573 0.003636 -0.001294 -62742.600000 1 0 0
-12.167614 -4.696429 0.873046 13.071706 0.368360 1.503958 -0.001886 -0.003892 -452602.000000 1 0 0
-4.941914 4.856971 -5.305454 8.727000 -0.776730 2.224254 0.008425 -0.006711 -266431.000000 1 0 0
-11.274614 0.387171 1.959346 11.450147 -0.034327 1.398830 -0.002690 -0.001671 -2695170.000000 1 0 0
-1.250814 2.237871 -4.187654 4.910097 -1.061123 2.592246 0.007989 -0.008150 484436.000000 1 0 0
3.235886 -9.748929 13.078846 16.630357 -1.250316 0.665766 0.004188 -0.005518 -1067330.000000 1 0 0
8.966986 4.761871 -1.423554 10.252256 0.488174 1.710099 0.009279 -0.003338 -1027840.000000 1 0 0
4.010286 2.323971 3.734546 5.952316 0.525212 0.892573 0.000165 0.000028 -288198.000000 1 0 0
-5.588814 -3.272729 7.342146 9.790440 0.529753 0.722840 0.002782 -0.003845 156419.000000 1 0 0
1.741486 -5.757129 7.729346 9.793881 -1.277055 0.661289 0.000180 -0.003408 -869846.000000 1 0 0
-5.761714 -6.247329 -9.778254 12.955336 0.825814 2.426094 0.008039 -0.001846 -678538.000000 1 0 0
-11.738014 -5.733929 5.507646 14.177203 0.454399 1.171808 0.010312 -0.004096 -2197930.000000 1 0 0
10.593586 6.168971 4.499246 13.058464 0.527326 1.219041 0.006895 -0.003036 -83184.900000 1 0 0
1.586386 -3.712929 0.414146 4.058815 -1.167013 1.468582 0.005166 -0.001745 -710231.000000 1 0 0
8.806286 4.449871 6.873346 12.024762 0.467884 0.962343 0.005461 -0.000745 212113.000000 1 0 0
-7.943814 12.156871 3.504246 14.938990 -0.992005 1.334020 0.009394 -0.003395 -171540.000000 1 0 0
-6.079014 13.212571 -6.996854 16.139468 -1.139581 2.019197 0.010719 -0.006486 253549.000000 1 0 0
4.505286 -6.986329 -0.881754 8.359658 -0.998035 1.676470 -0.001281 -0.000916 -1394970.000000 1 0 0
-1.869414 -8.092329 11.202346 13.945360 1.343768 0.637976 0.002350 -0.007097 -175745.000000 1 0 0
11.603986 8.880371 -5.756754 15.705212 0.653213 1.946095 0.022637 -0.010862 847419.000000 1 0 0
-3.348014 -2.961729 -1.867854 4.844576 0.724254 1.966606 0.009819 -0.005212 -2325260.000000 1 0 0
-2.037914 5.839371 4.737646 7.790805 -1.235017 0.917122 0.000942 0.000227 396835.000000 1 0 0
0.509586 -11.372629 -5.613754 12.692935 -1.526018 2.028929 -0.000890 -0.003348 310371.000000 1 0 0
-8.972914 6.306671 -1.518054 11.072117 -0.612640 1.708336 0.000884 -0.002921 -361800.000000 1 0 0
2.881286 -0.044729 3.863946 4.820154 -0.015523 0.640791 0.003002 -0.001241 -176050.000000 1 0 0
-10.065714 3.932271 -1.071854 10.859569 -0.372429 1.669659 0.004864 -0.002592 -316869.000000 1 0 0
6.516086 5.503871 13.664746 16.108297 0.701385 0.558021 0.011530 0.002969 -1159230.000000 1 0 0
-8.775214 -1.690929 5.715046 10.607798 0.190361 1.001833 -0.002033 -0.004513 -527182.000000 1 0 0
12.996986 -1.795129 -1.530354 13.209319 -0.137251 1.686911 0.009645 -0.003518 -1200340.000000 1 0 0
5.228986 -5.472029 5.424146 9.311646 -0.808106 0.948981 0.000413 -0.003797 -115152.000000 1 0 0
-9.088814 -1.256329 3.123646 9.692372 0.137358 1.242661 -0.004529 -0.004003 63523.000000 1 0 0
1.892086 5.366771 5.595246 7.980539 1.231847 0.793841 0.002338 -0.000588 -404868.000000 1 0 0
9.301086 3.054271 -7.425354 12.287174 0.317284 2.219705 0.006177 -0.000289 -869972.000000 1 0 0
2.421486 -2.348929 -1.564854 3.718848 -0.770190 2.005112 0.004023 -0.001883 -331738.000000 1 0 0
-6.232814 0.478671 -3.968654 7.404547 -0.076648 2.136459 0.004514 -0.002452 -2154270.000000 1 0 0
-4.076514 4.156371 5.011746 7.681861 -0.795098 0.860032 0.004053 -0.000137 1178710.000000 1 0 0
-6.500914 1.811871 -12.338254 14.063331 -0.271812 2.641077 0.005599 -0.006061 -2237770.000000 1 0 0
-0.164014 3.114371 6.198346 6.938710 -1.518181 0.466163 0.002821 -0.000372 1166440.000000 1 0 0
-8.858214 9.405771 -2.211354 13.108264 -0.815369 1.740306 0.000599 -0.001653 -156492.000000 1 0 0
-1.390614 -3.800529 -6.115054 7.332920 1.220027 2.556966 0.001767 -0.002775 229797.000000 1 0 0
-3.288214 7.033171 -3.020754 8.330834 -1.133461 1.941852 0.003794 -0.001003 1546510.000000 1 0 0
7.106886 -0.379529 -4.324454 8.327831 -0.053352 2.116801 0.003035 -0.000736 -145085.000000 1 0 0
-5.183114 -10.921629 6.911146 13.925178 1.127696 1.051458 0.007846 -0.003134 -56685.300000 1 0 0
9.730286 8.391371 -1.469954 12.932685 0.711647 1.684704 0.009803 -0.000624 -683151.000000 1 0 0
13.784286 4.652271 -4.409854 15.201874 0.325501 1.865113 0.013299 -0.004231 790454.000000 1 0 0
4.684186 1.109771 -6.849654 8.372034 0.232629 2.528998 0.001129 -0.003402 932834.000000 1 0 0
9.032386 -4.761729 3.557746 10.812752 -0.485158 1.235518 0.003598 -0.003402 -730244.000000 1 0 0
-8.747114 -3.291129 -0.689054 9.371144 0.359869 1.644392 0.001511 -0.003286 921476.000000 1 0 0
-8.563414 -4.251129 -10.427254 14.146794 0.460787 2.399529 0.001837 -0.001751 -246942.000000 1 0 0
10.529686 -1.150129 10.628346 15.005293 -0.108796 0.783700 0.018357 -0.000050 966256.000000 1 0 0
2.217986 -11.595829 9.807746 15.348439 -1.381805 0.877591 0.000294 -0.006823 597940.000000 1 0 0
-6.395314 -10.605829 1.983846 12.542699 1.028174 1.411962 0.011399 0.000096 -812373.000000 1 0 0
-3.803014 -1.367929 6.657346 7.788094 0.345286 0.545610 0.009052 -0.003887 -857779.000000 1 0 0
4.800086 -7.515429 3.856346 9.715652 -1.002408 1.162637 -0.004108 -0.000571 101963.000000 1 0 0
11.542186 -9.593029 -5.347054 15.932333 -0.693435 1.913049 0.017810 -0.009279 467867.000000 1 0 0
11.329886 1.172171 11.532546 16.209254 0.103092 0.779195 0.012826 0.005171 244721.000000 1 0 0
-10.258814 -3.451829 4.409046 11.687518 0.324575 1.183978 0.005404 -0.001992 1372810.000000 1 0 0
1.984486 8.756971 9.001146 12.713904 1.347943 0.784167 -0.002115 0.000686 -66210.300000 1 0 0
6.482486 8.783271 4.235746 11.709398 0.934988 1.200664 0.008479 -0.003156 1105870.000000 1 0 0
-4.223614 3.430271 0.402546 5.455980 -0.682115 1.496949 0.005726 -0.003783 -1256450.000000 1 0 0
4.848186 6.895471 4.213246 9.423580 0.957995 1.107280 0.006145 -0.002698 -1892660.000000 1 0 0
-8.367914 13.055771 1.126746 15.548141 -1.000819 1.498265 0.010338 -0.004929 -177124.000000 1 0 0
8.841786 8.019671 -9.102454 15.011561 0.736680 2.222275 0.016743 -0.010777 -1267500.000000 1 0 0
7.109986 1.966471 6.106746 9.576599 0.269833 0.879322 0.002022 -0.001228 -380503.000000 1 0 0
11.538986 -6.257529 3.001046 13.465182 -0.496908 1.346034 0.007844 -0.003018 -112463.000000 1 0 0
11.465186 4.701771 -2.099754 12.568457 0.389175 1.738649 0.005836 -0.001335 686058.000000 1 0 0
-3.945114 14.398971 -5.911854 16.057531 -1.303373 1.947833 0.005511 0.003777 -1826050.000000 1 0 0
7.170186 -3.065829 6.916646 10.423572 -0.404054 0.845232 0.006739 -0.002585 -883846.000000 1 0 0
-8.097214 -0.472029 0.902646 8.161033 0.058229 1.459965 -0.000405 -0.003961 -17901.200000 1 0 0
-3.339914 1.046471 10.752546 11.307846 -0.303634 0.314690 0.002039 0.000033 -517068.000000 1 0 0
7.130686 -1.196529 -1.896554 7.474977 -0.166251 1.827321 0.005848 -0.001624 -1532560.000000 1 0 0
-7.876014 5.334271 2.942246 9.957051 -0.595315 1.270824 0.000447 -0.001657 830640.000000 1 0 0
9.563186 -2.109429 2.962246 10.231281 -0.217102 1.277062 0.005014 -0.003031 -1218620.000000 1 0 0
0.215986 3.436471 1.554746 3.777991 1.508028 1.146667 0.005083 -0.001380 -4336700.000000 1 0 0
-7.571914 -3.164129 3.930346 9.099078 0.395822 1.124143 -0.002100 -0.002741 -322801.000000 1 0 0
-2.241914 8.384271 -6.725654 10.979827 -1.309514 2.230074 0.003186 -0.003572 -583303.000000 1 0 0
4.510286 9.785971 7.309346 13.020539 1.138921 0.974755 0.001344 0.002069 173721.000000 1 0 0
-11.851614 -3.167229 6.870346 14.060361 0.261138 1.060275 0.013551 -0.005088 -296090.000000 1 0 0
-4.657014 2.344071 -5.401554 7.507279 -0.466318 2.373891 0.009913 -0.008038 -297462.000000 1 0 0
-2.701914 2.840671 -1.910154 4.361014 -0.810428 2.024177 0.008265 -0.004870 1091180.000000 1 0 0
2.292986 5.252471 11.452746 12.806702 1.159180 0.463982 0.002343 -0.002533 433443.000000 1 0 0
-0.673414 1.671671 4.388346 4.744001 -1.187845 0.389681 0.006728 -0.003889 654880.000000 1 0 0
5.064986 1.590271 7.732146 9.379186 0.304227 0.601665 0.002080 0.001032 1992960.000000 1 0 0
3.445086 -8.121729 1.892346 9.022864 -1.169619 1.359500 -0.003381 -0.000296 903972.000000 1 0 0
5.087886 6.535771 -4.561054 9.455480 0.909324 2.074156 0.008544 -0.004094 -1625620.000000 1 0 0
-4.230214 2.703171 -7.887154 9.349280 -0.568614 2.574769 0.009050 -0.009769 -491288.000000 1 0 0
-8.726714 -2.146129 -12.901254 15.722715 0.241141 2.533167 0.002085 0.000238 -860018.000000 1 0 0
-7.915614 8.087771 1.425846 11.406227 -0.796155 1.445463 0.002938 0.000365 -1195920.000000 1 0 0
7.398286 0.955871 -6.542454 9.922299 0.128490 2.290775 0.000808 -0.002020 981896.000000 1 0 0
8.932086 8.933571 5.478346 13.769645 0.785481 1.161617 0.007917 -0.000731 368675.000000 1 0 0
9.455686 -1.001629 -1.394654 9.610323 -0.105535 1.716431 0.004983 -0.001047 436102.000000 1 0 0
5.378586 0.071371 4.248846 6.854704 0.013269 0.902253 0.000052 0.000291 -1129990.000000 1 0 0
-4.133014 -7.281629 -7.937854 11.537481 1.054545 2.329534 0.007614 -0.002984 -1032520.000000 1 0 0
-2.390414 7.422071 -0.562754 7.817794 -1.259218 1.642842 0.002730 -0.001137 429123.000000 1 0 0
13.265686 -3.296429 -7.349854 15.519833 -0.243560 2.064145 0.021637 -0.005570 1059430.000000 1 0 0
-4.745414 -5.144129 1.631046 7.186190 0.825693 1.341832 0.008558 -0.003103 3723610.000000 1 0 0
-8.996714 1.267571 2.522146 9.429148 -0.139971 1.300015 -0.003333 -0.002867 -1319140.000000 1 0 0
-1.071814 11.103471 10.126946 15.066217 -1.474565 0.833671 0.004013 -0.002545 -158528.000000 1 0 0
-8.592514 0.300671 7.497446 11.407603 -0.034978 0.853656 -0.003062 -0.003144 -1501230.000000 1 0 0
-6.136414 12.978771 -2.084454 14.506861 -1.129141 1.714983 0.003104 0.002239 324304.000000 1 0 0
-12.991714 -0.730429 3.242946 13.410252 0.056164 1.326549 0.005454 -0.005520 363819.000000 1 0 0
-6.753614 12.721471 8.659346 16.805695 -1.082749 1.029482 0.013406 -0.011059 968945.000000 1 0 0
-8.135414 0.860271 -14.064754 16.270905 -0.105352 2.614775 -0.000071 -0.002679 -309783.000000 1 0 0
7.302486 2.922271 3.768746 8.721778 0.380657 1.123968 0.004884 -0.000292 -361645.000000 1 0 0
-1.569514 0.620971 -2.141254 2.726527 -0.376747 2.474044 0.005675 -0.007127 714235.000000 1 0 0
-6.211714 9.643571 -10.332154 15.438175 -0.998559 2.304009 0.011775 -0.005650 -191354.000000 1 0 0
-10.110914 13.545671 5.306246 17.716434 -0.929583 1.266617 0.006814 -0.005615 835861.000000 1 0 0
-5.748314 8.344171 2.425346 10.418762 -0.967558 1.335855 0.000346 0.000386 -567070.000000 1 0 0
-2.380814 -10.701729 -1.212654 11.030223 1.351891 1.680958 0.010551 -0.002281 820354.000000 1 0 0
-2.239614 -12.307229 8.882746 15.342325 1.390791 0.953331 0.008351 -0.006773 671774.000000 1 0 0
-14.689314 -6.328129 -1.499654 16.064561 0.406771 1.664284 0.010653 -0.004987 455386.000000 1 0 0
-2.802814 -9.370429 3.339346 10.334986 1.280154 1.241782 0.009878 -0.002104 -651934.000000 1 0 0
4.736286 -2.768029 7.576646 9.354141 -0.528893 0.626682 0.004168 -0.001110 -1478190.000000 1 0 0
-15.037414 -1.287829 -0.265654 15.094797 0.085433 1.588396 0.007444 -0.009686 16529.600000 1 0 0
5.494386 8.800171 -2.755754 10.734312 1.012665 1.830427 0.008239 -0.002322 543791.000000 1 0 0
-5.738014 -5.776529 8.429646 11.719728 0.788743 0.768046 0.004363 -0.004515 -2231020.000000 1 0 0
3.413886 3.634171 7.062046 8.644901 0.816643 0.614775 0.000097 -0.000564 574977.000000 1 0 0
3.281586 2.530371 9.411146 10.283056 0.656857 0.414770 0.003575 -0.002868 834044.000000 1 0 0
9.963786 -3.288229 5.241746 11.728827 -0.318764 1.107487 0.007408 -0.004566 -225898.000000 1 0 0
6.552686 9.990771 -5.007754 12.954952 0.990303 1.967686 0.003710 -0.002938 523988.000000 1 0 0
-4.503514 12.051571 -8.602254 15.476459 -1.213177 2.160155 0.007653 -0.001872 -642546.000000 1 0 0
-3.303414 -7.244329 2.140346 8.244630 1.142964 1.308183 0.010645 -0.003351 824293.000000 1 0 0
-7.422114 -3.980029 1.003946 8.481528 0.492217 1.452150 0.003629 -0.001420 3491480.000000 1 0 0
-2.065814 -3.924029 -10.858854 11.729463 1.086211 2.753879 0.004926 -0.001279 -746308.000000 1 0 0
-5.230314 8.403571 -4.481054 10.865360 -1.014075 1.995901 0.004737 -0.002259 -1411730.000000 1 0 0
-11.012814 -3.335429 -10.115054 15.320623 0.294086 2.291914 0.011561 0.003101 -867290.000000 1 0 0
4.715286 -11.319929 -7.861554 14.566357 -1.176107 2.140884 -0.004707 -0.002489 -2509070.000000 1 0 0
-9.438714 -3.954429 7.295546 12.567889 0.396742 0.951465 0.004497 -0.001790 -2049480.000000 1 0 0
-5.697114 -9.674829 -5.101854 12.332410 1.038609 1.997305 0.013758 -0.007751 -87735.600000 1 0 0
5.010086 4.262071 -9.478854 11.537542 0.704899 2.534949 -0.001481 0.001147 381675.000000 1 0 0
-3.325414 -7.042729 -14.068454 16.080417 1.129654 2.635987 -0.005269 0.004381 658357.000000 1 0 0
0.594286 -0.833429 -8.768554 8.828098 -0.951358 3.025382 0.006979 -0.010213 -188868.000000 1 0 0
-7.748414 2.259271 -2.916054 8.581702 -0.283713 1.917500 0.002603 -0.003891 -1030930.000000 1 0 0
-2.300014 7.525371 -12.496454 14.767621 -1.274178 2.579621 0.001385 -0.004480 -3137.760000 1 0 0
-9.856414 8.792871 7.644146 15.260945 -0.728431 1.046163 0.005378 -0.006597 -388886.000000 1 0 0
-10.774214 -3.186429 -14.272454 18.164250 0.287549 2.474695 0.017015 0.004264 -88510.800000 1 0 0
-3.219714 4.800871 7.916846 9.802621 -0.980040 0.630682 0.001516 -0.000554 -375203.000000 1 0 0
8.748486 -2.442329 -3.476754 9.725677 -0.272240 1.936367 0.004721 -0.000184 -4628170.000000 1 0 0
1.955486 -8.448629 -1.116454 8.743553 -1.343346 1.698835 -0.001761 0.001531 -175466.000000 1 0 0
-13.556114 -2.845029 4.989746 14.722771 0.206868 1.225035 0.019808 -0.009917 466265.000000 1 0 0
7.106786 2.841271 -1.927354 7.892650 0.380331 1.817487 0.005644 -0.002593 1357710.000000 1 0 0
-11.090614 4.328371 8.897746 14.862920 -0.372093 0.928977 0.003823 -0.004760 -3195770.000000 1 0 0
-1.874314 -2.575229 7.810946 8.435386 0.941639 0.387190 0.004280 -0.004002 -648573.000000 1 0 0
3.162386 11.952571 -9.817054 15.787311 1.312145 2.241876 0.002797 -0.007477 447556.000000 1 0 0
3.595186 -5.039329 -7.106754 9.424763 -0.951117 2.425005 -0.004808 -0.003046 135635.000000 1 0 0
8.503386 -13.714629 -9.679854 18.817497 -1.015784 2.111112 0.020477 -0.008676 225773.000000 1 0 0
-6.288514 -5.814429 -0.396154 8.573794 0.746247 1.617018 0.012070 -0.004298 -44930.900000 1 0 0
-1.271514 -3.978129 9.866646 10.714148 1.261432 0.400416 0.004730 -0.004725 481088.000000 1 0 0
2.745586 3.384771 1.773646 4.705394 0.889288 1.184307 0.000272 0.000221 -1026220.000000 1 0 0
-9.280514 13.298871 7.813546 18.001095 -0.961520 1.121802 0.018136 -0.018605 507193.000000 1 0 0
4.168186 -11.073729 -0.065454 11.832393 -1.210796 1.576328 -0.004588 -0.000436 -500457.000000 1 0 0
-12.438514 -1.340229 -9.060454 15.446834 0.107334 2.197598 0.009800 -0.000234 122671.000000 1 0 0
-4.256014 0.904871 -13.465654 14.151194 -0.209491 2.829054 0.008998 -0.007888 731599.000000 1 0 0
3.908986 -3.134929 5.030246 7.100093 -0.675947 0.783460 0.001354 0.000478 -404075.000000 1 0 0
1.737086 -1.193629 1.039046 2.349858 -0.602046 1.112775 0.004266 -0.001513 610049.000000 1 0 0
8.135986 -8.978329 7.220746 14.104745 -0.834577 1.033358 0.008733 -0.005336 -1346890.000000 1 0 0
-0.043114 2.344671 -6.427554 6.841987 -1.552410 2.791754 0.008852 -0.010979 -1843760.000000 1 0 0
-3.726114 -9.826029 -3.394654 11.043480 1.208341 1.883245 0.013508 -0.005669 181040.000000 1 0 0
-9.539214 2.334671 -5.364954 11.190622 -0.240026 2.070785 -0.000783 -0.001513 -1009730.000000 1 0 0
9.013886 -7.604429 5.127046 12.859396 -0.700787 1.160697 0.006263 -0.005595 1752940.000000 1 0 0
-5.564314 -4.355329 4.617846 8.441267 0.664118 0.991953 0.002285 -0.004031 -751782.000000 1 0 0
-0.138114 -12.451429 10.529346 16.307185 1.559705 0.868873 0.009652 -0.007815 154770.000000 1 0 0
-14.200514 -8.340229 3.176646 16.772153 0.531043 1.380245 0.006464 -0.004782 -1528680.000000 1 0 0
10.881286 -1.250229 -3.644054 11.543162 -0.114396 1.891979 0.012733 -0.003432 -329333.000000 1 0 0
-13.641114 2.961471 2.697446 14.217121 -0.213781 1.379907 0.001550 -0.002665 -654891.000000 1 0 0
-6.363714 6.133271 1.026546 8.897621 -0.766960 1.455166 0.002482 -0.000407 785664.000000 1 0 0
7.102786 -6.830529 -0.518654 9.867862 -0.765861 1.623380 -0.001703 -0.003850 -208322.000000 1 0 0
-6.871614 7.792671 10.097346 14.487967 -0.848125 0.799665 0.000178 -0.003167 253791.000000 1 0 0
-12.572414 -5.078029 -1.881254 13.689087 0.383866 1.708660 0.001112 -0.005151 -2756200.000000 1 0 0
-9.393314 -5.655329 0.168046 10.965644 0.541932 1.555471 0.004602 -0.003285 -1303860.000000 1 0 0
-1.866514 1.834571 2.113946 3.364267 -0.776768 0.891363 0.006664 -0.002856 235555.000000 1 0 0
-7.152914 7.368071 7.546546 12.743744 -0.800214 0.937039 0.002410 -0.006814 -222921.000000 1 0 0
5.565486 7.202871 -0.330154 9.108512 0.912940 1.607051 0.010476 -0.004731 -1401730.000000 1 0 0
-0.051514 -4.059229 7.484646 8.514688 1.558106 0.496978 0.004104 -0.004043 -1169190.000000 1 0 0
6.428086 0.651571 13.023946 14.538501 0.101018 0.460513 0.013304 0.000859 478932.000000 1 0 0
5.801486 6.141871 -7.874254 11.549186 0.813890 2.321019 -0.000639 -0.001563 -166188.000000 1 0 0
9.994286 5.271171 8.984446 14.435763 0.485341 0.899024 0.005173 -0.003662 -1049670.000000 1 0 0
-1.323214 -5.080529 -8.468854 9.964144 1.316009 2.586654 -0.001066 -0.000827 853050.000000 1 0 0
9.900586 -3.509429 -7.857454 13.117823 -0.340649 2.213036 0.014378 -0.007905 523857.000000 1 0 0
8.340686 -5.589629 1.280246 10.121760 -0.590420 1.443972 0.002798 -0.003097 1220360.000000 1 0 0
15.827186 3.109571 -4.957754 16.874494 0.193999 1.868998 0.030862 0.004856 -338484.000000 1 0 0
-6.872614 3.583171 1.211746 7.844761 -0.480597 1.415710 0.003773 -0.003144 1068370.000000 1 0 0
-1.747914 3.725471 0.181246 4.119125 -1.132108 1.526781 0.005833 -0.007273 -1483660.000000 1 0 0
-2.664714 9.968871 6.900846 12.413733 -1.309599 0.981346 0.000258 0.001222 502603.000000 1 0 0
5.430186 -5.615529 -8.854254 11.807578 -0.802176 2.418675 -0.001953 -0.006145 -561947.000000 1 0 0
-1.267114 -0.833829 6.320946 6.500401 0.582016 0.235519 0.007438 -0.005085 -169342.000000 1 0 0
-5.725514 4.967471 -7.737754 10.831903 -0.714625 2.366489 0.007808 -0.008486 -90276.200000 1 0 0
6.682486 -1.179229 2.577846 7.258890 -0.174667 1.207744 0.001492 0.001460 -854289.000000 1 0 0
8.758386 7.548371 3.259446 12.012960 0.711331 1.296024 0.010552 -0.003783 -76171.500000 1 0 0
-5.204014 -4.859829 -7.751454 10.525433 0.751211 2.398604 0.008739 -0.004289 1545600.000000 1 0 0
-2.283714 7.829771 -9.959254 12.872739 -1.286999 2.455410 0.003014 -0.003175 383048.000000 1 0 0
-2.918314 -2.384429 1.661446 4.118551 0.685055 1.155561 0.005396 -0.000949 -274385.000000 1 0 0
5.800786 -2.077329 -9.139754 11.022682 -0.343883 2.548430 0.000782 -0.002727 1038560.000000 1 0 0
1.150986 -7.493129 5.229046 9.209488 -1.418382 0.966979 -0.000161 -0.000610 488924.000000 1 0 0
1.802086 11.843271 1.133246 12.033072 1.419793 1.476479 0.004252 -0.004238 368140.000000 1 0 0
-1.130914 7.105671 2.531446 7.627434 -1.412964 1.232493 0.001919 0.001446 577239.000000 1 0 0
8.611486 7.790171 -6.585854 13.349829 0.735365 2.086709 0.015003 -0.007956 77263.700000 1 0 0
3.602086 -11.284029 5.394646 13.015627 -1.261801 1.143431 0.003660 -0.004615 -579326.000000 1 0 0
8.030586 -7.166329 12.261946 16.315695 -0.728589 0.720398 0.017802 -0.007149 364580.000000 1 0 0
-8.709714 -0.030329 -3.946754 9.562265 0.003482 1.996259 0.004212 -0.003000 -1026270.000000 1 0 0
-3.267814 -4.982429 11.224446 12.707927 0.990307 0.488019 0.005324 -0.005280 1268680.000000 1 0 0
-8.271514 0.180471 -11.571054 14.224620 -0.021815 2.520860 -0.000512 -0.003726 -1770010.000000 1 0 0
1.482586 -4.941529 5.351646 7.433497 -1.279316 0.767086 0.003950 -0.002942 -1105310.000000 1 0 0
6.727086 3.798671 -7.634854 10.861610 0.514046 2.350292 0.001933 -0.001403 -334612.000000 1 0 0
16.287086 4.206071 -1.373754 16.877423 0.252724 1.652282 0.014645 0.011241 -723001.000000 1 0 0
7.904986 7.383271 0.020346 10.816742 0.751286 1.568915 0.010724 -0.005783 -1592720.000000 1 0 0
5.641786 -10.257629 13.832046 18.121098 -1.067946 0.702372 0.005439 -0.007704 1072650.000000 1 0 0
-4.992614 -9.264129 8.965146 13.824765 1.076500 0.865204 0.001572 -0.005955 732059.000000 1 0 0
-12.633414 -3.208629 2.758646 13.323235 0.248721 1.362232 0.001959 -0.005797 -731169.000000 1 0 0
-2.142614 -1.339129 -5.922854 6.439275 0.558598 2.738370 0.007855 -0.008202 -1706670.000000 1 0 0
-2.469114 12.937871 -4.318554 13.861275 -1.382220 1.887626 0.002267 0.003770 484318.000000 1 0 0
3.893186 -0.387629 -4.981254 6.334038 -0.099239 2.475798 0.003763 -0.001498 -168634.000000 1 0 0
-8.921214 3.800971 -7.367554 12.178518 -0.402768 2.220516 0.001320 -0.003258 -60396.200000 1 0 0
-4.532614 8.037071 -11.189754 14.503437 -1.057296 2.452030 0.007366 -0.005698 -2137040.000000 1 0 0
-10.203914 -6.425729 7.365146 14.129941 0.561995 1.022488 0.009489 -0.002855 -1715970.000000 1 0 0
8.113286 5.322771 4.139646 10.549595 0.580621 1.167558 0.005880 -0.002761 -265630.000000 1 0 0
-6.636414 -7.590529 3.983346 10.840903 0.852362 1.194545 0.011230 -0.001395 -1210110.000000 1 0 0
-4.215814 11.786571 8.091846 14.905513 -1.227297 0.996938 0.003764 -0.004771 -500805.000000 1 0 0
-7.275114 9.988271 -7.897054 14.664798 -0.941286 2.139457 0.006988 -0.005121 408528.000000 1 0 0
13.170686 5.605471 4.720046 15.072064 0.402380 1.252272 0.013182 -0.004811 -715513.000000 1 0 0
5.375886 4.006471 -3.729454 7.672078 0.640465 2.078426 0.005101 -0.001388 522018.000000 1 0 0
-2.920114 -4.151329 5.110146 7.202374 0.957781 0.781996 0.007925 -0.003786 -742399.000000 1 0 0
12.240586 -2.472729 -5.181954 13.520317 -0.199328 1.964132 0.017031 -0.004065 -1162990.000000 1 0 0
-5.278314 9.740171 6.996546 13.102793 -1.074184 1.007503 0.005198 -0.002080 -867199.000000 1 0 0
1.697686 3.857971 -0.524554 4.247497 1.156251 1.694610 0.006783 -0.002419 328131.000000 1 0 0
-0.106914 9.627671 7.605246 12.269606 -1.559692 0.902252 -0.002376 0.002245 -1425580.000000 1 0 0
-5.531214 2.043471 5.880246 8.327508 -0.353890 0.786788 0.002767 -0.002440 773661.000000 1 0 0
8.889286 0.921971 10.669946 13.918232 0.103348 0.697241 0.013862 0.002916 -340842.000000 1 0 0
0.339886 -2.847429 -10.149154 10.546502 -1.451993 2.866221 0.002847 -0.003793 -1960990.000000 1 0 0
1.172286 10.609671 -2.702154 11.010949 1.460751 1.818735 0.010927 -0.003358 944589.000000 1 0 0
2.254386 -4.279029 11.631646 12.597124 -1.085904 0.394062 0.007777 -0.002577 1067190.000000 1 0 0
6.629286 -3.093229 9.433646 11.937720 -0.436573 0.659598 0.009027 -0.002125 336497.000000 1 0 0
-10.563614 -8.202829 5.636546 14.513683 0.660257 1.171944 0.009397 -0.003888 -66654.200000 1 0 0
-2.972614 0.838871 -6.753654 7.426438 -0.275047 2.712652 0.010791 -0.011565 724641.000000 1 0 0
11.093286 2.605971 -5.122754 12.493786 0.230731 1.993277 0.008670 -0.000921 -2759450.000000 1 0 0
-1.955614 -3.965529 0.035146 4.421661 1.112641 1.562848 0.005422 -0.002760 986453.000000 1 0 0
-1.219814 -6.393429 -10.633654 12.467497 1.382270 2.592331 -0.001083 0.001482 520079.000000 1 0 0
0.298086 6.804971 -6.550554 9.450198 1.527020 2.336668 0.007532 -0.002341 -1764230.000000 1 0 0
2.052586 3.830771 -6.099454 7.489409 1.078909 2.522509 0.004894 -0.005056 -2245630.000000 1 0 0
1.668586 -14.706029 6.514446 16.170636 -1.457817 1.156161 0.017557 -0.010453 -243496.000000 1 0 0
-1.681314 5.360671 -10.533954 11.938501 -1.266874 2.651632 0.007307 -0.006701 -495974.000000 1 0 0
13.704386 4.383471 -0.761754 14.408514 0.309575 1.623689 0.009456 0.000656 -256708.000000 1 0 0
-2.366514 3.372671 -6.203954 7.447439 -0.958948 2.555362 0.011256 -0.010597 -727394.000000 1 0 0
5.603486 7.825271 14.166046 17.126318 0.949363 0.596778 0.009345 -0.005081 -136848.000000 1 0 0
16.072886 0.606471 -5.729554 17.074345 0.037715 1.913001 0.032941 0.001439 235568.000000 1 0 0
6.198586 -8.342929 10.629246 14.866331 -0.931807 0.774190 -0.001526 0.000583 385429.000000 1 0 0
-0.082514 -5.963229 -6.325154 8.693359 1.556960 2.385591 -0.002578 -0.001710 -1421620.000000 1 0 0
8.707086 5.493871 -7.552154 12.768359 0.562878 2.203682 0.008135 -0.003486 -408329.000000 1 0 0
-16.070914 -0.775029 5.301346 16.940461 0.048188 1.252510 0.024919 -0.011304 -1571.930000 1 0 0
-0.380814 4.001771 -12.244454 12.887430 -1.475921 2.824379 0.006386 -0.007595 775774.000000 1 0 0
-11.414114 3.709471 5.848746 13.351030 -0.314223 1.117341 -0.000242 -0.005355 -1278500.000000 1 0 0
5.234386 -9.665129 -9.690154 14.653075 -1.074445 2.293354 -0.006855 -0.000285 279643.000000 1 0 0
1.524286 11.160171 -11.636454 16.195059 1.435054 2.372467 -0.000080 -0.001554 -1673410.000000 1 0 0
5.883586 2.413171 1.284546 6.487683 0.389228 1.371482 0.005675 -0.001206 -75511.000000 1 0 0
5.719186 4.558871 4.951846 8.832506 0.672982 0.975639 0.002276 -0.000355 -721158.000000 1 0 0
0.312986 -1.657329 -6.329254 6.550127 -1.384145 2.881164 0.004166 -0.005693 20971.000000 1 0 0
12.812286 6.917571 -4.587154 15.265957 0.495069 1.875995 0.014618 -0.006079 -472749.000000 1 0 0
7.331686 3.198671 12.777046 15.074416 0.411386 0.559354 0.009950 0.003120 -625346.000000 1 0 0
-2.475814 -0.259829 8.673846 9.024011 0.104564 0.279490 0.001713 -0.002458 702850.000000 1 0 0
2.541686 -15.287229 13.273646 20.404637 -1.406041 0.862526 0.023127 -0.010855 280168.000000 1 0 0
18.887286 4.669471 -1.576054 19.519669 0.242368 1.651626 0.020083 0.008328 508812.000000 1 0 0
-0.345514 -13.222329 7.252246 15.084576 1.544671 1.069261 0.002991 -0.006245 -780984.000000 1 0 0
4.376786 1.647771 -0.592154 4.714027 0.360067 1.696744 0.006059 -0.003319 1141040.000000 1 0 0
2.678286 -0.533529 -7.334354 7.826277 -0.196631 2.785152 0.002663 -0.004829 368893.000000 1 0 0
7.191186 -11.342829 0.845046 13.456858 -1.005762 1.507958 0.001660 -0.001335 293420.000000 1 0 0
-11.792714 -7.420729 1.283546 13.992241 0.561660 1.478934 0.001469 0.000488 280004.000000 1 0 0
0.168886 -7.080229 9.843446 12.126483 -1.546948 0.623686 0.003104 -0.004490 -1643390.000000 1 0 0
-4.683814 -7.128129 10.578946 13.589056 0.989454 0.678540 0.004874 -0.003394 -1043490.000000 1 0 0
11.919686 0.753271 -1.694454 12.063063 0.063112 1.711729 0.002792 -0.001828 701095.000000 1 0 0
6.530686 -9.638929 -7.405854 13.798749 -0.975309 2.137323 -0.005685 -0.005196 -821136.000000 1 0 0
-10.998114 4.945271 3.561846 12.573821 -0.422560 1.283589 -0.001480 -0.004370 -287691.000000 1 0 0
6.030386 -9.114729 1.978746 11.106722 -0.986303 1.391683 -0.002609 -0.002321 4038380.000000 1 0 0
11.556186 -1.288629 5.929346 13.052323 -0.111051 1.099238 0.011482 -0.008424 1581810.000000 1 0 0
-6.589814 3.534771 4.116446 8.536122 -0.492341 1.067588 -0.000794 -0.002152 -727052.000000 1 0 0
9.521086 6.331871 -3.202654 11.874370 0.586873 1.843890 0.010771 -0.002188 -1009000.000000 1 0 0
-2.336214 6.520271 10.928846 12.938760 -1.226746 0.564868 0.000243 -0.001833 -280415.000000 1 0 0
1.762086 9.715571 2.858746 10.279576 1.391379 1.288981 0.001433 -0.001228 -516214.000000 1 0 0
2.845186 6.108571 -5.567454 8.741068 1.134906 2.261307 0.004980 -0.002508 -1260700.000000 1 0 0
11.988186 0.064771 -5.730954 13.287762 0.005403 2.016725 0.016738 -0.001929 471708.000000 1 0 0
-2.603314 -12.387829 6.267646 14.125117 1.363660 1.111047 0.008168 -0.003968 279317.000000 1 0 0
10.954286 1.864671 -2.770054 11.451924 0.168607 1.815105 0.006094 -0.001775 94354.700000 1 0 0
-8.955614 5.285771 0.827946 10.432061 -0.533196 1.491347 -0.000024 -0.002598 153669.000000 1 0 0
1.191986 -10.141529 5.628846 11.659989 -1.453798 1.067006 -0.000026 -0.002614 -539115.000000 1 0 0
9.444786 -5.648129 -1.192654 11.069226 -0.538959 1.678751 0.004262 -0.002494 1678340.000000 1 0 0
-7.846914 8.665571 -4.577354 12.554615 -0.834936 1.943995 -0.000547 -0.002830 218210.000000 1 0 0
-7.538114 -0.007929 -1.659354 7.718594 0.001052 1.787469 0.001928 -0.003244 -1686970.000000 1 0 0
4.135586 8.880571 2.720046 10.166920 1.134972 1.299958 0.008388 -0.005621 1469100.000000 1 0 0
-1.258014 -10.474729 -3.769054 11.203050 1.451269 1.913921 0.010364 -0.002972 -813956.000000 1 0 0
3.120486 7.901071 -3.631654 9.238683 1.194656 1.974788 0.011007 -0.004752 -182605.000000 1 0 0
-4.409814 1.662371 -10.980754 11.949347 -0.360497 2.736185 0.008956 -0.010336 -378248.000000 1 0 0
1.193686 2.793071 11.002746 11.414313 1.166917 0.269355 0.003728 -0.001935 431120.000000 1 0 0
2.131786 5.589371 -8.011654 9.998609 1.206427 2.500223 0.003584 -0.003426 265613.000000 1 0 0
15.607886 6.184071 3.965846 17.250413 0.377239 1.338823 0.034549 -0.009113 149236.000000 1 0 0
-4.476314 9.020271 4.613046 11.076230 -1.110153 1.141224 0.002811 0.001581 -94757.100000 1 0 0
-0.940614 -8.195529 -12.404154 14.896795 1.456525 2.554713 -0.004183 0.002052 -792923.000000 1 0 0
14.205986 -4.266929 -5.251854 15.735269 -0.291788 1.911089 0.026560 -0.006102 1684210.000000 1 0 0
-5.860614 -6.226329 -5.628254 10.236758 0.815646 2.152931 0.011904 -0.004113 526199.000000 1 0 0
-8.936614 2.634071 -12.149654 15.310634 -0.286634 2.487407 0.004224 -0.006344 883305.000000 1 0 0
10.412586 5.302771 13.733846 18.032189 0.471033 0.704972 0.019844 -0.003360 529601.000000 1 0 0
-0.592014 10.928171 5.499846 12.248416 -1.516676 1.105122 -0.002474 0.004125 671842.000000 1 0 0
0.232886 11.293971 -0.531154 11.308852 1.550179 1.617782 0.008542 -0.003331 -51239.300000 1 0 0
-1.466714 -0.631629 3.670546 4.002888 0.406640 0.410367 0.007178 -0.003513 359798.000000 1 0 0
-4.824114 6.686171 8.828246 12.079523 -0.945782 0.751239 0.002554 -0.001982 -401248.000000 1 0 0
3.423886 -8.781529 -11.366154 14.765761 -1.199030 2.449268 -0.004762 0.001021 1444090.000000 1 0 0
6.722286 -3.830329 11.999946 14.277929 -0.517914 0.572675 0.018745 -0.004347 -446244.000000 1 0 0
-2.521814 -1.746829 -12.460054 12.832144 0.605801 2.900189 0.005206 -0.006784 1075130.000000 1 0 0
-16.146614 -4.998229 5.358646 17.731625 0.300198 1.263788 0.034718 -0.009407 1366940.000000 1 0 0
-8.989614 7.288271 5.798846 12.944446 -0.681258 1.106292 0.000463 -0.004533 -1330590.000000 1 0 0
-12.863614 1.483371 6.058446 14.296074 -0.114808 1.133177 -0.000967 -0.005884 485076.000000 1 0 0
-3.543614 3.634071 10.136546 11.336368 -0.798000 0.464241 0.001339 0.000018 363562.000000 1 0 0
2.143786 -12.136329 -1.177154 12.380307 -1.395958 1.666023 -0.000428 0.000220 -3653340.000000 1 0 0
10.253686 -5.059729 -3.637754 11.998841 -0.458398 1.878820 0.010871 -0.003216 511503.000000 1 0 0
3.203986 -13.414629 0.842546 13.817658 -1.336346 1.509782 0.002327 -0.000716 377648.000000 1 0 0
9.907786 -1.576729 -6.055354 11.718259 -0.157817 2.113841 0.015592 -0.003618 145880.000000 1 0 0
11.970286 -5.357729 -1.603154 13.212233 -0.420844 1.692435 0.010577 -0.003611 -1377990.000000 1 0 0
1.470686 0.995071 5.961346 6.220187 0.594850 0.289499 0.005142 -0.002952 533888.000000 1 0 0
-10.748414 11.399771 6.641146 17.017285 -0.814799 1.169884 0.008179 -0.012819 -190178.000000 1 0 0
4.726386 -14.052729 2.991846 15.125114 -1.246349 1.371677 0.006468 -0.005869 -4445200.000000 1 0 0
5.316686 -3.365829 -1.731554 6.526426 -0.564381 1.839326 0.002094 -0.001248 -1426730.000000 1 0 0
2.008686 -2.926929 -7.675954 8.457068 -0.969340 2.708418 -0.001374 -0.002375 156473.000000 1 0 0
-2.778914 14.812471 -8.884054 17.494516 -1.385346 2.103448 0.011866 -0.001146 -2333830.000000 1 0 0
-2.372814 6.087671 -8.079254 10.390589 -1.199137 2.461564 0.010101 -0.008313 -219835.000000 1 0 0
2.472086 -3.572929 -11.395854 12.196004 -0.965532 2.777346 -0.001921 -0.000434 -1254050.000000 1 0 0
14.511386 2.802171 -2.727254 15.028985 0.190754 1.753274 0.012642 0.005420 630170.000000 1 0 0
-3.475814 13.347871 2.147646 13.959202 -1.316052 1.416331 0.001130 -0.001079 -1341590.000000 1 0 0
7.853686 -5.140629 14.005946 16.860396 -0.579567 0.590431 0.026779 -0.012858 -792009.000000 1 0 0
-11.639414 7.304471 2.855146 14.035067 -0.560441 1.365937 -0.001801 -0.004493 675134.000000 1 0 0
-2.301714 11.912771 3.976146 12.767997 -1.379934 1.254115 0.002013 0.000389 -705416.000000 1 0 0
1.758286 1.459071 0.694246 2.387977 0.692665 1.275811 0.002861 -0.001566 -1426730.000000 1 0 0
-6.918614 8.602771 5.282846 12.238601 -0.893481 1.124470 0.003666 -0.003537 -673159.000000 1 0 0
-1.116214 9.149071 0.925746 9.263284 -1.449393 1.470692 0.002398 0.001074 839618.000000 1 0 0
5.019686 13.094171 -8.532654 16.415259 1.204723 2.117413 0.006639 -0.009095 -2522410.000000 1 0 0
8.910886 6.907271 7.140046 13.345206 0.659404 1.006257 0.001230 -0.001227 -1351250.000000 1 0 0
7.116386 -13.727929 2.848546 15.723015 -1.092547 1.388620 0.015451 -0.008215 -123355.000000 1 0 0
4.261786 -13.372529 -1.361054 14.101057 -1.262276 1.667468 -0.000817 0.003688 -3015820.000000 1 0 0
12.170686 -11.845129 -4.616954 17.599686 -0.771843 1.836234 0.025247 -0.010132 -1151980.000000 1 0 0
2.879886 0.071171 -1.960754 3.484733 0.024708 2.168408 0.005964 -0.003770 1115410.000000 1 0 0
-13.589414 -3.074329 -10.605354 17.509918 0.222485 2.221413 0.015743 -0.005676 -110294.000000 1 0 0
-6.580514 13.602771 5.072246 15.939455 -1.120223 1.246946 0.010936 -0.006680 439460.000000 1 0 0
7.279486 -4.244629 -0.562354 8.445356 -0.527896 1.637433 -0.001010 0.000135 -2010900.000000 1 0 0
11.784786 2.098871 -7.364054 14.054029 0.176252 2.122315 0.016291 0.001900 -1398830.000000 1 0 0
-7.487414 -4.464029 9.668946 13.018350 0.537624 0.733678 0.008650 -0.001709 346021.000000 1 0 0
0.972486 2.817771 8.475446 8.984361 1.238470 0.338194 0.003367 -0.000503 -1550720.000000 1 0 0
1.553086 8.058571 -8.730854 11.982506 1.380406 2.387121 0.005082 -0.003251 375274.000000 1 0 0
-8.594614 -2.251329 -5.516754 10.458033 0.256190 2.126467 0.007053 -0.003057 -653047.000000 1 0 0
6.706486 -0.470729 7.122146 9.794054 -0.070075 0.756576 0.006295 -0.001108 33029.000000 1 0 0
-10.880614 6.377671 7.117546 14.481779 -0.530173 1.057005 -0.000869 -0.006135 261744.000000 1 0 0
-5.948514 11.070071 4.858646 13.473594 -1.077716 1.201880 0.004218 -0.000908 394455.000000 1 0 0
6.042986 -1.185529 -6.816354 9.186176 -0.193722 2.406879 0.000584 -0.002934 -932236.000000 1 0 0
4.494886 -5.745229 11.344546 13.487415 -0.906899 0.571444 0.009473 -0.003265 -1530560.000000 1 0 0
-8.945514 -7.455929 2.864246 11.992373 0.694826 1.329626 0.007356 -0.002035 -3386070.000000 1 0 0
-1.303414 12.757871 -9.385154 15.891610 -1.468984 2.202565 0.011547 0.002982 562730.000000 1 0 0
-4.715014 9.321971 -2.362554 10.710376 -1.102523 1.793211 0.001374 -0.000037 669451.000000 1 0 0
-3.376914 9.682771 -0.200654 10.256699 -1.235231 1.590361 0.004153 -0.000638 -2284030.000000 1 0 0
-3.479014 10.739771 -6.397154 12.975739 -1.257526 2.086341 0.005425 0.000819 482477.000000 1 0 0
4.930886 -4.939229 0.339746 6.987492 -0.786243 1.522155 0.000069 -0.001017 -2908030.000000 1 0 0
-2.211014 2.897371 -10.787254 11.386316 -0.918957 2.815769 0.011354 -0.008788 -430379.000000 1 0 0
-3.627814 12.130771 -2.157154 12.844063 -1.280203 1.739546 0.001801 0.001919 -1214970.000000 1 0 0
-0.158414 0.396171 -0.002654 0.426677 -1.190408 1.577017 0.001372 -0.003904 -2369890.000000 1 0 0
-4.906914 -1.723429 0.142546 5.202724 0.337765 1.543395 0.002526 -0.003425 347341.000000 1 0 0
2.568886 2.552171 -2.505154 4.403243 0.782134 2.176005 0.000981 -0.003713 957838.000000 1 0 0
6.031586 -9.754329 8.394646 14.212566 -1.016994 0.938933 -0.000673 -0.002219 -604309.000000 1 0 0
-4.199114 -5.453129 6.599446 9.535296 0.914594 0.806392 0.007749 -0.005013 -61984.700000 1 0 0
-6.333214 5.376871 -12.088054 14.667699 -0.703911 2.539456 0.007038 -0.007592 771328.000000 1 0 0
-12.927614 2.983471 8.020946 15.503544 -0.226812 1.027031 0.005551 -0.004492 474885.000000 1 0 0
4.653886 -7.332329 -4.858254 9.951097 -1.005247 2.080837 -0.005506 -0.002697 -756197.000000 1 0 0
-6.050014 2.512071 -1.111754 6.644484 -0.393556 1.738907 0.005012 -0.004879 -630639.000000 1 0 0
-6.891914 -2.697929 -14.533754 16.309731 0.373125 2.670580 0.004874 -0.000525 -277081.000000 1 0 0
2.738486 -6.043029 0.921146 6.698210 -1.145314 1.432838 -0.000223 -0.001540 -349369.000000 1 0 0
4.895086 -7.895729 12.919846 15.913102 -1.015825 0.623397 0.008155 -0.004072 -141840.000000 1 0 0
-10.019114 -1.685729 8.039746 12.956151 0.166690 0.901371 0.005689 -0.001596 -753319.000000 1 0 0
-4.589614 13.390771 -0.075054 14.155668 -1.240600 1.576098 0.002546 0.003297 750662.000000 1 0 0
6.887086 2.338871 -4.524454 8.565801 0.327382 2.127275 0.002972 -0.001316 -1185860.000000 1 0 0
5.022186 4.527371 0.072246 6.762001 0.733629 1.560112 0.004591 -0.002663 -168891.000000 1 0 0
-5.931414 12.369971 1.954146 13.857003 -1.123682 1.429302 0.003119 0.001507 628580.000000 1 0 0
6.573986 -7.238729 6.438746 11.707858 -0.833487 0.988491 0.000623 -0.004094 -113864.000000 1 0 0
-0.275614 4.907871 7.666546 9.107090 -1.514698 0.570147 0.000292 0.000650 -972828.000000 1 0 0
-5.786414 -3.435529 -1.527554 6.900643 0.535792 1.794009 0.007731 -0.005195 -687835.000000 1 0 0
2.182186 -6.659329 -5.303054 8.788116 -1.254135 2.218598 -0.004502 -0.001205 -589708.000000 1 0 0
-14.417714 -4.888329 -3.726654 15.673359 0.326887 1.810866 0.011979 -0.007643 149065.000000 1 0 0
-12.353914 -5.102429 -6.324754 14.787038 0.391681 2.012768 0.016876 -0.007636 -722541.000000 1 0 0
-14.827714 -3.788129 -1.283854 15.357712 0.250126 1.654491 0.004916 -0.007072 442198.000000 1 0 0
12.039286 2.961671 8.567246 15.070289 0.241211 0.966132 0.020282 -0.006020 -1562320.000000 1 0 0
8.780586 -6.556629 7.582046 13.325745 -0.641398 0.965535 0.008690 -0.006168 -1936.210000 1 0 0
-9.041214 -1.654429 -9.648054 13.325376 0.180985 2.380432 0.002214 -0.001346 81330.600000 1 0 0
-8.792414 5.134571 -3.922254 10.911207 -0.528555 1.938496 0.002393 -0.003739 -1229100.000000 1 0 0
-3.994814 -6.294829 4.126946 8.521449 1.005310 1.065232 0.012507 -0.003714 -910701.000000 1 0 0
-0.186114 -9.089229 3.646646 9.795241 1.550323 1.189324 0.002957 -0.002676 337452.000000 1 0 0
7.935686 -10.476929 3.312046 13.553996 -0.922548 1.323937 0.002865 -0.005530 348533.000000 1 0 0
-0.067314 6.375771 9.641446 11.559086 -1.560239 0.584295 -0.000925 -0.000588 530127.000000 1 0 0
0.034286 3.578771 -9.652354 10.294499 1.561216 2.786524 0.011769 -0.009328 78184.500000 1 0 0
4.522786 -3.082829 10.920546 12.215472 -0.598285 0.464618 0.010442 -0.002649 -2229540.000000 1 0 0
8.602486 -9.282929 1.243146 12.716955 -0.823424 1.472885 0.002976 -0.003879 -970239.000000 1 0 0
-0.288914 -0.357429 11.299446 11.308789 0.891007 0.040652 0.008452 -0.001427 -991824.000000 1 0 0
10.851586 5.951371 11.377046 16.811095 0.501640 0.827446 0.022418 -0.003419 -198450.000000 1 0 0
-6.354514 -2.942029 -11.795054 13.717095 0.433598 2.605831 0.003057 -0.001998 521218.000000 1 0 0
-1.684714 2.765371 8.412346 9.014050 -1.023626 0.367445 0.003623 -0.001142 -848821.000000 1 0 0
-1.772814 13.424971 -6.865754 15.182598 -1.439502 2.040040 0.004956 -0.000517 723084.000000 1 0 0
7.738186 3.192571 9.748546 12.849365 0.391298 0.709513 0.007021 0.000534 -48224.400000 1 0 0
6.515086 8.464171 -7.988454 13.338063 0.914790 2.212950 0.006771 -0.006679 -537211.000000 1 0 0
6.732386 -2.971129 -3.940454 8.347443 -0.415611 2.062417 0.002487 -0.001280 -1684720.000000 1 0 0
2.005186 8.086571 1.099246 8.403674 1.327734 1.439615 0.005385 -0.001025 888827.000000 1 0 0
-17.533614 6.243171 6.402846 19.682511 -0.342071 1.239461 0.021889 -0.006732 -99720.200000 1 0 0
-14.540614 3.127471 -10.186354 18.026989 -0.211858 2.171304 0.023496 -0.002346 -114679.000000 1 0 0
-18.357514 -0.012129 -4.385954 18.874191 0.000661 1.805319 0.030988 -0.006806 377702.000000 1 0 0
-13.089914 7.961671 0.131946 15.321601 -0.546449 1.562184 0.003593 -0.003241 -2099440.000000 1 0 0
-12.546614 -4.388629 -12.598554 18.313961 0.336484 2.329417 0.018810 -0.002095 -1028880.000000 1 0 0
-17.397314 -0.751129 -8.739454 19.483552 0.043148 2.035945 0.041951 -0.012866 638528.000000 1 0 0
-16.681314 -2.155729 -2.110454 16.951915 0.128518 1.695617 0.024100 -0.010779 -154428.000000 1 0 0
-15.372014 4.160871 1.752546 16.021332 -0.264344 1.461189 0.011538 -0.001871 -367168.000000 1 0 0
-13.227514 5.886071 4.408746 15.134398 -0.418677 1.275204 0.000773 -0.002783 -658586.000000 1 0 0
-10.082614 14.112371 2.849146 17.576568 -0.950437 1.407979 0.023458 -0.009908 -431626.000000 1 0 0
-11.942214 2.506271 -6.368054 13.764083 -0.206864 2.051787 0.005184 0.000827 757287.000000 1 0 0
-15.972614 10.548871 3.747346 19.505017 -0.583676 1.377472 0.020564 -0.011353 -398061.000000 1 0 0
-12.790714 1.139071 -8.528154 15.415228 -0.088820 2.157032 0.006970 -0.000691 606349.000000 1 0 0
-12.360014 14.415071 4.040546 19.413661 -0.862001 1.361135 0.037401 -0.013020 538515.000000 1 0 0
-10.467314 11.169071 -1.023154 15.341436 -0.817821 1.637538 0.007055 -0.002835 881393.000000 1 0 0
-16.902014 5.422871 8.812746 19.817924 -0.310466 1.109973 0.016732 -0.016669 444178.000000 1 0 0
-11.791814 12.738371 -9.272454 19.679720 -0.823966 2.061411 0.025463 -0.007394 -585907.000000 1 0 0
-17.222214 -0.448729 3.050046 17.495965 0.026049 1.395573 0.028466 -0.008476 948283.000000 1 0 0
-13.346514 14.815571 -0.545654 19.948141 -0.837515 1.598153 0.052555 -0.014414 21536.500000 1 0 0
-16.626614 4.622571 -10.301354 20.098019 -0.271174 2.108955 0.056297 -0.004916 175123.000000 1 0 0
-11.923214 7.616571 -8.824054 16.674505 -0.568463 2.128447 0.003818 -0.000077 -12972.500000 1 0 0
-14.896314 13.397871 -2.093454 20.144123 -0.732488 1.674908 0.054150 -0.017464 981875.000000 1 0 0
-11.985514 10.627471 -5.443854 16.918370 -0.725414 1.898397 0.018562 -0.008605 1248730.000000 1 0 0
-17.734814 2.858071 -0.785754 17.980812 -0.159782 1.614510 0.033270 -0.005744 -528427.000000 1 0 0
-9.467314 15.323371 0.773746 18.028711 -1.017366 1.527866 0.028488 -0.010408 425203.000000 1 0 0
-8.227114 13.197071 -3.815754 16.012747 -1.013345 1.811406 0.009881 -0.002703 -217068.000000 1 0 0
-17.934714 11.341371 2.058046 21.319386 -0.563881 1.474112 0.080341 -0.018115 392120.000000 1 0 0
-8.106414 15.651971 -7.304354 19.080140 -1.092918 1.963649 0.042608 -0.018653 -345753.000000 1 0 0
-6.299314 15.266171 -5.431254 17.384932 -1.179448 1.888527 0.008472 -0.001788 -492445.000000 1 0 0
-17.343414 5.352371 -0.144854 18.151112 -0.299338 1.578777 0.039454 -0.002307 600076.000000 1 0 0
-5.343014 12.224971 -12.190454 18.072213 -1.158757 2.311140 0.011396 -0.010267 -725628.000000 1 0 0
-11.189514 3.753271 -11.274254 16.321798 -0.323634 2.333320 0.008201 -0.006855 930718.000000 1 0 0
-12.005814 11.029771 1.233046 16.349796 -0.743052 1.495308 0.010380 -0.005545 875936.000000 1 0 0
-12.914214 0.198871 -10.986954 16.956699 -0.015398 2.275675 0.008114 -0.007872 -343188.000000 1 0 0
-13.948814 -2.274129 -13.043654 19.232212 0.161612 2.316133 0.027223 -0.005430 -4196.230000 1 0 0
-18.697114 -2.470029 -3.755054 19.229757 0.131347 1.767332 0.023570 -0.010333 84356.100000 1 0 0
-18.336414 4.747671 -5.113754 19.619249 -0.253357 1.834492 0.041181 -0.000496 620967.000000 1 0 0
-8.110814 15.250471 -2.135754 17.404701 -1.082002 1.693818 0.019915 -0.011694 -228584.000000 1 0 0
-16.254914 8.991571 -5.254754 19.305000 -0.505266 1.846471 0.037755 -0.003601 -11836.100000 1 0 0
-18.354314 1.669671 2.117546 18.551352 -0.090719 1.456402 0.054674 -0.012067 -630738.000000 1 0 0
-15.752814 -2.736729 -8.653654 18.180390 0.172013 2.066884 0.019619 -0.007200 -106702.000000 1 0 0
-9.825414 10.413271 -7.210154 16.030012 -0.814436 2.037328 0.011673 -0.009484 353887.000000 1 0 0
-13.917814 12.136571 -7.700454 20.007471 -0.717138 1.965873 0.032060 -0.014313 2442.510000 1 0 0
-11.017414 6.590171 -3.837354 13.399219 -0.539065 1.861249 0.003427 -0.001667 -1153470.000000 1 0 0
-13.024914 5.033071 -12.656354 18.845782 -0.368744 2.307129 0.039027 -0.014059 -121491.000000 1 0 0
-17.898214 8.931271 2.914446 20.214046 -0.462850 1.426113 0.050843 -0.012463 927457.000000 1 0 0
-13.522314 8.599171 -6.479754 17.285426 -0.566417 1.955051 0.008385 -0.003629 -852034.000000 1 0 0
-15.756714 7.007171 -3.723954 17.642061 -0.418446 1.783480 0.011877 0.001013 -1191190.000000 1 0 0
-14.888414 -0.289929 -9.322354 17.568586 0.019471 2.130136 0.023955 -0.006393 -246998.000000 1 0 0
-10.069514 5.785571 -6.102154 13.118850 -0.521506 2.054594 0.000455 -0.002686 260076.000000 1 0 0
-12.901514 12.182071 -0.855454 17.764676 -0.756724 1.618970 0.024016 -0.012339 -503092.000000 1 0 0
-10.695014 3.502571 -13.898854 17.883777 -0.316487 2.460963 0.014782 -0.009249 164010.000000 1 0 0
-10.932114 6.357371 -11.774354 17.278967 -0.526729 2.320507 0.002640 -0.009051 -1293050.000000 1 0 0
-5.774114 11.516671 -14.724254 19.564707 -1.106053 2.422787 0.021937 -0.015362 -36825.600000 1 0 0
-15.779814 13.200471 3.525746 20.873089 -0.696629 1.401069 0.044003 -0.022658 -11090.000000 1 0 0
-15.043714 10.951071 -3.157954 18.873579 -0.629239 1.738908 0.035710 -0.006823 933097.000000 1 0 0
-18.188114 7.564571 -4.362754 20.175824 -0.394144 1.788755 0.040132 -0.004918 -776953.000000 1 0 0
-3.899514 16.296171 -10.681054 19.870992 -1.335923 2.138290 0.019584 -0.003161 27627.200000 1 0 0
-15.813514 4.360471 -4.320754 16.963191 -0.269057 1.828348 0.014026 0.003897 -616919.000000 1 0 0
-18.737914 -1.750829 -6.295654 19.844649 0.093167 1.893621 0.041144 -0.011225 660940.000000 1 0 0
-10.927014 8.602371 -5.880454 15.099012 -0.666923 1.970841 0.001833 -0.002403 371591.000000 1 0 0
-11.203514 13.327571 -6.681154 18.648879 -0.871769 1.937200 0.028782 -0.016712 -149066.000000 1 0 0
-9.525814 10.479271 -4.524954 14.867127 -0.833023 1.880062 -0.000669 -0.001610 -35009.600000 1 0 0
-11.095014 6.337271 -0.098854 12.777720 -0.518960 1.578533 -0.000578 -0.001347 -209955.000000 1 0 0
-14.714114 9.301971 -1.393054 17.463460 -0.563746 1.650651 0.026023 -0.006322 -496796.000000 1 0 0
-18.925214 3.430571 4.884046 19.844053 -0.179323 1.322120 0.057650 -0.012592 284812.000000 1 0 0
-15.010714 13.171371 0.395446 19.974056 -0.720224 1.550997 0.038578 -0.011447 102136.000000 1 0 0
-16.793914 2.355071 -9.015154 19.205596 -0.139325 2.059410 0.035529 -0.005274 964895.000000 1 0 0
-9.138614 8.424471 -8.946354 15.314151 -0.744759 2.194676 0.006469 -0.004008 -1635830.000000 1 0 0
-17.721614 4.675171 -2.582654 18.508996 -0.257935 1.710788 0.028881 0.004131 821244.000000 1 0 0
-13.512314 5.767271 -4.339054 15.318990 -0.403408 1.857974 0.006566 0.001515 655259.000000 1 0 0
-12.255414 9.650471 3.401946 15.965588 -0.667039 1.356070 -0.000263 -0.002693 963277.000000 1 0 0
-17.641014 2.472371 -3.927454 18.241242 -0.139242 1.787802 0.027092 0.000102 1013000.000000 1 0 0
-11.421414 1.511871 -12.558754 17.042792 -0.131606 2.399262 0.014083 -0.004732 721002.000000 1 0 0
-11.186514 11.942671 3.529446 16.739847 -0.818079 1.358361 0.009836 -0.006499 -539097.000000 1 0 0
-16.155914 13.035971 -4.330754 21.206262 -0.678925 1.776464 0.044785 -0.011581 683518.000000 1 0 0
-11.099714 4.190971 -4.487254 12.684768 -0.361026 1.932375 -0.000062 -0.003008 -15458.800000 1 0 0
-11.089914 15.096471 -8.575554 20.601693 -0.937222 2.000119 0.038571 -0.018257 334466.000000 1 0 0
-15.428814 7.051371 -0.207454 16.965058 -0.428681 1.583025 0.019677 -0.003507 154062.000000 1 0 0
-12.781214 8.423471 -3.994454 15.819923 -0.582712 1.826054 0.004676 -0.000818 540368.000000 1 0 0
-19.247614 1.876771 -5.871854 20.210680 -0.097199 1.865579 0.054717 -0.009508 -269013.000000 1 0 0
-12.772114 10.210671 -8.799254 18.569103 -0.674406 2.064471 0.017969 -0.006862 405159.000000 1 0 0
-16.735514 11.011171 -1.036154 20.059834 -0.581945 1.622472 0.041637 -0.006187 985801.000000 1 0 0
-10.819914 6.612171 -14.408354 19.193541 -0.548549 2.419899 0.031988 -0.019282 -371397.000000 1 0 0
-13.498014 12.835471 -4.103854 19.073210 -0.760244 1.787655 0.030313 -0.015891 -208291.000000 1 0 0
-18.064614 7.837971 -0.057754 19.691811 -0.409372 1.573729 0.051412 -0.008771 486557.000000 1 0 0
-12.771914 6.653971 -2.053254 14.546923 -0.480294 1.712416 0.001330 0.000032 27105.200000 1 0 0
-13.934614 8.569971 -10.380954 19.374780 -0.551385 2.136248 0.026839 -0.007542 -472549.000000 1 0 0
-14.987014 1.366371 -0.933454 15.078094 -0.090919 1.632744 0.009907 -0.003208 -1084320.000000 1 0 0
-13.445014 2.828871 -2.362054 13.940955 -0.207378 1.741050 0.004286 -0.000390 47141.000000 1 0 0
-11.503514 9.351971 -10.806254 18.345717 -0.682597 2.200659 0.016392 -0.006064 -168649.000000 1 0 0
-15.410714 4.312871 -7.951354 17.869387 -0.272881 2.031938 0.021667 0.000489 920666.000000 1 0 0
-18.584014 10.740771 4.476846 21.926511 -0.524054 1.365175 0.087749 -0.031454 1059380.000000 1 0 0
-15.322514 6.198571 -6.114354 17.623480 -0.384414 1.925107 0.017852 0.006325 676349.000000 1 0 0
-7.707414 11.170571 -13.032354 18.815636 -0.966830 2.335931 0.015584 -0.011692 765695.000000 1 0 0
-16.853114 9.045771 -2.675954 19.313575 -0.492607 1.709797 0.037064 -0.007601 272806.000000 1 0 0
-20.721014 -1.271729 -4.609654 21.265621 0.061297 1.789296 0.060310 -0.013061 34282.500000 1 0 0
-15.401814 4.384371 4.232046 16.563478 -0.277330 1.312427 0.013895 -0.002963 -276948.000000 1 0 0
-6.915614 12.583571 -9.398254 17.160978 -1.068280 2.150352 0.017599 -0.008480 -1717400.000000 1 0 0
-17.312514 1.534371 5.690146 18.288117 -0.088397 1.254405 0.031482 -0.015867 170396.000000 1 0 0
-10.339614 14.343371 -2.940854 17.924523 -0.946205 1.735610 0.034180 -0.012971 -169331.000000 1 0 0
-10.144914 8.602571 -12.890854 18.522895 -0.703314 2.340527 0.010684 -0.007087 -112819.000000 1 0 0
-13.793114 11.778371 2.977646 18.380598 -0.706772 1.408080 0.022520 -0.011425 635748.000000 1 0 0
-16.935114 6.703871 1.982946 18.321355 -0.376929 1.462353 0.023202 -0.004146 686321.000000 1 0 0
-9.304614 13.236971 -8.421254 18.240361 -0.958109 2.050687 0.033729 -0.017124 -309332.000000 1 0 0
-5.477814 9.782571 -12.870154 17.068861 -1.060341 2.424948 0.006696 -0.006380 -549691.000000 1 0 0
-16.004914 1.900971 3.166046 16.425432 -0.118220 1.376830 0.015160 -0.005730 -824250.000000 1 0 0
-18.735814 -4.805529 4.504846 19.859947 0.251077 1.341974 0.059303 -0.011735 1098410.000000 1 0 0
-5.227714 14.486571 -9.129054 17.903334 -1.224474 2.105874 0.013510 -0.003895 -530965.000000 1 0 0
-15.461814 -0.851629 -6.771154 16.900932 0.055024 1.983009 0.015825 -0.005090 1021270.000000 1 0 0
-8.916314 10.939871 -9.556254 17.044161 -0.886958 2.165998 0.013308 -0.010135 565601.000000 1 0 0
-16.772914 1.234871 -6.028154 17.866007 -0.073490 1.914960 0.012379 -0.004361 365809.000000 1 0 0
-11.174214 8.634171 -1.487654 14.199475 -0.657863 1.675757 0.002159 -0.004605 -625710.000000 1 0 0
-11.052514 11.088871 -12.718654 20.171398 -0.787040 2.253031 0.035387 -0.009799 144696.000000 1 0 0
-13.899914 11.784771 -10.355554 20.960104 -0.703233 2.087550 0.039641 -0.017022 -803097.000000 1 0 0
-13.253314 5.762271 -7.654254 16.353645 -0.410125 2.057874 0.008253 0.004479 -1079850.000000 1 0 0
-8.802914 15.546871 -4.716554 18.478159 -1.055587 1.828903 0.026307 -0.009194 513177.000000 1 0 0
-8.713114 6.304671 -13.021154 16.888389 -0.626379 2.451225 0.006883 -0.007264 159286.000000 1 0 0
-16.314414 7.520671 4.367446 18.487704 -0.431950 1.332307 0.022028 -0.003746 -82625.700000 1 0 0
-12.717314 5.592271 -10.157554 17.209866 -0.414286 2.202124 0.012068 0.000976 746569.000000 1 0 0
-12.707314 9.155371 -13.153754 20.452821 -0.624339 2.269371 0.058861 -0.019286 -1243750.000000 1 0 0
-10.782014 5.238471 -8.487854 14.687991 -0.452266 2.186921 0.000161 0.000437 -544867.000000 1 0 0
-17.685714 -4.476129 -2.613954 18.429677 0.247888 1.713110 0.021788 -0.013769 414962.000000 1 0 0
-8.879214 13.136771 -10.949854 19.269523 -0.976425 2.175171 0.039639 -0.016218 316948.000000 1 0 0
-14.988814 6.195371 6.152246 17.346392 -0.391947 1.208235 0.012248 -0.008256 -1794930.000000 1 0 0
-16.314214 -3.160429 -4.453054 17.203825 0.191352 1.832618 0.018257 -0.009846 -1064000.000000 1 0 0
-11.216014 -1.124729 -12.647554 16.941801 0.099945 2.413627 0.006882 0.002406 491970.000000 1 0 0
-15.583414 6.825271 -8.500454 19.018014 -0.412816 2.034170 0.026031 0.004698 370420.000000 1 0 0
-14.932314 9.228771 1.273446 17.600167 -0.553579 1.498379 0.026339 -0.010641 -68515.000000 1 0 0
-19.422314 5.315871 7.903546 21.632171 -0.267156 1.196776 0.060524 -0.027912 374969.000000 1 0 0
-16.356314 0.561171 0.922546 16.391919 -0.034296 1.514486 0.020240 -0.006553 -1289670.000000 1 0 0
-17.538014 3.669671 7.075946 19.264409 -0.206265 1.194685 0.026902 -0.008757 779311.000000 1 0 0
-15.514114 4.035571 -1.331954 16.085636 -0.254483 1.653695 0.013200 -0.001411 -2393450.000000 1 0 0
-10.951314 13.267171 0.527046 17.211243 -0.880732 1.540169 0.021277 -0.011043 -411390.000000 1 0 0
-13.538114 3.316871 0.083346 13.938763 -0.240270 1.564817 0.005796 -0.002297 -504993.000000 1 0 0
-15.116414 0.107471 -4.233854 15.698505 -0.007109 1.843876 0.010547 -0.002496 -60067.200000 1 0 0
-18.762414 6.670371 3.659446 20.246323 -0.341582 1.389051 0.027969 -0.004671 95595.300000 1 0 0
-14.164214 1.278971 -6.316954 15.561640 -0.090052 1.988794 0.009813 -0.001569 69717.700000 1 0 0
-14.657514 11.964171 5.456446 19.691544 -0.684570 1.290026 0.021386 -0.012370 277489.000000 1 0 0
17.848186 5.756071 6.095146 19.719049 0.311971 1.256550 0.068805 -0.015096 -412982.000000 1 0 0
18.637786 7.592071 -0.342754 20.127694 0.386825 1.587826 0.043299 0.007231 546372.000000 1 0 0
16.698586 5.350971 8.452746 19.465985 0.310106 1.121611 0.074105 -0.014453 372299.000000 1 0 0
11.447586 12.505471 10.829546 20.117482 0.829534 1.002360 0.032913 -0.012976 453175.000000 1 0 0
-2.232514 16.241171 -0.519654 16.402128 -1.434192 1.602484 -0.001843 -0.004118 338152.000000 1 0 0
15.130286 12.692671 3.379846 20.036287 0.698010 1.401300 0.056231 -0.014083 323808.000000 1 0 0
13.603186 11.838271 6.714746 19.242638 0.716138 1.214344 0.057188 -0.011429 890854.000000 1 0 0
-0.708214 15.916671 8.594246 18.102570 -1.526331 1.076113 0.004899 -0.003874 65404.900000 1 0 0
0.656186 12.865371 9.271946 15.871904 1.519836 0.946935 0.002883 -0.005592 -621343.000000 1 0 0
0.771386 15.379671 -3.904054 15.886187 1.520682 1.819091 0.002862 -0.003602 62009.000000 1 0 0
5.491486 10.270771 13.376046 17.735945 1.079798 0.716396 0.016514 -0.017897 154754.000000 1 0 0
-1.351614 16.508871 -2.749954 16.790829 -1.489107 1.735315 -0.000610 -0.001577 -368714.000000 1 0 0
8.485986 10.065271 3.383246 13.592939 0.870324 1.319255 0.012879 -0.004319 792960.000000 1 0 0
12.611486 13.715171 -4.908854 19.267909 0.827296 1.828405 0.059886 -0.016460 364921.000000 1 0 0
2.398486 11.576971 7.661846 14.088395 1.366509 0.995789 0.004335 0.000404 285266.000000 1 0 0
-0.291214 14.891071 -8.569654 17.183357 -1.551243 2.092916 0.011856 -0.004413 -1281070.000000 1 0 0
2.348686 15.975671 0.169846 16.148289 1.424826 1.560278 0.007614 -0.010816 -652198.000000 1 0 0
1.821786 13.465371 5.104646 14.515252 1.436319 1.211437 0.004783 -0.001761 -766542.000000 1 0 0
17.547286 9.242771 -1.933854 19.926762 0.484806 1.667997 0.024564 0.004949 536872.000000 1 0 0
-7.302214 14.879571 7.249446 18.090838 -1.114573 1.158489 0.016585 -0.013075 183161.000000 1 0 0
8.440886 15.879471 -0.125254 17.983933 1.082221 1.577761 0.007798 -0.006750 172196.000000 1 0 0
15.704786 10.523071 2.152846 19.026562 0.590345 1.457404 0.044495 -0.006906 285428.000000 1 0 0
14.236386 7.483171 8.717446 18.293889 0.483946 1.074102 0.062078 -0.016681 -772478.000000 1 0 0
4.061986 18.624471 -2.024154 19.169451 1.356060 1.676586 0.008318 -0.010624 -338028.000000 1 0 0
-0.346614 17.418971 -4.826554 18.078615 -1.550900 1.841050 0.009627 -0.009193 -95292.800000 1 0 0
1.282586 13.734571 -0.748654 13.814628 1.477683 1.625016 0.004095 -0.008042 529237.000000 1 0 0
10.167386 14.668671 4.206146 18.336775 0.964692 1.339353 0.024620 -0.013586 534519.000000 1 0 0
-1.623714 15.276671 -5.163954 16.207392 -1.464907 1.895067 0.006544 -0.001472 -5123.310000 1 0 0
15.242286 8.848771 -6.214354 18.688130 0.525988 1.909781 0.053220 -0.015835 781817.000000 1 0 0
-2.274514 18.487671 0.830446 18.645563 -1.448383 1.526243 0.004973 -0.009219 -349766.000000 1 0 0
-3.828014 19.423471 3.576746 20.117605 -1.376208 1.392054 0.022151 -0.008694 16172.800000 1 0 0
1.779286 17.566971 -2.737154 17.867746 1.469855 1.724592 0.002431 -0.010949 -721533.000000 1 0 0
2.936186 12.081571 3.266746 12.855239 1.332388 1.313861 0.002295 -0.001460 412391.000000 1 0 0
-2.487114 16.162771 1.913146 16.464538 -1.418115 1.454335 0.005086 -0.004477 -511172.000000 1 0 0
11.775286 12.817771 -2.677754 17.610309 0.827762 1.723445 0.027487 -0.005748 495019.000000 1 0 0
7.169586 11.838971 4.679646 14.610382 1.026275 1.244754 0.006212 -0.001745 -462164.000000 1 0 0
6.936486 15.560171 1.885146 17.140231 1.151453 1.460590 0.007407 -0.009794 -1849140.000000 1 0 0
5.471486 12.354171 10.278146 16.976542 1.153874 0.920487 0.006892 0.000239 1550050.000000 1 0 0
-1.350314 14.227471 3.227046 14.651215 -1.476171 1.348717 0.004253 -0.001604 -1232170.000000 1 0 0
4.531286 15.993971 1.516946 16.692537 1.294719 1.479795 0.002164 -0.012794 -2382000.000000 1 0 0
7.349186 13.278771 11.834746 19.245714 1.065305 0.908501 0.022907 -0.011834 -59876.600000 1 0 0
0.690186 17.077971 -9.486654 19.548147 1.530405 2.077499 0.011261 -0.006895 449556.000000 1 0 0
9.805486 9.392771 15.418646 20.545227 0.763904 0.722018 0.033295 -0.019513 -1125440.000000 1 0 0
13.540686 7.475271 -0.148954 15.467774 0.504423 1.580426 0.008731 0.000768 345376.000000 1 0 0
12.469686 13.511471 -0.199454 18.387297 0.825474 1.581644 0.040034 -0.009450 472688.000000 1 0 0
9.452386 12.325771 3.435446 15.908316 0.916579 1.353129 0.016673 -0.001997 15470.600000 1 0 0
-0.610514 12.966571 0.967646 13.016952 -1.523747 1.496390 0.006808 -0.004056 -633235.000000 1 0 0
16.051486 7.355771 -0.863454 17.677758 0.429703 1.619660 0.031991 0.004584 -1231440.000000 1 0 0
-4.187214 18.412071 -2.272054 19.018395 -1.347183 1.690548 0.012992 -0.008282 81986.900000 1 0 0
11.590186 9.313671 -3.220554 15.213443 0.676922 1.784102 0.019723 -0.005655 180694.000000 1 0 0
14.719386 9.798171 7.852546 19.347531 0.587308 1.152868 0.059949 -0.016497 -505356.000000 1 0 0
4.384886 13.812871 4.649946 15.219876 1.263409 1.260314 0.003792 -0.000726 1249350.000000 1 0 0
2.085086 16.000671 5.632046 17.090611 1.441214 1.234980 0.002269 -0.000179 469305.000000 1 0 0
6.202586 18.458671 5.443046 20.219331 1.246625 1.298234 0.024402 -0.017660 -23019.200000 1 0 0
10.768086 16.991271 -0.647654 20.126460 1.005935 1.602981 0.038810 -0.009778 -375314.000000 1 0 0
10.013586 13.543171 -4.504254 17.434956 0.934125 1.832106 0.033504 -0.009585 1556160.000000 1 0 0
16.624386 8.035371 2.262346 18.602570 0.450238 1.448880 0.027889 -0.005967 -49787.400000 1 0 0
3.903686 13.968771 -0.416654 14.509959 1.298290 1.599515 0.000928 -0.008810 174968.000000 1 0 0
5.539286 13.097571 -2.391554 14.420457 1.170685 1.737411 0.004529 -0.006946 127239.000000 1 0 0
-6.116814 16.888771 -2.857154 18.188165 -1.223310 1.728538 0.014930 -0.001792 -1536850.000000 1 0 0
18.172986 9.970071 2.533746 20.882519 0.501783 1.449163 0.056320 -0.013529 -487370.000000 1 0 0
7.887486 12.986671 9.332246 17.831345 1.024988 1.020005 0.016530 -0.009377 1137910.000000 1 0 0
-2.640314 15.748071 6.697246 17.315487 -1.404682 1.173661 0.003014 -0.001642 1479850.000000 1 0 0
11.138986 15.989771 6.242146 20.462506 0.962334 1.260802 0.039323 -0.016161 45875.100000 1 0 0
13.517186 11.971871 1.399946 18.110766 0.724846 1.493420 0.041808 -0.006437 -187567.000000 1 0 0
17.646686 7.847771 -5.566754 20.099298 0.418451 1.851428 0.039501 0.005792 437109.000000 1 0 0
9.483086 9.188071 8.026246 15.452190 0.769599 1.024619 0.015450 -0.006308 -126722.000000 1 0 0
-2.016614 14.182471 -1.907954 14.451626 -1.429553 1.703206 -0.002118 -0.002916 535448.000000 1 0 0
10.998686 11.525771 0.729646 15.948256 0.808794 1.525030 0.018003 -0.003338 -392718.000000 1 0 0
11.774286 9.695271 -0.544354 15.261992 0.688864 1.606471 0.015864 -0.001108 -338401.000000 1 0 0
-0.428614 16.009071 11.145046 19.511179 -1.544030 0.962813 0.013553 -0.009846 -591401.000000 1 0 0
1.832386 20.010871 -1.912754 20.185421 1.479481 1.665698 0.014878 -0.019946 -573679.000000 1 0 0
9.199386 14.307971 1.723346 17.097270 0.999389 1.469828 0.019498 -0.005617 -696295.000000 1 0 0
8.586086 11.590371 -5.226754 15.341986 0.933213 1.918440 0.013441 -0.007866 -987912.000000 1 0 0
10.621086 10.128071 10.238146 17.894270 0.761642 0.961676 0.019338 -0.011931 168175.000000 1 0 0
-5.143314 15.779571 5.785946 17.576283 -1.255708 1.235350 -0.001085 -0.005457 -459230.000000 1 0 0
14.373086 9.055271 -1.958154 17.100231 0.562198 1.685558 0.027790 -0.004482 -369134.000000 1 0 0
12.176286 9.620171 6.994546 17.021554 0.668659 1.147330 0.027320 -0.011638 -468754.000000 1 0 0
3.092786 12.966871 9.653646 16.458978 1.336656 0.944031 0.009808 -0.008040 -655224.000000 1 0 0
8.521886 12.631771 -2.684654 15.472283 0.977295 1.745193 0.015708 -0.004234 -1067990.000000 1 0 0
9.249786 16.796971 2.259146 19.308043 1.067430 1.453522 0.014251 -0.013736 -303605.000000 1 0 0
9.721186 14.324471 -7.679654 18.938559 0.974549 1.988326 0.043894 -0.011967 -663979.000000 1 0 0
6.374686 11.489771 7.302646 15.032634 1.064265 1.063534 0.002036 -0.000868 -600898.000000 1 0 0
5.572286 16.840271 -5.592354 18.598912 1.251246 1.876204 0.007367 0.000846 -1396630.000000 1 0 0
-4.252914 17.163471 -4.688254 18.293489 -1.327900 1.829968 0.010457 -0.004433 276588.000000 1 0 0
0.014486 18.362771 -0.435054 18.367930 1.570007 1.594484 0.012349 -0.020744 -159022.000000 1 0 0
6.657486 15.513771 -2.810754 17.114308 1.165429 1.735778 0.002291 -0.004213 740222.000000 1 0 0
-0.906614 20.635471 0.465246 20.660616 -1.526890 1.548276 0.013777 -0.013260 46507.000000 1 0 0
-1.422714 18.805771 4.396146 19.365104 -1.495287 1.341786 0.008854 -0.003121 324712.000000 1 0 0
7.177586 13.681471 -4.448154 16.077514 1.087647 1.851123 0.005832 -0.002467 -321912.000000 1 0 0
-1.081414 11.957171 7.578946 14.198021 -1.480601 1.007705 -0.000028 0.002600 621185.000000 1 0 0
7.653486 10.882171 10.927846 17.216716 0.957856 0.883146 0.009366 -0.007242 290411.000000 1 0 0
1.609686 16.090171 -7.326354 17.752751 1.471087 1.996200 0.003270 0.000168 -229121.000000 1 0 0
8.821886 7.125971 14.716446 18.578991 0.679455 0.656552 0.021522 -0.004580 119522.000000 1 0 0
11.450586 11.354871 -4.950454 16.868788 0.781201 1.868649 0.040901 -0.015682 -258078.000000 1 0 0
-3.394914 17.000871 4.462046 17.901534 -1.373698 1.318885 0.004122 -0.002401 -259311.000000 1 0 0
4.062186 15.309971 -6.772954 17.226998 1.311443 1.974861 0.009550 -0.004659 -735677.000000 1 0 0
-4.514414 13.930971 9.530946 17.472573 -1.257419 0.993834 0.011624 -0.012896 -820446.000000 1 0 0
6.181886 17.749071 0.572846 18.803547 1.235643 1.540327 0.013438 -0.010736 -358568.000000 1 0 0
9.878886 10.738971 -2.134854 14.747050 0.827090 1.716072 0.017614 -0.004206 -2024440.000000 1 0 0
7.310586 17.997171 -2.483954 19.583484 1.184950 1.697978 0.015064 -0.002015 56380.700000 1 0 0
3.577386 10.341971 10.355346 15.066096 1.237770 0.812993 0.004781 -0.002196 923039.000000 1 0 0
0.004886 18.812171 2.149946 18.934626 1.570537 1.457005 0.007314 -0.005162 603036.000000 1 0 0
-0.847514 17.081071 -7.373254 18.623806 -1.521220 1.977849 0.018022 -0.003668 -426106.000000 1 0 0
9.999986 8.563571 12.930946 18.453829 0.708174 0.794392 0.023928 -0.013181 -329098.000000 1 0 0
3.651286 11.518071 5.553946 13.298277 1.263813 1.139945 0.000580 -0.000793 697685.000000 1 0 0
12.928986 13.964171 8.161946 20.706861 0.823872 1.165636 0.051276 -0.020676 123234.000000 1 0 0
-0.659114 17.423271 6.735346 18.691433 -1.532985 1.202160 0.006739 -0.000960 -602369.000000 1 0 0
12.084286 13.661871 5.680846 19.103630 0.846596 1.268860 0.036245 -0.013073 -27939.500000 1 0 0
4.913386 14.494171 -4.507254 15.954237 1.243963 1.857207 0.007386 -0.004193 -1505990.000000 1 0 0
3.850586 17.553171 4.727746 18.582045 1.354850 1.313543 0.012052 -0.009643 -2368940.000000 1 0 0
7.203886 11.819971 2.031646 13.990542 1.023445 1.425065 0.012685 -0.003736 462425.000000 1 0 0
6.460686 8.635771 11.667246 15.888412 0.928493 0.746126 0.005295 -0.006254 562840.000000 1 0 0
-5.465114 15.010871 1.887246 16.085876 -1.221636 1.453202 0.005849 0.005832 625564.000000 1 0 0
6.764486 13.823971 6.142846 16.570908 1.115721 1.191033 0.008447 -0.007128 -215879.000000 1 0 0
5.953986 15.908571 4.933446 17.688173 1.212672 1.288135 0.009722 -0.011464 740739.000000 1 0 0
1.293486 18.078171 4.361746 18.641840 1.499368 1.334631 0.006976 -0.005014 1321320.000000 1 0 0
7.382786 17.859771 -7.174754 20.614413 1.178813 1.926282 0.016440 -0.005603 405167.000000 1 0 0
-2.342714 18.614271 -5.821254 19.643482 -1.445599 1.871660 0.014748 -0.009505 -3602280.000000 1 0 0
13.627486 10.096971 -4.600854 17.573419 0.637669 1.835691 0.038921 -0.012064 -1561940.000000 1 0 0
-1.578814 18.007071 9.943746 20.630689 -1.483343 1.067874 0.014928 -0.004742 -450707.000000 1 0 0
3.435086 11.791571 -1.508654 12.374045 1.287324 1.693021 0.008098 -0.006126 777405.000000 1 0 0
4.302286 13.999271 -10.857054 18.230877 1.272636 2.208723 0.017246 -0.015932 -84173.100000 1 0 0
11.521786 13.415571 2.305646 17.833819 0.861194 1.441148 0.030867 -0.004986 107925.000000 1 0 0
16.113886 6.597271 -7.270454 18.869043 0.388597 1.966341 0.038506 0.005329 124260.000000 1 0 0
2.465486 16.133471 2.981846 16.590928 1.419151 1.390087 0.003954 -0.007275 -527353.000000 1 0 0
13.582886 10.655271 3.527446 17.620229 0.665195 1.369241 0.041984 -0.005776 -896292.000000 1 0 0
-4.788614 19.402771 -5.831754 20.818446 -1.328831 1.854720 0.000453 -0.011250 183662.000000 1 0 0
5.552886 12.067071 0.025146 13.283425 1.139519 1.568903 0.006942 -0.006845 452601.000000 1 0 0
4.603386 15.329971 9.567146 18.647505 1.279077 1.032059 0.015742 -0.010940 -566861.000000 1 0 0
7.718386 9.226671 13.993546 18.453299 0.874175 0.710061 0.015187 -0.016522 -1845230.000000 1 0 0
-5.066714 13.604471 7.014146 16.123010 -1.214281 1.120714 0.002677 -0.003213 -1204230.000000 1 0 0
-4.474514 17.185171 0.516546 17.765647 -1.316081 1.541717 0.007392 -0.003612 -811906.000000 1 0 0
-0.588914 16.612871 3.560246 17.000284 -1.535362 1.359812 0.006331 -0.004380 -1326630.000000 1 0 0
7.954686 16.755171 -4.838254 19.168241 1.127544 1.825966 0.009927 -0.002068 363051.000000 1 0 0
3.108786 16.484371 -4.677454 17.414867 1.384396 1.842725 0.004540 -0.001022 672268.000000 1 0 0
9.573486 14.411471 8.105146 19.105903 0.984437 1.132694 0.028021 -0.013724 -299684.000000 1 0 0
12.829786 11.043371 9.115546 19.226352 0.710708 1.076835 0.047731 -0.020318 2178720.000000 1 0 0
3.738686 12.296971 12.059946 17.624856 1.275644 0.817211 0.017648 -0.013811 681762.000000 1 0 0
-3.417914 19.015571 6.081146 20.254738 -1.392952 1.265859 0.019781 -0.006330 78808.400000 1 0 0
-2.773014 15.712071 10.122946 18.895312 -1.396106 1.005414 0.010477 -0.016496 -640933.000000 1 0 0
2.024186 14.251271 7.586546 16.271193 1.429705 1.085742 0.006512 -0.005905 -497266.000000 1 0 0
4.388886 17.385771 7.992646 19.631855 1.323521 1.151491 0.024013 -0.008435 -44767.100000 1 0 0
-1.984314 13.410471 9.296446 16.437826 -1.423895 0.969694 0.005924 -0.008637 -532562.000000 1 0 0
5.782786 17.630471 3.066246 18.806275 1.253854 1.407021 0.004389 -0.016997 365461.000000 1 0 0
7.340286 15.260771 -6.908554 18.289315 1.122472 1.958148 0.008064 -0.002161 90260.600000 1 0 0
10.991286 7.670071 9.451946 16.400537 0.609269 0.956579 0.014650 -0.010262 124577.000000 1 0 0
9.211386 16.356571 -2.661354 18.959690 1.057905 1.711630 0.020524 -0.002643 -525297.000000 1 0 0
14.857686 11.513171 -6.408154 19.858710 0.659245 1.899364 0.102868 -0.020566 279583.000000 1 0 0
11.221086 6.431871 15.870746 20.473454 0.520477 0.683786 0.068154 -0.024523 643852.000000 1 0 0
8.594386 8.582471 10.244346 15.889270 0.784705 0.870122 0.006902 -0.005672 -353504.000000 1 0 0
16.447286 9.435371 4.519646 19.492733 0.520837 1.336804 0.055121 -0.010095 172980.000000 1 0 0
-3.292314 14.302371 4.717346 15.415917 -1.344544 1.259803 -0.003407 0.000865 -874586.000000 1 0 0
4.900086 14.541471 12.784746 19.972855 1.245773 0.876160 0.026560 -0.009536 -374645.000000 1 0 0
16.173886 10.517371 -4.421954 19.793013 0.576564 1.796108 0.063517 -0.024457 160195.000000 1 0 0
14.645986 14.040071 6.113446 21.189684 0.764279 1.278126 0.061951 -0.011940 -373390.000000 1 0 0
6.242386 9.538071 9.264446 14.689184 0.991285 0.888343 0.002844 -0.000748 200671.000000 1 0 0
10.314786 11.974671 8.580546 17.983696 0.859730 1.073411 0.024982 -0.018770 -550761.000000 1 0 0
8.083486 11.431771 -0.312654 14.004495 0.955316 1.593123 0.012416 -0.005041 54855.600000 1 0 0
7.612886 13.326671 -8.757754 17.670723 1.051783 2.089331 0.020522 -0.010162 -1383990.000000 1 0 0
2.816486 15.291471 -2.298654 15.717681 1.388651 1.717569 0.005384 -0.008650 260268.000000 1 0 0
12.211086 13.570471 -7.857754 19.874924 0.838076 1.977256 0.065206 -0.025381 541083.000000 1 0 0
-8.080414 14.654671 9.804046 19.395149 -1.066888 1.040847 0.033472 -0.025677 251649.000000 1 0 0
11.533486 9.526671 2.253246 15.127983 0.690395 1.421294 0.020886 -0.002715 -1520300.000000 1 0 0
12.233186 8.755971 4.535346 15.712645 0.621222 1.277987 0.022005 -0.004870 557269.000000 1 0 0
14.081586 8.058771 6.111246 17.337306 0.519796 1.210565 0.035130 -0.011469 -3337450.000000 1 0 0
16.314186 7.562671 7.161346 19.355400 0.434076 1.191796 0.076091 -0.017900 427200.000000 1 0 0
13.719986 8.335771 2.279546 16.214790 0.545963 1.429745 0.026558 -0.004701 -2017110.000000 1 0 0
-4.141414 17.328971 -7.255954 19.237812 -1.336209 1.957537 0.010644 -0.009997 284311.000000 1 0 0
2.855386 19.387671 -4.160254 20.033540 1.424569 1.779983 0.011117 -0.015306 529884.000000 1 0 0
-0.141914 14.869571 6.216446 16.117335 -1.561253 1.174831 0.004386 -0.002135 -112539.000000 1 0 0
6.651686 16.211171 8.347346 19.409409 1.181430 1.126229 0.026033 -0.009780 394051.000000 1 0 0
12.807586 15.113671 -2.050654 19.916387 0.867804 1.673942 0.058509 -0.014882 -90871.200000 1 0 0
12.549186 15.784371 4.141846 20.585998 0.899088 1.368216 0.044265 -0.010925 -456598.000000 1 0 0
2.988686 18.089871 1.308746 18.381743 1.407062 1.499538 0.010558 -0.015185 -373899.000000 1 0 0
10.341786 14.516871 -1.257754 17.868240 0.951798 1.641245 0.027750 -0.000207 -98966.700000 1 0 0
-6.436414 15.797871 -0.395854 17.063319 -1.183907 1.593998 0.013965 -0.003797 -434542.000000 1 0 0
-3.876314 15.786971 -2.558854 16.456063 -1.330021 1.726926 0.003719 -0.004382 -1861570.000000 1 0 0
-6.843314 17.331471 1.717346 18.712566 -1.194738 1.478892 0.016747 0.002725 703514.000000 1 0 0
0.051986 19.363571 -6.355354 20.379919 1.568112 1.887929 0.026803 -0.011027 272761.000000 1 0 0
4.679286 14.930171 6.960346 17.124606 1.267081 1.152228 0.013385 -0.007610 -1178990.000000 1 0 0
8.687186 12.318371 6.837746 16.551865 0.956574 1.144930 0.016287 -0.008677 -1307960.000000 1 0 0
-7.355414 17.501171 -5.670454 19.812803 -1.172929 1.861056 0.029814 -0.012701 185835.000000 1 0 0
-8.035714 17.683471 -1.210754 19.461340 -1.144273 1.633050 0.049780 -0.017056 665524.000000 1 0 0
-13.885714 -8.989429 9.021346 18.841645 0.574536 1.071511 0.060594 -0.019918 -225518.000000 1 0 0
-12.733714 -13.022129 7.672846 19.763499 0.796596 1.172083 0.055044 -0.006430 348767.000000 1 0 0
-3.809114 -15.165929 12.408246 19.961947 1.324724 0.900019 0.016642 -0.016668 267286.000000 1 0 0
-1.781614 -14.143629 14.866746 20.597003 1.445490 0.764409 0.016669 -0.016941 -1122690.000000 1 0 0
-6.906914 -13.562329 12.864146 19.928083 1.099759 0.869081 0.039603 -0.024786 487395.000000 1 0 0
-9.870614 -11.573029 8.980946 17.664128 0.864622 1.037438 0.033899 -0.012513 621173.000000 1 0 0
-10.546814 -10.828329 11.243246 18.838752 0.798568 0.931271 0.057809 -0.018022 540101.000000 1 0 0
-5.941014 -12.207429 10.714846 17.295228 1.117868 0.902657 0.033000 -0.017141 683281.000000 1 0 0
-12.498314 -10.466029 7.352646 17.883149 0.697131 1.147082 0.031140 -0.004850 -720452.000000 1 0 0
-7.596214 -11.143529 12.480046 18.374772 0.972478 0.824132 0.037723 -0.024954 416892.000000 1 0 0
-14.842414 -11.493129 7.322746 20.149737 0.658900 1.198864 0.064235 -0.003685 274817.000000 1 0 0
-11.283714 -9.229129 9.293046 17.287560 0.685570 1.003259 0.044121 -0.009442 310708.000000 1 0 0
-5.093114 -11.673729 13.078046 18.255165 1.159403 0.772164 0.026634 -0.030233 -987432.000000 1 0 0
4.198286 -12.284029 14.915346 19.773480 -1.241474 0.716193 0.004786 -0.008616 -383431.000000 1 0 0
6.698086 -12.655129 14.063546 20.069877 -1.084001 0.794377 0.018383 -0.007766 160648.000000 1 0 0
6.736486 -8.353829 15.971646 19.242146 -0.892168 0.591627 0.023749 -0.014114 -729738.000000 1 0 0
0.677286 -1.716729 14.479146 14.596285 -1.195022 0.126776 0.006913 -0.002505 -3024600.000000 1 0 0
-0.172814 -6.384229 15.457646 16.725043 1.543734 0.391804 0.007824 -0.010078 -533932.000000 1 0 0
-1.570614 -4.659829 18.482546 19.125515 1.245701 0.260033 0.018384 -0.015469 -1765790.000000 1 0 0
-5.191414 12.462671 12.856346 18.642816 -1.176099 0.809840 0.014033 -0.021999 -323576.000000 1 0 0
-4.026114 8.708671 11.592546 15.047846 -1.137752 0.691361 0.000615 -0.000878 -433727.000000 1 0 0
-0.700614 -3.910329 14.981646 15.499395 1.393507 0.259199 0.007379 -0.006309 -24992.600000 1 0 0
-4.629414 9.205071 14.164846 17.515926 -1.104815 0.628885 0.009032 -0.007250 267946.000000 1 0 0
-13.547414 -2.594429 16.864846 21.787302 0.189216 0.685555 0.055545 -0.000453 1652830.000000 1 0 0
-0.350314 0.928471 17.311546 17.339965 -1.210009 0.057261 0.020027 -0.006535 -1077620.000000 1 0 0
-3.482114 -7.325029 15.311146 17.326637 1.127044 0.487137 0.009791 -0.011703 6519.080000 1 0 0
-7.431114 5.430171 12.509046 15.530114 -0.631057 0.634328 -0.003819 0.000887 -2103480.000000 1 0 0
-9.977314 10.294271 13.261546 19.529143 -0.801032 0.824309 0.025663 -0.014775 1101760.000000 1 0 0
-5.540414 2.345671 11.177546 12.693931 -0.400493 0.493791 0.002032 0.000061 -1594570.000000 1 0 0
-7.087114 -7.367729 16.862146 19.719092 0.804809 0.545018 0.027685 -0.013963 -220452.000000 1 0 0
-4.838714 3.207071 18.629646 19.513128 -0.585317 0.302067 0.024092 -0.005010 -150676.000000 1 0 0
1.010286 -8.293929 16.525946 18.518014 -1.449583 0.468104 0.009930 -0.007039 836557.000000 1 0 0
-15.080914 -3.769429 13.772346 20.768247 0.244929 0.845784 0.071651 -0.016721 613982.000000 1 0 0
-14.380914 2.120771 13.195646 19.632459 -0.146416 0.833709 0.038161 -0.011042 640511.000000 1 0 0
-5.530114 1.018171 16.094046 17.048083 -0.182075 0.336129 0.019304 -0.000660 256115.000000 1 0 0
4.462386 5.695771 15.147746 16.787165 0.906225 0.445626 0.004362 -0.000495 -185208.000000 1 0 0
-0.872114 -11.918029 13.879646 18.315146 1.497750 0.710826 -0.000997 -0.012123 -486148.000000 1 0 0
-5.884214 -4.056829 16.746246 18.207652 0.603605 0.403387 0.024604 -0.009381 204720.000000 1 0 0
-12.939014 -1.639129 9.828346 16.330990 0.126010 0.925016 0.025210 -0.004727 -671734.000000 1 0 0
-14.519814 10.405171 10.629346 20.786428 -0.621793 1.034030 0.015416 0.008293 403566.000000 1 0 0
-3.548614 -3.395829 17.758046 18.424780 0.763401 0.269841 0.019352 -0.009635 -1713150.000000 1 0 0
-7.873614 9.344271 11.915346 17.067064 -0.870606 0.797988 0.001111 -0.002334 292974.000000 1 0 0
-4.481914 10.680371 16.309246 20.003734 -1.173474 0.617532 0.014078 -0.001358 74823.000000 1 0 0
-12.617814 12.649271 8.173346 19.647312 -0.786643 1.141751 0.024618 -0.019532 625509.000000 1 0 0
-12.678814 3.107571 10.525646 16.768976 -0.240361 0.892220 0.016227 -0.004993 999557.000000 1 0 0
-10.112514 -3.484629 13.698246 17.379515 0.331843 0.662945 0.024503 -0.006128 -1497200.000000 1 0 0
-4.313514 -6.429229 17.710346 19.328677 0.979853 0.412122 0.024718 -0.009236 -433253.000000 1 0 0
0.688986 -3.567829 17.765046 18.132870 -1.380034 0.201762 0.019829 -0.020629 -506993.000000 1 0 0
-5.987814 1.757271 13.638946 14.998759 -0.285459 0.429105 0.006195 0.002593 -412758.000000 1 0 0
-10.526714 8.664671 10.271446 17.070174 -0.688676 0.925145 0.017586 -0.010960 -256062.000000 1 0 0
4.493086 2.546271 17.315446 18.069200 0.515581 0.289856 0.016618 -0.001693 -579324.000000 1 0 0
0.409686 -5.299829 13.106946 14.143835 -1.493648 0.385289 0.006817 -0.004996 -267257.000000 1 0 0
-4.200514 5.831471 20.737046 21.947106 -0.946564 0.333615 0.058997 -0.009020 -284892.000000 1 0 0
-10.979514 10.787571 9.045346 17.853283 -0.776580 1.039503 0.025357 -0.012839 495589.000000 1 0 0
0.610186 4.234971 13.102846 13.783754 1.427699 0.315631 0.009423 -0.002762 -3660780.000000 1 0 0
-3.136414 7.122071 13.380646 15.479104 -1.155972 0.526775 0.002035 0.003522 -543990.000000 1 0 0
0.846586 8.911971 14.180446 16.769764 1.476086 0.563116 0.010857 -0.004569 24850.200000 1 0 0
-4.249414 -6.680329 13.074446 15.284811 1.004249 0.544497 0.010645 -0.007584 -117780.000000 1 0 0
-5.264914 8.220771 16.472946 19.148325 -1.001171 0.534975 0.021477 -0.000912 -152111.000000 1 0 0
1.667186 -10.632329 15.840546 19.150687 -1.415259 0.596774 0.002988 -0.005945 -422659.000000 1 0 0
-15.257714 -1.187329 14.217646 20.888970 0.077662 0.822175 0.058044 -0.011072 726842.000000 1 0 0
-13.620814 -5.126629 8.606746 16.908134 0.359982 1.036739 0.042504 -0.005078 -1116650.000000 1 0 0
-14.149914 -1.972429 12.138346 18.747000 0.138503 0.866521 0.051550 -0.012628 855151.000000 1 0 0
9.281586 1.142671 17.017246 19.417523 0.122495 0.502490 0.040156 -0.001279 -1023880.000000 1 0 0
5.020286 -6.653429 16.859746 18.807510 -0.924395 0.459133 0.030677 -0.016942 5936.010000 1 0 0
-6.114914 -2.645829 11.120746 12.963934 0.408362 0.539780 0.004828 -0.003927 136918.000000 1 0 0
0.493086 -6.187229 17.889846 18.935985 -1.491270 0.333953 0.018525 -0.017823 -247118.000000 1 0 0
-8.473814 12.040971 12.050946 19.026713 -0.957559 0.884896 0.019913 -0.013674 273200.000000 1 0 0
-6.647714 -5.748629 14.778246 17.194051 0.712997 0.536510 0.024785 -0.010505 -604422.000000 1 0 0
-4.243214 -8.939529 17.097246 19.754389 1.127627 0.524667 0.027197 -0.013104 215992.000000 1 0 0
2.469886 -6.181829 16.051646 17.377304 -1.190687 0.393133 0.021102 -0.017477 -249836.000000 1 0 0
2.204686 5.337371 16.050346 17.057602 1.179077 0.345371 0.013628 -0.004612 -1310970.000000 1 0 0
0.920786 -8.848729 13.990646 16.579687 -1.467111 0.566392 0.000308 -0.008368 -578578.000000 1 0 0
-10.029314 -2.800129 11.287346 15.356824 0.272262 0.745122 0.007958 -0.003339 188263.000000 1 0 0
-1.178314 9.939171 12.346546 15.893796 -1.452795 0.681203 0.002550 -0.005622 -663500.000000 1 0 0
-12.484114 -3.755029 11.205146 17.190365 0.292176 0.860805 0.035641 -0.005219 -827915.000000 1 0 0
-1.965414 6.936571 19.932346 21.196162 -1.294692 0.347065 0.041450 -0.008299 -330919.000000 1 0 0
0.515986 -13.375329 15.592246 20.549545 -1.532238 0.709384 -0.001762 -0.015185 -811114.000000 1 0 0
4.197486 -8.558229 15.305746 18.031307 -1.114808 0.557004 0.013201 -0.008944 -180292.000000 1 0 0
4.374786 -4.423929 16.134646 17.292678 -0.790983 0.368043 0.031208 -0.013897 48281.600000 1 0 0
8.029886 1.688971 14.727346 16.859016 0.207314 0.508329 0.015196 0.004111 -789567.000000 1 0 0
-6.228614 -0.071329 11.816646 13.357913 0.011451 0.485123 0.005498 -0.000388 62256.900000 1 0 0
-3.143714 -10.963929 18.256246 21.526291 1.291556 0.558425 0.027217 -0.021578 351401.000000 1 0 0
3.186786 -1.574829 13.511446 13.971215 -0.458977 0.257256 0.010924 -0.002423 667632.000000 1 0 0
-2.747014 8.787971 15.877746 18.354218 -1.267831 0.525500 0.011350 -0.000092 -525691.000000 1 0 0
-3.413714 3.944771 14.865046 15.753865 -0.857443 0.337514 0.010281 -0.002216 -1066980.000000 1 0 0
-4.229114 -9.065929 19.819646 22.201235 1.134319 0.467435 0.035801 -0.011138 -17471.700000 1 0 0
-5.779914 -3.006929 19.032146 20.116451 0.479706 0.329826 0.037929 -0.016136 -854838.000000 1 0 0
-6.596714 -8.702529 11.033946 15.524130 0.922180 0.780217 0.026020 -0.013528 1461450.000000 1 0 0
-11.718814 2.431371 12.675346 17.432916 -0.204573 0.756719 0.030413 -0.017660 -181752.000000 1 0 0
-11.706114 -7.522929 11.633246 18.137254 0.571191 0.874474 0.053772 -0.014002 419876.000000 1 0 0
-11.034914 -7.418629 15.518246 20.435786 0.591883 0.708458 0.058205 -0.023252 -511121.000000 1 0 0
0.194186 5.588871 17.744946 18.605276 1.536065 0.305293 0.021289 -0.008172 66951.500000 1 0 0
-2.154014 -0.015729 13.201746 13.376327 0.007302 0.161740 0.006966 0.000784 384919.000000 1 0 0
-5.810714 -10.518729 18.394246 21.971717 1.066100 0.578693 0.039646 -0.010104 30768.600000 1 0 0
0.320586 2.597071 19.250346 19.427387 1.447976 0.135106 0.033394 -0.011163 -34104.000000 1 0 0
-0.807614 10.803271 14.802346 18.343183 -1.496179 0.631798 0.013870 -0.009054 -1468690.000000 1 0 0
-12.844414 -2.393229 14.334646 19.395582 0.184212 0.739111 0.047487 -0.005920 -241689.000000 1 0 0
-13.708314 8.207271 11.953246 19.953878 -0.539469 0.928490 0.022867 -0.007851 -2445.880000 1 0 0
-18.208314 -0.571229 6.817446 19.451133 0.031362 1.212701 0.071225 -0.020432 627024.000000 1 0 0
-2.020714 -7.677829 17.512146 19.227782 1.313444 0.425644 0.015858 -0.013747 -1339310.000000 1 0 0
5.696586 2.715471 14.584846 15.891589 0.444821 0.408365 0.008770 0.003203 -2475130.000000 1 0 0
-14.110514 -6.733729 11.034846 19.136811 0.445253 0.956199 0.058914 -0.014144 425345.000000 1 0 0
3.148786 7.680471 16.275246 18.269869 1.181722 0.471640 0.018825 -0.013870 -283878.000000 1 0 0
1.002486 2.160371 14.659446 14.851651 1.136333 0.161057 0.010532 -0.002101 -3013990.000000 1 0 0
-14.379414 0.611271 9.738946 17.377810 -0.042485 0.975898 0.033257 -0.009574 -1835840.000000 1 0 0
-9.607914 -5.222329 15.555046 19.014315 0.497873 0.612749 0.037822 -0.003736 -187720.000000 1 0 0
-2.533814 -0.064829 18.248546 18.423730 0.025580 0.138013 0.027370 -0.007604 77184.500000 1 0 0
6.821786 3.716271 17.557946 19.199711 0.498815 0.416550 0.030564 -0.004526 -314564.000000 1 0 0
-4.205814 -0.733329 14.745746 15.351341 0.172625 0.281820 0.013578 0.001462 454365.000000 1 0 0
4.929886 -8.999129 17.882246 20.617052 -1.069630 0.520939 0.028046 -0.005756 -405843.000000 1 0 0
1.963786 6.877171 13.484146 15.263490 1.292647 0.487675 0.011995 -0.001126 -1365870.000000 1 0 0
-3.758314 -0.813329 20.355946 20.715959 0.213122 0.186704 0.037882 -0.013062 -532514.000000 1 0 0
-10.823614 1.565571 16.332846 19.656131 -0.143648 0.590021 0.034608 -0.003380 -144407.000000 1 0 0
-4.122714 7.114671 18.481546 20.228269 -1.045612 0.418623 0.033582 -0.005158 -792346.000000 1 0 0
-12.794314 1.077271 14.704146 19.520935 -0.084001 0.717807 0.045565 -0.011341 645352.000000 1 0 0
-16.177214 -4.872129 8.373646 18.856242 0.292532 1.110651 0.054557 -0.011752 -71140.100000 1 0 0
-2.292914 0.782371 15.754546 15.939739 -0.328825 0.152584 0.016318 -0.001042 115145.000000 1 0 0
-13.797114 -8.883629 12.342446 20.533271 0.572058 0.925926 0.078798 -0.028828 531693.000000 1 0 0
6.137386 -3.211629 14.517646 16.085525 -0.482105 0.445191 0.027734 -0.010955 543993.000000 1 0 0
-15.801814 0.525871 7.491846 17.495760 -0.033267 1.128286 0.034233 -0.013193 547209.000000 1 0 0
-13.976414 5.564071 12.296246 19.429274 -0.378871 0.885539 0.027910 -0.017962 -781696.000000 1 0 0
0.312186 9.358871 16.688946 19.136532 1.537451 0.511321 0.013043 -0.013951 -451347.000000 1 0 0
-10.409214 -5.455929 10.827746 15.979956 0.482776 0.826325 0.025762 -0.010007 -152952.000000 1 0 0
-3.009014 -11.274829 15.177746 19.145232 1.309996 0.655458 0.016168 -0.009950 -964038.000000 1 0 0
-3.475414 2.737671 12.593346 13.347873 -0.667211 0.337842 0.003211 0.000849 -1099660.000000 1 0 0
-12.404714 -7.780829 7.314246 16.368153 0.560214 1.107546 0.037200 -0.008263 181888.000000 1 0 0
-8.226514 -1.857529 13.228646 15.688309 0.222074 0.567557 0.012359 -0.003522 -494076.000000 1 0 0
-9.861714 6.390771 9.497846 15.109746 -0.574995 0.891057 0.002086 -0.001541 -551795.000000 1 0 0
-18.021514 -3.596329 6.592346 19.523514 0.196970 1.226365 0.062311 -0.013440 174501.000000 1 0 0
-1.260314 -0.025129 20.586746 20.625303 0.019936 0.061156 0.036482 -0.005187 -1007560.000000 1 0 0
-2.836314 2.859671 20.324346 20.719591 -0.789499 0.195637 0.044968 -0.008679 -478517.000000 1 0 0
-3.664414 11.181071 11.105846 16.179743 -1.254094 0.814263 0.005599 -0.011228 -1313130.000000 1 0 0
-4.180414 -4.820129 14.978146 16.280490 0.856354 0.402701 0.011382 -0.007942 -97909.700000 1 0 0
0.070786 -14.287529 13.135246 19.408070 -1.565842 0.827399 0.000609 -0.022310 -655784.000000 1 0 0
-12.088914 0.372271 8.402946 14.727184 -0.030785 0.963592 0.005173 -0.001898 -501494.000000 1 0 0
-7.846414 1.936471 15.421546 17.410922 -0.241962 0.482711 0.012172 0.000466 -1417750.000000 1 0 0
3.558886 -2.116729 18.477146 18.935446 -0.536567 0.220461 0.031507 -0.010364 -197115.000000 1 0 0
-2.073214 4.871671 12.687846 13.748194 -1.168447 0.395319 0.002131 -0.000947 -796191.000000 1 0 0
-10.417814 -6.186529 13.355046 18.032228 0.535879 0.736802 0.033458 -0.011601 -209752.000000 1 0 0
2.326686 -3.807329 14.236946 14.919780 -1.022250 0.303712 0.010536 -0.005854 -467694.000000 1 0 0
6.698486 1.144871 17.010046 18.317262 0.169279 0.380081 0.021386 0.000288 -917908.000000 1 0 0
-2.020314 -5.803229 13.748746 15.059454 1.235783 0.420305 0.003479 -0.007333 -3150500.000000 1 0 0
-12.824814 3.671171 14.682946 19.837900 -0.278800 0.737509 0.016749 -0.003873 87239.200000 1 0 0
-13.403514 -6.572829 13.509946 20.133925 0.455923 0.835234 0.062353 -0.017756 -120004.000000 1 0 0
-9.558414 6.781171 11.998746 16.772521 -0.617037 0.773627 0.006291 -0.001673 -541340.000000 1 0 0
-1.114014 -2.434729 12.881746 13.157063 1.141680 0.204933 0.004305 -0.001679 189643.000000 1 0 0
0.005386 6.749071 15.328046 16.748104 1.569998 0.414766 0.012989 -0.005362 598000.000000 1 0 0
-16.553914 -0.794829 9.601246 19.153270 0.047978 1.045713 0.061465 -0.016834 -114145.000000 1 0 0
-1.288614 2.832771 13.905646 14.249635 -1.143879 0.220173 0.005457 -0.000197 -2213790.000000 1 0 0
-11.151114 -3.354929 16.180646 19.935300 0.292246 0.623811 0.036990 -0.009024 -716703.000000 1 0 0
-5.131614 -1.395529 17.073846 17.882874 0.265526 0.301946 0.023454 -0.003896 282450.000000 1 0 0
-11.910914 6.549371 11.045446 17.514737 -0.502738 0.888422 0.020757 -0.005831 -1673610.000000 1 0 0
-2.811114 4.870471 18.653846 19.483065 -1.047329 0.292802 0.032373 -0.010578 53388.200000 1 0 0
5.069886 -1.938729 16.392046 17.267356 -0.365243 0.319768 0.027836 -0.009126 -1244980.000000 1 0 0
-8.091814 -4.135329 12.079646 15.116092 0.472449 0.644958 0.016289 -0.005487 -1108610.000000 1 0 0
-11.753914 -0.851529 16.171446 20.009879 0.072320 0.629753 0.051216 -0.003365 472738.000000 1 0 0
2.049586 2.114271 17.341446 17.589676 0.800932 0.168200 0.013314 -0.009006 -298851.000000 1 0 0
-8.939914 -7.467129 11.685946 16.499740 0.695873 0.783780 0.027534 -0.014310 1208180.000000 1 0 0
-7.312614 7.011171 14.620246 17.787142 -0.764356 0.605960 0.002590 -0.002224 -467677.000000 1 0 0
-5.850314 3.456571 15.713846 17.120135 -0.533653 0.408148 0.010851 -0.000409 -18613.400000 1 0 0
-9.441714 4.225371 11.581646 15.528498 -0.420791 0.729014 -0.000005 -0.005533 -241036.000000 1 0 0
-10.403414 0.040471 14.175246 17.583238 -0.003890 0.633130 0.022066 -0.003383 -701404.000000 1 0 0
8.018686 -0.687329 15.769946 17.704885 -0.085507 0.471888 0.029613 -0.004364 87364.800000 1 0 0
-8.587014 -7.498629 14.711746 18.611870 0.717839 0.659254 0.048069 -0.013443 -1142800.000000 1 0 0
-0.085514 4.186771 15.691246 16.240430 -1.550374 0.260799 0.012756 -0.007278 244706.000000 1 0 0
-8.081014 3.104871 9.610146 12.934370 -0.366828 0.733265 -0.003713 -0.001597 -314885.000000 1 0 0
-2.191014 -9.677729 13.302946 16.596004 1.348152 0.640871 0.002550 -0.006776 343658.000000 1 0 0
-6.046414 10.192271 10.630746 15.920247 -1.035366 0.839614 0.011364 -0.006636 -2687340.000000 1 0 0
-8.551414 -2.823829 15.629946 18.038734 0.318944 0.522717 0.027995 -0.007562 -342499.000000 1 0 0
4.095586 5.783971 17.807746 19.166219 0.954660 0.378766 0.014259 -0.006842 33647.700000 1 0 0
-6.849914 -0.918029 15.188146 16.686638 0.133227 0.427034 0.015739 0.001686 357048.000000 1 0 0
-0.842614 -9.915529 15.526646 18.441921 1.486021 0.569962 -0.001813 -0.005659 315249.000000 1 0 0
-4.510914 5.717771 16.285146 17.839485 -0.902843 0.420535 0.017764 -0.000056 -57789.000000 1 0 0
3.792186 0.063771 17.289846 17.700947 0.016815 0.215941 0.022073 -0.008444 -419297.000000 1 0 0
1.319986 0.192671 19.035746 19.082429 0.144941 0.069963 0.018284 -0.013198 -389417.000000 1 0 0
-6.490214 6.463171 17.857646 20.069653 -0.783310 0.473926 0.018706 -0.001618 -995662.000000 1 0 0
-12.275914 0.519071 11.011446 16.499074 -0.042259 0.840087 0.028498 -0.010174 -409448.000000 1 0 0
-5.465814 5.160371 13.954746 15.850536 -0.756662 0.494100 0.001402 0.001976 -1789380.000000 1 0 0
-8.756314 -9.459529 9.879146 16.240482 0.823984 0.916875 0.032894 -0.013635 -569672.000000 1 0 0
6.869586 -3.797529 17.002246 18.726687 -0.504993 0.432513 0.035884 -0.012898 571885.000000 1 0 0
-16.672614 1.773771 9.642446 19.341641 -0.105990 1.048891 0.049810 -0.019837 608546.000000 1 0 0
-4.090714 -9.412629 11.415246 15.350549 1.160824 0.732302 0.010371 -0.011666 -96515.600000 1 0 0
-10.966014 -3.908129 9.183046 14.827517 0.342352 0.902914 0.017811 -0.003217 -71194.600000 1 0 0
3.383586 -5.344729 18.352746 19.412317 -1.006415 0.331923 0.019221 -0.024582 -628380.000000 1 0 0
2.498186 -1.923529 16.047446 16.354248 -0.656160 0.194004 0.015496 -0.006700 -358649.000000 1 0 0
-3.251514 -4.150729 20.373346 21.044575 0.906285 0.253245 0.024167 -0.007297 -668533.000000 1 0 0
-6.272114 -3.264929 14.377746 16.022445 0.479950 0.457068 0.014397 -0.002375 388391.000000 1 0 0
-9.625514 5.149171 13.998346 17.751568 -0.491215 0.662317 0.018259 -0.003831 122522.000000 1 0 0
-5.886814 -5.196429 11.710046 14.099030 0.723188 0.590689 0.008705 -0.002061 -718133.000000 1 0 0
6.012786 1.991171 19.370046 20.379329 0.319790 0.316035 0.039524 -0.013724 105336.000000 1 0 0
-2.764614 11.649371 13.462746 18.016561 -1.337788 0.726893 0.016575 -0.022099 -965679.000000 1 0 0
3.348086 1.495971 15.118146 15.556540 0.420201 0.237967 0.009578 0.000596 -1576410.000000 1 0 0
-5.624714 7.250371 12.683746 15.655117 -0.910997 0.626306 -0.008903 -0.006583 -1789510.000000 1 0 0
-1.817314 -1.665329 15.242046 15.440075 0.741785 0.160332 0.010888 -0.002473 -301631.000000 1 0 0
-7.515714 10.619571 14.029346 19.133316 -0.954906 0.747719 0.031241 -0.013806 -471869.000000 1 0 0
-10.189214 1.942771 10.637346 14.857576 -0.188408 0.772806 0.003912 -0.001819 -757932.000000 1 0 0
-13.649414 5.155371 9.122846 17.207867 -0.361135 1.012012 0.008911 -0.009206 544335.000000 1 0 0
0.568786 -4.847129 20.032846 20.618756 -1.453986 0.238964 0.036334 -0.024055 78523.300000 1 0 0
-14.465414 -3.070429 7.440146 16.553897 0.209156 1.104647 0.027977 -0.009989 188001.000000 1 0 0
-2.427714 2.524671 17.711846 18.054840 -0.804973 0.195232 0.020971 -0.007955 51952.100000 1 0 0
-6.242714 -8.350329 14.615946 17.953422 0.928832 0.619612 0.022812 -0.011696 -747512.000000 1 0 0
-7.994714 1.999071 11.957946 14.522541 -0.245025 0.603409 -0.001380 -0.002059 -251538.000000 1 0 0
-14.781214 -3.403629 10.048446 18.194512 0.226322 0.985701 0.049796 -0.009993 591659.000000 1 0 0
-0.522814 7.058571 12.828346 14.651390 -1.496863 0.504178 0.006212 -0.004299 655952.000000 1 0 0
-1.794714 -2.237229 19.363246 19.574511 0.894713 0.147053 0.025595 -0.009485 128274.000000 1 0 0
-12.876714 10.197771 7.313246 17.980208 -0.669816 1.151915 0.008614 -0.012839 -476662.000000 1 0 0
-19.606414 2.016471 6.906746 20.884941 -0.102487 1.233746 0.069793 -0.019805 1555820.000000 1 0 0
-16.185414 8.408171 6.806046 19.467594 -0.479118 1.213643 0.018919 -0.004739 335456.000000 1 0 0
-12.228214 6.914071 13.586246 19.542765 -0.514604 0.802090 0.022291 -0.008197 -772865.000000 1 0 0
-15.992414 8.287671 10.737246 20.969770 -0.478121 1.033245 0.022543 -0.003132 -149801.000000 1 0 0
1.719586 11.024671 15.190146 18.847835 1.416067 0.633542 0.016606 -0.012797 -106330.000000 1 0 0
2.244586 14.389271 12.340346 19.088568 1.416053 0.867837 0.018779 -0.017740 -705774.000000 1 0 0
-3.062714 13.543471 11.679146 18.144097 -1.348398 0.871488 -0.002957 -0.015822 198260.000000 1 0 0
9.171286 4.833271 15.887646 18.970774 0.485014 0.578141 0.027380 0.007379 94340.700000 1 0 0
-0.362114 12.458571 12.797746 17.864194 -1.541739 0.772181 0.011148 -0.013360 -53625.500000 1 0 0
3.392786 13.331271 14.431646 19.937557 1.321588 0.761441 0.023522 -0.014370 44360.900000 1 0 0
-2.796614 -4.047529 -13.717754 14.573274 0.966174 2.797243 -0.002619 -0.003557 -531968.000000 1 0 0
6.291786 -11.286129 16.130946 20.668108 -1.062229 0.675371 0.023880 -0.013665 87305.800000 1 0 0
7.772786 -13.443129 7.337646 17.174835 -1.046562 1.129367 -0.004246 -0.008345 -281023.000000 1 0 0
-0.021614 15.618571 1.414246 15.682484 -1.569412 1.480494 0.003234 -0.005933 -3979320.000000 1 0 0
-13.795914 8.313271 9.318746 18.608513 -0.542321 1.046298 0.008376 0.002406 101202.000000 1 0 0
-15.434814 -9.734329 5.008246 18.922822 0.562669 1.302938 0.039726 -0.004814 -981536.000000 1 0 0
9.621386 -11.107129 11.042046 18.381136 -0.856952 0.926386 0.019290 -0.007316 -203351.000000 1 0 0
-5.640914 -10.686029 -16.824054 20.713762 1.085096 2.518738 0.036551 -0.008788 6999.650000 1 0 0
-1.745114 -12.662329 -14.685654 19.469166 1.433840 2.425388 0.010244 0.003739 -72749.700000 1 0 0
5.628186 -15.944629 -11.894554 20.673367 -1.231466 2.183836 0.027218 0.000209 228564.000000 1 0 0
2.791086 -11.470729 -16.829554 20.557278 -1.332112 2.529881 0.013108 0.007274 193720.000000 1 0 0
0.393986 -13.957229 -14.288954 19.978330 -1.542576 2.367739 0.013793 0.011609 196796.000000 1 0 0
-6.700614 -6.326729 -14.797254 17.432282 0.756706 2.584587 0.014913 0.006679 -74536.400000 1 0 0
-6.021914 -8.383229 -17.245354 20.098364 0.947875 2.602252 0.012304 -0.007852 -29600.600000 1 0 0
-2.471814 -16.310629 -13.452654 21.286625 1.420395 2.254898 0.024815 0.004623 335573.000000 1 0 0
16.144286 -7.938829 -8.485954 19.891566 -0.457020 2.011538 0.064274 -0.028481 -105666.000000 1 0 0
19.293086 -2.802229 -3.970654 19.895772 -0.144237 1.771718 0.082979 -0.026948 74624.500000 1 0 0
15.238586 -12.274529 -8.566854 21.360467 -0.678080 1.983471 0.029975 -0.011309 -134539.000000 1 0 0
18.705086 -3.570829 -6.799054 20.220242 -0.188632 1.913728 0.186379 -0.015036 -267611.000000 1 0 0
9.522786 -9.983729 -15.987354 21.117618 -0.809024 2.429601 0.085494 0.006122 183709.000000 1 0 0
-4.739714 9.650871 -16.092054 19.353511 -1.114280 2.552562 0.014285 -0.001536 607185.000000 1 0 0
2.497286 -9.295729 -18.686954 21.020211 -1.308344 2.665952 0.029002 -0.000057 46867.300000 1 0 0
11.053286 7.767771 -14.783854 20.026875 0.612574 2.401196 0.079702 -0.050208 316756.000000 1 0 0
18.368386 -6.500929 -8.548454 21.277588 -0.340162 1.984233 0.064605 -0.019120 126641.000000 1 0 0
12.820686 5.604671 -13.790754 19.646048 0.412124 2.348943 0.060885 -0.006036 -64356.300000 1 0 0
15.861986 6.543071 -10.660454 20.200486 0.391236 2.126725 0.031667 -0.012768 252833.000000 1 0 0
3.352686 -0.480229 -19.350154 19.644327 -0.142269 2.968316 0.034466 -0.010887 184640.000000 1 0 0
10.145986 -1.363129 -15.051454 18.202896 -0.133552 2.544318 0.029162 0.003238 152030.000000 1 0 0
12.092486 -6.086229 -13.927154 19.422565 -0.466289 2.370372 0.044803 0.005582 340552.000000 1 0 0
10.275186 6.646171 -13.007054 17.858737 0.574135 2.386678 0.040168 -0.003688 430636.000000 1 0 0
10.936886 4.857171 -16.209954 20.148702 0.417944 2.505657 0.072952 -0.024309 545754.000000 1 0 0
12.254586 -9.917329 -14.487854 21.410890 -0.680371 2.314011 0.106636 -0.020156 260576.000000 1 0 0
-0.941514 2.527071 -17.786354 17.989634 -1.214157 2.991119 0.020615 -0.005703 347104.000000 1 0 0
6.468486 -1.000429 -17.246054 18.446369 -0.153446 2.778857 0.025791 0.005035 59513.700000 1 0 0
5.886386 -5.722629 -15.778854 17.786800 -0.771293 2.661843 -0.011257 -0.006589 123852.000000 1 0 0
-2.323814 -4.493529 -20.614554 21.226204 1.093526 2.900947 0.018258 -0.018046 420377.000000 1 0 0
15.792586 -0.273029 -13.603654 20.845616 -0.017287 2.281795 0.039390 -0.000888 -17446.800000 1 0 0
-4.002914 -0.493329 -18.120254 18.563682 0.122624 2.922583 0.008891 -0.018923 -79832.500000 1 0 0
3.511586 8.967171 -17.438654 19.921045 1.197548 2.637035 0.021016 -0.021961 -41493.400000 1 0 0
9.980986 0.501171 -16.730154 19.487671 0.050170 2.603133 0.048306 -0.027791 -64659.800000 1 0 0
4.313886 4.524371 -18.273054 19.312795 0.809209 2.811966 0.027791 -0.008024 357303.000000 1 0 0
-2.847314 -11.033429 -18.071154 21.363763 1.318244 2.579007 0.021043 -0.009872 209411.000000 1 0 0
6.380586 -9.357129 -16.327354 19.870839 -0.972325 2.535138 0.045825 -0.005762 284436.000000 1 0 0
10.366486 -12.137029 -10.761754 19.250633 -0.863915 2.164016 0.040121 -0.014562 274593.000000 1 0 0
6.172086 6.749171 -17.147254 19.433843 0.830030 2.651607 0.034575 -0.016971 69051.200000 1 0 0
8.494586 1.341671 -19.893254 21.672555 0.156650 2.733554 0.058089 -0.027978 96720.400000 1 0 0
-1.131614 -0.565929 -20.166854 20.206505 0.463734 3.078936 0.031121 -0.019550 210788.000000 1 0 0
-0.796314 6.504071 -19.624754 20.689805 -1.448969 2.819335 0.028496 -0.008635 60114.400000 1 0 0
8.635786 5.924071 -17.945754 20.777909 0.601262 2.613350 0.061476 -0.027066 -109572.000000 1 0 0
12.032886 0.073171 -13.067254 17.763694 0.006081 2.397372 0.014819 -0.002281 -35353.600000 1 0 0
-4.275314 -2.579429 -19.787354 20.407625 0.542865 2.894411 0.000527 -0.008675 343418.000000 1 0 0
5.314886 -11.364929 -14.403754 19.101774 -1.133356 2.425008 0.011128 -0.006323 -102854.000000 1 0 0
12.057686 3.189371 -15.575754 19.954047 0.258587 2.466391 0.071304 -0.007057 -161634.000000 1 0 0
-2.879014 -4.334329 -17.254354 18.021872 0.984479 2.848697 -0.003485 -0.002919 19809.100000 1 0 0
-6.639114 -4.746729 -17.445854 19.260506 0.620699 2.704022 0.011133 -0.009278 103773.000000 1 0 0
3.020786 10.232171 -15.291054 18.645074 1.283727 2.532403 0.005871 -0.012455 206646.000000 1 0 0
17.324286 -6.048729 -10.678354 21.230762 -0.335915 2.097823 0.094539 -0.020766 61169.200000 1 0 0
9.342686 -3.273829 -17.605654 20.198089 -0.337046 2.629354 0.023424 -0.012555 103998.000000 1 0 0
-7.299614 -1.739729 -18.743454 20.189802 0.233967 2.760779 0.012989 0.006264 572376.000000 1 0 0
1.586186 -7.296629 -19.112954 20.519790 -1.356741 2.769147 0.035116 -0.027438 223024.000000 1 0 0
5.661386 10.129171 -13.959754 18.152854 1.061131 2.448090 0.038637 -0.021774 317447.000000 1 0 0
5.880586 -3.753329 -18.032754 19.335175 -0.568076 2.772458 0.032087 -0.021656 336160.000000 1 0 0
4.864886 13.302971 -14.613654 20.351782 1.220205 2.371797 0.034046 -0.021492 -413822.000000 1 0 0
9.962986 10.966371 -15.838354 21.688150 0.833303 2.389523 0.110847 -0.019008 939.259000 1 0 0
17.006486 0.750671 -11.444754 20.512593 0.044112 2.162695 0.060267 -0.005230 246410.000000 1 0 0
14.759786 -3.093329 -12.461554 19.562983 -0.206588 2.261392 0.051939 -0.001314 85723.900000 1 0 0
-8.655414 0.612371 -17.223954 19.286155 -0.070632 2.674927 0.019950 -0.013504 414383.000000 1 0 0
-3.575114 4.390871 -18.952554 19.780306 -0.887447 2.851274 0.033452 -0.005883 -1174.480000 1 0 0
3.737286 1.568371 -16.986554 17.463393 0.397335 2.907369 0.010512 -0.005252 504398.000000 1 0 0
-5.009714 14.109571 -14.039954 20.525534 -1.229623 2.324061 0.026765 -0.015007 287113.000000 1 0 0
0.901686 9.278871 -17.790354 20.084999 1.473924 2.658911 0.005533 0.000578 174716.000000 1 0 0
1.024486 -5.066529 -19.847454 20.509528 -1.371280 2.886813 0.027427 -0.009718 401153.000000 1 0 0
3.799386 -6.256729 -17.957854 19.392434 -1.025065 2.754535 0.041812 -0.027207 -80601.200000 1 0 0
-6.457914 7.551171 -15.708354 18.587018 -0.863279 2.577595 0.006751 -0.006546 43331.100000 1 0 0
-11.639914 3.139471 -16.843354 20.713340 -0.263447 2.520365 0.052819 -0.023883 256728.000000 1 0 0
-4.222414 6.884971 -17.287854 19.081444 -1.020669 2.704541 0.008949 0.009304 398266.000000 1 0 0
-8.122414 5.166071 -17.750154 20.192322 -0.566489 2.644672 0.018547 -0.005865 342295.000000 1 0 0
-8.591514 4.603871 -14.986554 17.877543 -0.491924 2.564934 0.001933 -0.018821 419165.000000 1 0 0
9.547786 13.586971 -13.114654 21.160344 0.958250 2.239252 0.085939 -0.035283 514312.000000 1 0 0
14.243386 10.574071 -11.484354 21.132331 0.638609 2.145337 0.094260 -0.032823 162037.000000 1 0 0
8.815686 15.558071 -9.980054 20.478559 1.055274 2.079839 0.051004 -0.015725 21809.300000 1 0 0
7.212686 12.460171 -14.324454 20.309325 1.046067 2.353663 0.093933 -0.051744 101403.000000 1 0 0
3.943686 15.526971 -12.862454 20.544639 1.322066 2.247304 0.037282 -0.024697 164036.000000 1 0 0
11.447486 10.587871 -10.547454 18.825428 0.746407 2.165517 0.088720 -0.059034 25697.700000 1 0 0
16.313086 10.382171 -9.820254 21.687407 0.566778 2.040710 0.109094 -0.031866 278704.000000 1 0 0
13.585886 11.482171 -8.524554 19.725227 0.701674 2.017689 0.104510 -0.027435 167630.000000 1 0 0
10.404586 11.376171 -7.505854 17.146735 0.829976 2.023883 0.043997 -0.021230 78388.900000 1 0 0
6.007186 16.888471 -10.285554 20.666382 1.229055 2.091736 0.041886 -0.009866 118197.000000 1 0 0
11.194386 13.216271 -10.651054 20.332955 0.868037 2.122140 0.096435 -0.051005 -13112.100000 1 0 0
8.975886 -19.337929 -1.540054 21.375074 -1.136230 1.642908 0.052905 -0.010245 176289.000000 1 0 0
7.585786 -16.793029 -4.009754 18.858104 -1.146511 1.785060 0.024751 -0.012700 300962.000000 1 0 0
3.857686 -18.651929 5.219646 19.748947 -1.366847 1.303318 0.046883 -0.017407 -154492.000000 1 0 0
10.358186 -17.880829 -2.724754 20.843233 -1.045744 1.701898 0.041109 -0.007643 599816.000000 1 0 0
-3.387914 -14.705429 7.686846 16.935620 1.344362 1.099674 0.026619 -0.034902 172826.000000 1 0 0
-15.194614 -13.105829 -4.334154 20.528613 0.711724 1.783525 0.018962 -0.001800 53233.600000 1 0 0
-9.157814 -12.758129 -7.244154 17.294889 0.948222 2.002987 0.031480 -0.013680 72535.800000 1 0 0
-11.579914 -15.491129 6.433946 20.382962 0.928885 1.249651 0.052576 -0.004951 313283.000000 1 0 0
-14.995714 -7.190329 -7.200154 18.122210 0.447107 1.979381 0.060804 -0.027727 -80593.800000 1 0 0
5.449186 -15.497729 6.109346 17.527046 -1.232686 1.214755 0.039336 -0.017407 164628.000000 1 0 0
2.941586 -14.131729 9.045746 17.034794 -1.365572 1.010997 0.018727 -0.009806 305039.000000 1 0 0
3.476286 -17.345529 10.299346 20.470185 -1.373003 1.043569 0.050501 -0.017355 195167.000000 1 0 0
-7.327214 -17.135429 -5.674054 19.480911 1.166720 1.866342 -0.016946 -0.015024 -104428.000000 1 0 0
2.438986 -20.006629 -4.223054 20.592427 -1.449486 1.777340 0.035915 -0.005661 69812.400000 1 0 0
-17.128714 -10.627429 -2.642554 20.330229 0.555317 1.701147 -0.055680 -0.017800 -57477.500000 1 0 0
-4.101014 -14.561929 2.540146 15.340158 1.296281 1.404442 0.004717 -0.004597 140234.000000 1 0 0
-10.780614 -9.771229 -14.555254 20.580427 0.736324 2.356380 0.051515 -0.011535 173933.000000 1 0 0
0.990086 -20.428829 2.690346 20.628991 -1.522369 1.440008 0.027805 -0.002409 226733.000000 1 0 0
5.420386 -18.711929 0.768146 19.496331 -1.288838 1.531387 0.010090 0.002972 170763.000000 1 0 0
-6.730014 -18.784929 -3.369554 20.236614 1.226776 1.738083 -0.021344 -0.030323 96321.500000 1 0 0
-9.519314 -15.746929 -7.574654 19.898706 1.027061 1.961307 0.049288 -0.014022 67306.800000 1 0 0
-12.141314 -10.929429 -12.475554 20.554887 0.732917 2.222999 0.070597 -0.001998 402285.000000 1 0 0
-13.193314 -15.182129 -3.477154 20.412035 0.855373 1.741979 0.029257 -0.010509 -15714.100000 1 0 0
-0.134414 -20.414729 -2.774854 20.602889 1.564212 1.705890 0.039166 -0.015039 417676.000000 1 0 0
-11.641514 -17.133429 -0.889054 20.733298 0.973988 1.613690 0.035777 -0.005885 182205.000000 1 0 0
0.932886 -19.918029 5.423546 20.664293 -1.523994 1.305226 0.036495 -0.014138 171936.000000 1 0 0
-18.190414 -9.397429 2.660646 20.646595 0.476851 1.441571 0.057653 -0.001570 188672.000000 1 0 0
-15.184114 -14.929629 -1.168054 21.326404 0.776948 1.625594 0.059000 -0.009133 -5747.990000 1 0 0
10.353686 -15.321929 -5.552154 19.307686 -0.976536 1.862477 0.021424 -0.003877 -145670.000000 1 0 0
-0.214314 -19.109229 -7.067154 20.375309 1.559582 1.925006 0.026632 -0.009853 137847.000000 1 0 0
-9.767214 -18.042529 -3.126554 20.753474 1.074623 1.722024 0.028098 0.018306 553161.000000 1 0 0
-14.392214 -6.860129 -11.381854 19.589380 0.444798 2.190780 0.035769 -0.010220 16888.300000 1 0 0
-11.850914 -15.524529 2.328846 19.669232 0.918795 1.452117 0.042691 -0.010210 251376.000000 1 0 0
-2.271514 -15.942629 9.697646 18.798179 1.429268 1.028759 0.008108 -0.028123 351517.000000 1 0 0
-12.361014 -14.285829 -6.590154 20.007741 0.857507 1.906443 0.040981 -0.015047 219977.000000 1 0 0
5.085986 -17.059929 -7.334754 19.253754 -1.281061 1.961622 0.018330 -0.010330 -77616.600000 1 0 0
-17.390714 -7.225029 -2.803954 19.039437 0.393757 1.718605 -0.004554 -0.012945 -126413.000000 1 0 0
-12.422714 -13.471629 -8.851954 20.351062 0.825884 2.020793 0.078641 -0.033936 174569.000000 1 0 0
-7.646714 -14.301729 10.400246 19.265949 1.079798 1.000567 0.034477 0.000846 523736.000000 1 0 0
-15.873814 -8.620029 -5.728854 18.950004 0.497480 1.877916 0.043195 0.000937 356809.000000 1 0 0
-0.597814 -19.482329 0.285246 19.493586 1.540121 1.556163 0.017022 -0.012469 124929.000000 1 0 0
-15.090814 -11.548429 -1.793054 19.087010 0.653198 1.664876 0.013456 0.006742 86778.400000 1 0 0
-6.900114 -18.960229 1.252546 20.215606 1.221770 1.508797 0.019032 -0.016591 81890.900000 1 0 0
-2.266514 -20.698229 -5.281754 21.481404 1.461728 1.819219 0.028528 -0.011972 58417.900000 1 0 0
-8.761914 -19.349529 -0.577154 21.248730 1.145597 1.597961 0.035682 -0.027328 155328.000000 1 0 0
-17.680914 -7.669129 4.905246 19.886973 0.409260 1.321568 0.053810 -0.007814 35255.000000 1 0 0
-2.765114 -15.870529 -10.768854 19.377507 1.398298 2.160049 0.016569 -0.001648 89749.300000 1 0 0
-3.724414 -18.612029 -7.475554 20.400069 1.373297 1.945984 0.015630 0.000699 100169.000000 1 0 0
4.341886 -17.918329 -5.688754 19.294570 -1.333063 1.870081 0.012529 0.018530 606954.000000 1 0 0
0.924286 -17.436229 -8.986754 19.637671 -1.517836 2.046122 0.022247 -0.005761 11227.500000 1 0 0
-7.467814 -9.931829 -14.231454 18.892955 0.926076 2.423813 0.021217 -0.025079 239394.000000 1 0 0
-4.813014 -19.547429 -1.817254 20.213102 1.329376 1.660823 0.012198 -0.014480 157052.000000 1 0 0
-10.470814 -15.377629 8.594546 20.493307 0.972996 1.138031 0.044290 -0.029750 -81713.100000 1 0 0
-7.131214 -15.176129 -10.376454 19.719024 1.131520 2.124940 0.027171 -0.014186 339836.000000 1 0 0
-12.499214 -8.204629 -12.367754 19.403805 0.580869 2.261900 0.037912 -0.009145 184774.000000 1 0 0
-15.577914 -13.148329 3.031446 20.609212 0.701022 1.423169 0.054836 -0.000078 105742.000000 1 0 0
-6.244014 -14.179029 -12.900754 20.160904 1.155980 2.265151 0.015491 -0.001950 564713.000000 1 0 0
-14.386014 -12.136929 -6.445454 19.894882 0.700803 1.900725 0.054595 -0.003998 107983.000000 1 0 0
-11.247914 -10.363329 -8.582154 17.537603 0.744489 2.082149 0.021927 -0.009358 258539.000000 1 0 0
-9.564614 -14.807029 3.275846 17.929337 0.997273 1.387055 0.005899 -0.003323 354541.000000 1 0 0
4.693086 -17.822329 8.442546 20.271582 -1.313315 1.141235 0.047980 -0.027164 247436.000000 1 0 0
-4.838114 -16.935429 5.463946 18.441009 1.292528 1.269987 0.006883 0.011536 467261.000000 1 0 0
-18.443714 -7.351129 -6.854454 21.004600 0.379274 1.903216 0.048262 -0.023642 113218.000000 1 0 0
-17.076114 -4.307129 -10.973354 20.749929 0.247078 2.128027 0.068003 -0.009443 -556310.000000 1 0 0
-15.365414 -4.639629 -13.115454 20.727693 0.293247 2.255896 0.038917 -0.020383 304069.000000 1 0 0
-19.481514 -5.575429 -5.850454 21.091293 0.278740 1.851870 0.068456 -0.014892 -8359.030000 1 0 0
5.469386 -13.540529 8.604946 16.950080 -1.186909 1.038325 0.025308 -0.008725 226556.000000 1 0 0
19.911086 -3.754029 2.798846 20.454281 -0.186352 1.433531 0.076712 -0.011725 -97867.000000 1 0 0
17.710386 -2.405029 0.372846 17.876827 -0.134972 1.549938 0.024168 -0.017448 410332.000000 1 0 0
14.135586 -11.166429 0.255446 18.015803 -0.668584 1.556617 0.027690 -0.002592 37930.400000 1 0 0
11.341786 -13.988229 5.510946 18.832875 -0.889499 1.273827 0.020918 0.005113 539035.000000 1 0 0
10.397986 -12.350329 7.985746 18.011687 -0.871012 1.111447 0.024252 -0.034798 -54947.300000 1 0 0
17.598786 4.746871 -4.447954 18.762578 0.263458 1.810140 0.006648 0.006263 -208016.000000 1 0 0
18.681686 -6.160529 -4.386254 20.154323 -0.318534 1.790185 0.066563 -0.030379 -119060.000000 1 0 0
17.738686 -10.102929 -0.098254 20.414206 -0.517723 1.575609 0.061572 -0.009129 324672.000000 1 0 0
17.483786 -8.912229 8.446746 21.364880 -0.471411 1.164340 0.079260 -0.013305 74774.200000 1 0 0
19.841186 0.616071 -2.564454 20.015709 0.031040 1.699272 0.062386 -0.001754 116690.000000 1 0 0
7.488686 -13.610029 11.495846 19.325314 -1.067774 0.933706 0.012058 0.005269 330281.000000 1 0 0
16.321586 -6.459429 -3.490454 17.896973 -0.376846 1.767085 0.054381 -0.011205 190865.000000 1 0 0
14.437486 -7.001829 12.036346 20.058420 -0.451556 0.927215 0.061903 -0.031253 349924.000000 1 0 0
17.209986 1.372471 9.202146 19.563915 0.079580 1.081094 0.121992 -0.036489 388607.000000 1 0 0
16.571986 -10.339529 2.614446 19.707154 -0.557820 1.437739 0.015556 -0.001782 250353.000000 1 0 0
15.981286 -7.202429 -5.440454 18.354155 -0.423418 1.871733 0.055099 -0.022389 297413.000000 1 0 0
17.694286 -4.241829 5.557246 19.025347 -0.235288 1.274378 0.063773 -0.021989 -13183.400000 1 0 0
13.494786 -13.330729 8.202346 20.666302 -0.779283 1.162665 0.029575 -0.003244 151020.000000 1 0 0
15.491386 -14.044229 -1.477654 20.962034 -0.736440 1.641347 0.049951 -0.010524 252706.000000 1 0 0
18.480386 -5.955229 8.458646 21.178718 -0.311739 1.159941 0.094381 -0.017066 212929.000000 1 0 0
19.621286 3.947471 2.743546 20.201595 0.198533 1.434567 0.050647 0.009079 258837.000000 1 0 0
15.812486 -10.351129 8.105146 20.563900 -0.579614 1.165660 0.047667 -0.027581 181488.000000 1 0 0
14.330886 -4.211929 10.761946 18.410163 -0.285856 0.946452 0.050511 -0.011823 -30818.700000 1 0 0
18.676386 -7.993229 2.398846 20.456137 -0.404397 1.453258 0.085010 -0.014533 -170382.000000 1 0 0
18.944786 -5.169529 -1.610254 19.703346 -0.266388 1.652612 0.064994 -0.021548 310358.000000 1 0 0
14.675986 -13.769429 -6.100454 21.028487 -0.753539 1.865132 0.081365 -0.023305 540455.000000 1 0 0
13.781786 -9.433429 10.124346 19.530222 -0.600237 1.025825 0.032821 -0.022065 203905.000000 1 0 0
14.298986 2.245671 0.617246 14.487409 0.155779 1.528178 0.000911 0.000956 -180939.000000 1 0 0
12.865486 2.971071 13.677446 19.011063 0.226955 0.767791 0.030086 -0.012774 142269.000000 1 0 0
18.465886 -2.779429 9.216646 20.824522 -0.149396 1.112316 0.087918 -0.024105 204783.000000 1 0 0
7.883886 -18.727529 5.359146 21.014196 -1.172337 1.312923 0.065912 -0.022382 302976.000000 1 0 0
13.062586 -2.962129 14.781646 19.947491 -0.222993 0.736197 0.053018 -0.005764 291626.000000 1 0 0
11.490386 -13.447129 -7.194954 19.095068 -0.863704 1.957132 0.035335 -0.018856 109096.000000 1 0 0
10.691186 -17.549029 4.333246 21.001116 -1.023626 1.362969 0.031532 -0.019864 529074.000000 1 0 0
18.451786 -0.256329 -5.071154 19.137678 -0.013891 1.838982 0.081665 -0.012470 287402.000000 1 0 0
4.290086 -13.525329 11.436746 18.224668 -1.263645 0.892404 0.006725 -0.013821 -330199.000000 1 0 0
9.628886 -3.262429 14.354946 17.590434 -0.326678 0.616226 0.050612 -0.001703 360323.000000 1 0 0
9.211286 -9.398729 14.159246 19.330498 -0.795470 0.748835 0.039428 -0.008231 341965.000000 1 0 0
20.887586 5.640171 -3.264554 21.880587 0.263735 1.720554 0.070433 0.003533 384552.000000 1 0 0
14.829586 -13.043129 1.743046 19.826196 -0.721392 1.482766 0.030083 -0.009888 244166.000000 1 0 0
11.442386 0.059671 14.142146 18.191538 0.005215 0.680271 0.052121 -0.019095 86352.100000 1 0 0
19.838686 -0.224729 7.461746 21.196736 -0.011327 1.211064 0.133739 -0.023440 83630.500000 1 0 0
20.042486 0.963771 0.299746 20.067883 0.048049 1.555859 0.065842 -0.005522 44273.600000 1 0 0
18.032086 0.499971 3.073546 18.298983 0.027720 1.402034 0.042438 0.000298 20306.900000 1 0 0
10.435286 -8.244329 16.501646 21.193595 -0.668640 0.678341 0.060135 -0.014114 152350.000000 1 0 0
18.745186 3.076971 5.998146 19.920529 0.162696 1.264946 0.034830 0.004730 -38191.400000 1 0 0
15.535086 2.531671 7.152246 17.288808 0.161545 1.144290 0.054065 -0.012367 19372.200000 1 0 0
11.450286 -16.111329 1.888946 19.855782 -0.952927 1.475519 0.005733 -0.001693 170694.000000 1 0 0
8.962786 -16.075429 7.057946 19.712066 -1.062178 1.204616 0.032584 -0.006281 166800.000000 1 0 0
6.152786 6.786771 7.153446 11.622772 0.834355 0.907817 0.005863 -0.001704 -977436.000000 1 0 0
18.566486 2.680571 -6.532954 19.864021 0.143386 1.905918 0.055803 0.001451 347618.000000 1 0 0
14.400486 4.354371 -7.135154 16.650674 0.293636 2.013651 0.031329 -0.000621 389224.000000 1 0 0
-10.524714 -4.022429 -13.896454 17.890248 0.365058 2.460303 0.012192 -0.001304 -260882.000000 1 0 0
8.015886 -14.014029 -10.438354 19.225157 -1.051227 2.144746 0.016436 -0.006531 149828.000000 1 0 0
2.163286 -15.711729 14.034646 21.178043 -1.433971 0.846381 0.013817 -0.017044 400824.000000 1 0 0
-9.467114 -7.565529 2.077846 12.295565 0.674215 1.400990 0.007125 0.005887 118272.000000 1 0 0
-13.711414 3.027671 -9.733654 17.085482 -0.217327 2.176941 0.017307 -0.002293 462383.000000 1 0 0
-12.683314 -4.758229 -13.463054 19.098718 0.358908 2.353106 0.020889 -0.002292 132959.000000 1 0 0
-17.992814 -1.483729 -8.845554 20.104394 0.082276 2.026374 0.069696 -0.023637 366892.000000 1 0 0
-12.348514 15.261871 3.610046 19.961036 -0.890526 1.388941 0.042660 -0.019967 298275.000000 1 0 0
-17.405014 5.794071 9.528046 20.670981 -0.321357 1.091744 0.033353 -0.026605 238788.000000 1 0 0
-13.970914 15.306671 -0.024754 20.723929 -0.830990 1.571991 0.062692 -0.027828 224984.000000 1 0 0
-16.187814 5.424871 -10.558754 20.073910 -0.323358 2.124680 0.051722 -0.006038 -8635.800000 1 0 0
-18.636314 2.989171 -0.516454 18.881580 -0.159040 1.598152 0.075924 -0.004583 35303.100000 1 0 0
-9.844714 15.479471 -0.084054 18.345013 -1.004337 1.575378 0.029322 -0.012533 21280.800000 1 0 0
-18.810014 11.710571 2.068146 22.253794 -0.556851 1.477727 0.117005 -0.036739 -317.249000 1 0 0
-8.700314 16.288471 -7.684654 20.001591 -1.080212 1.965140 0.056198 -0.025146 219629.000000 1 0 0
-14.476414 -1.597529 -12.635654 19.281557 0.109909 2.285407 0.023154 -0.030839 86686.900000 1 0 0
-19.254514 4.683171 -4.878154 20.407469 -0.238592 1.812171 0.081169 -0.005623 2151.270000 1 0 0
-16.961214 9.431071 -5.713654 20.230515 -0.507467 1.857120 0.049200 0.008534 -261490.000000 1 0 0
-19.033014 1.272471 2.650546 19.258770 -0.066757 1.432730 0.059349 -0.021011 441498.000000 1 0 0
-13.706514 11.627671 -6.926654 19.262653 -0.703525 1.938625 0.028610 -0.017906 126914.000000 1 0 0
-13.016014 4.309971 -13.272454 19.082728 -0.319765 2.339942 0.061048 -0.025998 -269271.000000 1 0 0
-14.202914 9.255071 -6.574554 18.182516 -0.577522 1.940765 0.019006 -0.006826 210791.000000 1 0 0
-6.520614 11.773371 -15.252754 20.341514 -1.065006 2.418607 0.030986 -0.020653 29046.800000 1 0 0
-15.134614 13.854971 3.285446 20.780061 -0.741285 1.412024 0.052049 -0.027538 18974.100000 1 0 0
-18.815114 8.170271 -4.740154 21.053050 -0.409671 1.797896 0.067908 -0.007018 256492.000000 1 0 0
-3.706714 16.300071 -11.611254 20.353213 -1.347194 2.177896 0.015918 0.004136 154607.000000 1 0 0
-19.395014 -2.340429 -6.646454 20.635395 0.120091 1.898733 0.046733 -0.015362 -102788.000000 1 0 0
-11.319014 14.095971 -6.134554 19.090554 -0.894231 1.897940 0.043756 -0.011611 198711.000000 1 0 0
-19.670714 2.953171 4.539146 20.402501 -0.149017 1.346439 0.080915 -0.016760 24704.300000 1 0 0
-15.173614 12.296271 0.727346 19.543947 -0.681033 1.533572 0.032038 -0.014442 158651.000000 1 0 0
-17.281514 2.433171 -8.203554 19.283914 -0.139877 2.010210 0.019784 -0.010653 131522.000000 1 0 0
-16.285014 13.975971 -4.283454 21.883268 -0.709241 1.767809 0.024144 0.026814 170275.000000 1 0 0
-11.023814 15.305871 -9.499854 21.119692 -0.946619 2.037349 0.059874 -0.013144 181300.000000 1 0 0
-19.301814 1.307071 -6.630154 20.450609 -0.067614 1.900966 0.068608 -0.022113 35942.300000 1 0 0
-17.285414 10.552871 -0.411554 20.256308 -0.548110 1.591115 0.049094 -0.004422 37065.600000 1 0 0
-11.761714 6.487671 -14.409154 19.699023 -0.504065 2.391265 0.047105 -0.025479 361338.000000 1 0 0
-12.793914 12.400671 -3.637154 18.184878 -0.769791 1.772164 0.033517 -0.011348 413866.000000 1 0 0
-18.711314 7.898471 0.635446 20.320013 -0.399431 1.539519 0.044205 -0.014355 -127499.000000 1 0 0
-14.499014 9.199871 -10.813554 20.292659 -0.565414 2.132797 0.025097 0.007322 548783.000000 1 0 0
-18.434814 11.564071 4.926846 22.312416 -0.560248 1.348150 0.065719 -0.034351 148197.000000 1 0 0
-8.154014 11.903871 -13.439054 19.717968 -0.970216 2.320694 0.018787 -0.015666 467716.000000 1 0 0
-21.193814 -1.235929 -5.432854 21.913950 0.058250 1.821326 0.067317 -0.014453 203196.000000 1 0 0
-10.880014 14.020171 -3.652254 18.118467 -0.910846 1.773763 0.027269 0.010984 457135.000000 1 0 0
-18.618214 -4.771529 3.562746 19.547341 0.250883 1.387509 0.042589 -0.013780 -14829.300000 1 0 0
-11.800214 11.654671 -12.870954 20.993758 -0.779193 2.230756 0.054593 -0.009959 86478.800000 1 0 0
-14.797114 11.560071 -10.138554 21.339637 -0.663196 2.065879 0.046497 -0.007888 190027.000000 1 0 0
-13.254414 9.864171 -13.471354 21.318038 -0.639790 2.254828 0.089838 -0.026292 188622.000000 1 0 0
-18.400714 -4.880029 -3.091554 19.286230 0.259241 1.731789 0.023686 -0.016529 -295999.000000 1 0 0
-9.312014 12.488171 -11.492454 19.358319 -0.930074 2.206408 0.038485 -0.018328 3925.970000 1 0 0
-15.583814 7.712971 -8.161954 19.208401 -0.459587 2.009665 0.017607 0.003391 -104578.000000 1 0 0
-14.597114 8.786371 2.044446 17.159715 -0.541834 1.451370 0.024615 -0.008669 -42675.800000 1 0 0
-19.752914 6.206271 7.921146 22.168445 -0.304429 1.205403 0.071020 -0.022349 245005.000000 1 0 0
-18.513114 5.802571 3.954846 19.800152 -0.303732 1.369706 0.019416 -0.006116 141035.000000 1 0 0
-15.238714 12.614071 5.833646 20.624370 -0.691443 1.284030 0.053586 -0.023684 -75716.700000 1 0 0
18.526186 6.384771 6.313246 20.587422 0.331887 1.259119 0.080395 -0.011220 -158228.000000 1 0 0
18.336986 7.920571 0.496446 19.980664 0.407738 1.545947 0.044292 0.007406 -39450.900000 1 0 0
15.926686 5.141971 8.965646 18.986363 0.312288 1.078994 0.036210 -0.002210 -302718.000000 1 0 0
11.235786 13.399571 10.588546 20.442815 0.873006 1.026333 0.028493 -0.015508 84084.300000 1 0 0
15.464486 12.479671 4.243246 20.319883 0.678988 1.360426 0.063233 -0.015050 237010.000000 1 0 0
5.198886 10.427671 14.266146 18.419763 1.108296 0.684869 0.025242 -0.014520 234960.000000 1 0 0
12.288686 14.283371 -5.598254 19.656219 0.860325 1.859603 0.034894 0.011692 167605.000000 1 0 0
18.265086 9.331271 -2.549854 20.668520 0.472314 1.694480 0.059071 -0.004904 -162062.000000 1 0 0
14.655986 7.719171 9.536346 19.113488 0.484771 1.048429 0.072744 -0.016630 172807.000000 1 0 0
4.421086 19.423971 -1.657754 19.989617 1.346999 1.653822 0.001889 -0.006598 627809.000000 1 0 0
-4.455614 18.919071 3.072446 19.678000 -1.339502 1.414019 0.016303 -0.022965 283499.000000 1 0 0
6.934686 12.987071 12.638246 19.403070 1.080345 0.861430 0.030135 -0.003716 -75673.700000 1 0 0
0.163586 16.843971 -10.241954 19.714049 1.561085 2.117092 0.011834 -0.000726 39876.700000 1 0 0
10.722986 9.150871 15.465546 20.926155 0.706458 0.739132 0.057670 -0.027187 69840.200000 1 0 0
-1.312314 12.326471 0.984846 12.435191 -1.464733 1.491515 0.002658 -0.002115 398456.000000 1 0 0
-4.762814 19.131171 -2.504454 19.873560 -1.326801 1.697152 0.015576 -0.003928 14309.300000 1 0 0
6.168486 18.283271 6.376146 20.321994 1.245404 1.251650 0.029132 -0.019912 248449.000000 1 0 0
11.503686 17.134871 -1.231454 20.674986 0.979551 1.630394 0.048859 -0.010285 472767.000000 1 0 0
18.581486 10.403771 3.273646 21.545923 0.510412 1.418268 0.065813 -0.015031 310369.000000 1 0 0
11.510286 16.857671 6.135846 21.314698 0.971713 1.278795 0.047183 -0.004180 -218122.000000 1 0 0
18.052786 8.524771 -6.095254 20.874073 0.441172 1.867115 0.036822 0.020054 405608.000000 1 0 0
-0.136914 15.107471 11.078146 18.734453 -1.561734 0.938096 0.010855 -0.011254 354726.000000 1 0 0
1.052986 20.171871 -2.431454 20.345150 1.518643 1.690593 0.016068 -0.014751 99129.800000 1 0 0
14.693386 9.767971 -1.417854 17.700823 0.586700 1.650983 0.042022 -0.006155 43129.600000 1 0 0
9.745186 17.336171 1.653846 19.956119 1.058688 1.487827 0.030236 -0.014922 201996.000000 1 0 0
0.297486 17.474871 -0.250754 17.479202 1.553774 1.585143 0.003890 -0.014030 -56150.400000 1 0 0
-0.520114 20.951071 -0.343154 20.960335 -1.545976 1.587169 0.015532 -0.009304 83145.000000 1 0 0
5.486886 17.712171 -0.073754 18.542717 1.270391 1.574774 0.007535 -0.010045 -148621.000000 1 0 0
6.409686 18.171871 -2.238054 19.398707 1.231695 1.686425 -0.001496 -0.011441 -298491.000000 1 0 0
10.187286 9.450171 12.645546 18.788197 0.747880 0.832461 0.027144 -0.015375 118606.000000 1 0 0
12.782586 14.902771 8.154446 21.259870 0.861830 1.177148 0.059430 -0.017160 160399.000000 1 0 0
0.280986 17.519071 6.637546 18.736430 1.554759 1.208675 0.004463 -0.005828 70952.800000 1 0 0
6.941886 17.766271 -8.011054 20.688334 1.198303 1.968417 0.012882 -0.009870 99453.300000 1 0 0
-1.378314 18.498571 9.155846 20.686382 -1.496425 1.112297 0.040271 -0.016801 114159.000000 1 0 0
16.401986 6.992671 -8.084754 19.577687 0.402997 1.996495 0.066548 0.001115 -203942.000000 1 0 0
-5.304714 19.463771 -6.626954 21.234286 -1.304716 1.888186 0.012181 -0.016322 129408.000000 1 0 0
3.796486 15.734871 9.862746 18.954504 1.334043 1.023550 0.019337 -0.008459 256470.000000 1 0 0
8.881486 15.043771 7.950346 19.193849 1.037483 1.143718 0.023069 -0.001895 106281.000000 1 0 0
-2.730214 19.465271 6.557946 20.720943 -1.431445 1.248771 0.018226 -0.000631 50673.200000 1 0 0
4.930186 18.058371 8.389046 20.513108 1.304278 1.149482 0.028852 -0.011488 206254.000000 1 0 0
15.232486 12.302771 -6.036154 20.489557 0.679398 1.869830 0.094040 -0.016464 101972.000000 1 0 0
11.662186 7.091071 15.347746 20.538821 0.546310 0.726874 0.057259 -0.022794 53814.900000 1 0 0
17.155186 8.978171 4.958246 19.987300 0.482153 1.320109 0.066803 -0.016531 131079.000000 1 0 0
5.303786 14.670471 11.934446 19.641381 1.223889 0.917739 0.020316 -0.034378 439670.000000 1 0 0
15.930386 10.268071 -3.538154 19.280275 0.572541 1.755354 0.059313 -0.031761 102825.000000 1 0 0
15.442086 13.785771 6.565246 21.716536 0.728790 1.263675 0.079526 -0.010551 412036.000000 1 0 0
12.594586 14.346571 -8.248954 20.796464 0.850337 1.978663 0.094013 -0.030152 212815.000000 1 0 0
-8.383214 15.547171 9.685046 20.144302 -1.076274 1.069248 0.037929 -0.021184 244610.000000 1 0 0
-3.980814 17.841971 -8.039254 19.970288 -1.351277 1.985109 0.003863 0.047858 52397.700000 1 0 0
2.285886 18.886371 -4.732054 19.603893 1.450349 1.814587 0.016023 -0.034588 95308.200000 1 0 0
6.850486 16.327171 9.269046 19.985517 1.173529 1.088530 0.025781 -0.017965 487929.000000 1 0 0
13.613586 15.192271 -1.553954 20.458484 0.840148 1.646826 0.080439 -0.022008 246011.000000 1 0 0
13.428586 15.875671 4.489446 21.272493 0.868711 1.358153 0.072198 -0.027956 327612.000000 1 0 0
3.122286 18.405471 0.422746 18.673209 1.402757 1.548155 0.019388 -0.017948 53657.200000 1 0 0
-7.621714 17.378071 1.174746 19.012309 -1.157478 1.508968 0.028323 -0.000852 54801.100000 1 0 0
-0.086014 20.168871 -5.870754 21.006106 -1.566532 1.854047 0.027804 0.004468 217995.000000 1 0 0
-7.273114 17.875571 -6.539754 20.376521 -1.184378 1.897524 0.039551 -0.020385 54780.100000 1 0 0
-7.466114 18.443571 -1.230354 19.935444 -1.186152 1.632552 0.047446 -0.014557 234599.000000 1 0 0
-14.638814 -9.247829 8.502946 19.290343 0.563427 1.114320 0.067016 -0.016063 407999.000000 1 0 0
-13.332114 -13.234129 8.379546 20.569498 0.781710 1.151216 0.066484 -0.010475 36554.100000 1 0 0
-3.910014 -16.085629 12.192346 20.559401 1.332346 0.935979 0.040531 -0.022132 154393.000000 1 0 0
-2.246514 -14.493429 14.115846 20.355919 1.417018 0.804528 0.018259 -0.057202 213358.000000 1 0 0
-7.108414 -13.615729 13.790946 20.642379 1.089646 0.839159 0.025027 -0.020316 122793.000000 1 0 0
-9.914114 -11.485229 11.509246 19.043710 0.858686 0.921835 0.058701 -0.013943 4703.950000 1 0 0
-7.466814 -10.540829 13.202846 18.470992 0.954475 0.774475 0.040719 -0.015201 457323.000000 1 0 0
-15.356514 -12.240329 7.039846 20.861630 0.672956 1.226585 0.072755 -0.009351 234730.000000 1 0 0
-4.468214 -12.349829 13.312546 18.700457 1.223645 0.778620 0.025443 -0.025949 346586.000000 1 0 0
4.029386 -12.793029 14.131146 19.482988 -1.265665 0.759316 0.005645 0.006970 577685.000000 1 0 0
6.671086 -13.371829 14.686446 20.952348 -1.108036 0.794075 0.017477 -0.006024 364800.000000 1 0 0
7.257686 -8.804029 16.625946 20.164499 -0.881377 0.601451 0.038210 -0.017581 427380.000000 1 0 0
-5.346514 13.153471 13.489846 19.585070 -1.184723 0.810989 0.013235 -0.018647 527092.000000 1 0 0
-13.831714 -1.790329 17.283446 22.208987 0.128721 0.678972 0.064089 -0.010504 329287.000000 1 0 0
-10.584814 10.383971 12.536746 19.417393 -0.775820 0.868928 0.029827 0.002899 488675.000000 1 0 0
-7.182114 -8.268029 17.150246 20.348808 0.855568 0.568307 0.037244 -0.011334 196116.000000 1 0 0
-5.236214 2.344371 18.613746 19.477822 -0.420958 0.298978 0.033419 0.000760 585985.000000 1 0 0
-15.986514 -3.710629 13.491446 21.245153 0.228071 0.882741 0.091149 -0.030071 59715.200000 1 0 0
-14.551514 2.530671 12.355746 19.256566 -0.172189 0.874164 0.034484 -0.016106 255775.000000 1 0 0
-14.149314 10.854671 9.878946 20.386774 -0.654388 1.064918 -0.024740 0.016778 -68319.500000 1 0 0
-5.197414 11.164471 15.914146 20.122588 -1.135102 0.658584 0.043190 0.000234 251513.000000 1 0 0
-12.675414 13.248071 7.438046 19.786410 -0.807485 1.185410 0.013630 -0.028063 66641.700000 1 0 0
-3.959014 -6.361129 18.589146 20.042308 1.014086 0.383140 0.029122 -0.009460 414402.000000 1 0 0
0.627086 -2.780529 18.293146 18.513880 -1.348980 0.154573 0.015197 -0.010147 6023.140000 1 0 0
-4.385214 6.566471 21.309846 22.725716 -0.981996 0.354853 0.052084 -0.003478 357981.000000 1 0 0
2.200986 -10.468929 16.609246 19.756261 -1.363574 0.572207 0.010900 -0.011485 293874.000000 1 0 0
-14.998114 -0.350629 13.850246 20.418024 0.023374 0.825303 0.034506 -0.009340 83291.600000 1 0 0
-13.785514 -5.970329 8.202446 17.116231 0.408701 1.071030 0.036438 -0.005498 149920.000000 1 0 0
9.953386 0.473171 17.070746 19.766237 0.047503 0.528367 0.035454 0.019961 576729.000000 1 0 0
-7.723714 12.337471 11.549046 18.580888 -1.011452 0.900070 0.023141 -0.018254 97184.200000 1 0 0
-1.936514 7.762471 19.463746 21.043846 -1.326315 0.389987 0.052884 -0.031642 442494.000000 1 0 0
0.737786 -14.204129 16.000146 21.408089 -1.518901 0.726675 -0.005778 0.012512 507831.000000 1 0 0
-2.516614 -10.775229 17.567946 20.762265 1.341354 0.562081 0.009391 -0.036374 448071.000000 1 0 0
-2.269514 8.850371 16.696646 19.033070 -1.319774 0.500706 0.015819 -0.009821 595493.000000 1 0 0
-4.990014 -9.216429 20.368246 22.906511 1.074560 0.475224 0.079022 -0.026504 213233.000000 1 0 0
-6.714314 -2.845529 18.974946 20.328001 0.400854 0.366914 0.041939 -0.020355 6540.840000 1 0 0
-10.760214 -8.217429 15.953046 20.923863 0.652203 0.703731 0.077124 -0.021679 178358.000000 1 0 0
-0.282114 6.350871 18.052946 19.139540 -1.526404 0.338578 0.025925 -0.004796 107435.000000 1 0 0
-5.796314 -11.303229 18.929946 22.796998 1.096960 0.591025 0.059038 -0.014223 514054.000000 1 0 0
0.488886 3.466471 18.906246 19.227625 1.430688 0.183091 0.027296 -0.008088 176631.000000 1 0 0
-18.069814 -1.195029 7.520446 19.608758 0.066038 1.177186 0.042414 -0.016389 224254.000000 1 0 0
-1.583514 -8.511429 17.383746 19.420262 1.386854 0.462064 0.015768 -0.013703 304519.000000 1 0 0
5.994086 3.394871 15.178446 16.668516 0.515324 0.426049 0.007339 0.001634 450221.000000 1 0 0
-14.688414 -7.300329 10.537346 19.495640 0.461255 0.999768 0.100340 0.005124 107756.000000 1 0 0
3.545086 8.213371 16.954646 19.169953 1.163329 0.485507 0.025791 -0.008428 159266.000000 1 0 0
6.295286 4.504871 17.616546 19.242328 0.621115 0.414022 0.033682 -0.024268 272729.000000 1 0 0
5.587286 -8.869229 18.555546 21.311717 -1.008636 0.514226 0.033359 0.006788 366532.000000 1 0 0
-4.543114 -0.584629 19.871946 20.393036 0.127981 0.226548 0.039013 -0.012531 855570.000000 1 0 0
-11.295014 1.697971 17.146946 20.602869 -0.149212 0.587624 0.051251 -0.005310 123160.000000 1 0 0
-16.999214 -4.396029 8.388446 19.459301 0.253058 1.125111 0.065773 -0.023699 160178.000000 1 0 0
-13.314814 -9.492429 11.795446 20.162416 0.619346 0.945890 0.086876 -0.036816 70242.400000 1 0 0
-14.824414 5.759771 12.677246 20.338407 -0.370582 0.897821 0.040882 -0.025030 431444.000000 1 0 0
1.149786 9.280271 17.130246 19.516423 1.447529 0.499682 0.020443 -0.016546 73020.200000 1 0 0
-3.773814 -10.749429 14.973946 18.815179 1.233168 0.650396 0.024005 -0.010886 443061.000000 1 0 0
-18.943314 -3.797729 6.703246 20.450071 0.197856 1.236837 0.134024 -0.015760 -149583.000000 1 0 0
-0.719914 -0.699629 20.981146 21.005148 0.771109 0.047810 0.039764 -0.012914 282407.000000 1 0 0
-2.036914 2.381871 20.512046 20.750093 -0.863306 0.151619 0.035422 -0.007688 192075.000000 1 0 0
-8.015814 1.731771 16.333646 18.276769 -0.212774 0.465308 0.008996 0.010048 566512.000000 1 0 0
2.653886 -2.197529 18.754446 19.068337 -0.691607 0.181696 0.017950 -0.010505 -115327.000000 1 0 0
-12.095114 4.241771 14.472246 19.332106 -0.337299 0.724830 -0.000788 -0.003311 230862.000000 1 0 0
-13.576714 -5.688129 13.210146 19.778522 0.396745 0.839408 0.071314 -0.014169 -51866.800000 1 0 0
-17.364014 -0.690829 10.086446 20.092850 0.039764 1.044896 0.067023 -0.019649 244932.000000 1 0 0
-7.171714 7.949771 14.580446 18.089272 -0.836807 0.633387 0.006730 -0.006325 29920.400000 1 0 0
-9.550014 0.452971 14.240246 17.152042 -0.047396 0.591265 0.018704 -0.000771 254617.000000 1 0 0
7.623086 -0.756429 14.909046 16.761959 -0.098905 0.474640 0.030283 -0.005596 263994.000000 1 0 0
3.615686 6.259471 18.475646 19.839447 1.046984 0.372946 0.017361 -0.008375 29832.400000 1 0 0
1.666186 0.354371 19.905546 19.978301 0.209561 0.085369 0.023557 -0.009597 283551.000000 1 0 0
-7.249314 6.760671 17.370046 19.999443 -0.750534 0.518575 0.017322 -0.012107 654621.000000 1 0 0
7.327486 -3.025629 17.313646 19.042290 -0.391590 0.429388 0.024880 0.010764 333107.000000 1 0 0
-16.181114 2.573171 9.494646 18.936683 -0.157703 1.045593 0.032955 -0.014765 227482.000000 1 0 0
3.907086 -5.825529 18.982946 20.237449 -0.980018 0.353950 0.040865 -0.030746 111191.000000 1 0 0
-4.097614 -3.799229 20.624646 21.368215 0.747631 0.264581 0.031524 -0.010856 359406.000000 1 0 0
-9.780514 5.927771 14.520146 18.483278 -0.544878 0.667159 0.014379 -0.000816 39523.600000 1 0 0
6.656886 2.483971 19.864746 21.097212 0.357142 0.343500 0.055927 -0.013287 68594.900000 1 0 0
-7.578114 11.480471 14.426046 19.933385 -0.987362 0.761629 0.037278 -0.015814 362783.000000 1 0 0
-14.499714 4.889571 9.452946 17.986323 -0.325243 1.017420 0.013447 -0.010211 253912.000000 1 0 0
1.235786 -5.502229 20.201646 20.973988 -1.349865 0.272221 0.046588 -0.022883 340954.000000 1 0 0
-6.186714 -8.184529 13.682146 17.101552 0.923528 0.643413 0.022945 -0.009249 318872.000000 1 0 0
-13.368114 10.301771 6.506846 18.087897 -0.656569 1.202813 0.009171 -0.011394 159450.000000 1 0 0
-19.360314 1.810771 7.800946 20.951263 -0.093259 1.189270 0.038988 -0.024865 88037.100000 1 0 0
-16.022414 9.253171 6.403846 19.579279 -0.523722 1.237592 0.025672 -0.010924 88536.600000 1 0 0
-12.672714 7.180171 14.382546 20.469738 -0.515487 0.791717 0.020397 -0.009380 137105.000000 1 0 0
-16.580714 9.017671 10.890046 21.790630 -0.498121 1.047477 0.035941 -0.013544 361854.000000 1 0 0
2.617686 10.775071 15.006946 18.659123 1.332474 0.636353 0.024815 -0.032771 583849.000000 1 0 0
1.519786 14.168071 12.913146 19.230011 1.463937 0.834552 0.023270 -0.036549 302187.000000 1 0 0
8.798486 5.178871 16.690246 19.565234 0.532002 0.548982 0.025862 -0.001235 98790.000000 1 0 0
-0.608914 13.231871 13.291246 18.764605 -1.524810 0.783688 0.010128 -0.003381 181132.000000 1 0 0
4.265386 13.221971 14.790946 20.292514 1.258738 0.754102 0.042377 -0.003025 183533.000000 1 0 0
-3.638714 -4.461829 -13.570554 14.741374 0.886663 2.740349 -0.003753 -0.003399 151477.000000 1 0 0
5.727686 -11.521529 16.858046 21.207209 -1.109448 0.651920 -0.010902 0.002562 356716.000000 1 0 0
8.634786 -13.841829 7.311446 17.877724 -1.013047 1.149472 0.003340 -0.002829 244735.000000 1 0 0
-0.221514 15.394671 0.512846 15.404804 -1.556408 1.537499 0.000201 -0.006388 -469024.000000 1 0 0
-14.178014 7.564871 8.875546 18.358068 -0.490137 1.066184 0.011401 -0.001669 112403.000000 1 0 0
-16.341214 -9.524529 4.816146 19.517869 0.527716 1.321465 0.061739 -0.003523 197762.000000 1 0 0
8.914186 -10.530029 11.305246 17.836838 -0.868309 0.884322 -0.001136 -0.001604 177184.000000 1 0 0
-25.918464 5.990671 30.813571 40.707875 -0.227146 0.712173 0.085047 -0.032030 -137904.000000 0 0 1
-25.012714 4.913071 30.967201 40.109122 -0.193954 0.688699 0.073014 -0.032299 11775.800000 0 0 1
-23.957914 5.347371 31.807531 40.178291 -0.219599 0.657276 0.058664 -0.026744 427445.000000 0 0 1
-22.647714 4.499371 31.594241 39.132587 -0.196114 0.631125 0.062815 -0.027422 53644.800000 0 0 1
-22.591714 3.110371 31.895139 39.209181 -0.136817 0.620718 0.037961 -0.028275 354240.000000 0 0 1
-21.287514 2.625971 31.577621 38.173291 -0.122737 0.596659 0.058879 -0.024284 664650.000000 0 0 1
-20.845914 1.335971 32.293624 38.460566 -0.064000 0.574148 0.049040 -0.028710 -37905.800000 0 0 1
-21.470714 0.215071 31.750271 38.329069 -0.010017 0.594622 0.052152 -0.021367 -64978.800000 0 0 1
-21.881614 -0.649429 32.812782 39.444968 0.029671 0.588341 0.045035 -0.019940 53691.400000 0 0 1
-22.419414 -2.065029 32.565789 39.590720 0.091850 0.604896 0.047138 -0.033216 -175618.000000 0 0 1
-21.444114 -2.844029 31.891134 38.535477 0.131856 0.596016 0.076174 -0.036077 242203.000000 0 0 1
-21.676914 -4.267129 31.906892 38.809107 0.194366 0.605619 0.083140 -0.040678 -625418.000000 0 0 1
-23.011414 -4.946929 31.502931 39.324699 0.211754 0.641669 0.054696 -0.027733 258650.000000 0 0 1
-24.143214 -4.707829 32.316937 40.613334 0.192579 0.650597 0.043172 -0.019109 224720.000000 0 0 1
-24.085314 -5.162029 33.645478 41.698526 0.211129 0.631954 0.040823 -0.022394 -803232.000000 0 0 1
-25.334944 -4.681529 -33.457974 42.228097 0.182724 2.485391 0.037072 -0.014624 -29694.300000 0 0 1
-25.531004 -5.056329 -32.146954 41.362124 0.195517 2.461012 0.036746 -0.021318 389814.000000 0 0 1
-26.607044 -4.323129 -31.571254 41.513472 0.161073 2.434889 0.040364 -0.019329 103738.000000 0 0 1
-26.587654 -4.724429 -30.132454 40.462185 0.175857 2.410891 0.037585 -0.017234 -366238.000000 0 0 1
-26.936374 -6.097129 -29.963544 40.749935 0.222602 2.396910 0.045458 -0.020661 586942.000000 0 0 1
-26.639294 -6.546929 -28.603974 39.632078 0.240986 2.377106 0.042771 -0.023544 -348737.000000 0 0 1
-26.951444 -8.027029 -28.307734 39.901646 0.289468 2.359496 0.049112 -0.019859 563706.000000 0 0 1
-28.335264 -8.368229 -28.164484 40.818533 0.287166 2.332275 0.064285 -0.022230 432980.000000 0 0 1
-28.504054 -9.775629 -28.183144 41.259346 0.330386 2.322758 0.066787 -0.018777 1167860.000000 0 0 1
-30.012424 -10.171429 -27.920734 42.234713 0.326759 2.293060 0.096828 -0.013703 1278630.000000 0 0 1
-30.202424 -10.927729 -26.721184 41.780658 0.347163 2.264720 0.111044 -0.015957 531311.000000 0 0 1
-31.594634 -11.126429 -26.418314 42.660821 0.338600 2.238601 0.112408 -0.015395 806499.000000 0 0 1
-31.938034 -11.740629 -25.033524 42.244026 0.352273 2.205071 0.127322 -0.006687 -40434.500000 0 0 1
-31.583764 -10.961129 -23.912954 41.103648 0.334044 2.191702 0.134335 -0.003186 140787.000000 0 0 1
-31.507484 -11.759529 -22.765554 40.611311 0.357218 2.165872 0.137213 -0.010888 -279133.000000 0 0 1
-31.067904 -10.947429 -21.503554 39.337815 0.338786 2.149141 0.152057 -0.017523 101338.000000 0 0 1
-30.651734 -11.705929 -20.417154 38.644764 0.364807 2.127428 0.146463 -0.019774 652565.000000 0 0 1
-29.370594 -12.343129 -20.411654 37.836758 0.397844 2.140599 0.139388 -0.030285 335119.000000 0 0 1
-28.861884 -12.856829 -18.998654 36.868079 0.419072 2.112171 0.153693 -0.032751 251822.000000 0 0 1
-28.262954 -11.809529 -18.228354 35.644529 0.395795 2.107601 0.155314 -0.030403 57026.500000 0 0 1
-27.888644 -12.303629 -17.009254 34.906597 0.415487 2.079767 0.167260 -0.025293 -44749.000000 0 0 1
-27.337684 -11.287129 -15.981654 33.617875 0.391559 2.066205 0.166719 -0.034436 225275.000000 0 0 1
-26.176424 -10.617629 -16.466254 32.696739 0.385340 2.098563 0.133446 -0.036856 293763.000000 0 0 1
-26.114964 -9.274829 -15.978954 31.989698 0.341259 2.093821 0.137171 -0.037598 1562450.000000 0 0 1
-24.625714 -8.675129 -15.946554 30.593729 0.338704 2.119095 0.112543 -0.037408 2121190.000000 0 0 1
-23.738314 -9.111029 -14.897154 29.469367 0.366473 2.100773 0.089868 -0.033361 788764.000000 0 0 1
-22.456814 -8.503329 -15.043554 28.335907 0.361969 2.130459 0.113222 -0.059602 365316.000000 0 0 1
-21.428714 -8.960729 -14.007054 27.123459 0.396067 2.113460 0.075349 -0.024457 -423356.000000 0 0 1
-20.628414 -10.045329 -14.375654 27.075811 0.453166 2.130507 0.058612 -0.020257 -310240.000000 0 0 1
-19.572814 -10.204429 -13.461354 25.854081 0.480587 2.118428 0.073678 -0.014246 -26012.400000 0 0 1
-18.554714 -11.238829 -14.023054 25.830887 0.544610 2.144658 0.079945 -0.006662 180827.000000 0 0 1
-17.817814 -10.851529 -15.203554 25.814303 0.547031 2.200566 0.100938 -0.028856 664116.000000 0 0 1
-18.559314 -10.982029 -16.407454 27.097189 0.534313 2.221195 0.085673 -0.029446 412719.000000 0 0 1
-17.733214 -10.437229 -17.626254 27.094049 0.531972 2.279115 0.087860 -0.026455 790746.000000 0 0 1
-18.678014 -10.506429 -18.693254 28.437493 0.512391 2.288087 0.068285 -0.017787 906248.000000 0 0 1
-18.098914 -10.280129 -19.949354 28.831033 0.516555 2.334970 0.073225 -0.022540 -394285.000000 0 0 1
-19.071814 -10.794629 -21.001854 30.353517 0.515044 2.334925 0.095876 -0.018938 -332252.000000 0 0 1
-20.006514 -9.768429 -21.236254 30.767862 0.454214 2.332574 0.083622 -0.029211 495158.000000 0 0 1
-21.151814 -10.367729 -21.895454 32.160534 0.455743 2.319674 0.093781 -0.008564 1678980.000000 0 0 1
-22.260614 -9.337229 -22.393154 32.926769 0.397161 2.318681 0.076354 -0.020605 496380.000000 0 0 1
-21.678114 -8.499029 -23.337754 32.967027 0.373639 2.357334 0.076205 -0.035177 -144632.000000 0 0 1
-22.539714 -7.950129 -24.282654 34.071844 0.339093 2.364122 0.067977 -0.028995 -484153.000000 0 0 1
-21.768714 -7.320729 -25.456414 34.285551 0.324414 2.407565 0.069329 -0.033341 102750.000000 0 0 1
-20.952114 -8.326129 -26.087114 34.479748 0.378253 2.428882 0.076000 -0.040353 342333.000000 0 0 1
-20.274514 -7.712829 -27.170724 34.767685 0.363514 2.467853 0.070810 -0.053809 429061.000000 0 0 1
-19.130914 -8.496429 -27.918654 34.894590 0.417954 2.498234 0.089115 -0.057997 240864.000000 0 0 1
-19.591814 -9.545229 -28.650234 35.997035 0.453359 2.491298 0.089303 -0.050727 -293155.000000 0 0 1
-18.547214 -10.215029 -29.284434 36.137571 0.503425 2.515562 0.077727 -0.043707 -455867.000000 0 0 1
-18.997514 -11.300829 -30.294614 37.501706 0.536630 2.511240 0.072234 -0.033049 -262665.000000 0 0 1
-19.564514 -10.786129 -31.486674 38.607272 0.503849 2.524498 0.077890 -0.026559 247258.000000 0 0 1
-19.752714 -11.912629 -32.311124 39.699990 0.542687 2.521599 0.064966 -0.026680 -69743.700000 0 0 1
-20.510014 -11.727329 -33.656064 41.120817 0.519415 2.529535 0.067084 -0.028980 -224009.000000 0 0 1
-19.896914 -10.838529 33.283162 40.263256 0.498791 0.597688 0.062251 -0.029151 44083.600000 0 0 1
-20.370714 -10.926529 31.919266 39.410590 0.492330 0.626787 0.076126 -0.031398 -181252.000000 0 0 1
-19.671114 -12.065129 31.119661 38.742140 0.550172 0.638063 0.081054 -0.028649 646311.000000 0 0 1
-18.238514 -11.948629 31.007101 37.905850 0.579974 0.612866 0.081745 -0.032870 1005320.000000 0 0 1
-17.670914 -12.809129 30.061381 37.148642 0.627223 0.627975 0.079690 -0.032382 -78572.600000 0 0 1
-17.691414 -14.364529 30.413251 38.003838 0.681985 0.643054 0.079537 -0.024388 -410569.000000 0 0 1
-18.963314 -14.978229 30.198391 38.676834 0.668523 0.674871 0.070118 -0.027700 372048.000000 0 0 1
-19.004414 -16.329729 30.719431 39.642291 0.709845 0.684215 0.074867 -0.034111 117410.000000 0 0 1
-19.320914 -16.502629 32.216779 41.031151 0.706889 0.667812 0.051632 -0.037080 -679850.000000 0 0 1
-18.180614 -16.207329 32.930520 40.958899 0.728078 0.636822 0.062244 -0.027880 -467851.000000 0 0 1
-18.502714 -15.973529 -33.619054 41.566150 0.712169 2.512919 0.047877 -0.027922 177457.000000 0 0 1
-17.244314 -15.461029 -32.872204 40.211834 0.730926 2.527811 0.043565 -0.019705 232786.000000 0 0 1
-17.009714 -14.108129 -33.110834 39.808253 0.692422 2.553063 0.050540 -0.018520 -216629.000000 0 0 1
-15.791114 -13.670329 -32.530714 38.658564 0.713537 2.570828 0.049243 -0.012416 246408.000000 0 0 1
-15.835214 -13.214829 -31.032434 37.261209 0.695439 2.555006 0.057837 -0.018797 -204841.000000 0 0 1
-16.021714 -14.280929 -30.119044 36.983741 0.728015 2.522467 0.049115 -0.014704 -196113.000000 0 0 1
-16.173914 -13.795429 -28.781254 35.780860 0.706200 2.505420 0.035808 -0.013967 -163939.000000 0 0 1
-16.413914 -15.008929 -27.831754 35.627111 0.740716 2.467376 0.032826 -0.007265 534348.000000 0 0 1
-15.261514 -15.774929 -27.490944 35.178320 0.801939 2.467821 0.056734 -0.021751 651338.000000 0 0 1
-14.491914 -16.423629 -28.548314 35.982738 0.847801 2.487153 0.049483 -0.019038 600908.000000 0 0 1
-13.124214 -16.993929 -28.038454 35.315627 0.913183 2.488057 0.073717 -0.019776 -59914.000000 0 0 1
-12.150614 -16.027929 -27.905204 34.398145 0.922138 2.517069 0.064161 -0.018293 -423290.000000 0 0 1
-11.142814 -16.462829 -26.979524 33.512412 0.975779 2.506574 0.090348 -0.027319 252539.000000 0 0 1
-9.778314 -15.785229 -27.070904 32.827165 1.016191 2.540379 0.083824 -0.030628 -178423.000000 0 0 1
-9.749814 -14.376129 -26.766894 31.909224 0.974855 2.565954 0.071503 -0.025478 -392277.000000 0 0 1
-8.422314 -13.903629 -26.830624 31.370825 1.026150 2.596874 0.081989 -0.026265 161806.000000 0 0 1
-8.321514 -12.358729 -27.152524 30.971686 0.978194 2.639731 0.060725 -0.033301 255566.000000 0 0 1
-8.878714 -11.939529 -28.441884 32.098671 0.931378 2.659608 0.084289 -0.031786 287989.000000 0 0 1
-8.510514 -10.648229 -28.811054 31.873037 0.896518 2.699672 0.065075 -0.026482 119571.000000 0 0 1
-7.478714 -10.535329 -29.971564 32.637693 0.953477 2.734590 0.063835 -0.018715 1014330.000000 0 0 1
-6.108314 -10.934029 -29.697564 32.230573 1.061335 2.742489 0.057863 -0.022853 1761270.000000 0 0 1
-5.132114 -10.839129 -30.729354 32.986642 1.128589 2.769503 0.061853 -0.022504 453496.000000 0 0 1
-4.902114 -9.366129 -31.193534 32.936176 1.088614 2.814842 0.051098 -0.022996 -726808.000000 0 0 1
-3.670714 -8.997129 -31.825344 33.275742 1.183423 2.845256 0.066499 -0.033739 572050.000000 0 0 1
-3.655514 -7.576929 -32.107334 33.191167 1.121284 2.885337 0.059446 -0.035745 222381.000000 0 0 1
-2.247814 -7.055729 -32.517144 33.349672 1.262382 2.917681 0.064852 -0.037248 230207.000000 0 0 1
-1.660614 -7.717129 -33.625734 34.539857 1.358843 2.911014 0.080490 -0.046830 -72030.500000 0 0 1
-0.635414 -6.896129 33.737655 34.441105 1.478915 0.202458 0.087388 -0.034141 101526.000000 0 0 1
0.213086 -7.400629 32.540291 33.371923 -1.542011 0.223715 0.089239 -0.036148 -94359.700000 0 0 1
-0.415314 -7.337629 31.273891 32.125839 1.514256 0.230812 0.086100 -0.032894 29962.000000 0 0 1
0.353386 -7.944929 30.254391 31.282183 -1.526346 0.257049 0.078915 -0.037755 -103456.000000 0 0 1
0.124086 -7.331629 28.814791 29.733153 -1.553873 0.249187 0.079747 -0.027143 8018.040000 0 0 1
0.800286 -6.118929 28.636971 29.294332 -1.440746 0.212246 0.075758 -0.027552 -79023.600000 0 0 1
0.647386 -5.638329 27.295811 27.879583 -1.456478 0.205000 0.076331 -0.023311 1096290.000000 0 0 1
-0.602014 -4.691829 26.956081 27.367974 1.443182 0.173713 0.076127 -0.014152 2071090.000000 0 0 1
-1.907314 -5.233429 27.196201 27.760763 1.221308 0.202020 0.058546 -0.004495 386336.000000 0 0 1
-2.932114 -4.338529 26.830411 27.336625 0.976476 0.192745 0.045052 -0.005999 444035.000000 0 0 1
-4.358814 -4.778529 27.254051 28.011014 0.831300 0.233008 0.039820 -0.004661 432978.000000 0 0 1
-4.827214 -5.987729 26.661391 27.748598 0.892296 0.280853 0.039202 0.001335 150252.000000 0 0 1
-6.168414 -6.314329 27.008431 28.414353 0.797087 0.315889 0.037534 -0.006224 758447.000000 0 0 1
-6.483614 -7.830129 26.788781 28.652870 0.879194 0.362700 0.042829 -0.009775 206985.000000 0 0 1
-5.735814 -8.696129 27.597571 29.498274 0.987714 0.360939 0.042990 -0.012807 -113732.000000 0 0 1
-6.297514 -9.971129 27.609051 30.022355 1.007483 0.403693 0.052612 -0.014750 -67026.300000 0 0 1
-5.724014 -10.594929 28.840341 31.253514 1.075462 0.395544 0.052434 -0.011347 -163798.000000 0 0 1
-6.016714 -11.952729 28.950501 31.893575 1.104452 0.432974 0.071729 -0.018936 116443.000000 0 0 1
-5.385814 -12.439929 30.137701 33.046026 1.162215 0.422683 0.081194 -0.023645 183604.000000 0 0 1
-5.359014 -14.047129 30.110191 33.655081 1.206337 0.463104 0.083155 -0.035475 1086790.000000 0 0 1
-6.688814 -14.590129 29.911031 33.945278 1.140939 0.492498 0.082031 -0.035763 825116.000000 0 0 1
-6.673914 -15.987729 29.914691 34.569312 1.175347 0.524940 0.077767 -0.032920 213919.000000 0 0 1
-6.788514 -16.511329 31.353501 36.079772 1.180721 0.517609 0.095552 -0.033211 -899755.000000 0 0 1
-8.047114 -16.395629 31.906271 36.763880 1.114529 0.519898 0.096063 -0.031410 -1075520.000000 0 0 1
-8.067114 -16.764529 33.258500 38.108472 1.122300 0.510025 0.099126 -0.027663 -524742.000000 0 0 1
-9.478114 -17.030329 33.821560 39.035429 1.062943 0.522784 0.104581 -0.025602 294969.000000 0 0 1
-10.229714 -18.155229 33.331766 39.309872 1.057679 0.558740 0.087822 -0.023178 649555.000000 0 0 1
-10.694714 -17.917029 31.962589 38.170721 1.032658 0.578363 0.078870 -0.031626 -886649.000000 0 0 1
-11.129114 -19.240629 31.345181 38.426285 1.046398 0.616819 0.075813 -0.028930 403635.000000 0 0 1
-12.295114 -19.795229 31.981923 39.571004 1.014996 0.629680 0.061248 -0.029695 721862.000000 0 0 1
-12.552814 -21.134329 31.732641 40.139675 1.034834 0.659081 0.051283 -0.020365 -292136.000000 0 0 1
-11.980914 -22.047429 32.781876 41.282960 1.073022 0.653308 0.050230 -0.016992 -604705.000000 0 0 1
-10.583014 -22.194629 32.764791 40.965025 1.125858 0.643795 0.054826 -0.019285 -309724.000000 0 0 1
-10.130914 -22.768329 -33.906534 42.079512 1.152145 2.507776 0.048188 -0.025048 -26120.000000 0 0 1
-10.410014 -24.240329 -33.567204 42.693315 1.165162 2.475497 0.065591 -0.011618 -220776.000000 0 0 1
-9.882514 -25.053879 33.271162 42.805738 1.195083 0.680498 0.064939 -0.013034 68414.700000 0 0 1
-9.961614 -26.398089 33.568859 43.851581 1.209957 0.698961 0.082692 -0.018494 -941088.000000 0 0 1
-9.374614 -27.346999 32.503889 43.499938 1.240548 0.726932 0.080048 -0.019159 -766691.000000 0 0 1
-8.000314 -27.382309 32.403649 43.171662 1.286538 0.721862 0.078835 -0.025006 -1051320.000000 0 0 1
-7.288114 -27.949149 33.485507 44.221609 1.315713 0.711749 0.077078 -0.030024 -94556.000000 0 0 1
-5.769714 -27.574859 33.494914 43.767245 1.364534 0.699295 0.087040 -0.038277 650728.000000 0 0 1
-5.395514 -26.312229 -33.835694 43.200685 1.368543 2.470626 0.091574 -0.026249 -96511.400000 0 0 1
-5.371314 -25.233279 33.133673 41.992972 1.361061 0.661569 0.097421 -0.033014 -158345.000000 0 0 1
-4.761114 -24.009729 33.775436 41.712293 1.375037 0.627115 0.112647 -0.032995 1385470.000000 0 0 1
-3.342314 -24.076429 -33.777254 41.614281 1.432857 2.517810 0.108730 -0.038031 1361270.000000 0 0 1
-2.935914 -22.927029 -33.083904 40.358555 1.443435 2.531770 0.106006 -0.036526 59718.000000 0 0 1
34.176889 -16.398229 2.204246 37.971309 -0.447361 1.512713 0.173522 -0.049916 302066.000000 0 0 1
35.056179 -15.936329 3.236846 38.644268 -0.426668 1.486938 0.191865 -0.046292 536672.000000 0 0 1
34.653059 -16.406129 4.485346 38.601993 -0.442174 1.454339 0.153837 -0.053959 -524719.000000 0 0 1
35.820039 -16.354029 5.442546 39.751110 -0.428297 1.433449 0.123183 -0.037751 98450.500000 0 0 1
36.827369 -17.382129 5.398146 41.079599 -0.440989 1.439008 0.136607 -0.044036 841254.000000 0 0 1
-36.601414 -17.210129 6.516946 40.967336 0.439528 1.411041 0.115037 -0.031271 114157.000000 0 0 1
-35.308744 -18.006829 6.291246 40.131448 0.471601 1.413381 0.108733 -0.031120 -391314.000000 0 0 1
-35.453921 -19.392929 6.465346 40.925138 0.500529 1.412152 0.111979 -0.038676 -115724.000000 0 0 1
-34.172331 -19.965229 6.444946 40.098578 0.528759 1.409369 0.092812 -0.035858 -162870.000000 0 0 1
-34.100673 -21.450429 6.813646 40.858323 0.561494 1.403251 0.099061 -0.035317 -189302.000000 0 0 1
-34.200320 -22.377929 5.735146 41.271364 0.579406 1.431383 0.115279 -0.039064 140679.000000 0 0 1
-34.555483 -23.611229 6.224946 42.312191 0.599419 1.423141 0.122146 -0.037697 -10281.700000 0 0 1
-34.040884 -24.718629 5.250646 42.395303 0.628059 1.446628 0.106889 -0.025398 173341.000000 0 0 1
-34.685662 -24.542629 4.014446 42.679639 0.615790 1.476597 0.104867 -0.023921 -165697.000000 0 0 1
-34.098888 -25.220319 2.977346 42.516623 0.636827 1.500711 0.096052 -0.016155 -226023.000000 0 0 1
-34.588367 -24.778229 1.568946 42.576723 0.621631 1.533938 0.078593 -0.013715 316174.000000 0 0 1
-35.766293 -25.464849 1.088046 43.918904 0.618720 1.546020 0.080098 -0.011664 817555.000000 0 0 1
-36.292724 -24.795629 -0.059154 43.954392 0.599370 1.572142 0.078706 -0.004255 -63913.900000 0 0 1
37.041469 -23.642329 0.299646 43.944509 -0.568082 1.563978 0.100343 -0.011529 -1629840.000000 0 0 1
35.740159 -24.060929 0.377446 43.086305 -0.592525 1.562036 0.063245 0.001473 -1671010.000000 0 0 1
34.902739 -23.030429 0.789846 41.823745 -0.583266 1.551910 0.086893 -0.015220 111570.000000 0 0 1
33.430209 -23.418229 0.478446 40.819373 -0.611069 1.559075 0.048525 -0.003740 131546.000000 0 0 1
33.161799 -23.331729 -0.910354 40.557406 -0.613120 1.593244 0.050404 -0.009681 926877.000000 0 0 1
31.754429 -23.350229 -1.234954 39.434782 -0.634051 1.602118 0.044976 -0.001886 1132760.000000 0 0 1
31.350699 -23.116629 -2.704054 39.045573 -0.635360 1.640106 0.035574 0.003909 -54785.000000 0 0 1
31.785529 -21.803629 -3.138754 38.672598 -0.601241 1.652048 0.066488 -0.010779 388643.000000 0 0 1
31.355409 -21.561829 -4.487054 38.317200 -0.602395 1.688169 0.063151 -0.034307 126994.000000 0 0 1
31.470869 -20.101629 -4.916854 37.665190 -0.568417 1.701711 0.081908 -0.038015 512128.000000 0 0 1
30.504259 -19.374429 -4.142654 36.373615 -0.565857 1.684936 0.087009 -0.037049 399341.000000 0 0 1
30.476349 -17.986129 -4.341554 35.653299 -0.533158 1.692871 0.091186 -0.037455 155759.000000 0 0 1
29.570949 -17.322029 -3.258354 34.425435 -0.529897 1.665588 0.114211 -0.034630 78972.100000 0 0 1
30.106809 -17.240129 -1.939754 34.747728 -0.520053 1.626649 0.112068 -0.030415 -54910.800000 0 0 1
30.518049 -18.374629 -1.242354 35.644379 -0.541955 1.605658 0.089365 -0.019567 258341.000000 0 0 1
29.426939 -19.473529 -0.942554 35.299454 -0.584597 1.597501 0.077719 -0.015385 627328.000000 0 0 1
28.395229 -19.086929 -0.036554 34.214050 -0.591815 1.571865 0.085784 0.001006 529063.000000 0 0 1
27.740729 -20.289729 0.435346 34.371655 -0.631494 1.558130 0.075330 0.003900 804750.000000 0 0 1
26.595729 -19.993729 1.513446 33.307244 -0.644630 1.525342 0.066802 0.010389 -265968.000000 0 0 1
25.987229 -21.196129 1.980946 33.593691 -0.684203 1.511794 0.059506 0.018026 -245557.000000 0 0 1
25.047729 -21.039829 2.987746 32.847979 -0.698654 1.479714 0.056604 0.013938 112824.000000 0 0 1
23.682829 -20.455029 2.504846 31.393611 -0.712398 1.490923 0.043691 0.004117 -720484.000000 0 0 1
23.587329 -19.130529 2.074046 30.440777 -0.681443 1.502610 0.082311 -0.012122 18004.900000 0 0 1
23.585429 -18.122029 3.062446 29.900819 -0.655146 1.468196 0.106389 -0.019099 -320989.000000 0 0 1
23.290729 -16.767429 2.427246 28.800976 -0.623969 1.486420 0.107565 -0.009945 -184997.000000 0 0 1
21.970329 -16.675129 1.948946 27.650563 -0.649226 1.500253 0.093884 -0.011039 -199393.000000 0 0 1
21.773229 -15.304029 1.534746 26.657874 -0.612658 1.513193 0.109968 -0.025631 17329.600000 0 0 1
20.403829 -14.936029 0.948146 25.304153 -0.631895 1.533318 0.081870 -0.012013 -1078430.000000 0 0 1
19.305529 -15.035329 1.771646 24.533717 -0.661686 1.498521 0.058876 -0.007339 -333153.000000 0 1 0
18.274329 -14.117829 1.448146 23.137876 -0.657777 1.508168 0.055945 -0.005917 -102374.000000 0 1 0
18.493929 -12.664129 1.927046 22.497090 -0.600433 1.485034 0.071531 -0.013580 -192602.000000 0 1 0
19.508529 -11.920729 1.225946 22.895183 -0.548506 1.517225 0.088320 -0.019049 883495.000000 0 1 0
19.913729 -10.765829 1.932646 22.719920 -0.495616 1.485629 0.098234 -0.015706 -28148.000000 0 1 0
20.789029 -9.826629 1.019746 23.017086 -0.441557 1.526478 0.103777 -0.029626 -250978.000000 0 1 0
20.202729 -9.367129 -0.118554 22.268979 -0.434153 1.576120 0.117199 -0.028264 -116233.000000 0 1 0
21.157629 -8.712329 -0.894354 22.898685 -0.390622 1.609863 0.130391 -0.028606 -482474.000000 0 1 0
20.728129 -8.372829 -2.337654 22.477193 -0.383895 1.674986 0.141542 -0.029765 -291830.000000 0 1 0
21.622529 -7.630029 -3.151654 23.144849 -0.339233 1.707392 0.160148 -0.040100 955594.000000 0 1 0
22.671929 -8.379129 -3.831554 24.472576 -0.354012 1.728008 0.154406 -0.043446 265744.000000 0 1 0
22.264229 -9.481229 -4.913554 24.692764 -0.402591 1.771121 0.135683 -0.043295 -252103.000000 0 1 0
21.731529 -8.978529 -6.125854 24.298136 -0.391797 1.825659 0.128759 -0.052543 356764.000000 0 1 0
20.344229 -8.707529 -6.072154 22.947326 -0.404417 1.838599 0.118988 -0.037852 -165729.000000 0 1 0
19.557329 -9.004229 -7.381954 22.760898 -0.431470 1.901096 0.108631 -0.031585 -114652.000000 0 1 0
19.661129 -10.352629 -7.896054 23.581446 -0.484664 1.912234 0.108477 -0.028547 457893.000000 0 1 0
20.938429 -10.665629 -8.418554 24.960879 -0.471124 1.914812 0.111463 -0.023723 -105682.000000 0 1 0
20.981829 -12.056229 -9.092254 25.850704 -0.521536 1.930206 0.097721 -0.026804 -615452.000000 0 0 1
20.091929 -12.093929 -10.141954 25.550107 -0.541837 1.978981 0.119051 -0.035152 -216029.000000 0 0 1
19.979729 -13.407029 -10.701554 26.333652 -0.591018 1.989288 0.107457 -0.028166 44985.000000 0 0 1
18.863629 -13.691229 -11.767654 26.110609 -0.627833 2.038329 0.114491 -0.027708 306219.000000 0 0 1
18.629829 -15.054829 -11.994154 26.787649 -0.679663 2.035043 0.107505 -0.035429 399497.000000 0 0 1
17.501629 -15.150729 -12.855454 26.478563 -0.713524 2.077736 0.111503 -0.036977 -119554.000000 0 0 1
17.213229 -16.582829 -13.297354 27.351510 -0.766747 2.078492 0.095715 -0.035615 -327187.000000 0 0 1
16.637729 -17.337029 -12.268054 26.979469 -0.805978 2.042852 0.081609 -0.030291 112392.000000 0 0 1
16.589629 -18.687229 -12.682054 28.022541 -0.844789 2.040437 0.083934 -0.031081 -263519.000000 0 0 1
15.591729 -19.669429 -11.998654 27.820067 -0.900530 2.016724 0.076673 -0.027085 -126509.000000 0 0 1
14.311629 -19.569529 -12.587554 27.317315 -0.939357 2.049682 0.067383 -0.032132 -435325.000000 0 0 1
13.343529 -20.052429 -11.688954 26.772772 -0.983649 2.022611 0.053266 -0.016536 -676768.000000 0 0 1
11.948629 -20.110029 -12.281054 26.419828 -1.034680 2.054253 0.051664 -0.024763 -133702.000000 0 0 1
10.984529 -20.543129 -11.300654 25.891790 -1.079771 2.022453 0.059943 -0.028735 18234.200000 0 0 1
9.708129 -20.725629 -11.851754 25.773311 -1.132737 2.048618 0.057279 -0.026477 -255908.000000 0 0 1
8.724129 -21.352029 -10.879754 25.502718 -1.182911 2.011539 0.047286 -0.019335 -414605.000000 0 0 1
9.017129 -22.759629 -10.675154 26.707082 -1.193579 1.981999 0.081559 -0.025957 -451117.000000 0 0 1
8.302229 -23.360329 -9.686454 26.616900 -1.229320 1.943271 0.080649 -0.032849 -593032.000000 0 0 1
8.538229 -24.883529 -9.660654 28.025339 -1.240257 1.922728 0.101186 -0.030993 -201251.000000 0 0 1
9.779629 -25.266369 -9.156654 28.598511 -1.201494 1.896715 0.079709 -0.028342 -669991.000000 0 0 1
9.985629 -26.664179 -9.261054 29.940914 -1.212468 1.885265 0.091180 -0.023162 -323102.000000 0 0 1
11.467629 -26.940639 -9.032254 30.641249 -1.168364 1.870016 0.057601 -0.005653 -276285.000000 0 0 1
11.801629 -26.969069 -7.620554 30.408584 -1.158303 1.824102 0.066610 -0.017720 -156963.000000 0 0 1
13.162629 -27.286519 -7.449054 31.197713 -1.121339 1.811895 0.042947 -0.007645 -563037.000000 0 0 1
13.278829 -27.796309 -5.972454 31.378851 -1.125132 1.762298 0.056792 -0.020807 -194253.000000 0 0 1
12.646129 -28.973459 -5.529454 32.093002 -1.159248 1.743955 0.076082 -0.024738 -118465.000000 0 0 1
11.234229 -28.892949 -5.524654 31.488604 -1.199963 1.747158 0.087781 -0.026879 -370617.000000 0 0 1
10.702929 -29.897739 -4.475154 32.069526 -1.227026 1.710799 0.099385 -0.034165 -165843.000000 0 0 1
10.715729 -31.318309 -4.782754 33.444552 -1.241127 1.714294 0.095409 -0.024056 352330.000000 0 0 1
9.733629 -31.673479 -5.776854 33.635173 -1.272645 1.743403 0.096342 -0.022283 496151.000000 0 0 1
9.813629 -33.164899 -6.121454 35.123924 -1.283101 1.745972 0.089662 -0.015878 143779.000000 0 0 1
9.461929 -33.953729 -4.980854 35.597651 -1.299020 1.711178 0.091971 -0.011363 13415.300000 0 0 1
9.627529 32.715948 -5.253854 34.505442 1.284599 1.723652 0.085682 -0.011494 36371.200000 0 0 1
9.278629 31.666540 -4.148854 33.257716 1.285764 1.695871 0.077750 -0.012586 4437.360000 0 0 1
7.916029 31.364870 -4.314254 32.634818 1.323574 1.703382 0.073871 -0.014477 -620967.000000 0 0 1
7.566829 30.397170 -3.321054 31.500385 1.326823 1.676422 0.059900 -0.011908 -120442.000000 0 0 1
6.130729 29.908180 -3.558954 30.736806 1.368612 1.686845 0.061937 -0.018958 -245487.000000 0 0 1
6.019529 29.183660 -4.772854 30.177821 1.367385 1.729621 0.066394 -0.018944 52307.200000 0 0 1
5.463629 29.970820 -5.814754 31.014717 1.390478 1.759396 0.064068 -0.022076 -316468.000000 0 0 1
5.579229 29.364580 -7.239354 30.754099 1.383036 1.808421 0.062438 -0.029980 -309673.000000 0 0 1
4.825429 28.220430 -7.607254 29.623432 1.401444 1.830505 0.065382 -0.034539 -99623.800000 0 0 1
5.346029 26.961990 -7.249354 28.426784 1.375055 1.828663 0.068086 -0.031533 -159639.000000 0 0 1
4.436329 25.810320 -7.764054 27.315457 1.400578 1.859006 0.068567 -0.035676 -1014920.000000 0 0 1
3.146629 25.723210 -7.245654 26.908815 1.449075 1.843428 0.073737 -0.031593 -97429.300000 0 0 1
2.188229 26.298030 -8.194154 27.631846 1.487779 1.871872 0.085929 -0.034157 544493.000000 0 0 1
1.788229 25.309600 -9.323654 27.031540 1.500259 1.922947 0.078823 -0.038314 -376713.000000 0 0 1
2.885029 25.141890 -10.228854 27.295924 1.456546 1.954912 0.064724 -0.035285 562629.000000 0 0 1
2.566829 24.295700 -11.367954 26.946243 1.465537 2.006309 0.073802 -0.028014 -382441.000000 0 0 1
2.255029 22.822880 -11.071154 25.466438 1.472310 2.020540 0.077328 -0.031719 -624843.000000 0 0 1
0.979529 22.621580 -10.564154 24.985930 1.527523 2.007334 0.087313 -0.024187 -737778.000000 0 1 0
0.960329 21.396480 -9.894154 23.592920 1.525944 2.003547 0.047461 -0.027978 -788812.000000 0 1 0
-0.321071 20.976580 -9.222954 22.916869 -1.555491 1.984991 0.050103 -0.019146 -758466.000000 0 1 0
-1.433471 20.757180 -10.030254 23.098081 -1.501847 2.019998 0.071343 -0.026368 -978213.000000 0 1 0
-2.559871 20.384080 -9.319854 22.559329 -1.445868 1.996681 0.050529 -0.016261 -1275010.000000 0 1 0
-3.691071 19.994880 -10.202054 22.748651 -1.388251 2.035847 0.045906 -0.022245 -697986.000000 0 1 0
-4.780871 19.449080 -9.473054 22.155410 -1.329761 2.012603 0.038426 -0.022699 -189266.000000 0 1 0
-5.772971 19.015980 -10.349354 22.406334 -1.276054 2.050926 0.042685 -0.024183 -888705.000000 0 1 0
-6.806471 18.116980 -9.673154 21.636149 -1.211416 2.034298 0.049016 -0.019114 -539487.000000 0 1 0
-7.700771 18.675280 -8.778654 22.025729 -1.179688 1.980746 0.061229 -0.013901 -920935.000000 0 1 0
-8.963271 18.827180 -9.348454 22.851620 -1.126466 1.992257 0.072634 -0.023523 -689161.000000 0 1 0
-10.011771 19.049580 -8.233654 23.041596 -1.086907 1.936213 0.079599 -0.031818 -204431.000000 0 1 0
-10.384771 17.910580 -7.570854 22.044278 -1.045353 1.921372 0.079487 -0.025584 -536406.000000 0 1 0
-11.209171 18.248980 -6.497454 22.380521 -1.019975 1.865355 0.098538 -0.024897 -281119.000000 0 1 0
-11.801171 17.074880 -5.740454 21.535366 -0.966040 1.840618 0.072991 -0.025847 -705173.000000 0 1 0
-12.691971 17.457580 -4.768154 22.104039 -0.942167 1.788219 0.087765 -0.022566 -293035.000000 0 1 0
-13.253971 16.279680 -4.187254 21.406280 -0.887491 1.767674 0.077941 -0.021250 -364242.000000 0 1 0
-14.487371 16.486780 -3.320254 22.197341 -0.849860 1.720939 0.066007 -0.026391 -854405.000000 0 1 0
-15.714871 16.547780 -3.990154 23.166949 -0.811209 1.743894 0.106321 -0.037971 -344715.000000 0 1 0
-16.647671 16.938680 -2.994654 23.938083 -0.794062 1.696225 0.103546 -0.033701 626538.000000 0 1 0
-18.096271 17.071580 -3.613354 25.139018 -0.756269 1.715031 0.111383 -0.041076 598256.000000 0 0 1
-18.321071 18.199080 -4.389754 26.194238 -0.782058 1.739176 0.117960 -0.040143 1059460.000000 0 0 1
-19.673871 18.242880 -4.905054 27.274960 -0.747676 1.751617 0.101894 -0.041969 881559.000000 0 0 1
-19.685271 19.131180 -6.165154 28.133984 -0.771124 1.791725 0.102811 -0.028585 -66665.000000 0 0 1
-19.512371 20.479580 -5.901754 28.895961 -0.809579 1.776485 0.114139 -0.050216 38497.000000 0 0 1
-19.533171 21.120180 -7.121654 29.636544 -0.824416 1.813471 0.109667 -0.037571 -115888.000000 0 0 1
-19.541871 22.688180 -7.078154 30.769116 -0.859765 1.802916 0.114620 -0.040118 1128440.000000 0 0 1
-18.309071 23.377990 -6.716554 30.444451 -0.906399 1.793243 0.127145 -0.044142 999422.000000 0 0 1
-17.987871 23.404130 -5.328754 29.995207 -0.915512 1.749398 0.121548 -0.048317 1103040.000000 0 0 1
-16.523071 23.985010 -5.092254 29.567273 -0.967565 1.743885 0.111893 -0.041700 620550.000000 0 0 1
-16.230171 24.608500 -3.864754 29.731012 -0.987747 1.701156 0.098989 -0.048364 1000330.000000 0 0 1
-14.884471 25.113070 -3.699754 29.426212 -1.035763 1.696860 0.111732 -0.044316 1006860.000000 0 0 1
-14.484171 26.258040 -4.617454 30.341338 -1.066719 1.723574 0.108719 -0.032091 -524696.000000 0 0 1
-15.272571 27.398120 -4.357054 31.668475 -1.062266 1.708817 0.132711 -0.037482 -10365.700000 0 0 1
-15.024371 28.502240 -5.221454 32.640052 -1.085681 1.731457 0.106343 -0.031985 -244606.000000 0 0 1
-15.536471 29.827290 -4.689254 33.956417 -1.090584 1.709335 0.104116 -0.015056 27184.500000 0 0 1
-16.940671 29.866960 -4.778954 34.667853 -1.054840 1.709086 0.132894 -0.029248 -282444.000000 0 0 1
-17.506871 31.142520 -4.578554 36.018193 -1.058670 1.698259 0.129049 -0.019358 -23534.100000 0 0 1
12.910286 -8.331129 18.963311 24.406769 -0.573071 0.680959 0.086716 -0.030836 -325959.000000 0 1 0
13.651586 -9.456729 19.310411 25.469344 -0.605823 0.710275 0.081441 -0.027925 -108348.000000 0 0 1
13.721386 -10.474929 18.331811 25.180466 -0.652023 0.755371 0.087237 -0.033562 -136487.000000 0 0 1
14.194886 -11.794929 18.906311 26.420896 -0.693317 0.773340 0.122394 -0.041682 -746098.000000 0 0 1
15.543386 -11.820429 19.254911 27.423913 -0.650174 0.792424 0.111849 -0.038857 -288573.000000 0 0 1
15.993986 -12.989029 19.854911 28.613632 -0.682087 0.803909 0.111003 -0.035744 229.969000 0 0 1
16.558686 -14.151929 18.951311 28.872467 -0.707189 0.854786 0.114225 -0.041114 -206067.000000 0 0 1
15.572686 -14.636629 18.065711 27.984091 -0.754422 0.869026 0.126671 -0.040617 243342.000000 0 0 1
16.042186 -15.714929 17.312111 28.355245 -0.775094 0.914050 0.127957 -0.038261 -227002.000000 0 0 1
15.211486 -16.015429 16.052311 27.304944 -0.811138 0.942348 0.118949 -0.042200 190269.000000 0 0 1
13.895786 -16.494929 16.303411 27.036582 -0.870715 0.923524 0.136303 -0.043517 -45722.100000 0 0 1
13.121586 -16.392129 15.171611 25.904743 -0.895762 0.945091 0.135921 -0.042453 -276809.000000 0 0 1
12.645486 -17.717729 14.623311 26.223414 -0.950922 0.979252 0.108581 -0.018952 613051.000000 0 0 1
13.775386 -18.374529 14.024011 26.908316 -0.927487 1.022566 0.098513 -0.025105 779294.000000 0 0 1
13.312386 -19.544829 13.447411 27.203912 -0.972854 1.053745 0.090809 -0.025317 25177.100000 0 0 1
14.377386 -20.515229 12.833111 28.147337 -0.959523 1.097384 0.083905 -0.016311 98346.600000 0 0 1
15.121486 -21.129229 13.886311 29.460708 -0.949633 1.079975 0.068231 -0.011689 266507.000000 0 0 1
15.768986 -22.323629 13.353111 30.418923 -0.955801 1.116340 0.042950 -0.018922 55155.900000 0 0 1
16.538686 -23.093229 14.445911 31.867063 -0.949300 1.100312 0.043717 -0.016033 -64206.100000 0 0 1
17.851986 -22.590329 14.558511 32.264014 -0.902029 1.102652 0.030324 -0.011329 -294984.000000 0 0 1
18.537386 -23.232429 15.624811 33.578492 -0.897331 1.086798 0.034391 -0.022645 -884782.000000 0 0 1
19.871386 -22.585029 15.898211 34.025118 -0.849227 1.084619 0.026758 -0.014235 -1225250.000000 0 0 1
20.818186 -23.175429 15.080411 34.610926 -0.838928 1.119967 0.024193 -0.016345 -2000510.000000 0 0 1
21.995486 -22.470729 15.115511 34.888590 -0.796085 1.122700 0.029335 -0.011172 -1004160.000000 0 0 1
23.134786 -23.335129 14.568711 35.944317 -0.789709 1.153475 0.024875 -0.017702 -243834.000000 0 0 1
23.451586 -24.425829 15.458011 37.222951 -0.805744 1.142544 0.024136 -0.014455 743756.000000 0 0 1
24.663686 -25.049859 14.992211 38.217263 -0.793166 1.167678 0.030545 -0.014145 707381.000000 0 0 1
25.235786 -26.186179 15.911511 39.695554 -0.803878 1.158364 0.032703 -0.018471 -413331.000000 0 0 1
25.805086 -25.733649 17.125711 40.266774 -0.784012 1.131496 0.043485 -0.018137 -3850.110000 0 0 1
26.310686 -26.875299 17.783711 41.602816 -0.796014 1.129110 0.075952 -0.018223 -10587.500000 0 0 1
26.588086 -26.502949 19.226511 42.178091 -0.783795 1.097479 0.078605 -0.016309 -530228.000000 0 0 1
25.413986 -26.180829 19.890911 41.556646 -0.800260 1.071685 0.080704 -0.012759 -736541.000000 0 0 1
25.596686 -25.546659 21.169411 41.904249 -0.784420 1.041200 0.081229 -0.009385 -206290.000000 0 0 1
24.378986 -25.641289 22.105211 41.718713 -0.810629 1.012357 0.079557 -0.006755 -23928.000000 0 0 1
24.085286 -26.929779 22.438111 42.529787 -0.841098 1.015040 0.075243 -0.009990 -251328.000000 0 0 1
22.831786 -27.068149 23.063321 42.259814 -0.870092 0.993512 0.079910 -0.009774 -128833.000000 0 0 1
22.372886 -28.541729 23.010121 42.949296 -0.905971 1.005400 0.095501 -0.016820 78350.900000 0 0 1
23.280486 -29.453789 23.646381 44.369562 -0.901932 1.008723 0.097789 -0.029806 560460.000000 0 0 1
22.992486 -30.788119 23.196881 44.884941 -0.929348 1.027679 0.105381 -0.033743 -705635.000000 0 0 1
24.006486 -31.779129 23.679061 46.334893 -0.923838 1.034400 0.090782 -0.027950 -575654.000000 0 0 1
23.803386 -32.092519 25.028141 47.148052 -0.932621 1.011203 0.094540 -0.031429 637888.000000 0 0 1
25.016386 -32.407279 25.713251 48.344830 -0.913403 1.009987 0.104351 -0.037109 -132518.000000 0 0 1
24.721186 -32.629409 27.211001 49.155406 -0.922427 0.984150 0.096347 -0.036026 553690.000000 0 0 1
23.956886 -33.753639 27.675541 49.791326 -0.953552 0.981435 0.109819 -0.025503 462828.000000 0 0 1
22.686186 -34.009499 27.112111 49.054823 -0.982525 0.985208 0.103959 -0.025387 -427867.000000 0 0 1
22.013586 32.823536 27.762561 48.298471 0.980031 0.958421 0.116794 -0.035037 -133022.000000 0 0 1
21.513486 33.022309 29.064321 48.969763 0.993379 0.935376 0.092322 -0.036074 107635.000000 0 0 1
21.157686 31.781500 29.591161 48.304743 0.983447 0.911459 0.091821 -0.031915 19849.900000 0 0 1
20.938786 31.885120 31.087901 49.209260 0.989729 0.886989 0.088158 -0.030745 279884.000000 0 0 1
22.198886 31.998930 31.748781 50.246464 0.964285 0.886844 0.092481 -0.027224 573671.000000 0 0 1
22.067786 32.640651 32.989327 51.387693 0.976303 0.873732 0.081808 -0.030342 236758.000000 0 0 1
23.460886 32.766322 33.657184 52.505724 0.949409 0.874971 0.057627 -0.019742 297949.000000 0 0 1
23.877986 31.556320 -33.655954 51.948848 0.923035 2.275578 0.043940 -0.008186 -975987.000000 0 0 1
25.034686 31.630910 -32.921954 52.068273 0.901283 2.255295 0.036076 -0.006306 -711054.000000 0 0 1
25.547086 30.218960 -32.489804 51.199868 0.868979 2.258246 0.039504 -0.002697 154531.000000 0 0 1
26.067886 29.505410 -33.601134 51.760411 0.847175 2.277285 0.052200 -0.002404 736480.000000 0 0 1
25.041086 28.599700 33.799045 50.866239 0.851643 0.844013 0.063209 -0.011413 584264.000000 0 0 1
25.371086 27.954940 32.396544 49.746424 0.833814 0.861587 0.085051 -0.013624 356773.000000 0 0 1
26.467386 27.039410 32.369550 49.793975 0.796088 0.863120 0.076664 -0.013269 534864.000000 0 0 1
26.318386 26.146030 31.298941 48.537573 0.782113 0.869983 0.098546 -0.027074 467140.000000 0 0 1
27.463786 25.038140 31.176951 48.509486 0.739230 0.872782 0.076691 -0.013588 722255.000000 0 0 1
27.575086 24.221200 32.368923 48.936684 0.720737 0.848053 0.088553 -0.012933 251172.000000 0 0 1
28.443286 24.807460 33.338037 50.357276 0.717227 0.847272 0.079761 -0.020686 -752806.000000 0 0 1
28.356286 24.017590 -33.238294 49.856873 0.702746 2.300534 0.072138 -0.023981 1020330.000000 0 0 1
27.049786 24.099910 -32.601174 48.737389 0.727791 2.303545 0.069430 -0.016996 1488130.000000 0 0 1
26.003286 23.324890 -33.171784 48.172488 0.731154 2.330359 0.056608 -0.013297 -404319.000000 0 0 1
26.043886 21.787180 -32.950844 47.315149 0.696637 2.341182 0.045324 -0.010425 -699500.000000 0 0 1
25.535886 21.437980 -31.727414 46.024963 0.698380 2.331391 0.023209 -0.020168 269070.000000 0 0 1
25.389286 20.006680 -31.681374 45.261380 0.667379 2.346145 0.030138 -0.019018 -243567.000000 0 0 1
25.167986 19.447580 -30.243484 43.889682 0.657878 2.331015 0.041724 -0.016638 -405777.000000 0 0 1
23.918086 19.743480 -29.682044 42.929053 0.690075 2.334250 0.039784 -0.011259 -61350.200000 0 0 1
23.725786 19.008880 -28.523934 41.687711 0.675467 2.324342 0.048414 -0.009144 95439.300000 0 0 1
22.396186 19.215480 -27.740864 40.501597 0.709109 2.325308 0.060625 -0.010326 211861.000000 0 0 1
22.351586 18.553580 -26.487294 39.311645 0.692815 2.310105 0.066814 -0.009736 -46498.600000 0 0 1
23.220986 19.100180 -25.533234 39.445876 0.688334 2.274831 0.059207 0.000842 -183487.000000 0 0 1
23.331586 18.242280 -24.272554 38.292304 0.663588 2.257350 0.079051 0.001637 98759.200000 0 0 1
24.108186 17.065980 -24.528454 38.393975 0.616003 2.263815 0.087770 -0.014216 462501.000000 0 0 1
24.156586 16.307880 -23.295254 37.311613 0.593812 2.245087 0.087491 -0.018833 -375618.000000 0 0 1
24.986086 15.007480 -23.318854 37.326906 0.540885 2.245569 0.112134 -0.017846 -403676.000000 0 0 1
26.379186 15.281080 -23.407654 38.435545 0.525049 2.225609 0.127441 -0.022278 231509.000000 0 0 1
27.178686 14.139680 -23.443654 38.577408 0.479715 2.223963 0.125562 -0.027116 -26620.100000 0 0 1
27.317986 13.433880 -22.027154 37.575750 0.457034 2.197165 0.111854 -0.026874 -640758.000000 0 0 1
26.178286 12.617280 -21.863554 36.366377 0.449124 2.215801 0.107562 -0.016388 150225.000000 0 0 1
26.061286 12.289780 -20.491454 35.357163 0.440648 2.188980 0.096347 -0.027318 1561390.000000 0 0 1
24.573786 11.823880 -20.081854 33.866738 0.448461 2.205535 0.092605 -0.016000 2528880.000000 0 0 1
23.614686 12.916680 -20.188754 33.646393 0.500519 2.214332 0.102684 -0.020117 1317840.000000 0 0 1
22.338086 12.554580 -20.741354 32.966822 0.512029 2.251266 0.074862 -0.017695 1420260.000000 0 0 1
21.216486 13.643180 -20.620254 32.580216 0.571471 2.256099 0.072159 -0.019397 -23140.200000 0 0 1
21.658986 14.818280 -21.361354 33.837856 0.600018 2.254006 0.068826 -0.014611 460394.000000 0 0 1
20.743886 15.880180 -21.342854 33.734349 0.653370 2.255798 0.052757 -0.013660 -147568.000000 0 0 1
19.445386 15.729080 -22.167654 33.420531 0.680135 2.296009 0.052421 -0.003206 -392320.000000 0 0 1
18.471186 14.894380 -21.607954 32.092537 0.678605 2.309461 0.046648 -0.010389 -76174.300000 0 0 1
17.448886 14.654380 -22.580554 32.079524 0.698570 2.351660 0.057074 -0.019587 297233.000000 0 0 1
16.214386 14.036080 -21.856954 30.620978 0.713513 2.365692 0.059145 -0.026731 135118.000000 0 0 1
15.137686 13.882680 -22.762654 30.659693 0.742179 2.407486 0.065971 -0.027580 -36461.700000 0 0 1
14.018886 13.249880 -22.162954 29.381712 0.757205 2.425401 0.083627 -0.032297 769296.000000 0 0 1
12.677686 13.383380 -22.959154 29.444207 0.812470 2.465065 0.084201 -0.036438 349560.000000 0 0 1
12.042286 14.635580 -22.925954 29.745861 0.882301 2.450779 0.090992 -0.035428 70995.000000 0 0 1
11.512886 14.945680 -24.189354 30.676453 0.914420 2.479214 0.077238 -0.030727 -782173.000000 0 0 1
11.329786 16.460380 -24.321754 31.477863 0.967962 2.453820 0.068358 -0.035327 -472249.000000 0 0 1
12.410386 17.385280 -24.183854 32.266460 0.950839 2.418109 0.058236 -0.022580 -102988.000000 0 0 1
13.515886 17.227180 -25.037244 33.261366 0.905537 2.423014 0.061865 -0.027223 -125079.000000 0 0 1
13.187486 17.241580 -26.602594 34.334820 0.917849 2.457194 0.085900 -0.026963 -357405.000000 0 0 1
14.384386 17.189480 -27.352134 35.362806 0.874008 2.455097 0.083247 -0.030645 439347.000000 0 0 1
14.073786 16.763680 -28.657834 36.060558 0.872406 2.489333 0.092237 -0.039358 -168507.000000 0 0 1
15.053186 17.463580 -29.638134 37.549887 0.859391 2.480465 0.079645 -0.026621 -21483.300000 0 0 1
16.298386 16.827880 -29.455284 37.635471 0.801381 2.469703 0.068813 -0.025600 -320880.000000 0 0 1
17.215986 17.122080 -30.481504 38.970218 0.782663 2.468944 0.062383 -0.017654 -383178.000000 0 0 1
18.404686 16.189580 -30.528364 39.151194 0.721454 2.465072 0.054389 -0.013503 -911084.000000 0 0 1
19.559086 16.653180 -31.167504 40.389349 0.705323 2.452269 0.051354 -0.016380 -444027.000000 0 0 1
20.618486 15.762780 -30.965834 40.403837 0.652715 2.444027 0.062908 -0.013458 -1132040.000000 0 0 1
21.945186 16.398380 -31.248784 41.557004 0.641734 2.421811 0.063931 -0.009160 -1021170.000000 0 0 1
21.934286 16.722180 -32.572974 42.681879 0.651375 2.438981 0.053097 -0.009262 232961.000000 0 0 1
23.169386 17.298980 -32.953784 43.840929 0.641341 2.421382 0.047648 -0.007096 13140.800000 0 0 1
23.098286 17.718580 33.427764 44.327128 0.654352 0.716490 0.023977 0.003331 -205345.000000 0 0 1
24.001186 18.740880 33.077377 44.959875 0.662943 0.744084 0.025464 0.002930 238798.000000 0 0 1
23.879686 18.924180 31.667061 43.945042 0.670139 0.766120 0.054617 -0.003150 -208553.000000 0 0 1
24.832586 20.102780 31.270991 44.706308 0.680526 0.796132 0.069932 -0.009191 694548.000000 0 0 1
26.227886 19.819780 31.327751 45.410942 0.647124 0.809484 0.047184 -0.009215 91003.500000 0 0 1
26.983586 20.963880 31.050381 46.170600 0.660504 0.833196 0.056706 -0.018181 -363408.000000 0 0 1
28.461286 20.575380 30.912281 46.786325 0.625947 0.849030 0.051523 -0.017660 -399661.000000 0 0 1
29.019086 20.249880 32.163860 47.819231 0.609256 0.833061 0.048794 -0.020140 115695.000000 0 0 1
30.401886 19.952580 32.058158 48.477888 0.580787 0.848253 0.050355 -0.015432 289804.000000 0 0 1
31.044386 19.308380 33.321185 49.465835 0.556411 0.831700 0.046137 -0.018006 -22586.900000 0 0 1
31.099886 20.019180 -33.345904 49.798793 0.571938 2.304484 0.043619 -0.021835 615789.000000 0 0 1
29.967086 19.815080 -32.491044 48.438947 0.584228 2.306033 0.047049 -0.027767 333968.000000 0 0 1
30.319786 20.338480 -31.052544 47.929153 0.590858 2.275600 0.063110 -0.027610 420550.000000 0 0 1
31.480586 19.665080 -30.571074 48.086726 0.558364 2.259774 0.061434 -0.037587 214921.000000 0 0 1
31.862786 20.172080 -29.290234 47.750055 0.564397 2.231164 0.060570 -0.033768 -906918.000000 0 0 1
33.202386 19.582880 -28.930944 48.196339 0.532888 2.214638 0.073062 -0.020794 -994630.000000 0 0 1
34.228286 20.141180 -29.691924 49.586823 0.531874 2.212782 0.038423 -0.021832 -145783.000000 0 0 1
35.510286 19.970780 -29.114084 50.074368 0.512309 2.191265 0.053623 -0.011898 -490670.000000 0 0 1
36.630386 20.770980 -29.660814 51.507113 0.515833 2.184450 0.058314 -0.015095 -806156.000000 0 0 1
37.157486 20.478280 -30.922284 52.499775 0.503704 2.200615 0.047516 -0.020288 345878.000000 0 0 1
-35.997957 21.287980 -31.132204 52.136793 -0.534047 2.210709 0.050416 -0.027772 647083.000000 0 0 1
-35.038957 20.720680 -32.209014 51.908532 -0.534043 2.240171 0.053186 -0.034662 417795.000000 0 0 1
-34.237657 19.589180 -31.832604 50.687946 -0.519692 2.249791 0.076668 -0.030893 1207420.000000 0 0 1
-33.221557 19.245480 -32.826144 50.513524 -0.525065 2.278182 0.076632 -0.024729 1032270.000000 0 0 1
-32.389057 17.978380 -32.415554 49.224398 -0.506732 2.289655 0.072153 -0.015377 162770.000000 0 0 1
-33.192357 16.787180 -32.389034 49.321309 -0.468241 2.287224 0.067117 -0.016255 325759.000000 0 0 1
-32.522357 15.551580 -32.617254 48.615230 -0.446041 2.306254 0.052034 -0.010962 47880.000000 0 0 1
-33.562357 14.395980 -32.572864 48.935340 -0.405197 2.299135 0.054302 -0.012702 214973.000000 0 0 1
-33.066357 13.098880 -32.908094 48.455209 -0.377174 2.317393 0.064434 -0.016857 7421.050000 0 0 1
-34.169857 12.219980 -33.009104 49.056172 -0.343451 2.308897 0.069598 -0.020814 -156043.000000 0 0 1
-33.913057 10.695480 -33.084094 48.570012 -0.305506 2.320146 0.077575 -0.019209 -461684.000000 0 0 1
-33.342057 10.195380 33.597044 48.419004 -0.296752 0.803931 0.083102 -0.015120 38611.300000 0 0 1
-33.399857 8.805280 33.486774 48.108705 -0.257767 0.800894 0.096231 -0.022651 -669122.000000 0 0 1
-32.606457 8.420480 32.279797 46.648374 -0.252724 0.806567 0.105555 -0.025207 -1835670.000000 0 0 1
-31.277557 8.576880 32.541285 45.943266 -0.267639 0.783719 0.093205 -0.024815 -1764520.000000 0 0 1
-30.559157 7.826480 31.588911 44.642751 -0.250720 0.784710 0.094444 -0.027143 -174940.000000 0 0 1
21.313986 -4.280229 -32.091094 38.761381 -0.198182 2.546175 0.086416 -0.048717 -1556970.000000 0 0 1
22.670686 -4.511129 -32.089724 39.548207 -0.196420 2.517353 0.077633 -0.046590 -844419.000000 0 0 1
23.461386 -3.501129 -31.463724 39.403813 -0.148136 2.495586 0.070995 -0.041754 279824.000000 0 0 1
23.517586 -2.082129 -32.169864 39.903787 -0.088305 2.508473 0.072635 -0.039406 -729812.000000 0 0 1
24.218186 -1.142229 -31.411394 39.679981 -0.047129 2.484249 0.071695 -0.032452 -67614.900000 0 0 1
24.148586 0.131371 -32.078094 40.151906 0.005440 2.496291 0.070679 -0.037015 272944.000000 0 0 1
25.064286 1.202171 -31.370454 40.171744 0.047927 2.466915 0.063016 -0.024090 1316730.000000 0 0 1
26.459586 0.941771 -31.608254 41.232006 0.035578 2.444318 0.061397 -0.024844 742091.000000 0 0 1
27.255286 2.034771 -31.126384 41.422731 0.074518 2.421027 0.071556 -0.023145 1610100.000000 0 0 1
28.825886 1.939571 -31.354424 42.635590 0.067184 2.397060 0.068750 -0.021476 1334030.000000 0 0 1
29.343086 2.313771 -32.587064 43.912264 0.078690 2.406987 0.082393 -0.025924 -231701.000000 0 0 1
29.410186 1.293871 -33.580144 44.657129 0.043966 2.421819 0.062148 -0.017764 -558900.000000 0 0 1
30.033986 1.924971 33.010882 44.670618 0.064006 0.739235 0.063511 -0.027097 154626.000000 0 0 1
29.286586 2.946571 32.264874 43.673888 0.100274 0.739556 0.068684 -0.019325 410064.000000 0 0 1
29.412286 4.232371 32.710474 44.192427 0.142917 0.737454 0.079127 -0.017536 -873555.000000 0 0 1
28.557786 5.177671 31.974191 43.182222 0.179357 0.737060 0.085013 -0.014854 -735696.000000 0 0 1
28.643086 6.523471 32.294284 43.656647 0.223931 0.738122 0.095240 -0.020412 -175300.000000 0 0 1
28.124686 7.327671 31.295051 42.709167 0.254876 0.748445 0.089688 -0.021192 -237743.000000 0 0 1
28.524086 8.822171 31.294071 43.252434 0.299956 0.761906 0.083330 -0.018712 545886.000000 0 0 1
29.872986 9.070071 30.900421 43.926046 0.294776 0.790536 0.079280 -0.013784 413868.000000 0 0 1
30.109786 10.445471 31.090491 44.523316 0.333922 0.797781 0.074562 -0.011701 -348327.000000 0 0 1
31.489286 10.905071 30.617241 45.253852 0.333384 0.827706 0.073692 -0.008298 -488618.000000 0 0 1
32.589286 10.669371 31.517861 46.575450 0.316391 0.827518 0.066128 -0.014423 81775.100000 0 0 1
33.785486 10.935971 30.854171 47.042899 0.313045 0.855458 0.074400 -0.017863 -485178.000000 0 0 1
34.212286 12.427871 30.864101 47.723424 0.348436 0.867509 0.080567 -0.015918 -870521.000000 0 0 1
34.849886 12.802871 32.061167 49.054526 0.352066 0.858488 0.077559 -0.012518 277771.000000 0 0 1
35.272886 14.222571 32.192843 49.828076 0.383275 0.868361 0.080049 -0.006000 669939.000000 0 0 1
34.139186 15.336271 32.272121 49.418367 0.422212 0.859206 0.080484 -0.018145 -559516.000000 0 0 1
33.621286 15.556271 30.939011 48.266042 0.433358 0.874983 0.081711 -0.028561 -552641.000000 0 0 1
32.613186 16.484671 30.867311 47.834665 0.468006 0.869391 0.073994 -0.031021 -949756.000000 0 0 1
31.282486 15.907771 31.365041 47.068215 0.470440 0.841461 0.082226 -0.023356 -1458610.000000 0 0 1
30.744986 14.967471 30.403991 45.756770 0.453053 0.844012 0.084619 -0.022099 -100480.000000 0 0 1
29.607986 14.337871 30.913881 45.142833 0.450974 0.816465 0.064420 -0.014438 -6097.680000 0 0 1
28.557086 13.714671 29.946251 43.593317 0.447727 0.813518 0.057448 -0.009983 120785.000000 0 0 1
28.908986 12.536471 29.244981 42.990249 0.409177 0.822665 0.074182 -0.016965 -91226.600000 0 0 1
27.983286 12.214871 28.216041 41.574179 0.411576 0.824817 0.068351 -0.018297 169288.000000 0 0 1
27.825886 10.721671 27.992661 40.900162 0.367781 0.816996 0.075887 -0.006495 -378344.000000 0 0 1
28.931486 10.171371 27.341771 41.086009 0.338071 0.842664 0.085624 -0.006904 -234009.000000 0 0 1
28.758586 8.789971 27.313411 40.624405 0.296629 0.833431 0.099940 -0.013225 599893.000000 0 0 1
30.024186 8.035571 26.779011 41.026060 0.261508 0.859612 0.091442 -0.013356 367196.000000 0 0 1
30.361686 8.293071 25.408401 40.449893 0.266639 0.891629 0.100846 -0.009606 -300342.000000 0 0 1
31.381486 7.468971 24.954441 40.783665 0.233658 0.912369 0.112995 -0.003721 -562568.000000 0 0 1
31.721586 7.718171 23.491211 40.220221 0.238672 0.947069 0.104526 -0.011412 -254489.000000 0 0 1
32.291086 8.986671 23.312541 40.828287 0.271433 0.963085 0.090030 -0.014802 -199474.000000 0 0 1
31.489886 10.013871 22.769711 40.129170 0.307890 0.967439 0.112052 -0.016093 -238966.000000 0 0 1
31.032186 9.979771 21.288511 38.933187 0.311148 0.992264 0.111780 0.002029 119932.000000 0 0 1
32.136886 10.035071 20.402011 39.366536 0.302666 1.025984 0.118630 -0.018305 312321.000000 0 0 1
31.781686 9.603271 19.080811 38.293285 0.293441 1.049182 0.132519 -0.027843 -805302.000000 0 0 1
32.718986 10.137671 17.984011 38.687583 0.300460 1.087329 0.154621 -0.056362 895785.000000 0 0 1
34.080086 9.726171 17.818611 39.668042 0.278001 1.104934 0.144990 -0.045634 979274.000000 0 0 1
34.961686 10.191971 18.860611 41.011198 0.283657 1.092926 0.124927 -0.033312 362739.000000 0 0 1
36.412386 9.663971 18.566811 41.999770 0.259423 1.112892 0.122000 -0.031412 424463.000000 0 0 1
36.511986 8.247271 18.559611 41.780399 0.222150 1.110495 0.102156 -0.025204 -226604.000000 0 0 1
-36.767557 7.887971 17.708411 41.565144 -0.211333 1.130685 0.108708 -0.025604 -421651.000000 0 0 1
-36.682957 6.372571 17.508611 41.143657 -0.172004 1.131229 0.110040 -0.027520 657902.000000 0 0 1
36.394886 5.870071 16.963211 40.580734 0.159911 1.139541 0.099034 -0.023032 892391.000000 0 0 1
36.603086 4.722171 16.196411 40.303952 0.128302 1.157253 0.130763 -0.031051 111834.000000 0 0 1
35.351686 3.811471 16.052411 39.012163 0.107401 1.146728 0.125886 -0.027889 95810.400000 0 0 1
35.144086 2.937071 17.152811 39.216732 0.083379 1.118108 0.129929 -0.024985 193827.000000 0 0 1
33.835286 2.410671 17.235011 38.048436 0.071127 1.100696 0.111302 -0.029259 177264.000000 0 0 1
33.697386 1.545671 18.499311 38.472424 0.045837 1.069177 0.118421 -0.039536 -89352.600000 0 0 1
34.405486 0.355671 18.491611 39.061536 0.010337 1.077653 0.138278 -0.036892 -201701.000000 0 0 1
34.250686 -0.356829 19.699011 39.513135 -0.010418 1.048879 0.139867 -0.041510 507065.000000 0 0 1
34.897086 -1.826029 19.645811 40.088638 -0.052278 1.058639 0.144236 -0.035785 428383.000000 0 0 1
34.522786 -2.590929 20.766311 40.370476 -0.074909 1.030496 0.140882 -0.033869 171249.000000 0 0 1
35.145186 -3.877629 20.792811 41.019033 -0.109887 1.039204 0.121082 -0.029792 171648.000000 0 0 1
34.660986 -4.673429 22.023411 41.331048 -0.134024 1.008827 0.111962 -0.030243 28819.600000 0 0 1
35.147986 -4.074629 23.239611 42.332765 -0.115413 0.989659 0.114228 -0.037650 479042.000000 0 0 1
34.606786 -4.743029 24.367361 42.589837 -0.136206 0.961683 0.106907 -0.035437 253853.000000 0 0 1
35.019686 -3.995429 25.674421 43.606396 -0.113600 0.941252 0.093915 -0.027543 534386.000000 0 0 1
34.078386 -4.252229 26.747001 43.529529 -0.124136 0.909099 0.088811 -0.025617 482609.000000 0 0 1
34.443986 -3.676529 27.969811 44.522077 -0.106337 0.891529 0.088318 -0.029307 -44499.000000 0 0 1
33.454086 -4.048729 29.090001 44.517370 -0.120438 0.858659 0.072228 -0.032117 131592.000000 0 0 1
33.625686 -5.423329 29.353411 44.963563 -0.159908 0.859486 0.067591 -0.031141 225367.000000 0 0 1
32.673186 -5.908129 30.296021 44.947658 -0.178892 0.831147 0.065688 -0.038140 -15680.300000 0 0 1
32.880486 -7.395329 30.652041 45.556173 -0.221234 0.832754 0.069468 -0.028991 -544469.000000 0 0 1
34.099686 -7.618729 31.265441 46.886687 -0.219815 0.840850 0.071981 -0.024279 -739702.000000 0 0 1
34.483386 -8.981429 31.251341 47.396374 -0.254796 0.850827 0.059707 -0.010449 -222289.000000 0 0 1
35.791186 -9.214129 32.001442 48.887641 -0.251970 0.857154 0.057413 -0.005367 -246065.000000 0 0 1
35.678386 -9.192429 33.442492 49.757896 -0.252163 0.833749 0.053393 -0.012730 -87987.300000 0 0 1
36.942986 -9.348129 -33.848814 50.969735 -0.247840 2.297081 0.042457 -0.015672 -341214.000000 0 0 1
36.870686 -9.738429 -32.359244 50.014049 -0.258227 2.274444 0.064993 -0.015295 -292477.000000 0 0 1
36.199286 -8.842029 -31.525234 48.809939 -0.239569 2.272968 0.063696 -0.017179 284070.000000 0 0 1
36.827386 -7.565429 -31.420614 48.997419 -0.202611 2.266950 0.066446 -0.016352 63589.800000 0 0 1
36.041886 -6.519129 -30.582874 47.716127 -0.178942 2.266510 0.077734 -0.015493 14362.100000 0 0 1
36.409886 -6.460229 -29.212954 47.125482 -0.175603 2.239408 0.075703 -0.007921 153894.000000 0 0 1
35.688286 -5.440729 -28.586094 46.048019 -0.151287 2.240545 0.088416 -0.016718 -126075.000000 0 0 1
36.241686 -5.147829 -27.172304 45.588310 -0.141098 2.209352 0.098781 -0.021535 879197.000000 0 0 1
-36.691957 -4.777729 -27.164154 45.902262 0.129483 2.204065 0.103652 -0.018417 676084.000000 0 0 1
-36.182557 -4.500229 -25.852074 44.696300 0.123740 2.187555 0.113014 -0.018967 -78998.200000 0 0 1
-34.660057 -4.341429 -25.803124 43.427742 0.124608 2.207020 0.108799 -0.008922 -816683.000000 0 0 1
-34.285957 -3.701929 -24.573154 42.344670 0.107555 2.189909 0.120709 -0.021708 1051900.000000 0 0 1
-32.921357 -3.792329 -24.117154 40.985786 0.114688 2.199909 0.130737 -0.015044 814441.000000 0 0 1
-31.899757 -2.968629 -24.896054 40.573646 0.092794 2.231410 0.108637 -0.021963 -720883.000000 0 0 1
-31.565557 -3.404529 -26.202174 41.164659 0.107440 2.260775 0.110170 -0.019192 -250250.000000 0 0 1
-30.483757 -2.712129 -26.758774 40.652762 0.088736 2.289258 0.102913 -0.016540 -102613.000000 0 0 1
-29.994257 -3.530129 -27.992874 41.179100 0.117155 2.318264 0.087495 -0.012407 734303.000000 0 0 1
-31.007957 -3.579529 -29.053524 42.642862 0.114930 2.320364 0.120464 -0.014554 729252.000000 0 0 1
-30.668957 -4.463429 -30.122174 43.218659 0.144521 2.341962 0.098294 -0.012242 -1150870.000000 0 0 1
-31.793357 -4.604229 -31.168354 44.760281 0.143818 2.341081 0.090143 -0.019180 -904934.000000 0 0 1
-32.855357 -5.375929 -30.670624 45.266569 0.162187 2.315230 0.093607 -0.020443 156093.000000 0 0 1
-33.784057 -4.720129 -29.809874 45.301995 0.138816 2.288990 0.113512 -0.020005 -772230.000000 0 0 1
-34.774457 -3.747529 -30.494364 46.402727 0.107352 2.287851 0.134987 -0.022931 -901958.000000 0 0 1
-34.318557 -2.529929 -31.010134 46.322698 0.073586 2.304247 0.146966 -0.014517 -341239.000000 0 0 1
-33.759357 -1.640629 -30.104844 45.262429 0.048560 2.298448 0.138651 -0.010326 -108902.000000 0 0 1
-33.511357 -0.231629 -30.651094 45.415353 0.006912 2.311634 0.137550 -0.008969 61026.400000 0 0 1
-34.706857 0.297171 -31.182364 46.658269 -0.008562 2.302736 0.153573 -0.009352 -70131.600000 0 0 1
-34.616157 1.685571 -31.422774 46.781516 -0.048655 2.307287 0.152390 -0.000158 469918.000000 0 0 1
-35.980257 2.398771 -31.692484 48.007776 -0.066571 2.291819 0.136503 -0.001231 514829.000000 0 0 1
-36.657857 1.995371 -32.859764 49.270114 -0.054379 2.300879 0.126432 -0.003823 525678.000000 0 0 1
36.435886 2.694771 -33.107974 49.304903 0.073825 2.307020 0.095725 -0.005920 486210.000000 0 0 1
35.586586 2.130971 33.599840 48.988727 0.059810 0.814999 0.080448 -0.008277 -50713.300000 0 0 1
36.062686 2.365271 32.261230 48.444801 0.065494 0.842046 0.070316 -0.002623 736708.000000 0 0 1
-37.076657 1.641071 31.891402 48.932946 -0.044233 0.860924 0.081424 -0.007790 349519.000000 0 0 1
-36.807857 1.645571 30.361281 47.742367 -0.044677 0.881570 0.082334 -0.013401 -135215.000000 0 0 1
-36.456457 2.924371 29.933381 47.261322 -0.080044 0.884910 0.075508 -0.006400 104777.000000 0 0 1
-35.820557 2.952871 28.685081 45.985494 -0.082249 0.897220 0.070979 -0.007510 22333.500000 0 0 1
-35.699257 4.405071 28.161851 45.682945 -0.122773 0.906553 0.073220 -0.004054 -69005.900000 0 0 1
-35.066657 4.408071 26.886151 44.406831 -0.125050 0.920464 0.075172 0.000210 64302.300000 0 0 1
-34.637857 5.693771 26.560751 44.019015 -0.162923 0.923048 0.076858 -0.002214 -248622.000000 0 0 1
-33.691757 5.721971 25.351491 42.550835 -0.168228 0.932544 0.090857 -0.003713 -442205.000000 0 0 1
-32.593057 4.857571 25.421411 41.619124 -0.147948 0.913712 0.088406 -0.007998 -26280.700000 0 0 1
-31.532257 5.079371 24.530231 40.271770 -0.159713 0.915849 0.088861 -0.013933 135985.000000 0 0 1
-31.897057 4.817771 23.016311 39.628068 -0.149908 0.951075 0.091781 -0.017120 -322737.000000 0 0 1
-31.933757 3.398971 22.697511 39.325499 -0.106039 0.955537 0.097283 -0.018893 -98658.200000 0 0 1
-32.554357 3.155071 21.461211 39.119359 -0.096615 0.990097 0.113814 -0.025393 -517075.000000 0 0 1
-32.387657 1.684771 21.056511 38.667499 -0.051972 0.994940 0.121970 -0.017937 688265.000000 0 0 1
-31.183857 1.358971 20.323011 37.246537 -0.043552 0.993650 0.126950 -0.014511 762080.000000 0 0 1
-31.116757 1.803671 18.975511 36.490764 -0.057900 1.023935 0.123840 -0.026887 108647.000000 0 0 1
-29.806157 1.261271 18.342711 35.020749 -0.042291 1.019529 0.107430 -0.029006 -443371.000000 0 0 1
-29.661057 -0.180929 18.403711 34.907129 0.006100 1.015472 0.123033 -0.023602 419136.000000 0 0 1
-28.375157 -0.735229 18.117311 33.673834 0.025905 1.002706 0.120304 -0.019485 537985.000000 0 0 1
-27.914657 -0.504729 16.659011 32.511621 0.018079 1.032817 0.124228 -0.018612 -574422.000000 0 0 1
-27.785757 0.824971 16.255611 32.202077 -0.029682 1.041646 0.123985 -0.030707 2532.330000 0 0 1
-27.791757 0.877471 14.815011 31.506131 -0.031563 1.081249 0.141673 -0.025373 -122469.000000 0 0 1
-27.333057 2.214171 14.210011 30.885644 -0.080831 1.092706 0.142555 -0.034116 1385600.000000 0 0 1
-25.895657 2.415471 14.122811 29.595158 -0.093008 1.073330 0.118503 -0.041432 1254480.000000 0 0 1
-25.621857 3.499471 13.268711 29.065178 -0.135742 1.096721 0.120123 -0.046152 -253482.000000 0 0 1
-24.126857 3.561171 12.934211 27.605815 -0.146544 1.083168 0.106608 -0.045528 -156518.000000 0 0 1
-23.279657 3.802571 14.036711 27.448702 -0.161913 1.034007 0.086753 -0.031192 1101340.000000 0 0 1
-21.878457 3.946171 13.709711 26.118869 -0.178449 1.018202 0.083677 -0.034379 1107870.000000 0 0 1
-21.052557 4.476971 14.909111 26.182724 -0.209535 0.964989 0.072936 -0.034726 -319914.000000 0 0 1
-21.311057 5.794871 15.206111 26.813569 -0.265499 0.967810 0.060969 -0.028089 245633.000000 0 0 1
-20.653657 6.215271 16.379211 27.082867 -0.292308 0.921305 0.054338 -0.019432 -134121.000000 0 0 1
-21.022957 7.677971 16.645711 27.892574 -0.350168 0.931315 0.056808 -0.022092 -254531.000000 0 0 1
-20.509457 8.619971 15.700111 27.229308 -0.397877 0.956249 0.063097 -0.027151 377044.000000 0 0 1
-20.907857 9.953671 15.900111 28.089635 -0.444324 0.969091 0.065180 -0.013996 -196181.000000 0 0 1
-20.194957 10.715671 17.042311 28.514948 -0.487836 0.930214 0.061390 -0.011912 -219200.000000 0 0 1
-20.550957 10.226771 18.302611 29.358376 -0.461750 0.897687 0.073558 -0.025530 194952.000000 0 0 1
-20.073057 11.050771 19.340111 29.984781 -0.503248 0.869776 0.071790 -0.015414 -53179.700000 0 0 1
-12.909214 -33.499638 -20.352154 41.268435 1.202979 2.086521 0.161965 -0.055712 441399.000000 0 0 1
-13.883114 -33.963238 -19.387354 41.498336 1.182754 2.056899 0.175137 -0.050762 1047330.000000 0 0 1
-15.032614 -33.093738 -19.372054 41.188002 1.144419 2.060464 0.153776 -0.068457 533896.000000 0 0 1
-16.198914 -33.617338 -18.510554 41.655382 1.121764 2.031271 0.126255 -0.055156 -720866.000000 0 0 1
-16.742014 33.243571 -19.035154 41.806305 -1.104260 2.043525 0.123312 -0.062000 648435.000000 0 0 1
-17.728314 32.599971 -18.191854 41.327894 -1.072715 2.026599 0.110405 -0.050830 2285920.000000 0 0 1
-19.143014 33.304671 -17.908154 42.383465 -1.049124 2.007028 0.107408 -0.049128 783365.000000 0 0 1
-19.054314 -33.638238 -16.949554 42.212384 1.055413 1.983984 0.124263 -0.048935 -219048.000000 0 0 1
-20.299114 -33.297838 -16.407054 42.308291 1.023331 1.969037 0.098201 -0.044959 -292442.000000 0 0 1
-20.529314 -33.896838 -15.047254 42.389483 1.026239 1.933685 0.099916 -0.035663 -354464.000000 0 0 1
-20.607514 32.740071 -14.951754 41.474532 -1.009019 1.939605 0.095834 -0.042918 234332.000000 0 0 1
-20.800514 32.289071 -13.579754 40.738866 -0.998512 1.910637 0.097848 -0.032162 -47302.600000 0 0 1
-21.019814 30.777971 -13.527454 39.649818 -0.971605 1.918961 0.090255 -0.029991 -228344.000000 0 0 1
-19.852814 30.020571 -13.405254 38.406637 -0.986513 1.927337 0.117766 -0.039012 -276877.000000 0 0 1
-20.135114 28.611671 -13.364554 37.452127 -0.957566 1.935683 0.134025 -0.043027 -125964.000000 0 0 1
-18.983114 27.743071 -12.858354 35.991303 -0.970721 1.936132 0.115406 -0.043975 977886.000000 0 0 1
-17.776514 27.667871 -13.667954 35.613600 -0.999714 1.964688 0.132055 -0.039134 839806.000000 0 0 1
-16.785714 26.842771 -13.124254 34.271571 -1.011956 1.963783 0.140849 -0.049734 307675.000000 0 0 1
-15.324914 27.202771 -13.490954 34.012492 -1.057755 1.978658 0.110999 -0.047440 298652.000000 0 0 1
-15.132914 27.230771 -14.886354 34.527142 -1.063566 2.016563 0.093713 -0.028125 -591164.000000 0 0 1
-13.818714 27.411271 -15.327154 34.311169 -1.103854 2.033881 0.124447 -0.035851 -439244.000000 0 0 1
-13.690914 27.692471 -16.894454 35.209894 -1.111646 2.071247 0.145148 -0.049403 -272215.000000 0 0 1
-14.098214 26.738171 -17.742754 35.049889 -1.085572 2.101586 0.109230 -0.047054 -120353.000000 0 0 1
-14.423114 27.330471 -18.986754 36.269515 -1.085211 2.121739 0.091150 -0.042208 43611.000000 0 0 1
-13.994314 26.428571 -20.193954 36.084706 -1.083817 2.164731 0.069260 -0.022714 -389898.000000 0 0 1
-12.613414 26.386371 -20.396654 35.656168 -1.124881 2.179784 0.067261 -0.023971 -539929.000000 0 0 1
-12.239314 25.391771 -21.320254 35.342553 -1.121637 2.218361 0.048139 -0.025067 -60251.200000 0 0 1
-10.811014 25.509071 -21.869854 35.297043 -1.169934 2.239022 0.082156 -0.038091 -136197.000000 0 0 1
-10.679514 26.463771 -22.910654 36.596192 -1.187231 2.247260 0.077758 -0.028294 621930.000000 0 0 1
-9.510214 26.172971 -23.710254 36.573826 -1.222269 2.276126 0.080816 -0.041147 603683.000000 0 0 1
-9.561214 26.812771 -25.100624 37.952376 -1.228261 2.293442 0.081691 -0.033786 -427738.000000 0 0 1
-10.631914 26.341971 -25.855244 38.411335 -1.187181 2.309209 0.059856 -0.023115 -584938.000000 0 0 1
-10.699714 26.959771 -27.162114 39.737810 -1.192985 2.323389 0.076752 -0.016238 314215.000000 0 0 1
-12.031314 26.628971 -27.890714 40.394883 -1.146436 2.332910 0.048277 -0.000777 189829.000000 0 0 1
-12.321514 27.236971 -29.060694 41.691681 -1.145963 2.342055 0.058040 0.009802 -489553.000000 0 0 1
-13.564014 26.762271 -29.506374 42.081204 -1.101697 2.347843 0.052710 0.015660 -111271.000000 0 0 1
-13.901314 26.901571 -31.027954 43.355219 -1.093841 2.368377 0.058872 0.003937 183919.000000 0 0 1
-12.986714 26.110171 -31.807744 43.152385 -1.109246 2.399569 0.062479 0.002768 223869.000000 0 0 1
-13.085914 24.687971 -31.992484 42.476536 -1.083397 2.423680 0.056064 -0.001026 -80970.000000 0 0 1
-12.445414 24.036071 -33.237594 42.864422 -1.093026 2.458164 0.056116 0.002116 63507.500000 0 0 1
-13.135814 24.337571 33.431508 43.388163 -1.075869 0.691138 0.062234 0.003490 265218.000000 0 0 1
-12.462314 23.724071 32.318586 41.983709 -1.087112 0.692286 0.056741 -0.001456 78962.500000 0 0 1
-13.233914 23.781671 30.928891 41.198309 -1.062995 0.721627 0.065878 0.002995 -516852.000000 0 0 1
-14.319214 22.933371 30.881581 41.044506 -1.012641 0.719110 0.053455 -0.005359 -979165.000000 0 0 1
-14.938314 22.953371 29.651861 40.363887 -0.993851 0.745699 0.065326 -0.005942 -76418.500000 0 0 1
-16.081014 21.918171 29.607711 40.194798 -0.937819 0.742759 0.059024 -0.004450 172484.000000 0 0 1
-15.584114 20.569371 29.716151 39.357506 -0.922425 0.715094 0.044859 -0.007891 220600.000000 0 0 1
-16.637314 19.668971 29.955041 39.509153 -0.868707 0.710279 0.034895 -0.005304 150332.000000 0 0 1
-15.974814 18.289871 30.221541 38.769261 -0.852860 0.676892 0.019671 -0.016603 187070.000000 0 0 1
-15.587314 17.630671 29.050871 37.386602 -0.846834 0.680847 0.037387 -0.020690 -45040.900000 0 0 1
-14.676414 16.596171 29.258231 36.699784 -0.846709 0.648101 0.017660 -0.034889 -292611.000000 0 0 1
-14.208814 15.906871 27.930061 35.142670 -0.841723 0.652181 0.034684 -0.024223 146108.000000 0 0 1
-13.136114 16.654971 27.377001 34.633015 -0.902971 0.659190 0.001978 -0.017564 62913.500000 0 0 1
-12.704414 16.083871 26.124081 33.204829 -0.902253 0.665261 -0.014322 -0.008801 431400.000000 0 0 1
-11.622814 16.891271 25.331141 32.589439 -0.968104 0.680464 0.010920 -0.006563 221117.000000 0 0 1
-12.047514 17.738371 24.292701 32.402588 -0.974182 0.723165 0.015929 -0.008514 343426.000000 0 0 1
-12.786914 18.975371 24.653871 33.636041 -0.977824 0.748133 0.019295 -0.008993 858377.000000 0 0 1
-11.906414 20.053771 25.363481 34.456097 -1.035004 0.743491 0.018401 -0.009535 161644.000000 0 0 1
-11.603914 19.771671 26.694641 35.187692 -1.040068 0.709580 0.023292 -0.012830 667681.000000 0 0 1
-12.734914 19.952771 27.581981 36.346345 -1.002724 0.709227 0.033127 -0.009263 652909.000000 0 0 1
-12.450414 19.515471 29.045891 37.142028 -1.002920 0.672892 0.040042 -0.018759 -98316.300000 0 0 1
-11.584314 20.420671 29.714961 37.870557 -1.054780 0.668672 0.050147 -0.026199 -87260.600000 0 0 1
-11.405114 20.048071 31.034611 38.667155 -1.053567 0.639140 0.054511 -0.023711 -22844.900000 0 0 1
-10.271814 20.876271 31.678291 39.304491 -1.113543 0.633482 0.041779 -0.017915 448733.000000 0 0 1
-8.940814 20.507071 31.311941 38.482669 -1.159657 0.620370 0.044519 -0.021640 108576.000000 0 0 1
-8.039514 21.327971 31.995684 39.284093 -1.210320 0.618983 0.059233 -0.020765 -357710.000000 0 0 1
-6.813314 20.524471 32.455388 39.000351 -1.250282 0.587765 0.046595 -0.016673 -646090.000000 0 0 1
-7.007314 19.662471 33.535903 39.501544 -1.228449 0.556750 0.036450 -0.013801 588061.000000 0 0 1
-5.793514 19.374071 -33.620764 39.233598 -1.280226 2.600096 0.020143 -0.003836 652052.000000 0 0 1
-4.962714 18.199571 33.655613 38.581773 -1.304585 0.510871 0.009053 -0.013013 -308148.000000 0 0 1
-5.523014 16.914671 33.659566 38.073300 -1.255188 0.486290 0.007250 -0.013865 -320937.000000 0 0 1
-4.857814 16.065371 32.754618 36.804341 -1.277159 0.473525 0.024897 -0.014095 -232725.000000 0 0 1
-5.539514 14.708971 32.573443 36.167240 -1.210617 0.449570 0.036246 -0.023633 -315643.000000 0 0 1
-5.229014 13.748771 33.568485 36.649891 -1.207365 0.412994 0.048658 -0.021242 -256207.000000 0 0 1
-5.702614 12.461371 33.257401 35.970270 -1.141621 0.390864 0.050169 -0.024276 134715.000000 0 0 1
-4.807614 11.285771 33.798362 35.955682 -1.168088 0.348164 0.072759 -0.025737 249641.000000 0 0 1
-4.632714 11.207071 -32.679154 34.856672 -1.178814 2.786256 0.082465 -0.031778 931383.000000 0 0 1
-3.671514 10.083971 -32.464504 34.192258 -1.221621 2.822337 0.109257 -0.031090 1220950.000000 0 0 1
-3.551214 9.663171 -30.998874 32.663714 -1.218617 2.820943 0.123266 -0.033419 462410.000000 0 0 1
-4.692314 8.933871 -30.531854 32.156274 -1.087171 2.822382 0.119256 -0.030312 499448.000000 0 0 1
-5.074114 9.052371 -29.126084 30.919587 -1.059906 2.799321 0.145610 -0.031797 506383.000000 0 0 1
-6.315614 8.204771 -28.724364 30.533495 -0.914775 2.795630 0.130040 -0.033478 325638.000000 0 0 1
-6.008714 6.792971 -28.668914 30.069183 -0.846584 2.835213 0.138270 -0.021088 142441.000000 0 0 1
-7.136014 6.023271 -28.266704 29.769264 -0.701039 2.822519 0.132142 -0.038228 -67493.700000 0 0 1
-7.216114 5.354471 -26.860774 28.323909 -0.638372 2.818767 0.129479 -0.039731 -246502.000000 0 0 1
-7.279314 6.236471 -25.714834 27.443299 -0.708393 2.784786 0.088298 -0.019663 -52295.000000 0 0 1
-6.087714 6.919671 -25.391764 27.012660 -0.849271 2.793412 0.112089 -0.028168 -126609.000000 0 0 1
-6.266614 7.921071 -24.236054 26.256430 -0.901486 2.746737 0.072242 -0.012703 161232.000000 0 0 1
-6.551914 7.256471 -22.971454 24.965409 -0.836378 2.739212 0.058460 -0.009831 472876.000000 0 1 0
-7.822914 7.582271 -22.406754 24.914884 -0.769778 2.689036 0.055549 -0.005671 400847.000000 0 1 0
-7.738214 7.732371 -20.852754 23.547970 -0.785020 2.658459 0.044240 -0.004369 259354.000000 0 1 0
-6.932414 8.867171 -20.478554 23.367847 -0.907248 2.639040 0.028708 -0.001201 263006.000000 0 1 0
-6.763614 9.225571 -19.095054 22.259351 -0.938175 2.601856 0.026788 0.000150 -50187.800000 0 1 0
-8.041414 9.440771 -18.240054 22.056565 -0.865273 2.544488 0.030565 0.000578 -395655.000000 0 1 0
-7.773614 9.566071 -16.912654 20.927892 -0.888405 2.511783 0.017736 0.001252 458001.000000 0 1 0
-8.902214 9.832371 -16.067554 20.834856 -0.835007 2.451499 0.027149 -0.006413 551796.000000 0 1 0
-9.581714 11.235971 -16.257654 21.962869 -0.864696 2.404214 0.054755 -0.016110 -177095.000000 0 1 0
-8.835314 12.345971 -15.743054 21.870746 -0.949648 2.374343 0.044272 -0.012297 647577.000000 0 1 0
-9.482314 13.627171 -15.914954 22.997822 -0.962869 2.335080 0.059397 -0.020708 91513.200000 0 1 0
-8.382314 14.715271 -15.948154 23.262545 -1.053004 2.326186 0.072575 -0.019043 412106.000000 0 1 0
-7.597214 14.827571 -14.753354 22.253898 -1.097301 2.295557 0.064744 -0.015922 492774.000000 0 1 0
-8.315814 15.284471 -13.628654 22.102218 -1.072518 2.235238 0.059471 -0.033920 -731127.000000 0 1 0
-7.322914 15.813271 -12.535954 21.467062 -1.137113 2.194397 0.039589 -0.032569 452802.000000 0 1 0
-6.826114 17.148371 -12.660854 22.382129 -1.191962 2.172039 0.051561 -0.038097 -16339.400000 0 1 0
-6.053114 17.310071 -13.826754 22.966451 -1.234400 2.216852 0.056139 -0.026142 -992070.000000 0 1 0
-5.945414 18.804871 -14.338854 24.383885 -1.264577 2.199438 0.080822 -0.021277 61645.000000 0 1 0
-5.215014 19.626771 -13.463754 24.365533 -1.311088 2.156245 0.067202 -0.031063 -135790.000000 0 1 0
-5.312714 20.985171 -13.856554 25.702265 -1.322841 2.140186 0.079390 -0.025976 334873.000000 0 0 1
-4.653314 22.057771 -12.866154 25.956435 -1.362885 2.089417 0.081116 -0.022106 -306816.000000 0 0 1
-4.715714 23.494571 -13.134554 27.326715 -1.372713 2.072191 0.081205 -0.026228 242744.000000 0 0 1
-6.013814 24.072971 -13.182654 28.097264 -1.325991 2.059158 0.066325 -0.025801 1010060.000000 0 0 1
-7.044914 23.992871 -11.995954 27.734303 -1.285198 2.018095 0.042205 -0.024915 265104.000000 0 0 1
-7.437914 22.673571 -11.690054 26.571992 -1.253814 2.026327 0.048224 -0.028356 -47453.700000 0 0 1
-8.025014 22.400571 -10.396754 25.966881 -1.226790 1.982733 0.056481 -0.028084 439258.000000 0 0 1
-7.125714 22.727671 -9.145154 25.513853 -1.266977 1.937391 0.058920 -0.027968 130739.000000 0 0 1
-7.133514 24.108871 -8.817754 26.643526 -1.283117 1.908110 0.053457 -0.024102 -28953.500000 0 0 1
-6.643614 24.446671 -7.508154 26.422523 -1.305445 1.858924 0.050820 -0.024614 -82935.300000 0 0 1
-6.883114 26.005171 -7.277154 27.867600 -1.312047 1.834992 0.054587 -0.021485 -44566.400000 0 0 1
-6.188914 26.977671 -8.012854 28.814983 -1.345290 1.852590 0.050701 -0.023828 -276952.000000 0 0 1
-6.392214 26.976771 -9.405254 29.275679 -1.338135 1.897861 0.053124 -0.025633 173908.000000 0 0 1
-5.811914 28.226471 -10.124254 30.545254 -1.367731 1.908637 0.051378 -0.026493 169533.000000 0 0 1
-6.661514 29.310071 -9.917154 31.651319 -1.347315 1.889489 0.050458 -0.024088 -137292.000000 0 0 1
-7.439814 29.626071 -11.056654 32.485451 -1.324760 1.918093 0.060817 -0.021999 -27568.700000 0 0 1
-8.598314 30.631771 -10.882554 33.625383 -1.297139 1.900371 0.064992 -0.021867 178414.000000 0 0 1
-9.669114 30.050371 -10.156654 33.161336 -1.259494 1.882079 0.067926 -0.020434 432383.000000 0 0 1
-10.786314 30.930271 -10.044554 34.262506 -1.235253 1.868332 0.062805 -0.030663 717849.000000 0 0 1
-11.933314 30.552371 -9.078054 34.033255 -1.198432 1.840806 0.083975 -0.032896 588378.000000 0 0 1
-12.670214 29.417071 -9.550754 33.423275 -1.164100 1.860587 0.097177 -0.040487 204019.000000 0 0 1
-13.787514 29.099371 -8.741154 33.365802 -1.128321 1.835869 0.124459 -0.038505 710214.000000 0 0 1
-14.813114 28.014471 -9.181254 32.992944 -1.084401 1.852799 0.128723 -0.043884 335250.000000 0 0 1
-14.412714 26.704071 -8.823854 31.602122 -1.075880 1.853775 0.126105 -0.046833 -178136.000000 0 0 1
-15.278614 25.774771 -9.393054 31.400706 -1.035707 1.874582 0.153416 -0.053147 -317281.000000 0 0 1
-15.106114 24.318871 -8.808254 29.953089 -1.014957 1.869277 0.143758 -0.047584 314602.000000 0 0 1
-13.947814 23.595771 -9.193454 28.910578 -1.036936 1.894412 0.136171 -0.046301 265089.000000 0 0 1
-14.197114 22.245371 -8.741254 27.799714 -1.002757 1.890660 0.128719 -0.041191 448679.000000 0 0 1
-13.161914 21.210471 -9.298754 26.638072 -1.015412 1.927383 0.126327 -0.041090 108729.000000 0 0 1
-13.211914 21.019471 -10.689954 27.030500 -1.009644 1.977384 0.121886 -0.034165 -45160.600000 0 0 1
-12.528714 19.885771 -11.135454 26.007901 -1.008585 2.013248 0.106414 -0.029728 -272507.000000 0 0 1
-12.729314 19.716971 -12.627354 26.650412 -0.997519 2.064414 0.106044 -0.024215 -419257.000000 0 0 1
-14.060314 19.468771 -12.975054 27.296108 -0.945327 2.066152 0.120275 -0.019957 -610875.000000 0 0 1
-14.145014 19.275471 -14.349154 27.884107 -0.937721 2.111337 0.106784 -0.010300 46952.900000 0 0 1
-15.555714 18.853671 -14.776754 28.562101 -0.880951 2.114554 0.093661 -0.011666 462235.000000 0 0 1
-16.525014 19.904971 -14.920554 29.864810 -0.877913 2.093937 0.096067 -0.013953 1158010.000000 0 0 1
-17.862614 19.366171 -14.938854 30.286811 -0.825763 2.086614 0.094058 -0.008028 1334680.000000 0 0 1
-18.985714 20.386471 -15.371154 31.817258 -0.820960 2.074997 0.090706 -0.007765 556438.000000 0 0 1
-19.427714 21.402571 -14.412454 32.298993 -0.833728 2.033333 0.097773 -0.017123 436818.000000 0 0 1
-20.166514 22.378771 -15.110154 33.701846 -0.837349 2.035713 0.087005 -0.012231 -184642.000000 0 0 1
-20.512914 23.619471 -14.307654 34.400117 -0.855674 1.999749 0.090149 -0.011579 385695.000000 0 0 1
-21.839514 23.596771 -13.774654 34.978752 -0.824054 1.975559 0.112651 -0.015889 612118.000000 0 0 1
-22.203714 24.817771 -13.141254 35.799710 -0.840934 1.946661 0.117598 -0.030861 179854.000000 0 0 1
-26.521754 -0.798829 3.752146 26.797764 0.030111 1.430318 0.206233 -0.048703 -93703.700000 0 0 1
-26.813244 -0.201629 4.990046 27.274370 0.007520 1.386803 0.190680 -0.041185 -346545.000000 0 0 1
-28.162134 -0.486929 5.242546 28.650082 0.017288 1.386774 0.195284 -0.040827 -477426.000000 0 0 1
-28.698454 0.303471 6.409746 29.407112 -0.010574 1.351067 0.195318 -0.039282 -513126.000000 0 0 1
-28.998194 1.641471 6.010346 29.659972 -0.056546 1.366742 0.219473 -0.051146 928.783000 0 0 1
-29.198714 2.491771 7.134346 30.160781 -0.085132 1.331989 0.226719 -0.037817 305592.000000 0 0 1
-27.979384 3.000871 8.010446 29.257792 -0.106844 1.293467 0.225747 -0.035930 330321.000000 0 0 1
-27.503784 1.887471 8.795446 28.937529 -0.068518 1.261964 0.195160 -0.044730 351797.000000 0 0 1
-26.649764 2.327171 9.851346 28.507450 -0.087103 1.217949 0.173959 -0.054365 -711561.000000 0 0 1
-25.760444 1.198971 10.289246 27.765205 -0.046510 1.191162 0.148272 -0.050567 -1493630.000000 0 0 1
-24.685814 0.962871 9.451946 26.451008 -0.038985 1.205380 0.144070 -0.045534 -392018.000000 0 0 1
-24.837014 -0.171029 8.632246 26.294908 0.006886 1.236308 0.115381 -0.037347 70834.500000 0 0 1
-23.538414 -0.849029 8.089846 24.904285 0.036054 1.239956 0.093509 -0.045135 308741.000000 0 1 0
-22.733414 -1.494229 9.061746 24.518485 0.065634 1.192230 0.104155 -0.058582 -81612.700000 0 1 0
-21.655914 -2.133529 8.418646 23.332470 0.098203 1.201657 0.128413 -0.040100 -531526.000000 0 1 0
-20.481314 -2.388529 9.358546 22.644463 0.116096 1.144741 0.107735 -0.029376 -590194.000000 0 1 0
-19.809214 -1.163529 9.742946 22.106193 0.058669 1.114380 0.095328 -0.033708 802876.000000 0 1 0
-20.457114 -0.359129 10.743246 23.109302 0.017553 1.087288 0.096337 -0.039604 -738470.000000 0 1 0
-19.891614 1.058571 10.808946 22.663411 -0.053167 1.073633 0.055000 -0.031175 -243584.000000 0 1 0
-20.407514 2.000171 9.848746 22.747860 -0.097699 1.123031 0.075443 -0.032358 749402.000000 0 1 0
-21.785014 2.332771 9.914746 24.048510 -0.106675 1.145840 0.105436 -0.039009 -138252.000000 0 1 0
-22.146714 3.814571 9.627046 24.448066 -0.170567 1.166061 0.096418 -0.041366 -279839.000000 0 1 0
-21.891514 4.647871 10.711446 24.810808 -0.209207 1.124392 0.074342 -0.042013 526051.000000 0 1 0
-21.971014 5.971571 10.266646 24.975771 -0.265382 1.147175 0.045287 -0.036316 -222146.000000 0 1 0
-22.269214 6.938771 11.401946 25.962835 -0.302052 1.116128 0.055712 -0.043920 547902.000000 0 0 1
-23.542914 6.758871 12.054946 27.299686 -0.279569 1.113439 0.074201 -0.039684 884768.000000 0 0 1
-23.667014 7.546571 13.209546 28.134861 -0.308673 1.082063 0.094474 -0.033043 319823.000000 0 0 1
-24.542914 6.941971 14.392746 29.286460 -0.275650 1.057046 0.117122 -0.034347 -1192400.000000 0 0 1
-25.848674 6.777471 14.075646 30.202846 -0.256426 1.085990 0.130275 -0.040955 -1697570.000000 0 0 1
-26.587964 6.217671 15.152846 31.228001 -0.229725 1.064167 0.123955 -0.044388 605288.000000 0 0 1
-28.108734 6.206971 14.788546 32.362455 -0.217332 1.096215 0.134087 -0.036979 467378.000000 0 0 1
-28.523394 5.265671 13.837446 32.136991 -0.182554 1.125664 0.154514 -0.037776 266895.000000 0 0 1
-29.669724 5.654171 13.078546 32.913683 -0.188312 1.162159 0.186427 -0.023881 218062.000000 0 0 1
-30.159204 4.545671 12.079146 32.804672 -0.149596 1.193709 0.201706 -0.023704 -170516.000000 0 0 1
-30.699794 3.427371 12.740046 33.414563 -0.111181 1.179624 0.187547 -0.022825 198096.000000 0 0 1
-31.182484 2.532471 11.745646 33.417375 -0.081037 1.211641 0.182136 -0.011571 418596.000000 0 0 1
-32.444234 1.701371 12.133546 34.680628 -0.052392 1.213369 0.158445 -0.001927 610489.000000 0 0 1
-32.045844 0.666171 13.082346 34.619759 -0.020785 1.183284 0.145059 -0.010209 213306.000000 0 0 1
-33.196514 0.052071 13.608346 35.877547 -0.001569 1.181757 0.135683 -0.011696 -28068.900000 0 0 1
-32.927214 -1.031829 14.652246 36.054881 0.031326 1.152300 0.123618 -0.018495 -101210.000000 0 0 1
-32.742364 -2.298929 14.078746 35.714963 0.070098 1.165602 0.115183 -0.018540 176115.000000 0 0 1
-32.944644 -3.308329 15.073146 36.379862 0.100085 1.143594 0.113613 -0.015728 -176240.000000 0 0 1
-32.988054 -4.781629 14.588646 36.385496 0.143948 1.158246 0.102149 -0.015201 716865.000000 0 0 1
-34.092742 -5.146129 13.723446 37.109712 0.149814 1.191995 0.091314 -0.024139 898173.000000 0 0 1
-34.021554 -6.506029 13.432846 37.151526 0.188951 1.200846 0.100954 -0.024291 -351524.000000 0 0 1
-34.972607 -7.031529 12.281746 37.727536 0.198413 1.239216 0.095802 -0.022949 694892.000000 0 0 1
-36.348954 -7.115929 12.589146 39.119938 0.193322 1.243157 0.085024 -0.020712 314465.000000 0 0 1
-37.049644 -5.875629 12.708846 39.606993 0.157278 1.244144 0.097678 -0.021850 9373.800000 0 0 1
35.749579 -5.900929 12.404746 38.297925 -0.163588 1.240946 0.119337 -0.028843 876711.000000 0 0 1
34.851149 -6.283329 13.461446 37.885265 -0.178374 1.207538 0.113035 -0.026389 882205.000000 0 0 1
33.495439 -6.095129 13.055846 36.462997 -0.179999 1.204610 0.126787 -0.026341 487671.000000 0 0 1
32.406229 -7.058929 13.508046 35.811443 -0.214476 1.184026 0.112807 -0.024233 -177109.000000 0 0 1
32.144329 -7.180629 14.864746 36.135578 -0.219779 1.146850 0.119290 -0.022675 -27001.800000 0 0 1
31.046249 -8.071329 14.929946 35.382470 -0.254347 1.135191 0.110972 -0.027982 22976.100000 0 0 1
30.499519 -8.337329 16.346346 35.594026 -0.266840 1.093652 0.104248 -0.029209 -550811.000000 0 0 1
31.427919 -8.932829 17.159846 36.904875 -0.276929 1.087190 0.091287 -0.032442 -998281.000000 0 0 1
31.019709 -8.879629 18.477346 37.181749 -0.278802 1.050720 0.078335 -0.037120 -967594.000000 0 0 1
32.007719 -9.333629 19.543646 38.646666 -0.283738 1.040602 0.089891 -0.029213 -197515.000000 0 0 1
32.922139 -8.409929 20.097346 39.477809 -0.250101 1.036681 0.092277 -0.028456 174576.000000 0 0 1
34.081419 -8.359129 19.267046 40.032951 -0.240521 1.068682 0.062559 -0.019584 -556004.000000 0 0 1
35.353409 -7.736429 19.822546 41.263170 -0.215435 1.069693 0.054717 -0.017701 -155251.000000 0 0 1
35.732809 -8.407229 21.003546 42.292600 -0.231078 1.051091 0.048181 -0.014408 972294.000000 0 0 1
36.930019 -7.837729 21.620746 43.505321 -0.209129 1.050695 0.040624 -0.008179 1008300.000000 0 0 1
-37.023064 -8.393329 23.018346 44.395940 0.222937 1.025726 0.037702 -0.003218 -39478.400000 0 0 1
36.634339 -7.886229 24.189546 44.602707 -0.212033 0.997584 0.052064 -0.008118 184910.000000 0 0 1
36.739149 -8.711629 25.296546 45.448573 -0.232821 0.980512 0.047110 -0.010001 -270426.000000 0 0 1
36.293289 -8.255529 26.670846 45.789634 -0.223661 0.949039 0.066623 -0.010438 397348.000000 0 0 1
-37.080634 -7.378429 27.291546 46.628780 0.196418 0.945554 0.048243 -0.021900 615110.000000 0 0 1
36.654429 -6.850729 28.501246 46.934003 -0.184769 0.918186 0.062487 -0.030054 476411.000000 0 0 1
-36.534244 -6.289229 29.385046 47.305246 0.170475 0.900550 0.063489 -0.028350 336566.000000 0 0 1
-35.921935 -7.309029 30.121446 47.445852 0.200730 0.882970 0.057545 -0.024448 -1426670.000000 0 0 1
-34.675557 -6.920729 30.530946 46.716479 0.196997 0.858548 0.048055 -0.033080 -844726.000000 0 0 1
-34.223246 -7.561129 31.842646 47.353515 0.217442 0.833289 0.040500 -0.022103 -19243.000000 0 0 1
-34.144521 -8.981729 31.781746 47.503675 0.257223 0.837883 0.043545 -0.020171 156240.000000 0 0 1
-33.659884 -9.544129 32.958446 48.065969 0.276294 0.815242 0.041169 -0.017912 -430575.000000 0 0 1
-33.784494 -11.048929 32.962746 48.476938 0.316077 0.823078 0.045360 -0.015971 967716.000000 0 0 1
-35.139501 -11.561529 33.021546 49.587055 0.317862 0.842056 0.038192 -0.015515 1084920.000000 0 0 1
-35.187918 -12.996829 33.051346 49.994986 0.353812 0.848521 0.040230 -0.018236 -120979.000000 0 0 1
-36.661994 -13.393629 33.169046 51.221838 0.350264 0.866423 0.036373 -0.013364 -173906.000000 0 0 1
-36.971474 -14.754329 33.246646 51.864435 0.379707 0.874957 0.045283 -0.019868 81996.100000 0 0 1
35.965759 -15.056029 33.218646 51.222048 -0.396455 0.865155 0.042951 -0.010662 88047.400000 0 0 1
35.586239 -16.545529 33.449146 51.565301 -0.435210 0.864954 0.037265 -0.014057 -244312.000000 0 0 1
35.751549 -17.014229 -33.101119 51.607570 -0.444184 2.267119 0.054262 -0.014187 268463.000000 0 0 1
35.528259 -18.409229 -33.083719 51.920029 -0.478068 2.261663 0.055069 -0.028165 -755985.000000 0 0 1
35.962309 -18.998429 -31.724419 51.581651 -0.486020 2.233224 0.059727 -0.015683 -247678.000000 0 0 1
35.158899 -18.725129 -30.618319 50.242015 -0.489375 2.226121 0.067972 -0.016052 -245091.000000 0 0 1
35.603339 -19.408229 -29.476519 50.131250 -0.499092 2.199364 0.064047 -0.014764 -537151.000000 0 0 1
34.509599 -19.387529 -28.398519 48.716163 -0.511858 2.193137 0.063715 -0.012925 452928.000000 0 0 1
33.346669 -20.115029 -28.741319 48.401220 -0.542776 2.206587 0.069421 -0.007900 -576935.000000 0 0 1
32.312309 -19.501629 -29.365519 47.819792 -0.543015 2.232025 0.053335 -0.001141 -1283790.000000 0 0 1
31.106729 -20.438029 -29.644819 47.583158 -0.581301 2.243382 0.039352 0.005376 -26995.100000 0 0 1
30.102719 -19.647829 -30.213819 46.958340 -0.578266 2.269751 0.025058 0.006898 -182690.000000 0 0 1
28.845729 -20.269229 -30.425219 46.568355 -0.612520 2.282791 0.029901 0.005485 377051.000000 0 0 1
28.083629 -19.504529 -31.493219 46.485909 -0.607036 2.315126 0.026029 0.009957 -35986.000000 0 0 1
28.605129 -19.807829 -32.780019 47.803066 -0.605646 2.326403 0.014355 0.007858 125663.000000 0 0 1
27.694729 -19.446729 -33.812919 47.838131 -0.612189 2.355788 0.039814 0.004628 -14895.800000 0 0 1
28.198329 -19.519229 32.608446 47.322899 -0.605480 0.810601 0.046542 0.008931 -81638.900000 0 0 1
29.039629 -18.405029 32.298646 47.172531 -0.564895 0.816616 0.022634 0.005983 155009.000000 0 0 1
29.254399 -18.237329 30.892146 46.289790 -0.557451 0.840133 0.036224 -0.001298 -349671.000000 0 0 1
28.088329 -17.734429 30.003046 44.762115 -0.563175 0.836213 0.029416 0.001751 -119385.000000 0 0 1
27.595229 -16.486529 30.408246 44.248884 -0.538536 0.813156 0.038607 -0.003702 106238.000000 0 0 1
26.862729 -15.880629 29.382846 42.862014 -0.533907 0.815476 0.039099 -0.000843 -132224.000000 0 0 1
26.642129 -14.387929 29.738146 42.440227 -0.495168 0.794409 0.053789 -0.004344 238937.000000 0 0 1
27.857029 -13.664129 29.668146 42.929260 -0.456026 0.807795 0.057959 -0.002624 419017.000000 0 0 1
27.622829 -12.401029 30.218946 42.778393 -0.421973 0.786388 0.082238 -0.007461 244548.000000 0 0 1
28.962229 -11.673729 30.500946 43.650823 -0.383148 0.797150 0.083269 -0.014867 369700.000000 0 0 1
29.503299 -11.179629 29.248846 43.022363 -0.362210 0.823235 0.081159 -0.017435 -51828.400000 0 0 1
30.892429 -10.965529 29.359446 44.006386 -0.341085 0.840402 0.082820 -0.014114 -121388.000000 0 0 1
31.370379 -10.277329 28.103746 43.353716 -0.316593 0.865522 0.090329 -0.019655 -179772.000000 0 0 1
31.107169 -8.900329 28.115746 42.864519 -0.278673 0.855394 0.082440 -0.022674 -55793.400000 0 0 1
31.733329 -8.307629 26.997346 42.483850 -0.256049 0.882175 0.078879 -0.020603 188520.000000 0 0 1
31.478569 -6.756029 26.922846 41.968844 -0.211416 0.874349 0.085868 -0.025303 -129152.000000 0 0 1
30.160929 -6.346029 26.668846 40.757589 -0.207381 0.857502 0.097481 -0.023642 -513066.000000 0 0 1
30.018539 -4.911129 26.531546 40.362790 -0.162167 0.853530 0.104684 -0.023658 -89341.800000 0 0 1
28.540729 -4.526429 26.414046 39.150525 -0.157285 0.830266 0.096207 -0.016886 -199354.000000 0 0 1
28.033829 -4.980529 25.150846 37.990344 -0.175827 0.847269 0.114609 -0.024794 1133020.000000 0 0 1
26.606329 -4.727029 25.070646 36.861617 -0.175831 0.822858 0.108070 -0.019756 1033710.000000 0 0 1
25.936629 -5.090929 23.759646 35.540780 -0.193819 0.838582 0.100870 -0.017669 -205320.000000 0 0 1
26.222229 -4.175729 22.749946 34.965726 -0.157918 0.862375 0.108139 -0.017344 133579.000000 0 0 1
25.629829 -4.570429 21.517746 33.775588 -0.176470 0.880093 0.098869 -0.016833 112407.000000 0 0 1
26.042629 -3.577729 20.400946 33.274874 -0.136525 0.910813 0.105025 -0.019239 -254567.000000 0 0 1
25.274229 -2.442829 20.310946 32.515974 -0.096354 0.896119 0.091954 -0.010293 -514687.000000 0 0 1
25.815029 -1.475429 19.451146 32.356447 -0.057092 0.925854 0.107901 -0.015788 -319855.000000 0 0 1
24.757429 -0.563329 18.834346 31.112380 -0.022750 0.920572 0.085458 -0.022229 -328935.000000 0 0 1
23.810329 -1.199729 18.049946 29.902703 -0.050344 0.922759 0.075424 -0.019951 540915.000000 0 0 1
22.638129 -0.429929 17.685046 28.730307 -0.018989 0.907708 0.084291 -0.024947 1629560.000000 0 0 1
21.463829 -1.261229 17.038646 27.433594 -0.058693 0.900668 0.070598 -0.022770 446839.000000 0 0 1
21.884129 -1.986629 15.940846 27.147235 -0.090531 0.943201 0.089745 -0.028818 91169.900000 0 0 1
20.783229 -2.724329 15.457646 26.044258 -0.130340 0.935378 0.090849 -0.028454 -231583.000000 0 0 1
20.983529 -3.262329 14.042746 25.458790 -0.154236 0.986530 0.104613 -0.035381 -484046.000000 0 0 1
19.920229 -4.030329 13.551546 24.427514 -0.199629 0.982715 0.107653 -0.035497 60358.600000 0 1 0
20.190029 -4.460529 12.213346 24.014566 -0.217435 1.037261 0.113944 -0.035008 -103853.000000 0 1 0
19.071929 -5.374129 11.663046 22.992311 -0.274661 1.038796 0.103652 -0.035346 -88523.200000 0 1 0
19.005429 -6.619329 12.290746 23.581439 -0.335147 1.022535 0.109188 -0.039520 454120.000000 0 1 0
17.820329 -7.286929 11.926746 22.647532 -0.388165 1.016171 0.096128 -0.034266 -144453.000000 0 1 0
17.751629 -8.819729 12.345846 23.352256 -0.461117 1.013753 0.105205 -0.044676 -79318.700000 0 1 0
18.656229 -9.516829 11.523246 23.904186 -0.471707 1.067792 0.092979 -0.046882 440802.000000 0 1 0
18.353129 -10.874729 11.529446 24.249231 -0.534907 1.075314 0.097825 -0.048069 -142167.000000 0 1 0
19.087129 -11.580529 10.398446 24.628334 -0.545346 1.134909 0.107330 -0.042752 -299516.000000 0 1 0
18.662329 -11.151029 9.141146 23.583649 -0.538591 1.172764 0.107026 -0.032800 276103.000000 0 1 0
19.173529 -11.874129 8.061046 23.949940 -0.554489 1.227515 0.108932 -0.045021 -196175.000000 0 1 0
18.743329 -11.119829 6.751446 22.815455 -0.535455 1.270383 0.101364 -0.026541 -124585.000000 0 1 0
19.482429 -9.937129 6.602246 22.845157 -0.471660 1.277614 0.131726 -0.017778 574889.000000 0 1 0
19.353229 -9.325829 5.319846 22.131862 -0.449042 1.328049 0.078583 -0.023338 -496170.000000 0 1 0
20.121329 -8.008529 5.092546 22.247212 -0.378791 1.339841 0.125336 -0.017715 -347583.000000 0 1 0
20.511529 -7.732829 3.774746 22.243385 -0.360522 1.400269 0.107996 -0.022269 620659.000000 0 1 0
21.207929 -6.498729 3.785146 22.501934 -0.297345 1.401779 0.138371 -0.018722 -237108.000000 0 1 0
21.693229 -6.005629 2.411846 22.638038 -0.270079 1.464054 0.141785 -0.024972 16629.200000 0 1 0
20.662629 -5.614929 1.525946 21.466256 -0.265336 1.499651 0.095244 -0.041408 635782.000000 0 1 0
21.259229 -5.204329 0.318346 21.889294 -0.240082 1.556252 0.108456 -0.033193 137912.000000 0 1 0
-25.918564 -15.289329 -0.517854 30.096573 0.532959 1.588004 0.121621 -0.022446 -341339.000000 0 0 1
-24.839914 -14.689029 -1.256754 28.885435 0.534033 1.614318 0.121612 -0.013237 1048450.000000 0 0 1
-23.579814 -15.181329 -0.773254 28.054916 0.572024 1.598362 0.120390 -0.014624 658211.000000 0 0 1
-23.061814 -14.557229 0.587346 27.278291 0.563064 1.549263 0.142481 -0.029822 -937133.000000 0 0 1
-23.804614 -14.923429 1.696546 28.146877 0.559974 1.510485 0.125122 -0.015887 -243955.000000 0 0 1
-23.202714 -14.468429 2.915246 27.499092 0.557568 1.464584 0.149865 -0.005987 423465.000000 0 0 1
-23.765614 -15.090129 4.246546 28.470152 0.565727 1.421080 0.147583 0.004140 22924.800000 0 0 1
-23.264814 -16.417729 4.323946 28.800867 0.614534 1.420094 0.163547 -0.017905 294239.000000 0 0 1
-23.706814 -17.080429 5.485146 29.729462 0.624343 1.385231 0.150182 -0.026411 -320786.000000 0 0 1
-23.624314 -18.596729 5.333446 30.535098 0.666879 1.395230 0.105770 -0.022916 -87276.900000 0 0 1
-24.163614 -19.367229 6.370046 31.615618 0.675657 1.367923 0.094169 -0.023508 -115856.000000 0 0 1
-24.478614 -20.627429 5.902546 32.550475 0.700224 1.388452 0.087485 -0.027529 -66411.700000 0 0 1
-25.161174 -21.480829 6.984846 33.812702 0.706655 1.362724 0.083054 -0.023268 6805.190000 0 0 1
-24.292614 -21.975629 7.984246 33.716577 0.735363 1.331721 0.082649 -0.013888 -476482.000000 0 0 1
-24.942414 -22.770229 8.877546 34.920169 0.739903 1.313751 0.074425 -0.007090 -428545.000000 0 0 1
-23.993014 -23.186629 9.979546 34.826367 0.768308 1.280171 0.069685 -0.015978 -39812.800000 0 0 1
-23.944314 -22.345429 11.085146 34.576420 0.750871 1.244435 0.079522 -0.016288 -382803.000000 0 0 1
-22.965314 -22.784929 11.974546 34.495629 0.781455 1.216285 0.089275 -0.016239 -231180.000000 0 0 1
-23.088314 -22.065029 13.328546 34.606154 0.762740 1.175426 0.066020 -0.010087 32668.900000 0 0 1
-24.201414 -22.376029 14.150946 35.869826 0.746228 1.165264 0.061051 -0.013339 -90717.700000 0 0 1
-24.433814 -21.356129 15.066446 35.778392 0.718286 1.136133 0.055295 0.001632 291397.000000 0 0 1
-25.927744 -21.342829 15.528246 36.998523 0.688708 1.137683 0.046861 -0.000067 817686.000000 0 0 1
-26.952854 -21.054029 14.550446 37.167781 0.663136 1.168557 0.055073 -0.000660 853608.000000 0 0 1
-27.324634 -22.154729 13.763746 37.774441 0.681290 1.197844 0.047679 -0.000590 -72314.900000 0 0 1
-28.509934 -23.009029 14.359546 39.350074 0.679027 1.197252 0.034953 -0.008196 225772.000000 0 0 1
-28.152594 -23.754529 15.502246 39.964557 0.700871 1.172444 0.031207 -0.006979 -573268.000000 0 0 1
-29.201084 -24.440629 16.102546 41.344161 0.696885 1.170734 0.041913 -0.014727 -322911.000000 0 0 1
-29.400804 -25.938619 15.746246 42.251195 0.722917 1.188899 0.057212 -0.016426 76969.000000 0 0 1
-29.857204 -26.134629 14.397946 42.211045 0.719012 1.222716 0.068360 -0.025886 88595.300000 0 0 1
-30.836044 -27.152039 14.490646 43.566887 0.721953 1.231730 0.107155 -0.036258 -204969.000000 0 0 1
-31.604864 -27.485499 13.239446 43.927247 0.715798 1.264641 0.151374 -0.046331 -211019.000000 0 0 1
-30.821364 -28.257209 12.368946 43.605243 0.742023 1.283190 0.127706 -0.047457 -42035.900000 0 0 1
-31.566784 -28.661969 11.250846 44.097073 0.737206 1.312806 0.134815 -0.036264 -251679.000000 0 0 1
-31.020174 -29.873949 10.443946 44.314558 0.766577 1.332881 0.104499 -0.035162 -53931.300000 0 0 1
-31.121604 -31.099469 11.089946 45.373099 0.785042 1.323878 0.101412 -0.030007 -49298.800000 0 0 1
-30.662574 -32.135629 10.266346 45.588266 0.808851 1.343651 0.100681 -0.032182 -302237.000000 0 0 1
-30.827524 -33.526229 10.974446 46.848509 0.827309 1.334345 0.105581 -0.028426 -527444.000000 0 0 1
-32.138544 -33.916689 11.244946 48.059095 0.812311 1.334625 0.104920 -0.025842 -613504.000000 0 0 1
-32.108254 32.933511 11.931846 47.517629 -0.798086 1.316976 0.115704 -0.031358 -595234.000000 0 0 1
-33.472064 32.460218 12.473046 48.266155 -0.770053 1.309408 0.121339 -0.029527 1029400.000000 0 0 1
-34.541280 32.246317 11.504846 48.634211 -0.751050 1.331974 0.082054 -0.026835 965006.000000 0 0 1
-35.055151 33.406657 10.861046 49.626914 -0.761324 1.350157 0.108935 -0.018742 -727451.000000 0 0 1
-36.567494 33.264968 10.542646 50.545891 -0.738141 1.360678 0.092716 0.001357 270235.000000 0 0 1
-36.842894 32.297613 9.534246 49.914292 -0.719753 1.378603 0.066768 -0.007941 869669.000000 0 0 1
36.076869 32.177278 9.231546 49.215232 0.728327 1.382104 0.057401 -0.009700 735871.000000 0 0 1
35.779599 31.516990 7.848046 48.322791 0.722142 1.407665 0.056326 -0.017067 -25957.800000 0 0 1
36.055019 30.096600 7.816646 47.611655 0.695568 1.405875 0.071811 -0.022004 151291.000000 0 0 1
35.838659 29.716310 6.438246 46.999144 0.692276 1.433378 0.087868 -0.020705 -116893.000000 0 0 1
36.009099 28.188600 6.166146 46.144054 0.664176 1.436767 0.088573 -0.014307 -176696.000000 0 0 1
35.122659 27.203930 6.678946 44.925085 0.659023 1.421575 0.081028 -0.016960 -96943.900000 0 0 1
35.255609 26.863840 8.066446 45.052096 0.651120 1.390779 0.069631 -0.008752 -125105.000000 0 0 1
34.122109 25.930740 8.504846 43.692722 0.649832 1.374894 0.066928 -0.008729 -243774.000000 0 0 1
34.205349 24.723910 7.817146 42.923017 0.625870 1.387654 0.075969 -0.014969 -122557.000000 0 0 1
33.288239 23.779140 8.294346 41.741472 0.620286 1.370757 0.065620 -0.012456 -723280.000000 0 0 1
33.288899 22.474080 7.458346 40.851707 0.593834 1.387195 0.070156 -0.016367 -129854.000000 0 0 1
34.368369 21.620780 7.668446 41.321277 0.561535 1.384133 0.086460 -0.013788 394800.000000 0 0 1
35.695399 22.008680 7.288546 42.563674 0.552514 1.398710 0.094040 -0.019478 218067.000000 0 0 1
36.669009 20.878580 7.039746 42.779543 0.517600 1.405486 0.078215 -0.019461 -284229.000000 0 0 1
36.320749 20.027080 5.909446 41.895134 0.503914 1.429271 0.103454 -0.026498 448017.000000 0 0 1
37.123089 18.840980 6.011846 42.062436 0.469651 1.427378 0.120908 -0.028817 146079.000000 0 0 1
36.691249 17.745380 5.027446 41.066062 0.450475 1.448065 0.117809 -0.031840 -203731.000000 0 0 1
-36.947704 17.662880 3.795046 41.128002 -0.445935 1.478391 0.131942 -0.028404 44509.900000 0 0 1
36.824099 16.618880 3.040146 40.514737 0.423938 1.495688 0.128471 -0.028885 -565163.000000 0 0 1
-36.590214 16.136380 1.863946 40.033746 -0.415347 1.524220 0.154387 -0.023873 334233.000000 0 0 1
-35.419836 15.386880 2.163746 38.678194 -0.409817 1.514825 0.164561 -0.043457 -78288.600000 0 0 1
-34.351062 16.252880 2.437346 38.080077 -0.441930 1.506747 0.168395 -0.046084 -1376490.000000 0 0 1
-33.046484 15.489380 2.599046 36.588879 -0.438308 1.499703 0.160192 -0.045534 -673022.000000 0 0 1
-32.912764 14.967080 3.839146 36.359353 -0.426797 1.465010 0.173691 -0.047603 688109.000000 0 0 1
-31.535644 14.610680 3.998246 34.985065 -0.433865 1.456262 0.156356 -0.051556 559460.000000 0 0 1
-31.311444 13.609080 5.152546 34.527704 -0.410004 1.421008 0.164508 -0.031810 226016.000000 0 0 1
-31.928414 12.323380 4.930046 34.577372 -0.368353 1.427729 0.194068 -0.042103 453579.000000 0 0 1
-31.634454 11.540680 6.072946 34.217052 -0.349810 1.392368 0.179506 -0.018957 20672.400000 0 0 1
-32.038734 10.052280 5.954246 34.102520 -0.304027 1.395298 0.202426 -0.031620 -932457.000000 0 0 1
-33.356874 9.744880 6.208146 35.301343 -0.284230 1.394016 0.197524 -0.007965 -974689.000000 0 0 1
-33.662664 8.430480 5.774946 35.179511 -0.245393 1.405893 0.223209 -0.019118 134318.000000 0 0 1
-35.176745 8.103280 5.838846 36.567180 -0.226409 1.410435 0.201508 -0.006589 492527.000000 0 0 1
-35.678375 7.735680 7.169746 37.204737 -0.213512 1.376873 0.190940 0.004259 -847.795000 0 0 1
-36.809134 6.904980 7.150246 38.127643 -0.185434 1.382145 0.132597 -0.001838 -43183.400000 0 0 1
-37.115424 6.174680 8.495746 38.572777 -0.164854 1.348723 0.116127 0.001613 155892.000000 0 0 1
36.716499 6.951580 9.579546 38.577110 0.187116 1.319849 0.108250 0.003922 473352.000000 0 0 1
-36.549394 7.622380 10.261846 38.720336 -0.205603 1.302567 0.134709 0.000421 452250.000000 0 0 1
-37.110154 8.421280 11.490646 39.750679 -0.223147 1.277543 0.103710 -0.004229 124652.000000 0 0 1
36.544379 7.687180 12.496846 39.379633 0.207329 1.247870 0.086544 -0.013508 562446.000000 0 0 1
35.920399 8.532380 13.457146 39.295945 0.233214 1.221266 0.113384 -0.022801 132685.000000 0 0 1
35.071069 7.853580 14.567746 38.779863 0.220299 1.185696 0.124084 -0.037631 1099940.000000 0 0 1
33.640169 7.707780 14.432846 37.408259 0.225237 1.174700 0.118527 -0.043043 1421430.000000 0 0 1
33.100169 7.207980 15.663946 37.322049 0.214415 1.137685 0.118453 -0.031437 1159910.000000 0 0 1
31.530679 7.067280 15.732746 35.939525 0.220496 1.117695 0.120202 -0.027999 528110.000000 0 0 1
30.839459 8.253480 16.071846 35.742081 0.261499 1.104410 0.113956 -0.037263 698260.000000 0 0 1
29.437989 7.976580 16.192746 34.531522 0.264608 1.082721 0.107864 -0.032690 626486.000000 0 0 1
28.890629 7.333280 17.487946 34.558265 0.248579 1.040206 0.101289 -0.036874 -767177.000000 0 0 1
29.112329 8.091880 18.642146 35.504025 0.271110 1.017997 0.132180 -0.035173 -80476.100000 0 0 1
28.496329 7.696680 19.849146 35.570609 0.263799 0.978797 0.129940 -0.025817 -384171.000000 0 0 1
28.622229 6.311180 20.543046 35.792174 0.217026 0.959471 0.129602 -0.018854 -7058.360000 0 0 1
27.905529 6.266780 21.750746 35.931685 0.220906 0.920608 0.109988 -0.017038 -105662.000000 0 0 1
28.328929 5.194180 22.505446 36.551372 0.181338 0.907496 0.113915 -0.021491 -530358.000000 0 0 1
27.377729 4.951980 23.673646 36.530859 0.178942 0.865781 0.112262 -0.019629 -122395.000000 0 0 1
26.091729 4.530180 23.289046 35.265854 0.171911 0.849465 0.083749 -0.020851 -380344.000000 0 0 1
25.177529 5.599780 23.541546 34.920909 0.218850 0.830998 0.089136 -0.003558 1250500.000000 0 0 1
23.657429 5.221980 23.258046 33.583920 0.217250 0.805799 0.073703 -0.012753 574100.000000 0 0 1
23.308129 5.235680 21.884446 32.397688 0.220961 0.829162 0.072292 -0.014368 180058.000000 0 0 1
21.958429 5.107880 21.484946 31.142671 0.228551 0.809462 0.067719 -0.019374 -889770.000000 0 0 1
21.121829 3.924580 22.061146 30.793313 0.183712 0.772130 0.066584 -0.026801 -1204680.000000 0 0 1
19.982529 3.675780 21.313746 29.446368 0.181916 0.761480 0.066033 -0.039281 -352151.000000 0 0 1
18.883629 4.509180 21.684446 29.105658 0.234398 0.730224 0.082960 -0.036792 -482172.000000 0 0 1
17.684429 4.295980 20.723046 27.579686 0.238308 0.720633 0.114499 -0.042433 336922.000000 0 0 1
16.953129 3.058780 21.067346 27.213926 0.178505 0.685443 0.103302 -0.037070 764483.000000 0 0 1
15.882329 2.810880 20.147646 25.808468 0.175168 0.675075 0.114152 -0.042630 36164.000000 0 0 1
14.884229 1.737680 20.630046 25.498208 0.116220 0.628214 0.122682 -0.036179 -479566.000000 0 0 1
15.241029 0.379080 20.519146 25.563020 0.024867 0.639007 0.089652 -0.027454 314551.000000 0 0 1
14.456029 -0.378020 21.436746 25.858340 -0.026144 0.593467 0.103433 -0.027527 117790.000000 0 0 1
14.893629 -1.861620 21.391246 26.131804 -0.124349 0.611844 0.075108 -0.013595 150122.000000 0 0 1
14.308929 -2.532320 20.248346 24.922953 -0.175161 0.622475 0.090129 -0.017598 381604.000000 0 1 0
14.868429 -3.803020 19.891346 25.123670 -0.250410 0.657149 0.087983 -0.024049 -343821.000000 0 0 1
14.211229 -4.486620 18.658846 23.879726 -0.305806 0.673942 0.087028 -0.026384 -389668.000000 0 1 0
12.847429 -4.754320 18.757646 23.227339 -0.354433 0.630780 0.095397 -0.025242 -602616.000000 0 1 0
12.328529 -5.104720 17.493046 22.001305 -0.392566 0.651638 0.093437 -0.026801 104880.000000 0 1 0
10.781629 -5.102620 17.475646 21.158413 -0.442036 0.598923 0.080175 -0.019846 -98018.400000 0 1 0
10.262829 -6.186820 18.117246 21.721809 -0.542503 0.584374 0.080327 -0.021470 -1133700.000000 0 1 0
8.884329 -6.138120 17.932346 20.932674 -0.604588 0.542021 0.071662 -0.031145 -675703.000000 0 1 0
7.988529 -6.938720 18.881546 21.644288 -0.715185 0.510793 0.065575 -0.036531 -333409.000000 0 1 0
8.049429 -8.334720 18.716646 22.013035 -0.802809 0.554331 0.060430 -0.033068 1238560.000000 0 1 0
9.269229 -8.953620 19.236846 23.154744 -0.768081 0.590262 0.082959 -0.039076 1052060.000000 0 1 0
9.318929 -10.404920 18.869846 23.477135 -0.840402 0.637218 0.086426 -0.038100 64151.700000 0 1 0
9.544429 -10.478220 17.526646 22.540464 -0.832001 0.680014 0.076047 -0.024635 20782.900000 0 1 0
9.995729 -11.794420 17.130446 23.075422 -0.867758 0.734199 0.075497 -0.027044 237383.000000 0 1 0
9.946929 -12.068320 15.629846 22.110582 -0.881462 0.785698 0.063579 -0.016701 165709.000000 0 1 0
10.106829 -13.379520 15.212146 22.639985 -0.923851 0.834005 0.038114 -0.005431 -216975.000000 0 1 0
9.859529 -13.390820 13.805546 21.612900 -0.936127 0.877905 0.029655 -0.007669 -1176130.000000 0 1 0
10.655629 -14.400320 12.989946 22.128044 -0.933753 0.943404 0.049502 -0.017244 -736176.000000 0 1 0
11.976129 -14.058020 12.764946 22.449932 -0.865196 0.965998 0.030018 -0.020155 -985803.000000 0 1 0
12.134229 -13.022720 11.804646 21.358380 -0.820701 0.985203 0.004981 -0.019953 -1182530.000000 0 1 0
13.598929 -12.695720 11.476346 21.859064 -0.751062 1.018063 0.035566 -0.022985 -41607.800000 0 1 0
14.242229 -13.726220 10.719946 22.498165 -0.766951 1.074149 0.034803 -0.017427 -378098.000000 0 1 0
15.539529 -13.253320 10.460946 22.946870 -0.706162 1.097439 0.039183 -0.031430 358999.000000 0 1 0
16.521229 -14.338620 9.796946 23.969296 -0.714789 1.149735 0.035375 -0.029449 602170.000000 0 1 0
17.009829 -15.318820 10.684946 25.261999 -0.733139 1.134081 0.039189 -0.016087 115080.000000 0 0 1
16.104729 -16.386520 10.889146 25.425456 -0.794071 1.128211 0.063181 -0.014019 70478.700000 0 0 1
16.433829 -17.129720 12.145146 26.664632 -0.806129 1.097888 0.053099 -0.009863 345776.000000 0 0 1
17.561529 -17.987020 11.991846 27.852191 -0.797367 1.125691 0.066208 -0.019214 194809.000000 0 0 1
17.861629 -18.626120 13.222446 28.996607 -0.806347 1.097301 0.053367 -0.018353 -346343.000000 0 0 1
19.144829 -19.476620 13.167346 30.319007 -0.793989 1.121543 0.033070 -0.014834 -377908.000000 0 0 1
20.240629 -18.606920 13.116246 30.462049 -0.743369 1.125665 0.035644 -0.014069 -770131.000000 0 0 1
21.470429 -19.303820 13.121346 31.714137 -0.732311 1.144240 0.029676 -0.017483 422646.000000 0 0 1
22.416629 -18.738820 11.997746 31.584720 -0.696271 1.181152 0.062687 -0.017538 -151459.000000 0 0 1
22.119929 -18.962820 10.637246 31.016621 -0.708701 1.220737 0.056892 -0.009345 82549.700000 0 0 1
20.999429 -18.419620 9.945646 29.650873 -0.720046 1.228740 0.054942 -0.009928 284528.000000 0 0 1
20.574329 -16.930920 9.812446 28.394421 -0.688558 1.217943 0.103433 -0.031090 245695.000000 0 0 1
21.491629 -16.170820 9.018046 28.367423 -0.645051 1.247281 0.109602 -0.026970 282666.000000 0 0 1
21.153129 -14.819820 9.042046 27.364950 -0.611127 1.234043 0.116903 -0.042371 -96016.900000 0 0 1
-35.736145 24.807971 8.404946 44.307456 -0.606822 1.379944 0.101327 -0.014795 795948.000000 0 0 1
-34.739534 24.207371 9.282246 43.347343 -0.608592 1.354989 0.102468 -0.025652 1443160.000000 0 0 1
-33.691074 25.104471 9.728046 43.127228 -0.640382 1.343272 0.114575 -0.019382 100325.000000 0 0 1
-32.605104 24.280371 10.371946 41.954815 -0.640088 1.320989 0.133521 -0.032753 -386297.000000 0 0 1
-31.605194 23.695271 9.554846 40.640488 -0.643326 1.333468 0.140685 -0.031449 349623.000000 0 0 1
-31.051654 22.514871 10.128046 39.669913 -0.627359 1.312630 0.139020 -0.033400 -162282.000000 0 0 1
-30.216134 21.610071 9.275546 38.288976 -0.620843 1.326111 0.122189 -0.037781 67196.100000 0 0 1
-31.064114 20.909471 8.311046 38.356990 -0.592448 1.352388 0.124927 -0.039189 861045.000000 0 0 1
-30.354324 20.007271 7.466946 37.113760 -0.582763 1.368223 0.107106 -0.039227 -36703.700000 0 0 1
-31.259294 19.249271 6.465046 37.275659 -0.551952 1.396476 0.111656 -0.031676 448954.000000 0 0 1
-32.135384 18.244371 7.057946 37.621199 -0.516357 1.382072 0.121731 -0.031436 997983.000000 0 0 1
-33.046024 17.818471 6.040046 38.026567 -0.494515 1.411283 0.117230 -0.033555 220210.000000 0 0 1
-33.912484 16.601871 6.455946 38.306108 -0.455253 1.401452 0.134870 -0.029589 -262890.000000 0 0 1
-34.801388 16.816971 7.508146 39.374095 -0.450139 1.378934 0.120391 -0.026259 -163332.000000 0 0 1
-35.598723 15.680271 7.722946 39.658339 -0.414903 1.374807 0.127518 -0.028590 -503501.000000 0 0 1
-36.556624 15.837671 8.867146 40.814763 -0.408826 1.351797 0.118505 -0.024285 -262353.000000 0 0 1
36.772619 16.830371 8.673546 41.360818 0.429229 1.359524 0.127717 -0.027773 101367.000000 0 0 1
36.135219 17.319271 9.835646 41.260770 0.446943 1.330101 0.127022 -0.022835 -251824.000000 0 0 1
35.203169 18.487171 9.604046 40.905700 0.483570 1.333799 0.087057 -0.020478 -1268740.000000 0 0 1
33.935829 18.067171 9.239746 39.540309 0.489224 1.334936 0.071120 -0.022316 -936769.000000 0 0 1
33.173179 19.246971 9.113946 39.420422 0.525731 1.337487 0.064822 -0.016049 -56603.800000 0 0 1
31.712979 19.132571 8.606646 38.024237 0.542845 1.342471 0.049511 -0.016283 -444472.000000 0 0 1
31.182699 20.431971 8.550446 38.248350 0.580046 1.345340 0.040638 -0.015731 -241503.000000 0 0 1
29.875629 20.473571 8.005946 37.091986 0.600787 1.353244 0.020070 -0.013540 68990.800000 0 0 1
29.636579 20.043771 6.550046 36.372828 0.594655 1.389728 0.007615 0.000265 -968586.000000 0 0 1
29.711779 18.644871 6.327746 35.643532 0.560413 1.392322 0.027247 -0.007131 139563.000000 0 0 1
29.454879 18.297471 4.953646 35.027502 0.555865 1.428899 0.033738 -0.008301 313696.000000 0 0 1
28.098829 18.637871 4.226046 33.981964 0.585666 1.446112 0.064977 -0.006664 554613.000000 0 0 1
27.018329 17.830971 4.755746 32.719271 0.583344 1.424930 0.063220 -0.010081 1124920.000000 0 0 1
25.676129 18.144471 4.404346 31.747184 0.615186 1.431616 0.099608 -0.016352 750373.000000 0 0 1
25.149329 19.475871 5.026246 32.203438 0.658941 1.414078 0.104968 -0.015493 -728558.000000 0 0 1
25.578129 20.581971 4.281646 33.108770 0.677582 1.441113 0.078430 -0.019713 64018.100000 0 0 1
25.192529 21.783171 4.898646 33.662542 0.712948 1.424756 0.087380 -0.010567 2986.170000 0 0 1
26.089729 23.001071 4.538046 35.075876 0.722564 1.441055 0.056352 -0.003235 292665.000000 0 0 1
27.406529 22.920071 5.057946 36.083657 0.696486 1.430160 0.049127 -0.004217 77505.800000 0 0 1
28.075229 24.164771 4.914446 37.367183 0.710682 1.438897 0.050016 -0.000257 -294060.000000 0 0 1
29.442209 24.046871 5.662746 38.433870 0.684870 1.422921 0.039977 -0.003344 -54554.600000 0 0 1
30.351959 23.061571 5.225746 38.475783 0.649747 1.434556 0.036476 -0.006003 89953.800000 0 0 1
30.751859 22.902771 3.863946 38.537564 0.640139 1.470363 0.046186 -0.009050 -854951.000000 0 0 1
31.425879 24.189771 3.224746 39.788564 0.656016 1.489660 0.067412 -0.022164 -805676.000000 0 0 1
30.786009 25.406271 3.202646 40.043899 0.689951 1.490732 0.051001 -0.026211 -534612.000000 0 0 1
31.499669 26.250871 2.324546 41.069951 0.694760 1.514166 0.101749 -0.022559 -921451.000000 0 0 1
31.135549 27.789971 2.399046 41.802635 0.728683 1.513375 0.088500 -0.012276 1541550.000000 0 0 1
29.805519 28.190471 1.959246 41.072013 0.757558 1.523076 0.114795 -0.010861 1285460.000000 0 0 1
28.728029 27.716671 2.732446 40.012245 0.767482 1.502453 0.093459 -0.004874 -1226870.000000 0 0 1
27.377429 28.271371 2.347046 39.424645 0.801461 1.511229 0.067768 -0.002204 -782103.000000 0 0 1
27.138829 29.623371 2.737046 40.268493 0.829141 1.502774 0.063575 -0.010725 81658.500000 0 0 1
25.899929 30.052671 2.215446 39.735092 0.859481 1.515012 0.053540 0.003463 140200.000000 0 0 1
25.415129 31.382471 2.865646 40.484567 0.890077 1.499953 0.073209 -0.011079 -217040.000000 0 0 1
25.379729 31.417471 4.299846 40.616213 0.891304 1.464732 0.056897 -0.020945 692132.000000 0 0 1
26.617129 31.401971 5.033046 41.471519 0.867682 1.449135 0.058123 -0.030151 542869.000000 0 0 1
26.383929 31.329771 6.615846 41.490187 0.870885 1.410657 0.059581 -0.038792 294624.000000 0 0 1
25.801729 30.105871 7.105646 40.281297 0.862233 1.393468 0.069108 -0.035615 555695.000000 0 0 1
26.667629 28.955571 6.934246 39.970880 0.826508 1.396432 0.080144 -0.037404 211327.000000 0 0 1
26.175929 27.596171 7.419146 38.752698 0.811804 1.378159 0.087445 -0.036191 -689769.000000 0 0 1
24.966529 27.300571 6.791646 37.613497 0.830025 1.389236 0.065135 -0.040082 -506712.000000 0 0 1
24.476229 26.013371 7.152446 36.427170 0.815833 1.373163 0.078483 -0.030326 131543.000000 0 0 1
23.158629 25.773471 6.352946 35.227174 0.838786 1.389462 0.087411 -0.018231 -166972.000000 0 0 1
23.247229 25.664171 4.903546 34.973248 0.834773 1.430124 0.064490 -0.022407 -14476.000000 0 0 1
23.801729 26.740971 4.207846 36.045912 0.843486 1.453794 0.053568 -0.014674 -474054.000000 0 0 1
23.895929 26.575871 2.665646 35.838499 0.838446 1.496348 0.058019 -0.002676 -471754.000000 0 0 1
24.833729 25.604071 2.362946 35.747252 0.800670 1.504647 0.039630 0.014244 -236635.000000 0 0 1
24.802229 25.403171 0.946346 35.515732 0.797367 1.544147 0.049467 0.009779 -301435.000000 0 0 1
26.008929 24.733171 0.255746 35.892332 0.760261 1.563671 0.073323 0.001487 -1458680.000000 0 0 1
27.045829 25.623571 0.082446 37.256557 0.758401 1.568583 0.069884 -0.000520 -189865.000000 0 0 1
28.183829 25.195771 -0.642054 37.809619 0.729479 1.587778 0.071997 0.000939 587374.000000 0 0 1
29.089929 24.039971 -0.132054 37.738065 0.690634 1.574296 0.070858 -0.007861 -601151.000000 0 0 1
28.408929 22.785471 -0.190254 36.418143 0.675992 1.576021 0.071151 -0.007316 353283.000000 0 0 1
28.589529 22.010871 1.014246 36.095267 0.656111 1.542693 0.058533 -0.007297 146100.000000 0 0 1
27.328829 21.186171 1.457046 34.609850 0.659455 1.528685 0.060173 -0.010570 624815.000000 0 0 1
26.832529 20.161171 0.518846 33.566749 0.644378 1.555339 0.102718 -0.030076 1094280.000000 0 0 1
25.714229 19.414371 1.018146 32.236252 0.646697 1.539207 0.094928 -0.026941 299217.000000 0 0 1
25.163229 18.280671 0.121446 31.102825 0.628280 1.566892 0.119383 -0.032239 622747.000000 0 0 1
23.816429 17.944571 0.499246 29.824137 0.645708 1.554056 0.112296 -0.029206 806656.000000 0 0 1
23.304829 16.975671 -0.409754 28.834985 0.629545 1.585007 0.130508 -0.048365 933907.000000 0 0 1
21.774629 16.729271 -0.133754 27.459440 0.655106 1.575667 0.108840 -0.030384 -5349.620000 0 0 1
21.242629 15.587171 -0.747154 26.358441 0.633032 1.599146 0.109667 -0.034693 -286463.000000 0 0 1
19.882329 15.357271 -0.589454 25.129668 0.657689 1.594255 0.108343 -0.031788 269963.000000 0 0 1
18.785229 16.377371 -1.159754 24.948910 0.717027 1.617298 0.109019 -0.033163 200164.000000 0 1 0
18.730829 17.533271 -0.344054 25.658876 0.752387 1.584206 0.088899 -0.026956 394841.000000 0 0 1
17.884829 18.533171 -0.950254 25.773019 0.803199 1.607675 0.064286 -0.024080 361148.000000 0 0 1
18.034629 19.950371 -0.374854 26.896201 0.835790 1.584734 0.067322 -0.019606 -102376.000000 0 0 1
17.715029 20.081571 1.017646 26.797898 0.847929 1.532812 0.079284 -0.018446 216975.000000 0 0 1
17.909329 21.413171 1.533346 27.957451 0.874269 1.515923 0.087699 -0.021663 -378754.000000 0 0 1
16.826329 22.422071 1.189146 28.058665 0.927016 1.528403 0.078125 -0.022797 915570.000000 0 0 1
15.492629 22.133471 1.697846 27.070182 0.960095 1.508035 0.073577 -0.021882 1133480.000000 0 0 1
14.645629 23.222371 1.450646 27.493223 1.008131 1.518008 0.060248 -0.023319 -316945.000000 0 0 1
13.184429 23.130071 1.894546 26.691172 1.052718 1.499756 0.059568 -0.021602 -70705.000000 0 0 1
13.002029 23.451771 3.260746 27.012419 1.064569 1.449788 0.053734 -0.019384 282270.000000 0 0 1
11.616229 23.485071 3.586446 26.445187 1.111461 1.434759 0.044234 -0.017579 584515.000000 0 0 1
11.386329 23.777471 5.079946 26.848137 1.124195 1.380438 0.058001 -0.018082 -14970.400000 0 0 1
11.837329 22.690171 5.884246 26.260056 1.089944 1.344802 0.064674 -0.034643 43596.400000 0 0 1
11.164929 22.599971 7.115246 26.192385 1.111941 1.295686 0.054643 -0.024467 -650224.000000 0 0 1
11.848529 21.471371 7.986946 25.791446 1.066550 1.255946 0.065902 -0.022084 749479.000000 0 0 1
13.027029 21.849771 8.695046 26.883448 1.033169 1.241439 0.077185 -0.018914 537400.000000 0 0 1
14.166829 22.077771 7.885246 27.391679 1.000293 1.278794 0.086738 -0.013530 -769232.000000 0 0 1
15.520629 21.968871 8.605946 28.241521 0.955733 1.261145 0.099637 -0.020461 -288735.000000 0 0 1
15.986629 20.675971 9.038246 27.654257 0.912613 1.237849 0.111341 -0.023023 564244.000000 0 0 1
17.248229 20.642771 9.694246 28.593772 0.874747 1.224907 0.106151 -0.026228 275614.000000 0 0 1
17.369429 21.470371 11.034646 29.739490 0.890594 1.190664 0.083446 -0.014835 -485606.000000 0 0 1
16.660929 21.015171 12.183346 29.456033 0.900458 1.144379 0.091674 -0.022285 -21270.200000 0 0 1
16.994229 21.679071 13.381746 30.624452 0.905950 1.118577 0.088761 -0.025674 -96160.800000 0 0 1
18.081529 21.113671 14.356246 31.286268 0.862604 1.094076 0.084200 -0.021837 1612430.000000 0 0 1
19.436029 21.355371 13.867446 32.033063 0.832416 1.123077 0.090556 -0.020524 760361.000000 0 0 1
20.305329 20.819171 14.872646 32.664045 0.797892 1.098063 0.073838 -0.025752 1180670.000000 0 0 1
21.825429 21.204871 14.678446 33.785391 0.770978 1.121356 0.081414 -0.027859 1214440.000000 0 0 1
22.434029 20.542971 13.559446 33.304022 0.741425 1.151474 0.081228 -0.031302 34580.900000 0 0 1
23.839629 20.678971 13.585546 34.358620 0.714521 1.164288 0.098138 -0.028325 134746.000000 0 0 1
24.521129 20.127471 12.312846 34.029502 0.687309 1.200568 0.096977 -0.022573 118210.000000 0 0 1
24.258229 20.974671 11.224046 33.976134 0.712933 1.234121 0.121417 -0.015135 235796.000000 0 0 1
25.203529 20.711971 10.210346 34.182668 0.687886 1.267467 0.126174 -0.032561 -289154.000000 0 0 1
25.034729 21.625371 8.983646 34.279735 0.712460 1.305631 0.099360 -0.027132 -123723.000000 0 0 1
25.353829 22.975071 9.270146 35.448641 0.736218 1.306211 0.088446 -0.027497 1116860.000000 0 0 1
26.749929 23.226071 8.987746 36.548442 0.715004 1.322335 0.061787 -0.020142 672631.000000 0 0 1
27.151429 24.533271 9.604846 37.832982 0.734785 1.314112 0.089195 -0.022153 -608693.000000 0 0 1
28.352929 25.085571 9.159346 38.949558 0.724332 1.333414 0.072485 -0.014800 -308018.000000 0 0 1
28.736729 26.241471 9.866246 40.146696 0.740043 1.322498 0.088061 -0.024028 86735.200000 0 0 1
30.023619 26.845171 9.253546 41.324436 0.729565 1.344957 0.084883 -0.021357 234931.000000 0 0 1
29.828299 27.423971 7.927046 41.287282 0.743427 1.377599 0.086480 -0.026475 352738.000000 0 0 1
31.106179 27.618071 7.340846 42.240268 0.726070 1.396122 0.091494 -0.018054 120569.000000 0 0 1
31.121849 28.516571 6.090846 42.648126 0.741741 1.427490 0.116334 -0.013492 55964.400000 0 0 1
31.129729 29.890271 6.400546 43.628606 0.765089 1.423560 0.109383 -0.024445 30378.000000 0 0 1
30.806779 30.620071 5.219846 43.748064 0.782359 1.451195 0.126907 -0.035497 78603.600000 0 0 1
30.815299 32.178271 5.543346 44.897132 0.807031 1.447013 0.089427 -0.027594 -444073.000000 0 0 1
29.826589 32.627671 6.389446 44.665594 0.830218 1.427253 0.091361 -0.035880 -625780.000000 0 0 1
29.827349 -34.012938 6.458646 45.697536 -0.850868 1.428987 0.077455 -0.032117 -647930.000000 0 0 1
28.556829 -33.340438 6.945246 44.444502 -0.862528 1.413885 0.084734 -0.034859 3545.100000 0 0 1
27.487829 -33.547038 6.010246 43.784787 -0.884349 1.433094 0.070620 -0.035646 -698304.000000 0 0 1
26.332829 -32.908438 6.405246 42.631096 -0.895943 1.419977 0.058604 -0.035784 -534622.000000 0 0 1
25.191229 -32.993638 5.353446 41.854958 -0.918700 1.442540 0.076488 -0.026466 -184718.000000 0 0 1
25.474329 -32.380638 4.115746 41.405151 -0.904209 1.471230 0.054614 -0.009008 -241854.000000 0 0 1
24.406829 -32.421438 3.174746 40.705306 -0.925506 1.492724 0.051171 -0.010763 118486.000000 0 0 1
24.735229 -31.847338 1.760546 40.363152 -0.910437 1.527165 0.048541 0.000887 -72331.600000 0 0 1
24.836329 -30.419338 1.787246 39.311240 -0.886096 1.525317 0.059687 -0.001523 594846.000000 0 0 1
25.830329 -29.879338 0.867946 39.506127 -0.857951 1.548825 0.061364 -0.001683 341839.000000 0 0 1
26.098229 -28.370838 1.133146 38.565607 -0.827097 1.541410 0.055042 -0.006754 662464.000000 0 0 1
25.021229 -27.386738 1.021446 37.109819 -0.830504 1.543268 0.065843 -0.012378 843940.000000 0 0 1
24.575629 -27.050838 -0.297454 36.548568 -0.833306 1.578935 0.077359 -0.015046 -29145.500000 0 0 1
23.346829 -26.109338 -0.399454 35.027582 -0.841198 1.582201 0.066368 -0.012471 -68203.300000 0 0 1
23.551629 -24.706638 -0.209154 34.134161 -0.809328 1.576924 0.069251 -0.017425 -189555.000000 0 0 1
23.566329 -24.308338 1.179446 33.877105 -0.800896 1.535974 0.052342 -0.005061 -375838.000000 0 0 1
22.236329 -24.199238 1.919146 32.920215 -0.827645 1.512466 0.043121 -0.012904 -247695.000000 0 0 1
22.374729 -23.628238 3.209846 32.699010 -0.812640 1.472475 0.032148 -0.004819 101524.000000 0 0 1
21.067129 -23.517338 3.750746 31.795553 -0.840300 1.452557 0.039858 -0.010357 161624.000000 0 0 1
21.063829 -22.892438 5.190646 31.538729 -0.826975 1.405464 0.023748 -0.008500 -155158.000000 0 0 1
21.215529 -21.478338 5.187446 30.632128 -0.791554 1.400630 0.054378 0.009147 80853.200000 0 0 1
20.086329 -20.727338 4.782746 29.256757 -0.801103 1.406584 0.037174 0.003661 -409619.000000 0 0 1
20.178129 -19.228138 5.066246 28.329226 -0.761295 1.390994 0.041613 0.002509 -51134.700000 0 0 1
19.894629 -18.818538 6.391246 28.120840 -0.757609 1.341515 0.057745 0.001537 -431012.000000 0 0 1
18.581329 -18.817338 6.867046 27.322414 -0.791709 1.316738 0.039320 0.010789 -324438.000000 0 0 1
19.725886 -25.821609 -12.370554 34.769191 -0.918440 1.934556 0.090951 -0.030682 105951.000000 0 0 1
19.551486 -24.500829 -12.882454 33.889657 -0.897280 1.960732 0.116099 -0.027335 -348102.000000 0 0 1
18.235186 -24.103229 -13.206354 32.983260 -0.923119 1.982745 0.079122 -0.023494 -73209.900000 0 0 1
18.127486 -22.553729 -13.521754 31.939228 -0.893775 2.007946 0.081280 -0.031930 -227802.000000 0 0 1
18.043386 -21.687029 -12.457254 30.839491 -0.876852 1.986614 0.095267 -0.034574 254243.000000 0 0 1
19.302786 -21.527629 -11.785254 31.223846 -0.839834 1.957831 0.087002 -0.036117 130001.000000 0 0 1
19.428386 -22.239929 -10.363254 31.296544 -0.852770 1.908298 0.099997 -0.027417 538512.000000 0 0 1
18.621786 -21.701229 -9.269054 30.060433 -0.861620 1.884252 0.085080 -0.029002 939779.000000 0 0 1
17.229786 -22.017429 -9.377354 29.488429 -0.906785 1.894417 0.081468 -0.008278 -40917.800000 0 0 1
16.414586 -21.398629 -8.274254 28.209985 -0.916450 1.868483 0.074307 -0.020915 -1142160.000000 0 0 1
16.234186 -19.995929 -8.535554 27.133773 -0.888857 1.890803 0.076149 -0.029747 -2093.770000 0 0 1
15.326986 -19.427129 -7.641354 25.898265 -0.902831 1.870307 0.076962 -0.035055 -159722.000000 0 0 1
13.843286 -19.608929 -7.978954 25.294473 -0.956076 1.891719 0.054451 -0.018167 -388646.000000 0 0 1
13.236486 -20.849929 -7.652854 25.855179 -1.005148 1.871287 0.052691 -0.017991 129295.000000 0 0 1
11.962186 -21.098729 -8.223154 25.609969 -1.055024 1.897679 0.058788 -0.017726 243079.000000 0 0 1
11.411586 -22.494929 -7.989954 26.459129 -1.101329 1.877558 0.066910 -0.016329 -290182.000000 0 0 1
11.093686 -22.810129 -6.625954 26.215933 -1.118129 1.826313 0.066474 -0.018835 237901.000000 0 0 1
10.725086 -24.152329 -6.389854 27.188098 -1.152893 1.808040 0.061536 -0.014524 -213577.000000 0 0 1
11.272686 -24.578429 -5.102754 27.517462 -1.140779 1.757313 0.069084 -0.020261 -516309.000000 0 0 1
10.504986 -25.569529 -4.520354 28.010518 -1.180980 1.732886 0.080077 -0.019944 -365141.000000 0 0 1
10.892486 -25.803999 -3.197454 28.190713 -1.171364 1.684463 0.076236 -0.028828 218924.000000 0 0 1
9.943486 -26.774099 -2.422254 28.663437 -1.215199 1.655404 0.086609 -0.027065 499705.000000 0 0 1
8.807586 -26.133329 -1.872454 27.641102 -1.245727 1.638590 0.071429 -0.020994 -355292.000000 0 0 1
8.302886 -26.909399 -0.814254 28.172978 -1.271514 1.599702 0.080785 -0.020890 -160781.000000 0 0 1
7.680586 -26.050699 0.294946 27.160952 -1.284087 1.559937 0.077684 -0.014753 352885.000000 0 0 1
6.385486 -25.635569 -0.132254 26.419204 -1.326677 1.575802 0.075449 -0.018283 -27702.000000 0 0 1
5.764686 -24.939929 0.939946 25.614745 -1.343643 1.534093 0.063181 -0.016526 167074.000000 0 0 1
4.269186 -24.608129 0.666846 24.984608 -1.399019 1.544103 0.053137 -0.014684 407068.000000 0 1 0
3.428686 -25.744679 0.537146 25.977546 -1.438395 1.550118 0.055804 -0.011947 634000.000000 0 0 1
2.073286 -25.268859 0.390546 25.356780 -1.488931 1.555394 0.048058 -0.007474 817202.000000 0 0 1
1.109086 -26.475969 0.212246 26.500039 -1.528931 1.562787 0.065112 -0.006698 -37376.600000 0 0 1
0.737786 -27.219769 1.347346 27.263079 -1.543698 1.521356 0.064878 -0.007314 -145309.000000 0 0 1
0.991286 -28.609279 1.126846 28.648617 -1.536161 1.531453 0.061340 -0.006828 -19943.700000 0 0 1
0.322686 -29.642429 2.081046 29.717141 -1.559911 1.500710 0.093006 -0.016073 -255740.000000 0 0 1
0.662786 -29.554469 3.426746 29.759847 -1.548374 1.455394 0.071308 -0.011157 35692.200000 0 0 1
-0.001314 -30.531779 4.238146 30.824526 1.570753 1.432867 0.092308 -0.020229 -18702.600000 0 0 1
0.130986 -30.268789 5.782146 30.816391 -1.566469 1.382045 0.089504 -0.024031 432538.000000 0 0 1
1.521686 -30.461389 6.096646 31.102747 -1.520883 1.373503 0.060959 -0.007996 738988.000000 0 0 1
1.735186 -30.660199 7.472246 31.605271 -1.514263 1.332112 0.068134 -0.007167 -1451660.000000 0 0 1
3.130786 -30.954529 7.855146 32.088752 -1.469998 1.323489 0.074864 -0.014312 -1403600.000000 0 0 1
3.419286 -32.280199 7.541146 33.325240 -1.465265 1.342530 0.072011 -0.015448 777081.000000 0 0 1
4.792186 -32.649049 7.807846 33.909997 -1.425058 1.338460 0.074273 -0.012870 1121960.000000 0 0 1
4.907086 33.920588 7.522246 35.089457 1.427129 1.354746 0.049008 -0.004391 -119866.000000 0 0 1
4.988686 33.577288 6.141846 34.497007 1.423302 1.391802 0.041484 -0.000921 -69621.300000 0 0 1
4.818486 32.255410 5.839346 33.131967 1.422508 1.393626 0.026734 -0.005215 -570048.000000 0 0 1
5.044886 31.939330 4.315246 32.621971 1.414138 1.438127 0.036699 -0.009938 -26727.900000 0 0 1
6.323286 31.746760 3.753046 32.587207 1.374190 1.455371 0.042552 -0.009167 -647350.000000 0 0 1
6.948886 30.591070 4.220046 31.652952 1.347433 1.437076 0.023360 -0.015576 -1100260.000000 0 0 1
8.300886 30.381290 3.584746 31.698232 1.304082 1.457464 0.035353 -0.018604 -375467.000000 0 0 1
9.316086 31.243570 4.119446 32.862136 1.281014 1.445110 0.040683 -0.018277 372512.000000 0 0 1
10.592886 30.906880 3.592846 32.868724 1.240608 1.461269 0.035802 -0.022844 635573.000000 0 0 1
11.795286 31.661830 4.223946 34.050579 1.214184 1.446427 0.058471 -0.028829 251380.000000 0 0 1
12.295186 30.954660 5.348646 33.733820 1.192706 1.411570 0.057956 -0.030869 677951.000000 0 0 1
13.466486 31.501260 5.996346 34.779761 1.166818 1.397521 0.097136 -0.029353 766727.000000 0 0 1
14.194586 30.553310 6.951246 34.399285 1.135881 1.367320 0.081230 -0.032421 -242147.000000 0 0 1
13.489086 30.262500 8.121346 34.113496 1.151494 1.330420 0.072254 -0.026699 -82045.300000 0 0 1
14.155486 29.258920 8.841246 33.684266 1.120192 1.305211 0.063598 -0.033651 53875.900000 0 0 1
13.863386 29.391940 10.361046 34.109102 1.130066 1.262158 0.042875 -0.013826 -547058.000000 0 0 1
14.679686 30.279940 11.024846 35.410665 1.119383 1.254191 0.065009 -0.021254 -359725.000000 0 0 1
14.386186 30.493960 12.404746 35.926615 1.129985 1.218259 0.046251 -0.012949 -64720.300000 0 0 1
15.452586 31.426080 13.010546 37.358469 1.113801 1.215080 0.055065 -0.008428 508536.000000 0 0 1
16.677486 30.826330 13.379446 37.515473 1.074878 1.206129 0.053544 -0.014998 -55400.900000 0 0 1
17.434786 31.549100 14.288246 38.774624 1.065941 1.193407 0.055757 -0.003143 -934705.000000 0 0 1
18.401486 30.704050 15.050546 38.831331 1.030879 1.172783 0.049901 -0.007313 -163471.000000 0 0 1
19.632286 30.469360 14.363946 38.988864 0.998418 1.193497 0.048320 -0.012210 228780.000000 0 0 1
20.029086 29.143090 14.676046 38.286686 0.968667 1.177408 0.044155 -0.008293 167594.000000 0 0 1
21.465086 28.745080 14.245146 38.599919 0.929385 1.192814 0.068518 -0.013136 306344.000000 0 0 1
22.507286 29.264280 15.074946 39.877688 0.915180 1.183129 0.073175 -0.016677 656936.000000 0 0 1
23.727686 28.768090 14.483146 40.004595 0.881120 1.200344 0.076416 -0.017801 188110.000000 0 0 1
24.893586 28.888860 15.473846 41.154547 0.859548 1.185328 0.095378 -0.029204 -440449.000000 0 0 1
24.822186 28.002480 16.587546 40.931974 0.845530 1.153548 0.089385 -0.023283 -374578.000000 0 0 1
25.782386 28.341260 17.545146 42.140130 0.832641 1.141367 0.081778 -0.022250 -438448.000000 0 0 1
26.791786 27.166080 17.740846 42.077705 0.792335 1.135564 0.050844 -0.016778 -194330.000000 0 0 1
26.266886 25.950220 18.223346 41.175885 0.779334 1.112330 0.062342 -0.008785 -23520.100000 0 0 1
26.014986 25.953230 19.663146 41.677199 0.784210 1.079469 0.083552 -0.014820 -169657.000000 0 0 1
25.580186 24.543180 20.078446 40.741350 0.764712 1.055460 0.092867 -0.018460 -311709.000000 0 0 1
26.549186 23.528680 20.058746 40.753053 0.725155 1.056178 0.056128 -0.014165 -55887.800000 0 0 1
25.922786 22.267480 20.197946 39.696203 0.709692 1.036991 0.059097 -0.014658 612103.000000 0 0 1
26.975986 21.116380 20.339946 39.841169 0.664155 1.035000 0.032163 -0.008981 526484.000000 0 0 1
26.283386 19.883280 20.527646 38.827122 0.647646 1.013736 0.030971 0.010308 -378412.000000 0 0 1
27.094486 18.785280 20.577846 38.864452 0.606232 1.012812 0.035798 -0.001514 -631068.000000 0 0 1
27.671686 18.401380 21.979246 39.842443 0.586841 0.986450 0.073838 0.004483 227660.000000 0 0 1
26.694086 17.938280 22.886846 39.473584 0.591682 0.952311 0.042098 0.019179 163630.000000 0 0 1
27.390186 17.415980 23.975246 40.352832 0.566362 0.934600 0.087718 0.017791 352252.000000 0 0 1
26.419086 16.685880 24.945346 39.983209 0.563320 0.897079 0.069449 0.010369 295733.000000 0 0 1
26.010186 15.468780 24.347046 38.840592 0.536528 0.893299 0.061082 0.009702 238087.000000 0 0 1
24.769886 15.060880 24.904846 38.218172 0.546304 0.861040 0.062397 0.005710 -50813.000000 0 0 1
24.214886 13.866080 24.143746 36.899178 0.520049 0.857518 0.053220 0.005463 479821.000000 0 0 1
22.934386 13.450280 24.643246 36.251699 0.530410 0.823331 0.043896 -0.002620 613191.000000 0 0 1
22.544886 12.203480 24.136446 35.210294 0.496137 0.815514 0.039571 0.001152 -33826.500000 0 0 1
21.280886 11.568680 24.743446 34.625837 0.497930 0.774752 0.042214 -0.005810 585520.000000 0 0 1
20.058886 12.268180 24.473446 33.938425 0.548911 0.765389 0.045939 -0.010263 365657.000000 0 0 1
18.965486 11.454780 24.826446 33.275427 0.543341 0.728627 0.048088 -0.016673 1230560.000000 0 0 1
17.547886 12.193280 24.886946 32.801897 0.607266 0.709474 0.048279 -0.023518 1201400.000000 0 0 1
17.554886 13.160880 25.902246 33.945679 0.643308 0.702778 0.062406 -0.016084 588589.000000 0 0 1
16.243186 13.702680 26.050646 33.619052 0.700764 0.684275 0.066131 -0.019418 331011.000000 0 0 1
15.934786 14.166980 27.504546 34.801160 0.726738 0.659442 0.072017 -0.014867 -64818.100000 0 0 1
15.818686 13.153280 28.403046 35.070965 0.693657 0.626860 0.071126 -0.013105 -65187.800000 0 0 1
16.114586 13.488480 29.772246 36.441811 0.696919 0.614641 0.065983 -0.006770 623052.000000 0 0 1
17.600486 13.106180 30.087246 37.239648 0.640068 0.630156 0.071907 -0.004285 540637.000000 0 0 1
18.511786 14.090980 29.648746 37.686736 0.650624 0.665326 0.084480 -0.019417 125915.000000 0 0 1
19.885686 13.806280 29.811246 38.402659 0.606878 0.682052 0.069292 -0.003963 -16638.600000 0 0 1
20.685286 15.015580 29.304146 38.885494 0.627902 0.717273 0.068079 -0.005489 -440492.000000 0 0 1
20.528486 15.473780 27.965546 37.985897 0.645910 0.743345 0.079012 -0.016227 135667.000000 0 0 1
20.584886 14.576280 26.860246 36.846686 0.616146 0.753976 0.074717 -0.012231 -199047.000000 0 0 1
20.352686 15.370280 25.575746 36.119193 0.646819 0.784003 0.057849 -0.017752 -908985.000000 0 0 1
21.415186 16.171480 25.275446 36.864280 0.646783 0.815320 0.058285 -0.005885 -536298.000000 0 0 1
21.178386 16.775780 24.024946 36.154513 0.669916 0.843962 0.044266 -0.010786 -422227.000000 0 0 1
22.442786 17.514480 23.615346 36.988109 0.662679 0.878304 0.053676 -0.007407 -679769.000000 0 0 1
22.387386 18.178380 22.412746 36.523687 0.682011 0.910122 0.052515 -0.013643 177945.000000 0 0 1
23.552486 18.953880 22.102846 37.450033 0.677631 0.939495 0.054797 -0.011628 317546.000000 0 0 1
23.628086 20.270180 22.950146 38.676554 0.709054 0.935537 0.075273 -0.024309 -382382.000000 0 0 1
22.781386 21.280280 22.498246 38.444934 0.751343 0.945661 0.074122 -0.021860 -329079.000000 0 0 1
23.060686 22.555280 23.084346 39.666395 0.774319 0.949657 0.098494 -0.026277 355071.000000 0 0 1
22.084986 23.711520 22.703946 39.565792 0.820900 0.959624 0.092420 -0.031977 491217.000000 0 0 1
22.508886 24.325340 21.493746 39.501306 0.824163 0.995448 0.103056 -0.028099 18824.500000 0 0 1
21.614786 25.351540 21.247346 39.513912 0.864793 1.003068 0.104124 -0.030756 -203520.000000 0 0 1
22.089686 26.146160 20.000446 39.643332 0.869297 1.041982 0.102228 -0.029057 403362.000000 0 0 1
21.551286 25.524510 18.761746 38.313987 0.869599 1.059069 0.088343 -0.030842 664912.000000 0 0 1
22.073986 26.245540 17.635546 38.562958 0.871517 1.095819 0.088124 -0.038840 168589.000000 0 0 1
22.126486 25.463200 16.287446 37.459803 0.855398 1.120982 0.074805 -0.019266 -353041.000000 0 0 1
20.820686 25.252210 15.831946 36.356919 0.881288 1.120248 0.072680 -0.017839 -493831.000000 0 0 1
20.836486 24.928420 14.479946 35.570410 0.874573 1.151543 0.080427 -0.012510 -423675.000000 0 0 1
19.481286 24.570520 13.831346 34.271520 0.900417 1.155369 0.073776 -0.012410 308091.000000 0 0 1
18.510586 25.592120 13.869946 34.495997 0.944608 1.157015 0.065457 -0.013382 -56041.500000 0 0 1
17.734486 25.827590 15.036146 34.751433 0.969087 1.123336 0.063985 -0.016590 -32795.400000 0 0 1
16.231386 26.035730 14.668846 34.007237 1.013329 1.124813 0.059071 -0.015881 782683.000000 0 0 1
15.399986 24.822350 14.508446 32.616003 1.015506 1.109816 0.071678 -0.013748 753006.000000 0 0 1
15.098186 24.060610 15.679946 32.445784 1.010397 1.066415 0.088898 -0.014981 78195.300000 0 0 1
13.959486 24.685490 16.534646 32.827354 1.056136 1.042937 0.096247 -0.027480 4167.240000 0 0 1
14.483286 25.886920 17.085646 34.231820 1.060702 1.048218 0.089488 -0.029404 218788.000000 0 0 1
13.556186 26.497280 17.929146 34.746659 1.097907 1.028626 0.084145 -0.034534 220525.000000 0 0 1
14.295286 27.738330 18.619646 36.338153 1.094935 1.032820 0.077902 -0.031476 339561.000000 0 0 1
14.330886 28.869030 17.743446 36.791644 1.110025 1.067554 0.064068 -0.021723 248482.000000 0 0 1
15.043986 30.004410 18.281746 38.220523 1.106035 1.072053 0.057981 -0.016640 -124591.000000 0 0 1
15.030886 31.266040 17.377846 38.800545 1.122674 1.106408 0.053648 -0.015669 -1252980.000000 0 0 1
13.778986 31.804120 17.216646 38.701103 1.161963 1.109776 0.048230 -0.014097 -908525.000000 0 0 1
13.709786 32.956156 16.396046 39.279724 1.176573 1.140195 0.040805 -0.007545 -245226.000000 0 0 1
12.451186 33.754085 16.810046 39.710804 1.217402 1.133699 0.048071 -0.013591 -85608.600000 0 0 1
12.347786 -33.015609 16.146346 38.771159 -1.212904 1.141256 0.052370 -0.015725 -122505.000000 0 0 1
12.911286 -31.841339 16.670346 38.189954 -1.185568 1.119079 0.038962 -0.014341 -281392.000000 0 0 1
12.627286 -31.597269 18.193946 38.585689 -1.190607 1.079782 0.041683 -0.014566 -38052.100000 0 0 1
13.372686 -32.462699 19.075046 39.956388 -1.180039 1.073107 0.048554 -0.014321 528132.000000 0 0 1
13.054086 -32.237119 20.452446 40.347782 -1.186039 1.039207 0.046547 -0.021565 -209363.000000 0 0 1
14.077086 -32.852169 21.443446 41.680340 -1.165967 1.030402 0.054833 -0.020428 538253.000000 0 0 1
15.326386 -32.154039 21.430946 41.570010 -1.125998 1.029160 0.059511 -0.019094 98816.200000 0 0 1
16.334386 -32.890889 22.101246 42.861262 -1.109854 1.029035 0.064177 -0.016843 -277127.000000 0 0 1
17.665686 -32.286369 21.651546 42.699830 -1.070139 1.039021 0.087152 -0.029907 -574141.000000 0 0 1
17.930586 -31.008569 22.151146 42.115443 -1.046526 1.016950 0.084461 -0.020913 570528.000000 0 0 1
19.231986 -30.535189 21.789646 42.155139 -1.008731 1.027580 0.085403 -0.018346 331546.000000 0 0 1
-5.163814 13.850871 19.029311 24.096188 -1.213943 0.660439 0.028690 0.024244 -180609.000000 0 1 0
-4.946314 13.966971 17.632711 23.031604 -1.230435 0.698842 0.032478 -0.011750 39301.200000 0 1 0
-5.860614 14.891171 17.068111 23.396884 -1.195851 0.753200 0.033115 -0.007540 -244681.000000 0 1 0
-5.445614 16.413371 17.137011 24.346059 -1.250445 0.789933 0.043047 -0.019744 -54198.400000 0 1 0
-5.286014 16.943071 18.448011 25.599584 -1.268379 0.766075 0.047422 -0.008382 161573.000000 0 0 1
-5.044214 18.295071 18.307611 26.368966 -1.301766 0.803369 0.046852 -0.001734 -196559.000000 0 0 1
-4.385414 19.029271 19.488911 27.589177 -1.344295 0.786401 0.051356 -0.005632 -301242.000000 0 0 1
-5.290414 19.159071 20.519311 28.567475 -1.301379 0.769476 0.045629 -0.002159 -256167.000000 0 0 1
-4.620214 19.803071 21.585111 29.655101 -1.341588 0.755583 0.051764 -0.003427 45868.200000 0 0 1
-5.464614 20.236171 22.813311 30.980829 -1.307045 0.743109 0.030308 0.000610 -8642.580000 0 0 1
-5.935914 19.168771 23.613671 30.988422 -1.270496 0.704376 0.039202 -0.004005 -78896.900000 0 0 1
-6.516414 19.520471 24.888081 32.294412 -1.248604 0.690917 0.030050 -0.014990 -1482.440000 0 0 1
-5.667514 20.175771 25.991691 33.387879 -1.296947 0.678561 0.033019 -0.015131 -821844.000000 0 0 1
-5.312214 21.506671 25.674241 33.910517 -1.328640 0.711907 0.047251 -0.018618 359793.000000 0 0 1
-4.147114 22.073871 26.288321 34.576439 -1.385087 0.707028 0.051755 -0.015588 1383460.000000 0 0 1
-2.782814 21.522271 25.729261 33.659279 -1.442210 0.700681 0.061619 -0.011407 120136.000000 0 0 1
-2.413814 20.320771 26.437831 33.432307 -1.452565 0.658703 0.078027 -0.013878 701392.000000 0 0 1
-1.181514 19.819971 25.874851 32.614953 -1.511254 0.654515 0.072879 -0.008315 665601.000000 0 0 1
-0.526514 18.718771 26.670291 32.587943 -1.542676 0.612158 0.082806 -0.006867 -454511.000000 0 0 1
-1.019714 17.421071 26.340361 31.596648 -1.512330 0.585123 0.091314 -0.014349 -127406.000000 0 0 1
-0.146014 16.378371 26.730481 31.349497 -1.561881 0.549740 0.092448 -0.014927 25623.900000 0 0 1
1.237686 16.284071 26.058761 30.753242 1.494936 0.559821 0.108805 -0.013062 -402305.000000 0 0 1
1.179586 16.016971 24.653171 29.423012 1.497283 0.577395 0.080595 -0.012534 -330130.000000 0 0 1
0.722386 14.735671 24.321751 28.446606 1.521813 0.545252 0.096041 -0.011392 -245878.000000 0 0 1
0.826986 14.430671 22.839911 27.029423 1.513551 0.564228 0.092465 -0.020827 392074.000000 0 0 1
2.202386 14.423471 22.474211 26.795096 1.419272 0.575825 0.080014 -0.020866 42537.400000 0 0 1
2.390486 13.687171 21.293911 25.426044 1.397889 0.578133 0.068444 -0.023407 -270538.000000 0 0 1
3.855886 13.521971 20.898311 25.188310 1.293012 0.592257 0.054522 -0.025852 -459917.000000 0 0 1
4.400686 14.584871 20.201111 25.301569 1.277754 0.646141 0.063854 -0.019932 -276506.000000 0 0 1
5.787386 14.306071 20.061511 25.310506 1.186382 0.655709 0.064234 -0.017317 121742.000000 0 0 1
6.463986 15.219771 19.062011 25.234595 1.169172 0.714544 0.072733 -0.030932 -297619.000000 0 0 1
6.170886 14.890271 17.723911 23.956983 1.177918 0.737990 0.069236 -0.042936 116347.000000 0 1 0
6.623386 15.998671 16.947211 24.228798 1.178283 0.796147 0.071541 -0.026681 -90094.400000 0 1 0
6.715986 15.758571 15.422511 23.049748 1.167927 0.837804 0.065040 -0.025059 292989.000000 0 1 0
7.869986 15.036471 15.017611 22.661879 1.088610 0.846402 0.057855 -0.025449 187018.000000 0 1 0
8.047586 13.714771 15.486611 22.196705 1.040152 0.798616 0.056116 -0.030828 -130262.000000 0 1 0
9.157486 12.908471 14.764011 21.644034 0.953778 0.820127 0.057886 -0.033366 1138160.000000 0 1 0
10.484186 13.448571 14.899811 22.644791 0.908634 0.852664 0.060706 -0.034644 507485.000000 0 1 0
11.408186 12.812071 14.030511 22.161929 0.843297 0.885257 0.073302 -0.028390 -403610.000000 0 1 0
12.745086 13.537571 14.084511 23.325447 0.815541 0.922504 0.078816 -0.017637 -1505210.000000 0 1 0
13.494386 13.325271 15.276211 24.352082 0.779093 0.892707 0.084620 -0.020555 495652.000000 0 1 0
14.803486 13.869771 15.327711 25.425429 0.752846 0.923728 0.075478 -0.016446 534216.000000 0 0 1
15.801186 13.423371 14.260111 25.163766 0.704213 0.968311 0.077900 -0.019432 -2242960.000000 0 0 1
17.131186 13.737271 14.438611 26.280480 0.675890 0.989145 0.072585 -0.023041 -942347.000000 0 0 1
17.912386 13.122171 13.467611 25.969626 0.632256 1.025594 0.074741 -0.023918 -210124.000000 0 0 1
19.364586 13.658571 13.541711 27.293253 0.614299 1.051631 0.060078 -0.022463 16262.000000 0 0 1
19.979986 13.312871 14.751611 28.178758 0.587756 1.019841 0.020980 -0.015455 -319104.000000 0 0 1
21.366086 13.519571 14.661211 29.227376 0.564159 1.045319 0.032951 -0.029055 -24828.400000 0 0 1
22.279986 13.164471 15.844711 30.343960 0.533676 1.021403 0.041567 -0.017619 -38892.000000 0 0 1
22.337486 11.768271 16.042011 29.913234 0.484888 1.004767 0.043502 -0.016356 -17611.500000 0 0 1
23.350686 11.490971 16.957211 31.061937 0.457311 0.993314 0.031510 -0.013605 -543488.000000 0 0 1
23.599386 10.003871 17.148711 30.839694 0.400942 0.981159 0.059795 -0.017086 -614027.000000 0 0 1
22.538786 9.341771 17.772611 30.184951 0.392923 0.941235 0.042623 -0.008909 -149759.000000 0 0 1
22.625886 7.920671 17.792211 29.853484 0.336738 0.932305 0.052654 -0.015030 -387025.000000 0 0 1
21.355786 7.231571 18.309011 29.044536 0.326504 0.888757 0.081989 -0.017520 -538866.000000 0 0 1
21.264486 5.916471 17.717011 28.303277 0.271369 0.894421 0.109023 -0.039460 8820.060000 0 0 1
20.213686 5.224671 18.298411 27.761883 0.252936 0.851148 0.108878 -0.038358 -945639.000000 0 0 1
20.013986 3.955171 17.407011 26.818036 0.195106 0.864424 0.110955 -0.027128 -775029.000000 0 0 1
19.105386 4.183671 16.344111 25.488210 0.215576 0.874681 0.111849 -0.041146 370133.000000 0 0 1
18.643086 3.033871 15.685911 24.552328 0.161320 0.877759 0.092991 -0.038076 437034.000000 0 1 0
17.744186 2.014571 16.517411 24.325696 0.113050 0.824382 0.090483 -0.026529 -142795.000000 0 1 0
18.546386 1.252571 17.394711 25.458070 0.067435 0.818566 0.101011 -0.036007 285347.000000 0 0 1
17.774786 0.553171 18.350211 25.553459 0.031111 0.769713 0.090865 -0.024811 -181781.000000 0 0 1
18.686386 -0.010229 19.456611 26.976672 -0.000547 0.765208 0.082800 -0.021734 188309.000000 0 0 1
19.221086 -1.326329 19.248011 27.234082 -0.068895 0.785886 0.086759 -0.021174 -92495.700000 0 0 1
18.280986 -2.322829 19.542211 26.860528 -0.126385 0.756061 0.062827 -0.012989 -392312.000000 0 0 1
18.363186 -3.652729 18.735611 26.487207 -0.196353 0.785060 0.054528 -0.015498 -318649.000000 0 0 1
17.868186 -3.630429 17.413211 25.212537 -0.200450 0.808399 0.070039 -0.027290 297491.000000 0 0 1
17.936886 -4.874629 16.773411 25.036797 -0.265357 0.836654 0.084676 -0.025302 -432534.000000 0 0 1
17.582886 -4.828829 15.248811 23.769764 -0.268024 0.874316 0.071167 -0.032325 -434445.000000 0 1 0
16.187086 -4.548929 15.230711 22.686760 -0.273956 0.834770 0.077116 -0.031858 196151.000000 0 1 0
15.738686 -4.462229 13.887311 21.458684 -0.276270 0.866936 0.069986 -0.028642 105936.000000 0 1 0
16.125286 -3.149429 13.111611 21.020421 -0.192882 0.897258 0.065680 -0.026468 -309583.000000 0 1 0
15.245486 -2.048029 13.285011 20.325127 -0.133537 0.858432 0.063164 -0.022697 105686.000000 0 1 0
15.768686 -0.767329 12.961311 20.426351 -0.048623 0.883385 0.060759 -0.019310 115643.000000 0 1 0
14.665786 0.334971 12.932911 19.556525 0.022836 0.848233 0.064313 -0.014201 -94039.500000 0 1 0
15.035986 1.572471 12.414411 19.561982 0.104202 0.883281 0.071104 -0.014181 211878.000000 0 1 0
15.807586 2.347971 13.347111 20.821578 0.147456 0.874966 0.082324 -0.021899 94874.700000 0 1 0
16.005586 3.764771 12.786411 20.828936 0.231017 0.909833 0.076720 -0.023199 -86450.300000 0 1 0
14.908186 4.584871 13.101811 20.369892 0.298360 0.872133 0.060122 -0.016508 266516.000000 0 1 0
15.070486 5.841771 12.434111 20.392473 0.369797 0.915064 0.078590 -0.019440 -87092.200000 0 1 0
13.991186 6.876171 12.781011 20.159098 0.456796 0.884072 0.068125 -0.015755 -52382.500000 0 1 0
14.250886 8.028371 11.954011 20.259340 0.513042 0.939676 0.073815 -0.028042 792099.000000 0 1 0
13.338886 9.135971 12.149711 20.223929 0.600528 0.926346 0.057404 -0.014903 83214.800000 0 1 0
13.496186 9.959371 13.463511 21.508190 0.635738 0.894420 0.055057 -0.021783 -31606.100000 0 1 0
12.997786 9.270471 14.582211 21.622325 0.619553 0.830637 0.059954 -0.027467 739594.000000 0 1 0
13.862986 9.571771 15.672311 23.009183 0.604291 0.821487 0.099499 -0.038305 121640.000000 0 1 0
13.293186 9.019971 16.958711 23.359507 0.596178 0.758327 0.085301 -0.041139 -364805.000000 0 1 0
12.096686 9.679871 17.289711 23.215594 0.674868 0.730643 0.078628 -0.039490 -141772.000000 0 1 0
11.443386 9.136471 18.489311 23.585606 0.673768 0.669836 0.084160 -0.024350 388163.000000 0 1 0
12.208486 9.228171 19.864211 25.075748 0.647255 0.656443 0.096338 -0.034713 -146279.000000 0 0 1
13.384686 8.431971 19.868911 25.397275 0.562166 0.672407 0.112273 -0.043912 361495.000000 0 0 1
14.151386 8.647871 21.069111 26.813333 0.548539 0.666856 0.099184 -0.037878 388328.000000 0 0 1
15.628986 8.216271 20.911311 27.368873 0.484001 0.701222 0.084619 -0.034730 42937.600000 0 0 1
16.363486 8.981671 20.006411 27.362210 0.501987 0.750762 0.090938 -0.030078 -178443.000000 0 0 1
17.630086 8.452471 19.697911 27.753773 0.447060 0.781670 0.074289 -0.025777 -428079.000000 0 0 1
18.489686 9.470171 18.989511 28.145233 0.473349 0.830242 0.085199 -0.025879 -758910.000000 0 0 1
19.309486 10.269471 19.797611 29.500232 0.488791 0.835105 0.060740 -0.019573 -360759.000000 0 0 1
20.091886 11.040771 18.945111 29.740540 0.502470 0.880179 0.060323 -0.020216 -575061.000000 0 0 1
20.977586 11.902871 19.872911 31.251721 0.516111 0.881625 0.033694 -0.003429 -878568.000000 0 0 1
20.354886 13.094371 20.256311 31.561085 0.571653 0.873936 0.034697 -0.004714 -56487.600000 0 0 1
20.921486 13.952671 21.246511 32.921115 0.588168 0.869280 0.028045 0.000297 -194447.000000 0 0 1
22.185586 14.755871 20.863911 33.841376 0.586925 0.906480 0.009872 0.008769 -378282.000000 0 0 1
23.341486 14.042071 20.615511 34.161440 0.541590 0.922947 -0.009395 0.016985 -519297.000000 0 0 1
24.497486 14.843471 20.436611 35.186795 0.544760 0.951081 -0.006466 0.005967 360629.000000 0 0 1
25.779986 13.989571 20.343111 35.695349 0.497185 0.964401 0.008227 0.003286 -61218.000000 0 0 1
25.896986 13.204971 19.156211 34.813583 0.471539 0.988131 0.025873 -0.014851 1525450.000000 0 0 1
27.105786 12.358371 19.223911 35.454361 0.427775 0.997724 0.074987 -0.024239 1465000.000000 0 0 1
27.300786 11.504871 17.969511 34.649651 0.398827 1.025577 0.113628 -0.026807 -197089.000000 0 0 1
27.614586 12.245071 16.836411 34.582826 0.417375 1.062324 0.114696 -0.042260 91760.000000 0 0 1
27.838586 11.348771 15.697811 33.914639 0.387095 1.089575 0.152316 -0.048652 -616567.000000 0 0 1
26.666686 11.234671 14.747811 32.478114 0.398732 1.099452 0.124894 -0.057499 -538776.000000 0 0 1
26.416286 12.456371 14.040111 32.405340 0.440623 1.122684 0.141667 -0.061838 -498110.000000 0 0 1
25.391286 12.293971 13.136511 31.119560 0.450912 1.135002 0.125434 -0.052864 -653956.000000 0 0 1
25.210186 13.515971 12.225611 31.107885 0.492133 1.166897 0.098492 -0.053618 -195852.000000 0 0 1
24.431886 14.462071 12.908911 31.188275 0.534468 1.144059 0.067435 -0.047824 104898.000000 0 0 1
24.243286 15.646671 12.184211 31.321083 0.573136 1.171240 0.043624 -0.036753 -14934.300000 0 0 1
23.297086 16.599871 12.968711 31.408556 0.619086 1.145156 0.042599 -0.031794 35862.800000 0 0 1
21.973386 16.081371 13.045311 30.193051 0.631788 1.124017 0.072755 -0.037861 30959.700000 0 0 1
21.073186 17.102771 13.359811 30.250099 0.681768 1.113365 0.063639 -0.030583 -566214.000000 0 0 1
20.423686 17.920571 12.173311 29.773534 0.720211 1.149588 0.094262 -0.027089 -159464.000000 0 0 1
19.439686 17.338371 11.342111 28.410631 0.728325 1.160130 0.094454 -0.026155 668510.000000 0 0 1
18.174886 17.325271 12.022511 27.839401 0.761470 1.124251 0.091324 -0.019148 333779.000000 0 0 1
16.948986 16.830971 11.200411 26.381791 0.781905 1.132331 0.088729 -0.016836 210413.000000 0 0 1
16.833686 15.454371 11.226711 25.460746 0.742705 1.114148 0.088435 -0.018063 724628.000000 0 0 1
15.679686 14.980971 10.517711 24.101956 0.762613 1.119220 0.091576 -0.028176 550855.000000 0 1 0
15.861686 13.598871 9.947311 23.140254 0.708740 1.126447 0.098723 -0.029117 -58592.200000 0 1 0
15.875086 12.457071 10.781911 22.878955 0.665338 1.080079 0.091732 -0.023230 253140.000000 0 1 0
16.564386 11.416571 10.102511 22.511724 0.603457 1.105412 0.100918 -0.024081 -160719.000000 0 1 0
17.083886 10.244671 10.889811 22.702432 0.540176 1.070511 0.117639 -0.034691 -423645.000000 0 1 0
17.774486 9.287471 10.047711 22.430915 0.481499 1.106336 0.126890 -0.030575 984109.000000 0 1 0
18.435686 8.181071 10.731311 22.846564 0.417655 1.081832 0.145716 -0.027659 296892.000000 0 1 0
19.626086 8.505871 11.637511 24.350867 0.408961 1.072523 0.114239 -0.029295 -1110580.000000 0 1 0
19.294186 9.144171 12.830911 24.910113 0.442578 1.029686 0.105120 -0.029451 -226978.000000 0 1 0
20.348886 9.413771 13.720611 26.285954 0.433298 1.021632 0.092523 -0.028452 -865144.000000 0 0 1
19.836686 9.583271 15.192611 26.760953 0.450043 0.967068 0.065994 -0.019984 440914.000000 0 0 1
19.230886 8.417971 15.839611 26.297956 0.412605 0.924400 0.088375 -0.030314 1026880.000000 0 0 1
18.017086 7.987771 15.208611 24.894210 0.417305 0.913562 0.106592 -0.042255 -166206.000000 0 1 0
17.397386 6.737871 15.879811 24.499721 0.369504 0.865627 0.100081 -0.032985 -406247.000000 0 1 0
16.375486 6.987271 16.794211 24.474967 0.403302 0.814573 0.116395 -0.035476 -73888.600000 0 1 0
15.895486 5.747771 17.350411 24.222719 0.346969 0.772330 0.117212 -0.023978 -218712.000000 0 1 0
14.468986 5.734171 17.955211 23.761773 0.377319 0.714174 0.097569 -0.027979 298934.000000 0 1 0
13.846886 4.469571 18.199511 23.300977 0.312227 0.674431 0.085209 -0.015357 556116.000000 0 1 0
13.335286 3.927571 16.978111 21.943380 0.286426 0.686098 0.077014 -0.016665 -716901.000000 0 1 0
13.201186 2.403971 17.026611 21.678466 0.180129 0.667429 0.069716 -0.012294 -117964.000000 0 1 0
14.414986 1.680071 16.983311 22.339367 0.116027 0.707112 0.076869 -0.012447 24814.200000 0 1 0
14.298586 0.262771 16.684611 21.974869 0.018375 0.708623 0.076953 -0.015104 50604.700000 0 1 0
13.510886 -0.709729 17.679911 22.262682 -0.052482 0.653189 0.081140 -0.015525 1061220.000000 0 1 0
12.090986 -0.530929 17.567811 21.333115 -0.043883 0.603244 0.071769 -0.007473 632675.000000 0 1 0
11.454786 -1.432729 18.459911 21.772302 -0.124431 0.558856 0.073070 -0.012330 -85622.300000 0 1 0
-26.253814 14.093071 28.506381 41.237012 -0.492653 0.807535 0.102506 -0.018599 -188444.000000 0 0 1
-25.459274 13.920271 29.636671 41.476269 -0.500357 0.774822 0.088423 -0.017492 458947.000000 0 0 1
-24.590614 12.761871 29.608701 40.549215 -0.478711 0.752194 0.067453 -0.010341 222172.000000 0 0 1
-23.544714 12.833371 30.719441 40.776624 -0.499046 0.717641 0.058404 -0.016443 -535141.000000 0 0 1
-24.094914 12.704971 31.990098 42.016039 -0.485239 0.705360 0.059388 -0.020106 19652.500000 0 0 1
-23.145214 13.090671 32.970300 42.356904 -0.514733 0.678695 0.042031 -0.010607 -75469.600000 0 0 1
-23.748114 13.207571 -33.500654 43.135909 -0.507554 2.460095 0.032509 -0.008444 -275344.000000 0 0 1
-24.233414 12.025871 -32.968304 42.647263 -0.460644 2.454426 0.044756 -0.017718 114607.000000 0 0 1
-24.957314 12.395871 -31.797184 42.279854 -0.460990 2.421985 0.034200 -0.019110 -304799.000000 0 0 1
-25.659714 11.232271 -31.141834 41.885543 -0.412611 2.409083 0.036191 -0.027477 -242707.000000 0 0 1
-24.802514 10.329471 -30.453894 40.611604 -0.394622 2.418679 0.023778 -0.029877 338962.000000 0 0 1
-24.230514 9.353871 -31.292914 40.667668 -0.368412 2.448821 0.021058 -0.024893 -130580.000000 0 0 1
-23.347614 8.353471 -30.523214 39.326304 -0.343595 2.459337 0.026954 -0.018210 -128598.000000 0 0 1
-24.038514 7.414671 -29.726574 38.942223 -0.299191 2.439281 0.026396 -0.018982 674238.000000 0 0 1
-23.121314 6.822771 -28.807294 37.563354 -0.286942 2.444791 0.028348 -0.013688 398872.000000 0 0 1
-23.926514 6.078771 -27.699874 37.104077 -0.248796 2.413651 0.033781 -0.012786 -19057.500000 0 0 1
-24.654514 4.999371 -28.195344 37.786455 -0.200064 2.413096 0.041797 -0.017975 14051.100000 0 0 1
-24.999114 4.118971 -27.126364 37.118207 -0.163298 2.390304 0.067388 -0.006644 -397689.000000 0 0 1
-25.837334 2.875371 -27.501524 37.844014 -0.110831 2.384313 0.065262 -0.005821 464805.000000 0 0 1
-27.193164 3.119971 -27.850494 39.049359 -0.114234 2.364867 0.072854 -0.005522 410124.000000 0 0 1
-27.385054 3.551571 -29.166634 40.165251 -0.128970 2.383525 0.059729 -0.010669 -290508.000000 0 0 1
-28.868134 3.624971 -29.625094 41.522955 -0.124916 2.365225 0.077725 -0.019826 33421.300000 0 0 1
-29.788084 4.443371 -28.925764 41.758512 -0.148074 2.336010 0.064285 -0.002706 1176470.000000 0 0 1
-31.051794 4.307771 -29.655494 43.153437 -0.137849 2.328438 0.091126 -0.019444 1173100.000000 0 0 1
-31.443194 5.632071 -30.361534 44.070596 -0.177239 2.330807 0.102782 -0.045004 -743029.000000 0 0 1
-30.741664 5.867271 -31.527764 44.423808 -0.188589 2.359875 0.098762 -0.034173 -157325.000000 0 0 1
-30.987394 7.153171 -32.050674 45.151214 -0.226867 2.360084 0.104253 -0.038003 -731949.000000 0 0 1
-30.452324 8.462671 -31.351384 44.518200 -0.271059 2.352145 0.078805 -0.044191 -498517.000000 0 0 1
-29.055014 8.646571 -31.390514 43.638531 -0.289247 2.373634 0.044453 -0.046631 -41287.000000 0 0 1
-28.403084 7.962871 -30.340134 42.316265 -0.273335 2.370264 0.034092 -0.049429 -787022.000000 0 0 1
-28.400064 8.707671 -28.988944 41.505976 -0.297508 2.343995 0.037050 -0.038865 -779884.000000 0 0 1
-29.638304 8.864471 -28.346984 41.959021 -0.290620 2.312557 0.038253 -0.040253 -65399.300000 0 0 1
-30.025144 7.706371 -27.575974 41.488936 -0.251241 2.297833 0.026310 -0.020136 -256185.000000 0 0 1
-31.465454 7.836371 -27.012554 42.203810 -0.244081 2.265360 0.044534 -0.013804 209104.000000 0 0 1
-31.573524 8.709571 -25.887484 41.748124 -0.269157 2.239650 0.015117 -0.008542 22324.400000 0 0 1
-31.474894 7.939171 -24.649354 40.758926 -0.247084 2.220260 0.023143 -0.010718 -249306.000000 0 0 1
-31.154584 8.770471 -23.370054 39.921031 -0.274413 2.196178 0.020485 -0.004639 -143779.000000 0 0 1
-32.146454 9.663771 -22.893954 40.631467 -0.292023 2.169357 0.026347 -0.008582 320182.000000 0 0 1
-31.470354 10.700871 -22.186554 39.964172 -0.327766 2.159353 0.026321 -0.005952 -95772.900000 0 0 1
-32.350944 11.652771 -21.362154 40.481012 -0.345732 2.126696 0.021308 0.001827 -190140.000000 0 0 1
-33.011494 10.937771 -20.325054 40.280286 -0.319948 2.099704 0.027359 -0.006770 111419.000000 0 0 1
-33.443144 11.705171 -19.161854 40.281901 -0.336677 2.066549 0.032488 0.001882 392423.000000 0 0 1
-32.430164 12.331571 -18.092654 39.129622 -0.363365 2.051471 0.032393 0.000681 82857.200000 0 0 1
-31.937204 11.525871 -17.039554 37.989171 -0.346345 2.035924 0.062896 -0.002247 67751.200000 0 0 1
-32.747594 11.153171 -15.947254 38.093478 -0.328258 2.002738 0.067435 -0.011374 -204059.000000 0 0 1
-33.342674 12.250971 -15.008654 38.562675 -0.352114 1.970561 0.060256 -0.006312 132637.000000 0 0 1
-34.215249 13.157971 -15.633154 39.852365 -0.367130 1.973902 0.035808 -0.004370 142014.000000 0 0 1
-35.016715 13.881571 -14.735154 40.447412 -0.377422 1.943682 0.020299 -0.006499 -71254.600000 0 0 1
-35.642986 15.191171 -15.264254 41.643626 -0.402890 1.946089 0.021699 -0.006613 204689.000000 0 0 1
-36.553144 14.974171 -16.336354 42.746165 -0.388802 1.962941 0.031734 -0.016521 287306.000000 0 0 1
37.061609 16.155271 -16.598354 43.704244 0.411069 1.960364 0.028040 -0.015723 -944434.000000 0 0 1
36.740759 16.167371 -18.062154 44.017140 0.414540 1.993627 0.024124 -0.012313 -98092.100000 0 0 1
35.668789 15.433271 -18.602554 43.087160 0.408360 2.017220 0.061316 -0.017218 328970.000000 0 0 1
34.384009 15.960671 -18.299354 42.093579 0.434590 2.020535 0.109022 -0.028971 -228515.000000 0 0 1
33.297009 14.934671 -18.729654 41.018717 0.421630 2.044980 0.117412 -0.034516 -210555.000000 0 0 1
33.147119 14.683471 -20.121054 41.463148 0.417000 2.077475 0.115853 -0.029434 846707.000000 0 0 1
32.015179 13.836471 -20.384854 40.397548 0.407940 2.099722 0.071982 -0.025391 602207.000000 0 0 1
32.336999 12.320471 -20.174954 40.056264 0.364023 2.098633 0.062713 -0.003199 24749.700000 0 0 1
32.221469 11.917171 -18.800354 39.162422 0.354250 2.071521 0.068879 -0.008000 -39.789600 0 0 1
33.022689 10.793471 -18.576354 39.396420 0.315904 2.061814 0.065300 -0.003676 -176115.000000 0 0 1
33.301399 10.545971 -17.087954 38.887001 0.306691 2.025756 0.053508 0.004304 -98496.000000 0 0 1
32.162859 10.011871 -16.434254 37.480285 0.301779 2.024700 0.067862 -0.001570 373358.000000 0 0 1
32.394639 9.863671 -15.058954 37.060447 0.295566 1.989236 0.033165 0.006189 -315463.000000 0 0 1
31.688689 10.987471 -14.201954 36.422424 0.333760 1.971345 0.058384 -0.001843 481306.000000 0 0 1
30.262139 10.962871 -14.168654 35.167205 0.347558 1.985473 0.059037 0.007037 632116.000000 0 0 1
29.831589 11.982171 -13.287754 34.785924 0.381937 1.962741 0.074833 0.003586 958002.000000 0 0 1
28.268529 12.154071 -13.155954 33.465061 0.406056 1.974824 0.093286 0.007951 761750.000000 0 0 1
27.644329 11.060471 -12.492054 32.289229 0.380592 1.968042 0.082754 0.004804 -55985.600000 0 0 1
26.277529 10.920071 -12.786954 31.197158 0.393854 1.993114 0.087719 0.008611 -247857.000000 0 0 1
25.852129 10.266471 -14.160954 31.213228 0.378024 2.041692 0.078566 -0.001633 -557457.000000 0 0 1
26.095029 8.855471 -14.280554 31.037141 0.327160 2.048917 0.075894 -0.000734 681244.000000 0 0 1
27.442329 8.550171 -14.608754 32.242868 0.302036 2.041019 0.078292 -0.005649 -35857.900000 0 0 1
28.161629 7.473871 -13.803354 32.240792 0.259412 2.013222 0.079423 -0.007749 -309495.000000 0 0 1
27.594929 6.182371 -13.930554 31.523993 0.220401 2.028516 0.082601 -0.017032 356103.000000 0 0 1
26.642929 5.917471 -12.934154 30.201895 0.218555 2.013359 0.095160 -0.018270 -214568.000000 0 0 1
26.017129 4.489271 -12.967754 29.414404 0.170868 2.027357 0.100195 -0.018982 73111.000000 0 0 1
25.234729 4.044071 -11.857654 28.173569 0.158907 2.005210 0.109459 -0.015539 571347.000000 0 0 1
24.934529 2.679971 -11.969054 27.787969 0.107069 2.016096 0.094926 -0.021397 -220770.000000 0 0 1
24.398929 2.063271 -10.637854 26.696980 0.084363 1.980641 0.095315 -0.027304 -155744.000000 0 0 1
25.414429 1.754871 -9.700154 27.259232 0.068941 1.934618 0.112999 -0.019787 523805.000000 0 0 1
24.927029 1.078671 -8.561254 26.378312 0.043246 1.901339 0.134037 -0.013666 -524664.000000 0 0 1
26.059029 0.760971 -7.575454 27.148472 0.029194 1.853588 0.174553 -0.008832 -192099.000000 0 0 1
25.788329 -0.385729 -6.854154 26.686441 -0.014956 1.830548 0.125658 -0.018411 307903.000000 0 0 1
26.296229 -1.515329 -7.533954 27.396137 -0.057562 1.849387 0.110372 -0.020283 -486521.000000 0 0 1
26.247229 -2.879729 -6.749954 27.253839 -0.109278 1.821071 0.113545 -0.026851 -461634.000000 0 0 1
27.411829 -2.890729 -5.954454 28.199649 -0.105067 1.783551 0.114074 -0.034887 421406.000000 0 0 1
27.655729 -4.164629 -5.366554 28.477770 -0.149465 1.760377 0.113315 -0.047092 1554360.000000 0 0 1
29.173329 -4.217129 -4.817354 29.867611 -0.143560 1.732794 0.138980 -0.044610 1382200.000000 0 0 1
30.068339 -4.402529 -5.855154 30.947861 -0.145384 1.761138 0.122671 -0.028633 126755.000000 0 0 1
31.385829 -4.744929 -5.410254 32.200240 -0.150044 1.739616 0.115518 -0.030674 647670.000000 0 0 1
32.357439 -4.830229 -6.613854 33.377807 -0.148183 1.770268 0.122600 -0.037462 -177195.000000 0 0 1
32.080899 -5.976829 -7.298254 33.439065 -0.184193 1.790823 0.110306 -0.045120 -127340.000000 0 0 1
32.750879 -6.047029 -8.513754 34.375436 -0.182581 1.821071 0.120738 -0.040860 -717054.000000 0 0 1
32.014519 -6.929029 -9.595554 34.132323 -0.213146 1.855766 0.101545 -0.038024 1096700.000000 0 0 1
30.688699 -6.532629 -9.937654 32.912436 -0.209737 1.877526 0.103943 -0.044791 894386.000000 0 0 1
29.640969 -6.716129 -9.019454 31.702428 -0.222820 1.859285 0.113162 -0.041684 -524988.000000 0 0 1
28.409929 -5.799029 -9.043954 30.373441 -0.201354 1.873140 0.118079 -0.035467 -614077.000000 0 0 1
27.532329 -6.011929 -10.085954 29.931570 -0.214984 1.914490 0.099585 -0.025170 -348856.000000 0 0 1
26.368729 -5.241529 -9.974854 28.675446 -0.196221 1.926077 0.095700 -0.029957 -268767.000000 0 0 1
25.134129 -6.036229 -9.531154 27.550016 -0.235697 1.924056 0.128690 -0.029200 -1292180.000000 0 0 1
25.100829 -6.340129 -8.147254 27.140866 -0.247411 1.875682 0.127160 -0.039708 600667.000000 0 0 1
23.933029 -7.042029 -7.740654 26.120830 -0.286163 1.871655 0.128490 -0.044833 133082.000000 0 0 1
22.765929 -6.086129 -7.363354 24.689015 -0.261226 1.873649 0.136248 -0.041850 -530615.000000 0 1 0
22.294829 -5.379829 -8.462154 24.446063 -0.236778 1.924267 0.140597 -0.036428 106361.000000 0 1 0
21.601329 -4.207729 -8.120754 23.457814 -0.192381 1.924298 0.104655 -0.038575 -251612.000000 0 1 0
21.528129 -3.180029 -9.247954 23.645244 -0.146655 1.972637 0.102034 -0.030540 658118.000000 0 1 0
22.823729 -2.709929 -9.690754 24.943476 -0.118180 1.969809 0.101852 -0.031197 1304820.000000 0 1 0
22.844529 -1.924229 -10.868554 25.371256 -0.084033 2.013496 0.113757 -0.027003 -104031.000000 0 0 1
24.178729 -2.026829 -11.659054 26.919370 -0.083631 2.018737 0.095489 -0.021961 572619.000000 0 0 1
25.266429 -1.456529 -10.907654 27.558861 -0.057583 1.977730 0.079178 -0.018673 1019230.000000 0 0 1
26.449929 -1.402029 -11.689054 28.951656 -0.052957 1.986402 0.079359 -0.010884 362190.000000 0 0 1
27.580229 -0.502129 -11.111754 29.738733 -0.018204 1.953733 0.080868 -0.003779 -81206.000000 0 0 1
28.815329 -0.556829 -11.784654 31.136976 -0.019322 1.958948 0.082659 -0.007940 -68510.400000 0 0 1
29.676139 0.484971 -11.448754 31.811670 0.016341 1.938948 0.098801 -0.007873 -195888.000000 0 0 1
29.581999 1.756571 -12.351054 32.104964 0.059310 1.965688 0.097495 -0.010669 -92336.600000 0 0 1
30.076529 1.475971 -13.704954 33.084767 0.049035 1.997901 0.075028 -0.014321 573577.000000 0 0 1
30.114879 2.644771 -14.476354 33.518138 0.087598 2.017390 0.078450 -0.015577 -126615.000000 0 0 1
30.406869 2.493471 -15.954654 34.428855 0.081820 2.052635 0.075815 -0.014625 -872716.000000 0 0 1
29.430969 1.821071 -16.623054 33.850024 0.061797 2.084125 0.067033 -0.007625 -780186.000000 0 0 1
29.846759 1.544671 -17.933354 34.854271 0.051707 2.111249 0.055305 -0.009624 -9205.940000 0 0 1
28.778429 0.959671 -18.908854 34.447985 0.033335 2.151856 0.031099 0.001635 -56281.400000 0 0 1
28.589529 -0.399129 -18.748054 34.190788 -0.013960 2.151170 0.049713 -0.007511 265331.000000 0 0 1
28.400229 -1.083029 -19.973854 34.737599 -0.038116 2.183391 0.037856 -0.008080 -247609.000000 0 0 1
28.213229 -2.599429 -19.882054 34.612705 -0.091876 2.182686 0.042135 -0.014049 241517.000000 0 0 1
27.023129 -3.079129 -19.248454 33.320167 -0.113455 2.186682 0.030449 -0.012441 652361.000000 0 0 1
26.881929 -4.531029 -19.138554 33.308446 -0.166983 2.182894 0.037374 -0.013868 -266585.000000 0 0 1
27.759129 -5.180429 -18.036154 33.506849 -0.184498 2.139194 0.054971 -0.013030 -717661.000000 0 0 1
29.118629 -5.247829 -18.304654 34.792163 -0.178308 2.124821 0.054196 -0.015798 -794072.000000 0 0 1
29.772169 -5.691829 -17.148854 34.826170 -0.188900 2.085656 0.054007 -0.010345 -416131.000000 0 0 1
31.288339 -5.437529 -17.136754 36.085942 -0.172069 2.065632 0.068213 -0.007577 -117661.000000 0 0 1
31.933679 -6.131229 -18.201354 37.264475 -0.189690 2.081094 0.060261 -0.015741 35547.400000 0 0 1
33.257749 -5.713529 -18.476454 38.472089 -0.170135 2.071743 0.062942 -0.004743 -51464.400000 0 0 1
34.004349 -6.856429 -19.142154 39.619798 -0.198966 2.075041 0.059892 0.002558 -450526.000000 0 0 1
34.494789 -7.829829 -18.238354 39.797415 -0.223204 2.046855 0.061390 -0.008294 -19597.500000 0 0 1
34.814139 -9.072429 -18.834254 40.608649 -0.254926 2.053075 0.043620 -0.000787 -14291.100000 0 0 1
35.511789 -10.079429 -17.881454 41.017416 -0.276560 2.021888 0.054202 -0.008744 -346486.000000 0 0 1
34.641919 -10.444129 -16.803254 39.893505 -0.292822 2.005567 0.036894 -0.011123 508089.000000 0 0 1
35.263589 -11.255729 -15.825354 40.257347 -0.308967 1.974802 0.057000 -0.026545 -109027.000000 0 0 1
36.403739 -10.592729 -14.963054 40.759429 -0.283160 1.946693 0.081188 -0.028885 25879.200000 0 0 1
36.940229 -11.356529 -13.857954 41.055988 -0.298259 1.915096 0.071408 -0.026282 648681.000000 0 0 1
-36.733654 -12.591029 -14.187054 41.342084 0.330215 1.921078 0.070097 -0.016841 -827156.000000 0 0 1
-35.303750 -12.483929 -14.714454 40.233300 0.339892 1.945211 0.094543 -0.017290 -701051.000000 0 0 1
-35.239797 -12.100229 -16.060854 40.573512 0.330755 1.977785 0.092167 -0.019346 343354.000000 0 0 1
-33.939234 -12.148329 -16.648654 39.706816 0.343734 2.003459 0.116325 -0.015897 195461.000000 0 0 1
-33.911954 -11.425129 -18.046454 40.077783 0.324962 2.037882 0.137522 -0.021666 243528.000000 0 0 1
-33.971234 -9.993129 -18.070154 39.754721 0.286095 2.042653 0.126253 -0.022929 -1284560.000000 0 0 1
-35.270469 -9.615729 -17.916454 40.712008 0.266160 2.026482 0.104085 -0.021458 -1991620.000000 0 0 1
-35.405301 -8.099229 -17.704954 40.405424 0.224888 2.024372 0.132699 -0.020365 72769.100000 0 0 1
-36.705104 -7.568529 -17.495654 41.359947 0.203348 2.007560 0.112098 -0.011061 138313.000000 0 0 1
-36.699024 -6.136829 -17.560054 41.144071 0.165687 2.011741 0.113030 -0.013849 -260138.000000 0 0 1
25.506586 28.107371 -27.587764 46.922222 0.833870 2.199314 0.059125 0.018613 70379.500000 0 0 1
25.864886 27.362171 -26.461424 46.020514 0.813521 2.183391 0.063190 0.019216 -366228.000000 0 0 1
26.899586 26.463871 -26.710104 46.231524 0.777233 2.186761 0.066459 0.007510 -407909.000000 0 0 1
27.117786 25.408071 -25.632794 45.144042 0.752860 2.174627 0.070602 0.000522 -148122.000000 0 0 1
27.627286 25.905071 -24.405354 45.055088 0.753238 2.143228 0.067450 0.002956 363577.000000 0 0 1
27.809286 24.822271 -23.514954 44.073286 0.728706 2.133579 0.079246 -0.002553 -100425.000000 0 0 1
28.421586 25.216371 -22.165054 43.987970 0.725713 2.098892 0.080145 -0.004727 389345.000000 0 0 1
27.550886 25.954271 -21.303854 43.434199 0.755567 2.083443 0.069025 -0.005510 661960.000000 0 0 1
28.393886 26.600171 -20.381954 43.922726 0.752793 2.053348 0.047437 0.000916 312906.000000 0 0 1
27.569186 27.600571 -19.568854 43.643918 0.785967 2.035743 0.054291 0.000118 -101390.000000 0 0 1
26.823686 27.063071 -18.500854 42.358016 0.789841 2.022805 0.064105 -0.001656 184879.000000 0 0 1
25.972686 28.080671 -17.990154 42.269967 0.824377 2.010423 0.059036 -0.014314 125702.000000 0 0 1
24.828286 27.619671 -17.061954 40.870531 0.838570 2.001448 0.063491 -0.021515 -155550.000000 0 0 1
23.793486 26.904971 -17.681154 40.032869 0.846694 2.028251 0.078057 -0.020366 -552981.000000 0 0 1
22.620786 27.080271 -16.940754 39.141157 0.874885 2.018406 0.060671 -0.011773 -514850.000000 0 0 1
21.465486 26.248771 -17.501254 38.158340 0.885313 2.047270 0.055754 -0.019553 -492451.000000 0 0 1
20.897486 26.564371 -18.763454 38.657961 0.904234 2.077584 0.057348 -0.013247 -271241.000000 0 0 1
20.061986 25.529571 -19.196254 37.719205 0.904754 2.104732 0.053313 -0.007232 -151123.000000 0 0 1
19.317986 25.912171 -20.480154 38.263062 0.930170 2.135595 0.042389 0.004555 -451665.000000 0 0 1
18.229086 26.720371 -20.208154 38.139838 0.972105 2.129213 0.028665 0.003246 -924784.000000 0 0 1
17.359686 26.842471 -21.316954 38.422512 0.996727 2.158923 0.024921 -0.000471 -360108.000000 0 0 1
16.319786 27.893871 -20.947554 38.512381 1.041429 2.145895 0.030969 0.003064 -724902.000000 0 0 1
15.521486 27.562471 -19.846554 37.342898 1.057922 2.131129 0.042812 0.002871 -292693.000000 0 0 1
14.576286 28.597871 -19.617554 37.618543 1.099420 2.119388 0.033572 -0.006017 162981.000000 0 0 1
14.028286 28.475371 -18.184454 36.582973 1.113049 2.091020 0.034886 -0.002746 -208203.000000 0 0 1
13.270986 27.344971 -17.949954 35.299679 1.118964 2.104240 0.041318 -0.000848 -687776.000000 0 0 1
12.575386 27.362571 -16.757454 34.462485 1.140001 2.078592 0.052385 -0.003812 -465139.000000 0 0 1
11.752386 26.107171 -16.620254 33.104921 1.147810 2.096761 0.073394 -0.010205 -206831.000000 0 0 1
12.615886 24.976171 -16.590954 32.530439 1.103064 2.105996 0.064894 -0.013253 153509.000000 0 0 1
11.896586 23.854571 -16.189854 31.187829 1.108179 2.116603 0.085840 -0.014261 203758.000000 0 0 1
12.869886 22.671971 -16.253454 30.721767 1.054499 2.128281 0.075486 -0.018324 266856.000000 0 0 1
13.371786 22.451171 -17.568354 31.488201 1.033623 2.162691 0.076832 -0.012407 -542214.000000 0 0 1
14.239386 21.366071 -17.711654 31.192496 0.982945 2.174649 0.074704 -0.009163 -374488.000000 0 0 1
13.551386 19.994971 -17.819454 30.016193 0.975167 2.206397 0.090361 -0.016788 -2157.770000 0 0 1
13.282186 19.387471 -16.531254 28.732783 0.970147 2.183822 0.105855 -0.027464 -137639.000000 0 0 1
12.751686 18.101171 -16.693854 27.729815 0.957078 2.216823 0.085868 -0.025631 -797863.000000 0 0 1
13.746286 16.984871 -16.806954 27.566645 0.890395 2.226459 0.095206 -0.024385 -876800.000000 0 0 1
14.418786 16.761571 -15.585454 27.051026 0.860394 2.184807 0.083512 -0.021394 -252773.000000 0 0 1
15.484486 15.903271 -15.891854 27.298981 0.798740 2.192156 0.096762 -0.025424 -719795.000000 0 0 1
16.037586 15.092471 -14.675554 26.464291 0.755047 2.158608 0.136226 -0.015571 -913051.000000 0 0 1
16.663986 15.870771 -13.641754 26.751958 0.761022 2.105905 0.109835 -0.019356 839267.000000 0 0 1
17.958286 16.436271 -13.841454 28.004230 0.741175 2.087783 0.083202 -0.016978 229652.000000 0 0 1
19.061886 15.438771 -14.327654 28.407619 0.680766 2.099436 0.082485 -0.024801 -1119540.000000 0 0 1
19.461086 14.440571 -13.434254 27.708178 0.638376 2.076986 0.115283 -0.026694 890713.000000 0 0 1
20.505686 14.899671 -12.527754 28.274157 0.628364 2.029829 0.105925 -0.016802 60300.600000 0 0 1
21.180186 13.747871 -11.821654 27.881100 0.575736 2.008656 0.123498 -0.030256 -820938.000000 0 0 1
20.423986 13.083471 -10.842954 26.568516 0.569734 1.991182 0.190393 -0.036394 -22635.600000 0 0 1
21.107086 12.086771 -10.105154 26.338436 0.520059 1.964559 0.199163 -0.029053 -294639.000000 0 0 1
21.264486 10.725871 -10.857954 26.174755 0.467164 1.998547 0.163621 -0.028003 -249499.000000 0 0 1
22.018986 10.771771 -12.068354 27.322371 0.454973 2.028292 0.124908 -0.010801 561051.000000 0 0 1
21.969586 9.551471 -12.883454 27.200674 0.410107 2.064221 0.112383 -0.014475 -323913.000000 0 0 1
22.560986 8.255071 -12.327854 27.002227 0.350769 2.044909 0.104546 0.003910 -289089.000000 0 0 1
21.746786 7.607471 -11.343554 25.680197 0.336515 2.028316 0.113684 -0.007341 774786.000000 0 0 1
22.300886 6.405471 -10.823554 25.602908 0.279700 2.007271 0.112824 0.001437 -911881.000000 0 0 1
22.269586 5.153271 -11.736054 25.694856 0.227401 2.045132 0.113085 0.000176 -1213490.000000 0 0 1
21.077086 4.469671 -11.885654 24.606712 0.208967 2.074902 0.099350 -0.015241 322223.000000 0 1 0
20.089586 5.153171 -12.712554 24.326028 0.251096 2.120683 0.048667 -0.021608 190784.000000 0 1 0
19.023886 4.131971 -13.119454 23.475551 0.213877 2.163802 0.042530 -0.031663 -119713.000000 0 1 0
19.749786 3.127171 -13.840154 24.318370 0.157036 2.176236 0.058229 -0.034045 837562.000000 0 1 0
19.239886 1.823671 -13.734654 23.709485 0.094504 2.188653 0.076866 -0.031228 -234590.000000 0 1 0
20.264986 0.811571 -14.314054 24.823788 0.040027 2.185390 0.097476 -0.026850 -129667.000000 0 1 0
21.367086 0.467471 -13.469654 25.262669 0.021875 2.133156 0.120013 -0.026250 647579.000000 0 0 1
22.480086 0.232371 -14.321354 26.655383 0.010336 2.138003 0.085327 -0.031191 -161924.000000 0 0 1
22.697186 -1.188229 -14.845454 27.147037 -0.052304 2.149398 0.077642 -0.025559 -943658.000000 0 0 1
21.743886 -1.648129 -15.764354 26.907764 -0.075653 2.196745 0.084371 -0.024486 -41619.500000 0 0 1
22.220286 -2.764429 -16.515554 27.823492 -0.123774 2.206300 0.069926 -0.021745 -28928.800000 0 0 1
21.219186 -3.384729 -17.553854 27.746135 -0.158180 2.255779 0.080133 -0.021060 458270.000000 0 0 1
20.208886 -4.134629 -16.870854 26.648076 -0.201810 2.256346 0.095432 -0.020538 559289.000000 0 0 1
19.466686 -4.984929 -17.702754 26.780382 -0.250688 2.292993 0.081922 -0.017159 41434.800000 0 0 1
18.809386 -6.196929 -16.979054 26.086073 -0.318260 2.279547 0.084703 -0.015879 219794.000000 0 0 1
19.801886 -7.136829 -16.562754 26.783835 -0.345920 2.237484 0.083988 -0.007749 752921.000000 0 0 1
19.236786 -8.226529 -15.865554 26.257294 -0.404109 2.219601 0.089076 -0.003058 -536375.000000 0 0 1
20.252686 -9.164229 -15.266954 26.967281 -0.424926 2.172598 0.113802 0.002490 -296367.000000 0 0 1
20.990686 -9.925529 -16.209354 28.317277 -0.441696 2.180250 0.094562 -0.004139 1398190.000000 0 0 1
22.130786 -10.621629 -15.632654 29.102759 -0.447478 2.137855 0.085270 -0.008912 948201.000000 0 0 1
22.768486 -11.768729 -16.537654 30.502474 -0.477066 2.143819 0.070290 -0.011304 384314.000000 0 0 1
23.508786 -11.235229 -17.647654 31.469558 -0.445825 2.166130 0.058168 -0.003665 202482.000000 0 0 1
23.891786 -12.242329 -18.521554 32.615027 -0.473524 2.174729 0.048393 -0.003182 -236189.000000 0 0 1
22.942186 -12.439729 -19.740554 32.722778 -0.496851 2.218387 0.063359 -0.010475 971773.000000 0 0 1
21.597386 -12.801329 -19.400454 31.728516 -0.535054 2.228690 0.079284 -0.012471 625435.000000 0 0 1
21.356086 -14.182029 -19.270054 32.070973 -0.586206 2.215369 0.058087 -0.003392 75206.100000 0 0 1
19.842786 -14.522529 -19.420654 31.333717 -0.631803 2.239285 0.068403 -0.017038 383726.000000 0 0 1
19.329886 -14.132929 -20.675554 31.636414 -0.631324 2.283044 0.072394 -0.012567 -226223.000000 0 0 1
17.922986 -14.154129 -20.565054 30.732625 -0.668441 2.303875 0.092403 -0.019829 104953.000000 0 0 1
17.170286 -13.354729 -21.678254 30.710164 -0.661045 2.354487 0.086313 -0.020929 -65722.300000 0 0 1
17.159086 -14.011729 -22.911354 31.869938 -0.684768 2.373017 0.078207 -0.017638 221956.000000 0 0 1
16.468086 -13.294329 -23.897154 31.921952 -0.679163 2.416762 0.090657 -0.024806 -383493.000000 0 0 1
16.290686 -14.021429 -25.236114 33.148882 -0.710675 2.436106 0.089496 -0.032486 -269217.000000 0 0 1
15.311386 -15.056429 -25.289434 33.176649 -0.777003 2.437603 0.088429 -0.032403 332465.000000 0 0 1
15.251686 -15.755129 -26.517004 34.409149 -0.801633 2.450638 0.093406 -0.037800 -423959.000000 0 0 1
16.204786 -16.950529 -26.659944 35.505889 -0.807887 2.420159 0.085038 -0.034273 47818.900000 0 0 1
17.576386 -16.582829 -26.768774 36.062263 -0.756320 2.407283 0.095095 -0.025571 -79744.400000 0 0 1
18.356286 -17.652329 -27.178824 37.245757 -0.765851 2.388703 0.084455 -0.023986 -664070.000000 0 0 1
19.830586 -17.273729 -27.196844 37.832554 -0.716597 2.372978 0.053463 -0.012478 -563818.000000 0 0 1
20.384586 -16.928829 -25.958894 37.094215 -0.693047 2.345927 0.053031 -0.009497 -991973.000000 0 0 1
21.746386 -16.694229 -26.096344 37.849990 -0.654720 2.331550 0.049522 -0.005458 -496138.000000 0 0 1
22.485886 -16.407729 -24.741454 37.242022 -0.630376 2.297410 0.058354 0.003632 112484.000000 0 0 1
22.480586 -15.067229 -24.267954 36.350127 -0.590468 2.301799 0.066522 -0.006098 -283430.000000 0 0 1
21.274086 -14.721029 -23.640954 35.045544 -0.605316 2.311189 0.080524 -0.012101 -79936.200000 0 0 1
21.262286 -13.313129 -23.025054 34.051099 -0.559417 2.313377 0.085703 -0.016305 -97460.900000 0 0 1
21.501286 -12.277529 -23.956354 34.452139 -0.518833 2.339706 0.105733 -0.023303 181832.000000 0 0 1
21.402786 -11.012129 -23.245254 33.461740 -0.475195 2.338773 0.113108 -0.024216 -199341.000000 0 0 1
21.505186 -9.764529 -24.154554 33.782562 -0.426221 2.367421 0.116375 -0.026459 -63254.700000 0 0 1
21.093786 -8.555129 -23.556554 32.757431 -0.385304 2.373333 0.120896 -0.031523 -103944.000000 0 0 1
20.662486 -7.660229 -24.538954 32.981475 -0.355023 2.409867 0.093606 -0.029179 -188172.000000 0 0 1
19.827186 -6.484629 -23.997054 31.796640 -0.316092 2.425999 0.085430 -0.032385 -129958.000000 0 0 1
18.571686 -6.906129 -23.511354 30.747128 -0.356018 2.441323 0.089613 -0.028640 -169496.000000 0 0 1
17.931986 -6.052229 -22.594754 29.473861 -0.325505 2.444331 0.076396 -0.022139 -29708.500000 0 0 1
18.532486 -6.126629 -21.160554 28.788151 -0.319278 2.396528 0.091692 -0.021917 -462731.000000 0 0 1
18.334786 -7.381829 -20.440554 28.433642 -0.382757 2.372995 0.095163 -0.022108 97393.500000 0 0 1
19.083686 -8.507729 -20.791754 29.476525 -0.419365 2.353736 0.093742 -0.022904 -468060.000000 0 0 1
18.856686 -9.617229 -19.716554 28.927637 -0.471629 2.320719 0.086815 -0.017623 -669871.000000 0 0 1
17.485386 -9.832129 -19.592754 28.040783 -0.512242 2.344408 0.096522 -0.010628 -891352.000000 0 0 1
17.175186 -10.948529 -18.817454 27.730018 -0.567511 2.316645 0.101943 -0.011690 140165.000000 0 0 1
15.641986 -11.258529 -18.721954 26.868899 -0.623867 2.341707 0.119601 -0.021442 868802.000000 0 0 1
14.804986 -10.433029 -17.903754 25.467236 -0.613871 2.350419 0.117661 -0.013686 319203.000000 0 0 1
14.643686 -9.186329 -18.522054 25.335601 -0.560268 2.390683 0.114988 -0.011355 -946963.000000 0 0 1
13.775386 -8.176729 -17.748254 23.908590 -0.535682 2.407349 0.137892 0.003472 1262940.000000 0 1 0
12.391486 -8.121329 -18.182654 23.454505 -0.580159 2.457877 0.113116 -0.010793 1155150.000000 0 1 0
11.749386 -6.948929 -17.689454 22.343958 -0.534094 2.484364 0.107998 -0.010453 1162820.000000 0 1 0
10.187886 -6.972229 -17.928354 21.767657 -0.600155 2.538567 0.101295 -0.011658 999361.000000 0 1 0
9.728686 -6.472629 -19.129854 22.416368 -0.587065 2.593246 0.091842 -0.023985 -194873.000000 0 1 0
8.330386 -6.320229 -19.098154 21.773381 -0.649043 2.640656 0.080940 -0.038243 -191558.000000 0 1 0
7.745286 -5.874629 -20.433554 22.628099 -0.648905 2.697537 0.089691 -0.051050 -159236.000000 0 1 0
7.809486 -6.887429 -21.424254 23.820651 -0.722742 2.689188 0.087931 -0.041864 200157.000000 0 1 0
7.127686 -6.442929 -22.581054 24.540156 -0.734982 2.739304 0.096590 -0.042632 47267.000000 0 1 0
7.076686 -7.463629 -23.742754 25.874768 -0.812004 2.732803 0.092614 -0.032039 315847.000000 0 0 1
6.154886 -8.518829 -23.408154 25.659204 -0.945126 2.719592 0.088975 -0.035074 509818.000000 0 0 1
6.145286 -9.394929 -24.502254 26.951617 -0.991540 2.711963 0.075152 -0.018383 148004.000000 0 0 1
5.305486 -10.698029 -24.274754 27.052905 -1.110409 2.684426 0.063920 -0.016028 434787.000000 0 0 1
5.980586 -11.766329 -23.606954 27.046297 -1.100547 2.631778 0.060850 -0.020071 129151.000000 0 0 1
5.161886 -12.915529 -23.617654 27.408932 -1.190579 2.609362 0.061581 -0.019806 -299812.000000 0 0 1
5.776886 -14.053229 -22.791654 27.392064 -1.180782 2.553595 0.076442 -0.013696 801752.000000 0 0 1
6.903886 -14.812929 -23.317454 28.474377 -1.134658 2.530275 0.074559 -0.009481 908200.000000 0 0 1
8.200486 -14.269529 -23.450554 28.649536 -1.049199 2.529647 0.081912 -0.013502 265066.000000 0 0 1
8.864986 -13.845629 -22.087354 27.534354 -1.001289 2.501724 0.082288 -0.008572 -605445.000000 0 0 1
9.330486 -14.878029 -21.192954 27.523717 -1.010665 2.449620 0.084403 -0.006382 -281571.000000 0 0 1
8.366486 -15.460729 -20.408754 26.936026 -1.074778 2.430540 0.079961 -0.004731 -578979.000000 0 0 1
8.996586 -15.758129 -19.056754 26.313819 -1.052036 2.380686 0.085651 -0.011060 969035.000000 0 0 1
10.069586 -16.739829 -19.067954 27.298449 -1.029249 2.344095 0.109459 -0.014804 663284.000000 0 0 1
10.554386 -17.039529 -17.759454 26.779448 -1.016230 2.295849 0.107917 -0.017110 125029.000000 0 0 1
9.506886 -17.724829 -16.799154 26.206145 -1.078486 2.266647 0.088382 -0.019029 -239606.000000 0 0 1
9.315186 -19.116729 -16.955154 27.197413 -1.117377 2.243893 0.087443 -0.026156 -11034.300000 0 0 1
8.421586 -19.453129 -17.983854 27.798675 -1.162239 2.274351 0.096705 -0.018623 -533484.000000 0 0 1
6.910086 -19.331329 -17.759054 27.144679 -1.227495 2.283970 0.091472 -0.011656 -551134.000000 0 0 1
6.546186 -17.969129 -17.526654 25.940812 -1.221438 2.312629 0.092110 -0.008668 -934194.000000 0 0 1
5.170486 -17.809929 -17.675654 25.619451 -1.288249 2.332190 0.077616 -0.005129 -510039.000000 0 0 1
4.714486 -16.387229 -17.286854 24.281742 -1.290669 2.363036 0.049931 0.007850 5153.560000 0 1 0
4.665786 -16.144029 -15.898354 23.133458 -1.289452 2.328486 0.020647 0.007651 2912.140000 0 1 0
4.446286 -14.755429 -15.688154 21.991142 -1.278118 2.365113 0.014792 0.009848 -19546.400000 0 1 0
10.384686 29.616771 -18.151454 36.255622 1.233556 2.095148 0.051166 -0.007798 -7700.840000 0 0 1
9.420086 29.506571 -19.221054 36.453047 1.261770 2.126195 0.077885 -0.016174 1076130.000000 0 0 1
8.346886 28.670071 -18.687354 35.225852 1.287491 2.129988 0.065265 -0.013438 414062.000000 0 0 1
7.340186 28.249471 -19.737754 35.234782 1.316583 2.165397 0.087752 -0.010398 -378071.000000 0 0 1
6.507386 29.300471 -20.162754 36.157991 1.352252 2.162323 0.088031 -0.012329 -469882.000000 0 0 1
5.726786 28.856671 -21.222054 36.275048 1.374886 2.195716 0.095055 -0.019301 -277823.000000 0 0 1
4.576486 29.810071 -21.592954 37.092320 1.418464 2.192156 0.076017 -0.020670 -77396.100000 0 0 1
3.633086 29.926071 -20.552054 36.485010 1.449986 2.169172 0.077344 -0.025479 9301.860000 0 0 1
2.566486 30.785471 -20.907154 37.302026 1.487622 2.165765 0.085024 -0.041296 -1264150.000000 0 0 1
1.199286 30.457171 -20.342254 36.645393 1.531441 2.159293 0.093681 -0.043364 -866403.000000 0 0 1
0.658886 29.227871 -20.750754 35.851030 1.548257 2.188059 0.103144 -0.049586 -33431.100000 0 0 1
0.182886 29.264271 -22.077054 36.658250 1.564547 2.217100 0.133925 -0.066787 -1138420.000000 0 0 1
-0.653214 28.056671 -22.419754 35.920034 -1.547519 2.244849 0.122457 -0.059617 -663083.000000 0 0 1
-1.802014 27.866771 -21.668454 35.345807 -1.506221 2.230701 0.135914 -0.064654 -394253.000000 0 0 1
-2.385114 26.560971 -21.875954 34.492482 -1.481239 2.257801 0.147579 -0.066557 -17181.000000 0 0 1
-3.421614 26.195171 -20.802454 33.624939 -1.440912 2.237834 0.140775 -0.073013 -791299.000000 0 0 1
-4.650014 26.791671 -21.062054 34.395151 -1.398946 2.229833 0.127361 -0.071738 -1002850.000000 0 0 1
-5.603714 26.155071 -20.264554 33.558032 -1.359737 2.219139 0.113555 -0.071104 118807.000000 0 0 1
-7.093814 26.470671 -20.589254 34.277339 -1.308961 2.215131 0.106514 -0.072631 528102.000000 0 0 1
-7.999114 25.994171 -19.613854 33.531866 -1.272265 2.195592 0.095815 -0.061620 108263.000000 0 0 1
-8.738514 26.997271 -18.892754 34.090327 -1.257758 2.158194 0.095062 -0.065796 390310.000000 0 0 1
-9.962214 26.454271 -18.118754 33.576233 -1.210639 2.140794 0.118876 -0.047766 362904.000000 0 0 1
-9.572414 25.570671 -17.047954 32.188866 -1.212594 2.128952 0.120398 -0.055750 -536223.000000 0 0 1
-10.724614 24.957271 -16.554054 31.810681 -1.164935 2.118107 0.091858 -0.042424 -211771.000000 0 0 1
-10.526314 24.223171 -15.172754 30.459445 -1.160860 2.092237 0.070820 -0.029793 411975.000000 0 0 1
-9.650114 23.091871 -15.314854 29.341165 -1.174954 2.119941 0.073477 -0.032551 257206.000000 0 0 1
-9.872214 22.417271 -14.115354 28.270795 -1.155968 2.093577 0.073249 -0.034136 276268.000000 0 0 1
-9.246514 20.959471 -14.091554 26.895526 -1.155317 2.122263 0.077261 -0.022001 -14428.400000 0 0 1
-10.060714 19.898371 -14.541454 26.619861 -1.102675 2.148693 0.071700 -0.017091 -432202.000000 0 0 1
-10.432214 19.906571 -15.937754 27.552036 -1.088087 2.187636 0.085731 -0.010624 302307.000000 0 0 1
-9.336514 19.774571 -17.045754 27.726556 -1.129678 2.232904 0.093988 -0.019363 238402.000000 0 0 1
-8.622514 18.574371 -17.106154 26.682869 -1.136184 2.266716 0.090194 -0.020314 136477.000000 0 0 1
-7.587414 18.597871 -18.083054 27.026774 -1.183436 2.303766 0.098252 -0.023334 552460.000000 0 0 1
-6.960214 17.169271 -18.355954 26.080059 -1.185654 2.351572 0.078222 -0.022983 -222812.000000 0 0 1
-7.865614 16.260171 -18.904654 26.146644 -1.120245 2.378966 0.078771 -0.024480 -464669.000000 0 0 1
-7.421514 15.368471 -19.945254 26.250370 -1.120918 2.433815 0.070722 -0.027136 35214.500000 0 0 1
-6.222014 14.449671 -19.608654 25.139725 -1.164193 2.465441 0.057696 -0.022324 -131671.000000 0 0 1
-6.498514 13.391671 -18.686854 23.890711 -1.119006 2.468955 0.044766 -0.016217 778550.000000 0 1 0
-5.313414 12.779771 -18.138754 22.815988 -1.176772 2.489807 0.048439 -0.009759 1019630.000000 0 1 0
-4.418114 13.441271 -17.065854 22.168240 -1.253224 2.449377 0.029282 0.001280 7446.990000 0 1 0
-3.769014 14.571671 -17.571554 23.136520 -1.317690 2.433298 0.037569 -0.010607 -675948.000000 0 1 0
-3.223614 15.289071 -16.508154 22.730300 -1.362996 2.383665 0.027540 0.002622 103386.000000 0 1 0
-2.538114 16.685171 -16.773554 23.794728 -1.419836 2.353117 0.057746 -0.006948 553911.000000 0 1 0
-3.445514 17.785171 -16.792754 24.701831 -1.379437 2.318311 0.065224 -0.020148 21643.900000 0 1 0
-2.762614 18.995671 -16.821154 25.522907 -1.426375 2.290366 0.072897 -0.026160 294685.000000 0 0 1
-3.672514 20.124971 -17.396854 26.854280 -1.390297 2.275521 0.099563 -0.026311 509842.000000 0 0 1
-3.672814 19.892371 -18.778554 27.601270 -1.388218 2.319038 0.099475 -0.028120 -339452.000000 0 0 1
-4.299514 20.856471 -19.571754 28.922859 -1.367497 2.314051 0.133343 -0.037242 -93837.900000 0 0 1
-3.424114 22.098671 -19.900954 29.935327 -1.417072 2.298020 0.124853 -0.040870 141814.000000 0 0 1
-2.309014 21.775271 -20.741254 30.161127 -1.465153 2.329087 0.144806 -0.044597 -90564.000000 0 0 1
-1.353414 22.793271 -20.726554 30.837558 -1.511488 2.307865 0.139053 -0.047537 -136991.000000 0 0 1
-0.203114 22.420971 -19.756454 29.884087 -1.561737 2.293084 0.134080 -0.047933 -449434.000000 0 0 1
-0.459314 22.633871 -18.382754 29.162111 -1.550506 2.252819 0.127047 -0.040950 -413056.000000 0 0 1
0.650186 22.115071 -17.701454 28.334442 1.541405 2.245586 0.115805 -0.036633 47612.400000 0 0 1
0.627386 22.221271 -16.128054 27.464388 1.542570 2.198435 0.117199 -0.035665 -278801.000000 0 0 1
-0.286014 21.405471 -15.476954 26.416133 -1.557435 2.196774 0.091867 -0.022044 -399868.000000 0 0 1
0.094086 21.329071 -14.113654 25.576031 1.566385 2.155355 0.087260 -0.023819 356918.000000 0 0 1
-0.691014 20.238571 -13.350054 24.254921 -1.536666 2.153647 0.073815 -0.016771 76781.300000 0 1 0
-0.473614 18.905971 -13.701254 23.353467 -1.545751 2.197762 0.054901 -0.010037 -75935.900000 0 1 0
-1.480314 18.002271 -13.292954 22.427120 -1.488752 2.205225 0.035238 -0.000585 85670.300000 0 1 0
-0.975414 16.548471 -13.409554 21.321807 -1.511922 2.250950 0.018345 0.011940 -575251.000000 0 1 0
-0.117814 16.174671 -12.378154 20.367930 -1.563513 2.223992 0.019018 0.003262 -45032.800000 0 1 0
0.036486 14.716271 -12.208354 19.121032 1.568317 2.263315 0.013538 0.000067 200954.000000 0 1 0
0.657086 13.850071 -13.351354 19.248763 1.523389 2.337301 0.006015 -0.006695 -428816.000000 0 1 0
-0.158514 13.750971 -14.487854 19.975291 -1.559269 2.382250 0.011189 -0.009594 -367569.000000 0 1 0
0.291086 12.855671 -15.425554 20.082349 1.548158 2.446688 0.009266 -0.007612 -631822.000000 0 1 0
-0.502714 12.766371 -16.739254 21.057910 -1.531439 2.489664 0.011770 -0.001601 -205800.000000 0 1 0
-0.448714 13.957771 -17.497954 22.387477 -1.538659 2.468016 0.021009 -0.003832 -220110.000000 0 1 0
-0.600114 13.767371 -18.847054 23.347636 -1.527234 2.510251 0.035567 -0.008204 -331386.000000 0 1 0
-0.938214 15.059571 -19.630154 24.759117 -1.508577 2.486260 0.056019 -0.008137 -10594.300000 0 1 0
-0.001714 16.137171 -19.621654 25.405070 -1.570690 2.453332 0.056676 -0.019909 -313411.000000 0 0 1
-0.516714 17.310571 -20.094754 26.527759 -1.540956 2.430270 0.104657 -0.034699 -352239.000000 0 0 1
0.562186 18.386271 -20.286854 27.384803 1.540229 2.405067 0.133871 -0.042964 -226937.000000 0 0 1
1.267686 18.161971 -21.457154 28.140250 1.501110 2.437976 0.135303 -0.051504 -392777.000000 0 0 1
2.070786 19.278471 -21.780554 29.160592 1.463792 2.414210 0.144166 -0.045157 -113542.000000 0 0 1
2.631186 19.058571 -23.195854 30.136355 1.433606 2.449162 0.157192 -0.058908 -602162.000000 0 0 1
3.698286 18.158671 -23.140254 29.646012 1.369879 2.466345 0.124197 -0.052584 -540748.000000 0 0 1
4.207886 18.114771 -24.476754 30.740246 1.342554 2.491858 0.127005 -0.068092 -13667.500000 0 0 1
5.168486 16.917771 -24.610354 30.308311 1.274296 2.518367 0.070550 -0.053990 -730945.000000 0 0 1
6.435686 17.145671 -24.016854 30.202671 1.211716 2.490117 0.066226 -0.040314 -492337.000000 0 0 1
7.341086 16.130371 -24.248754 30.034688 1.143701 2.510458 0.062355 -0.038418 -175065.000000 0 0 1
7.833386 15.955871 -25.765594 31.302038 1.114422 2.537695 0.061268 -0.042540 -1519910.000000 0 0 1
8.701786 17.004771 -26.181094 32.408841 1.097812 2.511271 0.053456 -0.034647 257502.000000 0 0 1
9.013386 17.018271 -27.572024 33.631521 1.083727 2.531905 0.070151 -0.039501 118814.000000 0 0 1
9.520686 15.715971 -28.228284 33.681912 1.026125 2.564559 0.088662 -0.046204 -1258820.000000 0 0 1
10.668886 15.203771 -27.676364 33.331080 0.958913 2.550527 0.083007 -0.042414 -832138.000000 0 0 1
10.805586 13.786871 -27.811274 32.868001 0.906037 2.579517 0.084740 -0.032632 -308913.000000 0 0 1
10.017586 12.883071 -26.870544 31.438061 0.909878 2.595796 0.082812 -0.029345 100267.000000 0 0 1
8.627086 12.875071 -27.147254 31.259678 0.980447 2.622850 0.086071 -0.032446 -252369.000000 0 0 1
7.938486 11.983471 -26.347324 30.013407 0.985717 2.642155 0.103993 -0.030245 168177.000000 0 0 1
6.391686 12.067071 -26.381854 29.706398 1.083688 2.663962 0.062738 -0.035562 -181576.000000 0 0 1
5.988686 13.145471 -25.530934 29.334218 1.143320 2.626702 0.080938 -0.029738 910737.000000 0 0 1
4.543786 13.200271 -25.482164 29.055702 1.239281 2.640401 0.082312 -0.040676 1127320.000000 0 0 1
3.989886 14.132671 -26.637734 30.417437 1.295641 2.637761 0.098841 -0.029335 -846392.000000 0 0 1
3.996786 13.549371 -27.900774 31.273198 1.283952 2.672906 0.108340 -0.043475 95435.200000 0 0 1
3.600286 14.443771 -28.859864 32.472701 1.326512 2.665391 0.105330 -0.059729 -273202.000000 0 0 1
3.617086 13.855571 -30.253904 33.471762 1.315439 2.699512 0.150859 -0.052953 -270712.000000 0 0 1
4.920186 13.713171 -30.756294 34.032468 1.226310 2.699209 0.125616 -0.043758 -105786.000000 0 0 1
4.972686 13.161471 -32.042764 34.995580 1.209554 2.727852 0.135194 -0.045198 -658351.000000 0 0 1
5.917186 11.923371 -32.135404 34.783100 1.110139 2.748894 0.144925 -0.033042 -363602.000000 0 0 1
7.273386 12.267271 -32.063894 35.092469 1.035606 2.723087 0.152817 -0.030304 -239978.000000 0 0 1
7.811286 12.406471 -30.762534 34.077415 1.008886 2.696858 0.126472 -0.032678 -542044.000000 0 0 1
8.005686 11.114171 -29.856524 32.848559 0.946567 2.711469 0.111832 -0.026198 -1207190.000000 0 0 1
9.114086 10.406271 -30.221974 33.237400 0.851499 2.712338 0.084993 -0.023574 -927486.000000 0 0 1
9.005186 9.099671 -29.727124 32.366638 0.790617 2.734939 0.081649 -0.026231 -566015.000000 0 0 1
10.192386 8.188871 -30.042984 32.764664 0.676829 2.731120 0.065141 -0.018676 -62923.600000 0 0 1
11.253086 8.271171 -29.114564 32.290897 0.633841 2.694329 0.066021 -0.016055 -437261.000000 0 0 1
12.109186 7.213671 -29.201804 32.425527 0.537266 2.691900 0.046453 -0.008365 -1513660.000000 0 0 1
13.060886 7.037271 -27.968274 31.659663 0.494208 2.653874 0.044208 0.011485 277330.000000 0 0 1
13.872586 5.891571 -27.939254 31.745254 0.401609 2.646886 0.057844 -0.005109 -80666.000000 0 0 1
14.758486 5.767771 -29.028584 33.071722 0.372559 2.641934 0.047868 -0.000966 -1371920.000000 0 0 1
15.712586 4.575471 -28.866534 33.182783 0.283362 2.625847 0.053982 -0.012034 148838.000000 0 0 1
16.697886 4.717571 -27.852554 32.815235 0.275349 2.584449 0.019146 -0.009470 298100.000000 0 0 1
17.354086 3.530471 -27.523734 32.728954 0.200699 2.569851 0.037718 -0.018986 12096.200000 0 0 1
18.207586 3.554871 -26.211214 32.112008 0.192816 2.525675 0.023446 -0.007490 572567.000000 0 0 1
19.262786 4.521871 -26.298824 32.910946 0.230572 2.496577 0.050467 -0.011220 325932.000000 0 0 1
19.923186 4.657171 -25.088594 32.373757 0.229633 2.457459 0.060638 -0.013473 295911.000000 0 0 1
21.007486 5.817471 -25.073074 33.223733 0.270154 2.425953 0.058936 -0.010666 139334.000000 0 0 1
20.529486 7.147271 -25.238894 33.309834 0.335023 2.430579 0.070003 -0.010918 -173178.000000 0 0 1
21.340186 8.080671 -25.901494 34.519388 0.361975 2.419382 0.073200 -0.022980 -741975.000000 0 0 1
21.345786 7.880871 -27.457394 35.660331 0.353676 2.449591 0.120320 -0.026711 377446.000000 0 0 1
20.171786 8.382171 -28.098314 35.590406 0.393830 2.480776 0.081745 -0.007399 453473.000000 0 0 1
19.087286 7.478671 -28.103994 34.786340 0.373430 2.511382 0.077015 -0.001886 11658.800000 0 0 1
17.775286 8.090671 -28.680884 34.698888 0.427140 2.543773 0.057166 0.005292 120963.000000 0 0 1
17.838686 8.367371 -30.087224 35.964881 0.438589 2.561793 0.049764 0.003383 184745.000000 0 0 1
16.681986 9.041171 -30.528344 35.944557 0.496659 2.585487 0.030499 0.007272 -280471.000000 0 0 1
16.374786 8.826571 -32.023904 37.034746 0.494385 2.615347 0.011094 0.010978 338900.000000 0 0 1
15.566186 7.680971 -32.395214 36.752596 0.458385 2.649699 0.018184 0.010464 1114130.000000 0 0 1
14.199186 8.016871 -32.663894 36.507767 0.513984 2.678580 0.020972 0.006181 779337.000000 0 0 1
13.343786 6.751871 -33.009374 36.238973 0.468431 2.716209 0.024979 0.001121 65802.200000 0 0 1
13.119986 5.814671 -32.009544 35.079272 0.417178 2.720130 0.029731 -0.003606 503290.000000 0 0 1
12.386686 4.662371 -32.510434 35.101225 0.359999 2.754978 0.025385 -0.007153 303794.000000 0 0 1
12.074886 3.558671 -31.584994 34.001160 0.286603 2.762332 0.040703 -0.011755 440308.000000 0 0 1
13.218286 2.823171 -31.130304 33.938020 0.210419 2.731965 0.048407 -0.023074 756205.000000 0 0 1
12.829286 1.857571 -30.149204 32.817917 0.143792 2.735525 0.059341 -0.024476 582108.000000 0 0 1
11.975386 0.552171 -30.516014 32.786306 0.046076 2.767268 0.069518 -0.026598 920637.000000 0 0 1
12.720186 -0.428129 -31.280644 33.770773 -0.033645 2.755172 0.066400 -0.033822 589286.000000 0 0 1
13.706486 -1.113829 -30.509034 33.465049 -0.081085 2.718123 0.075533 -0.040735 424513.000000 0 0 1
14.358586 -2.349529 -31.141744 34.372918 -0.162195 2.704524 0.079784 -0.043795 248641.000000 0 0 1
13.433186 -3.419129 -31.367514 34.293758 -0.249236 2.725490 0.091120 -0.045480 304631.000000 0 0 1
13.960686 -4.494129 -32.124814 35.314326 -0.311437 2.713315 0.102724 -0.044369 -125350.000000 0 0 1
13.187686 -5.822729 -31.903304 35.009142 -0.415786 2.717190 0.104639 -0.039125 -257801.000000 0 0 1
13.426286 -6.434329 -30.712194 34.130699 -0.446897 2.690201 0.105101 -0.035564 112707.000000 0 0 1
12.987486 -7.784229 -30.776984 34.300026 -0.539952 2.684382 0.120594 -0.036724 -13445.000000 0 0 1
13.117186 -8.571429 -29.484344 33.389467 -0.578797 2.653104 0.089254 -0.030541 1234520.000000 0 0 1
14.484586 -8.788029 -29.021394 33.604672 -0.545343 2.613187 0.090277 -0.028267 1404850.000000 0 0 1
14.670486 -9.591629 -27.855234 32.911040 -0.579045 2.579947 0.093082 -0.030774 -151091.000000 0 0 1
14.502486 -11.105329 -27.894134 33.342663 -0.653507 2.561825 0.087482 -0.026346 1399230.000000 0 0 1
13.101386 -11.458629 -28.097284 33.051533 -0.718610 2.586982 0.075362 -0.033225 1461530.000000 0 0 1
12.951486 -12.798929 -28.390544 33.727979 -0.779474 2.571314 0.069517 -0.038960 99601.600000 0 0 1
-10.286214 -2.803529 -17.794254 20.743709 0.266089 2.601798 0.024859 0.002533 109161.000000 0 1 0
-11.022814 -2.636729 -18.991054 22.115942 0.234795 2.603532 0.036844 0.001013 -547033.000000 0 1 0
-11.927514 -3.646329 -19.223554 22.915199 0.296685 2.566055 0.039612 -0.004755 -934612.000000 0 1 0
-12.822014 -3.280629 -20.424554 24.337810 0.250485 2.566627 0.047699 -0.012614 -573727.000000 0 1 0
-13.773114 -2.378429 -19.950154 24.359069 0.171000 2.530468 0.047952 -0.011779 -490897.000000 0 1 0
-14.674714 -2.024629 -20.994754 25.694865 0.137102 2.527124 0.050242 -0.011580 392454.000000 0 0 1
-15.474214 -0.715129 -20.744154 25.889817 0.046181 2.500174 0.061236 -0.015642 -87444.500000 0 0 1
-14.714314 0.461571 -20.688954 25.392064 -0.031359 2.523147 0.067090 -0.021974 -234600.000000 0 0 1
-15.478614 1.526271 -20.138354 25.445438 -0.098287 2.483946 0.066059 -0.019048 -37662.700000 0 0 1
-15.173414 2.851971 -20.752854 25.865947 -0.185791 2.501974 0.089543 -0.024275 428131.000000 0 0 1
-13.863214 3.344471 -20.466254 24.944774 -0.236725 2.533016 0.090901 -0.025151 630326.000000 0 1 0
-13.801814 4.655671 -20.931254 25.500642 -0.325337 2.533629 0.101509 -0.026796 -658134.000000 0 0 1
-12.536014 5.451571 -20.641654 24.757810 -0.410203 2.556649 0.086556 -0.022247 -468312.000000 0 1 0
-12.384614 5.823071 -19.262054 23.628660 -0.439513 2.523869 0.089233 -0.035191 58008.000000 0 1 0
-11.049814 6.187071 -19.048754 22.874293 -0.510431 2.554867 0.068042 -0.020129 -462386.000000 0 1 0
-10.890614 6.884771 -17.655254 21.856659 -0.563742 2.511164 0.056611 -0.025551 -408142.000000 0 1 0
-11.536514 8.132371 -17.575554 22.541666 -0.614023 2.464970 0.067347 -0.030768 -399526.000000 0 1 0
-12.667914 8.034571 -16.761854 22.494224 -0.565220 2.411575 0.104069 -0.031952 -1023510.000000 0 1 0
-13.444014 9.335471 -16.803654 23.457522 -0.606955 2.369345 0.108097 -0.028211 -443612.000000 0 1 0
-12.881714 10.402471 -16.071054 23.074418 -0.679320 2.341288 0.081427 -0.026267 223549.000000 0 1 0
-13.680114 11.557171 -16.284554 24.205380 -0.701476 2.308737 0.095263 -0.026120 -58467.300000 0 1 0
-13.142314 12.895271 -15.723854 24.212559 -0.775910 2.277603 0.098343 -0.018718 -510196.000000 0 1 0
-13.346714 13.158171 -14.394654 23.632146 -0.778285 2.225738 0.096163 -0.015163 74871.100000 0 1 0
-12.996514 14.467671 -14.090954 24.016200 -0.838913 2.197807 0.086521 -0.014561 -801370.000000 0 1 0
-13.199914 14.919371 -12.636554 23.590419 -0.846471 2.136091 0.069605 -0.006408 903630.000000 0 1 0
-14.532714 15.120771 -12.147254 24.236198 -0.805227 2.095785 0.072639 -0.019019 619547.000000 0 1 0
-15.415614 14.049671 -12.141754 24.134138 -0.739074 2.097972 0.069461 -0.020125 -918798.000000 0 1 0
-16.782514 14.358571 -11.524854 24.912720 -0.707717 2.051732 0.052158 -0.013784 -451423.000000 0 1 0
-17.761114 13.396071 -11.789154 25.177292 -0.646207 2.058100 0.046055 -0.015531 -576902.000000 0 0 1
-18.998414 13.872171 -11.339254 26.114279 -0.630692 2.019965 0.107528 -0.020160 -1155060.000000 0 0 1
-20.165514 13.405671 -12.148254 27.091328 -0.586697 2.035792 0.095307 -0.028749 -891002.000000 0 0 1
-20.710114 12.146371 -11.700954 26.708716 -0.530430 2.024275 0.109225 -0.035235 450942.000000 0 0 1
-21.809114 11.743671 -12.496554 27.743741 -0.493952 2.038041 0.136216 -0.030300 32056.500000 0 0 1
-22.505714 10.461371 -11.934454 27.538676 -0.435119 2.019026 0.124964 -0.032202 -353495.000000 0 0 1
-21.724414 9.343671 -12.163854 26.593490 -0.406182 2.045865 0.117829 -0.033241 155940.000000 0 0 1
-22.037614 8.242271 -11.322754 26.111228 -0.357902 2.019320 0.108460 -0.028000 -275938.000000 0 0 1
-21.083514 7.059771 -11.510254 25.036791 -0.323113 2.048492 0.127794 -0.025166 -85792.600000 0 0 1
-21.347214 6.266571 -12.656054 25.595882 -0.285533 2.088006 0.154216 -0.026577 788406.000000 0 0 1
-20.160714 5.502971 -12.817354 24.515743 -0.266464 2.120954 0.141880 -0.029166 303983.000000 0 1 0
-20.394314 4.311971 -13.691454 24.939468 -0.208361 2.151949 0.162099 -0.041456 6167.110000 0 1 0
-21.288514 3.340871 -13.183954 25.262203 -0.155663 2.119855 0.161443 -0.040345 425426.000000 0 0 1
-21.133214 2.217871 -14.039054 25.468151 -0.104564 2.154646 0.144155 -0.043705 -194334.000000 0 0 1
-22.016814 0.998771 -13.730954 25.966840 -0.045333 2.127968 0.166201 -0.037259 -1238570.000000 0 0 1
-23.285014 1.090471 -14.225954 27.308585 -0.046797 2.118740 0.129324 -0.034966 -1010940.000000 0 0 1
-23.911114 -0.148229 -14.357354 27.890805 0.006199 2.111536 0.134786 -0.038213 -221204.000000 0 0 1
-25.215164 -0.131629 -15.173254 29.428719 0.005220 2.112496 0.138891 -0.041789 -334034.000000 0 0 1
-26.349504 0.317071 -14.494954 30.074917 -0.012033 2.073688 0.173306 -0.047463 904800.000000 0 0 1
-27.571094 -0.134329 -15.166154 31.467372 0.004872 2.073692 0.146125 -0.031077 1224220.000000 0 0 1
-28.837584 0.221771 -14.359154 32.215536 -0.007690 2.032776 0.151136 -0.035200 -369765.000000 0 0 1
-28.989154 -0.388629 -13.124254 31.824018 0.013405 1.995884 0.162130 -0.027688 659757.000000 0 0 1
-30.235124 -0.030229 -12.501954 32.717923 0.001000 1.962878 0.183407 -0.036012 754438.000000 0 0 1
-30.470804 -0.636829 -11.109154 32.439001 0.020897 1.920333 0.175682 -0.038800 -35381.400000 0 0 1
-30.820524 -2.056629 -11.013454 32.793759 0.066630 1.913293 0.185598 -0.027340 642774.000000 0 0 1
-29.785594 -2.947729 -11.408254 32.031531 0.098644 1.934948 0.189493 -0.034635 24889.300000 0 0 1
-29.976884 -4.389529 -10.835154 32.175800 0.145397 1.914258 0.190359 -0.036417 250344.000000 0 0 1
-31.072564 -5.097629 -11.433054 33.499325 0.162607 1.919087 0.186239 -0.037131 488233.000000 0 0 1
-31.291164 -6.435929 -11.064754 33.808090 0.202850 1.904221 0.191994 -0.033007 335906.000000 0 0 1
-30.366614 -7.474329 -11.814054 33.430057 0.241339 1.931995 0.201147 -0.034872 1545010.000000 0 0 1
-29.005774 -7.503629 -11.333354 32.032551 0.253145 1.932435 0.165445 -0.029578 1110410.000000 0 0 1
-28.172124 -8.435029 -12.022554 31.770428 0.290916 1.958885 0.167686 -0.031593 993424.000000 0 0 1
-26.692424 -8.535829 -11.524254 30.301061 0.309508 1.960944 0.163824 -0.040358 69416.600000 0 0 1
-25.826784 -7.532829 -11.939754 29.433383 0.283795 1.988490 0.137234 -0.032776 54129.300000 0 0 1
-24.480114 -7.654729 -11.540854 28.125828 0.303060 1.993612 0.129539 -0.039195 121015.000000 0 0 1
-24.093614 -7.491329 -10.003054 27.141911 0.301450 1.948241 0.118320 -0.032759 -494012.000000 0 0 1
-24.391614 -6.214129 -9.417054 26.874656 0.249458 1.928801 0.120460 -0.025588 1343970.000000 0 0 1
-25.796214 -5.986129 -9.173754 28.025634 0.228019 1.904278 0.130753 -0.032580 723407.000000 0 0 1
-26.187744 -4.581429 -8.610354 27.945047 0.173193 1.884010 0.142509 -0.027153 -219253.000000 0 0 1
-25.932914 -4.482429 -7.258754 27.300142 0.171156 1.839920 0.140529 -0.028980 385629.000000 0 0 1
-26.130124 -3.124429 -6.911654 27.208756 0.119007 1.827634 0.182984 -0.029278 -5123.690000 0 0 1
-26.091364 -2.816829 -5.369154 26.786594 0.107544 1.772605 0.180110 -0.032009 1044080.000000 0 0 1
-24.762614 -3.130329 -4.886454 25.433511 0.125747 1.764125 0.141612 -0.022133 1130170.000000 0 0 1
-24.729414 -3.137829 -3.499354 25.172115 0.126212 1.710265 0.128085 -0.021303 -620292.000000 0 0 1
-23.325414 -3.307029 -2.953754 23.743127 0.140839 1.695524 0.106921 -0.015138 -628490.000000 0 1 0
-22.850814 -4.615929 -3.118954 23.520085 0.199321 1.703796 0.101592 -0.015260 896476.000000 0 1 0
-21.580314 -4.850429 -2.482454 22.257565 0.221088 1.682562 0.079770 -0.012216 605495.000000 0 1 0
-21.337314 -6.362029 -2.453454 22.400353 0.289772 1.680544 0.088476 -0.021355 -247894.000000 0 1 0
-22.191614 -7.022429 -1.555354 23.328124 0.306475 1.637519 0.112514 -0.020796 269458.000000 0 1 0
-22.475414 -8.355729 -1.977654 24.059792 0.355938 1.653087 0.108681 -0.027655 -49780.000000 0 1 0
-22.938314 -9.296629 -0.822054 24.764276 0.385057 1.603998 0.129745 -0.028326 -212085.000000 0 1 0
-21.902514 -9.644129 0.039446 23.931797 0.414775 1.569148 0.103272 -0.021215 -158922.000000 0 1 0
-22.331914 -10.655629 0.919546 24.760905 0.445199 1.533651 0.087394 -0.007021 315965.000000 0 1 0
-21.182114 -11.360829 1.702346 24.096647 0.492296 1.500091 0.092107 -0.005889 596738.000000 0 1 0
-20.201614 -12.013529 0.868946 23.519889 0.536500 1.533843 0.079322 -0.008416 672660.000000 0 1 0
-19.181914 -12.471929 1.734346 22.945649 0.576510 1.495139 0.065980 -0.006836 -202937.000000 0 1 0
-18.466114 -13.657929 1.071346 22.993133 0.636826 1.524185 0.060497 -0.009504 -331068.000000 0 1 0
-19.267614 -14.830829 1.019246 24.335844 0.656008 1.528902 0.082690 -0.010225 97161.200000 0 1 0
-18.752114 -15.980229 0.389146 24.640636 0.705760 1.555003 0.079624 -0.024443 -438801.000000 0 1 0
-17.611014 -16.747229 1.074746 24.326376 0.760263 1.526602 0.079179 -0.019226 -491402.000000 0 1 0
-16.332414 -16.239929 0.765146 23.044924 0.782559 1.537588 0.068729 -0.010675 -77538.700000 0 1 0
-15.283114 -16.905329 1.456946 22.836077 0.835753 1.506953 0.083513 -0.012163 270821.000000 0 1 0
-15.118714 -16.736129 3.042746 22.758116 0.836129 1.436695 0.088261 -0.016045 -413672.000000 0 1 0
-14.703114 -15.405829 3.297446 21.549810 0.808733 1.417178 0.055705 -0.010633 100121.000000 0 1 0
-13.958814 -15.172529 4.471446 21.096160 0.827038 1.357221 0.032949 -0.010607 -321789.000000 0 1 0
-14.599114 -15.530129 5.816746 22.094198 0.816289 1.304386 0.097332 -0.008639 -362411.000000 0 1 0
-15.605114 -14.638229 6.299946 22.304409 0.753439 1.284446 0.088817 -0.012411 367329.000000 0 1 0
-15.956314 -14.911029 7.654746 23.141692 0.751547 1.233669 0.102939 -0.025977 -32682.800000 0 1 0
-16.930014 -16.059529 8.038546 24.681006 0.759018 1.239047 0.086129 -0.014241 -218882.000000 0 1 0
-16.431414 -17.367229 7.894546 25.178083 0.813079 1.251869 0.088248 -0.000014 -17421.400000 0 0 1
-17.126514 -18.322429 8.702846 26.547475 0.819122 1.236799 0.090605 -0.009987 116956.000000 0 0 1
-16.628114 -18.461029 10.137446 26.834150 0.837587 1.183397 0.095684 -0.011472 266737.000000 0 0 1
-15.344214 -19.031329 10.340146 26.543455 0.892249 1.170648 0.071916 -0.008140 246465.000000 0 0 1
-15.155814 -19.238629 11.738746 27.159192 0.903551 1.123843 0.077376 -0.016576 395923.000000 0 0 1
-13.895014 -20.141329 11.977546 27.243461 0.966898 1.115589 0.075606 -0.012875 -73394.400000 0 0 1
-12.720614 -19.475429 11.694746 26.036003 0.992201 1.104954 0.074864 -0.020788 -1246590.000000 0 0 1
-11.602414 -20.303129 11.782246 26.185003 1.051627 1.104074 0.073292 -0.020898 607396.000000 0 0 1
-10.289414 -19.709229 12.408846 25.461838 1.089656 1.061743 0.079803 -0.017125 779673.000000 0 0 1
-9.643314 -18.785329 11.549646 24.068162 1.096532 1.070287 0.069790 -0.020921 -17566.800000 0 1 0
-8.509914 -18.218429 12.190646 23.514711 1.133810 1.025787 0.056016 -0.014511 97496.300000 0 1 0
-7.598014 -17.415229 11.257946 22.085320 1.159406 1.035905 0.038384 -0.014976 -271711.000000 0 1 0
-6.686314 -18.136129 10.513746 22.003746 1.217583 1.072629 0.033498 -0.014098 -278570.000000 0 1 0
-6.001814 -17.312329 9.553146 20.664005 1.237083 1.090199 0.028380 -0.008790 78851.100000 0 1 0
-4.989214 -18.024329 8.615646 20.591213 1.300753 1.139098 0.025875 -0.012879 346578.000000 0 1 0
-3.659714 -17.931029 9.089946 20.433855 1.369462 1.109793 0.033000 -0.020367 -254685.000000 0 1 0
-2.779114 -18.798329 8.417646 20.783585 1.424021 1.153802 0.039807 -0.010631 478232.000000 0 1 0
-1.348514 -18.762029 9.030246 20.865703 1.499045 1.123223 0.036171 -0.029305 227397.000000 0 1 0
-0.422714 -19.544929 8.314346 21.244088 1.549172 1.168674 0.045270 -0.009105 -476117.000000 0 1 0
0.718086 -19.716229 9.111546 21.731673 -1.534391 1.138150 0.050757 -0.015851 17134.900000 0 1 0
2.026386 -20.189229 8.415846 21.966740 -1.470762 1.177627 0.060354 -0.027127 393931.000000 0 1 0
1.967286 -21.496629 7.873046 22.977383 -1.479535 1.221067 0.058376 -0.018288 86064.600000 0 1 0
2.411786 -22.477629 8.860946 24.281204 -1.463908 1.197238 0.070863 -0.024323 219892.000000 0 1 0
1.839686 -23.908429 8.535846 25.453057 -1.494000 1.228813 0.057654 -0.013733 209103.000000 0 0 1
2.150686 -24.837129 9.506146 26.680990 -1.484420 1.206503 0.075545 -0.017004 -79077.900000 0 0 1
1.564986 -26.070959 9.160546 27.677783 -1.510840 1.233464 0.080424 -0.015227 -829289.000000 0 0 1
1.506386 -27.183809 10.220246 29.080614 -1.515438 1.211682 0.103570 -0.029226 230821.000000 0 0 1
0.494886 -27.065349 11.194446 29.293236 -1.552514 1.178673 0.094041 -0.038623 741730.000000 0 0 1
-0.854014 -27.331069 10.738246 29.377314 1.539559 1.196596 0.080351 -0.031783 1048940.000000 0 0 1
-1.790714 -27.354769 12.003546 29.926162 1.505427 1.158073 0.075295 -0.037328 131693.000000 0 0 1
-1.502414 -28.522259 12.778746 31.290140 1.518170 1.150101 0.085875 -0.040856 -94973.800000 0 0 1
-1.717414 -28.234469 14.085946 31.599820 1.510044 1.108773 0.077331 -0.041994 -422747.000000 0 0 1
-1.281714 -29.355519 15.082346 33.028267 1.527162 1.096571 0.073138 -0.026798 177948.000000 0 0 1
-1.111814 -28.840489 16.386846 33.189436 1.532265 1.054415 0.084727 -0.023608 98858.600000 0 0 1
-0.626014 -29.832169 17.279546 34.480907 1.549815 1.045888 0.084025 -0.020942 -101650.000000 0 0 1
-1.121814 -29.492899 18.699646 34.939467 1.532778 1.006050 0.077956 -0.016324 1291920.000000 0 0 1
-2.544114 -29.772249 18.769246 35.286597 1.485551 1.009943 0.066757 -0.008401 1035380.000000 0 0 1
-2.960314 -29.510069 20.092246 35.823260 1.470815 0.975358 0.086583 -0.012167 -357397.000000 0 0 1
-4.445514 -29.770749 20.348346 36.333391 1.422567 0.976356 0.084911 -0.016874 -336197.000000 0 0 1
-5.336114 -28.836269 19.757046 35.360223 1.387817 0.977935 0.076171 -0.023486 40075.200000 0 0 1
-6.519314 -28.649889 20.514146 35.835008 1.347055 0.961292 0.071956 -0.027534 129741.000000 0 0 1
-6.521514 -27.579709 21.679246 35.681371 1.338601 0.917788 0.100762 -0.034621 -556805.000000 0 0 1
-5.534214 -27.921659 22.622446 36.359615 1.375127 0.899264 0.100878 -0.029656 -100974.000000 0 0 1
-5.531814 -27.036279 23.739946 36.402560 1.368975 0.860379 0.124438 -0.035156 -289409.000000 0 0 1
-4.443214 -27.228869 24.834846 37.120386 1.409042 0.837886 0.142967 -0.029892 80026.200000 0 0 1
-4.626914 -28.353069 25.682946 38.534641 1.409033 0.841306 0.136856 -0.031149 130232.000000 0 0 1
-4.261014 -29.579419 25.048146 38.993690 1.427727 0.873217 0.133110 -0.029124 -129465.000000 0 0 1
-4.494714 -30.837369 25.890946 40.515267 1.426060 0.877545 0.122260 -0.022729 -154315.000000 0 0 1
-3.736914 -30.850539 27.055846 41.203630 1.450254 0.854445 0.128861 -0.026578 -88723.900000 0 0 1
-4.112714 -31.887179 27.925446 42.585645 1.442527 0.855624 0.107683 -0.028238 -356625.000000 0 0 1
-3.412414 -31.774069 29.279746 43.342122 1.463810 0.829087 0.121056 -0.030335 -1046960.000000 0 0 1
-2.071514 -32.088159 29.150946 43.401829 1.506329 0.834359 0.111945 -0.031779 -715657.000000 0 0 1
-1.409714 -31.760899 30.371646 43.967930 1.526440 0.808245 0.114360 -0.035307 -25958.400000 0 0 1
-29.244884 3.159471 -9.897254 31.035482 -0.107618 1.895366 0.165457 -0.036248 146705.000000 0 0 1
-30.200394 2.702371 -10.851454 32.204358 -0.089244 1.914478 0.144844 -0.049861 322921.000000 0 0 1
-30.848874 3.884371 -11.336354 33.094627 -0.125257 1.920419 0.120557 -0.050087 42853.500000 0 0 1
-31.850674 3.581771 -12.471254 34.392248 -0.111985 1.941872 0.134120 -0.050408 -1004320.000000 0 0 1
-32.892994 2.768071 -12.200054 35.191655 -0.083956 1.924820 0.150231 -0.052397 -922226.000000 0 0 1
-33.858884 2.861971 -13.213754 36.458445 -0.084326 1.941674 0.150399 -0.047260 -555381.000000 0 0 1
-35.062413 1.963971 -13.024554 37.454892 -0.055955 1.925956 0.121810 -0.041485 -416677.000000 0 0 1
-34.669363 0.596571 -13.145554 37.082695 -0.017206 1.933168 0.152273 -0.033255 333084.000000 0 0 1
-35.355566 -0.220729 -12.182454 37.396216 0.006243 1.902619 0.132835 -0.032849 166826.000000 0 0 1
-34.754121 -1.635329 -12.028354 36.813103 0.047020 1.903650 0.128607 -0.031251 -28512.300000 0 0 1
-34.963878 -2.570929 -13.072054 37.416054 0.073399 1.927695 0.126253 -0.033710 66815.800000 0 0 1
-34.509130 -3.836129 -12.628454 36.946905 0.110708 1.919628 0.137644 -0.035817 54355.500000 0 0 1
-35.059447 -4.989529 -13.485454 37.893505 0.141367 1.934649 0.134298 -0.033109 137033.000000 0 0 1
-34.711431 -6.302129 -12.988154 37.593782 0.179601 1.923554 0.145602 -0.037661 300178.000000 0 0 1
-35.351679 -7.314929 -13.770254 38.637667 0.204039 1.935203 0.142521 -0.030761 -494556.000000 0 0 1
-34.929450 -8.750629 -13.278954 38.379300 0.245471 1.924093 0.154262 -0.032745 717695.000000 0 0 1
-33.512254 -8.908529 -13.256654 37.123738 0.259820 1.935951 0.164174 -0.036287 724786.000000 0 0 1
-32.779474 -8.973829 -14.478654 36.941237 0.267216 1.973533 0.158409 -0.030882 -261104.000000 0 0 1
-31.562664 -9.924529 -14.280654 36.036581 0.304650 1.978260 0.173344 -0.031771 -175906.000000 0 0 1
-31.851384 -11.274729 -14.014854 36.579316 0.340215 1.963985 0.161062 -0.028159 -171353.000000 0 0 1
-30.733214 -12.104629 -13.839754 35.813284 0.375203 1.967567 0.181150 -0.027464 -331654.000000 0 0 1
-31.052104 -13.564829 -14.129654 36.713552 0.411857 1.965855 0.178747 -0.027252 -141226.000000 0 0 1
-31.230594 -13.734029 -15.515754 37.479490 0.414307 1.997618 0.164722 -0.024277 136678.000000 0 0 1
-31.414894 -15.085429 -15.970254 38.334251 0.447682 2.000504 0.154302 -0.016879 -260154.000000 0 0 1
-30.346674 -16.128429 -15.603854 37.742908 0.488508 1.997008 0.154600 -0.009701 -76323.500000 0 0 1
-29.026164 -15.839629 -15.956854 36.715572 0.499537 2.020398 0.148732 -0.020463 -346687.000000 0 0 1
-28.062984 -16.859829 -15.719854 36.316645 0.540997 2.018454 0.131580 -0.021343 278641.000000 0 0 1
-26.670284 -16.339429 -16.099254 35.177649 0.549666 2.046153 0.130040 -0.033145 -214316.000000 0 0 1
-26.505094 -16.152229 -17.481954 35.623493 0.547303 2.083738 0.139929 -0.029950 152308.000000 0 0 1
-25.136234 -16.125329 -17.882454 34.808601 0.570389 2.110331 0.095273 -0.018441 282101.000000 0 0 1
-24.922114 -15.676129 -19.380654 35.248582 0.561474 2.152955 0.110856 -0.012780 66667.100000 0 0 1
-25.328764 -16.535929 -20.451054 36.513407 0.578377 2.165299 0.110522 -0.026647 -7814.340000 0 0 1
-26.723424 -16.490729 -20.667554 37.592996 0.552890 2.152887 0.124063 -0.029792 -198643.000000 0 0 1
-27.102514 -17.759729 -21.434854 38.851090 0.580078 2.155219 0.123424 -0.026023 -248413.000000 0 0 1
-26.633224 -17.937529 -22.740754 39.347497 0.592720 2.187007 0.122092 -0.017495 -258799.000000 0 0 1
-27.238994 -19.005429 -23.306554 40.575419 0.609200 2.182668 0.120584 -0.026237 -668694.000000 0 0 1
-26.679314 -19.240429 -24.719154 41.146282 0.624796 2.215251 0.112468 -0.036484 -710480.000000 0 0 1
-25.332634 -19.520929 -24.775854 40.455556 0.656545 2.229916 0.102923 -0.033809 -972985.000000 0 0 1
-24.929514 -20.859529 -24.486754 40.696459 0.696746 2.216415 0.085316 -0.028253 352497.000000 0 0 1
-23.383714 -21.116829 -24.442654 39.876834 0.734502 2.230590 0.077141 -0.016580 835643.000000 0 0 1
-22.797014 -21.084129 -25.742734 40.335254 0.746383 2.262979 0.077660 -0.021614 184373.000000 0 0 1
-21.408114 -21.365229 -25.598774 39.624205 0.784396 2.273180 0.053517 -0.017397 203009.000000 0 0 1
-20.527014 -21.075729 -26.816254 39.807740 0.798587 2.309925 0.046002 -0.017039 -569668.000000 0 0 1
-20.582114 -22.016929 -27.871794 41.051255 0.819067 2.317129 0.061159 -0.012110 -267775.000000 0 0 1
-21.434614 -21.705129 -28.968774 42.068340 0.791669 2.330370 0.092175 -0.023032 191590.000000 0 0 1
-20.734314 -21.904429 -30.338654 42.780249 0.812834 2.359123 0.088021 -0.028945 153331.000000 0 0 1
-20.555914 -23.203029 -30.814874 43.709068 0.845818 2.353219 0.083669 -0.034229 305943.000000 0 0 1
-19.910814 -23.188429 -32.125624 44.341848 0.861300 2.381104 0.084267 -0.028260 394182.000000 0 0 1
-19.499714 -24.554929 -32.679634 45.289534 0.899647 2.376866 0.098143 -0.018531 90441.900000 0 0 1
-18.699714 -24.600229 -33.843864 45.828569 0.920835 2.401622 0.098375 -0.021355 -296175.000000 0 0 1
-19.405514 -24.554829 32.831731 45.358970 0.902002 0.761474 0.140285 -0.023108 -724950.000000 0 0 1
-18.521414 -24.430729 31.567601 44.004736 0.922119 0.770779 0.141458 -0.022891 158856.000000 0 0 1
-17.869814 -23.152829 31.404581 42.914234 0.913476 0.749839 0.092556 -0.023290 -205089.000000 0 0 1
-17.054314 -23.253829 30.289981 41.821922 0.938005 0.760834 0.104381 -0.026245 -276849.000000 0 0 1
-16.254214 -21.943729 30.065801 40.616242 0.933259 0.737368 0.063423 -0.022797 110658.000000 0 0 1
-17.077414 -20.889429 29.607601 40.057663 0.885467 0.739027 0.081397 -0.032368 -70439.900000 0 0 1
-16.369614 -19.714129 29.512101 39.084207 0.877822 0.715005 0.071298 -0.027929 -181759.000000 0 0 1
-15.885614 -18.979629 30.801821 39.513684 0.873908 0.676893 0.062606 -0.031603 247805.000000 0 0 1
-15.481814 -17.642229 30.514631 38.497760 0.850528 0.655679 0.063038 -0.025808 -56540.000000 0 0 1
-14.960914 -17.018629 31.679281 38.949192 0.849654 0.620911 0.055868 -0.030262 28885.800000 0 0 1
-14.417714 -15.608129 31.458501 37.962106 0.825024 0.594048 0.067539 -0.025330 92925.200000 0 0 1
-13.295514 -15.659329 30.577851 36.837349 0.866855 0.591550 0.079406 -0.027951 137060.000000 0 0 1
-12.906014 -14.373929 30.199531 35.849501 0.839156 0.569079 0.073267 -0.027215 389416.000000 0 0 1
-11.405614 -14.215229 29.798661 34.930230 0.894623 0.548915 0.080648 -0.025520 620865.000000 0 0 1
-11.041914 -12.849829 29.817711 34.294867 0.860925 0.516706 0.078237 -0.029716 563813.000000 0 0 1
-9.643714 -12.605629 30.031821 33.967829 0.917744 0.486177 0.075899 -0.027773 960542.000000 0 0 1
-9.263414 -11.068029 30.054601 33.340533 0.873926 0.447704 0.071198 -0.020743 -235659.000000 0 0 1
-9.762514 -10.503129 31.235961 34.370157 0.821927 0.430372 0.066171 -0.018133 92105.600000 0 0 1
-9.463214 -9.126629 31.262121 33.914127 0.767294 0.398092 0.048814 -0.012805 -148084.000000 0 0 1
-10.374014 -8.292729 32.211344 34.841932 0.674360 0.391076 0.035722 -0.015100 -523684.000000 0 0 1
-11.697914 -8.198029 31.764471 34.828588 0.611270 0.422607 0.060008 -0.018690 -312038.000000 0 0 1
-12.560514 -7.512129 32.652574 35.782526 0.539003 0.421372 0.058568 -0.018556 -20624.000000 0 0 1
-12.311314 -6.035529 33.058543 35.789151 0.455811 0.393160 0.044714 -0.016460 -694844.000000 0 0 1
-12.329814 -5.174429 31.939969 34.626011 0.397346 0.396477 0.053550 -0.018213 297661.000000 0 0 1
-12.512714 -3.914329 32.464690 35.012085 0.303184 0.383816 0.058631 -0.022806 -273853.000000 0 0 1
-12.083714 -2.760629 31.476791 33.829360 0.224604 0.375136 0.052539 -0.017129 -631067.000000 0 0 1
-10.699314 -2.632529 31.476201 33.349015 0.241254 0.336724 0.052722 -0.018416 -455377.000000 0 0 1
-10.272514 -1.490829 30.692951 32.400685 0.144122 0.326118 0.047205 -0.013200 752429.000000 0 0 1
-8.740914 -1.163329 30.747151 31.986626 0.132313 0.279294 0.049244 -0.013786 727252.000000 0 0 1
-8.302014 -0.617729 31.997900 33.063131 0.074270 0.254529 0.057995 -0.031446 1085940.000000 0 0 1
-6.956314 -0.074429 31.951617 32.700179 0.010699 0.214381 0.072867 -0.027907 1140960.000000 0 0 1
-6.492714 0.472171 33.360179 33.989408 -0.072595 0.192717 0.103145 -0.049043 -128531.000000 0 0 1
-7.158714 1.646471 33.844336 34.632314 -0.226064 0.213726 0.106802 -0.035366 104127.000000 0 0 1
-6.716314 2.858271 33.284334 34.075291 -0.402354 0.215881 0.112632 -0.034202 -88822.900000 0 0 1
-7.723014 3.974671 33.566893 34.672457 -0.475301 0.253207 0.107285 -0.026495 127812.000000 0 0 1
-8.944114 3.882571 32.874695 34.290190 -0.409547 0.288330 0.069594 -0.017682 15944.400000 0 0 1
-9.854814 4.926271 33.186373 34.967426 -0.463555 0.320540 0.049092 0.003046 703239.000000 0 0 1
-11.058714 4.964271 32.176768 34.384350 -0.421940 0.360284 0.036491 0.002263 673663.000000 0 0 1
-11.985314 6.008171 32.394213 35.058964 -0.464683 0.392404 0.047028 0.002116 4301.600000 0 0 1
-13.045314 6.060171 31.460351 34.592768 -0.434886 0.428840 0.020755 0.007502 97749.100000 0 0 1
-13.872314 7.346771 31.576391 35.263077 -0.487046 0.461351 0.041310 -0.002904 262674.000000 0 0 1
-14.782214 7.439871 32.689383 36.639614 -0.466283 0.468632 0.051083 -0.002591 568708.000000 0 0 1
-15.176214 8.779971 32.906468 37.285936 -0.524487 0.489552 0.037076 0.008405 -243380.000000 0 0 1
-16.044314 9.000171 -33.756474 38.443759 -0.511217 2.642619 0.040536 0.006995 -293983.000000 0 0 1
-15.313314 9.003471 -32.553194 37.084640 -0.531512 2.642063 0.044975 -0.003915 66012.600000 0 0 1
-16.163314 9.202671 -31.442484 36.531790 -0.517582 2.607416 0.056300 -0.004100 -209618.000000 0 0 1
-15.396114 9.546271 -30.075694 35.110098 -0.555028 2.599461 0.068445 -0.008866 875696.000000 0 0 1
-14.595114 10.744771 -29.988054 35.039276 -0.634604 2.597971 0.082002 -0.011906 1346590.000000 0 0 1
-13.304314 10.622371 -30.646934 35.058153 -0.673774 2.634529 0.089227 -0.017903 620340.000000 0 0 1
-12.544314 11.963071 -30.772164 35.318564 -0.761686 2.628589 0.087392 -0.020699 51385.300000 0 0 1
-13.084714 13.040071 -31.557204 36.566519 -0.783689 2.611991 0.088654 -0.023357 -160023.000000 0 0 1
-12.119914 14.041471 -31.705174 36.732456 -0.858717 2.612247 0.081570 -0.022518 -59403.400000 0 0 1
-12.189114 15.321771 -30.823514 36.516027 -0.898780 2.575698 0.086973 -0.026140 468988.000000 0 0 1
-13.400114 16.071871 -31.021254 37.419063 -0.875805 2.548154 0.093657 -0.023747 709701.000000 0 0 1
-13.467914 17.345271 -30.365064 37.473728 -0.910575 2.515465 0.088952 -0.019862 -780334.000000 0 0 1
-14.930914 17.720971 -30.207824 38.072006 -0.870640 2.487235 0.076100 -0.030211 -1044990.000000 0 0 1
-15.477914 18.207371 -31.398654 39.458201 -0.866250 2.491033 0.071556 -0.029197 1360350.000000 0 0 1
-16.901514 18.491971 -31.385164 40.157723 -0.830304 2.467939 0.062584 -0.027276 1498560.000000 0 0 1
-17.404014 19.711271 -30.545784 40.304824 -0.847483 2.430837 0.024773 -0.019024 -911864.000000 0 0 1
-16.838814 20.963671 -30.910914 40.969571 -0.894084 2.425665 0.023770 -0.013143 279788.000000 0 0 1
-17.345014 22.113071 -30.215374 41.265073 -0.905654 2.392382 0.003658 -0.004832 524397.000000 0 0 1
-18.821814 22.471271 -30.568124 42.351256 -0.873548 2.377161 0.021927 -0.004066 852091.000000 0 0 1
-19.864614 21.620971 -30.079144 42.033608 -0.827709 2.368275 0.019705 -0.008443 198877.000000 0 0 1
-20.881514 21.350471 -30.988094 43.036522 -0.796502 2.374659 0.042716 -0.014170 -341360.000000 0 0 1
-22.285614 21.215071 -30.315154 43.194171 -0.760793 2.348766 0.054301 -0.020429 123112.000000 0 0 1
-22.917814 22.447571 -29.904704 43.856710 -0.775033 2.321116 0.085557 -0.023952 369245.000000 0 0 1
-23.339414 23.346771 -30.898534 45.216362 -0.785556 2.323136 0.086393 -0.017522 -695434.000000 0 0 1
-24.626414 22.938871 -31.642154 46.193917 -0.749935 2.325380 0.103922 -0.030705 -857331.000000 0 0 1
-24.512214 21.770071 -32.478724 46.148154 -0.726219 2.351518 0.103406 -0.030237 579103.000000 0 0 1
-25.651334 21.518471 -33.324204 47.239159 -0.698005 2.353834 0.134437 -0.036771 400596.000000 0 0 1
-25.466304 20.269371 33.600756 46.780240 -0.672254 0.769486 0.127281 -0.032508 -145750.000000 0 0 1
-25.212964 18.993171 -33.741854 46.205485 -0.645616 2.389494 0.125399 -0.033578 344316.000000 0 0 1
-25.078424 18.105371 32.979022 45.214464 -0.625306 0.753365 0.109307 -0.041074 -340723.000000 0 0 1
-24.698314 16.651771 33.429262 44.775035 -0.593205 0.727852 0.077804 -0.024279 -621864.000000 0 0 1
-25.783754 15.776971 33.649648 45.232882 -0.549121 0.731879 0.085226 -0.016762 294689.000000 0 0 1
-26.303144 15.256071 32.451782 44.471578 -0.525591 0.752885 0.085238 -0.018714 -391017.000000 0 0 1
-27.362804 14.160071 32.642363 44.886017 -0.477544 0.756522 0.076360 -0.019448 -7580.520000 0 0 1
-28.567604 14.494771 33.315881 46.218550 -0.469538 0.765792 0.087799 -0.019160 432693.000000 0 0 1
-29.563644 13.465071 33.268930 46.498805 -0.427386 0.773486 0.073513 -0.014993 294909.000000 0 0 1
-29.340604 12.088671 -33.921024 46.450435 -0.390818 2.389503 0.061781 -0.013886 -137331.000000 0 0 1
-28.279934 11.337471 33.362445 45.181254 -0.381283 0.740082 0.060490 -0.020305 -32823.400000 0 0 1
-28.454584 9.938371 33.604102 45.140561 -0.336026 0.731112 0.070946 -0.018739 -488340.000000 0 0 1
-27.171134 9.099271 33.844781 44.345648 -0.323149 0.702539 0.066165 -0.022954 45801.800000 0 0 1
-26.252324 8.898171 32.815916 42.956330 -0.326795 0.701404 0.049605 -0.025151 -288755.000000 0 0 1
-25.410914 9.997271 32.582151 42.511840 -0.374825 0.697539 0.035656 -0.021867 -879843.000000 0 0 1
-24.180414 9.462271 31.796981 41.052101 -0.373001 0.684790 0.039129 -0.021449 -200783.000000 0 0 1
-24.378414 9.186871 30.440751 40.066757 -0.360387 0.707867 0.048017 -0.016669 632695.000000 0 0 1
-23.130314 8.782371 29.857941 38.776773 -0.362877 0.691962 0.056387 -0.012983 851625.000000 0 0 1
-23.029114 8.886571 28.289391 37.544652 -0.368279 0.717447 0.079546 -0.017521 46114.400000 0 0 1
-23.373214 10.147471 27.839441 37.740069 -0.409595 0.741194 0.080038 -0.020251 116135.000000 0 0 1
-23.113614 10.267771 26.438451 36.587675 -0.418046 0.763232 0.074140 -0.025427 -956467.000000 0 0 1
-23.593114 11.708871 25.963311 36.984135 -0.460670 0.792577 0.079545 -0.023810 1108240.000000 0 0 1
-24.982614 12.004571 26.163441 38.115173 -0.447940 0.814226 0.099840 -0.024171 622202.000000 0 0 1
-25.863064 11.211771 25.370971 37.924769 -0.409052 0.837959 0.105135 -0.019129 -650917.000000 0 0 1
-27.339494 11.520871 25.672321 39.233232 -0.398818 0.857472 0.106603 -0.017831 -109555.000000 0 0 1
-27.683344 12.795971 25.136131 39.521254 -0.432975 0.881473 0.117976 -0.021578 -203087.000000 0 0 1
-29.002764 13.172771 25.466671 40.782761 -0.426333 0.896373 0.095966 -0.019158 -18051.100000 0 0 1
-29.250134 14.499171 24.823721 41.012357 -0.460198 0.920686 0.099339 -0.019974 -35890.100000 0 0 1
-28.525964 15.573971 25.429871 41.266906 -0.499734 0.906851 0.097844 -0.020705 818.608000 0 0 1
-28.546654 16.736271 24.587681 41.225821 -0.530269 0.931769 0.093009 -0.002703 89051.200000 0 0 1
-23.505114 -9.181229 31.499731 40.361100 0.372382 0.675415 0.083439 -0.031364 449929.000000 0 0 1
-22.437214 -8.668929 30.657821 38.967691 0.368696 0.665271 0.087888 -0.036412 836409.000000 0 0 1
-22.730514 -8.868029 29.275601 38.110091 0.371976 0.694795 0.086506 -0.036782 -228699.000000 0 0 1
-21.516714 -8.580329 28.406881 36.654358 0.379450 0.684092 0.111771 -0.040696 -854581.000000 0 0 1
-21.189714 -7.228829 28.301351 36.086375 0.328767 0.669283 0.101996 -0.040227 1480060.000000 0 0 1
-19.812814 -6.807829 28.552311 35.413678 0.330969 0.633009 0.096175 -0.040897 1740660.000000 0 0 1
-18.642814 -7.333329 27.655641 34.149183 0.374769 0.626904 0.095297 -0.037631 -76985.500000 0 0 1
-18.241214 -8.735129 27.906881 34.465031 0.446599 0.627129 0.095098 -0.032586 367630.000000 0 0 1
-17.788114 -9.165229 29.193321 35.393056 0.475769 0.600892 0.086707 -0.031905 88080.900000 0 0 1
-16.364114 -8.713729 29.651001 34.969918 0.489301 0.558784 0.074113 -0.027850 351282.000000 0 0 1
-15.291214 -9.264629 28.946151 34.022555 0.544731 0.553304 0.069548 -0.016983 -390154.000000 0 0 1
-14.026214 -8.751029 29.269661 33.615893 0.557812 0.514154 0.071195 -0.022903 -480912.000000 0 0 1
-12.820214 -9.560129 28.921811 33.048829 0.640748 0.505105 0.066591 -0.018952 -651681.000000 0 0 1
-12.400614 -9.327029 27.533801 31.605046 0.644871 0.513188 0.079435 -0.025953 -104119.000000 0 0 1
-11.401014 -10.225229 27.143481 31.165799 0.731083 0.513688 0.083435 -0.022505 -258019.000000 0 0 1
-10.974714 -10.246529 25.650931 29.722146 0.751098 0.529570 0.066098 -0.017869 361366.000000 0 0 1
-11.989814 -10.701529 24.766341 29.523720 0.728685 0.575606 0.063165 -0.018189 258818.000000 0 0 1
-11.522614 -10.564529 23.395321 28.137537 0.742048 0.589060 0.065483 -0.026161 819508.000000 0 0 1
-12.569414 -11.231229 22.424811 28.053571 0.729233 0.644572 0.082862 -0.031026 -406.507000 0 0 1
-12.729814 -12.640929 22.524311 28.795587 0.781895 0.672585 0.073173 -0.027337 716115.000000 0 0 1
-13.938514 -13.145529 21.922911 29.115308 0.756128 0.718235 0.081884 -0.022475 1418620.000000 0 0 1
-15.247214 -12.854229 22.759911 30.260904 0.700448 0.719519 0.084552 -0.023337 -187957.000000 0 0 1
-16.324114 -13.698729 22.491211 30.983648 0.698174 0.758446 0.080309 -0.019947 -536854.000000 0 0 1
-17.348514 -13.591929 23.420881 32.159744 0.664576 0.755007 0.085394 -0.022532 -999356.000000 0 0 1
-18.696814 -14.132329 23.000011 32.837389 0.647246 0.794809 0.095930 -0.020394 -1402890.000000 0 0 1
-18.711614 -15.543429 22.804711 33.343328 0.693172 0.817652 0.085549 -0.016287 -630202.000000 0 0 1
-19.981914 -16.085729 22.947001 34.417909 0.677791 0.841001 0.075377 -0.012839 -349225.000000 0 0 1
-20.746414 -15.909529 24.295491 35.690303 0.654202 0.822036 0.084655 -0.019370 -981925.000000 0 0 1
-20.183514 -16.610829 25.330051 36.399250 0.688603 0.801131 0.089050 -0.026010 -434159.000000 0 0 1
-20.891514 -16.616429 26.544161 37.645100 0.671910 0.788210 0.091545 -0.029017 -525078.000000 0 0 1
-20.441214 -17.586429 27.659611 38.628743 0.710467 0.772688 0.085431 -0.034469 -164802.000000 0 0 1
-20.563114 -18.959929 27.344641 39.115853 0.744857 0.796703 0.091946 -0.029767 143693.000000 0 0 1
-20.100114 -19.749029 28.412231 40.016167 0.776588 0.781271 0.088929 -0.032875 -100605.000000 0 0 1
-20.269314 -21.214029 28.091031 40.620022 0.808168 0.807155 0.103696 -0.026360 102227.000000 0 0 1
-21.628014 -21.586829 28.089891 41.506676 0.784445 0.827449 0.103181 -0.022970 -245258.000000 0 0 1
-21.738814 -22.905229 27.535421 41.897792 0.811519 0.853692 0.107069 -0.012475 383189.000000 0 0 1
-23.135714 -23.490329 27.169371 42.722729 0.793004 0.881562 0.108351 -0.002211 499826.000000 0 0 1
-23.984014 -23.773329 28.283371 44.049440 0.780987 0.873585 0.107053 0.000953 778459.000000 0 0 1
-25.151894 -24.474029 27.786501 44.762546 0.771740 0.901093 0.081189 0.009519 791779.000000 0 0 1
-25.882564 -25.241289 28.906621 46.288471 0.772855 0.896320 0.052447 0.000807 -89580.200000 0 0 1
-26.606134 -24.482129 29.858041 46.890976 0.743847 0.880514 0.040393 0.011343 -135048.000000 0 0 1
-27.363144 -25.306189 30.671631 48.268974 0.746364 0.882229 0.029365 0.021786 -545183.000000 0 0 1
-28.510864 -24.579629 31.373061 49.003026 0.711485 0.876003 0.017394 0.017310 -890815.000000 0 0 1
-29.586144 -24.407729 30.522541 49.017371 0.689783 0.898623 0.027447 0.013017 -670034.000000 0 0 1
-30.479064 -23.441529 30.990101 49.384866 0.655615 0.892430 0.045291 -0.003650 -614589.000000 0 0 1
-31.760184 -23.226729 30.188511 49.593714 0.631436 0.916355 0.046995 -0.011054 118295.000000 0 0 1
-32.769204 -24.215529 30.436151 50.858351 0.636406 0.929232 0.049602 -0.014370 621027.000000 0 0 1
-33.850104 -24.202929 29.511061 51.014842 0.620724 0.953932 0.049764 -0.014727 732064.000000 0 0 1
-34.941358 -25.274489 29.847921 52.446132 0.626219 0.965366 0.051791 -0.017803 428818.000000 0 0 1
-34.533583 -26.646029 29.558501 52.690457 0.657181 0.975222 0.042509 -0.016462 -569050.000000 0 0 1
-35.510550 -27.555319 29.885281 53.976151 0.659919 0.984025 0.034843 -0.013213 -506380.000000 0 0 1
-34.948922 -28.950229 30.279231 54.556162 0.691795 0.982421 0.029968 -0.010195 170478.000000 0 0 1
-34.347638 -28.953359 31.575071 54.909402 0.700387 0.958144 0.036049 -0.009978 -43561.100000 0 0 1
-33.697954 -30.186299 31.858204 55.332720 0.730484 0.957267 0.023047 -0.016709 -401457.000000 0 0 1
-32.984664 -30.215519 33.169496 55.688250 0.741611 0.932749 0.014311 -0.013233 -428044.000000 0 0 1
-33.841634 -30.214469 -33.576874 56.440914 0.728834 2.207941 0.028286 -0.001362 104845.000000 0 0 1
-33.107144 -30.375719 -32.363574 55.372992 0.742399 2.195017 0.024652 -0.009166 -156204.000000 0 0 1
-33.737104 -29.762279 -31.106864 54.695726 0.722883 2.175752 0.046498 -0.021163 -379603.000000 0 0 1
-33.710004 -28.324229 -31.033944 53.867727 0.698796 2.184763 0.043233 -0.019569 432513.000000 0 0 1
-32.399154 -27.754029 -30.966834 52.715616 0.708330 2.198678 0.048514 -0.016547 516391.000000 0 0 1
-32.490594 -26.205389 -30.864634 51.913262 0.678724 2.207493 0.059798 -0.011996 283874.000000 0 0 1
-33.052494 -25.726359 -29.616844 51.297859 0.661399 2.186276 0.053110 -0.023694 126736.000000 0 0 1
-33.021884 -24.333829 -29.577234 50.570672 0.635064 2.195515 0.074261 -0.022357 665016.000000 0 0 1
-31.749334 -23.855529 -28.786304 49.048525 0.644378 2.198014 0.086370 -0.027125 698678.000000 0 0 1
-31.424854 -22.465729 -28.934114 48.263997 0.620658 2.213669 0.094865 -0.027502 414087.000000 0 0 1
-30.311524 -22.052629 -28.144834 46.874712 0.628966 2.214831 0.112718 -0.025787 376828.000000 0 0 1
-29.936304 -20.514729 -28.251944 45.991399 0.600778 2.232279 0.122426 -0.030124 54615.700000 0 0 1
-29.515194 -20.095429 -29.560824 46.355316 0.597758 2.262306 0.131450 -0.025317 433960.000000 0 0 1
-29.481304 -18.674529 -29.535284 45.718906 0.564643 2.273154 0.120565 -0.029316 -251395.000000 0 0 1
-28.976834 -18.024429 -30.876304 46.020464 0.556460 2.306253 0.124950 -0.024751 102144.000000 0 0 1
-29.882604 -17.794029 -31.920874 47.207412 0.537078 2.313366 0.111912 -0.028159 571485.000000 0 0 1
-30.948724 -16.840929 -31.715614 47.405913 0.498345 2.303689 0.099388 -0.025095 132179.000000 0 0 1
-31.655914 -16.377329 -33.032674 48.594973 0.477435 2.318225 0.085581 -0.029396 -1724.210000 0 0 1
-32.620614 -17.193129 -33.640544 49.913870 0.485063 2.310368 0.088511 -0.036593 3986.170000 0 0 1
-33.903604 -16.998729 -33.068274 50.318207 0.464754 2.287872 0.087302 -0.031002 -290373.000000 0 0 1
-35.013183 -17.530529 33.884541 51.782280 0.464194 0.857453 0.093921 -0.037592 -414871.000000 0 0 1
-34.962789 -18.940229 33.767731 52.166930 0.496468 0.866758 0.069767 -0.034406 372817.000000 0 0 1
-35.760961 -19.394129 32.664361 52.172206 0.496933 0.894271 0.069138 -0.032506 17936.500000 0 0 1
-36.286194 -20.839029 32.814072 53.176276 0.521305 0.905768 0.057779 -0.026524 121546.000000 0 0 1
-35.244124 -21.763529 32.594693 52.708761 0.553194 0.904101 0.067376 -0.028705 -5669.240000 0 0 1
-35.592240 -22.980729 33.211119 53.832146 0.573323 0.905950 0.061706 -0.023089 -416880.000000 0 0 1
-34.427332 -23.890029 33.637963 53.735345 0.606638 0.894392 0.066448 -0.020711 -89601.100000 0 0 1
-33.520904 -23.600029 -33.187484 52.744872 0.613432 2.251330 0.054377 -0.023938 357353.000000 0 0 1
-32.657514 -22.495429 -33.437084 51.870957 0.603189 2.271323 0.073010 -0.030104 -550264.000000 0 0 1
-31.299244 -22.515829 -32.686354 50.547037 0.623610 2.273984 0.078273 -0.025040 117903.000000 0 0 1
-30.461524 -23.565329 -33.212484 50.855661 0.658441 2.282432 0.071489 -0.018515 1108970.000000 0 0 1
-29.048434 -23.491829 -33.001934 49.847821 0.680031 2.294352 0.092289 -0.021200 995680.000000 0 0 1
-28.600124 -23.807029 -31.538154 48.779062 0.694193 2.273851 0.101995 -0.020931 -497563.000000 0 0 1
-28.623414 -25.192449 -31.238794 49.293221 0.721731 2.257167 0.082252 -0.018053 190580.000000 0 0 1
-28.078134 -25.478709 -29.923534 48.300767 0.736900 2.238934 0.076823 -0.023239 372998.000000 0 0 1
-27.783564 -26.956849 -29.661364 48.768788 0.770297 2.224592 0.061765 -0.020316 -242706.000000 0 0 1
-28.996854 -27.609979 -29.431874 49.692693 0.760903 2.204679 0.050357 -0.015778 -39667.800000 0 0 1
-28.817454 -28.752719 -28.621184 49.762804 0.784274 2.183586 0.051173 -0.014462 63216.200000 0 0 1
-29.683664 -29.953089 -29.081724 51.225522 0.789916 2.174529 0.042702 -0.006391 -157166.000000 0 0 1
-29.427504 -30.335179 -30.424934 52.075692 0.800585 2.194745 0.047967 -0.007414 150782.000000 0 0 1
-29.948664 -31.581739 -30.784124 53.310328 0.811933 2.186400 0.052652 0.000496 -785123.000000 0 0 1
-29.571484 -32.074089 -32.216414 54.232068 0.825973 2.206877 0.025355 -0.013032 -1002550.000000 0 0 1
-28.215694 -32.130399 -32.503094 53.711629 0.850178 2.220739 0.038321 -0.004871 -772026.000000 0 0 1
-27.947334 -32.497029 -33.833114 54.605769 0.860527 2.239015 0.026486 -0.010453 10385.000000 0 0 1
-26.568914 -33.179279 33.884451 54.359248 0.895587 0.897786 0.050688 -0.007557 190703.000000 0 0 1
-26.356554 -33.767589 32.604619 53.832882 0.908042 0.920197 0.041095 0.000697 -512221.000000 0 0 1
-25.129014 33.633829 32.529781 53.112037 -0.929131 0.911609 0.048518 0.004535 -446114.000000 0 0 1
-24.874714 32.702384 31.300161 51.651693 -0.920521 0.919793 0.071377 -0.000955 -186082.000000 0 0 1
-25.922664 31.784570 31.004241 51.415040 -0.886631 0.923516 0.049713 -0.020725 -108920.000000 0 0 1
-25.739734 30.927840 29.904191 50.133081 -0.876697 0.931668 0.063081 -0.015135 -279049.000000 0 0 1
-27.045354 30.261870 29.389851 50.109833 -0.841467 0.944055 0.060998 -0.015204 -124011.000000 0 0 1
-27.534024 29.488120 30.428171 50.532616 -0.819654 0.924606 0.072256 -0.021141 210864.000000 0 0 1
-28.754744 28.870020 30.012511 50.606958 -0.787399 0.935953 0.077522 -0.029892 557841.000000 0 0 1
-29.264114 27.720390 30.912141 50.797331 -0.758315 0.916579 0.081546 -0.043254 369337.000000 0 0 1
-28.374204 26.588410 30.832061 49.625145 -0.752919 0.900397 0.085641 -0.035590 457469.000000 0 0 1
-28.899664 25.400610 31.387371 49.654291 -0.721048 0.886513 0.101474 -0.033182 459749.000000 0 0 1
-29.796034 24.582270 30.345201 49.121511 -0.689811 0.904908 0.109116 -0.037178 525511.000000 0 0 1
-29.117104 24.172220 29.200271 47.799140 -0.692870 0.913605 0.092585 -0.025539 -599554.000000 0 0 1
-29.940744 23.411580 28.373591 47.430063 -0.663625 0.929519 0.104529 -0.013712 76762.000000 0 0 1
-29.262724 23.050780 27.034441 46.027237 -0.667207 0.943006 0.112275 -0.018858 354912.000000 0 0 1
-28.113624 22.219180 27.143631 44.953805 -0.668820 0.922522 0.108315 -0.020901 239974.000000 0 0 1
-27.326744 22.184580 25.971111 43.742487 -0.681911 0.935113 0.096691 -0.019430 -745885.000000 0 0 1
-26.006944 21.491080 26.179051 42.703283 -0.690608 0.910887 0.081798 -0.017847 -941859.000000 0 0 1
-26.075364 20.137880 26.490711 42.275485 -0.657618 0.893586 0.108188 -0.023349 347628.000000 0 0 1
-24.744014 19.699680 26.692521 41.386403 -0.672382 0.869827 0.089335 -0.005719 216537.000000 0 0 1
-24.744414 18.505280 27.739821 41.523838 -0.642128 0.839217 0.111939 -0.016219 -520174.000000 0 0 1
-23.492314 17.911680 27.827371 40.584230 -0.651421 0.815273 0.093084 -0.009692 -550888.000000 0 0 1
-23.480014 16.892880 28.754491 40.786042 -0.623666 0.788362 0.088997 -0.012732 -75830.600000 0 0 1
-22.193014 16.052080 28.866481 39.792875 -0.626189 0.759154 0.096033 -0.020093 -524.764000 0 0 1
-21.231014 16.494880 29.830161 40.158132 -0.660511 0.733527 0.106503 -0.017871 209811.000000 0 0 1
-20.052014 15.724880 29.548551 39.018867 -0.665035 0.711645 0.089833 -0.022739 -71726.100000 0 0 1
-19.078514 16.184580 30.647381 39.562511 -0.703515 0.684624 0.067487 -0.023356 -543767.000000 0 0 1
-19.470414 15.754780 31.972128 40.614371 -0.680304 0.664521 0.062301 -0.016166 365523.000000 0 0 1
-18.501014 16.216980 32.903692 41.084437 -0.719705 0.642033 0.053067 -0.017986 -942294.000000 0 0 1
-18.664414 15.890880 -33.476974 41.492026 -0.705306 2.509561 0.053616 -0.025875 205396.000000 0 0 1
-19.727114 16.613980 -32.885164 41.792552 -0.699942 2.476511 0.061514 -0.024836 192395.000000 0 0 1
-21.055514 16.335080 -33.274314 42.630382 -0.659816 2.466310 0.060685 -0.013056 -1181040.000000 0 0 1
-21.952014 17.158480 -32.351974 42.696072 -0.663443 2.430619 0.059159 -0.024250 -788328.000000 0 0 1
-22.195214 16.760880 -31.014304 41.658633 -0.646794 2.410562 0.070590 -0.031758 173573.000000 0 0 1
-23.094114 17.613180 -30.353994 42.011036 -0.651560 2.378243 0.072272 -0.032927 -542297.000000 0 0 1
-23.069014 17.366880 -28.821404 40.797810 -0.645305 2.355259 0.074846 -0.032638 177074.000000 0 0 1
-23.816714 16.240880 -28.297234 40.394746 -0.598482 2.346919 0.076512 -0.035287 1284260.000000 0 0 1
-25.235474 16.221880 -28.559754 41.420262 -0.571312 2.331611 0.092627 -0.035811 1079530.000000 0 0 1
-26.046064 15.180080 -27.709344 40.946795 -0.527689 2.314089 0.092969 -0.037060 308921.000000 0 0 1
-25.865074 13.834280 -28.043464 40.581095 -0.491148 2.333734 0.053670 -0.027189 200137.000000 0 0 1
-26.856534 13.112780 -27.335714 40.502589 -0.454206 2.311643 0.031535 -0.025570 193821.000000 0 0 1
-26.585164 11.602880 -27.436674 39.927044 -0.411522 2.328383 0.044484 -0.027331 351956.000000 0 0 1
-25.429804 11.261580 -26.676784 38.537630 -0.416892 2.335367 0.043590 -0.030183 -126288.000000 0 0 1
-24.773014 10.177780 -27.227864 38.192225 -0.389817 2.364445 0.036285 -0.022347 -793892.000000 0 0 1
-23.553514 9.820880 -26.398754 36.716644 -0.395041 2.373139 0.073602 -0.023590 -614582.000000 0 0 1
-23.886314 9.188680 -25.184944 35.906396 -0.367233 2.348164 0.059378 -0.013541 -492987.000000 0 0 1
-22.802914 8.479680 -24.662954 34.643025 -0.356022 2.363020 0.099507 -0.002596 -430283.000000 0 0 1
-23.203614 7.326380 -23.717054 33.979144 -0.305837 2.343381 0.101640 0.002555 106791.000000 0 0 1
-23.873914 6.305480 -24.460054 34.756541 -0.258219 2.351464 0.091152 -0.020316 340287.000000 0 0 1
-24.085314 5.127180 -23.643454 34.138003 -0.209745 2.335862 0.102875 -0.005334 -103690.000000 0 0 1
35.858129 24.842571 -10.207154 44.801169 0.605879 1.800647 0.061718 -0.004372 -139188.000000 0 0 1
36.693699 24.302071 -9.226254 44.968232 0.584970 1.777436 0.069930 -0.003242 -162301.000000 0 0 1
-36.771874 23.340971 -9.817554 44.647016 -0.565580 1.792501 0.080503 -0.007399 4572.260000 0 0 1
-35.773160 22.695071 -8.857854 43.281021 -0.565342 1.776912 0.076039 -0.007977 115807.000000 0 0 1
-36.391924 21.738471 -8.021854 43.142594 -0.538464 1.757823 0.078377 -0.013542 238533.000000 0 0 1
-35.347323 21.174071 -7.257254 41.838287 -0.539705 1.745138 0.087490 -0.003170 155429.000000 0 0 1
-35.848196 20.386571 -6.030754 41.678237 -0.517080 1.716004 0.084742 0.010724 -93150.400000 0 0 1
-36.470584 19.191271 -6.354554 41.698786 -0.484397 1.723784 0.071516 0.006807 25362.300000 0 0 1
-36.874934 18.401971 -5.232554 41.542423 -0.462877 1.697089 0.084161 -0.001214 196658.000000 0 0 1
36.481849 17.223671 -5.643354 40.736072 0.441093 1.709778 0.072780 0.006972 99168.700000 0 0 1
35.302609 17.694971 -6.245154 39.979846 0.464637 1.727646 0.065668 0.005784 -332689.000000 0 0 1
34.691769 16.597271 -6.943854 39.079474 0.446236 1.749430 0.068507 0.004797 82067.700000 0 0 1
33.726309 17.082071 -8.029854 38.648928 0.468827 1.780085 0.046875 -0.001310 -105385.000000 0 0 1
33.206259 15.969571 -8.761054 37.873987 0.448268 1.804232 0.065007 -0.002645 173782.000000 0 0 1
32.392879 16.440771 -9.840954 37.635647 0.469664 1.835351 0.066740 -0.004975 -269855.000000 0 0 1
31.958679 15.254271 -10.706654 36.995707 0.445333 1.864399 0.058677 0.000731 -417718.000000 0 0 1
30.817379 14.548171 -10.311254 35.604523 0.441061 1.864611 0.061111 0.006312 569.629000 0 0 1
30.944909 13.859271 -9.083054 35.102260 0.421081 1.832534 0.062940 0.003611 -995253.000000 0 0 1
29.804699 12.880271 -8.893554 33.664770 0.407916 1.838150 0.075374 0.013715 -519743.000000 0 0 1
29.941159 11.700371 -9.671254 33.569403 0.372532 1.863036 0.077404 0.009490 -51682.200000 0 0 1
28.974829 10.760771 -9.355454 32.293334 0.355596 1.864712 0.098358 0.002437 -813882.000000 0 0 1
29.321439 9.254171 -9.696554 32.239876 0.305717 1.876289 0.106964 0.009495 -1102830.000000 0 0 1
30.449419 8.853871 -9.014554 32.966958 0.282970 1.847766 0.108122 0.005570 -217019.000000 0 0 1
30.557139 7.440771 -9.127454 32.747736 0.238855 1.853258 0.115915 -0.001503 -35880.600000 0 0 1
31.721259 6.916971 -8.236454 33.495103 0.214694 1.819245 0.141202 -0.013897 510340.000000 0 0 1
33.028239 7.112471 -8.766854 34.904291 0.212106 1.824683 0.134440 -0.012217 300079.000000 0 0 1
33.964019 6.691171 -7.802054 35.485185 0.194517 1.792475 0.133375 -0.008009 114765.000000 0 0 1
35.439889 6.931671 -8.229154 37.037181 0.193151 1.794853 0.132416 -0.011884 222269.000000 0 0 1
35.876379 5.935071 -9.174354 37.503445 0.163946 1.817931 0.139456 -0.018666 1145260.000000 0 0 1
-37.085624 6.310671 -9.504154 38.800735 -0.168550 1.818262 0.140045 -0.021918 481832.000000 0 0 1
-36.546404 5.416371 -10.671554 38.455933 -0.147134 1.851988 0.147169 -0.037487 324313.000000 0 0 1
-35.156775 5.453971 -10.969854 37.230126 -0.153906 1.869885 0.146492 -0.044706 708871.000000 0 0 1
-34.687983 6.545671 -11.728454 37.197562 -0.186508 1.891571 0.125406 -0.043391 -498003.000000 0 0 1
-33.856044 7.595271 -10.954654 36.385771 -0.220686 1.876611 0.126306 -0.036002 -474657.000000 0 0 1
-34.582038 8.421271 -10.014554 36.974673 -0.238867 1.845071 0.120219 -0.026951 507159.000000 0 0 1
-35.360721 9.417971 -10.681954 38.120637 -0.260297 1.854814 0.108599 -0.033242 -242311.000000 0 0 1
-36.193254 10.103871 -9.616154 38.788017 -0.272234 1.821324 0.091641 -0.017888 -652670.000000 0 0 1
-35.466392 10.907271 -8.727954 38.118378 -0.298358 1.801815 0.108300 -0.012316 -547509.000000 0 0 1
-36.187114 11.553471 -7.745554 38.768332 -0.309041 1.771941 0.095636 -0.005092 -1214290.000000 0 0 1
-35.320282 12.508871 -6.942454 38.107635 -0.340372 1.754000 0.104922 -0.004131 -350036.000000 0 0 1
-34.779992 13.516171 -7.729654 38.106198 -0.370657 1.775059 0.091161 -0.007448 -239740.000000 0 0 1
-34.398922 14.623371 -6.904254 38.010493 -0.401965 1.753451 0.104683 -0.008712 168699.000000 0 0 1
-33.388854 15.562371 -7.547254 37.602713 -0.436157 1.772879 0.089269 -0.009024 75961.300000 0 0 1
-34.102066 16.336171 -8.473354 38.750731 -0.446737 1.791241 0.061980 -0.007520 244050.000000 0 0 1
-33.420274 17.554771 -8.752554 38.751670 -0.483661 1.798625 0.051083 -0.000042 253915.000000 0 0 1
-33.951574 18.255871 -10.002154 39.824983 -0.493353 1.824667 0.040471 -0.004005 -98791.800000 0 0 1
-33.447134 17.678471 -11.191854 39.452462 -0.486226 1.858425 0.025356 -0.009112 -111342.000000 0 0 1
-34.325359 17.998471 -12.223554 40.639765 -0.482937 1.876305 0.028570 -0.009286 -438108.000000 0 0 1
-33.572134 18.282171 -13.531154 40.551425 -0.498660 1.911000 0.012629 -0.003543 -211156.000000 0 0 1
-32.822494 19.442971 -13.633054 40.511794 -0.534788 1.914016 0.008468 0.001440 -153296.000000 0 0 1
-32.544484 19.721971 -14.984154 40.897732 -0.544820 1.945913 0.001179 0.003335 -592059.000000 0 0 1
-31.910974 21.102271 -15.138354 41.143479 -0.584268 1.947590 0.024801 -0.002160 -1257960.000000 0 0 1
-30.575854 21.108771 -14.790554 39.990293 -0.604236 1.949648 0.022023 0.000010 -789787.000000 0 0 1
-30.035634 22.392271 -14.682454 40.238384 -0.640630 1.944308 0.028729 -0.005882 -83072.000000 0 0 1
-29.358894 23.048271 -15.936154 40.584831 -0.665560 1.974322 0.026885 -0.004804 -842783.000000 0 0 1
-30.240554 23.490471 -16.917254 41.862714 -0.660426 1.986805 0.037064 -0.003092 -83465.500000 0 0 1
-29.610384 24.115971 -18.051654 42.239994 -0.683486 2.012366 0.047069 -0.000905 -307050.000000 0 0 1
-28.834494 25.454071 -17.838954 42.397713 -0.723211 2.005071 0.065342 -0.002896 -29743.500000 0 0 1
-29.595454 26.529171 -17.288154 43.342451 -0.730819 1.981084 0.083279 -0.012178 81540.400000 0 0 1
-28.962904 27.813171 -17.372554 43.751891 -0.765151 1.979118 0.079432 -0.017276 58342.100000 0 0 1
-29.699714 28.935071 -16.582954 44.657650 -0.772358 1.951243 0.076620 -0.024636 -31427.400000 0 0 1
-29.551994 28.908171 -15.167754 44.034798 -0.774386 1.922448 0.070965 -0.019733 -11438.900000 0 0 1
-28.545584 29.736771 -14.679054 43.756149 -0.805834 1.912905 0.065406 -0.018558 -342935.000000 0 0 1
-28.770894 29.957271 -13.142654 43.565259 -0.805597 1.877248 0.072210 -0.023691 1109610.000000 0 0 1
-29.896844 30.879371 -12.907154 44.877071 -0.801563 1.862528 0.055873 -0.018510 1254700.000000 0 0 1
-29.714674 31.847071 -11.853754 45.140993 -0.820023 1.836506 0.052762 -0.014267 -26021.700000 0 0 1
-28.827024 33.115871 -12.081154 45.536936 -0.854527 1.839316 0.051876 -0.021909 403869.000000 0 0 1
-29.275934 34.031271 -13.090554 46.760778 -0.860373 1.854536 0.036553 -0.026742 38505.900000 0 0 1
-28.296784 -33.026438 -13.150054 45.435422 0.862372 1.864420 0.076231 -0.024419 185442.000000 0 0 1
-28.440214 -32.085238 -14.417354 45.234593 0.845549 1.895179 0.057837 -0.019876 -27221.800000 0 0 1
-28.030624 -32.807238 -15.549754 45.867479 0.863751 1.916666 0.050439 -0.020882 -232618.000000 0 0 1
-28.392734 -32.172238 -16.710354 46.048194 0.847721 1.942162 0.055642 -0.007909 -516578.000000 0 0 1
-27.387524 -32.383038 -17.844954 46.012825 0.868783 1.969068 0.045720 -0.013975 -182963.000000 0 0 1
-27.423784 -33.677838 -18.473954 47.196904 0.887398 1.972974 0.046593 -0.008206 -240224.000000 0 0 1
-26.808924 33.344971 -17.795854 46.338946 -0.893629 1.964961 0.032161 -0.020162 -828426.000000 0 0 1
-26.966894 31.932371 -18.550154 45.727431 -0.869504 1.988506 0.050413 -0.029160 573109.000000 0 0 1
-28.299374 31.423071 -18.662154 46.222721 -0.837654 1.986402 0.059077 -0.027763 424286.000000 0 0 1
-29.048354 32.091671 -19.674454 47.547517 -0.835133 1.997404 0.056441 -0.018275 168010.000000 0 0 1
-30.563244 31.717071 -19.571254 48.198739 -0.803922 1.988927 0.064683 -0.032126 473960.000000 0 0 1
-30.910074 30.404971 -19.962054 47.732364 -0.777161 2.002268 0.066237 -0.028684 472738.000000 0 0 1
-32.306384 30.331371 -20.217254 48.707616 -0.753878 1.998820 0.086713 -0.026824 124068.000000 0 0 1
-32.657384 29.255771 -21.178754 48.692345 -0.730512 2.020779 0.090629 -0.032065 -683578.000000 0 0 1
-33.995434 28.852071 -21.240954 49.389368 -0.703741 2.015368 0.082371 -0.030604 -145285.000000 0 0 1
-34.122430 27.617771 -21.919454 49.066730 -0.680430 2.033900 0.084481 -0.027425 188477.000000 0 0 1
-35.522294 26.965871 -21.719954 49.605927 -0.649316 2.024002 0.094373 -0.025796 84182.900000 0 0 1
-36.544714 27.542771 -22.470154 50.980665 -0.645848 2.027240 0.080664 -0.018178 -184367.000000 0 0 1
36.721959 26.584571 -22.662354 50.683567 0.626614 2.034355 0.088970 -0.019723 181844.000000 0 0 1
35.751529 27.078371 -23.708854 50.729870 0.648223 2.057093 0.099491 -0.031527 -398853.000000 0 0 1
36.447759 27.274671 -24.930554 51.902594 0.642427 2.071831 0.098367 -0.024875 -145738.000000 0 0 1
35.598209 27.562871 -26.019264 51.999485 0.658858 2.094829 0.098620 -0.031299 -11396.200000 0 0 1
36.325489 27.843071 -27.381454 53.334058 0.653971 2.109933 0.087887 -0.022000 55243.300000 0 0 1
36.765859 26.755671 -28.118894 53.462758 0.629096 2.124631 0.071280 -0.009465 -180293.000000 0 0 1
-36.828074 27.114271 -29.246414 54.284837 -0.634636 2.139759 0.050242 -0.004620 -1139940.000000 0 0 1
-36.481074 25.916271 -30.206724 53.990444 -0.617674 2.164558 0.042005 -0.003768 798602.000000 0 0 1
-35.332501 25.135271 -29.857724 52.646474 -0.618331 2.173821 0.059640 -0.005659 1322800.000000 0 0 1
-34.031184 25.751471 -29.853714 52.081705 -0.647777 2.181213 0.044585 0.006898 851452.000000 0 0 1
-32.941114 24.916571 -29.123874 50.538624 -0.647583 2.184953 0.047204 0.005232 24191.400000 0 0 1
-32.812064 23.633971 -29.689874 50.166570 -0.624209 2.204118 0.063884 -0.003963 134285.000000 0 0 1
-32.845824 22.639871 -28.638474 49.107781 -0.603493 2.193429 0.059402 -0.001086 -94561.500000 0 0 1
-32.508314 21.182271 -29.011844 48.447561 -0.577496 2.212836 0.060388 -0.011137 166703.000000 0 0 1
-31.122794 20.944471 -29.187554 47.531174 -0.592349 2.232006 0.099823 -0.014036 140251.000000 0 0 1
-30.967964 19.519671 -29.306744 46.892618 -0.562414 2.245897 0.085200 -0.023621 552459.000000 0 0 1
-29.496274 19.050871 -29.584724 45.915376 -0.573469 2.270945 0.111476 -0.029197 447378.000000 0 0 1
-29.067894 19.433071 -30.885364 46.652893 -0.589299 2.294313 0.123835 -0.037555 662569.000000 0 0 1
-27.738454 19.077471 -31.274524 45.950708 -0.602466 2.319392 0.109169 -0.034983 578884.000000 0 0 1
-27.661664 17.591371 -31.782724 45.659233 -0.566433 2.340727 0.094187 -0.031505 -289933.000000 0 0 1
-28.048244 16.595071 -30.856554 44.880144 -0.534266 2.328882 0.068478 -0.027079 134379.000000 0 0 1
-28.006574 15.293471 -31.468074 44.816271 -0.499819 2.349219 0.048831 -0.023288 -74229.100000 0 0 1
-28.589284 14.106771 -30.623144 44.205487 -0.458377 2.336085 0.053134 -0.025989 424180.000000 0 0 1
-30.010434 14.224871 -30.551824 45.126346 -0.442630 2.314514 0.047969 -0.026894 536785.000000 0 0 1
-30.763314 13.035771 -30.481364 45.226390 -0.400806 2.310370 0.038039 -0.023538 -93140.700000 0 0 1
-30.648164 12.047471 -29.260174 44.052347 -0.374535 2.297238 0.038609 -0.029705 -466697.000000 0 0 1
-31.012044 12.658171 -28.051024 43.690229 -0.387529 2.267957 0.029088 -0.025051 283177.000000 0 0 1
-30.821024 11.684071 -27.025874 42.624534 -0.362355 2.257569 0.023792 -0.019032 -32474.800000 0 0 1
-30.754994 12.189971 -25.586474 41.822634 -0.377362 2.229112 0.015209 -0.020001 -168597.000000 0 0 1
-29.565434 12.900971 -25.347074 41.024677 -0.411447 2.236801 0.023628 -0.025716 -248642.000000 0 0 1
-29.454244 13.576871 -24.105354 40.409801 -0.431921 2.209958 0.026245 -0.015407 -235501.000000 0 0 1
-27.974964 13.772071 -23.748154 39.194941 -0.457469 2.221691 0.038479 -0.010013 -1425480.000000 0 0 1
-27.266944 14.626471 -24.633854 39.550558 -0.492356 2.243170 0.054949 -0.024034 357317.000000 0 0 1
-25.890394 14.666771 -24.244654 38.382678 -0.515419 2.254484 0.066783 -0.029462 531490.000000 0 0 1
-25.480284 15.144171 -22.841054 37.420643 -0.536254 2.227345 0.073447 -0.021357 -1421490.000000 0 0 1
-25.689524 16.532471 -22.707054 38.064216 -0.571827 2.209987 0.086588 -0.019975 137530.000000 0 0 1
-25.811654 16.894971 -21.329754 37.505199 -0.579566 2.175739 0.079165 -0.010798 155496.000000 0 0 1
-27.250554 17.173871 -20.832254 38.360362 -0.562345 2.144882 0.068216 -0.004451 1094310.000000 0 0 1
-28.188504 16.052071 -20.931854 38.605741 -0.517657 2.143844 0.069230 -0.003660 937911.000000 0 0 1
-29.459454 16.244571 -20.369354 39.327549 -0.503934 2.115239 0.055966 0.005464 -864831.000000 0 0 1
-30.456474 15.052471 -20.424654 39.640134 -0.459020 2.112098 0.013668 0.008009 443816.000000 0 0 1
-31.193454 14.888571 -21.640154 40.779865 -0.445322 2.130173 0.013809 0.007796 -11881.600000 0 0 1
-32.112724 15.914771 -21.830854 41.965381 -0.460114 2.117894 -0.003880 0.012705 -1387090.000000 0 0 1
-32.587124 16.007771 -23.279954 43.129174 -0.456607 2.140963 -0.001037 0.006212 65104.300000 0 0 1
-33.439464 14.935771 -23.712854 43.629972 -0.420065 2.145396 0.013407 0.004363 327467.000000 0 0 1
-33.776594 15.113471 -25.078484 44.701294 -0.420735 2.166418 0.029459 -0.007926 -387281.000000 0 0 1
-35.071951 14.499771 -25.623004 45.791085 -0.392029 2.164655 0.021423 -0.002428 -234123.000000 0 0 1
-35.209747 13.038871 -25.700584 45.500093 -0.354661 2.171044 0.029282 -0.008513 63081.300000 0 0 1
-35.003963 12.295771 -24.543654 44.484316 -0.337804 2.155242 0.020195 -0.008686 -327906.000000 0 0 1
-35.005967 10.722571 -24.826454 44.235100 -0.297233 2.166678 0.030319 -0.013230 406151.000000 0 0 1
-36.351814 10.397971 -25.132984 45.400871 -0.278598 2.157452 0.037742 -0.014244 222917.000000 0 0 1
-36.337204 9.292871 -26.047684 45.664337 -0.250374 2.177809 0.049273 -0.011778 -158094.000000 0 0 1
36.606959 8.706771 -26.393624 45.961948 0.233506 2.182483 0.078056 -0.005596 -250536.000000 0 0 1
35.947389 7.978771 -25.389914 44.727210 0.218416 2.174459 0.062088 -0.001280 -163076.000000 0 0 1
34.861369 7.307171 -25.990474 44.093248 0.206615 2.201166 0.086108 0.001158 -491313.000000 0 0 1
34.085249 6.413871 -25.017954 42.764938 0.185997 2.195690 0.096685 -0.008127 -501919.000000 0 0 1
34.899719 5.438971 -24.466554 42.967255 0.154602 2.176600 0.091849 -0.015097 -206091.000000 0 0 1
34.194589 4.470571 -23.704654 41.846942 0.130002 2.173001 0.094653 -0.017381 13140.300000 0 0 1
35.125889 3.528271 -22.947454 42.105373 0.100111 2.147186 0.084554 -0.013716 -175660.000000 0 0 1
35.989169 2.670271 -23.625954 43.133935 0.074061 2.150451 0.091551 -0.020680 298557.000000 0 0 1
36.673969 1.835271 -22.651454 43.144369 0.050001 2.123529 0.114929 -0.016894 44180.000000 0 0 1
-36.943254 0.641571 -23.274154 43.668088 -0.017365 2.132913 0.124643 -0.018832 -33302.500000 0 0 1
36.568109 -0.420229 -23.773554 43.618632 -0.011491 2.147224 0.110085 -0.020482 -103152.000000 0 0 1
-36.966504 -1.551529 -24.049454 44.128289 0.041947 2.147173 0.116173 -0.022644 154271.000000 0 0 1
-23.697314 29.062371 27.375961 46.428734 -0.886738 0.940191 0.064170 -0.020464 117176.000000 0 0 1
-24.913614 29.581371 26.801661 47.053955 -0.870844 0.964784 0.044335 -0.024251 1191560.000000 0 0 1
-25.228734 29.183571 25.468101 46.225469 -0.857953 0.987290 0.046760 -0.016851 -147576.000000 0 0 1
-25.613734 27.671871 25.150591 45.324917 -0.824004 0.982559 0.063077 -0.022130 222635.000000 0 0 1
-26.881254 27.163871 25.571221 45.982226 -0.790627 0.981097 0.065225 -0.016328 504157.000000 0 0 1
-27.023794 26.806071 27.003811 46.669655 -0.781354 0.953766 0.075559 -0.018304 -313899.000000 0 0 1
-26.276634 25.531071 27.555131 45.843018 -0.771008 0.925950 0.071724 -0.018042 1545080.000000 0 0 1
-24.892314 25.635071 27.981571 45.384496 -0.800097 0.906450 0.072803 -0.015158 1165650.000000 0 0 1
-24.759814 26.162771 29.318771 46.444906 -0.812942 0.887621 0.069883 -0.019225 371532.000000 0 0 1
-23.317214 26.038271 29.879141 45.983118 -0.840474 0.863495 0.063220 -0.003879 -393169.000000 0 0 1
-22.286414 26.799371 29.307141 45.538984 -0.877081 0.871654 0.080599 -0.006333 458624.000000 0 0 1
-21.077714 26.550771 30.036791 45.292630 -0.899808 0.845748 0.111137 -0.007639 539347.000000 0 0 1
-20.199014 25.354771 29.682081 43.953277 -0.898098 0.829412 0.084154 0.008598 -563366.000000 0 0 1
-19.586914 25.258571 28.405101 42.760874 -0.911201 0.844269 0.081551 -0.006021 32853.800000 0 0 1
-20.280814 24.419371 27.534591 42.021076 -0.877720 0.856274 0.080240 -0.014224 -158763.000000 0 0 1
-19.864514 22.919471 27.516691 40.952037 -0.856681 0.833992 0.058091 0.003572 -52729.600000 0 0 1
-20.300414 22.133671 28.589161 41.465001 -0.828574 0.810030 0.045943 0.005292 -46946.800000 0 0 1
-20.027314 20.784071 28.407451 40.497583 -0.803939 0.793352 0.065516 -0.001855 -297055.000000 0 0 1
-20.654614 19.930971 29.462351 41.132552 -0.767570 0.772342 0.070930 -0.009102 -497755.000000 0 0 1
-20.006714 20.166571 30.653331 41.792175 -0.789377 0.747382 0.052191 -0.007522 160998.000000 0 0 1
-20.640614 19.609671 31.804611 42.686150 -0.759790 0.730141 0.045302 -0.014687 250670.000000 0 0 1
-19.761414 20.020571 33.053820 43.403822 -0.791912 0.705108 0.049510 -0.011129 218198.000000 0 0 1
-19.801814 21.366371 33.550157 44.432496 -0.823384 0.715018 0.019335 0.001006 75808.000000 0 0 1
-19.032414 22.293871 32.784216 43.977884 -0.864155 0.729556 0.046208 0.002669 -1722.750000 0 0 1
-17.593014 22.487871 33.332363 43.889235 -0.906921 0.708305 0.044461 0.009123 121784.000000 0 0 1
-16.839614 21.312671 33.293418 42.968061 -0.902108 0.684333 0.052858 -0.009928 1038680.000000 0 0 1
-15.437814 21.564571 33.621250 42.822252 -0.949487 0.667882 0.054195 -0.008568 1150580.000000 0 0 1
-14.554614 20.329171 33.296168 41.638285 -0.949447 0.644080 0.050524 -0.019622 291426.000000 0 0 1
-13.169014 20.456971 33.604338 41.486891 -0.998833 0.626646 0.051302 -0.023154 447239.000000 0 0 1
-12.835414 20.120871 -32.942184 40.679046 -1.002963 2.514620 0.066026 -0.024561 -76675.600000 0 0 1
-11.302914 20.082771 -32.700384 40.004858 -1.058166 2.527697 0.059477 -0.019825 296278.000000 0 0 1
-10.737714 21.385671 -32.773454 40.580103 -1.105471 2.510908 0.062467 -0.014854 45026.600000 0 0 1
-9.418814 21.353571 -32.246014 39.805709 -1.155378 2.515094 0.051183 -0.014547 201312.000000 0 0 1
-8.673414 22.728171 -32.371194 40.493111 -1.206239 2.497133 0.058476 -0.015482 54407.200000 0 0 1
-8.797014 23.647571 -31.311434 40.211951 -1.214654 2.463324 0.065452 -0.015636 -79299.000000 0 0 1
-8.298814 23.236271 -30.069934 38.897243 -1.227767 2.454449 0.059603 -0.020113 -156008.000000 0 0 1
-7.965214 24.407171 -29.138564 38.835687 -1.255346 2.419318 0.066322 -0.021425 -145422.000000 0 0 1
-6.777914 25.019071 -29.565554 39.319410 -1.306237 2.421785 0.074013 -0.016352 -259627.000000 0 0 1
-6.380614 25.999571 -28.610694 39.182416 -1.330140 2.389400 0.091723 -0.017139 163190.000000 0 0 1
-5.062814 26.721471 -29.044904 39.790395 -1.383550 2.389042 0.106065 -0.024172 -164514.000000 0 0 1
-4.003414 25.840671 -28.757464 38.868488 -1.417091 2.403667 0.100298 -0.012474 146209.000000 0 0 1
-2.761414 26.003071 -29.429964 39.368870 -1.464997 2.415153 0.099578 -0.014983 940459.000000 0 0 1
-1.892814 27.273071 -29.112204 39.936494 -1.501505 2.387601 0.101981 -0.028641 -541679.000000 0 0 1
-1.388314 27.368671 -27.841024 39.065255 -1.520113 2.364108 0.110871 -0.039438 117546.000000 0 0 1
-0.831514 28.646171 -27.569514 39.766476 -1.541777 2.336834 0.105636 -0.032396 -496499.000000 0 0 1
-0.222614 28.743771 -26.128314 38.845112 -1.563052 2.308551 0.122405 -0.045378 933739.000000 0 0 1
0.971986 28.021271 -25.784904 38.091963 1.536123 2.314355 0.152906 -0.051868 850702.000000 0 0 1
2.153486 28.314071 -26.501414 38.841332 1.494885 2.321699 0.142738 -0.048579 -544685.000000 0 0 1
3.377686 28.352871 -25.589304 38.341968 1.452225 2.301504 0.122372 -0.053021 -309939.000000 0 0 1
3.785086 27.103771 -25.009054 37.072821 1.432042 2.311209 0.150243 -0.045380 724496.000000 0 0 1
5.116786 27.165071 -24.485654 36.927900 1.384619 2.295704 0.118565 -0.033377 315615.000000 0 0 1
5.736786 25.850471 -24.166654 35.849473 1.352414 2.310562 0.121727 -0.028721 -182122.000000 0 0 1
6.846786 25.998171 -23.305454 35.579876 1.313287 2.285003 0.108696 -0.027358 -355848.000000 0 0 1
7.549686 24.863171 -22.938154 34.660264 1.275995 2.294013 0.097200 -0.018567 -90115.800000 0 0 1
9.021086 25.095471 -22.573054 34.938595 1.225709 2.273231 0.087060 0.000021 -563868.000000 0 0 1
9.261086 25.923071 -21.463354 34.906287 1.227675 2.233037 0.085827 -0.003720 94070.600000 0 0 1
10.620686 26.172171 -21.156154 35.289720 1.185299 2.213671 0.082046 -0.004755 346401.000000 0 0 1
11.487586 25.111471 -20.455454 34.365334 1.141753 2.208355 0.060240 -0.000542 -155935.000000 0 0 1
11.830686 24.003971 -21.337054 34.226096 1.112874 2.243899 0.055161 0.000096 183299.000000 0 0 1
12.428086 22.909671 -20.642354 33.247814 1.073743 2.240640 0.048423 0.000470 -72338.000000 0 0 1
12.592486 21.767871 -21.591354 33.145097 1.046344 2.280250 0.041707 -0.002268 -617074.000000 0 0 1
11.371686 21.378171 -22.121654 32.798003 1.081932 2.311059 0.051397 -0.014709 -623268.000000 0 0 1
11.515186 20.412771 -23.091654 32.901447 1.057180 2.348778 0.052064 -0.015678 -51395.300000 0 0 1
10.671886 20.519771 -24.373754 33.601042 1.091215 2.382393 0.061012 -0.017665 -150501.000000 0 0 1
9.271086 20.507371 -24.346554 33.155090 1.146209 2.395466 0.063634 -0.022619 -406849.000000 0 0 1
8.748586 20.383271 -25.626254 33.892778 1.165370 2.428126 0.061783 -0.021630 14253.700000 0 0 1
7.205686 20.184271 -25.680324 33.448554 1.227903 2.446128 0.073831 -0.036915 398771.000000 0 0 1
6.353486 21.283871 -25.418654 33.756154 1.280705 2.423418 0.093620 -0.039184 -5667.300000 0 0 1
6.244586 21.660471 -24.101054 33.000480 1.290113 2.389593 0.097006 -0.040162 -1493720.000000 0 0 1
4.841586 21.731471 -23.551454 32.409393 1.351585 2.384282 0.125428 -0.045681 -976159.000000 0 0 1
4.144186 22.877471 -24.012654 33.423951 1.391593 2.372334 0.124658 -0.038338 -837169.000000 0 0 1
2.851586 22.902971 -23.514354 32.948482 1.446927 2.365520 0.149503 -0.045851 -714758.000000 0 0 1
2.067786 24.132671 -24.006454 34.102366 1.485321 2.351744 0.135860 -0.046937 -56142.600000 0 0 1
0.660986 24.037271 -24.021054 33.988797 1.543305 2.355668 0.157109 -0.060486 29375.800000 0 0 1
0.151386 24.919771 -24.986354 35.289316 1.564721 2.357519 0.145807 -0.047128 -839468.000000 0 0 1
-1.331514 24.886671 -25.288654 35.505427 -1.517344 2.363491 0.156326 -0.045110 -596153.000000 0 0 1
-1.730814 23.641871 -25.854674 35.077029 -1.497717 2.399540 0.176300 -0.053673 -612911.000000 0 0 1
-3.048514 23.686671 -26.303024 35.527467 -1.442798 2.404398 0.162801 -0.038002 -319764.000000 0 0 1
-3.583014 22.335071 -26.849714 35.108411 -1.411731 2.441474 0.149950 -0.035832 -421777.000000 0 0 1
-2.836914 21.952271 -27.940314 35.645637 -1.442278 2.471615 0.180014 -0.047569 -132671.000000 0 0 1
-3.336514 20.700171 -28.465304 35.353966 -1.410988 2.506727 0.147019 -0.044516 791322.000000 0 0 1
-4.569514 20.831571 -29.455844 36.365940 -1.354861 2.514922 0.096328 -0.029233 587547.000000 0 0 1
-4.317314 21.186471 -30.847734 37.670790 -1.369772 2.530248 0.097619 -0.026404 117244.000000 0 0 1
-3.722814 22.497671 -30.981274 38.468739 -1.406807 2.507083 0.128696 -0.034404 136859.000000 0 0 1
-3.257114 22.737171 -32.417744 39.730314 -1.428514 2.525158 0.103560 -0.026618 88488.500000 0 0 1
-2.113814 22.009971 -32.851574 39.599658 -1.475051 2.549174 0.105146 -0.023245 368548.000000 0 0 1
-1.856514 22.248971 33.665512 40.395916 -1.487546 0.585585 0.097865 -0.003650 96774.300000 0 0 1
-0.874114 21.177171 33.041386 39.255189 -1.529543 0.570358 0.113239 -0.003849 383939.000000 0 0 1
-1.299414 19.859071 32.856582 38.413880 -1.505458 0.544607 0.104748 0.005047 -13492.800000 0 0 1
-0.239214 19.225571 32.183388 37.489335 -1.558354 0.538522 0.110016 -0.004033 125183.000000 0 0 1
-0.550914 17.814471 31.691911 36.359815 -1.539881 0.512300 0.105789 -0.008559 -179565.000000 0 0 1
-1.361514 17.679971 30.568001 35.338899 -1.493939 0.525654 0.089486 -0.006628 -297582.000000 0 0 1
-1.719414 16.321971 30.321601 34.478437 -1.465840 0.496119 0.074658 -0.009416 -620925.000000 0 0 1
-2.810214 16.239671 29.257751 33.580355 -1.399447 0.513000 0.071342 -0.013385 -445973.000000 0 0 1
-4.073614 16.734071 29.625221 34.267728 -1.332008 0.526597 0.039916 -0.014159 -163590.000000 0 0 1
-4.252214 18.147171 29.586071 34.967653 -1.340630 0.562174 0.049556 -0.017193 107138.000000 0 0 1
-5.764914 18.543771 29.757801 35.533539 -1.269387 0.578184 0.028222 -0.023132 610500.000000 0 0 1
-6.522514 18.081171 28.698241 34.540715 -1.224590 0.590158 0.007320 -0.016823 -756279.000000 0 0 1
-7.854714 18.480571 28.867391 35.164674 -1.168904 0.607776 0.019185 -0.025945 -481173.000000 0 0 1
-8.963614 17.844271 27.979131 34.374353 -1.105291 0.619871 0.020970 -0.019551 246244.000000 0 0 1
-9.349114 16.517471 28.166571 33.964518 -1.055742 0.592953 0.017864 -0.027182 -87796.000000 0 0 1
-10.020114 16.376471 29.398841 35.112439 -1.021702 0.578512 0.018751 -0.029426 -648195.000000 0 0 1
-10.769314 14.969771 29.647331 34.914702 -0.947166 0.556449 0.017642 -0.031227 204122.000000 0 0 1
-10.084514 13.687971 29.678891 34.203721 -0.935834 0.520221 0.036082 -0.022341 1024340.000000 0 0 1
-8.974414 13.525571 30.609691 34.647285 -0.984979 0.487587 0.019470 -0.021216 537230.000000 0 0 1
-9.404714 13.309671 32.050030 35.955534 -0.955649 0.470416 0.042703 -0.029619 -232683.000000 0 0 1
-9.963614 12.017171 32.251089 35.830417 -0.878553 0.450789 0.052702 -0.018623 352359.000000 0 0 1
-10.421614 11.754171 33.575464 37.068617 -0.845417 0.437614 0.061716 -0.008712 -130493.000000 0 0 1
-11.114114 10.371371 33.658507 36.932154 -0.750842 0.424219 0.063942 -0.015526 -772971.000000 0 0 1
-10.280114 9.261571 33.545056 36.286750 -0.733324 0.391222 0.078607 -0.020091 -299291.000000 0 0 1
-10.323814 8.378171 -33.226694 35.788100 -0.681737 2.760957 0.113380 -0.022712 -189071.000000 0 0 1
-9.389914 8.827071 -32.068814 34.561489 -0.754511 2.759475 0.089509 -0.028906 -224269.000000 0 0 1
-9.838314 9.986771 -31.311094 34.306160 -0.792886 2.720630 0.079666 -0.028073 547822.000000 0 0 1
-8.850114 10.577371 -30.455374 33.432546 -0.874073 2.716377 0.081041 -0.029581 178810.000000 0 0 1
-7.785814 11.497371 -31.056364 34.019203 -0.975549 2.721146 0.055677 -0.019148 -136350.000000 0 0 1
-8.153714 12.846471 -31.234274 34.743269 -1.005249 2.688282 0.056423 -0.020936 -60081.900000 0 0 1
-7.060114 13.640871 -31.644514 35.175188 -1.093191 2.689709 0.030972 -0.018586 -232962.000000 0 0 1
-7.360814 15.092271 -32.041024 36.174376 -1.117020 2.658878 0.034540 -0.013890 289834.000000 0 0 1
-8.289514 15.231571 -33.136954 37.400194 -1.072392 2.659465 0.029313 -0.021679 464010.000000 0 0 1
-8.587014 16.609971 -33.303094 38.193246 -1.093658 2.629994 0.042958 -0.028205 -1079660.000000 0 0 1
-9.155714 16.952571 33.172859 38.362160 -1.075603 0.526186 0.056378 -0.041258 151.746000 0 0 1
-10.365314 16.411471 32.739007 38.060724 -1.007472 0.535177 0.029892 -0.037035 50818.000000 0 0 1
-11.530614 16.751171 33.482731 39.174610 -0.967934 0.545814 0.052321 -0.043183 -611347.000000 0 0 1
-12.818014 16.300471 32.805429 38.809832 -0.904429 0.563695 0.072413 -0.041614 -469307.000000 0 0 1
-13.068714 14.879371 32.953074 38.445963 -0.850094 0.541130 0.068163 -0.039704 532676.000000 0 0 1
-14.461914 14.604671 32.877698 38.773527 -0.790309 0.558706 0.058734 -0.025297 235718.000000 0 0 1
-14.774614 13.094271 32.982573 38.439554 -0.725176 0.539360 0.060269 -0.020285 -19172.800000 0 0 1
-14.717514 12.360671 31.750381 37.114392 -0.698579 0.544332 0.028542 -0.018877 316738.000000 0 0 1
-13.382514 12.061271 31.380161 36.183981 -0.733517 0.521166 0.031633 -0.011730 -164311.000000 0 0 1
-13.236714 11.344971 30.016891 34.712141 -0.708592 0.526169 0.026267 -0.005926 60943.400000 0 0 1
-14.107114 10.227171 29.856871 34.569328 -0.627286 0.528269 0.014346 0.000827 299536.000000 0 0 1
-14.012514 9.772571 28.529221 33.253123 -0.608991 0.539548 0.004242 -0.000419 -359646.000000 0 0 1
-14.897014 8.629971 28.069451 32.928582 -0.525066 0.550173 0.022407 0.001804 -91799.200000 0 0 1
-14.378814 7.329171 28.376821 32.645230 -0.471393 0.517116 0.009241 -0.003519 145529.000000 0 0 1
-15.194614 6.292271 27.801711 32.301767 -0.392612 0.534179 0.027500 0.004234 183085.000000 0 0 1
-14.637614 4.797971 27.700081 31.695028 -0.316748 0.507511 0.036371 0.004831 1795350.000000 0 0 1
-13.464014 4.636071 26.815671 30.362033 -0.331615 0.488160 0.028665 -0.006542 1570870.000000 0 0 1
-13.932614 4.734471 25.483931 29.427261 -0.327570 0.523655 0.032683 -0.003711 -575757.000000 0 0 1
-12.824514 4.395471 24.525151 28.022694 -0.330192 0.504970 0.023992 0.006660 -541133.000000 0 0 1
-12.295814 3.071871 24.713301 27.773561 -0.244819 0.473859 0.031027 0.000040 116831.000000 0 0 1
-11.555814 2.725071 23.551531 26.374940 -0.231587 0.466937 0.049123 -0.007900 -555299.000000 0 0 1
-10.591914 1.560071 23.516101 25.838527 -0.146237 0.427228 0.054098 -0.015168 -121020.000000 0 0 1
-9.316414 2.077771 23.878941 25.716075 -0.219432 0.380280 0.051334 -0.025204 -171985.000000 0 0 1
-8.407614 1.030271 24.160371 25.602206 -0.121932 0.337205 0.049238 -0.016365 410534.000000 0 0 1
-6.945314 1.576471 24.160921 25.188743 -0.223201 0.286654 0.068103 -0.024614 -305375.000000 0 0 1
-6.565414 1.976471 22.841611 23.848486 -0.292413 0.291617 0.068406 -0.024785 1359520.000000 0 1 0
-5.136114 2.184171 22.639111 23.316939 -0.402089 0.241711 0.056525 -0.020711 1364750.000000 0 1 0
-4.594614 3.428171 23.324761 24.018895 -0.641018 0.240997 0.075977 -0.019451 -795746.000000 0 1 0
-4.236714 3.186671 24.663951 25.227269 -0.644880 0.211723 0.073974 -0.022189 -42087.800000 0 0 1
-3.829114 4.346871 25.364031 26.017138 -0.848640 0.224538 0.080193 -0.013740 166764.000000 0 0 1
4.171086 -23.406329 12.923446 27.060481 -1.394444 1.072902 0.115055 -0.020650 239831.000000 0 0 1
3.730386 -24.515729 13.617246 28.290743 -1.419792 1.068622 0.121201 -0.031614 -412595.000000 0 0 1
2.351086 -24.715329 13.404146 28.214291 -1.475955 1.075737 0.102798 -0.035314 -109437.000000 0 0 1
1.896986 -26.033799 14.070846 29.653768 -1.498059 1.076395 0.094411 -0.040036 -20944.300000 0 0 1
1.892386 -25.995159 15.460446 30.304369 -1.498127 1.035411 0.132344 -0.041159 23331.600000 0 0 1
2.301186 -27.296659 15.919546 31.683355 -1.486692 1.044357 0.117298 -0.041388 22304.200000 0 0 1
2.444186 -27.394369 17.455046 32.574593 -1.481810 1.005284 0.122271 -0.041101 175860.000000 0 0 1
3.414986 -26.490739 17.970346 32.192464 -1.442591 0.978562 0.136347 -0.050251 281015.000000 0 0 1
3.733286 -26.830039 19.291346 33.255743 -1.432538 0.951956 0.117777 -0.046735 19489.600000 0 0 1
4.262186 -25.562949 20.112346 32.804528 -1.405583 0.910822 0.111399 -0.040994 -412445.000000 0 0 1
3.316886 -24.684529 20.582446 32.310444 -1.437225 0.880168 0.122928 -0.044841 -126572.000000 0 0 1
3.960886 -23.699829 21.471446 32.224114 -1.405200 0.841539 0.119538 -0.041239 469480.000000 0 0 1
2.950186 -22.730829 22.162146 31.883458 -1.441730 0.802239 0.140214 -0.040984 241366.000000 0 0 1
2.250786 -21.808529 21.330946 30.589005 -1.467954 0.799116 0.131022 -0.045769 99256.400000 0 0 1
3.061886 -20.975429 20.559646 29.530371 -1.425845 0.800678 0.103533 -0.029464 -390858.000000 0 0 1
2.185986 -19.980829 19.779446 28.199974 -1.461826 0.793437 0.073438 -0.036487 193076.000000 0 0 1
1.648486 -18.967629 20.613446 28.060695 -1.484104 0.745716 0.066790 -0.039217 153483.000000 0 0 1
0.772586 -18.066929 19.969346 26.940408 -1.528060 0.735878 0.074526 -0.048391 -144874.000000 0 0 1
0.762586 -16.676629 20.683746 26.580234 -1.525100 0.679061 0.058689 -0.038109 260798.000000 0 0 1
1.890986 -15.886929 20.355246 25.890276 -1.452326 0.666141 0.033384 -0.025482 149393.000000 0 0 1
1.607986 -14.655029 20.947246 25.615281 -1.461511 0.613282 0.042220 -0.016339 201233.000000 0 0 1
2.784886 -13.669929 20.749946 25.003656 -1.369823 0.591910 0.013493 -0.011385 -151154.000000 0 0 1
3.105286 -13.270029 19.416846 23.722360 -1.340925 0.611994 -0.006683 -0.009313 -218213.000000 0 1 0
2.033686 -12.799929 18.628146 22.693212 -1.413231 0.607866 0.001045 -0.006791 -52729.200000 0 1 0
1.173986 -11.598529 19.079046 22.358759 -1.469921 0.548487 0.003379 -0.013516 334782.000000 0 1 0
1.883086 -10.313529 18.987746 21.689845 -1.390202 0.504490 0.008744 -0.006597 214708.000000 0 1 0
1.522986 -9.454329 20.035846 22.206732 -1.411080 0.445856 0.021630 -0.014846 541782.000000 0 1 0
0.086186 -8.848429 20.048646 21.914614 -1.561056 0.415653 0.028545 -0.016756 488370.000000 0 1 0
-0.185814 -8.035829 21.147046 22.623144 1.547677 0.363234 0.033338 -0.021763 1545510.000000 0 1 0
-1.564314 -7.512529 21.172046 22.519785 1.365502 0.347717 0.032573 -0.019525 1853850.000000 0 1 0
-2.014814 -6.962929 22.579646 23.714600 1.289127 0.310630 0.034623 -0.007564 -89123.900000 0 1 0
-2.384214 -7.971229 23.466946 24.898243 1.280163 0.340721 0.045254 -0.005211 86675.500000 0 1 0
-2.321314 -7.444429 24.747746 25.947234 1.268532 0.305249 0.053995 -0.002150 -96.542100 0 0 1
-2.469514 -8.553229 25.829946 27.321097 1.289717 0.331911 0.064348 -0.006520 430357.000000 0 0 1
-1.323514 -9.392729 25.951346 27.630552 1.430810 0.350426 0.067277 -0.009772 200961.000000 0 0 1
-1.513514 -10.384229 26.942346 28.913888 1.426064 0.371419 0.077160 -0.022427 360634.000000 0 0 1
-0.318114 -11.406529 27.078546 29.384652 1.542915 0.398820 0.079368 -0.024722 1018450.000000 0 0 1
0.801086 -10.731329 27.699746 29.716647 -1.496285 0.370548 0.078114 -0.028567 974996.000000 0 0 1
1.821186 -11.728229 28.043046 30.451281 -1.416744 0.400374 0.099196 -0.037647 761097.000000 0 0 1
2.953086 -11.080829 28.840446 31.036701 -1.310346 0.378454 0.104143 -0.044860 -184162.000000 0 0 1
2.499286 -10.804029 30.133446 32.109158 -1.343466 0.352626 0.105285 -0.053325 -133441.000000 0 0 1
3.477586 -10.231229 30.962046 32.793596 -1.243148 0.335793 0.116523 -0.052615 -198560.000000 0 0 1
2.888986 -9.742229 32.335346 33.894422 -1.282514 0.304483 0.117497 -0.060710 -596824.000000 0 0 1
2.286186 -10.755129 33.130546 34.907485 -1.361347 0.320444 0.115379 -0.062772 218862.000000 0 0 1
1.848686 -10.315129 -33.455319 35.058208 -1.393458 2.838035 0.098630 -0.065350 -435062.000000 0 0 1
2.938386 -10.328529 -32.361819 34.096920 -1.293627 2.821203 0.086634 -0.043146 394700.000000 0 0 1
4.032486 -9.442729 -32.661419 34.237324 -1.167193 2.837006 0.075739 -0.048395 508026.000000 0 0 1
4.420186 -8.547529 -31.638319 33.069344 -1.093539 2.846333 0.088130 -0.044881 -289540.000000 0 0 1
3.423086 -7.437329 -31.258419 32.312848 -1.139445 2.885425 0.083424 -0.034380 -319488.000000 0 0 1
3.274586 -6.535929 -32.294919 33.111978 -1.106339 2.918982 0.111329 -0.043147 58946.800000 0 0 1
2.455086 -5.506329 -31.786319 32.353009 -1.151385 2.954151 0.086447 -0.019947 -2227.450000 0 0 1
2.425086 -4.222729 -32.726119 33.086423 -1.049493 2.993880 0.085311 -0.023926 -101292.000000 0 0 1
1.912986 -4.531829 33.884346 34.239537 -1.171366 0.144164 0.095791 -0.038216 -195994.000000 0 0 1
2.214186 -3.476329 32.955746 33.212478 -1.003663 0.124418 0.111933 -0.029264 111550.000000 0 0 1
1.470386 -3.676729 31.625746 31.872687 -1.190362 0.124561 0.111040 -0.028904 -218357.000000 0 0 1
0.114486 -3.351229 31.715646 31.892413 -1.536647 0.105335 0.093962 -0.031554 -876478.000000 0 0 1
-0.569214 -4.061629 30.700546 30.973285 1.431559 0.132805 0.095111 -0.026098 445737.000000 0 0 1
-2.110914 -3.886629 30.706446 31.023341 1.073249 0.143054 0.073366 -0.023304 239568.000000 0 0 1
-2.651914 -2.648929 30.327546 30.558297 0.784835 0.122969 0.075356 -0.023159 340945.000000 0 0 1
-4.072914 -2.836329 30.278146 30.682234 0.608298 0.162475 0.069149 -0.019060 470311.000000 0 0 1
-4.741414 -1.676429 29.607146 30.031226 0.339853 0.168254 0.046290 -0.011658 -456168.000000 0 0 1
-4.349114 -1.607829 28.209346 28.587884 0.354108 0.162914 0.055627 -0.011559 -309149.000000 0 0 1
-5.180114 -0.922829 27.323246 27.825258 0.176299 0.190242 0.053002 -0.012901 -211546.000000 0 0 1
-5.457514 0.584971 27.582146 28.122970 -0.106779 0.196431 0.062274 -0.016109 264426.000000 0 0 1
-6.715014 0.728471 28.221046 29.018090 -0.108061 0.234920 0.053333 -0.015854 -184852.000000 0 0 1
-6.886114 2.081671 28.607346 29.498003 -0.293565 0.246361 0.057921 -0.008246 -107771.000000 0 0 1
-8.273914 2.489671 29.148546 30.402201 -0.292288 0.288174 0.041958 -0.010791 -195213.000000 0 0 1
-9.230114 2.485871 28.125746 29.705759 -0.263080 0.327619 0.032444 -0.007691 -1252670.000000 0 0 1
-10.479614 2.688071 28.671546 30.644830 -0.251091 0.360819 0.031294 0.000128 -1076490.000000 0 0 1
-11.630914 2.147771 27.825646 30.235040 -0.182604 0.401921 0.035666 0.003093 -357955.000000 0 0 1
-11.891414 0.794571 28.169546 30.586932 -0.066720 0.400242 0.043863 -0.001209 -36026.600000 0 0 1
-12.420014 0.082671 27.075246 29.788127 -0.006656 0.430092 0.043696 -0.002095 -1213840.000000 0 0 1
-12.420014 -1.468529 27.246846 29.980059 0.117692 0.430320 0.050981 -0.009980 -191847.000000 0 0 1
-11.189014 -2.039329 27.599246 29.850817 0.180283 0.390884 0.060660 -0.011931 314454.000000 0 0 1
-10.009914 -1.752629 26.853646 28.712165 0.173332 0.361773 0.058655 -0.014413 -237730.000000 0 0 1
-9.818414 -2.709329 25.626246 27.576189 0.269243 0.378313 0.053388 -0.006623 -481572.000000 0 0 1
-10.755714 -2.366529 24.619446 26.970409 0.216574 0.420630 0.033653 -0.003222 189161.000000 0 0 1
-10.594914 -2.959729 23.357746 25.818530 0.272409 0.440147 0.040581 -0.003492 -2670.290000 0 0 1
-9.456814 -2.369329 22.497946 24.519434 0.245489 0.408908 0.048490 -0.007561 554370.000000 0 1 0
-8.162114 -2.386429 23.083746 24.600294 0.284450 0.352963 0.053315 -0.010981 -439085.000000 0 1 0
-7.193814 -2.017729 22.142446 23.368999 0.273455 0.325429 0.048430 -0.011779 309036.000000 0 1 0
-5.755414 -2.220229 22.736646 23.558635 0.368174 0.264938 0.047475 -0.007128 764370.000000 0 1 0
-5.204314 -3.548329 22.828646 23.681693 0.598410 0.269220 0.037505 -0.003716 -156286.000000 0 1 0
-5.885714 -4.306329 23.763946 24.857820 0.631658 0.297764 0.048697 -0.002605 -392901.000000 0 1 0
-5.826314 -5.876629 23.495146 24.909889 0.789697 0.338645 0.059287 0.002969 -59888.100000 0 1 0
-6.655214 -6.424329 22.480046 24.308771 0.767748 0.390363 0.063700 -0.001111 -184976.000000 0 1 0
-6.134214 -6.252229 21.195446 22.933946 0.794926 0.391873 0.046356 -0.001549 403966.000000 0 1 0
-7.247514 -6.377529 20.075946 22.276511 0.721633 0.448229 0.048965 -0.007153 922138.000000 0 1 0
-8.188614 -5.309229 20.212346 22.445049 0.575227 0.449819 0.058072 -0.010062 270701.000000 0 1 0
-9.053114 -5.085729 19.104746 21.744306 0.511831 0.497855 0.052457 -0.012523 272745.000000 0 1 0
-9.774614 -3.739829 19.106746 21.785251 0.365422 0.501110 0.049940 -0.017260 35078.400000 0 1 0
-8.933114 -2.608229 18.843846 21.016515 0.284076 0.458718 0.044629 -0.008458 -401735.000000 0 1 0
-9.530914 -1.358829 18.734646 21.063516 0.141616 0.474687 0.037707 -0.008446 -615750.000000 0 1 0
-8.546014 -0.291529 18.277146 20.178538 0.034100 0.437599 0.025688 -0.005826 266924.000000 0 1 0
-7.553014 0.112271 19.244046 20.673508 -0.014863 0.374049 0.035419 0.003548 665463.000000 0 1 0
-7.984214 1.073871 20.163346 21.713162 -0.133697 0.380112 0.060318 -0.001783 -485447.000000 0 1 0
-8.010314 2.586271 19.869946 21.579358 -0.312302 0.400709 0.055244 -0.012470 527247.000000 0 1 0
-9.074214 2.986371 18.983346 21.251522 -0.317940 0.466229 0.040660 -0.012048 543241.000000 0 1 0
-8.741214 4.227271 18.456846 20.855067 -0.450444 0.484291 0.035814 -0.018651 -441784.000000 0 1 0
-9.659214 4.850871 17.431546 20.510733 -0.465407 0.555049 0.026747 -0.005069 -161510.000000 0 1 0
-10.878814 5.308371 18.008146 21.698404 -0.453965 0.591815 0.026942 0.010047 503468.000000 0 1 0
-11.735614 6.008371 17.084646 21.580322 -0.473184 0.657247 0.029460 0.026757 259089.000000 0 1 0
-11.476114 7.513171 17.069446 21.897829 -0.579657 0.676923 0.025189 0.026610 -436997.000000 0 1 0
-10.182014 7.808371 16.622046 20.998488 -0.654216 0.657401 0.012620 0.014883 -316928.000000 0 1 0
-10.010414 9.199971 16.543146 21.413163 -0.743235 0.687919 -0.001952 0.006325 655322.000000 0 1 0
-8.683914 9.864671 17.049846 21.527177 -0.848970 0.656694 0.005075 0.011459 576779.000000 0 1 0
-8.788714 10.284071 18.396646 22.835065 -0.863641 0.634056 0.028310 0.029269 -254802.000000 0 1 0
-8.243814 11.582771 18.621246 23.428014 -0.952241 0.652072 0.057999 0.022002 251066.000000 0 1 0
-8.926114 12.868571 17.986446 23.849274 -0.964354 0.716405 0.065147 0.011801 210406.000000 0 1 0
-8.784614 12.939971 16.615546 22.818603 -0.974390 0.755166 0.055270 -0.009438 -236821.000000 0 1 0
-9.432014 14.099471 16.076846 23.371413 -0.981206 0.812225 0.058202 -0.022613 -11489.300000 0 1 0
-9.055214 14.389671 14.678846 22.461702 -1.009121 0.858590 0.057850 -0.021780 -272529.000000 0 1 0
-7.712314 14.676471 14.417046 21.971113 -1.086967 0.855049 0.052307 -0.022571 -625106.000000 0 1 0
-7.576414 15.134671 13.066146 21.381873 -1.106669 0.913366 0.040073 -0.036634 55683.200000 0 1 0
-6.650014 16.370971 12.915646 21.887103 -1.184950 0.939610 0.014378 -0.023085 -257092.000000 0 1 0
-5.321514 16.091971 13.259346 21.519301 -1.251423 0.906938 0.008289 -0.020464 -948217.000000 0 1 0
-4.753114 17.378571 13.596046 22.571205 -1.303821 0.924339 0.006326 -0.018437 136250.000000 0 1 0
-3.199914 17.343271 13.583646 22.260816 -1.388344 0.914478 0.007808 -0.017541 -259795.000000 0 1 0
-2.616514 16.635971 14.594146 22.284317 -1.414794 0.856737 0.019653 -0.023554 -520909.000000 0 1 0
-2.707614 15.226171 14.627346 21.286773 -1.394810 0.813228 0.024308 -0.021761 -1297780.000000 0 1 0
-1.854414 14.575771 15.669346 21.480697 -1.444250 0.753262 0.021249 -0.017868 -586577.000000 0 1 0
-0.521214 14.627771 15.224346 21.119282 -1.535180 0.765733 0.022631 -0.019872 -932337.000000 0 1 0
0.353586 14.032971 16.122446 21.377150 1.545605 0.716376 0.029226 -0.017406 46202.700000 0 1 0
1.384086 14.935671 16.833346 22.546651 1.478390 0.727859 0.029716 -0.016547 215700.000000 0 1 0
0.740386 15.815271 17.734546 23.773622 1.524016 0.728797 0.028408 -0.013542 -153992.000000 0 1 0
1.619686 16.836571 18.075546 24.755178 1.474891 0.752222 0.051796 -0.019281 -686656.000000 0 1 0
0.873786 17.862371 18.922646 26.036404 1.521918 0.757179 0.056105 -0.018320 545437.000000 0 0 1
0.050186 18.811871 18.247146 26.207772 1.568129 0.800637 0.037872 -0.013511 921494.000000 0 0 1
-1.093314 18.334471 17.507846 25.374649 -1.511235 0.809343 0.040609 -0.010020 -10519.000000 0 0 1
-1.794214 19.422771 16.688546 25.670427 -1.478681 0.863070 0.034287 -0.011193 -206338.000000 0 0 1
-2.310214 20.497471 17.450846 27.018798 -1.458563 0.868624 0.031728 -0.009535 123399.000000 0 0 1
-3.005514 21.373271 16.569246 27.210104 -1.431092 0.916076 0.036203 -0.013227 -709597.000000 0 0 1
-3.893114 22.424171 17.255246 28.561220 -1.398897 0.922098 0.030911 -0.002996 -190710.000000 0 0 1
-5.012314 21.961071 17.977546 28.820203 -1.346404 0.897223 0.046783 -0.002971 -4162.070000 0 0 1
-5.595714 23.007971 18.746746 30.201312 -1.332221 0.901128 0.049279 -0.000763 5939.520000 0 0 1
-6.717214 22.495371 19.686046 30.638262 -1.280620 0.872999 0.041563 -0.001121 39067.700000 0 0 1
-7.945114 22.368271 18.998746 30.404222 -1.229500 0.895829 0.029080 -0.001953 -289615.000000 0 0 1
-8.957814 22.073171 19.956146 31.075956 -1.185280 0.873466 0.003908 -0.003907 640318.000000 0 0 1
-10.384214 22.529671 19.520146 31.566661 -1.138904 0.904119 0.018793 -0.010164 332168.000000 0 0 1
-10.579214 23.933371 19.603046 32.695648 -1.154592 0.927843 0.027505 -0.005145 -559853.000000 0 0 1
-11.739214 24.263071 18.913746 32.927732 -1.120168 0.958923 0.014945 -0.009702 -536149.000000 0 0 1
-12.258614 25.687171 19.089446 34.271144 -1.125532 0.980012 0.025583 -0.015006 -292685.000000 0 0 1
-12.827914 25.903771 20.337846 35.343864 -1.110985 0.957669 0.031434 -0.009395 -16650.500000 0 0 1
-13.186214 27.239871 20.644346 36.634353 -1.119967 0.972151 0.040354 -0.024929 -43565.200000 0 0 1
-14.141014 27.259471 21.873346 37.702656 -1.092257 0.951879 0.079868 -0.039795 230700.000000 0 0 1
-15.417714 26.650271 21.877346 37.769844 -1.046321 0.953015 0.079632 -0.037469 182965.000000 0 0 1
-16.054714 26.839971 23.129446 38.898704 -1.031728 0.934019 0.069972 -0.026011 368872.000000 0 0 1
-17.567814 26.489571 23.025246 39.249043 -0.985199 0.943887 0.086721 -0.026931 351163.000000 0 0 1
-17.789914 25.188571 22.548746 38.201978 -0.955875 0.939427 0.081392 -0.025898 -635523.000000 0 0 1
-19.128514 24.830571 22.724846 38.715319 -0.914391 0.943481 0.091363 -0.020023 -293975.000000 0 0 1
28.127486 24.328171 23.063521 43.760043 0.713095 1.015676 0.068288 -0.024301 -11444.800000 0 0 1
27.893286 23.757971 24.362901 44.000313 0.705506 0.983997 0.070605 -0.024793 165131.000000 0 0 1
27.837486 22.344871 24.239571 43.148299 0.676379 0.974268 0.071917 -0.025714 -179022.000000 0 0 1
27.565186 21.647371 25.571201 43.385879 0.665723 0.940493 0.098972 -0.039941 423446.000000 0 0 1
26.248886 21.941571 26.035351 42.991581 0.696254 0.920287 0.092815 -0.030218 519466.000000 0 0 1
25.816986 21.264371 27.203431 43.112839 0.689001 0.887978 0.095346 -0.029828 688234.000000 0 0 1
24.363586 21.649871 27.677221 42.758973 0.726490 0.866780 0.103127 -0.026176 576609.000000 0 0 1
24.131786 22.984171 28.101341 43.592437 0.761046 0.870247 0.112619 -0.036718 280309.000000 0 0 1
23.053586 22.998271 29.037611 43.629934 0.784197 0.842575 0.116026 -0.019448 -50315.500000 0 0 1
22.847786 24.357771 29.643751 44.655059 0.817375 0.844857 0.108331 -0.015424 -407951.000000 0 0 1
22.082086 25.207571 28.840781 44.213468 0.851395 0.860171 0.115818 -0.031419 -92320.100000 0 0 1
21.704586 26.421271 29.430371 45.114514 0.883093 0.860118 0.096872 -0.026697 649983.000000 0 0 1
20.299186 26.347171 30.124981 44.874768 0.914335 0.834818 0.086744 -0.023219 -144743.000000 0 0 1
19.216786 26.132371 29.231451 43.665357 0.936729 0.837338 0.080910 -0.023350 84036.200000 0 0 1
17.955086 26.295771 29.833961 43.633908 0.971699 0.817930 0.073938 -0.017825 23909.700000 0 0 1
17.429186 25.158671 30.735811 43.375400 0.964939 0.783284 0.050211 -0.014283 -1199580.000000 0 0 1
18.081186 24.956171 31.933426 44.378863 0.943804 0.767622 0.042758 -0.010009 -281922.000000 0 0 1
17.570086 23.916471 32.772060 44.212141 0.937196 0.735872 0.047103 -0.022381 23447.500000 0 0 1
18.150686 23.904771 -33.640494 45.084014 0.921375 2.413092 0.076256 -0.019218 -73825.200000 0 0 1
17.990286 25.090471 -32.918284 45.130871 0.948741 2.388235 0.063074 -0.011542 157536.000000 0 0 1
18.086986 25.034671 -31.456894 44.084124 0.945144 2.365370 0.051228 -0.003935 -104478.000000 0 0 1
18.254386 26.415371 -30.817994 44.505541 0.966101 2.335680 0.044490 -0.003978 -489335.000000 0 0 1
17.095686 27.175571 -31.027304 44.648267 1.009266 2.339115 0.062142 -0.006676 -64395.700000 0 0 1
17.171986 28.486071 -30.489004 45.121089 1.028306 2.312731 0.062883 -0.005761 -33202.400000 0 0 1
16.659286 28.690571 -29.031904 44.085509 1.044724 2.289668 0.073209 -0.006386 6681.740000 0 0 1
17.485786 28.008671 -28.078844 43.343510 1.012701 2.275517 0.043891 -0.000588 366261.000000 0 0 1
17.035186 28.158871 -26.755554 42.414375 1.026733 2.253397 0.057184 -0.010078 -202683.000000 0 0 1
17.730086 27.287471 -25.687024 41.458235 0.994596 2.239014 0.046891 -0.000123 -505316.000000 0 0 1
19.061186 27.593171 -25.438434 42.093061 0.966276 2.219731 0.050773 0.004366 -800216.000000 0 0 1
19.652586 26.901071 -24.354854 41.268034 0.939860 2.202057 0.043283 0.007615 -407495.000000 0 0 1
21.176186 26.923671 -24.492154 42.109150 0.904325 2.191533 0.038277 0.009141 -594418.000000 0 0 1
21.687986 26.170371 -23.432554 41.283673 0.878785 2.174382 0.046205 0.009924 -1655270.000000 0 0 1
23.044586 26.102771 -23.562454 42.042797 0.847543 2.165713 0.053061 0.011256 -1646800.000000 0 0 1
23.830386 26.112871 -22.292954 41.794080 0.831068 2.133411 0.067795 0.003387 -344298.000000 0 0 1
23.598886 24.970571 -21.456754 40.507149 0.813632 2.129047 0.069449 0.005491 28267.600000 0 0 1
24.354986 24.963671 -20.252854 40.330240 0.797739 2.096909 0.079051 0.001433 -156260.000000 0 0 1
23.901286 24.028371 -19.116154 38.910942 0.788050 2.084355 0.072757 -0.009182 -556018.000000 0 0 1
24.062586 22.652371 -19.395254 38.318583 0.755220 2.101520 0.071638 -0.003639 268395.000000 0 0 1
23.711386 21.815371 -18.304354 37.056573 0.743776 2.087431 0.067446 -0.011091 -566305.000000 0 0 1
23.995286 20.287371 -18.620654 36.525059 0.701860 2.105754 0.078328 -0.010129 353461.000000 0 0 1
23.216086 19.804371 -19.727954 36.337197 0.706259 2.144699 0.076344 -0.014144 535612.000000 0 0 1
21.841186 19.683471 -19.384454 35.216949 0.733483 2.153675 0.070616 -0.019106 319197.000000 0 0 1
20.911286 19.456271 -20.670854 35.257801 0.749370 2.197252 0.054609 -0.006869 466215.000000 0 0 1
20.871886 20.442771 -21.652154 36.364244 0.775012 2.208590 0.057675 -0.002736 -39520.300000 0 0 1
20.618386 21.818571 -21.361954 36.844280 0.813672 2.189268 0.058301 0.000838 -97421.800000 0 0 1
20.233386 22.563671 -22.647754 37.834243 0.839794 2.212554 0.056715 0.009638 -795125.000000 0 0 1
18.962486 22.278471 -23.097454 37.274636 0.865631 2.239101 0.058470 0.007091 -1050470.000000 0 0 1
18.641686 23.029771 -24.275754 38.303982 0.890313 2.257208 0.062261 0.009625 -589875.000000 0 0 1
17.160786 23.116371 -24.619154 37.880891 0.932200 2.278262 0.053348 0.007702 -783100.000000 0 0 1
16.591286 24.103171 -23.818354 37.729930 0.967936 2.254006 0.047470 -0.007243 -979017.000000 0 0 1
15.207986 24.004271 -23.878954 37.117278 1.006070 2.269647 0.051793 -0.005026 -540882.000000 0 0 1
14.465686 25.170871 -23.158854 37.137061 1.049188 2.244142 0.050390 -0.010534 -59371.100000 0 0 1
14.617286 26.449871 -23.800954 38.467468 1.065928 2.237921 0.045937 -0.002260 -175642.000000 0 0 1
13.698486 27.411371 -23.382554 38.545760 1.107359 2.222596 0.070721 -0.008143 -220959.000000 0 0 1
13.715786 28.696771 -24.198354 39.964832 1.124939 2.221179 0.067664 -0.018308 42364.800000 0 0 1
13.591286 28.510871 -25.595074 40.653421 1.125957 2.251824 0.069235 -0.028798 -85830.400000 0 0 1
13.086886 29.639871 -26.304964 41.734155 1.155009 2.252734 0.092941 -0.034658 203486.000000 0 0 1
13.959686 30.939271 -26.318154 42.950629 1.146948 2.230337 0.101129 -0.035086 502161.000000 0 0 1
15.181986 30.887771 -27.030194 43.762752 1.113955 2.236551 0.083271 -0.025506 94975.400000 0 0 1
15.806986 32.115871 -27.322134 45.030978 1.113419 2.222750 0.090320 -0.030900 504479.000000 0 0 1
17.318686 32.084871 -27.698914 45.788707 1.075835 2.220473 0.090358 -0.017910 223739.000000 0 0 1
18.143386 31.669871 -26.615284 45.172298 1.050548 2.200858 0.055602 -0.010002 -531036.000000 0 0 1
19.424486 31.607671 -27.181584 45.991238 1.019747 2.203115 0.056514 -0.010832 -1094350.000000 0 0 1
20.375186 30.816671 -26.230764 45.308591 0.986606 2.188219 0.034008 0.000259 -689400.000000 0 0 1
20.673386 31.438971 -25.038774 45.196659 0.989117 2.157953 0.041720 -0.005811 -81492.300000 0 0 1
21.474286 32.586471 -25.133674 46.419011 0.988124 2.142960 0.051829 -0.018903 -451014.000000 0 0 1
23.002786 32.361371 -25.279494 47.068453 0.952852 2.137767 0.027622 -0.004705 -420363.000000 0 0 1
23.318386 31.839771 -26.542924 47.560960 0.938676 2.162869 0.037711 -0.001674 176345.000000 0 0 1
24.574086 32.238171 -27.071454 48.744733 0.919491 2.159606 0.032032 0.007206 60205.000000 0 0 1
24.727386 31.624571 -28.485064 49.223531 0.907187 2.187915 0.034869 0.003597 220703.000000 0 0 1
23.713186 32.136271 -29.322484 49.546576 0.935088 2.204107 0.055154 -0.015472 976356.000000 0 0 1
22.585286 31.249571 -29.557204 48.582498 0.944972 2.224829 0.045448 -0.017217 477288.000000 0 0 1
21.577986 31.785571 -30.559174 49.089664 0.974399 2.242752 0.062429 -0.025721 -856245.000000 0 0 1
21.114586 33.068771 -30.218124 49.522766 1.002544 2.227092 0.077479 -0.029112 390307.000000 0 0 1
20.308186 33.618171 -31.282034 50.211249 1.027380 2.243379 0.090689 -0.035384 378716.000000 0 0 1
18.776386 33.411571 -31.074554 49.340791 1.058808 2.252085 0.094285 -0.034746 -103372.000000 0 0 1
18.247286 32.117671 -31.308514 48.422425 1.054134 2.273877 0.083587 -0.028298 110226.000000 0 0 1
18.461186 31.367471 -32.502104 48.796725 1.038842 2.299726 0.089186 -0.035092 -813438.000000 0 0 1
17.872586 31.905771 -33.821684 49.812788 1.060180 2.317163 0.102686 -0.043635 -645095.000000 0 0 1
18.509486 33.032771 33.445847 50.521181 1.060051 0.847290 0.109682 -0.039059 184959.000000 0 0 1
17.920886 33.489171 32.230319 49.814417 1.079445 0.867143 0.098245 -0.041553 -99391.900000 0 0 1
16.441986 33.935971 32.228435 49.605051 1.119625 0.863606 0.102512 -0.038925 -857220.000000 0 0 1
15.530086 32.874971 32.203620 48.569748 1.129473 0.845926 0.106433 -0.036448 -13299.300000 0 0 1
14.161486 33.222771 32.032875 48.274271 1.167860 0.845229 0.099395 -0.039001 728654.000000 0 0 1
13.679386 34.014171 30.767021 47.861247 1.188423 0.872599 0.077022 -0.042958 -1110280.000000 0 0 1
14.222286 -32.751238 30.638951 47.049573 -1.161115 0.861624 0.094031 -0.034492 372410.000000 0 0 1
13.446086 -32.029438 29.686491 45.694309 -1.173335 0.863638 0.091727 -0.038498 -144672.000000 0 0 1
14.014086 -30.627938 29.411121 44.715537 -1.141674 0.852984 0.090305 -0.031041 -392738.000000 0 0 1
13.755586 -29.650938 30.343021 44.599251 -1.136429 0.822559 0.083599 -0.023615 242202.000000 0 0 1
14.008786 -28.345838 29.858581 43.488705 -1.111792 0.814018 0.097624 -0.026773 -627896.000000 0 0 1
14.023586 -27.317838 31.010881 43.641723 -1.096527 0.780476 0.105563 -0.023768 109764.000000 0 0 1
12.774486 -26.868738 31.512531 43.337699 -1.126989 0.756651 0.108577 -0.015199 658890.000000 0 0 1
11.869586 -26.166838 30.638001 42.003305 -1.144943 0.753324 0.081087 -0.021119 55278.900000 0 0 1
11.926286 -24.609838 30.809011 41.195577 -1.119533 0.725946 0.078620 -0.022188 -218603.000000 0 0 1
11.141686 -24.102638 31.864806 41.478189 -1.137794 0.694724 0.098798 -0.024926 -112429.000000 0 0 1
11.546286 -22.794538 32.231225 41.131005 -1.101933 0.670319 0.103332 -0.030485 -13345.800000 0 0 1
10.761386 -22.156038 33.408555 41.506975 -1.118647 0.635306 0.103623 -0.032580 -147531.000000 0 0 1
10.796586 -22.762538 -33.165254 41.648931 -1.127908 2.491958 0.096365 -0.024416 1431070.000000 0 0 1
12.121486 -23.028438 -32.610784 41.721728 -1.086276 2.468065 0.116035 -0.030685 1915690.000000 0 0 1
13.015086 -21.903438 -31.932164 40.851146 -1.034650 2.468137 0.109890 -0.040415 326851.000000 0 0 1
13.261686 -20.828738 -32.802934 41.057778 -1.003827 2.496336 0.110217 -0.037736 -57226.100000 0 0 1
14.070986 -19.917638 -32.117334 40.326519 -0.955749 2.492168 0.102022 -0.038118 -407974.000000 0 0 1
14.546086 -18.718538 -32.978154 40.614418 -0.910179 2.518335 0.086126 -0.037235 -714096.000000 0 0 1
15.452686 -19.184138 33.925621 41.925701 -0.892715 0.628034 0.096240 -0.018973 185914.000000 0 0 1
15.461886 -18.357638 32.774764 40.623367 -0.870814 0.632088 0.085419 -0.019512 -549136.000000 0 0 1
16.531086 -17.299438 32.816550 40.613709 -0.808106 0.630019 0.073674 -0.020130 -1534570.000000 0 0 1
16.324486 -16.289538 33.766482 40.890258 -0.784327 0.599207 0.067280 -0.020561 307142.000000 0 0 1
16.981286 -15.049138 33.426648 40.400265 -0.725149 0.596357 0.064587 -0.018458 -326719.000000 0 0 1
18.492186 -15.042938 33.626856 41.219126 -0.682904 0.616673 0.069111 -0.014107 -1023530.000000 0 0 1
19.195886 -15.683338 32.570544 40.930300 -0.685031 0.650541 0.070648 -0.010400 -173715.000000 0 0 1
20.563386 -15.598838 32.932047 41.841323 -0.648966 0.664752 0.076034 -0.009411 -208956.000000 0 0 1
21.465186 -16.319738 31.915267 41.781244 -0.650053 0.701514 0.068574 -0.009019 -465010.000000 0 0 1
21.675186 -15.543138 30.751931 40.707298 -0.622106 0.714471 0.066218 -0.003146 459130.000000 0 0 1
22.421286 -16.199138 29.739301 40.614679 -0.625661 0.749205 0.053126 -0.003569 -36173.800000 0 0 1
22.516786 -15.362538 28.500751 39.437369 -0.598728 0.763119 0.056644 0.003136 -256958.000000 0 0 1
23.358086 -14.246238 28.543941 39.538741 -0.547672 0.764218 0.027867 0.002650 79726.700000 0 0 1
23.375486 -13.544138 27.343431 38.438525 -0.525147 0.779372 0.040097 0.000485 -41778.800000 0 0 1
24.021586 -12.174538 27.432041 38.441811 -0.469086 0.776174 0.030612 0.004667 378032.000000 0 0 1
23.138186 -11.205738 28.031491 38.035624 -0.451006 0.742205 0.042241 -0.008196 742363.000000 0 0 1
23.828686 -10.002738 28.416631 38.410493 -0.397439 0.738002 0.050080 -0.011971 69658.500000 0 0 1
22.903786 -8.816338 28.572411 37.665553 -0.367447 0.709662 0.062798 -0.012609 -114458.000000 0 0 1
22.048986 -8.749038 29.684351 37.998212 -0.377745 0.674204 0.063696 -0.014318 319811.000000 0 0 1
21.058086 -7.705638 29.555461 37.099126 -0.350789 0.649044 0.064664 -0.017768 1107500.000000 0 0 1
19.892386 -7.731038 30.615251 37.319828 -0.370678 0.608777 0.054843 -0.008413 388854.000000 0 0 1
20.251386 -7.551638 31.961253 38.583255 -0.356924 0.594603 0.064273 -0.018384 13191.500000 0 0 1
20.780086 -8.651738 32.658327 39.663974 -0.394519 0.603463 0.072137 -0.021073 -305234.000000 0 0 1
20.665686 -8.292538 -33.706814 40.397847 -0.381601 2.557788 0.082521 -0.029214 -829965.000000 0 0 1
19.376486 -8.195838 -33.222494 39.323709 -0.400157 2.577074 0.071222 -0.041680 -842733.000000 0 0 1
19.370386 -7.474538 -32.007874 38.152124 -0.368270 2.566154 0.079777 -0.044526 -729712.000000 0 0 1
18.058686 -7.348338 -31.271364 36.851220 -0.386453 2.584100 0.079379 -0.045447 -633843.000000 0 0 1
18.189986 -6.388538 -30.211074 35.838499 -0.337754 2.573592 0.081004 -0.042479 618342.000000 0 0 1
16.926286 -5.952538 -29.708634 34.706409 -0.338166 2.598276 0.078780 -0.033193 486632.000000 0 0 1
17.062286 -4.796838 -28.676634 33.711728 -0.274063 2.588003 0.071896 -0.029625 -206198.000000 0 0 1
17.788086 -5.013238 -27.465334 33.104277 -0.274706 2.549297 0.076053 -0.023232 -41354.200000 0 0 1
17.374786 -5.981138 -26.566924 32.302611 -0.331536 2.536482 0.085529 -0.031827 666165.000000 0 0 1
15.888486 -5.859638 -26.027114 31.051409 -0.353322 2.564760 0.097794 -0.028976 954340.000000 0 0 1
15.739786 -4.678238 -25.296884 30.158898 -0.288908 2.565847 0.081714 -0.020975 182267.000000 0 0 1
14.467086 -4.597538 -24.662454 28.959810 -0.307700 2.589845 0.083515 -0.029297 -2277.280000 0 0 1
14.520086 -3.419638 -23.663754 27.973203 -0.231296 2.579129 0.084797 -0.025236 88713.600000 0 0 1
14.602286 -2.186638 -24.257254 28.397579 -0.148642 2.594809 0.074101 -0.036424 160401.000000 0 0 1
14.294586 -1.181638 -23.310254 27.369680 -0.082476 2.589982 0.080513 -0.033571 -120218.000000 0 0 1
14.549986 0.217362 -23.868754 27.954727 0.014938 2.594107 0.061365 -0.039765 -530473.000000 0 0 1
13.779186 0.636362 -24.949354 28.508616 0.046150 2.636545 0.083510 -0.042585 -41072.300000 0 0 1
14.290786 1.858362 -25.459964 29.255595 0.129314 2.626526 0.076003 -0.024422 100329.000000 0 0 1
13.418686 2.436362 -26.624424 29.914160 0.179608 2.668202 0.060763 -0.022783 78397.600000 0 0 1
12.266786 3.145362 -26.236674 29.132978 0.251005 2.691906 0.069832 -0.032984 -28367.100000 0 0 1
11.584186 3.620362 -27.386904 29.955682 0.302909 2.724443 0.058451 -0.028859 347833.000000 0 0 1
10.220586 4.320362 -27.135134 29.316231 0.399931 2.753417 0.047574 -0.030323 377959.000000 0 0 1
10.463186 5.576362 -26.462034 28.996781 0.489659 2.720359 0.042320 -0.036035 359549.000000 0 0 1
9.341686 6.434362 -26.606804 28.923868 0.603156 2.738599 0.050655 -0.038389 -50364.100000 0 0 1
7.942786 5.243171 -31.148874 32.570401 0.583455 2.845059 0.032771 -0.031195 -278531.000000 0 0 1
7.758986 4.240471 -30.163024 31.432332 0.500170 2.856437 0.034876 -0.015891 525486.000000 0 0 1
7.865386 2.978971 -30.800174 31.927876 0.362049 2.875021 0.024610 -0.014651 -313677.000000 0 0 1
7.498186 1.887871 -29.804014 30.790682 0.246650 2.887754 0.035766 -0.017745 183723.000000 0 0 1
8.500086 1.660471 -28.785184 30.059864 0.192918 2.849333 0.067449 -0.024823 913749.000000 0 0 1
8.111586 0.626471 -27.930564 29.091351 0.077079 2.858151 0.069754 -0.032382 -217821.000000 0 0 1
9.250686 0.374071 -26.936624 28.483273 0.040415 2.810537 0.072968 -0.045494 -351964.000000 0 0 1
10.297586 -0.308329 -27.568834 29.430867 -0.029933 2.783971 0.090919 -0.031650 -360474.000000 0 0 1
11.179786 -0.783329 -26.540624 28.809824 -0.069952 2.742040 0.088045 -0.035656 343458.000000 0 0 1
12.323686 -1.636729 -27.168304 29.877564 -0.132039 2.712446 0.073591 -0.030876 193264.000000 0 0 1
11.888586 -2.870629 -27.700504 30.280306 -0.236926 2.725815 0.090806 -0.038658 -213988.000000 0 0 1
12.937986 -3.789329 -27.771934 30.871197 -0.284916 2.689664 0.097868 -0.034020 26677.900000 0 0 1
12.350286 -5.286229 -27.580914 30.678667 -0.404430 2.688336 0.097972 -0.021401 177735.000000 0 0 1
11.936386 -5.392929 -26.271194 29.355351 -0.424355 2.679087 0.089540 -0.023837 -336227.000000 0 0 1
11.365986 -6.644629 -25.993394 29.137489 -0.529024 2.672756 0.091827 -0.027385 -115932.000000 0 0 1
11.095786 -6.691829 -24.469054 27.688114 -0.542693 2.654588 0.098611 -0.031585 -270170.000000 0 0 1
12.220586 -6.514329 -23.661654 27.416292 -0.489746 2.612075 0.086008 -0.023792 -210396.000000 0 0 1
11.742686 -6.536729 -22.347554 26.077436 -0.507945 2.600156 0.093495 -0.025509 385950.000000 0 0 1
12.904286 -6.659129 -21.328554 25.802554 -0.476397 2.543847 0.094049 -0.021056 637821.000000 0 0 1
13.782586 -5.514329 -21.287354 25.952243 -0.380587 2.532646 0.087167 -0.016881 543492.000000 0 0 1
14.829286 -5.710929 -20.339454 25.811157 -0.367606 2.478367 0.083233 -0.013829 325986.000000 0 0 1
15.407286 -4.343129 -19.794854 25.457484 -0.274759 2.461581 0.095756 -0.016464 49854.700000 0 0 1
16.369586 -3.709629 -20.610354 26.580282 -0.222853 2.458145 0.087962 -0.016813 189894.000000 0 0 1
16.945686 -2.592929 -19.984354 26.329716 -0.151836 2.432578 0.091161 -0.009447 487946.000000 0 0 1
18.156486 -1.949829 -20.726854 27.623582 -0.106980 2.419360 0.057255 -0.013684 733453.000000 0 0 1
19.432186 -2.560129 -20.648954 28.470044 -0.130992 2.382248 0.082160 -0.021168 -797471.000000 0 0 1
20.376386 -1.786229 -21.207554 29.464352 -0.087438 2.374267 0.085501 -0.019136 -585331.000000 0 0 1
21.680886 -2.619629 -21.449354 30.610424 -0.120244 2.347203 0.051949 -0.012814 -1535890.000000 0 0 1
22.580786 -2.594729 -20.384254 30.531006 -0.114407 2.301854 0.042857 -0.011154 413421.000000 0 0 1
23.849986 -3.173929 -20.713154 31.747920 -0.132302 2.281577 0.035946 -0.019039 708518.000000 0 0 1
24.696086 -2.469929 -21.810654 33.040911 -0.099682 2.291762 0.032138 -0.016287 -1601910.000000 0 0 1
24.187586 -2.729029 -23.144854 33.588259 -0.112353 2.331009 0.039229 -0.018351 604874.000000 0 0 1
24.908186 -2.033629 -24.212454 34.796498 -0.081464 2.340372 0.044072 -0.013564 1496320.000000 0 0 1
26.340386 -2.600029 -24.602554 36.136709 -0.098390 2.319676 0.049383 -0.025639 672312.000000 0 0 1
27.311986 -2.347829 -23.614054 36.181216 -0.085753 2.281887 0.044344 -0.016353 880002.000000 0 0 1
28.649786 -2.744429 -23.984754 37.464791 -0.095501 2.265548 0.050030 -0.015863 1143440.000000 0 0 1
29.558086 -1.829829 -24.816654 38.638000 -0.061827 2.268274 0.063858 -0.027352 -551461.000000 0 0 1
29.197786 -1.777829 -26.222484 39.284730 -0.060814 2.301640 0.068012 -0.024344 380579.000000 0 0 1
29.894886 -0.736829 -26.850584 40.189563 -0.024642 2.302447 0.070780 -0.030609 -580598.000000 0 0 1
29.175086 -0.375229 -28.192414 40.572634 -0.012861 2.339025 0.062337 -0.029501 1219840.000000 0 0 1
27.796786 0.033671 -28.179544 39.582182 0.001211 2.363032 0.060091 -0.024245 835705.000000 0 0 1
27.432786 1.124871 -27.334114 38.742443 0.040982 2.353973 0.059431 -0.016212 129981.000000 0 0 1
25.921986 1.522571 -27.585104 37.884107 0.058669 2.386407 0.057236 -0.018633 349293.000000 0 0 1
25.086986 0.781271 -26.801734 36.719207 0.031132 2.388987 0.052429 -0.009856 -85242.800000 0 0 1
23.720786 1.150271 -26.983834 35.946156 0.048454 2.419878 0.049193 -0.011453 472875.000000 0 0 1
22.721886 0.779371 -25.890914 34.456218 0.034287 2.421000 0.049084 -0.007649 -209612.000000 0 0 1
22.798886 1.632771 -24.752254 33.691679 0.071494 2.395976 0.053054 -0.011331 24908.400000 0 0 1
21.758186 1.442871 -23.826754 32.298835 0.066217 2.400449 0.041817 -0.011625 -318135.000000 0 0 1
21.875186 2.127071 -22.444854 31.413686 0.096932 2.366695 0.042666 -0.013483 -453496.000000 0 0 1
21.607486 3.489871 -22.357954 31.288029 0.160129 2.366827 0.042396 -0.009928 408431.000000 0 0 1
21.986986 3.923871 -21.078754 30.710555 0.176604 2.327280 0.039498 -0.007838 -410715.000000 0 0 1
21.575486 5.341671 -20.752854 30.409143 0.242700 2.321912 0.060713 -0.009835 63494.800000 0 0 1
22.206486 6.360671 -21.615054 31.635371 0.278964 2.323009 0.060784 -0.010361 449037.000000 0 0 1
21.904986 7.715371 -21.179254 31.431133 0.338651 2.310177 0.061298 -0.011401 -409517.000000 0 0 1
22.346786 8.219771 -19.792354 30.962570 0.352468 2.264299 0.068035 -0.018289 291482.000000 0 0 1
23.756286 8.033771 -19.597554 31.827138 0.326101 2.234134 0.055486 -0.014513 882483.000000 0 0 1
24.213486 7.988471 -18.255854 31.358966 0.318674 2.192176 0.074740 -0.024765 -35679.800000 0 0 1
24.247286 9.306471 -17.433454 31.280451 0.366476 2.161960 0.074670 -0.036570 -595178.000000 0 0 1
22.974086 9.805971 -17.130654 30.289024 0.403418 2.171924 0.061022 -0.029477 -206112.000000 0 0 1
22.933386 11.132171 -16.688454 30.469163 0.451910 2.150428 0.063456 -0.022953 -356669.000000 0 0 1
21.525086 11.618271 -16.290954 29.388922 0.494943 2.158346 0.049389 -0.023699 415425.000000 0 0 1
20.513986 11.565971 -17.288254 29.214363 0.513383 2.204052 0.054515 -0.033956 1034660.000000 0 0 1
19.704286 10.315471 -17.303654 28.179501 0.482281 2.231980 0.061401 -0.031021 275453.000000 0 0 1
18.777886 10.333971 -18.521254 28.327315 0.503094 2.283432 0.081025 -0.014095 -594178.000000 0 0 1
19.416686 10.431771 -19.788354 29.621082 0.493008 2.302381 0.075775 -0.015586 -215376.000000 0 0 1
18.524086 10.428571 -20.867054 29.788098 0.512749 2.346917 0.070229 -0.017532 -541867.000000 0 0 1
19.124986 10.393271 -22.275854 31.144804 0.497792 2.367757 0.075472 -0.015589 163793.000000 0 0 1
19.854686 11.611371 -22.656654 32.285546 0.529181 2.348659 0.068306 -0.019848 676149.000000 0 0 1
20.384286 11.568171 -23.977854 33.530272 0.516183 2.367579 0.083278 -0.013246 -418443.000000 0 0 1
21.206686 12.795171 -24.244954 34.659165 0.542883 2.345529 0.086754 -0.005003 -428108.000000 0 0 1
21.703186 12.841371 -25.577734 35.918652 0.534280 2.363284 0.105589 -0.002367 107139.000000 0 0 1
21.953286 14.146471 -26.022824 36.868100 0.572421 2.354399 0.097203 -0.007367 -241521.000000 0 0 1
20.780486 14.873171 -26.700714 36.959003 0.621204 2.378123 0.088824 -0.011007 1061620.000000 0 0 1
19.539886 14.868271 -25.936124 35.714915 0.650453 2.383573 0.078121 -0.011616 1216590.000000 0 0 1
18.487286 15.441671 -26.714214 35.970462 0.695874 2.407846 0.081087 -0.016538 753452.000000 0 0 1
17.048086 15.315971 -26.135744 34.760514 0.731929 2.421706 0.079596 -0.022606 494614.000000 0 0 1
16.700186 13.916271 -26.186554 34.033725 0.694719 2.448744 0.082302 -0.016667 -461381.000000 0 0 1
15.359086 13.666471 -25.896824 33.065381 0.727149 2.470593 0.067317 -0.022326 -499378.000000 0 0 1
15.063286 12.146971 -25.805314 32.254701 0.678629 2.498172 0.063629 -0.023713 -294956.000000 0 0 1
13.722886 11.754071 -25.698594 31.414861 0.708273 2.528790 0.063613 -0.032118 -273097.000000 0 0 1
13.648986 10.373671 -25.283944 30.548088 0.649891 2.545752 0.063916 -0.026526 -40946.800000 0 0 1
12.231286 9.769871 -25.237354 29.698127 0.673985 2.586395 0.076357 -0.040082 417783.000000 0 0 1
11.314086 10.403371 -24.327954 28.776518 0.743488 2.578128 0.091837 -0.047883 206563.000000 0 0 1
10.192786 9.575771 -24.147454 27.904978 0.754196 2.616636 0.089027 -0.048457 -19478.200000 0 0 1
9.229486 10.018371 -23.005354 26.735697 0.826361 2.606994 0.082158 -0.046383 -156322.000000 0 0 1
8.576586 11.217571 -23.265454 27.215310 0.918037 2.596090 0.088869 -0.047922 -95565.800000 0 0 1
7.984886 11.971971 -22.222354 26.474884 0.982587 2.566929 0.080935 -0.043666 437302.000000 0 0 1
9.031786 12.761271 -21.373154 26.480840 0.954888 2.510050 0.089614 -0.046239 436687.000000 0 0 1
9.613686 11.892071 -20.378454 25.477945 0.890947 2.497836 0.112416 -0.050432 218773.000000 0 0 1
10.582186 12.607271 -19.610954 25.603036 0.872505 2.443333 0.136485 -0.051721 103838.000000 0 0 1
11.600486 11.688571 -18.873554 25.048054 0.789180 2.424157 0.140488 -0.049312 128521.000000 0 0 1
12.645086 11.083871 -19.608754 25.831253 0.719699 2.432741 0.131671 -0.048692 -20954.700000 0 0 1
12.297686 10.081771 -20.527554 25.966433 0.686704 2.482490 0.124577 -0.054498 -527659.000000 0 0 1
13.459786 9.506271 -21.378154 26.991860 0.614923 2.484911 0.125195 -0.041803 152496.000000 0 0 1
14.323086 8.719471 -20.575754 26.543203 0.546843 2.457796 0.127109 -0.049163 1050260.000000 0 0 1
15.389786 8.141971 -21.377254 27.570350 0.486617 2.458099 0.101892 -0.041626 708388.000000 0 0 1
16.125486 6.900571 -20.856454 27.251437 0.404349 2.442357 0.139186 -0.039191 197170.000000 0 0 1
16.976486 7.121171 -19.757954 27.005349 0.397180 2.391508 0.103723 -0.034907 134470.000000 0 0 1
17.611686 5.912571 -19.319654 26.802593 0.323896 2.375771 0.094028 -0.035199 118273.000000 0 0 1
18.385986 6.035071 -18.022254 26.443680 0.317162 2.320653 0.136840 -0.030820 -849761.000000 0 0 1
19.631886 6.654871 -18.095554 27.516310 0.326826 2.288465 0.108888 -0.035781 241557.000000 0 0 1
20.349886 6.696071 -16.817354 27.235613 0.317888 2.236327 0.094349 -0.040176 499296.000000 0 0 1
20.960686 5.394871 -16.213054 27.042894 0.251913 2.213711 0.079617 -0.043467 -227136.000000 0 0 1
22.158986 4.986271 -16.879354 28.298342 0.221336 2.209903 0.062056 -0.038221 848746.000000 0 0 1
22.784886 3.997271 -16.064254 28.163619 0.173668 2.177777 0.103054 -0.046380 298202.000000 0 0 1
24.157786 3.498371 -16.624454 29.533196 0.143814 2.168696 0.026441 -0.015650 221164.000000 0 0 1
24.673986 2.582871 -15.679454 29.348289 0.104300 2.134422 0.032163 -0.016325 30426.000000 0 0 1
25.943486 2.103571 -16.063254 30.586232 0.080906 2.123722 0.035192 -0.016263 -74322.400000 0 0 1
26.481686 1.095671 -15.025554 30.467154 0.041351 2.086529 0.062314 -0.028521 -176806.000000 0 0 1
25.942286 -0.221729 -15.144654 30.040171 -0.008547 2.099190 0.068154 -0.033019 824043.000000 0 0 1
26.918886 -1.148929 -15.661754 31.164675 -0.042655 2.097340 0.066527 -0.015357 63025.900000 0 0 1
26.246186 -2.522529 -15.892454 30.786288 -0.095816 2.113226 0.050014 -0.019659 139737.000000 0 0 1
25.598086 -3.106129 -14.735554 29.699269 -0.120752 2.089965 0.059502 -0.020449 703417.000000 0 0 1
25.387486 -4.502929 -15.005054 29.832071 -0.175542 2.097844 0.051520 -0.010890 -718647.000000 0 0 1
24.777886 -5.375329 -13.827754 28.879830 -0.213630 2.070087 0.059461 -0.016060 910655.000000 0 0 1
23.414586 -5.220529 -13.427054 27.491499 -0.219372 2.081060 0.080942 -0.013862 873918.000000 0 0 1
22.445386 -5.535329 -14.409254 27.240811 -0.241789 2.128169 0.093378 -0.009645 -278994.000000 0 0 1
20.966086 -5.315729 -14.009354 25.770055 -0.248307 2.145551 0.104955 -0.015584 -75907.900000 0 0 1
20.443786 -6.176529 -13.052254 25.029167 -0.293403 2.119383 0.107057 -0.015057 232941.000000 0 0 1
20.715686 -5.794729 -11.706054 24.489798 -0.272755 2.069169 0.122068 -0.022019 -321863.000000 0 1 0
20.738486 -7.017929 -10.712554 24.374063 -0.326305 2.025845 0.135762 -0.025129 1102060.000000 0 1 0
19.372986 -7.457529 -10.487354 23.257513 -0.367461 2.038596 0.126883 -0.027444 1551080.000000 0 1 0
19.119186 -8.637529 -11.155654 23.761288 -0.424327 2.059508 0.113668 -0.026920 -19177.100000 0 1 0
17.646186 -9.116129 -11.043354 22.725478 -0.476844 2.078242 0.125365 -0.040827 112756.000000 0 1 0
16.693886 -8.274129 -11.635254 21.966478 -0.460152 2.129022 0.105648 -0.023725 -861871.000000 0 1 0
15.499886 -8.960429 -11.787054 21.435260 -0.524158 2.153030 0.108122 -0.022717 -759508.000000 0 1 0
14.342686 -8.044229 -12.240354 20.499964 -0.511142 2.210667 0.082606 -0.004267 -439403.000000 0 1 0
14.434086 -7.373529 -13.467054 21.073047 -0.472283 2.264079 0.080528 -0.004638 38612.000000 0 1 0
15.461786 -6.448229 -13.722654 21.655431 -0.395112 2.257100 0.071545 -0.001389 -227048.000000 0 1 0
15.064286 -5.459029 -14.811254 21.819875 -0.347663 2.316919 0.054292 0.000099 241164.000000 0 1 0
14.151586 -4.484729 -14.298154 20.611099 -0.306894 2.337426 0.066351 -0.002485 507172.000000 0 1 0
13.643386 -3.535129 -15.225454 20.747375 -0.253534 2.394768 0.051052 -0.010965 23962.200000 0 1 0
14.652086 -2.368829 -15.466554 21.436167 -0.160285 2.376787 0.068978 -0.016678 -493000.000000 0 1 0
15.683686 -2.664329 -16.354354 22.815380 -0.168273 2.370017 0.065186 -0.010711 -92847.100000 0 1 0
16.720086 -1.698229 -16.290154 23.405435 -0.101221 2.340606 0.074328 -0.016121 694626.000000 0 1 0
17.915586 -2.017029 -15.340354 23.671989 -0.112113 2.275802 0.094192 -0.015905 -272977.000000 0 1 0
17.549086 -1.870529 -14.003454 22.529226 -0.106187 2.241540 0.076365 -0.008812 6744.790000 0 1 0
18.589386 -2.173029 -13.102354 22.846422 -0.116368 2.181565 0.078841 -0.011303 -228805.000000 0 1 0
18.125886 -2.483729 -11.678954 21.705175 -0.136179 2.138945 0.082930 -0.002000 -256970.000000 0 1 0
18.287686 -1.438329 -10.802054 21.288321 -0.078489 2.102981 0.096827 -0.008914 527315.000000 0 1 0
17.876286 -1.758329 -9.467054 20.304640 -0.098046 2.055844 0.101697 -0.015276 -911258.000000 0 1 0
17.913686 -0.614229 -8.485854 19.831468 -0.034275 2.012963 0.097760 -0.012805 202305.000000 0 1 0
19.232486 -0.165229 -8.193354 20.905666 -0.008591 1.973514 0.110061 -0.007887 797270.000000 0 1 0
19.969786 0.474271 -9.208154 21.995622 0.023745 2.002739 0.093322 0.001008 -899872.000000 0 1 0
19.486386 1.855971 -9.749154 21.868010 0.094958 2.032884 0.086026 -0.003482 -531290.000000 0 1 0
19.497186 2.930271 -8.822654 21.600138 0.149176 1.991556 0.078367 0.002616 593708.000000 0 1 0
18.784386 4.014871 -9.374654 21.374201 0.210566 2.024833 0.064529 -0.008594 -228535.000000 0 1 0
18.972686 5.419171 -8.673754 21.553752 0.278222 1.984960 0.088995 -0.000125 30166.800000 0 1 0
18.194986 6.427371 -9.369054 21.451055 0.339567 2.022795 0.069520 -0.008691 839080.000000 0 1 0
18.923086 7.643671 -9.518754 22.519226 0.383893 2.007213 0.111549 0.005902 -7586.300000 0 1 0
-26.691924 -29.219639 5.835146 40.003688 0.830577 1.424409 0.069380 -0.021539 -96890.100000 0 0 1
-26.918704 -28.111709 6.738346 39.500508 0.807074 1.399369 0.066186 -0.013749 535726.000000 0 0 1
-25.817374 -27.204759 6.519146 38.067506 0.811558 1.398696 0.068600 -0.019126 281343.000000 0 0 1
-26.100944 -25.840439 7.226046 37.432651 0.780383 1.376536 0.054205 -0.012473 -1203340.000000 0 0 1
-27.235004 -25.098389 7.029646 37.697354 0.744594 1.383222 0.055247 -0.018676 465839.000000 0 0 1
-28.490614 -25.707219 7.502946 39.100773 0.734087 1.377711 0.053313 -0.013008 1184950.000000 0 0 1
-28.736404 -25.844269 9.024446 39.688132 0.732459 1.341406 0.070781 -0.015420 -296823.000000 0 0 1
-27.761344 -26.643719 9.666146 39.673850 0.764858 1.324679 0.057610 -0.014604 100357.000000 0 0 1
-28.209114 -26.895149 10.985846 40.494345 0.761558 1.296060 0.056782 -0.014740 -119293.000000 0 0 1
-27.094984 -27.633849 11.724346 40.437953 0.795244 1.276638 0.035793 -0.013636 681513.000000 0 0 1
-25.957444 -26.871299 12.142446 39.284789 0.802695 1.256563 0.023614 -0.005479 335453.000000 0 0 1
-26.152274 -26.239909 13.404446 39.397379 0.787071 1.223627 0.038256 -0.014072 -719735.000000 0 0 1
-24.888414 -25.599969 13.935446 38.327382 0.799491 1.198678 0.051603 -0.011668 -41706.100000 0 0 1
-23.960914 -26.542079 14.498646 38.585206 0.836463 1.185583 0.049560 -0.008165 -277053.000000 0 0 1
-22.959214 -25.966829 15.264846 37.873701 0.846794 1.155954 0.044298 -0.006782 -591858.000000 0 0 1
-22.159014 -27.076869 15.933546 38.445502 0.884952 1.143463 0.041315 -0.014091 -208862.000000 0 0 1
-22.958914 -27.924139 16.798946 39.863189 0.882671 1.135791 0.040270 -0.008099 488500.000000 0 0 1
-22.218314 -28.936699 17.470446 40.450000 0.915985 1.124196 0.045158 -0.007722 25155.100000 0 0 1
-23.070414 -29.982199 18.257246 42.005991 0.914950 1.121164 0.072230 -0.021779 13037.600000 0 0 1
-24.031414 -30.676559 17.496446 42.716341 0.906272 1.148785 0.059656 -0.014431 497718.000000 0 0 1
-24.633714 -31.754629 18.263346 44.144379 0.911017 1.144262 0.057062 -0.020514 173267.000000 0 0 1
-25.632194 -32.648919 17.514846 45.052537 0.905216 1.171506 0.048582 -0.025818 269388.000000 0 0 1
-24.929314 -33.393459 16.503846 44.821543 0.929518 1.193711 0.045277 -0.027848 660082.000000 0 0 1
-25.813774 33.842707 15.777846 45.394054 -0.919180 1.215813 0.051825 -0.031198 -262314.000000 0 0 1
-25.030614 32.992940 14.738646 43.957860 -0.921772 1.228883 0.060524 -0.035202 443457.000000 0 0 1
-23.976714 32.142647 15.205846 42.886482 -0.929894 1.208353 0.053232 -0.040021 -188808.000000 0 0 1
-22.782214 32.825682 15.002646 42.680605 -0.964084 1.211613 0.048329 -0.032629 -1189550.000000 0 0 1
-21.548914 31.901660 14.964146 41.303720 -0.976717 1.200067 0.040781 -0.040910 -406153.000000 0 0 1
-21.565514 30.971000 13.906046 40.220049 -0.962549 1.217759 0.012893 -0.015249 -963089.000000 0 0 1
-20.429614 30.223610 13.903346 39.040220 -0.976395 1.206675 0.029073 -0.025184 -1086350.000000 0 0 1
-20.287814 29.366810 12.618146 37.857926 -0.966243 1.230992 0.025128 -0.014315 130252.000000 0 0 1
-19.878214 30.171320 11.507146 37.919208 -0.988228 1.262469 0.003058 0.002758 225997.000000 0 0 1
-20.752314 29.959740 10.405646 37.901478 -0.965005 1.292680 0.037123 -0.009247 302708.000000 0 0 1
-20.182314 30.574280 9.099546 37.748035 -0.987348 1.327338 0.030851 -0.000851 271032.000000 0 0 1
-19.005914 29.997510 8.568046 36.530628 -1.006049 1.334047 0.036029 -0.013962 -185132.000000 0 0 1
-18.585614 30.743200 7.468846 36.692684 -1.027042 1.365812 0.048532 -0.013651 29014.800000 0 0 1
-17.520914 30.059260 6.593546 35.412094 -1.043061 1.383509 0.065136 -0.017663 37463.300000 0 0 1
-17.962914 28.820440 5.954846 34.478171 -1.013442 1.397212 0.066675 -0.005970 78234.600000 0 0 1
-18.282014 27.722520 6.797646 33.896580 -0.987797 1.368886 0.043933 -0.000241 235747.000000 0 0 1
-19.482314 26.890030 6.248046 33.788642 -0.943804 1.384810 0.047672 0.005137 79725.500000 0 0 1
-19.140214 26.011400 5.195146 32.709789 -0.936420 1.411295 0.062684 -0.014138 175384.000000 0 0 1
-20.246414 25.354890 4.600646 32.771233 -0.896958 1.429944 0.062809 -0.014592 -603197.000000 0 0 1
-19.884914 24.635000 3.260046 31.826419 -0.891692 1.468184 0.079411 -0.022722 -1088870.000000 0 0 1
-19.648114 25.479140 2.158646 32.247399 -0.913899 1.503806 0.088465 -0.031652 648906.000000 0 0 1
-18.373214 26.086230 2.056146 31.973335 -0.957173 1.506444 0.084010 -0.027931 197929.000000 0 0 1
-17.006414 25.401530 2.378346 30.661252 -0.980832 1.493150 0.089023 -0.031345 -177876.000000 0 0 1
-16.582214 24.331400 1.492546 29.482445 -0.972584 1.520150 0.127157 -0.044286 284875.000000 0 0 1
-16.399914 24.681070 0.134146 29.633265 -0.984314 1.566269 0.123397 -0.046678 -440205.000000 0 0 1
-16.144114 23.476620 -0.795154 28.502919 -0.968395 1.598697 0.121120 -0.046461 231166.000000 0 0 1
-17.263814 22.587380 -0.866954 28.442585 -0.918198 1.601282 0.128363 -0.058252 554945.000000 0 0 1
-17.109914 21.460480 -1.752154 27.502207 -0.897719 1.634549 0.123766 -0.055466 -241471.000000 0 0 1
-16.068114 20.367380 -1.411754 25.980907 -0.902852 1.625161 0.127353 -0.054455 -95814.400000 0 0 1
-16.429214 19.554980 -0.332754 25.542652 -0.872046 1.583824 0.128247 -0.058470 548572.000000 0 0 1
-15.347914 18.745580 0.184346 24.227861 -0.884728 1.563187 0.139263 -0.053132 506746.000000 0 1 0
-15.840414 17.653580 1.200646 23.748877 -0.839479 1.520219 0.111508 -0.043457 598518.000000 0 1 0
-16.731314 16.762280 0.475346 23.688328 -0.786323 1.550728 0.105003 -0.037442 879082.000000 0 1 0
-17.265214 15.811380 1.412446 23.453835 -0.741473 1.510537 0.120272 -0.054679 148211.000000 0 1 0
-17.951914 14.568080 0.790946 23.132786 -0.681717 1.536598 0.124507 -0.050309 133300.000000 0 1 0
-19.167514 14.769580 0.083746 24.197957 -0.656526 1.567335 0.150155 -0.051419 487974.000000 0 1 0
-19.777114 13.518580 -0.214554 23.956884 -0.599598 1.579752 0.128794 -0.040458 16315.000000 0 1 0
-20.985014 13.704180 -1.170554 25.090747 -0.578514 1.617466 0.129664 -0.032040 -1087900.000000 0 0 1
-21.759114 12.627480 -1.622454 25.210011 -0.525831 1.635198 0.109105 -0.031797 775178.000000 0 0 1
-22.867414 12.372080 -0.755754 26.010732 -0.495935 1.599856 0.130638 -0.029576 -93032.500000 0 0 1
-24.067314 13.339280 -0.820954 27.529002 -0.506099 1.600622 0.122987 -0.030539 -1105470.000000 0 0 1
-23.846414 14.634780 -0.306554 27.980748 -0.550439 1.581752 0.116701 -0.036391 -114337.000000 0 0 1
-25.071864 15.238780 -0.019054 29.339720 -0.546138 1.571446 0.096561 -0.026469 -312511.000000 0 0 1
-24.847514 16.388380 0.982046 29.781578 -0.583065 1.537815 0.086148 -0.029655 49907.000000 0 0 1
-24.510714 15.970680 2.277446 29.343219 -0.577485 1.493104 0.089918 -0.037188 25107.700000 0 0 1
-24.334014 16.995480 3.221046 29.855749 -0.609668 1.462699 0.078087 -0.035382 369035.000000 0 0 1
-25.587924 17.861480 3.627946 31.415543 -0.609412 1.455056 0.083525 -0.035232 -605005.000000 0 0 1
-26.427764 17.138180 4.553946 31.825813 -0.575314 1.427214 0.095546 -0.035113 832546.000000 0 0 1
-27.714684 17.749880 4.683446 33.242994 -0.569633 1.429441 0.086412 -0.036986 611196.000000 0 0 1
-28.621744 17.890280 3.451446 33.929027 -0.558642 1.468895 0.094889 -0.037773 -956626.000000 0 0 1
-29.777034 18.732780 3.612346 35.364359 -0.561543 1.468471 0.099615 -0.032800 750957.000000 0 0 1
-30.326824 18.981080 2.336846 35.853292 -0.559235 1.505572 0.113712 -0.028422 -324405.000000 0 0 1
-31.538464 19.930180 2.302346 37.378973 -0.563569 1.509163 0.112979 -0.035234 -629135.000000 0 0 1
-32.725254 19.312280 2.713346 38.095520 -0.533133 1.499511 0.156656 -0.027651 -111861.000000 0 0 1
-33.826534 20.166480 2.451746 39.457983 -0.537601 1.508621 0.135987 -0.020829 86440.400000 0 0 1
-34.531848 20.658080 3.734246 40.412243 -0.539119 1.478260 0.128539 -0.029486 -417141.000000 0 0 1
-33.774034 21.647380 4.393746 40.355910 -0.569985 1.461705 0.115094 -0.033758 399960.000000 0 0 1
-34.308349 22.023080 5.645746 41.157664 -0.570671 1.433189 0.093717 -0.032824 -326058.000000 0 0 1
-33.322794 22.910880 6.407446 40.943527 -0.602317 1.413656 0.099124 -0.033010 -306057.000000 0 0 1
-33.222984 24.151650 5.708146 41.468685 -0.628589 1.432708 0.084016 -0.023499 -230098.000000 0 0 1
-32.121714 24.882370 6.104346 41.087710 -0.659077 1.421676 0.088434 -0.030149 -653166.000000 0 0 1
-32.404364 26.379110 6.034546 42.217485 -0.683256 1.427366 0.089487 -0.024987 25446.000000 0 0 1
-33.457104 26.766900 6.909646 43.400322 -0.674763 1.410909 0.100187 -0.014934 325722.000000 0 0 1
-33.869794 28.111790 6.588546 44.506681 -0.692765 1.422215 0.089593 -0.015359 -287254.000000 0 0 1
-34.822678 28.704050 7.595846 45.762848 -0.689379 1.404042 0.085053 -0.011424 -914925.000000 0 0 1
-34.238883 28.719370 8.872546 45.561227 -0.697952 1.374805 0.098764 -0.023066 -89819.400000 0 0 1
-34.932741 29.489190 9.805746 46.755335 -0.701100 1.359503 0.103106 -0.015938 -838750.000000 0 0 1
-36.233084 28.913810 10.332446 47.493202 -0.673517 1.351486 0.092034 -0.008864 -716143.000000 0 0 1
-36.009057 27.555830 10.799346 46.611177 -0.653188 1.336982 0.098561 -0.020603 645428.000000 0 0 1
-37.096844 27.056910 11.602046 47.358840 -0.630159 1.323296 0.096494 -0.016110 514992.000000 0 0 1
-36.722594 25.686460 12.279546 46.466444 -0.610372 1.303353 0.117061 -0.015761 -534197.000000 0 0 1
-35.755343 25.909270 13.224446 46.093609 -0.627063 1.279803 0.139178 -0.026407 -781190.000000 0 0 1
-35.418917 24.797890 14.033246 45.457310 -0.610814 1.256957 0.145637 -0.025069 235642.000000 0 0 1
-34.121843 25.156060 14.820846 44.908630 -0.635286 1.234469 0.144117 -0.028250 105828.000000 0 0 1
-34.235408 26.280710 15.664246 45.914132 -0.654700 1.222641 0.148326 -0.033030 -780024.000000 0 0 1
-33.117724 26.476960 16.465446 45.485426 -0.674424 1.200390 0.162294 -0.030237 -493491.000000 0 0 1
-33.219954 27.685410 17.439846 46.628269 -0.694776 1.187458 0.158696 -0.042707 -133552.000000 0 0 1
-33.137064 28.986740 16.776046 47.114030 -0.718690 1.206734 0.165310 -0.039020 68281.400000 0 0 1
-33.105704 30.044800 17.659946 48.068195 -0.736966 1.194591 0.139865 -0.035759 -106826.000000 0 0 1
-32.701774 31.325710 16.956246 48.355149 -0.763910 1.212520 0.114629 -0.038819 -781175.000000 0 0 1
-31.391544 31.327100 16.519546 47.325592 -0.784371 1.214227 0.108026 -0.035082 -1038900.000000 0 0 1
-30.954924 32.650209 16.198246 47.818685 -0.812045 1.225216 0.104090 -0.032532 -183904.000000 0 0 1
-29.494794 32.652375 15.695746 46.716988 -0.836163 1.228156 0.115903 -0.034472 -71103.900000 0 0 1
-29.292334 32.006030 14.441046 45.727132 -0.829640 1.249487 0.106483 -0.032088 63493.800000 0 0 1
-28.912784 30.606020 14.455446 44.515587 -0.813839 1.240072 0.120961 -0.037526 602212.000000 0 0 1
-30.081764 29.560280 14.229746 44.510767 -0.776655 1.245392 0.147162 -0.035233 750542.000000 0 0 1
-30.640554 29.517040 12.944846 44.470982 -0.766724 1.275435 0.147017 -0.036567 -672224.000000 0 0 1
-31.449974 28.460310 12.704746 44.277542 -0.735537 1.279771 0.149683 -0.031818 -430034.000000 0 0 1
-31.656704 28.232350 11.184646 43.866944 -0.728282 1.312982 0.132211 -0.019953 523610.000000 0 0 1
-30.475294 27.699290 10.558446 42.514409 -0.737716 1.319820 0.112809 -0.008548 477811.000000 0 0 1
-30.538094 27.656520 9.132446 42.200235 -0.735922 1.352663 0.113752 -0.017852 -16550.400000 0 0 1
-29.257154 27.110230 8.469746 40.776001 -0.747329 1.361559 0.121217 -0.022465 32275.400000 0 0 1
-29.159524 27.292480 7.050046 40.556879 -0.752337 1.396078 0.109411 -0.028540 30231.200000 0 0 1
-28.115604 26.407160 6.627246 39.137523 -0.754074 1.400644 0.087690 -0.017176 404817.000000 0 0 1
-27.878594 26.440660 5.122946 38.762986 -0.758932 1.438248 0.084953 -0.017633 125881.000000 0 0 1
-27.203544 27.656080 4.801846 39.088992 -0.793647 1.447641 0.074201 -0.006990 408634.000000 0 0 1
-26.697104 27.763330 3.447446 38.670696 -0.804974 1.481529 0.060967 -0.009081 188274.000000 0 0 1
-25.620664 28.879150 3.326446 38.749051 -0.845116 1.484845 0.046726 -0.011428 470241.000000 0 0 1
-24.318714 28.504950 3.777546 37.659021 -0.864482 1.470318 0.038896 -0.011891 387881.000000 0 0 1
-23.399214 29.537590 3.399646 37.835830 -0.900839 1.480822 0.041590 -0.007864 624481.000000 0 0 1
-21.936714 29.014900 3.392246 36.532057 -0.923434 1.477806 0.038865 -0.011131 130316.000000 0 0 1
-20.977714 29.942300 3.066246 36.687977 -0.959665 1.487122 0.042653 -0.004137 -653324.000000 0 0 1
-19.619314 29.587730 3.235446 35.648554 -0.985274 1.479912 0.046512 -0.009443 223578.000000 0 0 1
-18.741014 30.720790 2.738146 36.090026 -1.023025 1.494853 0.041161 -0.012819 -282706.000000 0 0 1
-18.565614 31.912590 3.504746 37.086098 -1.043893 1.476152 0.041222 -0.010055 -400012.000000 0 0 1
-17.446514 32.622247 3.084846 37.122879 -1.079695 1.487602 0.053555 -0.004643 -230911.000000 0 0 1
-17.013414 33.793492 3.983346 38.043704 -1.104391 1.465900 0.059248 -0.016611 -162928.000000 0 0 1
-17.879514 -33.154519 3.787246 37.858188 1.076222 1.470591 0.063319 -0.023830 -97546.500000 0 0 1
-17.490114 -31.947769 4.424946 36.689838 1.069906 1.449898 0.055737 -0.027052 -20240.900000 0 0 1
-18.597214 -30.888779 4.673646 36.356788 1.028856 1.441890 0.052061 -0.026232 69343.900000 0 0 1
-18.873314 -29.938529 3.675346 35.581255 1.008322 1.467317 0.067802 -0.032322 202339.000000 0 0 1
-19.981114 -29.147589 4.065646 35.571848 0.969858 1.456252 0.074823 -0.036588 10457.100000 0 0 1
-20.506114 -28.151659 3.007546 34.958003 0.941253 1.484657 0.076150 -0.045558 181568.000000 0 0 1
-19.704114 -26.962749 2.926546 33.523225 0.939703 1.483386 0.091661 -0.050347 285048.000000 0 0 1
-20.109814 -26.059709 1.897546 32.971408 0.913562 1.513213 0.093558 -0.045061 57503.300000 0 0 1
-19.091614 -24.907129 1.762146 31.431831 0.916811 1.514704 0.088887 -0.031785 441901.000000 0 0 1
-17.865114 -25.338309 1.210046 31.026705 0.956680 1.531786 0.120589 -0.040538 -245286.000000 0 0 1
-16.852614 -24.335429 1.155146 29.623607 0.965113 1.531792 0.113634 -0.037800 418098.000000 0 0 1
-15.608014 -24.922229 0.448446 29.409670 1.011285 1.555547 0.108401 -0.034299 -211994.000000 0 0 1
-15.676214 -24.902929 -0.961354 29.441871 1.008973 1.603455 0.096783 -0.030467 71348.600000 0 0 1
-15.409414 -23.606129 -1.533254 28.232078 0.992475 1.625132 0.118151 -0.035359 -146085.000000 0 0 1
-15.433314 -23.559729 -3.107054 28.335522 0.990864 1.680670 0.089103 -0.018439 -157470.000000 0 0 1
-14.288114 -24.090529 -3.707754 28.253340 1.035465 1.702408 0.107945 -0.014507 -258016.000000 0 0 1
-14.507914 -24.123629 -5.071054 28.603228 1.029349 1.749028 0.089332 -0.003481 -89244.000000 0 0 1
-13.351514 -24.711729 -5.870354 28.694835 1.075438 1.776830 0.109789 -0.011696 -127150.000000 0 0 1
-13.242814 -26.133879 -5.700454 29.847059 1.101779 1.762966 0.083594 -0.015429 109552.000000 0 0 1
-12.093514 -26.583849 -6.409354 29.900400 1.143859 1.786830 0.078214 -0.004462 411134.000000 0 0 1
23.562786 12.568971 27.700721 38.477446 0.490028 0.767108 0.050881 0.003636 -1023140.000000 0 0 1
24.475686 11.580571 27.941051 38.908497 0.441934 0.769696 0.058246 -0.003197 -450800.000000 0 0 1
24.256486 10.657271 28.991421 39.274127 0.413969 0.740426 0.069891 -0.009406 -459100.000000 0 0 1
24.385986 11.212871 30.440141 40.583334 0.430980 0.722636 0.083245 -0.015841 505067.000000 0 0 1
23.349986 12.151971 30.765371 40.489508 0.479856 0.707736 0.068636 -0.007461 536502.000000 0 0 1
23.597086 12.634971 32.076103 41.777283 0.491601 0.695415 0.060205 -0.009341 -709640.000000 0 0 1
22.610186 13.624171 32.622141 41.964778 0.542305 0.680323 0.053395 -0.005243 -903406.000000 0 0 1
21.479586 12.947471 33.105680 41.533067 0.542461 0.648332 0.066033 -0.002280 -305336.000000 0 0 1
20.552186 13.855171 33.631787 41.778645 0.593163 0.635122 0.046286 0.002536 11962.200000 0 0 1
19.274386 13.259371 -33.608544 40.949324 0.602577 2.533493 0.049724 0.003403 -140796.000000 0 0 1
18.257286 12.780971 33.430171 40.177830 0.610758 0.587994 0.046690 0.003349 -784418.000000 0 0 1
17.269686 12.319271 -33.614494 39.748468 0.619627 2.578635 0.041028 0.002463 -745425.000000 0 0 1
15.844886 12.095171 33.732658 39.182213 0.651990 0.533726 0.036633 0.008174 144975.000000 0 0 1
15.815886 11.032471 32.808883 38.056280 0.609084 0.531368 0.030211 0.011827 -65724.300000 0 0 1
14.512586 10.803371 32.299522 37.021441 0.639916 0.510594 0.031798 0.017260 231417.000000 0 0 1
14.522686 9.793371 31.198021 35.778975 0.593303 0.511594 0.029493 0.016543 -9312.050000 0 0 1
14.513186 8.430071 31.645681 35.821052 0.526224 0.487646 0.014916 0.013257 -36374.600000 0 0 1
15.316986 7.630871 30.824761 35.256292 0.462204 0.506794 0.023801 -0.007776 84605.800000 0 0 1
15.750586 6.258071 31.377601 35.662281 0.378197 0.495241 0.042462 -0.013175 -294387.000000 0 0 1
14.662286 5.390171 31.421971 35.090979 0.352286 0.461371 0.038267 -0.006224 -260490.000000 0 0 1
15.094686 4.092471 31.779051 35.419005 0.264755 0.457337 0.049141 -0.018840 -347000.000000 0 0 1
13.944986 3.201671 32.149116 35.189189 0.225682 0.418726 0.044278 -0.014593 -539331.000000 0 0 1
14.475786 1.920471 32.415647 35.552929 0.131898 0.423254 0.050636 -0.027730 78574.000000 0 0 1
13.408386 1.068671 32.774565 35.427376 0.079534 0.389445 0.057065 -0.025498 -276198.000000 0 0 1
13.808886 -0.300329 33.351383 36.098342 -0.021746 0.392637 0.040343 -0.028921 -131852.000000 0 0 1
14.275686 -1.188429 32.331207 35.362615 -0.083057 0.417078 0.030983 -0.026389 13392.300000 0 0 1
14.627486 -2.434529 32.949766 36.132774 -0.164923 0.422887 0.077432 -0.041698 -436932.000000 0 0 1
15.177086 -3.422129 31.944224 35.531512 -0.221771 0.453226 0.081837 -0.042548 -843676.000000 0 0 1
15.555586 -4.734129 32.431458 36.279301 -0.295430 0.464740 0.092379 -0.046546 68203.100000 0 0 1
16.721986 -4.880129 33.220840 37.510861 -0.283953 0.482942 0.081454 -0.036453 252792.000000 0 0 1
18.055186 -4.614229 32.455956 37.425525 -0.250207 0.521216 0.098460 -0.041017 -506493.000000 0 0 1
18.236286 -3.240329 32.247318 37.188054 -0.175850 0.521362 0.107027 -0.044987 -230325.000000 0 0 1
19.429986 -2.932729 31.570461 37.186278 -0.149807 0.556742 0.125162 -0.050105 -227084.000000 0 0 1
19.614386 -1.451329 31.554091 37.181866 -0.073859 0.557384 0.121873 -0.048897 -321142.000000 0 0 1
19.993986 -0.887629 32.783174 38.409424 -0.044366 0.548094 0.121663 -0.055980 157864.000000 0 0 1
19.764786 0.511371 32.779869 38.280910 0.025867 0.542737 0.107913 -0.046803 -86299.000000 0 0 1
20.842686 1.318171 32.003207 38.214662 0.063160 0.578180 0.116685 -0.036518 -317858.000000 0 0 1
20.898486 1.255871 30.595731 37.073207 0.060022 0.600101 0.125624 -0.046934 478098.000000 0 0 1
21.829086 2.246871 30.065601 37.222275 0.102569 0.630502 0.101616 -0.039172 228065.000000 0 0 1
21.302186 3.658871 29.790121 36.805187 0.170101 0.627666 0.090938 -0.021441 -300045.000000 0 0 1
21.032986 4.311671 31.011961 37.718944 0.202194 0.605557 0.088074 -0.030682 444203.000000 0 0 1
20.169086 5.423271 30.827451 37.236214 0.262677 0.595463 0.087669 -0.024839 -126843.000000 0 0 1
19.711486 6.015971 32.176336 38.210616 0.296222 0.569671 0.084833 -0.019950 130863.000000 0 0 1
18.696986 5.249271 32.831571 38.145042 0.273709 0.534146 0.078769 -0.016198 473111.000000 0 0 1
18.392186 5.690571 -33.762864 38.866259 0.300060 2.623355 0.070712 -0.015454 -261991.000000 0 0 1
17.256786 4.912771 -33.095384 37.646201 0.277349 2.644801 0.078592 -0.014924 -190253.000000 0 0 1
17.738086 3.632371 -32.726534 37.401335 0.201986 2.636252 0.079736 -0.018352 94956.200000 0 0 1
16.740986 2.790971 -32.194194 36.393904 0.165196 2.656441 0.055593 -0.011729 -211958.000000 0 0 1
16.748786 1.369071 -32.690764 36.757071 0.081560 2.666769 0.077181 -0.036505 147244.000000 0 0 1
17.830386 0.499271 -32.346654 36.938841 0.027994 2.637641 0.079682 -0.033657 411161.000000 0 0 1
17.541686 -0.870629 -32.699094 37.117374 -0.049591 2.648693 0.092997 -0.038724 -189809.000000 0 0 1
18.608686 -1.826529 -32.101154 37.149744 -0.097841 2.614159 0.088586 -0.039423 -73294.100000 0 0 1
18.541086 -1.874029 -30.646974 35.868104 -0.100732 2.595259 0.082239 -0.038620 529741.000000 0 0 1
19.154586 -0.823529 -29.875344 35.498064 -0.042967 2.571044 0.088442 -0.029764 -201741.000000 0 0 1
18.740186 -0.923229 -28.402724 34.040588 -0.049225 2.557800 0.067743 -0.016813 183736.000000 0 0 1
17.370486 -0.668929 -28.090334 33.034045 -0.038491 2.587437 0.067595 -0.024925 560835.000000 0 0 1
17.135586 -0.407729 -26.691864 31.721446 -0.023790 2.570749 0.070521 -0.028371 -21276.300000 0 0 1
17.619886 -1.506829 -25.666284 31.168719 -0.085311 2.538284 0.078071 -0.015957 820302.000000 0 0 1
18.987086 -1.309829 -25.207564 31.585540 -0.068876 2.494887 0.068168 -0.017237 912828.000000 0 0 1
19.714086 -2.445929 -24.877754 31.835992 -0.123439 2.467758 0.058865 -0.015850 -62722.600000 0 0 1
20.361686 -3.136729 -26.065304 33.224048 -0.152849 2.472736 0.070296 -0.022887 -557492.000000 0 0 1
21.526986 -2.432329 -26.441094 34.182727 -0.112513 2.455176 0.074691 -0.010794 -439048.000000 0 0 1
22.036086 -2.982529 -27.590444 35.436100 -0.134530 2.463223 0.082815 -0.020250 -340519.000000 0 0 1
23.389886 -2.415629 -28.038574 36.593492 -0.102912 2.443730 0.063642 -0.025872 -132983.000000 0 0 1
24.500386 -3.204929 -27.666994 37.094515 -0.130073 2.412608 0.060581 -0.029134 -225889.000000 0 0 1
25.657286 -2.708729 -28.337434 38.322887 -0.105184 2.403033 0.043621 -0.025018 231948.000000 0 0 1
26.856686 -3.628329 -27.994354 38.963190 -0.134287 2.372414 0.051092 -0.025099 -343758.000000 0 0 1
26.871886 -4.869929 -28.677904 39.600968 -0.179282 2.380629 0.078720 -0.040143 358871.000000 0 0 1
28.109086 -5.568229 -28.608024 40.491294 -0.195562 2.355369 0.069912 -0.038746 267563.000000 0 0 1
28.141086 -6.588629 -27.403324 39.828042 -0.229986 2.329582 0.064428 -0.034332 -237276.000000 0 0 1
28.214686 -6.053529 -26.115314 38.919447 -0.211348 2.306366 0.056464 -0.022383 329371.000000 0 0 1
27.897386 -7.005629 -25.142714 38.203390 -0.246034 2.289126 0.029129 -0.020417 -420918.000000 0 0 1
27.937586 -6.478729 -23.678354 37.190685 -0.227872 2.260974 0.023104 -0.020890 -375660.000000 0 0 1
29.259986 -6.462929 -23.210054 37.902808 -0.217389 2.229835 0.019462 -0.012553 127421.000000 0 0 1
29.263286 -6.067429 -21.857354 37.025633 -0.204443 2.202264 0.027111 -0.013993 298991.000000 0 0 1
30.711286 -5.683729 -21.430654 37.878236 -0.182999 2.172172 0.035791 -0.007056 369987.000000 0 0 1
31.210486 -4.528329 -22.168554 38.549254 -0.144085 2.183487 0.053980 -0.015568 -14225.200000 0 0 1
32.410886 -4.073829 -21.600254 39.161621 -0.125038 2.155038 0.066946 -0.009422 -194811.000000 0 0 1
32.809886 -2.647529 -22.082754 39.637685 -0.080519 2.161704 0.087794 -0.025890 -288171.000000 0 0 1
31.848786 -1.638429 -21.963554 38.722439 -0.051399 2.173904 0.058948 -0.024966 74132.200000 0 0 1
32.358186 -0.359129 -22.353854 39.330344 -0.011098 2.175309 0.088686 -0.031081 -370385.000000 0 0 1
31.305186 0.689371 -22.096154 38.324012 0.022017 2.185310 0.073620 -0.023294 -216242.000000 0 0 1
30.228886 0.640471 -23.038754 38.012892 0.021184 2.221916 0.057782 -0.021901 332179.000000 0 0 1
29.190786 1.458171 -22.554854 36.918148 0.049912 2.228046 0.049769 -0.011495 -257710.000000 0 0 1
27.948486 1.501371 -23.455654 36.517663 0.053668 2.268305 0.042353 -0.011109 -208812.000000 0 0 1
26.859186 2.293171 -23.046854 35.465927 0.085171 2.278158 0.046306 -0.006997 219522.000000 0 0 1
26.120186 2.695571 -24.186454 35.700347 0.102835 2.315134 0.047494 -0.013620 -617964.000000 0 0 1
25.118886 3.739871 -23.773254 34.786674 0.147801 2.323208 0.060379 -0.009197 -761629.000000 0 0 1
25.759686 4.936471 -23.352654 35.118038 0.189340 2.298258 0.061590 -0.004518 450214.000000 0 0 1
24.833786 5.955271 -23.038054 34.393809 0.235361 2.304778 0.071780 -0.011567 -338970.000000 0 0 1
25.547586 7.163971 -22.342054 34.686726 0.273395 2.270655 0.089257 -0.003875 -174084.000000 0 0 1
26.371886 7.804771 -23.255454 36.016759 0.287737 2.272715 0.093500 -0.006590 -216751.000000 0 0 1
26.674486 9.152871 -22.834954 36.286890 0.330543 2.251435 0.104476 -0.007251 -257567.000000 0 0 1
27.592486 9.895871 -23.827054 37.775680 0.344354 2.253317 0.134560 -0.004329 -347527.000000 0 0 1
27.203286 10.094071 -25.147154 38.396463 0.355313 2.284892 0.141638 -0.012421 874456.000000 0 0 1
26.001086 10.898471 -25.289144 37.873129 0.396909 2.301956 0.143286 -0.015998 901004.000000 0 0 1
25.774286 11.491671 -26.713874 38.858762 0.419404 2.328783 0.134964 -0.008682 -190936.000000 0 0 1
25.344686 10.577171 -27.754124 39.045115 0.395359 2.361462 0.113939 -0.014446 363569.000000 0 0 1
26.250486 9.608671 -28.280584 39.764381 0.350890 2.362006 0.118612 -0.027338 -6229.530000 0 0 1
27.266786 10.054571 -29.340794 41.297145 0.353278 2.360976 0.105181 -0.022857 -296224.000000 0 0 1
28.328786 10.920471 -28.926524 41.934718 0.367936 2.332008 0.098828 -0.021087 1371200.000000 0 0 1
29.257786 11.350371 -29.949434 43.379921 0.370070 2.332836 0.107309 -0.018427 1085170.000000 0 0 1
30.128586 10.285971 -30.700184 44.227075 0.328995 2.338033 0.085113 -0.016235 -761395.000000 0 0 1
29.338886 9.511271 -31.538914 44.112783 0.313496 2.367364 0.079438 -0.016287 -137878.000000 0 0 1
29.839786 8.212971 -31.813684 44.384414 0.268585 2.369964 0.076037 -0.009164 10485.400000 0 0 1
28.729186 7.310571 -32.458044 43.958335 0.249177 2.401464 0.077948 -0.020968 275501.000000 0 0 1
27.733386 7.013471 -31.522394 42.567485 0.247696 2.404651 0.092836 -0.030371 -866915.000000 0 0 1
26.597686 6.521371 -32.146964 42.230232 0.240442 2.436006 0.063846 -0.033073 -1272320.000000 0 0 1
25.415186 6.376071 -31.242364 40.775866 0.245803 2.443699 0.092180 -0.025631 -1317720.000000 0 0 1
24.877086 7.666971 -30.859934 40.373102 0.298957 2.440858 0.108651 -0.023261 663709.000000 0 0 1
23.593386 7.545871 -30.264144 39.108905 0.309549 2.455682 0.105534 -0.026648 938002.000000 0 0 1
22.324186 7.234171 -31.137524 38.990357 0.313373 2.495754 0.113526 -0.028331 131467.000000 0 0 1
21.996086 8.304671 -32.023344 39.727697 0.361006 2.508279 0.102509 -0.027411 322784.000000 0 0 1
20.588686 8.297971 -32.214074 39.121565 0.383120 2.538235 0.085873 -0.018952 140700.000000 0 0 1
20.227286 9.382571 -33.216074 40.006041 0.434318 2.550400 0.084362 -0.010721 -299554.000000 0 0 1
20.739186 9.113571 33.372785 40.335019 0.414035 0.596352 0.069408 -0.014926 36938.600000 0 0 1
20.365286 10.065571 32.393939 39.565488 0.459038 0.611579 0.060683 -0.005776 1001750.000000 0 0 1
19.039186 9.731671 31.570481 38.129926 0.472519 0.595316 0.044023 -0.006660 1036340.000000 0 0 1
19.107986 8.673471 30.621381 37.121600 0.426108 0.600782 0.042687 -0.010264 312012.000000 0 0 1
20.034086 8.743071 29.504421 36.719433 0.411495 0.637629 0.063421 -0.013995 -97037.100000 0 0 1
19.722986 9.736471 28.362881 35.892173 0.458564 0.659621 0.044870 -0.017448 -623610.000000 0 0 1
18.727186 9.415371 27.462601 34.547810 0.465857 0.651927 0.043885 -0.006018 -198137.000000 0 0 1
17.474686 9.935271 27.895461 34.383586 0.516975 0.624421 0.045866 -0.019192 215723.000000 0 0 1
16.235786 9.454971 27.074571 32.954963 0.527343 0.606650 0.055180 -0.020370 -531933.000000 0 0 1
16.309386 9.646671 25.653461 31.892858 0.534131 0.636192 0.055733 -0.020018 223529.000000 0 0 1
15.126086 9.266171 24.948331 30.611756 0.549629 0.618081 0.072682 -0.023212 342151.000000 0 0 1
14.953186 7.730471 24.631111 29.833699 0.477138 0.599507 0.069592 -0.027917 20853.100000 0 0 1
14.920586 6.946971 25.794821 30.598318 0.435748 0.567933 0.050779 -0.023162 -12802.100000 0 0 1
14.570086 5.653471 25.423301 29.842811 0.370136 0.551180 0.055448 -0.030715 -126993.000000 0 0 1
14.748286 4.684571 26.643971 30.811659 0.307556 0.526171 0.053961 -0.018719 154941.000000 0 0 1
16.072686 4.261771 26.919851 31.641307 0.259192 0.553325 0.046126 -0.018965 207311.000000 0 0 1
16.276186 4.193771 28.297091 32.912419 0.252178 0.535978 0.044200 -0.015373 -320156.000000 0 0 1
17.214886 3.113971 28.804401 33.700781 0.178953 0.545804 0.069105 -0.024263 -162256.000000 0 0 1
16.744186 1.750671 28.562401 33.154839 0.104175 0.532609 0.062178 -0.020115 383274.000000 0 0 1
15.769486 1.328971 29.510551 33.486049 0.084076 0.492235 0.053971 -0.018165 163903.000000 0 0 1
15.418186 -0.142229 29.464621 33.255144 -0.009225 0.482114 0.059085 -0.026598 -202215.000000 0 0 1
14.736486 -0.725129 28.349201 31.958833 -0.049167 0.479873 0.059461 -0.020860 274367.000000 0 0 1
15.452586 -0.863429 27.137411 31.240471 -0.055818 0.518301 0.060514 -0.013242 265200.000000 0 0 1
16.685486 -1.881729 27.074041 31.858281 -0.112302 0.555139 0.068111 -0.014050 2796740.000000 0 0 1
17.945186 -1.621029 27.801251 33.129549 -0.090088 0.575045 0.086001 -0.023860 1556640.000000 0 0 1
18.611186 -0.447029 27.351381 33.085860 -0.024015 0.597617 0.081350 -0.022601 -765847.000000 0 0 1
20.075286 -0.462929 27.853501 34.337282 -0.023056 0.624640 0.112268 -0.014800 795186.000000 0 0 1
21.036686 -1.051929 26.930461 34.189157 -0.049963 0.663746 0.079504 -0.015320 518217.000000 0 0 1
22.373886 -0.738729 27.282901 35.291545 -0.033005 0.687127 0.080205 -0.016694 -185625.000000 0 0 1
23.325486 -1.481929 26.386011 35.249056 -0.063447 0.724910 0.074776 -0.013507 -597391.000000 0 0 1
23.356486 -0.980929 25.055521 34.267576 -0.041973 0.750757 0.077956 -0.000803 96462.800000 0 0 1
22.750986 -1.872629 24.165201 33.242609 -0.082125 0.756949 0.080245 0.007111 -116682.000000 0 0 1
22.888886 -1.272829 22.802311 32.333676 -0.055552 0.788065 0.077155 -0.020000 -228473.000000 0 0 1
21.852486 -0.354429 22.591511 31.432994 -0.016218 0.768837 0.060371 -0.006734 -187872.000000 0 0 1
21.935986 0.267471 21.349811 30.611655 0.012193 0.798976 0.052895 -0.009751 58551.800000 0 0 1
-31.179424 -27.259538 -10.043554 42.615864 0.718422 1.808711 0.027879 0.009823 -20295.800000 0 0 1
-31.225804 -26.154338 -9.148754 41.746856 0.697244 1.791738 0.033723 0.010325 -213517.000000 0 0 1
-31.914334 -26.531938 -7.972354 42.261412 0.693566 1.760577 0.046267 -0.000005 -550855.000000 0 0 1
-32.254264 -25.241938 -7.174554 41.580852 0.664036 1.744209 0.077173 -0.006748 -143377.000000 0 0 1
-31.215744 -24.478538 -6.630254 40.219172 0.665015 1.736405 0.074035 -0.007717 275524.000000 0 0 1
-30.200164 -25.040938 -5.752754 39.650885 0.692274 1.716395 0.082761 -0.013783 1429100.000000 0 0 1
-28.950944 -24.150538 -5.468154 38.096015 0.695243 1.714830 0.084890 -0.013733 209153.000000 0 0 1
-29.124054 -23.193438 -4.459054 37.497057 0.672522 1.689996 0.090155 -0.011223 152727.000000 0 0 1
-29.923414 -22.067238 -4.822054 37.491678 0.635425 1.699770 0.085410 -0.012297 101472.000000 0 0 1
-29.719434 -20.883338 -3.859554 36.527452 0.612524 1.676656 0.094568 -0.020033 -116546.000000 0 0 1
-28.543704 -20.134838 -4.065754 35.166534 0.614343 1.686670 0.114803 -0.031974 175840.000000 0 0 1
-28.408594 -19.127738 -3.101454 34.388045 0.592586 1.661109 0.127172 -0.025067 -5743.740000 0 0 1
-27.361744 -18.015338 -3.398354 32.935790 0.582267 1.674161 0.127023 -0.029989 276623.000000 0 0 1
-27.751234 -17.159638 -4.459054 32.931252 0.553794 1.706618 0.136122 -0.043839 437501.000000 0 0 1
-26.822154 -16.090338 -4.454354 31.593800 0.540339 1.712256 0.135948 -0.047812 101031.000000 0 0 1
-27.201424 -15.084538 -5.508954 31.588120 0.506329 1.746092 0.138090 -0.055906 -30356.600000 0 0 1
-28.382074 -14.384638 -5.197154 32.240818 0.469090 1.732701 0.131423 -0.035409 -131565.000000 0 0 1
-28.565084 -13.317638 -6.089154 32.099865 0.436261 1.761647 0.173011 -0.055811 519627.000000 0 0 1
-29.976144 -12.664638 -5.904554 33.073041 0.399743 1.750289 0.147657 -0.037943 811866.000000 0 0 1
-31.044974 -13.382738 -6.496254 34.425128 0.407006 1.760641 0.144248 -0.029986 658324.000000 0 0 1
-32.302644 -12.722838 -6.390054 35.301051 0.375205 1.752816 0.125070 -0.027133 497853.000000 0 0 1
-33.465394 -13.411338 -7.135954 36.752122 0.381155 1.766202 0.093577 -0.018521 -786.081000 0 0 1
-33.964454 -14.625538 -6.547754 37.554808 0.406615 1.746044 0.082060 -0.024343 375434.000000 0 0 1
-34.205988 -15.612038 -7.535954 38.348090 0.428174 1.768598 0.082242 -0.016859 -65726.300000 0 0 1
-34.984851 -16.928438 -6.977354 39.486647 0.450668 1.748431 0.062501 -0.021503 1440020.000000 0 0 1
-36.403854 -16.780138 -6.849054 40.665995 0.431918 1.740025 0.055992 -0.020484 510426.000000 0 0 1
-36.918244 -16.056238 -5.788654 40.672694 0.410237 1.713604 0.064352 -0.022691 1178120.000000 0 0 1
35.825229 -16.266838 -5.598054 39.741606 -0.426226 1.712128 0.078713 -0.033141 1022100.000000 0 0 1
35.136539 -15.563338 -6.611454 38.993655 -0.416966 1.741171 0.089612 -0.030471 -632433.000000 0 0 1
33.757479 -15.517638 -6.517754 37.720625 -0.430875 1.744458 0.091800 -0.044660 -605174.000000 0 0 1
33.058139 -14.740538 -5.347654 36.588542 -0.419437 1.717478 0.116887 -0.044893 -725078.000000 0 0 1
33.124049 -15.357738 -4.076454 36.737994 -0.434141 1.681985 0.121385 -0.044077 417520.000000 0 0 1
32.587819 -14.500738 -3.108954 35.803672 -0.418667 1.657739 0.145809 -0.041921 -1056690.000000 0 0 1
32.587629 -15.137938 -1.660954 35.970397 -0.434871 1.616988 0.160113 -0.035036 -267935.000000 0 0 1
33.847419 -15.239438 -1.022254 37.133990 -0.423053 1.598329 0.179357 -0.030640 400505.000000 0 0 1
34.914209 -15.944838 -1.618354 38.416909 -0.428400 1.612935 0.144251 -0.024185 -698024.000000 0 0 1
34.638499 -17.379038 -2.021554 38.806484 -0.465028 1.622913 0.127185 -0.031623 -1076280.000000 0 0 1
34.705849 -18.400438 -1.039854 39.295717 -0.487501 1.597262 0.134849 -0.034244 297775.000000 0 0 1
34.308149 -19.697738 -1.458054 39.587572 -0.521189 1.607636 0.107126 -0.033225 -83266.100000 0 0 1
35.218049 -20.346938 -2.523854 40.751426 -0.523892 1.632769 0.102265 -0.029949 -43853.700000 0 0 1
35.322589 -19.718638 -3.737554 40.626091 -0.509151 1.662925 0.080009 -0.030023 222776.000000 0 0 1
36.251379 -20.391538 -4.587954 41.845270 -0.512392 1.680658 0.084934 -0.027317 165773.000000 0 0 1
36.263959 -19.833338 -5.994154 41.765606 -0.500472 1.714813 0.088248 -0.030249 -258874.000000 0 0 1
35.086729 -19.979038 -6.740654 40.935033 -0.517630 1.736217 0.081607 -0.034148 -30718.800000 0 0 1
35.044439 -19.123338 -7.877954 40.692467 -0.499527 1.765624 0.081829 -0.041409 -93529.200000 0 0 1
33.993319 -19.512638 -8.930954 40.200133 -0.521093 1.794828 0.073450 -0.047322 -178145.000000 0 0 1
34.458949 -20.573838 -9.700354 41.289210 -0.538250 1.807950 0.073416 -0.047379 525287.000000 0 0 1
33.517499 -20.997938 -10.712154 40.976656 -0.559661 1.835290 0.075355 -0.052303 345774.000000 0 0 1
33.571489 -22.506438 -11.044954 41.899590 -0.590585 1.837554 0.070048 -0.048564 42091.400000 0 0 1
33.040169 -23.276038 -9.946954 41.621732 -0.613724 1.812116 0.058483 -0.041416 198628.000000 0 0 1
32.740709 -24.647838 -10.250554 42.243861 -0.645303 1.815895 0.048817 -0.023841 -102253.000000 0 0 1
31.819049 -25.227638 -9.155954 41.625918 -0.670364 1.792568 0.046478 -0.032025 -234334.000000 0 0 1
30.529009 -24.674038 -9.097954 40.293936 -0.679731 1.798550 0.043834 -0.031653 -862899.000000 0 0 1
29.584199 -25.652738 -8.777754 40.129001 -0.714344 1.791318 0.028132 -0.028905 190945.000000 0 0 1
28.197129 -24.926138 -8.763154 38.641730 -0.723902 1.799566 0.035317 -0.042599 201932.000000 0 0 1
27.762629 -24.559238 -10.045554 38.403553 -0.724250 1.835454 0.053136 -0.032948 -345935.000000 0 0 1
26.540829 -23.885338 -9.942754 37.064583 -0.732786 1.842377 0.079230 -0.045545 -384932.000000 0 0 1
25.636129 -23.728138 -11.173054 36.675234 -0.746766 1.880366 0.132600 -0.056313 -332557.000000 0 0 1
25.236929 -24.956638 -11.667354 37.361257 -0.779814 1.888394 0.119396 -0.047586 -108594.000000 0 0 1
24.482029 -24.692238 -12.792154 37.050176 -0.789673 1.923318 0.116578 -0.029133 -620184.000000 0 0 1
23.770529 -25.946638 -13.336954 37.631641 -0.829140 1.933077 0.112362 -0.035988 -379110.000000 0 0 1
24.537129 -26.967938 -13.903254 39.021031 -0.832559 1.935103 0.103918 -0.029726 -266366.000000 0 0 1
23.827329 -28.152138 -13.873654 39.405111 -0.868409 1.930586 0.115579 -0.032475 -734081.000000 0 0 1
24.493729 -29.296938 -14.562654 40.869600 -0.874456 1.935123 0.105193 -0.033990 -408706.000000 0 0 1
24.535329 -29.234138 -15.968254 41.371516 -0.872565 1.967058 0.097056 -0.029206 347361.000000 0 0 1
24.962629 -30.452338 -16.557154 42.715537 -0.884141 1.968839 0.094970 -0.034238 -272860.000000 0 0 1
24.705829 -30.398338 -18.067454 43.137800 -0.888338 2.002954 0.090028 -0.022289 345817.000000 0 0 1
23.309229 -30.354738 -18.353654 42.445104 -0.915941 2.017959 0.090803 -0.023267 442913.000000 0 0 1
23.147929 -30.430338 -19.787354 43.050801 -0.920491 2.048373 0.076099 -0.021812 -1177840.000000 0 0 1
21.720029 -30.204138 -20.158554 42.313318 -0.947361 2.067365 0.062524 -0.018016 -1312840.000000 0 0 1
21.599629 -30.109538 -21.515554 42.849123 -0.948509 2.096849 0.044912 -0.018124 681275.000000 0 0 1
20.258229 -29.766938 -21.908154 42.147760 -0.973236 2.117406 0.054463 -0.025997 250691.000000 0 0 1
19.901129 -29.910838 -23.376254 42.862133 -0.983707 2.147642 0.051277 -0.017958 -130602.000000 0 0 1
20.664729 -29.009238 -24.228754 43.076669 -0.951830 2.168150 0.056789 -0.017157 851569.000000 0 0 1
20.694829 -29.373738 -25.589694 44.112638 -0.957033 2.189646 0.063080 -0.017593 -681157.000000 0 0 1
21.107329 -28.171638 -26.464144 44.039885 -0.927782 2.215439 0.063414 -0.026847 70175.400000 0 0 1
20.199129 -27.063638 -26.573944 42.972315 -0.929631 2.237497 0.081691 -0.031457 578528.000000 0 0 1
19.140929 -27.311638 -27.506644 43.230963 -0.959511 2.260452 0.101592 -0.033460 433498.000000 0 0 1
18.342929 -26.005438 -27.897734 42.320555 -0.956489 2.290551 0.093896 -0.035638 281865.000000 0 0 1
17.536629 -25.501938 -26.830104 40.960184 -0.968401 2.285017 0.071364 -0.021085 30184.900000 0 0 1
17.181029 -24.154438 -27.069704 40.142166 -0.952527 2.310875 0.054598 -0.016606 -797554.000000 0 0 1
16.045329 -23.750838 -26.169064 38.812045 -0.976656 2.310746 0.059728 -0.022178 -1115390.000000 0 0 1
14.846029 -24.393438 -26.565704 39.002321 -1.024072 2.320103 0.087296 -0.030676 273315.000000 0 0 1
13.708529 -24.000138 -25.757184 37.780457 -1.051834 2.320961 0.081261 -0.028678 906964.000000 0 0 1
13.663529 -24.307138 -24.232154 36.942202 -1.058696 2.286234 0.076846 -0.014287 -962197.000000 0 0 1
14.532229 -23.589538 -23.418554 36.277826 -1.018662 2.272518 0.043011 -0.021628 -520898.000000 0 0 1
14.544729 -24.037138 -22.102654 35.747174 -1.026640 2.237380 0.052638 -0.024165 92114.000000 0 0 1
15.726929 -23.569438 -21.224254 35.402312 -0.982383 2.213693 0.027691 -0.027374 177467.000000 0 0 1
15.670229 -22.230938 -20.969854 34.343929 -0.956800 2.227594 0.032337 -0.032665 -79323.500000 0 0 1
16.973529 -21.799038 -20.679854 34.510217 -0.909218 2.213346 0.033171 -0.030384 -487479.000000 0 0 1
16.999929 -20.395438 -20.061954 33.278424 -0.875950 2.217867 0.045531 -0.020810 432174.000000 0 0 1
16.217629 -20.213338 -18.860354 32.051575 -0.894640 2.199922 0.047331 -0.025467 561247.000000 0 0 1
14.845029 -19.923638 -19.075354 31.324038 -0.930441 2.225556 0.057052 -0.031646 43026.900000 0 0 1
14.063529 -19.969638 -17.729854 30.181402 -0.957227 2.198692 0.071791 -0.032292 -166772.000000 0 0 1
14.302429 -18.809238 -16.964054 29.088246 -0.920676 2.193450 0.084957 -0.033328 160621.000000 0 0 1
13.596829 -18.895638 -15.738054 28.099915 -0.947053 2.165272 0.082771 -0.032519 -81327.000000 0 0 1
13.559129 -17.640938 -14.863454 26.757708 -0.915486 2.159740 0.090811 -0.030161 291585.000000 0 0 1
12.476229 -16.722638 -15.135054 25.775430 -0.929816 2.198378 0.104004 -0.040496 715786.000000 0 0 1
12.712429 -15.435338 -14.586954 24.751459 -0.881834 2.201034 0.102297 -0.039519 -64182.500000 0 1 0
11.388529 -14.728538 -14.265754 23.455067 -0.912594 2.224608 0.097598 -0.035138 -163910.000000 0 1 0
10.531829 -14.357138 -15.304154 23.479011 -0.937900 2.280782 0.115744 -0.021803 368653.000000 0 1 0
9.371529 -13.651338 -14.829554 22.228366 -0.969194 2.301167 0.102747 -0.026914 1036070.000000 0 1 0
8.403429 -13.172138 -15.975154 22.345657 -1.002925 2.367293 0.083645 -0.014817 403647.000000 0 1 0
8.868629 -12.121238 -16.823954 22.552659 -0.939136 2.412810 0.078763 -0.003733 -94644.000000 0 1 0
9.884329 -12.434138 -17.756454 23.824345 -0.899152 2.411792 0.095051 -0.001286 310586.000000 0 1 0
10.390429 -11.194738 -18.544254 24.024415 -0.822643 2.452608 0.097760 -0.002918 555162.000000 0 1 0
9.556129 -11.028538 -19.709754 24.523920 -0.856806 2.504276 0.096757 -0.003158 475233.000000 0 1 0
9.726129 -9.788238 -20.314154 24.557525 -0.788581 2.544915 0.092470 -0.013322 56857.800000 0 1 0
9.395329 -9.789438 -21.841554 25.713008 -0.805938 2.585712 0.090914 -0.017192 435460.000000 0 0 1
10.346029 -10.545938 -22.628154 27.023887 -0.794967 2.563194 0.077931 -0.017154 341337.000000 0 0 1
10.177629 -10.417238 -24.012654 28.083991 -0.797032 2.596405 0.070505 -0.017160 443157.000000 0 0 1
11.167229 -11.407438 -24.719554 29.426060 -0.796038 2.568184 0.099415 -0.013239 425218.000000 0 0 1
10.896129 -12.782338 -24.495454 29.700860 -0.864890 2.540537 0.083899 -0.017177 -435893.000000 0 0 1
12.041429 -13.505538 -24.859454 30.747163 -0.842646 2.512416 0.068122 -0.027186 -106847.000000 0 0 1
11.988129 -15.033738 -24.612754 31.233254 -0.897634 2.478399 0.066683 -0.029621 231666.000000 0 0 1
10.940929 -15.692838 -25.319384 31.733898 -0.961957 2.494543 0.075413 -0.026902 -58450.000000 0 0 1
10.456429 -16.823338 -24.661754 31.631689 -1.014687 2.464908 0.075039 -0.026592 492851.000000 0 0 1
9.384429 -17.604838 -25.505954 32.381345 -1.081052 2.477821 0.082775 -0.021630 596984.000000 0 0 1
9.941329 -18.343738 -26.577104 33.788537 -1.074157 2.476033 0.080131 -0.038077 270747.000000 0 0 1
8.907829 -18.856638 -27.424344 34.453111 -1.129474 2.491438 0.084991 -0.032253 374360.000000 0 0 1
9.389329 -19.807038 -28.552874 35.996456 -1.128132 2.486864 0.089294 -0.040309 -152846.000000 0 0 1
10.049729 -20.973138 -28.117684 36.489365 -1.123950 2.450535 0.088260 -0.037177 -42989.600000 0 0 1
10.088329 -21.946538 -29.165604 37.868950 -1.139924 2.449907 0.095985 -0.033537 108101.000000 0 0 1
10.730229 -23.302238 -28.693514 38.489607 -1.139261 2.412062 0.080008 -0.035842 153149.000000 0 0 1
10.564729 -24.263938 -29.723174 39.797227 -1.160143 2.414132 0.087974 -0.036180 18832.700000 0 0 1
11.244629 -25.465438 -29.401984 40.489590 -1.154980 2.383519 0.100242 -0.034744 117332.000000 0 0 1
10.600829 -26.467638 -28.389124 40.235007 -1.189841 2.354041 0.090496 -0.025553 -442910.000000 0 0 1
11.092629 -26.352238 -27.115304 39.404652 -1.172372 2.329697 0.094713 -0.027646 -949062.000000 0 0 1
10.154829 -26.463238 -26.095364 38.527802 -1.204391 2.314900 0.082380 -0.022625 27358.600000 0 0 1
9.314029 -25.164838 -25.908934 37.300041 -1.216310 2.338672 0.077807 -0.022109 521195.000000 0 0 1
10.159229 -24.027038 -25.640824 36.578140 -1.170769 2.347578 0.081579 -0.011883 320583.000000 0 0 1
9.334529 -22.979338 -25.209994 35.365622 -1.184945 2.364334 0.075055 -0.002937 -152327.000000 0 0 1
10.141229 -21.702438 -25.004454 34.627490 -1.133661 2.377627 0.098636 -0.012820 39406.500000 0 0 1
10.740929 -21.732938 -23.699354 33.902028 -1.111781 2.344870 0.085509 -0.012479 612345.000000 0 0 1
11.778929 -20.724538 -23.672854 33.595441 -1.053969 2.352719 0.075411 -0.019032 98263.000000 0 0 1
12.533829 -20.630638 -22.346554 32.895115 -1.024855 2.317642 0.072776 -0.022204 -39271.800000 0 0 1
11.836929 -20.112238 -21.164954 31.505084 -1.038843 2.307426 0.072815 -0.021237 115334.000000 0 0 1
11.458729 -18.752538 -21.336254 30.629984 -1.022292 2.341417 0.072154 -0.024383 405558.000000 0 0 1
12.647429 -17.744538 -21.185554 30.391673 -0.951564 2.342119 0.082718 -0.025537 790076.000000 0 0 1
13.738929 -17.980338 -22.073054 31.611239 -0.918327 2.343769 0.074062 -0.026994 350960.000000 0 0 1
14.698429 -16.926738 -21.885654 31.329541 -0.855742 2.344183 0.085417 -0.024836 743195.000000 0 0 1
15.966829 -16.963538 -22.800054 32.596683 -0.815656 2.345437 0.056115 -0.025114 353846.000000 0 0 1
17.075929 -17.625638 -22.235054 33.115677 -0.801238 2.306941 0.061611 -0.020155 519960.000000 0 0 1
18.267429 -17.241938 -22.926054 34.008636 -0.756527 2.310575 0.051318 -0.013779 852288.000000 0 0 1
19.595429 -17.711138 -22.236454 34.527165 -0.734933 2.270548 0.035536 -0.007409 335974.000000 0 0 1
19.816529 -19.102438 -22.201754 35.362633 -0.767052 2.249560 0.028424 -0.013168 -1043640.000000 0 0 1
20.933529 -19.406938 -21.493854 35.732725 -0.747574 2.216195 0.018924 -0.011073 -1054540.000000 0 0 1
21.210829 -20.921338 -21.254254 36.597062 -0.778527 2.190463 0.036864 -0.018981 -513056.000000 0 0 1
20.396229 -21.524738 -20.287254 35.929002 -0.812312 2.170804 0.025524 -0.013574 59984.900000 0 0 1
20.649429 -22.927138 -20.097754 36.823529 -0.837620 2.148123 0.051790 -0.018225 -173606.000000 0 0 1
-16.600114 13.071171 28.813541 35.730092 -0.667020 0.632720 0.055232 -0.022004 343268.000000 0 0 1
-17.826814 13.538171 28.249921 36.043521 -0.649507 0.670079 0.065468 -0.028046 368205.000000 0 0 1
-17.691214 13.684571 26.849341 34.944723 -0.658387 0.694557 0.068060 -0.018537 -57438.000000 0 0 1
-18.875514 14.338271 26.130211 35.279725 -0.649631 0.736747 0.082184 -0.021095 -30584.200000 0 0 1
-18.894114 15.756371 26.492561 36.153929 -0.695090 0.748411 0.073787 -0.020863 366744.000000 0 0 1
-20.042014 16.380171 25.909171 36.623455 -0.685196 0.784916 0.096615 -0.015835 -65732.600000 0 0 1
-20.229714 17.922771 26.194211 37.637797 -0.725005 0.801047 0.095284 -0.008128 665242.000000 0 0 1
-19.176414 18.826571 25.803831 37.256038 -0.776193 0.805698 0.049083 -0.015381 820711.000000 0 0 1
-17.916414 18.687271 26.456291 37.015501 -0.806455 0.774551 0.040995 0.000980 -566663.000000 0 0 1
-16.826314 19.513371 25.852621 36.500062 -0.859207 0.783724 0.045563 0.001418 -839977.000000 0 0 1
-17.008914 20.895571 25.941271 37.401572 -0.887579 0.804339 0.061089 -0.000816 334310.000000 0 0 1
-15.903614 21.616871 25.392691 36.945945 -0.936508 0.813040 0.081817 -0.010188 412694.000000 0 0 1
-16.133414 23.167971 25.281821 37.897393 -0.962513 0.840470 0.082643 -0.011263 46393.600000 0 0 1
-15.929214 23.776171 26.551961 39.039119 -0.980513 0.822846 0.082153 -0.010766 114342.000000 0 0 1
-16.273514 25.168071 26.499721 40.006178 -0.996819 0.846791 0.081165 -0.015683 25035.000000 0 0 1
-15.590814 26.000771 27.630781 41.019186 -1.030650 0.831719 0.071722 -0.004662 457297.000000 0 0 1
-14.211714 26.222071 27.350961 40.467826 -1.074135 0.828653 0.076727 -0.006942 203804.000000 0 0 1
-13.678614 27.098871 28.326931 41.519493 -1.103342 0.819952 0.097559 0.001543 1420940.000000 0 0 1
-12.097314 27.033171 28.467641 41.079727 -1.150024 0.805175 0.110409 -0.009836 1501130.000000 0 0 1
-11.412414 27.530771 27.344891 40.446627 -1.177825 0.828376 0.101455 -0.014641 -557728.000000 0 0 1
-10.021014 27.459371 27.498421 40.132293 -1.220875 0.815926 0.087677 -0.004633 -336208.000000 0 0 1
-9.331014 28.123971 26.270421 39.600008 -1.250443 0.845450 0.084233 -0.015443 1388590.000000 0 0 1
-7.891114 27.879171 26.286641 39.121674 -1.294964 0.833998 0.071886 -0.013077 1499970.000000 0 0 1
-7.331714 28.502571 25.136571 38.703976 -1.319025 0.863926 0.076161 -0.021167 -687974.000000 0 0 1
-5.847714 28.174471 25.044291 38.147255 -1.366148 0.854605 0.070485 -0.018837 -436365.000000 0 0 1
-5.038114 28.846171 26.044131 39.189041 -1.397886 0.843869 0.071175 -0.021837 -536221.000000 0 0 1
-3.676914 28.765971 25.865671 38.859152 -1.443664 0.842464 0.047776 -0.019661 -667822.000000 0 0 1
-2.927614 29.656171 24.833101 38.791008 -1.472397 0.876068 0.044632 -0.016733 -392394.000000 0 0 1
-3.162114 29.337971 23.509411 37.728079 -1.463429 0.898061 0.047505 -0.012982 -68184.400000 0 0 1
-2.720214 30.424971 22.668111 38.038424 -1.481626 0.932377 0.042241 -0.007539 -338850.000000 0 0 1
-2.806414 30.083571 21.172511 36.894070 -1.477778 0.959569 0.045484 -0.009635 441975.000000 0 0 1
-4.098214 29.826871 20.645711 36.505931 -1.434251 0.969704 0.043336 -0.008037 -116617.000000 0 0 1
-4.791014 28.697471 21.108611 35.945405 -1.405373 0.943151 0.048016 -0.006670 -1072900.000000 0 0 1
-6.265014 28.825371 20.734111 36.056286 -1.356781 0.958133 0.059877 -0.018178 -719973.000000 0 0 1
-6.510314 28.663171 19.353611 35.192667 -1.347454 0.988512 0.039399 -0.012475 401683.000000 0 0 1
-7.551714 27.731871 19.036011 34.473972 -1.304931 0.985814 0.023657 -0.011407 -288099.000000 0 0 1
-7.000414 26.331571 18.697911 33.044959 -1.310951 0.969354 0.011782 -0.009989 85076.300000 0 0 1
-6.082914 26.356871 17.644811 32.295911 -1.343977 0.992798 0.017955 -0.010163 -110311.000000 0 0 1
-4.730114 26.595571 17.969711 32.443935 -1.394783 0.983792 0.037165 -0.008609 -311438.000000 0 0 1
-3.800514 26.731471 16.731811 31.764272 -1.429569 1.016024 0.035086 -0.012103 129576.000000 0 0 1
-3.557414 25.474471 16.122211 30.356705 -1.432047 1.010907 0.039061 -0.014862 24724.600000 0 0 1
-2.811814 25.680371 14.919111 29.832325 -1.461738 1.047083 0.044693 -0.028962 111935.000000 0 0 1
-2.022614 24.485671 14.352011 28.453809 -1.488379 1.042113 0.046201 -0.020130 325785.000000 0 0 1
-0.960114 24.041871 15.196811 28.458328 -1.530882 1.007469 0.047646 -0.018084 99368.100000 0 0 1
-0.388514 22.870371 14.702011 27.191064 -1.553810 0.999536 0.044416 -0.028316 -593876.000000 0 0 1
0.898286 22.547271 15.487611 27.368822 1.530977 0.969290 0.037340 -0.021510 491549.000000 0 0 1
1.918686 23.539171 15.263211 28.120091 1.489466 0.997045 0.045442 -0.027622 464980.000000 0 0 1
3.113386 23.302671 15.984411 28.429018 1.437977 0.973684 0.051944 -0.030048 -80956.700000 0 0 1
4.253186 24.227471 15.553611 29.102831 1.397015 1.006956 0.067177 -0.035275 -744017.000000 0 0 1
5.486486 23.691471 15.913611 29.062525 1.343227 0.991345 0.067722 -0.026998 -800302.000000 0 0 1
6.511386 24.616571 15.644211 29.885031 1.312206 1.019866 0.072746 -0.032800 -1031460.000000 0 0 1
7.913786 24.103471 15.873711 29.926243 1.253560 1.011691 0.086712 -0.030954 -398707.000000 0 0 1
8.491386 23.248571 14.819711 28.848284 1.220607 1.031291 0.079044 -0.022884 348707.000000 0 0 1
9.156486 23.998571 13.818511 29.167171 1.206302 1.077230 0.074660 -0.030324 -230678.000000 0 0 1
9.798686 23.091271 12.699111 28.115627 1.169480 1.102155 0.071762 -0.028387 -122211.000000 0 0 1
11.011086 22.420671 12.941111 28.131883 1.114283 1.092783 0.074948 -0.024461 -230114.000000 0 0 1
11.332686 21.539671 11.907011 27.095463 1.086463 1.115814 0.078091 -0.027900 -1838540.000000 0 0 1
12.730386 21.124171 12.060511 27.454494 1.028434 1.115987 0.094926 -0.021312 -1843920.000000 0 0 1
12.843186 20.212171 13.131911 27.311652 1.004740 1.069210 0.095658 -0.020961 -884504.000000 0 0 1
14.041486 19.537871 13.121411 27.405531 0.947643 1.071524 0.083415 -0.016357 -1164270.000000 0 0 1
14.451186 18.894271 14.494311 27.855256 0.917862 1.023543 0.106471 -0.021202 499962.000000 0 0 1
15.676586 18.139971 14.427411 27.981495 0.858115 1.029082 0.092402 -0.016403 739623.000000 0 0 1
16.031686 17.670771 15.708411 28.566156 0.833994 0.988557 0.089537 -0.022095 -851210.000000 0 0 1
17.438786 17.134271 15.664111 29.035476 0.776591 1.000975 0.068701 -0.017070 -935451.000000 0 0 1
17.930886 16.680871 16.907111 29.759343 0.749299 0.966567 0.057718 -0.022690 711103.000000 0 0 1
19.139886 15.909171 16.726711 29.986994 0.693481 0.979065 0.053064 -0.022397 774252.000000 0 0 1
19.711286 15.428871 18.121611 30.902712 0.664129 0.944179 0.047547 -0.021063 -421419.000000 0 0 1
20.167386 16.530771 18.837511 32.168955 0.686625 0.945200 0.057150 -0.016129 -36294.100000 0 0 1
19.229586 17.290871 19.591911 32.443708 0.732362 0.922444 0.048355 -0.017685 -45756.100000 0 0 1
19.852786 18.510571 20.341111 33.919539 0.750426 0.927686 0.040063 -0.012919 658330.000000 0 0 1
18.826186 19.307971 20.969211 34.160369 0.798031 0.909873 0.083015 -0.025587 798488.000000 0 0 1
19.489786 20.302071 21.711811 35.544740 0.805809 0.913687 0.072711 -0.020301 195226.000000 0 0 1
18.555686 21.467671 22.126711 35.982853 0.858027 0.908507 0.093873 -0.027089 200565.000000 0 0 1
17.732286 21.047071 23.201821 35.996356 0.870669 0.870348 0.094494 -0.031115 -30204.600000 0 0 1
16.953586 22.123771 23.711131 36.593757 0.916941 0.865899 0.077396 -0.037703 -180564.000000 0 0 1
16.249586 21.629171 24.942341 36.796609 0.926476 0.825971 0.096726 -0.034628 -303541.000000 0 0 1
15.136786 20.775471 24.707661 35.654046 0.941139 0.805177 0.100284 -0.040674 -295741.000000 0 0 1
14.454186 20.613971 25.908521 36.126317 0.959276 0.771071 0.093090 -0.030647 -218473.000000 0 0 1
13.377286 19.499571 25.826031 35.016695 0.969508 0.741384 0.102643 -0.027464 -505.552000 0 0 1
13.782686 18.102971 25.934421 34.500350 0.920071 0.720138 0.086258 -0.035043 226895.000000 0 0 1
14.505786 17.570171 24.803901 33.680294 0.880644 0.742987 0.097481 -0.037133 397959.000000 0 0 1
13.551386 17.142571 23.602341 32.164861 0.901868 0.746908 0.107034 -0.033398 250034.000000 0 0 1
13.053386 18.182271 22.755111 31.918348 0.948146 0.777148 0.110535 -0.030937 -97567.700000 0 0 1
14.034386 18.844671 21.983911 32.177289 0.930670 0.818644 0.111611 -0.036303 -53746.500000 0 0 1
14.560686 17.977571 20.857811 31.148915 0.890026 0.837105 0.119515 -0.030576 -450492.000000 0 0 1
13.553386 17.602771 19.960811 29.866131 0.914644 0.838818 0.114702 -0.027628 -251955.000000 0 0 1
13.979386 16.601271 19.058111 28.883162 0.870926 0.850198 0.083356 -0.021339 -112578.000000 0 0 1
12.848786 16.063371 18.173311 27.447995 0.896128 0.847179 0.095087 -0.014494 -278079.000000 0 0 1
12.456186 16.987071 17.194211 27.191139 0.938086 0.886218 0.117867 -0.020153 409763.000000 0 0 1
11.318086 16.465071 16.490811 25.906456 0.968577 0.880777 0.099794 -0.023105 580008.000000 0 0 1
10.981586 17.343671 15.269111 25.584056 1.006340 0.931263 0.091380 -0.016855 122080.000000 0 0 1
10.170186 18.475271 15.575311 26.217525 1.067588 0.934675 0.090327 -0.024176 24859.300000 0 0 1
9.773386 19.087871 14.414011 25.838529 1.097578 0.979004 0.078128 -0.009234 298309.000000 0 0 1
8.593786 20.116771 14.506111 26.248141 1.167068 0.985252 0.078227 -0.007116 463835.000000 0 0 1
7.316786 19.516571 14.646611 25.474597 1.212112 0.958254 0.056612 -0.012619 107270.000000 0 0 1
6.349886 20.584071 14.768311 26.117581 1.271573 0.969812 0.064576 -0.017626 896266.000000 0 0 1
5.052286 20.074571 15.487711 25.853108 1.324241 0.928463 0.055813 -0.021972 -273340.000000 0 0 1
4.208586 19.372071 14.660911 24.656270 1.356870 0.934013 0.050449 -0.025976 -867331.000000 0 1 0
3.130986 19.004271 15.496711 24.720709 1.407511 0.893265 0.038941 -0.019368 -997255.000000 0 1 0
1.897186 18.494671 14.843511 23.790376 1.468574 0.897036 0.029594 -0.020019 -729219.000000 0 1 0
1.136686 19.494871 14.133311 24.105861 1.512555 0.944310 0.028863 -0.024206 -558470.000000 0 1 0
0.118486 18.844471 13.479311 23.169375 1.564509 0.949890 0.024120 -0.026450 -918440.000000 0 1 0
-0.693914 19.756671 12.515211 23.397395 -1.535688 1.006410 0.022391 -0.035120 27928.400000 0 1 0
-1.744114 20.423671 13.175311 24.367131 -1.485606 0.999527 0.021681 -0.027899 -279670.000000 0 1 0
-2.776714 20.836771 12.312611 24.361477 -1.438317 1.040936 0.019450 -0.022665 -36268.500000 0 1 0
-3.898314 21.571871 13.043511 25.508345 -1.392013 1.034050 0.020036 -0.024706 -83635.200000 0 0 1
-4.665214 20.777471 13.947311 25.455746 -1.349927 0.990939 0.025372 -0.026359 -33657.500000 0 0 1
-5.740214 21.528571 14.467111 26.565518 -1.310226 0.994905 0.020479 -0.014362 -932344.000000 0 0 1
-6.665314 20.755971 15.349911 26.661893 -1.260071 0.957306 0.021527 -0.022134 -1418850.000000 0 0 1
-7.362114 19.670871 14.780311 25.682708 -1.212670 0.957585 0.032419 -0.025998 189586.000000 0 0 1
-8.093814 18.870471 15.718211 25.858590 -1.165615 0.917443 0.033795 -0.015813 703768.000000 0 0 1
-9.244014 19.565171 16.545111 27.239464 -1.129412 0.918019 0.028085 -0.005234 -714996.000000 0 0 1
-10.435114 19.707171 15.825611 27.344363 -1.083822 0.953599 0.023539 -0.022621 -609619.000000 0 0 1
-11.459614 19.803771 16.843911 28.411784 -1.046217 0.936204 0.024804 -0.008505 386425.000000 0 0 1
-12.803814 19.713871 16.059411 28.468914 -0.994785 0.971449 0.035301 -0.022605 -302191.000000 0 0 1
-13.220114 20.923471 15.446011 29.174343 -1.007299 1.012858 0.023584 -0.016077 292197.000000 0 0 1
-14.175014 20.754371 14.395211 28.963719 -0.971578 1.050649 0.023951 -0.020010 -253626.000000 0 0 1
-15.211014 21.849271 14.239211 30.191402 -0.962639 1.079656 0.021989 -0.020373 -919831.000000 0 0 1
-16.187614 21.771471 15.214911 31.105133 -0.931453 1.059687 0.006546 -0.025956 -734253.000000 0 0 1
-17.215914 22.663071 14.916611 32.132659 -0.921150 1.088043 0.036895 -0.029744 -15361.200000 0 0 1
-18.580114 22.496971 15.632311 33.101412 -0.880465 1.078949 0.089890 -0.034477 -173251.000000 0 0 1
-19.356814 21.373671 15.213111 32.603049 -0.834875 1.085335 0.085461 -0.030514 382399.000000 0 0 1
-20.442214 21.021871 16.053211 33.429160 -0.799377 1.069896 0.092449 -0.024045 847551.000000 0 0 1
-21.670614 22.002471 16.105411 34.829707 -0.792997 1.090091 0.097092 -0.031052 -222849.000000 0 0 1
-22.386914 22.089971 14.869811 34.788677 -0.778722 1.129145 0.105861 -0.032669 354405.000000 0 0 1
-23.314414 23.180871 14.892311 36.092875 -0.782526 1.145478 0.138877 -0.050166 313140.000000 0 0 1
-22.812614 24.559271 14.285511 36.436918 -0.822253 1.167925 0.117885 -0.038527 -91462.600000 0 0 1
-21.712714 25.137071 14.938711 36.420865 -0.858361 1.148157 0.087095 -0.048879 -161657.000000 0 0 1
-21.134414 26.106971 14.105011 36.430602 -0.890270 1.173231 0.065014 -0.034078 938915.000000 0 0 1
-19.626514 26.459671 14.467311 35.980791 -0.932595 1.157004 0.049133 -0.031200 757691.000000 0 0 1
-18.711514 25.720371 13.728411 34.642857 -0.941853 1.163330 0.056704 -0.023738 -520998.000000 0 0 1
-17.474814 26.394971 13.752611 34.513735 -0.985996 1.160951 0.013315 -0.022494 -279220.000000 0 0 1
-16.544614 25.936771 12.606111 33.246870 -1.002987 1.181901 0.025831 -0.024136 96603.900000 0 0 1
-15.232414 26.439871 12.755011 33.072398 -1.048124 1.174863 0.024921 -0.019667 -254698.000000 0 0 1
-14.315914 25.810271 11.891711 31.820250 -1.064383 1.187785 0.032023 -0.012982 673955.000000 0 0 1
-12.937814 26.575771 12.060111 31.923423 -1.117742 1.183396 0.027160 -0.003786 -34119.700000 0 0 1
-11.884114 25.837371 11.543111 30.692757 -1.139692 1.185228 0.017206 -0.003797 -10530.000000 0 0 1
-10.537614 26.196871 11.803811 30.604694 -1.188354 1.174845 0.037798 -0.010152 610780.000000 0 0 1
-10.027214 27.481271 11.079611 31.281353 -1.220932 1.208746 0.041445 -0.017501 -636886.000000 0 0 1
-8.798614 27.881771 11.644611 31.470712 -1.265118 1.191772 0.055618 -0.027896 -133019.000000 0 0 1
-8.337514 28.983371 10.934511 32.079798 -1.290694 1.222972 0.058038 -0.028806 -138797.000000 0 0 1
-7.032914 29.552571 11.584111 32.511659 -1.337162 1.206485 0.050090 -0.030012 294772.000000 0 0 1
-5.894714 28.864071 11.083811 31.475913 -1.369343 1.210944 0.062019 -0.031096 -1420740.000000 0 0 1
-4.817014 29.405771 11.711411 32.016560 -1.408427 1.196312 0.078204 -0.037577 -1547340.000000 0 0 1
-3.524014 29.049471 10.984111 31.256058 -1.450075 1.211705 0.084807 -0.041159 -547616.000000 0 0 1
-3.438814 29.703871 9.709111 31.439024 -1.455540 1.256840 0.086872 -0.045721 263351.000000 0 0 1
-2.151614 29.498271 9.149911 30.959624 -1.497985 1.270772 0.081014 -0.038463 383634.000000 0 0 1
-1.925914 30.403171 7.947311 31.483674 -1.507535 1.315609 0.081811 -0.040440 790662.000000 0 0 1
-2.854514 30.132671 6.850511 31.033137 -1.476347 1.348215 0.095550 -0.035779 672663.000000 0 0 1
-2.821514 31.158471 5.886311 31.834885 -1.480489 1.384825 0.097354 -0.027033 173323.000000 0 0 1
10.656486 -33.624738 -26.204444 43.941513 -1.263886 2.209741 0.115612 -0.038090 -225045.000000 0 0 1
11.501986 -33.535938 -25.089044 43.432879 -1.240394 2.186644 0.089107 -0.032718 618882.000000 0 0 1
12.810386 -33.022338 -25.363004 43.564467 -1.200737 2.192222 0.093366 -0.031332 559874.000000 0 0 1
13.678486 -33.078138 -24.097254 43.150224 -1.178689 2.163313 0.087290 -0.018357 -542701.000000 0 0 1
13.374486 -32.018838 -23.198554 41.740338 -1.175119 2.160100 0.089830 -0.014084 326702.000000 0 0 1
13.841486 -32.143038 -21.854954 41.260158 -1.164174 2.129027 0.069616 -0.009989 -292567.000000 0 0 1
15.318086 -31.768638 -21.639754 41.378365 -1.121509 2.121131 0.052896 -0.008576 -135885.000000 0 0 1
16.196986 -32.858838 -21.974654 42.719211 -1.112824 2.111101 0.061340 -0.010622 -243712.000000 0 0 1
17.510886 -32.381338 -21.841854 42.804775 -1.075066 2.106291 0.043611 -0.012273 -698934.000000 0 0 1
18.511286 -33.528338 -22.084354 44.210133 -1.066336 2.093854 0.033022 -0.013066 -376900.000000 0 0 1
19.769086 -33.283038 -21.481154 44.272083 -1.034823 2.077397 0.035085 -0.006264 481062.000000 0 0 1
20.517386 33.544371 -21.514254 44.822439 1.021855 2.071438 0.029606 -0.000741 298079.000000 0 0 1
22.022086 33.540371 -21.137954 45.351316 0.989806 2.055667 0.058990 -0.004465 338837.000000 0 0 1
22.768286 -33.988238 -22.230854 46.559704 -0.980567 2.068569 0.052536 -0.009581 136758.000000 0 0 1
24.160586 34.002071 -21.985054 47.151006 0.953017 2.055865 0.041381 -0.004847 454657.000000 0 0 1
25.047386 -33.416738 -23.097154 47.723458 -0.927586 2.075992 0.063829 -0.018103 118555.000000 0 0 1
25.042286 -31.990538 -23.019254 46.694718 -0.906630 2.086300 0.068658 -0.022471 348785.000000 0 0 1
23.901986 -31.349538 -23.596054 45.944230 -0.919384 2.110149 0.045491 -0.024340 339663.000000 0 0 1
24.039186 -29.828738 -23.363054 44.871688 -0.892464 2.118424 0.050636 -0.031657 -173069.000000 0 0 1
25.133686 -29.183638 -23.976354 45.367967 -0.859821 2.127613 0.066148 -0.031417 -90970.900000 0 0 1
25.154086 -27.795838 -23.664054 44.331976 -0.835248 2.133875 0.071048 -0.023730 57199.500000 0 0 1
25.680386 -26.974338 -24.876354 44.787611 -0.809968 2.159676 0.067246 -0.026187 542660.000000 0 0 1
24.727886 -26.815338 -25.955794 44.768671 -0.825875 2.189250 0.054039 -0.027851 83245.700000 0 0 1
25.274186 -26.162638 -27.099874 45.361562 -0.802669 2.211075 0.045668 -0.023570 248031.000000 0 0 1
24.192886 -25.618338 -28.115414 45.078504 -0.814007 2.244262 0.036788 -0.019271 755304.000000 0 0 1
23.542686 -24.417238 -27.712014 43.799718 -0.803631 2.255829 0.052415 -0.014078 357104.000000 0 0 1
22.258986 -24.673238 -27.118824 42.891278 -0.836794 2.255275 0.043633 -0.012926 457654.000000 0 0 1
21.379286 -23.395938 -27.056134 41.671071 -0.830407 2.277432 0.047348 -0.014470 -190874.000000 0 0 1
21.140086 -22.832338 -28.337424 42.085966 -0.823864 2.309490 0.070947 -0.018996 -62742.200000 0 0 1
20.493186 -21.607938 -28.241304 41.041990 -0.811870 2.329674 0.050044 -0.006849 -490648.000000 0 0 1
19.726386 -21.242538 -29.516684 41.371613 -0.822389 2.365210 0.063640 -0.024137 -162947.000000 0 0 1
18.606686 -22.090638 -29.665374 41.403375 -0.870796 2.369563 0.065841 -0.027652 -1065300.000000 0 0 1
17.588786 -21.456138 -30.298194 41.081770 -0.884125 2.400171 0.052837 -0.035771 -1970210.000000 0 0 1
16.312086 -22.216938 -30.136564 40.839797 -0.937472 2.400782 0.074310 -0.042235 -1342700.000000 0 0 1
16.305886 -23.391238 -31.017494 42.132136 -0.962024 2.398228 0.078286 -0.027278 336165.000000 0 0 1
15.460086 -24.352738 -30.385414 41.896820 -1.005153 2.382185 0.092313 -0.033316 86637.500000 0 0 1
15.459786 -25.696738 -31.139104 43.231599 -1.029183 2.375010 0.114389 -0.032969 -196013.000000 0 0 1
14.550486 -26.546038 -30.519384 42.986528 -1.069396 2.360260 0.109810 -0.030298 -260964.000000 0 0 1
14.636586 -27.917338 -30.915334 44.151617 -1.087912 2.346486 0.170300 -0.033938 269891.000000 0 0 1
13.696486 -28.863438 -30.111744 43.902266 -1.127734 2.326610 0.162760 -0.037859 -127409.000000 0 0 1
14.124986 -29.069238 -28.766564 43.267205 -1.118485 2.298101 0.168035 -0.043516 9608.400000 0 0 1
14.001886 -28.047438 -27.819454 41.912213 -1.107772 2.296625 0.136252 -0.032967 -911613.000000 0 0 1
15.172486 -27.897438 -26.881194 41.606129 -1.072674 2.273243 0.109959 -0.022421 -763268.000000 0 0 1
15.312486 -29.008138 -25.952314 41.826629 -1.085103 2.240143 0.100504 -0.024740 -201376.000000 0 0 1
16.206786 -28.782538 -24.901654 41.366494 -1.057969 2.216770 0.104081 -0.028344 -871174.000000 0 0 1
15.740786 -27.760238 -23.807354 39.814486 -1.054975 2.211746 0.085273 -0.025156 609326.000000 0 0 1
14.627586 -28.043238 -22.960654 39.084282 -1.090012 2.198719 0.079967 -0.025716 -2593.310000 0 0 1
13.389786 -28.117438 -23.599654 39.074549 -1.126362 2.219263 0.090918 -0.018328 -1114710.000000 0 0 1
12.203086 -27.923738 -22.651854 37.970475 -1.158793 2.210010 0.072982 -0.012419 -205261.000000 0 0 1
11.873086 -26.548338 -22.485154 36.760938 -1.150252 2.228952 0.062089 -0.013548 -422951.000000 0 0 1
10.707786 -26.369838 -21.755054 35.823280 -1.185075 2.223439 0.072241 -0.014495 -506503.000000 0 0 1
10.411086 -24.848038 -21.444554 34.433771 -1.174027 2.243083 0.074106 -0.017503 97482.800000 0 0 1
10.971686 -24.387538 -20.221054 33.526421 -1.148035 2.218226 0.069212 -0.019898 353235.000000 0 0 1
10.558986 -23.021238 -20.065154 32.312227 -1.140762 2.240785 0.072261 -0.021090 -22918.100000 0 0 1
11.256386 -22.334538 -18.857654 31.323297 -1.103962 2.216841 0.062893 -0.022077 -164683.000000 0 0 1
10.577486 -22.585238 -17.668054 30.563644 -1.132799 2.187163 0.067805 -0.027086 5046.680000 0 0 1
10.928586 -21.763938 -16.534154 29.436053 -1.105437 2.167232 0.057523 -0.027826 -300348.000000 0 0 1
10.097486 -22.047338 -15.269254 28.656491 -1.141317 2.132747 0.062534 -0.023222 50439.500000 0 0 1
10.418286 -23.343838 -14.852654 29.564790 -1.151026 2.097141 0.066982 -0.017799 344847.000000 0 0 1
9.588386 -23.818738 -13.792854 29.146394 -1.188088 2.063746 0.069453 -0.017095 359509.000000 0 0 1
9.915786 -25.315238 -13.618454 30.407999 -1.197472 2.035164 0.083366 -0.019491 807615.000000 0 0 1
11.216886 -25.632138 -13.114054 30.899894 -1.158293 2.009100 0.052737 -0.010414 272388.000000 0 0 1
11.401486 -27.029638 -13.267754 32.196716 -1.171627 1.995537 0.060962 -0.021216 -775840.000000 0 0 1
12.668986 -27.643838 -12.640454 32.931232 -1.141067 1.964752 0.034611 -0.010109 967359.000000 0 0 1
13.927186 -27.346938 -13.280254 33.439298 -1.099754 1.979200 0.035133 -0.006758 844534.000000 0 0 1
14.059886 -27.764138 -14.636754 34.391312 -1.102038 2.010415 0.042711 -0.010600 -1554730.000000 0 0 1
15.299086 -27.279338 -15.375954 34.851747 -1.059676 2.027711 0.038253 -0.013276 -191666.000000 0 0 1
16.422486 -28.025138 -14.933454 35.750727 -1.040741 2.001720 0.071221 -0.017456 154041.000000 0 0 1
17.625786 -27.639338 -15.572654 36.291995 -1.003112 2.014285 0.081386 -0.026128 552940.000000 0 0 1
18.878786 -28.496438 -15.293554 37.447942 -0.985686 1.991491 0.084740 -0.028209 321849.000000 0 0 1
18.937886 -29.637038 -16.102054 38.681697 -1.002197 2.000136 0.079247 -0.023136 357011.000000 0 0 1
20.255386 -30.181738 -16.099654 39.754457 -0.979721 1.987750 0.093223 -0.026538 584806.000000 0 0 1
20.367386 -31.425538 -17.048754 41.146748 -0.995747 1.998014 0.079917 -0.027308 -39558.900000 0 0 1
20.068786 -32.658238 -16.484354 41.725899 -1.019777 1.976933 0.070572 -0.019755 4557.970000 0 0 1
20.141886 -33.694238 -17.486154 42.973979 -1.032008 1.989855 0.055978 -0.017835 -20449.100000 0 0 1
20.146486 32.968371 -16.890654 42.167387 1.022266 1.982926 0.047348 -0.011353 298575.000000 0 0 1
21.347186 32.647071 -16.201654 42.237746 0.991700 1.964469 0.069545 -0.016378 188567.000000 0 0 1
21.135486 31.621671 -15.252954 40.979159 0.981604 1.952188 0.066924 -0.012232 22180.400000 0 0 1
22.288786 31.341371 -14.239454 41.010164 0.952618 1.925399 0.055114 -0.024549 64052.800000 0 0 1
23.460186 30.857071 -14.886054 41.522690 0.920745 1.937461 0.067227 -0.017764 453828.000000 0 0 1
24.485886 30.358771 -14.032954 41.450421 0.892074 1.916170 0.067656 -0.021638 415912.000000 0 0 1
24.116686 29.074771 -13.310954 40.051696 0.878342 1.909584 0.059209 -0.011990 -1014680.000000 0 0 1
24.081286 27.811571 -13.951154 39.344968 0.857159 1.933267 0.065871 -0.001981 186368.000000 0 0 1
23.539886 26.778071 -13.090854 37.981071 0.849664 1.922681 0.033680 -0.007651 354265.000000 0 0 1
21.994186 26.764071 -12.922654 36.973703 0.882915 1.927844 0.039713 -0.017012 -1006240.000000 0 0 1
21.283786 26.449471 -14.057954 36.745069 0.893198 1.963384 0.048445 -0.028817 -1025940.000000 0 0 1
19.929486 26.664171 -13.824154 36.045383 0.928945 1.964402 0.058790 -0.030633 -854712.000000 0 0 1
19.341586 28.108471 -13.813054 36.810101 0.968098 1.955465 0.064455 -0.023908 -765561.000000 0 0 1
19.266386 28.696571 -15.126054 37.729091 0.979536 1.983309 0.062591 -0.024153 371005.000000 0 0 1
18.532086 28.017171 -16.175554 37.283356 0.986411 2.019563 0.048943 -0.016347 -234043.000000 0 0 1
18.585386 28.805171 -17.517154 38.496820 0.997796 2.043201 0.046833 -0.004935 -145859.000000 0 0 1
17.721586 29.908071 -17.516754 38.927933 1.035884 2.037538 0.044032 -0.006132 -31288.500000 0 0 1
17.939586 30.638471 -18.725554 40.139644 1.041088 2.056138 0.031817 0.000178 559969.000000 0 0 1
16.816686 31.711771 -19.094854 40.657727 1.083205 2.059689 0.022601 0.000652 706196.000000 0 0 1
16.856786 32.840771 -18.283054 41.193902 1.096575 2.030664 0.046906 -0.005150 286929.000000 0 0 1
15.826186 33.760271 -18.595854 41.665691 1.132434 2.033435 0.042963 -0.004979 219268.000000 0 0 1
16.202886 -32.921938 -18.019154 40.878814 -1.113440 2.027280 0.043515 -0.004314 661134.000000 0 0 1
15.087886 -32.039038 -18.179254 39.807406 -1.130681 2.045056 0.035235 0.000444 487281.000000 0 0 1
14.843586 -31.323738 -16.962954 38.590807 -1.128265 2.025904 0.039841 0.003000 -51178.900000 0 0 1
13.708086 -30.288038 -17.141754 37.404767 -1.145790 2.046852 0.038200 0.000202 -104591.000000 0 0 1
12.462786 -30.917438 -17.317954 37.564884 -1.187621 2.049934 0.037984 -0.001936 -183760.000000 0 0 1
11.472586 -29.900338 -17.501654 36.496004 -1.204425 2.070938 0.026849 0.001839 1015530.000000 0 0 1
10.041586 -30.415438 -17.916854 36.700763 -1.251916 2.080808 0.050504 -0.012141 539100.000000 0 0 1
9.344686 -31.065838 -16.832654 36.547882 -1.278603 2.049427 0.053607 -0.013417 385387.000000 0 0 1
8.347986 -32.045538 -17.140154 37.287937 -1.315956 2.048420 0.079329 -0.011531 1060090.000000 0 0 1
6.974886 -31.339438 -17.498654 36.565179 -1.351806 2.069811 0.082300 -0.012349 90271.300000 0 0 1
6.826886 -30.827038 -18.800854 36.747582 -1.352856 2.107867 0.071563 -0.010520 49127.100000 0 0 1
6.722386 -31.799638 -19.846054 38.082454 -1.362465 2.118975 0.062167 -0.016855 -1285530.000000 0 0 1
6.778386 -31.264938 -21.328454 38.449263 -1.357296 2.158819 0.051526 -0.009839 -424013.000000 0 0 1
8.014486 -30.662038 -21.657754 38.385556 -1.315135 2.170280 0.066712 -0.015656 606997.000000 0 0 1
9.175386 -31.486838 -21.798254 39.379850 -1.287244 2.157403 0.062445 -0.022169 132886.000000 0 0 1
9.141486 -32.621438 -22.881354 40.881308 -1.297575 2.164823 0.064799 -0.028329 -815498.000000 0 0 1
8.231786 -33.679838 -22.719654 41.452099 -1.331083 2.150880 0.061715 -0.034856 -322728.000000 0 0 1
8.145386 33.563671 -23.865354 41.981215 1.332715 2.175450 0.075267 -0.039852 290703.000000 0 0 1
7.014186 32.435671 -23.648154 40.749316 1.357827 2.189933 0.075522 -0.044005 88155.200000 0 0 1
5.726286 32.907771 -23.584454 40.889341 1.398511 2.185587 0.069260 -0.048573 -825162.000000 0 0 1
5.245286 33.582171 -22.445754 40.731893 1.415856 2.154431 0.055341 -0.040268 -114285.000000 0 0 1
3.809186 -33.867238 -22.538654 40.859401 -1.458793 2.155095 0.065055 -0.037277 -66210.800000 0 0 1
2.755286 33.288071 -22.555154 40.304122 1.488214 2.164728 0.066824 -0.040916 -529666.000000 0 0 1
1.618986 -33.975438 -22.765654 40.929531 -1.523181 2.160622 0.065766 -0.040647 -304236.000000 0 0 1
0.281586 33.484071 -22.275354 40.217579 1.562387 2.157803 0.066487 -0.048798 20652.300000 0 0 1
0.137386 33.577171 -20.863654 39.531473 1.566705 2.126773 0.065321 -0.043755 319281.000000 0 0 1
-1.175714 33.229571 -20.440854 39.030952 -1.535430 2.121995 0.063782 -0.053392 344175.000000 0 0 1
-1.433314 33.381871 -18.891154 38.383322 -1.527886 2.085378 0.076544 -0.047629 108063.000000 0 0 1
-0.665514 32.497571 -18.101254 37.204710 -1.550320 2.078911 0.098468 -0.055493 82928.100000 0 0 1
-1.215214 32.504771 -16.790854 36.605596 -1.533428 2.047324 0.081900 -0.046178 516478.000000 0 0 1
-0.405114 31.616671 -15.779454 35.337928 -1.557984 2.033680 0.064272 -0.039434 827282.000000 0 0 1
0.829286 32.164671 -15.340654 35.645328 1.545020 2.015698 0.072305 -0.033219 98893.300000 0 0 1
1.684086 31.179671 -14.788054 34.549885 1.516836 2.013098 0.081350 -0.016281 623572.000000 0 0 1
2.735586 31.744771 -13.763254 34.707940 1.484834 1.978546 0.088279 -0.023776 181977.000000 0 0 1
3.780786 32.421071 -14.424454 35.685922 1.454706 1.986907 0.074372 -0.022472 321691.000000 0 0 1
4.765386 32.877571 -13.475454 35.850125 1.426855 1.956146 0.087558 -0.032173 677662.000000 0 0 1
6.165286 33.207871 -14.061754 36.585603 1.387229 1.965302 0.069660 -0.040114 247630.000000 0 0 1
6.846886 32.022971 -14.432554 35.786158 1.360156 1.985917 0.064880 -0.019772 -313347.000000 0 0 1
7.988586 32.343271 -15.189954 36.614743 1.328649 1.998584 0.053772 -0.002154 -99127.000000 0 0 1
9.088486 31.279571 -15.282454 35.980071 1.288026 2.009480 0.036994 -0.006964 176857.000000 0 0 1
9.759086 31.050471 -14.030854 35.443425 1.266275 1.977807 0.034531 -0.009595 -136089.000000 0 0 1
10.662786 29.972671 -14.035354 34.771356 1.229008 1.986296 0.042558 -0.011099 150839.000000 0 0 1
9.988986 28.591971 -13.782954 33.275373 1.234689 1.997870 0.047369 -0.011713 56342.600000 0 0 1
9.250286 28.133771 -14.905254 33.154841 1.253134 2.037075 0.048580 -0.014606 58670.000000 0 0 1
8.576286 26.933571 -14.575454 31.802732 1.262524 2.046887 0.043407 -0.011753 -76093.400000 0 0 1
7.858286 26.249871 -15.770054 31.614917 1.279922 2.093029 0.043705 -0.003042 269662.000000 0 0 1
8.693086 25.485771 -16.619454 31.643333 1.242076 2.123760 0.056603 -0.001899 -314532.000000 0 0 1
7.879186 24.649871 -17.398054 31.183168 1.261416 2.162687 0.054973 -0.001348 387724.000000 0 0 1
8.698086 23.737271 -18.352254 31.239718 1.219559 2.198720 0.064574 -0.001160 391727.000000 0 0 1
7.846586 22.845071 -19.052054 30.764378 1.239951 2.238634 0.080674 -0.009942 -16897.800000 0 0 1
8.674486 22.024271 -19.868254 30.904089 1.195594 2.269075 0.074019 -0.011574 -130236.000000 0 0 1
8.064286 21.009071 -20.807154 30.648841 1.204291 2.317044 0.069472 -0.026931 -220361.000000 0 0 1
7.436286 19.926671 -20.106354 29.268345 1.213620 2.328102 0.076598 -0.029840 278525.000000 0 0 1
6.958686 18.822071 -20.885054 28.963410 1.216673 2.376162 0.069878 -0.035312 75022.600000 0 0 1
25.777486 -12.872229 -9.165254 30.235326 -0.463135 1.878772 0.096649 -0.017717 87598.500000 0 0 1
26.279686 -11.963329 -8.179354 30.010747 -0.427196 1.846836 0.112503 -0.034557 1052470.000000 0 0 1
25.334686 -11.912029 -7.074754 28.875507 -0.439514 1.818325 0.118971 -0.029847 186252.000000 0 0 1
25.830386 -11.229429 -5.785054 28.753709 -0.410089 1.773372 0.110449 -0.034675 -290240.000000 0 0 1
26.002786 -9.775629 -5.655754 28.349521 -0.359599 1.771645 0.127798 -0.044506 514407.000000 0 0 1
27.075186 -9.273129 -6.419354 29.330270 -0.329974 1.791447 0.120216 -0.045575 -830741.000000 0 0 1
27.449186 -7.808429 -6.080054 29.178698 -0.277148 1.780708 0.170709 -0.046261 104462.000000 0 0 1
28.038486 -7.497429 -4.790254 29.416231 -0.261285 1.734369 0.145725 -0.050706 926378.000000 0 0 1
29.379486 -7.949029 -4.602554 30.781890 -0.264237 1.720881 0.127859 -0.046727 57145.000000 0 0 1
29.821086 -7.873929 -3.176654 31.006242 -0.258148 1.673428 0.139861 -0.048168 -289421.000000 0 0 1
30.046386 -6.584029 -2.751454 30.882118 -0.215719 1.660010 0.140413 -0.040467 209611.000000 0 0 1
30.501586 -6.541429 -1.431754 31.227983 -0.211262 1.616661 0.147573 -0.036512 -260870.000000 0 0 1
30.933986 -5.099229 -1.009554 31.367703 -0.163373 1.602986 0.129024 -0.040958 -149227.000000 0 0 1
29.821286 -4.375229 -0.531554 30.145220 -0.145676 1.588430 0.153556 -0.043814 -118590.000000 0 0 1
30.096586 -3.042029 -0.109554 30.250131 -0.100733 1.574418 0.136618 -0.030085 -520666.000000 0 0 1
30.632986 -2.936129 1.285246 30.800203 -0.095557 1.529056 0.133749 -0.025759 -275694.000000 0 0 1
29.807386 -3.252529 2.377646 30.078437 -0.108688 1.491666 0.154420 -0.035174 140957.000000 0 0 1
30.569686 -3.019129 3.559446 30.923947 -0.098443 1.455437 0.124157 -0.023774 219804.000000 0 0 1
30.300286 -4.000629 4.728046 30.926797 -0.131273 1.417316 0.138907 -0.032165 -327828.000000 0 0 1
30.940686 -5.208329 4.465146 31.692117 -0.166769 1.429435 0.126520 -0.038727 -95183.000000 0 0 1
30.784286 -6.081929 5.536546 31.864015 -0.195054 1.396154 0.130228 -0.043075 -70367.200000 0 0 1
31.530586 -7.430929 5.438046 32.847662 -0.231450 1.404477 0.106073 -0.028346 -269690.000000 0 0 1
32.925286 -7.310729 5.425346 34.160731 -0.218495 1.411303 0.100291 -0.033980 -513199.000000 0 0 1
33.539286 -8.571429 5.216746 35.008106 -0.250208 1.421224 0.108094 -0.029799 -489299.000000 0 0 1
35.060286 -8.566029 5.312746 36.480485 -0.239628 1.424644 0.130760 -0.037552 -588311.000000 0 0 1
35.634086 -7.836129 4.282046 36.735935 -0.216460 1.453968 0.138038 -0.029874 -341444.000000 0 0 1
37.019486 -7.694229 4.465746 38.073434 -0.204925 1.453233 0.147237 -0.032054 199767.000000 0 0 1
-36.356157 -7.502729 3.252046 37.264419 0.203511 1.483416 0.139479 -0.022148 194495.000000 0 0 1
-35.995957 -8.662829 2.531346 37.110123 0.236170 1.502532 0.160907 -0.026215 156779.000000 0 0 1
-35.039557 -8.352429 1.541546 36.054265 0.234005 1.528027 0.176925 -0.036184 -127070.000000 0 0 1
-34.551657 -9.566229 0.700146 35.858332 0.270102 1.551270 0.164960 -0.030264 -210874.000000 0 0 1
-33.874457 -10.368229 1.619446 35.462679 0.297024 1.525114 0.160443 -0.025640 188.028000 0 0 1
-33.680857 -11.635429 1.076346 35.650272 0.332626 1.540600 0.162164 -0.033052 -514478.000000 0 0 1
-33.452457 -12.755829 2.111946 35.864166 0.364293 1.511875 0.114102 -0.032712 716658.000000 0 0 1
-32.120957 -12.860329 2.618546 34.698714 0.380827 1.495259 0.111400 -0.019602 735331.000000 0 0 1
-31.241057 -13.592329 1.778146 34.116226 0.410377 1.518652 0.114636 -0.011513 -138106.000000 0 0 1
-29.871757 -13.954729 2.398146 33.057638 0.437028 1.498188 0.107052 -0.010032 259979.000000 0 0 1
-29.175557 -12.759929 2.812346 31.967768 0.412285 1.482708 0.100515 -0.015310 1471.740000 0 0 1
-27.847657 -13.097929 3.126046 30.932506 0.439641 1.469563 0.113074 -0.011931 -324624.000000 0 0 1
-27.260557 -11.893929 3.902746 29.997249 0.411407 1.440323 0.126501 -0.011351 -268172.000000 0 0 1
-25.960257 -12.112229 4.399646 28.982718 0.436546 1.418405 0.122612 -0.002523 160305.000000 0 0 1
-25.529657 -11.001429 5.170546 28.275951 0.406880 1.386901 0.122357 0.000526 138196.000000 0 0 1
-24.177657 -11.151829 5.927446 27.277409 0.432166 1.351746 0.126524 0.014003 199251.000000 0 0 1
-24.188557 -12.202929 6.833446 27.940898 0.467235 1.323722 0.112411 0.007170 -189751.000000 0 0 1
-22.945857 -12.729829 7.219946 27.215594 0.506503 1.302295 0.128791 0.013540 -29711.100000 0 0 1
-22.364257 -12.256329 8.571046 26.904283 0.501331 1.246570 0.132414 0.000106 -504431.000000 0 0 1
-21.953357 -10.925529 8.591446 25.983264 0.461782 1.233801 0.123479 -0.007402 98319.400000 0 0 1
-22.884457 -9.911229 8.914946 26.484092 0.408710 1.227476 0.123502 -0.007260 -1222700.000000 0 0 1
-23.184357 -9.785029 10.443846 27.245828 0.399372 1.177409 0.116813 -0.014798 -8251.660000 0 0 1
-24.067657 -10.701629 11.042846 28.560837 0.418394 1.173808 0.096262 -0.031611 893801.000000 0 0 1
-25.345857 -10.958329 10.427346 29.516555 0.408081 1.209731 0.095627 -0.022443 62606.800000 0 0 1
-26.508457 -10.666329 11.397046 30.762990 0.382552 1.191272 0.085754 -0.030568 -359183.000000 0 0 1
-26.671457 -11.652029 12.429846 31.648657 0.411884 1.167182 0.076153 -0.028195 475722.000000 0 0 1
-27.859457 -11.472029 13.201646 32.894380 0.390622 1.157823 0.071599 -0.024767 209412.000000 0 0 1
-27.902357 -12.174829 14.584146 33.755967 0.411434 1.124036 0.069583 -0.021557 -518282.000000 0 0 1
-28.087757 -13.566229 14.485946 34.391966 0.449951 1.136027 0.067828 -0.017089 374900.000000 0 0 1
-27.899357 -14.242429 15.713146 35.044598 0.472007 1.105849 0.049542 -0.013254 -672269.000000 0 0 1
-27.549857 -15.699729 15.576246 35.328396 0.517967 1.114197 0.048426 -0.008874 9623.810000 0 0 1
-28.700157 -16.532129 15.398846 36.525810 0.522607 1.135600 0.061594 -0.011147 454670.000000 0 0 1
-28.308657 -17.917829 15.353546 36.853223 0.564292 1.141080 0.055761 -0.006939 -60631.500000 0 0 1
-29.264057 -18.861429 16.101846 38.358936 0.572517 1.137607 0.040672 -0.001156 -135331.000000 0 0 1
-29.167657 -18.878129 17.528646 38.915157 0.574424 1.103547 0.035132 0.005376 -278247.000000 0 0 1
-29.597257 -20.058129 18.186246 40.113161 0.595604 1.100250 0.046821 0.008212 -698441.000000 0 0 1
-28.609557 -21.192829 18.264946 40.015635 0.637562 1.096800 0.031591 0.009904 -89557.600000 0 0 1
-27.462857 -20.859029 19.063246 39.404504 0.649576 1.065824 0.037732 0.014461 453258.000000 0 0 1
-26.688757 -22.024229 19.272946 39.608116 0.689934 1.062613 0.035487 0.017240 475661.000000 0 0 1
-25.295257 -21.781129 19.959246 38.892662 0.710889 1.031901 0.033080 0.014535 609701.000000 0 0 1
-24.343757 -21.304929 19.033346 37.533808 0.718926 1.038981 0.043840 0.013163 121588.000000 0 0 1
-23.101057 -21.023229 19.659446 36.907029 0.738343 1.009038 0.057032 0.016086 474779.000000 0 0 1
-21.927157 -20.870129 18.659146 35.560178 0.760705 1.018410 0.061186 0.002848 97329.300000 0 0 1
-21.671657 -22.037529 17.810146 35.672324 0.793769 1.048039 0.057959 0.003442 1229190.000000 0 0 1
-20.460457 -21.851729 17.016946 34.434065 0.818267 1.053894 0.063301 0.004655 1103280.000000 0 0 1
-20.341257 -22.870229 15.852246 34.468940 0.843857 1.092914 0.059234 0.010150 -167909.000000 0 0 1
-20.203457 -24.294329 16.144746 35.483051 0.877075 1.098425 0.057274 -0.000268 591681.000000 0 0 1
-19.208157 -24.755029 17.098946 35.695080 0.910906 1.071249 0.067014 -0.008152 2008890.000000 0 0 1
-17.712257 -24.868129 16.537946 34.722494 0.951898 1.074367 0.072095 -0.012639 1346010.000000 0 0 1
-17.092157 -23.639429 16.319446 33.425870 0.944777 1.060738 0.070881 -0.015737 58697.900000 0 0 1
-15.845657 -23.857429 15.651146 32.637710 0.984516 1.070664 0.074276 -0.016309 685145.000000 0 0 1
-14.956957 -22.571829 15.433946 31.167366 0.985588 1.052736 0.076539 -0.009234 7948.550000 0 0 1
-15.455757 -21.514329 14.591946 30.243539 0.947832 1.067311 0.077928 -0.012522 424545.000000 0 0 1
-16.612557 -20.768529 15.005246 30.536311 0.896122 1.057111 0.071834 -0.005506 477712.000000 0 0 1
-16.315357 -19.614029 15.966746 30.097143 0.876951 1.011598 0.087951 -0.010631 234278.000000 0 0 1
-15.609657 -18.525629 15.255146 28.628304 0.870615 1.008808 0.089515 -0.018593 504269.000000 0 0 1
-15.592757 -17.347129 16.060046 28.319287 0.838608 0.967808 0.079338 -0.022645 -330745.000000 0 0 1
-14.925357 -16.124229 15.340446 26.797133 0.823991 0.961286 0.087135 -0.022591 -199332.000000 0 0 1
-15.658557 -15.408329 14.401546 26.268071 0.777344 0.990523 0.106559 -0.036141 -213658.000000 0 0 1
-15.791557 -16.037529 13.156146 26.070286 0.793126 1.041830 0.110661 -0.035331 -108279.000000 0 0 1
-16.832457 -15.263629 12.297046 25.836550 0.736558 1.074746 0.111312 -0.027454 -958896.000000 0 0 1
-18.116757 -15.471929 12.733046 27.013477 0.706819 1.079965 0.107952 -0.029593 -1128880.000000 0 0 1
-18.966257 -14.376529 12.420546 26.845362 0.648605 1.089792 0.128737 -0.028535 -680630.000000 0 0 1
-20.439257 -14.703029 12.685146 28.193177 0.623596 1.104102 0.101991 -0.027580 -285952.000000 0 0 1
-21.041657 -15.781929 11.950646 28.890112 0.643522 1.144327 0.104222 -0.020023 243660.000000 0 0 1
-21.179557 -15.519329 10.520246 28.286018 0.632370 1.189716 0.119773 -0.015605 -426341.000000 0 0 1
-21.974557 -16.581929 9.754946 29.206172 0.646437 1.230249 0.117550 -0.008193 54128.700000 0 0 1
-21.171257 -17.680329 9.447046 29.155837 0.695786 1.240822 0.115913 0.000464 -180438.000000 0 0 1
-21.977857 -18.737729 8.935046 30.231833 0.705986 1.270764 0.103493 -0.008150 156547.000000 0 0 1
-21.565757 -20.258329 8.981746 30.921733 0.754148 1.276081 0.115104 -0.007413 -461600.000000 0 0 1
-20.458857 -20.580229 8.198246 30.154965 0.788356 1.295460 0.127245 -0.008865 -742820.000000 0 0 1
-20.140957 -21.953729 8.404646 30.955815 0.828436 1.295840 0.100004 -0.013283 1394840.000000 0 0 1
-18.741357 -22.364429 7.763346 30.193968 0.873311 1.310760 0.099162 -0.019074 1556380.000000 0 0 1
-17.565557 -21.744829 8.240046 29.142490 0.891315 1.284136 0.081113 -0.020819 295592.000000 0 0 1
-16.394857 -22.079829 7.517146 28.509958 0.932095 1.303974 0.098043 -0.024003 -18161.500000 0 0 1
-15.083257 -21.686529 8.166746 27.649700 0.963088 1.270959 0.077453 -0.011120 -191307.000000 0 0 1
-13.906357 -22.236129 7.603646 27.306549 1.011913 1.288611 0.091106 -0.006321 564087.000000 0 0 1
-12.719857 -21.798629 8.278546 26.561425 1.042585 1.253840 0.077450 -0.004401 711339.000000 0 0 1
-11.414057 -22.211229 7.578746 26.097065 1.096101 1.276145 0.072514 -0.003692 83713.900000 0 0 1
-11.212757 -23.581529 7.693146 27.221296 1.126949 1.284277 0.071019 -0.006584 212408.000000 0 0 1
-9.983857 -24.067629 7.136546 27.015893 1.177575 1.303462 0.096725 -0.016207 760541.000000 0 0 1
-9.887257 -25.620899 7.115646 28.369363 1.202499 1.317268 0.081641 -0.017785 -12522.900000 0 0 1
-10.712357 -26.233039 6.149346 28.995541 1.183109 1.357094 0.094072 -0.019995 -320147.000000 0 0 1
-10.696257 -27.665139 6.172646 30.296392 1.201866 1.365618 0.100501 -0.018797 249038.000000 0 0 1
-9.605157 -28.387119 5.277646 30.429281 1.244526 1.396475 0.110369 -0.024094 1658650.000000 0 0 1
-8.244957 -27.983579 5.646346 29.714327 1.284268 1.379613 0.110869 -0.027807 1915190.000000 0 0 1
-7.187957 -28.925319 5.360246 30.283214 1.327229 1.392855 0.109157 -0.021508 834184.000000 0 0 1
-7.268957 -30.285159 6.092946 31.735667 1.335235 1.377606 0.127959 -0.035919 -614664.000000 0 0 1
-7.183957 -30.183619 7.449046 31.908438 1.337135 1.335171 0.122401 -0.031189 152717.000000 0 0 1
-7.421957 -31.511819 7.936746 33.332749 1.339483 1.330380 0.147133 -0.037640 -8743.470000 0 0 1
-7.683957 -31.546789 9.459046 33.818880 1.331875 1.287318 0.114865 -0.037891 -731859.000000 0 0 1
-6.579957 -31.132599 10.152646 33.400760 1.362509 1.261945 0.093786 -0.028021 -572079.000000 0 0 1
-6.895957 -31.238659 11.554446 34.013428 1.353530 1.224196 0.072619 -0.020572 -73303.400000 0 0 1
-5.871957 -30.526919 12.435446 33.481532 1.380764 1.190267 0.061751 -0.019065 -3173.240000 0 0 1
-6.116957 -29.165479 12.489546 32.311470 1.364060 1.173924 0.059318 -0.019125 494894.000000 0 0 1
-5.085957 -28.573039 13.274346 31.913849 1.394643 1.141817 0.043166 -0.021551 -197348.000000 0 0 1
-5.731957 -27.855659 14.454546 31.901833 1.367856 1.100563 0.043082 -0.029025 90038.800000 0 0 1
-6.274957 -28.732839 15.461446 33.226607 1.355782 1.086785 0.043414 -0.024723 416948.000000 0 0 1
-5.303957 -29.137839 16.409646 33.858856 1.390738 1.064835 0.035605 -0.015378 229588.000000 0 0 1
-5.719957 -30.545789 16.821746 35.337435 1.385682 1.074659 0.039935 -0.019009 108245.000000 0 0 1
-5.680957 -31.449879 15.731746 35.621005 1.392088 1.113368 0.039853 -0.016698 284789.000000 0 0 1
-6.485957 -32.607779 16.002046 36.897159 1.374451 1.122209 0.041708 -0.024827 180775.000000 0 0 1
-6.011957 -33.905099 15.328746 37.691774 1.395303 1.151972 0.029410 -0.020335 -141201.000000 0 0 1
-6.553957 33.892003 14.020346 37.258453 -1.379776 1.184997 0.044844 -0.022510 -72314.500000 0 0 1
-5.946957 32.792986 13.464146 35.944811 -1.391398 1.186854 0.044224 -0.028441 332222.000000 0 0 1
-4.606957 33.197032 12.777346 35.868197 -1.432901 1.206566 0.072232 -0.037861 170629.000000 0 0 1
-4.989957 33.727773 11.564046 36.002632 -1.423914 1.243800 0.083675 -0.042398 140671.000000 0 0 1
-3.897957 -33.913449 10.785246 35.799967 1.456360 1.264778 0.095934 -0.048368 -802507.000000 0 0 1
-4.451957 -33.519059 9.372646 35.088370 1.438750 1.300398 0.100879 -0.050528 -677808.000000 0 0 1
-4.597957 33.450794 8.454246 34.807630 -1.434198 1.325458 0.102639 -0.060166 180039.000000 0 0 1
-5.414957 32.330452 8.790146 33.938865 -1.404849 1.308810 0.121655 -0.059580 -98360.700000 0 0 1
-6.870957 32.648701 9.174046 34.602180 -1.363372 1.302458 0.124232 -0.051969 -814060.000000 0 0 1
-7.674957 33.155007 8.135346 34.990617 -1.343316 1.336148 0.131699 -0.043257 -812015.000000 0 0 1
-9.012957 33.121583 8.580346 35.382128 -1.305112 1.325849 0.103508 -0.039098 115622.000000 0 0 1
-9.965457 33.501934 7.387646 35.724883 -1.281672 1.362501 0.108187 -0.045086 89423.800000 0 0 1
-10.082957 -33.164629 7.071046 35.377370 1.275649 1.369566 0.116265 -0.045159 -199114.000000 0 0 1
-10.921957 -33.065699 5.949646 35.327438 1.251769 1.401576 0.106314 -0.038415 -106653.000000 0 0 1
-11.284757 -31.645359 5.472146 34.039960 1.228253 1.409339 0.090456 -0.041571 409806.000000 0 0 1
-12.450757 -31.170649 6.127246 34.119992 1.190774 1.390237 0.096507 -0.041806 389101.000000 0 0 1
-13.143657 -30.098609 5.443546 33.291353 1.159069 1.406546 0.088047 -0.039252 3090.670000 0 0 1
-14.166457 -29.393779 6.324746 33.236804 1.121689 1.379335 0.074701 -0.036159 59823.300000 0 0 1
-15.189457 -30.243889 6.842846 34.528785 1.105364 1.371298 0.092958 -0.032922 963460.000000 0 0 1
-16.177157 -29.542949 7.644946 34.538840 1.069812 1.347604 0.084994 -0.032935 675899.000000 0 0 1
33.946749 -12.323629 -12.375554 38.176012 -0.348234 1.900932 0.059962 -0.036944 695284.000000 0 0 1
32.772069 -12.577129 -11.553554 36.955071 -0.366442 1.888765 0.074993 -0.043442 821801.000000 0 0 1
32.508949 -13.935229 -11.358354 37.148816 -0.404965 1.881525 0.074309 -0.045439 288958.000000 0 0 1
33.510819 -14.653029 -10.383154 38.019681 -0.412211 1.847410 0.066458 -0.033798 1288160.000000 0 0 1
34.877449 -14.745029 -10.830554 39.384682 -0.399978 1.849380 0.068905 -0.038728 521323.000000 0 0 1
35.697079 -15.187829 -9.787854 40.009420 -0.402264 1.817943 0.061418 -0.033088 -1509230.000000 0 0 1
37.145469 -15.226629 -10.141254 41.406293 -0.389028 1.818234 0.040568 -0.026118 -1564020.000000 0 0 1
-36.681994 -13.918129 -10.370254 40.581094 0.362646 1.829207 0.043084 -0.015207 -257020.000000 0 0 1
-35.299331 -14.021529 -10.574754 39.426786 0.378106 1.842333 0.073127 -0.018087 -133221.000000 0 0 1
-34.497582 -12.722529 -10.887254 38.346815 0.353319 1.858671 0.102311 -0.029233 167767.000000 0 0 1
-34.393872 -11.802029 -9.814654 37.663693 0.330553 1.834426 0.122917 -0.030225 298210.000000 0 0 1
-33.509624 -10.724529 -10.084054 36.600527 0.309742 1.849923 0.133801 -0.025502 96768.900000 0 0 1
-33.696064 -9.458629 -9.237554 36.197000 0.273662 1.828853 0.137470 -0.034312 40964.200000 0 0 1
-33.257854 -9.583629 -7.853854 35.491039 0.280561 1.793935 0.148916 -0.032056 266184.000000 0 0 1
-33.832644 -8.606129 -7.042454 35.613332 0.249091 1.769856 0.160605 -0.042053 -198961.000000 0 0 1
-33.167584 -8.538429 -5.657854 34.713178 0.251962 1.734515 0.148719 -0.028861 -607865.000000 0 0 1
-31.968344 -7.792929 -5.651854 33.386348 0.239107 1.740902 0.166423 -0.045587 -56691.700000 0 0 1
-31.284894 -7.780129 -4.442854 32.542495 0.243742 1.707749 0.165313 -0.039434 -186870.000000 0 0 1
-30.497014 -9.089329 -4.076154 32.082687 0.289658 1.698192 0.150942 -0.034918 -514942.000000 0 0 1
-31.340324 -10.222429 -3.829654 33.187049 0.315294 1.686450 0.137879 -0.033964 396750.000000 0 0 1
-31.695394 -10.490129 -2.510754 33.480512 0.319619 1.645858 0.119468 -0.035553 -258385.000000 0 0 1
-32.339114 -11.865629 -2.389154 34.529980 0.351662 1.640042 0.125936 -0.028472 -840053.000000 0 0 1
-33.701934 -11.991629 -2.619754 35.867571 0.341845 1.643901 0.120829 -0.029059 -321683.000000 0 0 1
-34.091657 -13.388729 -2.627554 36.720610 0.374221 1.642413 0.120368 -0.030480 -415038.000000 0 0 1
-35.603617 -13.566129 -2.490154 38.181911 0.364049 1.636061 0.100551 -0.024938 -348405.000000 0 0 1
-36.075844 -13.137229 -1.198754 38.412112 0.349230 1.602009 0.123541 -0.018266 706777.000000 0 0 1
36.846729 -12.873529 -1.116354 39.046836 -0.336123 1.599390 0.169647 -0.030620 441892.000000 0 0 1
36.663649 -11.943329 0.093946 38.560019 -0.314914 1.568360 0.137053 -0.036796 -132426.000000 0 0 1
36.978789 -12.523829 1.324646 39.064457 -0.326551 1.536881 0.152675 -0.028609 376850.000000 0 0 1
36.542739 -11.657629 2.409446 38.432766 -0.308808 1.508063 0.141014 -0.026897 14072.900000 0 0 1
36.820019 -12.154329 3.876546 38.967539 -0.318839 1.471150 0.160609 -0.034405 -371146.000000 0 0 1
35.727899 -12.206929 4.763746 38.055028 -0.329229 1.445287 0.154035 -0.040948 -94204.400000 0 0 1
36.086259 -12.456529 6.116546 38.662583 -0.332381 1.411926 0.137877 -0.036948 -1263010.000000 0 0 1
34.884629 -12.499029 7.020046 37.715303 -0.344046 1.383572 0.134026 -0.050467 -492626.000000 0 0 1
34.162589 -11.285929 7.125246 36.677293 -0.319072 1.375285 0.134147 -0.038704 -113955.000000 0 0 1
33.681809 -11.135529 8.395746 36.454805 -0.319297 1.338405 0.088557 -0.022065 -506662.000000 0 0 1
32.846339 -9.865829 8.564646 35.349253 -0.291790 1.326074 0.094856 -0.038186 585501.000000 0 0 1
31.488459 -9.860529 8.084046 33.972119 -0.303475 1.330530 0.131099 -0.034066 856174.000000 0 0 1
30.716169 -8.934429 8.818246 33.182352 -0.283060 1.301813 0.130893 -0.021258 428569.000000 0 0 1
29.188929 -8.990829 8.495246 31.701700 -0.298800 1.299506 0.131768 -0.022556 358128.000000 0 0 1
28.874829 -8.628029 7.188146 30.981737 -0.290363 1.336650 0.144264 -0.026630 432902.000000 0 0 1
27.850529 -9.438429 6.590546 30.135879 -0.326748 1.350320 0.165285 -0.035579 54552.900000 0 0 1
26.927629 -8.752429 5.590046 28.860887 -0.314264 1.375875 0.186226 -0.036382 -468980.000000 0 0 1
26.059329 -7.887829 6.285446 27.943036 -0.293920 1.343917 0.181879 -0.033060 66117.700000 0 0 1
25.207729 -7.135329 5.409246 26.750747 -0.275845 1.367183 0.212002 -0.038570 117889.000000 0 0 1
25.882529 -6.016429 4.561546 26.961276 -0.228395 1.400790 0.209684 -0.036836 50202.800000 0 0 1
26.626129 -6.516929 3.444246 27.627593 -0.240038 1.445804 0.205599 -0.039414 521548.000000 0 0 1
27.361129 -5.501229 2.765346 28.045356 -0.198415 1.472033 0.198382 -0.038525 -49358.200000 0 0 1
27.660729 -5.837129 1.308446 28.300177 -0.207975 1.524545 0.178425 -0.050126 -282732.000000 0 0 1
26.559429 -5.921229 0.421346 27.214734 -0.219355 1.555313 0.208089 -0.059255 -44427.200000 0 0 1
26.921429 -5.715329 -0.918054 27.536723 -0.209191 1.604142 0.178822 -0.057773 -942074.000000 0 0 1
25.796229 -6.045129 -1.857654 26.560118 -0.230188 1.640795 0.184192 -0.057104 -560552.000000 0 0 1
24.696629 -5.181829 -1.852854 25.302330 -0.206819 1.644091 0.185843 -0.052460 -321428.000000 0 0 1
23.945329 -5.258029 -3.029254 24.702267 -0.216154 1.693736 0.163920 -0.050161 -33901.900000 0 1 0
22.799629 -4.207329 -3.135854 23.395689 -0.182482 1.705236 0.138382 -0.043631 9600.180000 0 1 0
23.179229 -2.860629 -3.062554 23.555022 -0.122793 1.701182 0.131396 -0.040892 71674.500000 0 1 0
23.902029 -2.326829 -4.167854 24.374005 -0.097043 1.742637 0.139662 -0.035550 -185448.000000 0 1 0
23.043229 -1.815529 -5.368154 23.729804 -0.078626 1.798992 0.141917 -0.021542 -232782.000000 0 1 0
22.319129 -0.639429 -5.041154 22.890295 -0.028642 1.792848 0.103354 -0.003249 261974.000000 0 1 0
21.903929 0.047771 -6.162254 22.754291 0.002181 1.845038 0.139680 0.006377 -48853.000000 0 1 0
21.467729 1.565671 -5.881854 22.313917 0.072802 1.837544 0.113691 0.019952 92778.400000 0 1 0
22.576329 2.326971 -5.441054 23.339033 0.102709 1.806093 0.130396 0.008701 551393.000000 0 1 0
22.740829 2.364671 -4.024554 23.214952 0.103611 1.745037 0.116130 0.013904 371936.000000 0 1 0
23.922629 3.267971 -3.516854 24.399591 0.135765 1.715436 0.133851 -0.005034 416877.000000 0 1 0
23.657429 4.617971 -3.552454 24.364308 0.192778 1.717124 0.104117 0.006284 928629.000000 0 1 0
24.819029 5.302371 -3.074454 25.564655 0.210477 1.691350 0.114320 -0.009800 281981.000000 0 0 1
24.540129 6.844971 -2.968754 25.649270 0.272016 1.686801 0.103495 -0.008099 5269.680000 0 0 1
23.495529 7.038271 -2.041154 24.611856 0.291051 1.653825 0.117728 -0.019165 784130.000000 0 1 0
22.768129 8.259471 -2.299454 24.328872 0.348001 1.665453 0.126004 -0.017981 152975.000000 0 1 0
21.782529 8.585071 -1.168254 23.442415 0.375433 1.620652 0.110599 -0.014601 -424001.000000 0 1 0
22.518729 9.158171 -0.149454 24.310236 0.386261 1.576944 0.100439 -0.018432 787160.000000 0 1 0
21.649329 9.643171 0.866546 23.715714 0.419044 1.534249 0.103596 -0.017343 309722.000000 0 1 0
22.393929 10.416171 2.015046 24.779933 0.435368 1.489389 0.131914 -0.016546 -303251.000000 0 1 0
22.924029 11.664671 1.670146 25.775279 0.470695 1.505954 0.118120 -0.021254 208768.000000 0 0 1
22.055629 12.686571 1.240046 25.474253 0.521990 1.522099 0.108033 -0.021659 -289238.000000 0 0 1
21.079729 13.320371 2.305546 25.042020 0.563549 1.478599 0.104206 -0.015290 377591.000000 0 0 1
19.812129 12.681471 2.291546 23.634537 0.569374 1.473686 0.131815 -0.020525 658023.000000 0 1 0
18.713129 13.354671 2.877646 23.169145 0.619830 1.446273 0.112166 -0.025513 130450.000000 0 1 0
18.628629 13.426371 4.409746 23.382453 0.624509 1.381068 0.100743 -0.021345 -701938.000000 0 1 0
18.204229 12.304971 5.009446 22.536655 0.594395 1.346644 0.084959 -0.016175 280006.000000 0 1 0
18.480329 12.341571 6.435246 23.135456 0.588802 1.288923 0.095502 -0.027934 -53668.900000 0 1 0
18.654329 10.947071 7.056746 22.751264 0.530685 1.255425 0.075895 -0.026986 352119.000000 0 1 0
19.803429 10.253371 6.567846 23.247451 0.477752 1.284377 0.068093 -0.025903 711591.000000 0 1 0
19.803129 9.003071 7.182846 22.908786 0.426696 1.251876 0.074885 -0.025307 22041.600000 0 1 0
20.704229 7.947071 6.527846 23.117824 0.366497 1.284530 0.075767 -0.024440 -476588.000000 0 1 0
20.317629 7.650571 5.215146 22.327898 0.360127 1.335048 0.066371 -0.026706 686997.000000 0 1 0
21.282429 6.863871 4.538346 22.817780 0.311981 1.370566 0.070172 -0.024186 102339.000000 0 1 0
20.851329 6.625571 3.044046 22.089416 0.307663 1.432551 0.062216 -0.015039 474032.000000 0 1 0
21.838029 5.760571 2.434846 22.715901 0.257911 1.463403 0.065861 -0.013535 1248230.000000 0 1 0
21.579329 5.724171 1.037846 22.349736 0.259290 1.524343 0.070558 0.006842 -92596.500000 0 1 0
22.474329 4.735171 0.286946 22.969537 0.207655 1.558304 0.099017 -0.000860 -267112.000000 0 1 0
22.268929 3.377971 0.578646 22.531105 0.150542 1.545111 0.084896 -0.000313 589087.000000 0 1 0
23.412329 2.545671 0.444646 23.554517 0.108307 1.551918 0.106418 -0.000371 160681.000000 0 1 0
23.043029 1.023071 0.535146 23.071936 0.044369 1.547600 0.123187 -0.010752 -203164.000000 0 1 0
22.261729 0.717071 -0.600754 22.281375 0.032200 1.597762 0.089089 -0.014701 467113.000000 0 1 0
22.596729 -0.504129 -1.170754 22.632652 -0.022306 1.622548 0.125510 -0.021123 -787506.000000 0 1 0
22.232629 -1.822229 -0.360254 22.310089 -0.081779 1.586945 0.134760 -0.015498 183600.000000 0 1 0
23.024629 -2.072429 0.817046 23.132143 -0.089767 1.535468 0.131825 -0.014086 919766.000000 0 1 0
24.356029 -2.463729 0.462346 24.484686 -0.100812 1.551912 0.149035 -0.029811 374854.000000 0 1 0
25.382229 -2.410429 1.631046 25.548542 -0.094681 1.506912 0.153490 -0.023029 57485.200000 0 0 1
25.494829 -1.051929 1.989146 25.593936 -0.041237 1.492998 0.137571 -0.017689 244634.000000 0 0 1
26.240329 -0.846229 3.166146 26.444195 -0.032238 1.450779 0.138906 -0.018877 -263944.000000 0 0 1
25.988029 0.598271 3.701346 26.257104 0.023017 1.429360 0.110284 -0.010208 -178439.000000 0 0 1
26.427629 1.714571 2.994246 26.651920 0.064787 1.458212 0.138975 -0.016162 -1440460.000000 0 0 1
27.701229 1.876471 2.564246 27.882872 0.067636 1.478701 0.131228 -0.022327 -1562260.000000 0 0 1
27.969529 3.213471 1.824246 28.212565 0.114390 1.506090 0.147243 -0.034280 40518.200000 0 0 1
27.384529 3.252871 0.526346 27.582071 0.118231 1.551712 0.158159 -0.022385 407137.000000 0 0 1
27.737529 4.454671 -0.148054 28.093353 0.159241 1.576066 0.155547 -0.023518 104131.000000 0 0 1
28.993529 4.540771 -1.083954 29.366959 0.155351 1.607715 0.166944 -0.032637 -581226.000000 0 0 1
30.097039 4.556771 -0.240854 30.440991 0.150261 1.578709 0.168058 -0.033480 161924.000000 0 0 1
31.257509 4.109871 -0.993554 31.542195 0.130734 1.602301 0.145501 -0.030855 496406.000000 0 0 1
32.640609 4.309871 -0.368154 32.925975 0.131281 1.581978 0.107898 -0.030593 -342537.000000 0 0 1
32.927249 3.536671 0.719846 33.124461 0.106998 1.549063 0.134390 -0.038871 57830.000000 0 0 1
32.361479 3.940871 1.945146 32.658527 0.121180 1.511201 0.119603 -0.018229 -331796.000000 0 0 1
32.542089 2.868571 3.095446 32.814601 0.087922 1.476325 0.133147 -0.017661 -617051.000000 0 0 1
31.698989 1.748271 3.133146 31.901394 0.055096 1.472424 0.134661 -0.022353 105804.000000 0 0 1
32.004109 0.874671 4.218246 32.292749 0.027323 1.439797 0.124812 -0.023135 613846.000000 0 0 1
33.309089 0.006671 4.133346 33.564564 0.000200 1.447337 0.140340 -0.020186 -6464.530000 0 0 1
34.515139 0.616171 4.405746 34.800647 0.017850 1.443856 0.145924 -0.029681 -844860.000000 0 0 1
35.598599 -0.273729 4.411346 35.871927 -0.007689 1.447509 0.133398 -0.030929 -317097.000000 0 0 1
36.886119 0.492271 4.881846 37.211027 0.013345 1.439224 0.162375 -0.044113 433845.000000 0 0 1
-36.852134 1.421771 3.913146 37.086574 -0.038561 1.465086 0.151923 -0.045126 38998.500000 0 0 1
-36.156184 0.791671 2.916646 36.282272 -0.021892 1.490322 0.185898 -0.044108 -843827.000000 0 0 1
-35.441299 1.713171 1.934046 35.535351 -0.048301 1.516343 0.195747 -0.045894 277973.000000 0 0 1
-34.400921 2.575171 2.408146 34.581123 -0.074718 1.501102 0.208343 -0.074470 592938.000000 0 0 1
-33.554684 2.955171 1.342146 33.711292 -0.087844 1.530973 0.226081 -0.049735 193277.000000 0 0 1
-32.482634 4.021571 1.707646 32.775152 -0.123180 1.518671 0.248667 -0.049260 238119.000000 0 0 1
-31.502014 3.580771 2.638046 31.814432 -0.113182 1.487781 0.228676 -0.059289 154798.000000 0 0 1
-30.876614 4.648271 3.330746 31.401682 -0.149421 1.464527 0.240423 -0.050269 -320360.000000 0 0 1
-31.487624 4.994671 4.719846 32.228779 -0.157313 1.423820 0.237501 -0.034998 481229.000000 0 0 1
-32.902884 5.118171 4.842746 33.648888 -0.154317 1.426375 0.233360 -0.015177 396279.000000 0 0 1
-33.701434 3.971271 4.915646 34.288792 -0.117296 1.426941 0.224267 -0.024451 -383850.000000 0 0 1
-33.531674 3.040471 6.177046 34.231178 -0.090427 1.389351 0.186681 -0.014710 -627180.000000 0 0 1
-33.999624 3.670971 7.347346 34.977621 -0.107554 1.359162 0.173846 -0.015592 344406.000000 0 0 1
-34.162859 2.955971 8.555146 35.341608 -0.086311 1.326298 0.159067 -0.014971 238339.000000 0 0 1
-35.402497 2.003571 8.607746 36.488963 -0.056534 1.332652 0.155977 -0.014636 -69415.500000 0 0 1
-35.221735 0.819571 7.931946 36.113129 -0.023265 1.349349 0.161968 -0.020733 483969.000000 0 0 1
-36.163244 -0.200129 8.292846 37.102447 0.005534 1.345380 0.152452 -0.012866 222935.000000 0 0 1
-35.867825 -1.006229 9.645346 37.155701 0.028046 1.308196 0.158649 -0.013895 -55408.000000 0 0 1
-34.927670 -2.051129 9.505446 36.256072 0.058658 1.305521 0.140579 -0.027450 231895.000000 0 0 1
-34.575710 -2.652829 10.768546 36.310864 0.076575 1.269702 0.131129 -0.018489 -722662.000000 0 0 1
-33.297994 -3.455929 10.756346 35.162464 0.103418 1.259908 0.125311 -0.014251 -778625.000000 0 0 1
-33.324244 -4.533029 9.814346 35.033912 0.135198 1.286858 0.124042 -0.016525 476209.000000 0 0 1
-32.085284 -5.240929 9.836046 33.965874 0.161914 1.277002 0.112019 -0.023649 491795.000000 0 0 1
-32.120754 -6.543029 9.002346 33.994063 0.200952 1.302778 0.112023 -0.008003 -292147.000000 0 0 1
-33.004684 -7.519729 9.411746 35.134548 0.224014 1.299607 0.112274 -0.017921 -521456.000000 0 0 1
-33.262274 -8.390829 8.324846 35.299971 0.247107 1.332722 0.109147 -0.015895 -200639.000000 0 0 1
-34.308271 -9.449129 8.666246 36.625774 0.268755 1.331915 0.106737 -0.018512 374122.000000 0 0 1
-35.584270 -8.877329 8.927646 37.745862 0.244483 1.332014 0.122562 -0.030949 -21280.700000 0 0 1
-36.581464 -9.804929 9.216446 38.977981 0.261875 1.332083 0.124441 -0.038095 -225715.000000 0 0 1
7.873186 -23.758429 10.482446 27.135432 -1.250800 1.174178 0.139166 -0.031227 312749.000000 0 0 1
7.160486 -24.353629 9.400246 27.069105 -1.284834 1.216140 0.127533 -0.027883 200607.000000 0 0 1
5.919786 -24.919129 9.820346 27.430750 -1.337560 1.204666 0.132586 -0.026570 756698.000000 0 0 1
5.382986 -26.046739 8.895746 28.045382 -1.366999 1.248030 0.121470 -0.016396 -123069.000000 0 0 1
4.830386 -25.608639 7.692546 27.171866 -1.384363 1.283764 0.120570 -0.008252 -368204.000000 0 0 1
4.531386 -26.713559 6.872346 27.953119 -1.402767 1.322397 0.107263 -0.000781 -382984.000000 0 0 1
3.847686 -26.183499 5.562746 27.043011 -1.424890 1.363617 0.083807 -0.001304 352075.000000 0 0 1
2.465586 -25.891579 5.597846 26.604302 -1.475855 1.358801 0.058746 -0.003689 -407588.000000 0 0 1
1.686886 -27.015139 5.356946 27.592756 -1.508435 1.375412 0.049352 -0.005322 -491611.000000 0 0 1
0.164286 -26.738369 5.291046 27.257339 -1.564652 1.375442 0.064425 -0.012325 -293230.000000 0 0 1
-0.283014 -26.397319 6.601246 27.211670 1.560075 1.325763 0.060701 -0.015911 334137.000000 0 0 1
-1.712614 -26.397879 6.682546 27.284382 1.506010 1.323357 0.056583 -0.018410 1307110.000000 0 0 1
-2.399014 -27.847699 6.746146 28.753436 1.484861 1.333968 0.079396 -0.024705 -632918.000000 0 0 1
-1.926314 -28.674339 7.738046 29.762489 1.503718 1.307781 0.071405 -0.023524 -141936.000000 0 0 1
-2.725414 -29.815639 7.947146 30.976723 1.479641 1.311343 0.095145 -0.025749 -46594.200000 0 0 1
-2.464014 -30.334589 9.413546 31.857079 1.489746 1.270825 0.087948 -0.026636 -437214.000000 0 0 1
-1.182314 -30.817109 9.620046 32.305377 1.532450 1.268425 0.086919 -0.029245 -797131.000000 0 0 1
-1.034714 -31.265839 10.973446 33.151770 1.537714 1.233426 0.082346 -0.024430 846752.000000 0 0 1
0.458986 -31.228499 11.469746 33.271383 -1.556100 1.218842 0.091147 -0.025554 625067.000000 0 0 1
1.253586 -32.246569 10.891046 34.059178 -1.531941 1.245311 0.097094 -0.025861 -184429.000000 0 0 1
2.621086 -32.255419 11.217046 34.250610 -1.489714 1.237141 0.099785 -0.014632 234577.000000 0 0 1
3.140586 -32.647829 12.609246 35.138826 -1.474896 1.203771 0.105850 -0.015663 -285053.000000 0 0 1
2.667086 -31.733349 13.640346 34.643583 -1.486947 1.166106 0.104420 -0.023135 55439.200000 0 0 1
2.991586 -32.162849 14.912746 35.577921 -1.478049 1.138279 0.096985 -0.022025 -762752.000000 0 0 1
2.793886 -31.104709 16.029046 35.103263 -1.481215 1.096598 0.107972 -0.013322 608014.000000 0 0 1
3.743386 -30.020419 16.033146 34.238871 -1.446742 1.083461 0.110605 -0.020169 728673.000000 0 0 1
5.127486 -30.304869 16.184546 34.736375 -1.403187 1.086117 0.101462 -0.015185 210059.000000 0 0 1
5.994086 -29.190129 15.534046 33.605048 -1.368265 1.090262 0.109951 -0.019618 125177.000000 0 0 1
6.228386 -29.176949 14.108346 33.002009 -1.360484 1.129071 0.108605 -0.020206 -216354.000000 0 0 1
5.013686 -28.964729 13.432546 32.319125 -1.399398 1.142170 0.110228 -0.009655 -365930.000000 0 0 1
5.213686 -28.962789 11.910046 31.747045 -1.392691 1.186233 0.107687 -0.012737 161483.000000 0 0 1
5.480086 -30.214319 11.289246 32.716716 -1.391373 1.218493 0.102849 -0.015339 712095.000000 0 0 1
6.823086 -30.706869 11.458546 33.477822 -1.352148 1.221462 0.104639 -0.007378 525671.000000 0 0 1
7.119586 -32.053049 10.728946 34.542680 -1.352226 1.254972 0.100202 -0.007902 23137.400000 0 0 1
6.553586 -33.186719 11.383846 35.691732 -1.375829 1.246176 0.080376 -0.014960 156555.000000 0 0 1
6.804286 33.644288 10.743146 35.967369 1.371246 1.267475 0.079136 -0.010638 12540.400000 0 0 1
6.679586 32.403946 11.635346 35.071553 1.367509 1.232627 0.069640 -0.005725 604877.000000 0 0 1
5.354286 32.221585 12.131146 34.843416 1.406130 1.215187 0.081550 -0.012419 320632.000000 0 0 1
5.268986 31.033380 12.916846 34.024664 1.402616 1.181398 0.075237 -0.004570 777233.000000 0 0 1
4.024486 31.000070 13.877346 34.202069 1.441697 1.153002 0.077230 -0.015678 653830.000000 0 0 1
4.315186 31.692000 15.048646 35.347778 1.435468 1.131027 0.089900 -0.025140 1011860.000000 0 0 1
3.263486 31.559110 16.049446 35.555766 1.467754 1.102476 0.098487 -0.019963 825700.000000 0 0 1
3.780986 31.929890 17.473446 36.594194 1.452930 1.072998 0.103625 -0.019915 14386.400000 0 0 1
4.042986 33.326356 17.654046 37.929633 1.450071 1.086662 0.115119 -0.016844 283236.000000 0 0 1
4.615086 33.591478 18.932546 38.834620 1.434263 1.061552 0.098156 -0.017942 98237.300000 0 0 1
4.995986 -32.987069 19.094846 38.441120 -1.420486 1.050970 0.093447 -0.020717 359521.000000 0 0 1
3.899786 -32.123779 19.401346 37.730064 -1.449989 1.030705 0.097541 -0.018923 86817.100000 0 0 1
3.905486 -31.825039 20.817746 38.229105 -1.448689 0.994941 0.091897 -0.019814 -154105.000000 0 0 1
2.601186 -31.214489 21.332746 37.897184 -1.487656 0.972893 0.100779 -0.016837 -175905.000000 0 0 1
1.541286 -32.081079 21.635846 38.725715 -1.522790 0.977985 0.107043 -0.014805 -830080.000000 0 0 1
0.514986 -31.463349 22.305046 38.571008 -1.554430 0.954171 0.106969 -0.012544 -466240.000000 0 0 1
-0.661114 -32.421629 22.614346 39.534893 1.550408 0.961842 0.096558 -0.011881 -474461.000000 0 0 1
-1.335414 -32.926079 21.481746 39.336693 1.530261 0.993095 0.092385 -0.011592 529693.000000 0 0 1
-2.151314 33.937314 21.635046 40.304400 -1.507490 1.004167 0.081050 -0.005357 514162.000000 0 0 1
-3.467714 -33.969039 22.436946 40.857523 1.469064 0.989448 0.091029 -0.015561 -316227.000000 0 0 1
-4.509414 -33.226149 21.883646 40.040052 1.435902 0.992565 0.070687 -0.019409 -894040.000000 0 0 1
-5.520814 -33.064319 22.828646 40.557067 1.405351 0.972934 0.065961 -0.022692 -394296.000000 0 0 1
-6.710414 -32.278719 22.233546 39.765260 1.365826 0.977473 0.054446 -0.013910 -58286.700000 0 0 1
-7.493014 -33.132699 21.426346 40.162287 1.348386 1.008070 0.039900 -0.003353 -796631.000000 0 0 1
-8.696814 -32.544049 21.072646 39.734193 1.309666 1.011794 0.061714 -0.014932 -738943.000000 0 0 1
-9.766014 -33.505589 20.576846 40.514271 1.287180 1.038061 0.072386 -0.024220 -354731.000000 0 0 1
-10.438014 33.946672 21.628246 41.582565 -1.272489 1.023796 0.102135 -0.028743 -71035.700000 0 0 1
-11.758914 33.516630 21.295546 41.414210 -1.233375 1.030712 0.105784 -0.031935 686008.000000 0 0 1
-12.508814 33.027617 22.571146 41.913608 -1.208753 1.002121 0.113741 -0.033513 -292395.000000 0 0 1
-12.740214 -33.990169 23.537146 43.262477 1.212183 0.995534 0.124537 -0.032790 781750.000000 0 0 1
-11.588114 -33.562369 24.307046 43.029635 1.238341 0.970495 0.102086 -0.028934 575476.000000 0 0 1
-11.820514 -32.223879 25.019446 42.474411 1.219212 0.940917 0.093649 -0.026529 -556523.000000 0 0 1
-12.670114 -32.201549 26.125546 43.359148 1.195938 0.924119 0.108689 -0.030767 -98743.100000 0 0 1
-13.228914 -30.912089 26.171546 42.608816 1.166427 0.909388 0.106759 -0.022420 -202000.000000 0 0 1
-14.106014 -30.685989 27.409946 43.496146 1.139914 0.889025 0.108349 -0.019743 -119936.000000 0 0 1
-13.392714 -30.483629 28.632046 43.913671 1.156842 0.860567 0.076712 -0.014716 506806.000000 0 0 1
-14.253614 -30.079159 29.690046 44.602916 1.128270 0.842428 0.098810 -0.019172 488495.000000 0 0 1
-13.402814 -29.777399 31.000046 45.025901 1.147859 0.811386 0.074975 -0.013791 334157.000000 0 0 1
-14.225114 -29.433649 32.111546 45.824065 1.120602 0.794338 0.091818 -0.014590 440612.000000 0 0 1
-13.563014 -28.819309 33.209246 46.014801 1.130926 0.764530 0.080278 -0.010785 -415288.000000 0 0 1
-12.670914 -29.546299 -33.680419 46.560783 1.165670 2.379459 0.089508 -0.013470 -881982.000000 0 0 1
-11.431714 -29.855399 33.663446 46.424741 1.205115 0.759590 0.078650 -0.019390 -804091.000000 0 0 1
-10.908114 -30.971369 -33.458419 46.879404 1.232163 2.365581 0.097948 -0.024286 108843.000000 0 0 1
-9.409514 -31.320979 -33.644719 46.920250 1.278952 2.370374 0.109375 -0.032459 -237412.000000 0 0 1
-8.628714 -30.426519 -32.934619 45.660891 1.294460 2.376455 0.108326 -0.034849 -402462.000000 0 0 1
-7.329314 -30.944199 -32.745519 45.645715 1.338226 2.370837 0.103718 -0.040129 -240064.000000 0 0 1
-6.392814 -30.207989 -31.818319 44.337299 1.362247 2.371207 0.084011 -0.032956 -341644.000000 0 0 1
-6.608814 -30.357739 -30.476119 43.520829 1.356443 2.346565 0.105244 -0.046219 -539745.000000 0 0 1
-5.715814 -29.644969 -29.699719 42.350538 1.380325 2.347992 0.081541 -0.036042 -417539.000000 0 0 1
-6.139814 -29.709309 -28.218119 41.431903 1.367002 2.320022 0.073125 -0.030625 -179559.000000 0 0 1
-5.950214 -31.025309 -27.707119 42.019749 1.381311 2.290794 0.070827 -0.024850 -54414.200000 0 0 1
-6.510714 -31.044969 -26.426919 41.286336 1.364073 2.265410 0.088844 -0.035011 -90718.400000 0 0 1
-6.330914 -32.415029 -25.752019 41.880557 1.377916 2.233045 0.091486 -0.037718 60602.000000 0 0 1
-5.275214 -32.481499 -24.834919 41.226798 1.409795 2.217298 0.061432 -0.031874 -256808.000000 0 0 1
-5.328014 -33.667259 -24.103019 41.747187 1.413843 2.186284 0.085597 -0.038982 143930.000000 0 0 1
-4.463814 -33.623529 -22.785319 40.861206 1.438809 2.162321 0.080473 -0.043210 35716.500000 0 0 1
-4.909814 -32.927589 -21.653919 39.714287 1.422777 2.147475 0.101697 -0.038457 -8623.370000 0 0 1
-5.078614 -31.527519 -21.880719 38.711015 1.411083 2.171511 0.079552 -0.024743 -84347.300000 0 0 1
-5.586214 -30.631199 -20.746219 37.414994 1.390409 2.158546 0.116394 -0.033811 -368893.000000 0 0 1
-6.966014 -30.666429 -20.494819 37.536554 1.347432 2.148374 0.121838 -0.043078 -18476.500000 0 0 1
-7.596514 -29.475589 -19.981819 36.411406 1.318563 2.151699 0.134025 -0.046205 284847.000000 0 0 1
-7.925014 -28.349409 -21.085719 36.209148 1.298207 2.192390 0.140106 -0.052316 -578238.000000 0 0 1
-6.761114 -27.976699 -21.766119 36.085625 1.333673 2.218278 0.133597 -0.036539 -542916.000000 0 0 1
-6.971314 -27.165669 -22.919519 36.219845 1.319595 2.255946 0.151225 -0.051443 -206846.000000 0 0 1
-5.663614 -27.039979 -23.789019 36.457570 1.364328 2.281692 0.129223 -0.046319 826652.000000 0 0 1
-4.574514 -26.262469 -23.365719 35.448559 1.398342 2.290477 0.116926 -0.038506 -80558.300000 0 0 1
-3.975614 -26.717299 -22.173319 34.946755 1.423077 2.258143 0.086806 -0.032225 -2039770.000000 0 0 1
-2.478914 -27.086429 -22.291619 35.167257 1.479532 2.257348 0.071745 -0.022487 485145.000000 0 0 1
-1.591514 -25.950529 -22.489519 34.376465 1.509544 2.283937 0.069969 -0.026820 532899.000000 0 0 1
-1.690014 -24.877429 -21.577619 32.974783 1.502967 2.284142 0.077287 -0.034834 -1691330.000000 0 0 1
-1.531314 -23.518829 -22.276519 32.430288 1.505778 2.328018 0.080473 -0.032800 574433.000000 0 0 1
-2.555614 -23.131729 -23.223819 32.877862 1.460762 2.355148 0.096700 -0.040898 991730.000000 0 0 1
-3.803414 -22.794029 -22.567819 32.300777 1.405459 2.344343 0.102222 -0.043659 240347.000000 0 0 1
-4.945514 -22.765929 -23.602819 33.163816 1.356887 2.362717 0.107956 -0.038103 -190561.000000 0 0 1
-4.678514 -21.748329 -24.555619 33.133922 1.358905 2.405507 0.114632 -0.032674 195864.000000 0 0 1
-5.232014 -22.067229 -25.822719 34.367854 1.338001 2.420921 0.153457 -0.045438 88138.200000 0 0 1
-4.702514 -21.166729 -26.904019 34.553876 1.352182 2.463245 0.128283 -0.028357 -116371.000000 0 0 1
-5.417714 -21.355429 -28.088619 35.698411 1.322345 2.476454 0.134869 -0.028869 241842.000000 0 0 1
-4.561114 -21.615529 -29.198319 36.613887 1.362836 2.493880 0.134113 -0.031883 542022.000000 0 0 1
-5.435014 -22.046529 -30.422019 37.961666 1.329091 2.500408 0.144525 -0.035239 400903.000000 0 0 1
-6.003114 -20.965429 -31.086419 37.973044 1.291924 2.529843 0.135669 -0.037848 185013.000000 0 0 1
-7.001714 -21.225329 -32.076519 39.095290 1.252161 2.533029 0.116853 -0.034659 235358.000000 0 0 1
-6.907614 -20.310229 -33.301119 39.612941 1.242964 2.569302 0.110095 -0.030796 -25042.800000 0 0 1
-5.702914 -20.368929 33.858246 39.922391 1.297805 0.558404 0.115513 -0.031741 -425092.000000 0 0 1
-5.887414 -19.826629 32.579746 38.590112 1.282145 0.565630 0.113974 -0.025947 -216183.000000 0 0 1
-4.808714 -20.154429 31.573146 37.764908 1.336582 0.580762 0.091966 -0.030594 -1471480.000000 0 0 1
-4.867914 -21.531429 31.211646 38.229123 1.348450 0.615584 0.085103 -0.032372 -23499.000000 0 0 1
-3.845214 -22.082029 30.417946 37.784297 1.398392 0.635050 0.083233 -0.025694 -1279450.000000 0 0 1
-2.431214 -22.031929 30.883046 38.014198 1.460891 0.622526 0.078177 -0.031801 -1935650.000000 0 0 1
-1.794114 -20.804729 30.679446 37.111777 1.484773 0.597621 0.089901 -0.029867 16365.900000 0 0 1
-0.667814 -20.583529 31.519746 37.651322 1.538364 0.578747 0.095503 -0.030020 190368.000000 0 0 1
-1.060614 -20.161429 32.995446 38.682135 1.518239 0.549110 0.079932 -0.033158 -281249.000000 0 0 1
-1.745614 -18.920329 33.007146 38.085400 1.478795 0.522325 0.074121 -0.032784 28192.100000 0 0 1
-2.216614 -18.664629 -33.549019 38.455409 1.452590 2.630915 0.081113 -0.038839 -477734.000000 0 0 1
-3.244114 -17.573929 -33.458119 37.931689 1.388253 2.651018 0.098823 -0.046960 -343211.000000 0 0 1
-2.720014 -16.263129 -33.582519 37.412210 1.405080 2.685171 0.087713 -0.039238 -71905.000000 0 0 1
-3.733814 -15.337929 -33.266319 36.821752 1.332004 2.698528 0.101926 -0.043891 113251.000000 0 0 1
-3.369314 -13.869429 -33.469119 36.385372 1.332482 2.738497 0.103099 -0.049895 -327298.000000 0 0 1
-2.368914 -13.456829 -32.555819 35.306931 1.396544 2.744218 0.104174 -0.045909 -14990.500000 0 0 1
-2.148114 -12.038329 -32.632919 34.848862 1.394215 2.783060 0.103424 -0.046325 -18301.200000 0 0 1
-1.520114 -11.429129 -33.912719 35.819105 1.438569 2.813869 0.101002 -0.048476 -467921.000000 0 0 1
-2.391014 -11.500329 32.817646 34.856454 1.365808 0.343717 0.099580 -0.038356 290719.000000 0 0 1
-1.883514 -10.975029 31.569046 33.475417 1.400834 0.339108 0.091017 -0.035463 -404703.000000 0 0 1
-0.937914 -11.893029 30.815046 33.043772 1.492097 0.369377 0.085399 -0.040402 -12282.600000 0 0 1
-1.555814 -13.053629 30.294246 33.023615 1.452170 0.409422 0.084247 -0.034532 341915.000000 0 0 1
-0.575414 -14.068329 30.135046 33.262140 1.529918 0.437092 0.084751 -0.040194 41677.500000 0 0 1
-1.080114 -15.364429 30.667046 34.317634 1.500612 0.465441 0.086546 -0.030688 192062.000000 0 0 1
-1.973914 -16.043429 29.782846 33.886662 1.448376 0.497254 0.089088 -0.028284 477141.000000 0 0 1
-2.508214 -17.217829 30.393146 35.021252 1.426138 0.519941 0.085769 -0.029673 -79200.600000 0 0 1
-2.717514 -18.326029 29.282546 34.651057 1.423582 0.564101 0.082342 -0.016489 -565266.000000 0 0 1
-3.813114 -18.183429 28.425246 33.958380 1.364089 0.578907 0.062835 -0.014288 -203038.000000 0 0 1
-3.975514 -19.432329 27.765846 34.122754 1.368998 0.620299 0.069965 -0.016709 263236.000000 0 0 1
-4.650514 -19.277229 26.401546 33.019395 1.334076 0.644206 0.058804 -0.016962 -356455.000000 0 0 1
-5.194314 -20.397529 25.801846 33.298278 1.321442 0.684286 0.074398 -0.010022 603269.000000 0 0 1
-4.239614 -21.414829 25.306546 33.421408 1.375348 0.711787 0.090137 -0.023719 363800.000000 0 0 1
-29.711274 -33.774638 -0.793254 44.990168 0.849315 1.588429 0.072667 -0.006644 119286.000000 0 0 1
-29.070454 -32.672238 -0.219354 43.733449 0.843668 1.575812 0.080897 -0.005324 -273306.000000 0 0 1
-29.674744 -32.496338 1.019746 44.018659 0.830751 1.547628 0.072908 0.002309 -4538.730000 0 0 1
-29.425314 -31.089738 1.586046 42.836159 0.812896 1.533762 0.081042 -0.011403 372736.000000 0 0 1
-28.035904 -30.814938 1.645846 41.692699 0.832585 1.531310 0.078857 -0.017494 -178591.000000 0 0 1
-27.711774 -29.522738 2.147346 40.548065 0.817029 1.517814 0.084384 -0.028109 -51558.200000 0 0 1
-26.208224 -29.220538 2.159046 39.311224 0.839690 1.515847 0.090697 -0.028558 -85820.300000 0 0 1
-25.483054 -30.133838 2.967046 39.575720 0.868826 1.495755 0.067361 -0.014489 -255693.000000 0 0 1
-24.115614 -29.807538 3.038546 38.461474 0.890565 1.491712 0.058194 -0.011206 -43022.000000 0 0 1
-23.398114 -30.585738 4.184446 38.735884 0.917764 1.462560 0.055116 -0.015552 -269205.000000 0 0 1
-23.750014 -30.098438 5.438846 38.724155 0.902751 1.429879 0.047360 -0.017456 -467223.000000 0 0 1
-23.074214 -30.747138 6.447146 38.979117 0.927007 1.404633 0.031461 -0.006538 -443469.000000 0 0 1
-23.509214 -30.284838 7.862046 39.136509 0.910693 1.368532 0.032950 0.002591 -183625.000000 0 0 1
-23.027814 -29.007238 8.301446 37.955423 0.899808 1.350298 0.039094 -0.011698 -203205.000000 0 0 1
-23.465114 -28.724538 9.587346 38.309632 0.885834 1.317848 0.014747 -0.000366 -145369.000000 0 0 1
-22.909014 -27.438238 10.358846 37.215394 0.875116 1.288722 0.025979 -0.007216 -378744.000000 0 0 1
-21.620414 -27.712138 10.798546 36.769736 0.908259 1.272722 0.019122 -0.016131 -1057040.000000 0 0 1
-21.279414 -26.802238 11.816546 36.205030 0.899760 1.238327 0.037581 -0.013584 1158700.000000 0 0 1
-19.876814 -26.965938 12.535946 35.768695 0.935597 1.212721 0.035246 -0.017119 1012050.000000 0 0 1
-19.795814 -28.068538 13.409446 36.871810 0.956544 1.198584 0.038058 -0.012651 284662.000000 0 0 1
-18.595714 -27.936638 14.181646 36.433164 0.983506 1.170978 0.055853 -0.021840 470565.000000 0 0 1
-18.486414 -29.081138 15.225446 37.673257 1.004551 1.154753 0.077616 -0.028868 -114978.000000 0 0 1
-18.263014 -30.349238 14.671046 38.338669 1.029082 1.178112 0.066576 -0.025502 -45369.300000 0 0 1
-18.213314 -31.355938 15.643546 39.492280 1.044572 1.163513 0.076779 -0.023206 65302.400000 0 0 1
-18.102614 -32.834438 15.014646 40.388669 1.066932 1.189899 0.056073 -0.026912 82461.200000 0 0 1
-17.988114 -33.853738 15.985446 41.535314 1.082386 1.175736 0.072617 -0.027011 116008.000000 0 0 1
-17.757314 32.959671 15.335846 40.458006 -1.076625 1.182020 0.054861 -0.028868 -270917.000000 0 0 1
-17.826914 31.733571 16.258846 39.864376 -1.058963 1.150694 0.063420 -0.037182 -589073.000000 0 0 1
-19.006414 31.509371 16.958046 40.517398 -1.028028 1.138962 0.075515 -0.040766 -464743.000000 0 0 1
-18.887714 30.384371 17.739746 39.933123 -1.014627 1.110475 0.057520 -0.030918 129819.000000 0 0 1
-19.676814 30.554271 19.076746 41.044643 -0.998654 1.087410 0.069103 -0.040937 251362.000000 0 0 1
-19.087614 31.464771 20.017846 41.893711 -1.025513 1.072620 0.080635 -0.037154 97806.300000 0 0 1
-20.005314 31.762171 21.047446 43.035370 -1.008719 1.059769 0.084467 -0.027884 -164112.000000 0 0 1
-19.588914 32.841371 22.120446 44.176864 -1.032976 1.046361 0.069461 -0.017758 -80127.800000 0 0 1
-18.849314 32.232371 23.151546 43.934229 -1.041632 1.015778 0.066413 -0.030312 -31037.800000 0 0 1
-18.588414 33.197671 24.162546 45.071533 -1.060360 1.004994 0.065606 -0.023344 -687406.000000 0 0 1
-19.470414 33.055371 25.381746 45.999865 -1.038486 0.986301 0.070412 -0.023136 235321.000000 0 0 1
-20.841214 33.025671 24.968346 46.351585 -1.007850 1.001935 0.076766 -0.023563 310745.000000 0 0 1
-21.515914 31.800171 25.236046 45.946093 -0.975950 0.989326 0.065522 -0.014307 -1072530.000000 0 0 1
-22.926914 31.993771 24.758146 46.499576 -0.949012 1.009318 0.084491 -0.039497 -1312730.000000 0 0 1
-23.250314 31.606771 23.453446 45.712462 -0.936567 1.032045 0.078832 -0.009205 37188.600000 0 0 1
-24.578614 31.977071 23.157746 46.507231 -0.915477 1.049576 0.068341 -0.024283 -42143.500000 0 0 1
-24.920014 31.730371 21.651246 45.788645 -0.905041 1.078272 0.061700 -0.033125 110029.000000 0 0 1
-24.220514 32.615271 20.775546 45.629075 -0.932040 1.098072 0.065997 -0.033506 89650.100000 0 0 1
-23.716414 31.930071 19.680146 44.376862 -0.931944 1.111321 0.038714 -0.016146 -178602.000000 0 0 1
-22.993914 32.831271 18.659946 44.213188 -0.959825 1.135097 0.035704 -0.009808 190747.000000 0 0 1
-21.765914 33.393471 19.105746 44.203037 -0.993156 1.123835 0.054686 -0.012796 161550.000000 0 0 1
-21.216314 -33.739738 18.149546 43.793926 1.009453 1.143479 0.068617 -0.007845 260378.000000 0 0 1
-19.980714 -33.038838 18.742346 42.919335 1.026881 1.118883 0.077789 -0.023475 -23192.500000 0 0 1
-20.352814 -32.233638 19.875446 42.991602 1.007597 1.090198 0.087957 -0.021956 42296.500000 0 0 1
-19.299214 -31.465038 20.376846 42.163066 1.020615 1.066391 0.081392 -0.036284 -254807.000000 0 0 1
-19.824714 -30.346338 21.309546 42.047786 0.992117 1.039335 0.082299 -0.023333 46188.000000 0 0 1
-20.379614 -29.302838 20.554346 41.188180 0.963109 1.048311 0.080214 -0.021276 273046.000000 0 0 1
-21.159814 -28.460138 21.384846 41.412907 0.931475 1.028177 0.094705 -0.024552 -155869.000000 0 0 1
-21.819414 -27.240538 20.737346 40.597676 0.895452 1.034680 0.085016 -0.032777 -208985.000000 0 0 1
-20.927814 -26.214038 20.360146 39.238817 0.897066 1.025259 0.075681 -0.018440 376624.000000 0 0 1
-21.627614 -25.018638 20.076446 38.687849 0.857967 1.025193 0.060312 0.003933 -448785.000000 0 0 1
-22.719114 -24.863938 19.021346 38.680553 0.830443 1.056692 0.038041 0.001103 -518700.000000 0 0 1
-23.989014 -25.234938 19.494946 39.903983 0.810704 1.060373 0.039284 0.003511 -863655.000000 0 0 1
-24.899214 -25.264938 18.449646 39.983464 0.792689 1.091188 0.029685 0.002754 -118808.000000 0 0 1
-26.292544 -25.706638 19.045046 41.410662 0.774131 1.092906 0.030584 0.000363 377356.000000 0 0 1
-26.358234 -27.092838 19.355046 42.466413 0.799141 1.097556 0.023658 -0.000246 -39864.800000 0 0 1
-26.466564 -27.906138 18.234146 42.564253 0.811868 1.128085 0.025908 -0.005192 -297221.000000 0 0 1
-27.647224 -28.866238 18.407246 44.005175 0.806965 1.139226 0.039422 -0.015402 -245061.000000 0 0 1
-28.939574 -28.346638 18.546746 44.553481 0.775048 1.141446 0.040089 -0.027670 -548781.000000 0 0 1
-29.809934 -29.167038 17.801546 45.345819 0.774498 1.167369 0.040268 -0.018964 -61712.700000 0 0 1
-31.312614 -28.863538 17.989446 46.229902 0.744722 1.171109 0.045689 -0.022428 108302.000000 0 0 1
-31.639784 -27.615938 17.542646 45.513299 0.717596 1.175112 0.071381 -0.018078 -1150990.000000 0 0 1
-33.013334 -27.463738 17.665046 46.434804 0.693891 1.180539 0.092420 -0.003886 -1025740.000000 0 0 1
-33.621864 -26.132938 17.182946 45.919646 0.660721 1.187267 0.106567 -0.018001 -212219.000000 0 0 1
-33.746164 -26.096038 15.748046 45.473154 0.658250 1.217156 0.133599 -0.037332 341125.000000 0 0 1
-34.392070 -24.923938 15.209746 45.114893 0.627112 1.226926 0.148954 -0.035744 54180.500000 0 0 1
-33.435324 -23.751038 14.885146 43.630268 0.617644 1.222640 0.128301 -0.033839 12374.300000 0 0 1
-32.974234 -23.177238 16.100246 43.401641 0.612662 1.190754 0.101654 -0.025494 8979.630000 0 0 1
-32.321504 -21.954338 15.867446 42.171655 0.596663 1.185042 0.095507 -0.019282 -322306.000000 0 0 1
-33.172594 -20.696938 16.086446 42.279522 0.557820 1.180483 0.101389 -0.027222 -294343.000000 0 0 1
-33.567504 -20.553238 17.408746 43.038092 0.549411 1.154368 0.086582 -0.016998 518876.000000 0 0 1
-34.449754 -19.408738 17.475646 43.230578 0.513067 1.154646 0.086553 -0.018226 378713.000000 0 0 1
-34.865967 -19.081638 18.951846 44.033136 0.500757 1.125861 0.069665 -0.013969 -456498.000000 0 0 1
-35.895380 -19.932738 19.368246 45.397371 0.506904 1.130024 0.082982 -0.015042 -108261.000000 0 0 1
-36.043852 -19.475838 20.713346 45.907627 0.495394 1.102691 0.065830 -0.008392 -419857.000000 0 0 1
36.862229 -19.632738 21.323846 46.893227 -0.489384 1.098725 0.076236 -0.013076 -49545.300000 0 0 1
36.242939 -20.902138 21.413446 46.999847 -0.523128 1.097743 0.090563 -0.018339 84305.900000 0 0 1
36.989069 -21.943538 22.048946 48.330798 -0.535437 1.097066 0.070228 -0.009401 -629587.000000 0 0 1
36.197249 -23.185538 22.435846 48.488939 -0.569691 1.089758 0.083389 -0.001372 -275858.000000 0 0 1
35.244799 -22.929938 23.434446 48.136796 -0.576790 1.062339 0.101097 -0.016703 -164511.000000 0 0 1
34.747059 -24.127838 23.954046 48.613856 -0.606948 1.055559 0.089395 -0.020533 -506762.000000 0 0 1
33.784259 -23.906738 25.139946 48.424427 -0.615828 1.024930 0.094783 -0.023755 1037210.000000 0 0 1
32.376919 -23.859438 24.803846 47.252179 -0.635082 1.018169 0.104322 -0.022328 1037940.000000 0 0 1
31.699979 -23.740938 26.069246 47.414411 -0.642813 0.988651 0.076695 -0.019684 726829.000000 0 0 1
30.255859 -24.334738 26.188246 46.833969 -0.677356 0.977410 0.067550 -0.020917 674591.000000 0 0 1
29.223829 -23.533638 25.658146 45.455525 -0.677958 0.971009 0.072317 -0.017118 391989.000000 0 0 1
28.058829 -24.302538 25.344446 44.947215 -0.713783 0.971730 0.069235 -0.013186 1164860.000000 0 0 1
26.786329 -23.527238 24.861446 43.464121 -0.720713 0.961855 0.084152 -0.014867 432323.000000 0 0 1
26.784129 -23.014338 23.522146 42.430421 -0.709841 0.983191 0.073336 -0.014596 122501.000000 0 0 1
27.834529 -22.076838 23.318546 42.495910 -0.670548 0.989959 0.084519 -0.014779 222438.000000 0 0 1
27.727629 -21.306138 21.983546 41.304349 -0.655179 1.009560 0.093279 -0.017337 212619.000000 0 0 1
26.790929 -20.246538 21.933246 40.109144 -0.647154 0.992212 0.078990 -0.015727 56073.200000 0 0 1
26.570629 -19.852338 20.584846 39.036515 -0.641677 1.015350 0.055780 -0.015031 -93261.200000 0 0 1
25.856129 -18.490638 20.378446 37.758763 -0.620812 1.000714 0.046877 -0.005563 -61723.600000 0 0 1
26.408329 -17.260538 20.843846 37.812589 -0.578903 0.986946 0.047233 -0.017376 -154574.000000 0 0 1
26.537529 -17.239838 22.266846 38.694507 -0.576122 0.957639 0.046872 -0.008365 -579848.000000 0 0 1
26.530829 -15.880138 22.917246 38.487190 -0.539356 0.932969 0.053942 -0.001893 315261.000000 0 0 1
25.355729 -15.069138 22.763746 37.258288 -0.536224 0.913509 0.034186 -0.007745 280170.000000 0 0 1
25.513329 -13.830838 23.415346 37.289415 -0.496760 0.891899 0.037217 -0.007633 826196.000000 0 0 1
24.247829 -12.894938 23.241846 35.978049 -0.488761 0.868463 0.036819 -0.005721 831724.000000 0 0 1
23.102029 -13.431938 23.881946 35.839476 -0.526644 0.841482 0.046265 -0.009468 -655357.000000 0 0 1
22.053529 -12.525138 23.709046 34.718238 -0.516514 0.819073 0.050258 -0.007455 -914568.000000 0 0 1
20.779329 -13.102538 24.328446 34.573549 -0.562585 0.790244 0.057488 -0.005905 -760133.000000 0 0 1
20.286829 -14.229738 23.688646 34.281085 -0.611683 0.807908 0.069509 -0.015956 503201.000000 0 0 1
19.181129 -14.733338 24.483746 34.415705 -0.654995 0.779291 0.076825 -0.012568 648187.000000 0 0 1
18.388229 -15.849338 23.685446 33.916498 -0.711379 0.797712 0.103176 -0.011521 235751.000000 0 0 1
19.092229 -17.067138 23.385446 34.679670 -0.729452 0.830743 0.087265 -0.010465 390659.000000 0 0 1
18.326529 -17.930138 22.539146 34.137437 -0.774466 0.849649 0.106695 -0.008172 234982.000000 0 0 1
18.568529 -19.405138 22.901046 35.295999 -0.807426 0.864753 0.080818 0.001137 -246888.000000 0 0 1
17.902429 -19.846438 24.053846 35.957830 -0.836851 0.838006 0.080632 0.002743 158264.000000 0 0 1
18.060129 -21.218638 24.482146 37.091432 -0.865638 0.849913 0.084770 0.001890 -356823.000000 0 0 1
17.522229 -22.319038 23.487146 36.834956 -0.905219 0.879376 0.076752 -0.005166 88701.100000 0 0 1
18.399229 -22.578838 22.401446 36.744528 -0.887043 0.915172 0.065011 0.003060 -497445.000000 0 0 1
19.357529 -23.495038 22.733846 37.994190 -0.881652 0.929355 0.072439 -0.001960 -618647.000000 0 0 1
20.424229 -23.833138 21.677246 38.145387 -0.862271 0.966383 0.068185 0.007449 -62463.600000 0 0 1
19.862329 -24.539538 20.609546 37.702181 -0.890349 0.992449 0.062366 -0.004787 35710.100000 0 0 1
20.825929 -24.968338 19.682346 38.006999 -0.875610 1.026448 0.058132 -0.014872 -46777.000000 0 0 1
20.222629 -25.811038 18.542146 37.669292 -0.906205 1.056141 0.054288 -0.016461 215643.000000 0 0 1
19.726429 -27.121538 18.872746 38.482338 -0.941960 1.058218 0.063472 -0.020275 -139714.000000 0 0 1
18.915129 -27.606938 17.842946 37.924871 -0.970101 1.080960 0.067025 -0.025371 -278563.000000 0 0 1
17.983129 -28.749938 18.340846 38.553061 -1.011836 1.075003 0.075340 -0.017438 -483896.000000 0 0 1
17.040129 -28.296738 19.255146 38.233912 -1.028765 1.043019 0.076175 -0.028900 -599923.000000 0 0 1
16.114429 -29.353738 19.374446 38.687025 -1.068741 1.046274 0.071927 -0.025860 -1244480.000000 0 0 1
14.805729 -28.967438 19.985246 38.180258 -1.098295 1.019908 0.055377 -0.012564 -1421750.000000 0 0 1
14.077029 -28.183538 19.108046 36.845515 -1.107567 1.025585 0.059107 -0.012329 -370940.000000 0 0 1
12.761629 -27.942938 19.551146 36.413106 -1.142382 1.004007 0.041818 -0.007099 201834.000000 0 0 1
11.754429 -27.420838 18.499146 35.103951 -1.165823 1.015751 0.043753 -0.013526 -189972.000000 0 0 1
11.566129 -28.399138 17.487746 35.300250 -1.184038 1.052501 0.039728 -0.019631 14369.200000 0 0 1
10.675929 -28.027838 16.473446 34.218556 -1.206859 1.068524 0.058974 -0.021691 -171679.000000 0 0 1
10.551529 -29.057838 15.316646 34.500614 -1.222480 1.110791 0.073790 -0.017616 -120915.000000 0 0 1
9.674129 -30.122338 15.609346 35.278828 -1.260040 1.112460 0.073543 -0.025365 -106302.000000 0 0 1
9.593229 -30.984838 14.478246 35.520555 -1.270546 1.150970 0.072497 -0.015021 327624.000000 0 0 1
8.392529 -31.985438 14.442146 36.084323 -1.314195 1.159025 0.074906 -0.015714 256754.000000 0 0 1
8.497829 -33.026538 15.379846 37.409958 -1.318956 1.147118 0.071530 -0.015729 -365644.000000 0 0 1
7.454529 -33.944338 15.221146 37.940366 -1.354618 1.157985 0.083300 -0.012862 -15347.300000 0 0 1
7.662829 32.915271 16.159446 37.460135 1.342066 1.124778 0.083931 -0.014236 -16410.400000 0 0 1
8.904329 32.277371 15.998746 37.108969 1.301622 1.125053 0.068501 -0.016023 -326520.000000 0 0 1
9.167529 31.346271 17.000846 36.819303 1.286271 1.090844 0.088355 -0.020350 -1003140.000000 0 0 1
10.543229 30.738971 16.919846 36.637756 1.240378 1.090757 0.050968 -0.032738 -962490.000000 0 0 1
10.619629 29.769371 15.953046 35.404684 1.228139 1.103369 0.085143 -0.024356 -515762.000000 0 0 1
11.818329 29.056271 16.013046 35.218708 1.184494 1.098790 0.078289 -0.032924 -718790.000000 0 0 1
12.208429 28.306371 14.773346 34.184033 1.163605 1.123898 0.061696 -0.026900 512054.000000 0 0 1
11.288829 27.220171 14.456846 32.823402 1.177663 1.114704 0.064179 -0.030982 596988.000000 0 0 1
11.828729 26.448471 13.395146 31.919749 1.150243 1.137736 0.057576 -0.023493 88338.900000 0 0 1
-9.467214 -9.236029 18.974311 23.129135 0.773038 0.608749 0.073013 -0.023065 -6651.420000 0 1 0
-9.414714 -9.440729 17.556111 22.044982 0.786778 0.649516 0.066006 -0.029932 76923.200000 0 1 0
-9.395714 -10.790929 17.116111 22.308852 0.854404 0.696279 0.080328 -0.032905 -95.896200 0 1 0
-9.861414 -10.898729 15.670211 21.484536 0.835323 0.753393 0.089907 -0.038470 -122643.000000 0 1 0
-11.261214 -10.712529 15.537811 21.977188 0.760433 0.785553 0.104666 -0.038323 361685.000000 0 1 0
-11.808714 -11.193729 14.315211 21.671884 0.758669 0.849255 0.107200 -0.044731 25691.900000 0 1 0
-11.709214 -12.750829 14.032311 22.284414 0.827957 0.889640 0.094557 -0.042832 -752074.000000 0 1 0
-10.506014 -13.248829 13.476911 21.622556 0.900353 0.897866 0.095344 -0.041876 198765.000000 0 1 0
-10.323114 -14.644129 13.625811 22.509552 0.956768 0.920610 0.099965 -0.044202 59012.600000 0 1 0
-9.921214 -15.202929 15.025311 23.565218 0.992606 0.879410 0.102885 -0.048217 -568587.000000 0 1 0
-10.959514 -15.026829 15.911011 24.476046 0.940656 0.863127 0.138250 -0.034473 -351462.000000 0 1 0
-10.561814 -15.417829 17.238711 25.425077 0.970182 0.825731 0.123782 -0.033780 243429.000000 0 0 1
-11.692814 -15.021729 18.229611 26.357029 0.909370 0.807037 0.113455 -0.024924 65655.200000 0 0 1
-11.950114 -13.647329 18.307911 25.772746 0.851605 0.780788 0.113535 -0.027106 628969.000000 0 0 1
-13.100414 -13.173329 17.607011 25.596177 0.788173 0.812237 0.105347 -0.038170 1817000.000000 0 0 1
-14.560714 -13.263929 18.237811 26.843323 0.738826 0.823828 0.068901 -0.024138 1355050.000000 0 0 1
-15.057514 -14.559129 18.548311 27.977434 0.768572 0.846012 0.077988 -0.014016 561843.000000 0 0 1
-16.341114 -14.382129 19.173911 29.008904 0.721722 0.848690 0.087786 -0.013338 491801.000000 0 0 1
-16.904814 -15.706429 19.725811 30.357409 0.748667 0.863494 0.079597 0.001794 -137924.000000 0 0 1
-17.717314 -16.244229 18.689111 30.447678 0.742050 0.909918 0.085200 -0.006109 -40291.600000 0 0 1
-18.025314 -17.564529 19.070411 31.576973 0.772452 0.922368 0.066892 -0.010388 -877436.000000 0 0 1
-19.246814 -18.193229 18.445911 32.275147 0.757265 0.962439 0.069000 -0.008551 -812058.000000 0 0 1
-19.281314 -18.408929 17.018911 31.627537 0.762256 1.002610 0.075974 -0.004243 -30042.100000 0 0 1
-19.621914 -17.249729 16.310611 30.799492 0.721150 1.012698 0.071034 0.000308 -292932.000000 0 0 1
-19.234314 -17.448129 14.846011 29.913210 0.736743 1.051461 0.074095 -0.014497 128564.000000 0 0 1
-19.944014 -18.555629 14.245811 30.741149 0.749351 1.088955 0.079131 -0.019342 521244.000000 0 0 1
-19.555114 -18.646229 12.853011 29.921301 0.761611 1.126790 0.097062 -0.025759 216837.000000 0 0 1
-19.885914 -20.016629 12.222311 30.748982 0.788674 1.162020 0.104995 -0.024482 -126732.000000 0 0 1
-18.948914 -20.925829 12.715911 30.962010 0.834936 1.147581 0.094895 -0.018038 -47769.600000 0 0 1
-18.817814 -22.027129 11.800911 31.282040 0.863810 1.183979 0.074973 -0.010505 -257917.000000 0 0 1
-18.034214 -23.265729 12.212711 31.869693 0.911398 1.177530 0.062877 -0.006628 -327398.000000 0 0 1
-18.243614 -24.434829 11.455111 32.574682 0.929460 1.211456 0.066144 -0.025411 -289472.000000 0 0 1
-17.393114 -24.679129 10.358911 31.920007 0.956876 1.240284 0.069193 -0.021608 -525502.000000 0 0 1
-17.756214 -25.843849 9.410511 32.737523 0.968809 1.279229 0.070600 -0.026260 441669.000000 0 0 1
-19.046814 -25.706699 8.809911 33.184786 0.933127 1.302094 0.051659 -0.025074 32107.200000 0 0 1
-19.403014 -26.630329 7.864811 33.874867 0.941129 1.336486 0.061706 -0.030663 427251.000000 0 0 1
-20.748314 -26.301279 7.156511 34.255882 0.902878 1.360333 0.057752 -0.036388 341328.000000 0 0 1
-20.688214 -25.041559 6.516411 33.129224 0.880309 1.372809 0.077984 -0.036845 540512.000000 0 0 1
-21.782914 -24.859329 5.604411 33.524484 0.851260 1.402834 0.084778 -0.039848 571219.000000 0 0 1
-21.418514 -23.705829 4.641511 32.284094 0.836044 1.426526 0.078570 -0.038943 -10088.700000 0 0 1
-22.458614 -23.346129 3.765511 32.613037 0.804772 1.455078 0.086728 -0.037478 14807.200000 0 0 1
-22.186914 -22.104429 3.067711 31.468648 0.783536 1.473157 0.080490 -0.028562 586948.000000 0 0 1
-22.982514 -22.135329 1.695711 31.953782 0.766623 1.517704 0.068751 -0.030966 432451.000000 0 0 1
-22.410314 -23.102629 0.834911 32.197061 0.800608 1.544862 0.077407 -0.033621 270873.000000 0 0 1
-22.694314 -22.872829 -0.561289 32.225972 0.789316 1.588214 0.074813 -0.026531 -279643.000000 0 0 1
-21.969214 -23.895729 -1.446589 32.492228 0.827378 1.615332 0.080140 -0.026484 218735.000000 0 0 1
-20.549414 -23.775229 -1.464889 31.459273 0.858047 1.617378 0.087377 -0.029352 427270.000000 0 0 1
-19.912614 -24.206729 -2.656489 31.456873 0.882422 1.655346 0.086669 -0.022128 150146.000000 0 0 1
-19.482414 -25.680789 -2.755689 32.352144 0.921790 1.656078 0.089490 -0.021654 109001.000000 0 0 1
-20.562314 -26.618629 -2.882889 33.759017 0.913064 1.656297 0.121748 -0.021532 134430.000000 0 0 1
-20.119914 -27.842009 -3.422289 34.521015 0.945033 1.670096 0.123584 -0.009872 -307966.000000 0 0 1
-21.259314 -28.758969 -3.919489 35.977759 0.934228 1.679955 0.130040 -0.005530 -25462.000000 0 0 1
-21.753914 -28.196389 -5.108189 35.977253 0.913668 1.713262 0.123017 -0.002167 -273104.000000 0 0 1
-22.779114 -28.972099 -5.692889 37.291816 0.904500 1.724053 0.129183 -0.012031 -42202.700000 0 0 1
-23.263114 -28.331929 -7.009089 37.322889 0.883326 1.759714 0.118316 0.013534 -230160.000000 0 0 1
-22.275714 -28.285329 -8.017889 36.885686 0.903702 1.789917 0.137646 0.015139 -188061.000000 0 0 1
-22.684114 -28.315979 -9.346689 37.466309 0.895381 1.822928 0.137915 0.017544 -42892.600000 0 0 1
-23.568514 -27.129539 -9.911889 37.279113 0.855523 1.839916 0.111122 0.023708 47453.500000 0 0 1
-23.028514 -25.846469 -10.169489 36.080063 0.842991 1.856527 0.102574 0.016471 -111359.000000 0 0 1
-22.767514 -25.052129 -9.018289 35.032819 0.833138 1.831152 0.086656 0.013830 -91612.700000 0 0 1
-22.335014 -23.618229 -9.393289 33.836482 0.813315 1.852100 0.067177 0.001388 262181.000000 0 0 1
-23.399314 -22.873629 -9.947489 34.200634 0.774038 1.865919 0.068519 -0.000431 117118.000000 0 0 1
-22.900914 -21.585529 -10.262489 33.101444 0.755839 1.886022 0.082648 0.003633 -21463.600000 0 0 1
-23.915714 -20.480629 -10.527189 33.199989 0.708179 1.893450 0.093450 0.009141 -556745.000000 0 0 1
-24.723214 -20.576429 -11.653289 34.211488 0.694111 1.918378 0.079135 0.016660 436400.000000 0 0 1
-25.913874 -19.802829 -11.735589 34.661289 0.652514 1.916203 0.082118 0.010442 351137.000000 0 0 1
-25.696364 -18.228229 -11.700889 33.607771 0.616987 1.926404 0.089641 0.000622 -1269580.000000 0 0 1
-24.971714 -17.714929 -12.794989 33.183083 0.617007 1.966641 0.112019 0.005875 307504.000000 0 0 1
-24.715014 -16.287929 -12.652889 32.190436 0.582697 1.974757 0.116657 -0.010517 -147539.000000 0 0 1
-23.736614 -15.885829 -11.532389 30.802312 0.589792 1.954546 0.084848 -0.007325 -1155340.000000 0 0 1
-24.276914 -16.049029 -10.231189 30.848292 0.584126 1.908860 0.136114 -0.015150 578031.000000 0 0 1
-23.298114 -16.489429 -9.289289 30.016567 0.615914 1.885434 0.120487 -0.022260 136916.000000 0 0 1
-24.046214 -16.838129 -7.992589 30.424077 0.610887 1.836622 0.116501 -0.031001 254558.000000 0 0 1
-24.573914 -18.169129 -8.099889 31.616494 0.636661 1.829877 0.103806 -0.023604 -28766.600000 0 0 1
-25.356814 -18.466529 -6.975489 32.134688 0.629446 1.789609 0.117824 -0.023022 -11421.800000 0 0 1
-25.959644 -19.895529 -7.022289 33.452171 0.653916 1.782290 0.126203 -0.024421 204365.000000 0 0 1
-26.803644 -20.163229 -8.126589 34.511340 0.644944 1.808505 0.108606 -0.022976 38717.700000 0 0 1
-27.428614 -21.441629 -8.098289 35.744295 0.663498 1.799342 0.091689 -0.007644 290874.000000 0 0 1
-26.502404 -22.678429 -8.307989 35.856816 0.707801 1.804620 0.079117 0.004975 58668.800000 0 0 1
-27.202534 -23.859129 -7.993789 37.055857 0.720014 1.788228 0.074107 0.006549 -108304.000000 0 0 1
-26.463744 -25.070959 -8.308589 37.388707 0.758379 1.794889 0.058599 0.023708 32913.300000 0 0 1
-27.149774 -26.439389 -8.085489 38.749538 0.772143 1.781001 0.069723 0.011993 -86314.700000 0 0 1
-27.062044 -26.869419 -6.741289 38.726798 0.781827 1.745761 0.096091 -0.006713 -61175.700000 0 0 1
-27.817304 -28.007279 -6.460689 39.999383 0.788801 1.733027 0.091232 -0.008883 -153940.000000 0 0 1
-27.565924 -28.583809 -5.057989 40.031208 0.803524 1.697486 0.105785 -0.015908 -93722.400000 0 0 1
-28.284604 -27.949199 -4.031189 39.967825 0.779434 1.671829 0.082390 -0.015919 -264675.000000 0 0 1
-27.633644 -27.932369 -2.774689 39.389522 0.790774 1.641297 0.082862 -0.017213 -64167.000000 0 0 1
-27.592174 -29.228139 -1.962989 40.242583 0.814182 1.619595 0.089906 -0.006723 -352723.000000 0 0 1
-26.836154 -30.223859 -2.561089 40.499630 0.844699 1.634076 0.119150 -0.023761 -469274.000000 0 0 1
-26.780574 -31.439159 -1.814489 41.338992 0.865245 1.614703 0.105728 -0.020111 112921.000000 0 0 1
-25.634424 -31.546099 -0.764389 40.655435 0.888418 1.589599 0.119995 -0.028562 -504829.000000 0 0 1
-24.365014 -31.342189 -1.285389 39.719504 0.909997 1.603164 0.124775 -0.035220 -988789.000000 0 0 1
-23.432314 -31.495899 -0.224989 39.257046 0.931159 1.576528 0.090083 -0.025570 290794.000000 0 0 1
-22.299014 -30.450719 -0.201189 37.742984 0.938721 1.576127 0.099070 -0.021413 -115563.000000 0 0 1
-22.754914 -29.153159 0.088511 36.982437 0.908041 1.568403 0.103900 -0.034151 -115589.000000 0 0 1
-23.219314 -28.368119 -1.010789 36.672993 0.884876 1.598362 0.116167 -0.039633 121458.000000 0 0 1
-23.860414 -27.039479 -0.487889 36.065092 0.847774 1.584325 0.092490 -0.020514 1790240.000000 0 0 1
-25.235854 -27.152489 0.002311 37.068936 0.821967 1.570734 0.088755 -0.024697 1587390.000000 0 0 1
-26.007784 -26.005729 0.347311 36.780748 0.785359 1.561353 0.098800 -0.043725 498132.000000 0 0 1
-25.426224 -25.028219 1.412611 35.705743 0.777510 1.531223 0.094278 -0.030886 -355260.000000 0 0 1
-25.638704 -25.571499 2.713611 36.312648 0.784086 1.495998 0.089055 -0.035637 -169680.000000 0 0 1
-25.446124 -24.654229 3.764811 35.630185 0.769593 1.464935 0.089411 -0.039696 -147910.000000 0 0 1
-26.579264 -23.642229 4.027111 35.799859 0.726983 1.458068 0.103823 -0.032518 -282295.000000 0 0 1
-26.585894 -22.675029 2.986411 35.069722 0.706174 1.485537 0.094667 -0.034212 -384723.000000 0 0 1
-27.396924 -21.534129 3.149611 34.989002 0.666149 1.480657 0.078978 -0.035976 -211840.000000 0 0 1
-27.163314 -20.442829 2.115611 34.062160 0.645156 1.508646 0.086008 -0.028292 1040000.000000 0 0 1
-25.910924 -19.721029 2.268311 32.641082 0.650573 1.501248 0.070475 -0.024894 919758.000000 0 0 1
-25.620004 -18.871029 1.161111 31.840988 0.634853 1.534322 0.069399 -0.028071 112080.000000 0 0 1
-24.350614 -18.011029 1.380511 30.319225 0.636847 1.525248 0.097051 -0.024139 424718.000000 0 0 1
-23.165414 -18.811429 1.245711 29.867341 0.682044 1.529076 0.093867 -0.033149 3414.130000 0 0 1
-22.033614 -18.027129 1.552611 28.510843 0.685719 1.516313 0.105180 -0.026886 573220.000000 0 0 1
-20.718714 -18.895029 1.392111 28.075349 0.739394 1.521191 0.094048 -0.032549 383195.000000 0 0 1
-20.469614 -19.379629 0.076211 28.188312 0.758052 1.568093 0.067958 -0.031094 -202561.000000 0 0 1
-19.508014 -20.393129 0.100111 28.221488 0.807577 1.567249 0.098222 -0.025706 -244801.000000 0 0 1
-19.235614 -20.880829 -1.327489 28.421473 0.826386 1.617521 0.102562 -0.027476 -19309.500000 0 0 1
-18.606414 -19.883329 -2.125789 27.314180 0.818561 1.648702 0.109180 -0.031561 -18603.400000 0 0 1
-18.172614 -20.435229 -3.308289 27.546094 0.843936 1.691187 0.095553 -0.022225 11346.000000 0 0 1
-17.524214 -19.424629 -4.316689 26.515054 0.836787 1.734326 0.099591 -0.013615 557045.000000 0 0 1
-16.163014 -19.180029 -3.959389 25.392781 0.870555 1.727361 0.127865 -0.023199 59101.300000 0 0 1
-15.527014 -18.778329 -5.127889 24.899981 0.879892 1.778220 0.124140 -0.011780 494139.000000 0 1 0
-14.004414 -18.404029 -4.989689 23.658590 0.920329 1.783296 0.138003 -0.024010 1009140.000000 0 1 0
-13.136314 -19.523829 -5.195289 24.098417 0.978536 1.788089 0.116723 -0.020545 -68207.100000 0 1 0
-11.927514 -19.147129 -5.775489 23.285928 1.013680 1.821437 0.102322 -0.030054 -131250.000000 0 1 0
-10.812214 -20.200029 -5.926089 23.665665 1.079342 1.823899 0.091615 -0.032350 678741.000000 0 1 0
-11.261014 -21.296629 -6.688289 25.001801 1.084399 1.841607 0.099453 -0.028205 851471.000000 0 0 1
-10.022214 -21.988829 -6.933689 25.140195 1.143141 1.850219 0.089114 -0.021287 1180470.000000 0 0 1
-10.101314 -23.292729 -7.747289 26.544458 1.161607 1.866968 0.099971 -0.012152 -19897.000000 0 0 1
-10.631714 -23.021829 -9.046989 26.923707 1.138165 1.913488 0.090154 -0.012837 36967.500000 0 0 1
-10.549314 -24.101429 -10.003889 28.146842 1.158214 1.934157 0.103524 -0.010320 81539.700000 0 0 1
-11.185314 -23.850629 -11.423089 28.713250 1.132277 1.979950 0.136499 -0.017665 19972.400000 0 0 1
-10.511814 -22.831029 -12.124089 27.906051 1.139313 2.020236 0.108934 -0.014592 -519663.000000 0 0 1
-11.238614 -22.495229 -13.262189 28.429341 1.107469 2.056122 0.112472 -0.025022 -793906.000000 0 0 1
-10.828214 -21.213529 -13.967189 27.610621 1.098832 2.101178 0.099242 -0.012679 -404037.000000 0 0 1
-10.799214 -20.040529 -13.209889 26.320087 1.076539 2.096583 0.103372 -0.013564 -192035.000000 0 0 1
-10.373914 -18.889629 -13.876389 25.631823 1.068579 2.142866 0.086042 -0.000139 -143182.000000 0 0 1
-10.044114 -17.759729 -12.822189 24.097733 1.056089 2.131865 0.087324 -0.003040 299417.000000 0 1 0
-11.192014 -17.324929 -12.055689 23.890458 0.997234 2.099742 0.091920 -0.015325 715433.000000 0 1 0
-11.071814 -16.042829 -11.487389 22.625595 0.966718 2.103329 0.098797 -0.019579 61998.300000 0 1 0
-10.994114 -14.822829 -12.437389 22.254785 0.932627 2.163811 0.109010 -0.004581 -803043.000000 0 1 0
-12.207614 -14.465529 -12.975389 22.948597 0.869848 2.171728 0.105043 0.012540 -822653.000000 0 1 0
-12.047014 -13.696529 -14.172089 23.099211 0.849386 2.231321 0.131221 -0.015101 148691.000000 0 1 0
-13.355114 -13.011129 -14.646089 23.709839 0.772352 2.236639 0.133398 -0.012312 219191.000000 0 1 0
-13.418514 -11.728029 -14.152189 22.757145 0.718274 2.241936 0.103911 -0.002690 -318527.000000 0 1 0
-14.382214 -10.929729 -14.797189 23.350886 0.649837 2.257108 0.086916 -0.013762 -150364.000000 0 1 0
-14.516514 -9.497329 -14.312689 22.489587 0.579352 2.260637 0.076345 -0.022825 57381.600000 0 1 0
-13.421914 -8.648829 -14.591489 21.630108 0.572415 2.311208 0.063451 -0.014424 85791.700000 0 1 0
-13.323314 -8.233729 -15.947789 22.352561 0.553545 2.365229 0.062179 -0.009564 -422164.000000 0 1 0
-12.179914 -7.214529 -16.014189 21.374143 0.534761 2.417698 0.044050 0.000742 -166509.000000 0 1 0
-10.931114 -7.874729 -15.946689 20.875764 0.624284 2.440109 0.040518 -0.000533 -68327.200000 0 1 0
-9.897614 -6.965129 -15.636689 19.773260 0.613217 2.482911 0.019714 0.006369 174481.000000 0 1 0
11.555486 21.935571 16.222911 29.629063 1.085945 0.991382 0.116508 -0.021853 144611.000000 0 0 1
12.545486 21.932371 17.255911 30.597133 1.051214 0.971609 0.143668 -0.041793 62428.000000 0 0 1
13.049286 20.660071 17.373211 29.982509 1.007452 0.952749 0.131086 -0.029985 -280142.000000 0 0 1
14.165686 20.500471 18.426911 30.991725 0.966141 0.934059 0.140224 -0.038153 -203189.000000 0 0 1
15.369386 21.081271 18.019811 31.707280 0.940836 0.966336 0.121873 -0.034604 -361884.000000 0 0 1
16.471786 20.571471 18.772511 32.356024 0.895623 0.951839 0.120734 -0.035603 232488.000000 0 0 1
17.823986 21.034171 18.207211 33.039875 0.867824 0.987153 0.092683 -0.024178 -752680.000000 0 0 1
18.158286 22.350971 18.488711 34.221655 0.888530 1.000046 0.092933 -0.032050 -466120.000000 0 0 1
19.249186 22.852071 17.774411 34.766046 0.870767 1.034149 0.079542 -0.023494 -100897.000000 0 0 1
20.618886 22.633271 18.457711 35.750392 0.831938 1.028278 0.070549 -0.026033 -459121.000000 0 0 1
21.067186 21.307271 18.241311 35.079503 0.791064 1.023946 0.066366 -0.019047 -1065460.000000 0 0 1
22.361186 21.216571 18.697411 36.052166 0.759138 1.025559 0.078104 -0.025213 -1024700.000000 0 0 1
22.998986 19.832971 18.553911 35.588589 0.711615 1.022371 0.058601 -0.021455 -109694.000000 0 0 1
23.017886 19.376871 17.225611 34.669985 0.699725 1.050837 0.041420 -0.021715 -108437.000000 0 0 1
22.628686 18.038671 17.025511 33.575573 0.673007 1.039002 0.025352 -0.011039 191139.000000 0 0 1
23.585886 16.806371 17.398011 33.785188 0.619106 1.029836 0.017809 -0.015079 -136888.000000 0 0 1
24.667286 16.709571 16.544711 34.079498 0.595395 1.063891 0.044129 -0.028350 -813156.000000 0 0 1
25.252386 15.441071 16.568011 33.920623 0.548811 1.060501 0.028557 -0.000673 -1049590.000000 0 0 1
26.541386 15.442871 15.721511 34.497729 0.526960 1.097609 0.154689 -0.037287 47803.600000 0 0 1
27.575086 16.259871 16.369311 35.954459 0.532780 1.098111 0.122781 -0.035705 958692.000000 0 0 1
28.304286 15.772071 17.508711 36.829958 0.508379 1.075385 0.123749 -0.046588 -844711.000000 0 0 1
29.288886 14.733271 17.040911 36.949976 0.466071 1.091462 0.114676 -0.050808 -1418050.000000 0 0 1
30.387286 15.337471 16.381811 37.775506 0.467427 1.122243 0.170062 -0.044540 343600.000000 0 0 1
31.228286 14.542771 15.528911 37.786838 0.435827 1.147289 0.170310 -0.055842 480364.000000 0 0 1
30.541286 14.106471 14.229111 36.527117 0.432691 1.170654 0.141514 -0.042824 -122981.000000 0 0 1
30.207686 15.216071 13.414611 36.386603 0.466615 1.193220 0.147452 -0.029067 133591.000000 0 0 1
29.450986 15.016671 12.208511 35.240725 0.471526 1.217032 0.128815 -0.036512 246595.000000 0 0 1
28.244086 15.989371 12.133511 34.649826 0.515131 1.213038 0.107119 -0.044333 -317531.000000 0 0 1
28.450286 17.414471 11.900611 35.416198 0.549270 1.228107 0.089337 -0.030381 -251553.000000 0 0 1
29.190486 18.159171 12.793111 36.681107 0.556506 1.214543 0.112700 -0.039004 -727671.000000 0 0 1
28.600986 18.377871 14.193311 36.840366 0.571128 1.175301 0.111336 -0.033559 60716.500000 0 0 1
27.376786 19.097371 14.183011 36.267834 0.609097 1.169010 0.104859 -0.022865 169656.000000 0 0 1
26.673186 19.099071 15.374411 36.229903 0.621410 1.132545 0.081656 -0.025932 -126788.000000 0 0 1
27.263286 20.087771 16.466211 37.655563 0.635004 1.118219 0.084028 -0.037983 -56121.400000 0 0 1
27.073186 21.418571 16.214411 38.139477 0.669313 1.131686 0.067634 -0.023414 85010.600000 0 0 1
25.784686 21.957871 16.456811 37.654014 0.705414 1.118476 0.070017 -0.025251 -1616.260000 0 0 1
25.639586 23.491771 16.183011 38.355463 0.741710 1.135232 0.074887 -0.018602 -140921.000000 0 0 1
25.358686 23.707871 14.834011 37.751476 0.751766 1.166971 0.103383 -0.032704 -26835.800000 0 0 1
25.449686 25.128971 14.556611 38.614073 0.779057 1.184266 0.104023 -0.034428 -280822.000000 0 0 1
25.009386 25.573371 13.127911 38.102608 0.796547 1.219047 0.097399 -0.031004 -227827.000000 0 0 1
23.625986 25.540071 12.878311 37.098967 0.824310 1.216283 0.097268 -0.030881 -228294.000000 0 0 1
23.272186 25.689271 11.535511 36.532195 0.834725 1.249536 0.076845 -0.039917 -253845.000000 0 0 1
22.884186 24.383071 10.864611 35.160487 0.817098 1.256654 0.102306 -0.039205 -108757.000000 0 0 1
21.545086 24.002171 11.202611 34.143717 0.839292 1.236503 0.102083 -0.038065 423099.000000 0 0 1
21.226986 22.759171 10.700511 32.909964 0.820217 1.239631 0.104065 -0.027892 22385.900000 0 0 1
21.004086 22.645571 9.136111 32.209657 0.822986 1.283203 0.122642 -0.022886 -637044.000000 0 0 1
19.884186 23.259171 8.553611 31.773167 0.863466 1.298225 0.127916 -0.024646 53269.100000 0 0 1
20.192986 23.935671 7.347711 32.166160 0.870009 1.340332 0.127382 -0.027394 -1185210.000000 0 0 1
18.955086 24.058371 6.527211 31.316209 0.903490 1.360828 0.113485 -0.024073 -1927180.000000 0 0 1
18.521386 22.839571 5.997911 30.011042 0.889424 1.369585 0.102696 -0.018706 443163.000000 0 0 1
17.491486 22.914371 5.031111 29.263160 0.918811 1.398011 0.121502 -0.031430 126506.000000 0 0 1
16.133886 23.584271 5.308111 29.063657 0.970825 1.387128 0.099059 -0.033123 -815417.000000 0 0 1
16.106786 25.010771 5.163611 30.193213 0.998655 1.398933 0.113962 -0.040971 1027250.000000 0 0 1
14.828686 25.531671 5.601711 30.052210 1.044617 1.383300 0.091882 -0.043443 809689.000000 0 0 1
14.596586 27.031571 5.263411 31.168408 1.075676 1.401113 0.090761 -0.047583 -436165.000000 0 0 1
14.195986 27.206171 3.920411 30.936570 1.089867 1.443731 0.070585 -0.032692 350373.000000 0 0 1
14.296986 28.548671 3.471011 32.116636 1.106514 1.462510 0.066895 -0.036271 -206215.000000 0 0 1
13.864186 28.662571 2.009611 31.902933 1.120271 1.507763 0.070206 -0.036162 -395973.000000 0 0 1
14.810386 28.090671 1.150911 31.776688 1.085599 1.534570 0.082523 -0.036726 -276.739000 0 0 1
14.395086 26.887471 0.552511 30.503440 1.079245 1.552682 0.076981 -0.029420 -371242.000000 0 0 1
15.450086 26.468571 -0.448789 30.651131 1.042438 1.585439 0.074918 -0.030751 -119682.000000 0 0 1
15.560386 27.354671 -1.532589 31.507974 1.053605 1.619457 0.071780 -0.015122 -351310.000000 0 0 1
16.488286 26.846271 -2.460789 31.601286 1.020020 1.648745 0.059816 -0.013510 -173426.000000 0 0 1
16.367586 27.336771 -3.920789 32.102484 1.031305 1.693236 0.057897 -0.017710 -283667.000000 0 0 1
15.290686 26.821271 -4.689189 31.227778 1.052656 1.721527 0.084218 -0.021418 -128415.000000 0 0 1
15.192786 27.326771 -6.004489 31.837510 1.063383 1.760531 0.088900 -0.023458 115333.000000 0 0 1
13.947386 26.861171 -6.785489 31.017655 1.091876 1.791342 0.107842 -0.037209 -76369.000000 0 0 1
13.933586 25.563771 -7.343289 30.026240 1.071760 1.817865 0.095959 -0.033083 440657.000000 0 0 1
12.634786 25.226971 -7.854389 29.287016 1.106473 1.842307 0.079489 -0.033032 541632.000000 0 0 1
12.466886 23.798871 -8.345889 28.132959 1.088256 1.871988 0.086262 -0.028168 -93810.300000 0 0 1
13.130786 23.361071 -9.527589 28.441732 1.058726 1.912387 0.081582 -0.031269 99033.100000 0 0 1
12.751886 22.061571 -9.833289 27.313313 1.046700 1.939084 0.086364 -0.027392 -359982.000000 0 0 1
13.209686 21.403171 -11.104389 27.493617 1.017838 1.986561 0.100044 -0.028977 -566111.000000 0 0 1
12.470786 20.269171 -11.440489 26.405389 1.019233 2.018907 0.106358 -0.028799 -301124.000000 0 0 1
12.565586 19.922871 -12.782989 26.799618 1.008100 2.068016 0.101153 -0.029839 363722.000000 0 0 1
13.934786 19.415671 -13.343989 27.371675 0.948284 2.080033 0.093200 -0.026912 149725.000000 0 0 1
14.834486 20.476271 -13.485689 28.656647 0.943834 2.060762 0.089741 -0.027985 -486540.000000 0 0 1
16.105186 19.990971 -13.892989 29.189571 0.892636 2.066849 0.071159 -0.018102 254699.000000 0 0 1
17.234986 20.901871 -13.374689 30.212832 0.881254 2.029384 0.064316 -0.011271 -192880.000000 0 0 1
17.572986 22.108571 -14.104289 31.567859 0.899204 2.033973 0.055359 -0.016489 99295.100000 0 0 1
16.559586 23.118271 -14.081289 31.732586 0.949215 2.030574 0.055383 -0.015668 154378.000000 0 0 1
16.947186 24.541971 -14.541889 33.181048 0.966448 2.024457 0.056326 -0.015117 -2570.350000 0 0 1
17.209886 24.761471 -15.896189 34.088113 0.963416 2.055930 0.052521 -0.014640 583555.000000 0 0 1
15.967086 24.720471 -16.615689 33.795423 0.997305 2.084786 0.056693 -0.013055 679301.000000 0 0 1
16.139286 24.706671 -18.137789 34.639219 0.992150 2.121891 0.046659 -0.002621 69527.200000 0 0 1
16.657086 23.507871 -18.633689 34.311701 0.954339 2.144886 0.034185 0.003259 -158768.000000 0 0 1
16.391186 23.392571 -20.003689 34.871635 0.959600 2.181737 0.038586 0.005178 -110932.000000 0 0 1
16.876886 22.031871 -20.618789 34.574081 0.917120 2.209762 0.051317 0.001324 -156003.000000 0 0 1
15.902986 20.999771 -20.565589 33.419138 0.922644 2.233669 0.061475 -0.000996 29975.000000 0 0 1
16.211086 19.910971 -21.389689 33.418032 0.887470 2.265378 0.048395 0.003473 54002.700000 0 0 1
15.122886 18.779071 -21.455289 32.275139 0.892829 2.297972 0.056562 -0.006207 -181427.000000 0 0 1
14.781986 18.130271 -20.250089 30.939941 0.886783 2.284313 0.056586 -0.010897 -135529.000000 0 0 1
14.159486 16.940171 -20.487089 30.119449 0.874573 2.318824 0.059768 -0.021653 62799.700000 0 0 1
12.663786 16.800371 -20.907889 29.660812 0.924880 2.353078 0.084181 -0.028069 -52046.600000 0 0 1
11.800186 16.747571 -19.806189 28.495800 0.956996 2.339295 0.084919 -0.022855 -783092.000000 0 0 1
10.573686 17.346371 -20.074189 28.559980 1.023376 2.350232 0.086360 -0.027206 -298177.000000 0 0 1
9.501486 16.923671 -19.031189 27.182256 1.059219 2.346380 0.086178 -0.036290 -439074.000000 0 0 1
9.205586 15.535271 -19.046789 26.246288 1.035865 2.382840 0.102526 -0.048150 1250150.000000 0 0 1
7.841386 15.150671 -18.722989 25.329439 1.093199 2.402647 0.109966 -0.040862 1329950.000000 0 0 1
7.399486 15.296571 -17.297989 24.247843 1.120245 2.365110 0.113861 -0.043561 -268282.000000 0 1 0
7.392386 16.609871 -16.842089 24.782880 1.152058 2.317994 0.115058 -0.045678 -642022.000000 0 1 0
6.837086 16.795971 -15.633789 23.942968 1.184213 2.282282 0.094021 -0.048978 -306718.000000 0 1 0
6.174286 18.199271 -15.474889 24.674024 1.243721 2.248715 0.078514 -0.038796 56167.700000 0 1 0
7.110086 19.261071 -15.224289 25.560148 1.217171 2.208841 0.071544 -0.035049 -50803.000000 0 0 1
7.799786 19.764671 -16.336889 26.802478 1.194925 2.226263 0.084705 -0.033206 -176678.000000 0 0 1
9.167286 20.386471 -15.984089 27.479782 1.148213 2.191573 0.074910 -0.020490 111726.000000 0 0 1
9.041186 21.618571 -15.296489 27.983713 1.174688 2.149120 0.069123 -0.028346 -19060.800000 0 0 1
8.804686 21.434171 -13.926989 27.035295 1.181033 2.111968 0.060934 -0.037017 -295873.000000 0 0 1
8.550586 22.672671 -13.080589 27.536600 1.210158 2.065789 0.063966 -0.035180 -150786.000000 0 0 1
7.362486 23.402371 -13.461189 27.983580 1.265996 2.072636 0.055298 -0.030358 577686.000000 0 0 1
6.817486 24.189071 -12.399389 28.023813 1.296081 2.029135 0.044303 -0.029300 16052.700000 0 0 1
6.236286 23.416871 -11.209989 26.700280 1.310521 2.004071 0.032823 -0.025745 -770178.000000 0 0 1
7.179886 22.986171 -10.256289 26.174535 1.268042 1.973429 0.033404 -0.022441 268064.000000 0 0 1
6.454686 22.710471 -9.058489 25.288034 1.293882 1.937149 0.041239 -0.031432 378490.000000 0 0 1
7.407286 22.580571 -7.848989 25.027119 1.253819 1.889799 0.031017 -0.031668 -88529.300000 0 0 1
7.852986 23.851971 -7.573189 26.228593 1.252736 1.863705 0.050388 -0.020005 77990.200000 0 0 1
8.843886 23.761771 -6.563689 26.190038 1.214492 1.824115 0.061494 -0.017459 -107974.000000 0 0 1
9.129486 25.006571 -5.709089 27.226270 1.220748 1.782055 0.054944 -0.020238 -60282.900000 0 0 1
9.751786 26.032671 -6.418389 28.530562 1.212378 1.797704 0.062664 -0.027363 -97130.500000 0 0 1
9.975286 27.109771 -5.600689 29.424713 1.218213 1.762304 0.059194 -0.019458 109919.000000 0 0 1
10.124186 28.457971 -6.371489 30.869906 1.229000 1.778689 0.059835 -0.015636 347354.000000 0 0 1
11.286586 28.505871 -7.181689 31.488861 1.193796 1.800892 0.064112 -0.017786 -62631.200000 0 0 1
11.257986 29.751371 -7.908589 32.778531 1.209046 1.814474 0.063542 -0.011829 900282.000000 0 0 1
12.654086 29.971371 -8.614189 33.654319 1.171295 1.829638 0.065791 -0.018071 971569.000000 0 0 1
13.739186 30.221671 -7.774689 34.096340 1.144112 1.800841 0.071043 -0.019703 -889697.000000 0 0 1
14.838386 30.769171 -8.434989 35.186199 1.121451 1.812878 0.067389 -0.018812 -19207.400000 0 0 1
15.942686 31.190471 -7.429289 35.807947 1.098277 1.779790 0.064521 -0.023382 229275.000000 0 0 1
16.723486 30.083071 -6.916989 35.107134 1.063427 1.769119 0.067835 -0.029281 -1249860.000000 0 0 1
17.794586 30.633971 -6.315189 35.985679 1.044556 1.747202 0.062230 -0.020864 -1509110.000000 0 0 1
18.993286 29.712471 -6.087089 35.785870 1.002025 1.741725 0.061073 -0.021791 -568270.000000 0 0 1
18.883486 28.818971 -5.005489 34.816290 0.990743 1.715065 0.057705 -0.026777 -147566.000000 0 0 1
19.976186 27.957671 -4.744589 34.687036 0.950395 1.708009 0.046533 -0.018792 -532461.000000 0 0 1
20.068986 26.774771 -5.772489 33.955473 0.927584 1.741628 0.039023 -0.003936 -341102.000000 0 0 1
20.518286 27.134571 -7.039889 34.739675 0.923360 1.774857 0.036629 -0.011251 40870.800000 0 0 1
20.417386 26.076971 -7.931789 34.055709 0.906529 1.805861 0.032723 -0.009389 -694301.000000 0 0 1
21.035486 26.365571 -9.319289 34.992630 0.897374 1.840371 0.035337 -0.017590 -291149.000000 0 0 1
22.427386 26.439671 -9.399289 35.922005 0.867321 1.835536 0.020879 -0.010143 123733.000000 0 0 1
23.122586 25.141171 -9.354289 35.415183 0.827198 1.838100 0.031915 -0.006904 723620.000000 0 0 1
24.692186 25.198371 -9.323189 36.490873 0.795544 1.829155 0.015264 -0.002899 955567.000000 0 0 1
25.252886 25.527871 -10.589389 37.436821 0.790813 1.857571 0.028462 -0.005808 -710482.000000 0 0 1
26.618186 25.720771 -10.450989 38.461787 0.768254 1.845980 0.034321 0.006944 -732493.000000 0 0 1
27.518986 25.814471 -11.693189 39.502052 0.753449 1.871314 0.042974 -0.003362 63480.800000 0 0 1
27.313986 26.954071 -12.518489 40.364444 0.778766 1.886133 0.032883 -0.000657 60605.600000 0 0 1
28.102786 26.776971 -13.688589 41.160056 0.761244 1.909823 0.041203 -0.004574 235087.000000 0 0 1
28.035086 27.844471 -14.811989 42.198052 0.781987 1.929447 0.049619 -0.015221 -94754.500000 0 0 1
28.295586 29.144671 -14.337489 43.076857 0.800179 1.910105 0.048161 -0.016349 160305.000000 0 0 1
28.517486 30.056471 -15.424989 44.210505 0.811666 1.927192 0.057904 -0.015451 -143791.000000 0 0 1
29.011386 31.483671 -15.041289 45.377554 0.826243 1.908657 0.056864 -0.025331 247961.000000 0 0 1
30.323186 31.564871 -14.506689 46.111611 0.805459 1.890831 0.052085 -0.024553 273614.000000 0 0 1
30.589986 32.926871 -14.386289 47.189950 0.822173 1.880587 0.051053 -0.030205 -149705.000000 0 0 1
15.790686 -32.233338 -28.203274 45.648204 -1.115272 2.236789 0.114769 -0.041117 449728.000000 0 0 1
17.034286 -32.854638 -27.843224 46.312409 -1.092479 2.215804 0.090656 -0.033066 584457.000000 0 0 1
17.546886 -32.101838 -26.813064 45.358148 -1.070567 2.203269 0.086779 -0.034380 -603011.000000 0 0 1
18.813786 -32.693838 -26.148924 45.897841 -1.048621 2.176962 0.040637 -0.028061 140303.000000 0 0 1
20.043386 -32.185638 -26.620304 46.328104 -1.013822 2.182916 0.079972 -0.043323 182358.000000 0 0 1
20.577486 -32.808738 -27.758674 47.648612 -1.010620 2.192684 0.084296 -0.033561 -786819.000000 0 0 1
22.073686 -32.509538 -27.906494 48.196370 -0.974310 2.188318 0.094640 -0.032774 -444552.000000 0 0 1
22.311086 -31.139738 -28.183284 47.558021 -0.949094 2.205090 0.088090 -0.043065 504918.000000 0 0 1
23.526186 -30.665038 -27.607034 47.497098 -0.916378 2.191043 0.051696 -0.032795 418945.000000 0 0 1
24.202586 -29.384238 -28.320654 47.447424 -0.881795 2.210409 0.027426 -0.022215 301125.000000 0 0 1
24.529886 -29.698538 -29.653294 48.611072 -0.880424 2.226871 0.028890 -0.022974 -300720.000000 0 0 1
25.192386 -28.686138 -30.315164 48.749974 -0.850152 2.241899 0.024136 -0.028312 -120111.000000 0 0 1
25.350386 -29.039338 -31.799304 49.971201 -0.853119 2.260557 0.029184 -0.014182 114930.000000 0 0 1
26.490986 -29.815738 -32.114054 51.206084 -0.844377 2.248689 0.040523 -0.020022 -144085.000000 0 0 1
26.604686 -30.022938 -33.502554 52.264780 -0.845689 2.266617 0.034925 -0.016978 -372488.000000 0 0 1
27.918986 -30.725538 -33.811974 53.542302 -0.833219 2.254283 0.026963 -0.014945 -878027.000000 0 0 1
29.047286 -29.933138 -33.689634 53.616499 -0.800416 2.250220 0.025328 -0.018536 -1444220.000000 0 0 1
30.120486 -30.704738 33.791202 54.697989 -0.795003 0.904883 0.019385 -0.007800 -4023.760000 0 0 1
31.508386 -30.029238 33.568934 54.967325 -0.761366 0.913843 0.026827 -0.015415 795265.000000 0 0 1
31.364586 -29.228238 32.395243 53.735267 -0.750155 0.923706 0.036546 -0.008918 295288.000000 0 0 1
32.559186 -28.483538 32.241759 53.953161 -0.718730 0.930307 0.046668 -0.013224 274748.000000 0 0 1
32.520886 -27.585738 31.033921 52.741684 -0.703475 0.941701 0.050488 -0.017619 524973.000000 0 0 1
33.740386 -26.821438 30.920461 53.046000 -0.671645 0.948504 0.058994 -0.020870 778376.000000 0 0 1
33.855486 -26.043838 29.783151 52.072176 -0.655717 0.961904 0.050674 -0.014244 368463.000000 0 0 1
34.695986 -26.644738 28.559151 52.243455 -0.654890 0.992432 0.050833 -0.012130 384359.000000 0 0 1
34.002586 -27.629038 27.798511 51.887347 -0.682351 1.005404 0.039085 -0.019281 811852.000000 0 0 1
33.045586 -27.090938 26.868511 50.476198 -0.686701 1.009480 0.053041 -0.022320 434651.000000 0 0 1
32.289386 -28.204038 26.083861 50.184061 -0.717967 1.024222 0.051693 -0.017338 -123684.000000 0 0 1
31.162686 -27.725438 25.402051 48.837251 -0.727095 1.023785 0.062913 -0.015618 -169228.000000 0 0 1
30.578086 -28.759938 24.618151 48.664224 -0.754767 1.040397 0.068362 -0.011012 -58487.100000 0 0 1
29.202686 -28.387538 24.021111 47.282798 -0.771245 1.037899 0.086468 -0.013213 34638.900000 0 0 1
28.241486 -28.271138 25.053181 47.164612 -0.785923 1.010797 0.074577 -0.013173 237590.000000 0 0 1
26.940686 -28.002838 24.539481 45.958086 -0.804727 1.007527 0.070276 -0.005677 777278.000000 0 0 1
25.786686 -28.008138 25.575411 45.864045 -0.826670 0.979262 0.075049 -0.010053 196693.000000 0 0 1
25.802386 -26.971038 26.532801 45.795082 -0.807539 0.952827 0.056875 -0.009381 -17261.000000 0 0 1
24.652586 -27.020538 27.346461 45.669338 -0.831192 0.928804 0.044377 -0.013125 -91836.600000 0 0 1
24.539186 -25.721938 28.250241 45.407773 -0.808926 0.899316 0.037929 -0.006338 428904.000000 0 0 1
23.353186 -25.695938 29.076571 45.289066 -0.833125 0.873664 0.044929 -0.010472 712075.000000 0 0 1
23.237286 -24.741238 30.073461 45.348797 -0.816734 0.845765 0.034797 -0.011140 -319571.000000 0 0 1
22.815586 -23.309038 29.609821 44.052284 -0.796096 0.833685 0.043666 -0.007528 215831.000000 0 0 1
23.761686 -22.659138 28.700631 43.609408 -0.761651 0.852465 0.053885 -0.009497 849814.000000 0 0 1
23.380686 -21.294538 28.368071 42.483659 -0.738736 0.839627 0.065611 -0.001911 -40834.700000 0 0 1
23.988786 -20.195038 29.253631 42.884453 -0.699745 0.820097 0.048989 -0.001374 -111928.000000 0 0 1
23.527786 -20.266038 30.603421 43.598605 -0.711056 0.792685 0.037208 -0.002483 217548.000000 0 0 1
24.273486 -19.400738 31.447981 44.210477 -0.674287 0.779416 0.047083 -0.007983 -94795.700000 0 0 1
23.695486 -19.225038 32.860395 44.842878 -0.681616 0.748384 0.048057 -0.001588 -167852.000000 0 0 1
23.916086 -20.193238 33.874311 46.121741 -0.701197 0.745934 0.030032 -0.001157 -170491.000000 0 0 1
23.183386 -19.807138 -32.888414 44.849079 -0.707024 2.393978 0.048773 -0.005522 -264703.000000 0 0 1
23.051486 -20.826338 -31.751494 44.421445 -0.734729 2.367104 0.029112 0.004940 -143821.000000 0 0 1
24.265786 -20.932138 -31.051814 44.622841 -0.711775 2.340431 0.033324 -0.001195 -123705.000000 0 0 1
24.178786 -22.094238 -30.244894 44.581640 -0.740380 2.316401 0.038008 -0.012106 -240820.000000 0 0 1
25.423786 -22.424738 -29.429204 44.892269 -0.722802 2.285709 0.024148 -0.000322 359511.000000 0 0 1
26.539886 -22.917338 -30.195894 46.274852 -0.712283 2.281719 0.023092 0.002651 216298.000000 0 0 1
27.386986 -23.662938 -29.385994 46.621007 -0.712578 2.252757 0.032962 -0.009696 -358474.000000 0 0 1
28.529886 -24.450438 -30.017534 48.091898 -0.708551 2.244865 0.035389 -0.009480 -389675.000000 0 0 1
29.566686 -23.793438 -30.703874 48.816437 -0.677623 2.251019 0.037082 -0.002828 -213420.000000 0 0 1
29.280486 -23.484238 -32.046834 49.354391 -0.675986 2.277487 0.030854 -0.005525 -179457.000000 0 0 1
29.489586 -24.615438 -32.999564 50.641156 -0.695554 2.280535 0.027995 -0.008510 -551381.000000 0 0 1
28.424586 -25.503238 -32.913334 50.414877 -0.731280 2.282137 0.027095 -0.016024 -425405.000000 0 0 1
28.570786 -26.677738 -33.682124 51.599196 -0.751147 2.282024 0.031715 -0.014545 -526660.000000 0 0 1
28.297986 -26.539938 32.695976 50.736290 -0.753350 0.870519 0.027231 -0.021644 -246302.000000 0 0 1
29.245386 -26.039238 31.771831 50.426023 -0.727470 0.889155 0.021450 -0.018699 -221542.000000 0 0 1
28.745586 -26.110738 30.467001 49.359067 -0.737403 0.905551 0.018659 -0.018467 -1008220.000000 0 0 1
29.733386 -25.610238 29.436171 49.055547 -0.711035 0.927223 0.032749 -0.016407 -592536.000000 0 0 1
30.019886 -24.222538 29.308241 48.444792 -0.678924 0.921053 0.020346 -0.019620 325667.000000 0 0 1
30.522986 -23.663438 30.529941 49.230969 -0.659476 0.901879 0.025065 -0.007359 -1921550.000000 0 0 1
30.989886 -22.176838 30.423481 48.762418 -0.621129 0.897057 0.027618 -0.000619 724188.000000 0 0 1
32.289286 -21.937438 29.885301 49.162795 -0.596768 0.917403 0.046371 -0.009851 373456.000000 0 0 1
33.351786 -22.555538 30.554001 50.543456 -0.594637 0.921646 0.043410 -0.010509 -2653090.000000 0 0 1
34.686886 -21.974538 30.311971 51.037985 -0.564696 0.934886 0.047009 -0.015995 -1419030.000000 0 0 1
35.249586 -22.421138 29.090221 50.906598 -0.566519 0.962533 0.073935 -0.025192 159701.000000 0 0 1
36.591886 -21.981638 28.987791 51.598939 -0.540952 0.974248 0.061633 -0.025979 25121.200000 0 0 1
-37.151857 -22.191038 27.607831 51.331228 0.538436 1.002927 0.069080 -0.027285 -379414.000000 0 0 1
-36.946457 -23.575238 27.333811 51.652394 0.567958 1.013153 0.065070 -0.022534 127607.000000 0 0 1
-36.512157 -23.754838 26.044051 50.751577 0.576797 1.031925 0.042432 -0.009038 -155936.000000 0 0 1
-36.261357 -25.267938 25.691851 51.121678 0.608594 1.044236 0.041095 -0.014411 -576517.000000 0 0 1
36.851586 -25.955938 25.659751 51.866877 -0.613631 1.053280 0.050424 -0.012724 -472585.000000 0 0 1
36.959686 -27.309538 25.389071 52.501754 -0.636360 1.066050 0.032092 -0.006089 246691.000000 0 0 1
-36.514257 -28.231838 26.337831 53.141406 0.658168 1.052250 0.022923 -0.008475 -356186.000000 0 0 1
-36.312257 -29.563238 25.837611 53.480344 0.683303 1.066578 0.021833 -0.008536 915359.000000 0 0 1
-35.153457 -30.266138 26.339541 53.343942 0.710829 1.054379 0.022231 -0.021700 1948670.000000 0 0 1
-33.711257 -29.638638 26.174981 51.961788 0.721199 1.042879 0.020078 -0.019306 261524.000000 0 0 1
-33.394557 -29.539538 24.833281 51.034034 0.724220 1.062600 0.020337 -0.018213 -689695.000000 0 0 1
-32.076457 -29.094738 24.735901 49.872515 0.736693 1.051830 0.000635 -0.007618 -430096.000000 0 0 1
-31.545057 -29.303438 23.287121 48.949690 0.748575 1.074996 0.012095 -0.006416 -284664.000000 0 0 1
-31.327357 -30.604438 22.798411 49.374108 0.773726 1.090831 0.023855 -0.011956 376828.000000 0 0 1
-31.075257 -30.690138 21.419211 48.645029 0.779163 1.114845 0.022586 -0.009591 -536527.000000 0 0 1
-31.123457 -32.106638 20.840511 49.333890 0.800946 1.134663 0.040822 -0.017817 -514008.000000 0 0 1
-30.085157 -32.978538 21.133711 49.389619 0.831246 1.128631 0.065628 -0.030958 -653519.000000 0 0 1
-28.912157 -32.773738 20.400011 48.230604 0.847917 1.134078 0.072410 -0.030797 -249527.000000 0 0 1
-28.047957 33.978271 20.303511 48.512301 -0.880718 1.138978 0.071525 -0.026454 87644.500000 0 0 1
-28.462457 32.994271 19.377511 47.688797 -0.859005 1.152360 0.072543 -0.021656 906609.000000 0 0 1
-29.563457 32.082271 19.713211 47.873592 -0.826235 1.146394 0.085566 -0.023286 986047.000000 0 0 1
-29.422657 31.144271 20.962111 47.697678 -0.813815 1.115778 0.090356 -0.024435 -308361.000000 0 0 1
-28.351957 30.256071 20.812811 46.394358 -0.817876 1.105591 0.087655 -0.028035 -410396.000000 0 0 1
-28.155457 29.289571 21.897911 46.153302 -0.805138 1.076445 0.088759 -0.027780 -414902.000000 0 0 1
-27.146457 28.207171 21.594811 44.709177 -0.804558 1.066712 0.088193 -0.028411 -430019.000000 0 0 1
-25.820257 28.680471 21.550911 44.200643 -0.837830 1.061492 0.081280 -0.025988 -381483.000000 0 0 1
-25.024657 27.695571 20.917611 42.788136 -0.836017 1.060008 0.071147 -0.031528 68015.200000 0 0 1
-23.509957 28.029971 20.948411 42.157245 -0.872874 1.050760 0.057048 -0.028953 -32260.100000 0 0 1
-23.037657 27.950571 22.217411 42.492134 -0.881456 1.020594 0.069257 -0.027939 68761.000000 0 0 1
-21.659357 28.250571 22.331911 42.023050 -0.916701 1.010520 0.077503 -0.029760 66809.300000 0 0 1
-21.209557 28.556471 23.760091 42.776854 -0.931969 0.981901 0.070234 -0.021980 -322646.000000 0 0 1
-20.775457 27.405171 24.463021 42.203109 -0.922141 0.952498 0.077434 -0.031584 309201.000000 0 0 1
-20.660757 27.461571 25.852471 43.004128 -0.925792 0.925841 0.087490 -0.025733 753436.000000 0 0 1
-19.235457 27.923071 26.364071 42.950727 -0.967577 0.909904 0.101848 -0.022752 569934.000000 0 0 1
-18.845057 29.233871 25.974091 43.409778 -0.998205 0.929360 0.082754 -0.020697 1198390.000000 0 0 1
-17.594757 29.746971 26.516961 43.561531 -1.036665 0.916345 0.100475 -0.023004 951863.000000 0 0 1
-17.426557 29.958471 28.064981 44.596390 -1.043949 0.890131 0.084240 -0.012007 -366959.000000 0 0 1
-17.320157 28.724471 28.796971 44.208015 -1.028192 0.861372 0.089213 -0.008363 291498.000000 0 0 1
-17.568457 28.901271 30.186951 45.334161 -1.024604 0.842128 0.083371 0.000932 -65550.900000 0 0 1
-17.203557 27.624071 31.023501 44.961198 -1.013799 0.809299 0.070772 0.008101 -164134.000000 0 0 1
-15.825057 27.356571 31.178081 44.394675 -1.046355 0.792183 0.076226 0.012731 308984.000000 0 0 1
-15.511457 26.249471 32.108413 44.278553 -1.037077 0.759550 0.076617 0.011303 -203621.000000 0 0 1
-15.851257 26.443771 33.596526 45.598925 -1.030794 0.742496 0.084249 0.021102 -859190.000000 0 0 1
-17.201157 26.190471 33.783142 46.077340 -0.989675 0.747805 0.080051 0.010904 -1010940.000000 0 0 1
-17.707757 26.685771 -32.878224 45.898504 -0.984944 2.369317 0.081742 0.012783 216741.000000 0 0 1
-19.045257 25.958071 -32.574404 45.799946 -0.937814 2.362046 0.051573 0.006640 -399537.000000 0 0 1
-20.074057 26.315771 -33.434634 47.046385 -0.919144 2.361252 0.044239 0.005208 -519029.000000 0 0 1
-21.255857 25.724671 -32.906354 46.865748 -0.880233 2.349196 0.049809 -0.000359 370144.000000 0 0 1
-22.475557 25.797071 -33.892474 48.159520 -0.854097 2.351465 0.076010 -0.018131 104543.000000 0 0 1
-22.601557 24.849771 32.848501 46.982609 -0.832742 0.796570 0.075358 -0.015272 -10153.200000 0 0 1
-22.703557 23.506071 33.218758 46.599064 -0.802763 0.777224 0.060463 -0.016102 -446397.000000 0 0 1
-22.831757 22.539271 31.962876 45.287231 -0.778952 0.787271 0.064729 -0.013259 -259570.000000 0 0 1
-24.089057 22.761071 31.375301 45.637250 -0.757060 0.812765 0.081445 -0.018250 -454432.000000 0 0 1
-24.305957 22.101671 30.162651 44.598755 -0.737935 0.828053 0.089916 -0.015567 -9428.500000 0 0 1
-25.798657 21.941971 29.838361 45.136998 -0.704789 0.848563 0.103816 -0.021773 34584.400000 0 0 1
-26.425057 20.921771 30.587241 45.514651 -0.669684 0.833849 0.103294 -0.028868 479049.000000 0 0 1
-27.700057 20.542971 30.046191 45.739266 -0.638118 0.854095 0.119547 -0.029680 554020.000000 0 0 1
-28.240157 19.272971 30.726571 45.968207 -0.598862 0.838699 0.137033 -0.033601 -498595.000000 0 0 1
-28.777557 19.493271 31.979790 47.231794 -0.595381 0.827006 0.141950 -0.029283 83806.800000 0 0 1
-29.058957 18.362571 32.855476 47.550913 -0.563551 0.807989 0.117889 -0.020577 32047.500000 0 0 1
-29.938157 17.189071 32.364296 47.320240 -0.521197 0.817644 0.095059 -0.020075 -1048960.000000 0 0 1
-31.278857 17.412271 32.123807 48.098785 -0.507956 0.839451 0.081742 -0.024231 -828019.000000 0 0 1
-31.861257 16.190771 31.706311 47.776259 -0.470158 0.845120 0.079294 -0.017413 -316472.000000 0 0 1
-33.362357 16.263671 31.401211 48.616766 -0.453586 0.868604 0.061620 -0.009658 -303710.000000 0 0 1
-34.117457 16.471671 32.573299 49.963353 -0.449788 0.860651 0.061436 -0.011513 472147.000000 0 0 1
-35.526657 16.551771 32.401116 50.852107 -0.435995 0.879984 0.073276 -0.017159 155225.000000 0 0 1
-36.059057 17.121771 33.724556 52.256639 -0.443306 0.869297 0.076246 -0.010963 -1419480.000000 0 0 1
36.881086 17.130171 33.711171 52.821400 0.434822 0.878625 0.060738 -0.017968 -1308590.000000 0 0 1
36.495686 17.563371 -32.868004 52.160452 0.448531 2.252520 0.059090 -0.017066 -535067.000000 0 0 1
35.042886 17.958071 -32.663564 51.160576 0.473566 2.263281 0.045473 -0.019964 -621910.000000 0 0 1
34.192086 16.858371 -32.638614 50.185481 0.458071 2.278854 0.047931 -0.011460 623937.000000 0 0 1
32.978386 17.107671 -31.874214 48.951117 0.478538 2.279887 0.039457 -0.015742 1077010.000000 0 0 1
32.014386 15.882771 -31.893414 47.899616 0.460534 2.299414 0.047970 -0.014796 83796.400000 0 0 1
31.333686 15.653771 -33.143214 48.221500 0.463314 2.328578 0.058727 -0.020537 289144.000000 0 0 1
30.514786 14.512071 -33.157574 47.341072 0.443917 2.346751 0.059688 -0.026160 -153616.000000 0 0 1
31.248486 13.231571 -33.533754 47.708018 0.400541 2.350257 0.062859 -0.019383 312511.000000 0 0 1
32.248886 12.781471 -32.618514 47.616427 0.377346 2.325436 0.060802 -0.013516 355049.000000 0 0 1
32.906186 11.628071 -33.044574 48.062178 0.339674 2.328889 0.076650 -0.010601 -96697.300000 0 0 1
17.566786 -20.835529 9.949046 29.011976 -0.870312 1.220763 0.007597 -0.002932 -208651.000000 0 0 1
17.608386 -22.083129 10.522446 30.140367 -0.897662 1.214170 0.014415 -0.012264 643721.000000 0 0 1
18.884986 -22.753929 10.479446 31.372006 -0.878049 1.230212 0.012333 -0.015504 436870.000000 0 0 1
18.866186 -24.099829 11.181146 32.584548 -0.906610 1.220536 0.025738 -0.007047 -125972.000000 0 0 1
18.123286 -25.089789 10.536046 32.694943 -0.945236 1.242688 0.024380 -0.013058 -157130.000000 0 0 1
16.783886 -25.125109 11.008946 32.158464 -0.981863 1.221396 0.035652 -0.013642 99499.800000 0 0 1
15.934386 -26.195639 10.256546 32.331299 -1.024308 1.247986 0.069546 -0.019877 9178.370000 0 0 1
15.576886 -25.641359 9.013046 31.326565 -1.024887 1.278959 0.063841 -0.026102 -49756.500000 0 0 1
14.728486 -26.418349 8.211446 31.341431 -1.062206 1.305703 0.082303 -0.019584 -196206.000000 0 0 1
14.546186 -25.842889 6.793046 30.423542 -1.058126 1.345616 0.086946 -0.023745 -417895.000000 0 0 1
13.638286 -24.781229 6.778746 29.087172 -1.067686 1.335584 0.092193 -0.027423 -64792.600000 0 0 1
13.526686 -24.138629 5.496946 28.211009 -1.060023 1.374691 0.100740 -0.022814 -59802.600000 0 0 1
12.681486 -22.852429 5.675446 26.744425 -1.064176 1.356960 0.108127 -0.022972 -7419.220000 0 0 1
12.198486 -22.252129 4.492846 25.771030 -1.069341 1.395564 0.107386 -0.023410 -77428.000000 0 0 1
11.533986 -21.051829 4.850346 24.489553 -1.069578 1.371420 0.106268 -0.022254 -9192.180000 0 1 0
10.600786 -20.593229 3.680146 23.452105 -1.095402 1.413223 0.080755 -0.023886 20442.700000 0 1 0
11.230386 -19.916229 2.614146 23.013290 -1.057358 1.456958 0.063730 -0.025391 256204.000000 0 1 0
10.277486 -19.545529 1.634646 22.143317 -1.086704 1.496908 0.041475 -0.011039 66684.700000 0 1 0
11.120186 -19.098529 0.445546 22.104544 -1.043528 1.550639 0.041141 -0.005108 -158054.000000 0 1 0
11.844486 -17.947029 0.732346 21.515669 -0.987445 1.536752 0.034113 -0.007319 -793500.000000 0 1 0
12.463486 -17.568329 -0.434554 21.544686 -0.953770 1.590968 0.034587 -0.012746 -580415.000000 0 1 0
13.726286 -16.711429 -0.195654 21.626860 -0.883159 1.579843 0.035827 -0.005646 -349356.000000 0 1 0
14.707386 -17.469929 0.445346 22.840840 -0.871042 1.551297 0.046482 -0.008649 -469383.000000 0 1 0
15.980886 -16.862429 0.282446 23.233812 -0.812233 1.558639 0.053839 -0.009764 747704.000000 0 1 0
17.126086 -17.493329 1.151846 24.508083 -0.796006 1.523780 0.043777 -0.007090 347696.000000 0 1 0
17.720686 -18.613429 0.530046 25.705318 -0.809964 1.550175 0.069145 -0.018230 723148.000000 0 0 1
18.971886 -18.962529 1.149446 26.848299 -0.785152 1.527971 0.059948 -0.006620 930028.000000 0 0 1
19.610886 -20.308229 0.760946 28.241637 -0.802865 1.543849 0.057307 -0.014229 -9413.330000 0 0 1
18.747886 -21.386529 1.013746 28.458646 -0.851049 1.535167 0.065038 -0.012731 -102992.000000 0 0 1
19.013486 -22.492629 0.212146 29.452946 -0.869025 1.563593 0.079743 -0.020583 -79566.600000 0 0 1
17.860086 -23.517529 0.331546 29.532470 -0.921283 1.559570 0.078266 -0.019960 40559.100000 0 0 1
17.788886 -24.215129 1.566046 30.087696 -0.937212 1.518723 0.056723 -0.017546 -472360.000000 0 0 1
16.647286 -25.005129 1.668946 30.086109 -0.983425 1.515296 0.067023 -0.020882 -692663.000000 0 0 1
16.562786 -25.861379 2.997746 30.856495 -1.001168 1.473492 0.064769 -0.022087 905259.000000 0 0 1
17.629686 -26.840789 3.119546 32.263995 -0.989639 1.473957 0.050743 -0.022924 1711790.000000 0 0 1
18.882686 -26.278699 3.607646 32.559806 -0.947726 1.459768 0.040131 -0.017147 317410.000000 0 0 1
19.995386 -27.308059 3.689846 34.046446 -0.938775 1.462206 0.042604 -0.015725 -532013.000000 0 0 1
20.584286 -27.651389 2.454546 34.559180 -0.930875 1.499712 0.060101 -0.012894 -80941.800000 0 0 1
21.683886 -28.533749 2.533446 35.927484 -0.920965 1.500222 0.082479 -0.010803 7906.530000 0 0 1
21.291986 -30.040009 2.766446 36.924301 -0.954197 1.495804 0.072226 -0.007611 -50313.600000 0 0 1
20.971186 -30.228549 4.108146 37.019355 -0.964274 1.459594 0.084437 -0.015584 -125817.000000 0 0 1
20.422786 -31.538509 4.269846 37.815332 -0.996145 1.457642 0.065464 -0.024310 -219416.000000 0 0 1
20.120586 -31.993419 5.665346 38.216658 -1.009399 1.422005 0.080383 -0.029888 -337113.000000 0 0 1
21.147486 -32.619769 6.394546 39.397407 -0.995615 1.407766 0.062779 -0.030069 -162383.000000 0 0 1
20.717786 -33.430049 7.493646 40.036852 -1.015992 1.382517 0.066360 -0.026101 418055.000000 0 0 1
21.935686 33.882100 8.107746 41.169243 0.996242 1.372564 0.071372 -0.033511 464711.000000 0 0 1
22.823586 -33.409579 8.860246 41.420043 -0.971472 1.355218 0.064222 -0.026662 -293238.000000 0 0 1
23.959286 33.944391 9.253746 42.566429 0.956162 1.351651 0.077647 -0.031771 -11863.800000 0 0 1
24.988586 -33.355099 10.126346 42.889800 -0.927828 1.332444 0.062849 -0.028773 208732.000000 0 0 1
25.857986 -32.414029 9.534746 42.546634 -0.897435 1.344776 0.056679 -0.030493 -9798.150000 0 0 1
26.690486 -31.700829 10.384746 42.721980 -0.870995 1.325259 0.048068 -0.023875 -34005.200000 0 0 1
27.355386 -30.558679 9.568646 42.115424 -0.840653 1.341594 0.055557 -0.029099 -401510.000000 0 0 1
26.434186 -29.547579 9.224246 40.705188 -0.840955 1.342200 0.040543 -0.023920 103474.000000 0 0 1
26.894586 -28.839129 8.118946 40.260792 -0.820274 1.367745 0.047955 -0.020184 -156610.000000 0 0 1
26.355386 -27.387969 8.168446 38.877123 -0.804609 1.359110 0.042640 -0.012742 50027.700000 0 0 1
26.964386 -26.735059 9.266646 39.085959 -0.781128 1.331433 0.045918 -0.018301 8594.370000 0 0 1
26.523986 -25.418169 9.454146 37.933969 -0.764112 1.318915 0.038181 -0.010915 -285113.000000 0 0 1
27.401986 -24.655329 10.443946 38.312271 -0.732685 1.294701 0.038768 -0.017432 -59319.700000 0 0 1
28.689286 -24.383729 9.955146 38.945427 -0.704450 1.312310 0.055031 -0.016751 -450883.000000 0 0 1
29.539686 -23.686529 10.852446 39.388073 -0.675871 1.291659 0.050229 -0.022246 477990.000000 0 0 1
30.874586 -23.383729 10.116246 40.029705 -0.648206 1.315307 0.072511 -0.026898 200407.000000 0 0 1
30.846186 -22.405329 9.118346 39.199875 -0.628197 1.336034 0.080558 -0.023477 -307202.000000 0 0 1
32.120286 -22.130129 8.571846 39.936599 -0.603289 1.354477 0.088991 -0.030763 114948.000000 0 0 1
32.019986 -21.347229 7.213346 39.153749 -0.588015 1.385507 0.092031 -0.009346 -17717.900000 0 0 1
31.655686 -19.956429 7.342846 38.134746 -0.562489 1.377036 0.090667 -0.007058 65712.800000 0 0 1
31.927986 -19.112029 6.219946 37.727359 -0.539388 1.405175 0.080640 -0.008308 -45509.900000 0 0 1
31.618886 -17.596429 6.457346 36.757116 -0.507832 1.394204 0.092705 -0.007663 -385362.000000 0 0 1
32.412586 -16.978629 7.406046 37.332279 -0.482528 1.371090 0.097721 -0.014509 -297969.000000 0 0 1
32.008886 -15.676729 7.713746 36.466841 -0.455424 1.357659 0.101365 -0.017091 -270061.000000 0 0 1
32.633686 -15.198929 9.008146 37.109454 -0.435869 1.325602 0.097368 -0.030143 -122947.000000 0 0 1
34.036086 -15.050229 8.960046 38.278544 -0.416336 1.334529 0.088040 -0.030423 -163015.000000 0 0 1
34.513086 -14.545329 10.199446 38.816857 -0.398855 1.304917 0.087607 -0.039669 272498.000000 0 0 1
36.059786 -14.653129 10.190346 40.235128 -0.385974 1.314737 0.081921 -0.046480 -74039.800000 0 0 1
36.803186 -13.751129 9.418146 40.401355 -0.357577 1.335517 0.098033 -0.038367 -505954.000000 0 0 1
-36.228557 -14.291029 9.309546 40.042596 0.375729 1.336158 0.102734 -0.045007 42911.300000 0 0 1
-35.185557 -13.348429 8.629246 38.609168 0.362598 1.345390 0.112278 -0.035989 -73504.200000 0 0 1
-35.514657 -13.131929 7.302346 38.562452 0.354170 1.380282 0.130448 -0.040197 -194361.000000 0 0 1
-34.541157 -12.540529 6.447146 37.308472 0.348262 1.397118 0.110916 -0.028043 62479.800000 0 0 1
-33.530257 -13.504129 5.768946 36.604923 0.382870 1.412536 0.087753 -0.022161 482644.000000 0 0 1
-32.605757 -14.087429 6.719146 36.148831 0.407830 1.383835 0.094952 -0.017018 502963.000000 0 0 1
-31.774457 -15.002829 6.007146 35.648097 0.441134 1.401476 0.095820 -0.009743 -32975.400000 0 0 1
-31.092657 -15.989829 6.973446 35.651885 0.474993 1.373929 0.091236 -0.028006 -615189.000000 0 0 1
-31.909557 -16.897229 7.591646 36.896738 0.486996 1.363562 0.106613 -0.036133 -619475.000000 0 0 1
-32.074157 -16.708729 8.979446 37.263436 0.480259 1.327429 0.078546 -0.030590 270164.000000 0 0 1
-33.213857 -17.581429 9.564346 38.778134 0.486843 1.321582 0.050678 -0.025852 619058.000000 0 0 1
-34.574557 -17.097429 9.450146 39.711804 0.459245 1.330523 0.072626 -0.032296 1368440.000000 0 0 1
-35.573257 -17.823429 10.151446 41.063160 0.464475 1.320991 0.096929 -0.037482 199717.000000 0 0 1
-35.763557 -19.358729 9.747746 41.818787 0.496137 1.335537 0.099120 -0.036790 -1131380.000000 0 0 1
-34.753557 -20.316529 10.062746 41.494939 0.529010 1.325849 0.101948 -0.031854 -206119.000000 0 0 1
-34.382857 -20.578129 11.418246 41.665533 0.539316 1.293199 0.115753 -0.043747 -895655.000000 0 0 1
-35.420557 -21.032029 12.455146 43.035948 0.535834 1.277183 0.137838 -0.053905 -293189.000000 0 0 1
-35.803557 -22.367829 12.339746 43.982767 0.558411 1.286420 0.144394 -0.060311 -605507.000000 0 0 1
-36.820057 -22.602629 11.444646 44.694243 0.550554 1.311847 0.130629 -0.044800 -1038730.000000 0 0 1
36.851386 -24.008529 11.569146 45.478338 -0.577426 1.313581 0.151719 -0.043999 -141064.000000 0 0 1
36.175686 -24.214529 12.752446 45.361311 -0.589864 1.285824 0.202438 -0.050185 -278609.000000 0 0 1
35.476686 -25.426019 12.770446 45.477049 -0.621844 1.286158 0.158692 -0.042310 -259280.000000 0 0 1
34.279886 -25.491859 13.733446 44.872631 -0.639418 1.259751 0.171118 -0.042621 -532878.000000 0 0 1
33.212686 -24.713429 13.304046 43.483718 -0.639712 1.259855 0.142204 -0.043193 -954295.000000 0 0 1
32.292586 -24.422029 14.289946 42.935407 -0.647504 1.231499 0.094085 -0.023160 -1366260.000000 0 0 1
32.264086 -22.946129 14.777546 42.259578 -0.618201 1.213561 0.129590 -0.033972 625818.000000 0 0 1
33.463286 -22.431529 15.405846 43.131254 -0.590536 1.205544 0.145560 -0.036327 375710.000000 0 0 1
34.467586 -22.072529 14.504746 43.423480 -0.569586 1.230220 0.134434 -0.043082 -554139.000000 0 0 1
35.847386 -21.805229 15.121446 44.600013 -0.546485 1.224894 0.116234 -0.034781 -312716.000000 0 0 1
36.109386 -20.613729 15.876746 44.507130 -0.518724 1.206038 0.121280 -0.026200 -233868.000000 0 0 1
35.294786 -20.337129 16.988246 44.135260 -0.522741 1.175683 0.112374 -0.032585 -232926.000000 0 0 1
35.584086 -19.036229 17.731346 44.079539 -0.491227 1.156815 0.095126 -0.026059 -204536.000000 0 0 1
35.307086 -17.914029 16.912046 43.052526 -0.469532 1.167096 0.097981 -0.038423 55723.200000 0 0 1
35.158886 -16.708429 17.593546 42.718283 -0.443633 1.146312 0.100384 -0.036232 -208650.000000 0 0 1
36.395586 -15.927829 18.091446 43.653577 -0.412520 1.143478 0.078487 -0.029279 50535.900000 0 0 1
37.048986 -16.462929 19.285246 44.895168 -0.418150 1.126789 0.078284 -0.014201 760490.000000 0 0 1
-36.377357 -15.466729 19.785946 44.204247 0.402019 1.106714 0.057471 -0.011656 -19083.300000 0 0 1
-35.944457 -15.617029 21.222946 44.568027 0.409870 1.074477 0.041021 -0.008904 -250585.000000 0 0 1
-35.061757 -16.679629 21.517446 44.390735 0.444037 1.064744 0.039434 -0.008028 215747.000000 0 0 1
-34.776457 -16.713629 22.908046 44.872329 0.448009 1.035011 0.020730 -0.006143 -122505.000000 0 0 1
-33.797657 -17.859429 23.255346 44.744295 0.486126 1.024251 0.027232 -0.003436 -1108420.000000 0 0 1
-34.373657 -19.133429 23.227746 45.685497 0.507920 1.037439 0.042745 -0.007321 222620.000000 0 0 1
-33.527757 -20.130529 23.755646 45.756742 0.540724 1.024914 0.028292 -0.002691 -43478.500000 0 0 1
-32.333357 -20.642329 22.911346 44.682004 0.568193 1.032395 0.022622 0.008555 313491.000000 0 0 1
-31.187957 -19.809029 23.027246 43.535507 0.565865 1.013457 0.025611 0.012888 2530.880000 0 0 1
-30.022257 -20.450129 22.574646 42.768661 0.597973 1.014751 0.021937 0.015449 506774.000000 0 0 1
-28.762657 -19.518829 22.683446 41.506793 0.596230 0.992618 0.029034 0.019792 445882.000000 0 0 1
-28.463957 -18.897629 23.924446 41.709667 0.586095 0.959909 0.025670 0.008648 -120901.000000 0 0 1
-27.312457 -18.105029 23.864646 40.537436 0.585380 0.941339 0.040857 0.003992 -439709.000000 0 0 1
-26.991257 -17.515129 25.244546 40.897369 0.575615 0.905534 0.043946 -0.013396 -489961.000000 0 0 1
-25.937257 -16.549129 25.158646 39.743835 0.567925 0.885348 0.062316 -0.022152 346637.000000 0 0 1
-25.506457 -16.074429 26.417246 40.085378 0.562337 0.851275 0.059051 -0.028691 522985.000000 0 0 1
-24.448957 -16.983029 27.109246 40.262712 0.607114 0.832121 0.066788 -0.021347 61031.800000 0 0 1
-25.108357 -18.232129 27.474846 41.445232 0.628054 0.846085 0.062330 -0.021898 457564.000000 0 0 1
-24.159357 -19.031229 28.160446 41.699795 0.667219 0.829406 0.078613 -0.029337 52052.500000 0 0 1
-24.750157 -20.314529 28.787646 43.057856 0.687286 0.838498 0.075287 -0.019384 -717351.000000 0 0 1
-25.801557 -20.045929 29.643746 44.117018 0.660513 0.833979 0.072117 -0.026401 -610966.000000 0 0 1
-26.219857 -21.251929 30.183946 45.279090 0.681128 0.841131 0.074613 -0.023381 178913.000000 0 0 1
-27.400457 -21.186229 31.202546 46.618025 0.658189 0.837498 0.088235 -0.025196 -301389.000000 0 0 1
-26.981857 -20.469229 32.319646 46.814202 0.649001 0.808780 0.103099 -0.034884 814741.000000 0 0 1
-28.030857 -20.432929 33.291946 48.078968 0.629889 0.805927 0.109503 -0.042134 87120.600000 0 0 1
-29.248557 -19.553529 33.060546 48.278549 0.589291 0.816484 0.082840 -0.042139 -742303.000000 0 0 1
-30.108157 -20.016529 32.036246 48.306145 0.586724 0.845721 0.075829 -0.038539 -970634.000000 0 0 1
-31.163157 -19.173429 31.919946 48.555594 0.551564 0.853447 0.073168 -0.046222 -736409.000000 0 0 1
-32.419657 -19.671129 31.150246 49.074691 0.545379 0.883109 0.060668 -0.012473 84210.600000 0 0 1
-32.414957 -19.314029 29.776146 48.066413 0.537353 0.902717 0.049456 -0.030479 1342570.000000 0 0 1
-33.659457 -19.733129 29.138246 48.696949 0.530254 0.929345 0.048480 -0.023431 1227420.000000 0 0 1
-34.271957 -18.904829 27.989846 48.118511 0.504080 0.949997 0.042142 -0.020279 594314.000000 0 0 1
-35.428157 -19.386829 27.281846 48.737076 0.500703 0.976681 0.035785 -0.017174 703126.000000 0 0 1
-35.941357 -18.334829 26.465746 48.253319 0.471720 0.990257 0.059069 -0.013839 -320241.000000 0 0 1
-37.017257 -18.879829 25.510146 48.759541 0.471638 1.020215 0.053428 -0.016186 304993.000000 0 0 1
36.134586 -19.246229 26.266446 48.642078 -0.489407 1.000366 0.067973 -0.022400 536851.000000 0 0 1
35.175186 -19.925929 25.468646 47.780626 -0.515405 1.008615 0.108980 -0.024410 304625.000000 0 0 1
33.869086 -20.280729 26.218746 47.390353 -0.539535 0.984535 0.092672 -0.025652 -39353.700000 0 0 1
33.088786 -19.202029 26.651646 46.625056 -0.525822 0.962322 0.082826 -0.029719 244361.000000 0 0 1
31.874586 -19.719329 27.175546 46.296344 -0.554023 0.943459 0.068255 -0.020320 207928.000000 0 0 1
-29.978764 -5.816129 33.733436 45.502729 0.191628 0.735717 0.057439 -0.020353 -629000.000000 0 0 1
-31.063324 -5.658929 32.903580 45.602622 0.180198 0.764789 0.062460 -0.014842 -321241.000000 0 0 1
-30.782804 -4.549829 32.038898 44.662881 0.146742 0.770806 0.061554 -0.012850 101876.000000 0 0 1
-31.582524 -4.460229 30.722581 44.285737 0.140297 0.804134 0.057812 -0.017050 79931.800000 0 0 1
-31.268814 -5.439929 29.701041 43.468189 0.172249 0.818548 0.054299 -0.017345 -337891.000000 0 0 1
-30.030454 -5.251429 29.066731 42.122210 0.173120 0.809228 0.056990 -0.022090 5680.670000 0 0 1
-29.625724 -6.448529 28.111991 41.346718 0.214323 0.823158 0.051817 -0.020400 -105399.000000 0 0 1
-30.400724 -6.184829 26.949551 41.094214 0.200704 0.855556 0.052533 -0.023329 171259.000000 0 0 1
-29.913894 -6.970729 25.894471 40.174068 0.228941 0.870353 0.072798 -0.025056 117569.000000 0 0 1
-30.601464 -6.680929 24.578301 39.814285 0.214948 0.905460 0.050782 -0.014996 -110595.000000 0 0 1
-30.098754 -5.488329 24.066531 38.926272 0.180363 0.904270 0.088043 -0.021311 -563610.000000 0 0 1
-30.774444 -5.036229 22.978031 38.735255 0.162212 0.935759 0.094331 -0.022785 -544187.000000 0 0 1
-30.210594 -3.737529 22.396111 37.791996 0.123090 0.936495 0.112687 -0.025829 41996.600000 0 0 1
-29.014844 -3.963329 21.685711 36.439528 0.135756 0.933388 0.116355 -0.021712 -551069.000000 0 0 1
-28.402404 -2.749829 21.411111 35.674834 0.096516 0.927078 0.123031 -0.022028 749170.000000 0 0 1
-26.928674 -2.923529 20.893011 34.208456 0.108142 0.913782 0.116979 -0.017224 751152.000000 0 0 1
-26.869274 -3.442129 19.589911 33.430088 0.127413 0.944687 0.116578 -0.018534 448286.000000 0 0 1
-25.543854 -3.478029 19.039111 32.047979 0.135327 0.934673 0.100492 -0.017265 554775.000000 0 0 1
-25.470094 -3.999629 17.662411 31.251936 0.155760 0.970167 0.103085 -0.025123 -247932.000000 0 0 1
-26.161104 -3.219429 16.711611 31.209711 0.122446 1.005742 0.114698 -0.021382 104504.000000 0 0 1
-25.979224 -3.687329 15.384311 30.416994 0.140992 1.040510 0.116566 -0.028619 25091.400000 0 0 1
-27.312744 -3.814929 14.608511 31.208145 0.138778 1.083658 0.113438 -0.025798 -69912.200000 0 0 1
-27.825034 -2.619629 14.163411 31.332048 0.093870 1.101743 0.117249 -0.029786 150186.000000 0 0 1
-29.077504 -2.900629 13.531411 32.202702 0.099426 1.137136 0.114853 -0.029255 552386.000000 0 0 1
-29.559584 -1.752829 12.608911 32.184252 0.059229 1.168239 0.120054 -0.017386 -224102.000000 0 0 1
-28.713904 -1.630129 11.475611 30.965065 0.056711 1.191143 0.135256 -0.018908 130008.000000 0 0 1
-28.900124 -0.499329 10.575211 30.778265 0.017276 1.220056 0.141347 -0.015448 -417699.000000 0 0 1
-30.235574 -0.318129 9.806711 31.787777 0.010521 1.257175 0.142001 -0.010005 57407.500000 0 0 1
-30.367934 -1.240529 8.697411 31.613214 0.040827 1.292082 0.160170 -0.016763 279499.000000 0 0 1
-31.701644 -1.416229 8.245911 32.787116 0.044644 1.316568 0.153463 -0.022203 156585.000000 0 0 1
-31.752424 -2.322129 7.001811 32.598069 0.073002 1.354317 0.166503 -0.026637 -135063.000000 0 0 1
-31.507954 -1.843529 5.702811 32.072914 0.058443 1.392038 0.189347 -0.041650 593653.000000 0 0 1
-32.500614 -0.959729 5.172411 32.923621 0.029521 1.413039 0.193836 -0.043238 75228.900000 0 0 1
-32.202434 -0.454229 3.710211 32.418648 0.014104 1.456098 0.209368 -0.044525 -121042.000000 0 0 1
-32.452014 -1.406229 2.734711 32.597383 0.043305 1.486804 0.201179 -0.062393 221033.000000 0 0 1
-32.109274 -0.852229 1.510611 32.156084 0.026535 1.523802 0.196843 -0.060431 -168914.000000 0 0 1
-32.896804 -1.411729 0.282911 32.928297 0.042888 1.562204 0.184684 -0.057668 202992.000000 0 0 1
-34.264970 -1.057129 0.377111 34.283348 0.030842 1.559796 0.194607 -0.057529 265766.000000 0 0 1
-34.966183 -1.394929 -0.832389 35.003895 0.039873 1.594578 0.190356 -0.055449 315401.000000 0 0 1
-36.497034 -1.161729 -0.786589 36.523990 0.031820 1.592334 0.152918 -0.045231 -66601.900000 0 0 1
-37.137884 -2.130429 -0.023089 37.198948 0.057303 1.571417 0.157092 -0.048241 266251.000000 0 0 1
35.817079 -1.815829 0.220311 35.863755 -0.050654 1.564653 0.131382 -0.038211 465887.000000 0 0 1
34.907869 -2.943729 0.782111 35.040498 -0.084129 1.548474 0.124164 -0.044042 72366.200000 0 0 1
35.204659 -3.198229 2.154911 35.415255 -0.090598 1.509912 0.123781 -0.042105 93581.600000 0 0 1
34.470959 -4.307129 2.612311 34.837085 -0.124305 1.495739 0.111111 -0.024126 102593.000000 0 0 1
34.539979 -4.429829 4.149111 35.069198 -0.127556 1.452206 0.110505 -0.012965 338806.000000 0 0 1
33.840929 -3.335629 4.741711 34.333929 -0.098251 1.432248 0.112285 -0.019118 159185.000000 0 0 1
33.910969 -3.512229 6.138511 34.640596 -0.103204 1.392650 0.115396 -0.022221 -324209.000000 0 0 1
33.251889 -2.440829 6.943411 34.056669 -0.073273 1.365479 0.126229 -0.020434 733202.000000 0 0 1
31.813989 -2.464129 7.005611 32.669258 -0.077300 1.354677 0.122829 -0.016021 933548.000000 0 0 1
31.271419 -1.352329 7.703011 32.234559 -0.043218 1.329494 0.146473 -0.014035 47890.600000 0 0 1
29.783809 -1.537529 8.038011 30.887682 -0.051577 1.307532 0.125904 -0.018966 303408.000000 0 0 1
28.901629 -1.700329 6.913711 29.765662 -0.058764 1.336384 0.132298 -0.012158 1240530.000000 0 0 1
27.494129 -1.823529 7.117411 28.458916 -0.066227 1.318019 0.136145 -0.010487 866553.000000 0 0 1
26.942129 -3.277929 7.153511 28.067701 -0.121071 1.313087 0.158114 -0.019365 -516289.000000 0 0 1
27.268629 -3.871529 8.424211 28.801635 -0.141035 1.273966 0.146610 -0.018722 625312.000000 0 0 1
27.313529 -5.261329 8.346711 29.040971 -0.190296 1.279273 0.175281 -0.014433 -290513.000000 0 0 1
27.373929 -5.912129 9.704011 29.638709 -0.212709 1.237235 0.150997 -0.028487 370315.000000 0 0 1
26.191529 -5.798429 10.522111 28.815495 -0.217872 1.196997 0.152836 -0.013503 955397.000000 0 0 1
26.335529 -6.556829 11.693511 29.551485 -0.244012 1.163967 0.131680 -0.010484 179785.000000 0 0 1
25.009729 -6.594729 12.487411 28.721289 -0.257818 1.121004 0.099951 -0.013182 282807.000000 0 0 1
23.973129 -7.322729 11.896611 27.746398 -0.296454 1.127674 0.120740 -0.021570 441512.000000 0 0 1
22.692729 -7.257229 12.539611 26.923394 -0.309525 1.086313 0.110397 -0.022812 559462.000000 0 0 1
22.043429 -8.608729 12.610711 26.815164 -0.372320 1.081185 0.105252 -0.014362 -430782.000000 0 0 1
22.722929 -9.618129 13.337611 28.048739 -0.400412 1.075246 0.094349 -0.028219 95329.900000 0 0 1
21.971129 -10.798229 13.429511 27.922822 -0.456803 1.069057 0.117584 -0.039236 -291641.000000 0 0 1
22.464929 -11.658029 14.573311 29.205548 -0.478687 1.048362 0.075558 -0.035861 -330779.000000 0 0 1
22.356429 -11.004229 15.836511 29.524533 -0.457402 1.004649 0.081422 -0.035651 189702.000000 0 0 1
22.645529 -11.906129 16.837211 30.627889 -0.484043 0.988750 0.073866 -0.045247 -230629.000000 0 0 1
22.272129 -11.536629 18.329111 31.066024 -0.477932 0.939731 0.078596 -0.044332 -246374.000000 0 0 1
20.891629 -11.374229 18.555111 30.168284 -0.498564 0.908342 0.077365 -0.046909 -172965.000000 0 0 1
20.473729 -11.643529 19.899711 30.834134 -0.517091 0.869277 0.076764 -0.046055 156682.000000 0 0 1
20.850029 -10.629129 21.031511 31.464687 -0.471449 0.838719 0.076907 -0.042885 -835713.000000 0 0 1
20.146229 -9.449729 21.174711 30.717036 -0.438588 0.810208 0.062423 -0.036299 -542139.000000 0 0 1
20.378229 -8.374529 20.253211 29.926535 -0.389914 0.827438 0.076970 -0.038002 -1890250.000000 0 0 1
21.395129 -7.366529 20.754811 30.704714 -0.331596 0.828545 0.071570 -0.022817 109127.000000 0 0 1
22.727329 -7.833229 20.901211 31.855166 -0.331911 0.855114 0.090743 -0.031691 527160.000000 0 0 1
23.354229 -8.067829 19.605111 31.541564 -0.332620 0.900058 0.097458 -0.038239 -1515950.000000 0 0 1
24.730229 -8.705929 19.655711 32.767734 -0.338487 0.927483 0.128544 -0.043684 -558815.000000 0 0 1
24.682529 -10.073329 19.974011 33.311564 -0.387483 0.927780 0.092239 -0.044775 -6916.310000 0 0 1
25.949229 -10.671129 19.769611 34.323068 -0.390151 0.956986 0.090503 -0.044302 250658.000000 0 0 1
25.968129 -12.129829 20.181011 35.053526 -0.436987 0.957312 0.067635 -0.043175 -74216.400000 0 0 1
25.170629 -12.960429 19.365611 34.301023 -0.475499 0.970874 0.083483 -0.045080 72648.300000 0 0 1
25.369629 -14.336029 19.630211 35.135238 -0.514352 0.977974 0.059840 -0.032035 -210726.000000 0 0 1
24.338729 -15.145029 18.837911 34.301786 -0.556627 0.989412 0.070226 -0.025717 -423424.000000 0 0 1
24.491829 -15.116229 17.438911 33.652127 -0.552967 1.026038 0.071259 -0.040029 -263157.000000 0 0 1
23.463929 -15.726129 16.737311 32.832981 -0.590463 1.035877 0.071918 -0.040902 -693915.000000 0 0 1
23.361729 -17.281129 16.889411 33.610415 -0.636889 1.044302 0.053455 -0.031236 -299906.000000 0 0 1
24.478229 -17.927129 16.303411 34.443676 -0.632122 1.077723 0.070615 -0.030027 308035.000000 0 0 1
24.429529 -19.300529 16.711411 35.335302 -0.668644 1.078174 0.056445 -0.019231 -213978.000000 0 0 1
25.707529 -20.046729 16.324111 36.458538 -0.662302 1.106555 0.066009 -0.014741 -229718.000000 0 0 1
25.822829 -20.153629 14.904511 35.987938 -0.662711 1.143784 0.060577 -0.022420 383776.000000 0 0 1
26.883629 -21.044329 14.547111 37.110803 -0.664161 1.168001 0.061931 -0.027419 223785.000000 0 0 1
27.042629 -21.018929 13.022511 36.642666 -0.660715 1.207463 0.044121 -0.036175 -423729.000000 0 0 1
26.146929 -21.745129 12.220111 36.136459 -0.693745 1.225829 0.063509 -0.025463 -64128.700000 0 0 1
26.079829 -21.176829 10.920011 35.325093 -0.682015 1.256519 0.084722 -0.019231 612055.000000 0 0 1
24.697429 -21.389929 10.204611 34.229025 -0.713755 1.268066 0.045816 -0.013319 674338.000000 0 0 1
24.508529 -22.681929 9.624211 34.752889 -0.746711 1.290196 0.027285 -0.012943 -888081.000000 0 0 1
23.148829 -22.778129 9.396611 33.808397 -0.777327 1.289150 0.017089 -0.010096 -753477.000000 0 0 1
22.776129 -23.907329 8.377811 34.066114 -0.809625 1.322319 0.016207 -0.007188 -474310.000000 0 0 1
22.992929 -25.238979 8.775911 35.251914 -0.831932 1.319202 0.010305 -0.007623 39634.500000 0 0 1
22.556829 -26.178929 7.789911 35.423574 -0.859583 1.349077 0.020472 -0.009141 1378170.000000 0 0 1
20.993829 -26.443249 7.678811 34.625863 -0.899774 1.347172 0.027211 -0.012069 1175000.000000 0 0 1
20.225729 -25.362579 7.204411 33.230168 -0.897604 1.352258 0.021982 -0.007970 -105543.000000 0 0 1
18.839229 -25.664119 7.329611 32.669355 -0.937569 1.344513 0.028685 -0.025781 252293.000000 0 0 1
17.938529 -24.444429 7.242911 31.173397 -0.937712 1.336311 0.033789 -0.022382 -634557.000000 0 0 1
17.809629 -23.896629 5.944611 30.390297 -0.930324 1.373918 0.049012 -0.027625 16572.100000 0 0 1
17.037529 -22.719729 6.050611 29.035726 -0.927359 1.360873 0.059482 -0.012889 -322835.000000 0 0 1
16.645529 -22.260429 4.662811 28.184076 -0.928728 1.404591 0.078127 -0.013916 -502877.000000 0 0 1
15.925229 -21.046229 4.790011 26.823513 -0.923035 1.391258 0.094173 -0.006525 -35463.100000 0 0 1
15.595629 -20.553129 3.529611 26.040601 -0.921690 1.434835 0.091376 -0.009479 -113630.000000 0 0 1
14.600229 -19.387029 3.549511 24.527996 -0.925319 1.425574 0.076535 -0.002014 -70797.900000 0 1 0
15.192429 -18.128629 3.944011 23.979414 -0.873290 1.405571 0.045341 0.004274 238133.000000 0 1 0
14.282829 -17.059329 3.952311 22.597360 -0.873754 1.394991 0.014384 0.010540 -116362.000000 0 1 0
15.060829 -15.814729 4.300011 22.258129 -0.809811 1.376386 0.004331 0.002349 -332622.000000 0 1 0
15.545229 -15.673629 5.656511 22.788438 -0.789511 1.319956 0.015397 -0.006088 362133.000000 0 1 0
16.518029 -14.643329 5.721411 22.803660 -0.725310 1.317188 0.027883 -0.011235 353699.000000 0 1 0
17.976329 -15.127329 5.491511 24.127602 -0.699547 1.341181 0.035978 -0.023621 -378443.000000 0 1 0
18.928029 -14.091729 5.573811 24.246948 -0.639965 1.338845 0.080073 -0.024676 -322841.000000 0 1 0
20.184929 -14.707229 5.388211 25.549300 -0.629680 1.358306 0.116070 -0.024648 -615513.000000 0 0 1
21.260929 -13.674829 5.085611 25.785490 -0.571573 1.372267 0.124914 -0.029133 -481300.000000 0 0 1
21.596629 -12.978629 6.249111 25.959788 -0.541122 1.327686 0.144529 -0.032352 -58766.900000 0 0 1
22.782929 -12.243329 6.116911 26.577764 -0.493111 1.338563 0.168334 -0.032509 -403412.000000 0 0 1
23.182229 -11.376529 7.315711 26.839537 -0.456215 1.294731 0.174883 -0.033342 -69896.000000 0 0 1
23.530629 -12.216929 8.417211 27.817140 -0.478884 1.263387 0.164610 -0.025351 294883.000000 0 0 1
23.767429 -11.418729 9.554111 28.045661 -0.447874 1.223175 0.173597 -0.043706 -189003.000000 0 0 1
24.190629 -12.224529 10.761311 29.162158 -0.467912 1.192846 0.140157 -0.036467 -625724.000000 0 0 1
23.212929 -13.044029 11.311011 28.929669 -0.511956 1.169097 0.147123 -0.040331 -308205.000000 0 0 1
23.752829 -14.136029 11.948811 30.113091 -0.536831 1.162771 0.135945 -0.046844 -775570.000000 0 0 1
22.668029 -15.084529 12.399111 29.918564 -0.587163 1.143481 0.112962 -0.054838 -90669.700000 0 0 1
21.711329 -14.381429 13.207511 29.200097 -0.585038 1.101442 0.094428 -0.048810 1141670.000000 0 0 1
20.492129 -15.187229 13.316411 28.773357 -0.637797 1.089641 0.063296 -0.039851 1408650.000000 0 0 1
19.350929 -14.357829 13.991911 27.863583 -0.638343 1.044704 0.066887 -0.040422 -293159.000000 0 0 1
19.463529 -14.023529 15.319011 28.463317 -0.624354 1.002494 0.068851 -0.041776 -188143.000000 0 0 1
19.087229 -12.705829 15.675811 27.775735 -0.587314 0.971126 0.091339 -0.057299 -953706.000000 0 0 1
17.616929 -12.363729 15.804111 26.701833 -0.611939 0.937415 0.102994 -0.057732 -628900.000000 0 0 1
16.846629 -12.583729 14.574511 25.584673 -0.641552 0.964707 0.110024 -0.066351 337487.000000 0 0 1
15.477529 -12.299429 14.779111 24.683030 -0.671479 0.928849 0.137045 -0.057185 171086.000000 0 1 0
15.035829 -10.820929 14.511611 23.532010 -0.623810 0.906284 0.110427 -0.055415 -614305.000000 0 1 0
15.407429 -10.052129 15.581511 24.108456 -0.578075 0.868059 0.097607 -0.046297 41720.400000 0 1 0
15.110429 -8.693829 15.459811 23.300504 -0.522099 0.845313 0.094981 -0.042678 -273585.000000 0 1 0
15.909629 -7.884129 16.507211 24.243840 -0.460087 0.821829 0.106797 -0.031875 200222.000000 0 1 0
17.302829 -7.942129 16.286311 25.054126 -0.430319 0.863153 0.099883 -0.049263 -80370.200000 0 0 1
18.118129 -8.728429 17.109211 26.404113 -0.448942 0.865873 0.103876 -0.044699 -1289120.000000 0 0 1
19.535529 -8.678429 16.650311 27.095846 -0.418052 0.909048 0.071102 -0.034982 -1206410.000000 0 0 1
20.208229 -7.440329 16.853111 27.345171 -0.352781 0.906748 0.073082 -0.043653 466545.000000 0 0 1
21.513729 -7.485529 16.282811 28.000064 -0.334840 0.950191 0.072292 -0.027330 186473.000000 0 0 1
22.160429 -6.089629 16.456011 28.266031 -0.268178 0.949385 0.058575 -0.013870 -380075.000000 0 0 1
22.637029 -5.783329 17.701911 29.312789 -0.250130 0.922415 0.076815 -0.018576 26135.000000 0 0 1
22.913429 -4.442429 17.877411 29.400038 -0.191503 0.917164 0.077868 -0.018403 -223658.000000 0 0 1
-5.782614 -33.078838 -6.276954 34.162089 1.397732 1.755587 0.049391 -0.014983 -250500.000000 0 0 1
-6.507614 -31.894738 -6.448254 33.184384 1.369525 1.766356 0.039322 -0.015562 92940.800000 0 0 1
-6.111714 -30.876038 -5.505554 31.952995 1.375379 1.743962 0.043731 -0.018379 -770558.000000 0 0 1
-6.901114 -29.591438 -5.709854 30.917326 1.341678 1.756544 0.041838 -0.020029 1044580.000000 0 0 1
-8.270214 -29.590638 -5.253754 31.170567 1.298263 1.740153 0.038020 -0.015958 758202.000000 0 0 1
-9.163814 -30.217838 -6.131954 32.166661 1.276353 1.762601 0.034861 -0.016210 -430053.000000 0 0 1
-10.610914 -30.170138 -5.536854 32.457441 1.232606 1.742223 0.054361 -0.017537 388767.000000 0 0 1
-11.558314 -30.532438 -6.506654 33.289052 1.208910 1.767522 0.056053 -0.016755 -757580.000000 0 0 1
-12.866614 -30.239438 -6.098854 33.424084 1.168510 1.754293 0.069271 -0.015546 53537.000000 0 0 1
-13.941714 -30.837238 -7.048554 34.568610 1.146192 1.776137 0.083079 -0.013690 217334.000000 0 0 1
-13.966114 -30.169938 -8.252354 34.254618 1.137254 1.814102 0.104770 -0.022405 164479.000000 0 0 1
-14.903214 -30.745938 -9.161154 35.374359 1.119446 1.832760 0.098470 -0.019303 301052.000000 0 0 1
-15.080014 -29.843738 -10.409254 35.020110 1.102918 1.872593 0.121918 -0.016576 -565785.000000 0 0 1
-15.511114 -28.535738 -10.173854 34.035134 1.072905 1.874359 0.133489 -0.020497 39498.200000 0 0 1
-14.588014 -27.571938 -9.707254 32.668834 1.084149 1.872493 0.120326 -0.021993 -41541.200000 0 0 1
-15.277914 -26.171738 -9.464054 31.748116 1.042406 1.873496 0.121085 -0.007610 226033.000000 0 0 1
-15.672214 -25.537738 -10.681554 31.810218 1.020373 1.913240 0.130634 -0.015445 377926.000000 0 0 1
-16.090114 -24.178438 -10.401454 30.849293 0.983620 1.914706 0.108821 -0.001830 -95189.700000 0 0 1
-16.618714 -23.332238 -11.616354 30.911401 0.951887 1.956051 0.133916 -0.009292 -1064200.000000 0 0 1
-17.864614 -23.774338 -11.975354 32.058894 0.926384 1.953621 0.135655 -0.016552 -1206570.000000 0 0 1
-18.416314 -23.209538 -13.149354 32.415256 0.900043 1.988490 0.148100 -0.026179 728809.000000 0 0 1
-19.920914 -23.652838 -13.320754 33.671087 0.870836 1.977533 0.119550 -0.007824 649111.000000 0 0 1
-20.205114 -25.002638 -13.562454 34.890095 0.891124 1.970038 0.144445 -0.009453 -79762.200000 0 0 1
-20.063014 -25.830838 -12.417954 34.985173 0.910420 1.933656 0.149522 -0.009883 -1102420.000000 0 0 1
-20.140114 -27.353538 -12.601654 36.230401 0.936128 1.926041 0.150081 -0.017329 1061830.000000 0 0 1
-19.050214 -27.892938 -13.378654 36.330635 0.971587 1.947919 0.154045 -0.032985 1351340.000000 0 0 1
-17.681114 -27.672538 -13.039054 35.332819 1.002235 1.948767 0.160247 -0.034648 341521.000000 0 0 1
-16.766814 -28.802138 -13.612554 35.999873 1.043614 1.958569 0.137202 -0.036244 -52623.100000 0 0 1
-16.797014 -28.938938 -15.008154 36.672149 1.044891 1.992431 0.151802 -0.053752 81228.400000 0 0 1
-16.168714 -30.121238 -15.496354 37.534695 1.078153 1.996382 0.155105 -0.056544 6999.690000 0 0 1
-16.987614 -31.410838 -15.233354 38.823638 1.075028 1.974007 0.142432 -0.054276 -75672.200000 0 0 1
-17.036414 -31.764838 -13.823454 38.604821 1.078509 1.937003 0.144413 -0.048010 144154.000000 0 0 1
-17.202914 -33.121138 -13.628254 39.732598 1.091754 1.920904 0.140390 -0.044803 -1056070.000000 0 0 1
-17.562614 -33.453838 -12.171954 39.695858 1.087365 1.882447 0.155980 -0.039320 91173.400000 0 0 1
-18.871714 -33.223338 -11.661654 39.949042 1.054219 1.867023 0.174293 -0.035363 450522.000000 0 0 1
-19.310414 -31.887538 -11.599154 39.041613 1.026285 1.872447 0.175631 -0.041353 -582949.000000 0 0 1
-18.599014 -30.928938 -10.636654 37.625270 1.029387 1.857404 0.169896 -0.028713 -688530.000000 0 0 1
-18.863214 -31.172938 -9.276154 37.598138 1.026624 1.820089 0.175498 -0.032610 166183.000000 0 0 1
-18.835514 -30.014138 -8.467154 36.432373 1.010362 1.805348 0.166654 -0.010688 -28039.900000 0 0 1
-19.269214 -30.283638 -7.032054 36.576648 1.004119 1.764256 0.188662 -0.014682 124188.000000 0 0 1
-18.355714 -31.155738 -6.352854 36.714725 1.038386 1.744704 0.170691 -0.025322 188764.000000 0 0 1
-18.698014 -31.578038 -5.093254 37.050364 1.036190 1.708701 0.161211 -0.033679 -328227.000000 0 0 1
-17.671814 -32.615338 -4.554154 37.373702 1.074251 1.692954 0.152831 -0.024188 -4529.470000 0 0 1
-16.390114 -32.115638 -4.321454 36.314254 1.098906 1.690081 0.136707 -0.023644 -348451.000000 0 0 1
-16.184014 -31.587638 -3.014554 35.620061 1.097315 1.655528 0.111835 -0.021586 54004.100000 0 0 1
-14.808514 -30.874338 -2.810554 34.357184 1.123570 1.652692 0.100825 -0.027657 657882.000000 0 0 1
-13.699014 -31.761038 -2.931054 34.713364 1.163589 1.655333 0.058095 -0.018493 -599175.000000 0 0 1
-12.576114 -31.064238 -2.470254 33.604281 1.186123 1.644373 0.045857 -0.013292 -927872.000000 0 0 1
-11.356814 -31.953338 -2.420354 33.997811 1.229302 1.642048 0.042075 -0.017334 -1231870.000000 0 0 1
-11.457514 -32.862838 -1.392954 34.830749 1.235328 1.610799 0.040613 -0.006149 -37489.400000 0 0 1
-10.229314 -33.451438 -0.997054 34.994738 1.274031 1.599292 0.054602 -0.013258 51759.700000 0 0 1
-9.267414 -32.568638 -0.207054 33.862133 1.293573 1.576911 0.069926 -0.023928 -727729.000000 0 0 1
-9.809114 -32.148638 1.030446 33.627600 1.274651 1.540149 0.085786 -0.022585 -424176.000000 0 0 1
-8.879814 -31.450738 1.810546 32.730385 1.295619 1.515451 0.070232 -0.025744 -78361.600000 0 0 1
-7.935814 -32.422938 2.549746 33.477235 1.330756 1.494559 0.091708 -0.035863 -285240.000000 0 0 1
-8.642314 -33.428538 3.296646 34.684646 1.317805 1.475606 0.098177 -0.044909 356015.000000 0 0 1
-7.836814 33.512971 3.733346 34.618965 -1.341080 1.462745 0.131923 -0.037205 303493.000000 0 0 1
-6.818614 33.744971 4.867546 34.769377 -1.371418 1.430340 0.139522 -0.038899 1265860.000000 0 0 1
-5.613514 -33.619038 4.462946 34.375415 1.405348 1.440599 0.142156 -0.042187 909803.000000 0 0 1
-4.673414 -33.322838 5.490646 34.093981 1.431459 1.409048 0.129682 -0.044132 1167250.000000 0 0 1
-3.278414 -32.779138 4.998246 33.319699 1.471113 1.420219 0.139584 -0.039035 701728.000000 0 0 1
-3.181214 -31.458838 4.353946 31.917636 1.470016 1.433958 0.137113 -0.028349 -19757.400000 0 0 1
-3.925414 -31.299738 3.151046 31.701918 1.446034 1.471236 0.141554 -0.033732 65226.800000 0 0 1
-4.128314 -29.801438 2.711946 30.208001 1.433145 1.480900 0.115097 -0.032142 232737.000000 0 0 1
-2.963414 -29.326338 2.039446 29.546155 1.470089 1.501716 0.107222 -0.025532 109215.000000 0 0 1
-3.087214 -28.138338 1.317246 28.337821 1.461518 1.524296 0.092184 -0.018780 -53277.300000 0 0 1
-2.944014 -26.894238 2.197346 27.143979 1.461764 1.489756 0.089909 -0.011862 -1159.710000 0 0 1
-3.055014 -25.696738 1.484346 25.920238 1.452465 1.513499 0.086025 -0.017697 -340464.000000 0 0 1
-2.858414 -24.568838 2.317746 24.842912 1.454974 1.477364 0.063419 -0.016846 404355.000000 0 1 0
-4.044914 -24.097038 3.240346 24.648092 1.404487 1.438950 0.055373 -0.018177 352582.000000 0 1 0
-4.387514 -25.015338 4.261546 25.752247 1.397169 1.404549 0.087967 -0.013901 367931.000000 0 0 1
-5.430514 -24.362038 5.025146 25.460783 1.351473 1.372124 0.068966 -0.013364 345364.000000 0 0 1
-6.031514 -25.167538 6.151246 26.601165 1.335578 1.337445 0.087438 -0.012860 -346649.000000 0 0 1
-5.218014 -25.396138 7.259846 26.923909 1.368152 1.297774 0.071411 -0.015117 -332504.000000 0 0 1
-5.928714 -26.223238 8.126546 28.086449 1.348448 1.277259 0.080489 -0.019706 66798.300000 0 0 1
-5.093014 -27.020038 9.179346 28.987612 1.384492 1.248585 0.060458 -0.018263 34107.800000 0 0 1
-4.592014 -26.185438 10.275346 28.501693 1.397196 1.201974 0.045914 -0.024038 -104611.000000 0 0 1
-5.565814 -25.555938 11.084746 28.406968 1.356355 1.169934 0.059310 -0.024463 -146338.000000 0 0 1
-5.043914 -24.470238 12.119746 27.769081 1.367519 1.119150 0.031310 -0.025577 47550.800000 0 0 1
-4.309914 -24.993738 13.202546 28.593173 1.400036 1.090843 0.024104 -0.031239 -523233.000000 0 0 1
-3.803314 -23.982438 13.974846 28.016403 1.413519 1.048572 0.030219 -0.034344 -442147.000000 0 0 1
-2.716914 -24.508838 14.900746 28.811404 1.460393 1.027241 0.035335 -0.038345 -350251.000000 0 0 1
-3.268114 -24.928938 16.109346 29.860401 1.440442 1.000967 0.044614 -0.042424 -51645.400000 0 0 1
-2.452114 -25.870438 16.773846 30.929829 1.476294 0.997601 0.057521 -0.043020 255043.000000 0 0 1
-3.143514 -26.278238 18.099146 32.062542 1.451738 0.970975 0.096420 -0.036631 81183.100000 0 0 1
-3.243714 -25.196138 18.984346 31.713916 1.442762 0.929028 0.098025 -0.039220 -355489.000000 0 0 1
-3.891714 -25.637338 20.111546 32.816045 1.420148 0.911125 0.167375 -0.037049 -618957.000000 0 0 1
-3.577314 -24.804338 21.348346 32.921182 1.427563 0.865226 0.127686 -0.042875 -632861.000000 0 0 1
-2.469514 -25.254038 22.088646 33.641837 1.473319 0.854517 0.103770 -0.046893 49316.800000 0 0 1
-2.002614 -24.306838 23.045446 33.554812 1.488593 0.813719 0.073945 -0.039285 119152.000000 0 0 1
-1.302914 -23.014838 22.582646 32.270052 1.514245 0.795676 0.082658 -0.039260 -456729.000000 0 0 1
-2.180514 -22.008438 22.195246 31.332969 1.472042 0.783614 0.092163 -0.033249 -187935.000000 0 0 1
-1.416714 -20.930238 21.681546 30.169047 1.503212 0.768911 0.098829 -0.033354 507284.000000 0 0 1
-2.257414 -19.727138 21.065346 28.948311 1.456860 0.755851 0.079393 -0.018351 153166.000000 0 0 1
-3.036214 -18.947938 21.971346 29.171613 1.411907 0.717920 0.086665 -0.033411 803590.000000 0 0 1
-4.408214 -19.309038 22.149746 29.713340 1.346345 0.729590 0.076187 -0.032138 1162680.000000 0 0 1
-5.447614 -18.904938 20.995846 28.773229 1.290239 0.752912 0.057409 -0.032438 420838.000000 0 0 1
-5.575214 -19.730938 19.861846 28.546206 1.295413 0.801293 0.077595 -0.038941 -246368.000000 0 0 1
-6.011914 -21.028238 20.075546 29.687665 1.292328 0.828170 0.069754 -0.031253 -199792.000000 0 0 1
-5.828414 -21.902738 18.784646 29.437447 1.310719 0.878741 0.044374 -0.035483 -155492.000000 0 0 1
-6.431814 -23.141538 18.852446 30.533813 1.299705 0.905327 0.044022 -0.037970 -448705.000000 0 0 1
-6.207614 -23.881438 17.670846 30.349899 1.316489 0.949318 0.040104 -0.038745 70272.000000 0 0 1
-6.870014 -25.268238 17.774246 31.648140 1.305330 0.974453 0.028280 -0.038800 -300663.000000 0 0 1
-8.254214 -25.317438 17.939446 32.108075 1.255634 0.977954 0.054092 -0.037001 -976371.000000 0 0 1
-8.714314 -26.635638 17.831046 33.216603 1.254605 1.004143 0.061891 -0.032151 242202.000000 0 0 1
-10.254214 -26.723038 17.886146 33.751798 1.204401 1.012276 0.059840 -0.034151 -592891.000000 0 0 1
-10.968814 -26.151238 16.795846 32.959105 1.173646 1.036081 0.090512 -0.032648 -34903.400000 0 0 1
-12.363814 -26.124238 17.010246 33.536371 1.128761 1.038843 0.090844 -0.031761 288076.000000 0 0 1
-12.859614 -25.092838 18.049046 33.478176 1.097213 1.001394 0.080001 -0.026746 -972110.000000 0 0 1
-12.815914 -23.746538 17.622246 32.228703 1.075898 0.992274 0.076533 -0.021726 -182126.000000 0 0 1
-13.059314 -22.829738 18.676446 32.257592 1.051196 0.953321 0.064748 -0.012746 56925.000000 0 0 1
-11.830514 -22.334138 19.469746 31.903696 1.083668 0.914400 0.063556 -0.018725 216573.000000 0 0 1
-11.134614 -23.281938 20.267746 32.814780 1.124699 0.905057 0.063432 -0.017448 121303.000000 0 0 1
-9.739414 -23.044038 20.230846 32.174074 1.170923 0.890796 0.072142 -0.033605 308219.000000 0 0 1
-8.917114 -24.062138 21.049046 33.189814 1.215900 0.883820 0.073708 -0.030937 30030.400000 0 0 1
-9.044214 -23.834138 22.464946 33.978490 1.208117 0.848443 0.071821 -0.027993 10752.800000 0 0 1
-8.111514 -24.542938 23.235546 34.756914 1.251595 0.838585 0.071493 -0.029783 -211953.000000 0 0 1
-8.159014 -24.203138 24.684146 35.519973 1.245655 0.802464 0.073742 -0.027922 -178832.000000 0 0 1
-7.102314 -24.734038 25.428646 36.177777 1.291172 0.791358 0.100271 -0.027818 -350132.000000 0 0 1
-6.840114 -23.915038 26.540246 36.374454 1.292217 0.753001 0.093459 -0.028117 -364389.000000 0 0 1
-5.751714 -24.555338 27.406946 37.244967 1.340710 0.743866 0.106155 -0.030458 -492631.000000 0 0 1
-4.518214 -24.298438 26.810146 36.463849 1.386949 0.744757 0.111754 -0.028244 -360373.000000 0 0 1
-3.378014 -24.638638 27.587346 37.142094 1.434543 0.733626 0.116868 -0.026524 722811.000000 0 0 1
-2.022714 -24.133538 27.041946 36.301321 1.487178 0.730366 0.101066 -0.025828 -264314.000000 0 0 1
-2.073514 -22.723938 26.860346 35.244220 1.479800 0.704214 0.094640 -0.027205 222204.000000 0 0 1
-0.833614 -22.050038 26.624546 34.579843 1.533009 0.692043 0.100796 -0.035376 692978.000000 0 0 1
0.167086 -21.921938 27.821146 35.420551 -1.563175 0.667370 0.112829 -0.030916 300245.000000 0 0 1
0.848986 -23.133738 28.198546 36.483539 -1.534114 0.687379 0.114914 -0.016539 665626.000000 0 0 1
1.769186 -22.875838 29.288146 37.205235 -1.493611 0.664533 0.105304 -0.032644 557127.000000 0 0 1
2.494586 -24.165938 29.783846 38.435570 -1.467933 0.684234 0.123412 -0.034424 -82124.300000 0 0 1
3.533286 -24.561938 28.872946 38.071248 -1.427924 0.709953 0.107226 -0.033745 532052.000000 0 0 1
4.452086 -25.511138 29.376046 39.161094 -1.398021 0.722533 0.088158 -0.023045 -32581.900000 0 0 1
5.531386 -24.963938 30.435246 39.750454 -1.352744 0.698733 0.074546 -0.024102 952579.000000 0 0 1
6.750186 -24.417738 29.918846 39.203677 -1.301086 0.702601 0.070315 -0.022720 832766.000000 0 0 1
7.536286 -25.285438 29.095646 39.277291 -1.281131 0.736573 0.062666 -0.018407 -1145240.000000 0 0 1
8.725686 -24.552638 28.490046 38.608967 -1.229331 0.740824 0.065351 -0.009232 -485447.000000 0 0 1
8.427586 -23.602238 27.550546 37.244093 -1.227839 0.738128 0.085301 -0.021979 397485.000000 0 0 1
9.556586 -23.450138 26.686846 36.788926 -1.183817 0.759175 0.062231 -0.008596 339049.000000 0 0 1
9.357486 -22.289338 25.720446 35.297570 -1.173322 0.754412 0.087792 -0.012041 763413.000000 0 0 1
8.349586 -22.657338 24.730646 34.564077 -1.217723 0.773455 0.074642 -0.006832 819492.000000 0 0 1
8.006786 -21.546838 23.962046 33.204736 -1.215011 0.764620 0.077823 -0.013603 -147857.000000 0 0 1
7.309186 -21.927338 22.633146 32.349523 -1.249043 0.795897 0.072134 -0.012488 -445508.000000 0 0 1
8.136686 -22.523838 21.710546 32.324553 -1.224137 0.834373 0.069093 -0.005088 -582278.000000 0 0 1
7.594786 -22.544138 20.411046 31.345330 -1.245853 0.861675 0.081397 -0.005273 54877.400000 0 0 1
8.347186 -23.440238 19.364546 31.529445 -1.228693 0.909458 0.102524 -0.023030 1258060.000000 0 0 1
9.676786 -22.995038 19.025146 31.374642 -1.172471 0.919288 0.092971 -0.016076 741710.000000 0 0 1
10.215786 -23.832538 17.956146 31.540059 -1.165839 0.965127 0.094488 -0.016130 793188.000000 0 0 1
11.620986 -23.401238 17.423746 31.404652 -1.109875 0.982657 0.089594 -0.016585 508978.000000 0 0 1
11.629086 -22.127938 16.823246 30.131427 -1.086927 0.978426 0.100913 -0.018297 -479445.000000 0 0 1
12.833986 -21.764838 16.208446 30.018879 -1.038010 1.000428 0.095910 -0.025123 -251020.000000 0 0 1
-12.330914 22.455271 11.553346 28.102855 -1.068620 1.147126 0.042234 -0.018509 -412727.000000 0 0 1
-13.429114 21.706571 11.097146 27.832768 -1.016765 1.160689 0.038013 -0.022697 -4643.400000 0 0 1
-12.988214 20.412271 10.717246 26.461555 -1.004116 1.153804 0.058800 -0.028700 -122725.000000 0 0 1
-14.008914 19.567071 9.942246 26.037822 -0.949450 1.179012 0.076967 -0.025972 -286100.000000 0 0 1
-14.030414 20.080671 8.616546 25.967879 -0.960942 1.232569 0.084799 -0.034722 46485.900000 0 0 1
-14.747414 19.336071 7.659146 25.495733 -0.919223 1.265675 0.086671 -0.043331 748128.000000 0 0 1
-16.303514 19.482271 7.550646 26.502372 -0.873993 1.281889 0.090269 -0.037424 462655.000000 0 0 1
-16.963114 18.630271 8.409246 26.562185 -0.832203 1.248667 0.084870 -0.042059 738836.000000 0 0 1
-18.371014 18.916671 8.574946 27.728402 -0.800031 1.256394 0.076472 -0.028245 931894.000000 0 0 1
-19.010414 17.865571 9.459446 27.749876 -0.754362 1.222941 0.079820 -0.031829 -362861.000000 0 0 1
-19.024614 16.584871 8.821846 26.736097 -0.716991 1.234535 0.078317 -0.040419 12033.400000 0 0 1
-19.496514 15.587771 9.641046 26.758969 -0.674446 1.202215 0.080046 -0.040942 -202433.000000 0 0 1
-18.517114 15.071371 10.741846 26.180470 -0.683169 1.148013 0.079266 -0.031531 33369.200000 0 0 1
-17.450414 14.291371 10.285646 24.790215 -0.686202 1.142955 0.056864 -0.013318 -3686.670000 0 1 0
-16.692714 13.514871 11.206446 24.225666 -0.680584 1.089887 0.053793 -0.010836 413809.000000 0 1 0
-17.502414 12.369171 11.887746 24.508150 -0.615217 1.064373 0.046625 -0.009308 -122376.000000 0 1 0
-18.126914 11.456771 10.994646 24.098234 -0.563639 1.097028 0.025200 -0.011805 -27951.000000 0 1 0
-18.974914 10.626971 11.747246 24.717962 -0.510529 1.075547 0.042287 -0.018422 -83133.000000 0 1 0
-19.878314 9.684371 10.901146 24.652980 -0.453341 1.112764 0.048543 -0.024908 -311830.000000 0 1 0
-19.247714 8.691671 10.147746 23.430672 -0.424158 1.122871 0.027184 -0.021446 -278949.000000 0 1 0
-18.874314 9.039571 8.827446 22.712934 -0.446654 1.171627 0.049986 -0.020105 -355734.000000 0 1 0
-19.924714 9.340871 7.713546 23.318338 -0.438384 1.233652 0.066406 -0.026356 -67848.600000 0 1 0
-20.481314 8.162171 7.219946 23.199847 -0.379228 1.254334 0.053880 -0.032343 -120748.000000 0 1 0
-21.569114 8.380971 6.381446 24.003963 -0.370609 1.301711 0.078224 -0.025080 -313752.000000 0 1 0
-21.884314 6.987171 5.653546 23.658114 -0.309047 1.329493 0.103050 -0.024092 -282389.000000 0 1 0
-22.379314 5.980871 6.499446 24.059246 -0.261147 1.297254 0.097351 -0.023807 250821.000000 0 1 0
-22.119914 4.642871 5.990446 23.382307 -0.206892 1.311712 0.105835 -0.035732 -120897.000000 0 1 0
-23.269914 3.581771 6.052646 24.309515 -0.152724 1.319167 0.137058 -0.036343 -110324.000000 0 1 0
-24.283414 3.795771 5.123146 25.106547 -0.155057 1.365297 0.154854 -0.042213 -179467.000000 0 0 1
-25.282894 2.796071 5.290846 25.981451 -0.110144 1.365723 0.170103 -0.043459 31224.100000 0 0 1
-26.412164 2.876871 4.235046 26.903799 -0.108494 1.412724 0.180212 -0.046264 104217.000000 0 0 1
-25.942234 2.639871 2.913246 26.238434 -0.101411 1.459537 0.177056 -0.037545 7782.740000 0 0 1
-27.058714 2.534871 2.084246 27.256993 -0.093408 1.494255 0.179222 -0.032289 -241465.000000 0 0 1
-26.847264 2.649671 0.522046 26.982752 -0.098376 1.551448 0.195206 -0.034117 -299854.000000 0 0 1
-26.507054 3.933271 0.070246 26.797378 -0.147311 1.568175 0.191370 -0.036346 201391.000000 0 0 1
-26.628864 4.195771 -1.290654 26.988270 -0.156280 1.618637 0.213058 -0.027608 185998.000000 0 0 1
-28.032624 4.645571 -1.775754 28.470382 -0.164228 1.633209 0.203508 -0.033159 -17097.800000 0 0 1
-29.072734 3.698671 -1.685454 29.355490 -0.126542 1.628243 0.190735 -0.034069 -47118.800000 0 0 1
-30.268574 4.447971 -1.814054 30.647379 -0.145906 1.630022 0.187103 -0.021860 -273222.000000 0 0 1
-31.496094 3.515071 -1.874054 31.746996 -0.111143 1.629862 0.182475 -0.022953 -577561.000000 0 0 1
-31.364094 2.883371 -3.145654 31.653047 -0.091675 1.670340 0.163166 -0.023889 399621.000000 0 0 1
-32.301664 1.853671 -3.229754 32.515610 -0.057323 1.670290 0.166370 -0.025874 -254664.000000 0 0 1
-32.521074 1.305971 -4.681354 32.882228 -0.040136 1.713649 0.157585 -0.034832 -532747.000000 0 0 1
-31.365554 0.619371 -5.080754 31.780429 -0.019744 1.731356 0.175147 -0.031011 103132.000000 0 0 1
-31.310294 -0.090029 -6.263254 31.930722 0.002875 1.768228 0.179436 -0.028201 -385574.000000 0 0 1
-31.663384 0.602171 -7.590554 32.566072 -0.019016 1.806042 0.165852 -0.026149 146121.000000 0 0 1
-33.050124 0.821971 -7.822154 33.973114 -0.024865 1.803126 0.167708 -0.024380 602090.000000 0 0 1
-33.242454 1.792371 -8.838954 34.444165 -0.053866 1.830317 0.187920 -0.033107 369319.000000 0 0 1
-34.752757 2.192871 -8.906954 35.942964 -0.063016 1.821213 0.206182 -0.034858 484165.000000 0 0 1
-35.132826 2.813371 -7.725454 36.082033 -0.079908 1.786575 0.161285 -0.023280 146428.000000 0 0 1
-36.538684 2.897971 -7.593754 37.431788 -0.079147 1.775083 0.163142 -0.023306 158006.000000 0 0 1
-36.983034 3.646371 -6.284254 37.689955 -0.098278 1.738314 0.172261 -0.015959 -527580.000000 0 0 1
35.948779 3.693671 -6.184854 36.663474 0.102389 1.740299 0.191002 -0.026685 -392617.000000 0 0 1
35.528919 4.404371 -5.041154 36.154056 0.123337 1.710688 0.196552 -0.025884 -450440.000000 0 0 1
34.015799 4.372271 -4.825854 34.633512 0.127836 1.710592 0.185621 -0.035572 -403025.000000 0 0 1
33.707639 3.084771 -4.199754 34.108044 0.091261 1.694241 0.175600 -0.033242 100823.000000 0 0 1
32.379699 2.650971 -4.419054 32.787201 0.081689 1.705988 0.167053 -0.035211 242781.000000 0 0 1
32.005799 1.299871 -3.678154 32.242668 0.040591 1.685122 0.189849 -0.027350 -392878.000000 0 0 1
32.798599 0.299671 -4.158654 33.062551 0.009136 1.696912 0.139045 -0.031854 -141315.000000 0 0 1
32.465929 -0.929929 -3.542454 32.671857 -0.028635 1.679435 0.139214 -0.026519 35578.100000 0 0 1
33.704499 -1.826429 -3.699554 33.956086 -0.054137 1.679964 0.126934 -0.032594 -105474.000000 0 0 1
33.556709 -3.128629 -3.096654 33.844206 -0.092965 1.662422 0.095389 -0.026807 -619271.000000 0 0 1
34.765989 -3.816229 -3.053654 35.107868 -0.109331 1.657886 0.125012 -0.034064 -393017.000000 0 0 1
34.688329 -5.339729 -2.722054 35.202307 -0.152736 1.648200 0.131379 -0.032798 -123245.000000 0 0 1
34.416769 -5.593529 -1.349854 34.894464 -0.161115 1.609490 0.110229 -0.021644 77831.900000 0 0 1
34.524429 -6.971629 -1.122354 35.239175 -0.199254 1.602651 0.132024 -0.030394 -274233.000000 0 0 1
34.210189 -7.381929 0.357046 34.999391 -0.212523 1.560595 0.125958 -0.022645 -589048.000000 0 0 1
32.841029 -7.204829 0.574446 33.626964 -0.215964 1.553713 0.114481 -0.028372 -429490.000000 0 0 1
32.373179 -7.608229 1.871846 33.307832 -0.230828 1.514568 0.125638 -0.034797 -402839.000000 0 0 1
32.122149 -9.115029 1.996646 33.450004 -0.276493 1.511070 0.131680 -0.028525 -194850.000000 0 0 1
30.992929 -9.598829 1.284046 32.470724 -0.300341 1.531241 0.145273 -0.038299 9396.840000 0 0 1
29.840879 -9.623429 2.084446 31.423452 -0.311961 1.504413 0.151087 -0.042452 21988.300000 0 0 1
28.607529 -10.301929 1.331546 30.435069 -0.345655 1.527032 0.183727 -0.041280 -401165.000000 0 0 1
27.399529 -10.156129 2.011146 29.290371 -0.354967 1.502080 0.206890 -0.048685 91942.600000 0 0 1
26.534629 -9.141329 1.529646 28.106765 -0.331772 1.516347 0.199072 -0.053653 -89944.900000 0 0 1
25.797829 -9.320129 0.179546 27.430366 -0.346684 1.564251 0.179156 -0.044019 -443995.000000 0 0 1
26.724129 -9.495429 -0.913554 28.375638 -0.341400 1.602997 0.168707 -0.049510 708840.000000 0 0 1
26.139529 -9.845829 -2.181554 28.017396 -0.360229 1.648739 0.162822 -0.054230 128295.000000 0 0 1
25.364429 -11.214229 -2.180854 27.818506 -0.416285 1.649273 0.154858 -0.039254 944369.000000 0 0 1
23.991929 -11.228929 -1.774654 26.549028 -0.437746 1.637691 0.149807 -0.032468 793185.000000 0 0 1
23.463429 -12.540729 -1.598854 26.652555 -0.490849 1.630821 0.125926 -0.021680 742152.000000 0 0 1
21.921829 -12.508929 -1.283054 25.272240 -0.518533 1.621587 0.116553 -0.020472 517866.000000 0 0 1
21.195029 -12.105629 -2.425354 24.528715 -0.518939 1.669836 0.114949 -0.021457 -74139.600000 0 1 0
19.828129 -12.321829 -2.145054 23.443195 -0.556029 1.662425 0.110834 -0.019012 37204.900000 0 1 0
18.879929 -11.640629 -3.181154 22.407046 -0.552508 1.713249 0.105535 -0.020279 74714.000000 0 1 0
18.817629 -12.279129 -4.438754 22.903770 -0.578154 1.765831 0.102759 -0.022851 335828.000000 0 1 0
17.699129 -11.846129 -5.181954 21.919000 -0.589827 1.809470 0.084886 -0.027266 -257602.000000 0 1 0
17.640929 -12.299829 -6.643154 22.508213 -0.608866 1.870402 0.096062 -0.036911 -500145.000000 0 1 0
17.200829 -13.636329 -6.843054 22.992289 -0.670318 1.872999 0.098910 -0.036388 438725.000000 0 1 0
17.475929 -14.041429 -8.140454 23.850300 -0.676855 1.919111 0.101584 -0.040439 -493095.000000 0 1 0
16.547429 -15.212229 -8.517554 24.037014 -0.743382 1.933017 0.093211 -0.038990 -310759.000000 0 1 0
15.191829 -14.836029 -8.620954 22.917685 -0.773550 1.956456 0.106992 -0.033773 -317461.000000 0 1 0
14.467629 -15.820729 -9.263954 23.354413 -0.830042 1.978681 0.099935 -0.035515 -403027.000000 0 1 0
14.273529 -15.557829 -10.829654 23.728908 -0.828424 2.044731 0.103384 -0.046527 -583020.000000 0 1 0
13.125329 -14.817929 -11.185954 22.736993 -0.845897 2.085149 0.085766 -0.037007 29472.500000 0 1 0
13.249229 -13.444729 -10.883354 21.788763 -0.792722 2.093811 0.075706 -0.033900 -443174.000000 0 1 0
13.497829 -12.544029 -12.104354 22.046756 -0.748789 2.152001 0.094010 -0.024412 -56049.000000 0 1 0
14.792629 -12.554329 -12.667154 23.170883 -0.703732 2.149195 0.109778 -0.027412 56764.000000 0 1 0
14.751029 -11.960929 -13.965254 23.572972 -0.681324 2.204864 0.130381 -0.027529 -341909.000000 0 1 0
16.117529 -11.684629 -14.601954 24.688506 -0.627285 2.203649 0.127165 -0.035952 -108239.000000 0 1 0
16.801729 -12.872429 -15.010254 25.948126 -0.653749 2.187650 0.118560 -0.031681 179491.000000 0 0 1
18.008429 -12.499129 -15.656454 26.938008 -0.606736 2.191003 0.114641 -0.027161 -119361.000000 0 0 1
18.987529 -13.641629 -15.903654 28.276253 -0.623003 2.168128 0.095456 -0.022110 -451113.000000 0 0 1
19.746329 -13.854429 -14.737254 28.267461 -0.611813 2.119229 0.083278 -0.033223 -450323.000000 0 0 1
20.772129 -14.772329 -14.957454 29.553823 -0.618177 2.101464 0.056535 -0.023156 -910954.000000 0 0 1
21.792329 -14.729929 -13.847954 29.726120 -0.594383 2.055393 0.054382 -0.026924 -599646.000000 0 0 1
22.343429 -13.434929 -13.683254 29.444143 -0.541369 2.054114 0.044905 -0.013833 534752.000000 0 0 1
23.356229 -13.298429 -12.661354 29.709788 -0.517596 2.011049 0.052280 -0.010568 848224.000000 0 0 1
24.202229 -12.004329 -12.754954 29.875419 -0.460443 2.011900 0.064566 -0.014515 -134621.000000 0 0 1
23.479029 -10.895229 -12.263854 28.642153 -0.434469 2.013269 0.060873 -0.010729 98938.700000 0 0 1
24.024229 -9.580729 -12.461154 28.709481 -0.379467 2.019772 0.074309 -0.018389 296843.000000 0 0 1
25.147629 -9.134029 -11.450354 29.102308 -0.348400 1.975179 0.091296 -0.024173 903796.000000 0 0 1
26.341329 -9.894929 -11.655354 30.456896 -0.359334 1.963496 0.080343 -0.018790 410929.000000 0 0 1
27.359329 -9.549029 -10.736054 30.902745 -0.335804 1.925609 0.093260 -0.025216 -122461.000000 0 0 1
28.669129 -10.301829 -11.027354 32.398289 -0.344967 1.918105 0.097458 -0.028182 276877.000000 0 0 1
29.308679 -9.851729 -12.277654 33.268544 -0.324272 1.948780 0.083234 -0.027890 226372.000000 0 0 1
30.672809 -10.190829 -12.294354 34.580707 -0.320769 1.934274 0.070143 -0.030316 -310571.000000 0 0 1
31.344859 -9.874329 -13.640254 35.581724 -0.305181 1.964217 0.047286 -0.021939 -230090.000000 0 0 1
30.815189 -10.606229 -14.725054 35.761644 -0.331488 1.995176 0.048421 -0.018078 -10950.600000 0 0 1
31.483289 -10.225029 -15.874954 36.711890 -0.314030 2.017971 0.028854 -0.015738 -439211.000000 0 0 1
31.026069 -10.982329 -17.124254 37.100789 -0.340208 2.050550 0.017005 -0.007444 747044.000000 0 0 1
29.789549 -10.495729 -17.681554 36.196891 -0.338748 2.081146 0.028147 -0.008199 963103.000000 0 0 1
30.053779 -9.436929 -18.533154 36.548092 -0.304252 2.102601 0.031193 -0.003570 679167.000000 0 0 1
28.716629 -8.895229 -19.204054 35.673037 -0.300386 2.139257 -0.006549 -0.007770 1185340.000000 0 0 1
28.101329 -9.784229 -20.151854 35.937627 -0.335050 2.166082 -0.012929 0.001832 31905.900000 0 0 1
26.823729 -9.310929 -20.460554 34.997716 -0.334103 2.195215 0.026734 0.000430 -273694.000000 0 0 1
26.217629 -9.730429 -21.821054 35.471167 -0.355383 2.233407 0.047620 -0.005180 -12699.000000 0 0 1
25.773329 -11.073129 -21.926654 35.604169 -0.405790 2.234255 0.036294 -0.003405 706439.000000 0 0 1
25.018429 -11.403429 -23.128354 35.928829 -0.427668 2.270155 0.056487 -0.017090 -454558.000000 0 0 1
25.182829 -12.949029 -23.575054 36.846104 -0.474944 2.265067 0.044215 -0.004025 427467.000000 0 0 1
26.435029 -13.139329 -24.208054 38.176990 -0.461279 2.257641 0.043733 -0.001419 605767.000000 0 0 1
27.584929 -13.230529 -23.358354 38.491400 -0.447218 2.222883 0.024369 0.003506 155535.000000 0 0 1
28.791029 -13.906129 -24.041954 40.003991 -0.449957 2.215534 0.015005 0.008637 129913.000000 0 0 1
29.476349 -13.088529 -24.963254 40.783928 -0.417882 2.229492 0.040144 -0.012035 1335690.000000 0 0 1
30.892839 -13.345029 -25.161874 42.018772 -0.407766 2.212829 0.019277 -0.009285 1536140.000000 0 0 1
31.381719 -12.688529 -26.490384 42.983153 -0.384232 2.234828 0.032832 -0.008347 30624.000000 0 0 1
31.223899 -13.544329 -27.596864 43.817435 -0.409285 2.252111 0.040446 -0.008709 262535.000000 0 0 1
31.973989 -12.992529 -28.670214 44.867839 -0.385966 2.263984 0.048063 -0.005321 132793.000000 0 0 1
32.139169 -13.834529 -29.980624 46.077741 -0.406484 2.279240 0.045488 -0.010898 17117.200000 0 0 1
32.889809 -15.016729 -29.834384 46.875709 -0.428310 2.260693 0.058220 -0.011246 -260258.000000 0 0 1
33.097229 -15.803429 -30.973274 48.005402 -0.445474 2.272087 0.032708 -0.009201 -50077.300000 0 0 1
31.913249 -16.492229 -31.680164 47.896575 -0.476984 2.293518 0.023638 0.006723 731629.000000 0 0 1
30.974239 -15.630229 -32.384204 47.459922 -0.467337 2.321767 0.022697 -0.000010 865789.000000 0 0 1
29.968609 -16.389829 -33.064484 47.539501 -0.500460 2.339934 0.029911 0.002158 474328.000000 0 0 1
29.042729 -15.589629 33.864741 47.258198 -0.492639 0.771896 0.043440 -0.004286 203627.000000 0 0 1
28.314729 -14.490829 -33.436824 46.148989 -0.473025 2.381164 0.053922 -0.008424 100408.000000 0 0 1
29.074929 -13.344429 -33.205814 46.109124 -0.430286 2.374825 0.072768 -0.014635 -689374.000000 0 0 1
28.257129 -12.089029 -32.937974 45.050195 -0.404259 2.390787 0.075429 -0.019426 140565.000000 0 0 1
27.381929 -11.772729 33.874931 45.120706 -0.406052 0.721581 0.077193 -0.021640 -198.184000 0 0 1
26.295329 -10.925329 -33.726874 44.139655 -0.393784 2.440433 0.047906 -0.027254 -3421.910000 0 0 1
21.353286 -29.866838 8.764646 37.746654 -0.950107 1.336461 0.036880 -0.020073 -75365.200000 0 0 1
22.113886 -29.297238 7.739246 37.513305 -0.924223 1.362997 0.054780 -0.021309 -1261280.000000 0 0 1
23.225386 -30.056838 7.488646 38.715783 -0.912915 1.376143 0.050734 -0.018874 -840379.000000 0 0 1
23.744986 -29.757838 6.016746 38.542892 -0.897312 1.414050 0.043932 -0.018178 -31475.800000 0 0 1
24.117086 -28.414838 5.935246 37.739422 -0.867029 1.412872 0.046812 -0.011212 -20356.400000 0 0 1
24.655186 -28.115638 4.628746 37.680135 -0.850880 1.447642 0.045905 -0.009555 15778.600000 0 0 1
24.664586 -26.580838 4.330546 36.518987 -0.822774 1.451933 0.050350 -0.014318 41771.600000 0 0 1
25.350986 -25.763438 5.260646 36.525356 -0.793467 1.426266 0.049127 -0.005307 162295.000000 0 0 1
24.999786 -24.389938 5.101946 35.297142 -0.773051 1.425745 0.049288 -0.000641 -370121.000000 0 0 1
25.860686 -23.481438 5.971846 35.437494 -0.737216 1.401471 0.034057 0.003029 -1384080.000000 0 0 1
27.113086 -23.342038 5.410646 36.183494 -0.710796 1.420700 0.040822 0.002745 -543108.000000 0 0 1
28.060886 -22.596338 6.192546 36.556196 -0.677941 1.400578 0.058647 -0.001593 490249.000000 0 0 1
27.753586 -21.073038 6.436846 35.436809 -0.649421 1.388139 0.052148 0.006287 -410417.000000 0 0 1
27.762286 -20.336838 5.211346 34.806459 -0.632229 1.420508 0.053423 0.017153 113266.000000 0 0 1
27.652086 -18.923838 5.541446 33.962584 -0.600148 1.406900 0.072678 0.005865 20423.300000 0 0 1
27.795486 -17.990538 4.341046 33.393011 -0.574437 1.440429 0.081394 0.013174 -126698.000000 0 0 1
29.048886 -17.895638 3.721946 34.321196 -0.552139 1.462138 0.091168 0.005792 -59915.700000 0 0 1
28.861886 -17.121438 2.509846 33.651916 -0.535419 1.496144 0.097747 0.010020 147687.000000 0 0 1
29.907586 -16.002538 2.299246 33.997521 -0.491305 1.503115 0.128295 -0.014650 -54415.100000 0 0 1
29.799486 -14.936838 3.211546 33.487796 -0.464643 1.474747 0.138454 -0.026592 -126987.000000 0 0 1
30.989986 -14.218638 3.406146 34.265883 -0.430159 1.471228 0.148568 -0.032556 -68680.600000 0 0 1
30.830486 -12.986438 4.376946 33.739059 -0.398665 1.440700 0.164409 -0.032702 169696.000000 0 0 1
30.557586 -13.364138 5.732246 33.841171 -0.412278 1.400589 0.145598 -0.029751 10225.800000 0 0 1
30.412886 -12.306938 6.612246 33.468286 -0.384519 1.371920 0.133925 -0.029154 -113694.000000 0 0 1
30.013086 -12.659938 8.102246 33.566438 -0.399169 1.327009 0.154288 -0.022336 971494.000000 0 0 1
28.691686 -13.239738 8.278646 32.665570 -0.432334 1.314565 0.137297 -0.019848 1162910.000000 0 0 1
28.093886 -13.302438 9.573846 32.525064 -0.442223 1.272018 0.144524 -0.014236 185349.000000 0 0 1
28.593986 -14.318838 10.632546 33.700092 -0.464259 1.249808 0.132039 -0.018335 -565406.000000 0 0 1
29.885686 -14.195938 11.138046 34.910384 -0.443455 1.246073 0.113385 -0.017248 -448341.000000 0 0 1
30.039686 -15.345438 11.890146 35.766475 -0.472281 1.231909 0.111049 -0.021768 295643.000000 0 0 1
31.113486 -15.360638 13.003946 37.055375 -0.458593 1.212229 0.100466 -0.023181 919173.000000 0 0 1
32.476986 -14.975538 12.792446 37.982470 -0.432056 1.227281 0.085982 -0.023216 969119.000000 0 0 1
33.142086 -15.145638 14.067146 39.059862 -0.428652 1.202375 0.089052 -0.028101 -45039.500000 0 0 1
34.676586 -15.186038 14.010846 40.365643 -0.412774 1.216321 0.088414 -0.031776 -245874.000000 0 0 1
35.178586 -13.863238 13.773446 40.242143 -0.375394 1.221471 0.089969 -0.031659 -877838.000000 0 0 1
36.554186 -13.805038 13.737846 41.418788 -0.361100 1.232711 0.085108 -0.031053 -1122310.000000 0 0 1
36.994286 -12.351338 13.407246 41.241811 -0.322235 1.239691 0.076355 -0.035217 174237.000000 0 0 1
-36.013857 -12.304438 12.864846 40.173391 0.329224 1.244821 0.090220 -0.037967 102763.000000 0 0 1
-35.403557 -11.079438 12.957046 39.294413 0.303292 1.234765 0.091367 -0.039261 374079.000000 0 0 1
-34.144757 -10.942338 12.023746 37.817584 0.310128 1.247240 0.094047 -0.036218 839788.000000 0 0 1
-33.010857 -11.743038 12.318946 37.139899 0.341773 1.232702 0.080540 -0.034143 324769.000000 0 0 1
-33.064357 -13.084338 11.883446 37.492238 0.376814 1.248276 0.077186 -0.035588 -1084410.000000 0 0 1
-31.852457 -13.910838 12.249746 36.853042 0.411762 1.231955 0.064269 -0.022487 -25422.200000 0 0 1
-30.684957 -13.598338 11.481546 35.472627 0.417151 1.241187 0.068710 -0.022515 405984.000000 0 0 1
-29.702657 -14.586438 11.709046 35.101478 0.456488 1.230701 0.072632 -0.020087 -97636.000000 0 0 1
-28.353657 -14.487638 10.983446 33.681711 0.472379 1.238626 0.080395 -0.019729 -85583.600000 0 0 1
-28.427157 -14.694838 9.618946 33.415051 0.477099 1.278802 0.077113 -0.015963 -280330.000000 0 0 1
-27.197057 -14.419538 9.022946 32.078288 0.487505 1.285670 0.077098 -0.011991 -382246.000000 0 0 1
-27.206457 -14.388238 7.488146 31.674675 0.486463 1.332129 0.112343 -0.005190 -45651.900000 0 0 1
-27.419057 -15.691838 6.990246 32.355865 0.519800 1.353037 0.109752 -0.000407 207449.000000 0 0 1
-27.125157 -15.684238 5.608146 31.831129 0.524249 1.393688 0.113454 0.000881 -465308.000000 0 0 1
-27.587657 -16.912038 4.748246 32.705377 0.549945 1.425099 0.104299 -0.003965 -114744.000000 0 0 1
-28.969657 -16.892138 4.501146 33.835568 0.527899 1.437371 0.080804 -0.015537 73255.300000 0 0 1
-29.550557 -18.039838 3.858846 34.836215 0.548085 1.459797 0.074228 -0.013875 943349.000000 0 0 1
-31.104057 -18.203538 4.008946 36.261589 0.529501 1.460014 0.104103 -0.024561 740417.000000 0 0 1
-31.818257 -17.252638 3.260446 36.341237 0.496854 1.480958 0.129256 -0.029071 319251.000000 0 0 1
-33.191057 -17.231538 3.656146 37.575785 0.478859 1.473342 0.140550 -0.034993 395098.000000 0 0 1
-34.117957 -16.384638 2.756546 37.948517 0.447711 1.498093 0.112921 -0.035962 9363.400000 0 0 1
-34.534957 -16.990438 1.577346 38.520466 0.457209 1.529837 0.118276 -0.023582 50595.300000 0 0 1
-35.304557 -16.069438 0.791146 38.797739 0.427142 1.550403 0.141716 -0.024446 468688.000000 0 0 1
-35.809157 -16.607038 -0.583354 39.476952 0.434242 1.585574 0.133633 -0.022814 -74022.300000 0 0 1
-34.681257 -16.928538 -1.365154 38.616430 0.454097 1.606155 0.125415 -0.018722 103678.000000 0 0 1
-35.042357 -17.629638 -2.499154 39.306701 0.466121 1.634420 0.109877 -0.013790 58102.500000 0 0 1
-33.934157 -18.107338 -3.491854 38.621183 0.490167 1.661333 0.092612 -0.009622 156257.000000 0 0 1
-34.447757 -19.056938 -4.407454 39.613641 0.505306 1.682288 0.092156 -0.018524 367713.000000 0 0 1
-33.477057 -20.045038 -4.711054 39.302811 0.539514 1.690951 0.080535 -0.011241 -187165.000000 0 0 1
-34.022357 -21.167138 -5.557854 40.453161 0.556550 1.708622 0.095136 -0.015989 -332655.000000 0 0 1
-34.695557 -22.196138 -4.901954 41.478662 0.569129 1.689253 0.110635 -0.024494 -43593.100000 0 0 1
-35.225657 -23.087338 -5.852854 42.522089 0.580171 1.708877 0.090001 -0.016104 73806.800000 0 0 1
-35.783457 -24.366238 -5.196354 43.602425 0.597816 1.690256 0.095524 -0.016093 -292400.000000 0 0 1
-34.741957 -25.159338 -4.753254 43.157726 0.626769 1.681157 0.103330 -0.017810 -701017.000000 0 0 1
-35.234457 -26.426538 -4.457454 44.268474 0.643514 1.671659 0.072578 -0.010314 209545.000000 0 0 1
-34.222657 -27.494338 -3.964654 44.077743 0.676808 1.660865 0.068314 -0.014232 -276343.000000 0 0 1
-33.244257 -27.926038 -4.931854 43.696309 0.698675 1.683904 0.071379 -0.017315 804094.000000 0 0 1
-32.412557 -28.969638 -4.442654 43.698409 0.729367 1.672639 0.070070 -0.009560 484593.000000 0 0 1
-31.396157 -28.696538 -3.297254 42.662418 0.740504 1.648161 0.087154 -0.014486 -743386.000000 0 0 1
-32.036557 -28.542438 -2.056254 42.956256 0.727783 1.618683 0.080995 -0.013201 130998.000000 0 0 1
-31.114357 -28.327538 -0.980354 42.089354 0.738549 1.594091 0.087825 -0.014570 129996.000000 0 0 1
-31.850457 -28.136138 0.383146 42.499891 0.723558 1.561781 0.076622 -0.012962 266313.000000 0 0 1
-32.407657 -29.409538 0.722746 43.768705 0.736936 1.554283 0.067579 -0.008583 -551519.000000 0 0 1
-33.170857 -29.205638 1.845346 44.234380 0.721914 1.529067 0.072676 -0.007905 -666168.000000 0 0 1
-33.755157 -30.497238 2.395546 45.554701 0.734737 1.518186 0.051092 -0.000632 -547433.000000 0 0 1
-34.624057 -30.274738 3.506846 46.126815 0.718481 1.494697 0.048950 0.003358 159695.000000 0 0 1
-35.246257 -31.407138 4.119146 47.388547 0.727863 1.483764 0.042204 0.008541 741816.000000 0 0 1
-36.410257 -32.007638 3.243046 48.587170 0.721138 1.504000 0.031046 0.008866 -298225.000000 0 0 1
-36.869157 -33.223938 3.721446 49.769609 0.733440 1.495953 0.050703 0.002111 -390866.000000 0 0 1
36.371886 -33.560438 2.888346 49.573780 -0.745217 1.512500 0.052160 -0.005231 -933843.000000 0 0 1
35.286186 33.666671 3.570546 48.901006 0.761915 1.497715 0.059068 -0.007304 -568187.000000 0 0 1
34.361286 -33.827838 4.520646 48.429917 -0.777575 1.477316 0.061865 -0.012027 1284290.000000 0 0 1
33.454386 -32.832038 3.974146 47.041816 -0.776010 1.486214 0.074792 -0.013987 579901.000000 0 0 1
32.454486 -33.188538 2.848246 46.506830 -0.796580 1.509514 0.059983 -0.010383 -70006.400000 0 0 1
33.226186 -33.419738 1.666946 47.155456 -0.788302 1.535439 0.056536 -0.001684 225337.000000 0 0 1
32.393486 -33.176338 0.551346 46.371449 -0.797337 1.558906 0.062834 0.001146 -470475.000000 0 0 1
32.953886 -33.845138 -0.710954 47.243597 -0.798740 1.585846 0.057497 -0.000568 321742.000000 0 0 1
34.046986 -33.297838 -1.391354 47.643249 -0.774275 1.600004 0.026107 0.011521 -277123.000000 0 0 1
35.283386 -33.291938 -0.706254 48.515660 -0.756366 1.585354 0.026386 0.013763 -454494.000000 0 0 1
36.522686 -33.097038 -1.601654 49.314154 -0.736233 1.603281 0.026568 0.014162 -217757.000000 0 0 1
36.970886 33.744371 -2.225054 50.104689 0.739803 1.615219 0.024453 -0.001563 218991.000000 0 0 1
-36.791757 34.010671 -3.469454 50.223463 -0.746139 1.639932 0.033451 0.000396 -501483.000000 0 0 1
-36.260857 32.773971 -4.158354 49.053795 -0.734932 1.655669 0.041413 -0.005969 102224.000000 0 0 1
-35.084257 32.244771 -3.563954 47.784225 -0.743250 1.645450 0.049111 -0.000609 93304.400000 0 0 1
-34.436057 31.345171 -4.393954 46.772520 -0.738445 1.664878 0.061426 -0.018800 -177335.000000 0 0 1
-33.092257 30.804871 -3.882554 45.377437 -0.749615 1.656462 0.073163 -0.023473 -195289.000000 0 0 1
-31.958757 31.630971 -4.113054 45.153047 -0.780244 1.662014 0.074479 -0.016256 1017130.000000 0 0 1
-30.689657 31.015671 -3.792854 43.797405 -0.790682 1.657505 0.090341 -0.028280 1276490.000000 0 0 1
-30.252557 30.953771 -2.311354 43.343921 -0.796854 1.624148 0.081616 -0.020087 -506654.000000 0 0 1
-31.164857 30.191171 -1.589054 43.419814 -0.769530 1.607402 0.075049 -0.010344 -576851.000000 0 0 1
-30.841457 30.159171 -0.244754 43.137350 -0.774214 1.576470 0.067475 0.000214 -428627.000000 0 0 1
-31.942457 29.670671 0.701546 43.602310 -0.748543 1.554706 0.065425 -0.008823 -230266.000000 0 0 1
-32.339957 28.369371 0.416346 43.021708 -0.720088 1.561119 0.062542 -0.015511 45813.600000 0 0 1
-33.625957 28.319171 -0.179154 43.962627 -0.699938 1.574871 0.074816 -0.014302 -67217.100000 0 0 1
-33.972457 26.927771 -0.757654 43.356738 -0.670234 1.588272 0.079589 -0.013238 -247403.000000 0 0 1
-34.187257 25.900271 0.167546 42.890799 -0.648347 1.566890 0.088471 -0.018870 -13121.600000 0 0 1
-34.542257 24.705271 -0.413254 42.469857 -0.620867 1.580527 0.102521 -0.009878 -252671.000000 0 0 1
-34.467757 23.542871 0.584746 41.744880 -0.599253 1.556788 0.113855 -0.014534 493729.000000 0 0 1
-33.121557 23.307371 0.993046 40.512433 -0.613199 1.546282 0.118786 -0.019970 567158.000000 0 0 1
-32.814757 23.909171 2.231946 40.662493 -0.629671 1.515879 0.097396 -0.018731 -657956.000000 0 0 1
-31.350057 23.653871 2.663946 39.362778 -0.646380 1.503068 0.089943 -0.023112 1038840.000000 0 0 1
-30.290657 24.275171 1.872746 38.862772 -0.675599 1.522589 0.084289 -0.022217 933855.000000 0 0 1
-30.251157 25.740971 2.032546 39.772620 -0.705021 1.519670 0.064074 -0.022723 -360845.000000 0 0 1
-29.473557 26.399171 0.871146 39.577338 -0.730429 1.548783 0.047774 -0.022179 165951.000000 0 0 1
-28.125557 26.081171 0.644646 38.362612 -0.747701 1.553992 0.052630 -0.026568 -236613.000000 0 0 1
-27.590257 26.848271 -0.407254 38.499582 -0.771769 1.581375 0.060645 -0.022613 432075.000000 0 0 1
-26.445657 26.201371 -1.260454 37.248804 -0.780758 1.604642 0.059857 -0.027392 -137727.000000 0 0 1
-26.802957 25.260071 -2.181354 36.894824 -0.755772 1.629954 0.059296 -0.037218 427448.000000 0 0 1
-25.668457 24.567871 -2.741854 35.636607 -0.763493 1.647812 0.063165 -0.031799 928742.000000 0 0 1
-24.780457 23.669971 -1.842754 34.318134 -0.762482 1.624518 0.067299 -0.035531 191342.000000 0 0 1
-25.312057 22.343171 -1.710154 33.805949 -0.723179 1.621405 0.052593 -0.029389 282646.000000 0 0 1
-24.394257 21.521271 -0.991554 32.545784 -0.722909 1.601267 0.056099 -0.035302 -808178.000000 0 0 1
-24.837157 20.082371 -0.751654 31.949194 -0.679940 1.594325 0.060399 -0.031252 37611.300000 0 0 1
-25.686057 19.827771 0.394046 32.451029 -0.657388 1.558653 0.041558 -0.020016 1778030.000000 0 0 1
-26.981857 20.494171 0.423746 33.885266 -0.649588 1.558291 0.043004 -0.018820 911072.000000 0 0 1
-28.078857 20.044671 -0.596354 34.504589 -0.619975 1.588081 0.056265 -0.030532 -524779.000000 0 0 1
-28.409157 18.731071 -0.245454 34.029303 -0.582908 1.578009 0.080726 -0.033928 -14448.800000 0 0 1
-29.175057 18.124171 -1.246854 34.368942 -0.555878 1.607083 0.096806 -0.026544 -302400.000000 0 0 1
-29.202257 16.575771 -1.067154 33.595637 -0.516270 1.602566 0.106189 -0.026726 -24975.200000 0 0 1
-30.071057 16.211671 -0.015054 34.162655 -0.494446 1.571237 0.120857 -0.038501 373299.000000 0 0 1
-30.393157 14.829071 0.067846 33.817894 -0.453927 1.568790 0.136807 -0.041925 368736.000000 0 0 1
-29.194057 13.949371 0.563546 32.360400 -0.445743 1.553381 0.139602 -0.039444 84336.500000 0 0 1
-28.986157 14.008771 1.998346 32.255796 -0.450192 1.508804 0.141563 -0.040796 358848.000000 0 0 1
-27.729957 13.657971 2.564046 31.017173 -0.457658 1.488037 0.130104 -0.036030 273971.000000 0 0 1
-27.193957 12.204471 2.394646 29.903089 -0.421850 1.490630 0.146408 -0.034300 -288408.000000 0 0 1
-26.847357 11.926271 1.031646 29.395252 -0.418041 1.535693 0.132562 -0.035100 465504.000000 0 0 1
-26.319257 10.599271 0.988646 28.390584 -0.382848 1.535966 0.143990 -0.032554 66419.900000 0 0 1
-26.090857 9.944971 -0.385354 27.924609 -0.364166 1.584597 0.136451 -0.028151 -632087.000000 0 0 1
-27.335457 9.645471 -0.927654 29.002118 -0.339217 1.602788 0.153626 -0.034275 -119143.000000 0 0 1
-27.290657 8.992171 -2.174254 28.816080 -0.318293 1.646321 0.168722 -0.033839 1006680.000000 0 0 1
-28.757957 8.692371 -2.688954 30.163022 -0.293529 1.660062 0.166629 -0.033465 996672.000000 0 0 1
-28.702957 8.144371 -3.962154 30.097993 -0.276480 1.702821 0.172978 -0.027734 499244.000000 0 0 1
-29.977957 7.948771 -4.566554 31.348274 -0.259189 1.716988 0.180367 -0.027355 332058.000000 0 0 1
-11.484314 17.706871 -19.642854 28.831657 -0.995420 2.320326 0.116782 -0.025641 129694.000000 0 0 1
-11.846414 16.993071 -20.748054 29.318659 -0.961998 2.356997 0.116418 -0.032037 -379217.000000 0 0 1
-10.984714 17.102571 -21.860454 29.850315 -0.999864 2.392542 0.104002 -0.029504 -90487.800000 0 0 1
-11.047714 15.838971 -22.702554 29.804881 -0.961749 2.436738 0.097949 -0.023942 -82872.000000 0 0 1
-10.272914 14.747171 -22.284054 28.628498 -0.962354 2.462889 0.118386 -0.034247 -19905.300000 0 0 1
-10.461714 13.636071 -23.163954 28.843694 -0.916372 2.503252 0.102017 -0.032196 150115.000000 0 0 1
-9.615114 12.434671 -22.652354 27.571736 -0.912580 2.534971 0.085251 -0.023925 -351186.000000 0 0 1
-8.243414 12.564371 -22.858754 27.355803 -0.990149 2.560037 0.077781 -0.023429 -666247.000000 0 0 1
-7.563914 11.461971 -22.313854 26.201100 -0.987483 2.589899 0.069424 -0.015628 880350.000000 0 0 1
-5.999714 11.500371 -22.362454 25.852165 -1.089942 2.615972 0.063653 -0.011366 980040.000000 0 0 1
-5.372214 11.228371 -23.608754 26.689141 -1.124537 2.656395 0.059242 -0.019807 1619380.000000 0 0 1
-3.915514 11.140271 -23.496054 26.296415 -1.232809 2.675894 0.054218 -0.020252 1476830.000000 0 0 1
-3.140114 10.894671 -24.763154 27.235418 -1.290177 2.712218 0.082936 -0.026990 -343255.000000 0 0 1
-3.012314 9.543371 -25.182544 27.098164 -1.265049 2.763331 0.091327 -0.034830 28377.000000 0 0 1
-2.254014 9.540871 -26.372114 28.135337 -1.338802 2.785685 0.092969 -0.037095 -321539.000000 0 0 1
-1.885814 8.111071 -26.882284 28.142547 -1.342356 2.841194 0.100328 -0.020537 -595873.000000 0 0 1
-0.882714 7.460071 -26.193504 27.249431 -1.453019 2.862296 0.102881 -0.023170 -509254.000000 0 0 1
-1.092014 7.171271 -24.829254 25.867189 -1.419681 2.857350 0.116317 -0.040634 -436380.000000 0 0 1
-0.050314 6.201971 -24.254854 25.035274 -1.562684 2.891248 0.059579 -0.027593 587673.000000 0 0 1
1.321386 6.619071 -24.327354 25.246353 1.373754 2.870948 0.082571 -0.003970 1135060.000000 0 0 1
2.187386 5.897371 -23.409554 24.239861 1.215617 2.879100 0.075251 0.005179 456536.000000 0 1 0
2.090686 6.246871 -21.873954 22.844348 1.247837 2.849077 0.055211 -0.006706 -230317.000000 0 1 0
2.568686 7.579071 -21.715454 23.143064 1.244028 2.788517 0.029809 -0.014707 220852.000000 0 1 0
2.323586 8.126571 -20.455854 22.133282 1.292302 2.749764 0.034829 -0.015493 27507.700000 0 1 0
2.955786 9.552671 -20.483454 22.793904 1.270720 2.687450 0.029579 -0.019616 262918.000000 0 1 0
2.569586 10.305371 -19.286954 22.017948 1.326435 2.638229 0.041992 -0.024713 460963.000000 0 1 0
3.161086 11.604371 -19.467354 22.883002 1.304845 2.588177 0.042012 -0.023087 -26997.600000 0 1 0
4.478486 11.869271 -18.752654 22.640637 1.209995 2.546817 0.051512 -0.021839 -135126.000000 0 1 0
5.543986 11.023371 -19.146454 22.777998 1.104807 2.569127 0.054216 -0.023796 760742.000000 0 1 0
6.570086 10.816471 -18.129754 22.109954 1.024943 2.532175 0.066277 -0.021910 251451.000000 0 1 0
7.803586 10.085971 -18.588454 22.542258 0.912295 2.540300 0.096992 -0.033245 -933542.000000 0 1 0
7.680086 8.677371 -18.859554 22.135114 0.846291 2.590628 0.084315 -0.022443 304729.000000 0 1 0
6.914486 8.339871 -20.029354 22.771442 0.878569 2.645780 0.058400 -0.011934 219257.000000 0 1 0
6.661586 6.807471 -20.280454 22.405696 0.796229 2.702522 0.062362 -0.017540 152975.000000 0 1 0
7.861486 6.110171 -20.570854 22.853822 0.660701 2.690808 0.062691 -0.009116 423332.000000 0 1 0
7.604886 4.743271 -20.753454 22.606166 0.557674 2.733915 0.054823 -0.002418 -143544.000000 0 1 0
7.737686 4.353071 -22.234654 23.941613 0.512451 2.761697 0.067464 -0.013339 -1003480.000000 0 1 0
6.703486 4.876271 -22.968754 24.418812 0.628895 2.795240 0.068391 -0.015505 -647156.000000 0 1 0
6.898986 4.861071 -24.365754 25.785965 0.613811 2.808156 0.062934 -0.012629 -314193.000000 0 0 1
5.873086 5.700171 -25.145774 26.444187 0.770458 2.826927 0.050592 -0.013305 -204206.000000 0 0 1
6.106086 7.120971 -25.172394 26.863394 0.861976 2.784886 0.039633 -0.024392 259290.000000 0 0 1
5.802386 7.770071 -23.939854 25.829408 0.929371 2.756716 0.063072 -0.033262 -1064650.000000 0 0 1
5.730286 9.260171 -24.197754 26.535226 1.016661 2.718712 0.070781 -0.039198 892282.000000 0 0 1
4.615786 9.769771 -24.985654 27.221991 1.129426 2.733421 0.057098 -0.041155 1948560.000000 0 0 1
3.300686 9.516071 -24.434254 26.428827 1.236927 2.750598 0.063853 -0.028036 760815.000000 0 0 1
2.075286 9.905371 -25.303104 27.251977 1.364272 2.761114 0.089344 -0.018387 263087.000000 0 0 1
1.866586 11.282371 -25.521994 27.966913 1.406839 2.720342 0.098752 -0.037345 470826.000000 0 0 1
0.870886 11.532671 -26.558574 28.967547 1.495425 2.730886 0.128064 -0.039478 641727.000000 0 0 1
0.655486 12.977571 -26.905724 29.879173 1.520330 2.691678 0.118814 -0.046264 -295382.000000 0 0 1
-0.016614 13.672871 -25.862594 29.254426 -1.569581 2.655270 0.103995 -0.043146 152896.000000 0 0 1
-0.550114 14.943471 -26.249294 30.209856 -1.534000 2.623769 0.112434 -0.054462 168530.000000 0 0 1
-1.135514 15.694571 -24.988154 29.529930 -1.498571 2.579605 0.115522 -0.055707 924130.000000 0 0 1
-2.242214 15.007371 -24.337454 28.680313 -1.422486 2.584086 0.098522 -0.042718 503453.000000 0 0 1
-2.522514 15.561671 -23.089954 27.958445 -1.410096 2.542534 0.097288 -0.045387 -685418.000000 0 0 1
-3.809214 15.054971 -22.412954 27.267247 -1.322977 2.535664 0.085918 -0.039354 634919.000000 0 0 1
-5.072814 15.463371 -22.942554 28.128457 -1.253805 2.524622 0.091660 -0.040295 322664.000000 0 0 1
-5.362814 15.018971 -24.263554 29.035312 -1.227838 2.560124 0.089612 -0.040326 -2114300.000000 0 0 1
-6.824614 15.146371 -24.556654 29.648224 -1.147462 2.546805 0.060662 -0.035003 -1252950.000000 0 0 1
-7.242014 16.474171 -24.745754 30.597343 -1.156626 2.512829 0.060942 -0.035235 586006.000000 0 0 1
-8.576614 16.331771 -25.282074 31.296459 -1.087232 2.511250 0.063509 -0.028001 654013.000000 0 0 1
-9.220814 17.644171 -25.744004 32.543723 -1.089234 2.483334 0.065853 -0.028874 -232713.000000 0 0 1
-9.652514 18.497971 -24.681554 32.319113 -1.089850 2.439795 0.067780 -0.027650 470566.000000 0 0 1
-10.676714 19.385071 -25.157704 33.506466 -1.067362 2.420116 0.053377 -0.014854 738732.000000 0 0 1
-11.436114 20.221471 -24.107454 33.479276 -1.056098 2.374701 0.060952 -0.020956 495290.000000 0 0 1
-10.739114 21.432971 -23.806654 33.785464 -1.106304 2.352715 0.075573 -0.021045 454659.000000 0 0 1
-11.633614 22.513671 -23.997754 34.901269 -1.093850 2.328961 0.057838 -0.024784 244734.000000 0 0 1
-11.569814 23.175371 -25.376384 36.261816 -1.107766 2.345928 0.052821 -0.015003 -311949.000000 0 0 1
-11.953214 22.326471 -26.434294 36.607684 -1.079245 2.377625 0.051205 -0.017765 73820.400000 0 0 1
-11.789914 23.007671 -27.670384 37.868261 -1.097251 2.390145 0.068551 -0.005842 -257536.000000 0 0 1
-12.282814 22.223871 -28.932054 38.494567 -1.065894 2.421262 0.067734 -0.011000 257558.000000 0 0 1
-11.463114 21.170671 -29.478914 38.060566 -1.074532 2.456762 0.068146 -0.014125 248240.000000 0 0 1
-11.117214 20.082771 -28.638614 36.702593 -1.065217 2.465923 0.056805 -0.020251 -256441.000000 0 0 1
-10.183114 19.094671 -29.358404 36.472156 -1.080868 2.506394 0.050985 -0.020196 -800769.000000 0 0 1
-8.855014 19.503771 -29.153474 36.176421 -1.144608 2.507939 0.044896 -0.019383 288669.000000 0 0 1
-7.842814 18.704071 -29.838444 36.078868 -1.173755 2.544607 0.043648 -0.013411 1019440.000000 0 0 1
-7.484714 17.363571 -29.097664 34.701421 -1.163805 2.565349 0.056666 -0.035588 -783789.000000 0 0 1
-8.478214 16.386671 -29.311254 34.634560 -1.093338 2.579799 0.040281 -0.028711 2194.230000 0 0 1
-8.312814 15.175971 -28.556334 33.389777 -1.069673 2.596814 0.043675 -0.029853 183467.000000 0 0 1
-9.558314 14.214971 -28.520204 33.269037 -0.978827 2.600720 0.046241 -0.019230 540142.000000 0 0 1
-10.443614 14.600771 -27.477024 32.821311 -0.949890 2.562885 0.056683 -0.020611 -32795.200000 0 0 1
-11.630714 13.827071 -27.427434 32.843958 -0.871460 2.559080 0.098903 -0.023521 280587.000000 0 0 1
-12.568414 14.235171 -26.290574 32.431457 -0.847502 2.516058 0.098697 -0.024470 128024.000000 0 0 1
-13.261714 15.474671 -26.535474 33.458480 -0.862255 2.486656 0.093410 -0.023546 -489992.000000 0 0 1
-14.113614 15.804971 -25.478134 33.137992 -0.841870 2.447837 0.072983 -0.021173 181511.000000 0 0 1
-15.113614 16.903671 -25.953954 34.463940 -0.841249 2.423521 0.054245 -0.019767 78460.800000 0 0 1
-14.500614 18.151071 -26.109004 34.948666 -0.896736 2.414436 0.061666 -0.017843 -29188.700000 0 0 1
-15.459614 19.156671 -26.393014 36.091120 -0.891796 2.391005 0.047976 -0.012986 -113877.000000 0 0 1
-14.958414 20.633571 -26.548614 36.801186 -0.943518 2.376627 0.037918 -0.010998 48333.100000 0 0 1
-16.055414 21.540271 -26.580314 37.792495 -0.930267 2.350857 0.021893 -0.009331 344701.000000 0 0 1
-15.713714 22.849271 -26.813334 38.574148 -0.968365 2.339371 0.027395 -0.009481 -185098.000000 0 0 1
-15.293114 23.671271 -25.586134 38.063876 -0.997194 2.307958 -0.005032 -0.003648 -107703.000000 0 0 1
-14.694614 24.907171 -25.918674 38.833961 -1.037781 2.301539 0.016707 -0.010999 196574.000000 0 0 1
-14.344514 25.590171 -24.696054 38.347321 -1.059891 2.270525 0.025908 -0.013582 -255951.000000 0 0 1
-13.956614 27.084271 -24.870054 39.330197 -1.094981 2.255366 0.059421 -0.018266 462455.000000 0 0 1
-15.044414 27.946571 -25.278634 40.575295 -1.076959 2.243376 0.067513 -0.021863 525223.000000 0 0 1
-15.669014 28.580871 -24.178954 40.583322 -1.069310 2.209040 0.068238 -0.020452 103900.000000 0 0 1
-16.984814 29.352271 -24.507354 41.840771 -1.046220 2.196576 0.058634 -0.015411 697453.000000 0 0 1
-17.967414 28.419071 -24.971154 41.881143 -1.007014 2.209604 0.028906 -0.004531 -140134.000000 0 0 1
-19.180814 29.084171 -25.291234 43.051587 -0.987776 2.198717 0.038066 -0.008167 402039.000000 0 0 1
-20.372414 28.080871 -25.376964 42.983263 -0.943166 2.202340 0.034200 0.010446 121635.000000 0 0 1
-20.710414 27.607471 -24.111954 42.100832 -0.927184 2.180615 0.039557 0.011105 -562376.000000 0 0 1
-21.832614 26.778071 -24.222054 42.195213 -0.886785 2.182237 0.045705 0.000940 -407690.000000 0 0 1
-22.503314 26.694871 -22.832954 41.717611 -0.870390 2.149957 0.048737 -0.001026 -535545.000000 0 0 1
-23.265714 27.751971 -22.376354 42.569550 -0.873108 2.124266 0.049481 0.001683 -352985.000000 0 0 1
-23.476714 27.856771 -20.975454 42.037192 -0.870518 2.093210 0.036921 0.007225 -202856.000000 0 0 1
-24.742714 28.602471 -20.513754 43.024613 -0.857627 2.067797 0.018762 0.004189 943614.000000 0 0 1
-25.945544 27.835671 -20.741254 43.338153 -0.820528 2.069846 0.031040 -0.001908 1443380.000000 0 0 1
-27.174864 28.539071 -20.476254 44.409783 -0.809879 2.050003 0.041911 -0.012219 1620030.000000 0 0 1
-28.503474 27.779571 -20.836454 44.925610 -0.772537 2.053075 0.042224 -0.011112 801307.000000 0 0 1
-28.624284 27.331671 -22.168054 45.362898 -0.762302 2.081375 0.038721 -0.006144 -198505.000000 0 0 1
-29.983744 27.132171 -22.487754 46.269630 -0.735514 2.078321 0.047501 -0.009086 23009.900000 0 0 1
-30.224904 26.633171 -23.935854 46.859319 -0.722312 2.106914 0.047740 -0.002083 94814.300000 0 0 1
-29.809744 25.336071 -24.255354 46.031072 -0.704451 2.125786 0.051343 0.008795 -25797.300000 0 0 1
-29.948994 25.249271 -25.655364 46.825908 -0.700460 2.150634 0.069806 0.009726 -257706.000000 0 0 1
-29.987964 23.775271 -26.052554 46.295541 -0.670352 2.168498 0.070998 0.007018 -851574.000000 0 0 1
-28.887004 22.959671 -25.972884 45.124231 -0.671568 2.184117 0.084878 0.000184 -756226.000000 0 0 1
-29.217594 21.740171 -26.582134 45.087833 -0.639700 2.201314 0.098195 -0.010321 248664.000000 0 0 1
-28.050864 20.697071 -26.535924 43.810672 -0.635674 2.221436 0.108170 -0.010759 276471.000000 0 0 1
-27.783754 20.185371 -25.248084 42.624546 -0.628302 2.204752 0.101533 -0.009537 99430.300000 0 0 1
-27.220544 18.885571 -25.285404 41.677026 -0.606552 2.222698 0.091951 -0.016612 366305.000000 0 0 1
-28.266594 17.706971 -25.319254 41.876029 -0.559625 2.220090 0.081188 -0.013508 188046.000000 0 0 1
-29.126274 17.630871 -26.418484 43.094359 -0.544326 2.230697 0.075824 -0.013693 185786.000000 0 0 1
-29.842914 16.404971 -26.275704 43.013198 -0.502621 2.227962 0.059876 -0.019016 -130824.000000 0 0 1
-30.746924 15.940971 -27.421034 44.174665 -0.478304 2.240484 0.038333 -0.021013 -825536.000000 0 0 1
-31.874324 16.714371 -27.556094 45.328590 -0.482964 2.224233 0.034114 -0.018524 -630379.000000 0 0 1
-32.664814 16.211171 -28.636744 46.366532 -0.460674 2.236505 0.041068 -0.021872 566626.000000 0 0 1
-33.982664 16.961871 -28.996714 47.784265 -0.462954 2.222857 0.047860 -0.024811 342435.000000 0 0 1
-35.067104 16.732871 -28.121674 47.963729 -0.445215 2.197294 0.023934 -0.014938 -365537.000000 0 0 1
-36.239334 17.113371 -28.791314 49.346698 -0.441187 2.193766 0.026273 -0.010573 -108781.000000 0 0 1
36.791029 16.796671 -27.987204 49.183244 0.428281 2.176134 0.042176 -0.010206 4605.160000 0 0 1
36.593529 17.649571 -26.891104 48.720890 0.449399 2.155488 0.038287 -0.014809 154048.000000 0 0 1
35.567549 17.171671 -26.029234 47.301563 0.449785 2.153499 0.044783 -0.011363 9932.750000 0 0 1
35.106769 18.277171 -25.095504 46.864960 0.480005 2.135879 0.054709 -0.009656 -350170.000000 0 0 1
34.434789 19.316271 -25.776904 47.152113 0.511213 2.149185 0.064832 -0.024086 179278.000000 0 0 1
34.056989 20.315371 -24.831954 46.789088 0.537850 2.130247 0.091434 -0.020668 -1027540.000000 0 0 1
33.258719 21.421671 -25.562034 47.100403 0.572211 2.144461 0.106418 -0.032568 14347.200000 0 0 1
31.941599 21.181771 -26.008754 46.318338 0.585558 2.167020 0.100338 -0.028658 234865.000000 0 0 1
31.049649 21.162171 -24.867254 45.058834 0.598242 2.155418 0.098459 -0.020619 -985658.000000 0 0 1
29.582509 21.093871 -25.271804 44.257658 0.619432 2.178539 0.057052 -0.021387 -529542.000000 0 0 1
29.164729 19.911071 -25.844574 43.760418 0.599028 2.202589 0.061798 -0.029811 162503.000000 0 0 1
27.961829 20.018571 -26.613014 43.484015 0.621334 2.229407 0.063416 -0.023378 103748.000000 0 0 1
27.481429 18.566471 -26.830244 42.659170 0.594162 2.250991 0.070249 -0.016255 -296479.000000 0 0 1
28.303729 17.697371 -27.571354 43.295237 0.558791 2.261166 0.073300 -0.027477 -573671.000000 0 0 1
29.364859 17.132971 -26.890184 43.346460 0.528163 2.239991 0.079289 -0.023502 -645540.000000 0 0 1
30.147759 16.152871 -27.811484 44.082664 0.491868 2.253501 0.053529 -0.014070 -199477.000000 0 0 1
29.468209 14.995071 -28.269644 43.501727 0.470707 2.278185 0.064704 -0.015398 61184.600000 0 0 1
29.053429 13.993971 -27.358154 42.289497 0.448871 2.274342 0.080869 -0.012256 -157489.000000 0 0 1
30.124229 13.363771 -26.428014 42.243336 0.417537 2.246714 0.072129 -0.007724 28456.000000 0 0 1
30.537509 14.159871 -25.302664 42.110167 0.434178 2.215383 0.063776 -0.014125 515941.000000 0 0 1
31.330479 13.419671 -24.344054 41.884597 0.404685 2.191020 0.053490 -0.007230 296966.000000 0 0 1
-14.627614 -31.228738 -23.693554 41.840001 1.132745 2.172793 0.164092 -0.034933 -122997.000000 0 0 1
-14.038814 -30.044138 -24.114054 41.002758 1.133671 2.199514 0.152417 -0.041739 -45947.000000 0 0 1
-14.392514 -29.735638 -25.444704 41.698748 1.120018 2.227113 0.134002 -0.029640 220873.000000 0 0 1
-13.707814 -28.429638 -26.023384 40.906785 1.121517 2.260311 0.124085 -0.029007 169304.000000 0 0 1
-14.302014 -27.204838 -25.554344 39.970931 1.086788 2.264414 0.116887 -0.026571 236143.000000 0 0 1
-13.718414 -26.041638 -26.106514 39.343511 1.085949 2.296355 0.091184 -0.022581 -110167.000000 0 0 1
-14.369314 -24.727138 -25.633914 38.405808 1.044379 2.301574 0.040408 -0.016724 -164299.000000 0 0 1
-13.836814 -24.382038 -24.402954 37.167800 1.054617 2.287048 0.070202 -0.027929 213012.000000 0 0 1
-14.199914 -23.029238 -24.002654 36.167814 1.018258 2.296480 0.059798 -0.019104 11438.800000 0 0 1
-13.526814 -22.566038 -22.645454 34.713360 1.030794 2.281485 0.080565 -0.020143 817856.000000 0 0 1
-12.148114 -22.230138 -22.806754 34.086709 1.070667 2.303767 0.094508 -0.036512 194424.000000 0 0 1
-11.593414 -21.805438 -21.579354 32.795623 1.082131 2.288949 0.081464 -0.030102 -231873.000000 0 0 1
-10.066614 -21.849538 -21.520154 32.277795 1.139060 2.300591 0.080159 -0.039576 -93372.800000 0 0 1
-9.528814 -20.722738 -22.264454 31.873752 1.139803 2.344124 0.093684 -0.036838 -380530.000000 0 0 1
-8.158914 -20.676638 -22.529654 31.649274 1.194957 2.362930 0.114907 -0.042209 -335832.000000 0 0 1
-7.770514 -19.354538 -23.364154 31.318728 1.189012 2.412850 0.123243 -0.026263 -24692.000000 0 0 1
-7.877214 -18.173238 -22.636454 30.078666 1.161789 2.422760 0.092419 -0.025750 -76909.200000 0 0 1
-8.121214 -17.031938 -23.456454 30.103925 1.125862 2.464157 0.081019 -0.022467 253225.000000 0 0 1
-6.910914 -16.499038 -24.282454 30.159850 1.174131 2.506683 0.098251 -0.026751 143336.000000 0 0 1
-6.687914 -17.291738 -25.426714 31.468241 1.201747 2.511566 0.117980 -0.029634 -63360.300000 0 0 1
-5.529314 -16.879538 -26.110744 31.579473 1.254237 2.544238 0.087283 -0.027593 -81707.800000 0 0 1
-5.476314 -17.569738 -27.507254 33.095842 1.268649 2.551950 0.103489 -0.024922 -539775.000000 0 0 1
-6.492714 -17.198038 -28.368104 33.803509 1.209813 2.566618 0.134373 -0.027295 -471319.000000 0 0 1
-6.509814 -18.095538 -29.510814 35.223775 1.225465 2.564055 0.134184 -0.030499 -649469.000000 0 0 1
-7.625114 -17.804638 -30.478854 36.112436 1.166163 2.575492 0.138771 -0.029984 -490764.000000 0 0 1
-7.457114 -16.600438 -31.281564 36.190045 1.148598 2.614691 0.114059 -0.027051 -137927.000000 0 0 1
-7.576914 -15.376938 -30.588724 35.064653 1.112969 2.630789 0.090513 -0.027061 -240378.000000 0 0 1
-7.923514 -14.230138 -31.552474 35.508274 1.062738 2.665069 0.071666 -0.029538 -222785.000000 0 0 1
-7.005414 -13.887038 -32.572584 36.095691 1.103589 2.696093 0.092542 -0.036961 -182409.000000 0 0 1
-7.595214 -13.167538 -33.638504 36.913687 1.047600 2.717165 0.088099 -0.035055 33534.100000 0 0 1
-8.006214 -11.638238 -33.472654 36.331345 0.968222 2.742248 0.059940 -0.026721 -149891.000000 0 0 1
-6.954514 -10.727738 -33.540564 35.894555 0.995635 2.777421 0.049126 -0.031140 -677550.000000 0 0 1
-6.545314 -10.422238 32.996297 35.216755 1.010032 0.357002 0.043454 -0.031781 -73929.200000 0 0 1
-5.185314 -9.697338 32.930689 34.718239 1.079764 0.322290 0.062793 -0.034729 -106136.000000 0 0 1
-5.034514 -9.026438 31.728361 33.369325 1.062021 0.314910 0.050257 -0.022847 -13751.100000 0 0 1
-3.968814 -8.091338 31.812851 33.064766 1.114776 0.276057 0.048084 -0.034814 -610323.000000 0 0 1
-4.004714 -7.067038 30.610751 31.670157 1.055241 0.259382 0.046895 -0.028148 1126000.000000 0 0 1
-5.048514 -6.033838 30.743221 31.733899 0.874074 0.250528 0.036275 -0.020540 1737900.000000 0 0 1
-6.357114 -6.582538 30.454171 31.799359 0.802818 0.291904 0.034675 -0.017929 429371.000000 0 0 1
-7.439914 -5.472038 30.259591 31.637610 0.634155 0.296231 0.021974 -0.012760 541657.000000 0 0 1
-8.677414 -6.126538 29.959091 31.786461 0.614763 0.340730 0.036023 -0.010723 263320.000000 0 0 1
-9.688814 -5.134538 29.787261 31.741417 0.487316 0.352724 0.041373 -0.010903 50458.700000 0 0 1
-10.931014 -5.603138 29.025811 31.517931 0.473669 0.400336 0.054842 -0.010961 -355545.000000 0 0 1
-10.584314 -5.862738 27.705621 30.232447 0.505839 0.411754 0.047351 -0.010280 140498.000000 0 0 1
-11.647014 -6.351338 26.946791 30.035346 0.499242 0.457478 0.059531 -0.015364 -364407.000000 0 0 1
-11.284114 -6.166338 25.462101 28.524964 0.500123 0.467661 0.048233 -0.015786 1102570.000000 0 0 1
-10.157014 -7.002438 25.035001 27.909682 0.603589 0.457860 0.046414 -0.012454 1167470.000000 0 0 1
-9.556714 -6.540438 23.810921 26.477690 0.600167 0.452670 0.048359 -0.012552 58152.300000 0 0 1
-10.337014 -6.850038 22.451811 25.648796 0.585231 0.504626 0.062780 -0.016093 151776.000000 0 0 1
-11.470014 -6.020938 22.364311 25.845219 0.483391 0.525014 0.045724 -0.011044 -422109.000000 0 0 1
-12.158514 -6.176438 21.149611 25.165133 0.470021 0.572714 0.048491 -0.015839 225006.000000 0 0 1
-13.371114 -5.181338 21.131311 25.537527 0.369686 0.596225 0.047823 -0.007994 527791.000000 0 0 1
-13.051314 -3.812038 20.898811 24.932484 0.284176 0.576792 0.032245 -0.000557 488220.000000 0 1 0
-14.348714 -3.241838 20.855811 25.521755 0.222202 0.614299 0.040178 -0.000204 626048.000000 0 0 1
-14.288214 -1.757638 20.309811 24.894393 0.122398 0.616618 0.037690 0.009112 94343.200000 0 1 0
-13.496514 -0.845638 21.072111 25.038068 0.062574 0.570552 0.032675 0.005710 86336.200000 0 0 1
-13.584414 0.572362 20.753311 24.810559 -0.042109 0.579985 0.035596 -0.002918 -63265.000000 0 1 0
-13.040014 0.993362 19.291611 23.306544 -0.076031 0.595740 0.052667 -0.012972 112961.000000 0 1 0
-13.780314 0.539362 18.170611 22.811381 -0.039120 0.649214 0.063300 -0.014727 214841.000000 0 1 0
-14.977514 1.276362 17.939011 23.404341 -0.085013 0.697450 0.060845 -0.016599 -327118.000000 0 1 0
-15.880414 0.511362 17.009311 23.275861 -0.032190 0.751346 0.079607 -0.010341 -667519.000000 0 1 0
-16.196614 -0.734638 17.571611 23.908817 0.045326 0.745214 0.062673 -0.006263 265837.000000 0 1 0
-17.059614 -1.458638 16.710111 23.924587 0.085295 0.797568 0.055350 0.004009 -251314.000000 0 1 0
-17.142914 -2.973638 17.035411 24.350098 0.171753 0.795954 0.064041 0.002529 95149.800000 0 1 0
-17.757314 -3.235238 18.289311 25.696067 0.180215 0.778802 0.054795 0.003630 -218826.000000 0 0 1
-17.528914 -4.540238 18.750111 26.066133 0.253444 0.767961 0.056625 -0.002838 -7059.810000 0 0 1
-18.264414 -5.044238 20.060111 27.594225 0.269462 0.756901 0.047992 0.005744 7618.040000 0 0 1
-17.698114 -4.745338 21.307511 28.102518 0.261965 0.710238 0.045426 0.003216 -369849.000000 0 0 1
-18.585914 -4.985538 22.361011 29.500960 0.262073 0.710592 0.049827 -0.007997 -558780.000000 0 0 1
-18.517414 -6.394538 23.006971 30.217635 0.332505 0.705364 0.081454 -0.012322 552017.000000 0 0 1
-17.292514 -6.705338 23.667351 30.068856 0.369910 0.664695 0.040867 -0.012723 910653.000000 0 0 1
-16.174614 -7.044238 22.832511 28.854168 0.410741 0.657852 0.058440 -0.011217 688392.000000 0 0 1
-14.991214 -7.692738 23.653341 29.041268 0.474112 0.618975 0.074995 -0.014180 443545.000000 0 0 1
-15.104714 -9.041738 24.025691 29.784883 0.539392 0.632351 0.080517 -0.020964 -112443.000000 0 0 1
-15.137714 -9.111538 25.440331 30.973876 0.541823 0.607026 0.076963 -0.018065 100182.000000 0 0 1
-16.137714 -10.190438 25.927601 32.194896 0.563236 0.634560 0.071218 -0.020349 -267418.000000 0 0 1
-15.890914 -11.535638 25.643301 32.298158 0.627915 0.653509 0.069240 -0.028205 -395137.000000 0 0 1
-15.013914 -12.032138 26.609451 32.836761 0.675594 0.626038 0.077480 -0.025290 -128105.000000 0 0 1
-14.924114 -13.565738 26.539011 33.332830 0.737755 0.649837 0.076808 -0.034531 175344.000000 0 0 1
-16.160214 -14.116138 26.975091 34.468441 0.717987 0.671961 0.064988 -0.034241 203372.000000 0 0 1
-16.237714 -15.542238 26.985141 35.120114 0.763518 0.694510 0.073740 -0.024708 -239972.000000 0 0 1
-15.210414 -16.416938 27.738681 35.641366 0.823528 0.678887 0.088641 -0.029846 89970.700000 0 0 1
-13.969914 -16.469238 27.059431 34.620906 0.867323 0.673582 0.072517 -0.031801 532005.000000 0 0 1
-12.947114 -17.105538 27.847231 35.152461 0.922896 0.656416 0.080060 -0.027589 580127.000000 0 0 1
-11.560214 -17.239238 27.171731 34.192585 0.980092 0.652337 0.081673 -0.027701 135036.000000 0 0 1
-10.645314 -17.822338 28.062311 34.906328 1.032363 0.636919 0.083629 -0.026926 555861.000000 0 0 1
-9.538114 -18.488138 27.430431 34.426958 1.094506 0.648862 0.073889 -0.022250 1077760.000000 0 0 1
-8.487614 -19.232938 28.294751 35.249659 1.155196 0.638995 0.081353 -0.026880 755306.000000 0 0 1
-9.112414 -20.415538 28.814051 36.470260 1.150984 0.659873 0.073974 -0.018899 553542.000000 0 0 1
-8.146814 -21.159738 29.548481 37.245373 1.203275 0.654510 0.086245 -0.021593 223164.000000 0 0 1
-8.603414 -22.501938 30.200341 38.631808 1.205605 0.673332 0.073451 -0.023771 -29210.700000 0 0 1
-8.863314 -23.524438 29.228421 38.552019 1.210474 0.710317 0.089323 -0.024940 109496.000000 0 0 1
-9.055914 -24.745138 29.857151 39.821865 1.219968 0.723085 0.069546 -0.022973 -458736.000000 0 0 1
-9.190314 -25.969038 28.892101 39.919999 1.230656 0.761575 0.071333 -0.020480 -559065.000000 0 0 1
-10.365514 -25.989838 28.127571 39.674625 1.191299 0.782779 0.060110 -0.022229 -103014.000000 0 0 1
-10.560714 -27.239738 27.468851 40.100746 1.200942 0.816198 0.067451 -0.020495 -219646.000000 0 0 1
-11.810514 -27.280738 26.569711 39.870747 1.162232 0.841432 0.066650 -0.018151 -216417.000000 0 0 1
-11.771214 -26.642438 25.326221 38.597908 1.154764 0.855084 0.070869 -0.020779 216817.000000 0 0 1
-12.180714 -25.252438 25.331381 37.785372 1.121362 0.836046 0.060309 -0.009035 -158871.000000 0 0 1
-12.405114 -24.621938 23.950741 36.520743 1.104094 0.855539 0.068549 -0.027688 206273.000000 0 0 1
-13.567814 -25.089338 23.281291 36.818188 1.075059 0.886238 0.064876 -0.020618 129652.000000 0 0 1
-13.665914 -24.569038 21.964611 35.676869 1.063186 0.907581 0.062988 -0.025015 -249965.000000 0 0 1
-15.057614 -24.839238 21.392411 36.074295 1.025828 0.936005 0.077768 -0.026611 -242485.000000 0 0 1
-15.621614 -26.147038 21.367211 37.205647 1.032252 0.959047 0.088830 -0.022925 921418.000000 0 0 1
-16.768114 -26.230738 20.484011 37.266822 1.002012 0.988841 0.089763 -0.022648 865293.000000 0 0 1
-16.912214 -27.641138 19.843611 37.997690 1.021710 1.021330 0.098207 -0.033718 68212.800000 0 0 1
-15.896114 -27.950738 18.922811 37.309556 1.053695 1.038882 0.089201 -0.030008 -4690.880000 0 0 1
-15.961014 -29.323438 18.524111 38.180633 1.072333 1.064238 0.109646 -0.023568 169302.000000 0 0 1
-15.105214 -29.640238 17.259411 37.477973 1.099484 1.092214 0.096758 -0.040080 -71816.200000 0 0 1
-15.384514 -28.886738 16.093711 36.471009 1.081425 1.113778 0.085541 -0.045127 -150490.000000 0 0 1
-14.453214 -29.090038 15.046311 35.798285 1.109677 1.137011 0.100119 -0.038391 -212528.000000 0 0 1
-14.768714 -28.287238 13.786111 34.761180 1.089627 1.162992 0.078258 -0.043759 -295143.000000 0 0 1
-14.498514 -26.912538 13.794111 33.537578 1.076649 1.146913 0.084904 -0.037086 -261637.000000 0 0 1
-14.722114 -26.291338 12.547611 32.640736 1.060338 1.176222 0.080491 -0.042067 -55579.000000 0 0 1
-13.908314 -26.690138 11.317911 32.154312 1.090409 1.211103 0.085482 -0.028241 -149971.000000 0 0 1
-14.465714 -26.119238 10.200711 31.551957 1.065015 1.241583 0.067700 -0.025468 -324064.000000 0 0 1
-13.659214 -26.393038 9.089811 31.077182 1.093223 1.273965 0.076689 -0.023735 -22071.100000 0 0 1
-14.167214 -25.729538 7.765211 30.381205 1.067477 1.312336 0.093558 -0.028551 714555.000000 0 0 1
-15.292014 -26.370738 7.129111 31.306321 1.045298 1.341060 0.071642 -0.035026 629173.000000 0 0 1
-15.706514 -25.621038 5.975211 30.640420 1.020850 1.374528 0.081233 -0.031623 47944.100000 0 0 1
-16.594614 -26.414338 5.027711 31.597094 1.009869 1.410998 0.071138 -0.040492 230340.000000 0 0 1
-15.752614 -27.310738 4.318311 31.822462 1.047616 1.434676 0.081602 -0.033463 325264.000000 0 0 1
-16.307214 -27.629838 3.048511 32.227731 1.037612 1.476062 0.090554 -0.035472 -191202.000000 0 0 1
-15.669114 -28.869238 2.337111 32.930474 1.073527 1.499766 0.082020 -0.039100 1549100.000000 0 0 1
-14.269714 -28.572338 2.017211 32.001131 1.107610 1.507719 0.065739 -0.024054 1382390.000000 0 0 1
-13.708914 -29.614138 1.265811 32.657829 1.137252 1.532027 0.052068 -0.028058 -965316.000000 0 0 1
-12.368914 -29.291038 0.677911 31.802744 1.171235 1.549479 0.057738 -0.026612 -1197160.000000 0 0 1
-12.253414 -28.561138 -0.586189 31.084215 1.165522 1.589656 0.059169 -0.022419 -41849.600000 0 0 1
-12.609614 -27.177038 -0.510489 29.964218 1.136377 1.587834 0.063055 -0.028187 -304347.000000 0 0 1
-12.233314 -26.374738 -1.733989 29.125376 1.136504 1.630367 0.071228 -0.027836 1609870.000000 0 0 1
-10.789614 -26.349938 -1.946889 28.539891 1.182149 1.639066 0.059326 -0.030352 1055440.000000 0 0 1
-10.486814 -25.818238 -3.221289 28.052298 1.184975 1.685882 0.076979 -0.028476 388299.000000 0 0 1
-9.003714 -26.050238 -3.617689 27.798731 1.238021 1.701305 0.066853 -0.027821 406563.000000 0 0 1
-8.585914 -25.572238 -4.872389 27.411630 1.246871 1.749495 0.061984 -0.021921 -1105210.000000 0 0 1
-7.393914 -26.126138 -5.285489 27.661914 1.295000 1.763053 0.054077 -0.008006 -704376.000000 0 0 1
-6.533314 -25.137438 -6.075789 26.673774 1.316518 1.800595 0.042428 -0.009110 -337025.000000 0 0 1
-6.964914 -24.910638 -7.382489 26.898905 1.298162 1.848817 0.049812 -0.012018 -8871.540000 0 0 1
-6.180714 -23.967038 -8.127289 26.051353 1.318411 1.888064 0.031256 -0.005684 73969.300000 0 0 1
-6.564214 -23.960238 -9.637989 26.647190 1.303395 1.940875 0.045816 -0.013959 11995.200000 0 0 1
-5.812014 -24.888338 -10.414689 27.598453 1.341384 1.957746 0.031253 -0.016069 92510.500000 0 0 1
-6.211214 -24.937438 -11.810189 28.283132 1.326691 2.001566 0.027836 -0.009356 665109.000000 0 0 1
-7.592314 -25.568838 -12.206689 29.332780 1.282153 1.999998 0.044039 -0.017602 526851.000000 0 0 1
-7.689014 -25.640638 -13.663389 30.054142 1.279453 2.042748 0.051134 -0.017950 -306198.000000 0 0 1
-8.812514 -26.294138 -14.172989 31.143470 1.247411 2.043266 0.073178 -0.017799 -1015380.000000 0 0 1
-8.795114 -26.309238 -15.751389 31.900412 1.248178 2.087213 0.087192 -0.025791 -303877.000000 0 0 1
-7.749714 -27.003738 -16.380589 32.520511 1.291321 2.098673 0.070414 -0.037231 -296630.000000 0 0 1
-6.570814 -26.224038 -16.336889 31.587493 1.325286 2.114366 0.079846 -0.031692 157971.000000 0 0 1
-5.305714 -27.036538 -16.861189 32.302085 1.377016 2.119972 0.080535 -0.031877 551640.000000 0 0 1
-5.227314 -26.995838 -18.235789 32.994607 1.379529 2.156385 0.134893 -0.036836 193292.000000 0 0 1
-4.071014 -27.709138 -18.625989 33.634758 1.424920 2.157684 0.124791 -0.042804 92619.100000 0 0 1
-25.307214 14.909271 -5.495854 29.882200 -0.532389 1.755767 0.109668 -0.024118 53269.200000 0 0 1
-25.156404 13.804571 -4.654754 29.070218 -0.501883 1.731610 0.109656 -0.023037 626527.000000 0 0 1
-23.986514 13.047271 -4.971854 27.754342 -0.498180 1.750906 0.119402 -0.027678 -143624.000000 0 0 1
-23.931614 11.604171 -4.475254 26.970481 -0.451486 1.737499 0.121529 -0.024966 16544.300000 0 0 1
-24.579514 10.535371 -5.180154 27.239320 -0.404936 1.762134 0.129961 -0.016615 936723.000000 0 0 1
-26.007094 10.609071 -5.214154 28.567617 -0.387324 1.754345 0.148682 -0.019428 333232.000000 0 0 1
-26.640014 9.853271 -6.419954 29.120321 -0.354263 1.793085 0.162868 -0.017153 -61321.200000 0 0 1
-26.455484 10.587571 -7.594754 29.490161 -0.380682 1.831267 0.187528 -0.023998 137720.000000 0 0 1
-26.813754 9.841371 -8.714454 29.862547 -0.351762 1.866924 0.177240 -0.023207 -208600.000000 0 0 1
-27.150334 10.613471 -9.973854 30.810131 -0.372650 1.900455 0.163789 -0.028228 -354757.000000 0 0 1
-26.070004 11.339471 -10.463354 30.293737 -0.410279 1.923458 0.152217 -0.028355 60090.300000 0 0 1
-26.497734 12.019971 -11.637654 31.337591 -0.425862 1.951274 0.149859 -0.029305 23741.800000 0 0 1
-25.434844 12.941071 -12.268554 31.063162 -0.470657 1.976815 0.114030 -0.020309 -270968.000000 0 0 1
-25.377724 14.130571 -11.470454 31.229365 -0.508057 1.946898 0.114345 -0.021724 68286.900000 0 0 1
-24.701514 15.154171 -12.132154 31.416602 -0.550281 1.967272 0.097252 -0.020712 -298532.000000 0 0 1
-24.706714 16.548571 -11.374054 31.837808 -0.590169 1.936118 0.105376 -0.021173 367470.000000 0 0 1
-23.797714 16.626571 -10.252654 30.787838 -0.609828 1.910290 0.104886 -0.014180 529275.000000 0 0 1
-23.791114 17.936071 -9.732954 31.344061 -0.645991 1.886536 0.079401 -0.009803 -334199.000000 0 0 1
-22.748514 18.186571 -8.652154 30.382660 -0.674413 1.859566 0.079719 -0.006677 -496587.000000 0 0 1
-22.993714 17.749671 -7.326554 29.957305 -0.657393 1.817869 0.095661 -0.007140 203172.000000 0 0 1
-23.568914 18.743971 -6.467954 30.800399 -0.671858 1.782367 0.081891 -0.011987 31706.700000 0 0 1
-23.924614 18.287271 -5.004354 30.526300 -0.652635 1.735475 0.075045 -0.008264 40980.800000 0 0 1
-22.782514 17.897471 -4.276454 29.285670 -0.665886 1.717346 0.074377 -0.023161 95850.800000 0 0 1
-23.147514 17.235871 -3.079854 29.023579 -0.640043 1.677112 0.064570 -0.018800 290505.000000 0 0 1
-21.952514 17.106271 -2.068554 27.907280 -0.661953 1.644987 0.067967 -0.032664 383809.000000 0 0 1
-21.488214 18.408971 -1.611254 28.341307 -0.708371 1.627679 0.065518 -0.038369 696302.000000 0 0 1
-20.315614 18.149271 -0.832754 27.254609 -0.729138 1.601356 0.118845 -0.049939 177003.000000 0 0 1
-19.699714 19.347271 -0.132254 27.611829 -0.776372 1.575586 0.108192 -0.052170 -290384.000000 0 0 1
-20.417014 19.879071 0.998946 28.513678 -0.772049 1.535755 0.095386 -0.039832 174001.000000 0 0 1
-20.598214 21.307871 0.947246 29.651460 -0.802331 1.538845 0.109583 -0.039156 -279464.000000 0 0 1
-21.822514 21.748471 1.745446 30.858786 -0.783699 1.514204 0.072197 -0.027949 -553002.000000 0 0 1
-21.816114 21.280671 3.116946 30.635358 -0.772975 1.468877 0.111057 -0.028906 -242918.000000 0 0 1
-23.026214 21.315271 3.812246 31.608235 -0.746832 1.449893 0.089561 -0.021614 -340266.000000 0 0 1
-22.796814 21.043171 5.337246 31.480089 -0.745418 1.400430 0.108230 -0.019489 -137890.000000 0 0 1
-21.946214 22.005871 5.929446 31.639422 -0.786755 1.382275 0.092594 -0.014527 270872.000000 0 0 1
-21.211014 21.480071 7.019546 30.993138 -0.791700 1.342327 0.092428 -0.008087 83610.600000 0 0 1
-21.994114 21.465571 8.350546 31.847188 -0.773237 1.305488 0.067200 -0.020724 -292047.000000 0 0 1
-23.029114 20.477371 8.501046 31.967649 -0.726813 1.301631 0.082976 -0.024247 720276.000000 0 0 1
-23.409514 20.158071 9.801446 32.410207 -0.710906 1.263567 0.097961 -0.026567 -170450.000000 0 0 1
-23.987414 21.374771 10.609846 33.835569 -0.727867 1.251845 0.101607 -0.022753 -648052.000000 0 0 1
-25.315044 21.709571 10.259346 34.891419 -0.708876 1.272349 0.127141 -0.021874 195694.000000 0 0 1
-25.870084 22.702771 11.122546 36.171648 -0.720283 1.258239 0.135071 -0.023851 1169390.000000 0 0 1
-27.318664 23.164371 10.647046 37.366524 -0.703292 1.281857 0.147286 -0.034702 825113.000000 0 0 1
-28.020214 23.920271 11.603146 38.625701 -0.706626 1.265685 0.153969 -0.035332 -79633.600000 0 0 1
-27.620154 25.265871 11.689246 39.215757 -0.740911 1.268121 0.138178 -0.030800 -271684.000000 0 0 1
-27.920684 25.907471 13.059946 40.265666 -0.748015 1.240478 0.136601 -0.032918 463114.000000 0 0 1
-27.117424 25.399471 14.149246 39.757880 -0.752697 1.206935 0.123530 -0.035765 182753.000000 0 0 1
-27.535754 26.023071 15.367646 40.884991 -0.757162 1.185455 0.130284 -0.033452 214655.000000 0 0 1
-26.504094 26.141771 16.523146 40.729271 -0.778516 1.153071 0.118698 -0.043093 -151700.000000 0 0 1
-26.092774 24.947271 17.071346 39.932819 -0.762959 1.129069 0.129883 -0.045646 -497291.000000 0 0 1
-24.983114 25.191971 17.883946 39.731938 -0.789561 1.103902 0.105139 -0.044607 -384555.000000 0 0 1
-24.525314 23.843971 18.555946 38.914639 -0.771313 1.073743 0.106239 -0.038398 -319850.000000 0 0 1
-23.299714 24.022671 19.214946 38.589889 -0.800674 1.049590 0.105227 -0.048242 23085.900000 0 0 1
-22.918714 22.852271 19.937746 38.013254 -0.783947 1.018675 0.099919 -0.047031 -708862.000000 0 0 1
-21.434214 22.896171 20.274646 37.345970 -0.818365 0.996925 0.088409 -0.048474 -979511.000000 0 0 1
-20.598614 22.826771 19.129346 36.211825 -0.836663 1.014244 0.092410 -0.049144 89699.100000 0 0 1
-19.270014 22.405771 19.345046 35.321138 -0.860498 0.991195 0.076660 -0.041096 -16251.700000 0 0 1
-19.029014 20.896571 19.576446 34.380333 -0.832140 0.965010 0.064914 -0.023638 -499615.000000 0 0 1
-19.511214 20.364771 20.822846 35.057129 -0.806800 0.934813 0.083647 -0.019394 153399.000000 0 0 1
-18.851814 20.876171 21.946646 35.677173 -0.836310 0.908226 0.086595 -0.016396 -169139.000000 0 0 1
-19.716614 20.633271 23.224146 36.794534 -0.808112 0.887717 0.076275 -0.009235 797970.000000 0 0 1
-20.911214 21.428771 23.268646 37.919665 -0.797621 0.910147 0.069173 -0.022917 351071.000000 0 0 1
-21.587314 21.286671 24.505146 38.982518 -0.778386 0.891020 0.073013 -0.020919 -316577.000000 0 0 1
-22.670914 22.367971 24.462246 40.158411 -0.778672 0.915816 0.073897 -0.020376 -1010050.000000 0 0 1
-22.206314 23.676371 24.261846 40.525647 -0.817427 0.928946 0.085025 -0.029159 350946.000000 0 0 1
-23.164714 24.742071 24.439246 41.785773 -0.818312 0.946077 0.091619 -0.024650 226078.000000 0 0 1
-24.172714 24.915271 23.291046 41.803871 -0.800524 0.979846 0.098067 -0.039444 118425.000000 0 0 1
-25.211074 23.941071 23.296446 41.850896 -0.759566 0.980444 0.074508 -0.033216 316595.000000 0 0 1
-26.011704 24.070671 22.112246 41.772687 -0.746661 1.012966 0.075237 -0.039782 542071.000000 0 0 1
-26.914904 22.816071 21.763946 41.456658 -0.703164 1.018104 0.081192 -0.032046 -206451.000000 0 0 1
-28.069274 22.851171 22.540546 42.639610 -0.683279 1.013811 0.080984 -0.031614 -1075490.000000 0 0 1
-28.959974 21.924671 22.016146 42.474486 -0.648009 1.025890 0.094996 -0.030920 -336264.000000 0 0 1
-30.414484 22.418271 22.176346 43.811072 -0.635189 1.040045 0.109162 -0.022409 -879134.000000 0 0 1
-30.867514 23.371271 21.270246 44.175141 -0.648060 1.068433 0.121581 -0.031384 610861.000000 0 0 1
-32.227154 23.765171 21.473346 45.436521 -0.635406 1.078556 0.129190 -0.022600 855822.000000 0 0 1
-33.320974 22.808071 20.898346 45.466870 -0.600245 1.093208 0.122376 -0.036816 -954738.000000 0 0 1
-33.388384 21.545871 21.583746 45.220204 -0.573071 1.073213 0.113945 -0.033615 -110868.000000 0 0 1
-34.130699 20.563671 20.962246 45.024271 -0.542254 1.086510 0.104352 -0.024597 -602996.000000 0 0 1
-35.659219 20.673871 21.000946 46.260443 -0.525406 1.099578 0.109789 -0.026285 -857811.000000 0 0 1
-36.238394 19.722071 20.203746 45.938792 -0.498404 1.115424 0.105050 -0.017434 -730593.000000 0 0 1
36.687469 19.761471 20.349946 46.374631 0.494083 1.116515 0.121174 -0.029322 -306825.000000 0 0 1
35.931009 18.895471 19.299446 44.950471 0.484138 1.127024 0.131579 -0.042451 -78947.100000 0 0 1
36.097979 17.479671 19.386346 44.546979 0.450951 1.120548 0.133072 -0.037306 -78192.200000 0 0 1
35.527869 16.867871 18.294246 43.375499 0.443268 1.135406 0.149526 -0.056015 -183094.000000 0 0 1
35.965429 15.367671 18.194746 43.136135 0.403809 1.135369 0.161606 -0.068616 -102408.000000 0 0 1
35.186289 14.636571 17.302446 41.853061 0.394201 1.144601 0.200147 -0.054563 31057.900000 0 0 1
35.830129 13.384671 16.918046 41.823054 0.357507 1.154348 0.190003 -0.046544 175862.000000 0 0 1
35.054609 12.499871 15.924446 40.480370 0.342527 1.166484 0.193482 -0.057842 -328054.000000 0 0 1
34.753309 13.083371 14.642646 39.917091 0.360054 1.195201 0.176341 -0.048531 381294.000000 0 0 1
34.127669 12.067771 13.824046 38.748330 0.339884 1.205994 0.176473 -0.044745 -115199.000000 0 0 1
33.897509 12.498371 12.362846 38.184949 0.353245 1.241093 0.183723 -0.049343 -534041.000000 0 0 1
35.043789 12.745571 11.600646 39.052422 0.348831 1.269191 0.163326 -0.033778 -172748.000000 0 0 1
34.834089 12.730171 10.157646 38.453202 0.350373 1.303468 0.139584 -0.018877 399687.000000 0 0 1
36.230929 12.657971 9.462046 39.527645 0.336113 1.329071 0.106467 0.001289 439757.000000 0 0 1
36.985579 11.486771 9.737746 39.933728 0.301130 1.324465 0.119222 -0.005261 331249.000000 0 0 1
-36.004453 11.478671 9.251246 38.905862 -0.308625 1.330711 0.157708 -0.002589 286956.000000 0 0 1
-35.755733 11.228171 7.727546 38.265641 -0.304273 1.367453 0.143198 -0.021273 -491456.000000 0 0 1
-36.138754 12.340171 6.929246 38.811130 -0.329052 1.391296 0.134556 -0.033110 18977.300000 0 0 1
-35.777516 12.241471 5.570046 38.221848 -0.329669 1.424546 0.162761 -0.048418 148561.000000 0 0 1
-36.809014 12.980171 4.636546 39.305037 -0.339021 1.452558 0.150120 -0.054686 -1222300.000000 0 0 1
36.319919 12.299671 4.623146 38.623722 0.326526 1.450812 0.132107 -0.052365 -1027700.000000 0 0 1
35.220739 13.204871 4.598646 37.894810 0.358698 1.449144 0.126989 -0.039391 91482.100000 0 0 1
34.799369 13.851671 5.874346 37.912700 0.378819 1.415226 0.117419 -0.026364 -1483160.000000 0 0 1
34.082159 15.051871 5.631946 37.681178 0.415876 1.420771 0.096278 -0.013606 218525.000000 0 0 1
33.563199 15.732471 6.789846 37.684227 0.438330 1.389630 0.077943 -0.010539 392256.000000 0 0 1
32.300689 15.116671 7.447746 36.432364 0.437720 1.364918 0.103092 -0.015009 -249732.000000 0 0 1
32.533699 13.840271 8.057946 36.261896 0.402221 1.346710 0.122522 -0.017537 252603.000000 0 0 1
31.329789 13.125571 8.334346 34.975671 0.396734 1.330192 0.138227 -0.025242 243407.000000 0 0 1
31.200759 11.863971 7.511346 34.214930 0.363362 1.349459 0.137402 -0.020357 -216654.000000 0 0 1
31.047759 12.154771 6.131046 33.901202 0.373145 1.388945 0.106280 -0.026190 134769.000000 0 0 1
31.306689 10.989171 5.388146 33.614026 0.337580 1.409807 0.118448 -0.034259 -227712.000000 0 0 1
30.946339 11.045571 3.900346 33.089171 0.342832 1.452648 0.106454 -0.042107 312611.000000 0 0 1
29.552419 10.891171 3.660346 31.707431 0.353093 1.455097 0.085580 -0.030332 525437.000000 0 0 1
29.208529 11.232371 2.299946 31.378242 0.367124 1.497433 0.106817 -0.039687 79037.000000 0 0 1
27.746829 10.870871 1.942046 29.863588 0.373407 1.505720 0.115452 -0.023008 78420.700000 0 0 1
27.531629 9.501371 1.924146 29.188507 0.332310 1.504827 0.096105 -0.026755 -55633.700000 0 0 1
26.163729 9.181771 1.917746 27.794304 0.337508 1.501744 0.103258 -0.025335 -478221.000000 0 0 1
25.811929 7.701771 1.912346 27.004259 0.289970 1.499921 0.108511 -0.025151 -50941.900000 0 0 1
26.159729 7.063471 3.121446 27.275767 0.263724 1.456105 0.112485 -0.015878 365722.000000 0 0 1
27.526029 6.712171 3.207746 28.513595 0.239180 1.458059 0.124311 -0.027654 -380121.000000 0 0 1
27.971529 5.926171 4.430146 28.933581 0.208777 1.417077 0.122951 -0.035120 -450131.000000 0 0 1
29.371889 5.754871 4.361746 30.246507 0.193480 1.426085 0.142441 -0.041597 217703.000000 0 0 1
29.837859 5.151271 5.541246 30.782118 0.170957 1.389795 0.132625 -0.018881 -393289.000000 0 0 1
31.361829 5.252071 5.672446 32.300545 0.165927 1.394266 0.124510 -0.031397 -299885.000000 0 0 1
31.748559 6.525271 6.132746 32.987281 0.202707 1.383796 0.140475 -0.035541 461503.000000 0 0 1
33.157509 6.549771 6.387746 34.396558 0.195024 1.384003 0.136004 -0.023706 714055.000000 0 0 1
33.711059 7.860971 7.101046 35.336315 0.229093 1.368463 0.117117 -0.023898 -19040.500000 0 0 1
33.145269 7.993971 8.358046 35.105118 0.236660 1.330401 0.112419 -0.028468 2339.300000 0 0 1
33.741479 9.009371 9.115846 36.093695 0.260925 1.315471 0.113491 -0.025161 98641.300000 0 0 1
33.210229 8.913971 10.586346 35.978450 0.262230 1.272135 0.131626 -0.029519 1527140.000000 0 0 1
31.817179 9.310271 10.777346 34.859220 0.284670 1.256479 0.135097 -0.037956 1391760.000000 0 0 1
31.474549 8.946971 12.103446 34.888234 0.276955 1.216511 0.139431 -0.045157 -99935.100000 0 0 1
29.950429 9.097271 12.366946 33.656052 0.294888 1.194530 0.133555 -0.050739 185208.000000 0 0 1
29.400079 10.406771 12.580746 33.629461 0.340208 1.187371 0.155912 -0.056838 496508.000000 0 0 1
29.498439 11.322471 11.440546 33.604201 0.366492 1.223401 0.156912 -0.059747 -544292.000000 0 0 1
28.227329 11.398071 10.565646 32.223143 0.383774 1.236727 0.126043 -0.048877 -214987.000000 0 0 1
28.220929 12.524271 9.722646 32.369863 0.417681 1.265725 0.107046 -0.021852 793094.000000 0 0 1
27.069729 12.564271 8.860746 31.131077 0.434554 1.282179 0.098855 -0.022831 401264.000000 0 0 1
27.123729 13.764871 7.920946 31.431031 0.469617 1.316039 0.087564 -0.015288 -29185.000000 0 0 1
27.065829 14.957471 8.642946 32.108963 0.504862 1.298260 0.088100 -0.006097 393191.000000 0 0 1
27.276829 16.117471 7.850546 32.640915 0.533690 1.327903 0.087031 -0.003309 -1563790.000000 0 0 1
26.933029 17.428171 8.626246 33.219592 0.574329 1.308112 0.093335 -0.013202 1587540.000000 0 0 1
25.577429 17.950871 8.432346 32.365770 0.611950 1.307222 0.106610 -0.011997 1707480.000000 0 0 1
24.549029 17.023571 8.728846 31.123135 0.606318 1.286521 0.122096 -0.007634 -1295170.000000 0 0 1
23.152029 17.648571 8.885946 30.437617 0.651321 1.274542 0.123930 -0.019545 -118836.000000 0 0 1
22.613129 18.252771 7.723046 30.069298 0.679101 1.311044 0.134929 -0.018916 -190036.000000 0 0 1
21.649729 19.223571 7.992446 30.035573 0.726110 1.301452 0.177276 -0.030433 -133374.000000 0 0 1
20.833329 19.603471 6.741846 29.390069 0.754993 1.339343 0.148703 -0.029723 -238686.000000 0 0 1
21.622629 20.291271 5.829046 30.220052 0.753645 1.376693 0.105609 -0.019528 134384.000000 0 0 1
20.815629 20.809471 4.770446 29.817472 0.785250 1.410118 0.112931 -0.024976 290213.000000 0 0 1
19.429086 17.367071 32.385055 41.567972 0.729418 0.677589 0.053213 -0.015609 -1023390.000000 0 0 1
18.399986 17.955971 31.716491 40.827836 0.773186 0.681172 0.067241 -0.018548 -625080.000000 0 0 1
17.618186 16.987071 31.069381 39.550822 0.767163 0.667202 0.080424 -0.025323 -445114.000000 0 0 1
16.855186 17.461471 29.854791 38.474781 0.803064 0.682565 0.087260 -0.031343 -845368.000000 0 0 1
17.613286 17.893971 28.794121 38.203710 0.793303 0.717123 0.087683 -0.025818 -349404.000000 0 0 1
16.859286 18.103471 27.595331 37.060403 0.820969 0.730855 0.088313 -0.029512 458533.000000 0 0 1
17.756586 18.486871 26.349021 36.760463 0.805545 0.771628 0.088847 -0.028708 125855.000000 0 0 1
18.506886 19.653571 26.506741 37.833517 0.815438 0.794537 0.078868 -0.028127 177428.000000 0 0 1
19.516086 19.794871 25.521381 37.736659 0.792490 0.828065 0.090039 -0.029599 -438597.000000 0 0 1
20.423986 20.957371 25.811741 39.020463 0.798287 0.847989 0.092596 -0.023417 -467485.000000 0 0 1
19.737686 22.169171 25.623141 39.212163 0.843354 0.858665 0.082585 -0.024985 370979.000000 0 0 1
20.457886 23.197571 26.292321 40.594809 0.848073 0.866265 0.086311 -0.031387 113425.000000 0 0 1
19.714786 24.557471 26.213091 40.973995 0.894349 0.876624 0.100785 -0.035463 124231.000000 0 0 1
19.665386 25.101871 24.876541 40.443462 0.906245 0.908291 0.108374 -0.040280 435876.000000 0 0 1
18.661286 26.111571 24.814931 40.568935 0.950289 0.912622 0.102424 -0.034955 273939.000000 0 0 1
18.629786 26.848871 23.414521 40.201624 0.964192 0.949085 0.092445 -0.033055 314166.000000 0 0 1
19.786486 27.687671 23.285341 41.234928 0.950318 0.970727 0.106887 -0.034376 591566.000000 0 0 1
19.640586 28.485271 22.135411 41.074806 0.967152 1.001660 0.110176 -0.032160 312080.000000 0 0 1
20.732486 29.602471 22.038811 42.330266 0.959827 1.023196 0.110437 -0.029525 -166224.000000 0 0 1
22.030086 29.100071 21.894411 42.561767 0.922801 1.030471 0.105775 -0.027552 -297744.000000 0 0 1
22.948186 30.187371 21.790911 43.734888 0.920804 1.049217 0.104656 -0.036469 195538.000000 0 0 1
23.677286 30.381571 20.448911 43.609766 0.908786 1.082744 0.103727 -0.031939 -223982.000000 0 0 1
22.832286 30.887871 19.485111 43.070215 0.934244 1.101338 0.089544 -0.026764 46283.800000 0 0 1
23.575486 30.936371 18.288911 42.980773 0.919619 1.131267 0.076607 -0.001248 -78464.700000 0 0 1
22.904086 31.755971 17.151211 42.745794 0.945949 1.157929 0.058422 -0.017645 -189106.000000 0 0 1
22.903486 33.175871 17.305611 43.871315 0.966566 1.165313 0.076911 -0.018546 19399.300000 0 0 1
22.777286 33.876371 16.064011 43.868733 0.978859 1.195892 0.068900 -0.017009 590586.000000 0 0 1
23.891586 33.752871 14.920211 43.962221 0.954829 1.224531 0.055346 -0.019701 621241.000000 0 0 1
23.710286 32.603271 14.103811 42.709114 0.942024 1.234250 0.076191 -0.023504 589952.000000 0 0 1
22.735486 32.814771 13.051511 42.000636 0.964890 1.254819 0.044119 -0.015376 359455.000000 0 0 1
22.415186 31.599271 12.172611 40.609444 0.953818 1.266368 0.057117 -0.029327 -523930.000000 0 0 1
23.547986 31.068371 11.543311 40.657094 0.922232 1.282918 0.078170 -0.049114 34112.500000 0 0 1
23.073686 29.945171 10.817611 39.320846 0.914284 1.292091 0.084642 -0.049103 38222.800000 0 0 1
24.258586 29.255071 10.098511 39.323251 0.878497 1.311079 0.090599 -0.053034 807213.000000 0 0 1
25.310086 28.607971 10.819511 39.699852 0.846487 1.294772 0.091796 -0.041068 1041350.000000 0 0 1
26.198686 29.498971 11.535811 41.105174 0.844583 1.286334 0.086969 -0.043573 -729604.000000 0 0 1
27.560686 28.950571 11.911611 41.708673 0.809988 1.281174 0.102459 -0.036302 -379180.000000 0 0 1
27.550786 28.012471 12.957711 41.372051 0.793707 1.252236 0.099805 -0.030465 232911.000000 0 0 1
28.888186 27.795871 13.396811 42.268336 0.766130 1.248288 0.094289 -0.025965 463440.000000 0 0 1
29.109986 26.843671 14.629711 42.213770 0.744917 1.216892 0.077694 -0.017374 -417758.000000 0 0 1
30.408286 26.879271 15.136911 43.316107 0.723874 1.213810 0.067844 -0.025542 -416660.000000 0 0 1
30.648486 25.808471 16.042311 43.159733 0.699878 1.189961 0.061100 -0.021489 673993.000000 0 0 1
31.910586 26.006971 16.947911 44.518308 0.683818 1.180248 0.061746 -0.023611 51238.100000 0 0 1
33.152886 25.932371 16.338811 45.150398 0.663796 1.200518 0.078114 -0.010616 -453498.000000 0 0 1
34.180486 26.341071 17.223511 46.462963 0.656584 1.191041 0.064784 -0.014376 732161.000000 0 0 1
35.632486 26.475971 16.666411 47.417511 0.639025 1.211642 0.094766 -0.033648 625562.000000 0 0 1
35.860886 27.564271 15.769811 47.900721 0.655327 1.235320 0.112758 -0.024941 -142830.000000 0 0 1
-37.085857 27.910271 15.797711 49.029702 -0.645154 1.242736 0.138037 -0.031302 279612.000000 0 0 1
-36.809057 28.984371 14.761211 49.121215 -0.667026 1.265573 0.119477 -0.035616 198161.000000 0 0 1
36.782586 30.171571 15.088311 49.909312 0.686978 1.263676 0.125763 -0.039875 31874.800000 0 0 1
36.778486 31.252471 14.147011 50.294253 0.704348 1.285664 0.109127 -0.021854 -467175.000000 0 0 1
35.634786 32.240771 14.293611 50.135941 0.735436 1.281689 0.107817 -0.029432 -719611.000000 0 0 1
35.413786 33.172471 13.265311 50.304250 0.752731 1.303939 0.093831 -0.032049 -19382.200000 0 0 1
34.725886 -33.741238 13.696011 50.318377 -0.771018 1.295131 0.085544 -0.027561 1217830.000000 0 0 1
33.176886 -33.787838 13.334911 49.194955 -0.794521 1.296300 0.099634 -0.028820 1479300.000000 0 0 1
32.469386 33.216571 14.002711 48.514714 0.796773 1.278003 0.104278 -0.035799 -267513.000000 0 0 1
31.554886 32.501971 13.224911 47.190965 0.800182 1.286750 0.101380 -0.031494 -554718.000000 0 0 1
30.970286 31.342271 14.077111 46.256476 0.791368 1.261564 0.107012 -0.037922 -80228.500000 0 0 1
30.037286 31.763471 15.066611 46.240236 0.813322 1.238903 0.089787 -0.029277 227079.000000 0 0 1
29.742286 30.732971 15.918511 45.634615 0.801778 1.214479 0.080310 -0.034376 -128109.000000 0 0 1
28.713086 31.022871 17.022011 45.569822 0.824045 1.187977 0.073636 -0.029402 -84674.700000 0 0 1
28.438886 30.065671 18.009111 45.133611 0.813197 1.160351 0.050198 -0.024640 -231576.000000 0 0 1
29.344986 30.087171 19.079411 46.156148 0.797885 1.144648 0.042883 -0.029765 -199309.000000 0 0 1
29.312886 28.892671 20.021611 45.770041 0.778179 1.118047 0.042327 -0.020108 189284.000000 0 0 1
28.175986 28.827571 20.869511 45.392197 0.796828 1.093072 0.062230 -0.031507 296052.000000 0 0 1
28.487586 27.997071 21.985711 45.593311 0.776714 1.067617 0.049912 -0.029849 518452.000000 0 0 1
27.318186 27.930171 23.023221 45.348059 0.796475 1.038283 0.068053 -0.029698 272145.000000 0 0 1
26.158886 27.279271 22.570811 44.021443 0.806361 1.032443 0.115656 -0.034050 88268.600000 0 0 1
24.977286 27.575771 23.297211 43.898155 0.834803 1.011358 0.131678 -0.036779 440811.000000 0 0 1
24.595786 26.469471 24.307561 43.548170 0.822074 0.978610 0.100367 -0.038298 -530310.000000 0 0 1
25.480486 26.459971 25.385301 44.651973 0.804254 0.966097 0.094303 -0.035668 -294633.000000 0 0 1
25.279386 25.384671 26.289861 44.436310 0.787476 0.937717 0.100625 -0.034472 -862555.000000 0 0 1
26.548086 25.223071 27.098941 45.556084 0.759810 0.933720 0.092531 -0.025731 -388293.000000 0 0 1
26.893786 26.256871 28.046731 46.896888 0.773416 0.929729 0.114657 -0.027875 429408.000000 0 0 1
27.504786 27.376171 27.349311 47.475813 0.783055 0.956886 0.084322 -0.023217 -924090.000000 0 0 1
28.065286 28.433871 28.232271 48.920409 0.791922 0.955616 0.050122 -0.012248 -649050.000000 0 0 1
29.199486 28.035671 28.944331 49.763271 0.765067 0.950052 0.033578 -0.000334 -457162.000000 0 0 1
29.696186 29.081971 29.732071 51.104017 0.774949 0.949862 0.035676 -0.005993 -992280.000000 0 0 1
31.199886 29.097071 29.827981 52.055556 0.750538 0.960631 0.014857 0.002729 -908384.000000 0 0 1
31.727486 29.559071 28.603841 51.947587 0.750031 0.987679 0.002885 0.000303 487279.000000 0 0 1
33.151386 29.737871 28.571871 52.912259 0.731173 1.000376 -0.001843 -0.000569 851129.000000 0 0 1
33.651686 30.275671 27.206211 52.813162 0.732637 1.029624 -0.008582 0.004943 -409979.000000 0 0 1
33.348386 31.615571 27.063091 53.329823 0.758731 1.038554 -0.004005 0.000666 160618.000000 0 0 1
33.707586 32.118671 25.777541 53.219282 0.761265 1.065159 0.007763 -0.009733 -178248.000000 0 0 1
33.502886 33.609071 25.482121 53.864195 0.786980 1.078012 0.008258 -0.010740 191094.000000 0 0 1
34.457986 -33.645538 26.177801 54.814709 -0.773469 1.072911 0.008542 -0.010658 604016.000000 0 0 1
34.111286 -32.298038 26.026541 53.704040 -0.758101 1.064857 0.013739 -0.011387 -69665.700000 0 0 1
35.128386 -31.367938 26.710681 54.142511 -0.728907 1.054871 0.018552 -0.010861 -33726.800000 0 0 1
34.933786 -31.439538 28.097151 54.756405 -0.732801 1.031969 0.024865 -0.012993 185946.000000 0 0 1
35.853886 -30.664238 28.810431 55.279631 -0.707537 1.022568 0.031216 -0.015727 -449963.000000 0 0 1
35.385986 -30.299638 30.229591 55.534352 -0.708118 0.995194 0.034453 -0.020413 -237988.000000 0 0 1
35.509386 -31.334038 31.152791 56.685402 -0.723015 0.988943 0.033990 -0.017647 248493.000000 0 0 1
34.368186 -32.169038 31.271611 56.514891 -0.752359 0.984435 0.035771 -0.017342 -295870.000000 0 0 1
34.427386 -33.110438 32.466610 57.754885 -0.765901 0.973819 0.037308 -0.015549 -576364.000000 0 0 1
34.167486 -32.338338 33.639918 57.834499 -0.757902 0.950030 0.038822 -0.019260 285002.000000 0 0 1
34.354986 -32.969038 -32.991194 57.927898 -0.764815 2.176720 0.042233 -0.022424 -207500.000000 0 0 1
33.409486 33.925871 -32.657124 57.737736 0.793067 2.171971 0.035203 -0.017066 -128782.000000 0 0 1
33.743386 32.882271 -33.574004 57.853898 0.772474 2.189923 0.031328 -0.015341 -184028.000000 0 0 1
32.983486 31.738871 -33.429944 56.681809 0.766170 2.201586 0.030560 -0.008714 -624857.000000 0 0 1
33.231786 30.738071 33.324056 56.210971 0.746435 0.936217 0.018908 -0.005653 -1204830.000000 0 0 1
34.534386 30.278371 33.212246 56.678539 0.719826 0.944713 0.001898 -0.006904 -755971.000000 0 0 1
34.698486 29.338871 32.180969 55.680958 0.701898 0.954578 -0.002779 -0.004803 -79543.900000 0 0 1
36.012186 28.530171 32.192657 56.100048 0.669989 0.959605 -0.006913 -0.002088 -3628.300000 0 0 1
36.083786 27.435571 33.075928 56.113877 0.650079 0.940427 -0.003713 0.001503 -436408.000000 0 0 1
-36.936657 26.952371 33.181335 56.495557 -0.630377 0.943045 0.006503 -0.002759 -598191.000000 0 0 1
-36.814457 25.569471 33.818039 56.149460 -0.607059 0.924435 0.013016 -0.004965 91806.000000 0 0 1
37.032286 24.533871 32.964067 55.316641 0.585112 0.932391 0.002627 -0.000177 189566.000000 0 0 1
36.511586 23.469071 33.735338 54.972413 0.571286 0.910086 0.020368 -0.007122 19720.800000 0 0 1
35.965786 22.275771 32.876136 53.577869 0.554533 0.910167 0.014714 -0.014560 213441.000000 0 0 1
37.085786 21.626771 32.282986 53.714653 0.527942 0.926033 0.037413 -0.016066 890611.000000 0 0 1
36.609086 20.690871 31.325391 52.436795 0.514426 0.930550 0.045708 -0.014778 640170.000000 0 0 1
-36.519257 20.043871 30.537581 51.652268 -0.501966 0.938232 0.062129 -0.027474 334195.000000 0 0 1
-35.918957 20.876271 29.576551 50.997672 -0.526485 0.952118 0.055562 -0.018931 334015.000000 0 0 1
-34.662457 20.399771 29.098841 49.642514 -0.531940 0.944476 0.065388 -0.018292 345910.000000 0 0 1
-34.711357 19.324171 27.969961 48.586219 -0.507980 0.957365 0.075728 -0.018400 -610706.000000 0 0 1
-35.375057 18.131471 28.330551 48.813574 -0.473637 0.951598 0.057469 -0.016573 245733.000000 0 0 1
-35.523057 17.290871 27.162931 47.944621 -0.452992 0.968486 0.057556 -0.018080 -92135.500000 0 0 1
-36.370157 16.003371 27.416931 48.276126 -0.414518 0.966821 0.075558 -0.033051 -26150.600000 0 0 1
-35.660657 14.950071 28.048901 47.769530 -0.396975 0.943236 0.069235 -0.024448 98781.300000 0 0 1
-36.310557 14.517471 29.246451 48.832043 -0.380346 0.928645 0.056936 -0.022114 247519.000000 0 0 1
-35.748557 13.168271 29.938131 48.452600 -0.352935 0.904746 0.068073 -0.020184 496288.000000 0 0 1
-34.363157 13.203471 30.227551 47.632584 -0.366841 0.883308 0.069571 -0.012097 173737.000000 0 0 1
-33.840657 12.043171 30.782311 47.305166 -0.341902 0.862267 0.082542 -0.004572 535992.000000 0 0 1
-32.279857 12.024771 30.828561 46.227529 -0.356591 0.840772 0.084745 -0.005897 90966.400000 0 0 1
-31.647857 12.176671 29.555991 44.982383 -0.367295 0.853888 0.083027 -0.012101 279443.000000 0 0 1
-30.250957 12.390471 29.606921 44.104580 -0.388746 0.834850 0.093500 -0.012087 408911.000000 0 0 1
-29.300757 11.238171 29.933701 43.368852 -0.366241 0.809014 0.096072 -0.011792 -471413.000000 0 0 1
-29.004057 10.322171 28.932111 42.247480 -0.341910 0.816433 0.098624 -0.023596 170901.000000 0 0 1
-27.891357 9.523571 29.335741 41.583794 -0.329040 0.787723 0.089288 -0.022223 22005.100000 0 0 1
-27.441157 8.489871 28.355791 40.362680 -0.300044 0.791857 0.093661 -0.023239 131090.000000 0 0 1
-28.168757 7.252371 28.251241 40.548840 -0.251989 0.799980 0.106144 -0.029332 461936.000000 0 0 1
-29.504157 7.347371 27.772251 41.179814 -0.244064 0.830625 0.106738 -0.021826 308450.000000 0 0 1
-30.362657 6.066371 27.869551 41.658177 -0.197200 0.837926 0.103378 -0.022086 193458.000000 0 0 1
-30.944457 5.808671 29.153581 42.909572 -0.185554 0.823826 0.101769 -0.021485 56078.200000 0 0 1
-31.864157 4.750771 29.085731 43.403618 -0.148004 0.836423 0.110747 -0.023806 -178451.000000 0 0 1
-32.405757 4.384371 30.479991 44.703307 -0.134479 0.820537 0.085508 -0.012741 -708318.000000 0 0 1
-33.503757 5.123871 30.888681 45.857022 -0.151758 0.831745 0.082805 -0.010313 -574735.000000 0 0 1
-33.974657 4.693671 32.163107 47.018862 -0.137283 0.817500 0.090125 -0.013933 1035230.000000 0 0 1
-35.506157 4.942571 32.436252 48.344872 -0.138314 0.835328 0.089279 -0.006855 907077.000000 0 0 1
-35.697657 6.313971 32.691796 48.815392 -0.175063 0.836988 0.089137 -0.003286 -574727.000000 0 0 1
-37.064657 6.550571 32.526755 49.746242 -0.174927 0.858130 0.075983 0.005879 -296503.000000 0 0 1
36.932686 8.044971 32.689143 49.973242 0.214478 0.857761 0.069932 -0.002674 -125318.000000 0 0 1
37.013086 8.448971 -33.821924 50.845611 0.224425 2.298543 0.073920 -0.002836 124942.000000 0 0 1
36.825186 9.855771 -33.688404 50.873756 0.261508 2.294542 0.075691 -0.007802 -186377.000000 0 0 1
36.722486 10.132171 -32.169194 49.860394 0.269214 2.272062 0.070017 -0.012912 -349410.000000 0 0 1
35.514186 9.681971 -31.626124 48.530502 0.266155 2.280587 0.064905 0.000992 -38761.300000 0 0 1
35.585286 9.954271 -30.234484 47.744362 0.272758 2.256552 0.060481 0.002961 -155878.000000 0 0 1
34.311986 9.410971 -29.602044 46.283472 0.267693 2.264750 0.061964 0.009748 -357642.000000 0 0 1
34.325486 7.997471 -29.458404 45.934694 0.228906 2.267001 0.070812 0.001444 -773988.000000 0 0 1
33.109086 7.465871 -29.119364 44.720109 0.221784 2.279891 0.078025 -0.006561 -1137430.000000 0 0 1
35.807429 5.905371 -20.410154 41.636759 0.163449 2.083110 0.060642 -0.003313 -181724.000000 0 0 1
35.198649 6.524871 -19.311654 40.675039 0.183292 2.065509 0.045982 -0.020249 353789.000000 0 0 1
35.608919 7.901271 -19.238154 41.237504 0.218353 2.056150 0.031980 -0.009739 -390215.000000 0 0 1
36.903429 8.202871 -18.461254 42.070988 0.218723 2.025072 0.046925 -0.019164 -409310.000000 0 0 1
-36.221554 7.708271 -18.971354 41.609262 -0.209681 2.044225 0.056606 -0.020754 -642459.000000 0 0 1
-35.567342 8.596371 -19.820854 41.614897 -0.237145 2.067229 0.057074 -0.010535 -441849.000000 0 0 1
-34.372919 7.879271 -20.529654 40.804990 -0.225336 2.097997 0.049475 -0.003151 -96302.700000 0 0 1
-34.605710 6.794671 -21.449154 41.276978 -0.193879 2.117225 0.046748 0.001598 -58203.300000 0 0 1
-35.087795 7.256371 -22.695554 42.413399 -0.203931 2.135426 0.036893 0.000819 3761.660000 0 0 1
-35.168921 6.080171 -23.699454 42.842568 -0.171193 2.156967 0.076791 -0.010095 -108753.000000 0 0 1
-33.946644 5.776971 -24.310354 42.151410 -0.168563 2.185527 0.075525 -0.012659 -275076.000000 0 0 1
-34.040994 4.539771 -25.068314 42.518457 -0.132580 2.201343 0.078992 -0.005071 363571.000000 0 0 1
-32.802574 4.120971 -25.948134 42.027336 -0.124975 2.236243 0.087147 -0.004463 898461.000000 0 0 1
-31.602094 4.195771 -25.191974 40.631668 -0.131997 2.239550 0.076776 -0.007549 -1023690.000000 0 0 1
-30.502794 3.880471 -25.931044 40.223097 -0.126537 2.271402 0.068975 -0.009078 -556075.000000 0 0 1
-29.165344 4.351771 -25.298884 38.853427 -0.148118 2.279877 0.048710 -0.009596 152580.000000 0 0 1
-28.945604 5.737971 -25.544344 39.029295 -0.195696 2.284306 0.035045 -0.008641 1053170.000000 0 0 1
-27.653314 6.123271 -25.001754 37.779465 -0.217914 2.293989 0.048349 -0.005153 1088590.000000 0 0 1
-27.293924 7.595771 -25.130124 37.870532 -0.271427 2.296390 0.045966 -0.018730 126722.000000 0 0 1
-28.100834 8.399071 -24.244054 38.052272 -0.290439 2.261559 0.046509 -0.024400 52115.000000 0 0 1
-27.837324 9.777871 -24.411654 38.294285 -0.337788 2.262013 0.036563 -0.028449 -263894.000000 0 0 1
-26.461554 10.299671 -23.963254 37.155546 -0.371189 2.271747 0.074409 -0.024135 -444465.000000 0 0 1
-26.383474 10.671571 -22.579254 36.328953 -0.384362 2.241481 0.052616 -0.021435 776637.000000 0 0 1
-25.013114 10.856971 -22.199654 35.161831 -0.409512 2.254098 0.090976 -0.023787 323650.000000 0 0 1
-24.854614 11.153371 -20.709454 34.220331 -0.421809 2.220788 0.102711 -0.034826 -910943.000000 0 0 1
-25.306554 12.439171 -20.336254 34.766620 -0.456856 2.195598 0.088815 -0.034005 1854330.000000 0 0 1
-26.731804 12.726271 -20.258454 35.874117 -0.444323 2.170878 0.078004 -0.020204 1603580.000000 0 0 1
-27.695614 11.783371 -19.447054 35.834101 -0.402260 2.144441 0.062491 -0.010204 -228432.000000 0 0 1
-27.412004 11.894971 -18.067954 34.919325 -0.409413 2.114629 0.074810 -0.021103 653644.000000 0 0 1
-28.283424 10.979071 -17.407654 34.978829 -0.370276 2.091698 0.078385 -0.023956 -546373.000000 0 0 1
-27.876074 10.618171 -15.929254 33.816597 -0.363939 2.061275 0.113447 -0.029139 42608.000000 0 0 1
-26.959784 9.570771 -15.697654 32.631978 -0.341124 2.072650 0.127847 -0.030565 198547.000000 0 0 1
-25.658454 9.917471 -16.103754 31.875436 -0.368831 2.100420 0.106544 -0.022337 -1088870.000000 0 0 1
-24.662714 8.738671 -15.933354 30.634713 -0.340525 2.117774 0.089382 -0.024724 1117940.000000 0 0 1
-23.280214 9.180771 -15.904554 29.651472 -0.375634 2.136942 0.097755 -0.019575 1268450.000000 0 0 1
-22.417414 8.173971 -15.489454 28.447802 -0.349645 2.146574 0.108223 -0.021637 426398.000000 0 0 1
-20.900114 8.539771 -15.351854 27.302415 -0.387897 2.167948 0.137368 -0.030472 779651.000000 0 0 1
-20.255514 8.748671 -16.613854 27.619653 -0.407714 2.216202 0.150598 -0.038253 129914.000000 0 0 1
-18.862414 8.799071 -16.454154 26.532122 -0.436480 2.239743 0.147315 -0.038272 -744445.000000 0 0 1
-18.014414 9.225671 -17.646354 26.851926 -0.473302 2.287858 0.116474 -0.027246 -180887.000000 0 0 1
-18.013714 8.245071 -18.653354 27.210710 -0.429248 2.326107 0.160021 -0.037339 522981.000000 0 0 1
-17.049114 7.209871 -18.414054 26.109997 -0.400081 2.353571 0.167390 -0.038461 -319348.000000 0 0 1
-16.614914 6.387671 -19.655454 26.517817 -0.367033 2.405678 0.129914 -0.034860 -511399.000000 0 0 1
-17.582414 5.632971 -20.331554 27.463498 -0.310043 2.404330 0.133475 -0.023784 46827.200000 0 0 1
-18.494214 6.420771 -21.104554 28.786533 -0.334158 2.393724 0.136033 -0.020363 -288248.000000 0 0 1
-19.488714 5.568171 -21.875554 29.822045 -0.278298 2.394307 0.115894 -0.008035 34626.800000 0 0 1
-20.430714 4.856671 -21.028154 29.718422 -0.233383 2.356864 0.120583 -0.015356 703993.000000 0 0 1
-21.019314 3.764071 -21.691854 30.438731 -0.177199 2.364050 0.094275 -0.003830 -392618.000000 0 0 1
-22.037014 3.125771 -20.727954 30.414610 -0.140902 2.320625 0.120670 -0.007204 -506790.000000 0 0 1
-22.627414 1.983971 -21.225354 31.087806 -0.087456 2.322323 0.125048 -0.002581 114.489000 0 0 1
-23.194014 1.364271 -20.104454 30.724788 -0.058752 2.284106 0.130600 -0.008042 -270167.000000 0 0 1
-23.851114 0.009971 -20.396554 31.383040 -0.000418 2.278279 0.132148 0.001783 -49729.200000 0 0 1
-22.870614 -0.941529 -20.709654 30.868127 0.041144 2.306228 0.117902 -0.013882 176513.000000 0 0 1
-23.449814 -2.195129 -20.903354 31.490675 0.093338 2.296678 0.130213 -0.020319 -183947.000000 0 0 1
-24.037414 -2.508729 -22.308854 32.890363 0.103991 2.316215 0.119945 -0.027539 539893.000000 0 0 1
-23.071614 -2.531129 -23.361954 32.931549 0.109271 2.359456 0.092953 -0.026376 -163675.000000 0 0 1
-22.095714 -3.503629 -23.379354 32.358773 0.157257 2.378214 0.082141 -0.035937 117336.000000 0 0 1
-21.072914 -3.344829 -24.565754 32.538160 0.157413 2.426424 0.075968 -0.036232 698007.000000 0 0 1
-21.758214 -3.673029 -25.799074 33.948538 0.167234 2.434027 0.075538 -0.038807 746678.000000 0 0 1
-20.914114 -3.636729 -26.954304 34.309772 0.172167 2.474487 0.071642 -0.043210 81577.300000 0 0 1
-21.679114 -3.981829 -28.282054 35.856848 0.181647 2.479568 0.078853 -0.039455 -73263.900000 0 0 1
-22.394714 -5.142829 -28.060674 36.268076 0.225731 2.455460 0.078489 -0.044922 -765241.000000 0 0 1
-23.162614 -5.470229 -29.135004 37.620188 0.231917 2.456644 0.041588 -0.032615 -963155.000000 0 0 1
-22.657314 -6.662829 -30.088124 38.249737 0.286007 2.476117 0.055375 -0.034546 -90916.900000 0 0 1
-21.442614 -6.389829 -30.744714 38.024375 0.289618 2.512485 0.046527 -0.034572 -312125.000000 0 0 1
-20.846014 -7.581929 -31.170574 38.257635 0.348837 2.523102 0.053551 -0.036929 -185712.000000 0 0 1
-19.477314 -7.294529 -31.840354 38.031356 0.358345 2.562964 0.063392 -0.035119 -315437.000000 0 0 1
-19.467014 -6.872229 -33.183694 39.081322 0.339362 2.585063 0.067950 -0.037688 303716.000000 0 0 1
-19.647814 -7.885129 33.701277 39.799346 0.381647 0.560894 0.070134 -0.036528 -596490.000000 0 0 1
-19.466414 -7.425429 32.238490 38.384874 0.364412 0.573744 0.069659 -0.028397 -398455.000000 0 0 1
-18.210414 -7.056929 31.736461 37.264224 0.369703 0.551651 0.081650 -0.033761 -248808.000000 0 0 1
-17.798414 -5.773529 32.226310 37.264625 0.313675 0.526052 0.072307 -0.036205 94817.900000 0 0 1
-16.419114 -5.403929 31.593251 36.012821 0.317958 0.500635 0.073333 -0.030172 310553.000000 0 0 1
-16.430414 -5.396529 30.161931 34.768134 0.317347 0.520609 0.069133 -0.027997 236869.000000 0 0 1
-15.190614 -4.925429 29.653801 33.680299 0.313546 0.493987 0.054176 -0.016419 286905.000000 0 0 1
-15.166014 -4.904629 28.150831 32.350157 0.312780 0.515206 0.055112 -0.015664 108494.000000 0 0 1
-16.173414 -4.010229 27.724181 32.346429 0.243050 0.541179 0.048421 -0.021865 212513.000000 0 0 1
-16.699514 -4.273229 26.428241 31.552911 0.250514 0.577949 0.051421 -0.015753 473946.000000 0 0 1
-15.802014 -3.710529 25.248271 30.015777 0.230635 0.571359 0.052662 -0.011363 482017.000000 0 0 1
-15.675814 -2.306829 25.122801 29.701982 0.146110 0.562679 0.048266 -0.005934 -434447.000000 0 0 1
-14.814014 -1.916729 24.114121 28.365819 0.128671 0.554599 0.048781 -0.003180 -345115.000000 0 0 1
-14.462114 -0.424429 24.164911 28.165153 0.029339 0.539488 0.050186 0.004082 -255974.000000 0 0 1
-15.449914 0.439871 23.658281 28.259646 -0.028463 0.578698 0.038213 0.001009 -163555.000000 0 0 1
-15.604314 1.719371 24.260401 28.896677 -0.109743 0.574329 0.021589 0.005228 79553.600000 0 0 1
-16.349914 2.736371 23.333991 28.623112 -0.165826 0.617696 0.031031 0.011116 121877.000000 0 0 1
-15.534614 3.250171 22.305611 27.375685 -0.206246 0.618418 0.019549 0.006917 347470.000000 0 0 1
-16.282414 4.149971 21.503511 27.289930 -0.249561 0.663299 0.025365 0.004251 163085.000000 0 0 1
-15.377914 4.819671 20.427211 26.018848 -0.303718 0.667950 0.034820 0.005501 949777.000000 0 0 1
-14.478914 5.829571 21.013811 26.176385 -0.382767 0.638858 0.026442 -0.001482 307624.000000 0 0 1
-13.306114 5.903971 20.266211 24.952532 -0.417606 0.622899 0.025228 0.007840 -335518.000000 0 1 0
-12.392414 7.122071 20.547611 25.029985 -0.521618 0.607776 0.024879 0.004537 230885.000000 0 0 1
-12.874014 8.374271 20.217911 25.389616 -0.576712 0.649632 0.030984 0.000038 -282295.000000 0 0 1
-11.757214 9.195171 20.334911 25.224826 -0.663723 0.633185 0.039203 -0.002527 113312.000000 0 0 1
-12.178914 10.685371 20.359211 26.019235 -0.720169 0.672177 0.028678 -0.001564 43850.800000 0 0 1
-12.736114 11.165471 19.132411 25.552407 -0.719780 0.724619 0.038630 -0.003038 330933.000000 0 0 1
-13.332614 12.448171 19.254511 26.522665 -0.751105 0.758361 0.020663 0.001906 -14635.800000 0 0 1
-13.763314 13.180271 17.935911 26.169549 -0.763762 0.815680 0.037836 -0.007095 39103.100000 0 0 1
-12.731014 13.944171 17.338111 25.634522 -0.830846 0.827990 0.031558 -0.009601 33979.500000 0 0 1
-12.640314 15.295771 17.834711 26.679863 -0.880168 0.838645 0.054128 -0.013428 -574927.000000 0 0 1
-13.811514 16.252571 17.550411 27.621023 -0.866416 0.882269 0.060499 -0.013683 -275455.000000 0 0 1
-14.094914 16.615471 16.192811 27.146779 -0.867290 0.931674 0.061539 -0.026510 34807.300000 0 0 1
-14.437214 15.575671 15.289311 26.168640 -0.823312 0.946827 0.088084 -0.022795 -417881.000000 0 0 1
-14.772314 16.194271 13.871311 25.940103 -0.831285 1.006592 0.068828 -0.033540 571443.000000 0 0 1
-15.926714 17.025871 14.014911 27.202173 -0.818742 1.029540 0.057821 -0.029011 277747.000000 0 0 1
-16.302714 17.650171 12.766411 27.208239 -0.825063 1.082399 0.062552 -0.030022 -680835.000000 0 0 1
-17.541914 18.495371 12.923311 28.579879 -0.811849 1.101586 0.062700 -0.025426 -932826.000000 0 0 1
-18.727914 17.749171 12.893511 28.844592 -0.758573 1.107388 0.064801 -0.024472 -1264620.000000 0 0 1
-19.785914 18.591471 13.082311 30.137552 -0.754285 1.121772 0.064137 -0.025198 -539915.000000 0 0 1
-21.202114 17.972371 13.159411 30.752331 -0.703139 1.128611 0.075568 -0.013963 430325.000000 0 0 1
-21.520414 17.167071 12.038611 30.046043 -0.673344 1.158546 0.082313 -0.020763 -519545.000000 0 0 1
-22.857114 16.757971 12.073511 30.806605 -0.632638 1.168086 0.092866 -0.022191 -224934.000000 0 0 1
-23.374414 15.983071 10.848211 30.323349 -0.599760 1.204938 0.097078 -0.022741 -144713.000000 0 0 1
-22.938014 14.633471 10.740711 29.251561 -0.567863 1.194816 0.079528 -0.018292 175780.000000 0 0 1
-23.483114 13.947671 9.609111 28.953915 -0.535955 1.232505 0.081621 -0.020878 461613.000000 0 0 1
-22.596814 12.676171 9.255711 27.513079 -0.511228 1.227693 0.099773 -0.022071 -416193.000000 0 0 1
-22.703514 11.545971 10.108811 27.403413 -0.470468 1.192983 0.103286 -0.021626 -211761.000000 0 0 1
-23.979814 11.005671 10.322811 28.332256 -0.430276 1.197863 0.131875 -0.009950 -62033.300000 0 0 1
-24.751614 10.533871 9.057111 28.383730 -0.402365 1.246022 0.152849 -0.015381 -685906.000000 0 0 1
-25.327784 11.548371 8.254211 29.034351 -0.427796 1.282529 0.153564 -0.021867 227181.000000 0 0 1
-26.364164 10.945971 7.476611 29.509035 -0.393527 1.314637 0.190724 -0.026665 29968.000000 0 0 1
-27.018204 12.084171 6.576211 30.319253 -0.420573 1.352160 0.165718 -0.018663 -475816.000000 0 0 1
-26.464724 12.508971 5.369111 29.760432 -0.441542 1.389392 0.142834 -0.028846 217866.000000 0 0 1
-25.182144 13.122871 5.387411 28.902843 -0.480399 1.383302 0.130131 -0.027674 -65821.100000 0 0 1
-25.000514 14.506071 6.112411 29.543415 -0.525757 1.362395 0.120940 -0.034300 107635.000000 0 0 1
-23.611514 14.861571 6.118411 28.562298 -0.561772 1.354910 0.114768 -0.037272 818809.000000 0 0 1
-23.493714 16.132771 6.674611 29.270657 -0.601733 1.340742 0.098446 -0.035897 -697710.000000 0 0 1
-22.109414 16.759871 6.683911 28.537592 -0.648628 1.334386 0.101166 -0.038067 -661554.000000 0 0 1
-21.711514 17.243271 5.406811 28.248077 -0.671194 1.378203 0.118094 -0.052178 -454139.000000 0 0 1
-20.383014 17.618671 5.494511 27.496809 -0.712783 1.369618 0.137790 -0.050280 -825601.000000 0 0 1
-19.781514 18.465371 4.313011 27.402195 -0.751000 1.412743 0.120650 -0.033829 128965.000000 0 0 1
-18.442914 18.848471 4.574411 26.764364 -0.796273 1.399039 0.106542 -0.032745 631999.000000 0 0 1
-17.821514 19.806971 3.681211 26.897468 -0.838114 1.433505 0.109688 -0.039815 387416.000000 0 0 1
-18.037314 21.248771 4.104911 28.172775 -0.866962 1.424571 0.109775 -0.038615 -103932.000000 0 0 1
-17.353214 21.535071 5.304011 28.160715 -0.892522 1.381317 0.114233 -0.036231 59961.500000 0 0 1
-17.480114 22.910571 5.648011 29.365774 -0.919045 1.377257 0.083560 -0.027022 -448488.000000 0 0 1
-16.581014 23.335671 6.789311 29.420712 -0.953029 1.337931 0.062638 -0.004149 -677761.000000 0 0 1
-16.986614 22.778071 8.001511 29.519650 -0.930024 1.296305 0.067859 -0.010145 -238633.000000 0 0 1
-16.212014 23.182171 9.071811 29.707578 -0.960519 1.260469 0.063519 -0.014775 -374419.000000 0 0 1
-16.610214 22.482771 10.361911 29.811800 -0.934503 1.215810 0.045616 -0.012211 628201.000000 0 0 1
-17.770414 23.103171 10.958211 31.138827 -0.915135 1.211180 0.051663 -0.015524 355528.000000 0 0 1
-18.638114 22.098671 11.411411 31.079750 -0.870144 1.194837 0.057192 -0.019207 960144.000000 0 0 1
-20.077314 22.594171 11.911711 32.488213 -0.844312 1.195394 0.067313 -0.026009 1439250.000000 0 0 1
-20.976314 23.046071 10.914811 33.019089 -0.832380 1.233899 0.072761 -0.018354 -129688.000000 0 0 1
-20.620614 24.283871 10.344211 33.495057 -0.866797 1.256836 0.050784 -0.017341 -525894.000000 0 0 1
-21.665714 25.352971 9.848411 34.773086 -0.863659 1.283647 0.069492 -0.012534 19099.400000 0 0 1
-22.288214 25.961471 10.935411 35.921382 -0.861382 1.261460 0.084284 -0.025358 155747.000000 0 0 1
-23.421114 26.698271 10.476911 37.028529 -0.850692 1.283937 0.086687 -0.012781 453035.000000 0 0 1
-24.296814 27.253271 11.609111 38.312497 -0.842687 1.262946 0.086628 -0.032862 -114647.000000 0 0 1
-23.625514 28.388971 12.127811 38.873930 -0.876723 1.253522 0.088081 -0.026053 917330.000000 0 0 1
-24.498914 29.266971 12.873111 40.279888 -0.873849 1.245498 0.080550 -0.030560 335765.000000 0 0 1
9.549186 -32.511038 27.281771 43.502294 -1.285110 0.892928 0.080523 -0.024919 -385823.000000 0 0 1
10.904486 -32.804338 27.085371 43.916395 -1.249877 0.906191 0.054844 -0.032982 -164464.000000 0 0 1
11.259386 -32.284538 25.829361 42.851150 -1.235231 0.923829 0.063419 -0.023626 -635042.000000 0 0 1
12.739186 -32.566838 25.597741 43.337399 -1.197925 0.938918 0.018262 -0.015954 -623453.000000 0 0 1
13.094486 -33.903038 25.344611 44.308361 -1.202214 0.961848 0.034095 -0.040032 -13218.400000 0 0 1
14.510486 -33.951038 25.377281 44.802161 -1.166899 0.968629 0.043315 -0.028069 -134782.000000 0 0 1
15.181686 32.724671 25.182041 43.994578 1.136426 0.961379 0.062576 -0.018961 -65049.300000 0 0 1
15.075186 32.294771 23.856491 42.887593 1.134060 0.980922 0.046620 -0.021947 54015.900000 0 0 1
16.089286 31.403571 23.473311 42.379780 1.097326 0.983779 0.047239 -0.022831 -535044.000000 0 0 1
16.022486 30.953871 22.010311 41.222760 1.093149 1.007548 0.061726 -0.032586 489029.000000 0 0 1
15.002786 29.981671 21.692311 39.931698 1.106830 0.996510 0.052728 -0.020512 621133.000000 0 0 1
15.396386 28.604671 21.973711 39.218871 1.077021 0.976068 0.061886 -0.019157 -53270.400000 0 0 1
15.057186 28.014971 23.363581 39.464089 1.077625 0.937232 0.074201 -0.029448 1386.570000 0 0 1
15.915286 28.337771 24.470211 40.683127 1.059070 0.925440 0.070913 -0.023951 50247.000000 0 0 1
15.284086 28.136871 25.704261 41.060879 1.073185 0.894378 0.063767 -0.031478 -622781.000000 0 0 1
16.061286 28.594871 26.899641 42.417240 1.059027 0.883865 0.064567 -0.030421 -492037.000000 0 0 1
16.080586 29.943371 27.147701 43.499292 1.077963 0.896823 0.061770 -0.036556 168010.000000 0 0 1
16.769286 30.270671 28.337091 44.727097 1.064904 0.884656 0.073216 -0.033875 -149526.000000 0 0 1
16.587186 31.754871 28.771641 45.949036 1.089428 0.894173 0.082889 -0.034844 80793.600000 0 0 1
17.252686 32.813471 28.066881 46.498697 1.086738 0.922780 0.084458 -0.034657 122154.000000 0 0 1
16.719086 -33.999238 28.371341 47.332959 -1.113771 0.928046 0.067625 -0.023868 -19978.100000 0 0 1
17.427186 -32.888138 27.511971 46.284393 -1.083521 0.934263 0.060463 -0.032516 -302639.000000 0 0 1
17.286886 -32.965238 26.105251 45.464574 -1.087822 0.959183 0.078988 -0.028689 -162725.000000 0 0 1
17.791286 -31.803038 25.465501 44.457337 -1.060749 0.960869 0.069952 -0.029857 683731.000000 0 0 1
19.347586 -31.558938 25.343791 44.862049 -1.020828 0.970451 0.088068 -0.030849 682860.000000 0 0 1
19.899586 -31.029138 26.504281 45.401298 -1.000548 0.947422 0.084122 -0.030538 -449219.000000 0 0 1
21.070786 -30.321738 26.250551 45.304274 -0.963497 0.952770 0.093703 -0.032683 -781572.000000 0 0 1
21.463486 -29.407238 27.452741 45.597367 -0.940303 0.924707 0.097948 -0.027168 -980510.000000 0 0 1
20.444886 -28.637238 27.963161 44.944668 -0.950785 0.899287 0.087282 -0.018709 -340525.000000 0 0 1
20.864986 -27.937438 29.115111 45.426179 -0.929316 0.875084 0.092631 -0.018262 936541.000000 0 0 1
19.592986 -27.267338 29.804111 44.896301 -0.947728 0.844850 0.092183 -0.024900 957497.000000 0 0 1
18.932586 -26.358838 28.919101 43.468903 -0.947918 0.842924 0.111799 -0.021568 317957.000000 0 0 1
17.720786 -26.022538 29.578491 43.198216 -0.972951 0.816583 0.105484 -0.020265 513231.000000 0 0 1
16.638086 -25.252138 28.721511 41.706373 -0.988205 0.811157 0.100434 -0.009943 234058.000000 0 0 1
15.995586 -26.060538 27.691061 41.252943 -1.020302 0.834902 0.090336 -0.007006 593052.000000 0 0 1
15.296786 -25.259338 26.755851 39.848480 -1.026277 0.834647 0.080039 -0.018362 1007300.000000 0 0 1
13.871986 -24.657238 27.158421 39.217231 -1.058336 0.805830 0.076169 -0.010916 2842790.000000 0 0 1
12.710486 -25.603238 27.230971 39.479210 -1.110000 0.809646 0.068165 -0.004461 1948150.000000 0 0 1
12.187086 -26.001038 26.024821 38.753972 -1.132488 0.834512 0.043022 -0.005034 -605493.000000 0 0 1
11.361786 -27.282638 26.043971 39.391889 -1.176192 0.848445 0.058835 -0.011928 -367137.000000 0 0 1
10.048986 -27.230238 26.515061 39.313057 -1.217263 0.830564 0.056378 -0.017715 -408224.000000 0 0 1
9.397186 -28.497638 26.333681 39.923492 -1.252271 0.850505 0.055486 -0.015001 -30412.900000 0 0 1
7.886686 -28.345338 26.658871 39.703317 -1.299424 0.834630 0.044969 -0.014173 604639.000000 0 0 1
6.966286 -28.075538 25.580711 38.615253 -1.327582 0.846710 0.058932 -0.022223 455030.000000 0 0 1
7.153386 -26.802938 25.003021 37.345943 -1.309987 0.837264 0.076659 -0.021019 -735934.000000 0 0 1
5.969486 -26.286338 24.120241 36.171707 -1.347489 0.840855 0.085521 -0.019889 -278494.000000 0 0 1
5.829686 -26.971938 22.864771 35.836691 -1.357932 0.878863 0.082279 -0.017914 -240296.000000 0 0 1
5.263286 -28.229338 22.986791 36.783016 -1.386465 0.895755 0.079617 -0.021933 -584040.000000 0 0 1
3.754986 -28.280038 23.335421 36.856510 -1.438790 0.885190 0.116037 -0.027209 -1324460.000000 0 0 1
2.933286 -28.084638 22.224311 35.934260 -1.466729 0.904000 0.118917 -0.031613 16864.800000 0 0 1
1.624486 -27.641538 22.548711 35.709074 -1.512094 0.887367 0.138664 -0.026661 226672.000000 0 0 1
1.423786 -26.263638 23.249841 35.104999 -1.516638 0.846920 0.125529 -0.035587 -814818.000000 0 0 1
1.917086 -26.102238 24.583421 35.907473 -1.497483 0.816697 0.110715 -0.029067 116911.000000 0 0 1
1.551886 -24.836438 25.130911 35.366930 -1.508393 0.780479 0.112567 -0.030180 -58387.200000 0 0 1
2.714086 -24.300638 26.004281 35.694676 -1.459569 0.754638 0.116593 -0.027183 276927.000000 0 0 1
3.804386 -23.866438 25.204231 34.918956 -1.412723 0.764408 0.118197 -0.023239 -151063.000000 0 0 1
4.834786 -23.097438 25.738981 34.919364 -1.364454 0.742031 0.107034 -0.030400 -128054.000000 0 0 1
4.585386 -21.575638 25.989171 34.087695 -1.361386 0.703750 0.098429 -0.021555 -237052.000000 0 0 1
4.546786 -20.786038 24.817381 32.689984 -1.355446 0.708753 0.095599 -0.027110 401131.000000 0 0 1
3.457286 -19.878738 24.979791 32.110855 -1.398600 0.679442 0.111152 -0.030480 342737.000000 0 0 1
3.303886 -18.989538 23.695891 30.545269 -1.398536 0.682873 0.122438 -0.034282 -88846.600000 0 0 1
4.258286 -17.965138 23.551421 29.925718 -1.338061 0.664872 0.125592 -0.028279 -353147.000000 0 0 1
4.738186 -18.028838 22.206611 28.993499 -1.313797 0.698330 0.119119 -0.033791 219339.000000 0 0 1
5.937386 -17.093738 21.863511 28.380655 -1.236491 0.691380 0.097440 -0.020364 1176410.000000 0 0 1
7.139086 -17.552238 22.507311 29.421534 -1.184499 0.699764 0.081020 -0.029515 759719.000000 0 0 1
8.325286 -16.966938 21.954311 28.968589 -1.114635 0.710760 0.076831 -0.019036 327271.000000 0 0 1
9.587686 -17.198038 22.765111 30.098946 -1.062223 0.713092 0.082238 -0.008688 -461840.000000 0 0 1
9.693086 -16.660138 24.035681 30.809578 -1.043857 0.675912 0.072548 -0.010770 -307282.000000 0 0 1
10.913786 -16.942938 24.668911 31.854812 -0.998545 0.685003 0.085123 -0.005325 -87680.700000 0 0 1
11.138086 -15.958338 25.915801 32.409169 -0.961449 0.644094 0.106009 -0.013088 -142479.000000 0 0 1
11.492486 -14.618038 25.520681 31.576406 -0.904536 0.629673 0.108431 -0.010456 285837.000000 0 0 1
11.461986 -13.827938 26.690381 32.170879 -0.878680 0.592326 0.101400 -0.016144 -47086.600000 0 0 1
11.674386 -12.299038 26.562561 31.513922 -0.811448 0.568177 0.097391 -0.018119 291827.000000 0 0 1
10.601386 -11.638938 25.891011 30.301794 -0.832016 0.546328 0.091390 -0.015338 364678.000000 0 0 1
10.889186 -10.294138 25.585141 29.650347 -0.757315 0.529826 0.089374 -0.017880 -342467.000000 0 0 1
9.770386 -9.650938 24.795771 28.344864 -0.779248 0.505796 0.077661 -0.017973 -176967.000000 0 0 1
8.530586 -9.398438 25.413801 28.407091 -0.833765 0.463197 0.080988 -0.026668 164596.000000 0 0 1
7.542386 -8.840938 24.541211 27.153652 -0.864493 0.442251 0.080858 -0.026571 -577109.000000 0 0 1
6.170186 -9.096538 25.086231 27.388633 -0.974783 0.412963 0.082763 -0.032364 -1928290.000000 0 0 1
5.739486 -8.309938 26.183641 28.063853 -0.966355 0.368129 0.088505 -0.033353 908874.000000 0 0 1
4.384086 -8.471138 26.648281 28.303909 -1.093222 0.343727 0.085382 -0.034810 1871760.000000 0 0 1
3.166886 -8.521838 25.656181 27.219304 -1.214992 0.340544 0.073407 -0.028409 -55310.800000 0 0 1
2.953786 -7.290338 24.982091 26.191196 -1.185846 0.305038 0.070123 -0.024200 127117.000000 0 0 1
1.722186 -7.198238 24.276351 25.379554 -1.335960 0.295928 0.071468 -0.020282 454622.000000 0 0 1
1.531786 -5.883738 23.441671 24.217281 -1.316108 0.253770 0.057112 -0.022823 -26483.900000 0 1 0
1.370886 -4.647538 24.111561 24.593624 -1.283960 0.198320 0.060349 -0.020815 40627.000000 0 1 0
2.136386 -3.591338 23.554551 23.922348 -1.034156 0.175580 0.064279 -0.022539 -577343.000000 0 1 0
1.422086 -2.813638 22.421811 22.642361 -1.102817 0.139688 0.058235 -0.021130 34484.700000 0 1 0
0.433686 -1.881638 22.710111 22.792056 -1.344269 0.084823 0.062199 -0.024797 526315.000000 0 1 0
-0.807914 -2.403638 23.229911 23.367905 1.246539 0.108730 0.054746 -0.024396 275114.000000 0 1 0
-1.690714 -1.289638 23.821741 23.916459 0.651628 0.089028 0.061389 -0.025365 -27293.800000 0 1 0
-1.120014 -0.573638 24.923101 24.954848 0.473336 0.050447 0.077560 -0.024126 626624.000000 0 1 0
-2.017614 0.470362 25.375161 25.459592 -0.229037 0.081463 0.072000 -0.021899 489766.000000 0 0 1
-1.524914 1.182362 26.711171 26.780777 -0.659537 0.072114 0.094822 -0.026700 -113121.000000 0 0 1
-1.614314 0.449362 27.914291 27.964542 -0.271488 0.059958 0.103782 -0.028467 -185160.000000 0 0 1
-0.944914 -0.789638 28.055241 28.082253 0.696117 0.043864 0.103467 -0.027791 -574213.000000 0 0 1
0.495686 -0.609638 28.591411 28.602205 -0.888129 0.027474 0.107720 -0.024919 77883.900000 0 0 1
1.476586 -0.011638 27.718461 27.757765 -0.007882 0.053222 0.100449 -0.027070 324832.000000 0 0 1
1.903786 -0.869638 26.690471 26.772410 -0.428490 0.078258 0.086673 -0.024983 -503671.000000 0 0 1
3.087486 -1.801638 27.055561 27.290692 -0.528221 0.131363 0.088321 -0.027237 -540131.000000 0 0 1
2.773186 -2.841638 28.023801 28.303691 -0.797589 0.140749 0.095004 -0.026701 -349048.000000 0 0 1
3.873786 -3.600738 28.430941 28.918678 -0.748884 0.183921 0.090220 -0.025488 -180992.000000 0 0 1
4.509686 -4.582538 27.398301 28.142563 -0.793411 0.230493 0.090271 -0.028905 188994.000000 0 0 1
5.316286 -3.850038 26.473271 27.274893 -0.626782 0.243046 0.081904 -0.024916 -305252.000000 0 0 1
5.808986 -4.723438 25.490881 26.567653 -0.682694 0.285679 0.083089 -0.026632 -125348.000000 0 0 1
7.002786 -4.047038 24.714221 26.004043 -0.524025 0.316280 0.078805 -0.023644 471099.000000 0 0 1
8.265686 -3.858338 25.339561 26.931426 -0.436728 0.345542 0.076381 -0.019617 119469.000000 0 0 1
8.971186 -5.028738 25.595691 27.584593 -0.510902 0.382061 0.083943 -0.024703 -693506.000000 0 0 1
9.865586 -5.486938 24.425641 26.908144 -0.507568 0.432927 0.078911 -0.026771 -811855.000000 0 0 1
9.106386 -5.924338 23.352601 25.755932 -0.576776 0.435431 0.079284 -0.030247 -247115.000000 0 0 1
9.735886 -5.830438 22.063411 24.810796 -0.539581 0.475057 0.086655 -0.025961 173690.000000 0 1 0
9.842186 -4.388538 21.413011 23.971753 -0.419431 0.466250 0.100371 -0.028706 1190390.000000 0 1 0
8.538686 -3.899538 21.005611 23.007635 -0.428404 0.420256 0.083449 -0.030816 710433.000000 0 1 0
8.490186 -2.732638 20.175711 22.059236 -0.311388 0.416241 0.073656 -0.028654 -1148880.000000 0 1 0
7.143186 -2.101638 20.005611 21.346345 -0.286142 0.356307 0.064755 -0.020730 -828599.000000 0 1 0
6.572286 -1.577638 21.181611 22.233860 -0.235587 0.308883 0.063674 -0.014665 -218572.000000 0 1 0
5.356086 -0.929638 20.926011 21.620588 -0.171855 0.254162 0.043377 -0.016505 -197991.000000 0 1 0
4.791986 -0.051638 22.081211 22.595258 -0.010776 0.213715 0.036876 -0.018355 699265.000000 0 1 0
3.478386 0.494362 21.927211 22.206894 0.141178 0.158877 0.036661 -0.022018 562676.000000 0 1 0
2.844786 0.640362 23.183891 23.366550 0.221410 0.125119 0.052500 -0.022654 -88596.600000 0 1 0
1.387286 1.112362 23.103781 23.172109 0.675853 0.076813 0.063581 -0.032365 -319488.000000 0 1 0
1.186986 2.461362 22.778611 22.941935 1.121451 0.119394 0.059821 -0.026166 1453940.000000 0 1 0
-0.230114 2.797362 22.752411 22.924886 -1.488720 0.122743 0.056696 -0.022928 1344090.000000 0 1 0
-0.552214 4.252362 22.339011 22.746845 -1.441658 0.189647 0.057660 -0.016318 -439447.000000 0 1 0
-0.340614 5.252362 23.322621 23.909161 -1.506037 0.221959 0.074481 -0.012387 -158180.000000 0 1 0
-1.343414 6.231362 23.244721 24.102940 -1.358457 0.267655 0.062080 -0.009141 -63972.400000 0 1 0
-1.095514 7.471362 24.156941 25.309666 -1.425205 0.302968 0.069470 -0.006003 344546.000000 0 0 1
-0.175114 8.367362 23.544021 24.987284 -1.549871 0.341540 0.065275 -0.009122 92507.700000 0 1 0
-0.272614 9.664362 24.200221 26.060025 -1.542596 0.380083 0.074083 -0.006758 -603776.000000 0 0 1
0.571986 10.726362 23.553631 25.887363 1.517522 0.427873 0.082077 -0.016772 1269330.000000 0 0 1
2.018086 10.646362 23.545151 25.918947 1.383463 0.431320 0.072852 -0.014903 1126920.000000 0 0 1
2.648386 10.978362 24.757541 27.211656 1.334082 0.427961 0.107280 -0.026630 82313.200000 0 0 1
4.038486 11.699362 24.684141 27.613244 1.238414 0.464772 0.098029 -0.034096 390422.000000 0 0 1
5.169786 11.057362 24.223411 27.124999 1.133450 0.466764 0.084549 -0.034027 -387875.000000 0 0 1
5.089686 10.759362 22.814111 25.732323 1.128943 0.480868 0.079348 -0.031090 -405893.000000 0 0 1
6.453786 10.357362 22.178511 25.314278 1.013557 0.503029 0.079131 -0.032175 109144.000000 0 0 1
7.306186 11.402362 21.839211 25.697186 1.000944 0.555062 0.073209 -0.036270 -110378.000000 0 0 1
8.450286 10.828362 21.212411 25.271073 0.908131 0.574627 0.076558 -0.037364 400881.000000 0 0 1
9.454086 11.933362 20.746411 25.733217 0.900805 0.633076 0.067024 -0.039288 -203340.000000 0 0 1
8.962086 12.636362 19.599811 24.982979 0.953903 0.668864 0.066368 -0.034894 214657.000000 0 1 0
9.826086 13.590362 18.987011 25.332913 0.944788 0.723490 0.085543 -0.035361 300758.000000 0 0 1
11.133286 13.065362 18.301511 25.091812 0.865071 0.753378 0.090426 -0.037800 596896.000000 0 0 1
12.151486 12.794362 19.275111 26.132053 0.811163 0.741281 0.097080 -0.042544 246951.000000 0 0 1
13.345286 12.401362 18.611711 26.043929 0.748753 0.774705 0.093400 -0.041287 883002.000000 0 0 1
14.587286 12.131362 19.548911 27.241857 0.693738 0.770438 0.083444 -0.025986 813174.000000 0 0 1
15.217386 13.297362 20.083711 28.491123 0.718165 0.788498 0.084130 -0.025392 88419.000000 0 0 1
16.332786 12.899362 20.865311 29.470572 0.668480 0.784127 0.074799 -0.025110 427378.000000 0 0 1
17.115186 14.119362 21.453511 30.863232 0.689777 0.802216 0.076322 -0.022269 191811.000000 0 0 1
16.421786 14.832362 22.481211 31.544871 0.734587 0.777494 0.085509 -0.024711 462913.000000 0 0 1
17.269086 15.845362 23.030351 32.858696 0.742431 0.794151 0.080968 -0.024172 66032.600000 0 0 1
-21.652914 12.898671 -24.635754 35.244075 -0.537253 2.344800 0.070811 -0.022353 77416.000000 0 0 1
-21.656414 12.470071 -25.982114 36.049594 -0.522446 2.375655 0.071341 -0.034559 -237403.000000 0 0 1
-22.460914 13.347571 -26.724084 37.374149 -0.536187 2.367480 0.069260 -0.031811 -94005.100000 0 0 1
-22.262414 13.275771 -28.255854 38.343897 -0.537717 2.399278 0.067886 -0.025663 165190.000000 0 0 1
-20.981914 13.760671 -28.607564 38.052457 -0.580466 2.421573 0.083119 -0.020161 -216587.000000 0 0 1
-20.729014 13.880371 -29.942524 38.973215 -0.590038 2.446953 0.071199 -0.027857 -258941.000000 0 0 1
-19.318214 14.418371 -30.232504 38.666357 -0.641168 2.468474 0.073717 -0.028857 -618344.000000 0 0 1
-18.334414 13.584671 -29.722034 37.471234 -0.637676 2.486836 0.076839 -0.032887 -1704160.000000 0 0 1
-17.128814 14.250071 -29.882374 37.274885 -0.693913 2.500890 0.068141 -0.020131 -186611.000000 0 0 1
-16.091914 13.910971 -28.745124 35.759572 -0.712835 2.504526 0.091291 -0.014034 333407.000000 0 0 1
-16.483214 14.350871 -27.457364 35.093457 -0.716353 2.469318 0.087806 -0.024378 -324007.000000 0 0 1
-17.315114 13.410971 -26.825734 34.630728 -0.659013 2.456914 0.103166 -0.017365 -59723.100000 0 0 1
-17.988614 13.863471 -25.490054 34.139844 -0.656606 2.413788 0.096581 -0.015013 -143107.000000 0 0 1
-17.123014 14.105971 -24.402354 32.979553 -0.689087 2.403753 0.137549 -0.032691 -317892.000000 0 0 1
-17.798014 14.716271 -23.357654 32.846886 -0.690899 2.361868 0.114368 -0.035116 -121865.000000 0 0 1
-16.847914 15.260871 -22.236054 31.799190 -0.736011 2.345165 0.117283 -0.022649 272989.000000 0 0 1
-16.190614 16.354971 -22.855254 32.434298 -0.790448 2.352745 0.096491 -0.024680 -287265.000000 0 0 1
-15.460314 17.148871 -21.962454 31.866197 -0.837134 2.331192 0.098023 -0.026332 -243170.000000 0 0 1
-15.103514 18.595871 -22.505454 32.869713 -0.888662 2.324970 0.076340 -0.016503 498101.000000 0 0 1
-16.168914 19.540771 -22.355654 33.809034 -0.879543 2.293258 0.032007 -0.011210 236942.000000 0 0 1
-17.144814 19.403671 -23.350054 34.866490 -0.847124 2.304600 0.019307 -0.005879 -721816.000000 0 0 1
-18.501514 20.050771 -23.074254 35.731788 -0.825562 2.272818 0.014984 -0.007248 -134090.000000 0 0 1
-18.483414 21.452271 -23.274954 36.654604 -0.859603 2.258779 0.000888 -0.002646 -529328.000000 0 0 1
-19.771714 21.940871 -23.066154 37.474925 -0.837354 2.233828 0.031425 -0.013376 -494931.000000 0 0 1
-19.942114 23.473571 -23.338754 38.644455 -0.866560 2.219226 0.014596 -0.006795 88261.900000 0 0 1
-19.258614 24.261071 -22.345854 38.194646 -0.899843 2.195741 0.007088 0.001433 99237.200000 0 0 1
-18.521214 25.288671 -22.970154 38.861037 -0.938660 2.203199 0.004580 0.007724 -140371.000000 0 0 1
-17.186314 25.649871 -22.261954 38.064155 -0.980465 2.195496 0.005833 -0.000591 259725.000000 0 0 1
-16.144314 24.686871 -22.295354 36.975171 -0.991640 2.218030 0.027918 -0.016107 185928.000000 0 0 1
-16.357014 23.531671 -21.434154 35.787070 -0.963362 2.212968 0.030769 0.005097 -1040600.000000 0 0 1
-15.221314 22.504971 -21.404854 34.588002 -0.976117 2.238077 0.062038 -0.006696 -395987.000000 0 0 1
-14.246214 22.852071 -20.463254 33.821835 -1.013341 2.220601 0.086074 -0.020515 -384283.000000 0 0 1
-13.412414 21.750071 -20.186654 32.564696 -1.018216 2.239404 0.087273 -0.023136 199632.000000 0 0 1
-12.423314 21.880671 -18.993154 31.525266 -1.054408 2.217394 0.077757 -0.021894 378615.000000 0 0 1
-12.969514 21.739271 -17.676854 30.875158 -1.032885 2.180381 0.088268 -0.014826 465878.000000 0 0 1
-13.923114 22.754771 -17.274754 31.781281 -1.021690 2.145458 0.091290 -0.023328 547091.000000 0 0 1
-14.460214 22.733071 -15.825154 31.246213 -1.004264 2.101878 0.107002 -0.024431 264093.000000 0 0 1
-13.600314 23.244671 -14.791154 30.725584 -1.041409 2.073042 0.110984 -0.045552 -67820.700000 0 0 1
-14.197914 23.223271 -13.531554 30.397435 -1.022061 2.032143 0.133939 -0.039117 15786.900000 0 0 1
-13.211414 23.551971 -12.353554 29.695910 -1.059587 1.999841 0.175443 -0.049734 301651.000000 0 0 1
-12.671414 24.860971 -12.290954 30.490985 -1.099426 1.985699 0.158765 -0.051044 214438.000000 0 0 1
-11.934214 25.196371 -11.132854 30.020377 -1.128452 1.950713 0.101114 -0.051024 -88965.600000 0 0 1
-11.428014 26.640271 -11.246954 31.093368 -1.165564 1.940904 0.128414 -0.047710 88088.300000 0 0 1
-10.550614 26.900471 -12.315654 31.410605 -1.197024 1.973694 0.119306 -0.041541 -57564.400000 0 0 1
-10.767214 28.189371 -12.802954 32.779402 -1.205938 1.972057 0.097953 -0.031955 -716873.000000 0 0 1
-10.236114 28.510771 -14.233354 33.469844 -1.226103 2.010044 0.123027 -0.049857 721650.000000 0 0 1
-8.822714 28.504971 -14.411154 33.136913 -1.270633 2.020721 0.094053 -0.051788 342468.000000 0 0 1
-8.143814 27.287071 -14.260854 31.847730 -1.280763 2.035080 0.106240 -0.049449 -1490340.000000 0 0 1
-6.790114 27.250371 -14.918754 31.800277 -1.326594 2.059112 0.109477 -0.056431 -371597.000000 0 0 1
-5.887514 28.131171 -14.261154 32.084359 -1.364486 2.031400 0.096976 -0.047848 -469628.000000 0 0 1
-4.582214 28.041971 -14.792354 32.033772 -1.408822 2.050790 0.111156 -0.049755 682714.000000 0 0 1
-3.575514 29.084771 -14.118554 32.527554 -1.448476 2.019779 0.098097 -0.040939 495749.000000 0 0 1
-3.786014 30.456071 -14.286454 33.852754 -1.447120 2.006466 0.094987 -0.038305 435372.000000 0 0 1
-5.014614 30.979771 -13.757254 34.265939 -1.410321 1.983934 0.084369 -0.038445 615634.000000 0 0 1
-5.070114 32.497971 -14.097154 35.784828 -1.416031 1.975713 0.075056 -0.039146 -32078.400000 0 0 1
-4.184914 33.196571 -13.246654 35.986104 -1.445393 1.947766 0.069922 -0.041195 -121325.000000 0 0 1
-4.304114 -33.488838 -13.510354 36.366982 1.442973 1.951421 0.082146 -0.036122 13001.900000 0 0 1
-3.168414 -32.789238 -12.779454 35.333942 1.474466 1.940862 0.075799 -0.034997 -236011.000000 0 0 1
-3.228214 -33.026338 -11.428954 35.096743 1.473359 1.902486 0.058964 -0.035788 -750023.000000 0 0 1
-2.396814 -32.176438 -10.798854 34.024743 1.496444 1.893764 0.049951 -0.034992 -787550.000000 0 0 1
-2.601414 -32.272038 -9.279954 33.680400 1.490361 1.849937 0.038858 -0.030918 -2326.660000 0 0 1
-1.737714 -31.337938 -8.652654 32.556942 1.515402 1.839799 0.055609 -0.032962 137083.000000 0 0 1
-2.077214 -31.349738 -7.250154 32.244157 1.504634 1.797587 0.050784 -0.038223 123448.000000 0 0 1
-1.057014 -30.655838 -6.332854 31.320963 1.536330 1.774392 0.070437 -0.036139 81735.100000 0 0 1
-1.394914 -30.716038 -4.905554 31.136558 1.525414 1.729005 0.084481 -0.029421 209535.000000 0 0 1
-0.307714 -30.194838 -4.144354 30.479479 1.560606 1.707191 0.080887 -0.024624 190706.000000 0 0 1
-0.294514 -30.516838 -2.622754 30.630752 1.561146 1.656526 0.091891 -0.015668 -355190.000000 0 0 1
-0.040914 -31.894838 -2.187354 31.969781 1.569514 1.639269 0.098747 -0.025057 387472.000000 0 0 1
1.264286 -32.404038 -2.412754 32.518325 -1.531800 1.645061 0.090326 -0.026336 -5256.670000 0 0 1
2.497286 -31.825238 -1.717554 31.969239 -1.492488 1.624547 0.097393 -0.019812 -1126550.000000 0 0 1
2.594886 -31.995138 -0.261354 32.101256 -1.489871 1.578938 0.079270 -0.021626 -1006900.000000 0 0 1
3.898986 -31.915638 0.159346 32.153312 -1.449233 1.565840 0.072664 -0.014102 -907291.000000 0 0 1
4.412886 -30.460338 0.389946 30.780803 -1.426924 1.558128 0.051819 -0.012532 -433988.000000 0 0 1
4.637686 -29.919438 -0.899154 30.290087 -1.417014 1.600485 0.075532 -0.017663 -35612.100000 0 0 1
4.721286 -28.502638 -0.839754 28.903220 -1.406643 1.599854 0.084549 -0.011316 -325458.000000 0 0 1
4.306186 -27.907538 -2.191354 28.322711 -1.417702 1.648245 0.077705 -0.008452 470574.000000 0 0 1
2.908786 -28.160838 -2.413354 28.413344 -1.467869 1.655836 0.086180 -0.015517 726304.000000 0 0 1
2.209686 -27.290738 -3.248354 27.572068 -1.490004 1.688884 0.078617 -0.014904 -124865.000000 0 0 1
2.581986 -27.169038 -4.742754 27.700487 -1.476047 1.742860 0.092801 -0.023898 -276090.000000 0 0 1
2.126886 -28.222838 -5.573254 28.846376 -1.495578 1.765224 0.088671 -0.027589 272893.000000 0 0 1
2.726386 -28.082238 -6.860654 29.036423 -1.474014 1.809329 0.107046 -0.039747 -313129.000000 0 0 1
1.990886 -28.899938 -7.903354 30.027205 -1.502016 1.837141 0.085751 -0.039874 -382063.000000 0 0 1
0.764886 -28.231838 -8.141454 29.392261 -1.543710 1.851460 0.070107 -0.037892 -157124.000000 0 0 1
0.304586 -28.570738 -9.458754 30.097307 -1.560136 1.890486 0.084410 -0.037260 -94829.300000 0 0 1
-1.112814 -28.141638 -9.852954 29.837407 1.531274 1.907335 0.057821 -0.033324 -945187.000000 0 0 1
-1.098914 -26.756338 -9.956154 28.569814 1.529748 1.926751 0.063760 -0.027000 894769.000000 0 0 1
-2.353214 -26.023538 -9.922654 27.950335 1.480615 1.933721 0.066799 -0.023107 1588220.000000 0 0 1
-3.445614 -26.364938 -8.835054 28.018573 1.440844 1.891599 0.057184 -0.025150 -308522.000000 0 0 1
-3.258814 -26.060438 -7.453254 27.300500 1.446394 1.847315 0.064747 -0.025412 -92450.100000 0 0 1
-2.466414 -27.089938 -6.823454 28.044741 1.480001 1.816569 0.083590 -0.018762 375565.000000 0 0 1
-2.195114 -26.941238 -5.321254 27.549312 1.489498 1.765172 0.077958 -0.012978 591283.000000 0 0 1
-3.344914 -27.136438 -4.499754 27.709611 1.448152 1.733908 0.079859 -0.015206 397356.000000 0 0 1
-2.911414 -27.141038 -3.213354 27.485231 1.463935 1.687976 0.072183 -0.003107 -210788.000000 0 0 1
-4.073214 -27.058638 -2.242054 27.455196 1.421385 1.652550 0.100765 -0.014563 -459549.000000 0 0 1
-4.864414 -25.919638 -2.144054 26.459160 1.385281 1.651918 0.076265 -0.015067 -275016.000000 0 0 1
-5.586314 -25.948438 -0.933454 26.559362 1.358748 1.605950 0.086469 -0.025335 616290.000000 0 0 1
-6.614614 -24.769338 -0.721554 25.647493 1.309837 1.598934 0.068894 -0.028085 589793.000000 0 0 1
-5.866614 -23.598138 -0.522154 24.322046 1.327131 1.592266 0.052516 -0.022538 233017.000000 0 1 0
-6.568314 -22.626838 0.244746 23.562183 1.288273 1.560409 0.073671 -0.032528 43323.200000 0 1 0
-5.674014 -21.372438 0.442246 22.117214 1.311300 1.550799 0.041500 -0.031114 772606.000000 0 1 0
-4.610414 -21.613338 1.396446 22.143676 1.360633 1.507691 0.036489 -0.025596 478710.000000 0 1 0
-4.004714 -20.364038 1.682646 20.822178 1.376618 1.489898 0.015178 -0.018507 -185321.000000 0 1 0
-2.938214 -20.441938 2.782746 20.838657 1.428039 1.436859 0.025942 -0.005048 -153487.000000 0 1 0
-3.599214 -20.481738 4.071546 21.190409 1.396844 1.377453 0.014928 0.008008 253326.000000 0 1 0
-2.770114 -20.328338 5.212246 21.167956 1.435362 1.322005 0.019571 0.006754 201389.000000 0 1 0
-1.851414 -21.556538 5.505946 22.325490 1.485120 1.321604 0.026326 -0.006873 401355.000000 0 1 0
-0.961414 -21.805038 4.430046 22.271267 1.526733 1.370548 0.048487 -0.008238 -694765.000000 0 1 0
-0.239614 -22.961538 4.644146 23.427713 1.560361 1.371242 0.047229 -0.008833 -913463.000000 0 1 0
0.721986 -23.345738 3.499046 23.617538 -1.539880 1.422094 0.049130 -0.011885 -54740.100000 0 1 0
1.872086 -22.570838 3.388746 22.900459 -1.488043 1.422274 0.014063 -0.010832 373397.000000 0 1 0
2.928686 -22.870038 4.336046 23.460971 -1.443432 1.384908 0.043928 -0.014575 -139886.000000 0 1 0
3.983786 -21.790338 4.526646 22.609288 -1.389970 1.369222 0.052517 -0.018516 -370401.000000 0 1 0
4.834986 -21.756638 3.410046 22.546769 -1.352120 1.418970 0.035769 -0.007599 -603150.000000 0 1 0
5.940986 -20.973338 3.748146 22.118427 -1.294764 1.400517 0.054967 -0.006862 319759.000000 0 1 0
6.950986 -20.485838 2.659346 21.795823 -1.243679 1.448480 0.061670 -0.004538 169046.000000 0 1 0
7.602586 -21.447938 1.870746 22.832281 -1.230148 1.488770 0.061461 -0.009547 39684.800000 0 1 0
7.009186 -21.593938 0.567946 22.710117 -1.256935 1.545785 0.046637 -0.010818 -64749.800000 0 1 0
7.830086 -22.496938 -0.392654 23.823867 -1.235859 1.587279 0.056864 -0.007737 -213998.000000 0 1 0
9.062686 -21.854238 -0.605954 23.666584 -1.177693 1.596403 0.057243 -0.010358 -771275.000000 0 1 0
9.894686 -22.590838 -1.461354 24.705998 -1.157970 1.629981 0.065556 -0.017289 469894.000000 0 1 0
11.248986 -21.870038 -1.768754 24.656982 -1.095730 1.642592 0.069594 -0.022697 471745.000000 0 1 0
11.209486 -20.787538 -2.625954 23.762785 -1.076251 1.681529 0.062449 -0.021714 624278.000000 0 1 0
12.463986 -20.783838 -3.346054 24.464565 -1.030600 1.707998 0.066295 -0.020230 756890.000000 0 1 0
12.514186 -19.628838 -4.383154 23.687722 -1.003230 1.756908 0.059793 -0.023507 -128226.000000 0 1 0
12.580386 -18.347838 -3.741554 22.559000 -0.969759 1.737423 0.064932 -0.022510 107927.000000 0 1 0
12.890786 -17.258238 -4.576854 22.021960 -0.929260 1.780154 0.076902 -0.027507 -629281.000000 0 1 0
13.478186 -16.076638 -3.786954 21.318086 -0.873092 1.749385 0.084646 -0.023479 1270580.000000 0 1 0
14.881586 -16.007238 -3.468654 22.129727 -0.821824 1.728187 0.081802 -0.020941 1516640.000000 0 1 0
15.789886 -15.926538 -4.602354 22.894470 -0.789707 1.773200 0.085723 -0.022157 -102693.000000 0 1 0
17.219286 -15.506438 -4.236054 23.556264 -0.733106 1.751607 0.087509 -0.022021 373141.000000 0 1 0
17.979686 -16.590138 -3.606754 24.728738 -0.745224 1.717171 0.099560 -0.023755 391256.000000 0 1 0
19.303186 -16.200338 -3.341354 25.421026 -0.698224 1.702618 0.081056 -0.013473 -180095.000000 0 0 1
19.996986 -17.207338 -2.358954 26.486536 -0.710556 1.659977 0.076631 -0.022264 -110282.000000 0 0 1
21.331186 -16.808138 -2.141754 27.241881 -0.667357 1.649497 0.075226 -0.015225 -12076.700000 0 0 1
22.052786 -17.848038 -1.480454 28.408970 -0.680406 1.622932 0.071315 -0.011290 -544153.000000 0 0 1
23.546886 -17.751538 -1.752354 29.540543 -0.645980 1.630151 0.083635 -0.016996 -634032.000000 0 0 1
24.106886 -16.586438 -1.153154 29.284495 -0.602652 1.610184 0.094390 -0.023606 -300020.000000 0 0 1
25.420886 -16.774038 -0.724954 30.464986 -0.583270 1.594595 0.128451 -0.023456 -324090.000000 0 0 1
26.121186 -15.489238 -0.187554 30.368866 -0.535239 1.576972 0.117044 -0.025388 117223.000000 0 0 1
25.562186 -14.906238 1.001146 29.607830 -0.527927 1.536976 0.125423 -0.026561 696570.000000 0 0 1
26.405486 -13.839338 1.439146 29.847079 -0.482748 1.522560 0.113330 -0.031702 553167.000000 0 0 1
25.606386 -13.024438 2.479046 28.835198 -0.470536 1.484717 0.149406 -0.033779 23635.400000 0 0 1
25.165286 -13.565238 3.695146 28.826401 -0.494394 1.442256 0.149281 -0.023896 491572.000000 0 0 1
26.182086 -14.034938 4.600946 30.060769 -0.492071 1.417138 0.155399 -0.019701 269534.000000 0 0 1
25.602886 -14.609838 5.902046 30.063088 -0.518546 1.373191 0.134822 -0.010287 -24696.700000 0 0 1
24.915786 -15.808738 5.740646 30.061064 -0.565392 1.378650 0.130008 -0.015063 353144.000000 0 0 1
24.101486 -16.164338 6.887846 29.826328 -0.590775 1.337761 0.110288 -0.013174 761748.000000 0 0 1
23.324886 -17.513338 6.753646 29.939590 -0.644041 1.343262 0.103271 -0.011775 178991.000000 0 0 1
24.265586 -18.559438 6.821746 31.301879 -0.652935 1.351099 0.107483 -0.004363 270031.000000 0 0 1
23.636086 -19.837638 6.892146 31.618003 -0.698246 1.351050 0.063194 0.009779 172972.000000 0 0 1
2.008586 23.342771 -2.979154 23.617678 1.484960 1.697274 0.037717 -0.020217 757414.000000 0 1 0
3.084186 24.274871 -2.752754 24.624362 1.444421 1.682820 0.048755 -0.021061 485724.000000 0 1 0
3.675086 24.800071 -3.918354 25.375249 1.423678 1.725833 0.073121 -0.026880 12478.200000 0 0 1
4.830386 25.770171 -3.637554 26.470099 1.385505 1.708654 0.060294 -0.014078 -253167.000000 0 0 1
5.906386 25.239471 -2.922954 26.085627 1.340919 1.683084 0.038161 -0.017622 -282532.000000 0 0 1
6.568386 26.266771 -2.176054 27.162882 1.325757 1.650994 0.035049 -0.020340 327575.000000 0 0 1
7.708086 25.766471 -1.224154 26.922559 1.280118 1.616281 0.022376 -0.029842 968973.000000 0 0 1
8.845386 25.364371 -2.013754 26.937843 1.235251 1.645622 0.027598 -0.030778 840770.000000 0 0 1
9.834186 24.639871 -1.283554 26.560910 1.191052 1.619140 0.024285 -0.020443 723884.000000 0 0 1
11.047286 24.045471 -2.053454 26.541361 1.140126 1.648242 0.052619 -0.022041 486346.000000 0 0 1
12.178886 24.938571 -2.231954 27.843118 1.116508 1.651044 0.054504 -0.017504 1589540.000000 0 0 1
13.149286 24.576671 -3.252454 28.062340 1.079518 1.686958 0.053286 -0.019202 946834.000000 0 0 1
13.807086 23.176371 -3.181054 27.164294 1.033515 1.688170 0.069325 -0.015930 -522798.000000 0 0 1
13.021886 22.084971 -3.727154 25.907665 1.038039 1.715160 0.066868 -0.016360 307918.000000 0 0 1
12.863586 21.965571 -5.104154 25.961713 1.041014 1.768689 0.086262 -0.022982 -823650.000000 0 0 1
11.755886 21.023871 -5.453254 24.697003 1.060941 1.793437 0.082109 -0.018053 -339781.000000 0 1 0
10.468286 21.442171 -5.005054 24.380366 1.116625 1.777557 0.071685 -0.017163 326092.000000 0 1 0
9.638886 20.312571 -4.769054 22.983745 1.127733 1.779812 0.045185 -0.010238 -270616.000000 0 1 0
8.149986 20.658071 -4.669554 22.693235 1.195025 1.778045 0.034122 -0.008784 -283020.000000 0 1 0
7.905586 21.143071 -3.357854 22.821107 1.212982 1.718471 0.035467 -0.003901 589683.000000 0 1 0
6.591286 21.714671 -3.350154 22.938952 1.276094 1.717367 0.036129 0.003321 722804.000000 0 1 0
6.191186 22.309371 -1.993454 23.238173 1.300093 1.656685 0.039397 -0.004754 23589.700000 0 1 0
5.844686 21.351371 -1.006054 22.159728 1.303604 1.616212 0.030123 -0.008516 -87517.700000 0 1 0
5.106286 22.069771 -0.044454 22.652835 1.343427 1.572759 0.033261 -0.008594 -65757.500000 0 1 0
4.564286 21.167171 1.043746 21.678820 1.358418 1.522632 0.012514 -0.008930 -186587.000000 0 1 0
3.800286 21.820671 2.033446 22.242274 1.398366 1.479246 0.017921 -0.006999 -84327.100000 0 1 0
3.387386 20.838771 2.950046 21.317400 1.409654 1.431964 0.020917 -0.011683 -252570.000000 0 1 0
2.488586 21.390471 4.068546 21.915711 1.454976 1.384068 0.014370 -0.009158 -306847.000000 0 1 0
1.253786 21.760871 3.513746 22.078358 1.513243 1.410968 0.008173 -0.001516 -851934.000000 0 1 0
0.301986 22.090671 4.442946 22.535055 1.557127 1.372339 0.018631 -0.010280 -550103.000000 0 1 0
-1.095114 22.310171 3.862946 22.668598 -1.521750 1.399551 0.026368 -0.007148 279908.000000 0 1 0
-2.147014 22.583471 4.791646 23.185830 -1.476011 1.362634 0.041635 -0.016961 158054.000000 0 1 0
-3.411714 22.618971 4.174046 23.252533 -1.421091 1.390309 0.066791 -0.019258 -235349.000000 0 1 0
-4.579414 22.801971 5.127346 23.815763 -1.372599 1.353805 0.073358 -0.030737 -215368.000000 0 1 0
-4.893714 24.193071 5.478746 25.283785 -1.371212 1.352374 0.101086 -0.021566 -585417.000000 0 0 1
-6.104114 24.245071 6.148546 25.746617 -1.324155 1.329656 0.103371 -0.026893 -319599.000000 0 0 1
-6.636614 25.604571 6.689346 27.283439 -1.317181 1.323091 0.114303 -0.031026 642527.000000 0 0 1
-5.789914 26.098871 7.775446 27.841188 -1.352487 1.287754 0.088728 -0.036269 536463.000000 0 0 1
-6.244114 27.319671 8.358946 29.244236 -1.346098 1.280922 0.100469 -0.030747 -40563.000000 0 0 1
-6.199514 28.655871 7.498346 30.262487 -1.357736 1.320411 0.119748 -0.032613 969306.000000 0 0 1
-7.398814 28.794471 6.698046 30.475036 -1.319285 1.349199 0.108966 -0.038911 316049.000000 0 0 1
-7.438214 30.011471 5.913646 31.479940 -1.327846 1.381819 0.122861 -0.038772 767673.000000 0 0 1
-8.844014 30.312071 5.257046 32.010541 -1.286911 1.405820 0.095500 -0.039168 2184780.000000 0 0 1
-9.958414 30.708471 6.095846 32.853303 -1.257208 1.384167 0.092661 -0.027833 794274.000000 0 0 1
-10.625414 29.660571 6.781646 32.227932 -1.226805 1.358784 0.083557 -0.025545 -355903.000000 0 0 1
-11.563614 30.094871 7.923346 33.199365 -1.203951 1.329811 0.055115 -0.021159 -290473.000000 0 0 1
-10.935514 30.595071 9.042146 33.725424 -1.227520 1.299365 0.064124 -0.022638 -290761.000000 0 0 1
-11.890014 30.863271 10.063946 34.571620 -1.203071 1.275415 0.062329 -0.018711 374787.000000 0 0 1
-11.213214 31.264071 11.416746 35.121509 -1.226426 1.239717 0.062823 -0.027257 66452.400000 0 0 1
-10.874114 32.618371 11.459046 36.242437 -1.249009 1.249099 0.071292 -0.030539 -103844.000000 0 0 1
-10.044814 32.936671 12.539046 36.646286 -1.274783 1.221577 0.075105 -0.035853 61625.200000 0 0 1
-9.761214 -33.588538 12.576846 37.170529 1.287975 1.225628 0.076128 -0.037743 172293.000000 0 0 1
-10.827114 -32.848638 13.133446 36.996579 1.252404 1.207892 0.063018 -0.025641 -12104.900000 0 0 1
-10.549914 -31.487038 13.171946 35.724423 1.247496 1.193176 0.059030 -0.020905 -44699.900000 0 0 1
-11.381714 -30.710538 14.210346 35.701744 1.215878 1.161429 0.060332 -0.029877 -337691.000000 0 0 1
-11.000914 -30.857038 15.572546 36.272319 1.228332 1.127053 0.060675 -0.032642 408069.000000 0 0 1
-9.814514 -30.132138 15.915146 35.462125 1.255917 1.105382 0.068805 -0.029621 583499.000000 0 0 1
-9.434714 -30.480938 17.404746 36.345930 1.270621 1.071436 0.047469 -0.037446 133250.000000 0 0 1
-10.257114 -29.730238 18.320946 36.397150 1.238577 1.043311 0.092109 -0.038520 1064360.000000 0 0 1
-11.258514 -30.607238 18.924246 37.705229 1.218319 1.045002 0.070595 -0.036814 482537.000000 0 0 1
-11.948514 -29.950738 20.108746 38.002308 1.191205 1.013203 0.107340 -0.039870 -442929.000000 0 0 1
-11.088014 -29.842538 21.192846 38.244710 1.215053 0.983469 0.085483 -0.036460 -18413.900000 0 0 1
-11.544514 -28.951038 22.214646 38.274390 1.191359 0.951570 0.071824 -0.033282 -112069.000000 0 0 1
-10.380414 -28.678338 23.165446 38.299321 1.223507 0.921215 0.074210 -0.032172 -92441.800000 0 0 1
-9.945714 -29.811638 23.858646 39.457395 1.248789 0.921447 0.078739 -0.024225 -375242.000000 0 0 1
-8.871614 -29.509638 24.691146 39.486415 1.278758 0.895271 0.088837 -0.022562 -307284.000000 0 0 1
-8.611814 -30.557738 25.808346 40.914660 1.296100 0.888232 0.101108 -0.024274 -211700.000000 0 0 1
-8.107114 -31.774138 25.294846 41.414374 1.320978 0.913758 0.109902 -0.014622 364949.000000 0 0 1
-8.069014 -32.742838 26.307346 42.770070 1.329175 0.908299 0.114403 -0.015085 -352185.000000 0 0 1
-8.028614 33.872471 25.756846 43.303788 -1.338066 0.933787 0.105636 -0.017903 734985.000000 0 0 1
-6.700814 33.333371 25.527646 42.516764 -1.372416 0.926778 0.100418 -0.014023 1090040.000000 0 0 1
-6.636314 32.059471 24.927546 41.148911 -1.366679 0.920040 0.082923 -0.015629 -170828.000000 0 0 1
-7.156814 31.819771 23.472346 40.182942 -1.349561 0.946980 0.087453 -0.017671 222527.000000 0 0 1
-8.366014 31.072871 23.533146 39.866307 -1.307794 0.939364 0.091256 -0.020001 115698.000000 0 0 1
-9.045614 30.998071 22.329446 39.259492 -1.286868 0.965792 0.081767 -0.019979 -288755.000000 0 0 1
-9.971014 29.767171 22.364746 38.544616 -1.247576 0.951785 0.075864 -0.027594 -246991.000000 0 0 1
-9.346114 28.609971 21.951146 37.252290 -1.255052 0.940658 0.070117 -0.021852 -67785.600000 0 0 1
-10.088914 27.517271 22.410746 36.894822 -1.219376 0.917984 0.059880 -0.022330 -355765.000000 0 0 1
-9.335514 26.176271 22.148846 35.537591 -1.228218 0.897903 0.053977 -0.018527 531892.000000 0 0 1
-8.174014 26.016571 22.958646 35.647944 -1.266377 0.871031 0.044054 -0.016151 307894.000000 0 0 1
-7.659214 24.684871 22.945646 34.561671 -1.269936 0.844769 0.047526 -0.016148 905624.000000 0 0 1
-6.256814 24.584771 23.677546 34.701367 -1.321587 0.819861 0.040584 -0.015197 1100760.000000 0 0 1
-5.244414 25.143671 22.848846 34.376996 -1.365167 0.843764 0.047537 -0.013780 -650392.000000 0 0 1
-4.061514 25.331571 23.556846 34.829720 -1.411815 0.828010 0.068457 -0.017655 -369681.000000 0 0 1
-2.903214 25.925371 22.727446 34.598993 -1.459277 0.854121 0.066067 -0.007368 -79644.300000 0 0 1
-2.397214 24.971571 21.801646 33.236091 -1.475092 0.855339 0.057041 -0.010160 -131547.000000 0 0 1
-1.882414 25.691871 20.711546 33.054256 -1.497658 0.893623 0.060810 -0.007532 -104300.000000 0 0 1
-1.538614 24.725871 19.584846 31.580092 -1.508650 0.901844 0.042222 -0.012088 471428.000000 0 0 1
-0.532614 23.783671 20.018446 31.091556 -1.548406 0.871271 0.063924 -0.006545 376094.000000 0 0 1
-0.404314 22.784271 19.069146 29.713950 -1.553053 0.874009 0.046973 -0.014175 215231.000000 0 0 1
0.786386 21.869071 19.456746 29.282070 1.534853 0.844026 0.051266 0.002048 1125370.000000 0 0 1
2.135586 22.354271 19.466246 29.718830 1.475552 0.856595 0.044451 -0.007155 563492.000000 0 0 1
3.057486 21.281171 19.674646 29.143235 1.428102 0.829694 0.049369 -0.003587 -88685.900000 0 0 1
4.430286 21.755271 19.213746 29.361323 1.369901 0.857421 0.035812 -0.009934 5845.370000 0 0 1
5.434386 20.726071 19.143046 28.732539 1.314368 0.841628 0.053002 -0.012148 855347.000000 0 0 1
6.684786 21.245071 18.654246 29.052027 1.265953 0.873565 0.089608 -0.021020 1357850.000000 0 0 1
7.788486 20.125171 18.477446 28.409488 1.201545 0.862689 0.090772 -0.015566 252751.000000 0 0 1
8.420586 19.654871 19.624946 29.023417 1.166031 0.828236 0.087616 -0.017873 -78238.200000 0 0 1
9.432386 18.736571 19.214546 28.446929 1.104416 0.829218 0.100591 -0.021574 241207.000000 0 0 1
10.201886 18.008471 20.306846 28.995715 1.055370 0.794923 0.112907 -0.021502 -19012.600000 0 0 1
9.479186 16.933471 20.872346 28.500039 1.060468 0.749012 0.096380 -0.024139 213727.000000 0 0 1
10.175486 16.481771 22.040446 29.342299 1.017697 0.720995 0.094122 -0.032113 258670.000000 0 0 1
9.467586 15.213771 22.604646 28.845520 1.014138 0.670285 0.077109 -0.029634 25892.500000 0 0 1
8.207986 15.591571 23.129246 29.076281 1.086223 0.651017 0.081313 -0.016999 -158054.000000 0 0 1
7.371186 14.469471 23.366446 28.455066 1.099633 0.607338 0.079093 -0.017822 105889.000000 0 0 1
7.745286 13.532871 24.564746 29.095615 1.050970 0.565582 0.095084 -0.026917 -372477.000000 0 0 1
7.763386 14.282871 25.753146 30.454804 1.072922 0.563074 0.096313 -0.036197 26129.600000 0 0 1
8.068386 13.401071 26.820946 31.049166 1.028856 0.527989 0.111236 -0.039143 -446775.000000 0 0 1
8.933886 14.063371 27.946446 32.536081 1.004854 0.537606 0.071695 -0.026889 705461.000000 0 0 1
10.314386 14.143271 27.593246 32.677299 0.940689 0.565322 0.084539 -0.030985 527199.000000 0 0 1
10.689286 15.245871 26.763546 32.603448 0.959315 0.607845 0.074011 -0.026283 -324021.000000 0 0 1
12.050786 15.011771 26.042846 32.385252 0.894377 0.636539 0.082109 -0.033045 375583.000000 0 0 1
11.859886 14.011271 25.090546 31.088713 0.868365 0.631636 0.077945 -0.037354 696878.000000 0 0 1
13.068486 13.798171 24.346746 30.885901 0.812551 0.662787 0.095062 -0.040482 115967.000000 0 0 1
12.996586 12.576471 23.403646 29.577179 0.768972 0.657907 0.072766 -0.038850 44478.400000 0 0 1
12.782586 11.357571 24.066446 29.522580 0.726436 0.617743 0.067956 -0.039683 1009100.000000 0 0 1
11.380286 11.138171 24.327946 29.076085 0.774647 0.579568 0.079887 -0.042732 617067.000000 0 0 1
10.979786 9.710371 24.727846 28.745667 0.724121 0.535078 0.062108 -0.033725 -176631.000000 0 0 1
11.097786 8.781871 23.676146 27.583364 0.669424 0.538754 0.069215 -0.029816 332722.000000 0 0 1
10.727686 7.477371 24.103146 27.421815 0.608721 0.497084 0.065426 -0.031750 -77911.900000 0 0 1
10.994286 6.422671 23.029546 26.315110 0.528708 0.505060 0.077864 -0.045651 179979.000000 0 0 1
12.395086 6.207671 22.898246 26.767574 0.464301 0.544383 0.089470 -0.044623 320478.000000 0 0 1
12.660286 5.154371 22.002546 25.902942 0.386637 0.555906 0.100017 -0.047592 -71627.300000 0 0 1
12.431686 3.724771 22.539846 26.008948 0.291107 0.522411 0.083865 -0.047508 706280.000000 0 0 1
13.599986 3.253371 23.272246 27.150349 0.234806 0.541062 0.077097 -0.044200 1067090.000000 0 0 1
13.283686 2.050671 23.915746 27.434002 0.153166 0.512022 0.077671 -0.030595 -419379.000000 0 0 1
14.464086 1.539571 24.733946 28.694044 0.106042 0.531616 0.063948 -0.020335 863284.000000 0 0 1
15.518186 1.070671 23.819646 28.448830 0.068885 0.578506 0.070945 -0.026593 397931.000000 0 0 1
16.812286 1.196971 24.318146 29.588138 0.071076 0.606078 0.074306 -0.021991 -437012.000000 0 0 1
17.799686 0.308671 23.524346 29.501168 0.017340 0.647816 0.068345 -0.020151 -41755.400000 0 0 1
17.864686 -1.059629 23.903046 29.860097 -0.059245 0.642665 0.065674 -0.011053 173011.000000 0 0 1
18.931986 -1.695429 23.225346 30.011852 -0.089315 0.685863 0.052926 -0.004606 -39755.800000 0 0 1
19.120986 -3.175429 23.567946 30.514644 -0.164568 0.688266 0.050568 -0.004236 2939.170000 0 0 1
18.081586 -3.924929 22.965746 29.491936 -0.213752 0.678185 0.043738 0.003536 238807.000000 0 0 1
18.146686 -5.309029 23.257246 29.973113 -0.284619 0.682597 0.054609 -0.003889 -105441.000000 0 0 1
17.135286 -6.197829 22.507646 28.959027 -0.347060 0.680555 0.052619 -0.008868 -157887.000000 0 0 1
17.404986 -6.528829 21.160546 28.166076 -0.358869 0.720800 0.055497 -0.013577 -384685.000000 0 0 1
16.445886 -7.382829 20.657846 27.417511 -0.421953 0.717496 0.070941 -0.026036 -450011.000000 0 0 1
16.709186 -8.891529 20.995246 28.267588 -0.489023 0.733655 0.077752 -0.035881 -245491.000000 0 0 1
16.765486 -9.191029 22.370946 29.428145 -0.501469 0.707193 0.063566 -0.023224 -18510.600000 0 0 1
17.453386 -10.407229 22.573646 30.372695 -0.537685 0.732923 0.054090 -0.024190 -347033.000000 0 0 1
16.921586 -11.287229 23.742446 31.264122 -0.588255 0.708383 0.073961 -0.032202 706314.000000 0 0 1
15.744786 -11.998529 23.286246 30.563250 -0.651177 0.704549 0.085576 -0.020595 705559.000000 0 0 1
15.453486 -13.060929 24.116246 31.480016 -0.701687 0.698075 0.108517 -0.013952 15047.800000 0 0 1
14.336986 -13.982529 23.544646 30.909717 -0.772882 0.704828 0.116418 -0.019090 137178.000000 0 0 1
14.669986 -14.778729 22.389746 30.576462 -0.789091 0.749170 0.133062 -0.017131 705118.000000 0 0 1
13.546586 -15.611529 22.080146 30.245044 -0.856099 0.752413 0.137172 -0.002960 494897.000000 0 0 1
13.819686 -16.504929 20.850446 29.968942 -0.873718 0.801353 0.134022 -0.016507 -256740.000000 0 0 1
14.826086 -17.464429 20.940546 31.037486 -0.866924 0.830258 0.137675 -0.016986 -201496.000000 0 0 1
15.027386 -18.175829 19.712346 30.736943 -0.879939 0.874573 0.118888 -0.018402 62114.600000 0 0 1
-25.021614 -32.524738 26.299321 48.740066 0.915051 1.000854 0.059428 -0.023329 -805616.000000 0 0 1
-25.297114 -33.858538 25.914421 49.577231 0.929127 1.020772 0.058003 -0.013950 -386792.000000 0 0 1
-26.628604 33.820071 26.010271 50.293280 -0.903810 1.027253 0.038586 -0.024541 -711726.000000 0 0 1
-27.220474 33.402071 27.366861 51.045055 -0.887016 1.004949 0.031187 -0.019112 -325924.000000 0 0 1
-27.778324 -33.537838 28.078291 51.815175 0.879055 0.998108 0.035733 -0.016042 428701.000000 0 0 1
-27.454294 -33.618338 29.469671 52.463249 0.885987 0.974333 0.024886 -0.010645 276342.000000 0 0 1
-28.638934 -33.090138 30.361281 53.263057 0.857382 0.964260 0.005864 -0.014595 329030.000000 0 0 1
-28.734984 -31.666938 30.182281 52.339893 0.833901 0.956163 -0.010357 -0.005874 190610.000000 0 0 1
-29.673974 -31.093738 31.069141 53.034487 0.808758 0.944894 -0.007119 0.004898 -171561.000000 0 0 1
-29.991614 -29.611138 30.959011 52.295094 0.779015 0.937251 -0.008473 -0.001336 -112800.000000 0 0 1
-30.567524 -29.255738 29.690441 51.689400 0.763474 0.958924 -0.026442 0.012087 209523.000000 0 0 1
-30.932564 -27.881338 29.690661 51.144187 0.733565 0.951419 -0.000728 0.009904 13932.000000 0 0 1
-31.547164 -27.431938 28.342951 50.507996 0.715737 0.975013 -0.011810 0.001726 -209818.000000 0 0 1
-30.588394 -27.534438 27.313691 49.394664 0.732903 0.984874 -0.000730 0.001972 815.613000 0 0 1
-29.811144 -26.353538 27.257711 48.230655 0.723914 0.970177 -0.000266 0.000221 -248828.000000 0 0 1
-28.727114 -26.461238 26.181591 47.020420 0.744364 0.980252 0.006008 0.018614 -9942.570000 0 0 1
-29.321994 -26.382038 24.882501 46.636146 0.732669 1.008009 0.006802 0.005857 993156.000000 0 0 1
-28.277814 -26.334238 23.896421 45.433092 0.749824 1.016942 0.011039 0.021242 340732.000000 0 0 1
-28.855094 -26.477538 22.467711 45.149469 0.742456 1.049933 0.007828 0.023625 -81109.900000 0 0 1
-29.451014 -25.335638 21.931511 44.612196 0.710423 1.056866 0.009049 0.014723 33448.900000 0 0 1
-29.678514 -25.436438 20.520711 44.146644 0.708582 1.087353 0.014124 0.015250 -110515.000000 0 0 1
-30.481464 -24.245438 19.972411 43.770517 0.671939 1.096966 0.016223 0.000007 971561.000000 0 0 1
-31.883884 -24.129338 20.296211 44.841312 0.647831 1.101092 0.052182 0.001926 863261.000000 0 0 1
-32.432654 -23.212638 19.400511 44.351815 0.621197 1.118065 0.072029 -0.003431 -13369.000000 0 0 1
-33.936784 -22.902338 19.642511 45.409808 0.593649 1.123465 0.089833 -0.003277 40465.800000 0 0 1
-34.783062 -23.953338 19.210511 46.396849 0.603067 1.143900 0.083484 -0.011076 -412360.000000 0 0 1
-35.997976 -23.323938 18.913611 46.878407 0.574914 1.155500 0.081971 -0.018338 -46619.700000 0 0 1
-36.951934 -24.099438 17.922911 47.617845 0.577909 1.184899 0.103773 -0.021605 298615.000000 0 0 1
37.057649 -25.338638 18.469511 48.543164 -0.599745 1.180485 0.091143 -0.017098 -652212.000000 0 0 1
36.325559 -26.048738 17.552611 48.022673 -0.622105 1.196619 0.100367 -0.011010 -270440.000000 0 0 1
35.673169 -27.314938 18.127811 48.448925 -0.653473 1.187302 0.095251 -0.005051 152459.000000 0 0 1
34.624529 -27.248638 19.093411 48.019836 -0.666748 1.161880 0.097380 -0.011794 307718.000000 0 0 1
34.947129 -26.661438 20.324611 48.427512 -0.651711 1.137691 0.092283 -0.006476 -796992.000000 0 0 1
33.721799 -26.578538 21.231711 47.899519 -0.667486 1.111569 0.087838 -0.014294 -787176.000000 0 0 1
32.814749 -25.683138 20.715811 46.535751 -0.664085 1.109444 0.090196 -0.018329 -547037.000000 0 0 1
31.851099 -25.355038 21.733611 46.148893 -0.672327 1.080434 0.100572 -0.016145 124142.000000 0 0 1
30.880199 -24.255238 21.255611 44.650915 -0.665814 1.074650 0.116101 -0.016317 -172021.000000 0 0 1
31.493279 -23.095538 20.762111 44.230032 -0.632758 1.082172 0.103389 -0.010634 -44329.900000 0 0 1
32.055699 -22.213938 21.730611 44.645787 -0.605999 1.062450 0.119221 -0.017575 179304.000000 0 0 1
32.669489 -20.960338 21.102611 44.180895 -0.570439 1.072829 0.117795 -0.022714 -68847.700000 0 0 1
31.677599 -20.052538 20.684611 42.818544 -0.564345 1.066632 0.110625 -0.023118 -71347.900000 0 0 1
32.163149 -18.748738 20.428511 42.465367 -0.527771 1.068930 0.115434 -0.024638 -449236.000000 0 0 1
31.091499 -17.652238 20.571011 41.248628 -0.516370 1.048689 0.090100 -0.018596 -244758.000000 0 0 1
30.821649 -17.131938 21.832911 41.474731 -0.507317 1.016418 0.112784 -0.020222 450287.000000 0 0 1
29.943329 -17.967738 22.619611 41.606362 -0.540462 0.996008 0.109417 -0.019082 -426556.000000 0 0 1
29.935879 -17.665138 24.120561 42.308574 -0.533108 0.964156 0.093079 -0.013717 -157764.000000 0 0 1
29.423429 -16.392838 24.450891 41.621021 -0.508305 0.942874 0.090624 -0.020690 88771.300000 0 0 1
29.471029 -16.171938 25.794331 42.372404 -0.501875 0.916308 0.080529 -0.015869 -37280.100000 0 0 1
29.465449 -14.691138 26.222541 42.091138 -0.462518 0.898231 0.059068 -0.013819 726849.000000 0 0 1
28.198529 -14.082038 25.909161 40.801292 -0.463159 0.882777 0.075800 -0.012468 842309.000000 0 0 1
28.242129 -12.711238 26.199691 40.566208 -0.422921 0.868660 0.063172 -0.010407 312806.000000 0 0 1
29.015029 -11.750938 25.224251 40.202230 -0.384805 0.892543 0.080668 -0.028739 -17902.500000 0 0 1
28.278729 -11.516038 24.062751 38.875720 -0.386726 0.903371 0.080386 -0.023143 31820.800000 0 0 1
28.842629 -10.555138 23.165621 38.470173 -0.350818 0.924579 0.089689 -0.021741 -195069.000000 0 0 1
29.971619 -10.989338 22.241911 38.907147 -0.351437 0.962261 0.093053 -0.036825 -332760.000000 0 0 1
29.562779 -12.013538 21.330011 38.382970 -0.385989 0.981573 0.092618 -0.040406 234220.000000 0 0 1
29.903919 -13.306238 21.772611 39.310901 -0.418660 0.983807 0.093202 -0.035869 -293065.000000 0 0 1
29.194529 -14.328238 20.867511 38.640289 -0.456249 1.000305 0.097083 -0.039929 -358667.000000 0 0 1
29.702579 -14.463038 19.576211 38.401181 -0.453136 1.035866 0.095914 -0.041826 -410172.000000 0 0 1
29.062429 -15.435038 18.830811 37.913911 -0.488216 1.051035 0.092976 -0.043482 -479901.000000 0 0 1
29.504609 -15.307938 17.336211 37.488653 -0.478600 1.090052 0.100130 -0.046113 -305884.000000 0 0 1
29.215229 -16.463338 16.509811 37.378402 -0.513163 1.113311 0.093220 -0.042834 1560930.000000 0 0 1
27.791729 -16.709438 16.282111 36.286260 -0.541329 1.105472 0.095359 -0.042885 1503170.000000 0 0 1
27.065729 -15.700238 15.292011 34.826667 -0.525642 1.116212 0.105347 -0.045690 -190424.000000 0 0 1
27.184129 -16.068838 13.912911 34.507296 -0.533858 1.155799 0.109267 -0.043970 -126116.000000 0 0 1
26.370429 -17.145538 13.575811 34.258891 -0.576502 1.163344 0.108391 -0.042369 -463501.000000 0 0 1
26.452029 -17.654938 12.102311 34.027527 -0.588532 1.207174 0.108833 -0.027425 -209187.000000 0 0 1
26.040929 -16.753238 11.112111 32.898024 -0.571681 1.226245 0.121394 -0.033431 -114608.000000 0 0 1
26.065029 -17.389038 9.836311 32.840788 -0.588331 1.266612 0.112189 -0.032779 161410.000000 0 0 1
27.426629 -17.567338 9.094811 33.816371 -0.569683 1.298497 0.112434 -0.023366 453410.000000 0 0 1
28.083529 -18.652838 9.736211 35.091406 -0.586287 1.289654 0.105466 -0.010121 -1495490.000000 0 0 1
29.383879 -18.903638 9.385411 36.177974 -0.571675 1.308371 0.102360 0.001384 -1089610.000000 0 0 1
30.152349 -19.582538 10.542311 37.467056 -0.575991 1.285569 0.098907 -0.019749 -172165.000000 0 0 1
30.262119 -18.893938 11.732711 37.555735 -0.558127 1.253069 0.108078 -0.043905 124652.000000 0 0 1
30.716779 -19.754638 12.766511 38.687854 -0.571525 1.234506 0.079833 -0.036195 -56740.800000 0 0 1
30.623319 -19.124538 14.187711 38.792097 -0.558246 1.196372 0.087917 -0.034771 75016.200000 0 0 1
30.658259 -20.155938 15.155811 39.697472 -0.581587 1.179072 0.081696 -0.032295 -117065.000000 0 0 1
30.395209 -19.582338 16.432011 39.715836 -0.572328 1.144239 0.106626 -0.038337 -8389.890000 0 0 1
30.119739 -20.597338 17.536211 40.484166 -0.599804 1.122798 0.093021 -0.032271 224179.000000 0 0 1
28.914729 -21.277938 17.233611 39.822224 -0.634407 1.123240 0.060187 -0.021430 -166509.000000 0 0 1
28.690929 -22.292938 18.202511 40.638355 -0.660560 1.106365 0.088078 -0.020629 608246.000000 0 0 1
27.327429 -23.021238 17.975011 39.998335 -0.700078 1.104709 0.060069 -0.006011 86707.600000 0 0 1
26.215329 -22.329938 18.443211 39.064327 -0.705532 1.079098 0.065098 -0.008141 -873765.000000 0 0 1
25.037329 -23.067838 18.333911 38.666850 -0.744480 1.076797 0.078690 -0.014970 -664357.000000 0 0 1
23.922729 -22.499338 19.194211 38.038598 -0.754746 1.041880 0.070589 -0.012215 -722574.000000 0 0 1
23.123729 -21.511138 18.564311 36.634267 -0.749285 1.039389 0.067884 -0.010970 97481.600000 0 0 1
21.951829 -21.216138 19.302111 36.118953 -0.768357 1.006994 0.053660 -0.013737 125280.000000 0 0 1
22.115229 -20.371638 20.592611 36.443691 -0.744383 0.970299 0.049247 -0.003331 -436471.000000 0 0 1
22.548829 -21.169638 21.666411 37.762900 -0.753862 0.959721 0.055972 -0.002040 -111966.000000 0 0 1
22.769629 -20.492138 22.874091 38.230979 -0.732802 0.929402 0.049072 0.000245 121641.000000 0 0 1
23.354629 -21.487638 23.881401 39.717485 -0.743788 0.925692 0.056410 -0.000804 20555.700000 0 0 1
22.385029 -22.444738 24.245691 39.908762 -0.786730 0.917852 0.052924 -0.000647 -3174.950000 0 0 1
22.851929 -23.342638 25.208371 41.261985 -0.796020 0.913556 0.054943 -0.001758 -119534.000000 0 0 1
21.756929 -24.151338 25.964791 41.603142 -0.837507 0.896809 0.057053 -0.004425 -116141.000000 0 0 1
21.116129 -25.071638 25.139481 41.309459 -0.870829 0.916546 0.078225 -0.012598 339936.000000 0 0 1
20.078529 -25.680538 25.931421 41.654243 -0.907216 0.898813 0.086932 -0.011624 136296.000000 0 0 1
19.250929 -26.764638 25.259461 41.532933 -0.947256 0.917032 0.087167 -0.018465 -280035.000000 0 0 1
18.294229 -26.204238 24.390901 40.202698 -0.961320 0.918896 0.090144 -0.018045 137823.000000 0 0 1
17.633629 -27.174838 23.604091 40.082038 -0.995198 0.941106 0.082505 -0.023014 39422.500000 0 0 1
16.656029 -26.519538 22.599011 38.618966 -1.009995 0.945695 0.075517 -0.021005 207920.000000 0 0 1
15.475929 -25.940238 23.122271 38.039976 -1.032881 0.917457 0.062888 -0.013906 210098.000000 0 0 1
14.777129 -25.204738 22.148211 36.663137 -1.040523 0.922160 0.044689 -0.007497 -25682.400000 0 0 1
13.392029 -24.614638 22.455511 35.909286 -1.072519 0.895229 0.033822 -0.005493 302828.000000 0 0 1
12.327429 -25.550938 22.353911 36.118047 -1.121275 0.903439 0.023549 -0.003558 -70530.600000 0 0 1
11.075029 -24.918538 22.282911 35.215308 -1.152568 0.885681 0.033071 0.001070 406596.000000 0 0 1
9.854629 -25.887438 22.248311 35.528306 -1.207062 0.894109 0.038235 -0.005337 296836.000000 0 0 1
9.773729 -26.738338 21.148711 35.464524 -1.220352 0.931870 0.031651 -0.011614 -254808.000000 0 0 1
8.595829 -27.501738 21.138811 35.736301 -1.267861 0.937851 0.047584 -0.017320 -244355.000000 0 0 1
8.341429 -28.384538 19.827711 35.614598 -1.284971 0.980352 0.057273 -0.023127 -104359.000000 0 0 1
8.906029 -29.672938 19.841911 36.789972 -1.279211 1.001156 0.050096 -0.024512 121522.000000 0 0 1
8.490329 -30.467038 18.715211 36.750309 -1.299019 1.036480 0.050852 -0.024862 116204.000000 0 0 1
9.011829 -31.950438 18.746711 38.124569 -1.295882 1.056729 0.046733 -0.019155 -148703.000000 0 0 1
8.450729 -32.733238 19.756911 39.156292 -1.318143 1.041918 0.064167 -0.022607 2581.370000 0 0 1
9.024029 -34.004038 19.655711 40.299562 -1.311395 1.061297 0.065084 -0.023309 -61832.300000 0 0 1
8.583629 32.948471 20.679711 39.836301 1.315944 1.024979 0.091242 -0.038354 -190857.000000 0 0 1
7.499829 32.154871 20.241811 38.728724 1.341652 1.020833 0.085483 -0.034284 40983.700000 0 0 1
7.516529 30.918071 20.948211 38.095313 1.332312 0.988564 0.083955 -0.040929 150778.000000 0 0 1
6.349729 30.028171 20.458411 36.885725 1.362407 0.982862 0.071182 -0.035060 -122491.000000 0 0 1
5.071629 30.282771 20.993611 37.195421 1.404861 0.971073 0.092841 -0.039436 -706618.000000 0 0 1
4.313029 29.220271 20.528211 35.969903 1.424250 0.963432 0.099340 -0.036059 -1463200.000000 0 0 1
2.914129 29.227171 21.067911 36.146598 1.471419 0.948569 0.086695 -0.028626 -1062970.000000 0 0 1
2.879529 28.898371 22.468611 36.718470 1.471481 0.912316 0.065750 -0.029307 1170180.000000 0 0 1
1.477929 28.734471 22.820611 36.723758 1.519408 0.900252 0.063811 -0.023029 1366300.000000 0 0 1
1.168629 28.134371 24.227071 37.146460 1.529283 0.860308 0.068427 -0.019732 -136776.000000 0 0 1
1.497229 28.921171 25.339531 38.480744 1.519073 0.851974 0.071994 -0.026248 144372.000000 0 0 1
1.301529 28.370871 26.691811 38.975031 1.524953 0.816407 0.067397 -0.026410 -42762.700000 0 0 1
2.506829 27.630571 27.321031 38.938045 1.480317 0.793080 0.056386 -0.023086 -120919.000000 0 0 1
2.789729 26.383671 26.737301 37.666483 1.465451 0.781521 0.062021 -0.022095 -112317.000000 0 0 1
3.791629 25.748771 27.475571 37.845510 1.424592 0.758319 0.037705 -0.009144 -442208.000000 0 0 1
4.221429 24.412471 26.877391 36.553842 1.399569 0.744713 0.034921 -0.000667 -320451.000000 0 0 1
3.242929 23.412571 26.784061 35.721856 1.433160 0.723044 0.055885 -0.003096 -216371.000000 0 0 1
3.868629 22.188771 26.491561 34.772268 1.398181 0.704618 0.060949 0.001842 387236.000000 0 0 1
2.792229 21.086171 26.325071 33.844239 1.439142 0.679590 0.066373 -0.000297 244162.000000 0 0 1
3.257829 19.750671 26.457251 33.176627 1.407321 0.647712 0.086239 0.000961 735904.000000 0 0 1
4.217029 19.330671 25.434461 32.223749 1.356009 0.661115 0.089610 0.001074 557084.000000 0 0 1
4.562829 17.783971 25.484331 31.409237 1.319644 0.624314 0.088207 -0.011828 -120376.000000 0 0 1
5.565029 17.430371 26.404981 32.124919 1.261754 0.605975 0.070161 -0.000561 546778.000000 0 0 1
6.856329 17.373171 25.769851 31.826428 1.194910 0.627156 0.074418 -0.000533 174381.000000 0 0 1
8.056829 17.470271 26.746761 32.947110 1.138689 0.623553 0.071757 -0.012843 -282319.000000 0 0 1
8.399429 18.753771 27.248731 34.128400 1.149707 0.646133 0.063399 -0.011264 28829.100000 0 0 1
8.938629 19.629071 26.297781 34.011363 1.143480 0.686915 0.055705 -0.019401 -440075.000000 0 0 1
9.532729 20.919571 26.910411 35.393101 1.143225 0.706976 0.050950 -0.012645 -68403.600000 0 0 1
10.640829 20.686671 27.732891 36.197774 1.095710 0.697969 0.066578 -0.036208 -379558.000000 0 0 1
10.979829 21.836471 28.527691 37.566172 1.104895 0.708408 0.091358 -0.037966 1098140.000000 0 0 1
12.221129 21.643771 29.523401 38.593264 1.056776 0.699773 0.108190 -0.035773 1649560.000000 0 0 1
13.468929 21.510171 28.822341 38.403474 1.011359 0.721957 0.092541 -0.038478 8173.910000 0 0 1
14.448929 21.239671 29.787141 39.334068 0.973428 0.711649 0.083462 -0.022082 -347902.000000 0 0 1
15.886029 21.079171 29.275431 39.417613 0.924972 0.733704 0.062704 -0.025213 37355.500000 0 0 1
16.340029 22.388471 28.800061 39.971036 0.940322 0.766240 0.055854 -0.030126 -475542.000000 0 0 1
17.698829 22.317771 28.504051 40.296555 0.900315 0.785044 0.089005 -0.025228 -800514.000000 0 0 1
-8.593014 16.646271 4.686646 19.310693 -1.094263 1.325651 0.041032 -0.018963 -157480.000000 0 1 0
-8.713314 18.011271 5.144346 20.658945 -1.120217 1.319135 0.051033 -0.020776 -287849.000000 0 1 0
-7.426314 18.456671 5.476946 20.634820 -1.188253 1.302154 0.048961 -0.010340 -252375.000000 0 1 0
-7.338714 19.961271 5.985646 22.093823 -1.218487 1.296448 0.056993 -0.006705 -10980.000000 0 1 0
-7.322814 21.045271 4.989946 22.834767 -1.235944 1.350495 0.064070 -0.018131 530631.000000 0 1 0
-8.622314 21.252471 4.414946 23.356018 -1.185378 1.380624 0.065213 -0.027556 733387.000000 0 1 0
-8.548414 22.309971 3.248346 24.111448 -1.204886 1.435663 0.096410 -0.040026 -74846.600000 0 1 0
-7.845214 22.101971 2.079946 23.545078 -1.229714 1.482342 0.069130 -0.042879 -474411.000000 0 1 0
-8.354914 21.073471 1.282346 22.705510 -1.193340 1.514289 0.084002 -0.043415 -746551.000000 0 1 0
-7.870514 21.150771 -0.199954 22.568564 -1.214558 1.579656 0.062845 -0.022764 660833.000000 0 1 0
-6.552914 20.702971 -0.485054 21.720704 -1.264253 1.593130 0.047460 -0.017331 189683.000000 0 1 0
-5.492314 21.514471 -0.030554 22.204479 -1.320850 1.572172 0.053267 -0.020629 -418775.000000 0 1 0
-4.143114 21.123771 -0.665254 21.536519 -1.377120 1.601691 0.043130 -0.019746 -226369.000000 0 1 0
-4.014514 21.488171 -2.046354 21.955532 -1.386101 1.664136 0.034646 -0.020831 225636.000000 0 1 0
-2.669514 21.451971 -2.473554 21.758489 -1.446991 1.684725 0.030893 -0.012874 -22181.900000 0 1 0
-2.584314 21.921571 -3.967254 22.427061 -1.453449 1.748628 0.030474 -0.005618 790693.000000 0 1 0
-1.241914 22.224871 -4.369454 22.684342 -1.514975 1.764628 0.041560 -0.008845 783139.000000 0 1 0
-1.356814 22.750171 -5.648254 23.480077 -1.511227 1.813734 0.048999 -0.010792 965942.000000 0 1 0
0.051886 23.261171 -6.125554 24.054255 1.568566 1.828288 0.061580 -0.022278 1005070.000000 0 1 0
1.060286 22.261871 -6.108354 23.109026 1.523204 1.838303 0.049639 -0.010266 -163620.000000 0 1 0
2.292786 22.704971 -6.618154 23.760735 1.470156 1.853063 0.043365 -0.007663 197024.000000 0 1 0
3.374886 21.589171 -6.668754 22.846322 1.415728 1.867005 0.046155 -0.006256 87336.100000 0 1 0
3.089486 20.605171 -7.639654 22.191942 1.421968 1.922240 0.037730 -0.015238 415564.000000 0 1 0
4.147986 19.663971 -7.859454 21.578891 1.362901 1.943591 0.024339 -0.009682 651035.000000 0 1 0
3.797586 18.759571 -9.066354 21.178809 1.371061 2.013170 0.016102 -0.012345 61188.100000 0 1 0
4.003886 19.450671 -10.304854 22.372968 1.367784 2.049461 0.019819 -0.011379 -134945.000000 0 1 0
3.286186 18.908571 -11.376454 22.310463 1.398722 2.105883 0.022714 -0.020382 -87978.500000 0 1 0
3.884586 19.319071 -12.737254 23.463890 1.372367 2.144617 0.030066 -0.019844 -87538.600000 0 1 0
3.861786 20.712771 -13.019054 24.767479 1.386468 2.124277 0.067174 -0.029649 -231065.000000 0 1 0
4.449886 20.913371 -14.257654 25.699246 1.361146 2.158905 0.087878 -0.039153 -254522.000000 0 0 1
4.626286 22.437371 -14.665554 27.201408 1.367459 2.140220 0.075029 -0.038533 235997.000000 0 0 1
3.438986 23.198471 -14.828354 27.746635 1.423626 2.134618 0.101618 -0.038142 32127.900000 0 0 1
3.840486 24.542771 -15.124954 29.083693 1.415574 2.117705 0.074696 -0.027857 565247.000000 0 0 1
2.654086 25.471971 -15.563554 29.968145 1.466975 2.116871 0.096188 -0.024628 -157296.000000 0 0 1
1.824086 25.735171 -14.519754 29.604891 1.500036 2.083404 0.124308 -0.034200 -695566.000000 0 0 1
1.566086 27.113271 -14.271254 30.679811 1.513100 2.054620 0.092970 -0.029567 396901.000000 0 0 1
0.453086 27.282971 -13.138754 30.285189 1.554191 2.019540 0.107449 -0.031937 1958300.000000 0 0 1
-0.926214 27.003971 -13.487754 30.199202 -1.536511 2.033787 0.098215 -0.039845 1106480.000000 0 0 1
-1.323314 25.635171 -13.455954 28.982337 -1.519221 2.053619 0.090453 -0.040595 -74878.100000 0 0 1
-1.186714 24.853871 -12.120354 27.677178 -1.523085 2.024079 0.105059 -0.041705 -143626.000000 0 0 1
-2.149314 25.160471 -11.112154 27.588926 -1.485579 1.985344 0.099760 -0.034576 200849.000000 0 0 1
-2.555614 23.938271 -10.459354 26.248239 -1.464441 1.980653 0.118847 -0.028737 344869.000000 0 0 1
-3.608914 24.126471 -9.324354 26.116172 -1.422314 1.935887 0.084764 -0.021654 -295226.000000 0 0 1
-3.124614 24.497671 -8.080054 25.984349 -1.443934 1.886998 0.088800 -0.024284 -176823.000000 0 0 1
-2.683314 25.838371 -8.023454 27.188185 -1.467317 1.870365 0.089283 -0.027780 -102594.000000 0 0 1
-2.561514 26.382771 -6.600654 27.316306 -1.474009 1.814850 0.087081 -0.027638 -40010.500000 0 0 1
-1.465114 25.856971 -5.899754 26.561939 -1.514195 1.794777 0.087932 -0.029618 -316275.000000 0 0 1
-1.332414 26.477471 -4.644654 26.914766 -1.520516 1.744234 0.103868 -0.035729 -302421.000000 0 0 1
-2.080914 25.753971 -3.522954 26.076971 -1.490172 1.706309 0.093639 -0.030075 -381513.000000 0 0 1
-3.459514 25.691671 -3.750754 26.193479 -1.436946 1.714484 0.077062 -0.030615 -490793.000000 0 0 1
-4.128814 25.273171 -2.554854 25.735337 -1.408859 1.670234 0.072183 -0.022790 209138.000000 0 0 1
-5.445314 24.534571 -2.875154 25.295516 -1.352392 1.684705 0.065499 -0.021419 88189.100000 0 0 1
-6.541414 25.328271 -3.293754 26.365891 -1.318054 1.696048 0.057756 -0.018375 365540.000000 0 0 1
-7.613514 24.506271 -3.772754 25.937552 -1.269574 1.716769 0.048103 -0.012429 57331.100000 0 0 1
-8.939214 25.223671 -3.962854 27.052677 -1.230209 1.717812 0.038818 -0.014504 -455096.000000 0 0 1
-9.542914 25.554871 -2.731754 27.414980 -1.213404 1.670607 0.060773 -0.025242 -650754.000000 0 0 1
-10.871814 25.970771 -2.883254 28.301775 -1.174344 1.672849 0.073224 -0.023422 9070.060000 0 0 1
-11.598114 26.133071 -1.491354 28.630015 -1.153102 1.622910 0.090496 -0.030283 353269.000000 0 0 1
-12.113914 24.917971 -0.859654 27.719870 -1.118289 1.601813 0.098176 -0.032513 843563.000000 0 0 1
-11.076314 24.051471 -0.374254 26.482033 -1.139224 1.584929 0.107098 -0.034194 532857.000000 0 0 1
-11.709714 22.731671 0.029546 25.570435 -1.095120 1.569641 0.100437 -0.035644 -236464.000000 0 0 1
-12.624514 22.829971 1.072846 26.110093 -1.065668 1.529695 0.111673 -0.038139 -414331.000000 0 0 1
-13.347414 21.617571 1.160246 25.432637 -1.017657 1.525160 0.114643 -0.043582 -14583.800000 0 0 1
-14.522114 21.710671 2.175746 26.210282 -0.981254 1.487690 0.131178 -0.040737 19269.200000 0 0 1
-14.182114 21.755871 3.533446 26.209455 -0.993104 1.435569 0.099636 -0.037613 -202681.000000 0 0 1
-13.584414 22.941371 3.996146 26.959451 -1.036179 1.422020 0.112548 -0.036179 -67198.800000 0 0 1
-13.282914 23.011771 5.480446 27.129554 -1.047293 1.367386 0.109299 -0.031992 -629730.000000 0 0 1
-12.054214 22.403171 5.764246 26.085105 -1.077168 1.347979 0.097287 -0.027413 -227431.000000 0 0 1
-11.942014 22.190871 7.167746 26.199676 -1.077097 1.293682 0.080397 -0.026465 316028.000000 0 0 1
-10.503314 21.850671 7.646646 25.421303 -1.122719 1.265268 0.067828 -0.022184 238851.000000 0 0 1
-9.622714 22.925771 7.864846 26.077642 -1.173395 1.264433 0.078773 -0.023842 232577.000000 0 0 1
-8.477014 22.579571 8.650346 25.622749 -1.211650 1.226426 0.075909 -0.025879 333189.000000 0 0 1
-8.530214 22.578771 10.232246 26.215726 -1.209575 1.169829 0.048579 -0.027822 -576676.000000 0 0 1
-9.215814 21.461471 10.676046 25.680808 -1.165195 1.142061 0.055925 -0.029198 -323092.000000 0 0 1
-8.907714 20.997871 12.045946 25.794627 -1.169587 1.084908 0.040111 -0.022823 -578257.000000 0 0 1
-9.879214 19.993971 12.630446 25.629786 -1.111872 1.055488 0.042469 -0.020578 -679858.000000 0 0 1
-9.834714 18.691671 12.023346 24.303519 -1.086444 1.053288 0.057365 -0.033892 -443565.000000 0 1 0
-10.573214 17.771871 12.732646 24.284821 -1.034105 1.018898 0.067165 -0.034604 -381195.000000 0 1 0
-10.949914 16.591571 11.826746 23.131208 -0.987445 1.034112 0.065173 -0.029732 -127012.000000 0 1 0
-11.392514 15.466471 12.532846 22.936289 -0.935930 0.992713 0.065092 -0.032080 55964.500000 0 1 0
-11.835814 14.477371 11.611546 22.011560 -0.885452 1.015117 0.053162 -0.015563 135953.000000 0 1 0
-12.279914 13.067171 12.128346 21.648188 -0.816447 0.976112 0.052857 -0.018026 618858.000000 0 1 0
-13.288414 13.089171 13.141046 22.816561 -0.777845 0.957039 0.070573 -0.011451 442078.000000 0 1 0
-13.846514 11.788471 13.421446 22.601531 -0.705287 0.934987 0.056878 -0.002922 328065.000000 0 1 0
-14.725814 11.861071 14.693946 23.946746 -0.678062 0.910173 0.068673 -0.009773 -932986.000000 0 1 0
-15.953114 12.440971 14.577246 24.935431 -0.662330 0.946410 0.087923 -0.016960 -1749920.000000 0 1 0
-16.669314 12.364071 15.765146 26.062926 -0.638185 0.921171 0.072124 -0.014812 -343382.000000 0 0 1
-17.813314 13.394671 15.628946 27.221229 -0.644746 0.959236 0.069406 -0.008255 -352460.000000 0 0 1
-18.770814 13.005071 14.673546 27.143844 -0.605901 0.999664 0.071066 -0.011406 15859.100000 0 0 1
-19.761314 14.028171 14.506246 28.244120 -0.617326 1.031418 0.078881 -0.015765 658670.000000 0 0 1
-20.987014 13.570571 13.680146 28.491430 -0.573994 1.069971 0.068710 -0.017111 292041.000000 0 0 1
-21.857714 12.570671 14.201946 28.939190 -0.521920 1.057844 0.069693 -0.007009 386416.000000 0 0 1
-23.091414 12.645371 13.503946 29.588433 -0.501016 1.096859 0.064598 -0.006760 546698.000000 0 0 1
-24.170914 11.654171 14.070546 30.299060 -0.449271 1.087852 0.096850 -0.018106 379750.000000 0 0 1
-24.758714 12.115971 15.283246 31.517746 -0.455101 1.064537 0.089024 -0.012738 -442308.000000 0 0 1
-25.698014 11.253671 15.787546 32.191298 -0.412763 1.058214 0.089316 -0.017762 -829196.000000 0 0 1
-26.497264 11.838971 16.963546 33.615891 -0.420189 1.041844 0.086233 -0.014647 -278694.000000 0 0 1
-27.421804 12.798371 16.525546 34.479665 -0.436673 1.070958 0.088548 -0.009592 445827.000000 0 0 1
-28.213064 13.329471 17.637846 35.843345 -0.441372 1.056317 0.085949 -0.001373 712934.000000 0 0 1
-29.344934 14.341771 17.283146 36.952925 -0.454592 1.084101 0.083914 -0.008435 112626.000000 0 0 1
-28.951674 15.644371 16.848846 36.970656 -0.495413 1.097598 0.085705 -0.007674 159107.000000 0 0 1
-30.022814 16.623971 16.712546 38.171128 -0.505688 1.117610 0.090879 -0.003848 687053.000000 0 0 1
-29.579564 18.134471 16.700746 38.506163 -0.549978 1.122183 0.115756 -0.009976 -5871.910000 0 0 1
-28.883654 18.576371 17.863446 38.709815 -0.571541 1.091144 0.106498 -0.021293 429116.000000 0 0 1
-29.685684 18.582171 19.051446 39.868465 -0.559292 1.072582 0.099323 -0.028423 -230558.000000 0 0 1
-28.792984 18.905271 20.294146 39.978714 -0.580996 1.038372 0.083260 -0.022566 645649.000000 0 0 1
-28.206884 17.776571 20.963246 39.383911 -0.562345 1.009505 0.081610 -0.011764 112193.000000 0 0 1
-27.227064 17.097971 20.211346 37.975678 -0.560737 1.009578 0.090847 -0.010082 -650294.000000 0 0 1
-26.781524 15.713271 20.743946 37.342579 -0.530598 0.981828 0.080620 -0.007836 -145946.000000 0 0 1
-27.861274 14.838771 20.903646 37.860298 -0.489382 0.985885 0.071437 -0.011355 -238486.000000 0 0 1
-27.493724 13.685171 21.527946 37.505216 -0.461851 0.959415 0.070044 -0.005653 -541729.000000 0 0 1
-28.655734 12.726171 21.740146 38.154167 -0.417941 0.964537 0.080164 -0.018146 -514995.000000 0 0 1
-29.142014 12.148071 20.564046 37.679074 -0.394954 0.993491 0.079299 -0.019228 139672.000000 0 0 1
-30.335754 11.458471 20.923746 38.592197 -0.361155 0.997772 0.106644 -0.021480 36833.400000 0 0 1
-31.343854 11.354871 19.746046 38.746311 -0.347562 1.036049 0.106608 -0.022165 -668217.000000 0 0 1
-31.075594 10.651071 18.531046 37.716542 -0.330199 1.057187 0.123246 -0.025864 -61741.700000 0 0 1
-30.755484 9.291971 18.615146 37.131714 -0.293404 1.045664 0.129222 -0.025559 -254143.000000 0 0 1
-30.071704 8.741371 17.317546 35.785701 -0.282888 1.065664 0.119885 -0.032009 -332816.000000 0 0 1
-30.740914 8.641471 16.084546 35.754600 -0.274034 1.104188 0.132122 -0.019002 -280903.000000 0 0 1
-31.075764 9.825371 15.408746 36.050943 -0.306229 1.129164 0.128875 -0.013069 -765048.000000 0 0 1
-29.952914 10.687371 14.846246 35.097122 -0.342725 1.134038 0.122621 -0.009812 -466786.000000 0 0 1
-29.348764 10.118671 13.692846 33.929802 -0.332011 1.155388 0.135505 -0.015645 75440.600000 0 0 1
-28.314454 10.992571 13.291646 33.154378 -0.370320 1.158295 0.113906 -0.004633 -182629.000000 0 0 1
-27.835634 10.849871 11.801946 32.122082 -0.371668 1.194575 0.154164 0.001408 168472.000000 0 0 1
-27.031184 9.678371 11.582346 30.959757 -0.343823 1.187360 0.154947 -0.006369 688160.000000 0 0 1
-27.791314 8.492471 11.421146 31.223738 -0.296568 1.196321 0.176905 -0.004585 54279.300000 0 0 1
-26.884834 7.392271 10.827646 29.911167 -0.268330 1.200391 0.185311 -0.018176 11648.000000 0 0 1
-26.508314 7.649571 9.489846 29.176426 -0.280940 1.239513 0.177705 -0.013484 160242.000000 0 0 1
-26.081674 6.464571 8.856946 28.292930 -0.242962 1.252399 0.206469 -0.042790 -136707.000000 0 0 1
-25.427164 6.847871 7.516246 27.384813 -0.263072 1.292760 0.191036 -0.026164 -6164.000000 0 0 1
-26.388824 7.220771 6.543846 28.130615 -0.267092 1.336022 0.185772 -0.033277 394186.000000 0 0 1
-25.755834 7.338171 5.290946 27.298459 -0.277559 1.375743 0.172689 -0.034944 -27509.700000 0 0 1
-26.632994 8.074671 4.236546 28.150755 -0.294374 1.419727 0.165521 -0.035193 -26626.900000 0 0 1
-27.563904 7.267871 3.504046 28.720535 -0.257806 1.448487 0.196368 -0.041511 362357.000000 0 0 1
-27.126304 6.230571 2.599446 27.953775 -0.225771 1.477671 0.206472 -0.039624 165556.000000 0 0 1
-26.083244 6.574071 1.439046 26.937426 -0.246900 1.517349 0.195897 -0.037036 893246.000000 0 0 1
-24.911314 7.178771 1.982846 26.000769 -0.280571 1.494461 0.167433 -0.029844 402566.000000 0 0 1
-23.867914 7.198471 1.017846 24.950578 -0.292921 1.529991 0.162824 -0.018062 -511919.000000 0 1 0
-22.628514 7.912771 1.524046 24.020498 -0.336391 1.507306 0.138485 -0.019921 -594761.000000 0 1 0
-22.795714 9.298971 1.685946 24.677072 -0.387321 1.502423 0.116703 -0.022170 1311390.000000 0 1 0
-21.585514 9.764671 2.308346 23.803607 -0.424824 1.473669 0.117962 -0.025985 841022.000000 0 1 0
-22.033414 11.053071 3.030446 24.835968 -0.464967 1.448473 0.121497 -0.041643 689509.000000 0 1 0
-21.012614 12.057571 2.946846 24.404895 -0.520951 1.449753 0.124280 -0.039535 927704.000000 0 1 0
-21.511114 13.202271 3.572546 25.491000 -0.550463 1.430184 0.118912 -0.051873 539026.000000 0 0 1
-20.464014 14.024871 4.446146 25.203990 -0.600821 1.393462 0.101282 -0.040970 527953.000000 0 0 1
-20.000314 13.363071 5.603846 24.697921 -0.589024 1.341908 0.099843 -0.042990 744859.000000 0 1 0
-18.971814 14.146671 6.233946 24.472844 -0.640723 1.313229 0.099910 -0.045478 524747.000000 0 1 0
-18.136914 13.435071 7.351046 23.737874 -0.637560 1.255944 0.064666 -0.039468 -672754.000000 0 1 0
-17.333414 12.447771 6.828846 22.405968 -0.622795 1.261091 0.069090 -0.027080 -170789.000000 0 1 0
-16.629614 11.870371 7.955746 21.925868 -0.619934 1.199475 0.050924 -0.024148 -73987.500000 0 1 0
10.293486 -32.856738 -13.984354 37.162928 -1.267197 1.956594 0.034380 0.004224 -44520.900000 0 0 1
11.481486 -32.639738 -13.233154 37.044479 -1.232551 1.936090 0.032774 0.004573 496685.000000 0 0 1
12.375686 -31.798138 -13.966154 36.869129 -1.199639 1.959299 0.035322 -0.007719 583687.000000 0 0 1
13.700386 -31.636638 -13.130854 36.891690 -1.162123 1.934705 0.040052 -0.006380 166683.000000 0 0 1
14.847986 -32.015438 -13.806254 37.895430 -1.136546 1.943704 0.051083 -0.010708 100858.000000 0 0 1
16.009486 -31.194338 -13.626154 37.617316 -1.096631 1.941457 0.061079 -0.014869 704066.000000 0 0 1
17.344586 -31.953938 -13.771654 38.878622 -1.073498 1.932878 0.088603 -0.015565 23800.400000 0 0 1
17.475986 -33.030138 -12.814954 39.504723 -1.084147 1.901164 0.091086 -0.027973 -367057.000000 0 0 1
18.387486 -33.945238 -13.367354 40.854192 -1.074363 1.904132 0.091791 -0.017576 -54184.300000 0 0 1
18.266986 32.651671 -12.876754 39.567982 1.060727 1.902267 0.085653 -0.024743 -38563.000000 0 0 1
18.832786 32.418871 -11.579454 39.239531 1.044524 1.870353 0.081541 -0.018073 106753.000000 0 0 1
18.733086 31.003971 -11.353654 37.961562 1.027283 1.874528 0.070128 -0.024817 248331.000000 0 0 1
19.714986 30.606071 -10.226354 37.815216 0.998543 1.844636 0.053945 -0.021641 647228.000000 0 0 1
21.102886 30.562871 -10.528654 38.604060 0.966492 1.847030 0.056050 -0.026726 608913.000000 0 0 1
21.909486 30.583971 -9.359454 38.768598 0.949167 1.814624 0.045369 -0.027369 337252.000000 0 0 1
23.169386 29.708071 -9.294554 38.804364 0.908431 1.812671 0.029159 -0.009712 -573841.000000 0 0 1
24.221486 30.035971 -10.114754 39.889199 0.892155 1.827167 0.043259 -0.018831 -714270.000000 0 0 1
25.318986 29.181971 -9.877754 39.877418 0.856159 1.821105 0.034695 -0.003876 456296.000000 0 0 1
26.591186 29.694671 -10.634954 41.254901 0.840480 1.831527 0.032622 -0.009828 274873.000000 0 0 1
27.105486 31.001371 -10.361254 42.463489 0.852345 1.817289 0.036837 -0.023334 -558810.000000 0 0 1
28.137386 31.256071 -11.221454 43.526721 0.837859 1.831547 0.039979 -0.018477 -667324.000000 0 0 1
28.754686 32.680871 -11.201754 44.948310 0.849219 1.822665 0.034522 -0.026423 -372631.000000 0 0 1
28.078486 33.655671 -11.929754 45.424933 0.875496 1.836539 0.043550 -0.026163 -368280.000000 0 0 1
28.442786 -33.068638 -11.577354 45.128284 -0.860460 1.830240 0.039635 -0.031293 -237527.000000 0 0 1
27.383586 -32.046938 -11.970754 43.819698 -0.863705 1.847496 0.038937 -0.027499 -172523.000000 0 0 1
26.241486 -32.107338 -11.142454 42.937758 -0.885592 1.833303 0.067393 -0.037784 88801.900000 0 0 1
25.246886 -31.095538 -11.285354 41.613663 -0.888833 1.845429 0.077884 -0.032286 308158.000000 0 0 1
25.722886 -29.731838 -10.752054 40.758505 -0.857565 1.837755 0.064258 -0.035259 -168464.000000 0 0 1
26.631286 -29.137838 -11.681554 41.166706 -0.830313 1.858512 0.055859 -0.026730 203761.000000 0 0 1
27.315486 -28.030038 -11.079954 40.676580 -0.798308 1.846674 0.057308 -0.033222 224847.000000 0 0 1
28.238586 -27.308238 -12.096954 41.103454 -0.768651 1.869525 0.063262 -0.015544 398759.000000 0 0 1
29.428086 -27.991238 -12.469054 42.485279 -0.760380 1.868673 0.050104 -0.015434 148036.000000 0 0 1
29.262686 -28.930138 -13.525854 43.315198 -0.779684 1.888373 0.051460 -0.016036 -542453.000000 0 0 1
30.605586 -29.547438 -13.896854 44.753497 -0.767809 1.886536 0.032997 -0.014980 -212650.000000 0 0 1
31.033786 -30.605738 -13.038054 45.495032 -0.778454 1.861454 0.044374 -0.016128 301965.000000 0 0 1
32.097886 -31.335338 -13.643254 46.886203 -0.773377 1.866054 0.041469 -0.022411 65410.000000 0 0 1
32.602186 -32.433038 -12.686654 47.704881 -0.782797 1.839976 0.035279 -0.016431 -88297.700000 0 0 1
33.662286 -33.157838 -13.270854 49.078583 -0.777849 1.844605 0.033276 -0.023998 86189.700000 0 0 1
34.524786 -33.903438 -12.444654 49.962720 -0.776318 1.822525 0.030243 -0.017977 -165033.000000 0 0 1
33.910786 33.013771 -11.656954 48.741512 0.771996 1.812296 0.027088 -0.022881 -364386.000000 0 0 1
33.099486 33.483171 -10.586254 48.257305 0.791161 1.791966 0.033705 -0.031411 -15383.100000 0 0 1
32.474286 32.355371 -9.990554 46.917592 0.783564 1.785378 0.044177 -0.028191 -87317.100000 0 0 1
31.703286 32.839371 -8.700154 46.467357 0.802998 1.759139 0.029901 -0.017276 429202.000000 0 0 1
30.774086 33.908371 -8.897254 46.647434 0.833817 1.762706 0.029260 -0.020077 -191232.000000 0 0 1
29.979186 -33.965038 -7.786354 45.967409 -0.847651 1.741006 0.033866 -0.019335 -130785.000000 0 0 1
28.993986 -32.785938 -7.821054 44.460520 -0.846700 1.747627 0.039261 -0.028398 -524137.000000 0 0 1
29.604686 -31.528038 -7.830654 43.951948 -0.816850 1.749917 0.014491 -0.029997 356700.000000 0 0 1
28.771286 -30.381838 -8.227454 42.644272 -0.812618 1.764946 0.017003 -0.023602 818624.000000 0 0 1
27.657086 -29.895738 -7.263354 41.369383 -0.824276 1.747284 0.031595 -0.028805 27557.400000 0 0 1
26.828686 -28.952538 -7.804854 40.236098 -0.823454 1.766010 0.045777 -0.046130 63404.200000 0 0 1
25.757786 -28.549038 -6.911154 39.067572 -0.836751 1.748635 0.054974 -0.050136 1035150.000000 0 0 1
24.741486 -27.567738 -7.617054 37.817203 -0.839375 1.773601 0.092209 -0.050773 519664.000000 0 0 1
23.802486 -28.216238 -8.491654 37.879052 -0.870045 1.796896 0.104293 -0.046164 804467.000000 0 0 1
22.971086 -27.298838 -9.218254 36.849336 -0.871277 1.823643 0.122031 -0.040776 144696.000000 0 0 1
21.799486 -27.974638 -9.943554 36.833032 -0.908831 1.844151 0.115851 -0.038990 -251365.000000 0 0 1
22.199886 -28.765038 -11.064854 37.982803 -0.913510 1.866395 0.123727 -0.037057 -42136.000000 0 0 1
21.158286 -29.425438 -11.768854 38.105582 -0.947401 1.884778 0.106537 -0.038212 -47839.500000 0 0 1
20.891886 -30.813238 -11.126254 38.855116 -0.974977 1.861214 0.103723 -0.043168 -148176.000000 0 0 1
21.876486 -31.766738 -11.349854 40.206038 -0.967722 1.856979 0.094009 -0.040580 -631583.000000 0 0 1
21.482686 -32.942038 -10.664654 40.748233 -0.992921 1.835601 0.066517 -0.043960 460463.000000 0 0 1
22.548486 33.965471 -10.600454 42.124305 0.984736 1.825178 0.074104 -0.034341 310292.000000 0 0 1
23.449786 -33.786138 -9.557054 42.222421 -0.964065 1.799125 0.080615 -0.030190 -71984.600000 0 0 1
24.623786 33.496871 -9.746254 42.700827 0.936895 1.801071 0.068111 -0.029618 356932.000000 0 0 1
25.859886 33.856471 -8.861054 43.514510 0.918516 1.775865 0.057248 -0.026271 -117942.000000 0 0 1
25.802586 33.493071 -7.488254 42.937550 0.914375 1.746091 0.042934 -0.029682 87824.300000 0 0 1
26.145786 32.110271 -7.370054 42.059355 0.887427 1.746936 0.041695 -0.013224 -212954.000000 0 0 1
25.960086 31.619271 -5.854654 41.327731 0.883368 1.712939 0.043027 -0.012776 -462663.000000 0 0 1
26.884786 32.177071 -4.932154 42.219447 0.874765 1.687886 0.039347 -0.007662 361831.000000 0 0 1
27.979186 31.345571 -4.532754 42.260212 0.842082 1.678261 0.046557 -0.004659 354195.000000 0 0 1
27.691386 30.095871 -3.635654 41.058401 0.826983 1.659461 0.053529 0.005583 -358215.000000 0 0 1
27.221886 30.598771 -2.376454 41.023937 0.843735 1.628757 0.058886 0.005556 -52840.100000 0 0 1
27.117386 29.585971 -1.392154 40.157445 0.828906 1.605471 0.055110 0.009341 -717793.000000 0 0 1
26.008586 28.543571 -1.449354 38.643015 0.831834 1.608311 0.053048 0.009612 -626481.000000 0 0 1
24.825086 29.247271 -1.102554 38.378423 0.866999 1.599529 0.059805 0.001056 -464592.000000 0 0 1
23.700486 28.513271 -1.526254 37.108612 0.877313 1.611937 0.055555 0.001379 -642600.000000 0 0 1
22.366786 29.061371 -1.067154 36.687535 0.914844 1.599888 0.056398 -0.009909 -555201.000000 0 0 1
22.050686 28.728671 0.273946 36.216630 0.916158 1.563232 0.067751 -0.006394 367216.000000 0 0 1
20.940786 29.562271 0.679946 36.234054 0.954480 1.552030 0.065727 -0.011135 540266.000000 0 0 1
20.157086 28.926471 1.844246 35.305100 0.962195 1.518535 0.076378 -0.036438 59186.600000 0 0 1
19.450586 27.709671 1.530346 33.889425 0.958768 1.525624 0.086944 -0.031918 323329.000000 0 0 1
19.023286 27.072671 2.683446 33.196623 0.958277 1.489873 0.112062 -0.039664 -204836.000000 0 0 1
18.493086 25.610071 2.497146 31.687627 0.945390 1.491909 0.101671 -0.025828 -99954.400000 0 0 1
19.412386 24.676671 2.004246 31.461020 0.904237 1.507047 0.102524 -0.024619 -366257.000000 0 0 1
20.386886 24.257771 2.913446 31.820634 0.871886 1.479110 0.100215 -0.019594 -563803.000000 0 0 1
21.573186 23.573071 2.206146 32.030596 0.829667 1.501866 0.090423 -0.015472 -478431.000000 0 0 1
21.225886 22.457971 1.419046 30.934000 0.813595 1.524907 0.091774 -0.012936 801381.000000 0 0 1
22.373186 21.722471 0.949246 31.198177 0.770642 1.540365 0.074224 -0.018110 491444.000000 0 0 1
22.012886 20.711971 -0.119354 30.225273 0.754959 1.574745 0.105366 -0.021785 -240297.000000 0 0 1
21.846086 21.333571 -1.374554 30.565701 0.773529 1.615782 0.064376 -0.009725 373325.000000 0 0 1
22.042986 20.435271 -2.446954 30.157604 0.747568 1.652024 0.107612 -0.016017 201625.000000 0 0 1
21.572786 21.118171 -3.757754 30.421751 0.774750 1.694635 0.080151 -0.011007 296029.000000 0 0 1
22.522486 22.141371 -4.092954 31.847369 0.776865 1.699671 0.074181 -0.007626 671361.000000 0 0 1
22.153786 22.978471 -5.177654 32.335869 0.803669 1.731610 0.052288 -0.007169 118219.000000 0 0 1
23.305486 23.990371 -5.561754 33.905998 0.799878 1.735576 0.039587 0.002805 580248.000000 0 0 1
23.564986 25.218871 -4.828154 34.851271 0.819287 1.709779 0.025448 0.004645 167771.000000 0 0 1
23.970186 25.216771 -3.480354 34.965243 0.810737 1.670499 0.044726 0.000440 216656.000000 0 0 1
22.854786 24.758371 -2.454554 33.783768 0.825357 1.643515 0.037789 -0.002256 -499752.000000 0 0 1
21.918086 25.773971 -2.260854 33.908871 0.866072 1.637520 0.054571 -0.008439 151477.000000 0 0 1
20.927886 25.584571 -1.274154 33.078243 0.885183 1.609325 0.074790 -0.003724 -392284.000000 0 0 1
19.866186 24.525871 -1.474454 31.596799 0.889982 1.617478 0.088565 -0.015122 -1189760.000000 0 0 1
19.098486 24.764771 -2.642154 31.385140 0.913867 1.655081 0.064969 -0.014874 362457.000000 0 0 1
18.583886 23.568971 -3.232654 30.187866 0.903114 1.678087 0.070804 -0.015662 58378.300000 0 0 1
18.110386 24.003671 -4.661754 30.428510 0.924432 1.724606 0.065294 -0.015542 -195031.000000 0 0 1
17.354486 23.035971 -5.344754 29.332585 0.925145 1.754032 0.062680 -0.015404 137071.000000 0 0 1
17.111286 23.473171 -6.651954 29.799905 0.940889 1.795914 0.068153 -0.017729 8173.430000 0 0 1
16.178686 22.579371 -7.494354 28.770527 0.949066 1.834323 0.090139 -0.024058 -62094.600000 0 0 1
16.776786 21.328371 -7.787954 28.231404 0.904283 1.850282 0.074035 -0.017474 322409.000000 0 0 1
15.897786 20.487271 -8.504054 27.290782 0.910872 1.887682 0.113658 -0.018069 -294638.000000 0 0 1
16.453686 19.076571 -8.785754 26.680120 0.859086 1.906358 0.104073 -0.021385 454627.000000 0 0 1
17.478986 19.072371 -9.805454 27.666174 0.828964 1.933090 0.109744 -0.019210 493677.000000 0 0 1
17.977886 17.778871 -9.979354 27.182350 0.779832 1.946714 0.103869 -0.021587 1106080.000000 0 0 1
19.533186 17.974971 -10.264554 28.460604 0.743879 1.939770 0.080166 -0.016042 1090980.000000 0 0 1
19.703086 18.336671 -11.625354 29.318833 0.749493 1.978514 0.083188 -0.022152 -32163.100000 0 0 1
21.001986 18.869171 -11.760354 30.584881 0.731956 1.965479 0.085054 -0.011321 50018.000000 0 0 1
21.220486 19.311871 -13.255354 31.606357 0.738344 2.003568 0.079225 -0.019095 -36344.600000 0 0 1
21.379286 18.200171 -14.120554 31.427856 0.705248 2.036779 0.076728 -0.015260 132750.000000 0 0 1
21.404686 18.705871 -15.446954 32.352412 0.718215 2.068557 0.071064 -0.021317 -48730.300000 0 0 1
21.604186 17.676871 -16.603754 32.479182 0.685749 2.107391 0.067739 -0.016367 -202186.000000 0 0 1
22.774886 16.914571 -16.471154 32.803918 0.638803 2.096832 0.085418 -0.019656 -278822.000000 0 0 1
22.876286 15.908571 -17.488254 32.897509 0.607644 2.131283 0.089850 -0.023353 192610.000000 0 0 1
23.854886 16.146771 -18.697154 34.341773 0.595037 2.146522 0.091884 -0.020537 -166625.000000 0 0 1
25.218686 16.118871 -18.357154 35.111041 0.568720 2.120965 0.107756 -0.019336 -220584.000000 0 0 1
25.944786 16.397571 -19.542754 36.385869 0.563630 2.137789 0.124682 -0.021496 147539.000000 0 0 1
27.467686 16.554071 -19.284654 37.422038 0.542384 2.112188 0.119043 -0.025125 157743.000000 0 0 1
27.736386 17.665471 -18.447154 37.705085 0.567115 2.082024 0.114575 -0.028072 -149356.000000 0 0 1
29.073686 18.076271 -18.315454 38.826365 0.556252 2.062045 0.106596 -0.032432 -155201.000000 0 0 1
29.258686 19.294071 -17.435554 39.144992 0.582976 2.032428 0.101149 -0.031112 197096.000000 0 0 1
28.712186 19.094071 -16.119654 38.063321 0.586859 2.008097 0.097104 -0.031240 203871.000000 0 0 1
27.489386 19.771871 -15.915054 37.414999 0.623532 2.010162 0.088259 -0.024751 289656.000000 0 0 1
26.524286 19.142371 -14.868954 35.931238 0.625137 1.997439 0.093408 -0.015128 107074.000000 0 0 1
26.953986 19.386971 -13.584054 35.873368 0.623537 1.959152 0.086524 -0.021682 290200.000000 0 0 1
25.968286 19.038271 -12.629954 34.587908 0.632620 1.944596 0.082434 -0.024973 153939.000000 0 0 1
26.329686 19.680771 -11.221154 34.734700 0.641883 1.899750 0.085549 -0.019899 -151553.000000 0 0 1
26.014586 21.028971 -11.186954 35.272145 0.679814 1.893531 0.080299 -0.015945 -31964.000000 0 0 1
26.238586 21.714271 -9.977054 35.489640 0.691327 1.855763 0.070755 -0.011694 169837.000000 0 0 1
25.235386 21.456771 -8.804554 34.274449 0.704648 1.830593 0.085971 -0.012167 -394964.000000 0 0 1
25.474386 20.221771 -8.154454 33.531470 0.670954 1.816448 0.108653 -0.023620 420795.000000 0 0 1
24.693386 19.928471 -6.980154 32.490457 0.679017 1.787321 0.097767 -0.020801 532490.000000 0 0 1
23.205886 19.534971 -7.260954 31.190538 0.699721 1.805745 0.076069 -0.019618 266572.000000 0 0 1
22.430086 20.707371 -7.439754 31.420597 0.745484 1.809846 0.060702 -0.012290 215349.000000 0 0 1
21.188486 20.451371 -8.086154 30.538441 0.767698 1.838778 0.064561 -0.012661 359340.000000 0 0 1
20.228386 21.669771 -8.122854 30.736742 0.819787 1.838245 0.046587 -0.015200 -341412.000000 0 0 1
20.652386 22.750971 -8.894754 31.988191 0.833711 1.852574 0.050072 -0.013428 15955.500000 0 0 1
20.476686 22.668971 -10.320554 32.244236 0.836166 1.896604 0.062371 -0.002611 -241885.000000 0 0 1
19.041586 22.930571 -10.829454 31.712303 0.877791 1.919299 0.062024 -0.019003 -156410.000000 0 0 1
18.731086 24.283371 -10.504754 32.417365 0.913768 1.900801 0.051100 -0.027989 -629748.000000 0 0 1
17.390686 24.509071 -10.792554 31.931328 0.953682 1.915580 0.071140 -0.028289 -554742.000000 0 0 1
16.867786 25.743871 -10.029454 32.370651 0.990763 1.885812 0.060496 -0.022764 35947.600000 0 0 1
17.475886 26.890271 -10.589254 33.773148 0.994494 1.889716 0.097286 -0.017925 75757.900000 0 0 1
17.086586 28.003971 -9.890154 34.263522 1.022948 1.863612 0.088248 -0.038311 -119913.000000 0 0 1
21.200786 28.907971 33.578675 49.118953 0.938011 0.818086 0.048943 -0.005699 762945.000000 0 0 1
19.802586 29.018171 33.856801 48.790159 0.971967 0.803868 0.068434 -0.018467 825556.000000 0 0 1
18.999486 27.944771 33.342174 47.472005 0.973692 0.792097 0.058375 -0.013691 1426430.000000 0 0 1
17.442886 28.172371 33.495908 47.115949 1.016416 0.779984 0.086923 -0.028989 1150930.000000 0 0 1
16.906986 28.826571 32.354262 46.514682 1.040357 0.801582 0.085208 -0.029577 38643.800000 0 0 1
15.527386 29.130271 32.438120 46.280709 1.081073 0.794139 0.130298 -0.043129 117917.000000 0 0 1
14.805286 29.086671 31.081421 45.069786 1.099970 0.809820 0.125085 -0.043432 -130894.000000 0 0 1
14.490486 27.792571 30.613971 43.813427 1.090192 0.797169 0.115831 -0.047145 453235.000000 0 0 1
13.081686 27.617971 30.455991 43.144527 1.128437 0.787095 0.125956 -0.032695 338058.000000 0 0 1
12.674786 26.110771 30.411011 42.038698 1.118878 0.762075 0.116461 -0.028125 -40825.100000 0 0 1
12.644986 25.579171 29.118961 40.768904 1.111681 0.775252 0.106316 -0.027337 342659.000000 0 0 1
13.933986 25.213071 28.643431 40.623898 1.065921 0.788249 0.080659 -0.023695 17235.800000 0 0 1
14.007486 24.467771 27.299751 39.244845 1.050853 0.801505 0.077094 -0.022548 -408337.000000 0 0 1
13.613786 25.248871 26.205611 38.853246 1.076295 0.830541 0.076041 -0.024795 230463.000000 0 0 1
13.297586 24.570771 24.992831 37.485866 1.074738 0.840988 0.084912 -0.032111 -385131.000000 0 0 1
12.067386 23.686571 24.862951 36.398376 1.099609 0.818827 0.089731 -0.025921 -629559.000000 0 0 1
12.082586 23.302871 23.530091 35.251636 1.092457 0.839964 0.105634 -0.035185 844307.000000 0 0 1
10.923186 22.445371 23.381511 34.202423 1.117880 0.818083 0.104827 -0.032443 832422.000000 0 0 1
10.810586 21.960171 21.933811 32.866547 1.113343 0.840138 0.117849 -0.034995 30169.900000 0 0 1
10.291286 23.029171 21.158911 32.923438 1.150540 0.872818 0.124740 -0.036125 -113383.000000 0 0 1
10.416486 22.686571 19.790311 31.856555 1.140361 0.900482 0.133482 -0.032947 -398237.000000 0 0 1
10.112186 23.895171 18.888911 32.094025 1.170460 0.941533 0.102153 -0.036506 -405248.000000 0 0 1
8.757986 24.221171 18.843711 31.913209 1.223839 0.939158 0.094339 -0.037968 -800255.000000 0 0 1
8.362786 25.050871 19.895911 33.065535 1.248597 0.925154 0.092187 -0.043930 -499887.000000 0 0 1
7.072286 25.810371 19.473211 33.096804 1.303351 0.941753 0.085291 -0.040526 55807.000000 0 0 1
7.182086 26.806971 18.475211 33.339608 1.309025 0.983452 0.080761 -0.042702 6995.610000 0 0 1
5.878686 27.168171 18.044211 33.140036 1.357700 0.995023 0.076175 -0.043630 183934.000000 0 0 1
5.786286 28.291471 16.934311 33.476250 1.369055 1.040417 0.084414 -0.044514 -120215.000000 0 0 1
6.254986 27.866171 15.663411 32.572853 1.349991 1.069146 0.071445 -0.036220 714441.000000 0 0 1
7.478286 28.588771 15.337711 33.293963 1.314948 1.092040 0.065723 -0.034768 952623.000000 0 0 1
8.162986 27.829171 14.202511 32.292544 1.285475 1.115412 0.051984 -0.031386 -578354.000000 0 0 1
7.391286 27.923371 13.051611 31.696850 1.312032 1.146408 0.056882 -0.030839 -354240.000000 0 0 1
7.096686 26.762771 12.380911 30.329784 1.311592 1.150304 0.048306 -0.037145 -46542.500000 0 0 1
6.038686 26.963171 11.283211 29.846091 1.350471 1.183111 0.044503 -0.033866 -804824.000000 0 0 1
6.522486 27.530971 10.074011 30.033030 1.338171 1.228734 0.033288 -0.026390 64875.700000 0 0 1
6.973486 28.870071 10.121811 31.377724 1.333789 1.242343 0.033220 -0.023609 -473487.000000 0 0 1
7.060786 29.459971 8.615411 31.495553 1.335560 1.293721 0.028623 -0.008776 -940481.000000 0 0 1
5.870286 29.476071 7.907511 31.077769 1.374214 1.313525 0.021492 -0.012826 -811658.000000 0 0 1
5.581886 28.273371 7.207911 29.706816 1.375877 1.325715 0.010803 -0.007724 67767.600000 0 0 1
4.068286 28.130871 6.914211 29.252404 1.427172 1.332174 0.027369 -0.012483 99580.800000 0 0 1
3.580386 29.142371 6.047911 29.977895 1.448551 1.367656 0.042534 -0.017034 -1269340.000000 0 0 1
2.237086 28.928871 5.851311 29.599358 1.493619 1.371802 0.031038 -0.013267 -1185230.000000 0 0 1
1.527186 30.020371 5.084211 30.486131 1.519968 1.403242 0.053699 -0.019099 -319059.000000 0 0 1
1.973386 30.108971 3.723511 30.402449 1.505348 1.448014 0.047758 -0.018537 35136.300000 0 0 1
1.000386 30.608971 2.827811 30.755591 1.538125 1.478722 0.060682 -0.028274 345292.000000 0 0 1
0.108386 29.486171 2.241911 29.571476 1.567121 1.494910 0.091634 -0.030012 136867.000000 0 0 1
0.897986 28.659171 1.438411 28.709293 1.539473 1.520673 0.097941 -0.031971 -196762.000000 0 0 1
0.107886 27.767571 0.704511 27.776716 1.566911 1.545430 0.103836 -0.032827 -21428.400000 0 0 1
-0.425914 28.306571 -0.664589 28.317575 -1.555751 1.594268 0.107510 -0.034743 -771553.000000 0 0 1
-1.385414 29.292571 -0.565089 29.330759 -1.523536 1.590064 0.114309 -0.035657 -664440.000000 0 0 1
-1.508114 29.989771 -1.769589 30.079764 -1.520551 1.629660 0.107955 -0.030927 -647847.000000 0 0 1
-2.831814 30.789371 -1.922589 30.979039 -1.479081 1.632897 0.139955 -0.026404 1565010.000000 0 0 1
-4.048214 30.064171 -2.324689 30.424441 -1.436949 1.647279 0.091998 -0.029867 1384890.000000 0 0 1
-3.832814 29.319871 -3.534789 29.779859 -1.440809 1.689774 0.080294 -0.029484 -584539.000000 0 0 1
-5.089814 28.725871 -4.295489 29.487847 -1.395431 1.716986 0.069482 -0.019870 761368.000000 0 0 1
-5.738714 29.799071 -5.000089 30.755786 -1.380545 1.734095 0.064589 -0.020803 -51916.900000 0 0 1
-6.560714 29.355871 -6.036689 30.679826 -1.350921 1.768853 0.042789 -0.019955 -258682.000000 0 0 1
-7.144114 30.495971 -6.863689 32.064822 -1.340682 1.786522 0.046837 -0.017708 493067.000000 0 0 1
-8.203214 31.260771 -6.238389 32.915741 -1.314170 1.761476 0.042016 -0.002225 670124.000000 0 0 1
-8.510314 32.359871 -7.030689 34.190895 -1.313630 1.777904 0.039589 -0.015512 -712504.000000 0 0 1
-9.421514 33.342971 -6.375889 35.230251 -1.295412 1.752777 0.045640 -0.010814 426199.000000 0 0 1
-10.757014 32.811171 -6.247589 35.090150 -1.253992 1.749795 0.049466 -0.007363 576551.000000 0 0 1
-11.657714 33.816171 -5.837589 36.242422 -1.238817 1.732572 0.052424 -0.007536 509603.000000 0 0 1
-13.169814 33.475471 -5.893989 36.452576 -1.195978 1.733198 0.090064 -0.015417 583509.000000 0 0 1
-13.780914 33.432071 -7.181989 36.867302 -1.179812 1.766856 0.090329 -0.019260 33977.700000 0 0 1
-15.163614 33.169771 -7.077989 37.151942 -1.142011 1.762483 0.128635 -0.028482 -802549.000000 0 0 1
-15.785414 33.170171 -8.460189 37.696344 -1.126621 1.797154 0.161857 -0.034374 73559.100000 0 0 1
-17.164514 32.888271 -8.598689 38.081444 -1.089780 1.798558 0.194821 -0.029015 152168.000000 0 0 1
-18.024914 33.946471 -8.208789 39.301967 -1.082673 1.781210 0.194391 -0.022138 -397105.000000 0 0 1
-19.512914 33.505171 -8.424189 39.677667 -1.043430 1.784740 0.191054 -0.023010 584922.000000 0 0 1
-20.069914 32.521871 -7.508589 38.946790 -1.017883 1.764802 0.168989 -0.030562 291950.000000 0 0 1
-20.287114 32.978871 -6.219089 39.215431 -1.019308 1.730057 0.153095 -0.042355 -1365230.000000 0 0 1
-21.314714 32.290471 -5.395789 39.065408 -0.987359 1.709361 0.155337 -0.031042 -1136570.000000 0 0 1
-21.345914 32.765871 -4.094689 39.319421 -0.993390 1.675125 0.155780 -0.033671 276239.000000 0 0 1
-22.578314 32.530371 -3.441289 39.747299 -0.964062 1.657484 0.147530 -0.026720 551084.000000 0 0 1
-23.657214 33.670771 -3.641989 41.311605 -0.958325 1.659070 0.143440 -0.031204 25357.800000 0 0 1
-24.179514 33.681871 -4.907989 41.751715 -0.948171 1.688621 0.152925 -0.037100 -237157.000000 0 0 1
-25.257784 -33.479038 -5.022389 42.237733 0.924462 1.689986 0.152131 -0.044688 156828.000000 0 0 1
-25.714964 -33.447638 -6.527189 42.692014 0.915363 1.724288 0.197282 -0.024691 -76160.400000 0 0 1
-24.837714 -32.685838 -7.339189 41.702995 0.920994 1.747705 0.216862 -0.011650 -47471.300000 0 0 1
-24.984714 -32.691338 -8.737589 42.063107 0.918230 1.780046 0.168848 -0.009762 60448.400000 0 0 1
-26.173444 -31.850938 -9.276289 42.256135 0.882934 1.792124 0.131079 0.004535 56931.700000 0 0 1
-27.462624 -32.325238 -8.934989 43.346866 0.866551 1.778412 0.136943 -0.001603 109133.000000 0 0 1
-28.580014 -31.782338 -9.586489 43.804509 0.838400 1.791429 0.059018 0.003706 52100.100000 0 0 1
-28.947284 -30.281738 -9.305489 42.912947 0.807925 1.789378 0.032344 0.013039 -550417.000000 0 0 1
-28.195034 -29.224838 -9.933389 41.805781 0.803331 1.810699 0.055793 0.018070 -174770.000000 0 0 1
-28.154804 -29.228338 -11.343389 42.138595 0.804104 1.843351 0.056069 0.013237 823311.000000 0 0 1
-26.958454 -28.461938 -12.075289 41.020151 0.812520 1.869597 0.093270 0.016806 2347620.000000 0 0 1
-25.628764 -29.072838 -12.017389 40.576854 0.848276 1.871470 0.109909 0.011857 1664420.000000 0 0 1
-24.715414 -28.409538 -12.880189 39.797649 0.854823 1.900372 0.108656 0.003479 -278373.000000 0 0 1
-23.505614 -29.241338 -13.295889 39.803900 0.893713 1.911377 0.133452 -0.013109 -485711.000000 0 0 1
-23.655614 -30.409238 -14.115089 41.031032 0.909672 1.921981 0.141838 -0.020573 -237115.000000 0 0 1
-24.142214 -31.565138 -13.494289 41.967848 0.917866 1.898150 0.128713 -0.014535 -105960.000000 0 0 1
-24.315414 -32.768838 -14.453989 43.289189 0.932416 1.911228 0.132843 -0.018249 -151143.000000 0 0 1
-24.875714 -33.853238 -13.789489 44.215302 0.937088 1.887958 0.117801 -0.024218 -94977.700000 0 0 1
-24.723514 32.899271 -14.353489 43.584823 -0.926341 1.906383 0.110844 -0.023009 34323.400000 0 0 1
-25.374444 31.813471 -13.411189 42.846462 -0.897520 1.889152 0.102475 -0.031903 -325230.000000 0 0 1
-24.675314 31.368271 -12.282789 41.757711 -0.904259 1.869356 0.115109 -0.029439 -11539.200000 0 0 1
-24.607214 32.283971 -11.207489 42.111490 -0.919526 1.840181 0.158767 -0.033442 131081.000000 0 0 1
-23.787114 31.844771 -9.951989 40.975094 -0.929237 1.816129 0.165430 -0.033234 294872.000000 0 0 1
-24.451914 30.864571 -9.188889 40.434559 -0.900810 1.800053 0.154669 -0.039692 -44721.100000 0 0 1
-23.656914 30.520271 -8.110789 39.457844 -0.911410 1.777828 0.145752 -0.042032 -274209.000000 0 0 1
-24.239214 29.432671 -7.202289 38.803281 -0.881861 1.757489 0.126537 -0.044519 -141732.000000 0 0 1
-24.334114 28.190271 -7.901789 38.069394 -0.858683 1.779879 0.119482 -0.031940 35701.100000 0 0 1
-24.804314 26.984971 -7.283989 37.369763 -0.827480 1.766969 0.100787 -0.038730 77708.900000 0 0 1
-23.825314 26.210271 -6.339489 35.983510 -0.833027 1.747898 0.109499 -0.037645 56142.100000 0 0 1
-23.539814 26.857271 -5.091989 36.074426 -0.851130 1.712422 0.117172 -0.042107 -271048.000000 0 0 1
-22.552614 26.171271 -4.395389 34.826359 -0.859531 1.697342 0.109343 -0.041374 -665807.000000 0 0 1
-21.158914 26.783971 -4.508189 34.429704 -0.902192 1.702112 0.098544 -0.053135 -655368.000000 0 0 1
-20.447014 26.649771 -5.699789 34.070196 -0.916347 1.738882 0.109371 -0.048742 376230.000000 0 0 1
-19.150514 27.240271 -5.590289 33.764269 -0.958045 1.737130 0.111721 -0.041619 739968.000000 0 0 1
-18.223114 27.033471 -6.823489 33.308414 -0.977669 1.777115 0.129936 -0.045879 -105278.000000 0 0 1
-18.444014 27.933971 -7.972089 34.409920 -0.987234 1.804601 0.138025 -0.045426 195358.000000 0 0 1
-18.415014 29.339971 -7.750289 35.496671 -1.010299 1.790908 0.146696 -0.038621 -220678.000000 0 0 1
-18.538614 29.980571 -9.148089 36.417062 -1.016990 1.824720 0.141551 -0.034830 167293.000000 0 0 1
-17.372914 29.863971 -9.963989 35.957697 -1.043915 1.851574 0.143696 -0.040192 355642.000000 0 0 1
-17.451514 30.666171 -11.141689 37.001441 -1.053422 1.876658 0.141522 -0.036661 -256506.000000 0 0 1
-16.068114 31.152571 -11.637089 36.933573 -1.094598 1.891339 0.131769 -0.039021 159038.000000 0 0 1
-16.034414 32.009171 -12.754589 38.004855 -1.106403 1.913043 0.130899 -0.040063 -386060.000000 0 0 1
-16.248514 31.239571 -13.941589 37.872060 -1.091178 1.947786 0.126253 -0.045035 -40520.200000 0 0 1
-15.612014 31.700971 -15.274089 38.496550 -1.113185 1.978786 0.151975 -0.054946 608648.000000 0 0 1
-14.194914 31.675571 -15.403989 37.975258 -1.149495 1.988467 0.138697 -0.052936 384194.000000 0 0 1
-13.670714 32.140371 -16.635889 38.686492 -1.168634 2.015309 0.135288 -0.060967 -931641.000000 0 0 1
-12.202014 32.007971 -16.907889 38.200472 -1.206585 2.029303 0.151342 -0.060953 -1032880.000000 0 0 1
-11.762814 30.685771 -17.127289 37.058391 -1.204742 2.051237 0.153411 -0.071873 249152.000000 0 0 1
-10.496714 30.477671 -17.756489 36.801662 -1.239113 2.074293 0.142571 -0.066724 528470.000000 0 0 1
-10.314714 30.810371 -19.274389 37.777961 -1.247744 2.106216 0.147395 -0.072574 -453883.000000 0 0 1
-11.215414 30.080371 -20.064489 37.857601 -1.213913 2.129396 0.133873 -0.073265 -32295.500000 0 0 1
-10.811114 29.916271 -21.446089 38.364022 -1.224020 2.163994 0.127732 -0.080640 116735.000000 0 0 1
-11.994214 29.377371 -22.362389 38.819680 -1.183172 2.184694 0.117775 -0.064575 1786870.000000 0 0 1
-13.088514 30.313771 -22.570089 39.995535 -1.163207 2.170400 0.119812 -0.061472 660664.000000 0 0 1
-13.995014 30.410471 -21.515289 39.794030 -1.139489 2.142025 0.117900 -0.055988 -977508.000000 0 0 1
-14.821414 31.698171 -21.499589 41.069218 -1.133420 2.121746 0.138898 -0.053904 60869.400000 0 0 1
-15.699214 31.746071 -22.624689 42.025646 -1.111539 2.139279 0.125729 -0.041599 35092.500000 0 0 1
-16.302814 33.044171 -22.634189 43.243560 -1.112471 2.121646 0.129478 -0.046733 103282.000000 0 0 1
-16.814914 33.384971 -24.047189 44.447327 -1.104219 2.142454 0.121175 -0.035908 355678.000000 0 0 1
-15.798214 33.445171 -25.067489 44.682682 -1.129503 2.166403 0.132320 -0.031643 225288.000000 0 0 1
-16.300814 33.553171 -26.386889 45.692447 -1.118557 2.186446 0.134779 -0.027847 110149.000000 0 0 1
-16.694814 -33.081538 -26.833889 45.751094 1.103430 2.197551 0.128568 -0.019687 218631.000000 0 0 1
-17.993914 -32.663338 -26.474789 45.733894 1.067270 2.188160 0.135238 -0.015195 18009.600000 0 0 1
-18.566114 -31.719038 -27.398889 45.842089 1.041233 2.211400 0.118568 -0.008190 252728.000000 0 0 1
-20.011214 -31.331238 -26.985889 45.938365 1.002407 2.198684 0.092572 -0.012407 -546.196000 0 0 1
-20.873114 -32.428738 -27.188489 47.186056 0.998890 2.184865 0.085030 -0.007971 -1557430.000000 0 0 1
-22.124214 -32.032038 -26.749089 47.233951 0.966346 2.172819 0.071424 -0.015411 -786985.000000 0 0 1
-23.158114 -33.147538 -26.850189 48.538543 0.960985 2.156964 0.054934 0.002985 -209105.000000 0 0 1
-23.283914 -33.917338 -25.660089 48.486768 0.969195 2.128475 0.060431 0.001005 -311164.000000 0 0 1
-24.270114 33.117971 -25.791889 48.487730 -0.938370 2.131670 0.034534 0.009339 383831.000000 0 0 1
-23.943414 31.949471 -26.763789 48.066165 -0.927670 2.161338 0.030927 0.005219 300328.000000 0 0 1
-23.231214 30.757971 -26.373289 46.704309 -0.923918 2.170850 0.038018 -0.016701 380222.000000 0 0 1
-24.025114 29.846271 -25.600789 46.080434 -0.893037 2.159842 0.027842 -0.011125 306957.000000 0 0 1
32.257419 9.823271 -26.149894 42.671474 0.295605 2.230419 0.036309 0.003392 -53463.000000 0 0 1
31.912329 8.470471 -26.114144 42.096248 0.259447 2.239977 0.040583 0.005137 193918.000000 0 0 1
30.494339 8.321771 -26.083544 40.981799 0.266409 2.260705 0.055179 -0.003398 604631.000000 0 0 1
30.011179 6.866971 -25.813704 40.176778 0.224941 2.268557 0.056987 -0.007686 -39922.900000 0 0 1
30.247419 6.611371 -24.458054 39.456469 0.215192 2.239379 0.043926 0.004097 107886.000000 0 0 1
29.551089 5.449571 -24.095954 38.517265 0.182363 2.246682 0.046760 -0.003763 -76592.400000 0 0 1
29.737309 5.138571 -22.628354 37.719423 0.171109 2.214188 0.055206 -0.010113 -160195.000000 0 0 1
30.990809 4.756171 -22.135754 38.380242 0.152282 2.185539 0.067704 -0.012550 -129244.000000 0 0 1
30.806689 4.355671 -20.811354 37.431756 0.140456 2.160339 0.053708 -0.008865 476439.000000 0 0 1
32.119239 4.155471 -19.970254 38.048975 0.128662 2.123343 0.056980 -0.005213 365922.000000 0 0 1
32.599709 2.830971 -20.124654 38.415584 0.086623 2.122181 0.072720 -0.006288 -140882.000000 0 0 1
33.734619 2.679671 -19.324954 38.969975 0.079267 2.089660 0.097790 -0.016444 -377129.000000 0 0 1
34.212649 1.229971 -19.209454 39.255844 0.035935 2.082129 0.106786 -0.012953 405020.000000 0 0 1
33.296879 0.458971 -18.387454 38.039338 0.013783 2.075308 0.106534 -0.015551 630387.000000 0 0 1
33.430439 -0.931629 -18.580654 38.258370 -0.027860 2.077917 0.099995 -0.012354 19397.600000 0 0 1
32.145099 -1.667629 -18.149254 36.952453 -0.051832 2.084208 0.090300 -0.012069 72922.700000 0 0 1
31.948499 -1.752329 -16.777554 36.128431 -0.054794 2.053738 0.097829 -0.014337 305847.000000 0 0 1
30.579719 -1.706429 -16.390254 34.737178 -0.055745 2.062168 0.091954 -0.017113 103788.000000 0 0 1
30.355279 -2.026929 -14.934654 33.890932 -0.066675 2.027139 0.108676 -0.015953 -366523.000000 0 0 1
30.138139 -3.415729 -14.660354 33.688286 -0.112854 2.021031 0.083378 -0.019588 231852.000000 0 0 1
29.494519 -3.641529 -13.446954 32.619135 -0.122843 1.995709 0.088088 -0.021182 -185619.000000 0 0 1
29.350509 -5.157129 -13.151554 32.573175 -0.173933 1.986413 0.089322 -0.017658 70007.200000 0 0 1
28.612329 -5.875429 -14.132554 32.448653 -0.202531 2.021430 0.071800 -0.015001 711269.000000 0 0 1
28.223129 -7.197329 -13.638354 32.161331 -0.249693 2.008721 0.074032 -0.017432 -173691.000000 0 0 1
27.671729 -8.127529 -14.746054 32.391780 -0.285678 2.043439 0.052188 -0.008061 -631324.000000 0 0 1
26.424429 -7.743929 -15.220354 31.462327 -0.285077 2.075747 0.057444 -0.015207 -335600.000000 0 0 1
26.007129 -8.495229 -16.355654 31.875493 -0.315724 2.109601 0.047363 -0.011160 -240582.000000 0 0 1
24.646029 -8.184429 -16.974854 31.025107 -0.320621 2.149731 0.041077 -0.008251 -451227.000000 0 0 1
24.687929 -7.065829 -17.792854 31.241085 -0.278754 2.176735 0.030709 -0.005790 460219.000000 0 0 1
23.409329 -6.621229 -18.238454 30.405239 -0.275646 2.214105 0.080241 -0.022319 281354.000000 0 0 1
23.004929 -7.085629 -19.623854 31.056860 -0.298784 2.254758 0.042585 -0.015170 -588894.000000 0 0 1
23.944529 -6.750329 -20.578354 32.285849 -0.274784 2.261890 0.042948 -0.014436 9578.900000 0 0 1
23.515129 -7.174729 -21.825954 32.875679 -0.296139 2.296810 0.062002 -0.025770 -464074.000000 0 0 1
24.204329 -6.325729 -22.864654 33.891839 -0.255629 2.311268 0.068434 -0.029557 -432493.000000 0 0 1
24.020829 -6.634129 -24.232554 34.759582 -0.269465 2.342207 0.081900 -0.035020 7058.040000 0 0 1
24.435029 -5.654029 -25.112524 35.491936 -0.227388 2.356830 0.072206 -0.036987 -535711.000000 0 0 1
24.239729 -6.102229 -26.570184 36.479807 -0.246620 2.386712 0.090122 -0.042206 -285403.000000 0 0 1
22.913429 -6.424629 -26.912064 35.924369 -0.273368 2.417546 0.102423 -0.038637 -214992.000000 0 0 1
22.780429 -6.589629 -28.296634 36.919787 -0.281581 2.444070 0.097711 -0.039115 746480.000000 0 0 1
21.431529 -7.290929 -28.694334 36.549048 -0.327915 2.473640 0.098464 -0.038476 667571.000000 0 0 1
21.434829 -8.594429 -28.230214 36.472744 -0.381330 2.455944 0.093385 -0.033202 -345513.000000 0 0 1
20.160029 -9.120029 -28.076344 35.747486 -0.424833 2.474151 0.104921 -0.042601 -624129.000000 0 0 1
20.254729 -10.592529 -27.679694 35.897370 -0.481851 2.451330 0.116279 -0.041572 -848716.000000 0 0 1
19.062029 -11.080829 -27.179174 34.997903 -0.526559 2.460038 0.127383 -0.042263 -509929.000000 0 0 1
19.112329 -12.403129 -26.709364 35.107105 -0.575643 2.435336 0.125066 -0.039560 -310101.000000 0 0 1
19.119229 -13.545729 -27.799544 36.357205 -0.616399 2.441252 0.108211 -0.031694 -36093.800000 0 0 1
17.850029 -13.653329 -28.405244 36.220088 -0.652964 2.472267 0.112834 -0.035136 406314.000000 0 0 1
17.939329 -14.638829 -29.434324 37.449890 -0.684432 2.475053 0.088708 -0.031484 -934959.000000 0 0 1
16.654929 -14.761229 -30.186424 37.503343 -0.725193 2.506303 0.081572 -0.032669 -1672740.000000 0 0 1
15.561429 -15.334929 -29.584564 36.777229 -0.778067 2.505505 0.075218 -0.039704 -593490.000000 0 0 1
14.629329 -15.703529 -30.546764 37.332598 -0.820797 2.529127 0.075399 -0.045502 -717702.000000 0 0 1
13.383629 -16.404829 -30.029274 36.742309 -0.886474 2.527496 0.093667 -0.049411 -252220.000000 0 0 1
13.735629 -17.681729 -29.561734 37.083786 -0.910346 2.493374 0.088633 -0.047738 146769.000000 0 0 1
12.764029 -18.114629 -28.639044 36.211256 -0.956973 2.483055 0.094234 -0.049254 -180670.000000 0 0 1
13.129029 -19.417829 -27.968294 36.491766 -0.976269 2.444057 0.088850 -0.047627 -315524.000000 0 0 1
14.211629 -19.339629 -27.088564 36.190910 -0.937065 2.416580 0.074392 -0.038547 -362178.000000 0 0 1
14.259029 -20.416429 -26.203844 36.149577 -0.961139 2.381646 0.064015 -0.032908 -314461.000000 0 0 1
15.402729 -20.306429 -25.164394 35.816782 -0.921868 2.349822 0.049686 -0.022411 -1050240.000000 0 0 1
16.630029 -20.529729 -25.769524 36.906585 -0.889960 2.343727 0.053094 -0.024523 -726180.000000 0 0 1
17.580929 -20.246629 -24.745554 36.487772 -0.855752 2.316090 0.060049 -0.027355 -768976.000000 0 0 1
18.988129 -20.773729 -24.992454 37.639336 -0.830275 2.296950 0.021025 -0.013701 -628682.000000 0 0 1
19.120429 -22.199029 -25.030304 38.534450 -0.859768 2.277797 0.034118 -0.017444 95481.200000 0 0 1
18.982929 -22.785329 -23.723854 37.978205 -0.876184 2.245505 0.028169 -0.016336 -478883.000000 0 0 1
19.497529 -24.249729 -23.571854 39.036333 -0.893602 2.219111 0.032333 -0.023940 -255151.000000 0 0 1
20.901829 -24.381629 -23.651854 39.884339 -0.862092 2.205590 0.047486 -0.019902 184534.000000 0 0 1
21.366029 -25.723439 -23.439354 40.836330 -0.877670 2.182158 0.053869 -0.033557 140062.000000 0 0 1
21.463729 -26.099579 -21.939154 40.289033 -0.882558 2.146642 0.074259 -0.041388 -496445.000000 0 0 1
20.219229 -26.447239 -21.381954 39.565915 -0.918072 2.141725 0.057596 -0.032970 22576.100000 0 0 1
20.322329 -26.602989 -19.975054 38.983572 -0.918451 2.108770 0.062005 -0.029713 -111532.000000 0 0 1
19.032229 -27.180169 -19.359754 38.415978 -0.959920 2.098963 0.053035 -0.029489 -678328.000000 0 0 1
18.796429 -28.541409 -19.596954 39.394903 -0.988422 2.091452 0.058027 -0.027574 98287.300000 0 0 1
17.574529 -29.063009 -19.114954 38.973119 -1.026925 2.083420 0.049855 -0.011435 6883.660000 0 0 1
16.247329 -28.568369 -19.682354 38.308256 -1.053696 2.110392 0.053868 -0.010699 -945787.000000 0 0 1
15.670929 -27.512859 -18.990054 36.920964 -1.053041 2.111038 0.047254 -0.011147 286510.000000 0 0 1
14.408229 -27.153929 -19.563154 36.436931 -1.082959 2.137560 0.052755 0.002002 436165.000000 0 0 1
13.534629 -26.154059 -18.838054 34.958451 -1.093250 2.139891 0.051032 -0.008663 -665263.000000 0 0 1
12.871129 -26.711589 -17.771554 34.568817 -1.121769 2.110745 0.051279 -0.010663 -43184.600000 0 0 1
12.016729 -25.743989 -17.125554 33.172871 -1.134078 2.113265 0.052410 -0.017629 1411760.000000 0 0 1
10.473129 -25.844719 -17.410154 32.874753 -1.185787 2.128914 0.058263 -0.014525 954956.000000 0 0 1
9.823929 -27.020809 -16.872954 33.336621 -1.222085 2.101498 0.073209 -0.005475 880649.000000 0 0 1
8.391929 -26.972029 -16.890754 32.912192 -1.269156 2.109713 0.079152 -0.004164 1080640.000000 0 0 1
7.614029 -27.621309 -18.049154 33.862695 -1.301819 2.132950 0.081592 -0.005739 -144729.000000 0 0 1
7.668929 -27.005299 -19.312954 34.074754 -1.294102 2.173391 0.088730 -0.009986 -29166.100000 0 0 1
7.120729 -27.834979 -20.321154 35.191478 -1.320348 2.186392 0.080066 -0.004273 -127246.000000 0 0 1
6.890729 -27.129529 -21.633754 35.376727 -1.322062 2.228783 0.075787 -0.004926 -422327.000000 0 0 1
5.712729 -26.374029 -21.566054 34.544455 -1.357487 2.245030 0.083008 -0.009160 -195873.000000 0 0 1
5.493229 -25.579659 -22.710354 34.644692 -1.359259 2.285670 0.064936 -0.009467 -62029.400000 0 0 1
4.039929 -25.115039 -22.979954 34.280672 -1.411306 2.305473 0.036986 -0.009799 199207.000000 0 0 1
3.202329 -26.204399 -23.343554 35.239849 -1.449194 2.294840 0.040198 -0.004383 61960.600000 0 0 1
1.923929 -25.727659 -23.734154 35.056013 -1.496155 2.314523 0.044429 -0.006073 445542.000000 0 0 1
1.120929 -26.777729 -24.542354 36.340479 -1.528960 2.312228 0.034183 -0.002275 407353.000000 0 0 1
1.722129 -26.987749 -25.843474 37.405741 -1.507071 2.333524 0.027351 -0.000464 448413.000000 0 0 1
0.931229 -27.909869 -26.494004 38.493639 -1.537443 2.329898 0.031522 -0.011132 -466231.000000 0 0 1
1.796329 -28.602479 -27.495874 39.715887 -1.508075 2.335488 0.032247 -0.018920 -966337.000000 0 0 1
2.105829 -27.832579 -28.618684 39.976444 -1.495280 2.368692 0.036156 -0.021108 211326.000000 0 0 1
2.801629 -28.650759 -29.571304 41.269567 -1.473321 2.369626 0.038806 -0.021825 -384744.000000 0 0 1
4.316229 -28.738599 -29.409724 41.345723 -1.421721 2.362160 0.039934 -0.027606 -1250550.000000 0 0 1
4.616529 -29.657199 -28.351484 41.287631 -1.416373 2.327712 0.029790 -0.034245 -304004.000000 0 0 1
5.837829 -30.302799 -28.649754 42.108767 -1.380478 2.319071 0.033427 -0.032625 64685.600000 0 0 1
6.212229 -31.371569 -27.579434 42.230230 -1.375304 2.282432 0.043748 -0.040453 -576858.000000 0 0 1
5.424529 -32.535839 -27.538074 42.969197 -1.405591 2.266440 0.041888 -0.044783 3892.680000 0 0 1
6.019529 -33.648069 -26.892444 43.492883 -1.393772 2.237397 0.070801 -0.054951 -15499.600000 0 0 1
4.904129 33.450409 -26.416064 42.904414 1.425224 2.234065 0.070401 -0.051215 -347237.000000 0 0 1
4.064229 32.980443 -27.413584 43.078210 1.448183 2.260577 0.065203 -0.049320 -157084.000000 0 0 1
3.042129 32.177489 -26.819874 41.999417 1.476534 2.263444 0.061977 -0.044686 110636.000000 0 0 1
1.757229 32.268733 -27.681654 42.551533 1.516394 2.279097 0.056187 -0.025488 -379692.000000 0 0 1
1.656129 31.482190 -28.827804 42.719004 1.518240 2.311522 0.064624 -0.023494 289803.000000 0 0 1
0.711329 31.985570 -29.784794 43.711745 1.548561 2.320458 0.066173 -0.034173 387931.000000 0 0 1
0.375529 31.002950 -30.932914 43.796907 1.558684 2.355027 0.057318 -0.031303 296742.000000 0 0 1
1.413729 30.898910 -31.900314 44.433898 1.525075 2.371617 0.064671 -0.032236 286568.000000 0 0 1
1.024029 29.873570 -32.791914 44.371032 1.536531 2.402439 0.075653 -0.028503 172416.000000 0 0 1
2.102629 29.425620 -33.844104 44.896676 1.499462 2.424656 0.074462 -0.016330 402179.000000 0 0 1
2.311529 30.381790 32.997815 44.913830 1.494860 0.745584 0.067716 -0.019360 -284717.000000 0 0 1
3.231529 29.902990 32.059657 43.959677 1.463147 0.753503 0.065375 -0.023563 -180764.000000 0 0 1
2.659029 28.851470 31.023831 42.449451 1.478893 0.751242 0.057493 -0.018746 50650.100000 0 0 1
2.479729 27.511230 31.528861 41.917609 1.480904 0.719458 0.068156 -0.018458 -94122.100000 0 0 1
3.680129 26.764780 31.358871 41.391733 1.434154 0.711150 0.069130 -0.016339 111964.000000 0 0 1
3.681329 25.239800 31.715281 40.699616 1.425963 0.677324 0.091536 -0.024811 33050.000000 0 0 1
2.828229 24.594290 30.779391 39.499986 1.456304 0.677367 0.084703 -0.010700 316223.000000 0 0 1
2.899029 23.180410 30.955761 38.781373 1.446379 0.646475 0.085447 -0.007507 154442.000000 0 0 1
2.093829 22.365380 29.876751 37.379334 1.477449 0.644691 0.075219 0.006443 23749.800000 0 0 1
0.715029 22.382080 30.102131 37.518090 1.538861 0.639597 0.071803 -0.003744 -705419.000000 0 0 1
-0.015871 21.752680 29.107021 36.337281 -1.570067 0.641793 0.084210 -0.001402 27227.200000 0 0 1
-1.463671 21.378780 29.475621 36.441828 -1.502439 0.628619 0.092252 -0.005676 -131359.000000 0 0 1
-2.313471 22.461480 29.759171 37.356104 -1.468161 0.649089 0.093256 -0.009319 577623.000000 0 0 1
-3.608271 21.978780 30.167511 37.498868 -1.408077 0.635978 0.078200 -0.013210 1075850.000000 0 0 1
-4.596671 23.179440 30.383581 38.491270 -1.375028 0.661026 0.053139 -0.022110 184041.000000 0 0 1
-4.357571 23.816230 31.607231 39.814800 -1.389832 0.653672 0.070233 -0.014424 -197282.000000 0 0 1
-5.385671 24.708140 31.922084 40.724895 -1.356182 0.669959 0.053676 -0.020820 -206684.000000 0 0 1
-5.361371 25.264390 33.316304 42.154594 -1.361688 0.659439 0.076060 -0.015985 24516.800000 0 0 1
-6.544271 25.940810 33.677977 43.011153 -1.323676 0.671313 0.071437 -0.009106 -158279.000000 0 0 1
-6.469271 26.415990 -32.843874 42.642421 -1.330624 2.449976 0.081719 -0.006647 1114930.000000 0 0 1
-7.837371 26.945420 -32.231154 42.735551 -1.287745 2.425231 0.082289 -0.004472 1143320.000000 0 0 1
-8.339471 28.223930 -32.720924 44.009043 -1.283496 2.409092 0.096898 -0.010096 776886.000000 0 0 1
-9.662171 28.587630 -32.307164 44.208178 -1.244866 2.390284 0.087950 -0.010240 778429.000000 0 0 1
-10.001471 28.981560 -30.844264 43.489411 -1.238495 2.359210 0.084529 -0.004035 -85756.600000 0 0 1
-9.390971 30.215820 -30.465084 43.923883 -1.269464 2.337254 0.095158 -0.007213 -12419.400000 0 0 1
-9.487871 30.334980 -29.038394 43.051818 -1.267666 2.311082 0.110948 -0.016332 -30432.700000 0 0 1
-8.604371 31.515080 -28.629614 43.438350 -1.304268 2.290399 0.107693 -0.030543 546393.000000 0 0 1
-7.196671 31.397580 -28.858204 43.248076 -1.345477 2.301336 0.088377 -0.029827 139287.000000 0 0 1
-6.649471 32.643503 -28.492634 43.836560 -1.369846 2.278347 0.097351 -0.031056 1123920.000000 0 0 1
-5.068471 32.456270 -28.637794 43.580066 -1.415884 2.287802 0.095641 -0.038673 1120220.000000 0 0 1
-4.263571 33.510303 -28.096704 43.937947 -1.444245 2.264596 0.086045 -0.044049 103492.000000 0 0 1
-4.077271 -33.415529 -28.915034 44.376806 1.449379 2.280462 0.088098 -0.047765 -245197.000000 0 0 1
-3.040971 -33.711409 -30.020164 45.242865 1.480834 2.296328 0.080026 -0.046053 -356645.000000 0 0 1
-3.581571 33.570697 -31.086144 45.893003 -1.464511 2.314966 0.077465 -0.038597 631760.000000 0 0 1
-4.449271 -33.823489 -32.064224 46.818147 1.440003 2.325218 0.089117 -0.040873 677691.000000 0 0 1
-3.765271 -32.888949 -33.084414 46.802123 1.456808 2.355902 0.072583 -0.042645 -357775.000000 0 0 1
-3.080271 -31.773089 -32.645164 45.658778 1.474152 2.367393 0.087865 -0.045709 -73958.800000 0 0 1
-2.372871 -31.194539 -33.709424 45.989728 1.494876 2.393485 0.076700 -0.044729 57466.200000 0 0 1
32.799039 17.553971 12.217411 39.155893 0.491408 1.253478 0.113562 -0.030161 602241.000000 0 0 1
33.977299 17.654071 13.054711 40.454277 0.479192 1.242213 0.106597 -0.048351 701395.000000 0 0 1
34.199389 16.444371 13.714311 40.349695 0.448201 1.224000 0.115639 -0.024805 168937.000000 0 0 1
35.606629 16.452771 14.461711 41.805104 0.432846 1.217565 0.123094 -0.044008 2147610.000000 0 0 1
36.824729 16.270471 13.704411 42.527635 0.416044 1.242694 0.117045 -0.004300 783246.000000 0 0 1
36.771659 15.134171 12.841211 41.786298 0.390442 1.258435 0.138723 -0.026923 -1063890.000000 0 0 1
-36.123414 14.571971 12.567311 40.928971 -0.383429 1.258703 0.143718 -0.014913 560476.000000 0 0 1
-35.457438 13.727071 13.498211 40.346798 -0.369373 1.229664 0.114211 -0.010737 -201480.000000 0 0 1
-36.228554 12.595471 13.888011 40.792535 -0.334595 1.223396 0.112725 -0.008254 -614981.000000 0 0 1
-35.488204 11.719471 14.881311 40.227007 -0.318960 1.191859 0.120921 -0.016280 -246535.000000 0 0 1
-35.367238 12.435671 16.082011 40.793609 -0.338113 1.165568 0.117394 -0.021144 652837.000000 0 0 1
-34.556310 11.616371 17.005111 40.227509 -0.324290 1.134348 0.098661 -0.012563 601093.000000 0 0 1
-34.503860 12.187371 18.445911 40.979263 -0.339538 1.103888 0.094943 -0.018665 -645650.000000 0 0 1
-35.691081 12.058671 19.173511 42.271602 -0.325821 1.100019 0.106277 -0.036378 -331247.000000 0 0 1
-35.631218 12.652071 20.452011 42.987712 -0.341197 1.074964 0.098004 -0.038753 366977.000000 0 0 1
-37.049284 12.626971 21.091311 44.462718 -0.328469 1.076560 0.131675 -0.065562 223440.000000 0 0 1
36.758229 11.416571 21.540311 44.107714 0.301140 1.060590 0.107952 -0.048771 307682.000000 0 0 1
35.586239 11.651671 22.329011 43.597323 0.316420 1.033093 0.134981 -0.058645 562301.000000 0 0 1
35.391809 10.448671 23.268471 43.625412 0.287074 1.008217 0.107951 -0.048629 696064.000000 0 0 1
36.470569 10.347071 24.240371 44.997332 0.276446 1.001895 0.090820 -0.033679 689119.000000 0 0 1
36.299839 11.157571 25.421741 45.699394 0.298207 0.980892 0.095907 -0.027605 -403409.000000 0 0 1
-36.661614 11.376971 26.180041 46.464007 -0.300901 0.972243 0.084997 -0.030742 663241.000000 0 0 1
-35.872006 12.342471 25.524161 45.723301 -0.331382 0.978544 0.094866 -0.038653 -136059.000000 0 0 1
-35.042491 11.918971 24.455291 44.363266 -0.327854 0.986934 0.085891 -0.042745 -697029.000000 0 0 1
-33.998884 12.977871 24.042271 43.616282 -0.364644 0.986968 0.086928 -0.041373 549414.000000 0 0 1
-32.979394 13.329371 25.007861 43.482246 -0.384098 0.958036 0.074040 -0.036472 484011.000000 0 0 1
-33.404984 13.937171 26.214031 44.691309 -0.395261 0.943994 0.063632 -0.027139 -844134.000000 0 0 1
-32.203374 14.346671 27.088891 44.460008 -0.419107 0.915636 0.063437 -0.016530 -42601.200000 0 0 1
-31.728544 15.630771 26.743361 44.342180 -0.457743 0.923398 0.078806 -0.017478 -435751.000000 0 0 1
-31.773074 16.432571 27.952071 45.396871 -0.477301 0.907488 0.108417 -0.020122 -56132.200000 0 0 1
-30.942464 17.702671 27.872571 45.251529 -0.519664 0.907208 0.107160 -0.024098 -52230.400000 0 0 1
-31.642004 18.658271 27.089251 45.641812 -0.532788 0.935373 0.085955 -0.026553 260580.000000 0 0 1
-30.794654 19.632871 26.474521 45.107213 -0.567567 0.943542 0.096615 -0.027628 158548.000000 0 0 1
-31.503614 20.596471 25.480581 45.452748 -0.579029 0.975692 0.100269 -0.018571 42042.500000 0 0 1
-32.322984 21.588571 26.054781 46.794159 -0.588857 0.980273 0.106478 -0.028381 543722.000000 0 0 1
-33.279274 22.171971 25.187621 47.260159 -0.587707 1.008705 0.112575 -0.029853 76993.300000 0 0 1
-33.642274 23.620571 25.541491 48.395266 -0.612141 1.014825 0.110251 -0.024571 -334822.000000 0 0 1
-34.598728 24.077371 24.629631 48.820186 -0.607971 1.041997 0.118810 -0.030327 -159584.000000 0 0 1
-34.945976 25.405771 24.932241 49.882774 -0.628619 1.047409 0.111480 -0.021553 198136.000000 0 0 1
-36.191104 25.904171 24.152231 50.637460 -0.621225 1.073599 0.106480 -0.009958 66663.600000 0 0 1
-35.971300 25.974871 22.810111 49.889173 -0.625405 1.095934 0.119723 -0.025056 4261.290000 0 0 1
-37.074924 26.491271 22.101211 50.643864 -0.620413 1.119198 0.120225 -0.034321 -101705.000000 0 0 1
-36.882254 26.395771 20.555511 49.795245 -0.621170 1.145270 0.160951 -0.042996 130549.000000 0 0 1
-36.956074 25.034471 20.074111 48.943295 -0.595405 1.148177 0.128293 -0.041584 352783.000000 0 0 1
-36.031363 24.893871 19.011811 47.743198 -0.604589 1.161232 0.131111 -0.039990 21936.200000 0 0 1
-36.155674 23.476071 18.362311 46.856517 -0.575887 1.168118 0.128789 -0.035429 747434.000000 0 0 1
36.973989 23.455071 17.554911 47.174051 0.565307 1.189493 0.107992 -0.032636 521786.000000 0 0 1
-37.147284 22.591871 16.481411 46.496777 -0.546405 1.208456 0.106364 -0.031668 73055.100000 0 0 1
35.917659 22.398271 15.607311 45.114841 0.557592 1.217549 0.084910 -0.021279 293646.000000 0 0 1
35.063139 21.343471 16.033711 44.068666 0.546803 1.198415 0.090084 -0.032682 1078620.000000 0 0 1
33.883029 21.236371 15.185011 42.774147 0.559861 1.207878 0.074555 -0.028214 790470.000000 0 0 1
32.713139 20.260571 15.608911 41.524430 0.554519 1.185432 0.092348 -0.037124 1043560.000000 0 0 1
31.823809 20.715271 16.613211 41.447268 0.577033 1.158376 0.082535 -0.035943 497314.000000 0 0 1
31.111819 21.942971 16.273611 41.403740 0.614270 1.166853 0.073559 -0.020394 118976.000000 0 0 1
30.080719 22.499971 17.343911 41.375229 0.642211 1.138248 0.062605 -0.020624 324101.000000 0 0 1
30.709769 23.146671 18.448111 42.651976 0.645880 1.123503 0.020352 -0.009332 -284422.000000 0 0 1
29.956689 23.629171 19.560811 42.876173 0.667861 1.097058 0.025140 -0.006331 -119025.000000 0 0 1
30.861029 24.389871 20.534811 44.372822 0.668806 1.089669 0.008587 -0.014085 249479.000000 0 0 1
31.529529 25.590071 20.151611 45.332663 0.681788 1.110150 0.021205 -0.010039 575667.000000 0 0 1
32.345859 26.166571 21.196111 46.692817 0.680182 1.099605 0.030055 -0.016369 -66571.900000 0 0 1
33.268429 27.237271 20.625711 47.687286 0.686047 1.123510 0.063358 -0.021067 332628.000000 0 0 1
34.280589 27.770471 21.513111 49.083314 0.680865 1.117092 0.059673 -0.019969 510169.000000 0 0 1
33.780549 28.690971 22.421811 49.669255 0.704107 1.102438 0.025848 -0.004999 -1111170.000000 0 0 1
34.616489 29.009271 23.630411 50.972889 0.697497 1.088756 0.018929 -0.011507 -780707.000000 0 0 1
35.770129 29.641071 23.169621 51.912682 0.691971 1.108149 0.055775 -0.013335 -375256.000000 0 0 1
36.511839 30.250371 24.243001 53.253379 0.691884 1.098156 0.056023 -0.001838 529720.000000 0 0 1
-36.507284 31.028071 23.893841 53.539132 -0.704444 1.108184 0.052517 -0.011937 734605.000000 0 0 1
-35.336890 30.228171 23.742861 52.212657 -0.707637 1.098723 0.066576 -0.019775 368946.000000 0 0 1
-34.214627 31.050671 23.514651 51.843261 -0.736958 1.100027 0.056186 -0.019828 260365.000000 0 0 1
-32.825864 30.379471 23.375991 50.466688 -0.746712 1.089198 0.100060 -0.025538 8864.710000 0 0 1
-32.655274 29.775571 22.027211 49.377622 -0.739305 1.108397 0.094497 -0.022187 42341.600000 0 0 1
-32.935554 28.409171 21.942611 48.716629 -0.711746 1.103568 0.094599 -0.020657 -46504.700000 0 0 1
-32.275984 27.358171 22.914311 48.117298 -0.703118 1.074448 0.109948 -0.020032 102493.000000 0 0 1
-30.858424 27.319271 22.775211 47.088164 -0.724640 1.065951 0.093587 -0.019467 341773.000000 0 0 1
-30.339104 26.176071 23.465171 46.435570 -0.711869 1.041035 0.097296 -0.017791 130817.000000 0 0 1
-30.113434 26.286271 25.001721 47.147354 -0.717644 1.011855 0.097594 -0.012223 899976.000000 0 0 1
-31.374374 26.585871 25.673701 48.479881 -0.702968 1.012698 0.093930 -0.011452 1195290.000000 0 0 1
-31.102974 26.875171 27.051441 49.208234 -0.712606 0.988751 0.098072 -0.015559 299432.000000 0 0 1
-32.349934 27.342871 27.869921 50.703879 -0.701714 0.988839 0.085488 -0.019698 564538.000000 0 0 1
-33.201594 26.256771 28.182371 50.852826 -0.669124 0.983401 0.082566 -0.019702 -214622.000000 0 0 1
-34.277977 26.494871 29.034771 52.153388 -0.658023 0.980366 0.066739 -0.015996 78246.700000 0 0 1
-34.916837 25.182871 29.668081 52.283435 -0.624829 0.967394 0.071277 -0.011921 306802.000000 0 0 1
-34.003814 24.579371 30.546931 51.899132 -0.625892 0.941492 0.087687 -0.026176 -20562.400000 0 0 1
-34.569426 23.447271 31.145191 52.104152 -0.595990 0.930106 0.067127 -0.025100 -93755.000000 0 0 1
-33.569614 22.619271 31.969090 51.580744 -0.592926 0.902325 0.101470 -0.047522 -1443150.000000 0 0 1
-32.531124 22.040171 31.255861 50.209282 -0.595472 0.898848 0.110512 -0.040251 -450532.000000 0 0 1
-31.655554 21.314371 32.076264 49.852415 -0.592596 0.871833 0.111679 -0.040403 337478.000000 0 0 1
-30.748784 22.100771 33.120168 50.307826 -0.623201 0.852171 0.113614 -0.045889 -1000460.000000 0 0 1
-31.413104 22.644671 -33.644764 51.298483 -0.624594 2.286121 0.133190 -0.047761 -254950.000000 0 0 1
-30.921424 22.281771 -32.386784 50.015153 -0.624414 2.275147 0.118202 -0.035599 740516.000000 0 0 1
-29.477704 22.760271 -31.959944 49.075483 -0.657507 2.280014 0.122466 -0.040174 919486.000000 0 0 1
-29.554644 24.133471 -31.671344 49.588058 -0.684764 2.263590 0.100255 -0.032139 -135596.000000 0 0 1
-28.854224 24.398871 -30.483454 48.550099 -0.701929 2.249618 0.113886 -0.014482 -164906.000000 0 0 1
-29.262424 25.672471 -29.692364 48.959184 -0.720142 2.222412 0.072164 0.000126 -130206.000000 0 0 1
-28.912204 26.966971 -30.234674 49.772167 -0.750601 2.223657 0.072777 -0.006395 273810.000000 0 0 1
-29.773444 27.420071 -31.274624 51.150957 -0.744274 2.228648 0.067882 -0.008851 141913.000000 0 0 1
-29.422214 28.879371 -31.684974 51.996369 -0.776087 2.226061 0.054959 -0.008127 51983.400000 0 0 1
-29.691704 29.900471 -30.736134 52.156931 -0.788901 2.200990 0.038503 -0.010472 11276.500000 0 0 1
-29.231354 31.137371 -31.176624 52.877120 -0.816961 2.201366 0.018832 -0.019295 -283297.000000 0 0 1
-29.492164 32.339671 -30.246814 53.202555 -0.831418 2.175504 0.013123 -0.007716 -232108.000000 0 0 1
-28.591884 32.485771 -29.181124 52.195394 -0.849065 2.164066 0.004452 -0.000582 -67072.200000 0 0 1
-29.019284 33.588471 -28.361444 52.675191 -0.858250 2.139359 -0.010312 -0.002454 -307121.000000 0 0 1
-28.295564 33.777071 -26.976504 51.664894 -0.873478 2.120159 0.007784 -0.001519 1245100.000000 0 0 1
-27.001154 -33.640938 -26.891074 50.832125 0.894455 2.128238 -0.011450 -0.003038 926371.000000 0 0 1
-26.951724 -32.302938 -27.306434 50.154926 0.875463 2.146520 0.007878 -0.000731 -635751.000000 0 0 1
-27.497074 -31.269438 -26.273624 49.235863 0.849503 2.133681 0.019132 -0.009989 -170220.000000 0 0 1
-28.897074 -31.326838 -26.178644 50.017328 0.825722 2.121623 0.011668 -0.013802 -669162.000000 0 0 1
-29.366264 -30.557638 -25.153954 49.283548 0.805277 2.106437 0.017097 -0.010348 350937.000000 0 0 1
-30.916774 -30.399038 -25.141984 50.120533 0.776955 2.096279 0.017932 -0.013643 520949.000000 0 0 1
-31.397494 -29.459238 -26.059924 50.326623 0.753559 2.115092 0.027277 -0.018950 405851.000000 0 0 1
-32.811024 -29.287938 -25.978254 51.080489 0.728726 2.104325 0.044224 -0.026030 152920.000000 0 0 1
-33.390874 -28.299138 -26.959194 51.406127 0.703047 2.122848 0.052057 -0.028628 -322887.000000 0 0 1
-34.794159 -28.377938 -26.988304 52.386157 0.684178 2.112014 0.054198 -0.030812 -161476.000000 0 0 1
-35.368307 -27.642038 -28.049914 52.932005 0.663388 2.129307 0.059263 -0.032335 1175330.000000 0 0 1
-36.919064 -27.762038 -28.274754 54.159116 0.644761 2.120070 0.057507 -0.036596 1144830.000000 0 0 1
36.522839 -27.404338 -27.241714 53.169789 -0.643715 2.108719 0.050495 -0.027622 903598.000000 0 0 1
35.140619 -27.554638 -27.669664 52.533146 -0.664986 2.125520 0.049313 -0.029969 1354720.000000 0 0 1
34.152119 -27.027838 -26.600414 51.033844 -0.669472 2.119089 0.056888 -0.027639 -129133.000000 0 0 1
34.087529 -27.805838 -25.398074 50.795535 -0.684252 2.094402 0.055457 -0.026080 508354.000000 0 0 1
33.061979 -27.318638 -24.531254 49.408348 -0.690565 2.090359 0.061167 -0.018749 341183.000000 0 0 1
33.072989 -28.150538 -23.259754 49.267551 -0.705169 2.062480 0.052460 -0.018135 164777.000000 0 0 1
32.490429 -29.463338 -23.367454 49.696621 -0.736577 2.060316 0.069413 -0.028593 187980.000000 0 0 1
32.143719 -30.121438 -22.120754 49.293483 -0.752931 2.036169 0.079167 -0.034209 140175.000000 0 0 1
33.239549 -30.152038 -20.987354 49.542729 -0.736731 2.008236 0.059622 -0.022221 -995644.000000 0 0 1
34.434359 -30.694938 -21.429154 50.863670 -0.728046 2.005681 0.049044 -0.025416 -854871.000000 0 0 1
35.486449 -30.597938 -20.507554 51.147645 -0.711559 1.983348 0.042373 -0.022049 339409.000000 0 0 1
36.221119 -29.200538 -20.632454 50.895373 -0.678494 1.988201 0.028870 -0.018989 -557490.000000 0 0 1
35.395959 -28.138838 -20.197754 49.523907 -0.671668 1.990882 0.028500 -0.014336 -46403.800000 0 0 1
35.875959 -26.925838 -20.754854 49.425187 -0.643838 2.004159 0.020685 -0.013112 -328425.000000 0 0 1
34.948589 -25.755038 -20.588754 48.048128 -0.635091 2.013631 0.032905 -0.003370 197790.000000 0 0 1
33.768019 -25.781438 -21.387654 47.564623 -0.652077 2.037175 0.052119 -0.012198 538864.000000 0 0 1
32.745439 -24.904538 -20.946754 46.165640 -0.650219 2.041743 0.061558 -0.017657 -596735.000000 0 0 1
31.479639 -24.954238 -21.744154 45.678112 -0.670280 2.066931 0.065536 -0.020952 -592554.000000 0 0 1
30.716689 -26.154238 -21.631954 45.776638 -0.705345 2.062983 0.083853 -0.022081 1017070.000000 0 0 1
29.435829 -26.101138 -22.296854 45.220428 -0.725426 2.086412 0.089920 -0.022245 971240.000000 0 0 1
28.870729 -27.500638 -22.577754 45.820946 -0.761098 2.086031 0.091263 -0.025370 -251881.000000 0 0 1
28.518429 -28.247338 -21.448754 45.511119 -0.780623 2.061545 0.091920 -0.030895 -116758.000000 0 0 1
27.893129 -29.449938 -21.752454 46.027109 -0.812541 2.063036 0.090439 -0.034387 -424620.000000 0 0 1
27.195829 -30.074838 -20.553654 45.459451 -0.835626 2.039950 0.093914 -0.028092 -360434.000000 0 0 1
28.040829 -30.497738 -19.487354 45.783808 -0.827344 2.010464 0.102590 -0.031993 96076.200000 0 0 1
28.750329 -31.688038 -19.803254 47.147450 -0.833967 2.004273 0.101163 -0.025275 340386.000000 0 0 1
29.826299 -32.130638 -18.769454 47.689395 -0.822574 1.975316 0.082069 -0.021026 -38764.100000 0 0 1
29.335539 -32.682838 -17.561354 47.298445 -0.839319 1.951192 0.084940 -0.025026 74061.900000 0 0 1
28.681729 -31.784838 -16.655154 45.938129 -0.836673 1.941806 0.070683 -0.023267 58116.600000 0 0 1
27.993529 -32.565438 -15.487354 45.650888 -0.860750 1.916923 0.071264 -0.021695 -362518.000000 0 0 1
26.766329 -33.086038 -15.917354 45.436598 -0.890597 1.928709 0.069765 -0.021824 -192268.000000 0 0 1
26.120629 -33.968138 -15.002454 45.400389 -0.915262 1.907574 0.072128 -0.020365 1087060.000000 0 0 1
24.556029 -33.844938 -14.883954 44.384800 -0.943131 1.912761 0.089838 -0.025498 907545.000000 0 0 1
24.136929 -32.733138 -14.160154 43.064598 -0.935418 1.905842 0.084384 -0.021824 662658.000000 0 0 1
22.706729 -32.656438 -14.105254 42.201856 -0.963217 1.911588 0.095844 -0.030407 619829.000000 0 0 1
-1.061214 -7.066829 -28.691634 29.568161 1.421742 2.897495 0.056335 -0.024111 164788.000000 0 0 1
-0.491814 -8.353229 -28.582674 29.782337 1.511987 2.856797 0.066221 -0.023637 -221624.000000 0 0 1
-0.390114 -8.831929 -29.921534 31.200214 1.526654 2.854309 0.076677 -0.033510 41525.400000 0 0 1
-0.278514 -10.338629 -29.972224 31.706451 1.543864 2.809321 0.094664 -0.030407 685078.000000 0 0 1
0.968386 -10.878629 -29.500454 31.457259 -1.482013 2.787020 0.057637 -0.031480 424301.000000 0 0 1
1.110086 -12.291829 -29.519174 31.995359 -1.480730 2.745584 0.072198 -0.031610 -708219.000000 0 0 1
2.506986 -12.675129 -29.087644 31.828209 -1.375529 2.723574 0.061802 -0.022392 -1297330.000000 0 0 1
3.477486 -12.310129 -30.062484 32.670861 -1.295480 2.739290 0.073737 -0.029166 969981.000000 0 0 1
4.855686 -12.363129 -29.654164 32.492985 -1.196551 2.720475 0.074651 -0.025448 1305460.000000 0 0 1
5.479886 -13.672829 -29.101854 32.617377 -1.189612 2.673032 0.067600 -0.027056 -1169590.000000 0 0 1
4.960586 -14.058829 -27.838764 31.579342 -1.231589 2.649931 0.062772 -0.020119 -270581.000000 0 0 1
5.703286 -15.046329 -27.176274 31.582738 -1.208481 2.607005 0.072849 -0.020100 -459986.000000 0 0 1
5.289186 -16.537729 -27.465974 32.493872 -1.261252 2.577860 0.033560 -0.018110 -93013.500000 0 0 1
5.551386 -16.958429 -28.796714 33.877086 -1.254438 2.586848 0.050804 -0.033803 257677.000000 0 0 1
5.083686 -18.284129 -28.999574 34.657301 -1.299608 2.562121 0.031168 -0.028892 -380207.000000 0 0 1
5.348586 -18.821229 -30.453344 36.197406 -1.293917 2.570504 0.063752 -0.044629 1122310.000000 0 0 1
6.736586 -19.111329 -30.752694 36.828694 -1.231903 2.558965 0.069291 -0.044706 1080540.000000 0 0 1
6.927986 -19.571129 -32.098744 38.227679 -1.230571 2.567477 0.083719 -0.048808 -660812.000000 0 0 1
8.387686 -19.917429 -32.358214 38.911583 -1.172214 2.552748 0.110020 -0.045688 -413654.000000 0 0 1
9.141886 -18.733629 -32.416804 38.540526 -1.116800 2.570128 0.109589 -0.047122 -1064500.000000 0 0 1
10.411186 -18.872729 -32.935604 39.361488 -1.066685 2.562112 0.115738 -0.050514 -855278.000000 0 0 1
10.978086 -17.589429 -33.537014 39.428894 -1.012823 2.587864 0.107046 -0.034658 -533517.000000 0 0 1
10.197086 -17.081029 33.303128 38.792273 -1.032598 0.538461 0.128841 -0.040340 -124497.000000 0 0 1
10.500686 -15.735329 33.010261 38.046581 -0.982333 0.520386 0.106251 -0.037197 -312607.000000 0 0 1
9.440286 -15.121229 32.087231 36.706416 -1.012696 0.507096 0.133072 -0.045682 -129752.000000 0 0 1
9.461986 -15.647129 30.752051 35.777793 -1.026920 0.536449 0.125788 -0.041210 39836.900000 0 0 1
8.445586 -15.038629 29.956771 34.567274 -1.059096 0.522404 0.121914 -0.035086 222512.000000 0 0 1
8.406386 -15.552629 28.518791 33.554032 -1.075267 0.554932 0.102304 -0.021137 -286086.000000 0 0 1
7.970786 -16.906829 28.434221 34.027624 -1.130245 0.581533 0.107412 -0.025072 301413.000000 0 0 1
7.993286 -17.477829 27.145051 33.259900 -1.141856 0.616081 0.094725 -0.022939 -410395.000000 0 0 1
7.438786 -18.884729 27.218551 33.953174 -1.195555 0.640747 0.094092 -0.029641 -446669.000000 0 0 1
8.133386 -19.575029 28.201371 35.279613 -1.177001 0.644555 0.108719 -0.030002 155111.000000 0 0 1
7.544786 -20.766329 28.690221 36.211780 -1.222306 0.656244 0.092983 -0.032262 -209325.000000 0 0 1
8.081786 -21.042529 30.155971 37.649514 -1.204098 0.641890 0.098335 -0.029085 98454.600000 0 0 1
7.564586 -20.273029 31.270841 38.027413 -1.213661 0.605314 0.123372 -0.039792 294091.000000 0 0 1
7.626686 -18.895929 31.129091 37.205413 -1.187177 0.579600 0.111385 -0.037231 -148354.000000 0 0 1
7.012586 -18.223029 32.377881 37.809818 -1.203444 0.542665 0.113690 -0.039800 1390770.000000 0 0 1
5.576986 -18.384929 32.506955 37.759906 -1.276273 0.533789 0.118861 -0.044926 1050800.000000 0 0 1
5.006886 -17.396029 33.322020 37.921600 -1.290553 0.497647 0.114532 -0.040361 1064060.000000 0 0 1
3.486086 -17.607529 33.687860 38.171322 -1.375336 0.489552 0.105205 -0.044030 978225.000000 0 0 1
3.365186 -18.611429 -33.218214 38.225116 -1.391916 2.624005 0.093231 -0.041701 180392.000000 0 0 1
2.007386 -18.979329 -33.037364 38.153793 -1.465421 2.617743 0.077085 -0.049366 98767.800000 0 0 1
1.865786 -20.108129 -31.996264 37.836212 -1.478274 2.578582 0.042124 -0.015055 -606914.000000 0 0 1
0.638086 -20.773229 -32.113084 38.251593 -1.540089 2.567201 0.050521 -0.025820 -221896.000000 0 0 1
0.289286 -21.487529 -30.933984 37.665753 -1.557334 2.534441 0.052959 -0.024051 -3678.160000 0 0 1
-0.244014 -20.716129 -29.682954 36.198001 1.559018 2.532236 0.054950 -0.018605 -429991.000000 0 0 1
-1.321814 -19.928029 -30.151014 36.165691 1.504564 2.556555 0.065811 -0.029523 -103616.000000 0 0 1
-1.730214 -18.941629 -29.215714 34.861682 1.479705 2.564489 0.070353 -0.026025 104387.000000 0 0 1
-2.016614 -17.535429 -29.827494 34.658872 1.456297 2.607247 0.076020 -0.022932 -48072.100000 0 0 1
-2.509114 -16.533029 -29.009824 33.484423 1.420182 2.618679 0.083639 -0.021995 -321702.000000 0 0 1
-2.410314 -15.291229 -29.677034 33.471744 1.414455 2.660802 0.088390 -0.024697 36396.400000 0 0 1
-3.376014 -14.238629 -29.084894 32.558672 1.337993 2.675447 0.082517 -0.013706 127391.000000 0 0 1
-3.061014 -13.651229 -27.881254 31.194394 1.350215 2.676523 0.072495 -0.018805 -558654.000000 0 0 1
-4.100014 -12.826229 -27.473594 30.596089 1.261403 2.685873 0.055482 -0.020717 -223842.000000 0 0 1
-4.038814 -12.685429 -25.966404 29.180238 1.262562 2.667840 0.049686 -0.019169 -82710.700000 0 0 1
-4.547914 -13.816329 -25.245594 29.136137 1.252798 2.618884 0.061164 -0.019123 223837.000000 0 0 1
-4.508714 -13.751329 -23.804954 27.858632 1.253966 2.595367 0.055462 -0.017782 -100134.000000 0 0 1
-5.479314 -12.746229 -23.111854 26.956391 1.164802 2.600952 0.056758 -0.024929 208003.000000 0 0 1
-6.840814 -13.068629 -23.252554 27.536650 1.088563 2.576282 0.062226 -0.028894 -29712.800000 0 0 1
-7.775114 -12.086829 -22.812054 26.961707 0.999166 2.579405 0.042784 -0.031773 1816610.000000 0 0 1
-9.269814 -12.460929 -23.229054 27.942676 0.931204 2.552259 0.081091 -0.035566 1350660.000000 0 0 1
-9.899414 -13.435529 -22.415054 27.945420 0.935791 2.501602 0.068561 -0.034074 -470919.000000 0 0 1
-10.993814 -13.978629 -23.111554 29.161789 0.904358 2.485741 0.072524 -0.026696 19836.600000 0 0 1
-11.761914 -15.017529 -22.227854 29.290720 0.906376 2.432373 0.079873 -0.031332 -14118.800000 0 0 1
-11.018414 -16.182429 -21.956054 29.416743 0.973013 2.413402 0.077199 -0.029152 -765037.000000 0 0 1
-11.759914 -17.268829 -21.566854 30.027275 0.972942 2.372069 0.077844 -0.026281 -304839.000000 0 0 1
-12.396814 -18.209529 -22.567354 31.536541 0.973082 2.368270 0.068208 -0.018569 525034.000000 0 0 1
-13.615614 -17.678629 -23.084654 32.106388 0.914509 2.373166 0.061280 -0.019722 -59081.100000 0 0 1
-14.148214 -18.583829 -24.031054 33.511524 0.920091 2.370426 0.039504 -0.019949 -32626.100000 0 0 1
-15.313114 -17.974329 -24.861554 34.287969 0.865175 2.381948 0.046997 -0.025100 514090.000000 0 0 1
-16.523614 -17.831229 -24.123354 34.247902 0.823442 2.352338 0.054612 -0.018056 -262270.000000 0 0 1
-17.604914 -17.531029 -24.945254 35.207040 0.783295 2.358210 0.040045 -0.019243 -391218.000000 0 0 1
-18.198814 -16.109929 -24.680954 34.639229 0.724588 2.363872 0.048189 -0.011848 -130593.000000 0 0 1
-18.997614 -16.189329 -23.507354 34.287015 0.705757 2.326231 0.054232 -0.005447 -71283.400000 0 0 1
-19.617714 -14.955629 -23.263654 33.907568 0.651360 2.326898 0.064639 -0.014486 -126249.000000 0 0 1
-20.468714 -14.816829 -22.030854 33.524099 0.626572 2.287847 0.058892 -0.019820 -261098.000000 0 0 1
-19.694114 -14.453929 -20.926954 32.166934 0.633131 2.279136 0.070995 -0.009616 127912.000000 0 0 1
-20.382714 -14.698329 -19.687654 31.923340 0.624759 2.235361 0.061639 -0.011701 220281.000000 0 0 1
-20.991814 -13.407529 -19.064154 31.366544 0.568392 2.224066 0.066594 -0.018654 -322733.000000 0 0 1
-22.252714 -13.051229 -19.560454 32.374824 0.530434 2.219542 0.078216 -0.023769 -379085.000000 0 0 1
-22.773014 -12.080629 -18.721254 31.859647 0.487733 2.198906 0.094978 -0.020652 -644599.000000 0 0 1
-24.248214 -11.799829 -18.974854 32.973580 0.452892 2.183958 0.119708 -0.019018 -468519.000000 0 0 1
-24.386414 -10.951829 -20.106054 33.449861 0.422101 2.215649 0.109948 -0.025540 527538.000000 0 0 1
-25.781304 -10.643229 -20.140454 34.403370 0.391515 2.196196 0.110455 -0.022966 503703.000000 0 0 1
-26.161614 -9.620429 -21.274654 35.065562 0.352382 2.222713 0.113502 -0.020049 -44947.600000 0 0 1
-26.200834 -10.123429 -22.561254 36.027458 0.368709 2.247497 0.092375 -0.016033 276474.000000 0 0 1
-26.827384 -9.173929 -23.401854 36.762975 0.329496 2.260826 0.083734 -0.023340 -338862.000000 0 0 1
-27.143764 -9.622729 -24.846554 38.035932 0.340687 2.282651 0.079991 -0.015529 -121660.000000 0 0 1
-26.089914 -9.786329 -25.769014 37.953892 0.358858 2.317136 0.072296 -0.023227 -151193.000000 0 0 1
-25.215264 -10.894429 -25.612704 37.556740 0.407833 2.321254 0.063972 -0.011159 279175.000000 0 0 1
-24.096214 -10.874329 -26.701994 37.574926 0.423924 2.361194 0.067730 -0.020151 341382.000000 0 0 1
-24.587614 -11.081129 -28.028834 38.896757 0.423419 2.375457 0.065129 -0.012869 361273.000000 0 0 1
-23.533614 -10.878629 -28.961484 38.870852 0.433002 2.411435 0.067594 -0.014358 422330.000000 0 0 1
-23.942414 -11.338129 -30.397414 40.321150 0.442271 2.424748 0.065054 -0.016975 431379.000000 0 0 1
-25.008714 -10.502629 -30.859334 41.085758 0.397593 2.420516 0.057785 -0.024477 3524.490000 0 0 1
-24.608814 -9.502729 -31.752394 41.280869 0.368511 2.448352 0.058717 -0.034981 -777937.000000 0 0 1
-25.586704 -8.429629 -32.311664 42.068774 0.318255 2.446614 0.054017 -0.028007 -421294.000000 0 0 1
-26.632254 -8.829829 -33.209384 43.475350 0.320141 2.440080 0.053968 -0.023953 184982.000000 0 0 1
-27.748934 -9.420429 -32.682394 43.896318 0.327279 2.410636 0.054057 -0.025083 -1355480.000000 0 0 1
-28.690664 -8.481829 -31.883314 43.722321 0.287443 2.387982 0.044921 -0.017712 -98693.600000 0 0 1
-30.034734 -8.978329 -32.056164 44.836295 0.290476 2.367363 0.051716 -0.018791 681994.000000 0 0 1
-30.991714 -8.358529 -31.247024 44.796516 0.263434 2.342744 0.057932 -0.013330 107568.000000 0 0 1
-32.423314 -8.917029 -31.415724 46.018827 0.268384 2.322208 0.067808 -0.013767 37064.600000 0 0 1
-32.482094 -10.268729 -31.008684 46.065950 0.306193 2.309239 0.060240 -0.017336 888520.000000 0 0 1
-33.838864 -10.744329 -30.907234 47.071929 0.307447 2.287093 0.054892 -0.015987 726029.000000 0 0 1
-34.038784 -12.270429 -31.017394 47.657958 0.345984 2.279478 0.057195 -0.013913 345036.000000 0 0 1
-35.416669 -12.647629 -30.936474 48.696698 0.342994 2.259179 0.052880 -0.010779 575598.000000 0 0 1
-35.480294 -14.050329 -31.033394 49.186732 0.377057 2.253548 0.046511 -0.011435 556235.000000 0 0 1
-36.885024 -14.504029 -30.546954 50.039867 0.374650 2.227428 0.057064 -0.019134 454542.000000 0 0 1
-36.972784 -14.530829 -29.144944 49.270270 0.374470 2.203754 0.070583 -0.017026 27721.800000 0 0 1
37.005859 -15.804829 -28.515884 49.319183 -0.403639 2.187305 0.066430 -0.021386 108792.000000 0 0 1
37.154609 -15.729929 -26.976234 48.534656 -0.400484 2.160138 0.088332 -0.026497 -831191.000000 0 0 1
-35.831941 -15.557429 -26.669684 47.299405 0.409618 2.169834 0.086555 -0.030807 -919956.000000 0 0 1
-35.666920 -15.530029 -25.298964 46.404187 0.410662 2.147409 0.108888 -0.037560 -299952.000000 0 0 1
-34.285589 -15.051829 -24.842154 44.935418 0.413680 2.156566 0.118247 -0.029504 41960.000000 0 0 1
-33.257874 -16.025329 -25.034704 44.605311 0.449023 2.166691 0.112900 -0.025599 743706.000000 0 0 1
-32.063034 -15.645529 -24.330854 43.183460 0.453971 2.169328 0.111356 -0.013402 419133.000000 0 0 1
-30.809114 -16.500229 -24.516554 42.690989 0.491692 2.182520 0.104851 -0.010471 -156399.000000 0 0 1
-30.875424 -17.777029 -23.927854 42.916859 0.522410 2.162216 0.114071 -0.020685 196832.000000 0 0 1
-31.531664 -18.722029 -24.799654 44.269437 0.535814 2.165421 0.096896 -0.030359 280712.000000 0 0 1
-31.462364 -20.109829 -24.102454 44.443378 0.568725 2.143990 0.094821 -0.040665 513063.000000 0 0 1
-30.182744 -20.734529 -24.135354 43.856973 0.601925 2.153543 0.094622 -0.033363 367721.000000 0 0 1
-30.214994 -21.852729 -23.258454 43.948189 0.626154 2.128483 0.089939 -0.031019 -688944.000000 0 0 1
-28.958254 -22.711729 -23.330254 43.574119 0.665089 2.135796 0.094550 -0.037143 -462051.000000 0 0 1
-27.727164 -22.198429 -22.905154 42.263601 0.675108 2.143563 0.093950 -0.035705 -102032.000000 0 0 1
-27.556974 -22.002029 -21.501154 41.301038 0.673777 2.118345 0.082224 -0.035549 -471383.000000 0 0 1
-27.540554 -23.267029 -20.587554 41.517275 0.701484 2.089643 0.076470 -0.033425 -274237.000000 0 0 1
-27.597724 -22.850229 -19.238554 40.668038 0.691568 2.063561 0.074945 -0.032779 115010.000000 0 0 1
-27.816944 -23.928029 -18.344554 41.022623 0.710384 2.034408 0.067552 0.004512 81194.100000 0 0 1
-27.651914 -23.535129 -16.889854 40.047445 0.705145 2.006167 0.057522 0.001692 122903.000000 0 0 1
-28.761334 -22.815029 -16.409554 40.212105 0.670614 1.991141 0.059844 -0.000200 -111480.000000 0 0 1
-28.393684 -21.949329 -15.398754 39.052477 0.658082 1.976112 0.069570 -0.000819 461317.000000 0 0 1
-29.695934 -21.360029 -14.802654 39.461601 0.623556 1.955318 0.065608 0.009070 622021.000000 0 0 1
-30.492584 -20.569829 -15.667354 39.979764 0.593464 1.973473 0.063775 0.005575 161015.000000 0 0 1
-31.685814 -20.080129 -15.088054 40.433301 0.564850 1.953208 0.062609 0.008475 728609.000000 0 0 1
-32.755984 -19.548429 -16.139954 41.419726 0.538056 1.971068 0.071960 -0.001732 210502.000000 0 0 1
-33.386294 -20.601729 -16.759054 42.660776 0.552878 1.974519 0.041639 -0.003925 -21496.700000 0 0 1
-34.260144 -20.064129 -17.762354 43.495149 0.529794 1.991470 0.042011 -0.004105 61425.700000 0 0 1
-35.040548 -20.968129 -18.726954 44.924395 0.539239 2.000779 0.048508 -0.012980 -124172.000000 0 0 1
-36.209344 -21.656229 -18.400854 46.029342 0.539009 1.982055 0.048527 -0.006880 -235581.000000 0 0 1
-36.085084 -22.572729 -17.306554 45.947559 0.558989 1.956983 0.045795 -0.002421 -246672.000000 0 0 1
37.124179 -23.655629 -17.262754 47.284206 -0.567326 1.944520 0.039560 -0.000240 304175.000000 0 0 1
35.838019 -23.119029 -16.976654 45.902722 -0.572921 1.949633 0.045711 -0.009972 220827.000000 0 0 1
34.938159 -24.213829 -16.908054 45.747861 -0.606045 1.949366 0.030240 -0.009956 576136.000000 0 0 1
33.448779 -23.990629 -16.503554 44.347924 -0.622200 1.952108 0.030435 -0.013627 1125930.000000 0 0 1
32.566219 -23.642429 -17.603454 43.924989 -0.627950 1.983144 0.041949 -0.023666 983193.000000 0 0 1
31.287369 -24.255229 -17.354854 43.225068 -0.659460 1.983950 0.056448 -0.024594 800629.000000 0 0 1
30.177819 -23.944029 -18.379354 42.682759 -0.670723 2.015958 0.073155 -0.021544 230452.000000 0 0 1
29.468539 -22.709929 -18.163854 41.401223 -0.656587 2.024978 0.092670 -0.019855 765406.000000 0 0 1
28.264129 -22.601729 -18.916354 40.835372 -0.674534 2.052438 0.088084 -0.027215 -175392.000000 0 0 1
34.975849 29.555571 -18.294354 49.310497 0.701600 1.950885 0.074794 -0.019189 221265.000000 0 0 1
34.038439 29.762571 -19.370454 49.189841 0.718479 1.975547 0.062536 -0.028903 352376.000000 0 0 1
34.544539 29.582971 -20.667254 49.956108 0.708182 1.997320 0.082422 -0.018059 -4176.470000 0 0 1
33.408479 29.645471 -21.733554 49.672203 0.725790 2.023657 0.084679 -0.017486 -787294.000000 0 0 1
32.392529 28.705371 -21.610954 48.376725 0.725123 2.033895 0.081661 -0.024613 -259316.000000 0 0 1
31.492689 28.756171 -22.687254 48.305469 0.740009 2.059704 0.096720 -0.016485 554268.000000 0 0 1
30.414909 29.908271 -22.712354 48.326208 0.777000 2.060065 0.088858 -0.010970 -408561.000000 0 0 1
30.960739 31.209371 -22.846354 49.543396 0.789397 2.050074 0.106565 -0.031243 -208457.000000 0 0 1
29.937889 32.173771 -22.819454 49.519251 0.821380 2.049715 0.100099 -0.023544 -266170.000000 0 0 1
30.473049 33.637171 -22.755854 50.772974 0.834713 2.035534 0.097378 -0.019511 327452.000000 0 0 1
31.010589 -34.028438 -21.482054 50.804231 -0.831766 2.007373 0.090224 -0.024292 1137930.000000 0 0 1
32.431669 33.760571 -21.406354 51.476415 0.805472 1.999671 0.077770 -0.024688 784834.000000 0 0 1
32.866399 33.459471 -19.944154 50.965730 0.794340 1.972867 0.068758 -0.030074 -168076.000000 0 0 1
32.824889 -33.466738 -19.108354 50.622377 -0.795080 1.957857 0.067024 -0.027584 53438.500000 0 0 1
32.974149 -33.898838 -17.783654 50.524094 -0.799225 1.930486 0.048697 -0.034058 -601357.000000 0 0 1
33.054379 -32.735738 -16.748854 49.444359 -0.780555 1.916375 0.044865 -0.024406 -213688.000000 0 0 1
34.124729 -31.848038 -16.977754 49.669294 -0.750902 1.919645 0.044366 -0.015749 326266.000000 0 0 1
35.293459 -32.333838 -16.279954 50.558305 -0.741662 1.898641 0.036200 -0.021070 -34982.800000 0 0 1
36.484189 -31.410638 -16.485354 50.887043 -0.710810 1.900708 0.031586 -0.007691 -190746.000000 0 0 1
-37.155204 -31.483638 -17.754754 51.835895 0.702956 1.920393 0.028445 -0.013475 403869.000000 0 0 1
-35.913616 -30.770538 -17.640254 50.475662 0.708425 1.927813 0.012553 -0.005449 1141120.000000 0 0 1
-34.767667 -31.319938 -18.563454 50.342140 0.733276 1.948456 0.026453 -0.015414 -613352.000000 0 0 1
-34.181297 -32.501438 -18.104154 50.521926 0.760212 1.937288 0.031162 -0.012702 59791.100000 0 0 1
-33.236474 -33.129338 -18.948954 50.609082 0.783784 1.954565 0.043675 -0.010153 262047.000000 0 0 1
-31.873684 -32.400738 -19.005254 49.263975 0.793598 1.966854 0.035244 -0.013217 -1583200.000000 0 0 1
-31.897764 -31.322738 -19.912954 48.939831 0.776303 1.989839 0.030152 -0.010468 603401.000000 0 0 1
-30.610864 -30.864938 -20.359754 48.001969 0.789531 2.008813 0.041126 -0.012891 819393.000000 0 0 1
-29.708554 -31.871538 -21.099854 48.410712 0.820508 2.021780 0.037502 -0.008040 -477900.000000 0 0 1
-30.311564 -32.334138 -22.276254 49.603618 0.817673 2.036538 0.031031 -0.006901 -295637.000000 0 0 1
-29.597204 -33.461838 -22.679754 50.100503 0.846608 2.040571 0.026993 -0.004971 -377983.000000 0 0 1
-30.256914 33.742971 -23.764354 51.174344 -0.839814 2.053731 0.030826 -0.008574 -532357.000000 0 0 1
-31.289184 32.891971 -23.314854 51.034079 -0.810366 2.045246 0.035244 -0.019917 -49037.700000 0 0 1
-31.781704 31.945371 -24.292154 51.192697 -0.787966 2.065219 0.025506 -0.014403 339989.000000 0 0 1
-32.703054 32.561871 -25.404854 52.679899 -0.783235 2.074017 0.035733 -0.029899 -123502.000000 0 0 1
-32.093134 33.329771 -26.430044 53.285928 -0.804298 2.089787 0.027415 -0.024517 -317021.000000 0 0 1
-32.960254 -33.705338 -26.840774 54.248091 0.796574 2.088376 0.035873 -0.027226 241609.000000 0 0 1
-32.240924 -32.796138 -27.853314 53.766821 0.793935 2.115353 0.019024 -0.023960 133586.000000 0 0 1
-31.901494 -33.365238 -29.131324 54.585516 0.807822 2.133745 0.016564 -0.022460 -738533.000000 0 0 1
-32.983214 -33.417838 -29.996674 55.717545 0.791944 2.139298 0.033520 -0.023959 -633499.000000 0 0 1
-32.931884 33.585471 -31.128994 56.404850 -0.795224 2.155419 0.046301 -0.021594 -295402.000000 0 0 1
-32.071084 34.028871 -32.136264 56.738505 -0.815008 2.172918 0.014400 -0.017327 -584588.000000 0 0 1
-32.496174 33.526571 -33.376404 57.393524 -0.801004 2.191412 0.021105 -0.031137 524567.000000 0 0 1
-31.611164 33.892771 33.205014 57.013670 -0.820216 0.949113 0.013844 -0.030551 137814.000000 0 0 1
-30.354614 33.335671 33.024673 55.886480 -0.832170 0.938592 0.023763 -0.019101 -727071.000000 0 0 1
-30.326314 31.972871 32.709480 54.880415 -0.811822 0.932269 0.022578 -0.028745 1019460.000000 0 0 1
-28.806734 31.522371 32.566828 53.703688 -0.830382 0.919250 0.031881 -0.023708 1055430.000000 0 0 1
-28.304754 31.267271 33.891701 54.105903 -0.835087 0.893876 0.032419 -0.019528 425430.000000 0 0 1
-26.924364 30.898471 33.882031 53.175454 -0.854019 0.879970 0.047333 -0.011157 553594.000000 0 0 1
-26.454264 29.438571 33.319129 51.736080 -0.838741 0.871053 0.064339 -0.031989 -304274.000000 0 0 1
-26.623644 28.498371 -33.511504 51.419806 -0.819396 2.280651 0.059691 -0.023464 237429.000000 0 0 1
-26.218244 27.201771 -33.882124 50.747719 -0.803807 2.301855 0.061766 -0.021305 -110681.000000 0 0 1
-26.052134 26.138271 -32.740604 49.334269 -0.787049 2.296482 0.082342 -0.026128 259352.000000 0 0 1
-25.009314 26.307271 -31.757774 48.229602 -0.810686 2.289581 0.071583 -0.010212 370836.000000 0 0 1
-25.100124 27.384571 -30.829414 48.274048 -0.828897 2.263517 0.052888 -0.005186 -107789.000000 0 0 1
-23.902014 27.506671 -29.865174 47.115304 -0.855401 2.257348 0.073244 -0.004665 213983.000000 0 0 1
-22.692514 27.835771 -30.538764 47.142300 -0.886838 2.275489 0.074938 -0.005728 -316541.000000 0 0 1
-21.513514 27.747271 -29.807404 46.056744 -0.911275 2.274687 0.062428 -0.006197 -139532.000000 0 0 1
-21.193514 28.858671 -28.796734 45.948230 -0.937361 2.248135 0.050442 0.011853 -511013.000000 0 0 1
-20.841714 30.083271 -29.434324 46.965516 -0.964918 2.248136 0.052246 0.021567 106522.000000 0 0 1
-20.508514 31.154771 -28.539164 46.964910 -0.988623 2.223920 0.063440 0.002152 27341.300000 0 0 1
-20.141214 32.435471 -29.314774 48.136101 -1.015106 2.225593 0.085395 0.000218 672378.000000 0 0 1
-18.834814 32.478571 -29.905094 47.999192 -1.045276 2.243411 0.097379 -0.005127 381486.000000 0 0 1
-18.644314 33.642271 -30.635654 49.172718 -1.064740 2.243396 0.107831 0.001560 547728.000000 0 0 1
-17.168614 -34.012838 -30.935384 49.077821 1.103341 2.252779 0.115496 0.002210 -772645.000000 0 0 1
-16.580814 -33.142338 -30.022834 47.693905 1.106916 2.251693 0.132223 -0.022407 322857.000000 0 0 1
-15.206814 -32.791838 -30.192704 47.097253 1.136577 2.266690 0.138498 -0.020045 1250070.000000 0 0 1
-14.216814 -34.030438 -30.203934 47.670391 1.175068 2.256993 0.147352 -0.020768 -805347.000000 0 0 1
-13.933314 33.422371 -28.912524 46.337093 -1.175818 2.244597 0.154993 -0.022907 -171115.000000 0 0 1
-13.442414 32.167571 -29.208414 45.481673 -1.174966 2.268164 0.130740 -0.013060 -123503.000000 0 0 1
-13.342514 31.328171 -27.943394 44.048953 -1.168168 2.257991 0.112020 -0.023823 152518.000000 0 0 1
-12.288514 31.726871 -27.080954 43.485400 -1.201267 2.243061 0.125075 -0.032410 -26710.200000 0 0 1
-12.196014 30.960971 -25.901574 42.168899 -1.195546 2.232211 0.104635 -0.033400 292373.000000 0 0 1
-10.862814 31.280871 -25.175844 41.597076 -1.236558 2.220852 0.117410 -0.045060 532129.000000 0 0 1
-9.719314 30.675871 -25.742734 41.208767 -1.263963 2.245532 0.113446 -0.034597 -428227.000000 0 0 1
-8.571514 30.987271 -24.987954 40.719524 -1.300930 2.231484 0.115717 -0.039211 546015.000000 0 0 1
-7.242114 30.303571 -25.428624 40.216533 -1.336211 2.255305 0.080825 -0.037086 425067.000000 0 0 1
-7.167314 28.920871 -25.132834 38.980078 -1.327866 2.271507 0.085463 -0.049821 -342588.000000 0 0 1
-5.875114 28.458971 -25.428794 38.614163 -1.367215 2.289667 0.081254 -0.055777 -60204.100000 0 0 1
-5.387014 27.272971 -24.542954 37.083574 -1.375785 2.294051 0.099845 -0.040894 259221.000000 0 0 1
-6.203714 26.091271 -24.677154 36.444512 -1.337361 2.314632 0.112782 -0.045538 567520.000000 0 0 1
-5.649314 24.995971 -23.945954 35.073096 -1.348522 2.322308 0.116421 -0.057687 2021.280000 0 0 1
-6.516114 23.689271 -23.998354 34.344757 -1.302369 2.344443 0.104056 -0.048169 144616.000000 0 0 1
-6.632914 23.201571 -25.251354 34.927630 -1.292342 2.378877 0.102443 -0.042786 -97679.700000 0 0 1
-7.624414 22.232271 -25.311254 34.540775 -1.240422 2.393215 0.091680 -0.052215 -529016.000000 0 0 1
-7.413214 21.399071 -26.638104 34.963761 -1.237308 2.437003 0.078345 -0.037055 362469.000000 0 0 1
-6.262214 20.572471 -26.822424 34.378544 -1.275310 2.465795 0.101681 -0.050576 -64003.500000 0 0 1
-6.188214 19.508671 -25.891734 33.004002 -1.263632 2.472690 0.098725 -0.051300 -151548.000000 0 0 1
-4.893814 18.646971 -25.987944 32.357877 -1.314139 2.503345 0.108612 -0.059103 163468.000000 0 0 1
-4.856114 17.946471 -27.180494 32.930790 -1.306536 2.541676 0.089986 -0.053920 -613934.000000 0 0 1
-3.849414 16.995871 -27.191494 32.296362 -1.348063 2.571659 0.088353 -0.052857 -757986.000000 0 0 1
-3.387114 16.611071 -28.559954 33.212516 -1.369647 2.605900 0.077446 -0.042202 -141506.000000 0 0 1
-2.573114 17.578471 -29.206104 34.185086 -1.425450 2.595099 0.092093 -0.049389 155476.000000 0 0 1
-2.467514 17.399271 -30.573554 35.264224 -1.429919 2.619916 0.091714 -0.049507 -183473.000000 0 0 1
-1.625514 18.447471 -31.311524 36.378057 -1.482907 2.607490 0.108460 -0.029202 693488.000000 0 0 1
-0.217714 18.355371 -31.016124 36.041185 -1.558936 2.607193 0.149521 -0.043376 1144810.000000 0 0 1
0.611586 19.383871 -31.609264 37.084418 1.539256 2.591277 0.157441 -0.022416 684790.000000 0 0 1
0.532386 20.824771 -30.934624 37.294845 1.545237 2.548939 0.150719 -0.026268 -41385.800000 0 0 1
1.138186 20.851571 -29.640514 36.258014 1.516265 2.527833 0.168767 -0.054823 -174347.000000 0 0 1
1.003486 22.219471 -29.157174 36.672233 1.525665 2.489927 0.160053 -0.053342 65968.700000 0 0 1
1.980286 22.490371 -27.984854 35.956785 1.482972 2.462736 0.168084 -0.057211 -87217.200000 0 0 1
3.272886 22.101771 -28.403234 36.137844 1.423782 2.475059 0.140714 -0.047540 189630.000000 0 0 1
4.351586 22.379971 -27.483584 35.709198 1.378752 2.449089 0.129486 -0.049364 779835.000000 0 0 1
4.730686 23.893071 -27.173704 36.492032 1.375330 2.410803 0.126463 -0.044456 -923912.000000 0 0 1
5.513986 24.397871 -28.188924 37.686544 1.348528 2.415815 0.117744 -0.045555 -149155.000000 0 0 1
5.941686 25.723971 -27.946454 38.445164 1.343799 2.384619 0.109877 -0.042532 165862.000000 0 0 1
6.749686 26.322271 -29.156364 39.856164 1.319780 2.391374 0.130818 -0.033747 1677000.000000 0 0 1
8.181086 26.031671 -29.169834 39.943176 1.266296 2.389533 0.127626 -0.028935 1525970.000000 0 0 1
8.845686 27.085971 -29.810444 41.237829 1.255138 2.378773 0.126452 -0.027349 854553.000000 0 0 1
10.391386 27.189571 -29.534834 41.467579 1.205743 2.363479 0.113438 -0.021787 1014770.000000 0 0 1
11.088286 28.192771 -30.246374 42.809176 1.196077 2.355393 0.135548 -0.026092 -401733.000000 0 0 1
12.430886 28.240371 -29.850734 42.931478 1.156137 2.339649 0.111235 -0.027688 -455762.000000 0 0 1
13.315486 29.125271 -30.727194 44.381798 1.141988 2.335520 0.116220 -0.031928 -705149.000000 0 0 1
12.978386 30.473571 -30.927494 45.316519 1.168172 2.321943 0.123499 -0.032902 -249531.000000 0 0 1
13.829086 31.212371 -31.756884 46.625695 1.153725 2.320064 0.154174 -0.041664 -356884.000000 0 0 1
13.253986 32.604871 -31.999714 47.568135 1.184696 2.308666 0.150662 -0.042379 264611.000000 0 0 1
12.092686 32.530871 -32.816484 47.764131 1.214896 2.328222 0.136193 -0.039764 -17108.000000 0 0 1
11.159286 33.484471 -32.403064 47.913443 1.249105 2.313502 0.105614 -0.026602 -91188.800000 0 0 1
10.011486 33.793971 -33.389154 48.549953 1.282783 2.329151 0.090445 -0.022728 10659.100000 0 0 1
10.427786 -33.563238 33.345810 48.447629 -1.269561 0.811673 0.086063 -0.013171 35619.500000 0 0 1
9.401486 -33.485538 32.371314 47.513905 -1.297081 0.821257 0.095330 -0.025196 101660.000000 0 0 1
9.749986 -32.673138 31.131351 46.170956 -1.280799 0.830831 0.080247 -0.018162 -82925.200000 0 0 1
9.638786 -31.286138 31.383991 45.350673 -1.271939 0.806500 0.065154 -0.020972 -11871.300000 0 0 1
9.921986 -30.539938 30.266761 44.127208 -1.256668 0.814959 0.097325 -0.016207 -584232.000000 0 0 1
9.450886 -29.048038 30.383761 43.084576 -1.256245 0.788074 0.083082 -0.032527 211838.000000 0 0 1
8.051086 -28.853038 30.396621 42.676368 -1.298680 0.778085 0.056265 -0.012792 150403.000000 0 0 1
7.452086 -29.026938 31.671851 43.602785 -1.319494 0.757768 0.048427 -0.007492 -1230070.000000 0 0 1
5.967086 -28.626138 31.671141 43.105952 -1.365290 0.745531 0.050868 -0.013618 -613762.000000 0 0 1
5.158086 -29.712038 31.355191 43.503552 -1.398907 0.765912 0.073300 -0.020197 -342463.000000 0 0 1
5.094686 -30.172938 30.026651 42.871457 -1.403525 0.794855 0.085653 -0.024066 -766529.000000 0 0 1
4.464686 -29.207338 28.985961 41.390675 -1.419109 0.794976 0.067793 -0.020752 501219.000000 0 0 1
3.034486 -29.164738 28.938771 41.197603 -1.467123 0.791979 0.095457 -0.031875 764921.000000 0 0 1
2.588786 -28.296938 27.893731 39.818071 -1.479564 0.794657 0.113635 -0.034968 631769.000000 0 0 1
1.186686 -28.775638 27.346061 39.714640 -1.529580 0.811290 0.112949 -0.032948 682428.000000 0 0 1
1.154886 -30.040738 26.680441 40.194846 -1.532371 0.844938 0.115660 -0.034819 75523.100000 0 0 1
1.154586 -31.201638 27.510801 41.613934 -1.533809 0.848518 0.128731 -0.034946 -638158.000000 0 0 1
1.268186 -32.525038 26.753981 42.133857 -1.531825 0.882819 0.125909 -0.036172 841058.000000 0 0 1
2.610586 -32.908738 26.402381 42.271574 -1.491634 0.896191 0.116929 -0.029755 958610.000000 0 0 1
3.215186 -32.210038 25.312541 41.091954 -1.471307 0.907145 0.117129 -0.038306 489295.000000 0 0 1
4.757786 -31.995038 25.433401 41.148231 -1.423174 0.904483 0.123792 -0.028268 673944.000000 0 0 1
5.460486 -31.817138 24.204651 40.348635 -1.400831 0.927436 0.107769 -0.037668 550807.000000 0 0 1
6.819186 -31.542038 24.555511 40.550889 -1.357880 0.920342 0.084196 -0.034371 -163061.000000 0 0 1
7.773786 -31.477538 23.388271 39.978474 -1.328678 0.945890 0.067441 -0.019506 -825061.000000 0 0 1
9.008586 -30.934638 23.776291 40.042708 -1.287420 0.935056 0.054147 -0.004677 -135952.000000 0 0 1
9.834486 -30.960638 22.618911 39.584004 -1.263231 0.962567 0.032902 -0.010571 -223257.000000 0 0 1
11.004686 -29.980038 22.566111 39.104158 -1.218999 0.955651 0.025801 -0.005834 -120560.000000 0 0 1
12.238886 -30.342638 23.149111 40.079264 -1.187400 0.955031 0.028447 -0.008948 -107527.000000 0 0 1
13.104086 -29.245038 23.158391 39.538594 -1.149541 0.945033 0.032380 -0.007037 -131014.000000 0 0 1
14.351086 -29.463738 24.037641 40.643249 -1.117541 0.937965 0.067622 -0.018602 -122588.000000 0 0 1
14.073286 -29.358138 25.422051 41.306638 -1.123792 0.907843 0.059781 -0.019757 477428.000000 0 0 1
15.270386 -29.309038 26.183311 42.163612 -1.090480 0.900787 0.065374 -0.020867 18815.600000 0 0 1
-11.078714 -13.880129 25.287761 30.900918 0.897172 0.612262 0.075842 -0.026267 1476640.000000 0 0 1
-9.634914 -13.789129 25.143091 30.251391 0.960921 0.589645 0.078358 -0.023298 937790.000000 0 0 1
-8.996814 -14.320529 26.294351 31.263607 1.009866 0.571569 0.080604 -0.025973 17332.500000 0 0 1
-7.453614 -14.205729 26.238801 30.754411 1.087592 0.548760 0.089908 -0.021815 242608.000000 0 0 1
-6.771314 -15.069929 25.325121 30.237646 1.148503 0.578038 0.088846 -0.028907 121126.000000 0 0 1
-6.978314 -14.805629 23.946091 29.005496 1.130348 0.599583 0.091602 -0.027781 -651920.000000 0 0 1
-6.567614 -15.982329 23.001661 28.768817 1.180903 0.644277 0.081193 -0.030341 665589.000000 0 0 1
-7.412814 -17.167629 23.038651 29.672491 1.163188 0.681813 0.086357 -0.028841 335774.000000 0 0 1
-7.336814 -17.913229 24.253331 31.031221 1.182063 0.673604 0.093826 -0.021104 -241492.000000 0 0 1
-7.909214 -19.332929 24.251291 32.006920 1.182465 0.711032 0.091673 -0.018646 -19346.600000 0 0 1
-9.250914 -19.416029 23.819021 32.092170 1.126159 0.734439 0.075658 -0.019589 -165809.000000 0 0 1
-9.787314 -20.733629 23.922941 33.135812 1.129757 0.764156 0.064802 -0.022292 -320342.000000 0 0 1
-11.314714 -20.739029 23.888841 33.597720 1.071356 0.779841 0.052867 -0.022533 -621633.000000 0 0 1
-11.839514 -20.501629 25.150131 34.540121 1.047092 0.755188 0.055458 -0.027809 362089.000000 0 0 1
-13.254114 -20.275429 24.995891 34.807458 0.991822 0.769701 0.064485 -0.021401 891373.000000 0 0 1
-13.943314 -20.375429 26.385301 36.135277 0.970672 0.752209 0.069442 -0.024894 -503764.000000 0 0 1
-13.863614 -21.678329 27.023471 37.315114 1.001827 0.760928 0.060170 -0.023426 -656277.000000 0 0 1
-12.745614 -21.632729 27.829981 37.482443 1.038369 0.734031 0.063077 -0.021634 -310886.000000 0 0 1
-12.177014 -22.966829 28.314201 38.437598 1.083282 0.742726 0.053641 -0.011152 251601.000000 0 0 1
-13.159214 -23.422329 29.221421 39.694608 1.058921 0.743423 0.055351 -0.016541 154580.000000 0 0 1
-12.673714 -24.553529 29.879501 40.697462 1.094299 0.746330 0.054599 -0.013069 -211754.000000 0 0 1
-13.672114 -25.282159 30.829381 42.149318 1.075058 0.750376 0.063203 -0.014849 199140.000000 0 0 1
-13.538914 -24.923229 32.173296 42.890448 1.073170 0.722542 0.045707 -0.007198 -65679.000000 0 0 1
-14.586814 -25.431989 32.967529 44.118241 1.050044 0.726876 0.061176 -0.007923 -175188.000000 0 0 1
-14.709814 -24.837729 -33.466574 44.196188 1.036105 2.429854 0.058614 -0.014527 72374.900000 0 0 1
-14.859814 -23.416929 -33.333584 43.362362 1.005341 2.447636 0.047306 -0.018872 230050.000000 0 0 1
-16.027714 -22.790029 -33.855934 43.846292 0.957874 2.453015 0.054186 -0.029474 -93.714200 0 0 1
-15.955714 -21.216029 -33.681764 42.885498 0.925978 2.474119 0.028248 -0.025287 -57205.200000 0 0 1
-16.242814 -20.864929 -32.330894 41.766745 0.909319 2.456060 0.025147 -0.021523 101360.000000 0 0 1
-16.293014 -19.455129 -32.176424 40.979100 0.873624 2.473801 0.024307 -0.023748 -846711.000000 0 0 1
-16.374114 -18.904829 -30.726094 39.618140 0.857010 2.458392 0.027155 -0.013794 575238.000000 0 0 1
-17.551514 -19.386829 -30.032554 39.822846 0.835043 2.425161 0.022591 -0.017363 762764.000000 0 0 1
-17.535614 -19.308629 -28.614544 38.718381 0.833483 2.402445 0.011858 -0.011826 -207496.000000 0 0 1
-16.711014 -20.347829 -27.836414 38.316551 0.883221 2.383990 0.014581 -0.012146 155327.000000 0 0 1
-15.310114 -20.121129 -27.912814 37.661447 0.920357 2.405579 0.024288 -0.010959 223526.000000 0 0 1
-14.689714 -21.286429 -27.322124 37.621779 0.966747 2.383621 0.025758 -0.014220 424412.000000 0 0 1
-13.136814 -21.269429 -27.287474 37.007712 1.017508 2.399929 0.080779 -0.021185 -202558.000000 0 0 1
-12.620214 -20.324129 -26.370784 35.605593 1.015117 2.404813 0.086872 -0.026181 515022.000000 0 0 1
-11.199214 -20.187729 -26.353864 35.035596 1.064311 2.422195 0.073850 -0.035687 665371.000000 0 0 1
-10.449414 -21.261529 -25.547704 34.841470 1.113996 2.393894 0.104169 -0.043783 -670889.000000 0 0 1
-10.480814 -22.558129 -26.085434 36.043953 1.135856 2.379962 0.100066 -0.044803 -12319.900000 0 0 1
-10.084714 -23.471129 -25.054664 35.781721 1.164981 2.346486 0.135056 -0.043793 76321.300000 0 0 1
-10.016514 -24.941429 -25.470764 37.029249 1.188910 2.329326 0.122928 -0.038735 -273103.000000 0 0 1
-8.860514 -25.326539 -26.178704 37.486889 1.234254 2.343876 0.114259 -0.039173 -212386.000000 0 0 1
-8.931614 -26.474119 -27.002474 38.855969 1.245416 2.339129 0.103819 -0.030230 -316777.000000 0 0 1
-9.043514 -27.871729 -26.300564 39.374333 1.257045 2.302263 0.117545 -0.024639 -409965.000000 0 0 1
-10.082614 -28.141109 -25.394244 39.223064 1.226757 2.275006 0.107877 -0.031059 -36535.600000 0 0 1
-9.790414 -29.221059 -24.495254 39.366737 1.247505 2.242387 0.149500 -0.033701 -404227.000000 0 0 1
-10.848214 -29.325869 -23.387054 39.046698 1.216487 2.212987 0.165599 -0.035336 -155060.000000 0 0 1
-10.881814 -28.322919 -22.403754 37.716440 1.203980 2.206825 0.143647 -0.040174 -155869.000000 0 0 1
-11.818014 -27.335689 -22.787254 37.498857 1.162734 2.223931 0.128387 -0.037903 -230126.000000 0 0 1
-11.929414 -26.094019 -21.870154 36.076480 1.141995 2.222091 0.128533 -0.048934 -76179.500000 0 0 1
-12.569414 -26.347419 -20.649154 35.757017 1.125665 2.186442 0.099846 -0.040468 31831.600000 0 0 1
-12.586614 -25.309739 -19.697254 34.452686 1.109308 2.179396 0.089403 -0.036974 -40885.300000 0 0 1
-13.133214 -25.765689 -18.339354 34.244473 1.099405 2.135946 0.119584 -0.039854 -62450.600000 0 0 1
-14.500614 -26.098609 -18.323954 35.031022 1.063657 2.121255 0.148853 -0.041694 -154082.000000 0 0 1
-14.922114 -26.285979 -16.949554 34.654142 1.054478 2.081861 0.139354 -0.037267 117246.000000 0 0 1
-16.457514 -26.344109 -16.818554 35.323160 1.012403 2.067049 0.148464 -0.040792 -1105100.000000 0 0 1
-17.160614 -25.150719 -17.029554 34.886259 0.972041 2.080759 0.130556 -0.028772 -225169.000000 0 0 1
-18.481814 -25.108149 -16.542754 35.293899 0.936258 2.058631 0.135359 -0.027266 361015.000000 0 0 1
-19.488614 -25.949109 -17.422454 36.833467 0.926635 2.063496 0.126349 -0.026674 -1048450.000000 0 0 1
-19.273114 -27.336129 -17.634754 37.811393 0.956695 2.055999 0.129754 -0.038908 -283260.000000 0 0 1
-19.704914 -28.236029 -16.616054 38.231535 0.961505 2.020409 0.132434 -0.040551 161438.000000 0 0 1
-21.224414 -28.565609 -16.527454 39.238075 0.931787 2.005575 0.125598 -0.030332 287643.000000 0 0 1
-21.719114 -29.428979 -17.496654 40.545254 0.935008 2.016989 0.108987 -0.033291 599759.000000 0 0 1
-23.053414 -29.842049 -17.120954 41.414187 0.913041 1.996990 0.102678 -0.021225 919125.000000 0 0 1
-23.665514 -30.834819 -18.131954 42.890680 0.916193 2.007272 0.073816 -0.022027 -118511.000000 0 0 1
-23.022714 -32.072059 -18.301754 43.515705 0.948195 2.004879 0.071509 -0.026219 19930.000000 0 0 1
-23.483114 -32.722809 -19.509354 44.753255 0.948331 2.021869 0.050159 -0.018982 263518.000000 0 0 1
-22.969714 33.910229 -19.541254 45.380304 -0.975421 2.015966 0.041448 -0.018852 122123.000000 0 0 1
-23.486514 33.089332 -18.463354 44.580441 -0.953529 1.997814 0.045365 -0.017399 61527.200000 0 0 1
-22.641714 31.995170 -18.118954 43.181415 -0.954948 2.003802 0.041328 -0.023019 -84502.700000 0 0 1
-23.355614 30.647260 -17.789654 42.440677 -0.919610 2.003322 0.051008 -0.027683 69909.900000 0 0 1
-24.195614 30.679900 -16.631754 42.465271 -0.903016 1.973226 0.040735 -0.030401 102654.000000 0 0 1
-24.886014 29.433340 -16.449754 41.907393 -0.868918 1.974173 0.047146 -0.022148 185005.000000 0 0 1
-24.054114 28.156950 -16.039054 40.356728 -0.863819 1.979513 0.046812 -0.016961 156937.000000 0 0 1
-23.159414 27.706960 -17.039754 39.929780 -0.874563 2.011685 0.025653 -0.000500 -170593.000000 0 0 1
-22.531314 26.509070 -16.700954 38.591615 -0.866333 2.018350 0.034969 0.000910 -76229.700000 0 0 1
-21.831314 25.981300 -17.981654 38.405392 -0.871978 2.058056 0.032472 0.016478 -854831.000000 0 0 1
-21.480614 24.638270 -17.833754 37.235788 -0.853759 2.070245 0.048241 0.001600 79896.300000 0 0 1
-20.710814 24.071780 -18.884854 36.946260 -0.860308 2.107311 0.041029 0.009012 831720.000000 0 0 1
-19.243814 24.617370 -18.945854 36.541547 -0.907303 2.115862 0.037050 0.005147 -252614.000000 0 0 1
-18.340214 24.151540 -17.957854 35.244076 -0.921319 2.105433 0.061632 -0.002903 1324370.000000 0 0 1
-17.207314 25.017350 -17.621354 35.106575 -0.968295 2.096635 0.084186 -0.012139 1149730.000000 0 0 1
-17.578414 26.297450 -16.777954 35.805813 -0.981563 2.058481 0.093052 -0.025914 -345370.000000 0 0 1
-18.328614 27.231840 -17.518954 37.207862 -0.978382 2.061039 0.062969 -0.010503 -183882.000000 0 0 1
-18.452414 28.444210 -16.787154 37.833493 -0.995319 2.030532 0.074841 -0.020179 -426675.000000 0 0 1
-19.640014 29.326910 -17.183954 39.256669 -0.980702 2.023872 0.060222 -0.018093 -438132.000000 0 0 1
-19.686814 29.964240 -18.475754 40.333359 -0.989509 2.046626 0.055708 -0.019869 -68347.500000 0 0 1
-19.881914 29.129690 -19.577654 40.337500 -0.971891 2.077555 0.031536 -0.009871 -250147.000000 0 0 1
-19.834814 29.811440 -20.996754 41.509101 -0.983711 2.101146 0.037609 -0.014815 228304.000000 0 0 1
-21.034214 30.493630 -21.316054 42.739605 -0.966955 2.092944 0.042293 -0.016216 143415.000000 0 0 1
-21.107214 30.631280 -22.707554 43.582368 -0.967441 2.118849 0.054150 -0.012702 -51483.800000 0 0 1
-21.707214 32.003620 -23.033854 45.011035 -0.974801 2.108003 0.056546 -0.014841 -179445.000000 0 0 1
-20.879714 33.066274 -22.647354 45.191189 -1.007572 2.095718 0.047964 -0.016266 -149521.000000 0 0 1
-21.232914 -33.831169 -23.385654 46.284700 1.010320 2.100476 0.069357 -0.014347 -394552.000000 0 0 1
-20.358014 -32.567779 -23.250154 44.896310 1.012127 2.115148 0.078390 -0.018320 -170068.000000 0 0 1
-20.257314 -31.977569 -21.933754 43.749437 1.006119 2.095954 0.079335 -0.026317 292270.000000 0 0 1
-19.505614 -32.695279 -20.942454 43.451544 1.032889 2.073701 0.092495 -0.041102 -143994.000000 0 0 1
-19.224014 -31.663849 -19.789954 41.997671 1.025152 2.061465 0.113458 -0.048738 -464804.000000 0 0 1
-18.197614 -30.796749 -20.150254 41.056372 1.037099 2.083798 0.126414 -0.051406 -552225.000000 0 0 1
-17.768714 -30.135119 -19.038554 39.828622 1.038033 2.069186 0.120634 -0.049136 -390855.000000 0 0 1
-16.549214 -29.252099 -19.361154 38.786803 1.055946 2.093435 0.138373 -0.042713 -170244.000000 0 0 1
-15.406514 -30.012909 -19.671554 39.052598 1.096542 2.098695 0.143267 -0.055367 -1341920.000000 0 0 1
-14.404814 -29.141799 -19.962954 38.147905 1.111718 2.121520 0.132032 -0.049892 -1808110.000000 0 0 1
-13.123514 -29.797029 -20.487054 38.468285 1.155929 2.132430 0.161819 -0.051429 29228.300000 0 0 1
-12.341214 -30.480869 -19.475254 38.218771 1.186087 2.105485 0.147459 -0.050870 601383.000000 0 0 1
-11.523314 -29.596489 -18.700954 36.857355 1.199507 2.102946 0.120154 -0.044103 -471554.000000 0 0 1
-10.590714 -30.307319 -17.696154 36.658569 1.234617 2.074564 0.110804 -0.028905 -156326.000000 0 0 1
-11.198514 -30.896769 -16.545854 36.793781 1.223074 2.037216 0.135233 -0.047808 402345.000000 0 0 1
-12.000914 -32.069439 -16.839054 38.157891 1.212713 2.027843 0.141891 -0.050501 159578.000000 0 0 1
-13.066914 -32.371819 -15.775054 38.308371 1.187147 1.995215 0.129672 -0.055473 30482.400000 0 0 1
-12.473214 -33.020429 -14.645354 38.215392 1.209624 1.964089 0.118207 -0.042034 -128618.000000 0 0 1
-13.446514 -33.192609 -13.643254 38.323575 1.185896 1.934782 0.118514 -0.032185 -511484.000000 0 0 1
-13.056614 -33.751649 -12.318454 38.228174 1.201683 1.898886 0.096520 -0.030056 -747055.000000 0 0 1
-12.183614 -32.894149 -11.686954 36.973645 1.216075 1.892400 0.088918 -0.013812 -575617.000000 0 0 1
-12.015714 -33.340199 -10.397354 36.933064 1.224889 1.856173 0.087480 -0.018624 -84078.800000 0 0 1
-10.852214 -32.682689 -9.597254 35.749629 1.250203 1.842588 0.069250 -0.022145 459621.000000 0 0 1
-9.623814 -33.088389 -10.168754 35.928580 1.287753 1.857745 0.048574 -0.024569 -550977.000000 0 0 1
-8.476914 -32.662019 -9.512854 35.059378 1.316865 1.845577 0.034673 -0.019547 252866.000000 0 0 1
-7.162714 -33.324559 -10.031754 35.531209 1.359079 1.857025 0.045441 -0.031728 357583.000000 0 0 1
-6.750314 33.536322 -9.470154 35.495570 -1.372167 1.840866 0.040084 -0.016888 -107029.000000 0 0 1
-5.512314 33.141809 -10.017954 35.058872 -1.405980 1.860582 0.052136 -0.017698 -324226.000000 0 0 1
-4.705714 32.150283 -9.229954 33.778344 -1.425462 1.847567 0.061053 -0.023981 -192861.000000 0 0 1
-4.164914 32.811416 -8.071454 34.045321 -1.444537 1.810155 0.074261 -0.028271 224472.000000 0 0 1
-3.419314 31.936930 -7.221654 32.921292 -1.464138 1.791956 0.073103 -0.033328 196603.000000 0 0 1
-2.952314 32.540304 -5.887954 33.200234 -1.480316 1.749086 0.087524 -0.032732 -728766.000000 0 0 1
-1.859014 33.396588 -5.994454 33.981193 -1.515189 1.748129 0.071380 -0.030486 -392432.000000 0 0 1
-1.556714 34.021891 -4.693354 34.379354 -1.525072 1.707741 0.077581 -0.024271 587287.000000 0 0 1
-0.519214 33.147941 -3.901054 33.380740 -1.555134 1.687929 0.077596 -0.031971 105334.000000 0 0 1
0.808986 33.088973 -4.393454 33.389176 1.546352 1.702762 0.082454 -0.034960 13637.300000 0 0 1
1.622186 32.395315 -3.486854 32.622785 1.520763 1.677885 0.073092 -0.033094 1781530.000000 0 0 1
3.191586 32.345113 -3.832554 32.727374 1.472442 1.688171 0.068686 -0.026813 1838000.000000 0 0 1
3.733986 33.633144 -3.640354 34.035029 1.460228 1.677960 0.071362 -0.020568 1363960.000000 0 0 1
5.178086 33.706404 -3.877154 34.321518 1.418365 1.684004 0.081639 -0.014957 1932470.000000 0 0 1
5.807986 -33.019439 -3.478454 33.706315 -1.396681 1.674179 0.081337 -0.013323 -23955.300000 0 0 1
5.733286 -32.077899 -4.502954 32.895878 -1.393934 1.708113 0.085296 -0.020410 -14187.500000 0 0 1
6.069386 -30.774289 -4.048654 31.627297 -1.376073 1.699160 0.093538 -0.024159 48379.100000 0 0 1
5.845486 -29.660409 -5.095154 30.657302 -1.376210 1.737768 0.100422 -0.032133 -199235.000000 0 0 1
6.877686 -29.553619 -6.054454 30.941483 -1.342147 1.767741 0.109059 -0.032463 26185.700000 0 0 1
6.763686 -28.401519 -6.874654 29.994243 -1.337006 1.802051 0.113910 -0.031838 197295.000000 0 0 1
7.178786 -26.983699 -6.283354 28.620544 -1.310778 1.792139 0.108672 -0.030272 637891.000000 0 0 1
6.230886 -26.487309 -5.329954 27.727421 -1.339757 1.764227 0.099394 -0.030204 226527.000000 0 0 1
6.825286 -25.444889 -4.527354 26.730579 -1.308728 1.740987 0.076228 -0.033434 -14338.500000 0 0 1
5.941886 -24.752429 -3.477254 25.692023 -1.335202 1.706557 0.077694 -0.028089 -432720.000000 0 0 1
4.888186 -24.095829 -4.118454 24.929200 -1.370648 1.736763 0.080465 -0.032342 -519068.000000 0 1 0
3.964886 -23.602429 -3.179354 24.143390 -1.404364 1.702866 0.061375 -0.024733 -22878.800000 0 1 0
2.625686 -23.097229 -3.726954 23.542863 -1.457603 1.729770 0.069584 -0.020064 123424.000000 0 1 0
1.824986 -24.050229 -4.376354 24.513192 -1.495059 1.750289 0.078179 -0.024065 -676273.000000 0 1 0
0.478086 -23.678429 -4.320354 24.074095 -1.550608 1.751235 0.063637 -0.021847 -256158.000000 0 1 0
-15.530814 23.439171 18.024511 33.398861 -0.985614 1.000746 0.008914 -0.017763 -153134.000000 0 0 1
-15.822514 22.730471 19.209011 33.704783 -0.962698 0.964389 0.022697 -0.014555 330655.000000 0 0 1
-15.662014 23.490971 20.386311 34.824217 -0.982753 0.945415 0.036130 -0.014819 -804815.000000 0 0 1
-15.654114 22.890671 21.821211 35.287383 -0.970982 0.904109 0.048623 -0.017625 239212.000000 0 0 1
-14.571414 22.015671 22.210611 34.501118 -0.986125 0.871388 0.038546 -0.008764 3196650.000000 0 0 1
-13.159314 22.482471 22.113311 34.170566 -1.041245 0.866963 0.022463 -0.012840 2197590.000000 0 0 1
-12.701714 23.681971 22.987781 35.363928 -1.078497 0.863166 0.056096 -0.006119 -518899.000000 0 0 1
-12.707914 23.356071 24.383511 36.077039 -1.072498 0.828647 0.047937 -0.000408 204371.000000 0 0 1
-12.231014 24.432571 25.207611 37.174883 -1.106667 0.825647 0.075358 -0.008981 99514.300000 0 0 1
-11.649014 23.935171 26.535331 37.586111 -1.117853 0.786980 0.070270 -0.012893 474408.000000 0 0 1
-10.321814 23.418071 26.517761 36.852918 -1.155651 0.767633 0.041741 -0.011082 8169.240000 0 0 1
-10.041814 22.627371 27.617961 37.088916 -1.153118 0.730798 0.030318 -0.007775 -567714.000000 0 0 1
-8.558314 22.251971 27.804451 36.626254 -1.203628 0.708806 0.035533 -0.019560 746116.000000 0 0 1
-7.587514 23.244671 28.177831 37.307845 -1.255281 0.714717 0.051896 -0.018510 358125.000000 0 0 1
-7.432514 24.311571 27.242671 37.262017 -1.274101 0.750847 0.054481 -0.012504 -1003610.000000 0 0 1
-6.324014 25.255071 27.723131 38.031352 -1.325436 0.754003 0.049747 -0.020887 -993306.000000 0 0 1
-5.047314 24.789971 27.517811 37.379780 -1.369939 0.743405 0.046170 -0.017214 -1496270.000000 0 0 1
-4.117814 25.732371 27.950391 38.214339 -1.412117 0.750407 0.056199 -0.018034 -663300.000000 0 0 1
-2.668714 25.292171 28.022251 37.842602 -1.465670 0.736990 0.051457 -0.020304 -620849.000000 0 0 1
-1.957014 25.310971 26.791211 36.908592 -1.493631 0.758483 0.058069 -0.020887 7680.640000 0 0 1
-0.636314 24.859671 27.007311 36.712436 -1.545206 0.744178 0.072104 -0.013963 227768.000000 0 0 1
0.232186 24.633971 25.767721 35.649150 1.561371 0.762930 0.063021 -0.019642 -121346.000000 0 0 1
-0.243114 23.574171 24.999511 34.362424 -1.560484 0.756089 0.072314 -0.012388 -74361.800000 0 0 1
0.370786 23.591971 23.693111 33.437735 1.555081 0.783321 0.075523 -0.008524 294711.000000 0 0 1
0.032586 22.367671 22.817311 31.952206 1.569340 0.775448 0.050128 -0.010228 -29092.700000 0 0 1
0.615886 21.209071 23.291451 31.507074 1.541766 0.738848 0.074583 -0.007329 -219391.000000 0 0 1
0.093086 20.065571 22.658511 30.266218 1.566157 0.724787 0.071619 -0.006984 -54225.600000 0 0 1
0.990086 18.825771 22.865391 29.634710 1.518253 0.689484 0.084657 -0.004057 165143.000000 0 0 1
2.164986 18.889071 22.088511 29.144236 1.456679 0.710703 0.071545 -0.006139 -344253.000000 0 0 1
2.919486 17.723971 22.100111 28.479422 1.407543 0.682493 0.060850 -0.006600 533456.000000 0 0 1
4.359186 17.724671 21.464511 28.176084 1.329644 0.704711 0.057951 -0.008172 434998.000000 0 0 1
5.224786 18.350771 22.337611 29.377169 1.293418 0.706909 0.055804 -0.002191 -356516.000000 0 0 1
6.486786 18.689071 21.739511 29.393300 1.236716 0.738309 0.068425 -0.013554 526542.000000 0 0 1
7.527186 19.240171 22.749811 30.731037 1.197880 0.737298 0.081200 -0.022849 -321141.000000 0 0 1
7.282686 20.440071 23.400561 31.912698 1.228525 0.747680 0.063743 -0.013288 -45924.800000 0 0 1
7.106986 21.577471 22.542411 32.004012 1.252616 0.789272 0.069166 -0.018785 -1313970.000000 0 0 1
5.881886 22.355371 22.853021 32.505688 1.313519 0.791123 0.044177 -0.010760 -1130330.000000 0 0 1
5.752786 23.632571 22.192211 32.925479 1.332014 0.831168 0.032175 -0.016766 346380.000000 0 0 1
4.770986 24.388671 22.914991 33.803349 1.377613 0.825906 0.008863 -0.009852 -120910.000000 0 0 1
4.448386 25.733871 22.221811 34.290365 1.399627 0.865777 0.025662 -0.014082 -49902.400000 0 0 1
4.033386 25.810871 20.882611 33.444771 1.415783 0.896445 0.032356 -0.018045 -1039740.000000 0 0 1
2.833186 25.181571 20.656711 32.693091 1.458757 0.886875 0.052133 -0.019412 -1262140.000000 0 0 1
2.404786 25.358371 19.197611 31.896367 1.476247 0.924950 0.055880 -0.026714 -263375.000000 0 0 1
2.035586 26.715171 18.979711 32.834028 1.494747 0.954459 0.070599 -0.033223 211904.000000 0 0 1
1.657486 27.097371 17.644511 32.378134 1.509705 0.994465 0.082352 -0.030149 -376179.000000 0 0 1
0.541486 28.111071 17.515111 33.125589 1.551536 1.013671 0.071475 -0.011373 -240787.000000 0 0 1
0.914386 29.427771 17.942911 34.478658 1.539734 1.023470 0.076196 -0.012659 827789.000000 0 0 1
-0.276414 30.208171 18.078911 35.205923 -1.561646 1.031515 0.054538 -0.008155 586429.000000 0 0 1
0.093286 31.546871 18.711311 36.678699 1.567839 1.035448 0.062725 -0.003193 21508.200000 0 0 1
0.395986 31.345971 20.080311 37.228290 1.558164 1.001092 0.067173 -0.011796 16116.600000 0 0 1
0.988586 32.508971 20.605211 38.501756 1.540396 1.006080 0.075074 -0.014277 -250645.000000 0 0 1
1.487486 32.564871 22.112011 39.390665 1.525150 0.974778 0.076031 -0.020310 -507209.000000 0 0 1
0.496886 32.516171 23.083271 39.879640 1.555516 0.953511 0.079141 -0.012985 -373413.000000 0 0 1
0.984686 32.526671 24.378961 40.660640 1.540532 0.927831 0.092079 -0.026702 -833406.000000 0 0 1
-0.119514 32.137371 25.322151 40.914988 -1.567077 0.903459 0.082354 -0.022021 -1042470.000000 0 0 1
-1.182814 33.052171 25.288131 41.633336 -1.535025 0.918011 0.084584 -0.016360 -333052.000000 0 0 1
-2.076914 32.817971 26.361441 42.145680 -1.507595 0.895045 0.084143 -0.018981 -152231.000000 0 0 1
-1.681514 33.265671 27.816661 43.395841 -1.520291 0.874998 0.095789 -0.028349 -552274.000000 0 0 1
-0.712514 32.427071 28.424001 43.127096 -1.548827 0.851208 0.093419 -0.028457 114526.000000 0 0 1
-0.234114 33.000871 29.640171 44.358224 -1.563702 0.839009 0.084015 -0.032712 -650394.000000 0 0 1
0.927186 32.158371 30.183571 44.114266 1.541972 0.817272 0.075635 -0.028992 117155.000000 0 0 1
2.224886 32.210271 29.607031 43.806711 1.501832 0.828671 0.077379 -0.026971 527756.000000 0 0 1
2.324286 31.707171 28.298941 42.562625 1.497622 0.843466 0.078379 -0.030718 -400488.000000 0 0 1
3.802186 31.451771 27.871481 42.195853 1.450491 0.849276 0.068428 -0.023597 377199.000000 0 0 1
4.405386 30.404171 28.609811 41.980261 1.426904 0.820977 0.067651 -0.025441 -589692.000000 0 0 1
5.772086 30.479071 28.325991 42.007767 1.383634 0.830775 0.103316 -0.038229 -426128.000000 0 0 1
6.529286 29.185471 28.755281 41.488426 1.350703 0.805027 0.118726 -0.026347 43839.600000 0 0 1
6.648886 29.239971 30.188791 42.550519 1.347208 0.782035 0.118091 -0.040351 507381.000000 0 0 1
7.432086 28.121171 30.687861 42.282159 1.312416 0.758618 0.108139 -0.035418 476475.000000 0 0 1
7.585786 28.112671 32.259922 43.457669 1.307238 0.734256 0.119814 -0.038019 1001050.000000 0 0 1
6.272586 27.923871 32.844260 43.564129 1.349832 0.716774 0.104670 -0.033504 1004050.000000 0 0 1
6.368986 27.910871 -33.595334 44.138726 1.346448 2.435851 0.113994 -0.029443 7852.340000 0 0 1
6.561486 26.525371 -33.005304 42.848553 1.328298 2.450074 0.117960 -0.023950 -701547.000000 0 0 1
7.878686 26.103871 -33.062284 42.855576 1.277670 2.451963 0.124215 -0.027410 -646816.000000 0 0 1
7.908586 24.721071 -32.909454 41.913115 1.261173 2.473787 0.132153 -0.030013 -518535.000000 0 0 1
9.272086 24.175271 -33.273464 42.160867 1.204563 2.480306 0.128368 -0.025647 -1327550.000000 0 0 1
9.641786 24.100971 33.250277 42.182956 1.190240 0.662853 0.111521 -0.021517 607457.000000 0 0 1
10.957986 23.619171 32.981980 42.020872 1.136407 0.668269 0.116402 -0.033622 295256.000000 0 0 1
11.093086 22.163471 33.343960 41.546308 1.106739 0.639200 0.114644 -0.033388 -1351820.000000 0 0 1
10.578786 21.293471 32.384078 40.175255 1.109705 0.633315 0.112080 -0.034904 -4413.740000 0 0 1
10.423086 19.932771 32.795856 39.768382 1.088988 0.601175 0.101205 -0.037435 -96238.000000 0 0 1
9.123486 19.671871 33.563216 39.958854 1.136539 0.573616 0.130337 -0.038751 -409711.000000 0 0 1
9.207386 20.218071 -33.019024 39.797014 1.143458 2.549341 0.147110 -0.043593 826333.000000 0 0 1
7.921686 20.230971 -32.361094 38.978016 1.197585 2.550334 0.146610 -0.047073 804767.000000 0 0 1
7.980786 20.837071 -30.890874 38.106726 1.205023 2.516042 0.147560 -0.048066 -381476.000000 0 0 1
7.965086 22.294571 -30.839964 38.879222 1.227663 2.486883 0.157603 -0.040539 111210.000000 0 0 1
8.082186 22.695371 -29.477394 38.069914 1.228683 2.456399 0.125812 -0.035866 381394.000000 0 0 1
9.568586 22.883471 -29.035974 38.187679 1.174747 2.434647 0.115703 -0.031708 340097.000000 0 0 1
10.252886 21.671071 -28.872394 37.528284 1.128888 2.448620 0.107141 -0.028586 -542731.000000 0 0 1
11.626286 21.932571 -28.675474 37.927444 1.083366 2.428071 0.099670 -0.017835 397346.000000 0 0 1
12.407386 20.545171 -28.627814 37.357717 1.027509 2.443883 0.096751 -0.026879 154050.000000 0 0 1
12.478086 19.660871 -29.809204 37.826461 1.005276 2.478434 0.098830 -0.030619 -589478.000000 0 0 1
11.269386 19.112371 -30.189584 37.465888 1.038031 2.507802 0.120394 -0.034365 -959037.000000 0 0 1
11.494486 18.130371 -31.372054 38.013673 1.005758 2.541500 0.123480 -0.040567 -213145.000000 0 0 1
12.013486 16.820871 -31.031834 37.285926 0.950603 2.553980 0.128353 -0.036513 311014.000000 0 0 1
12.072586 15.993471 -32.202864 37.928392 0.924202 2.584969 0.121125 -0.030674 382460.000000 0 0 1
13.393686 16.057371 -33.050434 39.109605 0.875597 2.577496 0.098649 -0.014751 318831.000000 0 0 1
13.586886 17.391871 -33.550824 40.158915 0.907612 2.559750 0.100605 -0.024721 20628.700000 0 0 1
14.175486 17.498471 33.022980 39.970715 0.889928 0.598504 0.096941 -0.026280 12675.700000 0 0 1
13.270186 17.079571 31.823731 38.478038 0.910261 0.596935 0.095655 -0.032061 -818685.000000 0 0 1
13.585986 17.758871 30.593961 37.893891 0.917748 0.631134 0.087090 -0.026357 298373.000000 0 0 1
12.696486 17.495971 29.500311 36.572915 0.943042 0.632391 0.087698 -0.027130 706592.000000 0 0 1
11.180786 17.799671 29.681261 36.370531 1.009938 0.616201 0.067445 -0.018207 -17755.700000 0 0 1
10.503586 16.839271 30.492771 36.382626 1.013093 0.576981 0.079398 -0.020735 -837454.000000 0 0 1
9.145386 17.125471 30.426761 36.093041 1.080303 0.567943 0.084165 -0.022708 -992110.000000 0 0 1
8.290586 16.197371 31.227231 36.141785 1.097716 0.527595 0.112004 -0.025361 -402757.000000 0 0 1
8.454086 16.398171 32.647966 37.500150 1.094786 0.514358 0.130446 -0.022791 335124.000000 0 0 1
7.787586 15.385171 33.411922 37.599289 1.102221 0.476443 0.145101 -0.033860 61798.000000 0 0 1
7.826386 15.693771 -32.969614 37.343570 1.108194 2.652741 0.134344 -0.032947 -110886.000000 0 0 1
6.726186 16.497471 -32.635504 37.181773 1.183661 2.641897 0.137636 -0.036554 111365.000000 0 0 1
6.742286 16.476971 -31.216224 35.936077 1.182389 2.623287 0.131198 -0.046493 -41281.000000 0 0 1
5.766886 17.541371 -30.682524 35.810249 1.253168 2.599844 0.136733 -0.049988 -866366.000000 0 0 1
5.813886 17.744371 -29.272924 34.721291 1.254172 2.573787 0.121595 -0.063328 431282.000000 0 0 1
4.916286 18.736671 -28.774684 34.687392 1.314192 2.549085 0.127641 -0.067381 277706.000000 0 0 1
3.401086 18.523271 -28.918584 34.510338 1.389207 2.564347 0.155365 -0.072554 -1469430.000000 0 0 1
2.837586 17.663271 -27.964294 33.197060 1.411508 2.572467 0.159689 -0.065922 -101784.000000 0 0 1
1.454686 17.456571 -28.166704 33.169432 1.487657 2.585220 0.157166 -0.065198 261160.000000 0 0 1
0.539086 18.616671 -27.697374 33.376872 1.541847 2.549612 0.151363 -0.071935 -786246.000000 0 0 1
0.316086 18.675271 -26.317764 32.272130 1.553873 2.524380 0.164763 -0.074994 -321555.000000 0 0 1
-0.577414 19.737671 -26.183144 32.794300 -1.541550 2.495438 0.170068 -0.068628 -221424.000000 0 0 1
-1.045114 19.933371 -24.706854 31.762559 -1.518414 2.462051 0.151718 -0.071866 1139540.000000 0 0 1
-2.207914 19.135471 -24.305454 31.012840 -1.455921 2.471433 0.136389 -0.061787 945740.000000 0 0 1
-2.701614 19.720871 -23.117554 30.506274 -1.434651 2.430726 0.126460 -0.059967 167158.000000 0 0 1
-3.846614 18.953671 -22.387054 29.584088 -1.370568 2.429087 0.102280 -0.045990 -252889.000000 0 0 1
-5.115814 19.342571 -22.818654 30.347942 -1.312232 2.421737 0.101860 -0.037896 -444378.000000 0 0 1
-6.031814 18.454271 -22.152454 29.456309 -1.254890 2.421955 0.095482 -0.038335 506428.000000 0 0 1
-7.564814 18.726671 -22.129654 29.960578 -1.186881 2.401826 0.102418 -0.028673 529197.000000 0 0 1
-7.967814 19.736471 -21.204554 30.044092 -1.187096 2.354322 0.071411 -0.025343 83934.300000 0 0 1
-7.689614 21.001671 -21.687154 31.153379 -1.219813 2.340805 0.082572 -0.036207 -392358.000000 0 0 1
-8.174614 22.043671 -20.665754 31.302095 -1.215680 2.291886 0.089716 -0.037990 -166279.000000 0 0 1
-7.462814 22.003271 -19.480854 30.320640 -1.243803 2.268546 0.107630 -0.042452 -9152.440000 0 0 1
-7.893214 23.081471 -18.628854 30.693506 -1.241291 2.222990 0.107968 -0.038714 -363002.000000 0 0 1
-7.028714 23.274871 -17.394054 29.894407 -1.277517 2.191798 0.133174 -0.046888 -895592.000000 0 0 1
-5.741214 23.642971 -17.738154 30.109695 -1.332578 2.200763 0.139525 -0.052855 -1335820.000000 0 0 1
-4.888214 23.527971 -16.634554 29.226160 -1.365949 2.176288 0.126164 -0.046290 489982.000000 0 0 1
-3.379314 23.860971 -16.785554 29.368700 -1.430107 2.179185 0.123560 -0.044565 606880.000000 0 0 1
-3.143814 25.238871 -16.940254 30.559064 -1.446872 2.158372 0.105060 -0.041500 -346517.000000 0 0 1
-1.784314 25.493371 -17.205354 30.807790 -1.500919 2.163342 0.104294 -0.047913 95640.500000 0 0 1
-1.416714 26.977871 -17.075254 31.958988 -1.518331 2.134460 0.099857 -0.059121 -3989.230000 0 0 1
-1.985114 27.724971 -18.141154 33.192110 -1.499318 2.149035 0.108031 -0.062775 -138001.000000 0 0 1
-1.634614 29.053871 -18.158854 34.300778 -1.514594 2.128690 0.112703 -0.066134 -895175.000000 0 0 1
-2.566614 29.929171 -18.999654 35.543349 -1.485249 2.134770 0.140013 -0.069208 527816.000000 0 0 1
-3.840314 30.184871 -18.395654 35.556638 -1.444250 2.114562 0.111114 -0.063020 368057.000000 0 0 1
-4.831014 29.247871 -18.756454 35.079641 -1.407099 2.134928 0.083665 -0.065488 598357.000000 0 0 1
-6.173814 29.371571 -17.893054 34.942332 -1.363616 2.108394 0.103079 -0.054374 1620720.000000 0 0 1
-6.907814 30.587371 -18.238054 36.275774 -1.348684 2.097586 0.134766 -0.045460 388758.000000 0 0 1
-6.569714 31.629971 -17.331654 36.660639 -1.366003 2.063216 0.135889 -0.075602 -232046.000000 0 0 1
-7.162614 33.016371 -17.741954 38.159674 -1.357165 2.054363 0.132407 -0.042870 -68953.500000 0 0 1
-8.560114 33.060271 -17.861654 38.539535 -1.317436 2.052696 0.142460 -0.067526 -399194.000000 0 0 1
-8.983014 -33.726638 -18.208554 39.366637 1.310492 2.051652 0.177450 -0.054007 -125694.000000 0 0 1
30.068986 -20.402529 -26.138914 44.762148 -0.596167 2.194384 0.078615 -0.007046 337974.000000 0 0 1
29.490386 -21.672129 -25.869754 44.817499 -0.633759 2.186122 0.084584 -0.023836 555100.000000 0 0 1
28.075486 -21.852129 -26.037454 44.087384 -0.661390 2.202583 0.072020 -0.016808 793538.000000 0 0 1
27.655886 -23.107329 -25.323644 44.046380 -0.696033 2.183317 0.060811 -0.017385 -26917.500000 0 0 1
28.063386 -24.342529 -25.928434 45.303378 -0.714516 2.180139 0.059832 -0.005244 248780.000000 0 0 1
29.448886 -24.671329 -25.874684 46.318578 -0.697350 2.163523 0.071644 -0.009572 385776.000000 0 0 1
29.697886 -26.101609 -26.498004 47.596246 -0.721037 2.161234 0.067716 -0.010621 85089.200000 0 0 1
29.081986 -27.135639 -25.692724 47.352095 -0.750790 2.144312 0.083454 -0.026472 53287.500000 0 0 1
29.089686 -28.475519 -26.276464 48.451187 -0.774730 2.144003 0.071400 -0.022282 -128041.000000 0 0 1
28.085686 -28.740979 -27.408234 48.642172 -0.796929 2.169372 0.083242 -0.027042 -853649.000000 0 0 1
28.140186 -28.032599 -28.647274 48.973084 -0.783483 2.195627 0.050578 -0.025082 52176.100000 0 0 1
29.279986 -28.163959 -29.489364 50.201083 -0.765973 2.198669 0.026914 -0.018573 -288809.000000 0 0 1
29.473386 -29.561899 -30.132694 51.483644 -0.786897 2.196030 0.034153 -0.012215 -493550.000000 0 0 1
29.994686 -30.569639 -29.225624 51.849022 -0.794891 2.169616 0.046939 -0.013968 551128.000000 0 0 1
31.333086 -30.420229 -28.767294 52.294453 -0.770617 2.153283 0.045017 -0.012413 369015.000000 0 0 1
32.535086 -30.360119 -29.734414 53.520127 -0.750831 2.159850 0.035433 -0.013688 -537878.000000 0 0 1
32.657386 -29.056289 -30.268744 53.169255 -0.727113 2.176439 0.050798 -0.021431 -8429.490000 0 0 1
33.818986 -28.873489 -31.044084 54.232254 -0.706676 2.180261 0.051352 -0.020270 -409478.000000 0 0 1
33.826486 -27.449759 -31.717624 53.886251 -0.681706 2.200126 0.048028 -0.008423 84055.700000 0 0 1
33.605386 -26.316999 -30.843224 52.661284 -0.664362 2.196528 0.041058 -0.010585 -575189.000000 0 0 1
32.353586 -26.102179 -30.285264 51.432242 -0.678861 2.200417 0.052457 -0.008656 -838081.000000 0 0 1
32.218686 -24.708629 -29.659424 50.281622 -0.654232 2.201689 0.051136 -0.009207 -472475.000000 0 0 1
33.095186 -24.504829 -28.563144 50.116177 -0.637351 2.177227 0.058514 -0.010024 184262.000000 0 0 1
32.980886 -23.213529 -28.010284 49.103796 -0.613304 2.177826 0.053119 -0.006410 178508.000000 0 0 1
34.000286 -23.057429 -26.828164 49.065414 -0.595913 2.149314 0.060711 -0.014526 34607.500000 0 0 1
33.780686 -23.752529 -25.622924 48.598885 -0.612830 2.126137 0.062885 -0.022340 73680.600000 0 0 1
32.889186 -23.264429 -24.635754 47.221315 -0.615647 2.119649 0.086812 -0.016029 -22338.700000 0 0 1
33.439986 -22.041929 -23.864454 46.621792 -0.582780 2.108160 0.105071 -0.015645 -1529.470000 0 0 1
33.543286 -20.798229 -24.590654 46.501813 -0.555026 2.127995 0.103357 -0.022079 85061.400000 0 0 1
33.530786 -19.705829 -23.659854 45.523862 -0.531322 2.117324 0.088252 -0.026777 40756.500000 0 0 1
33.547086 -18.317029 -24.322154 45.304389 -0.499774 2.137508 0.074385 -0.031081 354835.000000 0 0 1
32.252586 -18.045529 -24.841854 44.530755 -0.510113 2.162599 0.089643 -0.028661 446668.000000 0 0 1
32.255286 -16.887629 -25.635614 44.528420 -0.482319 2.184273 0.094062 -0.026600 1048330.000000 0 0 1
31.023986 -16.834429 -26.653414 44.229969 -0.497164 2.217564 0.053440 -0.007713 76446.600000 0 0 1
29.784086 -16.468029 -26.191324 42.945002 -0.505077 2.226706 0.046985 -0.008390 -526763.000000 0 0 1
28.864086 -16.659529 -27.283014 43.070155 -0.523465 2.256807 0.021631 -0.006868 340592.000000 0 0 1
27.356286 -16.372129 -27.034014 41.800130 -0.539299 2.274105 0.007921 -0.001259 655982.000000 0 0 1
26.670486 -17.438429 -26.353714 41.351322 -0.579075 2.261802 0.052115 0.003677 325903.000000 0 0 1
26.775486 -17.192629 -24.976654 40.451778 -0.570804 2.236284 0.047383 0.007815 -188500.000000 0 0 1
26.003386 -18.278429 -24.169954 39.930737 -0.612686 2.220935 0.056704 0.008916 3046.540000 0 0 1
26.088886 -18.085929 -22.788154 39.077241 -0.606176 2.193405 0.054951 0.020542 71609.200000 0 0 1
25.106586 -18.758129 -22.024954 38.305439 -0.641668 2.183379 0.075100 0.004019 3672.120000 0 0 1
25.109886 -18.351429 -20.508254 37.254125 -0.631129 2.153755 0.071153 -0.006548 -303516.000000 0 0 1
24.597686 -17.028529 -20.270954 36.137633 -0.605527 2.166314 0.057663 -0.011764 554059.000000 0 0 1
25.364486 -15.902629 -20.775554 36.440011 -0.560011 2.177461 0.057573 0.004153 1405290.000000 0 0 1
26.821786 -15.619429 -20.221454 37.044324 -0.527334 2.148226 0.043786 0.000582 1040630.000000 0 0 1
26.726786 -14.927729 -19.019754 36.040383 -0.509369 2.126728 0.046071 -0.011270 740786.000000 0 0 1
27.903786 -14.136529 -18.883154 36.538147 -0.468927 2.113913 0.039111 -0.008580 -109544.000000 0 0 1
27.708586 -13.053329 -17.790554 35.421165 -0.440256 2.097004 0.045777 -0.004697 -258862.000000 0 0 1
27.758586 -13.492629 -16.453354 34.975748 -0.452442 2.060565 0.037073 -0.006518 410385.000000 0 0 1
27.662686 -12.401829 -15.558354 34.074799 -0.421459 2.044960 0.024816 -0.002645 -70592.600000 0 0 1
28.218086 -12.716729 -14.150554 34.032539 -0.423402 1.999613 0.040594 -0.014657 209761.000000 0 0 1
27.483086 -13.757129 -13.449154 33.547852 -0.464101 1.983290 0.063595 -0.025760 717870.000000 0 0 1
28.095186 -14.172729 -12.230954 33.760953 -0.467204 1.941510 0.074839 -0.028005 -16763.400000 0 0 1
27.394186 -15.457529 -11.727154 33.569372 -0.513728 1.927664 0.080286 -0.046338 1454620.000000 0 0 1
26.006786 -15.236929 -11.339654 32.204109 -0.529975 1.930630 0.060557 -0.037135 1551300.000000 0 0 1
25.428386 -16.363829 -10.725354 32.084434 -0.571811 1.911643 0.050981 -0.036943 782784.000000 0 0 1
23.953386 -16.254229 -10.191554 30.689288 -0.596203 1.909313 0.086501 -0.040226 639342.000000 0 0 1
23.728086 -15.631929 -8.929254 29.784406 -0.582533 1.875275 0.083114 -0.036090 1171730.000000 0 0 1
22.313686 -15.584529 -8.666854 28.563832 -0.609671 1.879077 0.098347 -0.042763 555816.000000 0 0 1
22.077886 -15.345329 -7.177854 27.828650 -0.607399 1.831676 0.090098 -0.035599 -251060.000000 0 0 1
22.547386 -14.008129 -6.832654 27.409806 -0.555916 1.822731 0.104630 -0.027439 540123.000000 0 0 1
22.368186 -13.632329 -5.444254 26.754738 -0.547340 1.775715 0.108703 -0.027516 -359780.000000 0 0 1
23.152486 -14.464329 -4.394054 27.650716 -0.558414 1.730386 0.106697 -0.025939 -88293.000000 0 0 1
24.526186 -14.190429 -4.580054 28.703292 -0.524523 1.731047 0.122773 -0.025418 551560.000000 0 0 1
25.430186 -14.970829 -3.772254 29.749789 -0.532072 1.697938 0.122680 -0.032239 905051.000000 0 0 1
26.923886 -14.674529 -4.109554 30.937451 -0.499025 1.704024 0.131532 -0.035882 346158.000000 0 0 1
27.443486 -13.395229 -3.745954 30.767015 -0.454084 1.692851 0.139914 -0.032842 929883.000000 0 0 1
28.812386 -13.198629 -4.122554 31.958611 -0.429560 1.700153 0.152330 -0.039901 585498.000000 0 0 1
29.508086 -11.983929 -3.518654 32.042512 -0.385774 1.680830 0.156236 -0.041885 -1003990.000000 0 0 1
29.951986 -12.233429 -2.192054 32.428126 -0.387756 1.638445 0.157182 -0.042387 341973.000000 0 0 1
30.599286 -11.116029 -1.613854 32.595811 -0.348454 1.620328 0.164129 -0.040888 -655906.000000 0 0 1
32.027486 -10.823929 -2.027554 33.867806 -0.325907 1.630699 0.155953 -0.035666 -1276050.000000 0 0 1
32.094886 -10.362429 -3.331854 33.890454 -0.312303 1.669268 0.149456 -0.038013 842016.000000 0 0 1
33.379486 -10.675029 -3.908754 35.262227 -0.309529 1.681873 0.143024 -0.034447 662735.000000 0 0 1
33.428586 -10.484429 -5.407254 35.449006 -0.303920 1.723930 0.134639 -0.034893 -140518.000000 0 0 1
32.580786 -11.360929 -6.132854 35.045545 -0.335516 1.746699 0.097608 -0.041934 263315.000000 0 0 1
32.285786 -10.916029 -7.448554 34.885708 -0.326040 1.785966 0.088763 -0.039992 431407.000000 0 0 1
30.915986 -11.488429 -7.944954 33.924983 -0.355788 1.807184 0.110577 -0.042514 662169.000000 0 0 1
31.049986 -12.883229 -8.043754 34.565607 -0.393301 1.805659 0.085764 -0.037596 -414918.000000 0 0 1
29.776486 -13.432729 -8.126154 33.661724 -0.423784 1.814611 0.080797 -0.038319 -399539.000000 0 0 1
29.696586 -15.026829 -8.045654 34.240697 -0.468446 1.807988 0.086174 -0.034749 -69823.000000 0 0 1
30.094586 -15.587429 -9.265754 35.135541 -0.477903 1.837667 0.092923 -0.043758 227015.000000 0 0 1
30.214086 -16.962329 -8.999554 35.799491 -0.511557 1.824910 0.085364 -0.044061 -88670.800000 0 0 1
30.420686 -17.654729 -10.359654 36.666470 -0.525848 1.857235 0.078501 -0.052279 -19936.900000 0 0 1
31.707186 -17.504429 -10.932154 37.832032 -0.504427 1.863942 0.079732 -0.039302 287539.000000 0 0 1
31.796686 -17.983129 -12.244154 38.527152 -0.514716 1.894211 0.065801 -0.022284 -230123.000000 0 0 1
31.137886 -17.188129 -13.376754 37.999174 -0.504378 1.930533 0.062612 -0.033863 242234.000000 0 0 1
31.901486 -16.053929 -13.879254 38.315364 -0.466232 1.941463 0.055947 -0.026506 621349.000000 0 0 1
31.269086 -15.512629 -15.030854 38.004262 -0.460524 1.977413 0.048948 -0.032554 -479040.000000 0 0 1
31.972086 -14.260129 -15.702554 38.368421 -0.419538 1.992436 0.043867 -0.015101 1626710.000000 0 0 1
33.238786 -14.501229 -16.388754 39.795650 -0.411381 1.995250 0.014973 -0.018347 1746370.000000 0 0 1
34.374486 -14.740929 -15.542654 40.502770 -0.405113 1.964643 0.027163 -0.019753 -411201.000000 0 0 1
35.447786 -15.199029 -16.530054 41.961872 -0.405061 1.975700 0.043292 -0.018370 -625404.000000 0 0 1
36.791186 -15.326929 -16.141754 43.000725 -0.394728 1.955607 0.053552 -0.013737 29805.500000 0 0 1
-36.716557 -15.837229 -17.196354 43.527440 0.407226 1.976940 0.058248 -0.019094 942729.000000 0 0 1
-35.187557 -15.617429 -16.852954 42.024878 0.417714 1.983430 0.065561 -0.011845 889865.000000 0 0 1
-34.599957 -16.501129 -15.889754 41.496127 0.445007 1.963753 0.063933 -0.008851 388597.000000 0 0 1
-35.092957 -16.296729 -14.565254 41.343024 0.434754 1.930827 0.057426 -0.011961 -862619.000000 0 0 1
-34.614257 -17.268029 -13.494054 40.968538 0.462744 1.906439 0.057384 -0.011468 -1346400.000000 0 0 1
-33.266657 -16.964929 -13.344554 39.655472 0.471590 1.914007 0.101300 -0.007269 -652501.000000 0 0 1
-32.883157 -17.515429 -12.090954 39.169931 0.489430 1.884601 0.115256 -0.004419 456331.000000 0 0 1
-31.476057 -17.041729 -11.595554 37.624720 0.496231 1.884086 0.137973 -0.004925 385205.000000 0 0 1
-31.554957 -15.648029 -11.271654 36.981432 0.460360 1.880517 0.126773 -0.021553 337623.000000 0 0 1
-30.481357 -15.087429 -10.529954 35.603702 0.459617 1.871042 0.159111 -0.028755 37165.300000 0 0 1
-30.475857 -15.428029 -9.059754 35.339512 0.468625 1.830054 0.155885 -0.019997 -176754.000000 0 0 1
-30.356957 -16.788329 -8.706754 35.765911 0.505167 1.816704 0.124181 -0.017525 -49031.900000 0 0 1
-30.510557 -16.921729 -7.336854 35.652047 0.506382 1.778068 0.161495 -0.024689 -109664.000000 0 0 1
-30.487757 -18.458429 -6.973154 36.315862 0.544408 1.764010 0.131838 -0.022826 74307.400000 0 0 1
-31.582057 -19.225129 -7.410454 37.708709 0.546818 1.768602 0.107386 -0.018616 -106860.000000 0 0 1
-31.409957 -19.583029 -8.745854 38.033806 0.557495 1.802822 0.106464 -0.016754 275516.000000 0 0 1
-32.640757 -20.395329 -9.250054 39.584744 0.558486 1.806654 0.082613 -0.014533 385633.000000 0 0 1
-33.779057 -19.590829 -9.484654 40.184375 0.525561 1.809073 0.061713 -0.013756 443293.000000 0 0 1
-34.967657 -20.410029 -9.507554 41.589661 0.528335 1.801440 0.043079 -0.017012 832641.000000 0 0 1
-36.185057 -19.576229 -9.985554 42.335545 0.495910 1.808907 0.047881 -0.024382 -81099.200000 0 0 1
-36.366257 -19.451429 -11.334954 42.770831 0.491157 1.839017 0.044639 -0.022566 202981.000000 0 0 1
36.756386 -18.725129 -11.566654 42.842150 -0.471170 1.844172 0.072749 -0.032175 287571.000000 0 0 1
36.232486 -18.513129 -13.037254 42.725858 -0.472372 1.880879 0.065001 -0.021516 -63436.200000 0 0 1
35.793686 -19.732229 -13.644254 43.089610 -0.503823 1.892990 0.055673 -0.016357 111118.000000 0 0 1
35.231786 -19.389829 -14.893754 42.884357 -0.503112 1.925487 0.056323 -0.017577 -86351.900000 0 0 1
33.970086 -20.176829 -15.252254 42.352124 -0.535966 1.939203 0.067362 -0.025881 -475900.000000 0 0 1
32.918886 -20.181429 -14.305854 41.177671 -0.549971 1.925612 0.071842 -0.028160 598239.000000 0 0 1
31.889286 -21.135229 -14.605654 40.950575 -0.585299 1.935492 0.074868 -0.028694 513251.000000 0 0 1
30.831386 -20.827929 -15.674354 40.374031 -0.594123 1.969505 0.087050 -0.035584 -786867.000000 0 0 1
29.976386 -19.780029 -15.378554 39.068314 -0.583271 1.975376 0.062499 -0.030658 409042.000000 0 0 1
29.041686 -19.488429 -16.431154 38.641962 -0.591031 2.009996 0.064919 -0.035350 299352.000000 0 0 1
28.389486 -18.071729 -16.337154 37.409262 -0.566872 2.022739 0.064219 -0.042503 -418532.000000 0 0 1
27.422686 -18.013129 -15.333754 36.216026 -0.581189 2.007988 0.076873 -0.038033 -204702.000000 0 0 1
26.886886 -16.717529 -15.375954 35.196596 -0.556275 2.022900 0.050998 -0.029701 -1759370.000000 0 0 1
25.535686 -16.682829 -14.713154 33.865394 -0.578702 2.020235 0.049033 -0.036775 -424815.000000 0 0 1
24.411386 -17.141029 -15.468754 33.600788 -0.612183 2.049207 0.062448 -0.036150 885109.000000 0 0 1
23.969986 -16.330229 -16.547154 33.392288 -0.598050 2.089251 0.052432 -0.019201 -712485.000000 0 0 1
23.080286 -17.006629 -17.606054 33.643694 -0.635030 2.121526 0.046946 -0.014309 -353129.000000 0 0 1
21.803686 -17.346229 -17.143154 32.713607 -0.672030 2.122381 0.050532 -0.010253 -332015.000000 0 0 1
20.998886 -17.816329 -18.218554 33.019547 -0.703589 2.155258 0.058611 -0.020229 471122.000000 0 0 1
19.575786 -18.290829 -17.817054 32.174730 -0.751477 2.157668 0.054840 -0.015345 785912.000000 0 0 1
18.665386 -17.186129 -17.683854 30.926984 -0.744161 2.179487 0.064190 -0.015952 674227.000000 0 0 1
17.308986 -17.559729 -17.490854 30.230366 -0.792589 2.187790 0.079914 -0.029590 146105.000000 0 0 1
16.380186 -16.416429 -17.110254 28.819619 -0.786503 2.206447 0.095411 -0.020909 -252598.000000 0 0 1
15.793986 -15.664929 -18.166754 28.720567 -0.781296 2.255618 0.104510 -0.016588 497571.000000 0 0 1
14.500886 -15.187229 -17.864554 27.569365 -0.808513 2.275733 0.103722 -0.012532 993751.000000 0 0 1
13.479586 -14.721829 -19.015154 27.568235 -0.829419 2.331938 0.100098 -0.017924 765409.000000 0 0 1
13.768686 -13.503329 -19.696454 27.565683 -0.775668 2.366746 0.111083 -0.029893 -236635.000000 0 0 1
13.227086 -13.380329 -20.974354 28.176454 -0.791158 2.410422 0.103418 -0.019023 -94803.100000 0 0 1
13.217886 -12.001429 -21.655754 28.066323 -0.737200 2.452137 0.099586 -0.019772 72249.600000 0 0 1
14.479086 -11.596929 -22.147354 28.890102 -0.675316 2.444337 0.092753 -0.014890 -223490.000000 0 0 1
14.435386 -10.193229 -22.443754 28.565790 -0.614827 2.474601 0.071963 -0.019820 773747.000000 0 0 1
15.827486 -9.670729 -22.936654 29.497837 -0.548475 2.461589 0.079462 -0.016659 556671.000000 0 0 1
15.944686 -9.947129 -24.327254 30.740749 -0.557774 2.483840 0.105404 -0.020647 49447.400000 0 0 1
17.184486 -9.672729 -24.957354 31.807825 -0.512675 2.472894 0.099875 -0.027257 -136872.000000 0 0 1
22.617286 5.409071 -7.466054 24.424202 0.234747 1.881452 0.157168 0.022917 -121442.000000 0 1 0
22.349986 6.814371 -7.462854 24.528589 0.295940 1.879949 0.130001 0.008178 717209.000000 0 1 0
21.933586 7.321271 -6.199454 23.939850 0.322164 1.832741 0.127596 0.005452 -246902.000000 0 1 0
21.635986 8.834671 -6.406854 24.232521 0.387669 1.838368 0.106422 0.013336 -1030220.000000 0 1 0
20.488286 9.104371 -7.133254 23.527489 0.418162 1.878833 0.072192 -0.000927 -30322.400000 0 1 0
20.140986 10.449771 -7.203754 23.806535 0.478599 1.878211 0.077194 -0.000554 -66996.400000 0 1 0
19.651286 11.307571 -6.015354 23.456740 0.522143 1.830138 0.095407 -0.007209 208471.000000 0 1 0
20.685986 11.418971 -5.030654 24.158029 0.504389 1.780571 0.104886 -0.006520 602699.000000 0 1 0
20.305286 12.309271 -4.021454 24.083083 0.544973 1.738565 0.129000 -0.021406 51844.700000 0 1 0
21.408486 12.441671 -2.948554 24.936167 0.526448 1.689318 0.128478 -0.032094 -443723.000000 0 1 0
22.623886 12.989871 -3.425354 26.311784 0.521207 1.701350 0.113804 -0.039075 517620.000000 0 0 1
23.519286 13.471971 -2.439354 27.213990 0.520183 1.660553 0.117703 -0.032703 -24346.200000 0 0 1
24.269886 12.350071 -1.700054 27.284461 0.470714 1.633145 0.111998 -0.030805 -1346000.000000 0 0 1
25.333886 11.791571 -2.439654 28.049934 0.435625 1.657882 0.101844 -0.026209 83723.300000 0 0 1
25.888286 10.824371 -1.583954 28.104791 0.396028 1.627185 0.098466 -0.029296 -453052.000000 0 0 1
27.279786 10.369671 -2.045054 29.255752 0.363254 1.640756 0.124502 -0.027334 -240327.000000 0 0 1
28.312286 11.277171 -1.755454 30.526083 0.379052 1.628335 0.109281 -0.032986 -781258.000000 0 0 1
29.575986 10.739271 -1.891754 31.522208 0.348304 1.630846 0.097450 -0.029821 -338706.000000 0 0 1
30.699686 11.833771 -1.722454 32.946558 0.367917 1.623100 0.073724 -0.022998 300659.000000 0 0 1
30.842686 12.139071 -0.322554 33.147132 0.374960 1.580527 0.108266 -0.035203 413942.000000 0 0 1
31.865886 13.129771 -0.223854 34.465572 0.390836 1.577291 0.092212 -0.040325 -775638.000000 0 0 1
33.077786 12.620271 0.569846 35.408133 0.364486 1.554702 0.097918 -0.029442 171121.000000 0 0 1
34.134586 13.557071 0.813746 36.737260 0.378060 1.548644 0.105368 -0.043231 1001550.000000 0 0 1
35.009886 13.900971 -0.291254 37.669801 0.377968 1.578528 0.119961 -0.025753 -193636.000000 0 0 1
34.661186 15.156071 -1.189854 37.848646 0.412212 1.602239 0.071041 -0.010261 -579762.000000 0 0 1
33.556186 14.950571 -2.014354 36.791233 0.419138 1.625575 0.074860 -0.001830 -358896.000000 0 0 1
33.085186 16.114471 -2.706354 36.900272 0.453242 1.644205 0.062811 0.013421 -309289.000000 0 0 1
31.749886 15.947971 -3.409654 35.693399 0.465486 1.666468 0.079861 -0.009014 -1263190.000000 0 0 1
31.738486 15.156371 -4.593754 35.470405 0.445518 1.700671 0.065214 -0.007906 519081.000000 0 0 1
30.547086 15.161771 -5.391854 34.526451 0.460716 1.727604 0.064631 -0.016048 825134.000000 0 0 1
29.322986 14.443671 -4.733254 33.028182 0.457687 1.714601 0.073205 -0.021879 315992.000000 0 0 1
28.200586 14.156771 -5.568754 32.042132 0.465249 1.745478 0.098532 -0.029745 1118310.000000 0 0 1
27.123586 13.548271 -4.839954 30.702927 0.463249 1.729095 0.097986 -0.011755 194566.000000 0 0 1
25.968186 13.064271 -5.704154 29.623626 0.466115 1.764561 0.090184 -0.014337 -544788.000000 0 0 1
26.350086 11.997871 -6.593854 29.694357 0.427274 1.794720 0.083507 -0.000486 -123534.000000 0 0 1
25.420586 11.608271 -7.553554 28.948477 0.428369 1.834783 0.085563 -0.006577 -514867.000000 0 0 1
25.265986 12.619671 -8.722154 29.558452 0.463226 1.870337 0.104239 -0.005678 -24892.600000 0 0 1
24.428086 13.711071 -8.392954 29.243230 0.511465 1.861895 0.104223 -0.017445 310639.000000 0 0 1
24.448186 14.722271 -9.332354 30.025853 0.542023 1.886842 0.111393 -0.020393 -505088.000000 0 0 1
23.644386 15.990971 -8.986654 29.925375 0.594650 1.875806 0.103576 -0.017237 1472710.000000 0 0 1
22.195186 15.938271 -8.995354 28.767536 0.622768 1.888821 0.129751 -0.022134 1421930.000000 0 0 1
21.585586 15.372171 -7.874554 27.645067 0.618834 1.859641 0.144313 -0.030428 -614936.000000 0 0 1
20.172586 14.922671 -8.294154 26.427492 0.636909 1.890037 0.176108 -0.020291 536852.000000 0 0 1
19.171086 15.140071 -7.259354 25.484319 0.668450 1.859652 0.187297 -0.043915 300219.000000 0 0 1
17.888486 14.766371 -7.641654 24.422091 0.690078 1.889040 0.178409 -0.051339 -390450.000000 0 1 0
16.789286 15.109271 -6.608254 23.533789 0.732779 1.855422 0.159000 -0.030001 -71274.800000 0 1 0
16.737586 14.226971 -5.506854 22.646830 0.704495 1.816421 0.132737 -0.034872 321003.000000 0 1 0
15.866486 14.787471 -4.544754 22.160087 0.750213 1.777349 0.089108 -0.024446 -185060.000000 0 1 0
15.748186 13.729971 -3.484854 21.181635 0.717040 1.736070 0.081741 -0.013443 -588574.000000 0 1 0
16.974686 13.497671 -2.859154 21.874685 0.671786 1.701877 0.078643 -0.006059 169653.000000 0 1 0
16.826186 12.506171 -1.886954 21.049595 0.639171 1.660560 0.068358 -0.012466 -12921.100000 0 1 0
16.914986 13.050071 -0.404654 21.367846 0.657126 1.589735 0.079316 -0.018830 384316.000000 0 1 0
15.754486 13.863171 -0.155754 20.986081 0.721627 1.578218 0.074469 -0.026062 918004.000000 0 1 0
15.940486 14.698571 0.953146 21.703814 0.744887 1.526866 0.075486 -0.020840 -1057990.000000 0 1 0
14.717986 15.504371 1.291446 21.416640 0.811412 1.510459 0.073171 -0.018663 -927142.000000 0 1 0
14.628386 16.706771 0.507546 22.211787 0.851629 1.547944 0.078835 -0.018246 61267.800000 0 1 0
13.771986 17.633771 1.121646 22.402579 0.907748 1.520708 0.066492 -0.020831 -239260.000000 0 1 0
13.749186 18.996271 0.522546 23.455734 0.944286 1.548517 0.063050 -0.017318 -219547.000000 0 1 0
13.087086 19.045271 -0.680154 23.118321 0.968742 1.600221 0.061195 -0.014498 -213876.000000 0 1 0
12.586186 20.296571 -1.087254 23.907007 1.015718 1.616290 0.062167 -0.020845 551657.000000 0 1 0
11.037986 20.462771 -1.075754 23.274866 1.076114 1.617032 0.051120 -0.016701 664746.000000 0 1 0
10.443086 20.494071 0.219946 23.002464 1.099525 1.561234 0.029809 -0.020107 72504.900000 0 1 0
9.039986 20.360971 0.157646 22.278136 1.152955 1.563720 0.031297 -0.013706 422348.000000 0 1 0
8.305986 20.361971 1.553346 22.045683 1.183484 1.500278 0.023260 -0.014219 78201.500000 0 1 0
8.421386 21.568571 2.296246 23.267912 1.198552 1.471948 0.028845 -0.011776 597299.000000 0 1 0
7.463186 21.499371 3.363946 23.005178 1.236676 1.424045 0.020631 -0.017280 479299.000000 0 1 0
6.948986 22.880371 3.936546 24.234194 1.275940 1.407636 0.017650 -0.011781 358681.000000 0 1 0
7.868186 23.565371 4.779046 25.299690 1.248547 1.380757 0.020844 -0.018909 237670.000000 0 0 1
7.320086 24.769271 5.259446 26.358342 1.283445 1.369912 0.015725 -0.013398 -34493.200000 0 0 1
7.909186 25.217071 6.615846 27.243812 1.266869 1.325505 0.009241 -0.017870 -100321.000000 0 0 1
7.412486 24.409171 7.653746 26.633295 1.275970 1.279311 0.024522 -0.017649 201022.000000 0 0 1
7.869186 24.894471 8.903146 27.584865 1.264634 1.242158 0.028516 -0.019635 -313637.000000 0 0 1
7.496186 23.873871 10.002846 26.948310 1.266553 1.190510 0.037167 -0.023437 -56611.800000 0 0 1
6.189686 23.998871 10.510446 26.920763 1.318382 1.169707 0.035497 -0.020219 -53660.300000 0 0 1
5.717986 22.790871 11.131846 26.000714 1.324981 1.128367 0.033042 -0.027000 442609.000000 0 0 1
4.367686 23.083471 11.853146 26.313882 1.383794 1.103525 0.032051 -0.027366 433818.000000 0 0 1
3.289186 23.374371 10.992246 26.038614 1.430997 1.134979 0.021859 -0.020087 -105361.000000 0 0 1
2.068286 23.483971 11.708046 26.322102 1.482951 1.109846 0.029601 -0.022200 523020.000000 0 0 1
0.926886 23.784171 10.673746 26.085911 1.531845 1.149245 0.045999 -0.012540 -130368.000000 0 0 1
1.029386 25.069871 10.103246 27.048727 1.529759 1.187995 0.043825 -0.011986 58248.100000 0 0 1
0.151986 25.320271 9.029946 26.882692 1.564794 1.228234 0.035763 -0.013174 -670720.000000 0 0 1
-1.226514 25.857171 9.307546 27.508690 -1.523398 1.225634 0.049029 -0.020910 -586835.000000 0 0 1
-2.054714 24.954771 10.037346 26.976115 -1.488644 1.189544 0.047812 -0.020486 362444.000000 0 0 1
-3.404814 25.412971 9.959246 27.506334 -1.437610 1.200308 0.066591 -0.024255 253525.000000 0 0 1
-4.496014 24.479971 10.520846 27.021682 -1.389160 1.170872 0.063155 -0.030959 250065.000000 0 0 1
-4.934114 24.662171 11.879246 27.815187 -1.373335 1.129538 0.046021 -0.019209 361081.000000 0 0 1
-5.836914 25.723071 12.177446 29.052300 -1.347661 1.138281 0.048126 -0.017349 -8879.200000 0 0 1
-6.345214 25.735971 13.627446 29.804517 -1.329067 1.095921 0.038381 -0.014050 -106717.000000 0 0 1
-7.291414 24.732271 13.933146 29.308403 -1.284104 1.075380 0.033870 -0.021302 -151517.000000 0 0 1
-7.588314 24.776171 15.268546 30.076064 -1.273593 1.038325 0.016243 -0.000496 -773705.000000 0 0 1
-8.803414 23.953671 15.621846 29.921907 -1.218601 1.021500 0.019979 -0.013012 -1289430.000000 0 0 1
-9.970214 24.539171 15.167646 30.522673 -1.184873 1.050738 0.017348 -0.008949 -794598.000000 0 0 1
-11.057314 23.642371 15.352046 30.280542 -1.133329 1.039103 0.021412 -0.011091 -33705.600000 0 0 1
-12.438614 24.273171 15.145446 31.197604 -1.097244 1.063898 0.017040 -0.013137 -293629.000000 0 0 1
-12.856114 25.271771 16.054346 32.583494 -1.100202 1.055590 0.020896 -0.017590 -515450.000000 0 0 1
-13.874714 26.035271 15.513546 33.331864 -1.081161 1.086679 0.013511 -0.016423 -839455.000000 0 0 1
-14.488514 27.103771 16.459046 34.863041 -1.079887 1.079118 0.023852 -0.019873 -449156.000000 0 0 1
-15.609314 26.659571 17.162746 35.340391 -1.041103 1.063700 0.027658 -0.027490 -225864.000000 0 0 1
-16.163214 27.622471 18.052146 36.744120 -1.041370 1.057222 0.053840 -0.033922 -147652.000000 0 0 1
-17.363014 27.084671 18.853246 37.289389 -1.000728 1.040727 0.047841 -0.034314 -652848.000000 0 0 1
-18.483014 27.015471 18.040746 37.375473 -0.970778 1.067073 0.037133 -0.041015 -640642.000000 0 0 1
-19.547814 26.388971 18.747446 37.814833 -0.933237 1.052076 0.053971 -0.042332 705637.000000 0 0 1
-20.920114 26.418971 17.997446 38.203681 -0.901039 1.080268 0.073526 -0.048465 95943.800000 0 0 1
-21.617714 27.620471 18.107646 39.472811 -0.906712 1.094223 0.055116 -0.046001 325702.000000 0 0 1
-22.450814 27.659071 16.936446 39.444980 -0.888963 1.127003 0.075300 -0.051439 -92459.800000 0 0 1
-23.444614 28.824471 16.758946 40.759813 -0.887963 1.147066 0.068869 -0.050091 333048.000000 0 0 1
-24.690114 28.706271 17.430846 41.683164 -0.860471 1.139361 0.070001 -0.051034 180033.000000 0 0 1
-25.512374 29.819571 17.221646 42.856425 -0.863084 1.157265 0.075532 -0.051606 55212.700000 0 0 1
-26.923454 29.708371 17.840546 43.883309 -0.834534 1.152127 0.085838 -0.044242 191885.000000 0 0 1
-27.836084 28.847771 17.119146 43.590213 -0.803244 1.167199 0.110173 -0.038052 133316.000000 0 0 1
-29.110714 28.818371 17.718346 44.630393 -0.780352 1.162548 0.138498 -0.040748 -27101.500000 0 0 1
-29.464844 27.686071 18.641546 44.521936 -0.754284 1.138778 0.131876 -0.039522 -479183.000000 0 0 1
-29.602764 26.424771 18.022446 43.582115 -0.728737 1.144470 0.135250 -0.040655 138878.000000 0 0 1
-29.914154 25.409971 18.976246 43.596114 -0.704163 1.120454 0.127971 -0.032997 -137084.000000 0 0 1
-30.199234 24.089771 18.273246 42.734323 -0.673334 1.128959 0.132578 -0.035348 279730.000000 0 0 1
-31.357974 24.079671 17.423446 43.205666 -0.654857 1.155711 0.143793 -0.032007 430416.000000 0 0 1
-31.345154 23.068471 16.471646 42.260953 -0.634448 1.170425 0.143941 -0.031554 -180256.000000 0 0 1
-31.719524 21.627771 16.930646 41.958735 -0.598437 1.155450 0.134598 -0.025690 -80568.300000 0 0 1
-33.097144 21.337271 17.019046 42.899278 -0.572631 1.162854 0.135166 -0.024198 -153867.000000 0 0 1
-33.353704 19.914671 16.934746 42.377462 -0.538266 1.159698 0.114532 -0.021744 -369329.000000 0 0 1
-34.784227 19.589571 16.535646 43.210200 -0.512901 1.178102 0.107142 -0.030644 -479002.000000 0 0 1
-34.947258 19.795371 15.173946 42.935023 -0.515374 1.209576 0.097032 -0.027937 6369.400000 0 0 1
-36.159404 19.268271 14.661546 43.517005 -0.489597 1.227158 0.104212 -0.029806 132258.000000 0 0 1
-36.336194 19.554371 13.179146 43.317229 -0.493701 1.261648 0.104468 -0.015757 24331.800000 0 0 1
-36.662674 20.918871 13.010746 44.170469 -0.518504 1.271804 0.092150 -0.030518 -233931.000000 0 0 1
-36.882764 21.320171 11.682946 44.174418 -0.524125 1.303139 0.079927 -0.023764 199187.000000 0 0 1
-35.670406 21.324971 10.645846 42.900656 -0.538825 1.320025 0.099548 -0.028540 706534.000000 0 0 1
-35.273466 20.012971 10.325546 41.849174 -0.516078 1.321489 0.127613 -0.026458 -529869.000000 0 0 1
-34.070323 19.985371 9.635546 40.657665 -0.530502 1.331528 0.167828 -0.022049 -823233.000000 0 0 1
-33.127924 18.862071 10.059246 39.426203 -0.517593 1.312803 0.133018 -0.025208 -467788.000000 0 0 1
-32.616864 19.098871 11.335046 39.460233 -0.529728 1.279439 0.138973 -0.028627 -11973.100000 0 0 1
-32.271364 17.896571 12.040246 38.816179 -0.506341 1.255407 0.133213 -0.032871 189235.000000 0 0 1
-31.762694 18.201871 13.525646 39.027169 -0.520374 1.216884 0.109938 -0.019444 1296440.000000 0 0 1
-30.569224 19.010371 13.752846 38.535859 -0.556352 1.205866 0.116711 -0.022217 829629.000000 0 0 1
-30.746024 20.380471 13.441146 39.259980 -0.585366 1.221366 0.126387 -0.020352 194273.000000 0 0 1
-29.429094 21.198471 13.556846 38.719954 -0.624236 1.213091 0.140531 -0.032250 270988.000000 0 0 1
-28.986194 21.267671 14.878546 38.908668 -0.632998 1.178408 0.133798 -0.025169 442632.000000 0 0 1
-27.806304 22.085371 15.020246 38.555959 -0.671230 1.170632 0.144370 -0.035736 308922.000000 0 0 1
-27.206024 21.885671 16.404646 38.578009 -0.677444 1.131577 0.124246 -0.038307 -412529.000000 0 0 1
-26.420674 20.738271 16.579946 37.456942 -0.665482 1.112256 0.130574 -0.036554 -150241.000000 0 0 1
-25.945224 20.666871 17.922846 37.702820 -0.672639 1.075410 0.105964 -0.020301 -181791.000000 0 0 1
-24.974114 19.479071 18.036546 36.448012 -0.662408 1.053126 0.108749 -0.017655 155184.000000 0 0 1
-24.365014 19.346271 19.330346 36.627782 -0.671083 1.014846 0.096007 -0.022816 -396142.000000 0 0 1
-23.166414 18.655371 19.242446 35.425659 -0.677950 0.996579 0.087751 -0.014358 -425788.000000 0 0 1
-22.466914 18.397771 20.609946 35.609129 -0.686149 0.953561 0.092055 -0.020053 6018.180000 0 0 1
-23.218014 17.581371 21.465046 36.179124 -0.648112 0.935645 0.109725 -0.011954 94662.400000 0 0 1
-24.036214 18.340071 22.357946 37.602866 -0.651781 0.934052 0.107798 -0.017476 58497.000000 0 0 1
-24.716714 17.438471 23.391046 38.238165 -0.614430 0.912563 0.095401 -0.013939 -899412.000000 0 0 1
-23.840914 16.720071 24.151746 37.831955 -0.611610 0.878385 0.114045 -0.020201 -649976.000000 0 0 1
-24.400714 15.580671 24.764246 38.097507 -0.568272 0.863182 0.115600 -0.017100 96872.000000 0 0 1
21.830086 24.659371 33.449519 46.941533 0.846182 0.777630 0.024336 0.004129 -95938.400000 0 0 1
22.654286 23.700871 32.864131 46.421967 0.807972 0.784214 0.042323 -0.010258 -297759.000000 0 0 1
22.420786 22.349871 33.276948 45.929986 0.783814 0.760466 0.045506 -0.012504 -126279.000000 0 0 1
21.313686 21.582171 32.526045 44.474790 0.791657 0.750517 0.043511 -0.018933 -163925.000000 0 0 1
21.654886 21.278971 31.203511 43.536052 0.776643 0.771697 0.043872 -0.015246 -579632.000000 0 0 1
20.726086 20.469171 30.558501 42.218238 0.779162 0.761470 0.073162 -0.021347 -779972.000000 0 0 1
21.090586 19.916571 29.186711 41.150294 0.756776 0.782333 0.083245 -0.020660 -156825.000000 0 0 1
22.264086 19.135171 29.130131 41.357089 0.709963 0.789280 0.074569 -0.020249 -190956.000000 0 0 1
22.512086 18.547171 27.881781 40.350778 0.689131 0.807946 0.075686 -0.023903 -221686.000000 0 0 1
23.543586 17.397371 27.877561 40.424341 0.636387 0.809828 0.084814 -0.014893 118994.000000 0 0 1
24.828986 17.946471 28.085621 41.561478 0.625867 0.828800 0.084388 -0.015801 53531.500000 0 0 1
25.779986 17.004771 28.587951 42.083736 0.583102 0.823973 0.076608 -0.013645 1178780.000000 0 0 1
27.237086 17.551871 28.806641 43.356079 0.572436 0.844079 0.074602 -0.016321 475533.000000 0 0 1
28.107986 17.448171 27.729041 43.167085 0.555541 0.873216 0.093560 -0.012895 -212528.000000 0 0 1
29.359486 17.977071 28.137301 44.461918 0.549421 0.885580 0.089573 -0.014030 71589.600000 0 0 1
30.427686 17.985571 27.037761 44.501296 0.533844 0.917796 0.092546 -0.006113 -187759.000000 0 0 1
30.271386 19.005571 26.084671 44.249052 0.560639 0.940361 0.080606 -0.011340 -270598.000000 0 0 1
31.316686 18.892071 25.171421 44.398712 0.542812 0.968009 0.088132 -0.016403 -312203.000000 0 0 1
31.521586 20.053571 24.178811 44.501359 0.566602 0.996401 0.081200 -0.025147 81742.000000 0 0 1
30.344886 20.278071 23.437561 43.374319 0.589100 0.999937 0.077579 -0.020400 133537.000000 0 0 1
30.666386 20.994371 22.240211 43.310712 0.600319 1.031533 0.058133 -0.019388 182008.000000 0 0 1
31.269386 20.148771 21.071311 42.752165 0.572401 1.055410 0.079612 -0.016939 -86478.800000 0 0 1
30.290186 19.313971 20.466611 41.344975 0.567631 1.052938 0.085622 -0.027760 -11122.200000 0 0 1
30.667086 18.670571 19.198511 40.714165 0.546876 1.079756 0.091640 -0.026356 370513.000000 0 0 1
31.866586 17.644271 19.266611 41.206818 0.505673 1.084269 0.119857 -0.040644 435034.000000 0 0 1
31.579386 16.539371 20.161911 40.954988 0.482458 1.056073 0.146935 -0.040606 183179.000000 0 0 1
32.521286 15.475071 20.114011 41.251488 0.444137 1.061464 0.136816 -0.043139 -287900.000000 0 0 1
31.976586 14.125771 20.694511 40.623912 0.415975 1.036289 0.154931 -0.039761 107478.000000 0 0 1
31.719186 13.978371 22.076911 41.096126 0.415086 1.003680 0.140383 -0.038560 -26660.800000 0 0 1
30.603186 14.685271 22.537811 40.745123 0.447407 0.984666 0.128841 -0.025668 -391858.000000 0 0 1
29.686186 13.941371 23.541941 40.371456 0.439054 0.948216 0.102038 -0.009358 43639.000000 0 0 1
29.026786 12.858171 22.945881 39.171422 0.416997 0.944953 0.104704 -0.006978 -562573.000000 0 0 1
28.234786 12.340071 23.945791 39.024113 0.412034 0.910165 0.087785 -0.003868 -141834.000000 0 0 1
27.522786 10.979671 23.655191 37.916025 0.379584 0.897094 0.101886 -0.002920 96330.900000 0 0 1
26.478586 10.952071 22.719711 36.568410 0.392192 0.900404 0.074177 0.006021 -116766.000000 0 0 1
26.223586 9.572271 22.311511 35.736653 0.349997 0.896521 0.083938 0.004977 465939.000000 0 0 1
24.905386 9.451771 21.473311 34.215746 0.362716 0.892348 0.065224 0.001783 330927.000000 0 0 1
23.718086 9.318771 22.201311 33.797711 0.374368 0.854112 0.055309 -0.004103 -221305.000000 0 0 1
22.661286 8.873171 21.408011 32.412497 0.373206 0.849330 0.045464 0.000292 -445960.000000 0 0 1
21.240986 9.001571 21.970111 31.857394 0.400839 0.809805 0.042370 -0.010332 -154555.000000 0 0 1
20.809886 7.961271 22.860821 31.922568 0.365392 0.772550 0.059569 -0.009277 -39581.700000 0 0 1
19.503086 8.176871 23.317231 31.478959 0.396999 0.736648 0.047436 -0.018795 -199600.000000 0 0 1
19.228486 7.554371 24.678471 32.184315 0.374348 0.696978 0.045502 -0.014997 -127234.000000 0 0 1
19.424086 6.180071 24.633661 31.973515 0.308038 0.691266 0.047649 -0.016484 -51743.100000 0 0 1
18.932386 5.539371 25.731971 32.423050 0.284642 0.654041 0.048372 -0.024105 -290834.000000 0 0 1
19.186386 4.017671 25.604871 32.246992 0.206420 0.653397 0.055182 -0.029706 698744.000000 0 0 1
20.586286 3.784571 25.399411 32.912736 0.181809 0.689255 0.062030 -0.017119 486011.000000 0 0 1
20.874586 2.401571 25.438971 32.994804 0.114544 0.690387 0.056519 -0.015410 -492487.000000 0 0 1
22.336986 2.186171 25.051361 33.634669 0.097562 0.730550 0.069216 -0.020013 -666232.000000 0 0 1
23.163186 2.780571 25.965641 34.906722 0.119471 0.731972 0.075617 -0.025013 -82213.100000 0 0 1
24.574886 2.655371 25.818561 35.743169 0.107635 0.763623 0.090205 -0.022238 544087.000000 0 0 1
25.376386 3.417271 26.844681 37.098189 0.133858 0.761776 0.084429 -0.025624 -884182.000000 0 0 1
25.260986 2.842671 28.117051 37.904706 0.112061 0.735072 0.101032 -0.022121 -32837.200000 0 0 1
26.178586 3.349471 29.030831 39.234251 0.127256 0.737821 0.107460 -0.020797 -34234.700000 0 0 1
27.690786 3.052971 28.930671 40.163217 0.109809 0.766522 0.080799 -0.015307 -401010.000000 0 0 1
28.248386 3.837871 27.880221 39.874895 0.135035 0.796529 0.093600 -0.008262 145792.000000 0 0 1
29.675286 3.844171 27.877151 40.896648 0.128824 0.820783 0.095704 -0.004182 521080.000000 0 0 1
30.317886 2.808371 26.947141 40.659680 0.092367 0.846313 0.108965 -0.012059 -362220.000000 0 0 1
30.135586 3.058371 25.589271 39.652465 0.101141 0.869330 0.107593 -0.006179 -16287.500000 0 0 1
30.637286 2.004771 24.811511 39.474973 0.065343 0.891125 0.106875 -0.003648 -383299.000000 0 0 1
30.390686 2.128271 23.274821 38.338500 0.069916 0.918406 0.120009 -0.018815 75379.700000 0 0 1
31.021886 3.243171 22.657011 38.551468 0.104166 0.942573 0.112116 -0.014362 357453.000000 0 0 1
32.381686 2.920771 22.316411 39.435094 0.089955 0.969269 0.114343 -0.018405 572038.000000 0 0 1
33.041386 4.157371 21.671811 39.732660 0.125165 0.993881 0.103374 -0.025484 -610106.000000 0 0 1
32.638386 4.399171 20.327311 38.701634 0.133978 1.017809 0.108685 -0.034735 -139775.000000 0 0 1
33.044686 5.614771 19.693011 38.875334 0.168307 1.039596 0.099947 -0.022805 -237837.000000 0 0 1
34.556986 5.762571 19.432011 40.062396 0.165235 1.064383 0.075489 -0.024357 -189258.000000 0 0 1
35.477786 5.714271 20.516511 41.379384 0.159695 1.052023 0.073187 -0.015275 344652.000000 0 0 1
35.469786 6.837071 21.320811 41.945539 0.190422 1.037590 0.074156 -0.020563 -772703.000000 0 0 1
36.306886 6.509171 22.517311 43.215605 0.177397 1.022721 0.071106 -0.023944 -834846.000000 0 0 1
35.575686 5.592771 23.253041 42.867382 0.155931 0.997456 0.073404 -0.013101 50430.900000 0 0 1
36.111186 5.310571 24.543121 43.983914 0.146015 0.978820 0.077174 -0.001980 -114978.000000 0 0 1
35.332886 4.221371 25.277501 43.648423 0.118911 0.953152 0.083209 0.002188 36557.600000 0 0 1
35.369286 3.032071 24.616931 43.199226 0.085517 0.964477 0.092668 -0.008400 228476.000000 0 0 1
34.748086 2.067871 25.499761 43.150242 0.059440 0.938557 0.103917 -0.014070 232771.000000 0 0 1
34.601686 0.670071 24.811801 42.583461 0.019363 0.948795 0.108202 -0.023700 -261996.000000 0 0 1
33.519586 0.459071 23.922921 41.183486 0.013695 0.950979 0.132578 -0.022284 -119176.000000 0 0 1
33.390686 -0.887229 23.590691 40.893102 -0.026565 0.955884 0.123491 -0.026517 -484605.000000 0 0 1
32.138586 -1.309229 22.836211 39.447374 -0.040714 0.953413 0.127044 -0.032333 -247721.000000 0 0 1
30.956686 -1.168729 23.609301 38.949729 -0.037736 0.919588 0.121944 -0.021562 -195908.000000 0 0 1
29.992886 -2.111829 23.138811 37.939921 -0.070295 0.914887 0.125766 -0.029083 1397540.000000 0 0 1
28.521286 -1.693729 23.570551 37.039214 -0.059315 0.881016 0.087501 -0.024012 1016540.000000 0 0 1
28.090886 -0.484229 22.973691 36.292187 -0.017236 0.885348 0.096112 -0.017250 262052.000000 0 0 1
26.699786 -0.371229 23.281811 35.426813 -0.013903 0.853724 0.085900 -0.020883 697804.000000 0 0 1
26.016186 0.942071 22.826411 34.623323 0.036195 0.850938 0.074007 -0.006911 3088.460000 0 0 1
26.009186 1.256571 21.440311 33.730456 0.048275 0.881964 0.081779 -0.016817 230219.000000 0 0 1
25.374286 2.523771 21.209611 33.167324 0.099136 0.876984 0.083598 -0.016981 57071.600000 0 0 1
25.742086 3.187471 19.850011 32.662484 0.123196 0.917596 0.098767 -0.028887 -222160.000000 0 0 1
25.024686 2.706671 18.740911 31.381248 0.107741 0.930789 0.095505 -0.026921 33359.600000 0 0 1
24.593286 3.821271 18.010411 30.721438 0.154146 0.944375 0.089217 -0.031469 165514.000000 0 0 1
23.994186 3.482871 16.614311 29.391949 0.144148 0.970039 0.091579 -0.031570 225890.000000 0 0 1
25.022686 2.997371 15.747911 29.717263 0.119218 1.012285 0.095489 -0.031201 512381.000000 0 0 1
24.697786 2.861571 14.360511 28.712253 0.115349 1.047021 0.076119 -0.047229 -251487.000000 0 0 1
23.824586 1.646771 13.981511 27.673189 0.069011 1.041140 0.098644 -0.025357 1084990.000000 0 0 1
22.421686 1.776771 14.367611 26.689270 0.079078 1.002343 0.085607 -0.020462 1461380.000000 0 0 1
21.853986 0.574071 13.891711 25.901851 0.026262 1.004724 0.095162 -0.025681 -397807.000000 0 0 1
20.311286 0.490271 13.977511 24.660890 0.024133 0.968194 0.082788 -0.039469 -8970.430000 0 1 0
19.496286 1.201171 13.045211 23.488838 0.061532 0.981977 0.097650 -0.036087 522034.000000 0 1 0
19.570086 0.974171 11.639611 22.790740 0.049738 1.034778 0.107792 -0.029980 -1083310.000000 0 1 0
19.536586 -0.494029 11.142711 22.496272 -0.025282 1.052600 0.113461 -0.023103 585365.000000 0 1 0
20.742686 -1.239429 11.400811 23.701766 -0.059682 1.068989 0.108750 -0.031056 1939080.000000 0 1 0
21.861186 -0.887129 10.516711 24.275495 -0.040558 1.122730 0.116418 -0.029504 -46348.800000 0 1 0
22.960886 -1.928329 10.597111 25.361772 -0.083787 1.139732 0.121959 -0.037404 -706998.000000 0 0 1
23.505986 -1.901829 11.881111 26.406611 -0.080732 1.104110 0.103271 -0.041158 -134817.000000 0 0 1
24.478286 -2.885729 12.114211 27.463940 -0.117348 1.113978 0.085144 -0.033573 -120608.000000 0 0 1
24.974486 -2.705429 13.583211 28.557799 -0.107907 1.075106 0.115754 -0.030916 353139.000000 0 0 1
25.894286 -1.627629 13.841311 29.406549 -0.062774 1.080726 0.108470 -0.025976 510083.000000 0 0 1
25.965686 -1.409629 15.260011 30.150818 -0.054235 1.040113 0.101597 -0.031583 -515091.000000 0 0 1
27.051886 -0.466829 15.710111 31.286260 -0.017255 1.044724 0.143753 -0.031965 -98002.000000 0 0 1
28.353886 -1.033429 15.701211 32.427440 -0.036431 1.065353 0.159195 -0.034830 895411.000000 0 0 1
29.392286 -0.053329 15.965111 33.448379 -0.001814 1.073210 0.135353 -0.035000 756442.000000 0 0 1
30.802486 -0.670229 16.032711 34.731688 -0.021755 1.090980 0.138376 -0.028797 -96986.600000 0 0 1
31.412786 -1.184229 14.892311 34.784284 -0.037681 1.128370 0.163967 -0.024664 -130413.000000 0 0 1
32.766386 -1.471929 15.170411 36.137847 -0.044892 1.137579 0.155987 -0.028615 159127.000000 0 0 1
33.423086 -2.397429 14.116511 36.361053 -0.071607 1.172084 0.141450 -0.035049 -29968.700000 0 0 1
33.553886 -1.727329 12.851811 35.972433 -0.051434 1.205455 0.152803 -0.030967 259901.000000 0 0 1
34.353986 -2.461329 11.950611 36.456434 -0.071524 1.236817 0.142377 -0.026660 26679.700000 0 0 1
34.504786 -1.798729 10.509311 36.114558 -0.052083 1.275525 0.166436 -0.021071 -2687.600000 0 0 1
34.948186 -0.434529 10.422511 36.471814 -0.012433 1.280988 0.145983 -0.016443 410538.000000 0 0 1
33.877386 0.478371 10.466511 35.460597 0.014120 1.271174 0.130976 -0.016528 -313560.000000 0 0 1
34.241186 1.895671 9.888011 35.690687 0.055306 1.290076 0.130085 -0.021643 3161.640000 0 0 1
34.345186 1.793771 8.438011 35.411996 0.052180 1.330201 0.137159 -0.018808 316797.000000 0 0 1
35.022286 2.925071 7.929511 36.027679 0.083327 1.348884 0.125326 -0.018022 -65202.100000 0 0 1
35.014886 2.984271 6.393411 35.718676 0.085023 1.390833 0.111898 -0.021958 -348600.000000 0 0 1
35.439486 4.218371 5.830511 36.162780 0.118473 1.408860 0.094080 -0.007102 71128.200000 0 0 1
35.521486 4.116471 4.462511 36.036583 0.115372 1.446645 0.147638 -0.024751 -447768.000000 0 0 1
36.044986 5.453871 3.852011 36.658201 0.150168 1.465523 0.174954 -0.041664 -54056.100000 0 0 1
35.206086 6.557171 4.051711 36.039996 0.184141 1.458136 0.150375 -0.048363 -115297.000000 0 0 1
35.740686 7.645771 3.374111 36.704755 0.210747 1.478741 0.157448 -0.054737 -861450.000000 0 0 1
34.737786 8.779271 3.541211 36.004576 0.247546 1.472283 0.150374 -0.043646 390176.000000 0 0 1
33.647486 8.836471 2.631711 34.887855 0.256820 1.495291 0.151605 -0.057326 539641.000000 0 0 1
32.617386 7.879471 2.852511 33.676650 0.237032 1.485992 0.156194 -0.052472 -646110.000000 0 0 1
31.456186 7.998171 1.857111 32.510171 0.248988 1.513641 0.161807 -0.053029 -20723.000000 0 0 1
31.859786 7.682171 0.503811 32.776753 0.236608 1.555425 0.179946 -0.051986 272765.000000 0 0 1
30.754586 7.715371 -0.354689 31.709577 0.245796 1.581982 0.159050 -0.046544 -186456.000000 0 0 1
31.307286 7.570571 -1.795189 32.259609 0.237260 1.626473 0.149808 -0.037172 166393.000000 0 0 1
30.310686 7.062671 -2.704589 31.239939 0.228925 1.657480 0.175762 -0.037148 966406.000000 0 0 1
30.857386 6.673971 -3.902989 31.811216 0.213003 1.693798 0.164566 -0.037376 -761601.000000 0 0 1
29.849186 6.013471 -4.844689 30.831911 0.198801 1.728583 0.177375 -0.025192 -484154.000000 0 0 1
29.542986 4.681171 -4.476689 30.244704 0.157146 1.719358 0.167483 -0.024620 1359990.000000 0 0 1
28.246186 4.377771 -5.019389 29.020788 0.153763 1.744629 0.147223 -0.019330 478407.000000 0 0 1
27.859786 2.878871 -4.854289 28.425687 0.102969 1.742409 0.175822 -0.016194 -218646.000000 0 0 1
27.712386 2.406371 -3.562089 28.043812 0.086617 1.698159 0.170153 -0.025184 513165.000000 0 0 1
27.316386 1.056671 -3.533189 27.564196 0.038663 1.699330 0.163212 -0.029442 -155261.000000 0 0 1
27.525586 0.470171 -2.172689 27.615204 0.017080 1.649555 0.150268 -0.035828 944727.000000 0 0 1
28.922186 0.368471 -1.823289 28.981942 0.012739 1.633749 0.152221 -0.034088 1200150.000000 0 0 1
29.167686 0.313171 -0.404689 29.172174 0.010737 1.584669 0.154899 -0.021738 -42017.800000 0 0 1
30.601986 0.701871 -0.016389 30.610038 0.022931 1.571332 0.181363 -0.027017 -184902.000000 0 0 1
31.646386 -0.166829 -0.328989 31.648535 -0.005272 1.581192 0.163679 -0.030020 -55068.900000 0 0 1
32.909586 0.350971 0.022511 32.911465 0.010664 1.570112 0.121293 -0.031640 -175421.000000 0 0 1
-2.780414 -21.214629 -8.580454 23.052449 1.440478 1.952190 0.044674 -0.010815 222748.000000 0 1 0
-3.160214 -21.762029 -7.299854 23.170255 1.426587 1.891309 0.040833 -0.014240 -277537.000000 0 1 0
-2.503314 -22.944229 -6.929454 24.098165 1.462122 1.862465 0.046978 -0.011251 -1982.540000 0 1 0
-3.110914 -23.513029 -5.618254 24.374271 1.439254 1.803387 0.036145 -0.006517 -250973.000000 0 1 0
-3.035914 -22.702429 -4.453554 23.333478 1.437859 1.762840 0.038474 -0.009396 -244442.000000 0 1 0
-3.429414 -23.368829 -3.306154 23.849396 1.425085 1.709871 0.034964 -0.012997 -266820.000000 0 1 0
-2.930614 -22.745829 -1.964954 23.017869 1.442660 1.656267 0.037119 -0.020755 -466596.000000 0 1 0
-1.564114 -22.950529 -1.779054 23.072457 1.502750 1.647980 0.047526 -0.013196 -939739.000000 0 1 0
-1.315214 -22.378329 -0.516754 22.422900 1.512092 1.593844 0.047610 -0.022311 403932.000000 0 1 0
0.206286 -22.364329 -0.211354 22.366279 -1.561573 1.580246 0.056905 -0.020916 386644.000000 0 1 0
0.996086 -21.433329 -0.937954 21.476954 -1.524356 1.614483 0.039080 -0.017535 -57699.000000 0 1 0
2.142386 -21.108929 -0.171654 21.218062 -1.469651 1.578886 0.031040 -0.015969 382218.000000 0 1 0
3.092286 -20.063129 -0.836854 20.317276 -1.417872 1.611997 0.030690 -0.015764 617662.000000 0 1 0
3.789886 -20.566129 -1.967754 21.004784 -1.388563 1.664615 0.026527 -0.010494 -251039.000000 0 1 0
4.827586 -19.687129 -2.342454 20.405287 -1.330326 1.685846 0.038441 -0.005564 -234698.000000 0 1 0
5.669886 -20.096829 -3.535454 21.178517 -1.295815 1.738517 0.034434 -0.007091 -1164330.000000 0 1 0
6.483186 -21.162829 -3.137954 22.354950 -1.273526 1.711631 0.038456 -0.008180 878723.000000 0 1 0
7.457986 -21.628729 -4.161654 23.253878 -1.238745 1.750732 0.043469 -0.013759 1724680.000000 0 1 0
8.616586 -20.707429 -4.650654 22.905714 -1.176479 1.775252 0.055027 -0.019060 -192194.000000 0 1 0
8.151786 -19.762929 -5.565054 22.090604 -1.179579 1.825460 0.033616 -0.007443 -414963.000000 0 1 0
9.227786 -19.038329 -6.097354 22.017896 -1.119467 1.851391 0.045913 -0.015445 -545515.000000 0 1 0
9.048886 -18.020829 -7.208554 21.414852 -1.105442 1.914116 0.031140 -0.002793 879172.000000 0 1 0
10.318886 -17.462429 -7.671554 21.685677 -1.037081 1.932386 0.051069 -0.012222 1288950.000000 0 1 0
10.063386 -16.332029 -8.501754 20.983010 -1.018568 1.987965 0.045857 -0.009868 -2001.990000 0 1 0
10.285986 -16.518129 -9.992254 21.874534 -1.013846 2.045189 0.043765 -0.009480 -33326.200000 0 1 0
9.242986 -17.124729 -10.729354 22.221795 -1.075861 2.074680 0.038329 -0.016639 58658.100000 0 1 0
8.987286 -16.382729 -11.910954 22.159331 -1.069042 2.138283 0.037906 -0.020442 336254.000000 0 1 0
8.285686 -17.144129 -13.120054 23.123788 -1.120601 2.174121 0.046260 -0.020234 1110790.000000 0 1 0
7.013586 -17.742529 -12.810354 22.980272 -1.194350 2.162108 0.027667 -0.016258 862753.000000 0 1 0
6.643286 -18.621429 -13.881454 24.157517 -1.228117 2.182939 0.039170 -0.007371 -118341.000000 0 1 0
5.475786 -19.532529 -13.547954 24.393667 -1.297471 2.159626 0.043536 -0.002023 -313389.000000 0 1 0
5.930886 -20.773829 -13.034254 25.231313 -1.292697 2.113660 0.059300 -0.009331 369763.000000 0 0 1
4.835986 -21.588429 -12.639754 25.479608 -1.350426 2.089867 0.094936 -0.021701 263122.000000 0 0 1
5.293486 -22.997429 -12.216354 26.573333 -1.344560 2.048479 0.072684 -0.015233 -237278.000000 0 0 1
5.670286 -23.770629 -13.315354 27.829725 -1.336631 2.069694 0.089554 -0.025055 -99708.500000 0 0 1
5.252086 -25.122359 -13.284454 28.899724 -1.364704 2.048425 0.084121 -0.029552 262732.000000 0 0 1
3.803086 -25.434239 -13.750854 29.162475 -1.422370 2.061816 0.099972 -0.041631 127041.000000 0 0 1
2.835786 -24.825029 -12.921154 28.129699 -1.457058 2.048051 0.114608 -0.040295 510523.000000 0 0 1
1.459986 -24.953629 -13.298854 28.313860 -1.512355 2.059741 0.099359 -0.051269 889855.000000 0 0 1
0.706286 -26.259159 -13.008254 29.313085 -1.543906 2.030597 0.091007 -0.043442 -726028.000000 0 0 1
0.885286 -27.350649 -13.916554 30.700362 -1.538440 2.041263 0.097098 -0.039797 -53113.300000 0 0 1
0.403286 -28.570029 -13.401654 31.559682 -1.556682 2.009366 0.081131 -0.030684 -314481.000000 0 0 1
-0.992114 -28.983609 -13.877654 32.150010 1.536580 2.017121 0.059819 -0.035718 404104.000000 0 0 1
-2.086414 -28.340919 -13.181054 31.325724 1.497310 2.005095 0.066203 -0.038538 -114315.000000 0 0 1
-3.278114 -28.834639 -13.692254 32.088320 1.457596 2.011643 0.063480 -0.026630 781361.000000 0 0 1
-4.621014 -28.168989 -13.096854 31.406581 1.408198 2.000949 0.042632 -0.036947 1415780.000000 0 0 1
-4.943414 -28.405619 -11.737454 31.130120 1.398493 1.957400 0.029013 -0.031760 12003.500000 0 0 1
-5.269114 -29.714779 -11.294054 32.222466 1.395298 1.928904 0.032790 -0.035658 -501030.000000 0 0 1
-5.666914 -29.831949 -9.770654 31.898664 1.383072 1.882103 0.028462 -0.026500 153307.000000 0 0 1
-6.978014 -29.468279 -9.387054 31.704715 1.338282 1.871380 0.038710 -0.017870 -37056.900000 0 0 1
-7.032514 -28.083579 -9.285054 30.403222 1.325428 1.881152 0.048944 -0.017670 -151773.000000 0 0 1
-8.502214 -27.546239 -9.083254 30.225626 1.271421 1.876029 0.046658 -0.012373 765517.000000 0 0 1
-9.415214 -27.584529 -10.127354 30.856374 1.241873 1.905204 0.072505 -0.021708 -359267.000000 0 0 1
-9.760214 -28.883489 -10.536954 32.257482 1.244926 1.903555 0.074938 -0.026619 -999299.000000 0 0 1
-11.157014 -29.073549 -11.167954 33.082827 1.204375 1.915136 0.086393 -0.031064 41077.300000 0 0 1
-11.209114 -28.520479 -12.450354 33.076779 1.196322 1.956712 0.103388 -0.033379 535856.000000 0 0 1
-12.351514 -29.078719 -13.115654 34.207487 1.169128 1.964287 0.104926 -0.039073 395286.000000 0 0 1
-12.632814 -28.296799 -14.419754 34.179323 1.150907 2.006320 0.114318 -0.042610 -91288.900000 0 0 1
-13.491614 -27.167509 -14.331654 33.548376 1.109866 2.012183 0.116418 -0.043812 -101871.000000 0 0 1
-13.214514 -26.108199 -13.403854 32.185785 1.102245 2.000336 0.123134 -0.034181 -185586.000000 0 0 1
-14.031314 -24.824129 -13.695254 31.633450 1.056336 2.018543 0.150976 -0.027464 -317490.000000 0 0 1
-13.579714 -24.055929 -14.784154 31.331575 1.056884 2.062197 0.141032 -0.029951 -379846.000000 0 0 1
-14.456214 -23.022129 -15.063854 31.079258 1.010095 2.076807 0.159549 -0.029542 -653120.000000 0 0 1
-14.220614 -22.353729 -16.430054 31.174697 1.004210 2.125900 0.150814 -0.025486 12822.000000 0 0 1
-12.955414 -21.759229 -16.657654 30.311454 1.033767 2.152622 0.131170 -0.016539 251314.000000 0 0 1
-12.899014 -20.967429 -17.839054 30.401472 1.019280 2.197876 0.083276 -0.012353 -230781.000000 0 0 1
-13.177714 -19.441329 -17.672654 29.392859 0.975112 2.215869 0.097009 -0.010554 477764.000000 0 0 1
-12.025214 -18.653429 -17.360354 28.176907 0.998181 2.234603 0.084932 -0.000244 563268.000000 0 0 1
-12.417114 -17.306429 -17.200054 27.377711 0.948431 2.250098 0.098575 0.001525 888009.000000 0 0 1
-11.165014 -16.375929 -17.389954 26.367387 0.972394 2.290983 0.106166 -0.006765 685976.000000 0 0 1
-10.392814 -16.099929 -16.258254 25.130641 0.997577 2.274373 0.105945 -0.004748 -407628.000000 0 0 1
-9.188414 -15.496329 -16.663254 24.540318 1.035583 2.317217 0.082229 -0.006362 -424563.000000 0 1 0
-8.489814 -14.835229 -15.401454 23.007950 1.051013 2.304193 0.072310 -0.007406 160250.000000 0 1 0
-8.008514 -15.703129 -14.418654 22.773277 1.099185 2.256398 0.061283 -0.000144 -458980.000000 0 1 0
-6.913514 -16.492129 -14.747854 23.179435 1.173848 2.260421 0.053266 0.001081 -730177.000000 0 1 0
-6.430514 -17.436129 -13.619554 23.040451 1.217469 2.203237 0.045487 -0.000327 -539515.000000 0 1 0
-5.872214 -16.672029 -12.499954 21.649210 1.232146 2.186320 0.044295 -0.010011 318610.000000 0 1 0
-5.589214 -17.515629 -11.394454 21.630307 1.261911 2.125606 0.035685 -0.013051 -188203.000000 0 1 0
-4.431314 -18.514029 -11.596254 22.290781 1.335867 2.117912 0.040210 -0.014041 -1950780.000000 0 1 0
-3.220814 -17.888329 -11.685254 21.608126 1.392654 2.142161 0.036211 -0.011067 -2262250.000000 0 1 0
-2.321814 -18.921729 -11.494654 22.260946 1.448700 2.113391 0.036267 -0.007939 -561983.000000 0 1 0
-0.853014 -18.633729 -11.835954 22.091476 1.525050 2.136216 0.028859 0.001949 -666416.000000 0 1 0
-0.721314 -18.569629 -13.215054 22.803269 1.531972 2.188941 0.037356 0.008135 226341.000000 0 1 0
0.509686 -17.913429 -13.562754 22.474408 -1.542351 2.218649 0.036996 0.005306 417749.000000 0 1 0
1.754986 -18.795429 -13.588554 23.259341 -1.477693 2.194714 0.049872 -0.009495 -1021540.000000 0 1 0
1.800186 -19.729529 -14.670154 24.651743 -1.479805 2.208181 0.066719 -0.005163 87632.500000 0 1 0
1.207286 -20.981129 -14.439754 25.498467 -1.513318 2.172805 0.074779 -0.019501 -664962.000000 0 0 1
1.438086 -21.921329 -15.617654 26.954107 -1.505288 2.188809 0.094578 -0.032296 408193.000000 0 0 1
2.708186 -22.544029 -15.740454 27.628417 -1.451240 2.176961 0.101126 -0.034552 225120.000000 0 0 1
3.731986 -21.724029 -16.266154 27.394323 -1.400666 2.206543 0.095399 -0.035628 -1003000.000000 0 0 1
5.047386 -22.427729 -16.458254 28.272836 -1.349433 2.192133 0.099170 -0.030117 -655266.000000 0 0 1
5.028586 -23.171629 -17.682954 29.578674 -1.357095 2.211585 0.087524 -0.022803 -132722.000000 0 0 1
6.335286 -23.620529 -17.896154 30.304085 -1.308753 2.202540 0.092742 -0.018352 -182029.000000 0 0 1
6.718186 -23.716429 -19.402054 31.369455 -1.294757 2.237631 0.088166 -0.012995 -99295.500000 0 0 1
6.835586 -22.398029 -19.896254 30.728779 -1.274588 2.275069 0.105593 -0.017502 -95453.800000 0 0 1
7.125386 -22.417929 -21.258854 31.706049 -1.263051 2.305677 0.095899 -0.010221 -35877.100000 0 0 1
7.416286 -21.008929 -21.835854 31.195848 -1.231446 2.346138 0.081909 -0.016833 974038.000000 0 0 1
6.212186 -20.229629 -21.729854 30.331761 -1.272854 2.369434 0.093132 -0.009561 722718.000000 0 0 1
6.482186 -18.895529 -22.138254 29.818820 -1.240323 2.407480 0.101594 -0.014351 -306666.000000 0 0 1
5.244886 -18.061529 -22.438154 29.277951 -1.288179 2.443989 0.097481 -0.012989 -1155010.000000 0 0 1
4.523386 -18.546829 -23.593454 30.349579 -1.331576 2.461302 0.089002 -0.007964 177686.000000 0 0 1
3.614086 -17.623729 -24.152654 30.116576 -1.368531 2.501386 0.079493 -0.003117 367355.000000 0 0 1
2.343586 -17.307829 -23.341054 29.152327 -1.436209 2.499190 0.073345 0.000903 -649076.000000 0 0 1
2.711986 -16.447929 -22.284854 27.829911 -1.407384 2.499346 0.075554 -0.000704 -562530.000000 0 0 1
1.643586 -16.202329 -21.410354 26.900188 -1.469701 2.491319 0.055740 0.004752 -119558.000000 0 0 1
1.936186 -15.243729 -20.250054 25.420165 -1.444458 2.492469 0.059872 -0.003310 83897.900000 0 0 1
2.072986 -13.889029 -20.728354 25.037313 -1.422637 2.546147 0.064543 0.000812 -104199.000000 0 0 1
2.197386 -12.950829 -19.667054 23.650486 -1.402726 2.552726 0.067737 -0.006610 142956.000000 0 1 0
3.466386 -12.113529 -19.911854 23.563432 -1.292086 2.577421 0.065379 -0.006559 -832121.000000 0 1 0
4.679286 -12.748429 -19.663654 23.897227 -1.219015 2.537191 0.067868 -0.007150 -641725.000000 0 1 0
5.763486 -11.832729 -19.740354 23.725784 -1.117538 2.553538 0.069904 -0.005140 421167.000000 0 1 0
6.107386 -10.872129 -18.571354 22.369590 -1.058979 2.550272 0.071549 -0.005523 -598128.000000 0 1 0
5.177786 -9.833729 -18.398354 21.494444 -1.086148 2.598198 0.049159 -0.003430 -119129.000000 0 1 0
5.412886 -8.646029 -19.190354 21.732990 -1.011439 2.653024 0.062146 -0.012692 -214082.000000 0 1 0
4.756286 -8.636729 -20.602954 22.840689 -1.067412 2.695242 0.070724 -0.023529 -410991.000000 0 1 0
3.356786 -8.651929 -20.604254 22.597769 -1.200694 2.718401 0.057757 -0.023072 -637166.000000 0 1 0
2.833186 -8.854529 -21.911654 23.802315 -1.261120 2.740329 0.063522 -0.028372 418578.000000 0 1 0
1.285586 -8.725229 -21.867054 23.578601 -1.424508 2.758227 0.047072 -0.029429 276503.000000 0 1 0
0.853586 -7.437329 -21.520154 22.785072 -1.456526 2.806819 0.043219 -0.033425 -298899.000000 0 1 0
-0.553214 -7.311329 -21.615754 22.825477 1.495275 2.814565 0.034217 -0.025983 309576.000000 0 1 0
-0.960014 -6.310829 -22.754454 23.632888 1.419832 2.868087 0.039858 -0.022200 -163085.000000 0 1 0
-0.702314 -6.715929 -24.075854 25.004874 1.466601 2.868148 0.040714 -0.017927 -335520.000000 0 0 1
-1.377514 -6.107229 -25.166434 25.933476 1.348954 2.897772 0.056991 -0.018664 -41940.800000 0 0 1
-0.847314 -4.723129 -25.550214 25.996910 1.393288 2.955947 0.062911 -0.016581 -347952.000000 0 0 1
-1.557414 -4.107229 -26.588544 26.948943 1.208359 2.977865 0.057165 -0.018656 -357595.000000 0 0 1
-1.082914 -2.847329 -27.080644 27.251445 1.207364 3.029573 0.044506 -0.012869 -472323.000000 0 0 1
-1.511714 -1.587529 -26.240984 26.332390 0.809856 3.058247 0.049437 -0.019608 981058.000000 0 0 1
-2.926414 -1.371129 -26.150924 26.349852 0.438161 3.018637 0.038855 -0.023227 506413.000000 0 0 1
-3.590714 -0.823829 -27.275894 27.523559 0.225530 3.007340 0.055335 -0.015738 -856712.000000 0 0 1
-5.088114 -1.059029 -27.175584 27.668083 0.205208 2.952631 0.060219 -0.027297 -560185.000000 0 0 1
-5.615414 -0.174229 -26.169334 26.765599 0.031017 2.930119 0.077262 -0.026837 153694.000000 0 0 1
-6.992914 -0.415429 -25.902874 26.833418 0.059337 2.877468 0.081079 -0.039030 -197674.000000 0 0 1
-7.670714 0.811271 -25.281444 26.431977 -0.105370 2.845459 0.079148 -0.035360 -927370.000000 0 0 1
-7.907214 1.873071 -26.215044 27.445600 -0.232594 2.841009 0.100050 -0.033764 417094.000000 0 0 1
-8.932214 1.757071 -27.202464 28.685289 -0.194232 2.818655 0.113542 -0.039172 -537554.000000 0 0 1
-10.343514 1.526371 -26.715914 28.688990 -0.146511 2.768557 0.091242 -0.041946 -1751120.000000 0 0 1
-11.368914 1.873371 -27.601154 29.909621 -0.163313 2.746130 0.097647 -0.047325 -170153.000000 0 0 1
-12.613114 1.508771 -27.029024 29.865284 -0.119054 2.702250 0.062502 -0.034382 110751.000000 0 0 1
-13.820014 2.023471 -27.827384 31.136001 -0.145383 2.676403 0.051523 -0.037092 -448283.000000 0 0 1
-15.073714 1.531271 -27.437964 31.343317 -0.101238 2.637061 0.050385 -0.033845 430319.000000 0 0 1
-16.190514 1.879471 -28.255754 32.619822 -0.115567 2.618372 0.051796 -0.030153 560597.000000 0 0 1
-16.903314 3.236571 -27.908724 32.788631 -0.189186 2.589008 0.039412 -0.014325 -533773.000000 0 0 1
-16.130114 4.418271 -27.994024 32.609310 -0.267357 2.603070 0.050470 -0.015907 -136742.000000 0 0 1
-16.058714 5.060471 -29.311994 33.803604 -0.305273 2.620200 0.049915 -0.020700 114003.000000 0 0 1
-17.342414 5.493971 -30.095094 35.166145 -0.306792 2.597887 0.038829 -0.009691 346009.000000 0 0 1
-17.997514 6.610971 -29.545174 35.221198 -0.352027 2.565957 0.042033 0.001288 -580218.000000 0 0 1
-18.978514 7.194371 -30.296854 36.467004 -0.362343 2.551343 0.042164 0.001875 -1081780.000000 0 0 1
-19.535214 8.398571 -29.581284 36.430934 -0.406030 2.518337 0.047523 -0.003480 -214260.000000 0 0 1
-18.588214 9.448971 -29.289474 35.953832 -0.470290 2.522907 0.055018 0.000411 446758.000000 0 0 1
-19.169114 10.541571 -28.566784 35.981117 -0.502785 2.488056 0.072276 -0.010953 117495.000000 0 0 1
-9.058214 25.146771 30.944451 40.889735 -1.225051 0.712426 0.064653 -0.008675 -294330.000000 0 0 1
-9.710514 26.414871 30.927081 41.815354 -1.218515 0.738305 0.070436 -0.003847 344909.000000 0 0 1
-9.217014 27.393371 31.878199 43.029870 -1.246227 0.736478 0.080202 -0.012556 -1201370.000000 0 0 1
-7.856414 27.925571 31.607041 42.901816 -1.296551 0.742575 0.082445 -0.011033 -1455130.000000 0 0 1
-7.810314 28.843171 30.543511 42.729797 -1.306352 0.774450 0.096262 -0.009065 577706.000000 0 0 1
-6.433314 28.929471 30.179351 42.297696 -1.351978 0.776317 0.087688 -0.007684 651715.000000 0 0 1
-6.151614 30.078371 29.114421 42.310758 -1.369059 0.811916 0.098678 -0.016667 -48971.800000 0 0 1
-6.368214 31.318871 29.764531 43.673254 -1.370196 0.820948 0.105042 -0.018213 231729.000000 0 0 1
-6.151114 32.361671 28.875701 43.805480 -1.382963 0.851068 0.111117 -0.014322 -24916.800000 0 0 1
-6.577414 33.695071 29.485181 45.254791 -1.378016 0.861187 0.114146 -0.026578 -510701.000000 0 0 1
-5.754314 33.992971 30.555791 46.068325 -1.403106 0.845615 0.118859 -0.031778 -241880.000000 0 0 1
-6.334614 -33.170338 31.503781 46.183189 1.382096 0.820100 0.110706 -0.038175 657507.000000 0 0 1
-7.430014 -33.797238 32.470762 47.453228 1.354398 0.817196 0.097188 -0.038817 540815.000000 0 0 1
-7.035614 33.414671 33.563816 47.880788 -1.363273 0.794016 0.116251 -0.034323 -132170.000000 0 0 1
-6.665214 32.138871 33.078086 46.599269 -1.366307 0.781523 0.112710 -0.030840 -213140.000000 0 0 1
-6.577614 31.028171 -33.736264 46.304945 -1.361900 2.387024 0.108129 -0.022390 -311677.000000 0 0 1
-5.448214 31.199971 -32.935874 45.693468 -1.397917 2.375753 0.091869 -0.021562 -584470.000000 0 0 1
-5.498614 30.396671 -31.818134 44.346206 -1.391836 2.370994 0.113673 -0.022358 384360.000000 0 0 1
-4.121714 30.028371 -31.172144 43.478663 -1.434388 2.370217 0.094423 -0.025802 1414430.000000 0 0 1
-3.313114 28.880171 -31.622514 42.953747 -1.456576 2.398233 0.085870 -0.016535 950522.000000 0 0 1
-2.913714 28.834071 -33.007264 43.924627 -1.470087 2.421057 0.085130 -0.020881 -426207.000000 0 0 1
-2.188314 27.578371 -33.509004 43.453522 -1.491613 2.451435 0.089414 -0.024867 10965.300000 0 0 1
-0.972814 27.395271 -32.752624 42.710439 -1.535301 2.444720 0.099140 -0.009622 1062350.000000 0 0 1
-0.327314 26.095871 -32.890474 41.986723 -1.558254 2.470840 0.113824 -0.007385 368105.000000 0 0 1
0.143086 25.655971 33.589597 42.267131 1.565219 0.652287 0.096479 -0.011757 -728321.000000 0 0 1
-0.939414 25.331571 32.744560 41.409868 -1.533729 0.658775 0.096160 -0.009849 -167255.000000 0 0 1
-0.676014 25.243471 31.344061 40.250963 -1.544023 0.678180 0.100479 -0.010601 6942.650000 0 0 1
-0.364914 26.623871 30.627561 40.583385 -1.557091 0.715627 0.070739 -0.012127 -720579.000000 0 0 1
-1.460614 27.461671 30.481611 41.053689 -1.517659 0.734029 0.066222 -0.013530 -496515.000000 0 0 1
-1.092914 28.759671 30.024771 41.590865 -1.532813 0.764241 0.059172 -0.014797 -283900.000000 0 0 1
-2.179814 29.836771 30.153851 42.476337 -1.497868 0.781443 0.073781 -0.015581 -261557.000000 0 0 1
-2.464414 30.093371 31.508651 43.640342 -1.489086 0.764097 0.077162 -0.020840 -99438.300000 0 0 1
-3.183014 31.279471 31.721311 44.662943 -1.469385 0.780960 0.091758 -0.021487 -250074.000000 0 0 1
-2.690514 32.068271 32.932255 46.045046 -1.487093 0.773860 0.099096 -0.023064 979924.000000 0 0 1
-1.388114 32.653871 32.724272 46.250191 -1.528312 0.784773 0.085961 -0.031699 769970.000000 0 0 1
-0.697214 33.104871 33.876981 47.371599 -1.549739 0.773982 0.063430 -0.025982 390948.000000 0 0 1
0.696886 33.706471 33.544333 47.558744 1.550124 0.787916 0.073902 -0.030112 159032.000000 0 0 1
0.727386 -33.176938 32.791008 46.652851 -1.548875 0.791368 0.091928 -0.038343 913616.000000 0 0 1
2.095486 -32.847738 32.507993 46.261589 -1.507089 0.791612 0.077901 -0.033491 815357.000000 0 0 1
2.161586 -31.343338 32.338101 45.086917 -1.501941 0.770964 0.093324 -0.031449 -48819.300000 0 0 1
1.655886 -30.574038 33.392377 45.305238 -1.516689 0.742096 0.089819 -0.029630 199760.000000 0 0 1
1.945186 -29.217938 33.195729 44.265428 -1.504319 0.722848 0.076761 -0.032469 -94252.400000 0 0 1
1.555386 -28.348038 -33.466584 43.886704 -1.515984 2.438069 0.073140 -0.027404 -207595.000000 0 0 1
0.172586 -28.122738 -33.430864 43.686850 -1.564660 2.442208 0.063040 -0.032022 -311803.000000 0 0 1
-0.345214 -27.602538 -32.230154 42.435859 1.558290 2.433345 0.065308 -0.031621 -286623.000000 0 0 1
-1.865614 -27.434138 -32.395084 42.491810 1.502897 2.437786 0.086275 -0.027654 -325825.000000 0 0 1
-2.367314 -27.060238 -31.121544 41.308730 1.483535 2.423997 0.067224 -0.029224 -678543.000000 0 0 1
-3.614814 -26.464638 -31.281534 41.133664 1.435046 2.434856 0.091688 -0.027153 -716535.000000 0 0 1
-4.050114 -25.844338 -29.902264 39.730072 1.415349 2.422852 0.094899 -0.032162 -199848.000000 0 0 1
-4.423914 -26.800838 -28.891714 39.655858 1.407205 2.387015 0.092290 -0.034034 24297.300000 0 0 1
-4.587914 -26.285138 -27.555714 38.357200 1.397993 2.372292 0.107875 -0.027006 790090.000000 0 0 1
-3.278014 -25.859838 -26.772194 37.366121 1.444708 2.369544 0.102206 -0.028751 875315.000000 0 0 1
-2.666714 -24.624638 -27.142694 36.745204 1.462922 2.401896 0.098823 -0.026012 695702.000000 0 0 1
-1.567814 -24.296838 -26.286824 35.830036 1.506358 2.394479 0.075857 -0.020099 -335165.000000 0 0 1
-0.626714 -23.145838 -26.693454 35.336427 1.543726 2.427074 0.054821 -0.012093 683003.000000 0 0 1
0.219686 -23.288738 -27.848854 36.303888 -1.561363 2.445111 0.021639 -0.012002 933809.000000 0 0 1
1.052486 -24.489638 -27.886844 37.128509 -1.527846 2.420508 0.020305 -0.008898 -151094.000000 0 0 1
1.854886 -24.736538 -29.174244 38.294562 -1.495951 2.436942 0.011871 -0.013803 313075.000000 0 0 1
2.850986 -23.749438 -29.381734 37.887336 -1.451324 2.458307 0.028579 -0.014450 681671.000000 0 0 1
3.683586 -23.932238 -30.540924 38.975234 -1.418077 2.471233 0.042717 -0.018139 -780611.000000 0 0 1
4.517386 -22.662838 -30.882074 38.570889 -1.374045 2.499188 0.054688 -0.029558 -231513.000000 0 0 1
5.712186 -22.420638 -30.146804 38.001893 -1.321330 2.487002 0.047848 -0.035212 977898.000000 0 0 1
6.714986 -23.447338 -30.189244 38.810555 -1.291876 2.462052 0.058569 -0.028854 -433690.000000 0 0 1
7.419986 -23.767238 -31.556464 40.196371 -1.268190 2.473585 0.070890 -0.026599 -684620.000000 0 0 1
6.633786 -24.414738 -32.529784 41.210113 -1.305489 2.480569 0.038562 -0.020153 -250450.000000 0 0 1
7.083786 -24.185738 -33.837694 42.191462 -1.285874 2.501438 0.064357 -0.028563 -232036.000000 0 0 1
6.708486 -22.810138 33.400412 40.998704 -1.284760 0.618636 0.077624 -0.031837 -226086.000000 0 0 1
5.312286 -22.677838 33.397280 40.717110 -1.340695 0.608988 0.081508 -0.030294 -167948.000000 0 0 1
4.784086 -21.768338 32.447613 39.364903 -1.354463 0.601871 0.102764 -0.046529 -110112.000000 0 0 1
3.309186 -21.348838 32.574139 39.087059 -1.417015 0.585612 0.087747 -0.049193 1353750.000000 0 0 1
2.181486 -22.276838 32.419424 39.395881 -1.473181 0.604275 0.087664 -0.034137 1273880.000000 0 0 1
2.150686 -23.367838 33.387099 40.809064 -1.479019 0.612646 0.078604 -0.032661 -1443890.000000 0 0 1
0.852486 -24.100538 33.332745 41.141640 -1.535439 0.626312 0.088951 -0.030464 -883293.000000 0 0 1
0.635886 -24.917738 32.219680 40.735805 -1.545282 0.658449 0.095914 -0.030409 -569406.000000 0 0 1
-0.686414 -25.324038 32.053146 40.855627 1.543698 0.668832 0.110613 -0.039465 -516584.000000 0 0 1
-0.784914 -26.496338 30.975551 40.769557 1.541181 0.707835 0.115724 -0.041402 1460370.000000 0 0 1
-2.147714 -26.646738 30.465321 40.531434 1.490371 0.720241 0.110805 -0.047086 1542860.000000 0 0 1
-2.319814 -27.783938 29.617291 40.675702 1.487495 0.755203 0.125063 -0.044494 -61348.700000 0 0 1
-3.712014 -27.829638 28.973661 40.345271 1.438196 0.769667 0.132860 -0.038870 -206546.000000 0 0 1
-4.784814 -28.315638 29.738261 41.340464 1.403396 0.767930 0.122262 -0.038298 119423.000000 0 0 1
-5.881214 -28.660738 28.910371 41.131936 1.368405 0.791373 0.111299 -0.030870 304220.000000 0 0 1
-7.192414 -28.995338 29.692231 42.119937 1.327650 0.788451 0.091751 -0.021038 -330987.000000 0 0 1
-8.122314 -29.624838 28.874311 42.158378 1.303200 0.816329 0.100586 -0.022459 355419.000000 0 0 1
-9.429514 -29.710638 29.461411 42.890704 1.263473 0.813588 0.087578 -0.019826 576297.000000 0 0 1
-9.732714 -30.828838 30.573811 44.496078 1.264997 0.813289 0.092087 -0.018582 -503974.000000 0 0 1
-9.756414 -32.179738 30.177771 45.182088 1.276420 0.839393 0.105632 -0.025473 346165.000000 0 0 1
-10.895814 -32.542838 29.418931 45.202086 1.247713 0.862118 0.103132 -0.024457 -64264.700000 0 0 1
-10.798214 -34.024938 28.888531 45.922163 1.263488 0.890432 0.113923 -0.023504 -144761.000000 0 0 1
-10.656614 33.215771 30.014191 46.018502 -1.260341 0.860287 0.115957 -0.021485 165327.000000 0 0 1
-10.208314 31.984571 29.621331 44.773270 -1.261852 0.847866 0.109468 -0.022899 -427667.000000 0 0 1
-10.783714 30.908271 30.522191 44.757277 -1.235107 0.820372 0.105017 -0.000847 16589.900000 0 0 1
-12.191114 30.921371 30.350611 45.010155 -1.195246 0.830772 0.103575 0.012913 56855.700000 0 0 1
-12.924614 29.786771 30.744441 44.715971 -1.161408 0.812687 0.098792 0.011096 96313.700000 0 0 1
-12.979114 29.396071 32.253754 45.529013 -1.155012 0.783536 0.105880 -0.000645 -252019.000000 0 0 1
-13.725714 30.274371 33.125384 46.927858 -1.145137 0.787133 0.105467 0.000336 376204.000000 0 0 1
-13.910314 29.726971 -33.466574 46.874313 -1.133127 2.365940 0.109092 -0.000789 -79632.900000 0 0 1
-15.215214 30.179671 -32.777914 47.081917 -1.103831 2.340871 0.105016 -0.000828 27021.900000 0 0 1
-15.354914 29.667571 -31.476824 45.899113 -1.093195 2.326475 0.078320 0.004732 200697.000000 0 0 1
-16.597514 30.108071 -30.923984 46.241391 -1.066983 2.303324 0.086897 0.001372 546905.000000 0 0 1
-16.789014 29.644971 -29.509814 45.072435 -1.055498 2.284608 0.093533 -0.002635 17613.900000 0 0 1
-17.139414 28.272971 -29.459564 44.283025 -1.025822 2.298633 0.075283 -0.003890 30620.600000 0 0 1
-17.275214 27.945671 -28.133424 43.253706 -1.017123 2.278944 0.058066 -0.009656 -70073.000000 0 0 1
-17.691114 26.459071 -27.811354 42.267356 -0.981441 2.288938 0.034390 -0.012152 876221.000000 0 0 1
-19.038514 26.193371 -28.233304 42.961345 -0.942280 2.287867 0.052314 -0.016216 439004.000000 0 0 1
-19.467914 24.985571 -27.689024 42.070898 -0.908889 2.289157 0.024627 -0.012473 1949850.000000 0 0 1
-20.992814 24.559071 -28.036324 42.777116 -0.863529 2.285515 0.029577 -0.006315 1407290.000000 0 0 1
-21.938214 25.198571 -27.261364 43.121169 -0.854456 2.255191 0.030896 -0.005502 -8334.620000 0 0 1
-23.155314 24.431071 -27.318344 43.351329 -0.812201 2.252558 0.050124 -0.006104 593277.000000 0 0 1
-24.101614 24.713771 -26.136234 43.298511 -0.797938 2.218841 0.070274 -0.004509 -650771.000000 0 0 1
-24.830814 25.887971 -26.257634 44.454693 -0.806239 2.202674 0.044330 0.008488 -189295.000000 0 0 1
-25.995264 25.897671 -25.439644 44.649957 -0.783517 2.177007 0.056078 0.009450 140051.000000 0 0 1
-25.924774 25.861371 -23.852954 43.702035 -0.784174 2.148150 0.057642 0.012794 -867873.000000 0 0 1
-25.492024 24.641171 -23.290554 42.420284 -0.768428 2.152015 0.066444 0.004285 59810.700000 0 0 1
-26.432334 23.569571 -23.355654 42.422630 -0.728208 2.153816 0.077183 0.008984 84399.000000 0 0 1
-27.479494 23.538071 -22.227254 42.464270 -0.708295 2.121673 0.050495 0.006764 -146950.000000 0 0 1
-27.014744 23.177371 -20.910154 41.282217 -0.709093 2.101937 0.055874 -0.003720 321689.000000 0 0 1
-26.149534 24.149671 -20.328454 40.990862 -0.745660 2.089698 0.052598 0.010316 29285.900000 0 0 1
-25.363734 23.699471 -19.079154 39.610580 -0.751490 2.073354 0.047184 0.009214 15498.300000 0 0 1
-26.040204 23.931971 -17.884354 39.631825 -0.743235 2.038976 0.045442 0.009698 579599.000000 0 0 1
-25.093804 23.738671 -16.826854 38.423515 -0.757655 2.024092 0.056795 -0.004010 657379.000000 0 0 1
-25.825944 24.018371 -15.491254 38.520650 -0.749150 1.984665 0.071960 -0.008951 89191.800000 0 0 1
-25.926194 25.335571 -15.139954 39.284563 -0.773877 1.966429 0.069803 -0.011258 -49875.000000 0 0 1
-26.502034 25.484271 -13.850254 39.289126 -0.765823 1.931060 0.043238 -0.014981 116271.000000 0 0 1
-26.370914 26.887771 -13.114054 39.879265 -0.795103 1.905875 0.045644 -0.009605 873589.000000 0 0 1
-24.998514 27.038371 -12.721854 38.959528 -0.824578 1.903437 0.068351 -0.024848 683052.000000 0 0 1
-24.899214 27.884271 -11.516654 39.116963 -0.841891 1.869641 0.078183 -0.024937 1032510.000000 0 0 1
-23.402114 28.191371 -11.103654 38.284507 -0.877960 1.865054 0.094835 -0.034667 925844.000000 0 0 1
-22.759914 27.055171 -10.586554 36.906247 -0.871409 1.861733 0.100042 -0.033562 -6478.240000 0 0 1
-21.550714 27.434271 -9.942154 36.275597 -0.904935 1.848422 0.108406 -0.032296 233505.000000 0 0 1
-20.761814 26.231271 -9.380454 34.743711 -0.901265 1.844179 0.141865 -0.039692 7358.060000 0 0 1
-20.186814 25.453771 -10.452254 34.126991 -0.900291 1.882074 0.129759 -0.034192 668131.000000 0 0 1
-19.122114 24.600071 -10.019654 32.729378 -0.910039 1.881928 0.132178 -0.034884 343934.000000 0 0 1
-18.388014 23.789471 -11.126454 32.060193 -0.912770 1.925219 0.136810 -0.038853 -49655.600000 0 0 1
-17.636214 22.717071 -10.547154 30.632398 -0.910648 1.922304 0.121297 -0.036313 49663.900000 0 0 1
-17.127814 21.992671 -11.612154 30.197379 -0.909119 1.965508 0.121452 -0.023952 236263.000000 0 0 1
-16.617714 20.509971 -11.306154 28.716484 -0.889851 1.975468 0.115294 -0.016477 481345.000000 0 0 1
-17.784614 19.713171 -11.096254 28.775484 -0.836784 1.966670 0.123552 -0.010583 395066.000000 0 0 1
-17.553014 18.371571 -10.777054 27.600142 -0.808180 1.971939 0.133364 -0.023265 22151.600000 0 0 1
-18.872714 17.583171 -10.431554 27.823813 -0.750040 1.955101 0.105776 -0.011867 1228610.000000 0 0 1
-19.777114 17.167671 -11.459854 28.586560 -0.714884 1.983276 0.096293 -0.005348 529041.000000 0 0 1
-20.343814 18.161471 -12.297154 29.915377 -0.728782 1.994418 0.092493 -0.007687 -286147.000000 0 0 1
-21.243414 17.570671 -13.432754 30.666757 -0.691055 2.024195 0.089604 -0.011069 719080.000000 0 0 1
-20.436114 17.047571 -14.489554 30.301842 -0.695243 2.069371 0.096890 -0.019885 1021960.000000 0 0 1
-21.337814 16.572471 -15.475454 31.135812 -0.660353 2.090970 0.087588 -0.018276 618206.000000 0 0 1
-20.489814 16.079571 -16.678354 30.928184 -0.665378 2.140355 0.108537 -0.027432 535002.000000 0 0 1
-19.855314 17.123971 -17.463154 31.502788 -0.711671 2.158362 0.086363 -0.016448 423294.000000 0 0 1
-19.016114 16.656171 -18.493854 31.321930 -0.719338 2.202406 0.075290 -0.014105 -914674.000000 0 0 1
-18.345514 17.801471 -19.210854 31.976666 -0.770348 2.215269 0.060911 -0.013412 -969613.000000 0 0 1
-17.415014 18.334271 -18.319354 31.225421 -0.811106 2.197750 0.071496 -0.017013 -190904.000000 0 0 1
-16.763414 19.449171 -18.876654 31.868643 -0.859429 2.204740 0.077303 -0.012108 -2034.440000 0 0 1
33.898869 30.379071 2.574446 45.592203 0.730694 1.514299 0.093854 -0.011662 165443.000000 0 0 1
35.234679 30.565671 2.150846 46.694421 0.714560 1.524718 0.098414 -0.013669 195635.000000 0 0 1
35.175609 30.918671 0.794046 46.839280 0.721080 1.553843 0.081091 -0.007774 -262717.000000 0 0 1
36.515899 30.929471 0.072946 47.854450 0.702758 1.569272 0.051825 -0.003059 -62703.200000 0 0 1
-36.738284 31.671871 0.665246 48.510324 -0.711474 1.557082 0.045779 -0.005783 -34815.600000 0 0 1
-35.616000 31.627771 -0.157154 47.632343 -0.726158 1.574096 0.052338 0.000890 -334415.000000 0 0 1
-34.588464 32.695271 0.352146 47.596918 -0.757268 1.563398 0.050502 -0.004690 38295.500000 0 0 1
-33.893914 32.359771 1.538846 46.886248 -0.762247 1.537970 0.037112 -0.005128 -161393.000000 0 0 1
-33.388884 33.546171 2.067146 47.375482 -0.787748 1.527149 0.026074 -0.002007 133263.000000 0 0 1
-32.471104 33.365071 3.322646 46.675910 -0.798976 1.499551 0.054447 0.011211 243739.000000 0 0 1
-32.147664 -33.383238 3.791246 46.500392 0.804251 1.489174 0.051265 0.006840 -245775.000000 0 0 1
-31.337194 -33.450438 4.916246 46.099035 0.818005 1.463948 0.071515 -0.003040 -938621.000000 0 0 1
-31.188804 -32.154938 5.749946 45.163519 0.800649 1.443136 0.077953 -0.005155 -405460.000000 0 0 1
-32.330994 -31.612738 6.334546 45.659445 0.774166 1.431613 0.083256 -0.007060 -56748.500000 0 0 1
-33.084234 -32.498638 7.190046 46.929999 0.776469 1.416983 0.074880 -0.022810 -509088.000000 0 0 1
-34.143419 -31.719238 8.070946 47.297181 0.748608 1.399314 0.096915 -0.022949 842565.000000 0 0 1
-35.458429 -31.585738 7.578546 48.087352 0.727699 1.412537 0.081748 -0.019826 250818.000000 0 0 1
-36.233314 -32.756238 7.322646 49.390742 0.735041 1.421988 0.068006 -0.022114 -649066.000000 0 0 1
36.577349 -32.538638 7.133046 49.472677 -0.727031 1.426111 0.070941 -0.016657 -21533.900000 0 0 1
35.813189 -32.649338 8.313846 49.169948 -0.739218 1.400896 0.067607 -0.015449 205414.000000 0 0 1
34.434219 -32.594638 8.020046 48.087909 -0.757960 1.403234 0.052597 -0.007130 -83368.000000 0 0 1
33.485789 -32.760938 9.223446 47.745671 -0.774457 1.376395 0.068031 -0.019694 7105.930000 0 0 1
32.150269 -32.403138 8.885446 46.503272 -0.789315 1.378543 0.063259 -0.022429 661491.000000 0 0 1
31.254099 -32.550938 10.000846 46.221198 -0.805720 1.352702 0.067814 -0.026517 240948.000000 0 0 1
31.193019 -31.339838 11.017146 45.569369 -0.787746 1.326610 0.065992 -0.018682 -196455.000000 0 0 1
30.441489 -30.143038 10.709046 44.158472 -0.780472 1.325840 0.040011 -0.011715 327657.000000 0 0 1
30.822179 -29.464038 9.490646 43.683047 -0.762874 1.351788 0.047117 -0.017376 -461200.000000 0 0 1
30.296439 -28.071038 9.192346 42.312606 -0.747289 1.351802 0.043642 -0.014401 -426913.000000 0 0 1
30.369379 -27.719438 7.844946 41.859403 -0.739811 1.382270 0.055161 -0.016863 -63091.800000 0 0 1
30.047799 -26.336438 7.709446 40.692920 -0.719670 1.380190 0.054496 -0.020794 -41530.100000 0 0 1
30.109089 -25.897838 6.244546 40.202607 -0.710348 1.414838 0.055474 -0.014557 23306.900000 0 0 1
31.442689 -25.580838 5.951646 40.968818 -0.682961 1.425008 0.075653 -0.018145 -563307.000000 0 0 1
31.614819 -24.973038 4.710646 40.562786 -0.668562 1.454401 0.060452 -0.013693 581370.000000 0 0 1
33.014439 -24.416838 4.260846 41.283047 -0.636799 1.467402 0.078515 -0.014198 533654.000000 0 0 1
33.974899 -25.440338 4.168946 42.648384 -0.642731 1.472888 0.072636 -0.013634 -154566.000000 0 0 1
35.267669 -24.855138 4.041546 43.334979 -0.613911 1.477398 0.073705 -0.015875 110147.000000 0 0 1
36.377419 -25.884938 3.871346 44.814439 -0.618446 1.484302 0.069930 -0.017378 -414561.000000 0 0 1
36.517369 -26.621638 5.065646 45.474065 -0.629934 1.459168 0.061111 -0.010190 8333.130000 0 0 1
37.080529 -27.929438 4.896746 46.679731 -0.645553 1.465702 0.060418 -0.013614 -829240.000000 0 0 1
36.708689 -28.918438 6.000446 47.114852 -0.667246 1.443092 0.065627 -0.009654 1164330.000000 0 0 1
35.444169 -29.626738 5.887046 46.569196 -0.696234 1.444042 0.032585 -0.005513 1331510.000000 0 0 1
34.299799 -28.799238 6.078146 45.197524 -0.698445 1.435908 0.047236 -0.007759 -476860.000000 0 0 1
32.945649 -29.509438 6.324246 44.679064 -0.730435 1.428771 0.062595 -0.012849 135945.000000 0 0 1
32.387129 -30.158838 5.224846 44.562099 -0.749787 1.453277 0.038687 -0.016066 -552501.000000 0 0 1
31.607789 -29.317738 4.455646 43.340914 -0.747828 1.467810 0.043165 -0.018355 -586398.000000 0 0 1
30.109309 -29.701338 4.391346 42.520864 -0.778577 1.467337 0.042278 -0.019666 193263.000000 0 0 1
29.872589 -30.956638 3.801946 43.187264 -0.803217 1.482648 0.051652 -0.013684 57403.000000 0 0 1
28.490429 -31.251538 3.635646 42.445036 -0.831583 1.485036 0.066456 -0.015432 430001.000000 0 0 1
28.399929 -32.665938 2.961546 43.386521 -0.855144 1.502484 0.080105 -0.012315 -287431.000000 0 0 1
28.653229 -32.587638 1.573146 43.421613 -0.849555 1.534559 0.075082 -0.002641 176100.000000 0 0 1
28.493529 -33.882938 0.969046 44.281754 -0.871585 1.548911 0.075941 -0.002439 -260592.000000 0 0 1
28.314029 -33.784538 -0.538254 44.083659 -0.873265 1.583006 0.061208 -0.002987 39989.800000 0 0 1
29.408369 -33.492338 -1.396254 44.593031 -0.850234 1.602112 0.059630 -0.004645 214995.000000 0 0 1
28.977629 -33.637738 -2.781854 44.485268 -0.859686 1.633371 0.060209 -0.001782 445043.000000 0 0 1
30.061849 -33.288038 -3.847854 45.017932 -0.836281 1.656375 0.048367 0.001499 289804.000000 0 0 1
30.222819 -31.877138 -3.978154 44.106648 -0.812031 1.661113 0.036698 -0.000869 281646.000000 0 0 1
31.156009 -31.478638 -4.981954 44.569288 -0.790549 1.682810 0.029233 0.003591 -40437.200000 0 0 1
31.536189 -30.008538 -4.866654 43.803286 -0.760581 1.682129 0.005620 0.007577 77432.800000 0 0 1
30.400479 -29.142938 -5.096754 42.420241 -0.764282 1.691236 0.010769 -0.014406 874925.000000 0 0 1
30.748119 -27.743438 -4.979854 41.712637 -0.734074 1.690467 -0.000606 -0.017647 745343.000000 0 0 1
31.866029 -27.113838 -5.931854 42.258619 -0.704999 1.711632 0.016774 -0.020706 1625820.000000 0 0 1
33.161359 -27.720638 -5.752954 43.602821 -0.696270 1.703122 0.018987 -0.004852 1087590.000000 0 0 1
34.213499 -27.244838 -6.609954 44.232750 -0.672492 1.720794 0.033158 -0.010433 554499.000000 0 0 1
34.338859 -28.039438 -7.934354 45.036888 -0.684752 1.747895 0.032219 -0.014786 39090.600000 0 0 1
33.157389 -27.930738 -8.758854 44.229584 -0.700047 1.770146 0.021821 -0.010504 549296.000000 0 0 1
33.002019 -28.907838 -9.756454 44.944240 -0.719363 1.789618 0.022402 -0.000923 14210.200000 0 0 1
32.725709 -30.363438 -9.263054 45.592922 -0.747972 1.775389 0.021252 -0.006324 -581246.000000 0 0 1
33.814989 -30.937638 -8.617454 46.635302 -0.740991 1.756648 0.029316 -0.003417 -898274.000000 0 0 1
33.598449 -32.219238 -8.159354 47.260027 -0.764446 1.744314 0.037714 -0.012869 459480.000000 0 0 1
34.832099 -32.838238 -7.396654 48.438987 -0.755942 1.724096 0.026237 -0.013863 605896.000000 0 0 1
34.689739 34.020071 -6.614054 49.035588 0.775652 1.706091 0.025449 -0.011684 -255940.000000 0 0 1
33.934519 -33.923238 -5.409354 48.286631 -0.785232 1.683058 0.036796 -0.003448 20438.200000 0 0 1
33.678919 32.797371 -4.790454 47.253418 0.772138 1.672349 0.028576 -0.004427 -28542.700000 0 0 1
32.750669 32.017071 -5.514154 46.131389 0.774072 1.690614 0.046221 -0.018267 -9704.940000 0 0 1
32.707359 30.659871 -5.035454 45.112690 0.753098 1.682649 0.050199 -0.007911 -192904.000000 0 0 1
31.426509 29.956671 -5.479254 43.761282 0.761457 1.696334 0.065601 -0.016078 -363167.000000 0 0 1
31.352179 29.859871 -6.895154 43.841922 0.761024 1.728725 0.042252 -0.014325 -107028.000000 0 0 1
30.140229 29.294971 -7.336554 42.666775 0.771178 1.743605 0.031269 -0.009885 23604.900000 0 0 1
30.223569 28.954071 -8.835254 42.776910 0.763949 1.778836 0.036933 -0.008261 71300.800000 0 0 1
31.079149 27.834571 -9.115854 42.705686 0.730380 1.785909 0.048574 -0.011249 256922.000000 0 0 1
31.408209 27.730271 -10.456154 43.183037 0.723286 1.815363 0.042100 -0.010716 344901.000000 0 0 1
32.650889 28.537071 -10.979554 44.732489 0.718267 1.818779 0.057530 -0.011080 -984212.000000 0 0 1
33.838639 27.998771 -10.497654 45.157340 0.691238 1.805411 0.059909 -0.018705 -450917.000000 0 0 1
34.953879 28.601171 -11.134654 46.516461 0.685773 1.812513 0.071575 -0.018832 194200.000000 0 0 1
35.413059 29.995871 -10.541354 47.591566 0.702766 1.794145 0.052007 -0.027146 -1085140.000000 0 0 1
35.859779 29.882371 -9.235254 47.583293 0.694725 1.766122 0.056229 -0.017997 122583.000000 0 0 1
35.561649 31.123871 -8.511454 48.018445 0.718948 1.748992 0.046399 -0.016670 -438809.000000 0 0 1
36.541309 31.358271 -7.278654 48.698945 0.709212 1.720821 0.046391 -0.008185 331407.000000 0 0 1
-36.434784 31.525371 -7.617554 48.778783 -0.713284 1.727603 0.050792 -0.018828 -649619.000000 0 0 1
-35.731998 30.386871 -7.920454 47.569646 -0.704732 1.738078 0.050588 -0.017848 -631298.000000 0 0 1
-34.234037 30.569771 -8.310854 46.642797 -0.728914 1.749934 0.089304 -0.025271 182112.000000 0 0 1
-33.377304 31.081571 -7.302654 46.189146 -0.749798 1.729566 0.068450 -0.026937 -17568.200000 0 0 1
-32.094554 31.421671 -7.760754 45.580820 -0.774805 1.741893 0.079454 -0.041885 -427777.000000 0 0 1
-31.961654 32.657671 -8.706454 46.517450 -0.796169 1.759072 0.048614 -0.031793 -854134.000000 0 0 1
-31.956434 33.980671 -8.187254 47.359591 -0.816088 1.744543 0.036107 -0.021019 -39007.400000 0 0 1
-30.854844 -33.812838 -7.360654 46.362794 0.831108 1.730233 0.066159 -0.020120 -215356.000000 0 0 1
-31.061754 -32.413838 -6.665554 45.386332 0.806696 1.718192 0.048227 -0.024950 342503.000000 0 0 1
-32.058114 -32.286438 -5.635854 45.846479 0.788947 1.694037 0.040448 -0.024256 306358.000000 0 0 1
-31.703684 -32.880838 -4.374454 45.884736 0.803623 1.666277 0.050492 -0.021647 -491689.000000 0 0 1
-32.901934 -32.970738 -3.446254 46.706354 0.786443 1.644649 0.047908 -0.016465 -541209.000000 0 0 1
-33.399284 -31.704938 -3.108654 46.156029 0.759379 1.638198 0.040082 -0.010976 -477769.000000 0 0 1
-34.091805 -31.776438 -1.931854 46.644670 0.750261 1.612225 0.053739 -0.009932 -420742.000000 0 0 1
-34.609928 -30.384638 -1.521854 46.080250 0.720480 1.603829 0.061641 -0.001003 -32809.100000 0 0 1
-35.472299 -30.361938 -0.411754 46.693692 0.707929 1.579615 0.056238 0.006597 221698.000000 0 0 1
-36.234444 -29.119138 -0.357554 46.486417 0.676951 1.578488 0.064706 0.003599 305079.000000 0 0 1
-37.132684 -28.915338 0.861946 47.070967 0.661619 1.552484 0.049437 0.006409 108789.000000 0 0 1
36.064159 -29.824238 0.927346 46.807785 -0.690975 1.550983 0.023984 0.014026 1038720.000000 0 0 1
35.096859 -29.617538 1.950646 45.965129 -0.700930 1.528346 0.022097 0.006357 283383.000000 0 0 1
34.243619 -28.364638 1.875946 44.505025 -0.691772 1.528633 0.013333 0.011827 -1488770.000000 0 0 1
33.187889 -28.416038 0.983746 43.702116 -0.708092 1.548284 0.001425 0.006606 -226702.000000 0 0 1
32.412009 -27.218738 1.036646 42.337603 -0.698527 1.546309 -0.002563 0.008433 -247487.000000 0 0 1
31.190749 -27.140838 0.104646 41.346086 -0.716080 1.568265 0.001534 -0.013384 -289448.000000 0 0 1
30.016309 -27.782038 0.536646 40.903648 -0.746761 1.557676 0.012622 0.001381 6162.270000 0 0 1
29.999019 -29.193138 0.367546 41.860668 -0.771784 1.562016 0.014514 0.001140 -356175.000000 0 0 1
29.412619 -29.669938 -1.015154 41.790404 -0.789753 1.595090 0.026199 -0.006493 270231.000000 0 0 1
28.096029 -29.252938 -1.350754 40.582579 -0.805569 1.604087 0.042138 -0.003946 229921.000000 0 0 1
27.999829 -29.126738 -2.753854 40.496185 -0.805122 1.638852 0.041555 -0.005461 -109613.000000 0 0 1
26.692829 -29.721538 -3.327654 40.086784 -0.839034 1.653903 0.067711 -0.014964 389503.000000 0 0 1
25.592529 -28.857838 -3.073154 38.693625 -0.845295 1.650303 0.065077 -0.018854 337925.000000 0 0 1
24.365929 -29.407938 -3.560154 38.356225 -0.878888 1.663748 0.061025 -0.021622 412766.000000 0 0 1
23.231429 -28.367138 -3.508454 36.833450 -0.884603 1.666193 0.069808 -0.024912 -261397.000000 0 0 1
23.248929 -27.447638 -4.601354 36.263728 -0.868030 1.698025 0.072175 -0.025777 -183757.000000 0 0 1
22.368829 -26.363338 -4.438754 34.858179 -0.867184 1.698481 0.081305 -0.032015 -404869.000000 0 0 1
21.896529 -25.821038 -5.805754 34.349538 -0.867458 1.740631 0.086773 -0.047108 -632582.000000 0 0 1
20.677929 -26.313438 -6.273054 34.048862 -0.904755 1.756092 0.079076 -0.037064 -635161.000000 0 0 1
20.157829 -25.572438 -7.344954 33.380174 -0.903253 1.792651 0.093161 -0.037173 -389342.000000 0 0 1
18.668329 -25.782838 -7.613754 32.729658 -0.944104 1.805573 0.077997 -0.026371 -427267.000000 0 0 1
17.926729 -25.126338 -6.634954 31.570922 -0.951091 1.782535 0.069413 -0.030384 830267.000000 0 0 1
16.498829 -25.363638 -6.673054 30.984757 -0.994076 1.787863 0.057839 -0.027399 1334000.000000 0 0 1
15.715029 -24.352638 -5.782954 29.554283 -0.997724 1.767739 0.058962 -0.021520 -77589.200000 0 0 1
15.661429 -24.801138 -4.438254 29.666056 -1.007551 1.720967 0.050087 -0.022799 84726.700000 0 0 1
14.886029 -23.949438 -3.642954 28.433089 -1.014674 1.699273 0.056840 -0.023251 -80697.400000 0 0 1
14.906629 -24.382838 -2.182554 28.661715 -1.022068 1.647019 0.070318 -0.027271 -89846.500000 0 0 1
14.247629 -25.622438 -2.017354 29.386629 -1.063312 1.639499 0.071864 -0.021937 206102.000000 0 0 1
15.105729 -26.714738 -1.701954 30.736898 -1.056172 1.626196 0.079891 -0.025759 -112357.000000 0 0 1
14.440029 -28.082738 -1.899254 31.634819 -1.095857 1.630869 0.073536 -0.021684 378734.000000 0 0 1
13.267329 -28.197638 -1.075954 31.181509 -1.131016 1.605309 0.101786 -0.028815 204286.000000 0 0 1
12.636429 -29.461138 -1.222354 32.080090 -1.165611 1.608909 0.102675 -0.026710 -43453.100000 0 0 1
13.341729 -30.804638 -0.763054 33.578411 -1.162078 1.593523 0.089221 -0.027269 242203.000000 0 0 1
14.541829 -31.095038 -1.468454 34.358733 -1.133356 1.613548 0.068612 -0.024987 19375.300000 0 0 1
15.116929 -32.333438 -1.126154 35.710516 -1.133459 1.602337 0.072791 -0.022293 18320.700000 0 0 1
16.577829 -32.472238 -1.608254 36.494618 -1.098766 1.614879 0.054668 -0.015983 91650.200000 0 0 1
17.419729 -31.479338 -1.072554 35.993695 -1.065369 1.600599 0.057129 -0.012395 994567.000000 0 0 1
18.769029 -31.469538 -1.606254 36.676809 -1.033014 1.614605 0.054544 -0.018562 919605.000000 0 0 1
19.614429 -30.371138 -0.959354 36.167004 -0.997362 1.597325 0.065630 -0.016381 -79045.600000 0 0 1
19.165829 -29.044838 -1.279254 34.821949 -0.987514 1.607542 0.057622 -0.016874 338505.000000 0 0 1
19.955929 -28.162738 -0.517254 34.520233 -0.954326 1.585781 0.060485 -0.014504 -52952.800000 0 0 1
19.476729 -26.676538 -0.692354 33.037252 -0.940149 1.591755 0.064963 -0.017631 -139977.000000 0 0 1
19.742229 -25.994138 -1.923054 32.697843 -0.921251 1.629643 0.068235 -0.021350 -64907.500000 0 0 1
19.017629 -26.382538 -3.054754 32.665579 -0.946219 1.664449 0.064167 -0.025478 -488116.000000 0 0 1
32.582529 -29.036038 13.598846 45.712595 -0.727906 1.268738 0.080618 -0.031075 -96006.900000 0 0 1
33.629679 -29.381738 14.463346 46.940709 -0.718085 1.257581 0.116837 -0.023039 -108463.000000 0 0 1
33.118719 -30.096838 15.537546 47.371769 -0.737632 1.236619 0.099649 -0.015242 499652.000000 0 0 1
34.204819 -30.439838 16.631546 48.715107 -0.727223 1.222386 0.104976 -0.017830 349010.000000 0 0 1
33.685869 -30.958738 17.873046 49.118499 -0.743237 1.198370 0.098440 -0.024155 65760.600000 0 0 1
34.683529 -31.255638 18.806746 50.334439 -0.733459 1.187871 0.076432 -0.018326 -474380.000000 0 0 1
35.346359 -32.675338 18.650146 51.622386 -0.746151 1.201156 0.072024 -0.016512 215041.000000 0 0 1
36.262449 -32.692338 17.527446 51.874517 -0.733670 1.226131 0.082426 -0.019070 248505.000000 0 0 1
36.979989 -33.888738 17.678046 53.183451 -0.741806 1.231952 0.069798 -0.017903 -566717.000000 0 0 1
-36.084914 -33.976138 16.813646 52.337345 0.755308 1.243742 0.077045 -0.024664 -38417.800000 0 0 1
-35.002666 -33.170738 17.274046 51.223795 0.758533 1.226827 0.059775 -0.025075 763415.000000 0 0 1
-33.917754 -33.105238 16.347746 50.136012 0.773276 1.238655 0.089444 -0.026168 117688.000000 0 0 1
-32.750834 -32.242738 16.926146 48.976583 0.777581 1.217922 0.079638 -0.023712 873704.000000 0 0 1
-31.532554 -32.103338 16.187646 47.822235 0.794367 1.225478 0.093302 -0.027927 582370.000000 0 0 1
-31.716984 -31.419038 14.941246 47.078274 0.780679 1.247841 0.105574 -0.033189 -82324.300000 0 0 1
-30.390194 -31.417738 14.129346 45.937747 0.802021 1.258152 0.074705 -0.035884 1202360.000000 0 0 1
-29.289484 -30.735438 14.787446 44.957865 0.809483 1.235639 0.074891 -0.037187 316521.000000 0 0 1
-28.143524 -30.839238 13.976646 44.027982 0.831070 1.247758 0.060507 -0.024954 565717.000000 0 0 1
-26.851994 -30.267238 14.678846 43.041885 0.845119 1.222777 0.059910 -0.026963 1811830.000000 0 0 1
-25.699554 -30.375938 13.793246 42.111974 0.868600 1.237100 0.047742 -0.012784 451355.000000 0 0 1
-24.532714 -29.873838 14.398346 41.250608 0.883255 1.214244 0.040955 -0.012535 137059.000000 0 0 1
-23.263014 -29.974938 13.510946 40.276673 0.910811 1.228710 0.028899 -0.003154 308815.000000 0 0 1
-22.887714 -31.320238 13.332946 41.019169 0.939720 1.239740 0.027861 -0.008353 -838142.000000 0 0 1
-21.657914 -31.464138 12.735846 40.264861 0.967941 1.248968 0.017890 -0.013595 -768843.000000 0 0 1
-21.358514 -32.948538 12.389446 41.173908 0.995660 1.265155 0.006761 -0.001055 315523.000000 0 0 1
-22.165914 -33.381538 11.278046 41.627505 0.984630 1.296440 0.010172 -0.005472 399223.000000 0 0 1
-22.337414 33.263971 11.158546 41.592848 -0.979441 1.299189 0.026722 0.008376 -60521.000000 0 0 1
-23.346814 32.883971 10.065846 41.566219 -0.953407 1.326201 0.024698 0.012063 -269327.000000 0 0 1
-22.914714 33.276271 8.771046 41.343991 -0.967749 1.357024 0.021420 0.010386 -14555.300000 0 0 1
-23.924514 33.000771 7.830146 41.505957 -0.943509 1.381008 0.036666 0.007233 -420576.000000 0 0 1
-23.754314 33.473371 6.352446 41.534174 -0.953624 1.417249 0.041210 0.003915 -330272.000000 0 0 1
-22.990114 32.755671 5.373746 40.377673 -0.958819 1.437313 0.035652 0.002325 -14102.100000 0 0 1
-21.600914 32.575771 5.468746 39.467550 -0.985269 1.431786 0.036621 0.003876 112354.000000 0 0 1
-20.760814 33.888971 5.199346 40.081254 -1.021154 1.440710 0.030893 0.003747 -545905.000000 0 0 1
-20.839314 -33.118838 6.195846 39.617206 1.009162 1.413759 0.023490 -0.000154 22721.000000 0 0 1
-20.226314 -33.402138 7.443346 39.751856 1.026314 1.382439 0.023140 0.000376 -274466.000000 0 0 1
-20.354214 -32.263238 8.490146 39.080598 1.007980 1.351803 0.016601 -0.005670 -273812.000000 0 0 1
-19.681614 -31.095638 8.070146 37.675349 1.006509 1.354921 0.026108 -0.021934 -89757.800000 0 0 1
-19.675314 -30.095638 9.100446 37.090208 0.991783 1.322906 0.032290 -0.025023 139437.000000 0 0 1
-18.977714 -30.291138 10.510946 37.258377 1.011112 1.284804 0.013813 -0.012226 324134.000000 0 0 1
-17.574114 -30.448938 10.431746 36.671633 1.047335 1.282349 0.021044 -0.024642 -180311.000000 0 0 1
-16.930214 -30.514638 11.697246 36.804903 1.064258 1.247369 0.049684 -0.029873 -40913.800000 0 0 1
-15.561314 -31.200238 11.520246 36.719551 1.108144 1.251671 0.059259 -0.033550 39213.600000 0 0 1
-14.607214 -30.370238 10.885846 35.415021 1.122487 1.258359 0.067565 -0.032372 344657.000000 0 0 1
-13.534414 -31.101638 10.255446 35.435384 1.160346 1.277183 0.080654 -0.020986 1004510.000000 0 0 1
-12.448914 -30.163238 9.635946 34.024225 1.179374 1.283659 0.098584 -0.023301 -5427.890000 0 0 1
-11.526714 -29.692938 10.551546 33.553999 1.200506 1.250904 0.114942 -0.033594 -600608.000000 0 0 1
-10.554114 -28.853838 9.951746 32.295055 1.220135 1.257548 0.109748 -0.031979 360367.000000 0 0 1
-9.502714 -28.372638 10.978446 31.872158 1.247614 1.219141 0.113886 -0.023733 -98515.700000 0 0 1
-9.951614 -27.416238 11.861946 31.486354 1.222603 1.184530 0.106874 -0.033209 -434631.000000 0 0 1
-9.071914 -27.175038 12.959246 31.443988 1.248596 1.145998 0.085340 -0.013234 227518.000000 0 0 1
-9.217714 -25.774538 13.562846 30.549040 1.227342 1.110772 0.082903 -0.019764 248557.000000 0 0 1
-8.688714 -24.666238 12.791746 29.112640 1.232117 1.115879 0.070771 -0.021198 -154121.000000 0 0 1
-9.368614 -24.307538 11.597146 28.515279 1.202922 1.151958 0.065555 -0.016891 16180.000000 0 0 1
-8.904714 -22.959138 11.018146 26.978056 1.200807 1.150083 0.067079 -0.017066 -390117.000000 0 0 1
-7.725114 -23.054938 10.292546 26.403486 1.247480 1.170363 0.051847 -0.018519 -799142.000000 0 0 1
-7.375114 -21.896438 9.544146 24.998741 1.245913 1.179069 0.059600 -0.014651 -196842.000000 0 1 0
-6.088314 -22.057538 8.734446 24.492715 1.301482 1.206155 0.052790 -0.015037 646930.000000 0 1 0
-4.966714 -22.454138 9.566646 24.907374 1.353108 1.176575 0.032542 -0.022575 -109273.000000 0 1 0
-3.872614 -22.733938 8.764546 24.670759 1.402071 1.207604 0.036770 -0.014740 -778481.000000 0 1 0
-2.677314 -23.344738 9.481946 25.338747 1.456609 1.187254 0.034726 -0.014870 -498044.000000 0 0 1
-2.091814 -22.443438 10.373946 24.813350 1.477861 1.139466 0.032109 -0.019350 -431261.000000 0 1 0
-1.047514 -23.160338 11.001046 25.661675 1.525598 1.127748 0.041958 -0.022988 169805.000000 0 0 1
-0.183114 -22.424138 12.038446 25.451909 1.562631 1.078117 0.045885 -0.024223 -450918.000000 0 0 1
-0.818114 -22.284538 13.258246 25.943227 1.534101 1.034392 0.045617 -0.027261 -392068.000000 0 0 1
0.017986 -22.032338 14.375646 26.307479 -1.569980 0.992680 0.082330 -0.033965 -643013.000000 0 0 1
0.720786 -20.740238 14.514346 25.324756 -1.536057 0.960477 0.062499 -0.033328 198621.000000 0 0 1
1.904186 -20.750838 13.687446 24.931293 -1.479288 0.989621 0.068841 -0.029813 208817.000000 0 1 0
2.324286 -19.432538 13.525246 23.789874 -1.451754 0.966079 0.061115 -0.028842 -134036.000000 0 1 0
3.778186 -19.220138 13.065246 23.545468 -1.376697 0.982560 0.078009 -0.026424 156447.000000 0 1 0
4.062086 -19.637538 11.759646 23.246994 -1.366820 1.040422 0.075036 -0.026508 64055.300000 0 1 0
5.458186 -19.872038 11.568946 23.633244 -1.302740 1.059257 0.093611 -0.023757 688451.000000 0 1 0
5.863786 -20.599638 10.278346 23.756546 -1.293476 1.123363 0.101919 -0.025336 -131121.000000 0 1 0
5.823586 -19.807838 9.083746 22.556131 -1.284849 1.156313 0.085698 -0.027506 -230642.000000 0 1 0
6.114086 -20.579038 7.899546 22.875351 -1.282000 1.218206 0.087707 -0.031819 657611.000000 0 1 0
7.528186 -21.204238 7.629046 23.759117 -1.229646 1.243906 0.098192 -0.021798 954965.000000 0 1 0
8.575486 -20.439838 7.025546 23.252618 -1.173553 1.263860 0.092707 -0.026443 871968.000000 0 1 0
9.347286 -19.466738 7.785646 22.955216 -1.123141 1.224765 0.100868 -0.019256 778666.000000 0 1 0
10.242186 -19.940538 8.965246 24.143386 -1.096299 1.190352 0.078756 -0.009812 -247617.000000 0 1 0
9.546686 -20.273338 10.125646 24.590164 -1.130700 1.146394 0.108620 -0.014265 -560127.000000 0 1 0
10.044486 -19.643638 11.282246 24.780099 -1.098122 1.098093 0.089014 -0.010631 55209.800000 0 1 0
9.177386 -19.936838 12.519646 25.267439 -1.139391 1.052403 0.100069 -0.017556 35336.500000 0 0 1
9.430186 -21.145638 13.133746 26.618822 -1.151304 1.054801 0.104836 -0.018223 -771623.000000 0 0 1
8.487286 -21.349238 14.102146 26.957272 -1.192408 1.020277 0.118453 -0.021328 -286568.000000 0 0 1
8.576186 -22.766638 14.719246 28.434609 -1.210536 1.026691 0.112342 -0.026397 256444.000000 0 0 1
8.352786 -23.858438 13.827146 28.812915 -1.234034 1.070262 0.113682 -0.027250 -208106.000000 0 0 1
8.271186 -25.099638 14.545746 30.165926 -1.252469 1.067642 0.118865 -0.028663 338856.000000 0 0 1
8.076086 -26.430738 13.766146 30.875781 -1.274250 1.108666 0.128594 -0.031097 376750.000000 0 0 1
9.326586 -26.803838 13.202146 31.300601 -1.235943 1.135382 0.120076 -0.021809 180647.000000 0 0 1
9.251786 -27.796538 12.186246 31.729287 -1.249490 1.176597 0.117609 -0.034210 302854.000000 0 0 1
10.617386 -27.995638 11.451046 32.056374 -1.208304 1.205511 0.116141 -0.026613 138220.000000 0 0 1
11.505886 -28.688138 12.235746 33.243167 -1.189370 1.193866 0.088784 -0.024202 503115.000000 0 0 1
12.841186 -28.764138 11.687746 33.598737 -1.150915 1.215506 0.110703 -0.022155 1120740.000000 0 0 1
13.879686 -29.539138 12.523846 34.957876 -1.131538 1.204398 0.082974 -0.017969 -750567.000000 0 0 1
14.276786 -28.838438 13.616246 34.941155 -1.111108 1.170501 0.065077 -0.015824 216718.000000 0 0 1
15.295086 -29.383538 14.442646 36.137543 -1.090858 1.159653 0.066155 -0.014254 1999460.000000 0 0 1
16.772486 -29.555038 13.823746 36.686680 -1.054617 1.184451 0.073655 -0.012430 944730.000000 0 0 1
17.452686 -28.372338 13.548046 35.960191 -1.019326 1.184510 0.064161 -0.018957 -56158.200000 0 0 1
18.742786 -28.694738 13.061346 36.678042 -0.992190 1.206697 0.048500 -0.009862 -77755.000000 0 0 1
19.573986 -27.433038 12.797746 36.048506 -0.951055 1.207867 0.035730 -0.010863 377237.000000 0 0 1
20.951486 -27.755138 12.589146 36.983767 -0.924187 1.223458 0.021821 -0.008694 612793.000000 0 0 1
21.741786 -26.616538 12.315246 36.507679 -0.885864 1.226714 0.019809 -0.005962 -236550.000000 0 0 1
23.134986 -26.909538 11.761746 37.385685 -0.860680 1.250755 0.015149 -0.003391 -259704.000000 0 0 1
24.042486 -27.429038 12.708946 38.625258 -0.851098 1.235518 0.025960 -0.006223 -791774.000000 0 0 1
25.139986 -27.974338 12.082446 39.504025 -0.838711 1.259962 0.012734 -0.012108 -1774980.000000 0 0 1
26.023886 -28.614438 13.160446 40.856163 -0.832775 1.242832 0.024942 -0.006328 110698.000000 0 0 1
27.141386 -27.938038 13.764246 41.311539 -0.799861 1.231120 0.017437 -0.009971 1406300.000000 0 0 1
28.195786 -27.681238 12.796246 41.533085 -0.776190 1.257604 0.003907 -0.009145 23270.900000 0 0 1
29.428286 -27.002938 13.442646 42.141279 -0.742446 1.246133 0.047442 -0.017162 -102227.000000 0 0 1
29.191086 -25.614738 13.679546 41.174801 -0.720236 1.232128 0.055784 -0.022393 111559.000000 0 0 1
28.457286 -25.238338 14.815146 40.820085 -0.725522 1.199378 0.059394 -0.020043 -272084.000000 0 0 1
29.424186 -25.180538 16.051446 41.922442 -0.707838 1.177880 0.070419 -0.019947 -82995.200000 0 0 1
29.703586 -26.442238 16.651146 43.113288 -0.727376 1.174268 0.073520 -0.014412 -181358.000000 0 0 1
30.594486 -26.293438 17.722346 44.061877 -0.709936 1.156861 0.104563 -0.008009 28575.400000 0 0 1
30.875986 -27.597438 18.441246 45.332380 -0.729388 1.151847 0.104954 -0.009954 -1003740.000000 0 0 1
29.736886 -28.094438 18.981846 45.098673 -0.757005 1.136364 0.077888 -0.010939 -1174400.000000 0 0 1
29.999886 -29.255538 19.779846 46.337047 -0.772837 1.129769 0.102066 -0.012698 -603351.000000 0 0 1
28.754886 -29.977138 20.228146 46.202274 -0.806206 1.117627 0.099611 -0.016094 -1944280.000000 0 0 1
27.884086 -29.147338 20.926046 45.442150 -0.807545 1.092240 0.106991 -0.010661 541355.000000 0 0 1
26.668186 -29.749238 21.409246 45.327311 -0.839956 1.078869 0.113692 -0.016741 1581640.000000 0 0 1
25.642886 -30.396838 20.396046 44.693669 -0.870027 1.096905 0.113751 -0.026439 -501868.000000 0 0 1
26.203986 -31.575638 19.860546 45.586304 -0.878100 1.120015 0.096308 -0.028702 -153571.000000 0 0 1
25.581086 -32.117238 18.711646 45.122440 -0.898199 1.143199 0.090121 -0.019380 -450366.000000 0 0 1
25.857786 -31.406838 17.353146 44.228342 -0.881998 1.167607 0.082312 -0.009272 1215360.000000 0 0 1
27.237686 -31.534038 16.925546 44.975117 -0.858371 1.184963 0.080772 -0.026690 1175200.000000 0 0 1
27.582786 -30.456438 16.110946 44.135782 -0.834870 1.197130 0.073881 -0.032182 673861.000000 0 0 1
28.749786 -30.821338 15.092446 44.769264 -0.820159 1.226944 0.077911 -0.032236 535281.000000 0 0 1
28.422786 -31.815638 14.154446 44.949282 -0.841662 1.250447 0.076871 -0.023613 248547.000000 0 0 1
28.694586 -33.184938 14.569846 46.226613 -0.857837 1.250147 0.055308 -0.024521 -107559.000000 0 0 1
28.084086 33.811971 13.628446 46.018472 0.877676 1.270135 0.079767 -0.028345 -341217.000000 0 0 1
28.651086 33.749771 12.352146 45.962020 0.866926 1.298705 0.085794 -0.029360 -158797.000000 0 0 1
27.984986 32.841271 11.535746 44.662982 0.865068 1.309551 0.074332 -0.031959 -329883.000000 0 0 1
28.711286 32.465271 10.188746 44.521257 0.846684 1.339899 0.082081 -0.030453 -604614.000000 0 0 1
29.934686 31.870671 10.450346 44.955921 0.816712 1.336193 0.093353 -0.039122 -498806.000000 0 0 1
30.525886 31.350671 9.258446 44.725978 0.798727 1.362285 0.098503 -0.040818 107330.000000 0 0 1
31.973286 30.843371 9.462246 45.421786 0.767413 1.360940 0.084573 -0.037336 15176.800000 0 0 1
32.072686 29.814571 10.403846 45.008953 0.748927 1.337536 0.079838 -0.028550 781249.000000 0 0 1
33.426886 29.482571 10.771446 45.854146 0.722782 1.333674 0.094788 -0.025963 944986.000000 0 0 1
33.661286 28.593171 12.032546 45.775908 0.704168 1.304814 0.083625 -0.018985 -114875.000000 0 0 1
33.184686 27.258071 11.944246 44.574553 0.687657 1.299520 0.080833 -0.017092 153130.000000 0 0 1
33.578386 26.439371 13.042446 44.683931 0.667006 1.274602 0.081119 -0.022611 34766.300000 0 0 1
33.398086 24.943971 12.884046 43.630637 0.641494 1.271029 0.062995 -0.025355 254190.000000 0 0 1
34.423786 24.368871 12.078346 43.871692 0.616014 1.291883 0.067676 -0.018699 18120.000000 0 0 1
34.480386 22.957571 12.051646 43.141502 0.587413 1.287678 0.069494 -0.024531 -602269.000000 0 0 1
33.324786 22.125671 11.411446 41.596968 0.586113 1.292900 0.062050 -0.019262 -159646.000000 0 0 1
32.190286 22.120571 12.218946 40.924770 0.602071 1.267601 0.074003 -0.033425 -613180.000000 0 0 1
31.051286 21.854071 11.442246 39.657380 0.613276 1.278108 0.070120 -0.023391 -257465.000000 0 0 1
29.683186 21.690471 12.117546 38.709210 0.631055 1.252404 0.066616 -0.017065 345125.000000 0 0 1
29.041086 22.957971 12.454346 39.058467 0.668942 1.246265 0.075757 -0.016469 979753.000000 0 0 1
27.902786 22.697471 13.319046 38.355412 0.682887 1.216156 0.103458 -0.019346 622298.000000 0 0 1
24.263486 9.077371 25.431761 36.302753 0.357996 0.794633 0.059373 -0.011149 -41261.000000 0 0 1
24.035386 7.869971 26.165731 36.390681 0.316431 0.768401 0.076485 -0.016956 105905.000000 0 0 1
22.652886 7.643971 26.341031 35.572931 0.325441 0.737013 0.062194 -0.016881 -239965.000000 0 0 1
22.344486 6.495871 27.288601 35.862796 0.282917 0.706072 0.081591 -0.020400 -288053.000000 0 0 1
22.509386 6.724071 28.702951 37.091036 0.290285 0.685897 0.083264 -0.020363 838703.000000 0 0 1
23.856386 6.431471 29.106901 38.179872 0.263331 0.703840 0.079903 -0.021283 445162.000000 0 0 1
24.100986 6.428471 30.653691 39.520014 0.260662 0.683052 0.082400 -0.028083 -191763.000000 0 0 1
24.126986 7.728971 31.222991 40.208502 0.310016 0.681661 0.097488 -0.031471 120966.000000 0 0 1
24.179386 7.587971 32.621682 41.308524 0.304087 0.660463 0.103763 -0.032019 32741.400000 0 0 1
24.388686 8.882071 33.406185 42.304520 0.349258 0.660542 0.115234 -0.034665 237606.000000 0 0 1
25.657386 9.474971 33.198637 43.014254 0.353754 0.689121 0.088311 -0.031017 -284915.000000 0 0 1
26.015386 10.108071 -33.531484 43.627214 0.370590 2.447432 0.101077 -0.026989 556828.000000 0 0 1
27.303586 10.989571 -33.736544 44.770647 0.382656 2.424229 0.071771 -0.024812 415095.000000 0 0 1
27.093786 12.297171 33.555302 44.846984 0.426071 0.725425 0.064842 -0.025635 216824.000000 0 0 1
26.758586 13.337671 -33.411054 44.835409 0.462402 2.411621 0.061033 -0.024907 -181493.000000 0 0 1
26.213186 14.681571 33.925451 45.316839 0.510552 0.724806 0.049178 -0.017407 -784516.000000 0 0 1
27.133286 15.307371 33.085977 45.444611 0.513646 0.755322 0.047430 -0.018266 87845.200000 0 0 1
26.879786 16.719671 32.904061 45.659035 0.556451 0.766061 0.041606 -0.016957 -88117.300000 0 0 1
27.508386 17.543071 -33.790544 46.970964 0.567705 2.373723 0.037695 -0.022353 -370006.000000 0 0 1
26.920586 17.314371 -32.534074 45.639581 0.571555 2.364347 0.042072 -0.024670 236015.000000 0 0 1
27.809886 16.777371 -31.559694 45.286689 0.542834 2.341844 0.051211 -0.025585 -279012.000000 0 0 1
27.037386 16.282671 -30.321114 43.766603 0.542056 2.336149 0.049017 -0.014991 -247511.000000 0 0 1
26.364486 15.117471 -30.703054 43.200713 0.520633 2.361299 0.059196 -0.013562 -60866.900000 0 0 1
25.634986 14.638271 -29.580894 41.790678 0.518843 2.357225 0.080475 -0.015470 110382.000000 0 0 1
24.781686 13.370171 -29.853814 41.038319 0.494760 2.385412 0.085756 -0.012334 439866.000000 0 0 1
23.780986 13.524871 -30.874614 41.251657 0.517107 2.416511 0.082564 -0.017055 823690.000000 0 0 1
23.201286 12.322071 -31.380024 40.924797 0.488213 2.444595 0.074936 -0.010369 431565.000000 0 0 1
22.202586 11.336671 -30.646894 39.505785 0.472093 2.458710 0.079070 -0.017635 1001370.000000 0 0 1
20.944486 12.030771 -30.434364 38.854362 0.521393 2.470742 0.097568 -0.014831 621079.000000 0 0 1
20.287986 11.261971 -29.475544 37.513225 0.506754 2.474684 0.098052 -0.012290 263097.000000 0 0 1
18.948286 11.885971 -28.950854 36.585049 0.560241 2.483778 0.089350 -0.002856 1281920.000000 0 0 1
17.945786 12.168371 -29.964564 36.986424 0.595851 2.515205 0.068296 0.002542 496384.000000 0 0 1
16.948186 13.011571 -29.457884 36.391055 0.654750 2.514065 0.066360 -0.002897 -1156390.000000 0 0 1
16.055886 13.537371 -30.601004 37.114328 0.700498 2.540126 0.070961 -0.008681 -44389.000000 0 0 1
15.084386 12.601971 -31.011564 36.716011 0.695975 2.576676 0.063123 -0.010603 28020.200000 0 0 1
13.929686 12.400671 -30.224924 35.515614 0.727393 2.588744 0.068173 -0.013522 69920.500000 0 0 1
12.810586 11.557471 -30.951464 35.435566 0.734019 2.633055 0.076053 -0.015275 630384.000000 0 0 1
12.184286 12.341671 -31.955544 36.358362 0.791815 2.644358 0.080757 -0.008571 -158464.000000 0 0 1
11.224686 11.635771 -32.686874 36.466649 0.803379 2.682263 0.085906 -0.001332 28954.500000 0 0 1
10.721886 12.380271 33.883011 37.633607 0.857060 0.450248 0.098696 -0.010051 219070.000000 0 0 1
11.640086 12.385671 32.806146 36.947796 0.816421 0.478025 0.072057 -0.007974 250890.000000 0 0 1
11.026186 12.966071 31.692071 35.973367 0.866077 0.492852 0.085431 -0.023505 128588.000000 0 0 1
12.036786 13.153171 30.512391 35.339725 0.829688 0.528822 0.074230 -0.017577 185069.000000 0 0 1
12.313286 11.867071 29.916561 34.459324 0.766947 0.519293 0.055830 -0.013837 44120.400000 0 0 1
12.510386 11.821671 28.533791 33.323248 0.757101 0.542786 0.051275 -0.014164 89487.900000 0 0 1
13.091286 10.504871 27.958861 32.610305 0.676222 0.540672 0.045260 -0.011659 -437458.000000 0 0 1
12.132686 9.468071 27.986941 31.939244 0.662661 0.502761 0.056798 -0.024244 322093.000000 0 0 1
12.754786 8.213171 27.930261 31.784276 0.572095 0.497571 0.029942 -0.026847 -855.354000 0 0 1
11.725986 7.040071 28.074881 31.229158 0.540700 0.453325 0.033950 -0.020419 671878.000000 0 0 1
10.669886 7.092871 27.101891 29.977788 0.586679 0.441608 0.052886 -0.024400 66098.700000 0 0 1
9.701286 6.084671 27.255731 29.563712 0.560182 0.397757 0.048231 -0.035339 -192823.000000 0 0 1
10.174286 4.636271 26.826031 29.062812 0.427572 0.394897 0.034022 -0.026735 -1130.610000 0 0 1
11.079486 3.953171 27.691901 30.086940 0.342721 0.401704 0.027339 -0.022469 336850.000000 0 0 1
11.236186 2.714071 27.168061 29.524932 0.237008 0.402273 0.024463 -0.022414 -132408.000000 0 0 1
11.834886 1.678471 28.151411 30.584044 0.140884 0.401539 0.010578 -0.020312 -58997.900000 0 0 1
10.969486 1.378671 29.203681 31.226357 0.125027 0.361901 0.013764 -0.015730 124139.000000 0 0 1
11.465286 0.192471 29.830891 31.958909 0.016786 0.366983 0.016221 -0.011677 493334.000000 0 0 1
10.394386 -0.287229 30.834921 32.541022 -0.027626 0.325250 0.034134 -0.009279 308854.000000 0 0 1
10.428886 0.613871 31.934539 33.599900 0.058795 0.316163 0.017948 -0.010867 180475.000000 0 0 1
9.131586 0.862671 32.472342 33.742896 0.094192 0.275291 0.035996 -0.016218 251173.000000 0 0 1
9.150686 2.145371 33.383196 34.681053 0.230290 0.274439 0.033382 -0.016269 -91506.200000 0 0 1
9.162686 3.423571 32.782464 34.210607 0.357580 0.289963 0.024667 -0.016482 -380626.000000 0 0 1
10.310886 3.740271 32.069079 33.892917 0.347988 0.329550 0.014528 -0.010147 -1001520.000000 0 0 1
10.308486 5.113271 31.419501 33.460357 0.460463 0.351066 0.021099 -0.013249 -14044.500000 0 0 1
10.514686 6.176271 32.296161 34.521688 0.531099 0.361033 0.025379 -0.013068 95079.600000 0 0 1
10.743986 7.367671 31.598621 34.178775 0.601097 0.391048 0.037088 -0.015630 -363563.000000 0 0 1
10.830186 8.603171 32.553829 35.370316 0.671298 0.401767 0.061041 -0.020988 292592.000000 0 0 1
9.647486 9.207571 33.092328 35.678502 0.762071 0.383089 0.085751 -0.026465 220873.000000 0 0 1
8.974386 8.396871 -33.853624 36.015481 0.752165 2.793351 0.068036 -0.024570 -1161500.000000 0 0 1
7.620086 8.966471 -33.489894 35.496990 0.866394 2.803706 0.070304 -0.024583 -816286.000000 0 0 1
7.098686 8.261471 -32.385814 34.168468 0.860955 2.817147 0.071700 -0.021340 -294498.000000 0 0 1
5.703286 8.397671 -32.280974 33.839469 0.974201 2.836918 0.075351 -0.025544 -125863.000000 0 0 1
5.350886 7.733971 -30.907524 32.306676 0.965549 2.846213 0.054950 -0.022408 -472003.000000 0 0 1
6.003186 8.288971 -29.771094 31.481158 0.943988 2.810476 0.058304 -0.029091 27952.600000 0 0 1
5.672386 7.567771 -28.572674 30.097256 0.927586 2.821941 0.051820 -0.028374 538179.000000 0 0 1
4.202186 7.642071 -28.026194 29.351783 1.068049 2.839910 0.050771 -0.020928 562485.000000 0 0 1
3.263086 6.905571 -28.802444 29.797910 1.129366 2.882383 0.054775 -0.018717 -171272.000000 0 0 1
2.029486 6.993571 -28.094914 29.023319 1.288361 2.887978 0.097536 -0.014817 -373266.000000 0 0 1
0.950186 6.244071 -28.851394 29.534627 1.419781 2.926079 0.115539 -0.028500 -626265.000000 0 0 1
0.476086 6.982271 -29.970464 30.776736 1.502717 2.912191 0.084529 -0.030372 -228156.000000 0 0 1
-0.006614 6.192971 -30.992814 31.605497 -1.569728 2.944370 0.116459 -0.022266 -421550.000000 0 0 1
-0.176114 7.019071 -32.298144 33.052511 -1.545711 2.927534 0.130632 -0.029649 421022.000000 0 0 1
1.025686 7.608171 -32.814404 33.700466 1.436791 2.911774 0.103343 -0.026649 553403.000000 0 0 1
1.894086 6.753971 -33.556354 34.281665 1.297379 2.935523 0.098098 -0.038307 13805.300000 0 0 1
1.466486 6.416671 32.893379 33.545471 1.346112 0.197496 0.124643 -0.044910 391901.000000 0 0 1
0.376786 5.544971 32.509887 32.981532 1.502950 0.169319 0.125693 -0.035380 410629.000000 0 0 1
0.157286 5.543671 31.090921 31.581678 1.542432 0.176520 0.138868 -0.034006 350441.000000 0 0 1
0.896186 4.393471 30.335231 30.664833 1.369576 0.146750 0.129500 -0.029490 186594.000000 0 0 1
0.795886 4.590071 28.922441 29.295218 1.399110 0.159699 0.127059 -0.029626 -178233.000000 0 0 1
1.746086 3.867271 28.188101 28.505677 1.146693 0.149409 0.117856 -0.027535 -114849.000000 0 0 1
1.838886 4.150071 26.682301 27.065657 1.153697 0.168508 0.116661 -0.021079 134591.000000 0 0 1
2.490986 5.382471 26.401081 27.059067 1.137352 0.220979 0.114575 -0.019609 108899.000000 0 0 1
2.560586 5.535971 25.008681 25.741750 1.137567 0.239224 0.093443 -0.013668 -591013.000000 0 0 1
3.002586 6.982771 24.736861 25.878310 1.164699 0.298116 0.090417 -0.017745 1505630.000000 0 0 1
4.434886 7.153371 24.928991 26.311471 1.015821 0.325606 0.080757 -0.016744 1237810.000000 0 0 1
5.157686 6.841871 23.740561 25.239397 0.924841 0.346358 0.064965 -0.018724 -2397.850000 0 0 1
6.714086 7.005571 23.773471 25.677517 0.806641 0.387524 0.071868 -0.021290 959401.000000 0 0 1
7.524686 6.073071 24.497831 26.337176 0.679047 0.375943 0.074331 -0.026565 188439.000000 0 0 1
7.354186 4.666171 24.368501 25.878196 0.565396 0.343263 0.083626 -0.021529 -1038660.000000 0 0 1
7.509886 3.953171 23.001051 24.516817 0.484540 0.353478 0.072858 -0.021044 274785.000000 0 1 0
6.481486 4.352471 22.111611 23.449456 0.591358 0.339421 0.072416 -0.022389 1124460.000000 0 1 0
5.222186 3.613871 22.261011 23.149166 0.605352 0.277901 0.057973 -0.012617 1363890.000000 0 1 0
4.160486 4.078171 21.224111 22.009180 0.775407 0.267896 0.042157 -0.005905 65855.100000 0 1 0
3.606486 5.334271 21.510311 22.453389 0.976293 0.290857 0.036263 -0.005140 -648606.000000 0 1 0
2.400586 5.449671 20.826311 21.660955 1.155870 0.278504 0.033908 -0.000983 -952629.000000 0 1 0
1.839886 6.855071 20.779011 21.957789 1.308578 0.329154 0.035400 -0.006381 -134699.000000 0 1 0
2.438986 7.779071 19.905911 21.510646 1.266972 0.388712 0.030216 -0.012303 -559376.000000 0 1 0
1.819286 9.002071 20.081611 22.082078 1.371386 0.428939 0.043138 -0.014837 -22899.900000 0 1 0
2.686386 10.177771 19.661611 22.302077 1.312735 0.491545 0.039354 -0.022414 -623321.000000 0 1 0
2.821186 10.227371 18.227511 21.090291 1.301643 0.527117 0.031733 -0.023908 -425578.000000 0 1 0
3.638686 11.279071 17.792711 21.378448 1.258732 0.587600 0.034196 -0.027112 177767.000000 0 1 0
5.170086 11.140871 18.005411 21.795495 1.136308 0.598633 0.041849 -0.023929 -368185.000000 0 1 0
5.826486 10.520671 16.914511 20.754111 1.065030 0.618075 0.037071 -0.020202 68514.900000 0 1 0
7.119686 10.094771 17.332211 21.283794 0.956532 0.619208 0.035567 -0.013657 255216.000000 0 1 0
7.190886 8.630871 17.767011 21.020644 0.876161 0.563825 0.038155 -0.015237 -312500.000000 0 1 0
6.727086 8.360371 19.090711 21.899880 0.893233 0.512081 0.047920 -0.018821 -54509.700000 0 1 0
6.691586 6.969171 19.510411 21.771605 0.805715 0.459802 0.041817 -0.030177 -108411.000000 0 1 0
8.059486 6.439671 19.999511 22.503447 0.674142 0.476227 0.066507 -0.029485 267813.000000 0 1 0
8.997386 6.456371 18.931411 21.932533 0.622429 0.529290 0.061106 -0.021261 170534.000000 0 1 0
10.215386 5.720071 19.108311 22.409839 0.510448 0.549712 0.068910 -0.028644 561355.000000 0 1 0
10.227286 4.161571 19.102011 22.063610 0.386448 0.524109 0.063076 -0.021318 -609184.000000 0 1 0
9.836886 3.507271 20.265211 22.797896 0.342492 0.475843 0.084096 -0.029062 -25908.500000 0 1 0
10.057286 2.109371 20.110911 22.584224 0.206739 0.472387 0.090152 -0.032034 235892.000000 0 1 0
9.206186 1.202571 21.063411 23.018847 0.129891 0.415163 0.091568 -0.031498 191019.000000 0 1 0
9.666386 1.271371 22.381111 24.412487 0.130774 0.410830 0.085825 -0.025954 282519.000000 0 1 0
8.889786 0.459671 23.221251 24.868979 0.051662 0.366063 0.085344 -0.028616 -187650.000000 0 1 0
9.524686 0.634571 24.636321 26.421026 0.066526 0.369657 0.062665 -0.022633 282822.000000 0 0 1
10.790086 0.063371 24.928701 27.163765 0.005873 0.408497 0.062228 -0.019590 379218.000000 0 0 1
10.884286 -1.344329 24.902551 27.210512 -0.122889 0.414839 0.068012 -0.019518 37650.100000 0 0 1
12.375086 -1.789329 24.908171 27.870440 -0.143596 0.465242 0.060150 -0.011799 462129.000000 0 0 1
12.412286 -3.191929 25.038211 28.127660 -0.251705 0.473093 0.069445 -0.012770 -610482.000000 0 0 1
13.742086 -3.599229 25.067871 28.813149 -0.256159 0.515564 0.058231 -0.002952 -541133.000000 0 0 1
14.002986 -5.167629 25.285241 29.362074 -0.353533 0.533263 0.058593 -0.009528 -82790.800000 0 0 1
13.850386 -5.904729 24.097071 28.414219 -0.402990 0.558476 0.070845 -0.015896 239989.000000 0 0 1
13.772186 -7.302029 24.322031 28.888647 -0.487516 0.569958 0.085086 -0.026589 50062.800000 0 0 1
13.273986 -8.051229 23.029831 27.773983 -0.545216 0.593144 0.093094 -0.029457 104666.000000 0 0 1
12.746186 -9.319429 23.298471 28.144907 -0.631330 0.595614 0.096658 -0.021837 -407548.000000 0 0 1
12.639486 -10.037029 22.131311 27.391486 -0.671134 0.630109 0.085879 -0.029589 91503.600000 0 0 1
12.048586 -11.480629 22.297811 27.823832 -0.761264 0.641177 0.103805 -0.020820 -71086.800000 0 0 1
10.650686 -11.401629 22.374611 27.277417 -0.819438 0.608929 0.089002 -0.016400 -490720.000000 0 0 1
10.018786 -12.673429 22.539911 27.731561 -0.901854 0.621872 0.088510 -0.014944 -59704.400000 0 0 1
8.515986 -12.629229 22.853811 27.464816 -0.977522 0.587891 0.067151 -0.013654 -246882.000000 0 0 1
7.844686 -11.940229 21.824111 26.084478 -0.989519 0.579621 0.062072 -0.018126 -1412070.000000 0 0 1
6.502286 -11.939229 22.145111 25.985205 -1.072097 0.550582 0.055866 -0.023126 -649498.000000 0 0 1
5.699486 -10.830729 21.403911 24.655958 -1.086383 0.519428 0.051355 -0.021147 325693.000000 0 1 0
5.975686 -9.522029 21.871511 24.591479 -1.010355 0.474779 0.063810 -0.019546 -789782.000000 0 1 0
5.061286 -8.632329 21.375211 23.601554 -1.040498 0.437840 0.048148 -0.013246 -104458.000000 0 1 0
5.473386 -7.153529 21.907911 23.687286 -0.917682 0.390075 0.059887 -0.018938 169687.000000 0 1 0
4.779586 -6.155429 21.220911 22.606654 -0.910560 0.351951 0.043253 -0.022259 -281020.000000 0 1 0
5.264586 -4.896029 21.586211 22.751955 -0.749141 0.321499 0.064085 -0.037147 156369.000000 0 1 0
-8.364414 -14.371329 -20.024854 26.028702 1.043702 2.448600 0.055673 -0.009556 -384534.000000 0 0 1
-7.632914 -14.072929 -18.897754 24.767596 1.073820 2.438743 0.051017 -0.013063 -388154.000000 0 1 0
-6.527414 -13.271629 -19.313554 24.326049 1.113704 2.488067 0.046812 -0.022077 338191.000000 0 1 0
-5.518514 -13.085929 -18.145354 23.042340 1.171713 2.477504 0.025766 -0.019528 114822.000000 0 1 0
-4.809614 -14.278329 -17.824854 23.339419 1.245887 2.439857 0.031184 -0.006736 -381202.000000 0 1 0
-3.932814 -13.995529 -16.784754 22.205176 1.296856 2.427815 0.020410 -0.006651 230120.000000 0 1 0
-2.954514 -15.135229 -16.352654 22.476957 1.378013 2.385511 0.028125 0.013030 287383.000000 0 1 0
-1.826314 -15.381429 -17.143754 23.104807 1.452615 2.406844 0.031395 0.011918 10034.000000 0 1 0
-0.994614 -16.396829 -16.485854 23.272917 1.510212 2.357984 0.048552 0.020946 834218.000000 0 1 0
0.246886 -16.830029 -17.329054 24.157958 -1.556128 2.370749 0.041029 0.026006 247277.000000 0 1 0
0.077086 -17.498329 -18.601154 25.538214 -1.566391 2.386730 0.065615 0.008825 -515292.000000 0 0 1
-0.551314 -18.743729 -18.458654 26.312606 1.541392 2.348316 0.056627 0.008189 -274267.000000 0 0 1
-1.198514 -19.098829 -19.805954 27.540471 1.508125 2.373386 0.062335 0.000332 382940.000000 0 0 1
-2.469914 -18.526229 -20.107754 27.452567 1.438258 2.392716 0.076336 -0.014699 231075.000000 0 0 1
-2.869014 -18.502229 -21.441754 28.465989 1.416958 2.423772 0.051079 -0.023114 626916.000000 0 0 1
-4.036714 -17.486929 -21.756954 28.203773 1.343929 2.451866 0.054997 -0.022195 711864.000000 0 0 1
-3.738914 -16.080629 -21.605254 27.191048 1.342345 2.489099 0.047534 -0.008978 -400822.000000 0 0 1
-3.535914 -15.594429 -20.295054 25.837533 1.347824 2.474279 0.042831 -0.010880 -189070.000000 0 0 1
-2.403614 -14.564229 -20.273254 25.077858 1.407235 2.512246 0.047666 -0.007788 -249493.000000 0 0 1
-2.732314 -13.277729 -20.861254 24.878817 1.367848 2.565348 0.035919 -0.021744 110998.000000 0 1 0
-1.677714 -12.308729 -20.976954 24.379338 1.435328 2.606929 0.027169 -0.008157 270081.000000 0 1 0
-1.564714 -11.452129 -22.289254 25.107976 1.435006 2.663200 0.031989 -0.010158 91099.700000 0 0 1
-2.610214 -10.524329 -22.517554 24.992298 1.327685 2.692819 0.025272 -0.010868 156819.000000 0 1 0
-2.538514 -10.019129 -23.902454 26.041396 1.322651 2.733461 0.031319 -0.009761 -55877.600000 0 0 1
-3.492914 -8.813829 -24.051454 25.852591 1.193484 2.766109 0.015171 -0.008865 -174973.000000 0 0 1
-4.838814 -9.222429 -23.949054 26.115599 1.087601 2.731390 0.040370 -0.021896 -251903.000000 0 0 1
-5.667714 -8.108529 -23.977954 25.938649 0.960754 2.750283 0.026044 -0.023771 -535314.000000 0 0 1
-7.144914 -8.383529 -23.517454 25.969290 0.864994 2.703558 0.028749 -0.037801 1179130.000000 0 0 1
-8.119314 -8.850529 -24.457554 27.247515 0.828461 2.685106 0.044376 -0.033450 412168.000000 0 0 1
-8.315414 -7.901729 -25.494224 27.956017 0.759895 2.718785 0.042543 -0.040612 -792120.000000 0 0 1
-9.653114 -8.203029 -26.221694 29.121290 0.704367 2.691554 0.044408 -0.038126 115518.000000 0 0 1
-10.222414 -7.099329 -26.886214 29.627128 0.607016 2.708057 0.052406 -0.048191 -222221.000000 0 0 1
-10.992014 -7.591929 -27.951804 30.980076 0.604441 2.695758 0.048366 -0.039748 -88856.900000 0 0 1
-11.817314 -6.529829 -28.719904 31.735162 0.504810 2.702145 0.054102 -0.045754 309299.000000 0 0 1
-11.000514 -5.646829 -29.460824 31.950558 0.474250 2.744206 0.038785 -0.038242 -396715.000000 0 0 1
-11.757414 -5.050429 -30.443164 33.023172 0.405721 2.743683 0.083545 -0.036733 -201253.000000 0 0 1
-11.043014 -3.998029 -31.319054 33.448700 0.347362 2.782827 0.072683 -0.024125 -353799.000000 0 0 1
-10.024414 -4.443429 -32.153764 33.972010 0.417235 2.812940 0.047313 -0.021448 11117.100000 0 0 1
-9.517814 -3.375029 -32.974754 34.486432 0.340768 2.844412 0.043256 -0.017181 -517204.000000 0 0 1
-8.495414 -3.736229 33.838455 35.088068 0.414334 0.267683 0.032700 -0.014530 -705091.000000 0 0 1
-7.207414 -3.742429 -33.480594 34.451455 0.478926 2.903627 0.027827 -0.020321 -181478.000000 0 0 1
-6.280514 -4.337429 33.446935 34.306787 0.604401 0.224361 0.025098 -0.019791 359946.000000 0 0 1
-4.827014 -4.009629 33.843588 34.420425 0.693161 0.183333 0.048745 -0.025467 -162868.000000 0 0 1
-4.541914 -2.676729 33.584366 33.995640 0.532544 0.155707 0.072311 -0.036322 -833619.000000 0 0 1
-3.202814 -2.422129 33.850911 34.088252 0.647489 0.118073 0.071929 -0.035145 -573045.000000 0 0 1
-3.004614 -0.977829 -33.573194 33.721554 0.314632 3.047755 0.082532 -0.038400 -168956.000000 0 0 1
-3.343714 -0.791829 -32.219204 32.401922 0.232528 3.035344 0.079363 -0.040705 114598.000000 0 0 1
-3.734114 0.573371 -31.937254 32.159922 -0.152359 3.023849 0.111610 -0.051567 -1096790.000000 0 0 1
-4.053714 0.819971 -30.452954 30.732513 -0.199583 3.006609 0.132973 -0.057619 488506.000000 0 0 1
-5.199214 0.072471 -30.073714 30.519917 -0.013938 2.970386 0.099812 -0.050490 363232.000000 0 0 1
-6.442414 0.607971 -30.518454 31.196961 -0.094091 2.932650 0.104357 -0.056903 -593495.000000 0 0 1
-7.579814 -0.424029 -30.473304 31.404707 0.055884 2.897438 0.086201 -0.054883 -138644.000000 0 0 1
-8.069014 -0.718029 -29.193124 30.296255 0.088752 2.870910 0.070800 -0.041757 -203435.000000 0 0 1
-9.112314 -1.648229 -29.189574 30.623229 0.178945 2.834393 0.051780 -0.042515 -123778.000000 0 0 1
-9.418814 -2.463729 -27.864554 29.516392 0.255843 2.805458 0.054610 -0.046810 -29689.100000 0 0 1
-9.892914 -1.594429 -26.850284 28.659199 0.159795 2.784399 0.058091 -0.042645 -8542.480000 0 0 1
-10.172114 -2.335429 -25.683744 27.723291 0.225680 2.755618 0.046319 -0.039568 -512343.000000 0 0 1
-11.295014 -1.686929 -24.886554 27.381812 0.148256 2.711367 0.058142 -0.032666 -207159.000000 0 0 1
-10.866914 -0.534129 -24.156354 26.493482 0.049112 2.718406 0.056712 -0.030417 -546228.000000 0 0 1
-11.930314 0.157271 -23.607154 26.450990 -0.013182 2.673624 0.060157 -0.032522 -557309.000000 0 0 1
-11.598814 1.487371 -22.936154 25.745134 -0.127539 2.670103 0.078447 -0.033973 70222.900000 0 0 1
-11.188814 2.412071 -23.953054 26.547249 -0.212329 2.695825 0.051308 -0.028999 461128.000000 0 0 1
-10.395414 3.478471 -23.368454 25.811800 -0.322904 2.702976 0.065934 -0.021804 -64623.500000 0 0 1
-10.098914 4.677671 -24.278254 26.707720 -0.433765 2.711759 0.084964 -0.026530 -44399.600000 0 0 1
-11.211314 5.496171 -24.596254 27.584002 -0.455805 2.671851 0.085066 -0.019733 -481881.000000 0 0 1
-12.001314 4.930071 -25.581974 28.684047 -0.389777 2.672223 0.067703 -0.025051 -127128.000000 0 0 1
-13.388914 5.648871 -25.677784 29.504599 -0.399248 2.626603 0.059303 -0.018277 482214.000000 0 0 1
-13.336314 6.994471 -26.211104 30.229156 -0.483030 2.620107 0.054194 -0.015719 -166148.000000 0 0 1
-14.649814 7.384071 -26.515634 31.180449 -0.466873 2.587528 0.061335 -0.008804 -150429.000000 0 0 1
-14.838514 8.911271 -26.523864 31.671874 -0.540824 2.563411 0.081770 -0.009828 -155501.000000 0 0 1
-14.597614 9.559071 -25.318604 30.748949 -0.579769 2.538169 0.107099 -0.017207 238105.000000 0 0 1
-15.048814 10.920471 -25.341624 31.431217 -0.627747 2.508593 0.106563 -0.018677 -26544.300000 0 0 1
-14.806414 11.545771 -23.967854 30.446556 -0.662291 2.477069 0.103719 -0.023050 -328488.000000 0 0 1
-15.799914 11.242671 -23.061454 30.130808 -0.618446 2.442425 0.128962 -0.021517 -447645.000000 0 0 1
-15.453914 11.841871 -21.818454 29.242064 -0.653833 2.413031 0.123832 -0.024575 72021.900000 0 0 1
-16.440714 11.646571 -20.642454 28.845288 -0.616340 2.368317 0.129412 -0.030867 625147.000000 0 0 1
-17.749214 12.185071 -20.874554 29.987624 -0.601617 2.340755 0.120191 -0.028537 390688.000000 0 0 1
-18.296414 12.511371 -19.647854 29.619780 -0.599781 2.296064 0.105103 -0.020148 163896.000000 0 0 1
-19.772914 13.012171 -19.802854 30.861590 -0.582035 2.267466 0.096022 -0.022028 426537.000000 0 0 1
-19.990514 14.266371 -20.457654 31.963504 -0.619833 2.265336 0.075739 -0.025543 -914858.000000 0 0 1
-21.307114 14.654171 -20.363654 32.915289 -0.602464 2.237843 0.062551 -0.027318 -1069670.000000 0 0 1
-21.587114 16.003971 -21.132254 34.186295 -0.637953 2.237183 0.058921 -0.023379 -183615.000000 0 0 1
-21.472914 15.854171 -22.518654 34.921778 -0.635993 2.271599 0.070645 -0.031572 246708.000000 0 0 1
-21.226614 17.081571 -23.181954 35.773625 -0.677615 2.275776 0.067107 -0.019075 -87083.000000 0 0 1
-21.282514 17.035471 -24.741554 36.814361 -0.675012 2.307787 0.064592 -0.021468 -326737.000000 0 0 1
-20.155314 16.438571 -25.333964 36.308030 -0.684178 2.343049 0.058675 -0.033908 -143814.000000 0 0 1
-20.271314 16.383671 -26.775374 37.366717 -0.679733 2.369650 0.052008 -0.025893 -348318.000000 0 0 1
-19.497114 17.477471 -27.486674 37.962043 -0.730830 2.380462 0.020674 -0.005514 -333627.000000 0 0 1
-20.161214 18.685471 -27.269674 38.720234 -0.747428 2.352197 0.021791 -0.016961 60664.300000 0 0 1
-19.261914 19.655471 -26.852774 38.450362 -0.795510 2.343921 -0.003285 -0.021632 -1275160.000000 0 0 1
-19.918714 21.043971 -26.884194 39.526748 -0.812862 2.318766 0.031426 -0.004371 518211.000000 0 0 1
-20.945114 21.224871 -25.897574 39.495282 -0.792032 2.285923 0.051134 -0.004372 590632.000000 0 0 1
-22.198914 20.668871 -26.287724 40.137744 -0.749721 2.284897 0.091172 -0.012572 -358289.000000 0 0 1
-23.181314 20.803471 -25.062964 39.978868 -0.731390 2.248371 0.101995 -0.004128 210218.000000 0 0 1
-22.746914 20.091271 -23.893854 38.626384 -0.723485 2.237742 0.070030 0.003087 239830.000000 0 0 1
-23.544714 20.478771 -22.769654 38.628885 -0.715867 2.201170 0.061212 0.003218 183586.000000 0 0 1
-23.064614 20.002771 -21.358754 37.259679 -0.714423 2.181251 0.041517 0.014725 111698.000000 0 0 1
-22.001514 20.758771 -20.781654 36.699732 -0.756343 2.172760 0.046830 0.015473 90424.000000 0 0 1
-21.231214 20.085771 -19.843554 35.326609 -0.757682 2.167256 0.048671 0.004921 -275862.000000 0 0 1
-21.962214 19.451771 -18.613854 34.744580 -0.724854 2.136173 0.060998 -0.000392 -890333.000000 0 0 1
-22.839814 18.384671 -18.960454 34.916358 -0.677746 2.144832 0.076933 -0.010057 892429.000000 0 0 1
-23.777214 17.967071 -17.943454 34.787054 -0.647102 2.112747 0.077327 -0.010284 63254.100000 0 0 1
-24.864814 18.942571 -17.547254 35.846703 -0.651025 2.082322 0.055043 -0.011865 -1413580.000000 0 0 1
-25.810614 19.142071 -18.582354 37.120218 -0.638126 2.095087 0.058771 -0.006655 -130669.000000 0 0 1
-26.606544 20.262071 -18.262354 38.104767 -0.650849 2.070616 0.056875 -0.004771 -1345890.000000 0 0 1
-28.004954 20.027371 -18.818654 39.236651 -0.620813 2.071017 0.042774 0.006822 -454818.000000 0 0 1
-28.801554 18.927771 -18.371854 39.055282 -0.581405 2.060548 0.029234 0.004364 550738.000000 0 0 1
-29.088484 18.907071 -16.988754 38.629458 -0.576364 2.026158 0.031049 0.002424 -1119260.000000 0 0 1
-29.996314 17.756871 -16.582154 38.601207 -0.534493 2.014820 0.013438 0.002187 -630157.000000 0 0 1
-29.369384 16.507771 -16.481254 37.505986 -0.512066 2.025760 0.036362 -0.009044 -115692.000000 0 0 1
-30.264634 15.483171 -16.155054 37.638577 -0.472879 2.014420 0.034124 -0.004294 168791.000000 0 0 1
-29.581204 14.329071 -15.283354 36.248460 -0.451088 2.006036 0.066312 -0.012847 73464.400000 0 0 1
-29.154914 14.804471 -14.042354 35.586080 -0.469857 1.976431 0.088029 -0.012164 404626.000000 0 0 1
-30.219124 14.974871 -13.098954 36.180448 -0.460076 1.941257 0.059736 -0.005059 548046.000000 0 0 1
-29.657134 15.532171 -11.784454 35.491792 -0.482447 1.909255 0.088738 -0.018157 137250.000000 0 0 1
-29.055924 16.824671 -11.811154 35.592410 -0.524868 1.909055 0.077583 -0.002641 -97173.400000 0 0 1
-29.906554 17.898671 -12.157354 36.912947 -0.539306 1.906414 0.035718 0.001410 -227529.000000 0 0 1
-29.196554 19.218471 -12.458854 37.108105 -0.582149 1.913192 0.058772 0.005362 -324021.000000 0 0 1
-28.694254 19.965171 -11.355654 36.754852 -0.607895 1.884892 0.038314 -0.008232 193482.000000 0 0 1
-27.900024 21.062371 -11.753654 36.880662 -0.646644 1.895148 0.032944 -0.012220 -229900.000000 0 0 1
-27.153524 21.874871 -10.708554 36.475978 -0.678146 1.868764 0.057631 -0.011022 376959.000000 0 0 1
-27.899574 22.863771 -9.947254 37.417725 -0.686520 1.839875 0.036597 -0.015778 413486.000000 0 0 1
-27.206784 24.118271 -9.956654 37.696619 -0.725295 1.838094 0.057168 -0.021023 256038.000000 0 0 1
-27.749374 25.101071 -8.859854 38.452419 -0.735331 1.803296 0.068471 -0.001754 -33522.400000 0 0 1
-27.521374 24.718971 -7.529754 37.751169 -0.731805 1.771601 0.063362 -0.010292 394696.000000 0 0 1
-28.645954 24.993571 -6.688754 38.600631 -0.717412 1.744956 0.085376 -0.022660 382122.000000 0 0 1
-28.602964 24.276671 -5.332154 37.893511 -0.703766 1.711979 0.073193 -0.017839 -312343.000000 0 0 1
-28.610104 22.868771 -5.450754 37.030116 -0.674329 1.718531 0.069031 -0.015286 -257884.000000 0 0 1
-28.186194 22.254771 -4.213454 36.159225 -0.668344 1.687587 0.068935 -0.015562 -126132.000000 0 0 1
-28.204354 20.675071 -4.354354 35.240666 -0.632562 1.694673 0.088443 -0.009959 300021.000000 0 0 1
-27.127054 20.111571 -5.110954 34.153685 -0.637964 1.721006 0.068153 -0.019352 463139.000000 0 0 1
-27.070614 20.368871 -6.530154 34.501478 -0.645058 1.761217 0.062056 -0.014952 -166381.000000 0 0 1
-27.979874 19.450071 -7.430054 34.876702 -0.607460 1.785479 0.073675 -0.011845 201547.000000 0 0 1
-27.527944 18.097971 -7.485954 33.784076 -0.581588 1.794233 0.074051 -0.003935 247900.000000 0 0 1
-27.991474 17.468771 -8.654554 34.111316 -0.557934 1.827315 0.059139 -0.007358 -129411.000000 0 0 1
-27.748604 15.943771 -8.690654 33.161971 -0.521518 1.835960 0.105252 -0.016996 -112458.000000 0 0 1
-28.506414 15.078871 -7.879754 33.197568 -0.486550 1.810443 0.100094 -0.005661 -184960.000000 0 0 1
-28.520704 13.753171 -8.364354 32.749698 -0.449320 1.829060 0.105074 -0.018514 73745.400000 0 0 1
-29.225184 12.784471 -7.380854 32.741886 -0.412366 1.798176 0.105612 -0.019968 38894.300000 0 0 1
-30.636474 12.865671 -7.501954 34.064620 -0.397582 1.792844 0.129026 -0.013128 14404.100000 0 0 1
-31.270014 11.788371 -6.867054 34.116505 -0.360511 1.773463 0.149779 -0.018991 -238635.000000 0 0 1
-31.606924 10.589571 -7.739554 34.220423 -0.323285 1.798938 0.135141 -0.020481 160010.000000 0 0 1
-30.486794 9.787971 -8.150054 33.040466 -0.310661 1.820038 0.148978 -0.021145 504858.000000 0 0 1
-30.915234 8.480171 -8.409654 33.141927 -0.267719 1.827348 0.126471 -0.012841 -424856.000000 0 0 1
-29.816054 7.468271 -8.727354 31.952134 -0.245429 1.847450 0.169247 -0.019185 -428381.000000 0 0 1
-29.456474 7.515771 -10.126754 32.042501 -0.249818 1.892350 0.153292 -0.034518 484472.000000 0 0 1
-28.436494 6.543071 -10.374354 30.968907 -0.226158 1.912394 0.173080 -0.039383 -280096.000000 0 0 1
-27.618654 6.795171 -11.616754 30.723173 -0.241244 1.958551 0.123812 -0.040174 -674234.000000 0 0 1
-26.818254 7.947871 -11.489554 30.239002 -0.288114 1.960547 0.155235 -0.046828 674298.000000 0 0 1
-25.893504 7.919571 -12.606954 29.868520 -0.296817 2.006537 0.129712 -0.032280 265711.000000 0 0 1
-32.038164 26.025771 33.828838 53.368296 -0.682218 0.884243 0.059039 -0.015428 -70639.300000 0 0 1
-32.599224 27.294971 33.860631 54.353171 -0.697068 0.898257 0.050207 -0.023308 213474.000000 0 0 1
-33.100744 27.662071 32.576060 54.055981 -0.696129 0.923997 0.053122 -0.028224 -19742.800000 0 0 1
-33.387484 29.148171 32.403451 54.902856 -0.717711 0.939495 0.056843 -0.027124 -88383.600000 0 0 1
-33.972194 29.537671 31.200791 54.772925 -0.715687 0.964730 0.084709 -0.025641 12711.100000 0 0 1
-34.045004 30.933771 31.217811 55.592376 -0.737554 0.974540 0.085730 -0.025740 -49320.400000 0 0 1
-33.594354 31.589271 29.847421 54.930240 -0.754647 0.996351 0.068468 -0.023851 67741.800000 0 0 1
-32.263294 31.269971 29.506951 53.753059 -0.769765 0.989706 0.063331 -0.024940 -190660.000000 0 0 1
-32.007344 31.704671 28.192871 53.145971 -0.780648 1.011630 0.069000 -0.021213 476791.000000 0 0 1
-30.552514 31.491571 27.678441 51.877464 -0.800532 1.008022 0.071007 -0.021877 46898.300000 0 0 1
-30.441654 30.179271 27.093371 50.710290 -0.781070 1.007143 0.090720 -0.024582 424010.000000 0 0 1
-29.357064 30.027171 26.167361 49.479279 -0.796682 1.013545 0.072101 -0.016631 322484.000000 0 0 1
-29.473014 30.842171 24.848211 49.369339 -0.808094 1.043368 0.079906 -0.016369 -352729.000000 0 0 1
-29.458194 32.255071 25.044381 50.352714 -0.830688 1.050221 0.067696 -0.023373 -107468.000000 0 0 1
-30.302144 32.930471 24.160571 50.856357 -0.826940 1.075747 0.078298 -0.020710 -285994.000000 0 0 1
-30.353784 -33.661138 24.734351 51.635381 0.837018 1.071259 0.066016 -0.014964 -165753.000000 0 0 1
-31.152274 -33.607438 25.884041 52.629912 0.823292 1.056626 0.043491 -0.023047 29487.800000 0 0 1
-30.875174 -32.449338 26.598801 52.093494 0.810252 1.034917 0.024046 -0.029693 -103134.000000 0 0 1
-31.374024 -32.508338 28.058271 53.182591 0.803153 1.015043 0.017761 -0.028627 1671270.000000 0 0 1
-32.830224 -32.647938 28.153491 54.187919 0.782614 1.024469 0.016360 -0.030791 1511460.000000 0 0 1
-33.190974 -32.906938 29.486421 55.262613 0.781101 1.007981 0.010600 -0.026265 817008.000000 0 0 1
-34.694845 -32.954138 29.941161 56.446263 0.759672 1.011681 0.031849 -0.031033 712224.000000 0 0 1
-34.801040 -33.180238 31.268571 57.356466 0.761561 0.994214 0.029340 -0.037484 -696164.000000 0 0 1
-36.097454 -33.198238 31.762041 58.429243 0.743584 0.996078 0.026273 -0.034740 -880366.000000 0 0 1
-36.272254 -33.791838 33.150973 59.636832 0.750011 0.981374 0.034922 -0.025240 12083.200000 0 0 1
-35.885041 32.889571 33.305686 58.980749 -0.741871 0.970742 0.033644 -0.025255 314016.000000 0 0 1
-36.838434 32.260771 -33.737934 59.464912 -0.719247 2.174091 0.037364 -0.021400 390361.000000 0 0 1
-36.277574 30.873671 -33.340754 58.145093 -0.705098 2.181454 0.040077 -0.014648 628462.000000 0 0 1
-35.185991 31.008671 -32.433844 57.022328 -0.722375 2.175833 0.050479 -0.018785 130960.000000 0 0 1
-34.618718 29.737571 -32.045104 55.764393 -0.709697 2.182975 0.042768 -0.018144 666920.000000 0 0 1
-33.804934 29.860871 -30.702254 54.562566 -0.723528 2.168442 0.044675 -0.013790 578279.000000 0 0 1
-34.630891 29.947371 -29.539154 54.485826 -0.713000 2.143783 0.058839 -0.018821 -111368.000000 0 0 1
-35.098782 31.248071 -29.326864 55.393424 -0.727424 2.128723 0.048081 -0.013137 612249.000000 0 0 1
-36.316134 31.302771 -28.338464 55.693749 -0.711392 2.104618 0.058124 -0.013275 763262.000000 0 0 1
-35.810357 31.184171 -27.057724 54.653039 -0.716454 2.088725 0.058390 -0.030097 -206919.000000 0 0 1
-36.855124 30.907971 -26.181204 54.763659 -0.697859 2.069259 0.077532 -0.034315 -354005.000000 0 0 1
-36.333774 30.638071 -24.752454 53.586552 -0.700556 2.050950 0.082955 -0.039243 -153813.000000 0 0 1
-36.035423 31.805471 -24.091654 53.763812 -0.723128 2.035437 0.081371 -0.040150 236484.000000 0 0 1
-35.515905 31.695071 -22.777754 52.771044 -0.728611 2.017099 0.072672 -0.041052 566611.000000 0 0 1
-36.664214 31.347871 -21.709454 52.898526 -0.707389 1.993687 0.073601 -0.037878 739889.000000 0 0 1
36.639859 32.337771 -21.680654 53.462711 0.723110 1.988353 0.074036 -0.041205 -31016.600000 0 0 1
36.918459 33.649071 -21.120454 54.233810 0.739101 1.970813 0.072767 -0.045437 -386305.000000 0 0 1
37.024599 33.537371 -19.578654 53.655380 0.736018 1.944318 0.071911 -0.036114 163873.000000 0 0 1
-36.161174 32.806171 -19.151754 52.446783 -0.736790 1.944607 0.076614 -0.038316 76430.900000 0 0 1
-36.106994 32.619471 -17.787154 51.808568 -0.734697 1.921251 0.079807 -0.017787 116766.000000 0 0 1
-34.950061 31.628471 -17.517754 50.286565 -0.735550 1.926616 0.091350 -0.025241 67343.100000 0 0 1
-34.664496 31.375471 -16.172854 49.473313 -0.735636 1.903818 0.071014 -0.012967 71046.900000 0 0 1
-33.538504 30.495971 -16.138354 48.117377 -0.737920 1.912821 0.070588 -0.012868 264327.000000 0 0 1
-33.168614 30.108171 -14.679354 47.139605 -0.737070 1.887464 0.076741 -0.013322 -678810.000000 0 0 1
-34.189892 29.445671 -14.060254 47.261898 -0.710983 1.872866 0.060977 -0.007086 -618363.000000 0 0 1
-33.761524 29.052571 -12.748354 46.329396 -0.710572 1.849560 0.080254 -0.003892 410837.000000 0 0 1
-34.702225 28.088871 -11.935754 46.213541 -0.680462 1.832031 0.078301 -0.006725 571750.000000 0 0 1
-34.131082 27.907771 -10.612354 45.347508 -0.685419 1.807010 0.083718 -0.007503 633466.000000 0 0 1
-34.818597 26.860971 -9.992454 45.096514 -0.657091 1.794230 0.087206 -0.018700 154946.000000 0 0 1
-33.899304 26.192571 -8.945854 43.763477 -0.657845 1.776661 0.092580 -0.003762 69747.900000 0 0 1
-33.518914 27.058371 -7.916154 43.798842 -0.679150 1.752534 0.087383 -0.012937 576743.000000 0 0 1
-32.366484 26.587871 -7.222954 42.505003 -0.687692 1.741557 0.100927 -0.025086 169378.000000 0 0 1
-32.230334 27.279271 -5.904754 42.635891 -0.702392 1.709735 0.096228 -0.028806 -171738.000000 0 0 1
-31.183154 26.724871 -5.145954 41.389475 -0.708561 1.695449 0.109593 -0.026503 289027.000000 0 0 1
-31.312964 27.178371 -3.818554 41.638287 -0.714828 1.662633 0.098746 -0.023584 -66492.700000 0 0 1
-30.481824 26.244071 -2.926554 40.329364 -0.710831 1.643426 0.094163 -0.025892 -144622.000000 0 0 1
-30.993054 24.940771 -2.770854 39.878429 -0.677613 1.640335 0.084122 -0.018104 243118.000000 0 0 1
-30.199884 24.227871 -1.803354 38.759190 -0.676112 1.617340 0.080525 -0.015382 403807.000000 0 0 1
-30.841134 22.886771 -1.325954 38.428349 -0.638417 1.605308 0.088607 -0.015951 -73399.400000 0 0 1
-31.158534 22.063871 -2.415354 38.255752 -0.616153 1.633975 0.081631 -0.012126 -78044.000000 0 0 1
-31.862224 20.964571 -1.829354 38.184566 -0.581962 1.618723 0.088286 -0.008771 -22903.900000 0 0 1
-32.362334 19.953471 -2.803154 38.122426 -0.552510 1.644393 0.115509 -0.000987 248103.000000 0 0 1
-31.238064 19.327371 -3.433154 36.893773 -0.554065 1.663986 0.099700 -0.007175 370588.000000 0 0 1
-31.577004 18.566771 -4.528654 36.909902 -0.531537 1.693801 0.107425 0.005202 -113802.000000 0 0 1
-30.511124 17.563971 -5.041454 35.564562 -0.522329 1.713030 0.124612 0.002003 57958.500000 0 0 1
-30.266514 16.469071 -4.170254 34.708547 -0.498329 1.691238 0.145549 -0.017081 702730.000000 0 0 1
-29.393974 15.473571 -4.799154 33.562911 -0.484559 1.714278 0.147869 -0.019935 383038.000000 0 0 1
-29.376994 14.155271 -3.955954 32.848578 -0.449022 1.691519 0.146358 -0.025829 -637870.000000 0 0 1
-30.572354 13.498971 -3.688654 33.622868 -0.415798 1.680724 0.164656 -0.027334 -415500.000000 0 0 1
-30.393304 12.269671 -2.978154 32.911505 -0.383689 1.661410 0.150741 -0.032119 454072.000000 0 0 1
-31.732904 11.610571 -2.481054 33.881237 -0.350755 1.644090 0.171576 -0.032785 538320.000000 0 0 1
-32.466664 11.042171 -3.545454 34.475848 -0.327835 1.673817 0.167737 -0.019767 877318.000000 0 0 1
-33.725464 10.513871 -3.110654 35.463003 -0.302200 1.658625 0.176568 -0.025442 477725.000000 0 0 1
-34.631900 9.870171 -4.166954 36.251239 -0.277641 1.685997 0.128848 -0.015637 -321844.000000 0 0 1
-34.080096 8.736571 -4.768754 35.503826 -0.250950 1.705520 0.121748 -0.012653 389993.000000 0 0 1
-34.994861 8.060871 -5.615554 36.347660 -0.226395 1.725913 0.109764 -0.001839 41568.800000 0 0 1
-34.268903 7.298071 -6.759154 35.683410 -0.209830 1.761368 0.114535 -0.006148 34518.300000 0 0 1
-33.458854 6.218371 -6.319854 34.613633 -0.183755 1.754409 0.112400 -0.008500 435127.000000 0 0 1
-32.975094 5.415971 -7.345854 34.214780 -0.162791 1.787179 0.123557 -0.015716 -217865.000000 0 0 1
-31.963554 4.340571 -6.805754 32.967069 -0.134972 1.778733 0.145223 -0.018219 -558204.000000 0 0 1
-30.765934 4.987271 -6.497854 31.837677 -0.160706 1.776334 0.152377 -0.023689 -526187.000000 0 0 1
-29.870334 3.958071 -6.097154 30.742129 -0.131741 1.770452 0.157177 -0.022895 -593372.000000 0 0 1
-28.447304 4.459371 -5.823254 29.377634 -0.155494 1.770339 0.175735 -0.022603 -571333.000000 0 0 1
-27.848454 4.768771 -7.032754 29.115927 -0.169595 1.814752 0.180544 -0.017942 741411.000000 0 0 1
-26.430164 4.554471 -6.911954 27.696063 -0.170645 1.823027 0.187277 -0.027412 973267.000000 0 0 1
-25.573354 4.995171 -8.144154 27.299733 -0.192898 1.873732 0.168596 -0.023804 55697.500000 0 0 1
-25.810874 4.191071 -9.284354 27.748253 -0.160971 1.911969 0.168662 -0.041116 212977.000000 0 0 1
-24.793714 4.303871 -10.238454 27.167582 -0.171874 1.957203 0.170593 -0.045400 -344988.000000 0 0 1
-25.006814 3.504071 -11.568854 27.775127 -0.139218 2.000409 0.159170 -0.050689 -281934.000000 0 0 1
-26.081244 4.048271 -12.285754 29.112876 -0.153989 2.006451 0.158608 -0.036530 74234.800000 0 0 1
-26.226334 3.436371 -13.562454 29.724896 -0.130285 2.044591 0.161038 -0.038327 400502.000000 0 0 1
-27.372734 4.181971 -14.328754 31.178016 -0.151606 2.048317 0.129263 -0.037876 200710.000000 0 0 1
-26.902144 5.455571 -14.920254 31.242641 -0.200080 2.068672 0.107040 -0.029793 753193.000000 0 0 1
-27.911524 6.313071 -15.440754 32.516533 -0.222439 2.065600 0.144543 -0.036508 -125581.000000 0 0 1
-28.744254 5.811971 -16.638454 33.717196 -0.199506 2.086872 0.095154 -0.009995 -380667.000000 0 0 1
-29.796414 4.971271 -16.240254 34.297022 -0.165319 2.064077 0.113746 -0.037864 -39760.600000 0 0 1
-30.394864 4.318971 -17.380454 35.278626 -0.141150 2.085943 0.110399 -0.020588 -308714.000000 0 0 1
-31.806904 3.806771 -17.098954 36.311774 -0.119117 2.061099 0.106259 -0.024818 -550698.000000 0 0 1
-32.000384 2.662371 -16.238954 35.983558 -0.083007 2.039005 0.113447 -0.037221 79696.500000 0 0 1
-31.491744 1.479471 -16.734854 35.692774 -0.046945 2.058794 0.140525 -0.036334 -310485.000000 0 0 1
-32.168414 0.283071 -16.015054 35.935623 -0.008799 2.032707 0.148208 -0.038568 -238583.000000 0 0 1
-31.715174 -0.972029 -16.423154 35.728380 0.030639 2.048416 0.151048 -0.021130 273242.000000 0 0 1
-32.246294 -2.025429 -15.613654 35.884705 0.062729 2.020952 0.160096 -0.033936 -33836.100000 0 0 1
-31.932274 -3.351029 -16.260554 35.990348 0.104559 2.039582 0.139617 -0.025015 -42094.500000 0 0 1
-32.620134 -3.531529 -17.494954 37.183575 0.107842 2.060656 0.150016 -0.024544 162876.000000 0 0 1
-32.337004 -4.715929 -18.137054 37.374785 0.144816 2.077474 0.143452 -0.022302 -97563.500000 0 0 1
-33.264194 -5.015929 -19.368254 38.817463 0.149663 2.093191 0.145020 -0.016731 8971.480000 0 0 1
-33.022594 -6.144929 -20.192554 39.191723 0.183978 2.112066 0.150497 -0.016955 234894.000000 0 0 1
-33.769474 -6.078929 -21.402054 40.439816 0.178105 2.128492 0.136872 -0.013533 -166985.000000 0 0 1
-33.365094 -7.152229 -22.453054 40.847565 0.211167 2.152776 0.134726 -0.004416 -311033.000000 0 0 1
-32.061984 -7.007029 -22.940354 40.041593 0.215163 2.180852 0.132809 -0.018747 -317721.000000 0 0 1
-31.786914 -7.955329 -23.919854 40.569134 0.245233 2.201369 0.126884 -0.011831 -944493.000000 0 0 1
-30.458784 -7.946729 -24.624854 39.965879 0.255212 2.234638 0.127653 -0.011338 -1215410.000000 0 0 1
-30.250004 -6.742229 -25.407414 40.075642 0.219299 2.257494 0.108461 -0.020984 49369.200000 0 0 1
-30.661044 -6.853729 -26.748634 41.262121 0.219917 2.276095 0.087990 -0.020950 -780283.000000 0 0 1
-32.109654 -6.686929 -27.189474 42.602963 0.205318 2.262962 0.101979 -0.019205 -620473.000000 0 0 1
-32.886314 -7.807929 -26.831474 43.155549 0.233106 2.241757 0.097129 -0.009323 264024.000000 0 0 1
-34.146953 -7.913329 -27.512684 44.559881 0.227724 2.236270 0.095073 -0.014952 1026290.000000 0 0 1
-35.056858 -9.000429 -26.888094 45.088364 0.251310 2.209733 0.086309 -0.015103 -125754.000000 0 0 1
-34.660219 -10.340729 -27.251604 45.286989 0.289938 2.216491 0.088210 -0.010947 -231764.000000 0 0 1
-35.563434 -11.384029 -27.068884 46.120261 0.309798 2.198045 0.077388 -0.008938 -184425.000000 0 0 1
-36.820074 -11.606629 -27.950054 47.661696 0.305366 2.197436 0.061888 0.000973 566114.000000 0 0 1
36.504649 -10.606629 -27.688054 47.028909 -0.282770 2.200302 0.057093 -0.002709 194168.000000 0 0 1
35.476879 -10.691129 -28.659044 46.842822 -0.292699 2.229147 0.056412 -0.003279 -103906.000000 0 0 1
34.438799 -9.575129 -28.427734 45.671107 -0.271184 2.242659 0.056132 -0.001808 -197627.000000 0 0 1
33.455449 -9.883029 -27.450724 44.390129 -0.287239 2.237498 0.046554 -0.003495 59694.100000 0 0 1
32.735319 -8.741729 -27.036324 43.347223 -0.260953 2.244283 0.024227 0.000904 160411.000000 0 0 1
31.479989 -9.061329 -26.193384 41.942708 -0.280268 2.245292 0.020878 -0.001474 -105930.000000 0 0 1
31.769739 -9.474529 -24.845854 41.429452 -0.289828 2.213941 0.012685 0.006631 -171422.000000 0 0 1
30.642299 -9.775429 -24.061054 40.167696 -0.308811 2.213067 -0.007383 0.006638 -215957.000000 0 0 1
30.981769 -10.038029 -22.553554 39.614326 -0.313325 2.176485 -0.017369 0.005096 297129.000000 0 0 1
31.803099 -11.172029 -22.270654 40.400908 -0.337821 2.154648 -0.013403 0.000947 358437.000000 0 0 1
32.070009 -11.236629 -20.846454 39.866301 -0.337012 2.121057 -0.005897 -0.002762 -346042.000000 0 0 1
32.893999 -12.454329 -20.467354 40.694447 -0.361941 2.097807 0.009966 -0.007774 114704.000000 0 0 1
34.259929 -12.309429 -20.829054 41.941796 -0.344932 2.090494 0.023406 -0.006411 378434.000000 0 0 1
35.129239 -13.223529 -20.158554 42.606249 -0.360020 2.063643 0.045080 -0.008901 205870.000000 0 0 1
36.618769 -13.150129 -20.567954 44.010236 -0.344767 2.057081 0.065218 -0.016058 -259919.000000 0 0 1
-37.080144 -11.891629 -20.356354 43.940063 0.310338 2.052484 0.086821 -0.015171 358385.000000 0 0 1
36.934049 -10.950029 -21.416554 44.076024 -0.288220 2.078189 0.100058 0.000447 -545458.000000 0 0 1
-36.773974 -11.168929 -22.858854 44.716858 0.294865 2.107366 0.084102 -0.002727 302979.000000 0 0 1
37.059279 -12.347829 -23.568954 45.621866 -0.321623 2.113689 0.083667 -0.004200 934608.000000 0 0 1
35.696439 -12.273329 -24.002954 44.732674 -0.331163 2.137183 0.088322 -0.004434 427129.000000 0 0 1
35.119589 -13.407029 -24.902954 45.092029 -0.364678 2.155880 0.071871 -0.024513 -58121.400000 0 0 1
35.044559 -14.699229 -24.304254 45.109702 -0.397155 2.139786 0.080755 -0.037737 733121.000000 0 0 1
34.146089 -14.841129 -23.180054 43.858060 -0.410004 2.127658 0.068179 -0.031343 53785.000000 0 0 1
-30.593874 8.425971 -19.304054 37.143352 -0.268751 2.117317 0.058210 -0.009595 93228.500000 0 0 1
-29.295014 7.883871 -19.393154 36.006218 -0.262891 2.139578 0.057007 -0.008369 -331966.000000 0 0 1
-28.650134 8.234371 -20.544254 36.203611 -0.279868 2.174219 0.075719 -0.023023 -644824.000000 0 0 1
-27.340224 7.475271 -20.702354 35.099217 -0.266894 2.201637 0.076996 -0.020144 188941.000000 0 0 1
-26.191084 8.007971 -20.006754 33.917115 -0.296725 2.201697 0.085472 -0.019641 849409.000000 0 0 1
-25.161224 7.034871 -20.011854 32.909739 -0.272630 2.224440 0.108897 -0.026208 1452040.000000 0 0 1
-23.746114 7.592971 -19.516854 31.661313 -0.309482 2.234992 0.095495 -0.029532 1433300.000000 0 0 1
-23.028814 8.369271 -20.430854 31.902833 -0.348585 2.265827 0.097139 -0.025419 377367.000000 0 0 1
-21.701614 8.694271 -20.019754 30.778905 -0.381048 2.278957 0.097351 -0.022858 660720.000000 0 0 1
-20.939414 9.664671 -20.969154 31.170023 -0.432421 2.308695 0.104102 -0.021504 -65390.600000 0 0 1
-20.364714 8.983971 -22.071354 31.346100 -0.415473 2.351977 0.121419 -0.024548 74505.700000 0 0 1
-19.742314 9.933671 -22.909754 31.832273 -0.466178 2.374169 0.112790 -0.027119 -115971.000000 0 0 1
-18.697714 9.373971 -23.879754 31.744582 -0.464722 2.422262 0.117904 -0.022479 -68468.500000 0 0 1
-19.298114 8.523471 -24.865854 32.609469 -0.415908 2.438018 0.111592 -0.018015 -139161.000000 0 0 1
-18.386314 7.866771 -25.673524 32.543394 -0.404291 2.479815 0.092785 -0.007533 -489341.000000 0 0 1
-18.988414 6.570071 -26.387264 33.166450 -0.333111 2.490795 0.075351 -0.006351 157702.000000 0 0 1
-19.389214 5.592771 -25.484314 32.506476 -0.280825 2.471842 0.092800 -0.008768 80365.900000 0 0 1
-20.059014 4.565171 -26.151864 33.273485 -0.223775 2.475055 0.085628 -0.013100 -632036.000000 0 0 1
-20.260214 3.304071 -25.277494 32.562937 -0.161659 2.459517 0.087880 -0.012743 216305.000000 0 0 1
-19.111714 2.517371 -25.012554 31.578832 -0.130965 2.484984 0.078116 -0.006149 475983.000000 0 0 1
-18.075614 3.057271 -24.204154 30.363067 -0.167552 2.493369 0.069265 -0.008655 -269642.000000 0 0 1
-17.124414 1.979871 -23.662054 29.275557 -0.115106 2.511975 0.071562 -0.012177 50803.800000 0 0 1
-17.656914 1.183871 -22.558854 28.671764 -0.066948 2.476398 0.068228 -0.009246 210917.000000 0 0 1
-18.823514 0.436971 -22.850854 29.608735 -0.023210 2.452401 0.067276 -0.007946 111395.000000 0 0 1
-19.433114 -0.376629 -21.725654 29.151189 0.019378 2.411744 0.107593 -0.011358 107617.000000 0 0 1
-18.617414 -1.501629 -21.483854 28.467859 0.080483 2.425948 0.100104 -0.013653 303975.000000 0 0 1
-19.121114 -2.240329 -20.382254 28.036982 0.116633 2.384706 0.112677 -0.016282 -73680.100000 0 0 1
-18.688314 -3.723229 -20.401454 27.916570 0.196653 2.390291 0.079451 -0.019813 -3360.100000 0 0 1
-19.201214 -4.428829 -21.512954 29.173761 0.226689 2.400021 0.082749 -0.027308 222214.000000 0 0 1
-19.296814 -5.805129 -21.219854 29.263437 0.292221 2.382022 0.087640 -0.021362 -223250.000000 0 0 1
-19.143214 -6.702629 -22.449854 30.255311 0.336791 2.406865 0.065172 -0.029649 689685.000000 0 0 1
-17.851914 -6.700329 -23.100754 29.953799 0.359058 2.451541 0.066270 -0.017650 671625.000000 0 0 1
-17.826014 -7.514729 -24.284054 31.047596 0.398953 2.468914 0.094917 -0.029709 -142785.000000 0 0 1
-16.421114 -7.685729 -24.864254 30.772627 0.437754 2.511544 0.075048 -0.035239 -928361.000000 0 0 1
-16.495114 -8.410529 -26.096464 31.997675 0.471520 2.524516 0.090534 -0.066579 -218932.000000 0 0 1
-15.233414 -8.580829 -26.685734 31.903228 0.512989 2.561586 0.100634 -0.065483 439195.000000 0 0 1
-14.181814 -9.517929 -25.952254 31.068220 0.591091 2.559531 0.088588 -0.059977 -123382.000000 0 0 1
-13.535614 -8.834529 -24.889354 29.677293 0.578262 2.565627 0.086114 -0.049628 -253193.000000 0 0 1
-12.759014 -9.765529 -24.187354 29.037667 0.653274 2.555241 0.073012 -0.041641 -77088.500000 0 0 1
-11.889814 -9.106129 -23.081754 27.514662 0.653585 2.566036 0.086207 -0.036352 522587.000000 0 0 1
-12.650714 -8.684529 -21.940354 26.773882 0.601598 2.531279 0.089734 -0.029584 -82318.100000 0 0 1
-11.785314 -8.103729 -21.051354 25.450414 0.602364 2.544817 0.085449 -0.025261 -791666.000000 0 0 1
-12.385114 -7.997129 -19.624554 24.545229 0.573350 2.497302 0.068846 -0.018202 -14024.800000 0 1 0
-13.190814 -6.875129 -19.405254 24.450539 0.480468 2.487587 0.054905 -0.010330 1592450.000000 0 1 0
-14.596114 -7.065029 -19.750754 25.554911 0.450794 2.454156 0.066262 -0.023673 1703460.000000 0 0 1
-15.672214 -5.979829 -19.417054 25.659280 0.364506 2.429087 0.068937 -0.013839 361101.000000 0 0 1
-15.880014 -5.718929 -18.014754 24.686279 0.345674 2.388749 0.053658 -0.010700 -63291.000000 0 1 0
-15.098214 -4.684329 -17.559654 23.627113 0.300840 2.408636 0.057071 -0.016966 -754440.000000 0 1 0
-15.070514 -4.516329 -16.036854 22.465492 0.291163 2.365768 0.068254 -0.014966 392280.000000 0 1 0
-16.286514 -4.073529 -15.413254 22.790625 0.245088 2.313522 0.099159 -0.027765 569007.000000 0 1 0
-16.452114 -2.676329 -15.440554 22.721037 0.161261 2.317974 0.052491 -0.027640 -278623.000000 0 1 0
-17.777214 -2.201729 -14.828054 23.253992 0.123224 2.262248 0.060596 -0.027024 -314702.000000 0 1 0
-17.750614 -2.437029 -13.448154 22.402595 0.136440 2.214666 0.095279 -0.036175 281227.000000 0 1 0
-18.669414 -1.674529 -12.709154 22.646714 0.089454 2.166622 0.096800 -0.034893 -572633.000000 0 1 0
-18.152114 -0.438929 -12.016154 21.773375 0.024176 2.155406 0.087943 -0.032921 -422216.000000 0 1 0
-17.767714 0.515371 -12.933854 21.982763 -0.028998 2.199830 0.104968 -0.033492 465568.000000 0 1 0
-16.977214 1.509171 -12.360954 21.054610 -0.088661 2.198256 0.097491 -0.025173 -688814.000000 0 1 0
-16.467414 2.569271 -13.379254 21.372443 -0.154774 2.247216 0.104874 -0.022590 624183.000000 0 1 0
-15.643514 2.139871 -14.483354 21.425829 -0.135946 2.313085 0.095794 -0.033150 1569860.000000 0 1 0
-14.378414 1.492571 -14.222154 20.278960 -0.103436 2.348052 0.083754 -0.025714 404882.000000 0 1 0
-13.894014 0.492771 -15.293554 20.668315 -0.035452 2.403795 0.073212 -0.026157 -37113.500000 0 1 0
-13.380714 1.034471 -16.475254 21.249650 -0.077157 2.458016 0.076853 -0.031963 174213.000000 0 1 0
-12.860714 0.007671 -17.288154 21.547118 -0.000596 2.502005 0.038157 -0.019982 133317.000000 0 1 0
-12.089314 0.518471 -18.542854 22.141765 -0.042860 2.563416 0.043930 -0.025429 150357.000000 0 1 0
-10.860514 1.188371 -18.380754 21.382589 -0.108988 2.605308 0.021390 -0.015119 -252971.000000 0 1 0
-10.588114 1.952671 -19.499554 22.274508 -0.182372 2.637101 0.034439 -0.011632 -144704.000000 0 1 0
-9.279914 2.733071 -19.293754 21.583221 -0.286417 2.676821 0.025392 -0.011911 -804874.000000 0 1 0
-8.170614 1.830071 -19.375854 21.107625 -0.220345 2.733691 0.027204 -0.010247 -308154.000000 0 1 0
-6.928414 2.451571 -19.206054 20.564183 -0.340094 2.776125 0.029553 -0.005705 -80935.200000 0 1 0
-6.498614 3.556271 -20.211454 21.526308 -0.500718 2.790271 0.034863 -0.001892 -1310980.000000 0 1 0
-6.401414 3.075371 -21.541654 22.682127 -0.447862 2.823135 0.034910 -0.001462 345861.000000 0 1 0
-6.202814 4.122371 -22.518754 23.718413 -0.586568 2.822182 0.049651 0.000746 -316979.000000 0 1 0
-5.676614 3.591371 -23.886354 24.812896 -0.564089 2.867454 0.072123 -0.014728 524355.000000 0 1 0
-4.301214 3.215571 -23.937854 24.532860 -0.641961 2.920902 0.083024 -0.014375 416171.000000 0 1 0
-4.008814 2.546771 -25.150184 25.594695 -0.565967 2.954950 0.098113 -0.024220 -168591.000000 0 0 1
-2.642814 1.854271 -25.079144 25.286088 -0.611817 3.013567 0.091934 -0.025334 -53531.600000 0 0 1
-1.538514 2.760771 -25.112374 25.310476 -1.062383 3.016396 0.099043 -0.024284 1105870.000000 0 0 1
-0.242314 2.136371 -25.153484 25.245209 -1.457856 3.056322 0.091418 -0.020409 1182050.000000 0 0 1
0.379586 1.383271 -23.932654 23.975601 1.302977 3.081729 0.076244 -0.015096 -345753.000000 0 1 0
0.140486 -0.019629 -23.949854 23.950274 -0.138824 3.135670 0.061157 -0.015966 381325.000000 0 1 0
0.878486 -0.525529 -22.819354 22.842304 -0.539111 3.096763 0.055982 -0.014295 -142107.000000 0 1 0
0.466486 -1.979729 -22.503354 22.595085 -1.339386 3.051453 0.057617 -0.027399 454727.000000 0 1 0
-0.798314 -2.125729 -21.865154 21.982743 1.211545 3.038114 0.047746 -0.025085 254214.000000 0 1 0
-1.899114 -2.323229 -22.742054 22.939160 0.885508 3.010407 0.049731 -0.021878 273074.000000 0 1 0
-2.897014 -1.125129 -22.735954 22.947379 0.370445 3.005742 0.060650 -0.021288 -721230.000000 0 1 0
-3.568014 -0.969629 -21.525654 21.840895 0.265348 2.971485 0.043893 -0.021028 120149.000000 0 1 0
-4.522014 0.063371 -21.417054 21.889332 -0.014013 2.933488 0.033412 -0.027177 -876966.000000 0 1 0
-5.869714 -0.119329 -22.037654 22.806271 0.020327 2.881235 0.036884 -0.024044 -1675270.000000 0 1 0
-6.474414 -1.270029 -21.493154 22.483031 0.193702 2.843752 0.035130 -0.012117 -624888.000000 0 1 0
-7.808514 -1.182729 -21.934054 23.312539 0.150324 2.795984 0.033213 -0.006808 -151487.000000 0 1 0
-8.599914 -2.441829 -21.504654 23.288864 0.276655 2.747611 0.026485 -0.006380 -74913.600000 0 1 0
-8.632014 -3.435729 -22.511254 24.353079 0.378800 2.750177 0.044869 -0.009232 -258368.000000 0 1 0
-9.125414 -4.676129 -22.175254 24.431154 0.473541 2.708478 0.039449 -0.007511 -173396.000000 0 1 0
-10.029614 -5.298029 -23.287354 25.902956 0.485982 2.688330 0.045763 -0.016218 205006.000000 0 0 1
-11.314714 -4.715129 -23.310954 26.337346 0.394841 2.657486 0.051903 -0.022138 -70272.100000 0 0 1
-12.017614 -5.071929 -24.515454 27.769678 0.399362 2.652615 0.054174 -0.043301 464042.000000 0 0 1
-13.565814 -5.036429 -24.447854 28.409409 0.355487 2.607154 0.086367 -0.049782 431777.000000 0 0 1
-14.159614 -3.724629 -24.322454 28.389246 0.257219 2.599729 0.067902 -0.048559 1364560.000000 0 0 1
-15.607314 -3.854729 -24.285054 29.124063 0.242136 2.556840 0.068808 -0.050632 1636110.000000 0 0 1
-16.352114 -2.506529 -24.444754 29.516442 0.152101 2.546638 0.074445 -0.040521 -103159.000000 0 0 1
-16.132814 -2.075129 -25.787004 30.488415 0.127925 2.578853 0.069087 -0.044042 271958.000000 0 0 1
-16.877914 -0.872629 -26.031274 31.036313 0.051656 2.565754 0.061843 -0.038856 -343874.000000 0 0 1
-18.317814 -1.004729 -26.513184 32.241289 0.054795 2.536301 0.070867 -0.031941 -771564.000000 0 0 1
-18.372614 -1.833129 -27.686744 33.278659 0.099446 2.553440 0.076788 -0.040847 -222990.000000 0 0 1
-18.298314 -1.014029 -28.800534 34.136891 0.055360 2.574894 0.072033 -0.039276 -371075.000000 0 0 1
-18.553814 -1.658429 -30.188594 35.473168 0.089148 2.588733 0.056884 -0.036635 271203.000000 0 0 1
-19.875614 -2.120829 -30.390734 36.374918 0.106303 2.559813 0.053428 -0.033325 19536.600000 0 0 1
-19.912514 -2.850129 -31.610184 37.467789 0.142167 2.574866 0.058096 -0.038635 158662.000000 0 0 1
-21.353914 -3.460329 -31.864314 38.513609 0.160650 2.545173 0.038753 -0.034209 1002280.000000 0 0 1
-22.211414 -2.369129 -32.207354 39.195323 0.106261 2.535209 0.024525 -0.031664 -10396.200000 0 0 1
-22.882014 -1.762929 -31.150294 38.691541 0.076892 2.506629 0.019949 -0.018430 -760727.000000 0 0 1
-24.058514 -0.878929 -31.619764 39.741592 0.036517 2.490850 0.020449 -0.012596 -85689.300000 0 0 1
-23.592914 0.337971 -32.219614 39.935490 -0.014324 2.509498 0.030200 -0.022563 239633.000000 0 0 1
-24.640014 1.192271 -32.591564 40.874954 -0.048350 2.493685 0.024284 -0.021394 -454204.000000 0 0 1
-24.135914 2.518371 -33.206684 41.128681 -0.103965 2.510503 0.035435 -0.022525 -98833.300000 0 0 1
-23.448314 3.406471 -32.310424 40.067331 -0.144266 2.508841 0.037330 -0.023273 620006.000000 0 0 1
-24.253514 4.040471 -31.346884 39.839497 -0.165077 2.476451 0.029112 -0.023533 -994399.000000 0 0 1
-25.307024 5.029571 -31.724174 40.892118 -0.196186 2.458781 0.021568 -0.024929 -711720.000000 0 0 1
-26.589974 4.559571 -32.059334 41.900087 -0.169825 2.442051 0.043157 -0.028088 53214.200000 0 0 1
-27.112374 5.180971 -33.218834 43.190442 -0.188816 2.448267 0.064068 -0.036013 -19006.800000 0 0 1
-28.507454 4.672271 -33.642374 44.343144 -0.162452 2.432085 0.081559 -0.024506 -115687.000000 0 0 1
-28.642274 3.323871 33.809972 44.435821 -0.115531 0.706140 0.085227 -0.021732 362361.000000 0 0 1
-29.904914 3.068271 33.216946 44.800488 -0.102243 0.735580 0.090856 -0.023932 99091.600000 0 0 1
-29.882084 1.559771 32.747399 44.359486 -0.052150 0.740357 0.091356 -0.002928 -143820.000000 0 0 1
-29.990544 0.653371 33.838516 45.220624 -0.021782 0.725303 0.080853 -0.002341 143025.000000 0 0 1
-29.906904 -0.742329 33.507101 44.918813 0.024816 0.728839 0.068341 -0.001928 -434446.000000 0 0 1
-29.379634 -1.698029 -33.259844 44.410173 0.057732 2.417233 0.014556 0.004565 732545.000000 0 0 1
-28.036784 -1.530829 -32.771154 43.154991 0.054547 2.433160 0.035377 -0.004667 1116940.000000 0 0 1
-27.836124 -0.355729 -32.003354 42.416872 0.012779 2.425682 0.042759 0.001808 -870955.000000 0 0 1
-28.215924 -0.506329 -30.476844 41.535922 0.017943 2.394616 0.055720 -0.004673 556729.000000 0 0 1
-27.155574 -1.157029 -29.731464 40.283047 0.042582 2.400993 0.037993 -0.013573 1127510.000000 0 0 1
-27.267254 -0.902729 -28.334404 39.333911 0.033095 2.375111 0.048518 -0.016319 -634512.000000 0 0 1
-26.120184 -1.550029 -27.574704 38.013562 0.059273 2.382399 0.053376 -0.017475 -445821.000000 0 0 1
-26.117324 -2.918429 -27.302574 37.895414 0.111281 2.375279 0.042900 -0.020293 595880.000000 0 0 1
-25.067714 -3.121329 -26.341024 36.496336 0.123878 2.377115 0.068902 -0.029115 411542.000000 0 0 1
-25.346334 -4.396329 -25.564074 36.266875 0.171742 2.353061 0.074398 -0.034855 572366.000000 0 0 1
-26.537734 -4.328929 -24.774954 36.562130 0.161699 2.315308 0.079477 -0.028786 311855.000000 0 0 1
-26.638794 -5.344129 -23.854554 36.155564 0.197986 2.291316 0.088406 -0.030523 -118770.000000 0 0 1
-27.819154 -5.193429 -22.890154 36.398299 0.184561 2.250908 0.097851 -0.030197 -119693.000000 0 0 1
-27.960864 -6.254329 -21.939254 36.086804 0.220059 2.224282 0.124143 -0.036385 -64816.500000 0 0 1
-29.091924 -5.960629 -21.154754 36.460839 0.202093 2.189776 0.155754 -0.026551 74966.300000 0 0 1
-29.597514 -7.194029 -20.358754 36.636673 0.238438 2.159993 0.165927 -0.031684 620113.000000 0 0 1
-28.717334 -7.483629 -19.231754 35.363121 0.254926 2.145798 0.164144 -0.038715 808644.000000 0 0 1
-29.255254 -8.496029 -18.400554 35.589785 0.282636 2.114160 0.180991 -0.033280 -40035.400000 0 0 1
-29.975474 -7.892029 -17.196754 35.447730 0.257441 2.077308 0.187306 -0.036730 -182113.000000 0 0 1
-29.109444 -7.325629 -16.241954 34.129542 0.246539 2.066774 0.187359 -0.042897 585023.000000 0 0 1
-29.709864 -6.168529 -15.597654 34.117644 0.204717 2.045610 0.180651 -0.034602 258074.000000 0 0 1
-28.595814 -5.504029 -14.754654 32.645287 0.190151 2.039768 0.183539 -0.039516 154188.000000 0 0 1
-27.595394 -4.920329 -15.541254 32.050679 0.176448 2.077041 0.187964 -0.034213 -171507.000000 0 0 1
-26.475794 -4.583529 -14.763254 30.658279 0.171422 2.073210 0.162933 -0.043443 -92650.600000 0 0 1
-14.119514 21.179671 -4.859454 25.914348 -0.982802 1.759433 0.099726 -0.038084 -48621.000000 0 0 1
-14.439614 20.611571 -6.107354 25.896700 -0.959696 1.808874 0.129079 -0.038567 -76667.400000 0 0 1
-15.245714 19.491871 -5.938854 25.448670 -0.907030 1.806334 0.117229 -0.046766 -134485.000000 0 0 1
-15.433314 18.670971 -7.231854 25.280270 -0.880049 1.860916 0.145198 -0.047530 -154983.000000 0 0 1
-14.207214 18.114271 -7.647554 24.258129 -0.905696 1.891524 0.128053 -0.041570 -123450.000000 0 1 0
-14.336214 17.151771 -8.732554 23.999329 -0.874578 1.943212 0.109054 -0.046813 -282712.000000 0 1 0
-15.064714 15.826571 -8.418854 23.415872 -0.810056 1.938567 0.097053 -0.041528 -256689.000000 0 1 0
-16.454314 16.020871 -8.369254 24.442937 -0.772052 1.920266 0.108207 -0.029734 -209918.000000 0 1 0
-16.969414 15.247471 -7.245654 23.936288 -0.732000 1.878327 0.114465 -0.013346 350307.000000 0 1 0
-18.463614 15.493671 -6.901654 25.071731 -0.698159 1.849673 0.116938 -0.007974 641591.000000 0 0 1
-19.348814 14.857471 -7.832554 25.621670 -0.654843 1.881470 0.117560 -0.017592 -79061.100000 0 0 1
-20.685614 15.253871 -7.675454 26.823270 -0.635398 1.861002 0.110493 -0.019494 -779571.000000 0 0 1
-21.621114 14.462171 -8.505154 27.367218 -0.589541 1.886809 0.109875 -0.015150 -776231.000000 0 0 1
-21.780414 13.104471 -8.093154 26.676071 -0.541641 1.879041 0.138776 -0.016081 -191967.000000 0 0 1
-22.731414 12.402471 -8.824454 27.357074 -0.499466 1.899235 0.149711 -0.018674 -102059.000000 0 0 1
-22.962514 11.028771 -8.193254 26.758929 -0.447759 1.881982 0.142066 -0.021956 616300.000000 0 0 1
-21.828914 10.154771 -8.338654 25.478501 -0.435421 1.904222 0.134518 -0.021370 723680.000000 0 0 1
-22.045714 9.036471 -7.475254 24.970998 -0.389009 1.874815 0.138437 -0.030491 -507417.000000 0 1 0
-20.772014 8.237471 -7.295554 23.506544 -0.377542 1.886371 0.088793 -0.008029 -1000460.000000 0 1 0
-20.550214 7.236671 -8.192054 23.276393 -0.338585 1.930447 0.088918 -0.007367 -122475.000000 0 1 0
-19.602114 6.337971 -7.741954 22.007967 -0.312722 1.930268 0.069486 0.001599 -650423.000000 0 1 0
-19.437314 5.217471 -8.750054 21.945265 -0.262244 1.980919 0.059555 -0.008293 -612449.000000 0 1 0
-20.469314 4.266171 -8.729254 22.658176 -0.205476 1.966284 0.083898 -0.010261 295144.000000 0 1 0
-20.204214 3.220671 -9.658154 22.624388 -0.158076 2.011849 0.078225 -0.014410 -132532.000000 0 1 0
-21.097714 1.975871 -9.539854 23.238469 -0.093381 1.993820 0.075029 -0.022506 -122140.000000 0 1 0
-20.814114 1.143371 -8.386754 22.469363 -0.054877 1.953309 0.079227 -0.025888 833504.000000 0 1 0
-21.736914 0.044371 -8.110454 23.200752 -0.002041 1.927916 0.087929 -0.020837 337394.000000 0 1 0
-21.652214 -1.203729 -9.050254 23.498392 0.055537 1.966160 0.089614 -0.037222 -518644.000000 0 1 0
-20.621014 -2.035429 -8.649054 22.453849 0.098388 1.966213 0.072757 -0.025140 -184480.000000 0 1 0
-20.724314 -3.408829 -9.116254 22.895926 0.163025 1.980307 0.070997 -0.020791 -17021.000000 0 1 0
-21.776714 -4.303329 -8.427254 23.743684 0.195098 1.933631 0.085801 -0.024111 273965.000000 0 1 0
-21.313114 -4.510129 -7.108754 22.915595 0.208536 1.886215 0.062217 -0.023775 1157730.000000 0 1 0
-22.330314 -5.162829 -6.311054 23.772403 0.227210 1.839496 0.087359 -0.024126 359440.000000 0 1 0
-22.467114 -6.699729 -6.485054 24.325162 0.289806 1.840658 0.101579 -0.029099 401409.000000 0 1 0
-21.367414 -7.466529 -5.961954 23.406417 0.336172 1.828349 0.083235 -0.032228 1113440.000000 0 1 0
-21.613414 -8.796829 -6.174854 24.138200 0.386533 1.829484 0.094059 -0.031504 -97427.000000 0 1 0
-20.616314 -9.733429 -5.414954 23.432750 0.441098 1.803989 0.096084 -0.029675 597450.000000 0 1 0
-19.350414 -9.798529 -6.071554 22.523620 0.468733 1.843736 0.079276 -0.019198 563035.000000 0 1 0
-18.476414 -10.670329 -5.370954 22.001840 0.523719 1.817402 0.078217 -0.015367 -212647.000000 0 1 0
-17.674414 -11.605829 -6.284454 22.058435 0.581033 1.859699 0.056088 -0.010304 -216341.000000 0 1 0
-16.437714 -11.133929 -6.760354 20.972964 0.595356 1.898993 0.052779 -0.026609 -16124.600000 0 1 0
-16.627614 -10.372429 -7.955654 21.150822 0.557741 1.956422 0.048639 -0.036855 21365.800000 0 1 0
-15.700114 -10.717929 -9.145654 21.095274 0.598997 2.019214 0.062852 -0.030932 417628.000000 0 1 0
-16.221614 -11.850829 -9.835054 22.367638 0.630942 2.026061 0.102334 -0.033299 779175.000000 0 1 0
-15.273414 -12.295929 -10.851254 22.410193 0.677815 2.076257 0.093290 -0.012644 801095.000000 0 1 0
-15.599014 -13.599729 -11.479954 23.665824 0.717033 2.077258 0.121196 -0.017240 345383.000000 0 1 0
-16.534714 -13.643229 -12.558054 24.844299 0.689875 2.100723 0.112578 -0.012174 263515.000000 0 1 0
-16.613714 -14.956429 -13.117954 25.918931 0.732951 2.101470 0.105467 -0.002902 96116.300000 0 0 1
-17.041414 -14.799929 -14.590654 26.876289 0.715119 2.144661 0.118714 -0.004157 36066.900000 0 0 1
-17.192214 -16.024729 -15.296754 28.042020 0.750265 2.147775 0.108322 0.004277 46642.600000 0 0 1
-17.539214 -15.912329 -16.617354 28.930308 0.736802 2.182658 0.104325 0.000721 -226879.000000 0 0 1
-17.727814 -17.318629 -17.290954 30.218991 0.773723 2.179968 0.105648 -0.009974 198520.000000 0 0 1
-18.922914 -17.901429 -16.806454 30.999915 0.757666 2.143784 0.067693 -0.001840 42291.400000 0 0 1
-19.828514 -18.265329 -17.870954 32.344447 0.744386 2.156181 0.067771 0.001690 2309370.000000 0 0 1
-21.343014 -17.816229 -17.552254 32.878928 0.695578 2.133938 0.055744 -0.005106 1599010.000000 0 0 1
-21.491514 -16.422129 -17.250154 32.080201 0.652478 2.138526 0.036714 0.001885 131310.000000 0 0 1
-21.384514 -16.200629 -15.849254 31.160178 0.648339 2.104399 0.031741 0.000503 -332108.000000 0 0 1
-21.325114 -14.694329 -15.396154 30.128481 0.603347 2.107163 0.049881 -0.011279 -493113.000000 0 0 1
-22.589114 -14.157629 -15.163754 30.669952 0.559854 2.087961 0.080254 -0.005285 -196370.000000 0 0 1
-22.545914 -12.803929 -14.692154 29.801313 0.516486 2.086335 0.087001 -0.010831 -1202010.000000 0 0 1
-23.903814 -12.280529 -14.325354 30.453563 0.474585 2.060540 0.111508 -0.024190 -1080010.000000 0 0 1
-24.368614 -12.736629 -13.099554 30.457337 0.481615 2.015395 0.133337 -0.014543 816945.000000 0 0 1
-25.530364 -12.058329 -12.588854 30.914108 0.441254 1.990205 0.173732 -0.023709 71100.800000 0 0 1
-26.110144 -12.675829 -11.362254 31.169169 0.451960 1.943930 0.181042 -0.028202 -687609.000000 0 0 1
-27.139994 -11.808829 -10.959654 31.561713 0.410401 1.925428 0.156243 -0.029106 -486477.000000 0 0 1
-27.772004 -12.332329 -9.855154 31.945182 0.417900 1.884414 0.158214 -0.024154 46659.300000 0 0 1
-28.811604 -11.255729 -9.321054 32.306068 0.372434 1.863481 0.171901 -0.033570 122670.000000 0 0 1
-28.233184 -10.102129 -8.779754 31.244996 0.343616 1.855629 0.169925 -0.036817 -616083.000000 0 0 1
-29.060224 -9.326029 -7.997254 31.550397 0.310538 1.827068 0.187469 -0.040705 -573728.000000 0 0 1
-28.347344 -8.201529 -7.254654 30.388600 0.281633 1.811854 0.161762 -0.037796 -551025.000000 0 0 1
-27.509564 -8.582929 -6.231354 29.483429 0.302427 1.783753 0.155079 -0.041108 -285932.000000 0 0 1
-26.773474 -7.546329 -5.594754 28.373708 0.274731 1.769278 0.142617 -0.035143 131628.000000 0 0 1
-27.558554 -6.411729 -4.866254 28.710009 0.228592 1.741115 0.161333 -0.038902 -163685.000000 0 0 1
-28.407664 -6.801729 -3.784954 29.454792 0.235009 1.699653 0.171065 -0.043615 297238.000000 0 0 1
-27.768314 -7.164829 -2.549354 28.790854 0.252514 1.659460 0.176428 -0.042138 -287810.000000 0 0 1
-27.078064 -6.009929 -1.811054 27.796056 0.218408 1.635998 0.176856 -0.042165 -12192.900000 0 0 1
-27.974974 -5.173329 -1.112054 28.471024 0.182861 1.609865 0.192335 -0.052510 179114.000000 0 0 1
-27.317324 -4.086529 -0.469454 27.625284 0.148494 1.587791 0.188334 -0.050025 -290943.000000 0 0 1
-28.273684 -3.024329 0.081346 28.435091 0.106561 1.567936 0.195964 -0.048065 295850.000000 0 0 1
-29.198244 -3.444929 1.111246 29.421759 0.117441 1.533018 0.184831 -0.047977 486108.000000 0 0 1
-28.675894 -3.631229 2.391746 29.003675 0.125960 1.488239 0.185222 -0.041920 -192162.000000 0 0 1
-29.821764 -3.936829 3.377146 30.269479 0.131253 1.458994 0.168252 -0.035302 -78108.300000 0 0 1
-30.398604 -5.173129 3.254646 31.006921 0.168562 1.465637 0.163111 -0.033083 1019780.000000 0 0 1
-31.581674 -5.261529 4.115146 32.280339 0.165084 1.442967 0.161395 -0.033902 1171230.000000 0 0 1
-32.283484 -6.638929 4.012646 33.202411 0.202817 1.449646 0.145430 -0.027753 28910.700000 0 0 1
-31.488974 -7.714929 4.486446 32.729250 0.240271 1.433286 0.123451 -0.016555 344905.000000 0 0 1
-32.088364 -8.976429 4.162846 33.579290 0.272768 1.446506 0.127950 -0.019624 102333.000000 0 0 1
-31.266844 -10.210629 4.575546 33.208555 0.315646 1.432574 0.099943 -0.011311 81714.400000 0 0 1
-31.354394 -10.326829 5.976946 33.547956 0.318169 1.391679 0.084924 -0.011053 628073.000000 0 0 1
-30.338334 -11.264829 6.325046 32.974492 0.355529 1.377784 0.073892 -0.007358 219086.000000 0 0 1
-30.318684 -11.466129 7.872546 33.356734 0.361562 1.332538 0.075822 -0.023322 -90499.500000 0 0 1
-30.123944 -10.332629 8.602646 32.988191 0.330429 1.306967 0.085155 -0.017197 344319.000000 0 0 1
-30.241094 -10.651429 9.995746 33.584098 0.338649 1.268584 0.087264 -0.023560 -260271.000000 0 0 1
-30.324764 -9.475029 10.969646 33.611020 0.302841 1.238335 0.087086 -0.021620 -199314.000000 0 0 1
-29.183534 -8.657529 11.088146 32.397198 0.288388 1.221479 0.085247 -0.028499 -37741.900000 0 0 1
-29.452984 -7.556129 11.938546 32.666531 0.251133 1.196662 0.088537 -0.029589 -345280.000000 0 0 1
-28.477294 -6.413829 11.876346 31.514141 0.221530 1.184395 0.104654 -0.020845 -500779.000000 0 0 1
-28.589734 -5.712829 10.649846 31.039145 0.197223 1.220570 0.111922 -0.025709 500112.000000 0 0 1
-27.697434 -4.592429 10.517246 29.980839 0.164312 1.212372 0.112183 -0.030219 69522.900000 0 0 1
-27.799364 -3.788129 9.251746 29.542332 0.135433 1.252268 0.135249 -0.027421 -68440.100000 0 0 1
-27.146964 -4.315829 8.084646 28.652147 0.157661 1.284746 0.129570 -0.025238 138011.000000 0 0 1
-27.368404 -3.622729 6.840846 28.442062 0.131604 1.327896 0.148258 -0.035609 253385.000000 0 0 1
-26.378084 -4.001229 5.673746 27.276447 0.150540 1.361257 0.132634 -0.026012 411915.000000 0 0 1
-25.029514 -3.591129 5.828146 25.948797 0.142503 1.344262 0.153931 -0.041577 297809.000000 0 0 1
-24.282614 -4.039329 4.757446 25.071793 0.164837 1.379886 0.165714 -0.026925 -364810.000000 0 0 1
-22.759714 -3.810729 4.870446 23.584900 0.165894 1.362793 0.156840 -0.026805 77099.700000 0 1 0
-22.415914 -2.436829 4.800946 23.053426 0.108285 1.361008 0.127228 -0.027642 -770589.000000 0 1 0
-21.090814 -2.321329 4.423846 21.674442 0.109622 1.365248 0.102163 -0.018701 -1213420.000000 0 1 0
-20.617514 -0.856429 4.633946 21.149204 0.041515 1.349897 0.081945 -0.027722 -361473.000000 0 1 0
-21.022114 0.001871 3.583346 21.325329 -0.000089 1.401963 0.103766 -0.023315 364748.000000 0 1 0
-22.336114 0.495271 3.581446 22.626844 -0.022170 1.411845 0.110029 -0.041644 -339434.000000 0 1 0
-22.455014 1.778771 2.703346 22.686996 -0.079050 1.451354 0.129928 -0.029128 44136.500000 0 1 0
-21.595614 2.834071 3.115946 22.002537 -0.130488 1.428701 0.093219 -0.034293 450029.000000 0 1 0
-21.926514 3.938571 2.351046 22.401156 -0.177731 1.465651 0.113898 -0.019299 738912.000000 0 1 0
-20.750414 4.195571 1.335346 21.212394 -0.199503 1.507803 0.085203 -0.011386 346816.000000 0 1 0
-21.057314 4.992671 0.169546 21.641765 -0.232800 1.562962 0.099656 -0.007811 543162.000000 0 1 0
-21.965614 4.495171 -0.815554 22.435684 -0.201859 1.607155 0.122103 -0.012163 47161.400000 0 1 0
-21.491114 3.341271 -1.775654 21.821664 -0.154237 1.652258 0.115791 -0.009847 -220914.000000 0 1 0
-21.086814 2.179271 -1.082154 21.226729 -0.102982 1.621799 0.069989 -0.009661 715817.000000 0 1 0
-20.613714 1.111471 -1.956054 20.736121 -0.053867 1.665268 0.061176 -0.007123 212447.000000 0 1 0
-19.728214 0.142771 -1.076554 19.758082 -0.007237 1.625310 0.055214 -0.009216 158538.000000 0 1 0
-20.547414 -0.726429 -0.268354 20.562003 0.035339 1.583848 0.073694 -0.017754 608970.000000 0 1 0
-19.985114 -1.395129 0.804046 20.049880 0.069695 1.530683 0.076223 -0.017886 -413614.000000 0 1 0
-18.911714 -2.461229 0.451146 19.076533 0.129416 1.547145 0.032900 -0.016247 -46534.600000 0 1 0
-18.244514 -3.130229 1.484246 18.570504 0.169917 1.490786 0.039752 -0.015187 515307.000000 0 1 0
-17.453814 -4.231029 1.022646 17.988414 0.237825 1.513915 0.021262 -0.010425 199730.000000 0 1 0
-18.256814 -5.545329 0.632346 19.090883 0.294885 1.537667 0.016849 -0.013293 207963.000000 0 1 0
-18.968014 -6.038229 1.775046 19.984908 0.308194 1.481860 0.039348 -0.015811 411636.000000 0 1 0
-19.985314 -6.937629 1.414846 21.202483 0.334121 1.504017 0.066875 -0.017735 -42249.500000 0 1 0
-20.801314 -7.337029 2.700646 22.222065 0.339095 1.448965 0.099041 -0.017204 174435.000000 0 1 0
-20.044514 -8.082729 3.672046 21.922522 0.383295 1.402502 0.085983 -0.012335 517624.000000 0 1 0
-20.835214 -8.581429 4.708746 23.019978 0.390698 1.364792 0.084420 -0.015945 74163.900000 0 1 0
-20.071714 -9.537129 5.727946 22.948636 0.443573 1.318531 0.083158 -0.001904 57673.200000 0 1 0
-19.609914 -10.686929 5.129146 22.914348 0.498978 1.345044 0.093568 0.000926 -33890.000000 0 1 0
-18.884814 -11.461029 6.024246 22.897226 0.545471 1.304563 0.117728 0.000058 -228786.000000 0 1 0
-18.327714 -12.785229 5.514346 23.016846 0.609107 1.328864 0.100816 0.003633 -602844.000000 0 1 0
-19.234814 -13.819829 5.265046 24.262862 0.623021 1.352056 0.120727 0.006011 -602680.000000 0 1 0
-18.753614 -14.991629 4.659346 24.457238 0.674375 1.379115 0.114850 0.007261 -240542.000000 0 1 0
-19.767814 -16.131029 4.666446 25.937469 0.684436 1.389900 0.132946 0.005078 -174810.000000 0 0 1
-19.134014 -17.302829 4.218946 26.139968 0.735184 1.408689 0.127845 -0.010155 -12013.400000 0 0 1
-19.535314 -18.452129 4.899246 27.315054 0.756892 1.390460 0.111521 -0.012524 131554.000000 0 0 1
-18.526814 -19.659529 4.855946 27.446678 0.815052 1.392937 0.113426 -0.025553 -201569.000000 0 0 1
-18.503914 -20.357229 3.669846 27.753908 0.833053 1.438180 0.114977 -0.030149 32585.400000 0 0 1
-17.669014 -21.486129 3.658646 28.057682 0.882578 1.440027 0.105436 -0.028905 884538.000000 0 0 1
-16.122814 -21.186429 3.472846 26.849033 0.920294 1.441086 0.118948 -0.028620 674587.000000 0 0 1
-15.513814 -22.411229 3.820346 27.523384 0.965301 1.431543 0.106820 -0.029371 -1435880.000000 0 0 1
-14.137914 -22.292929 3.819946 26.672969 1.005617 1.427088 0.105888 -0.025556 -1193290.000000 0 0 1
-13.484214 -23.642029 4.025946 27.513230 1.052464 1.423941 0.121118 -0.032186 -469612.000000 0 0 1
-13.499214 -24.450629 2.932546 28.083124 1.066342 1.466182 0.110592 -0.038365 61984.200000 0 0 1
-13.000314 -25.728299 3.377946 29.023509 1.102924 1.454145 0.087805 -0.036202 30448.700000 0 0 1
18.791186 19.133471 -23.745254 35.819484 0.794423 2.295501 0.070149 -0.005461 -109281.000000 0 0 1
17.821586 19.295571 -24.773554 36.106190 0.825089 2.326953 0.070557 -0.008487 285961.000000 0 0 1
18.371686 19.147371 -26.105084 37.223864 0.806070 2.348015 0.065844 -0.007596 211832.000000 0 0 1
17.351886 19.553071 -27.184274 37.714656 0.844972 2.375735 0.061769 -0.006361 40821.600000 0 0 1
17.363186 20.883771 -27.556264 38.690565 0.877188 2.363455 0.055680 0.003152 -200161.000000 0 0 1
16.537686 21.139071 -28.630694 39.243751 0.906924 2.388476 0.056506 -0.000074 -404712.000000 0 0 1
16.404686 22.644871 -28.987784 40.276488 0.943860 2.374195 0.068356 -0.002340 -382464.000000 0 0 1
15.644686 23.306571 -28.026454 39.666542 0.979623 2.355409 0.068136 -0.001087 69222.000000 0 0 1
15.380886 24.631071 -28.490534 40.681345 1.012592 2.346662 0.067773 0.003022 -369076.000000 0 0 1
14.506986 25.399971 -27.520194 40.161826 1.051866 2.325719 0.077182 -0.004134 -498820.000000 0 0 1
13.205186 24.882471 -27.405114 39.300821 1.082890 2.342443 0.091447 -0.018933 -189414.000000 0 0 1
12.480186 25.714171 -26.503604 38.979670 1.118943 2.318469 0.076698 -0.011417 -878391.000000 0 0 1
11.176386 25.073271 -25.985534 37.799848 1.151483 2.328769 0.102704 -0.013700 617220.000000 0 0 1
10.328486 26.014971 -25.288794 37.722400 1.192861 2.305533 0.090473 -0.025363 396031.000000 0 0 1
9.819686 27.150971 -25.924244 38.802936 1.223763 2.302449 0.090435 -0.030637 -562903.000000 0 0 1
9.123486 28.166171 -24.982954 38.739117 1.257545 2.271692 0.090998 -0.031580 365012.000000 0 0 1
10.116786 28.903871 -24.288554 39.086020 1.234108 2.241341 0.088212 -0.024208 648830.000000 0 0 1
9.505186 29.692071 -23.224654 38.876113 1.260980 2.211053 0.093292 -0.032148 146329.000000 0 0 1
10.502786 30.032171 -22.101854 38.739279 1.234373 2.177945 0.073473 -0.025516 336744.000000 0 0 1
11.619386 30.798171 -22.572454 39.913070 1.210032 2.171885 0.067951 -0.034417 346522.000000 0 0 1
12.441786 31.119971 -21.467654 39.800889 1.190462 2.140493 0.052126 -0.020454 214199.000000 0 0 1
13.670886 31.978671 -21.885854 41.091594 1.166810 2.132479 0.051755 -0.004766 -418381.000000 0 0 1
14.704886 31.288471 -22.446654 41.219587 1.131454 2.146664 0.052747 -0.010226 -653314.000000 0 0 1
15.779686 32.157271 -22.825354 42.474526 1.114614 2.138135 0.043559 -0.004961 307908.000000 0 0 1
17.055486 31.380471 -23.211454 42.595717 1.072952 2.147096 0.023487 -0.002700 118232.000000 0 0 1
17.778386 30.766971 -22.137754 41.865949 1.046830 2.127955 0.023099 -0.001517 70173.700000 0 0 1
18.995886 30.313371 -22.668854 42.351164 1.011011 2.135611 0.029955 -0.003117 105415.000000 0 0 1
20.023386 29.592071 -21.736254 41.822140 0.975916 2.117332 0.031723 0.004901 731582.000000 0 0 1
20.674786 30.401771 -20.697054 42.191024 0.973584 2.083524 0.035289 0.004193 723847.000000 0 0 1
21.643686 29.606971 -20.019054 41.782585 0.939545 2.070453 0.053331 -0.004537 160832.000000 0 0 1
22.306986 30.266371 -18.791154 42.032872 0.935653 2.034271 0.062175 -0.011756 265202.000000 0 0 1
23.349286 31.185371 -19.135454 43.403711 0.928111 2.027366 0.068156 -0.013697 185986.000000 0 0 1
24.194286 31.321771 -18.028254 43.490628 0.913086 1.998225 0.078290 -0.013023 -407118.000000 0 0 1
25.342186 32.326871 -18.257054 44.950784 0.905928 1.989040 0.069847 -0.018731 305922.000000 0 0 1
26.514886 31.627171 -18.668054 45.296946 0.873100 1.995583 0.073684 -0.012809 518896.000000 0 0 1
27.671686 32.499071 -18.629654 46.572264 0.865455 1.982331 0.072154 -0.016079 393284.000000 0 0 1
28.865586 31.778771 -19.232454 47.042530 0.833398 1.991969 0.082765 -0.019760 -323311.000000 0 0 1
29.397886 30.767871 -18.374054 46.351952 0.808164 1.978392 0.070024 -0.009603 387940.000000 0 0 1
30.611686 30.180771 -18.841154 46.935523 0.778310 1.983870 0.066596 -0.013319 446663.000000 0 0 1
30.951486 28.872371 -18.095554 46.033220 0.750658 1.974794 0.052075 -0.015428 -157062.000000 0 0 1
31.330086 29.121471 -16.762754 45.941531 0.748879 1.944291 0.048729 -0.010583 -15571.400000 0 0 1
31.782286 27.982771 -16.067654 45.291486 0.721909 1.933455 0.055288 -0.010331 -275821.000000 0 0 1
32.309386 28.364271 -14.651554 45.421320 0.720468 1.899240 0.059362 -0.013308 377907.000000 0 0 1
33.607286 28.952771 -14.677454 46.724086 0.711134 1.890337 0.045174 -0.006780 267613.000000 0 0 1
33.563186 30.336371 -14.637854 47.550495 0.734943 1.883716 0.045504 -0.013382 239386.000000 0 0 1
34.987486 30.939671 -14.696154 48.962887 0.724077 1.875645 0.045374 -0.014319 474152.000000 0 0 1
35.755486 31.050971 -13.528754 49.250835 0.715094 1.849065 0.043681 -0.014533 589720.000000 0 0 1
37.066986 31.580871 -13.805954 50.615385 0.705651 1.847059 0.053865 -0.022324 870149.000000 0 0 1
-36.346457 31.808471 -12.599954 49.915956 -0.718913 1.825980 0.047302 -0.017392 -236129.000000 0 0 1
-36.792757 32.956971 -11.859854 50.798869 -0.730460 1.806438 0.046496 -0.021846 392060.000000 0 0 1
-35.926757 33.246271 -10.777154 50.121786 -0.746667 1.787508 0.045696 -0.016312 52327.300000 0 0 1
-36.453257 -33.550438 -9.963754 50.534624 0.743955 1.769264 0.030075 -0.009400 916135.000000 0 0 1
-35.499057 -32.825638 -9.105954 49.199837 0.746290 1.756951 0.030493 -0.011127 587033.000000 0 0 1
-35.210057 -33.624638 -7.938154 49.329289 0.762370 1.732421 0.035572 -0.010879 -123367.000000 0 0 1
-35.014157 -32.818338 -6.622154 48.444684 0.753038 1.707921 0.034501 -0.009024 -225252.000000 0 0 1
-36.210857 -32.187538 -6.209154 48.844830 0.726644 1.698261 0.025918 -0.004955 -346348.000000 0 0 1
-36.061257 -30.996338 -5.496954 47.868609 0.710010 1.685884 0.052137 -0.009487 642871.000000 0 0 1
36.905386 -30.309738 -5.059154 48.023773 -0.687584 1.676339 0.043205 -0.002688 1037870.000000 0 0 1
36.144786 -31.240038 -4.269054 47.964678 -0.712739 1.659918 0.022475 0.000556 988601.000000 0 0 1
34.877686 -30.802638 -3.724854 46.681153 -0.723434 1.650675 0.023722 -0.001069 562352.000000 0 0 1
34.897986 -29.890438 -2.464154 46.014995 -0.708261 1.624373 0.019374 -0.001209 -323505.000000 0 0 1
35.474686 -28.588938 -2.608754 45.635363 -0.678326 1.627993 0.046237 -0.007601 240312.000000 0 0 1
34.735786 -27.618238 -1.922854 44.418907 -0.671743 1.614099 0.038015 -0.002098 -283167.000000 0 0 1
35.175386 -26.130038 -2.211254 43.874552 -0.638909 1.621217 0.058130 -0.015049 -124053.000000 0 0 1
34.873486 -25.676338 -3.559754 43.452344 -0.634657 1.652811 0.051273 -0.013386 438841.000000 0 0 1
34.810886 -24.243138 -3.602754 42.573552 -0.608322 1.655522 0.056807 -0.020568 -380685.000000 0 0 1
34.383886 -23.751538 -4.994054 42.087145 -0.604508 1.689736 0.064821 -0.025291 -396349.000000 0 0 1
35.395386 -23.920838 -5.959954 43.134219 -0.594311 1.709412 0.077965 -0.029170 181061.000000 0 0 1
34.943186 -23.505638 -7.231154 42.729742 -0.592155 1.740845 0.059169 -0.030156 335971.000000 0 0 1
36.055586 -23.383038 -8.337454 43.775391 -0.575339 1.762427 0.057603 -0.033741 544601.000000 0 0 1
36.708686 -24.547438 -8.856954 45.039427 -0.589415 1.768735 0.061615 -0.014024 27984.100000 0 0 1
-36.421557 -24.182738 -9.514554 44.742166 0.586132 1.785086 0.061324 -0.016775 271613.000000 0 0 1
-35.601757 -25.368038 -10.084954 44.863446 0.619099 1.797526 0.063064 -0.021477 -223085.000000 0 0 1
-34.986657 -26.213638 -9.160454 44.666933 0.643019 1.777345 0.058249 -0.015267 252998.000000 0 0 1
-35.848557 -27.198138 -8.533354 45.800392 0.649043 1.758208 0.047858 -0.008143 -9444.380000 0 0 1
-35.102357 -28.445238 -8.113454 45.903542 0.681021 1.748480 0.039191 -0.005013 -145113.000000 0 0 1
-34.490757 -29.113938 -9.203254 46.064451 0.701064 1.771941 0.035734 -0.007543 220870.000000 0 0 1
-33.663257 -30.179838 -8.805454 46.060542 0.730890 1.763152 0.041810 -0.018420 -119805.000000 0 0 1
-33.126657 -31.069738 -9.968454 46.498109 0.753368 1.786858 0.039686 -0.012428 30655.800000 0 0 1
-32.096857 -30.425638 -10.721754 45.506963 0.758675 1.808639 0.024848 0.006337 462076.000000 0 0 1
-31.857657 -31.195238 -11.863054 46.138761 0.774893 1.830834 0.020731 0.009012 -241687.000000 0 0 1
-32.033657 -30.420838 -13.174354 46.099308 0.759580 1.860619 -0.001395 0.014213 -182802.000000 0 0 1
-30.933457 -29.625038 -13.550554 44.923704 0.763796 1.877203 0.013521 0.018321 241572.000000 0 0 1
-31.336157 -28.857238 -14.718654 45.070320 0.744239 1.903470 0.001965 0.022302 -70854.300000 0 0 1
-30.356157 -27.757438 -15.096654 43.816442 0.740710 1.922548 0.020208 0.009948 44455.800000 0 0 1
-29.123157 -28.311838 -15.522954 43.481957 0.771273 1.935848 0.039884 0.007907 -200728.000000 0 0 1
-28.166757 -27.356038 -15.937454 42.375954 0.770798 1.956376 0.061119 0.013915 -72117.100000 0 0 1
-26.885957 -28.131738 -16.335154 42.202922 0.808038 1.968240 0.084087 -0.001409 -263718.000000 0 0 1
-26.983257 -28.862638 -17.535954 43.227974 0.819038 1.988500 0.073454 -0.006750 -21286.700000 0 0 1
-27.205857 -28.102238 -18.737654 43.370429 0.801604 2.017547 0.053924 -0.003056 191230.000000 0 0 1
-25.932457 -27.425938 -19.322654 42.403295 0.813380 2.043941 0.067296 -0.006511 466642.000000 0 0 1
-25.452657 -26.301338 -18.597154 41.054260 0.801795 2.040912 0.079637 -0.005665 1207270.000000 0 0 1
-24.003257 -26.194638 -18.627454 40.116050 0.829025 2.053685 0.096774 -0.020719 1625200.000000 0 0 1
-23.568057 -24.990338 -17.734254 38.658429 0.814680 2.047376 0.096118 -0.016481 -34193.200000 0 0 1
-23.867757 -25.067738 -16.365654 38.287021 0.809915 2.012463 0.105933 -0.014053 291058.000000 0 0 1
-23.115457 -24.124138 -15.593954 36.870989 0.806747 2.007476 0.106918 -0.012799 238532.000000 0 0 1
-23.603357 -24.161038 -14.115154 36.607538 0.797073 1.966633 0.096898 -0.002411 230646.000000 0 0 1
-24.978657 -23.851738 -13.952554 37.249329 0.762324 1.954731 0.062148 0.014392 225925.000000 0 0 1
-25.220357 -23.944638 -12.557154 36.974237 0.759456 1.917308 0.059091 0.016563 -549655.000000 0 0 1
-26.689657 -23.925338 -12.169754 37.853171 0.730838 1.898108 0.049032 0.024157 -455172.000000 0 0 1
-27.437457 -25.108038 -12.458654 39.223025 0.741096 1.894032 0.058358 0.021533 496915.000000 0 0 1
-28.784957 -25.244038 -12.064454 40.142076 0.719954 1.876059 0.035458 0.021049 -351488.000000 0 0 1
-29.877357 -24.448738 -12.777154 40.665132 0.685802 1.890415 0.041973 0.012396 -892334.000000 0 0 1
-30.252457 -23.187938 -12.170554 40.012673 0.653966 1.879861 0.051685 0.018972 114531.000000 0 0 1
-30.844657 -23.226138 -10.888654 40.117442 0.645421 1.845664 0.059168 0.007846 -81822.900000 0 0 1
-32.342657 -23.686938 -10.855854 41.532735 0.632125 1.835249 0.041854 0.002619 960589.000000 0 0 1
-33.326257 -22.751538 -11.414154 41.935126 0.599015 1.846460 0.057854 -0.007737 882721.000000 0 0 1
-33.311757 -22.597838 -12.838054 42.251048 0.596064 1.879529 0.055638 0.001036 -878178.000000 0 0 1
-34.682857 -22.099238 -13.325754 43.230228 0.567310 1.884150 0.029721 -0.008149 677199.000000 0 0 1
-35.636657 -23.184838 -13.246454 44.530626 0.576790 1.872836 0.040199 -0.009284 853313.000000 0 0 1
-36.985957 -22.906338 -13.605554 45.582590 0.554508 1.873897 0.060618 -0.022281 711791.000000 0 0 1
36.301086 -23.998838 -13.256454 45.491171 -0.584143 1.866494 0.059315 -0.014645 -35973.100000 0 0 1
36.407786 -25.095138 -14.106854 46.414396 -0.603495 1.879614 0.044732 -0.004410 -166607.000000 0 0 1
35.803586 -26.196738 -13.509954 46.375475 -0.631672 1.866399 0.034539 -0.011411 -69483.000000 0 0 1
35.674886 -27.337038 -14.565654 47.245840 -0.653841 1.884196 0.029462 -0.012498 607129.000000 0 0 1
34.709386 -27.066138 -15.608254 46.700481 -0.662298 1.911574 0.039504 -0.023841 344383.000000 0 0 1
34.420986 -28.299238 -16.273954 47.439358 -0.688102 1.920956 0.030438 -0.012907 176889.000000 0 0 1
33.374286 -28.254338 -17.432954 47.075030 -0.702511 1.950153 0.029118 -0.015709 -523873.000000 0 0 1
32.074386 -28.163938 -16.959154 45.930236 -0.720573 1.948984 0.077108 -0.012961 -1034770.000000 0 0 1
31.262086 -27.758838 -18.027054 45.528516 -0.726112 1.977899 0.072330 -0.020092 -905444.000000 0 0 1
29.775086 -27.842638 -17.800954 44.481931 -0.751872 1.982514 0.073647 -0.022927 -761039.000000 0 0 1
29.213586 -26.946438 -16.861854 43.172517 -0.745051 1.972046 0.063891 -0.021073 -80812.700000 0 0 1
27.801286 -26.932938 -16.922854 42.245445 -0.769535 1.982951 0.091217 -0.026418 288932.000000 0 0 1
27.246186 -25.887438 -15.890554 40.804703 -0.759831 1.970808 0.081322 -0.029864 23652.700000 0 0 1
27.299186 -24.571438 -16.414454 40.229783 -0.732859 1.991078 0.076220 -0.035020 -53663.600000 0 0 1
27.343586 -23.614538 -15.358054 39.257966 -0.712350 1.972741 0.088559 -0.035877 -170958.000000 0 0 1
26.832786 -22.204338 -15.647854 38.182278 -0.691290 1.993053 0.095096 -0.041599 -114097.000000 0 0 1
25.446586 -22.120438 -15.905854 37.280541 -0.715586 2.011585 0.101236 -0.042458 -18796.800000 0 0 1
25.055186 -20.749238 -15.759754 36.147795 -0.691666 2.021924 0.097088 -0.046529 -705651.000000 0 0 1
23.577486 -20.423438 -15.877654 35.001637 -0.713839 2.041626 0.086203 -0.044313 -965332.000000 0 0 1
22.837586 -20.767138 -14.725854 34.200587 -0.737952 2.015924 0.083513 -0.045548 441082.000000 0 0 1
21.489386 -20.297838 -14.836754 33.074540 -0.756891 2.035978 0.074730 -0.039697 567907.000000 0 0 1
21.264786 -18.910338 -14.232954 31.817746 -0.726861 2.034571 0.064058 -0.035233 -453677.000000 0 0 1
20.976186 -19.019338 -12.852454 31.095356 -0.736510 1.996898 0.071985 -0.043306 60468.700000 0 0 1
20.947186 -17.790238 -12.208154 30.071850 -0.704082 1.988832 0.082813 -0.047689 -312312.000000 0 0 1
20.146186 -17.873238 -10.908954 29.057301 -0.725685 1.955656 0.090662 -0.039026 -268320.000000 0 0 1
20.717486 -18.566038 -9.818854 29.501218 -0.730686 1.910098 0.105388 -0.049909 -820747.000000 0 0 1
19.850486 -18.602838 -8.777854 28.585977 -0.752964 1.882908 0.095160 -0.045693 -664176.000000 0 0 1
20.264786 -19.489338 -7.561754 29.114875 -0.765895 1.833530 0.090355 -0.040553 31368.000000 0 0 1
21.238486 -18.820438 -6.772654 29.174492 -0.725109 1.805077 0.091053 -0.044482 -52966.300000 0 0 1
21.848486 -19.597138 -5.759754 29.909512 -0.731131 1.764580 0.096730 -0.030674 597077.000000 0 0 1
23.168586 -18.813938 -5.390654 30.328317 -0.682043 1.749489 0.096513 -0.026686 165675.000000 0 0 1
24.155086 -18.823838 -6.377654 31.280657 -0.661985 1.776121 0.086143 -0.038885 -356556.000000 0 0 1
25.038386 -17.771138 -6.074554 31.299111 -0.617243 1.766117 0.094764 -0.037106 -307226.000000 0 0 1
26.048886 -17.562138 -7.257854 32.243598 -0.593199 1.797836 0.092453 -0.046969 533823.000000 0 0 1
27.190086 -18.420638 -7.168354 33.615561 -0.595449 1.785692 0.092342 -0.055284 399420.000000 0 0 1
27.095186 -19.600338 -7.966654 34.377172 -0.626251 1.804665 0.090563 -0.060924 -815465.000000 0 0 1
28.232486 -20.587338 -7.852554 35.813047 -0.630061 1.791858 0.074656 -0.061585 -589811.000000 0 0 1
29.381086 -20.255738 -8.592254 36.706538 -0.603586 1.807068 0.067985 -0.056433 -865304.000000 0 0 1
30.224386 -21.326738 -8.581454 37.973472 -0.614484 1.798751 0.058847 -0.050389 -589073.000000 0 0 1
-30.671044 30.054271 4.218146 43.148174 -0.775242 1.472880 0.079246 -0.011386 315440.000000 0 0 1
-29.867624 30.817271 3.320146 43.044193 -0.801046 1.493586 0.068341 -0.002878 -1065480.000000 0 0 1
-28.708314 31.122171 3.988146 42.528369 -0.825721 1.476882 0.059806 0.005831 -879479.000000 0 0 1
-27.933054 32.282371 3.310946 42.817863 -0.857502 1.493393 0.061505 -0.000822 -542969.000000 0 0 1
-27.414404 31.929671 2.055746 42.134066 -0.861338 1.521986 0.056071 0.003160 -5504.760000 0 0 1
-26.942124 33.057871 1.334346 42.667099 -0.886976 1.539518 0.066761 -0.010068 -12784.100000 0 0 1
-25.694524 33.841171 1.837046 42.530085 -0.921390 1.527589 0.064680 -0.005733 -75240.900000 0 0 1
-24.475414 33.178071 1.533246 41.257498 -0.935215 1.533625 0.061551 -0.008607 -159524.000000 0 0 1
-23.420514 33.827571 2.225346 41.204092 -0.965223 1.516762 0.050048 -0.005709 258347.000000 0 0 1
-22.018514 33.334571 1.791746 39.990236 -0.987054 1.525977 0.058811 -0.009609 130243.000000 0 0 1
-21.612314 33.878571 0.567846 40.189204 -1.002950 1.556667 0.081066 -0.022034 146829.000000 0 0 1
-20.325514 33.411471 0.178646 39.108629 -1.024267 1.566228 0.090198 -0.021327 212089.000000 0 0 1
-19.750014 -33.790238 -0.992754 39.151358 1.041860 1.596156 0.097037 -0.021672 131303.000000 0 0 1
-19.400514 -32.433238 -0.844654 37.802227 1.031725 1.593142 0.103914 -0.030325 350408.000000 0 0 1
-18.580814 -32.021238 0.238246 37.022468 1.045014 1.564361 0.098161 -0.028145 -177271.000000 0 0 1
-18.471114 -30.457338 0.251746 35.621551 1.025641 1.563729 0.096993 -0.041057 -492866.000000 0 0 1
-17.763914 -29.974338 -0.838254 34.852837 1.035808 1.594850 0.095708 -0.034148 -49344.000000 0 0 1
-17.716414 -28.554738 -0.630654 33.610149 1.015485 1.589561 0.077135 -0.032569 83508.800000 0 0 1
-16.640314 -27.889938 -1.544854 32.513617 1.032849 1.618328 0.079969 -0.027628 -176786.000000 0 0 1
-16.943314 -27.845938 -2.913254 32.725513 1.024175 1.659935 0.075796 -0.022243 -1054990.000000 0 0 1
-15.945314 -27.433438 -3.751654 31.951862 1.044288 1.688484 0.079388 -0.014468 -775492.000000 0 0 1
-16.430714 -27.381038 -5.243554 32.360230 1.030321 1.733551 0.111956 -0.016405 390842.000000 0 0 1
-17.468914 -26.424438 -5.430454 32.138820 0.986665 1.740580 0.103136 -0.010211 28190.900000 0 0 1
-17.965414 -26.458738 -6.742454 32.684578 0.974306 1.778577 0.119232 -0.011711 -13452.400000 0 0 1
-18.676314 -25.199838 -7.122854 32.164757 0.932997 1.794096 0.092454 -0.001991 -84407.500000 0 0 1
-17.717114 -24.157238 -7.178154 30.805749 0.937999 1.805972 0.090771 -0.000138 281035.000000 0 0 1
-18.257214 -22.867138 -7.340554 30.168123 0.897029 1.816585 0.075674 -0.000971 172147.000000 0 0 1
-17.161814 -21.775238 -7.150454 28.632462 0.903332 1.823200 0.089439 0.000572 326764.000000 0 0 1
-16.143514 -21.957038 -8.085054 28.426971 0.936814 1.859192 0.125951 -0.012074 -380161.000000 0 0 1
-14.927414 -21.308238 -7.744254 27.144837 0.959704 1.860109 0.146669 -0.028476 370539.000000 0 0 1
-13.870614 -21.324938 -8.837854 26.930551 0.994111 1.905164 0.123249 -0.018042 -123129.000000 0 0 1
-14.262914 -20.447138 -9.864154 26.810776 0.961716 1.947565 0.137413 -0.012763 -112201.000000 0 0 1
-13.333914 -20.454838 -10.930254 26.751900 0.993107 1.991693 0.117089 -0.003109 779.527000 0 0 1
-13.750214 -19.606938 -12.108854 26.835141 0.959203 2.038941 0.130062 -0.004201 -430968.000000 0 0 1
-14.952714 -20.017638 -12.712154 28.033701 0.929233 2.041440 0.123708 0.009166 -487362.000000 0 0 1
-15.505114 -18.856938 -13.290954 27.796441 0.882635 2.069347 0.120008 -0.009873 -520236.000000 0 0 1
-16.716914 -19.173338 -14.143354 29.105096 0.853734 2.078236 0.131228 -0.010211 -1111190.000000 0 0 1
-17.873514 -19.407938 -13.421154 29.601655 0.826533 2.041364 0.131254 -0.013004 -675435.000000 0 0 1
-18.917114 -19.718238 -14.331554 30.855463 0.806131 2.053837 0.102681 -0.003978 679052.000000 0 0 1
-20.342614 -19.750338 -13.675654 31.478903 0.770627 2.020211 0.068420 0.002847 911456.000000 0 0 1
-21.391314 -20.073438 -14.594954 32.764980 0.753626 2.032466 0.078655 -0.001868 76132.900000 0 0 1
-22.593714 -19.413038 -14.203654 33.001299 0.709824 2.015729 0.060874 0.008272 -206181.000000 0 0 1
-23.720514 -20.100638 -14.986554 34.515145 0.702980 2.019949 0.071412 -0.001566 -743339.000000 0 0 1
-23.724014 -19.791538 -16.412254 34.984224 0.695274 2.059105 0.066617 -0.014677 -9979.140000 0 0 1
-24.360714 -20.741038 -17.227154 36.337445 0.705314 2.064725 0.090402 -0.028114 144012.000000 0 0 1
-24.885814 -20.102138 -18.611454 37.010619 0.679464 2.097710 0.086092 -0.026548 440884.000000 0 0 1
-23.740814 -19.611338 -19.279254 36.330710 0.690430 2.130175 0.075305 -0.026996 246935.000000 0 0 1
-23.872914 -19.637838 -20.678754 37.191015 0.688370 2.160380 0.082481 -0.029282 -58335.200000 0 0 1
-22.801014 -18.800438 -21.435354 36.507768 0.689529 2.198324 0.063699 -0.019335 55550.100000 0 0 1
-21.543114 -19.416638 -21.478554 36.089332 0.733528 2.208248 0.046839 -0.017213 -573821.000000 0 0 1
-20.819914 -18.966738 -22.591654 36.105246 0.738854 2.246846 0.043286 -0.017249 -155103.000000 0 0 1
-19.435714 -19.609138 -22.784254 35.796474 0.789840 2.260741 0.049943 -0.015384 -212605.000000 0 0 1
-19.466014 -20.967838 -23.183154 36.824375 0.822524 2.251783 0.029845 -0.008601 443812.000000 0 0 1
-18.131514 -21.471438 -23.287554 36.497735 0.869534 2.262766 0.034555 -0.005489 463828.000000 0 0 1
-18.004714 -22.766438 -24.028854 37.681113 0.901663 2.262291 0.035257 -0.007944 -326353.000000 0 0 1
-18.220914 -22.620138 -25.403094 38.587427 0.892700 2.289389 0.040969 -0.005503 62777.900000 0 0 1
-18.241314 -23.830738 -26.102164 39.774019 0.917478 2.286650 0.056363 -0.017060 -330900.000000 0 0 1
-18.104614 -23.825538 -27.610414 40.715701 0.921000 2.316007 0.065507 -0.003927 360788.000000 0 0 1
-16.781214 -23.601838 -28.105354 40.355506 0.952717 2.341227 0.037490 -0.003931 418997.000000 0 0 1
-16.765714 -23.786538 -29.458334 41.408719 0.956829 2.362290 0.047980 -0.007176 5509.010000 0 0 1
-15.345114 -23.695438 -30.057094 41.235606 0.996112 2.387526 0.032838 -0.011627 -189366.000000 0 0 1
-14.517614 -24.667438 -29.515034 41.114242 1.038851 2.371547 0.052414 -0.010901 21587.700000 0 0 1
-13.165014 -24.473938 -29.928614 40.841317 1.077275 2.393228 0.071112 -0.013065 366164.000000 0 0 1
-12.282114 -25.699238 -29.682624 41.138295 1.124970 2.376810 0.091463 -0.018146 -1015180.000000 0 0 1
-12.479214 -26.850938 -30.512704 42.517394 1.135737 2.371222 0.103451 -0.014922 183239.000000 0 0 1
-11.678314 -27.946238 -30.119744 42.715035 1.174968 2.353406 0.102117 -0.029047 160929.000000 0 0 1
-10.198314 -27.941338 -30.582254 42.661438 1.220830 2.370084 0.098625 -0.028661 139128.000000 0 0 1
-9.507114 -26.810838 -30.048024 41.377410 1.230030 2.383566 0.093946 -0.030571 -700017.000000 0 0 1
-8.373914 -26.480338 -30.778524 41.456583 1.264516 2.407484 0.085969 -0.024261 -588541.000000 0 0 1
-7.669214 -25.151938 -30.560404 40.315942 1.274836 2.431073 0.105322 -0.029384 -77675.100000 0 0 1
-8.491114 -23.993638 -30.727604 39.899616 1.230660 2.449830 0.106962 -0.026903 422767.000000 0 0 1
-9.175614 -23.592038 -29.537004 38.900010 1.199871 2.433042 0.098560 -0.022574 75005.300000 0 0 1
-9.729114 -22.149938 -29.433104 38.099646 1.156927 2.453612 0.099957 -0.035152 -159379.000000 0 0 1
-10.749514 -21.821338 -30.320944 38.872645 1.113074 2.465474 0.088475 -0.033285 -244342.000000 0 0 1
-10.922014 -20.407238 -30.171324 38.027024 1.079385 2.487200 0.089331 -0.030312 -51269.400000 0 0 1
-11.681114 -19.907138 -31.391834 38.963956 1.040154 2.507591 0.069121 -0.026948 -116859.000000 0 0 1
-12.083814 -18.559438 -31.311754 38.352278 0.993657 2.525989 0.058542 -0.025321 306328.000000 0 0 1
-12.878814 -18.340838 -32.492024 39.471279 0.958600 2.537788 0.042858 -0.017002 -666037.000000 0 0 1
-13.596514 -16.977538 -32.562314 39.158732 0.895535 2.552683 0.056706 -0.021328 -690067.000000 0 0 1
-13.003714 -15.716838 -32.721114 38.558876 0.879585 2.584132 0.069614 -0.021233 -511572.000000 0 0 1
-12.035514 -15.333438 -31.769674 37.273048 0.905319 2.591258 0.061276 -0.015678 85385.600000 0 0 1
-11.643314 -13.812638 -31.942984 36.697547 0.870411 2.626890 0.056259 -0.029214 130672.000000 0 0 1
-10.875014 -13.371738 -33.070454 37.292415 0.888008 2.661144 0.065439 -0.023929 34119.300000 0 0 1
-11.525714 -13.625638 33.578892 38.026860 0.868696 0.488515 0.064558 -0.017979 22541.600000 0 0 1
-12.175314 -12.298238 32.955414 37.222900 0.790421 0.483543 0.061410 -0.015085 207049.000000 0 0 1
-13.363314 -11.941538 33.620916 38.099140 0.729271 0.489733 0.053898 -0.010058 -321479.000000 0 0 1
-14.061614 -10.913238 32.900104 37.406478 0.659998 0.495924 0.062288 -0.023549 1039790.000000 0 0 1
-15.298714 -10.419238 33.731534 38.476325 0.597896 0.501873 0.079213 -0.021301 685106.000000 0 0 1
-14.807814 -9.714838 -33.039004 37.486334 0.580625 2.649532 0.077082 -0.020108 -163783.000000 0 0 1
-15.801114 -9.270238 -32.140164 36.994630 0.530570 2.623528 0.087994 -0.034996 194160.000000 0 0 1
-15.266814 -8.315838 -30.979614 35.524151 0.498765 2.630217 0.083933 -0.032044 -28702.900000 0 0 1
-14.813614 -6.985838 -31.261904 35.292375 0.440656 2.659006 0.087446 -0.031859 -99000.200000 0 0 1
-15.735114 -6.168538 -31.928464 36.125773 0.373611 2.654749 0.091614 -0.039443 -409398.000000 0 0 1
-16.395314 -5.153638 -31.023844 35.466114 0.304557 2.635708 0.096800 -0.051554 -147543.000000 0 0 1
-16.949614 -5.875538 -29.913184 34.879936 0.333685 2.601390 0.106067 -0.054797 -165496.000000 0 0 1
-17.182714 -5.079638 -28.744494 33.871734 0.287438 2.584182 0.103112 -0.059196 -689008.000000 0 0 1
-15.968214 -4.601838 -27.986244 32.548282 0.280585 2.605748 0.093477 -0.061897 -433686.000000 0 0 1
-15.362414 -3.459238 -28.621204 32.667161 0.221481 2.638604 0.090954 -0.057711 -209549.000000 0 0 1
-14.224414 -3.027638 -27.924144 31.484256 0.209718 2.661439 0.080129 -0.056796 -333141.000000 0 0 1
-13.771814 -1.742638 -28.624114 31.812569 0.125868 2.690047 0.066112 -0.042837 -79733.000000 0 0 1
-13.559714 -1.929638 -29.996964 32.975858 0.141358 2.713272 0.078087 -0.047019 152180.000000 0 0 1
-13.284214 -0.749638 -30.710464 33.468865 0.056371 2.732754 0.071027 -0.048486 -93363.500000 0 0 1
-13.597014 -1.009638 -32.201764 34.969298 0.074118 2.741072 0.068480 -0.043266 174053.000000 0 0 1
-14.997114 -1.214638 -32.371154 35.697064 0.080815 2.706497 0.071681 -0.042684 508700.000000 0 0 1
-15.169914 -1.683638 -33.698294 36.993729 0.110533 2.716303 0.059238 -0.031622 98141.900000 0 0 1
-16.626814 -1.776638 33.650760 37.576336 0.106450 0.461174 0.053229 -0.036711 261654.000000 0 0 1
-16.596714 -1.823638 32.276753 36.339584 0.109440 0.477388 0.058014 -0.029177 1091760.000000 0 0 1
-17.931314 -1.918638 31.735761 36.501668 0.106594 0.516742 0.058884 -0.026084 1013830.000000 0 0 1
-17.884314 -1.945638 30.233241 35.180720 0.108364 0.536761 0.058293 -0.019841 27804.400000 0 0 1
-17.385014 -0.710638 29.700961 34.422243 0.040854 0.529931 0.057537 -0.008208 70363.300000 0 0 1
-17.601314 -0.678638 28.305781 33.338927 0.038537 0.556648 0.063911 -0.013833 157284.000000 0 0 1
-16.875514 0.543362 27.612201 32.365288 -0.032187 0.548817 0.046671 -0.012485 214141.000000 0 0 1
-17.293814 1.847362 28.104401 33.050660 -0.106419 0.554159 0.048564 -0.012190 51453.300000 0 0 1
-18.589114 2.280362 27.749741 33.478401 -0.122062 0.593685 0.058849 -0.015945 -45898.200000 0 0 1
-18.621814 2.897362 26.341701 32.389071 -0.154352 0.621012 0.053943 -0.014907 -659887.000000 0 0 1
-18.264014 4.272362 26.412581 32.395242 -0.229790 0.617510 0.046901 -0.011446 -83760.000000 0 0 1
-18.878614 5.039362 25.411741 32.055481 -0.260853 0.655501 0.051650 -0.006522 -270061.000000 0 0 1
-18.677014 6.573362 25.552551 32.326039 -0.338410 0.659231 0.049396 -0.004234 127144.000000 0 0 1
-17.375714 7.093362 25.396081 31.578350 -0.387585 0.636427 0.028486 -0.003705 -253222.000000 0 0 1
-17.044814 7.241362 24.013161 30.324824 -0.401737 0.656940 0.026483 0.002816 -3473.790000 0 0 1
-15.779714 8.112362 23.828841 29.708980 -0.474864 0.640034 0.019460 -0.005646 619881.000000 0 0 1
-14.596614 7.583362 24.425911 29.448152 -0.479148 0.592665 0.020162 -0.007450 195070.000000 0 0 1
-13.456814 8.225362 23.904071 28.638210 -0.548644 0.583224 0.035186 -0.011530 -120069.000000 0 0 1
-12.173714 8.163362 24.733201 28.750148 -0.590702 0.534976 0.033096 -0.005444 -482348.000000 0 0 1
-11.074314 8.693362 24.050111 27.867953 -0.665529 0.529613 0.030760 -0.012118 152664.000000 0 0 1
-9.846514 8.829362 24.764021 28.074334 -0.730988 0.490521 0.030182 -0.011966 522272.000000 0 0 1
-9.738514 10.089362 25.676511 29.256061 -0.803091 0.499864 0.031727 -0.021170 104009.000000 0 0 1
-10.825314 10.279362 26.630421 30.529200 -0.759535 0.510923 0.008535 -0.018188 916788.000000 0 0 1
-10.879614 11.565362 27.254361 31.542413 -0.815941 0.527527 0.026548 -0.023903 -664876.000000 0 0 1
-11.543814 12.694362 26.463681 31.539386 -0.832831 0.575229 0.014500 -0.022062 -201378.000000 0 0 1
-12.924014 12.585362 26.202621 31.811929 -0.772123 0.602939 0.009169 -0.022714 24003.500000 0 0 1
-13.241614 11.799362 25.042851 30.687289 -0.727866 0.616225 0.012245 -0.015296 -759184.000000 0 0 1
-14.745314 11.646362 24.823461 31.133041 -0.668512 0.647930 -0.004781 -0.013346 -177439.000000 0 0 1
-15.315914 12.876362 24.262871 31.449401 -0.699081 0.689618 0.007143 -0.009501 333000.000000 0 0 1
-16.492514 12.716362 23.476591 31.382467 -0.656830 0.725632 0.021050 -0.002707 276016.000000 0 0 1
-16.313614 12.187362 22.029211 29.999199 -0.641621 0.746122 0.012977 0.001560 -158149.000000 0 0 1
-16.193914 10.780362 21.963211 29.340104 -0.587336 0.724889 0.020690 -0.001436 -94390.700000 0 0 1
-15.966414 10.415362 20.624911 28.085461 -0.578011 0.746069 0.032803 -0.012983 -335669.000000 0 0 1
-16.336514 8.962362 20.340811 27.585399 -0.501775 0.741619 0.025186 -0.004354 437905.000000 0 0 1
-17.747414 8.825362 20.317311 28.383989 -0.461466 0.773025 0.045638 -0.004492 -305449.000000 0 0 1
-18.102614 7.465362 20.158711 28.103557 -0.391143 0.770875 0.039431 0.003990 1088450.000000 0 0 1
-19.630314 7.407362 20.561011 29.376409 -0.360823 0.795517 0.068035 0.000380 996181.000000 0 0 1
-20.026814 7.670362 21.890711 30.644918 -0.365770 0.775124 0.055741 -0.010548 -750941.000000 0 0 1
-21.419614 7.640362 21.912211 31.580374 -0.342631 0.803967 0.053177 -0.014257 -556203.000000 0 0 1
-22.088514 8.270362 23.175821 33.066902 -0.358261 0.794170 0.074795 -0.018696 -597975.000000 0 0 1
-22.069414 9.635362 23.423361 33.593944 -0.411649 0.799243 0.067984 -0.010060 870095.000000 0 0 1
-20.827014 10.363362 23.207591 32.859642 -0.461720 0.786589 0.051948 -0.002711 1444760.000000 0 0 1
-19.684714 10.051362 24.238671 32.802912 -0.472106 0.739333 0.052830 -0.015209 -150725.000000 0 0 1
-19.992714 10.609362 25.489891 34.088147 -0.487875 0.726108 0.063483 -0.014929 196923.000000 0 0 1
-19.095114 10.248362 26.537611 34.262182 -0.492575 0.684800 0.068475 -0.015438 242473.000000 0 0 1
-32.332504 -14.247429 20.889711 41.045829 0.415054 1.036848 0.055703 -0.023055 -622979.000000 0 0 1
-31.487654 -15.321229 21.147311 40.907471 0.452853 1.027507 0.044326 -0.017670 -117559.000000 0 0 1
-31.808894 -16.521229 20.450411 41.267131 0.479039 1.052315 0.039209 -0.009675 -110073.000000 0 0 1
-31.310674 -16.517929 18.971211 40.163505 0.485443 1.078842 0.045122 -0.013672 -152000.000000 0 0 1
-31.962454 -15.613929 18.139211 39.930242 0.454412 1.099241 0.053243 -0.022923 -148278.000000 0 0 1
-31.306014 -15.473629 16.897211 38.794529 0.459053 1.120140 0.055887 -0.016649 -1159410.000000 0 0 1
-31.814494 -14.306529 16.137111 38.434947 0.422593 1.137511 0.059849 -0.018764 992955.000000 0 0 1
-33.117224 -14.477229 15.473311 39.316206 0.412118 1.166295 0.084341 -0.019173 676234.000000 0 0 1
-34.218201 -14.383029 16.267611 40.526436 0.397911 1.157743 0.083472 -0.022999 -1742740.000000 0 0 1
-34.615913 -12.942529 16.681711 40.546886 0.357797 1.146787 0.070808 -0.021634 -757639.000000 0 0 1
-35.752101 -13.102329 17.508111 41.909638 0.351278 1.139819 0.062325 -0.019816 84125.100000 0 0 1
-36.464784 -11.885529 17.671111 42.228124 0.315087 1.139039 0.051382 -0.011963 29167.600000 0 0 1
36.647359 -11.988729 18.611411 42.815221 -0.316164 1.121101 0.048855 0.003540 -40351.700000 0 0 1
37.032429 -12.308729 19.949811 43.828079 -0.320890 1.098218 0.039125 -0.003096 91382.700000 0 0 1
36.156929 -11.779129 20.926911 43.405149 -0.314935 1.067712 0.037012 -0.006794 -381646.000000 0 0 1
36.725459 -12.136429 22.328511 44.661109 -0.319166 1.047250 0.024750 -0.012281 377117.000000 0 0 1
-36.399134 -11.504229 22.792111 44.460371 0.306123 1.032541 0.025926 -0.007467 148505.000000 0 0 1
-35.273459 -12.277229 22.425511 43.564330 0.334944 1.030060 0.024501 -0.016924 -246345.000000 0 0 1
-33.969394 -11.436929 22.494411 42.316919 0.324763 1.010343 0.034861 -0.019450 64441.600000 0 0 1
-33.952974 -10.389329 21.551911 41.535858 0.296945 1.025262 0.056970 -0.021587 -54389.500000 0 0 1
-32.667884 -9.806329 21.461311 40.298172 0.291624 1.009171 0.069939 -0.027132 -53284.200000 0 0 1
-32.648714 -8.440829 20.708911 39.573288 0.252995 1.020071 0.084175 -0.017362 78550.900000 0 0 1
-32.950024 -8.429129 19.303611 39.107336 0.250445 1.054565 0.085020 -0.015070 1037550.000000 0 0 1
-34.330911 -8.635629 18.939511 40.148358 0.246428 1.079535 0.066079 -0.014478 731160.000000 0 0 1
-34.582283 -8.502329 17.393011 39.632572 0.241076 1.116471 0.072843 -0.012757 1371.290000 0 0 1
-35.967983 -8.569929 17.140711 40.754674 0.233904 1.136709 0.025714 -0.012972 -76499.900000 0 0 1
-36.252964 -8.585829 15.745311 40.446368 0.232547 1.170937 0.053922 -0.015758 85597.400000 0 0 1
36.550689 -8.511229 15.470911 40.592400 -0.228784 1.179780 0.066459 -0.022838 117529.000000 0 0 1
35.868289 -9.703429 15.783011 40.370709 -0.264205 1.169131 0.065092 -0.009844 -142614.000000 0 0 1
34.475949 -9.514729 15.602111 39.019828 -0.269279 1.159442 0.068773 -0.014822 564956.000000 0 0 1
33.632579 -10.868129 15.639311 38.650416 -0.312551 1.154217 0.072323 -0.017366 432498.000000 0 0 1
33.569949 -11.472729 16.892011 39.292557 -0.329312 1.126410 0.060555 -0.022526 -54992.800000 0 0 1
32.485269 -12.381329 16.933111 38.669371 -0.364140 1.117541 0.085590 -0.026613 238615.000000 0 0 1
32.224649 -12.857329 18.393611 39.269120 -0.379636 1.083319 0.081147 -0.024488 221275.000000 0 0 1
33.289649 -13.645629 18.942811 40.659980 -0.389017 1.086164 0.083538 -0.020803 218051.000000 0 0 1
33.133539 -13.942429 20.297311 41.282000 -0.398304 1.056785 0.083622 -0.019255 -534902.000000 0 0 1
34.013309 -15.071529 20.826911 42.635858 -0.417107 1.060445 0.073639 -0.009024 -166501.000000 0 0 1
34.053719 -15.147129 22.215411 43.389120 -0.418522 1.033280 0.066321 -0.010613 -141313.000000 0 0 1
34.797519 -16.265429 22.708211 44.621680 -0.437254 1.036884 0.056810 -0.006036 174657.000000 0 0 1
35.067479 -16.108529 24.235491 45.569417 -0.430609 1.010028 0.068345 -0.010430 296173.000000 0 0 1
36.207139 -15.300229 24.500361 46.317616 -0.399815 1.013417 0.057436 -0.006522 221146.000000 0 0 1
36.475219 -15.071429 25.839401 47.172706 -0.391831 0.991110 0.056159 -0.009353 -295543.000000 0 0 1
-36.702164 -14.050329 26.026061 47.136148 0.365609 0.985860 0.036198 -0.012970 -140375.000000 0 0 1
-35.424310 -14.581229 25.765771 46.166752 0.390480 0.978699 -0.001840 -0.010559 -776816.000000 0 0 1
-34.439804 -13.646029 26.004971 45.261162 0.377251 0.958737 0.009692 -0.013962 440310.000000 0 0 1
-33.002684 -14.288729 25.851921 44.290708 0.408591 0.947534 0.019161 -0.022577 421494.000000 0 0 1
-32.623624 -14.499729 24.520411 43.310433 0.418233 0.968963 0.018498 -0.020591 880644.000000 0 0 1
-31.308114 -15.032429 24.259221 42.363684 0.447638 0.961071 0.036010 -0.030071 741985.000000 0 0 1
-31.016804 -16.452929 24.583451 42.861254 0.487711 0.959953 0.034707 -0.022326 -1009310.000000 0 0 1
-31.045104 -16.696329 25.960491 43.777997 0.493435 0.936013 0.042711 -0.026316 66823.100000 0 0 1
-30.605304 -17.965629 26.217601 44.122682 0.530814 0.934528 0.034685 -0.029340 -424868.000000 0 0 1
-30.355244 -18.142929 27.717121 44.931565 0.538717 0.906031 0.043712 -0.032421 97031.800000 0 0 1
-29.261584 -17.359929 28.197771 44.189611 0.535454 0.878757 0.039143 -0.032396 371501.000000 0 0 1
-28.730124 -17.822829 29.461461 44.844743 0.555251 0.854009 0.060704 -0.037790 226030.000000 0 0 1
-27.372014 -17.227529 29.858451 44.017520 0.561746 0.825307 0.075676 -0.041201 -168269.000000 0 0 1
-27.590284 -16.066029 30.656831 44.262652 0.527309 0.805693 0.080083 -0.044567 88102.600000 0 0 1
-26.610914 -15.100429 30.312631 43.069935 0.516144 0.790063 0.067983 -0.037814 -190218.000000 0 0 1
-26.725004 -13.680129 30.954971 43.122871 0.473110 0.770113 0.075109 -0.034234 -280717.000000 0 0 1
-26.262344 -13.599129 32.287119 43.784759 0.477801 0.741575 0.079379 -0.032304 137168.000000 0 0 1
-25.811474 -12.306929 32.578155 43.347767 0.444917 0.720383 0.079280 -0.025293 -161782.000000 0 0 1
-24.976814 -12.082629 33.889441 43.798692 0.450566 0.686049 0.086728 -0.025796 904937.000000 0 0 1
-23.610614 -12.519029 33.830323 43.112388 0.487537 0.668583 0.059404 -0.022966 548361.000000 0 0 1
-23.391214 -13.897729 -33.840364 43.421953 0.536102 2.464404 0.063291 -0.029105 -514752.000000 0 0 1
-23.390714 -14.535829 -32.387354 42.513016 0.556032 2.436918 0.067348 -0.028458 303280.000000 0 0 1
-22.297014 -14.119329 -31.529404 41.117096 0.564502 2.444668 0.056431 -0.021507 588268.000000 0 0 1
-22.286014 -14.809529 -30.262974 40.395992 0.586516 2.417586 0.066769 -0.019151 504445.000000 0 0 1
-20.869414 -14.828229 -29.594664 39.131228 0.617754 2.428424 0.062605 -0.019072 462022.000000 0 0 1
-20.476314 -13.788629 -28.732274 37.880725 0.592646 2.431794 0.061785 -0.023665 -151680.000000 0 0 1
-21.051914 -13.664429 -27.471284 37.209826 0.575730 2.401314 0.072532 -0.012795 -267620.000000 0 0 1
-20.504414 -12.433429 -26.685274 35.876525 0.545096 2.409547 0.066447 -0.013896 720513.000000 0 0 1
-19.210514 -12.624129 -26.085364 34.768646 0.581383 2.419245 0.063380 -0.021920 644205.000000 0 0 1
-18.886614 -11.511429 -25.232874 33.554659 0.547377 2.421877 0.073023 -0.031301 -85696.400000 0 0 1
-17.451214 -11.632229 -24.710354 32.410727 0.587927 2.437830 0.080221 -0.031289 -558533.000000 0 0 1
-17.341314 -12.578829 -23.664254 31.920919 0.627549 2.405861 0.083917 -0.028337 286904.000000 0 0 1
-16.040914 -12.625629 -23.079254 30.811839 0.666819 2.417406 0.092176 -0.031305 885457.000000 0 0 1
-15.009014 -13.529629 -23.871354 31.275596 0.733607 2.439137 0.074003 -0.026564 -280478.000000 0 0 1
-14.293014 -12.810829 -24.846654 31.396876 0.730767 2.483849 0.078955 -0.036467 -135368.000000 0 0 1
-13.618614 -13.724829 -25.690824 32.153632 0.789283 2.496430 0.074970 -0.029575 40027.500000 0 0 1
-12.626214 -13.009629 -26.664864 32.244173 0.800353 2.544488 0.072245 -0.031360 -168081.000000 0 0 1
-13.251014 -12.328529 -27.677174 33.069744 0.749350 2.562452 0.079908 -0.036583 -197761.000000 0 0 1
-12.314814 -11.622829 -28.478814 33.132879 0.756498 2.605152 0.081485 -0.042544 405892.000000 0 0 1
-13.086614 -10.717429 -29.482224 33.990062 0.686196 2.620705 0.056727 -0.036499 149498.000000 0 0 1
-12.271114 -9.672729 -29.969944 33.798513 0.667536 2.661006 0.053443 -0.030650 -66.191300 0 0 1
-11.759714 -9.973229 -31.261614 34.857491 0.703381 2.683371 0.060082 -0.019527 223291.000000 0 0 1
-10.971614 -8.828429 -31.988624 34.951245 0.677577 2.726889 0.049754 -0.016441 -644175.000000 0 0 1
-9.694614 -8.651329 -31.515694 34.089148 0.728592 2.750539 0.038576 -0.015237 -1141340.000000 0 0 1
-9.081514 -7.553229 -32.188314 34.287210 0.693782 2.789882 0.034068 -0.016725 258836.000000 0 0 1
-7.584114 -7.304429 -31.831374 33.527747 0.766615 2.822129 0.047134 -0.013820 -139353.000000 0 0 1
-7.315514 -7.146029 -30.480914 32.150717 0.773679 2.817887 0.035282 -0.015653 -298113.000000 0 0 1
-7.555814 -5.871129 -29.935854 31.427947 0.660580 2.832215 0.038375 -0.019059 -683635.000000 0 0 1
-6.854614 -4.600629 -30.449574 31.548821 0.591116 2.876840 0.029384 -0.018007 -1005190.000000 0 0 1
-5.544114 -4.557929 -30.006934 30.853331 0.688084 2.906819 0.041901 -0.019292 -765839.000000 0 0 1
-4.830614 -3.445729 -30.524524 31.095891 0.619604 2.949598 0.045991 -0.023765 -433160.000000 0 0 1
-3.359014 -3.420529 -30.161114 30.539741 0.794472 2.983963 0.045374 -0.012821 -1041600.000000 0 0 1
-2.428914 -4.128229 -30.961274 31.329577 1.038974 2.988107 0.062258 -0.018103 982935.000000 0 0 1
-1.042714 -3.824929 -30.767524 31.021893 1.304653 3.013445 0.071559 -0.019201 823668.000000 0 0 1
-0.585814 -2.397529 -31.200304 31.297768 1.331151 3.062653 0.075118 -0.022800 752553.000000 0 0 1
0.809086 -2.068129 -30.850574 30.930401 -1.197885 3.069732 0.087083 -0.016579 1766670.000000 0 0 1
1.160586 -0.853929 -31.500684 31.533621 -0.634334 3.095883 0.044438 -0.021561 199347.000000 0 0 1
1.476086 0.246971 -30.524904 30.561571 0.165779 3.092603 0.049298 -0.026409 165799.000000 0 0 1
0.274986 0.708971 -29.940434 29.950089 1.200794 3.116200 0.081064 -0.027357 -78262.900000 0 0 1
0.483786 2.100071 -29.577714 29.656121 1.344380 3.068860 0.111095 -0.036965 -175435.000000 0 0 1
-0.625214 2.727171 -28.713654 28.849650 -1.345437 3.044457 0.105436 -0.034947 -232282.000000 0 0 1
-1.826914 3.022071 -29.358204 29.569827 -1.027057 3.021882 0.085837 -0.049812 -705893.000000 0 0 1
-2.554614 3.961771 -28.624774 29.010332 -0.998074 2.978376 0.131043 -0.047735 -353286.000000 0 0 1
-3.851514 4.285871 -29.369484 29.929408 -0.838725 2.947857 0.148923 -0.047299 -377669.000000 0 0 1
-3.509414 4.828571 -30.593264 31.170160 -0.942308 2.948899 0.135504 -0.044607 -337513.000000 0 0 1
-4.626314 5.245371 -31.289554 32.061704 -0.848026 2.921681 0.153746 -0.037146 -777242.000000 0 0 1
-4.124614 5.848871 -32.646004 33.421300 -0.956590 2.925778 0.146548 -0.032112 227684.000000 0 0 1
-3.924014 4.971071 -33.750934 34.339991 -0.902571 2.956104 0.169245 -0.031546 536334.000000 0 0 1
-2.822214 4.086571 -33.515604 33.881568 -0.966402 2.994482 0.147311 -0.035917 -125725.000000 0 0 1
-2.322914 3.166671 33.194763 33.426278 -0.937906 0.117764 0.127571 -0.032233 -723014.000000 0 0 1
-3.281014 2.341871 32.591583 32.839925 -0.619904 0.123059 0.115380 -0.038946 -286428.000000 0 0 1
-2.916514 1.717571 31.358981 31.541113 -0.532227 0.107517 0.114822 -0.028815 -101447.000000 0 0 1
-2.850614 2.707071 30.166941 30.422008 -0.759576 0.129584 0.117296 -0.023234 -314755.000000 0 0 1
-4.094514 3.272371 29.879221 30.335479 -0.674258 0.173656 0.098795 -0.023564 -647836.000000 0 0 1
-3.959014 4.527571 29.273931 29.885377 -0.852293 0.202632 0.100519 -0.024508 134504.000000 0 0 1
-5.206214 5.379371 28.895231 29.849233 -0.801754 0.253505 0.104106 -0.017589 332766.000000 0 0 1
-4.987814 6.223271 27.803801 28.925054 -0.895155 0.279346 0.095194 -0.009639 579465.000000 0 0 1
-6.237614 6.925371 27.636501 29.165815 -0.837600 0.325269 0.079396 -0.005901 947157.000000 0 0 1
-6.351014 7.660871 26.277141 28.098265 -0.878609 0.362009 0.080470 -0.011040 509607.000000 0 0 1
-5.393314 8.757671 26.197241 28.143917 -1.018812 0.374115 0.098451 -0.020027 648464.000000 0 0 1
-5.565514 9.613271 25.041921 27.395031 -1.046006 0.417502 0.096280 -0.016501 33094.400000 0 0 1
-4.654214 10.859171 25.126231 27.765280 -1.165882 0.439531 0.096266 -0.023792 -420558.000000 0 0 1
-4.857814 11.701571 24.028741 27.164416 -1.177305 0.485232 0.104550 -0.019684 215039.000000 0 0 1
-4.206114 12.935171 24.108731 27.681058 -1.256412 0.513670 0.096985 -0.019403 244731.000000 0 0 1
-2.642714 13.050771 23.992251 27.439655 -1.371003 0.506672 0.080938 -0.013724 556465.000000 0 0 1
-1.786014 12.650771 25.038911 28.110121 -1.430545 0.471818 0.095012 -0.017070 -127042.000000 0 0 1
-2.040414 13.246471 26.307421 29.524781 -1.417963 0.471190 0.109837 -0.022239 -914495.000000 0 0 1
-1.213714 12.733571 27.474461 30.306154 -1.475767 0.435726 0.113632 -0.024767 272849.000000 0 0 1
0.192286 12.909871 27.392541 30.282884 1.555903 0.440461 0.123732 -0.025522 -92069.900000 0 0 1
0.850586 12.476071 28.548381 31.167064 1.502724 0.412855 0.117471 -0.028519 131781.000000 0 0 1
2.387286 12.581571 28.452371 31.201482 1.383281 0.422927 0.122094 -0.029519 176457.000000 0 0 1
2.918086 13.883171 28.361421 31.711636 1.363623 0.463812 0.125422 -0.030282 -704411.000000 0 0 1
4.253386 13.943871 27.985051 31.554491 1.274726 0.480249 0.115656 -0.025704 -436479.000000 0 0 1
5.012286 15.219971 28.401841 32.610353 1.252659 0.513673 0.113749 -0.024698 -361572.000000 0 0 1
5.060086 15.477171 29.822491 33.978350 1.254812 0.499774 0.130477 -0.014629 777869.000000 0 0 1
4.004486 16.332071 30.306321 34.658989 1.330348 0.506569 0.103694 -0.011712 540044.000000 0 0 1
4.088986 17.787371 29.653951 34.820500 1.344841 0.551722 0.107253 -0.007833 -321927.000000 0 0 1
5.194586 18.517871 30.095811 35.716286 1.297308 0.568637 0.132082 -0.003423 -179662.000000 0 0 1
5.363586 19.688571 29.301191 35.706690 1.304829 0.608322 0.109011 -0.006445 462106.000000 0 0 1
6.519386 20.585071 29.837771 36.831238 1.264086 0.626437 0.113015 -0.009982 391953.000000 0 0 1
6.068786 21.410771 30.957661 38.126474 1.294596 0.623272 0.104419 -0.021707 214831.000000 0 0 1
7.031486 22.289071 31.507041 39.229302 1.265210 0.638231 0.100649 -0.022444 -66133.000000 0 0 1
7.224786 23.637871 30.720401 39.429551 1.274169 0.677534 0.094774 -0.012011 -106044.000000 0 0 1
7.894786 23.575871 29.503821 38.582701 1.247666 0.700236 0.068147 -0.006210 76361.300000 0 0 1
7.935586 24.867771 28.866181 38.918324 1.261900 0.735177 0.075953 -0.013550 104938.000000 0 0 1
8.486286 24.703371 27.446241 37.888913 1.239899 0.760651 0.077250 -0.016079 -100117.000000 0 0 1
7.512786 24.099471 26.636871 36.698084 1.268603 0.758544 0.058483 -0.013035 294742.000000 0 0 1
7.890086 24.243271 25.287081 35.908580 1.256153 0.789490 0.067262 -0.015063 -174318.000000 0 0 1
28.561529 2.168671 7.726346 29.667499 0.075784 1.307327 0.121801 0.010634 50765.900000 0 0 1
29.062329 3.329871 8.439246 30.445490 0.114079 1.289926 0.113408 -0.007507 121359.000000 0 0 1
28.474129 3.526671 9.661646 30.274755 0.123228 1.245983 0.111133 -0.001552 -369599.000000 0 0 1
29.163129 4.658471 10.490346 31.340657 0.158400 1.229488 0.107009 -0.009528 -38238.800000 0 0 1
29.055329 6.017771 10.068346 31.333645 0.204227 1.243666 0.101340 -0.010366 211094.000000 0 0 1
29.882759 6.396171 8.973646 31.849907 0.210860 1.285181 0.112685 -0.027136 -48786.300000 0 0 1
29.722169 7.914271 8.591146 31.935103 0.260237 1.298422 0.121355 -0.036706 -31583.600000 0 0 1
28.481629 8.113471 7.950646 30.663404 0.277516 1.308512 0.103666 -0.026686 90319.500000 0 0 1
28.483329 9.344971 7.269846 30.846056 0.317020 1.332877 0.124937 -0.055003 -24377.500000 0 0 1
27.491029 9.339871 6.072546 29.662530 0.327508 1.364618 0.106544 -0.038854 -231046.000000 0 0 1
26.216329 9.838571 6.315046 28.704933 0.359020 1.348983 0.096282 -0.033908 -717672.000000 0 0 1
25.366829 9.730171 5.207346 27.663490 0.366270 1.381428 0.118203 -0.031574 -725333.000000 0 0 1
23.979829 10.224071 5.578046 26.658552 0.403023 1.359998 0.074519 -0.024450 -749144.000000 0 0 1
23.902029 11.600571 5.812646 27.196821 0.451850 1.355410 0.079926 -0.021821 -670243.000000 0 0 1
22.573029 11.986871 5.866246 26.222882 0.488159 1.345180 0.083240 -0.018734 -746325.000000 0 0 1
22.342229 13.467671 6.312046 26.840180 0.542468 1.333401 0.081358 -0.015619 -163790.000000 0 0 1
22.339329 14.373071 5.314446 27.090111 0.571720 1.373339 0.089623 -0.015072 316434.000000 0 0 1
22.221129 15.676671 5.854946 27.817566 0.614398 1.358734 0.108089 -0.019607 -110171.000000 0 0 1
21.794829 16.747971 4.785046 27.899924 0.655197 1.398437 0.100078 -0.020258 -495683.000000 0 0 1
20.529829 16.617971 4.216646 26.747167 0.680480 1.412488 0.117489 -0.019245 -301106.000000 0 0 1
20.257829 17.541771 3.148546 26.981599 0.713667 1.453838 0.122539 -0.017133 73022.600000 0 0 1
18.768929 17.352671 2.757846 25.709795 0.746210 1.463321 0.103595 -0.020534 39057.400000 0 0 1
17.950629 18.037171 3.676046 25.711436 0.787803 1.427332 0.103908 -0.022998 -570303.000000 0 0 1
16.579929 17.964871 3.491946 24.694621 0.825468 1.428916 0.080511 -0.031810 -945056.000000 0 1 0
15.778829 19.070671 4.150046 25.097506 0.879578 1.404676 0.101934 -0.035995 -1320710.000000 0 0 1
14.440029 18.825171 4.331446 24.117689 0.916466 1.390220 0.104895 -0.039399 -1217050.000000 0 1 0
13.733229 20.034571 4.379246 24.681236 0.969884 1.392420 0.083451 -0.036480 -552553.000000 0 1 0
12.237429 19.863971 4.160746 23.699025 1.018650 1.394316 0.070320 -0.030517 -431984.000000 0 1 0
11.556629 19.307971 5.273846 23.112050 1.031450 1.340582 0.056812 -0.028546 -367017.000000 0 1 0
10.173229 19.238971 5.068346 22.345485 1.084389 1.341988 0.049227 -0.016607 -286039.000000 0 1 0
9.390829 18.743471 6.286346 21.886606 1.106334 1.279469 0.038290 -0.014702 -581726.000000 0 1 0
9.257229 19.638871 7.393746 22.935758 1.130312 1.242567 0.046766 -0.015638 65924.900000 0 1 0
8.612429 19.068971 8.526246 22.594168 1.146574 1.183847 0.040315 -0.011479 -1973.630000 0 1 0
7.574629 19.985571 9.255546 23.290839 1.208519 1.162125 0.040356 -0.010497 1425980.000000 0 1 0
6.286929 20.073671 8.587746 22.720632 1.267280 1.183192 0.032252 -0.020009 797248.000000 0 1 0
6.166529 21.141771 7.701746 23.330612 1.286994 1.234373 0.030002 -0.018630 -608128.000000 0 1 0
4.858129 21.153271 6.903846 22.775543 1.345048 1.262826 0.007257 -0.005106 439712.000000 0 1 0
3.614529 21.533671 7.486546 23.082724 1.404492 1.240487 -0.001718 0.002654 538261.000000 0 1 0
3.569229 22.948171 7.896446 24.529814 1.416498 1.243048 0.021484 -0.008992 -380173.000000 0 1 0
3.893329 24.038771 6.838746 25.294050 1.410230 1.297019 0.026892 -0.009969 529366.000000 0 0 1
2.725729 24.125271 6.010546 25.011696 1.458291 1.328112 0.020493 -0.005800 815241.000000 0 0 1
2.862829 25.128571 5.061946 25.792715 1.457358 1.373259 0.027473 0.002462 423268.000000 0 0 1
1.477529 25.389571 4.389146 25.808487 1.512668 1.399900 0.031835 -0.004421 405845.000000 0 0 1
0.439729 25.855171 5.230046 26.382506 1.553791 1.371235 0.046764 -0.011491 41142.800000 0 0 1
-0.713571 25.989171 4.393746 26.367616 -1.543347 1.403381 0.059301 -0.014725 448962.000000 0 0 1
-1.892771 26.675071 5.177046 27.238645 -1.499958 1.379570 0.081099 -0.016754 211173.000000 0 0 1
-2.743571 27.199471 4.173646 27.654253 -1.470268 1.419295 0.117395 -0.021412 -478479.000000 0 0 1
-3.856871 27.794571 4.799046 28.468306 -1.432913 1.401412 0.114088 -0.029730 -786879.000000 0 0 1
-4.842471 28.318771 3.789446 28.978651 -1.401436 1.439654 0.110513 -0.034726 -671001.000000 0 0 1
-4.535471 29.515871 3.151446 30.028133 -1.418327 1.465653 0.131822 -0.037037 -83316.800000 0 0 1
-5.432071 29.755371 2.060946 30.317272 -1.390227 1.502765 0.144197 -0.043669 -155636.000000 0 0 1
-4.861571 30.617271 0.893546 31.013716 -1.413326 1.541981 0.142029 -0.037251 -190692.000000 0 0 1
-4.568771 31.982571 1.105846 32.326172 -1.428904 1.536581 0.141686 -0.035231 294551.000000 0 0 1
-3.478871 32.107571 2.016346 32.358373 -1.462867 1.508443 0.135883 -0.039828 121393.000000 0 0 1
-2.505771 33.295871 1.770346 33.436926 -1.495680 1.517826 0.134064 -0.044988 -44081.200000 0 0 1
-1.595371 33.286371 0.681546 33.331550 -1.522904 1.550347 0.120390 -0.038337 543732.000000 0 0 1
-0.636271 -33.725638 0.635046 33.737617 1.551932 1.551972 0.106876 -0.037316 579603.000000 0 0 1
0.596529 -33.942238 1.561846 33.983389 -1.553223 1.524821 0.077623 -0.028725 -511149.000000 0 0 1
0.429829 -33.873538 2.957646 34.005132 -1.558108 1.483710 0.084127 -0.030854 560735.000000 0 0 1
1.709329 -33.945438 3.580246 34.176494 -1.520484 1.465846 0.055544 -0.025381 645510.000000 0 0 1
1.415729 -33.803738 5.110246 34.217125 -1.528940 1.420888 0.061116 -0.029079 164930.000000 0 0 1
0.538629 33.296971 5.670146 33.780600 1.554621 1.402146 0.080156 -0.038032 -57863.800000 0 0 1
0.016729 33.729671 6.911746 34.430556 1.570300 1.368678 0.088549 -0.035993 -178150.000000 0 0 1
0.876429 33.668871 8.184346 34.660417 1.544771 1.332416 0.075958 -0.026684 -383262.000000 0 0 1
1.229229 32.389671 8.568346 33.526383 1.532863 1.312359 0.068314 -0.033341 184667.000000 0 0 1
2.252929 32.320871 9.543546 33.775637 1.501204 1.284338 0.080323 -0.030876 217976.000000 0 0 1
3.055229 30.988571 9.678746 32.608344 1.472522 1.269437 0.067747 -0.028571 113463.000000 0 0 1
2.291129 30.004371 10.280446 31.799357 1.494584 1.241591 0.084757 -0.029410 53959.800000 0 0 1
3.045829 28.798271 10.313646 30.740670 1.465424 1.228655 0.055030 -0.030776 -32080.300000 0 0 1
2.554729 27.728771 11.316946 30.058021 1.478923 1.184777 0.062043 -0.037076 -774957.000000 0 0 1
2.828129 28.112071 12.628446 30.947770 1.470532 1.150472 0.070822 -0.032403 -125579.000000 0 0 1
2.489029 27.124871 13.592946 30.442110 1.479291 1.107926 0.080876 -0.032868 -228269.000000 0 0 1
0.980229 26.874171 13.862546 30.254786 1.534338 1.094835 0.061360 -0.033858 -71227.300000 0 0 1
0.329029 27.918671 14.523146 31.471927 1.559012 1.091152 0.067180 -0.030095 -240795.000000 0 0 1
-0.123071 28.921471 13.633646 31.974098 -1.566541 1.130291 0.080579 -0.033269 -525880.000000 0 0 1
-0.834171 30.112671 14.381246 33.380968 -1.543102 1.125393 0.071263 -0.026188 -849346.000000 0 0 1
-2.071971 29.726771 14.812846 33.277536 -1.501208 1.109476 0.046961 -0.022253 -1072030.000000 0 0 1
-2.748571 30.861871 15.409646 34.604435 -1.481970 1.109278 0.046190 -0.013916 153007.000000 0 0 1
-4.079271 30.404471 16.050446 34.622090 -1.437426 1.088754 0.038132 -0.009048 457257.000000 0 0 1
-5.145871 30.141471 15.121846 34.112439 -1.401703 1.111526 0.041650 -0.018041 306952.000000 0 0 1
-6.272071 29.744571 15.865746 34.289944 -1.362976 1.089765 0.041081 -0.010502 -347734.000000 0 0 1
-7.426971 29.120471 15.058746 33.614395 -1.321077 1.106286 0.040405 -0.021110 -310210.000000 0 0 1
-8.601471 28.982371 15.802346 34.112714 -1.282294 1.089150 0.040993 -0.022607 -172989.000000 0 0 1
-9.586271 28.286171 15.006246 33.424414 -1.244041 1.105195 0.040007 -0.022244 1264840.000000 0 0 1
-10.838771 27.911371 15.906046 33.904659 -1.200392 1.082479 0.038066 -0.021655 495533.000000 0 0 1
-11.659371 28.960071 16.393246 35.261383 -1.188049 1.087267 0.044842 -0.028386 356676.000000 0 0 1
-11.309771 29.309571 17.711346 36.064576 -1.202527 1.057443 0.057175 -0.030452 164522.000000 0 0 1
-12.126071 30.548971 18.306846 37.622092 -1.192932 1.062605 0.070652 -0.026121 -372732.000000 0 0 1
-13.406671 30.208071 18.694146 37.970218 -1.153101 1.056024 0.081735 -0.026471 -854702.000000 0 0 1
-14.254871 31.284371 18.940546 39.251210 -1.143250 1.067236 0.091317 -0.028479 53605.400000 0 0 1
-15.356371 30.936971 19.959846 39.891224 -1.110052 1.046785 0.088678 -0.028290 -136287.000000 0 0 1
-14.842971 30.783971 21.244246 40.240336 -1.121518 1.014630 0.094925 -0.031169 152173.000000 0 0 1
-15.823471 30.612971 22.272046 41.031455 -1.093730 0.997024 0.091198 -0.026174 310404.000000 0 0 1
-15.211371 30.743371 23.729346 41.708782 -1.111329 0.965593 0.098230 -0.013897 -664159.000000 0 0 1
-14.295171 29.694171 23.887846 40.702886 -1.122128 0.943592 0.085395 -0.022023 46448.600000 0 0 1
-13.962571 29.279971 25.219046 41.088567 -1.125828 0.909966 0.100434 -0.021450 243828.000000 0 0 1
-13.298771 30.371671 26.112046 42.203491 -1.158077 0.903687 0.099916 -0.022446 20323.500000 0 0 1
-14.350771 31.178771 26.617946 43.434726 -1.139432 0.911164 0.108258 -0.019251 392887.000000 0 0 1
-13.808571 32.228071 27.348346 44.466361 -1.165995 0.908367 0.106163 -0.021082 -472759.000000 0 0 1
-14.730271 33.345371 27.819346 45.856414 -1.154825 0.918941 0.118030 -0.027181 -205523.000000 0 0 1
-15.605271 33.199571 28.944046 46.727870 -1.131399 0.902796 0.098723 -0.023394 419402.000000 0 0 1
-14.953671 33.107171 30.203146 47.243275 -1.146551 0.877194 0.118122 -0.026405 -329836.000000 0 0 1
-15.721371 32.293271 31.274746 47.624853 -1.117739 0.854376 0.110706 -0.018843 811188.000000 0 0 1
-16.925771 33.049171 31.605346 48.760920 -1.097485 0.865618 0.109970 -0.017022 640067.000000 0 0 1
-17.544771 32.526771 32.768946 49.392445 -1.076132 0.845389 0.096349 -0.006040 -1347720.000000 0 0 1
-18.996771 32.827571 32.874146 50.191993 -1.046198 0.856656 0.095929 -0.005302 -1340860.000000 0 0 1
-19.238571 -33.833138 33.157046 51.129185 1.053762 0.865190 0.117997 -0.007307 -496095.000000 0 0 1
-20.637271 -33.754438 33.128046 51.601613 1.022041 0.873697 0.105539 -0.000165 -270549.000000 0 0 1
-21.158471 -32.312538 33.342546 51.024567 0.991049 0.858649 0.114441 -0.001649 164213.000000 0 0 1
-20.737071 -31.633438 -33.316619 50.405334 0.990534 2.292912 0.122630 -0.004015 367479.000000 0 0 1
-21.667071 -31.920638 -32.277919 50.301622 0.974455 2.267493 0.097342 0.001933 366557.000000 0 0 1
-21.305571 -31.209738 -30.973319 48.860226 0.971804 2.257404 0.100048 -0.004135 112769.000000 0 0 1
-21.453171 -29.799038 -31.008919 48.060112 0.946820 2.272096 0.117223 -0.001671 -140316.000000 0 0 1
-20.711471 -29.143438 -30.029819 46.691488 0.952943 2.269406 0.121104 -0.006743 -10207.200000 0 0 1
-20.903671 -27.575838 -30.098719 45.862002 0.922168 2.286686 0.113746 -0.015438 19630.500000 0 0 1
-22.161271 -27.225238 -29.579119 45.904900 0.887579 2.270978 0.119331 -0.020150 -172819.000000 0 0 1
-22.242271 -25.786438 -29.594119 45.116194 0.859057 2.286241 0.112337 -0.018276 391448.000000 0 0 1
-23.515971 -25.327638 -28.831219 45.008103 0.822472 2.266048 0.105013 -0.023625 271782.000000 0 0 1
-23.448671 -25.590938 -27.446619 44.249895 0.829055 2.239876 0.099356 -0.027223 208053.000000 0 0 1
-22.704871 -24.635838 -26.696219 42.838345 0.826164 2.243605 0.095945 -0.036230 101815.000000 0 0 1
-22.534771 -25.173838 -25.247619 42.177960 0.840658 2.212545 0.094195 -0.031681 -264461.000000 0 0 1
-23.706271 -25.006038 -24.505719 42.282615 0.812074 2.188997 0.086402 -0.035172 -265948.000000 0 0 1
-23.613971 -25.482438 -23.161219 41.754238 0.823437 2.158803 0.086192 -0.025095 -631282.000000 0 0 1
-24.866371 -25.161838 -22.292019 41.813738 0.791304 2.133088 0.077557 -0.031595 1252950.000000 0 0 1
-26.148471 -25.734638 -22.604319 43.092568 0.777422 2.122986 0.080935 -0.026578 782354.000000 0 0 1
-26.135471 -27.159038 -22.755819 44.028440 0.804602 2.113956 0.069958 -0.015395 -1131190.000000 0 0 1
-27.554071 -27.698738 -23.039419 45.357048 0.788016 2.103607 0.046928 -0.012968 50965.800000 0 0 1
-28.409571 -27.626738 -21.948619 45.299915 0.771429 2.076608 0.044782 -0.008976 -649865.000000 0 0 1
-29.623771 -27.011338 -22.317319 45.882927 0.739303 2.078758 0.044404 -0.010228 28932.000000 0 0 1
-30.427071 -26.549338 -21.066619 45.546421 0.717444 2.051644 0.050335 -0.007518 -211827.000000 0 0 1
-30.970971 -27.553138 -20.304819 46.159096 0.727064 2.026270 0.044115 -0.005636 -253055.000000 0 0 1
-31.625171 -26.950038 -19.233719 45.786373 0.705753 2.004324 0.041110 -0.003103 -957952.000000 0 0 1
-32.346671 -27.973538 -18.317019 46.522459 0.713026 1.975476 0.028020 -0.003449 -672622.000000 0 0 1
-33.629071 -28.451438 -18.655019 47.837313 0.702189 1.971393 0.016631 -0.006490 426057.000000 0 0 1
-34.680771 -27.479538 -18.599019 47.997963 0.670063 1.968710 0.015888 -0.001252 -257747.000000 0 0 1
-35.075871 -26.868238 -17.252919 47.432923 0.653665 1.943069 0.022131 0.007998 -1828560.000000 0 0 1
-34.110571 -26.069538 -16.702419 46.066503 0.652569 1.941822 0.019622 0.010947 -721376.000000 0 0 1
-34.359871 -25.378038 -15.443219 45.421786 0.636162 1.917709 0.018480 0.010777 -272001.000000 0 0 1
-34.291871 -26.280138 -14.121619 45.453253 0.653894 1.886709 0.019564 0.009498 -410179.000000 0 0 1
-35.275271 -27.256038 -14.035019 46.735620 0.657851 1.875810 0.027082 0.011443 -327690.000000 0 0 1
-35.110071 -28.057938 -12.829619 46.739321 0.674218 1.848859 0.020179 0.007210 -548239.000000 0 0 1
-35.946071 -29.289338 -12.547519 48.035670 0.683708 1.835074 0.035086 -0.000205 -387784.000000 0 0 1
-35.693471 -30.223838 -13.579619 48.702262 0.702611 1.853371 0.018205 0.000341 302805.000000 0 0 1
-35.846871 -31.488338 -13.005519 49.453586 0.720759 1.836910 0.015478 -0.004445 -295751.000000 0 0 1
-35.453871 -32.672038 -13.894119 50.174552 0.744587 1.851379 0.015366 -0.000645 -301130.000000 0 0 1
-34.059871 -32.850038 -13.979819 49.342023 0.767319 1.858056 0.015066 -0.001825 -105511.000000 0 0 1
-33.718671 -33.877138 -14.850819 50.051535 0.787742 1.872043 0.055462 -0.019944 588810.000000 0 0 1
-32.209071 -33.893438 -15.265019 49.185468 0.810874 1.886364 0.050193 -0.013588 713111.000000 0 0 1
-31.774471 33.161571 -16.130619 48.677548 -0.806756 1.908559 0.064009 -0.018253 -752725.000000 0 0 1
-30.379271 33.111071 -16.064319 47.721122 -0.828399 1.914131 0.062183 -0.016726 -730874.000000 0 0 1
9.349286 19.999371 -9.711854 24.118542 1.133502 1.985230 0.038235 -0.021328 412992.000000 0 1 0
7.953186 19.685771 -9.701954 23.343321 1.186841 1.999421 0.042134 -0.025990 544810.000000 0 1 0
7.330186 19.754971 -10.971154 23.756193 1.215489 2.050846 0.048348 -0.027624 -73792.800000 0 1 0
7.624486 18.625471 -12.020954 23.442361 1.182249 2.109225 0.039655 -0.015459 -532927.000000 0 1 0
8.943786 18.494971 -12.488954 24.042238 1.120371 2.117014 0.074799 -0.014909 -259789.000000 0 1 0
9.006986 17.170371 -12.934454 23.307671 1.087690 2.159092 0.072957 -0.031161 1100050.000000 0 1 0
10.430886 16.727871 -13.507154 23.897034 1.013231 2.171500 0.103269 -0.025997 1193010.000000 0 1 0
10.379786 15.510271 -14.195454 23.448227 0.981028 2.221059 0.120626 -0.040376 -76522.900000 0 1 0
11.585986 15.189371 -14.847654 24.195142 0.919173 2.231487 0.147994 -0.046718 -340422.000000 0 1 0
11.410886 13.845871 -15.639854 23.801712 0.881510 2.287747 0.128398 -0.044155 -267437.000000 0 1 0
11.484986 12.709371 -14.790754 22.631823 0.835961 2.283046 0.132491 -0.040091 131017.000000 0 1 0
12.688486 12.291171 -14.178754 22.651879 0.769494 2.247135 0.157491 -0.041345 858655.000000 0 1 0
13.778286 11.609071 -15.134154 23.529860 0.700161 2.269453 0.176937 -0.042231 795028.000000 0 1 0
14.504586 12.492971 -15.974754 24.932912 0.711025 2.266218 0.152934 -0.038696 456151.000000 0 1 0
15.296286 11.802471 -16.943554 25.697445 0.657177 2.290747 0.148804 -0.040326 372016.000000 0 0 1
15.970386 12.709771 -18.033854 27.236215 0.672195 2.294451 0.112941 -0.035260 -14595.300000 0 0 1
16.929586 13.588971 -17.515854 27.894016 0.676370 2.249704 0.072012 -0.030902 259780.000000 0 0 1
17.872586 13.979971 -18.561554 29.315528 0.663794 2.256431 0.051186 -0.024292 355927.000000 0 0 1
18.934186 14.923971 -17.956754 30.061160 0.667506 2.210977 0.037794 -0.014762 -481618.000000 0 0 1
18.552786 16.270371 -17.549354 30.280533 0.719949 2.188984 0.032617 -0.016487 179186.000000 0 0 1
18.061486 17.093471 -18.619054 31.065627 0.757869 2.213480 0.032384 -0.005555 19454.800000 0 0 1
17.596986 18.410471 -17.992254 31.182055 0.807986 2.185855 0.027665 -0.004802 450189.000000 0 0 1
18.726386 19.241071 -17.726454 32.173335 0.798953 2.154319 0.040826 -0.003114 572655.000000 0 0 1
18.282686 20.386271 -17.021054 32.242409 0.839744 2.126933 0.024153 -0.001161 -315435.000000 0 0 1
19.147586 21.627371 -17.123454 33.579546 0.846140 2.105908 0.040020 -0.011081 808691.000000 0 0 1
20.370186 21.613371 -16.334154 33.895234 0.815001 2.073620 0.059423 -0.014097 728140.000000 0 0 1
20.641686 22.857971 -15.725854 34.581332 0.836304 2.042888 0.051408 -0.012815 770994.000000 0 0 1
22.047486 23.050671 -15.053354 35.270789 0.807639 2.011741 0.053325 -0.020662 -28552.100000 0 0 1
22.176986 22.428871 -13.777354 34.419303 0.791045 1.982619 0.063431 -0.016929 318317.000000 0 0 1
23.386986 22.753371 -13.097254 35.159708 0.771667 1.952506 0.066517 -0.018517 1070030.000000 0 0 1
24.748986 22.218271 -13.664854 35.956809 0.731568 1.960631 0.069012 -0.018561 36856.900000 0 0 1
25.230486 22.582271 -14.944054 37.011635 0.730067 1.986426 0.078782 -0.015091 112660.000000 0 0 1
26.110886 23.691271 -14.926054 38.286313 0.736852 1.971269 0.071509 -0.017766 -130521.000000 0 0 1
26.593786 24.102971 -16.320454 39.427654 0.736306 1.997568 0.072822 -0.016793 -526.979000 0 0 1
27.396286 23.191871 -17.062854 39.743683 0.702478 2.014539 0.084780 -0.021107 300288.000000 0 0 1
27.504786 23.656871 -18.399154 40.677877 0.710329 2.040154 0.075549 -0.012697 -825209.000000 0 0 1
27.892986 22.664171 -19.493154 40.886017 0.682341 2.067771 0.068693 -0.019180 916349.000000 0 0 1
29.326686 22.507371 -19.476354 41.784741 0.654589 2.055687 0.066356 -0.017717 811841.000000 0 0 1
29.827586 21.744771 -20.559754 42.251904 0.629935 2.078989 0.081300 -0.018054 417611.000000 0 0 1
31.379486 21.836371 -20.568554 43.411573 0.607956 2.064401 0.115826 -0.023058 87637.800000 0 0 1
31.888686 22.963671 -21.213254 44.656697 0.624102 2.065794 0.098683 -0.015346 261996.000000 0 0 1
33.302186 22.882871 -21.360454 45.704818 0.602035 2.057095 0.113466 -0.017997 309041.000000 0 0 1
33.914986 24.188271 -21.923254 47.073642 0.619532 2.055247 0.096571 -0.020950 -291541.000000 0 0 1
33.718186 24.642671 -23.257254 47.802481 0.631127 2.078908 0.105390 -0.020461 520090.000000 0 0 1
32.358886 24.927971 -23.593354 47.171470 0.656404 2.094582 0.094964 -0.017467 333371.000000 0 0 1
32.122486 25.218571 -25.072724 47.921518 0.665574 2.121402 0.088118 -0.018409 -154445.000000 0 0 1
32.205586 26.558671 -25.360834 48.843983 0.689598 2.116736 0.092075 -0.022667 67119.200000 0 0 1
31.054786 26.999671 -26.063874 48.710445 0.715661 2.135396 0.090339 -0.010447 405409.000000 0 0 1
30.740586 26.527671 -27.504244 49.042679 0.711966 2.166175 0.085986 -0.008049 -96124.200000 0 0 1
30.252286 25.192971 -27.665084 48.116977 0.694401 2.183345 0.082350 -0.018264 -3320.450000 0 0 1
29.895086 24.942571 -29.002664 48.548970 0.695330 2.211039 0.070781 -0.017099 -840193.000000 0 0 1
29.094286 23.724471 -29.212594 47.567884 0.684081 2.232072 0.078905 -0.018374 -725389.000000 0 0 1
27.779386 23.849471 -28.757294 46.556133 0.709426 2.236599 0.072497 -0.016774 -554312.000000 0 0 1
26.986786 22.705371 -28.960194 45.634563 0.699452 2.258301 0.070272 -0.021142 476225.000000 0 0 1
25.569286 22.712971 -28.311094 44.398034 0.726308 2.262260 0.056125 -0.023914 254748.000000 0 0 1
25.552386 22.794571 -26.890484 43.538661 0.728418 2.236513 0.060944 -0.009957 296178.000000 0 0 1
24.268786 22.684471 -26.287584 42.362675 0.751669 2.240223 0.060578 -0.011952 30121.700000 0 0 1
24.249786 22.707271 -24.730954 41.416088 0.752560 2.210720 0.071985 -0.005012 -75760.600000 0 0 1
24.696186 21.554471 -24.015354 40.635379 0.717574 2.203090 0.072313 -0.001060 132627.000000 0 0 1
24.921086 21.771371 -22.651254 40.101526 0.718044 2.171045 0.078310 -0.008080 89032.000000 0 0 1
25.577186 20.416771 -22.199254 39.545466 0.673668 2.166825 0.086011 -0.004968 154276.000000 0 0 1
26.868386 20.123371 -22.687654 40.516538 0.642836 2.165134 0.071227 -0.004560 91550.400000 0 0 1
27.017386 18.726271 -22.594754 39.889037 0.606093 2.172976 0.101013 -0.011160 -698025.000000 0 0 1
28.301086 18.129971 -23.178754 40.827710 0.569746 2.174531 0.112514 -0.018150 -329069.000000 0 0 1
29.332286 18.219871 -22.212854 41.057978 0.555829 2.142436 0.132265 -0.032343 -186110.000000 0 0 1
30.549886 17.750371 -22.752154 42.024180 0.526353 2.142905 0.122886 -0.022049 173104.000000 0 0 1
31.648886 17.566271 -21.669454 42.187570 0.506701 2.110225 0.108469 -0.020260 -123052.000000 0 0 1
32.270686 18.747871 -21.329054 42.986142 0.526299 2.089995 0.104941 -0.019783 435596.000000 0 0 1
33.642986 18.484471 -20.993754 43.752301 0.502406 2.071260 0.107180 -0.022818 685592.000000 0 0 1
34.187586 19.520571 -20.014954 44.163810 0.518811 2.041146 0.078911 -0.028053 -218052.000000 0 0 1
33.704286 19.364871 -18.718654 43.143541 0.521498 2.019579 0.095464 -0.029721 97299.700000 0 0 1
34.099486 20.504571 -18.034454 43.685855 0.541387 1.996346 0.074604 -0.020925 -92585.000000 0 0 1
33.583986 20.481671 -16.603054 42.697123 0.547641 1.970186 0.087532 -0.028293 -11118.500000 0 0 1
34.258286 19.516471 -15.774154 42.465830 0.517832 1.951372 0.082216 -0.030572 115929.000000 0 0 1
33.889186 19.343271 -14.411654 41.597293 0.518657 1.924587 0.082560 -0.028409 -278549.000000 0 0 1
34.542186 18.044171 -13.843954 41.357100 0.481391 1.912128 0.070471 -0.016442 109455.000000 0 0 1
35.948486 18.076171 -13.657154 42.491875 0.465913 1.898010 0.044186 -0.016313 324311.000000 0 0 1
36.441286 17.029771 -12.785354 42.207176 0.437164 1.878550 0.021839 -0.013829 148617.000000 0 0 1
36.178386 17.286571 -11.266154 41.648858 0.445743 1.844712 0.049175 -0.020736 95056.200000 0 0 1
37.159186 18.267071 -10.927554 42.824087 0.456897 1.828823 0.043185 -0.020562 354876.000000 0 0 1
36.861886 18.872171 -9.670754 42.526238 0.473178 1.800210 0.064172 -0.018313 237631.000000 0 0 1
35.748986 20.000471 -9.627254 42.079601 0.510084 1.801627 0.067988 -0.023197 224364.000000 0 0 1
34.466086 19.573171 -9.967554 40.870187 0.516479 1.817164 0.090847 -0.032078 -110854.000000 0 0 1
33.489386 20.656171 -9.915354 40.577464 0.552679 1.817652 0.083560 -0.014082 603808.000000 0 0 1
32.084086 20.075571 -10.143254 39.182939 0.559115 1.832648 0.068474 -0.020155 -284408.000000 0 0 1
31.816186 19.831971 -11.488854 39.211867 0.557397 1.868153 0.084465 -0.026532 275786.000000 0 0 1
30.593286 19.116271 -11.696554 37.923480 0.558493 1.884333 0.080364 -0.024101 474295.000000 0 0 1
30.333886 18.392571 -13.033354 37.792851 0.545066 1.922889 0.115229 -0.024311 214043.000000 0 0 1
31.274686 17.365271 -13.365454 38.187615 0.506865 1.928362 0.095243 -0.018359 456866.000000 0 0 1
30.740386 16.509671 -14.404754 37.749669 0.492860 1.962308 0.081937 -0.017161 512178.000000 0 0 1
31.876186 15.732771 -15.137054 38.636016 0.458481 1.973368 0.089126 -0.028478 345835.000000 0 0 1
32.547286 14.778371 -14.341954 38.515162 0.426224 1.952359 0.068345 -0.022333 598497.000000 0 0 1
33.659286 14.179671 -15.020254 39.492007 0.398708 1.960957 0.071616 -0.023384 716775.000000 0 0 1
34.539286 13.214571 -14.144554 39.593630 0.365413 1.936111 0.060122 -0.029501 -158696.000000 0 0 1
35.370986 13.907371 -13.254954 40.251899 0.374618 1.906359 0.059106 -0.014421 19093.600000 0 0 1
35.844686 13.029971 -12.228054 40.051803 0.348661 1.881056 0.045389 -0.012541 -28467.100000 0 0 1
36.882386 13.649671 -11.260454 40.907478 0.354456 1.849663 0.059675 -0.005799 -513576.000000 0 0 1
-36.161857 13.632371 -11.811354 40.410760 -0.360507 1.867409 0.042416 -0.010716 -618070.000000 0 0 1
-35.199157 14.144171 -10.915254 39.473802 -0.382085 1.850966 0.035559 -0.011249 -330563.000000 0 0 1
-33.774057 14.354671 -11.444554 38.441141 -0.401888 1.873096 0.078413 -0.019759 -19603.400000 0 0 1
-33.006357 13.271671 -11.945754 37.526763 -0.382311 1.894760 0.083184 -0.031604 355423.000000 0 0 1
-32.559357 12.304071 -10.997454 36.502683 -0.361308 1.876829 0.107591 -0.022906 -935364.000000 0 0 1
-31.351457 11.480071 -11.399354 35.279614 -0.351010 1.899815 0.142162 -0.027740 -501994.000000 0 0 1
-31.563657 10.570071 -12.513554 35.560932 -0.323143 1.930386 0.130415 -0.019996 311472.000000 0 0 1
-30.838357 9.331671 -12.359354 34.508521 -0.293840 1.937086 0.147364 -0.038467 42084.900000 0 0 1
-30.913957 8.517971 -13.692254 34.866982 -0.268866 1.974362 0.147996 -0.048863 495989.000000 0 0 1
-32.245457 8.138571 -14.059254 36.106350 -0.247231 1.970760 0.117788 -0.039547 778399.000000 0 0 1
-32.234757 7.303071 -15.241254 36.396569 -0.222798 2.002870 0.134767 -0.053603 1122020.000000 0 0 1
-33.660557 6.946571 -15.898454 37.868837 -0.203514 2.004054 0.123507 -0.051198 1052160.000000 0 0 1
-34.438557 6.329771 -14.915754 38.059952 -0.181770 1.973494 0.135459 -0.055789 -215380.000000 0 0 1
-35.532757 5.662771 -15.500954 39.178098 -0.158039 1.977576 0.091645 -0.049769 -293002.000000 0 0 1
-36.593357 5.243671 -14.467154 39.697209 -0.142327 1.943825 0.086755 -0.042171 -459182.000000 0 0 1
36.778886 4.355371 -14.971254 39.947392 0.117871 1.954950 0.095986 -0.034765 -362747.000000 0 0 1
35.839286 3.882771 -14.053354 38.691434 0.107917 1.942514 0.110270 -0.033800 -43601.400000 0 0 1
34.857686 2.825471 -14.631754 37.909494 0.080881 1.967050 0.111160 -0.027210 -289649.000000 0 0 1
35.354486 1.530571 -14.836754 38.372016 0.043265 1.967799 0.121424 -0.033658 -320925.000000 0 0 1
34.321886 0.584171 -14.946154 37.439559 0.017019 1.981449 0.107091 -0.023273 130630.000000 0 0 1
33.734686 0.220871 -13.558254 36.357999 0.006547 1.952939 0.133084 -0.025872 -259781.000000 0 0 1
34.733386 -0.416729 -12.781154 37.012696 -0.011997 1.923374 0.146210 -0.025187 255669.000000 0 0 1
34.909686 -0.191529 -11.426354 36.732607 -0.005486 1.887113 0.164171 -0.021792 -143916.000000 0 0 1
35.162486 1.274171 -10.934654 36.845496 0.036221 1.872105 0.156722 -0.033331 236014.000000 0 0 1
33.971686 2.055671 -11.070654 35.789113 0.060438 1.885285 0.149365 -0.022611 802426.000000 0 0 1
34.073286 3.339271 -10.545954 35.823968 0.097691 1.869606 0.154785 -0.027732 702194.000000 0 0 1
32.921786 4.324371 -11.058154 34.997527 0.130605 1.892275 0.134609 -0.024762 750570.000000 0 0 1
33.109486 4.738671 -12.405754 35.673460 0.142156 1.925976 0.120217 -0.018348 439851.000000 0 0 1
32.124286 5.680371 -12.774554 35.034634 0.175016 1.944028 0.110170 -0.015842 -322337.000000 0 0 1
32.290786 6.230371 -14.181454 35.813768 0.190604 1.977929 0.066506 -0.013839 -545586.000000 0 0 1
32.098086 5.299371 -15.174054 35.897386 0.163623 2.007226 0.059091 -0.010056 334959.000000 0 0 1
32.417286 5.565771 -16.559954 36.825131 0.170034 2.037216 0.050028 -0.008015 -147799.000000 0 0 1
31.514486 6.658871 -17.309154 36.566517 0.208233 2.063898 0.058177 -0.007138 1260570.000000 0 0 1
30.287586 6.185171 -17.881354 35.711861 0.201445 2.095217 0.046375 -0.012563 2020030.000000 0 0 1
29.163686 5.929671 -16.974154 34.260815 0.200589 2.089137 0.042484 -0.003172 89100.900000 0 0 1
27.818586 5.718971 -17.636454 33.430897 0.202756 2.126510 0.039970 -0.009079 -851985.000000 0 0 1
27.714086 4.706471 -18.600354 33.707486 0.168217 2.155337 0.047148 -0.009693 -95138.100000 0 0 1
26.459586 4.798871 -19.209654 33.047687 0.179416 2.191086 0.042900 -0.012096 -434968.000000 0 0 1
26.064986 3.627271 -20.124454 33.129054 0.138275 2.223651 0.040397 0.004383 -201533.000000 0 0 1
25.704786 2.488771 -19.345354 32.267208 0.096520 2.213718 0.031344 -0.003709 312012.000000 0 0 1
25.185286 1.453771 -20.135054 32.277430 0.057659 2.244407 0.031997 -0.003629 -931771.000000 0 0 1
24.238986 0.475771 -19.457154 31.085939 0.019626 2.247100 0.035985 -0.006948 -861204.000000 0 0 1
23.046186 1.181071 -19.273954 30.066708 0.051203 2.266649 0.044916 -0.014301 -495537.000000 0 0 1
22.131486 0.318371 -18.629754 28.930464 0.014384 2.270446 0.059857 -0.020970 129099.000000 0 0 1
20.724386 0.883771 -18.265454 27.638886 0.042618 2.292761 0.069375 -0.023011 -200400.000000 0 0 1
20.001986 1.133571 -19.442354 27.917191 0.056612 2.341206 0.062974 -0.026202 517900.000000 0 0 1
19.084186 2.243271 -19.357354 27.275366 0.117009 2.359870 0.052422 -0.021158 1304870.000000 0 0 1
17.740286 2.158471 -18.531354 25.744666 0.121075 2.374330 0.106804 -0.031063 142147.000000 0 0 1
17.895086 2.176771 -17.111854 24.855341 0.121046 2.330157 0.117897 -0.032334 400144.000000 0 1 0
16.672786 2.248471 -16.388754 23.486776 0.134050 2.343099 0.093128 -0.016899 498727.000000 0 1 0
15.750686 3.506771 -16.409954 23.014520 0.219069 2.364601 0.103921 -0.010009 -187572.000000 0 1 0
15.077686 3.628671 -17.611954 23.466674 0.236174 2.419629 0.090998 -0.012304 -436713.000000 0 1 0
14.020086 4.500571 -17.454154 22.835618 0.310618 2.440812 0.099830 -0.016093 -703262.000000 0 1 0
-20.716714 -21.768729 -17.326654 34.688222 0.810155 2.093814 0.105278 -0.016527 -163947.000000 0 0 1
-20.464114 -22.542729 -18.498254 35.624991 0.833693 2.116769 0.111065 -0.025029 290655.000000 0 0 1
-21.484714 -22.455329 -19.476954 36.676784 0.807484 2.130627 0.117408 -0.022348 -64213.400000 0 0 1
-21.193514 -23.366029 -20.618354 37.686243 0.834115 2.149699 0.097212 -0.023369 47815.100000 0 0 1
-21.136914 -24.735129 -20.235754 38.315552 0.863678 2.127198 0.081345 -0.026450 35053.300000 0 0 1
-20.390314 -25.423609 -21.195754 38.876533 0.894823 2.147432 0.072253 -0.033034 -193759.000000 0 0 1
-20.517014 -26.958849 -21.048154 39.884235 0.920261 2.126724 0.077197 -0.008531 -434915.000000 0 0 1
-21.771814 -27.507029 -21.302354 41.041916 0.901260 2.116523 0.080118 0.008320 -457468.000000 0 0 1
-21.658114 -28.932169 -21.234654 41.917238 0.928203 2.102016 0.119130 -0.027385 183783.000000 0 0 1
-23.096614 -29.387599 -21.560554 43.150227 0.904693 2.094006 0.104705 -0.024530 219769.000000 0 0 1
-23.644114 -29.072299 -22.837754 43.884003 0.888006 2.118129 0.075621 -0.022915 -99820.900000 0 0 1
-23.050714 -29.676279 -23.977954 44.575321 0.910401 2.138764 0.081653 -0.026245 -171936.000000 0 0 1
-23.449114 -28.847529 -25.257334 44.944119 0.888261 2.167564 0.065114 -0.012990 189027.000000 0 0 1
-24.789914 -29.041559 -25.670404 46.010017 0.864215 2.162687 0.052539 -0.009376 292833.000000 0 0 1
-25.139344 -28.278929 -26.817054 46.377137 0.844104 2.187365 0.061713 -0.000414 -258733.000000 0 0 1
-24.667614 -28.816879 -28.185544 47.258106 0.862822 2.209826 0.069963 -0.021314 -310039.000000 0 0 1
-25.241734 -30.047309 -28.642874 48.583950 0.872098 2.201303 0.039511 -0.000848 -40969.700000 0 0 1
-25.005714 -30.301069 -29.976944 49.417180 0.880852 2.222585 0.079031 0.003625 -4373.690000 0 0 1
-25.722074 -31.553529 -30.524934 50.882432 0.886862 2.214186 0.038386 -0.001605 -122690.000000 0 0 1
-25.193174 -32.760179 -30.048584 51.096407 0.915234 2.199475 0.038852 0.002666 -108631.000000 0 0 1
-25.943194 -33.895209 -30.457984 52.436851 0.917516 2.190570 0.025841 0.005292 -676.327000 0 0 1
-25.215554 32.798830 -30.187344 51.213896 -0.915375 2.201158 0.027250 0.007632 1402960.000000 0 0 1
-24.117514 32.536372 -31.134314 51.084396 -0.932920 2.226186 0.058750 0.002938 823435.000000 0 0 1
-23.720914 31.185750 -31.149814 50.055406 -0.920525 2.242482 0.069846 0.003715 -250951.000000 0 0 1
-22.588914 30.908910 -32.148854 49.991685 -0.939682 2.269315 0.070276 0.008444 -236865.000000 0 0 1
-22.755914 31.038550 -33.551424 51.058019 -0.938167 2.287793 0.075107 0.008712 -199534.000000 0 0 1
-22.013214 29.988060 33.778646 50.248008 -0.937571 0.833568 0.083777 0.003706 -31305.700000 0 0 1
-22.210414 29.907100 32.189559 49.233168 -0.932018 0.858176 0.079012 0.004556 299018.000000 0 0 1
-21.308114 30.756770 31.475121 48.894763 -0.964923 0.871431 0.080149 0.000304 519618.000000 0 0 1
-21.393914 30.531940 30.089101 47.908798 -0.959597 0.891752 0.087985 -0.001521 1239.930000 0 0 1
-20.990314 31.814430 29.285061 48.066267 -0.987581 0.915664 0.087571 -0.015498 29244.700000 0 0 1
-21.890414 32.881045 29.456381 49.275062 -0.983432 0.930049 0.070076 -0.003823 -10779.400000 0 0 1
-21.461514 34.020744 28.783971 49.462356 -1.008011 0.949688 0.084492 -0.028205 58971.900000 0 0 1
-22.404114 -32.803749 28.975571 49.169239 0.971589 0.940601 0.099968 -0.033326 147237.000000 0 0 1
-22.538114 -32.406989 30.325351 49.777570 0.963117 0.915723 0.085715 -0.015236 -64688.400000 0 0 1
-23.687214 -31.600199 30.527531 49.915798 0.927557 0.912740 0.088262 -0.015292 154679.000000 0 0 1
-23.615314 -30.150429 30.028341 48.666546 0.906353 0.905843 0.110765 -0.010668 -311718.000000 0 0 1
-23.722714 -30.035469 28.592131 47.774539 0.902292 0.929193 0.075441 -0.007748 -234731.000000 0 0 1
-23.672814 -28.764739 28.004761 46.605568 0.882199 0.926184 0.085110 -0.020017 184229.000000 0 0 1
-25.041414 -28.449569 27.322421 46.722212 0.849027 0.946182 0.075683 -0.007903 340821.000000 0 0 1
-26.150444 -28.583829 28.232791 47.937162 0.829827 0.941032 0.096227 -0.002941 738962.000000 0 0 1
-26.845214 -29.866159 28.195321 49.067598 0.838617 0.958654 0.064044 -0.016986 358912.000000 0 0 1
-27.893684 -29.927219 27.019031 49.027789 0.820553 0.987119 0.044139 0.013431 -164231.000000 0 0 1
-27.230784 -29.893029 25.773241 47.951734 0.831969 1.003347 0.032667 0.002760 76602.300000 0 0 1
-28.096804 -30.218609 24.714031 48.097589 0.821767 1.031152 0.023527 0.008602 -134167.000000 0 0 1
-27.307344 -30.416779 23.376341 47.088479 0.839213 1.051310 0.026377 0.003799 -861006.000000 0 0 1
-26.831024 -29.180319 22.938331 45.799148 0.827317 1.046220 0.016278 -0.007407 273485.000000 0 0 1
-26.064404 -29.225819 21.731211 44.785569 0.842515 1.064172 0.047860 -0.011383 265068.000000 0 0 1
-24.739414 -30.015469 21.792911 44.585850 0.881459 1.060099 0.054030 -0.019737 -1412310.000000 0 0 1
-24.864114 -31.392259 21.522411 45.463307 0.900924 1.077648 0.055929 -0.025266 858217.000000 0 0 1
-23.654614 -32.190819 21.451911 45.342851 0.937078 1.077985 0.066175 -0.015140 751922.000000 0 0 1
-23.013014 -32.601809 22.784511 45.952266 0.956134 1.052006 0.083093 -0.021401 -161194.000000 0 0 1
-22.379414 -31.541469 23.457711 45.232363 0.953707 1.025578 0.098958 -0.032358 41986.300000 0 0 1
-21.972814 -31.937339 24.760441 45.998670 0.968171 1.002394 0.109187 -0.048736 -538339.000000 0 0 1
-21.116314 -30.882249 25.471521 45.259368 0.971047 0.973039 0.110184 -0.033720 -745518.000000 0 0 1
-19.859514 -30.670589 24.880011 44.205207 0.996174 0.972991 0.124482 -0.037543 -504657.000000 0 0 1
-18.953314 -30.150169 25.783851 43.966667 1.009591 0.944139 0.137817 -0.031051 -393512.000000 0 0 1
-18.046414 -31.172219 26.501441 44.718080 1.046016 0.936472 0.121415 -0.039699 -733925.000000 0 0 1
-18.761414 -32.064389 27.331111 46.120552 1.041392 0.936512 0.119021 -0.034010 196588.000000 0 0 1
-17.971614 -32.637479 28.360301 46.824039 1.067459 0.920178 0.126744 -0.027473 -126955.000000 0 0 1
-18.325114 -31.964879 29.731621 47.344827 1.050249 0.891841 0.151028 -0.030812 224168.000000 0 0 1
-17.777714 -30.654619 29.795921 46.298485 1.045260 0.871654 0.151436 -0.023771 166596.000000 0 0 1
-18.294014 -30.023039 30.913241 46.815407 1.023543 0.849549 0.153107 -0.017154 38474.300000 0 0 1
-17.787014 -28.521719 31.166151 45.838797 1.013182 0.823160 0.144403 -0.017689 133873.000000 0 0 1
-18.467214 -27.477529 30.474911 44.997476 0.979052 0.826767 0.158016 -0.021408 206885.000000 0 0 1
-18.604314 -27.520669 29.059521 44.135740 0.976351 0.852089 0.146942 -0.016978 1347130.000000 0 0 1
-17.261314 -27.217379 28.216121 42.835595 1.005607 0.851697 0.125624 -0.017683 1357000.000000 0 0 1
-16.877514 -25.866639 28.118591 41.768274 0.992678 0.832262 0.108295 -0.013459 574.102000 0 0 1
-15.687814 -25.661239 27.402931 40.688172 1.022078 0.831881 0.088166 -0.012023 -248981.000000 0 0 1
-15.610014 -24.269629 26.708451 39.319573 0.999222 0.824034 0.086936 -0.007183 -905911.000000 0 0 1
-16.459214 -24.225229 25.606811 38.903422 0.974013 0.852351 0.127675 -0.019987 4129.370000 0 0 1
-16.322614 -22.988329 24.914841 37.624996 0.953364 0.847061 0.099954 -0.025528 -211087.000000 0 0 1
-17.125514 -21.858629 25.547891 37.732978 0.906218 0.827022 0.097953 -0.015584 -691415.000000 0 0 1
-16.949114 -20.693829 24.758661 36.448571 0.884552 0.824020 0.087684 -0.014817 30093.400000 0 0 1
-17.635014 -19.611729 25.308211 36.552964 0.838419 0.806026 0.089721 -0.011052 -241836.000000 0 0 1
-17.389414 -18.398929 24.441371 35.189387 0.813599 0.802979 0.076819 -0.019285 -269769.000000 0 0 1
-16.035814 -18.050829 24.382461 34.314489 0.844444 0.780504 0.083491 -0.025492 -555909.000000 0 0 1
-15.815614 -16.965529 23.487441 33.009434 0.820462 0.779113 0.078037 -0.020559 323815.000000 0 0 1
-14.346614 -16.455529 23.580861 32.135133 0.853758 0.746893 0.080754 -0.023969 543476.000000 0 0 1
-13.388414 -17.348229 23.027421 31.787935 0.913523 0.760622 0.051416 -0.017952 427026.000000 0 0 1
-12.027314 -16.930529 23.078511 31.047009 0.953130 0.732745 0.051436 -0.021077 224590.000000 0 0 1
-11.533214 -16.124229 21.866611 29.515326 0.949894 0.736452 0.063872 -0.024851 -170576.000000 0 0 1
-11.054814 -16.848329 20.709811 28.895872 0.990119 0.771731 0.087063 -0.023874 152769.000000 0 0 1
-9.929414 -17.684129 20.932311 29.145897 1.059176 0.769598 0.069817 -0.022901 -237007.000000 0 0 1
-9.642314 -18.632029 19.783411 28.835917 1.093237 0.814725 0.066323 -0.016499 -151942.000000 0 0 1
-9.115514 -18.134929 18.606711 27.535031 1.105031 0.828819 0.068475 -0.022007 -363406.000000 0 0 1
-8.613014 -19.175229 17.811811 27.552387 1.148630 0.867847 0.064510 -0.021259 -17100.700000 0 0 1
-8.047614 -18.750229 16.488311 26.233559 1.165373 0.891148 0.062182 -0.028054 -426425.000000 0 0 1
-6.971714 -17.883029 16.471311 25.292521 1.199070 0.861589 0.067262 -0.034598 -756085.000000 0 0 1
-6.526914 -17.657729 15.161711 24.171750 1.216738 0.892780 0.069716 -0.040861 -602470.000000 0 1 0
-5.467014 -16.599429 15.141711 23.123596 1.252635 0.856857 0.061835 -0.042515 -562430.000000 0 1 0
-5.985214 -15.277429 15.373811 22.485033 1.197406 0.817927 0.069909 -0.048343 475054.000000 0 1 0
-4.959414 -14.326729 15.732411 21.848563 1.237542 0.766899 0.044500 -0.033464 -35541.900000 0 1 0
-5.245314 -13.475629 16.990811 22.311288 1.199596 0.705119 0.024689 -0.010420 -350313.000000 0 1 0
-5.268914 -14.261929 18.192711 23.709467 1.216910 0.696147 0.042907 -0.000435 -62752.700000 0 1 0
-6.502214 -14.890829 18.507011 24.627729 1.159092 0.720508 0.086909 -0.029125 539537.000000 0 1 0
-7.668514 -14.015029 19.079311 24.884679 1.070133 0.697097 0.097978 -0.036120 -135350.000000 0 1 0
-7.466914 -13.324229 20.273211 25.382927 1.060003 0.645673 0.086940 -0.028226 -252788.000000 0 0 1
-8.601614 -12.629929 20.745211 25.765610 0.972902 0.634866 0.096629 -0.023407 206952.000000 0 0 1
-8.200814 -11.639329 21.858711 26.086981 0.957005 0.577342 0.091756 -0.017907 -233493.000000 0 0 1
-7.425814 -10.514529 21.430311 24.999126 0.955893 0.540906 0.063081 -0.011362 586250.000000 0 1 0
-6.922314 -9.763829 22.554011 25.533002 0.954072 0.487882 0.060405 -0.013382 -588866.000000 0 0 1
-5.634314 -10.254229 23.175391 25.961384 1.068366 0.467524 0.073246 -0.007689 -886218.000000 0 0 1
-5.669414 -11.316829 24.084601 27.208103 1.106371 0.483874 0.091467 -0.005275 -164159.000000 0 0 1
-4.320914 -11.587729 24.392161 27.348186 1.213879 0.469242 0.081600 -0.007817 -166137.000000 0 0 1
-4.157114 -12.810529 25.257901 28.624340 1.257010 0.489873 0.082146 -0.012394 -821900.000000 0 0 1
-2.860414 -13.103029 25.685881 28.976470 1.355866 0.481202 0.073798 -0.014185 -519513.000000 0 0 1
-2.879014 -14.211129 26.531711 30.235354 1.370913 0.500159 0.076485 -0.019313 72104.800000 0 0 1
-2.917014 -15.667129 25.961731 30.462754 1.386717 0.550534 0.068992 -0.026451 -403458.000000 0 0 1
-1.853014 -15.928329 25.088041 29.775076 1.454982 0.568731 0.076622 -0.029043 -262871.000000 0 0 1
-1.883314 -17.203329 24.470551 29.971808 1.461757 0.615556 0.072338 -0.025124 -319753.000000 0 0 1
-0.552214 -17.957629 24.712441 30.553005 1.540055 0.628622 0.089940 -0.036254 162615.000000 0 0 1
-0.305914 -18.353929 26.019341 31.842839 1.554130 0.614403 0.094526 -0.037273 -278033.000000 0 0 1
0.424686 -17.350029 26.645481 31.799144 -1.546324 0.577316 0.120773 -0.040493 -776434.000000 0 0 1
0.985386 -17.822629 28.029651 33.230685 -1.515564 0.567054 0.114678 -0.035427 -539428.000000 0 0 1
2.066986 -18.711429 27.832071 33.600806 -1.460776 0.594702 0.111138 -0.041508 -162902.000000 0 0 1
2.865486 -18.851929 28.980791 34.691389 -1.419951 0.581957 0.111902 -0.047747 669263.000000 0 0 1
4.019786 -17.805629 29.094451 34.346560 -1.348759 0.560320 0.139420 -0.040191 -255395.000000 0 0 1
3.480186 -16.567429 29.559341 34.063853 -1.363745 0.520114 0.126372 -0.044528 -427583.000000 0 0 1
4.389086 -15.614729 29.995931 34.100436 -1.296781 0.495702 0.140907 -0.057910 -632893.000000 0 0 1
3.770886 -14.457629 30.749841 34.187649 -1.315657 0.452303 0.139728 -0.059833 -87521.400000 0 0 1
3.098886 -14.836929 31.939575 35.353557 -1.364893 0.443085 0.118729 -0.058241 -260608.000000 0 0 1
2.274186 -13.854729 32.451966 35.358953 -1.408102 0.408327 0.113242 -0.052199 -358002.000000 0 0 1
1.283786 -14.460729 33.479283 36.491413 -1.482251 0.409157 0.078871 -0.038352 36509.700000 0 0 1
1.923686 -14.740729 -33.189404 36.366553 -1.441028 2.720482 0.093204 -0.035317 -194971.000000 0 0 1
1.048386 -15.376429 -32.312194 35.799603 -1.502720 2.696534 0.080143 -0.037049 304647.000000 0 0 1
1.823386 -15.699929 -30.989824 34.787666 -1.455175 2.669960 0.061812 -0.025419 177048.000000 0 0 1
1.052086 -16.277329 -29.989724 34.138569 -1.506251 2.643448 0.045530 -0.017453 -620297.000000 0 0 1
1.690486 -16.236529 -28.741064 33.053463 -1.467054 2.625052 0.049629 -0.020987 -88654.900000 0 0 1
1.313286 -17.393229 -27.802834 32.821437 -1.495434 2.581289 0.059437 -0.017633 -227515.000000 0 0 1
2.004186 -18.609229 -28.122944 33.781950 -1.463511 2.554373 0.050001 -0.008667 131039.000000 0 0 1
1.848186 -19.566629 -27.115404 33.489012 -1.476620 2.514404 0.054590 -0.014009 -874004.000000 0 0 1
2.641786 -20.877129 -27.355774 34.513359 -1.444926 2.485881 0.034907 -0.009906 805620.000000 0 0 1
4.070986 -20.829329 -27.254354 34.543215 -1.377785 2.479965 0.048370 -0.010283 896934.000000 0 0 1
4.634186 -20.665429 -25.967824 33.509156 -1.350198 2.457428 0.070410 -0.016721 -67043.800000 0 0 1
5.941586 -21.486029 -25.717054 34.034082 -1.301006 2.427406 0.059236 -0.011067 291426.000000 0 0 1
5.662686 -22.856429 -25.555994 34.750413 -1.327936 2.397076 0.072425 -0.017029 271663.000000 0 0 1
5.897086 -23.507629 -26.778444 36.117438 -1.325010 2.405991 0.057473 -0.018119 -104284.000000 0 0 1
5.305586 -24.959929 -26.884294 37.066327 -1.361350 2.382270 0.048428 -0.008881 27686.500000 0 0 1
5.957586 -25.826569 -26.028884 37.148450 -1.344085 2.347135 0.057377 -0.012267 11771.200000 0 0 1
5.376886 -27.131199 -26.168124 38.076024 -1.375151 2.328507 0.051383 -0.012456 54728.500000 0 0 1
6.008686 -28.117969 -25.213044 38.241628 -1.360267 2.290695 0.055464 -0.016442 -84783.600000 0 0 1
7.319486 -28.474179 -25.595584 38.980606 -1.319187 2.287130 0.064628 -0.023020 -279406.000000 0 0 1
7.664886 -29.717319 -25.088444 39.639621 -1.318371 2.256107 0.061935 -0.021754 -130348.000000 0 0 1
9.107686 -30.107359 -25.484674 40.482979 -1.277041 2.251726 0.076464 -0.025275 35779.300000 0 0 1
9.223886 -30.231849 -26.915424 41.514875 -1.274663 2.276188 0.072117 -0.025457 907785.000000 0 0 1
10.622186 -30.313149 -27.276834 42.139572 -1.233752 2.274830 0.088633 -0.030157 1207210.000000 0 0 1
10.758686 -30.268309 -28.812924 43.152108 -1.229280 2.301919 0.092671 -0.025919 -156827.000000 0 0 1
10.242686 -31.335789 -29.632624 44.327607 -1.254875 2.302975 0.085852 -0.036931 122192.000000 0 0 1
10.330086 -31.056609 -30.998094 45.078881 -1.249687 2.329032 0.084727 -0.030040 -65585.000000 0 0 1
-35.347846 -4.617329 -5.607754 36.086519 0.129890 1.726826 0.195150 -0.049954 -40434.700000 0 0 1
-35.400696 -3.908629 -4.366654 35.882508 0.109966 1.692792 0.194874 -0.051624 322194.000000 0 0 1
-34.599327 -2.740729 -4.194154 34.960206 0.079048 1.691055 0.197107 -0.051857 -154334.000000 0 0 1
-35.144927 -1.467329 -4.826454 35.505121 0.041727 1.707155 0.197743 -0.036620 856178.000000 0 0 1
-36.314984 -1.007329 -4.090354 36.558498 0.027732 1.682916 0.170710 -0.036949 1158970.000000 0 0 1
-36.991154 0.057771 -4.733954 37.292883 -0.001562 1.698080 0.178691 -0.037916 377688.000000 0 0 1
36.257399 0.729571 -3.849254 36.468452 0.020119 1.676544 0.177815 -0.033104 -174578.000000 0 0 1
36.904449 1.399771 -2.784854 37.035835 0.037911 1.646061 0.183964 -0.032293 -209003.000000 0 0 1
36.088079 2.216571 -2.037654 36.213459 0.061344 1.627094 0.159356 -0.031724 -841395.000000 0 0 1
36.885589 2.964271 -0.880854 37.014990 0.080192 1.594596 0.157149 -0.032114 862991.000000 0 0 1
-36.673094 4.137471 -1.251354 36.926960 -0.112345 1.604690 0.184555 -0.050079 910657.000000 0 0 1
-35.542447 3.886671 -2.089954 35.815355 -0.108920 1.629183 0.160038 -0.009015 -644388.000000 0 0 1
-34.778130 5.130071 -2.494654 35.242861 -0.146452 1.641640 0.155251 -0.014675 -157353.000000 0 0 1
-33.918974 5.563471 -1.424454 34.401716 -0.162575 1.612215 0.157773 -0.024484 463057.000000 0 0 1
-33.506304 6.906171 -1.579054 34.247059 -0.203269 1.616920 0.171975 -0.039680 -429782.000000 0 0 1
-32.814234 7.427471 -0.331754 33.645971 -0.222598 1.580657 0.188234 -0.045019 -573356.000000 0 0 1
-31.414874 7.224771 -0.404354 32.237480 -0.226049 1.583340 0.202085 -0.040520 377276.000000 0 0 1
-30.642884 7.598971 0.708146 31.578983 -0.243081 1.548370 0.197944 -0.052457 -21927.800000 0 0 1
-30.615574 9.111571 1.078146 31.960859 -0.289265 1.537057 0.193217 -0.052912 -1778340.000000 0 0 1
-31.809044 9.634171 1.499446 33.269819 -0.294093 1.525712 0.207266 -0.058999 -1056280.000000 0 0 1
-31.779664 10.988471 1.926846 33.680948 -0.332902 1.513556 0.202974 -0.046763 -1026680.000000 0 0 1
-33.149404 11.608871 1.982246 35.179229 -0.336852 1.514419 0.212276 -0.051590 -1806560.000000 0 0 1
-33.638194 11.913371 0.710546 35.692596 -0.340378 1.550888 0.201251 -0.051430 552292.000000 0 0 1
-34.808447 12.732171 0.765946 37.071861 -0.350661 1.550134 0.187742 -0.036723 511817.000000 0 0 1
-36.145344 12.035671 1.106946 38.112578 -0.321432 1.541748 0.187019 -0.049252 -449940.000000 0 0 1
-36.747714 11.300171 0.036246 38.445932 -0.298329 1.569854 0.176679 -0.040565 -270890.000000 0 0 1
36.390189 10.676171 0.439646 37.926504 0.285373 1.559204 0.173418 -0.050121 -171052.000000 0 0 1
35.838169 9.607671 -0.532354 37.107480 0.261926 1.585143 0.174718 -0.044442 341558.000000 0 0 1
35.219619 10.033271 -1.751054 36.662709 0.277526 1.618576 0.153356 -0.034269 399913.000000 0 0 1
34.731369 8.933571 -2.532954 35.951252 0.251761 1.641310 0.148850 -0.049424 -43370.800000 0 0 1
34.242059 9.235671 -3.947854 35.684755 0.263448 1.681655 0.122536 -0.030159 211514.000000 0 0 1
32.952889 9.824371 -4.042654 34.623030 0.289744 1.687825 0.144156 -0.038486 521086.000000 0 0 1
32.579429 10.067771 -5.399054 34.524324 0.299713 1.727825 0.120584 -0.018247 87089.300000 0 0 1
31.154399 10.654771 -5.640654 33.405653 0.329529 1.740462 0.140069 -0.029502 -198584.000000 0 0 1
30.204089 9.696971 -5.301454 32.162457 0.310654 1.736386 0.139579 -0.025940 -302339.000000 0 0 1
28.934429 10.208571 -5.630254 31.194805 0.339183 1.752278 0.142424 -0.013832 122159.000000 0 0 1
27.807129 9.112771 -5.772654 29.826205 0.316684 1.765569 0.160988 -0.005080 236583.000000 0 0 1
27.780629 8.451571 -6.981054 29.865155 0.295329 1.806732 0.147684 -0.010351 328809.000000 0 0 1
26.607729 7.693371 -7.159054 28.607888 0.281464 1.823732 0.163455 -0.017511 -85371.400000 0 0 1
26.729229 6.829471 -8.420854 28.844482 0.250154 1.867051 0.153641 -0.023303 -186218.000000 0 0 1
27.523129 5.722271 -8.060554 29.244479 0.204987 1.850038 0.160373 -0.021336 528281.000000 0 0 1
27.412529 4.732371 -9.105154 29.270222 0.170950 1.887117 0.141492 -0.018206 7537.500000 0 0 1
28.328229 3.468871 -8.920254 29.901380 0.121846 1.873731 0.148974 -0.009891 -183794.000000 0 0 1
29.703059 3.760471 -9.034754 31.273625 0.125932 1.863867 0.167994 -0.009966 898831.000000 0 0 1
30.614499 3.182971 -8.072154 31.820410 0.103597 1.827278 0.125397 -0.010825 393853.000000 0 0 1
30.776219 1.659471 -7.939154 31.827027 0.053868 1.822905 0.122133 -0.013341 -316055.000000 0 0 1
29.759579 0.995571 -7.171354 30.627635 0.033441 1.807137 0.152400 -0.024756 660601.000000 0 0 1
30.136619 -0.280529 -6.693354 30.872244 -0.009308 1.789340 0.140618 -0.023987 -227958.000000 0 0 1
30.160869 -1.449929 -7.730254 31.169490 -0.048036 1.821419 0.126285 -0.020932 -674379.000000 0 0 1
31.135949 -1.510029 -8.709554 32.366400 -0.048460 1.843247 0.148876 -0.020990 -267984.000000 0 0 1
31.015689 -2.669029 -9.454454 32.534341 -0.085843 1.865649 0.122886 -0.025347 -79361.100000 0 0 1
32.053769 -2.873329 -10.594054 33.881176 -0.089402 1.888812 0.135115 -0.025662 11356.400000 0 0 1
33.329649 -3.320029 -10.174554 35.005851 -0.099284 1.865706 0.159465 -0.027137 -27350.300000 0 0 1
34.024229 -3.721929 -11.337554 36.056082 -0.108957 1.890665 0.145713 -0.039121 -109969.000000 0 0 1
35.510949 -4.037729 -11.058354 37.411468 -0.113218 1.870867 0.159467 -0.036483 -107732.000000 0 0 1
35.669109 -5.222329 -10.311454 37.495121 -0.145378 1.849394 0.143529 -0.039420 1417340.000000 0 0 1
37.077119 -5.453729 -10.054354 38.801365 -0.146044 1.832911 0.144216 -0.033330 1096100.000000 0 0 1
-36.993534 -6.654729 -9.181854 38.692550 0.177985 1.810385 0.137915 -0.046804 -338651.000000 0 0 1
37.031909 -6.467629 -7.840154 38.401309 -0.172906 1.776406 0.140080 -0.045065 317090.000000 0 0 1
36.630439 -7.728429 -7.299754 38.141894 -0.207934 1.763369 0.133014 -0.034203 -335705.000000 0 0 1
36.165029 -7.703929 -5.831654 37.433515 -0.209884 1.727220 0.135981 -0.032727 -528385.000000 0 0 1
37.119349 -7.410629 -4.823554 38.157963 -0.197053 1.697546 0.151102 -0.038762 168761.000000 0 0 1
36.978419 -8.011829 -3.553454 38.002893 -0.213364 1.664438 0.148081 -0.025045 -590547.000000 0 0 1
-36.762094 -9.454129 -3.552554 38.124176 0.251716 1.664115 0.145602 -0.034710 -142805.000000 0 0 1
36.866389 -10.334429 -4.416854 38.541402 -0.273306 1.685649 0.117874 -0.028476 831013.000000 0 0 1
-36.559014 -11.251229 -5.085154 38.587698 0.298556 1.702963 0.110862 -0.029971 303599.000000 0 0 1
36.963029 -12.043929 -6.121654 39.354750 -0.314989 1.726981 0.096069 -0.025812 41111.300000 0 0 1
36.600969 -11.206729 -7.204254 38.950263 -0.297123 1.756828 0.118824 -0.025953 188927.000000 0 0 1
35.888889 -11.938729 -8.185954 38.698261 -0.321143 1.783939 0.103421 -0.028229 -14191.700000 0 0 1
35.930809 -11.203229 -9.554354 38.830671 -0.302247 1.819401 0.072262 -0.032777 -135221.000000 0 0 1
35.458249 -9.912929 -9.601954 38.049324 -0.272606 1.825910 0.084692 -0.034058 186970.000000 0 0 1
35.886279 -9.408229 -10.896254 38.666111 -0.256398 1.856470 0.082666 -0.035803 -214425.000000 0 0 1
34.962199 -8.445829 -11.680154 37.816840 -0.237029 1.884792 0.091044 -0.036745 -365163.000000 0 0 1
35.505329 -7.947629 -12.878354 38.595922 -0.220213 1.910992 0.102302 -0.032226 381188.000000 0 0 1
34.482079 -7.465229 -13.710954 37.851468 -0.213206 1.941456 0.088006 -0.025388 79369.600000 0 0 1
35.071899 -6.743829 -14.999354 38.736261 -0.189967 1.968408 0.079214 -0.021816 91820.000000 0 0 1
35.774559 -5.538029 -14.738554 39.085979 -0.153584 1.957438 0.080259 -0.018834 394585.000000 0 0 1
35.203449 -4.411229 -15.390054 38.672930 -0.124657 1.980082 0.108657 -0.021634 -549562.000000 0 0 1
35.924259 -3.093629 -15.198954 39.129670 -0.085903 1.969718 0.111546 -0.025456 -79950.200000 0 0 1
36.894099 -2.940029 -16.231354 40.413799 -0.079520 1.984091 0.104087 -0.024444 -703595.000000 0 0 1
-36.206204 -2.372229 -15.972054 39.643703 0.065426 1.985469 0.131664 -0.025129 -875924.000000 0 0 1
-36.161234 -0.851329 -15.722954 39.440727 0.023538 1.980838 0.120144 -0.023325 -520197.000000 0 0 1
-36.322814 -0.114929 -16.905054 40.064210 0.003164 2.006390 0.103118 -0.015485 79873.800000 0 0 1
-36.259064 1.263371 -16.557654 39.880719 -0.034829 1.998936 0.110345 -0.029934 -135234.000000 0 0 1
-36.382504 2.332371 -17.643854 40.502249 -0.064019 2.021531 0.096766 -0.027671 325549.000000 0 0 1
-35.344820 2.398371 -18.620854 40.021803 -0.067753 2.054733 0.093772 -0.016917 652974.000000 0 0 1
-35.582584 3.560271 -19.390554 40.679103 -0.099725 2.067660 0.088068 -0.013205 115794.000000 0 0 1
-34.481254 3.573971 -20.470454 40.258784 -0.103281 2.104205 0.080814 0.001762 393371.000000 0 0 1
-33.144934 3.881371 -20.077054 38.945344 -0.116572 2.112409 0.070497 0.002421 459094.000000 0 0 1
-32.488704 4.366171 -21.210854 39.044586 -0.133590 2.145096 0.064707 -0.001779 -545938.000000 0 0 1
-31.077234 4.918071 -20.897654 37.771601 -0.156952 2.157073 0.080801 -0.005558 157481.000000 0 0 1
-30.206554 3.820371 -20.589754 36.755532 -0.125807 2.165401 0.083543 0.004616 185156.000000 0 0 1
-28.949804 4.055871 -21.224554 36.125101 -0.139194 2.198798 0.062937 0.001733 -248864.000000 0 0 1
-27.930754 3.072871 -20.645254 34.868268 -0.109577 2.204450 0.107030 -0.002673 -559832.000000 0 0 1
-27.426764 3.476471 -19.411854 33.780665 -0.126082 2.182965 0.108397 0.004180 -255109.000000 0 0 1
-26.797704 2.354671 -18.870554 32.859690 -0.087643 2.182517 0.120288 -0.000032 -126419.000000 0 0 1
-26.117674 2.762871 -17.472754 31.544627 -0.105394 2.157845 0.116662 -0.009402 114192.000000 0 0 1
-24.857514 3.335971 -17.724954 30.711540 -0.133407 2.186022 0.112325 -0.006231 -11660.200000 0 0 1
-24.225414 3.802671 -16.544954 29.581523 -0.155700 2.164338 0.119273 -0.021674 -533756.000000 0 0 1
-22.931614 4.572471 -16.768654 28.774193 -0.196815 2.192926 0.126304 -0.027230 -503054.000000 0 0 1
-21.879314 3.773671 -17.282854 28.136134 -0.170796 2.232242 0.146198 -0.032781 -495012.000000 0 0 1
-20.744114 4.568271 -17.216454 27.342159 -0.216760 2.251921 0.134315 -0.038252 -432365.000000 0 0 1
-19.431014 3.900671 -17.734254 26.594799 -0.198111 2.300745 0.168799 -0.043641 465715.000000 0 0 1
-18.848214 3.086971 -16.688254 25.363012 -0.162339 2.288924 0.191524 -0.040910 -599273.000000 0 0 1
-17.700714 2.436971 -17.062554 24.705968 -0.136816 2.333149 0.150220 -0.045112 -1300280.000000 0 1 0
-17.673114 0.941271 -16.540154 24.223989 -0.053210 2.322385 0.154774 -0.041410 132734.000000 0 1 0
-18.534414 0.007971 -17.203454 25.288009 -0.000430 2.318969 0.127477 -0.030702 1254820.000000 0 0 1
-19.929614 0.162771 -16.893054 26.126448 -0.008167 2.273900 0.136777 -0.031086 135887.000000 0 0 1
-20.905614 -0.880329 -17.366254 27.192030 0.042085 2.263542 0.114378 -0.030533 -396164.000000 0 0 1
-20.721214 -2.066829 -16.651454 26.662922 0.099416 2.245310 0.100765 -0.024444 371151.000000 0 0 1
-21.668814 -3.009629 -17.099154 27.766463 0.138009 2.234223 0.121883 -0.014777 -4710.770000 0 0 1
-21.886314 -4.211229 -16.083454 27.484954 0.190091 2.195890 0.131835 -0.023330 -277708.000000 0 0 1
-22.583814 -3.762729 -14.949954 27.343883 0.165095 2.149260 0.125237 -0.025767 186370.000000 0 0 1
-22.541214 -4.612429 -13.843754 26.852009 0.201836 2.112454 0.121319 -0.039986 -209674.000000 0 0 1
-22.846514 -3.789129 -12.646954 26.386856 0.164355 2.070642 0.128436 -0.045127 1213290.000000 0 0 1
-24.203914 -3.270329 -12.537854 27.454003 0.134302 2.045063 0.131156 -0.037549 1585060.000000 0 0 1
-24.449414 -2.726029 -11.278954 27.063257 0.111038 2.000677 0.143191 -0.042753 -258484.000000 0 0 1
-25.709334 -1.818329 -11.302554 28.142920 0.070609 1.984073 0.174785 -0.042019 -17943.100000 0 0 1
-25.740784 -1.278329 -9.981554 27.637900 0.049621 1.940302 0.161949 -0.041111 597844.000000 0 0 1
-26.174164 0.070471 -9.867854 27.972601 -0.002692 1.931325 0.163806 -0.037223 -278369.000000 0 0 1
-26.345744 0.441971 -8.390954 27.653240 -0.016774 1.879092 0.178486 -0.030654 -125380.000000 0 0 1
-25.147854 0.699571 -7.679654 26.303632 -0.027811 1.867074 0.163111 -0.026843 446758.000000 0 0 1
-25.342664 0.846371 -6.264354 26.119133 -0.033385 1.812995 0.162637 -0.032229 -635570.000000 0 0 1
-24.104714 1.195371 -5.446854 24.741350 -0.049550 1.792766 0.109820 -0.022616 -528667.000000 0 1 0
-23.856814 2.589371 -5.353554 24.586846 -0.108115 1.790295 0.140626 -0.026214 892013.000000 0 1 0
-22.479414 2.898171 -5.552454 23.335664 -0.128218 1.811039 0.113808 -0.002985 177224.000000 0 1 0
-22.250114 4.411371 -5.565454 23.355986 -0.195725 1.811399 0.120240 -0.008723 -171035.000000 0 1 0
-22.725914 5.185571 -4.431754 23.727574 -0.224338 1.758676 0.120067 -0.011151 791187.000000 0 1 0
-22.464414 6.515671 -4.741254 23.865946 -0.282298 1.770789 0.115542 -0.016325 -391705.000000 0 1 0
-23.007914 7.493971 -3.677054 24.475385 -0.314876 1.721602 0.126344 -0.016787 -306293.000000 0 1 0
-22.456314 7.341771 -2.395154 23.747093 -0.315982 1.671829 0.113563 -0.017632 495144.000000 0 1 0
-21.099114 7.645671 -2.137054 22.543201 -0.347651 1.665737 0.122525 -0.018954 17208.000000 0 1 0
-20.635614 9.122671 -2.153054 22.664672 -0.416251 1.665936 0.108761 -0.022662 -420113.000000 0 1 0
-20.325714 9.554971 -3.481454 22.727795 -0.439437 1.724582 0.080337 -0.021847 674828.000000 0 1 0
-19.844914 10.906571 -3.547354 22.920681 -0.502529 1.726187 0.081573 -0.018284 -141150.000000 0 1 0
-19.666614 11.529971 -4.940354 23.326445 -0.530264 1.784205 0.080717 -0.021064 158229.000000 0 1 0
-18.518714 11.060471 -5.627554 22.292289 -0.538402 1.826002 0.059150 -0.013461 92967.600000 0 1 0
-18.637914 11.390871 -6.983554 22.932375 -0.548590 1.880239 0.078096 -0.010873 415395.000000 0 1 0
-17.296314 11.421971 -7.791554 22.143446 -0.583631 1.930362 0.048954 -0.003407 419215.000000 0 1 0
-16.818114 10.133871 -8.233454 21.291643 -0.542297 1.967846 0.025889 0.002321 335099.000000 0 1 0
-17.614814 9.402471 -9.147254 21.962705 -0.490307 2.000378 0.046440 -0.004266 -418846.000000 0 1 0
-17.836314 9.990071 -10.576354 23.017274 -0.510562 2.048224 0.050809 -0.006204 588584.000000 0 1 0
-16.783914 9.705371 -11.494554 22.539272 -0.524277 2.105957 0.057683 -0.011345 523730.000000 0 1 0
-17.182414 10.271871 -12.714754 23.715220 -0.538810 2.136658 0.088464 -0.021541 758051.000000 0 1 0
-16.075814 10.034571 -13.826454 23.458373 -0.558026 2.201117 0.069526 -0.008149 293909.000000 0 1 0
-16.120014 8.770171 -14.451554 23.358471 -0.498267 2.237865 0.091089 -0.024136 177709.000000 0 1 0
-15.659314 7.671471 -13.694654 22.172261 -0.455534 2.236545 0.070292 -0.018445 -443395.000000 0 1 0
-15.675714 6.358971 -14.474454 22.263745 -0.385374 2.278559 0.081778 -0.025714 108048.000000 0 1 0
-14.536214 6.190471 -15.308754 21.999577 -0.402603 2.340421 0.090226 -0.029852 480304.000000 0 1 0
-14.439814 4.920871 -15.876754 22.018050 -0.328442 2.376155 0.080434 -0.037295 -12271.600000 0 1 0
33.323309 -15.323629 27.825561 46.038227 -0.431013 0.921782 0.056197 -0.002324 -702685.000000 0 0 1
32.305639 -14.424629 28.110231 45.187491 -0.419944 0.899400 0.060980 -0.003071 -598588.000000 0 0 1
31.459659 -14.808929 29.169391 45.385767 -0.439957 0.872780 0.066346 -0.004432 -62895.500000 0 0 1
31.935279 -14.724829 30.652931 46.650668 -0.432033 0.853866 0.056830 -0.014442 -226044.000000 0 0 1
32.254889 -13.429229 31.103341 46.777557 -0.394519 0.843409 0.046967 -0.012081 48290.300000 0 0 1
32.325639 -13.366629 32.504419 47.750926 -0.392089 0.822068 0.032024 -0.011895 -87599.500000 0 0 1
32.578039 -11.894529 33.012937 47.881755 -0.350071 0.810042 0.047855 -0.009493 59010.700000 0 0 1
32.574379 -11.771429 -33.446234 48.148803 -0.346769 2.338720 0.029860 -0.015151 74621.800000 0 0 1
32.789509 -10.485429 -33.017484 47.699584 -0.309503 2.335324 0.046078 -0.011521 -164019.000000 0 0 1
32.533119 -10.198629 -31.485784 46.408732 -0.303782 2.316441 0.055482 -0.010654 1309000.000000 0 0 1
31.097379 -10.072529 -31.307144 45.261905 -0.313239 2.334621 0.084915 -0.018237 1438620.000000 0 0 1
30.728569 -9.602429 -29.982394 43.993130 -0.302877 2.320640 0.071150 -0.019441 -583687.000000 0 0 1
29.273849 -9.937529 -29.676854 42.853569 -0.327261 2.335770 0.073040 -0.006342 -595245.000000 0 0 1
28.948629 -9.733229 -28.319654 41.650470 -0.324350 2.318472 0.064257 -0.014528 263784.000000 0 0 1
28.027829 -10.725629 -27.891954 40.970226 -0.365485 2.319631 0.093288 -0.018404 -1163810.000000 0 0 1
27.579529 -10.581529 -26.406544 39.622023 -0.366353 2.300248 0.076644 -0.011532 -658939.000000 0 0 1
26.660229 -9.588729 -26.055764 38.491744 -0.345258 2.314364 0.068494 -0.018632 687423.000000 0 0 1
25.524029 -9.300129 -26.893724 38.226180 -0.349417 2.351166 0.066477 -0.021698 -235069.000000 0 0 1
24.405829 -10.345229 -26.848574 37.729487 -0.400925 2.362579 0.073146 -0.006744 -1047530.000000 0 0 1
24.683129 -11.445829 -27.726454 38.846108 -0.434197 2.365636 0.071958 -0.019579 24924.000000 0 0 1
23.906129 -12.584929 -27.483304 38.538493 -0.484568 2.364762 0.081687 -0.028970 -354768.000000 0 0 1
24.604229 -13.848029 -27.944934 39.724744 -0.512641 2.351056 0.077068 -0.008636 -163612.000000 0 0 1
24.649129 -13.803929 -29.344454 40.733585 -0.510501 2.375174 0.073170 -0.016974 -565474.000000 0 0 1
25.837729 -14.265329 -29.856224 41.981924 -0.504464 2.361955 0.076862 -0.003804 -954153.000000 0 0 1
25.793829 -14.443729 -31.388504 43.118222 -0.510464 2.386144 0.078429 -0.011373 -3323.340000 0 0 1
24.765929 -15.326829 -31.854734 43.162333 -0.554177 2.400930 0.090454 -0.012266 327277.000000 0 0 1
24.742929 -15.664529 -33.251834 44.308853 -0.564397 2.419548 0.074973 -0.009107 74695.900000 0 0 1
24.978529 -14.671729 33.463988 44.260875 -0.531084 0.713520 0.061411 -0.009916 374296.000000 0 0 1
23.814029 -13.864329 33.304105 43.226045 -0.527222 0.691228 0.076532 -0.012274 372056.000000 0 0 1
23.903729 -12.879529 32.306500 42.201664 -0.494210 0.698937 0.065432 -0.014690 -592382.000000 0 0 1
22.849329 -11.773629 32.465705 41.409325 -0.475791 0.669682 0.061717 -0.019393 80463.900000 0 0 1
21.475329 -12.069729 32.354260 40.665295 -0.512031 0.650760 0.059262 -0.011263 313850.000000 0 0 1
21.098129 -12.156229 30.953481 39.383028 -0.522717 0.666549 0.052883 -0.008334 -372569.000000 0 0 1
19.578629 -12.439429 30.766891 38.531334 -0.566013 0.646013 0.067087 -0.008127 493031.000000 0 0 1
18.817629 -11.275729 31.055461 38.022189 -0.539839 0.615002 0.071005 -0.010684 338353.000000 0 0 1
17.943029 -11.435829 32.206274 38.600189 -0.567425 0.583834 0.054079 -0.008213 101750.000000 0 0 1
17.317629 -10.165229 32.572655 38.264997 -0.530796 0.552455 0.062076 -0.014446 -482249.000000 0 0 1
16.394629 -9.682629 31.557441 36.856604 -0.533477 0.542884 0.095266 -0.021895 544001.000000 0 0 1
15.719329 -8.510129 32.036482 36.685907 -0.496201 0.508935 0.094755 -0.028705 517654.000000 0 0 1
14.632129 -8.566129 33.150122 37.234505 -0.529640 0.472778 0.092982 -0.027299 -159026.000000 0 0 1
13.509129 -9.265929 32.665766 36.543211 -0.601201 0.464838 0.097449 -0.023043 -648482.000000 0 0 1
12.451829 -9.425429 33.558075 37.013932 -0.647935 0.435561 0.095413 -0.029241 -212985.000000 0 0 1
11.091629 -9.037529 32.954027 35.925883 -0.683704 0.409605 0.123829 -0.037369 -489165.000000 0 0 1
11.136029 -7.705529 32.472986 35.183535 -0.605300 0.395096 0.111278 -0.039506 100042.000000 0 0 1
9.891229 -7.161429 32.079000 34.324695 -0.626664 0.363734 0.110414 -0.035356 89730.800000 0 0 1
10.006729 -5.667229 31.787531 33.803835 -0.515303 0.347130 0.099566 -0.034475 30813.600000 0 0 1
10.217129 -4.915529 32.912569 34.810765 -0.448419 0.331759 0.088087 -0.033069 77653.400000 0 0 1
10.620429 -3.645329 32.564441 34.445969 -0.330638 0.332046 0.049752 -0.024587 -122969.000000 0 0 1
10.759729 -2.717529 33.794186 35.569703 -0.247391 0.317293 0.067913 -0.028071 339227.000000 0 0 1
9.475829 -2.295829 -33.614464 34.999919 -0.237702 2.859286 0.064272 -0.015668 447867.000000 0 0 1
9.534029 -1.461129 -32.459394 33.862145 -0.152071 2.852752 0.074016 -0.016872 -57003.200000 0 0 1
8.130729 -1.197029 -31.890404 32.932347 -0.146173 2.889374 0.065917 -0.013345 319585.000000 0 0 1
7.291829 -0.397229 -32.720704 33.525707 -0.054422 2.922010 0.048526 -0.013426 -420756.000000 0 0 1
5.946029 -0.406929 -32.371624 32.915694 -0.068331 2.959522 0.051968 -0.012627 -497670.000000 0 0 1
5.100529 0.447371 -33.291874 33.683296 0.087487 2.988994 0.078875 -0.020354 -146111.000000 0 0 1
5.644829 1.734971 -33.197754 33.718913 0.298192 2.965547 0.053699 -0.020747 488741.000000 0 0 1
4.936129 2.610671 33.786497 34.244830 0.486492 0.163792 0.069461 -0.027345 68886.700000 0 0 1
5.760129 3.937171 33.811162 34.523544 0.599581 0.203499 0.054923 -0.033908 468029.000000 0 0 1
5.170929 4.946871 33.009624 33.776402 0.763257 0.213485 0.088256 -0.036299 554860.000000 0 0 1
6.074829 6.066271 32.873865 33.976377 0.784693 0.255446 0.077586 -0.042402 273317.000000 0 0 1
5.707529 7.115071 31.805051 33.087179 0.894731 0.279295 0.115117 -0.047705 115099.000000 0 0 1
4.492029 7.724071 32.243879 33.459040 1.044044 0.270333 0.125246 -0.046028 452660.000000 0 0 1
4.139429 8.897871 31.524301 33.016489 1.135361 0.301794 0.144701 -0.044846 17269.700000 0 0 1
3.697929 8.935371 29.970761 31.492254 1.178405 0.312113 0.147182 -0.046947 114360.000000 0 0 1
2.347429 8.557471 29.829771 31.121632 1.303069 0.289138 0.144847 -0.043106 -180133.000000 0 0 1
1.966629 8.490671 28.457141 29.761855 1.343188 0.297195 0.114859 -0.029035 442852.000000 0 0 1
0.594229 7.792971 28.199171 29.262207 1.494692 0.270370 0.127394 -0.027208 1180270.000000 0 0 1
-0.523071 8.576671 28.685071 29.944385 -1.509884 0.291044 0.130842 -0.024130 468731.000000 0 0 1
-1.528271 8.686771 27.683161 29.054311 -1.396648 0.308443 0.118497 -0.012489 599998.000000 0 0 1
-2.941571 9.097971 28.163501 29.742372 -1.258083 0.327296 0.103534 -0.015085 130504.000000 0 0 1
-3.252971 10.469771 28.449921 30.489276 -1.269551 0.367823 0.116685 -0.018708 -973039.000000 0 0 1
-4.493271 10.517771 29.045791 31.216518 -1.167057 0.375124 0.091760 -0.016343 -1299940.000000 0 0 1
-4.828071 11.801571 29.780901 32.395824 -1.182466 0.404544 0.067001 -0.024708 -194342.000000 0 0 1
-5.209571 12.914371 29.014431 32.183192 -1.187368 0.447481 0.066566 -0.026777 216953.000000 0 0 1
-6.320771 12.845071 28.152561 31.583456 -1.113507 0.470437 0.067522 -0.032309 -483679.000000 0 0 1
-6.530871 14.204771 27.499231 31.632823 -1.139851 0.516960 0.059845 -0.030023 -559896.000000 0 0 1
-5.571771 14.524571 26.575451 30.793870 -1.204499 0.529596 0.070914 -0.025257 -577728.000000 0 0 1
-5.597071 15.956471 26.486071 31.423687 -1.233435 0.568202 0.049277 -0.019197 93199.300000 0 0 1
-4.294671 16.491571 25.845741 30.958334 -1.316039 0.582926 0.095608 -0.026848 52517.800000 0 0 1
-4.126571 16.060271 24.508631 29.591112 -1.319294 0.594831 0.080309 -0.009458 -635393.000000 0 0 1
-3.114271 16.831871 23.962591 29.448537 -1.387843 0.620289 0.085679 -0.006643 -432062.000000 0 0 1
-2.926871 16.725571 22.474111 28.167303 -1.397557 0.647027 0.084778 -0.005300 312731.000000 0 0 1
-2.290771 15.522271 21.974411 27.001172 -1.424274 0.620080 0.075181 -0.009926 59707.500000 0 0 1
-2.159071 15.574571 20.518811 25.850541 -1.433046 0.653850 0.063064 -0.005993 72211.400000 0 0 1
-1.359471 14.389171 19.925411 24.615410 -1.476597 0.627549 0.058577 -0.009957 -472583.000000 0 1 0
-2.024071 13.192971 19.908311 23.968567 -1.418563 0.590611 0.060449 -0.006388 -585259.000000 0 1 0
-1.500171 12.332471 18.934611 22.646409 -1.449747 0.580666 0.043669 -0.006372 -116067.000000 0 1 0
-2.236871 10.981771 18.799711 21.886800 -1.369856 0.537577 0.034028 -0.012891 -442025.000000 0 1 0
-2.064771 9.954971 19.802211 22.259656 -1.366285 0.474326 0.054908 -0.022216 -274706.000000 0 1 0
-2.703071 10.115971 21.058711 23.518265 -1.309688 0.461424 0.071667 -0.013354 1223480.000000 0 1 0
-4.283271 10.230771 21.103611 23.840669 -1.174303 0.483886 0.057559 -0.008168 998961.000000 0 1 0
-4.907271 8.971771 21.043011 23.396203 -1.070284 0.452356 0.057510 -0.012376 -1335270.000000 0 1 0
-6.276471 9.096271 21.030011 23.757054 -0.966810 0.483848 0.056338 -0.008129 -1097240.000000 0 1 0
-7.066871 7.806571 20.937811 23.436620 -0.835090 0.465983 0.043913 -0.010174 -256880.000000 0 1 0
-7.010171 6.970671 22.069411 24.182466 -0.782573 0.421148 0.058892 -0.019315 331062.000000 0 1 0
-8.006271 5.934071 22.073111 24.218501 -0.637831 0.424086 0.060675 -0.018366 568197.000000 0 1 0
-8.134671 5.148671 23.404521 25.307179 -0.564281 0.390241 0.062886 -0.022532 -180210.000000 0 0 1
-8.795771 5.819171 24.436351 26.615101 -0.584478 0.407439 0.042218 -0.019915 -157515.000000 0 0 1
-8.946871 4.957271 25.542151 27.514042 -0.505969 0.380897 0.042557 -0.004664 -153851.000000 0 0 1
-9.971471 5.416271 26.591321 28.911323 -0.497590 0.403342 0.033820 -0.000962 -293924.000000 0 0 1
-9.518171 6.432671 27.440311 29.748034 -0.594320 0.396484 0.027655 -0.000483 -440870.000000 0 0 1
-10.519871 6.876271 28.303181 30.968062 -0.578934 0.417890 0.022274 0.002194 -235600.000000 0 0 1
-10.210871 8.224271 28.919451 31.752719 -0.678051 0.425649 0.040623 -0.004319 67380.000000 0 0 1
-8.996771 8.088071 29.624191 31.999242 -0.732261 0.387708 0.045400 -0.004181 -120423.000000 0 0 1
-8.725171 9.201171 30.416191 32.953526 -0.811945 0.394984 0.052193 -0.014562 -232531.000000 0 0 1
-7.805671 8.863371 31.566691 33.703766 -0.848766 0.358020 0.084333 -0.015069 716874.000000 0 0 1
-6.453671 8.527871 31.178921 32.962093 -0.922974 0.330432 0.086223 -0.015165 588505.000000 0 0 1
-5.726671 8.226371 32.360166 33.876958 -0.962668 0.300372 0.123718 -0.019847 348568.000000 0 0 1
-4.269471 7.730671 32.116730 33.308798 -1.066207 0.268343 0.097421 -0.018537 719008.000000 0 0 1
-3.428771 8.859571 31.856232 33.242563 -1.201535 0.289816 0.085611 -0.020523 -229333.000000 0 0 1
-2.047671 8.551671 31.920340 33.109397 -1.335774 0.268812 0.102167 -0.029474 215031.000000 0 0 1
-1.283971 9.824171 31.537611 33.057281 -1.440838 0.304393 0.123073 -0.031113 -193771.000000 0 0 1
-1.650671 10.916171 32.384839 34.214987 -1.420720 0.328553 0.110250 -0.038236 159607.000000 0 0 1
-1.528871 12.113771 31.728951 33.997165 -1.445251 0.367350 0.093866 -0.033714 -257837.000000 0 0 1
-1.829571 13.322071 32.589089 35.254413 -1.434316 0.391344 0.083778 -0.042331 -188346.000000 0 0 1
-0.824771 13.661271 33.533909 36.219244 -1.510497 0.387494 0.150173 -0.043325 -150926.000000 0 0 1
-1.011271 14.836871 -33.639154 36.779724 -1.502742 2.725342 0.130191 -0.041102 -448543.000000 0 0 1
0.244029 15.209471 -32.868634 36.217878 1.554753 2.708150 0.119205 -0.039663 -193154.000000 0 0 1
1.250229 15.836671 -33.653994 37.214977 1.492015 2.700564 0.150099 -0.038268 -145490.000000 0 0 1
2.367329 16.151271 -32.889664 36.717813 1.425260 2.680892 0.165937 -0.039547 250149.000000 0 0 1
3.605229 16.717271 -33.655344 37.751119 1.358390 2.671455 0.162371 -0.026598 438533.000000 0 0 1
3.323829 18.038771 -33.904164 38.547859 1.388580 2.645679 0.142241 -0.017100 688176.000000 0 0 1
4.481629 18.699271 33.436347 38.571194 1.335565 0.521900 0.117929 0.004714 709101.000000 0 0 1
4.270429 20.245971 33.382911 39.275370 1.362916 0.554867 0.118564 -0.014111 44575.800000 0 0 1
4.054729 20.779371 -33.163684 39.345305 1.378085 2.573424 0.130732 -0.038292 266303.000000 0 0 1
4.010329 22.183771 -33.204824 40.134309 1.391950 2.545156 0.110880 -0.025972 74745.000000 0 0 1
3.856929 22.929071 -31.887514 39.464310 1.404145 2.511561 0.127761 -0.031743 45916.600000 0 0 1
3.590829 24.341071 -32.090184 40.437133 1.424331 2.487470 0.124131 -0.027891 199437.000000 0 0 1
3.390029 24.832071 -30.800594 39.708949 1.435117 2.458554 0.125355 -0.027749 -240637.000000 0 0 1
2.738929 26.175571 -30.717554 40.450345 1.466539 2.433170 0.112313 -0.033849 114451.000000 0 0 1
3.743229 27.192971 -30.848544 41.292882 1.434002 2.414435 0.103243 -0.026530 559664.000000 0 0 1
3.268629 28.459271 -30.450124 41.806986 1.456445 2.386707 0.091189 -0.031002 -536956.000000 0 0 1
4.329029 29.570571 -30.368364 42.607472 1.425432 2.364204 0.095908 -0.038617 -371074.000000 0 0 1
5.228829 29.386471 -29.323144 41.841990 1.394706 2.347324 0.096609 -0.044461 -367274.000000 0 0 1
5.898229 30.592271 -29.053634 42.600350 1.380332 2.321296 0.091020 -0.050117 -30108.700000 0 0 1
6.813629 30.550971 -27.749154 41.830646 1.351363 2.296108 0.104102 -0.045127 976052.000000 0 0 1
8.054929 29.847671 -28.033104 41.732724 1.307208 2.307337 0.102178 -0.036899 932848.000000 0 0 1
9.290429 30.510171 -28.004514 42.443320 1.275214 2.291362 0.105814 -0.045129 10483.700000 0 0 1
9.459529 31.751571 -28.949874 43.997047 1.281246 2.288950 0.109211 -0.047501 -621878.000000 0 0 1
8.559529 32.803371 -28.552514 44.323501 1.315553 2.270753 0.082788 -0.043584 378687.000000 0 0 1
8.766829 33.976771 -29.348604 45.745151 1.318280 2.267336 0.065444 -0.033233 -274815.000000 0 0 1
7.612629 -33.810738 -30.330244 46.054770 -1.349335 2.289712 0.056092 -0.023836 -91539.000000 0 0 1
7.462529 33.303471 -31.325384 46.325913 1.350361 2.313383 0.053635 -0.016489 -18760.400000 0 0 1
6.209429 33.468271 -31.940954 46.678761 1.387350 2.324401 0.059092 -0.012205 -371086.000000 0 0 1
5.908629 32.455171 -33.072694 46.712451 1.390714 2.357467 0.076689 -0.036059 -111057.000000 0 0 1
6.515129 32.868371 33.617301 47.464720 1.375114 0.783768 0.093370 -0.029885 41382.600000 0 0 1
6.349729 32.005471 32.485106 46.042929 1.374944 0.787612 0.114934 -0.032011 132482.000000 0 0 1
5.640029 32.887771 31.376711 45.802985 1.400955 0.816143 0.098763 -0.032621 4304.970000 0 0 1
6.537129 33.669771 30.653261 46.000108 1.379028 0.841462 0.095038 -0.030496 -58792.400000 0 0 1
5.959729 -33.841338 29.481931 45.276250 -1.396476 0.861689 0.080727 -0.039752 23064.400000 0 0 1
18.845286 -21.991529 29.167951 41.104033 -0.862291 0.781848 0.090773 -0.001072 -719372.000000 0 0 1
18.018786 -20.861529 29.225791 40.174954 -0.858384 0.756179 0.095878 0.000558 860132.000000 0 0 1
16.691286 -21.126429 29.726021 40.106874 -0.902142 0.735984 0.091407 -0.001631 958545.000000 0 0 1
16.477686 -21.648029 31.204941 41.399271 -0.920189 0.717038 0.067836 -0.020659 -567771.000000 0 0 1
17.062386 -22.930929 31.506621 42.539625 -0.931096 0.736771 0.083255 -0.023950 232794.000000 0 0 1
16.864786 -23.309329 32.838165 43.658801 -0.944458 0.719471 0.105389 -0.029446 -136737.000000 0 0 1
17.570586 -24.610429 33.244956 44.940247 -0.950770 0.738084 0.092623 -0.032851 -409025.000000 0 0 1
17.011986 -25.806519 32.778058 45.053137 -0.987972 0.756064 0.132285 -0.032499 -147613.000000 0 0 1
17.395586 -26.922339 33.579348 46.421885 -0.997140 0.762152 0.123407 -0.033360 -23811.900000 0 0 1
16.958186 -28.240959 32.987227 46.618548 -1.030023 0.784702 0.125013 -0.034767 -199333.000000 0 0 1
17.628686 -28.679819 31.841751 46.337886 -1.019658 0.813217 0.118681 -0.042975 54434.800000 0 0 1
17.188586 -30.003929 31.558991 46.815095 -1.050558 0.831024 0.126160 -0.046903 64778.500000 0 0 1
18.135286 -30.626589 30.531601 46.894085 -1.036175 0.861795 0.110648 -0.045069 -633155.000000 0 0 1
19.387386 -31.023719 30.973261 47.934171 -1.012254 0.868251 0.117448 -0.055764 -434023.000000 0 0 1
20.106286 -31.495949 29.834451 47.815813 -1.002635 0.897015 0.107516 -0.047780 -1210640.000000 0 0 1
21.423486 -32.153639 30.176481 49.024915 -0.983058 0.907734 0.108896 -0.041742 -714211.000000 0 0 1
22.328786 -31.108029 30.480781 48.942437 -0.948236 0.898495 0.090677 -0.039293 275520.000000 0 0 1
23.700186 -31.489279 30.488801 49.828109 -0.925606 0.912362 0.090916 -0.033851 126694.000000 0 0 1
24.574986 -30.253379 30.486731 49.483711 -0.888597 0.907019 0.061567 -0.023067 588480.000000 0 0 1
25.942386 -30.483829 30.099701 50.082564 -0.865710 0.926043 0.050007 -0.021617 892503.000000 0 0 1
26.697386 -29.291649 29.884331 49.636925 -0.831700 0.924720 0.036693 -0.013390 354951.000000 0 0 1
27.736686 -29.412499 28.740531 49.602792 -0.814713 0.952787 0.048709 -0.020795 633803.000000 0 0 1
28.917386 -30.112239 29.166031 50.927591 -0.805637 0.961005 0.042367 -0.011920 651507.000000 0 0 1
29.853586 -30.247579 28.101571 50.949494 -0.791954 0.986566 0.048306 -0.022689 86148.100000 0 0 1
31.074386 -31.110899 28.429901 52.361864 -0.785985 0.996850 0.032676 -0.012340 -153878.000000 0 0 1
30.753086 -32.505809 28.445951 53.024070 -0.813098 1.004545 0.023988 -0.012918 524825.000000 0 0 1
31.834686 -33.315309 28.928311 54.407759 -0.808121 1.010196 0.025194 -0.009479 -325735.000000 0 0 1
31.338886 33.330614 29.393091 54.378391 0.816187 0.999731 0.020542 -0.005437 -163105.000000 0 0 1
30.642486 33.180214 30.619251 54.565805 0.825139 0.975030 0.034368 -0.007611 -91503.100000 0 0 1
29.502586 33.936798 30.839261 54.526772 0.855182 0.969660 0.041460 -0.010062 278586.000000 0 0 1
28.174186 33.864986 29.980611 53.286575 0.876871 0.973233 0.040339 -0.009105 695410.000000 0 0 1
27.507086 32.627221 30.098511 52.221602 0.870338 0.956527 0.037561 -0.006314 543319.000000 0 0 1
26.104586 32.715538 29.811481 51.385603 0.897321 0.951881 0.076447 -0.013228 863467.000000 0 0 1
25.346786 31.417070 29.906601 50.238398 0.891933 0.933165 0.096641 -0.020218 -131482.000000 0 0 1
25.137886 30.827210 28.682721 49.040072 0.886709 0.946060 0.103841 -0.029553 185832.000000 0 0 1
24.451886 29.569300 28.779181 47.963314 0.879846 0.927264 0.113724 -0.038352 -24962.000000 0 0 1
23.927286 29.056840 27.377001 46.543691 0.881910 0.941965 0.115608 -0.039147 1163790.000000 0 0 1
22.608086 29.634820 27.144451 46.110404 0.919097 0.941367 0.132894 -0.037312 779497.000000 0 0 1
22.068586 29.084670 26.006291 44.824856 0.921706 0.951852 0.134732 -0.040727 -604802.000000 0 0 1
20.637086 29.534790 25.756291 44.289724 0.960918 0.950175 0.112964 -0.037557 -552627.000000 0 0 1
20.618586 30.872990 25.338941 44.948076 0.981974 0.971892 0.139287 -0.047023 945393.000000 0 0 1
19.295186 31.439260 25.150221 44.645995 1.020343 0.972391 0.109114 -0.040279 445351.000000 0 0 1
19.263686 32.899288 24.692781 45.422309 1.041081 0.996044 0.122601 -0.038991 -368537.000000 0 0 1
19.691686 33.155594 23.398851 45.106121 1.034861 1.025407 0.117417 -0.039479 -265098.000000 0 0 1
21.082086 33.306159 23.334461 45.806677 1.006480 1.036295 0.115948 -0.041341 -864864.000000 0 0 1
21.646686 33.703238 21.978311 45.689533 0.999872 1.068960 0.117323 -0.036363 -290560.000000 0 0 1
21.370186 -33.109829 21.371911 44.829725 -0.997638 1.073859 0.105072 -0.032365 238955.000000 0 0 1
21.908486 -33.098589 20.061611 44.474336 -0.986090 1.102818 0.110203 -0.028140 -241063.000000 0 0 1
21.546886 -31.776149 19.323011 42.981050 -0.974931 1.104512 0.099528 -0.023817 -209128.000000 0 0 1
22.183086 -30.648139 19.910211 42.752944 -0.944276 1.086367 0.093909 -0.019564 114173.000000 0 0 1
21.864686 -29.373319 19.394811 41.436880 -0.930907 1.083706 0.088692 -0.020612 -590681.000000 0 0 1
22.581986 -28.851889 18.148611 40.887035 -0.906702 1.110881 0.061980 -0.016278 -433145.000000 0 0 1
22.254486 -29.554029 16.986511 40.709266 -0.925371 1.140364 0.052012 -0.013288 109521.000000 0 0 1
22.821686 -28.952779 15.877211 40.139489 -0.903268 1.164129 0.043089 -0.005496 -354751.000000 0 0 1
22.538886 -29.658149 14.560611 39.995232 -0.920954 1.198174 0.026657 -0.005375 -431627.000000 0 0 1
23.291386 -30.821529 14.375411 41.220235 -0.923666 1.214563 0.059129 -0.001192 -233867.000000 0 0 1
23.469986 -31.217589 13.004511 41.164249 -0.926132 1.249373 0.044626 -0.004217 -149600.000000 0 0 1
22.234086 -31.428269 12.081411 40.349116 -0.955085 1.266710 0.031345 -0.003246 166090.000000 0 0 1
21.374986 -32.452709 12.562011 40.839594 -0.988364 1.258133 0.039774 -0.009295 484732.000000 0 0 1
20.261086 -32.661729 11.677811 40.170529 -1.015561 1.275832 0.059796 -0.002020 422622.000000 0 0 1
19.228086 -33.652719 12.255411 40.649968 -1.051696 1.264545 0.080542 -0.006458 59330.900000 0 0 1
18.481986 -33.049979 13.362511 40.155219 -1.060907 1.231555 0.066827 -0.000853 682998.000000 0 0 1
19.017786 -33.329199 14.683211 41.086596 -1.052272 1.205343 0.060622 -0.007947 -613236.000000 0 0 1
18.762186 -32.180019 15.737211 40.438015 -1.042942 1.171067 0.053460 -0.009395 328571.000000 0 0 1
17.429986 -31.981799 16.159011 39.846625 -1.071802 1.153237 0.067153 -0.021513 300197.000000 0 0 1
16.537686 -32.981419 16.668711 40.485985 -1.106010 1.146461 0.074672 -0.010326 -114124.000000 0 0 1
16.991386 -33.766139 17.989311 41.862569 -1.104586 1.126610 0.057576 -0.012723 -291141.000000 0 0 1
18.026786 33.361861 17.778011 41.881218 1.075399 1.132402 0.056079 -0.009436 40734.000000 0 0 1
18.398686 32.888525 19.087511 42.243340 1.060745 1.101962 0.054830 -0.013577 95563.300000 0 0 1
19.255586 31.616760 19.012511 41.615774 1.023763 1.096336 0.071830 -0.011127 108353.000000 0 0 1
18.491586 30.443660 18.776411 40.265479 1.024951 1.085675 0.056695 -0.011533 -42637.000000 0 0 1
19.305886 29.354320 18.424911 39.672039 0.989038 1.087805 0.056652 -0.020821 171692.000000 0 0 1
18.483186 28.054650 18.165311 38.192539 0.988240 1.075122 0.066378 -0.019277 271146.000000 0 0 1
18.019686 27.451390 19.362311 38.120690 0.989920 1.038026 0.075224 -0.029505 -68955.600000 0 0 1
17.783086 26.095810 19.112911 36.912502 0.972626 1.026531 0.083705 -0.032764 -429113.000000 0 0 1
17.629386 25.287790 20.459511 36.998097 0.961986 0.984850 0.096346 -0.035342 1108120.000000 0 0 1
16.368486 25.491140 21.136711 36.938951 0.999977 0.961602 0.092975 -0.032661 1544320.000000 0 0 1
15.259086 24.738930 20.639611 35.648954 1.018112 0.953334 0.093848 -0.039393 1111520.000000 0 0 1
13.864786 24.725540 21.370411 35.500410 1.059739 0.924822 0.107386 -0.043447 1010840.000000 0 0 1
13.095686 25.860250 20.999111 35.794024 1.102040 0.943861 0.099983 -0.042611 575416.000000 0 0 1
11.835586 25.936100 21.685611 35.819382 1.142686 0.920508 0.089204 -0.042297 426385.000000 0 0 1
10.907786 27.028240 21.186111 36.032719 1.187216 0.942251 0.067475 -0.038128 -606383.000000 0 0 1
11.352986 28.338880 21.495411 37.336780 1.189760 0.957316 0.064938 -0.037212 -58104.200000 0 0 1
11.086886 29.184780 20.393511 37.290290 1.207749 0.992157 0.063979 -0.039948 61291.600000 0 0 1
11.655586 30.659570 20.518211 38.689261 1.207508 1.011802 0.057202 -0.033792 -30985.900000 0 0 1
11.184986 31.549220 21.500011 39.783259 1.230096 0.999850 0.057699 -0.032986 -484590.000000 0 0 1
11.761986 31.286640 22.764211 40.440171 1.211199 0.972893 0.047796 -0.028992 15882.200000 0 0 1
11.237986 32.234296 23.841411 41.638384 1.235339 0.961144 0.041871 -0.026492 -192833.000000 0 0 1
9.923286 31.941940 24.239391 41.307472 1.269583 0.943690 0.057070 -0.028222 -441837.000000 0 0 1
9.714186 32.501215 25.483041 42.427347 1.280361 0.926510 0.052659 -0.028513 -191771.000000 0 0 1
8.286286 32.203163 25.978391 42.196955 1.318947 0.907591 0.126088 -0.045395 742541.000000 0 0 1
7.159286 33.013107 25.560091 42.360817 1.357241 0.923051 0.108529 -0.033641 1231600.000000 0 0 1
6.463186 32.723411 24.340881 41.292528 1.375797 0.940389 0.096315 -0.046410 68474.700000 0 0 1
5.397386 31.651040 24.377871 40.313778 1.401893 0.921403 0.083669 -0.042749 -431065.000000 0 0 1
6.039186 30.429380 24.741201 39.680549 1.374877 0.897573 0.074440 -0.039042 10395.800000 0 0 1
5.307186 29.264800 24.389191 38.463325 1.391396 0.883966 0.057447 -0.029702 208135.000000 0 0 1
6.184486 27.925490 24.594931 37.722559 1.352850 0.860583 0.065175 -0.029077 692432.000000 0 0 1
7.241786 27.615910 23.714911 37.114404 1.314338 0.877641 0.075792 -0.033838 21384.000000 0 0 1
8.417986 28.377750 23.708321 37.924183 1.282425 0.895472 0.094932 -0.040442 -198169.000000 0 0 1
9.481086 27.873480 24.712531 38.438666 1.242926 0.872507 0.081807 -0.046362 -1012770.000000 0 0 1
9.171186 28.079250 26.072171 39.399404 1.255102 0.847659 0.088322 -0.038445 587960.000000 0 0 1
10.249286 27.742550 26.970541 40.026329 1.216907 0.831430 0.098203 -0.029577 1164200.000000 0 0 1
11.512386 28.670290 26.915311 40.975048 1.188960 0.854135 0.075159 -0.023254 -6362.900000 0 0 1
11.237886 29.987070 27.432331 42.166897 1.212238 0.862467 0.090155 -0.034569 -346403.000000 0 0 1
12.393186 30.752620 27.494681 43.072871 1.187710 0.878470 0.079200 -0.023194 -834749.000000 0 0 1
12.180886 32.035540 28.333791 44.468568 1.207448 0.879983 0.075434 -0.032679 -235518.000000 0 0 1
11.959086 31.767270 29.728551 45.121679 1.210747 0.851503 0.079794 -0.050387 300354.000000 0 0 1
10.673386 31.260440 30.047661 44.654207 1.241773 0.832679 0.110986 -0.047288 -125922.000000 0 0 1
10.525986 30.954520 31.595321 45.466944 1.243016 0.802505 0.137357 -0.040906 -11364.700000 0 0 1
11.226586 29.803270 32.002764 45.149175 1.210545 0.782968 0.127321 -0.036546 222107.000000 0 0 1
11.451086 29.855420 33.401223 46.239758 1.204550 0.763604 0.138684 -0.040672 -111634.000000 0 0 1
11.524186 28.436860 -33.832094 45.673542 1.185768 2.404963 0.146255 -0.040055 1275510.000000 0 0 1
12.794886 27.806080 33.678980 45.510009 1.139536 0.737675 0.137995 -0.032481 1061540.000000 0 0 1
12.875986 26.485230 -33.693494 44.749413 1.118284 2.423310 0.140515 -0.031290 -18366.400000 0 0 1
14.121786 25.725230 33.674195 44.667255 1.068762 0.716833 0.146547 -0.028871 -49035.500000 0 0 1
14.166186 24.335920 33.864921 44.042601 1.043635 0.693657 0.113000 -0.018829 -108275.000000 0 0 1
14.233786 23.869570 -32.671264 42.892523 1.033091 2.436730 0.102454 -0.021429 -291493.000000 0 0 1
14.186586 22.294580 -32.592894 41.959555 1.004095 2.460316 0.077831 -0.037721 228089.000000 0 0 1
15.459486 21.727680 -32.882114 42.335815 0.952386 2.460202 0.080071 -0.019206 298739.000000 0 0 1
15.527286 20.356780 -32.614344 41.463123 0.919180 2.476058 0.072685 -0.008836 300227.000000 0 0 1
16.864086 19.686780 -33.043434 41.998038 0.862472 2.476379 0.087583 -0.020493 -447927.000000 0 0 1
17.902186 20.000980 -32.227604 41.942174 0.840714 2.447105 0.063153 -0.022095 -1995280.000000 0 0 1
19.119686 19.539180 -32.671184 42.599862 0.796249 2.444842 0.078422 -0.022040 -512525.000000 0 0 1
20.275586 19.994580 -31.720284 42.626975 0.778420 2.410037 0.058750 -0.014640 169775.000000 0 0 1
20.517186 21.384580 -31.875374 43.523495 0.806096 2.392595 0.030560 -0.010023 268953.000000 0 0 1
21.537686 21.862680 -30.979954 43.607410 0.792886 2.360903 0.017790 -0.001105 512628.000000 0 0 1
21.085486 22.179080 -29.540724 42.534265 0.810670 2.338543 0.036421 -0.003864 385730.000000 0 0 1
20.261986 23.366510 -29.472094 42.721730 0.856437 2.332095 0.019187 0.002544 630193.000000 0 0 1
19.857386 23.838330 -28.128604 41.878397 0.876253 2.307262 0.030255 0.015609 160044.000000 0 0 1
21.037986 24.427220 -27.307394 42.249020 0.859806 2.273579 0.027975 0.011868 -3968.530000 0 0 1
21.703586 25.500910 -27.910994 43.593183 0.865669 2.265634 0.032387 0.011047 -32519.900000 0 0 1
20.972786 26.756680 -28.006304 44.046915 0.905991 2.259878 0.033814 0.006916 67536.000000 0 0 1
21.738286 27.845610 -28.843404 45.605625 0.907952 2.255512 0.036586 0.000229 -88618.800000 0 0 1
21.639686 27.632680 -30.251464 46.335646 0.906434 2.282172 0.035802 -0.002019 15889.200000 0 0 1
22.119386 26.402650 -30.829714 46.225950 0.873445 2.300884 0.034106 0.002647 496995.000000 0 0 1
23.594286 25.996390 -30.514714 46.515055 0.833799 2.286327 0.058493 0.000911 138960.000000 0 0 1
24.602386 26.895810 -30.888304 47.778126 0.829903 2.273777 0.053672 0.002816 479200.000000 0 0 1
25.891786 26.300300 -30.683054 47.995210 0.793225 2.264376 0.071077 -0.004196 1759700.000000 0 0 1
27.190186 27.099290 -31.146454 49.434596 0.783724 2.252419 0.065010 0.006843 1119620.000000 0 0 1
27.594086 28.116430 -30.215924 49.648457 0.794774 2.225088 0.057983 0.003538 148356.000000 0 0 1
28.762986 28.850560 -30.526214 50.906914 0.786918 2.213857 0.060615 -0.012264 239876.000000 0 0 1
28.869586 30.168440 -29.760854 51.276663 0.807395 2.190013 0.048930 -0.007364 69801.700000 0 0 1
29.111886 30.041150 -28.333124 50.524633 0.801106 2.166122 0.069443 -0.008075 365516.000000 0 0 1
28.756286 31.224780 -27.572854 50.617913 0.826530 2.146858 0.065972 -0.009947 -436994.000000 0 0 1
29.059886 31.076320 -26.088254 49.908032 0.818917 2.120842 0.085158 -0.010930 -62805.600000 0 0 1
28.545186 30.036160 -25.245284 48.521365 0.810844 2.117989 0.079123 -0.001926 -431356.000000 0 0 1
27.156886 29.972550 -25.100594 47.601366 0.834644 2.126226 0.067133 0.000254 -574490.000000 0 0 1
26.662486 29.692170 -23.648854 46.387298 0.839107 2.105764 0.068289 0.008294 -90043.600000 0 0 1
26.555186 30.777960 -22.759154 46.587979 0.858919 2.081189 0.092406 -0.003628 -175364.000000 0 0 1
25.737786 30.408480 -21.719654 45.374581 0.868395 2.069941 0.065880 -0.000355 -223518.000000 0 0 1
3.854486 -26.269389 -19.044454 32.674594 -1.425107 2.193030 0.069227 -0.020804 -247152.000000 0 0 1
3.518886 -27.453859 -18.291554 33.176466 -1.443317 2.154767 0.084445 -0.023718 322967.000000 0 0 1
3.053586 -27.053829 -17.012354 32.103804 -1.458401 2.129299 0.093751 -0.027466 -271791.000000 0 0 1
3.068186 -28.283809 -16.067354 32.673345 -1.462740 2.084903 0.092718 -0.029057 -356157.000000 0 0 1
4.375886 -28.530079 -15.627554 32.822770 -1.418604 2.067033 0.082225 -0.028597 -305559.000000 0 0 1
4.405986 -29.460799 -14.559254 33.156044 -1.422342 2.025408 0.086055 -0.034585 880108.000000 0 0 1
5.835386 -30.027279 -14.175954 33.714194 -1.378853 2.004764 0.103072 -0.024147 597911.000000 0 0 1
6.711086 -28.937259 -13.934554 32.811209 -1.342907 2.009414 0.093730 -0.021195 803316.000000 0 0 1
8.120086 -29.221529 -13.835154 33.335342 -1.299754 1.998772 0.088971 -0.013738 1233750.000000 0 0 1
8.628886 -30.161879 -12.722654 33.853546 -1.292153 1.956072 0.082030 -0.016766 -1313220.000000 0 0 1
8.733886 -29.552379 -11.478954 32.884499 -1.283437 1.927374 0.094813 -0.024574 -4491.130000 0 0 1
8.984886 -30.464019 -10.415854 33.425659 -1.283993 1.887686 0.096434 -0.022038 518796.000000 0 0 1
10.374986 -31.167679 -10.353154 34.442014 -1.249457 1.876115 0.076258 -0.015186 385861.000000 0 0 1
11.476086 -30.545079 -9.716954 34.045875 -1.211404 1.860228 0.071637 -0.013871 270892.000000 0 0 1
12.556786 -31.454039 -9.602754 35.202874 -1.190971 1.847081 0.065890 -0.012702 270835.000000 0 0 1
13.728686 -30.872319 -8.771454 34.907239 -1.152365 1.824798 0.069937 -0.012108 -64673.500000 0 0 1
14.628486 -29.973129 -9.380354 34.646387 -1.116752 1.844964 0.052736 -0.016018 364737.000000 0 0 1
15.755886 -29.798159 -8.542354 34.772835 -1.084411 1.818999 0.049184 -0.017636 -219276.000000 0 0 1
17.010486 -29.198379 -9.171154 35.014455 -1.043282 1.835812 0.063091 -0.022339 -292649.000000 0 0 1
16.992186 -27.823239 -9.450754 33.943832 -1.022532 1.852948 0.060407 -0.019539 64811.400000 0 0 1
16.440486 -27.411729 -10.700554 33.707482 -1.030553 1.893839 0.056192 -0.016902 46317.800000 0 0 1
16.012386 -25.920109 -10.880754 32.351806 -1.017421 1.913809 0.054140 -0.015700 -941867.000000 0 0 1
14.979986 -25.591369 -10.001654 31.294588 -1.041216 1.896100 0.030729 -0.014512 -12418.200000 0 0 1
14.408286 -24.294329 -10.194454 30.028986 -1.035487 1.917168 0.008609 -0.006237 332331.000000 0 0 1
13.686686 -23.984029 -11.553554 29.933988 -1.052231 1.967053 0.006882 -0.000939 -258920.000000 0 0 1
14.560186 -23.650029 -12.627054 30.508448 -1.018947 1.997516 0.006094 -0.005393 61287.600000 0 0 1
13.880286 -23.468029 -13.871354 30.591260 -1.036684 2.041419 0.022248 -0.014029 -62336.300000 0 0 1
14.743086 -22.738029 -14.901654 30.926297 -0.995555 2.073554 0.024990 -0.021955 -373180.000000 0 0 1
15.628086 -23.649129 -15.509854 32.312133 -0.986844 2.071452 0.030965 -0.026440 -180013.000000 0 0 1
16.198686 -23.144429 -16.679854 32.806700 -0.960140 2.104155 0.036824 -0.030832 -727737.000000 0 0 1
17.110086 -24.189729 -17.391354 34.356327 -0.955169 2.101575 0.043657 -0.031954 270117.000000 0 0 1
18.348886 -24.576129 -16.879154 35.008193 -0.929466 2.073902 0.066649 -0.032447 20013.300000 0 0 1
19.385286 -23.582429 -16.789854 34.839912 -0.882771 2.073635 0.073081 -0.040267 765773.000000 0 0 1
20.720786 -24.277629 -16.305654 35.841716 -0.864278 2.043096 0.076392 -0.036456 764671.000000 0 0 1
21.286486 -25.152789 -17.261154 37.198450 -0.868462 2.053334 0.093241 -0.034424 -667111.000000 0 0 1
22.510886 -25.625369 -16.782554 38.013861 -0.850010 2.028049 0.117234 -0.032679 -390793.000000 0 0 1
23.169686 -26.596389 -17.776754 39.499560 -0.854146 2.037617 0.107608 -0.034010 -340557.000000 0 0 1
23.802086 -25.926559 -18.839954 39.920792 -0.828094 2.062279 0.111360 -0.032010 -445470.000000 0 0 1
24.546086 -26.762999 -19.652254 41.291398 -0.828578 2.066830 0.094420 -0.030842 -272420.000000 0 0 1
25.630586 -25.992409 -20.426954 41.830524 -0.792407 2.080967 0.087739 -0.030677 -144444.000000 0 0 1
25.093386 -24.842929 -21.068654 41.118576 -0.780383 2.108759 0.090062 -0.029217 35297.700000 0 0 1
25.291786 -23.656129 -20.347154 40.165826 -0.751994 2.102008 0.096486 -0.020853 -1058300.000000 0 0 1
24.441986 -22.552429 -20.897554 39.277608 -0.745212 2.131813 0.124461 -0.027231 -902731.000000 0 0 1
24.683386 -22.040629 -22.183854 39.839456 -0.728897 2.161362 0.109952 -0.022209 -39073.800000 0 0 1
24.344586 -22.822929 -23.315854 40.708402 -0.753149 2.180657 0.069824 -0.024731 -137730.000000 0 0 1
23.599686 -22.036029 -24.434154 40.491476 -0.751148 2.218604 0.057513 -0.026702 -5240.380000 0 0 1
24.389186 -21.207529 -25.224124 40.998148 -0.715733 2.233500 0.053374 -0.014001 -69053.900000 0 0 1
23.522586 -20.441829 -26.055174 40.620838 -0.715439 2.267149 0.039079 -0.002845 -113675.000000 0 0 1
24.140986 -19.641229 -27.194784 41.329425 -0.682982 2.288957 0.043500 0.004639 -110869.000000 0 0 1
23.206386 -18.859429 -27.922844 40.913318 -0.682427 2.321957 0.036834 -0.000685 287211.000000 0 0 1
23.882486 -18.276329 -28.993414 41.773381 -0.653197 2.337916 0.053443 -0.007677 129928.000000 0 0 1
22.952286 -17.294929 -29.739254 41.356320 -0.645748 2.373300 0.076694 -0.013158 -292404.000000 0 0 1
21.850486 -17.846629 -30.376294 41.456786 -0.684878 2.393109 0.065023 -0.014520 1291.600000 0 0 1
20.989586 -16.857129 -30.979214 41.041896 -0.676640 2.426175 0.076264 -0.022807 187198.000000 0 0 1
19.768986 -17.505329 -31.641384 41.211971 -0.724743 2.446152 0.063897 -0.019535 -385385.000000 0 0 1
20.055086 -18.315129 -32.740584 42.539350 -0.740083 2.449096 0.062634 -0.014733 -427428.000000 0 0 1
19.046486 -19.221029 -32.996934 42.673343 -0.789959 2.454738 0.072243 -0.017943 -591668.000000 0 0 1
19.403886 -20.098229 33.635222 43.723881 -0.802974 0.693107 0.082288 -0.019384 -6496.320000 0 0 1
20.332886 -21.119729 -33.915104 44.829717 -0.804378 2.428790 0.058113 -0.011378 26224.500000 0 0 1
20.660286 -21.852329 32.807921 44.505408 -0.813431 0.741928 0.055797 -0.014424 -139065.000000 0 0 1
21.522986 -23.087729 33.103918 45.740043 -0.820459 0.761589 0.039176 -0.002846 -196459.000000 0 0 1
20.851186 -24.102929 33.814167 46.466343 -0.857607 0.755815 0.055733 -0.005877 -57015.500000 0 0 1
20.850086 -23.886829 -32.658544 45.517987 -0.853174 2.370984 0.058949 -0.015544 300512.000000 0 0 1
19.800286 -24.731629 -31.829684 44.909170 -0.895686 2.358531 0.078433 -0.020091 242698.000000 0 0 1
19.949686 -26.128379 -31.819044 45.750778 -0.918695 2.339893 0.091184 -0.028298 295674.000000 0 0 1
21.031486 -26.648679 -31.034784 45.996014 -0.902667 2.311392 0.074789 -0.028497 420734.000000 0 0 1
21.141186 -28.186679 -31.114194 47.005656 -0.927269 2.294180 0.083991 -0.039234 -64727.100000 0 0 1
19.904886 -28.778109 -30.776794 46.600377 -0.965684 2.292202 0.095060 -0.031288 -194877.000000 0 0 1
19.820086 -30.187429 -30.657974 47.371173 -0.989818 2.274684 0.095241 -0.030801 -1083410.000000 0 0 1
18.409486 -30.601719 -30.344684 46.863357 -1.029213 2.275114 0.139409 -0.041181 -735531.000000 0 0 1
17.377686 -30.479699 -31.291894 47.012537 -1.052622 2.299104 0.159903 -0.050962 -55532.100000 0 0 1
17.339186 -31.403989 -32.348834 48.304295 -1.066317 2.304586 0.157154 -0.052204 -322251.000000 0 0 1
15.928786 -31.982429 -32.632614 48.388940 -1.108712 2.310923 0.165024 -0.051604 578214.000000 0 0 1
15.095186 -30.974829 -33.272124 47.899258 -1.117330 2.338698 0.161260 -0.047675 868731.000000 0 0 1
13.793286 -31.530029 -33.554254 48.065429 -1.158415 2.343530 0.106948 -0.035102 716404.000000 0 0 1
12.881886 -30.488749 33.663934 47.209822 -1.171034 0.776928 0.108006 -0.024054 -70152.200000 0 0 1
12.306886 -29.544019 -33.318804 46.200121 -1.176095 2.376307 0.115149 -0.031082 368975.000000 0 0 1
11.453386 -28.648719 33.812669 45.773636 -1.190474 0.739667 0.091889 -0.022055 345280.000000 0 0 1
10.558686 -27.682569 -33.266944 44.547728 -1.206409 2.413990 0.090665 -0.025335 601688.000000 0 0 1
9.440986 -28.309399 -32.644644 44.229256 -1.248902 2.401014 0.084673 -0.018250 -34083.400000 0 0 1
8.457086 -27.432419 -32.196024 43.135182 -1.271753 2.413430 0.042927 -0.015009 459573.000000 0 0 1
7.394986 -28.093199 -31.226914 42.650133 -1.313405 2.392291 0.035164 -0.015620 -170216.000000 0 0 1
6.368986 -28.834699 -31.783234 43.384073 -1.353408 2.392932 0.038350 -0.012782 -647572.000000 0 0 1
6.678686 -30.070179 -32.347524 44.667469 -1.352241 2.380649 0.039573 -0.012754 -614804.000000 0 0 1
5.421386 -30.859749 -32.704104 45.290992 -1.396893 2.377613 0.041620 -0.017332 252160.000000 0 0 1
4.529486 -31.170819 -31.642224 44.647134 -1.426495 2.358476 0.042855 -0.031997 658305.000000 0 0 1
3.594686 -32.235779 -31.888814 45.485862 -1.459743 2.347694 0.064008 -0.052332 -218504.000000 0 0 1
2.852686 -32.689559 -30.578464 44.852955 -1.483751 2.320947 0.052527 -0.062212 904193.000000 0 0 1
1.784886 -31.830739 -30.142734 43.874437 -1.514781 2.328180 0.059741 -0.060328 384524.000000 0 0 1
0.549886 -31.897289 -30.812494 44.352556 -1.553559 2.338823 0.058567 -0.033018 -469401.000000 0 0 1
-0.371714 -30.804699 -30.255714 43.179577 1.558730 2.347167 0.046100 -0.032003 -278447.000000 0 0 1
-1.004114 -31.037969 -29.026414 42.507605 1.538456 2.322456 0.039222 -0.034948 -553477.000000 0 0 1
-1.938814 -30.064659 -28.746104 41.641100 1.506397 2.332742 0.058501 -0.028014 -258261.000000 0 0 1
-2.612414 -30.364249 -27.365024 40.959210 1.484972 2.302454 0.055224 -0.029891 -112379.000000 0 0 1
-1.656814 -30.207979 -26.326964 40.104564 1.516004 2.286910 0.049710 -0.017485 223275.000000 0 0 1
-2.291014 -30.084969 -25.084784 39.237743 1.494792 2.264387 0.057388 -0.015383 165381.000000 0 0 1
-1.248014 -30.341619 -23.984154 38.696396 1.529687 2.239288 0.045504 -0.014319 225411.000000 0 0 1
-1.774514 -30.333829 -22.664154 37.907176 1.512363 2.211657 0.063519 -0.020240 -229247.000000 0 0 1
-0.859614 -30.858429 -21.745054 37.760150 1.542947 2.184468 0.056020 -0.016573 -420154.000000 0 0 1
-1.327114 -30.801929 -20.297254 36.912039 1.527738 2.153019 0.045891 -0.008065 -50026.500000 0 0 1
-1.270814 -29.466319 -19.746854 35.493903 1.527695 2.160777 0.033477 -0.015325 -459074.000000 0 0 1
-0.032014 -29.027689 -19.286354 34.850699 1.569693 2.157236 0.042107 -0.030923 -846596.000000 0 0 1
-0.112814 -27.583489 -18.702854 33.326541 1.566706 2.166631 0.049835 -0.031928 -303403.000000 0 0 1
-0.910714 -27.485139 -17.540854 32.618152 1.537674 2.138579 0.053360 -0.040574 104395.000000 0 0 1
-0.682314 -26.308029 -16.834654 31.240735 1.544867 2.139890 0.068173 -0.041146 -598902.000000 0 0 1
-1.934414 -25.997289 -16.027554 30.602018 1.496525 2.122034 0.065169 -0.041860 -686240.000000 0 0 1
-1.873814 -24.841829 -15.235954 29.202088 1.495509 2.119688 0.054145 -0.034202 -148693.000000 0 0 1
-2.811814 -24.935929 -14.201654 28.833901 1.458509 2.085794 0.056210 -0.029398 -313756.000000 0 0 1
-2.703514 -23.788329 -13.132454 27.306683 1.457633 2.072505 0.049111 -0.023011 174092.000000 0 0 1
-1.496214 -23.847529 -12.385954 26.913847 1.508138 2.049025 0.069073 -0.030507 -13896.300000 0 0 1
-1.183714 -22.631329 -11.756654 25.530318 1.518540 2.049352 0.070751 -0.026623 763211.000000 0 0 1
0.107386 -22.700229 -10.855254 25.162442 -1.566066 2.016848 0.086765 -0.032075 819810.000000 0 0 1
0.424286 -21.410729 -10.293054 23.760183 -1.550982 2.018843 0.065497 -0.023476 141998.000000 0 1 0
1.726486 -21.476329 -9.723154 23.637961 -1.490579 1.994716 0.060045 -0.023263 491330.000000 0 1 0
2.220086 -20.095429 -9.283554 22.247234 -1.460765 2.001258 0.046259 -0.012694 -857830.000000 0 1 0
2.485486 -19.217229 -10.369754 21.977519 -1.442174 2.062167 0.039521 -0.008126 859479.000000 0 1 0
3.529886 -18.199029 -10.257054 21.186597 -1.379215 2.076164 0.027987 -0.007157 1499980.000000 0 1 0
4.983886 -18.596229 -9.875854 21.637730 -1.308945 2.044762 0.052034 -0.019074 167234.000000 0 1 0
4.954486 -19.153229 -8.568254 21.559408 -1.317669 1.979506 0.050388 -0.015205 -1188620.000000 0 1 0
6.109086 -19.866429 -8.364254 22.404390 -1.272466 1.953393 0.047209 -0.013123 -1150060.000000 0 1 0
5.914886 -21.098529 -7.532854 23.170621 -1.297467 1.901918 0.043693 -0.008773 34032.600000 0 1 0
4.942786 -22.013429 -8.027554 23.947105 -1.349925 1.912635 0.065867 -0.026630 303334.000000 0 1 0
4.641586 -23.047829 -7.137354 24.570075 -1.372065 1.865535 0.080333 -0.024709 -52717.100000 0 1 0
3.596086 -23.996229 -7.710354 25.459780 -1.422043 1.878472 0.087886 -0.028694 -262118.000000 0 0 1
4.182186 -24.728729 -8.715354 26.551047 -1.403259 1.905246 0.096275 -0.032489 -158780.000000 0 0 1
3.268686 -25.608809 -9.334654 27.452344 -1.443844 1.917746 0.098298 -0.037594 102986.000000 0 0 1
3.861786 -26.709749 -10.289554 28.882504 -1.427208 1.935054 0.092417 -0.039758 345873.000000 0 0 1
4.639686 -27.742439 -9.632354 29.731328 -1.405088 1.900730 0.113878 -0.047329 362356.000000 0 0 1
5.341386 -28.510559 -10.604354 30.884215 -1.385596 1.921287 0.126264 -0.033281 68895.200000 0 0 1
5.124986 -30.036269 -10.619754 32.267974 -1.401797 1.906159 0.112850 -0.040131 146286.000000 0 0 1
3.887486 -30.400979 -11.221654 32.638284 -1.443613 1.921777 0.107023 -0.037779 127971.000000 0 0 1
3.452386 -31.709149 -10.875554 33.699655 -1.462347 1.899398 0.102997 -0.033610 488355.000000 0 0 1
1.902286 -31.782819 -11.096154 33.717813 -1.511015 1.906135 0.089217 -0.043158 561249.000000 0 0 1
1.513486 -31.506729 -12.429354 33.903591 -1.522796 1.946158 0.096441 -0.052571 173576.000000 0 0 1
1.359486 -32.700919 -13.203354 35.292023 -1.529247 1.954241 0.094320 -0.045766 -255892.000000 0 0 1
0.925686 -32.615669 -14.699554 35.787088 -1.542422 1.994073 0.099363 -0.043721 978842.000000 0 0 1
-0.427414 -32.117109 -14.789754 35.361394 1.557489 2.002310 0.101378 -0.036993 832284.000000 0 0 1
-0.772014 -32.087749 -16.193454 35.950627 1.546741 2.038050 0.068746 -0.032920 479457.000000 0 0 1
-2.082014 -31.294149 -16.470354 35.425007 1.504364 2.054358 0.071502 -0.025090 -15277.400000 0 0 1
-3.294114 -31.856219 -16.078954 35.835773 1.467757 2.036089 0.071976 -0.030583 41598.300000 0 0 1
-4.321414 -31.276379 -16.924254 35.823413 1.433497 2.062848 0.073168 -0.024534 1443300.000000 0 0 1
-5.809314 -31.311909 -16.437554 35.838205 1.387352 2.047283 0.083832 -0.026028 629915.000000 0 0 1
-5.906614 -30.351329 -15.399154 34.543092 1.378591 2.032859 0.057060 -0.023648 665886.000000 0 0 1
-7.246614 -29.874359 -15.184454 34.286417 1.332823 2.029594 0.070233 -0.028353 773591.000000 0 0 1
-7.992614 -30.571759 -14.014354 34.567564 1.315082 1.988234 0.059564 -0.032589 -55610.100000 0 0 1
-8.353514 -31.889269 -14.354954 35.955130 1.314599 1.981491 0.065864 -0.036380 6729.490000 0 0 1
-9.327514 -32.506629 -13.525354 36.422777 1.291362 1.951252 0.057338 -0.030099 144229.000000 0 0 1
-9.561914 -33.950529 -13.979554 37.940698 1.296265 1.948146 0.099545 -0.042032 565051.000000 0 0 1
-8.400414 33.250574 -13.867054 36.992740 -1.323335 1.955041 0.097108 -0.042532 789978.000000 0 0 1
-8.708214 32.063111 -14.486554 36.245501 -1.305597 1.981963 0.118859 -0.046110 -318232.000000 0 0 1
-8.147314 -22.011829 -3.186554 23.686567 1.216299 1.705735 0.069909 -0.022167 206808.000000 0 1 0
-7.478514 -20.994829 -3.966454 22.637221 1.228602 1.746924 0.044584 -0.020975 509945.000000 0 1 0
-6.401014 -21.499729 -4.745154 22.928755 1.281428 1.779255 0.033387 -0.001575 319342.000000 0 1 0
-5.991914 -20.460329 -5.774354 22.087808 1.285907 1.835297 0.028626 -0.009984 -158605.000000 0 1 0
-6.762814 -20.583629 -6.916754 22.743415 1.253354 1.879812 0.034312 -0.012806 -401719.000000 0 1 0
-6.781114 -19.319029 -7.567554 21.828336 1.233225 1.924831 0.022322 -0.018832 -5583.540000 0 1 0
-7.783114 -19.198129 -8.767154 22.494622 1.185635 1.971150 0.036161 -0.038253 287023.000000 0 1 0
-7.477514 -20.075729 -9.809654 23.562203 1.214250 2.000202 0.049644 -0.021489 -580439.000000 0 1 0
-8.534814 -20.331429 -10.675054 24.498303 1.173352 2.021664 0.069492 -0.012766 -117428.000000 0 1 0
-8.037414 -21.382529 -11.719454 25.674076 1.211248 2.044820 0.050049 -0.011873 -735862.000000 0 0 1
-6.953914 -20.950229 -12.496254 25.365831 1.250313 2.085919 0.049029 -0.004826 -380509.000000 0 0 1
-6.694814 -21.731429 -13.643654 26.518387 1.271952 2.111218 0.027660 -0.007890 -64221.100000 0 0 1
-5.608014 -21.068829 -14.488354 26.177429 1.310652 2.157318 0.026377 -0.001520 -574496.000000 0 0 1
-4.292014 -21.154629 -14.022854 25.740632 1.370626 2.146917 0.029004 -0.004911 493782.000000 0 0 1
-3.246014 -20.621429 -14.889454 25.641291 1.414668 2.190363 0.043841 0.000154 919547.000000 0 0 1
-3.183914 -19.053729 -15.158654 24.555380 1.405224 2.236134 0.051295 0.008676 -575010.000000 0 1 0
-4.193514 -18.470529 -15.975654 24.778368 1.347543 2.271482 0.040698 0.008431 152135.000000 0 1 0
-4.166714 -18.955429 -17.284254 25.988752 1.354421 2.298379 0.057709 -0.007539 -558758.000000 0 0 1
-5.423314 -18.530529 -18.071054 26.445337 1.286079 2.323119 0.043825 0.009008 -310121.000000 0 0 1
-6.540714 -19.174229 -17.557954 26.808837 1.242054 2.284888 0.024193 0.002967 -104296.000000 0 0 1
-7.768714 -18.798129 -18.226354 27.311583 1.178902 2.301440 0.017232 -0.001009 1192370.000000 0 0 1
-8.902614 -19.748429 -17.735954 27.996804 1.147276 2.256864 0.054291 -0.002093 -46308.400000 0 0 1
-8.613414 -21.051529 -18.198354 29.129673 1.182420 2.245590 0.051752 0.002261 395741.000000 0 0 1
-9.389114 -22.058129 -17.550654 29.710974 1.168373 2.202738 0.092575 -0.009257 -5423.170000 0 0 1
-8.856814 -23.468029 -17.885354 30.807100 1.209924 2.190212 0.098264 -0.024342 -645617.000000 0 0 1
-9.004514 -23.802129 -19.275754 31.924557 1.209129 2.219044 0.090728 -0.033568 193247.000000 0 0 1
-8.198814 -24.780129 -19.921854 32.835280 1.251271 2.222725 0.099531 -0.052664 486105.000000 0 0 1
-6.660914 -24.530129 -19.974654 32.327725 1.305650 2.236840 0.084401 -0.043716 -46658.000000 0 0 1
-6.316514 -23.319429 -20.678654 31.800957 1.306275 2.278713 0.114457 -0.043709 -43699.300000 0 0 1
-6.011014 -22.176429 -19.928854 30.415219 1.306102 2.285279 0.084500 -0.036819 -763802.000000 0 0 1
-5.053314 -22.237429 -18.760254 29.529415 1.347347 2.259203 0.097579 -0.030679 -1098810.000000 0 0 1
-3.740814 -22.559829 -19.085854 29.786061 1.406474 2.266290 0.086934 -0.039235 -662711.000000 0 0 1
-2.902414 -22.327929 -17.981354 28.814745 1.441531 2.244690 0.046508 -0.038746 -15696.900000 0 0 1
-1.496314 -22.949429 -18.113354 29.274713 1.505688 2.237931 0.074372 -0.038347 301925.000000 0 0 1
-0.579814 -22.270629 -18.974554 29.263472 1.544767 2.276283 0.092159 -0.033408 -899393.000000 0 0 1
0.612786 -22.953429 -19.044254 29.831511 -1.544106 2.263206 0.071940 -0.028929 -755414.000000 0 0 1
1.636586 -22.117429 -19.855254 29.767267 -1.496936 2.300993 0.073643 -0.017805 -49244.300000 0 0 1
1.398586 -22.092929 -21.235054 30.675415 -1.507576 2.335398 0.075346 -0.026498 -758840.000000 0 0 1
2.170986 -21.154029 -21.825554 30.472298 -1.468527 2.369199 0.064251 -0.018244 -662937.000000 0 0 1
1.969286 -21.078629 -23.398454 31.554308 -1.477641 2.406144 0.072429 -0.026625 616021.000000 0 0 1
1.089786 -20.111729 -23.988854 31.323065 -1.516663 2.443163 0.045451 -0.012868 646998.000000 0 0 1
-0.322414 -20.173829 -23.781954 31.187637 1.554816 2.438033 0.062087 -0.024671 651012.000000 0 0 1
-1.097614 -19.200129 -24.709554 31.311528 1.513691 2.480223 0.077823 -0.017702 -119039.000000 0 0 1
-1.052014 -17.853129 -24.351854 30.213470 1.511938 2.508148 0.053913 -0.013940 49218.900000 0 0 1
-1.493514 -16.978329 -25.408924 30.595877 1.483056 2.550745 0.069998 -0.024675 -28776.800000 0 0 1
-1.259014 -15.458829 -25.147164 29.545564 1.489533 2.588934 0.059816 -0.013366 272814.000000 0 0 1
0.124086 -15.163029 -25.281134 29.479969 -1.562613 2.601323 0.055755 -0.019654 -37023.200000 0 0 1
0.496586 -13.874329 -24.854854 28.469411 -1.535020 2.632192 0.054669 -0.016424 280849.000000 0 0 1
0.289386 -12.687829 -25.822944 28.773064 -1.547992 2.684795 0.057497 -0.009847 -332560.000000 0 0 1
0.980286 -11.581529 -25.423684 27.954543 -1.486355 2.712792 0.051812 -0.007419 -297394.000000 0 0 1
0.659886 -10.480329 -26.286854 28.306739 -1.507915 2.761534 0.045096 -0.009781 -733506.000000 0 0 1
1.327186 -9.120829 -25.972324 27.559256 -1.426299 2.800583 0.049236 -0.014179 1428380.000000 0 0 1
2.753686 -9.003029 -26.197264 27.837636 -1.273970 2.796587 0.079430 -0.019384 1043770.000000 0 0 1
3.235286 -9.247129 -27.479484 29.173593 -1.234238 2.799129 0.082332 -0.020435 -1592190.000000 0 0 1
4.632386 -8.812829 -27.806654 29.535317 -1.086847 2.797765 0.103909 -0.028611 -1585860.000000 0 0 1
4.706786 -7.426529 -28.194164 29.533338 -1.005908 2.839297 0.106015 -0.025007 -102472.000000 0 0 1
5.990486 -7.013329 -28.554414 30.007120 -0.863894 2.829158 0.103514 -0.026031 -386318.000000 0 0 1
7.156686 -6.931029 -27.509154 29.257664 -0.769382 2.794124 0.106409 -0.028169 587533.000000 0 0 1
7.803586 -8.202329 -27.144874 29.411194 -0.810305 2.746455 0.081049 -0.026716 996593.000000 0 0 1
8.471886 -8.945529 -28.216474 30.789036 -0.812585 2.729902 0.089249 -0.038147 -318964.000000 0 0 1
8.801086 -10.358129 -27.751434 30.901328 -0.866489 2.686149 0.078015 -0.030686 367408.000000 0 0 1
7.653786 -11.138329 -27.376474 30.530544 -0.968742 2.683034 0.086912 -0.031348 598443.000000 0 0 1
7.983086 -12.328429 -26.658834 30.437038 -0.996156 2.638028 0.089815 -0.028318 -65317.600000 0 0 1
9.035486 -13.300429 -27.257104 31.646345 -0.974073 2.608626 0.084799 -0.039223 35340.400000 0 0 1
8.514586 -13.994129 -28.356284 32.747712 -1.024194 2.617746 0.097774 -0.047647 24321.000000 0 0 1
9.522886 -14.803029 -28.933684 33.866991 -0.999141 2.595062 0.097518 -0.055632 281895.000000 0 0 1
8.898486 -15.562529 -30.124764 35.055339 -1.051378 2.604791 0.093043 -0.050611 135856.000000 0 0 1
8.492886 -14.676329 -31.150784 35.466817 -1.046201 2.643108 0.093123 -0.049589 393721.000000 0 0 1
7.853986 -15.386829 -32.230754 36.568581 -1.098835 2.649568 0.109848 -0.049352 1042240.000000 0 0 1
6.582786 -14.627129 -32.827064 36.536312 -1.147910 2.687086 0.124123 -0.047565 1045290.000000 0 0 1
6.996086 -13.447629 -33.417824 36.695162 -1.091083 2.715742 0.134642 -0.053280 742654.000000 0 0 1
5.852486 -12.872129 33.824039 36.660727 -1.144071 0.395969 0.109209 -0.052326 627826.000000 0 0 1
6.305086 -11.643029 32.997431 35.554813 -1.074477 0.381594 0.144879 -0.052167 -110174.000000 0 0 1
6.994586 -11.979029 31.838431 34.729052 -1.042297 0.410888 0.137962 -0.045947 -29430.100000 0 0 1
7.303386 -10.789329 31.161961 33.775981 -0.975737 0.396011 0.134493 -0.045409 -119388.000000 0 0 1
7.743086 -11.125429 29.678281 32.627150 -0.962773 0.428430 0.122654 -0.041079 -529586.000000 0 0 1
6.762086 -11.774829 28.975371 31.999133 -1.049501 0.438228 0.121590 -0.040340 -459877.000000 0 0 1
7.083986 -11.727929 27.602011 30.815551 -1.027421 0.460755 0.107531 -0.040578 -191793.000000 0 0 1
6.218686 -12.546729 26.650221 30.105261 -1.110641 0.483798 0.100097 -0.046041 -328430.000000 0 0 1
6.376786 -13.951029 26.760611 30.845177 -1.142067 0.520484 0.101379 -0.034363 -93357.300000 0 0 1
6.112386 -14.757829 25.554031 30.135748 -1.178127 0.558664 0.085712 -0.035105 -291600.000000 0 0 1
4.646086 -15.151329 25.336351 29.884437 -1.273254 0.558953 0.092169 -0.042295 -410774.000000 0 0 1
3.819086 -14.047229 25.096631 29.012945 -1.305338 0.525616 0.075736 -0.044886 -1312910.000000 0 0 1
2.553386 -14.503929 24.808991 28.850819 -1.396534 0.535711 0.068842 -0.037389 -197971.000000 0 0 1
1.426286 -13.400629 24.706991 28.143322 -1.464761 0.499340 0.075237 -0.031339 97504.200000 0 0 1
1.604986 -12.484829 23.603471 26.750155 -1.442943 0.489926 0.041954 -0.022367 -172658.000000 0 0 1
0.553886 -11.562729 23.434281 26.137502 -1.522930 0.458817 0.050636 -0.006317 701746.000000 0 0 1
-0.850914 -12.092229 23.005801 26.004095 1.500543 0.484948 0.054919 -0.001271 -120084.000000 0 0 1
-0.832114 -12.797329 21.741511 25.241976 1.505865 0.532927 0.047602 -0.008918 336128.000000 0 0 1
-2.075314 -13.496629 21.544311 25.507318 1.418226 0.564918 0.053862 -0.014824 692646.000000 0 0 1
-2.379414 -13.866929 20.092211 24.528561 1.400862 0.610894 0.063966 -0.025314 154945.000000 0 1 0
-1.428814 -14.746429 19.513111 24.500208 1.474206 0.649400 0.076104 -0.039534 -376410.000000 0 1 0
-1.811714 -15.187329 18.213611 23.783879 1.452066 0.698517 0.072330 -0.043748 526135.000000 0 1 0
-2.843514 -16.389329 18.171611 24.635404 1.399008 0.741255 0.057380 -0.044552 528374.000000 0 1 0
-2.492814 -17.491329 17.389211 24.790026 1.429232 0.793352 0.046061 -0.044900 -184967.000000 0 1 0
-3.544914 -18.418229 17.572911 25.702233 1.380654 0.817960 0.053555 -0.039748 255571.000000 0 0 1
-3.190414 -19.850429 17.004411 26.331887 1.411436 0.868762 0.044980 -0.035280 295626.000000 0 0 1
-2.187914 -20.492729 17.782311 27.220388 1.464434 0.858899 0.061387 -0.045442 -9851.120000 0 0 1
-2.255914 -21.889629 17.585611 28.169110 1.468100 0.896578 0.068513 -0.052833 -195375.000000 0 0 1
-1.124114 -22.705029 18.265211 29.161617 1.521327 0.893942 0.089945 -0.044960 157283.000000 0 0 1
0.001686 -22.723529 17.397011 28.618434 -1.570722 0.917389 0.090650 -0.052932 -603274.000000 0 0 1
1.031686 -23.410029 18.099011 29.608581 -1.526755 0.913125 0.130305 -0.050059 95173.100000 0 0 1
2.377586 -23.238129 17.361011 29.104437 -1.468837 0.931654 0.132135 -0.051748 -62253.600000 0 0 1
2.955986 -21.952829 17.454211 28.201313 -1.436950 0.903436 0.118636 -0.043951 -521343.000000 0 0 1
4.056586 -21.799629 16.607611 27.703654 -1.386816 0.927953 0.100021 -0.030141 -93047.800000 0 0 1
4.838086 -20.493929 16.961511 27.038881 -1.338967 0.892714 0.091690 -0.028752 -512336.000000 0 0 1
5.830986 -20.734729 17.929911 28.025187 -1.296658 0.876586 0.099176 -0.023663 -126739.000000 0 0 1
6.450686 -19.530329 18.460111 27.637308 -1.251787 0.839357 0.098475 -0.021285 1000260.000000 0 0 1
7.598986 -18.935329 17.576111 26.929741 -1.189159 0.859699 0.100957 -0.021793 132.044000 0 0 1
6.994486 -18.363729 16.393811 25.591139 -1.206875 0.875510 0.083356 -0.023048 -162613.000000 0 0 1
7.779786 -17.393329 15.798111 24.751430 -1.150202 0.878547 0.085387 -0.025585 -626101.000000 0 1 0
6.974586 -16.484329 14.908811 23.294862 -1.170533 0.876293 0.043463 -0.015611 -187744.000000 0 1 0
6.477786 -17.121429 13.709111 22.870172 -1.209097 0.928005 0.058457 -0.024796 3329.250000 0 1 0
6.082286 -16.142929 12.777811 21.467669 -1.210469 0.933267 0.046104 -0.030498 -178263.000000 0 1 0
6.555886 -16.395929 11.335411 20.983271 -1.190421 1.000108 0.055203 -0.024031 1232540.000000 0 1 0
7.971886 -16.086529 11.296011 21.211489 -1.110705 1.009195 0.054015 -0.017295 821926.000000 0 1 0
8.484586 -16.299629 10.015611 20.927938 -1.090853 1.071764 0.058146 -0.019225 573235.000000 0 1 0
9.983086 -15.885029 9.874511 21.201465 -1.009714 1.086318 0.048450 -0.009667 749316.000000 0 1 0
10.562286 -16.457729 8.732211 21.416588 -1.000219 1.150828 0.048982 -0.006274 -332568.000000 0 1 0
11.916486 -16.099029 8.551611 21.778692 -0.933597 1.167275 0.055391 -0.003236 157689.000000 0 1 0
12.756386 -16.990329 7.625511 22.573105 -0.926782 1.226203 0.046469 -0.011200 -64832.400000 0 1 0
13.187586 -18.195729 8.211811 23.925526 -0.943644 1.220449 0.057111 -0.013015 312919.000000 0 1 0
14.000486 -18.993229 7.337611 24.710259 -0.935583 1.269304 0.045898 -0.010480 241028.000000 0 1 0
14.599186 -20.246029 7.994611 26.209764 -0.946057 1.260833 0.054096 -0.011466 -677746.000000 0 0 1
13.630086 -21.142929 8.452811 26.537760 -0.998181 1.246628 0.067901 -0.015036 -385495.000000 0 0 1
14.127586 -22.317229 8.977511 27.897009 -1.006440 1.243157 0.061001 -0.009231 -316791.000000 0 0 1
13.035186 -23.153129 9.680411 28.278858 -1.058028 1.221412 0.078931 -0.015103 94050.400000 0 0 1
12.759686 -22.546129 10.939211 28.121235 -1.055800 1.171249 0.085574 -0.025546 -555156.000000 0 0 1
11.775886 -23.086829 11.785611 28.470578 -1.099126 1.143999 0.109343 -0.024545 -140531.000000 0 0 1
12.040986 -24.498029 12.333411 29.954162 -1.113965 1.146431 0.093065 -0.030186 -130890.000000 0 0 1
13.201286 -24.615829 13.111711 30.856603 -1.078538 1.131918 0.051850 -0.023722 -76379.700000 0 0 1
13.005186 -25.719849 14.019411 32.049795 -1.102641 1.118062 0.058083 -0.027862 51039.500000 0 0 1
14.222286 -25.974509 14.926511 33.162468 -1.069838 1.103916 0.042633 -0.021556 -176775.000000 0 0 1
14.313186 -25.128959 16.057711 33.078421 -1.053038 1.063926 0.046532 -0.014633 517344.000000 0 0 1
15.265186 -25.706879 16.957411 34.371839 -1.034935 1.054857 0.047566 -0.011450 2644.390000 0 0 1
15.241586 -25.161859 18.418211 34.708149 -1.026166 1.011418 0.059622 -0.009186 -120342.000000 0 0 1
15.507886 -23.809129 18.537311 33.926406 -0.993478 0.992739 0.044804 -0.012216 1219540.000000 0 0 1
16.808586 -23.609329 19.164111 34.744671 -0.952097 0.986551 0.050957 -0.014191 1145920.000000 0 0 1
17.153886 -22.096729 19.399411 34.042009 -0.910669 0.964453 0.055643 -0.020699 36366.100000 0 0 1
17.487586 -21.267829 18.254311 33.035679 -0.882632 0.985359 0.050141 -0.018858 -121642.000000 0 0 1
16.358786 -20.721329 17.650911 31.757488 -0.902512 0.981468 0.059558 -0.008559 -910080.000000 0 0 1
16.660986 -19.720829 16.463611 30.619439 -0.869304 1.003107 0.041652 -0.005693 331423.000000 0 0 1
17.461586 -18.625429 16.923711 30.630468 -0.817638 0.985421 0.045387 -0.010288 394702.000000 0 0 1
18.864286 -18.759629 16.833411 31.482514 -0.782617 1.006654 0.059984 -0.013525 204851.000000 0 0 1
19.689286 -17.448729 17.108711 31.382067 -0.725141 0.994199 0.075493 -0.016495 -42995.000000 0 0 1
19.575586 -17.086029 18.482811 31.886522 -0.717596 0.952505 0.074120 -0.015229 331385.000000 0 0 1
20.244886 -15.840529 18.712711 31.795335 -0.663945 0.941549 0.080603 -0.024128 -199579.000000 0 0 1
20.746986 -15.750729 20.152811 32.934157 -0.649351 0.912320 0.068984 -0.015887 241279.000000 0 0 1
21.753986 -16.747729 20.408311 34.208500 -0.656097 0.931556 0.065876 -0.017790 266380.000000 0 0 1
22.093786 -16.609329 21.775811 35.187940 -0.644630 0.903527 0.056425 -0.010334 164922.000000 0 0 1
34.908789 -1.701029 -7.805354 35.811179 -0.048689 1.790519 0.169805 -0.018823 -197891.000000 0 0 1
36.154449 -1.332629 -8.324554 37.124362 -0.036843 1.796954 0.177504 -0.024548 239653.000000 0 0 1
37.152749 -2.340729 -8.077954 38.092769 -0.062920 1.784479 0.172305 -0.036074 332519.000000 0 0 1
-35.750811 -1.991629 -8.581254 36.820171 0.055651 1.806018 0.169648 -0.037951 112561.000000 0 0 1
-34.857941 -3.041929 -8.212754 35.941323 0.087046 1.801338 0.174901 -0.037763 -470246.000000 0 0 1
-33.626044 -2.887429 -8.857854 34.892831 0.085659 1.827464 0.200401 -0.035555 -511076.000000 0 0 1
-32.597814 -3.884529 -8.297554 33.860840 0.118606 1.818366 0.202412 -0.031398 -412768.000000 0 0 1
-32.081104 -3.594029 -7.026454 33.037635 0.111564 1.785114 0.207536 -0.038485 287123.000000 0 0 1
-31.094174 -4.465029 -6.519154 32.082449 0.142622 1.775421 0.200993 -0.039780 104225.000000 0 0 1
-30.884324 -4.193229 -5.007654 31.567408 0.134947 1.730103 0.210158 -0.054402 123314.000000 0 0 1
-30.210684 -2.928829 -4.800254 30.729561 0.096645 1.727648 0.211937 -0.051337 578208.000000 0 0 1
-29.993354 -2.766629 -3.427954 30.315118 0.091981 1.684116 0.215090 -0.054851 -128450.000000 0 0 1
-29.593024 -1.296329 -2.970054 29.769931 0.043777 1.670729 0.228177 -0.048209 -423266.000000 0 0 1
-28.195844 -1.213029 -2.874354 28.367922 0.042995 1.672295 0.204423 -0.037420 -81872.100000 0 0 1
-27.905414 0.062471 -2.362554 28.005316 -0.002239 1.655258 0.216976 -0.043639 315943.000000 0 0 1
-26.366564 0.221071 -2.155654 26.455461 -0.008384 1.652369 0.192813 -0.028617 298321.000000 0 0 1
-25.992274 -0.576629 -1.053454 26.020004 0.022181 1.611294 0.185036 -0.033296 824042.000000 0 0 1
-24.587014 -0.434629 -0.804554 24.604014 0.017675 1.603502 0.148146 -0.029497 668629.000000 0 1 0
-24.083314 -1.257029 0.352846 24.118678 0.052148 1.556166 0.132213 -0.032365 -66681.800000 0 1 0
-24.308814 -2.637329 0.095946 24.451650 0.108070 1.566872 0.146234 -0.032060 485143.000000 0 1 0
-23.461714 -3.384029 0.953046 23.723659 0.143248 1.530613 0.125196 -0.029240 21178.300000 0 1 0
-23.628414 -4.915529 0.800746 24.147579 0.205109 1.537630 0.130247 -0.024745 -345774.000000 0 1 0
-24.714114 -5.423329 1.535246 25.348707 0.216019 1.510194 0.145949 -0.027616 -25626.400000 0 0 1
-24.717714 -6.840729 1.644846 25.699543 0.269996 1.506750 0.121803 -0.023639 420661.000000 0 0 1
-26.055224 -7.517029 2.102046 27.199247 0.280877 1.493436 0.133430 -0.020163 514840.000000 0 0 1
-26.179074 -7.292929 3.548446 27.406609 0.271690 1.440958 0.126910 -0.017622 285424.000000 0 0 1
-27.529744 -7.283829 3.968646 28.752237 0.258654 1.432325 0.128421 -0.005687 253693.000000 0 0 1
-27.681964 -7.453929 5.487346 29.188408 0.263032 1.381673 0.111910 -0.011691 111677.000000 0 0 1
-27.120684 -8.670829 6.006946 29.099797 0.309442 1.362876 0.120339 -0.001583 -68193.500000 0 0 1
-27.282924 -8.792929 7.412146 29.607659 0.311776 1.317759 0.089832 -0.012336 -91457.400000 0 0 1
-26.623544 -7.741329 8.374446 28.963298 0.282968 1.277468 0.104857 -0.015617 -616429.000000 0 0 1
-25.242634 -7.731829 8.213146 27.648283 0.297227 1.269186 0.133424 -0.017231 -482692.000000 0 0 1
-24.686914 -6.528929 8.805946 27.011393 0.258550 1.238718 0.117013 -0.024352 504327.000000 0 0 1
-23.328614 -6.062129 8.184546 25.455067 0.254235 1.243452 0.154728 -0.031187 688298.000000 0 0 1
-22.203914 -6.709129 8.748746 24.790457 0.293437 1.210119 0.145835 -0.035085 468443.000000 0 1 0
-21.005614 -6.454629 7.999946 23.385833 0.298123 1.221661 0.133956 -0.023774 323357.000000 0 1 0
-19.753614 -6.618629 8.855846 22.637083 0.323303 1.168851 0.146529 -0.026425 -467506.000000 0 1 0
-19.518314 -5.608329 9.739146 22.522631 0.279799 1.123626 0.126808 -0.026183 1109260.000000 0 1 0
-18.327214 -5.784229 10.559746 21.928345 0.305715 1.068366 0.115547 -0.037960 905520.000000 0 1 0
-18.179514 -4.668829 11.592546 22.060821 0.251385 1.017516 0.120529 -0.029127 344512.000000 0 1 0
-19.328214 -4.691129 12.434446 23.456385 0.238105 1.012067 0.121812 -0.029738 526601.000000 0 1 0
-19.480914 -3.433129 13.090346 23.720235 0.174439 0.986198 0.119433 -0.026682 694444.000000 0 1 0
-20.670214 -3.446529 14.131646 25.275279 0.165219 0.977485 0.111259 -0.026738 454587.000000 0 0 1
-20.486814 -4.292629 15.228446 25.885165 0.206543 0.941832 0.098480 -0.024849 53721.800000 0 0 1
-21.646414 -4.220629 16.021446 27.259268 0.192565 0.942530 0.079171 -0.015589 -73148.200000 0 0 1
-21.527614 -5.263829 17.125546 28.007685 0.239810 0.912893 0.082789 -0.006989 -218623.000000 0 0 1
-22.423914 -4.985329 18.145646 29.273707 0.218764 0.902230 0.069640 -0.007360 105489.000000 0 0 1
-22.084614 -5.837229 19.265246 29.882321 0.258403 0.870161 0.079368 -0.004799 35104.000000 0 0 1
-22.714914 -5.398129 20.621346 31.150394 0.233319 0.847321 0.087635 -0.009071 -71276.800000 0 0 1
-22.187114 -4.201729 21.070946 30.885390 0.187161 0.819988 0.059982 -0.004951 4177.050000 0 0 1
-22.932314 -3.728129 22.149746 32.099863 0.161161 0.809271 0.066067 -0.012660 -12460.700000 0 0 1
-22.708414 -2.252229 22.471946 32.027066 0.098857 0.793079 0.077359 -0.006083 371887.000000 0 0 1
-23.795414 -1.539729 21.879446 32.362056 0.064617 0.828362 0.088123 -0.011432 284385.000000 0 0 1
-23.705514 -0.161529 22.017546 32.353513 0.006814 0.822310 0.094434 -0.015313 216887.000000 0 0 1
-24.975214 0.564071 21.529946 32.979055 -0.022581 0.859473 0.110227 -0.020238 325925.000000 0 0 1
-26.189384 0.402771 22.211946 34.342636 -0.015378 0.867448 0.112770 -0.024036 -229650.000000 0 0 1
-27.271774 1.166671 21.723146 34.885611 -0.042753 0.898612 0.105763 -0.021471 405699.000000 0 0 1
-28.419574 0.982171 22.751846 36.418173 -0.034546 0.895999 0.101611 -0.023383 -40812.500000 0 0 1
-28.212224 1.795971 23.878546 37.004595 -0.063574 0.869399 0.106088 -0.022653 37095.400000 0 0 1
-29.292924 1.674071 24.774246 38.401057 -0.057087 0.869583 0.096473 -0.018869 -96231.600000 0 0 1
-29.168034 2.592771 26.010446 39.166822 -0.088658 0.844515 0.121867 -0.020689 -423487.000000 0 0 1
-28.254254 2.177671 26.963446 39.116142 -0.076922 0.810250 0.100612 -0.022763 -405784.000000 0 0 1
-28.169314 3.077971 28.048546 39.871106 -0.108835 0.790513 0.091006 -0.026113 -411446.000000 0 0 1
-26.941364 3.018971 28.952946 39.663893 -0.111592 0.752537 0.096923 -0.025391 -408429.000000 0 0 1
-27.075574 1.946871 29.900446 40.384572 -0.071782 0.737142 0.082695 -0.024352 -13207.500000 0 0 1
-26.035434 1.897671 30.829546 40.396855 -0.072759 0.702596 0.081955 -0.028721 -181591.000000 0 0 1
-26.325944 0.724971 31.766046 41.263332 -0.027531 0.692210 0.049147 -0.022852 -93268.700000 0 0 1
-26.142364 -0.503529 31.132046 40.655640 0.019259 0.698590 0.047862 -0.027012 -177141.000000 0 0 1
-26.376944 -1.618129 31.985846 41.490431 0.061270 0.690510 0.051758 -0.022716 -587326.000000 0 0 1
-26.968114 -2.812429 31.153746 41.300664 0.103912 0.716185 0.051115 -0.019455 1866680.000000 0 0 1
-28.343914 -2.666129 30.653646 41.834576 0.093788 0.748464 0.053357 -0.013135 1724970.000000 0 0 1
-28.478404 -1.587429 29.705646 41.182094 0.055684 0.765084 0.060183 -0.013559 -838208.000000 0 0 1
-29.911284 -1.416029 29.178646 41.810088 0.047306 0.798356 0.079890 -0.019003 960230.000000 0 0 1
-30.922904 -0.892429 30.072946 43.143997 0.028852 0.799540 0.101573 -0.015680 -736479.000000 0 0 1
-32.133584 -0.702429 29.455646 43.596969 0.021856 0.828970 0.089798 -0.018689 -859862.000000 0 0 1
-33.231514 -0.507329 30.515446 45.119656 0.015265 0.828037 0.083497 -0.023983 -306015.000000 0 0 1
-33.549194 -1.665629 31.233246 45.867618 0.049607 0.821746 0.093108 -0.027075 -255686.000000 0 0 1
-34.219370 -1.252729 32.389446 47.133967 0.036592 0.813198 0.120745 -0.025963 -137783.000000 0 0 1
-34.527987 -2.439029 33.352946 48.068178 0.070522 0.803950 0.127899 -0.021360 178921.000000 0 0 1
-35.499679 -3.338829 32.837046 48.473153 0.093777 0.826537 0.093256 -0.029743 -62626.400000 0 0 1
-35.669614 -4.391829 33.711746 49.275667 0.122509 0.817364 0.078851 -0.017969 14606.000000 0 0 1
-36.953094 -5.218729 33.471846 50.131136 0.140298 0.839701 0.073072 -0.014130 260325.000000 0 0 1
36.182659 -4.497529 33.766346 49.694856 -0.123666 0.823751 0.081713 -0.023189 -439377.000000 0 0 1
35.081849 -5.072729 33.148246 48.531174 -0.143602 0.818893 0.067533 -0.026556 -600654.000000 0 0 1
33.692339 -4.666429 33.721446 47.896609 -0.137626 0.789717 0.083329 -0.030297 -60284.500000 0 0 1
33.334889 -5.345029 -32.942019 47.169490 -0.158990 2.343922 0.079198 -0.026761 263579.000000 0 0 1
32.898999 -6.730729 -33.154719 47.189853 -0.201803 2.349815 0.075448 -0.023572 157543.000000 0 0 1
31.437129 -6.825229 -33.689719 46.581906 -0.213789 2.379273 0.064808 -0.028424 42073.000000 0 0 1
30.443239 -6.787229 -32.672519 45.170242 -0.219360 2.379394 0.072511 -0.026957 36971.200000 0 0 1
29.202729 -7.045729 -33.301319 44.848852 -0.236745 2.407626 0.082608 -0.023665 -386514.000000 0 0 1
28.032729 -6.941329 -32.313519 43.337968 -0.242733 2.412256 0.085346 -0.029421 43523.400000 0 0 1
26.759329 -7.154029 -32.913319 43.017768 -0.261238 2.442008 0.072084 -0.025920 253590.000000 0 0 1
25.741829 -6.814829 -31.986319 41.619806 -0.258801 2.447346 0.076479 -0.028128 -34409.300000 0 0 1
24.347629 -7.362629 -32.366219 41.165367 -0.293654 2.475511 0.090253 -0.036157 -82438.600000 0 0 1
24.215929 -8.762429 -32.360519 41.356917 -0.347189 2.469418 0.095734 -0.041310 169417.000000 0 0 1
23.923129 -9.268929 -31.039919 40.270408 -0.369638 2.450872 0.099346 -0.041650 -395277.000000 0 0 1
23.573129 -10.747329 -30.863019 40.295452 -0.427761 2.443265 0.091677 -0.035069 68257.200000 0 0 1
22.434029 -11.158829 -31.599019 40.327449 -0.461571 2.471173 0.102348 -0.042027 277239.000000 0 0 1
22.233429 -12.516529 -31.343019 40.415018 -0.512739 2.458349 0.090930 -0.028415 -478941.000000 0 0 1
21.089329 -13.174729 -32.174819 40.663894 -0.558391 2.483627 0.082978 -0.025908 880837.000000 0 0 1
19.737029 -13.022229 -31.763819 39.598851 -0.583224 2.501667 0.078891 -0.031823 376799.000000 0 0 1
19.248229 -11.704429 -31.955819 39.098112 -0.546338 2.527547 0.078851 -0.033648 -81504.500000 0 0 1
17.833029 -11.500129 -31.293919 37.809777 -0.572766 2.545735 0.079051 -0.033458 249966.000000 0 0 1
16.789429 -11.916129 -32.107019 38.141051 -0.617233 2.571400 0.059168 -0.020653 -1242690.000000 0 0 1
15.583629 -11.574129 -31.522819 37.020239 -0.638820 2.589640 0.080046 -0.031936 -1610910.000000 0 0 1
14.387129 -11.869029 -32.348819 37.340453 -0.689785 2.618585 0.084030 -0.027606 -2521360.000000 0 0 1
14.158729 -13.240829 -32.661719 37.981273 -0.751910 2.605954 0.092187 -0.028542 822050.000000 0 0 1
12.862729 -13.460129 -33.249119 38.106808 -0.808089 2.631142 0.095404 -0.029604 1443990.000000 0 0 1
11.663129 -13.223129 -32.250519 36.755621 -0.848001 2.641276 0.105346 -0.037015 -625371.000000 0 0 1
11.355129 -11.862029 -32.005919 35.972567 -0.807228 2.667553 0.143538 -0.037821 -413362.000000 0 0 1
10.251929 -11.873929 -31.106119 34.837952 -0.858575 2.674498 0.138105 -0.043874 362963.000000 0 0 1
9.122629 -10.979429 -31.700319 34.766082 -0.877505 2.718485 0.115440 -0.039190 -192777.000000 0 0 1
9.485529 -9.632929 -31.888819 34.636186 -0.793108 2.740614 0.123479 -0.044837 107937.000000 0 0 1
8.421929 -8.839129 -32.358819 34.585434 -0.809563 2.780807 0.114082 -0.036787 -155204.000000 0 0 1
8.818329 -7.337529 -32.438819 34.407546 -0.693996 2.801675 0.117235 -0.030936 -52305.100000 0 0 1
9.086729 -6.701129 -31.184019 33.164994 -0.635429 2.794216 0.120331 -0.031817 209251.000000 0 0 1
9.617629 -5.438029 -31.435719 33.320795 -0.514607 2.803613 0.107021 -0.031231 -405917.000000 0 0 1
9.488929 -4.472529 -30.210719 31.980163 -0.440459 2.807385 0.100696 -0.023549 1128500.000000 0 0 1
8.111229 -4.138129 -29.938819 31.292955 -0.471753 2.846335 0.097100 -0.022718 988207.000000 0 0 1
8.192429 -3.321729 -28.758819 30.086865 -0.385207 2.843368 0.105890 -0.023095 1049720.000000 0 0 1
6.755729 -2.843629 -28.355519 29.287567 -0.398411 2.888633 0.087047 -0.023161 312377.000000 0 0 1
6.074929 -2.022629 -29.319019 30.010010 -0.321403 2.926585 0.063497 -0.009320 -185011.000000 0 0 1
4.828729 -1.480029 -29.054519 29.490205 -0.297414 2.969485 0.074086 -0.016602 -285188.000000 0 0 1
3.613929 -2.418029 -28.909619 29.234798 -0.589676 2.992303 0.064175 -0.016899 -515059.000000 0 0 1
3.628029 -3.266929 -27.757719 28.183797 -0.733074 2.967489 0.075381 -0.023134 30490.000000 0 0 1
2.525729 -4.168229 -27.759719 28.184312 -1.026015 2.967795 0.078127 -0.022334 292269.000000 0 0 1
2.639229 -5.307729 -26.745619 27.394628 -1.109357 2.923486 0.073313 -0.022818 -92109.100000 0 0 1
2.480529 -4.846229 -25.391519 25.968601 -1.097716 2.930382 0.061751 -0.028775 157251.000000 0 0 1
2.978129 -5.848629 -24.466019 25.331044 -1.099815 2.879505 0.075726 -0.035729 249463.000000 0 0 1
2.994429 -5.354329 -23.024919 23.828184 -1.060876 2.881201 0.078846 -0.041209 529595.000000 0 1 0
3.965529 -4.309429 -22.844619 23.583325 -0.826933 2.890642 0.079183 -0.037726 328642.000000 0 1 0
3.822029 -3.858529 -21.513019 22.187973 -0.790150 2.894306 0.067784 -0.039860 80816.000000 0 1 0
4.752829 -2.686929 -21.155419 21.848587 -0.514539 2.889025 0.078014 -0.043009 194651.000000 0 1 0
6.116829 -2.996829 -20.943119 22.022961 -0.455561 2.827145 0.074582 -0.041022 -8538.470000 0 1 0
6.862329 -1.832229 -20.615019 21.804303 -0.260912 2.809789 0.074778 -0.027271 -517663.000000 0 1 0
8.325829 -2.184329 -20.411819 22.152496 -0.256573 2.742523 0.086970 -0.025488 -1553070.000000 0 1 0
8.987229 -2.491929 -21.640419 23.564544 -0.270480 2.734679 0.089596 -0.041369 1128010.000000 0 1 0
10.233629 -3.225529 -21.484919 24.015265 -0.305333 2.678412 0.085813 -0.040023 1415950.000000 0 1 0
11.423029 -2.544229 -20.762619 23.833696 -0.219151 2.628327 0.082406 -0.030422 -804292.000000 0 1 0
11.248329 -2.639929 -19.330719 22.520454 -0.230523 2.602866 0.075622 -0.011101 458452.000000 0 1 0
12.378129 -2.273729 -18.538919 22.407129 -0.181664 2.545200 0.071207 -0.022328 133897.000000 0 1 0
12.613229 -0.765829 -18.393119 22.315619 -0.060642 2.539631 0.064503 -0.027516 -15001.700000 0 1 0
13.101129 -0.178929 -19.595419 23.572273 -0.013657 2.552223 0.074301 -0.035265 193832.000000 0 1 0
13.073929 1.237371 -19.518819 23.525369 0.094363 2.549353 0.091797 -0.043532 36056.800000 0 1 0
13.572129 1.961571 -20.801819 24.915179 0.143535 2.558757 0.090028 -0.040010 -574821.000000 0 1 0
14.954629 1.943171 -21.026219 25.875060 0.129214 2.519405 0.092377 -0.032891 -71627.600000 0 0 1
15.151229 3.080771 -21.845219 26.763118 0.200600 2.525675 0.090159 -0.036680 -765338.000000 0 0 1
16.593329 3.316471 -22.296919 27.990894 0.197268 2.492409 0.064225 -0.029398 -392668.000000 0 0 1
17.060329 2.404271 -23.258819 28.944913 0.140006 2.504040 0.048612 -0.030082 -181788.000000 0 0 1
18.061929 1.659371 -22.616019 28.990880 0.091614 2.465635 0.043135 -0.024796 -651764.000000 0 0 1
9.615686 26.508571 2.673046 28.325093 1.222818 1.476285 0.026453 -0.013241 -3535.380000 0 0 1
9.531786 26.867571 4.006446 28.788416 1.229879 1.431174 0.028183 -0.013444 471510.000000 0 0 1
10.784986 27.271471 4.573746 29.681108 1.194203 1.416084 0.030515 -0.024171 210410.000000 0 0 1
10.768986 27.999371 5.869646 30.567770 1.203623 1.377576 0.024162 -0.024802 -185566.000000 0 0 1
10.462186 27.193371 6.990746 29.963432 1.203520 1.335317 0.018690 -0.019626 124255.000000 0 0 1
10.447986 27.998871 8.158046 30.978233 1.213642 1.304306 0.023365 -0.017869 -490983.000000 0 0 1
10.290286 27.258171 9.540846 30.658206 1.209825 1.254340 0.026782 -0.025778 552388.000000 0 0 1
11.444886 26.527471 10.060146 30.592461 1.163488 1.235717 0.045614 -0.022776 1088140.000000 0 0 1
11.968686 25.452771 9.241846 29.605822 1.131246 1.253327 0.051132 -0.024483 63320.500000 0 0 1
13.272886 24.924371 9.888246 29.919411 1.081467 1.233967 0.058001 -0.026004 349957.000000 0 0 1
14.367786 25.842771 9.950046 31.197524 1.063382 1.246189 0.077327 -0.031291 -237797.000000 0 0 1
15.370286 25.275471 10.717746 31.463712 1.024434 1.223201 0.085567 -0.028870 -800718.000000 0 0 1
16.476786 26.314271 11.011846 32.942162 1.011368 1.229957 0.079797 -0.031276 -1010490.000000 0 0 1
17.346786 26.468971 9.913446 33.163139 0.990660 1.267225 0.082242 -0.039750 597823.000000 0 0 1
18.684786 26.002071 10.108146 33.576830 0.947704 1.265008 0.102830 -0.048592 609818.000000 0 0 1
19.566586 26.811471 11.068946 34.988967 0.940359 1.248911 0.087694 -0.044941 -1202400.000000 0 0 1
19.915886 28.179171 10.801246 36.157642 0.955548 1.267438 0.083102 -0.051020 -229792.000000 0 0 1
18.891986 29.104271 11.022646 36.406928 0.995044 1.263207 0.078731 -0.034116 -543710.000000 0 0 1
19.242486 30.636471 11.090946 37.840133 1.009977 1.273329 0.067065 -0.014767 -1196690.000000 0 0 1
19.684686 31.321771 9.950946 38.308765 1.009708 1.308026 0.084898 -0.034771 -90797.100000 0 0 1
18.826886 31.440771 8.833046 37.696106 1.031256 1.334275 0.095468 -0.035440 1077980.000000 0 0 1
17.397586 32.100171 9.029646 37.611587 1.074133 1.328352 0.087952 -0.030294 909757.000000 0 0 1
17.529286 33.493171 9.349646 38.942063 1.088629 1.328337 0.072039 -0.024315 -241915.000000 0 0 1
16.290386 -34.016338 9.672446 38.936412 -1.124172 1.319751 0.091309 -0.019861 -304833.000000 0 0 1
16.421986 -32.502138 9.978746 37.757727 -1.102951 1.303335 0.117273 -0.025539 148491.000000 0 0 1
17.033686 -31.748338 8.931146 37.119655 -1.078360 1.327808 0.108444 -0.029709 218134.000000 0 0 1
17.060586 -30.400138 9.191746 36.051632 -1.059394 1.312989 0.062795 -0.021018 50800.200000 0 0 1
17.519686 -29.499738 8.028746 35.236837 -1.034879 1.340926 0.066311 -0.020783 762453.000000 0 0 1
16.640486 -29.643038 6.873246 34.682229 -1.059271 1.371298 0.067610 -0.023166 455224.000000 0 0 1
17.244686 -29.020238 5.817846 34.254937 -1.034631 1.400129 0.061837 -0.025142 51102.900000 0 0 1
16.697786 -29.514238 4.431946 34.198662 -1.055939 1.440837 0.068379 -0.027056 144138.000000 0 0 1
17.116686 -30.811638 4.000146 35.473076 -1.063720 1.457790 0.061824 -0.028094 -39804.800000 0 0 1
17.021586 -30.815738 2.561746 35.297403 -1.066138 1.498156 0.067450 -0.024925 -93857.900000 0 0 1
17.220786 -32.216038 1.979446 36.583422 -1.079899 1.516662 0.070147 -0.023782 497485.000000 0 0 1
18.585986 -32.647038 1.983046 37.619150 -1.053256 1.518058 0.076245 -0.014334 564700.000000 0 0 1
18.773186 -33.922738 1.397346 38.796098 -1.065339 1.534771 0.090755 -0.015426 457957.000000 0 0 1
20.155686 33.436071 1.636846 39.075590 1.028311 1.528895 0.090787 -0.012967 611347.000000 0 0 1
20.387986 33.158471 3.006746 39.040936 1.019518 1.493705 0.084050 -0.031406 -440445.000000 0 0 1
21.598886 32.472571 3.048946 39.118740 0.983850 1.492776 0.067871 -0.013653 -505826.000000 0 0 1
21.965986 32.339471 4.577646 39.361158 0.974145 1.454234 0.069744 -0.004892 -236419.000000 0 0 1
21.247986 31.329171 5.250346 38.217273 0.974840 1.432979 0.071420 -0.021749 -72348.300000 0 0 1
21.993386 30.142671 5.547346 37.723503 0.940452 1.423208 0.061479 -0.024502 -263499.000000 0 0 1
21.343786 29.101871 6.414346 36.655421 0.937994 1.394900 0.086023 -0.041267 -727904.000000 0 0 1
20.201586 28.599771 5.800146 35.492149 0.955818 1.406640 0.092779 -0.041447 -935964.000000 0 0 1
19.279786 28.169571 6.738346 34.794255 0.970604 1.375902 0.094415 -0.045473 80615.600000 0 0 1
17.807186 28.505671 6.337246 34.202775 1.012421 1.384435 0.101842 -0.044731 212063.000000 0 0 1
17.420186 29.910871 6.303246 35.183149 1.043416 1.390669 0.100285 -0.051998 194819.000000 0 0 1
17.736486 30.574571 5.104146 35.713297 1.045133 1.427385 0.100774 -0.040886 -285174.000000 0 0 1
17.743786 32.120271 5.202646 37.062397 1.066099 1.429956 0.109897 -0.037370 827423.000000 0 0 1
16.466186 32.728271 5.452646 37.040604 1.104657 1.423052 0.090518 -0.036794 548275.000000 0 0 1
16.676686 -33.947638 5.483946 38.218159 -1.114175 1.426809 0.094743 -0.039698 -698373.000000 0 0 1
15.414286 -33.128338 5.590146 36.963992 -1.135300 1.418982 0.087592 -0.037016 50153.700000 0 0 1
14.517586 -33.298238 4.446046 36.596452 -1.159657 1.449007 0.083799 -0.031658 -178480.000000 0 0 1
13.390286 -32.508038 4.631846 35.461617 -1.180068 1.439806 0.086816 -0.030979 -203354.000000 0 0 1
12.604886 -32.361738 3.269846 34.883479 -1.199375 1.476922 0.089925 -0.028664 163190.000000 0 0 1
11.419286 -31.612838 3.336146 33.777233 -1.224158 1.471866 0.095458 -0.030756 -284401.000000 0 0 1
10.902486 -31.279638 2.110646 33.192391 -1.235415 1.507165 0.092269 -0.024148 -458447.000000 0 0 1
9.814486 -30.187938 2.173946 31.817633 -1.256462 1.502418 0.103002 -0.022995 297161.000000 0 0 1
9.234386 -29.553338 1.003346 30.978709 -1.267943 1.538402 0.107736 -0.012494 827490.000000 0 0 1
8.323686 -30.466938 0.318146 31.585112 -1.304101 1.560724 0.086566 -0.017341 308233.000000 0 0 1
8.936886 -30.954638 -1.051554 32.236056 -1.289730 1.603423 0.099084 -0.024405 -655717.000000 0 0 1
9.980586 -31.817438 -0.860954 33.357199 -1.266834 1.596609 0.098976 -0.028650 -851041.000000 0 0 1
9.939786 -32.703238 -1.971154 34.237210 -1.275730 1.628402 0.096575 -0.011724 -529126.000000 0 0 1
11.130186 -33.632438 -2.049754 35.485538 -1.251205 1.628592 0.077938 -0.015684 -530160.000000 0 0 1
11.186386 33.544071 -0.901654 35.371640 1.248911 1.596290 0.076678 -0.018603 577784.000000 0 0 1
12.346486 32.698271 -0.971354 34.965071 1.209758 1.598581 0.081534 -0.024099 264773.000000 0 0 1
12.600386 31.714471 0.160446 34.126282 1.192614 1.566095 0.069787 -0.025360 -298950.000000 0 0 1
12.928186 32.362271 1.423046 34.878068 1.190735 1.529984 0.070801 -0.027744 570363.000000 0 0 1
14.183886 33.021871 1.571146 35.973533 1.165095 1.527107 0.075622 -0.027108 387090.000000 0 0 1
15.482286 32.176571 1.693746 35.747750 1.122329 1.523398 0.073706 -0.028808 -343528.000000 0 0 1
15.941586 31.848671 0.443546 35.618376 1.106716 1.558343 0.080932 -0.035476 -271435.000000 0 0 1
16.672586 30.660871 0.538746 34.904933 1.072746 1.555361 0.086324 -0.027771 -285987.000000 0 0 1
17.262086 30.218271 -0.859554 34.811813 1.051787 1.595490 0.078808 -0.023837 300520.000000 0 0 1
18.420186 30.881171 -1.334154 35.982356 1.032965 1.607883 0.060319 -0.017452 147220.000000 0 0 1
18.169086 32.083071 -2.010554 36.925350 1.055514 1.625272 0.059351 -0.020325 253344.000000 0 0 1
19.486386 32.687571 -2.606754 38.144353 1.033220 1.639189 0.067927 -0.015138 -24351.500000 0 0 1
20.336886 33.197271 -1.633454 38.965573 1.021158 1.612729 0.060434 -0.010004 -904192.000000 0 0 1
21.182586 33.974371 -2.427954 40.110532 1.013286 1.631365 0.063800 -0.008769 -1351290.000000 0 0 1
22.251586 -33.301338 -1.568654 40.082077 -0.981741 1.609942 0.059576 -0.000851 -1074670.000000 0 0 1
23.233486 33.953071 -1.023754 41.154027 0.970697 1.595675 0.057286 0.002231 147514.000000 0 0 1
24.182286 33.307171 -1.879154 41.202934 0.942808 1.616419 0.064282 -0.000379 -157362.000000 0 0 1
24.929286 -33.885338 -2.939654 42.170215 -0.936513 1.640562 0.064905 -0.004912 -1181830.000000 0 0 1
24.071686 -33.331538 -3.917854 41.301175 -0.945333 1.665800 0.055530 -0.018238 246268.000000 0 0 1
24.828486 -32.685638 -4.961754 41.345177 -0.921170 1.691094 0.052312 -0.015868 814731.000000 0 0 1
23.905286 -32.306438 -6.208254 40.665846 -0.933756 1.724061 0.059242 -0.025875 245663.000000 0 0 1
23.112786 -31.169838 -6.006054 39.266173 -0.932750 1.724357 0.066679 -0.026679 -35479.800000 0 0 1
22.279086 -30.905938 -7.111754 38.757086 -0.946202 1.755338 0.066331 -0.029531 4100.050000 0 0 1
21.165086 -29.887338 -6.796254 37.247858 -0.954613 1.754284 0.082804 -0.031903 -368759.000000 0 0 1
20.128286 -30.284238 -5.978954 36.851470 -0.984194 1.733761 0.070695 -0.025401 -512874.000000 0 0 1
19.210086 -29.197638 -5.841554 35.435198 -0.988865 1.736404 0.071929 -0.032021 -21381.100000 0 0 1
18.078886 -29.443438 -4.861654 34.891229 -1.020131 1.710589 0.062884 -0.022067 -433651.000000 0 0 1
17.036586 -30.290938 -5.253254 35.148014 -1.058459 1.720819 0.061027 -0.025765 -1113350.000000 0 0 1
16.054186 -30.252538 -4.298454 34.517092 -1.082913 1.695652 0.051644 -0.022801 -647729.000000 0 0 1
14.799686 -31.045138 -4.721354 34.714874 -1.125950 1.707223 0.047139 -0.021127 -172739.000000 0 0 1
15.023786 -32.386238 -4.749554 36.015841 -1.136448 1.703056 0.045149 -0.013850 599968.000000 0 0 1
13.754186 -33.012038 -5.016154 36.112797 -1.176027 1.710149 0.060044 -0.008566 804828.000000 0 0 1
13.818086 33.524071 -5.140154 36.622725 1.179831 1.711615 0.056415 -0.010945 -3946.160000 0 0 1
14.183986 32.960671 -3.887854 36.093028 1.164419 1.678723 0.055585 -0.017922 -83879.400000 0 0 1
14.658086 31.655671 -3.945654 35.107110 1.137145 1.683423 0.059796 -0.020745 -306129.000000 0 0 1
13.689186 30.562471 -4.416054 33.778099 1.149683 1.701909 0.064343 -0.018076 -119649.000000 0 0 1
12.664986 30.085271 -3.587254 32.838906 1.172344 1.680253 0.062688 -0.020471 33429.000000 0 0 1
13.133986 29.111071 -2.655954 32.046999 1.146971 1.653768 0.077828 -0.027311 -311524.000000 0 0 1
12.021686 28.280571 -1.985154 30.793708 1.168853 1.635307 0.060767 -0.019925 179026.000000 0 0 1
11.229186 29.098471 -1.122454 31.210183 1.202501 1.606768 0.051276 -0.021312 -286951.000000 0 0 1
10.271986 28.356871 -0.419254 30.162917 1.223259 1.584696 0.030647 -0.008763 -349814.000000 0 0 1
9.048586 29.256771 -0.085854 30.624221 1.270846 1.573600 0.030279 -0.004108 613832.000000 0 0 1
7.992886 28.390671 0.379346 29.496785 1.296367 1.557935 0.026929 -0.010484 240608.000000 0 0 1
6.763986 29.061671 0.538946 29.843302 1.342122 1.552736 0.030966 -0.010078 -603768.000000 0 0 1
5.762286 28.283471 1.349946 28.896038 1.369814 1.524062 0.012557 -0.016716 -449804.000000 0 0 1
5.154086 27.178571 0.691746 27.671607 1.383384 1.545795 0.026012 -0.021916 26074.600000 0 0 1
4.136286 26.590071 1.465546 26.949741 1.416476 1.516389 0.024927 -0.024970 -110643.000000 0 0 1
3.484486 25.434171 0.748146 25.682648 1.434644 1.541662 0.029833 -0.021575 -1217050.000000 0 0 1
2.228986 25.189271 1.260746 25.319108 1.482537 1.520981 0.051557 -0.017222 -968035.000000 0 0 1
1.750286 24.136271 0.426446 24.203407 1.498406 1.553176 0.043756 -0.020417 -1059830.000000 0 1 0
0.365386 23.690571 0.807646 23.707150 1.555374 1.536722 0.048732 -0.013763 -405666.000000 0 1 0
-0.657114 24.704471 0.631246 24.721269 -1.544204 1.545259 0.071097 -0.024236 31121.500000 0 1 0
-1.884614 24.059671 0.817846 24.147224 -1.492625 1.536921 0.055775 -0.017849 -457755.000000 0 1 0
-3.067314 24.950771 1.241846 25.169258 -1.448475 1.521436 0.089517 -0.030734 346895.000000 0 0 1
-4.310014 24.254271 1.191246 24.663028 -1.394931 1.522477 0.094205 -0.028449 483671.000000 0 1 0
-5.280114 24.849971 2.064946 25.488520 -1.361430 1.489693 0.100306 -0.029943 641346.000000 0 0 1
-6.628614 25.171671 1.360446 26.065348 -1.313306 1.518579 0.104194 -0.031823 57800.200000 0 0 1
-6.638314 26.364671 0.634646 27.194960 -1.324135 1.547457 0.112151 -0.032364 -184065.000000 0 0 1
-7.770914 26.539171 -0.185754 27.654099 -1.285950 1.577513 0.099180 -0.021675 -240734.000000 0 0 1
-7.766014 27.719771 -1.202154 28.812182 -1.297638 1.612532 0.086693 -0.015215 -163696.000000 0 0 1
-7.973514 28.952371 -0.546854 30.035242 -1.302057 1.589004 0.109124 -0.026101 -39107.700000 0 0 1
-8.052714 29.958771 -1.552654 31.060987 -1.308210 1.620804 0.111854 -0.028115 -172859.000000 0 0 1
-7.921614 31.471771 -1.103054 32.472158 -1.324213 1.604772 0.093989 -0.029526 -569984.000000 0 0 1
-8.146414 32.467471 -2.080954 33.538502 -1.324961 1.632883 0.073245 -0.019109 58751.400000 0 0 1
-7.316114 32.540371 -3.242354 33.509911 -1.349642 1.667706 0.066261 -0.020218 -1663080.000000 0 0 1
-5.872014 32.822671 -3.135254 33.490866 -1.393768 1.664549 0.097300 -0.023247 -1978970.000000 0 0 1
-5.589514 -33.923638 -2.739754 34.490030 1.407496 1.650316 0.088845 -0.031317 -83319.200000 0 0 1
-5.099714 -33.890738 -1.435154 34.302316 1.421442 1.612647 0.127306 -0.035849 -205298.000000 0 0 1
-4.851114 -32.445938 -0.906054 32.819097 1.422382 1.598407 0.132621 -0.032015 326637.000000 0 0 1
-6.045014 -31.679238 -0.963254 32.265216 1.382244 1.600655 0.100996 -0.025689 46564.600000 0 0 1
-5.945214 -30.519738 -1.775954 31.144085 1.378407 1.627851 0.103093 -0.017958 -277965.000000 0 0 1
-7.217514 -29.673038 -1.822854 30.592556 1.332195 1.630417 0.112705 -0.023009 -198659.000000 0 0 1
-7.512514 -29.101238 -0.558754 30.060475 1.318161 1.589385 0.099507 -0.018242 -183343.000000 0 0 1
-8.685414 -28.319938 -0.502954 29.626142 1.273214 1.587774 0.069922 -0.024818 -31282.200000 0 0 1
-8.986514 -27.696838 0.913346 29.132567 1.257053 1.539440 0.074521 -0.019430 -32293.700000 0 0 1
-8.083614 -26.669238 1.281646 27.896876 1.276492 1.524838 0.082336 -0.030344 -264001.000000 0 0 1
-7.993814 -26.487638 2.700246 27.799053 1.277694 1.473508 0.104583 -0.023933 -308768.000000 0 0 1
-8.846714 -25.393738 3.248846 27.086183 1.235564 1.450562 0.098908 -0.023521 -379134.000000 0 0 1
-8.274114 -24.121738 3.091046 25.688009 1.240358 1.450174 0.092151 -0.022287 -333320.000000 0 0 1
-9.174714 -23.070738 3.395346 25.059184 1.192294 1.434885 0.101352 -0.028287 -209240.000000 0 0 1
-8.466514 -21.709638 3.644446 23.585424 1.198950 1.415654 0.061396 -0.008095 159761.000000 0 1 0
-7.615014 -21.770238 4.757546 23.549224 1.234308 1.367371 0.061769 -0.005648 -171741.000000 0 1 0
-6.885414 -20.566338 5.085846 22.276648 1.247735 1.340461 0.037402 -0.008504 564836.000000 0 1 0
-7.728914 -19.431638 5.743246 21.686622 1.192232 1.302770 0.041883 -0.012814 94098.800000 0 1 0
-8.274814 -19.782138 7.013446 22.560895 1.174617 1.254691 0.055912 -0.010645 21240.200000 0 1 0
-8.761014 -18.672638 7.710346 22.019814 1.132099 1.213060 0.036471 -0.016569 -401591.000000 0 1 0
-28.081384 28.704371 -5.480254 40.528240 -0.796369 1.706432 0.115608 -0.028102 -43644.400000 0 0 1
-27.541974 29.401271 -4.389454 40.524837 -0.818038 1.679324 0.104005 -0.042890 393649.000000 0 0 1
-26.289834 28.800471 -4.030054 39.202855 -0.830940 1.673778 0.093282 -0.037078 563535.000000 0 0 1
-25.415474 29.696871 -3.143354 39.213915 -0.862927 1.651042 0.084925 -0.028236 -130042.000000 0 0 1
-25.986144 29.964271 -1.851254 39.705974 -0.856380 1.617437 0.068153 -0.029708 625507.000000 0 0 1
-25.164874 30.889171 -1.115854 39.857959 -0.887166 1.598796 0.059537 -0.026667 943402.000000 0 0 1
-23.897414 30.399071 -0.338254 38.669165 -0.904574 1.579544 0.048099 -0.022127 1238790.000000 0 0 1
-22.887914 29.841771 -1.213254 37.627914 -0.916519 1.603045 0.074398 -0.026211 1111940.000000 0 0 1
-21.594314 29.905471 -0.582354 36.891608 -0.945401 1.586583 0.074811 -0.024479 1026000.000000 0 0 1
-20.442414 29.255271 -1.419554 35.718039 -0.960903 1.610550 0.086360 -0.025054 159934.000000 0 0 1
-19.186314 29.535871 -0.838754 35.230467 -0.994707 1.594606 0.087949 -0.017438 -392560.000000 0 0 1
-18.197914 28.749871 -1.496254 34.058155 -1.006484 1.614743 0.089547 -0.018883 645180.000000 0 0 1
-16.803814 29.345171 -1.067954 33.832643 -1.050748 1.602367 0.087676 -0.018775 445234.000000 0 0 1
-16.371414 28.873271 0.236546 33.192543 -1.054988 1.563670 0.082248 -0.024413 -153106.000000 0 0 1
-15.198214 29.570071 0.570046 33.252064 -1.096033 1.553652 0.075338 -0.027067 969.154000 0 0 1
-14.477614 28.838871 1.753546 32.316508 -1.105536 1.516508 0.079181 -0.028943 68930.100000 0 0 1
-15.233814 28.968371 2.980946 32.865204 -1.086662 1.479969 0.092026 -0.025559 120103.000000 0 0 1
-14.748814 28.291571 4.121546 32.170291 -1.090243 1.442327 0.090938 -0.035690 828985.000000 0 0 1
-13.564714 28.995871 4.916346 32.387227 -1.133226 1.418408 0.083535 -0.025161 603339.000000 0 0 1
-13.884314 30.182571 5.616046 33.694239 -1.139649 1.403338 0.070062 -0.026721 -372379.000000 0 0 1
-13.893614 31.404971 4.886246 34.686887 -1.154279 1.429459 0.065149 -0.020478 -223434.000000 0 0 1
-13.866314 32.676471 5.776546 35.963800 -1.169475 1.409476 0.071202 -0.021992 -276225.000000 0 0 1
-15.042814 32.923471 6.514346 36.778770 -1.142217 1.392734 0.076440 -0.024157 -32789.900000 0 0 1
-14.945914 -33.915438 7.236446 37.762461 1.155718 1.377973 0.074124 -0.027483 -215169.000000 0 0 1
-16.121914 -33.578138 8.145646 38.128192 1.123170 1.355498 0.060923 -0.019106 -247924.000000 0 0 1
-16.058814 33.732671 9.339746 38.509862 -1.126483 1.325825 0.040191 -0.017326 -143894.000000 0 0 1
-17.217514 33.905871 10.107446 39.347317 -1.100926 1.311006 0.043015 -0.015507 -771464.000000 0 0 1
-17.206014 33.178971 11.442646 39.087404 -1.092394 1.273700 0.040332 -0.009653 -253012.000000 0 0 1
-16.380914 33.641171 12.456146 39.436256 -1.117659 1.249438 0.053995 -0.026129 -113541.000000 0 0 1
-15.001314 33.330571 12.331046 38.574876 -1.147879 1.245420 0.077643 -0.026675 -50250.600000 0 0 1
-14.256914 33.463371 13.672646 38.858693 -1.168041 1.211244 0.081383 -0.029845 -394675.000000 0 0 1
-14.498114 32.492071 14.645846 38.476367 -1.151103 1.180302 0.062040 -0.023087 -24901.000000 0 0 1
-13.965114 31.169271 14.535246 37.119015 -1.149573 1.168443 0.049561 -0.025699 17724.900000 0 0 1
-14.888714 30.149771 13.797546 36.346317 -1.112101 1.181418 0.058270 -0.029030 129718.000000 0 0 1
-14.891414 30.287171 12.432846 35.967243 -1.113832 1.217842 0.057753 -0.019822 321938.000000 0 0 1
-15.917314 29.527971 11.804046 35.561179 -1.076392 1.232441 0.040015 -0.014339 175673.000000 0 0 1
-15.726414 29.321771 10.292446 34.828448 -1.078502 1.270798 0.043381 -0.007911 -286577.000000 0 0 1
-14.907414 28.242871 10.034246 33.475018 -1.085134 1.266362 0.028412 -0.004600 -395715.000000 0 0 1
-14.775614 27.994671 8.683046 32.824010 -1.085156 1.303076 0.037609 -0.004413 270622.000000 0 0 1
-13.843214 26.807071 8.216046 31.269107 -1.094114 1.304922 0.057927 -0.005760 -639661.000000 0 0 1
-12.480514 27.003971 8.327646 30.892189 -1.137865 1.297849 0.066100 -0.009670 -816383.000000 0 0 1
-11.894614 25.810171 7.810746 29.472946 -1.138956 1.302578 0.078478 -0.016219 -252249.000000 0 0 1
-10.782814 25.955471 6.776246 28.911469 -1.177055 1.334216 0.099624 -0.025412 -286236.000000 0 0 1
-11.246914 26.284171 5.451846 29.104524 -1.166475 1.382364 0.100232 -0.033493 -547292.000000 0 0 1
-10.270914 26.057471 4.536946 28.373709 -1.195331 1.410207 0.124541 -0.026605 -793899.000000 0 0 1
-10.631314 26.506971 3.091246 28.726297 -1.189363 1.462977 0.112148 -0.029900 84503.200000 0 0 1
-10.376414 27.863171 2.864046 29.870203 -1.214302 1.474766 0.104801 -0.022729 37970.100000 0 0 1
-10.779414 28.308071 1.543646 30.330274 -1.206960 1.519880 0.109066 -0.021478 100936.000000 0 0 1
-10.444614 29.865871 1.360446 31.668771 -1.234373 1.527825 0.118196 -0.030232 179242.000000 0 0 1
-11.313914 30.725471 2.064646 32.807346 -1.217978 1.507822 0.095075 -0.032017 63654.200000 0 0 1
-10.897814 32.076571 1.826846 33.926481 -1.243288 1.516923 0.088705 -0.033235 258337.000000 0 0 1
-11.765814 33.030271 2.673646 35.165062 -1.228597 1.494692 0.078801 -0.033459 274450.000000 0 0 1
-13.106914 33.376071 2.397546 35.937467 -1.196595 1.504032 0.076394 -0.031496 31654.500000 0 0 1
-13.312914 -33.776738 1.301546 36.328993 1.195348 1.534962 0.057558 -0.020684 46047.500000 0 0 1
-14.787914 -33.702338 0.826846 36.813227 1.157312 1.548334 0.064621 -0.018341 309662.000000 0 0 1
-15.249114 33.270171 0.033346 36.598373 -1.141027 1.569885 0.067747 -0.011981 -126403.000000 0 0 1
-15.202114 33.400971 -1.369354 36.723348 -1.143676 1.608093 0.085224 -0.019120 407335.000000 0 0 1
-13.847414 33.194071 -2.127554 36.029484 -1.175580 1.629881 0.073314 -0.014962 389786.000000 0 0 1
-13.437614 31.839571 -2.249254 34.632166 -1.171434 1.635789 0.073503 -0.013654 978338.000000 0 0 1
-12.010514 31.661771 -2.358054 33.945259 -1.208228 1.640319 0.054496 -0.007524 1053610.000000 0 0 1
-11.752414 30.147471 -2.611554 32.462431 -1.199087 1.651332 0.035081 -0.007620 -31083.700000 0 0 1
-11.978214 29.581971 -3.887054 32.150891 -1.186059 1.691993 0.052267 -0.012815 122230.000000 0 0 1
-10.824714 29.674371 -4.726354 31.938709 -1.221013 1.719324 0.045379 -0.015073 407066.000000 0 0 1
-10.843514 28.986771 -6.066854 31.537619 -1.212828 1.764372 0.044036 -0.013336 -126810.000000 0 0 1
-10.829014 27.629771 -5.936654 30.264098 -1.197264 1.768238 0.057684 -0.011877 -39205.300000 0 0 1
-10.778614 27.043271 -7.190254 29.986944 -1.191524 1.812935 0.053560 -0.012748 56252.000000 0 0 1
-11.267614 25.587471 -7.324054 28.901896 -1.155991 1.827001 0.069079 -0.025724 52300.500000 0 0 1
-10.461514 24.649771 -6.632854 27.587121 -1.169429 1.813608 0.038822 -0.015493 -224819.000000 0 0 1
-10.678914 23.248871 -6.834454 26.481295 -1.140210 1.831837 0.108016 -0.031148 -153301.000000 0 0 1
-10.166214 22.157371 -5.861054 25.072953 -1.140633 1.806739 0.083683 -0.031725 -165763.000000 0 0 1
-8.770414 21.961671 -5.797854 24.348517 -1.190850 1.811225 0.054475 -0.030083 -38074.600000 0 1 0
-8.322314 20.808771 -5.152554 22.995971 -1.190339 1.796778 0.056199 -0.020148 -384492.000000 0 1 0
-8.332914 20.852871 -3.613754 22.745085 -1.190630 1.730353 0.060405 -0.030968 294893.000000 0 1 0
-9.564814 20.769271 -2.892054 23.048042 -1.139223 1.696607 0.076533 -0.034950 291615.000000 0 1 0
-10.311014 19.583671 -2.944254 22.327244 -1.086166 1.703050 0.079675 -0.033356 -1082800.000000 0 1 0
-11.642114 19.582971 -2.260554 22.894141 -1.034429 1.669697 0.082724 -0.032283 -1036710.000000 0 1 0
-11.644714 19.501571 -0.817354 22.728368 -1.032500 1.606766 0.084224 -0.035275 184397.000000 0 1 0
-11.167414 18.310871 -0.208654 21.448605 -1.023145 1.580525 0.070966 -0.027204 -274415.000000 0 1 0
-10.908914 18.436171 1.272046 21.459611 -1.036493 1.511485 0.074783 -0.021644 -244798.000000 0 1 0
-12.104414 18.394371 2.006746 22.111010 -0.988783 1.479913 0.091986 -0.029011 106377.000000 0 1 0
-11.865814 18.513071 3.346646 22.242558 -1.000815 1.419761 0.090782 -0.020821 700987.000000 0 1 0
-13.217714 18.424571 4.142446 23.050654 -0.948490 1.390104 0.094872 -0.029015 764366.000000 0 1 0
-13.696514 17.096971 4.280246 22.320874 -0.895380 1.377841 0.060836 -0.028217 331655.000000 0 1 0
-15.014014 17.137671 4.808446 23.286080 -0.851354 1.362806 0.081254 -0.038793 299384.000000 0 1 0
-15.474514 15.815671 5.499546 22.800023 -0.796301 1.327186 0.064633 -0.032344 -274505.000000 0 1 0
-14.705014 15.386171 6.598246 22.282472 -0.808031 1.270170 0.061301 -0.023972 -154637.000000 0 1 0
-15.226814 15.719271 7.859246 23.253367 -0.801310 1.226023 0.062994 -0.026387 -633589.000000 0 1 0
-14.160114 15.593571 8.991346 22.902240 -0.833538 1.167343 0.057848 -0.020570 807449.000000 0 1 0
-13.054414 16.490371 8.871246 22.826499 -0.901175 1.171643 0.057630 -0.025158 658769.000000 0 1 0
-12.029114 16.040271 7.965246 21.573943 -0.927339 1.192641 0.051704 -0.025210 353022.000000 0 1 0
-10.823114 17.037971 7.853146 21.658812 -1.004871 1.199757 0.067702 -0.027267 677783.000000 0 1 0
-9.917414 17.152671 8.956846 21.743834 -1.046572 1.146230 0.061181 -0.023677 -36527.700000 0 1 0
-9.167514 18.309271 8.672246 22.236919 -1.106586 1.170172 0.054011 -0.025311 581127.000000 0 1 0
-7.813714 18.464971 9.473946 22.175774 -1.170482 1.129380 0.041527 -0.022053 836470.000000 0 1 0
-6.790814 17.515971 9.055946 20.855085 -1.200944 1.121611 0.031783 -0.019127 946186.000000 0 1 0
-5.567214 17.834871 9.741446 21.070649 -1.268227 1.090183 0.026663 -0.019900 898077.000000 0 1 0
-4.645714 18.947471 9.181546 21.561310 -1.330351 1.130913 0.023090 -0.016255 -1177230.000000 0 1 0
-5.075514 20.256971 9.387846 22.896230 -1.325294 1.148324 0.034700 -0.019743 -210183.000000 0 1 0
-4.529414 21.131671 8.441846 23.201894 -1.359649 1.198406 0.044526 -0.026602 489949.000000 0 1 0
-3.039114 21.585271 8.590846 23.429955 -1.430920 1.195379 0.040798 -0.018573 692775.000000 0 1 0
-2.020714 20.665471 8.224446 22.333528 -1.473324 1.193664 0.029170 -0.006917 1131240.000000 0 1 0
-0.733314 21.353671 8.222246 22.893718 -1.536468 1.203441 0.024660 -0.005514 1180500.000000 0 1 0
0.516286 20.482171 8.296046 22.104530 1.545595 1.186065 0.015106 0.006303 -180080.000000 0 1 0
0.695186 19.734671 9.422746 21.879869 1.535584 1.125574 0.017285 -0.009659 -34712.100000 0 1 0
1.946086 19.046171 9.372446 21.316346 1.468972 1.115550 0.007574 -0.017955 309074.000000 0 1 0
2.470986 18.582571 10.717446 21.593549 1.438599 1.051434 0.001405 -0.028875 -256062.000000 0 1 0
3.678886 17.860371 10.686046 21.135719 1.367657 1.040729 0.027294 -0.026189 124223.000000 0 1 0
4.357386 17.851471 11.973346 21.932233 1.331387 0.993304 0.027488 -0.021209 486844.000000 0 1 0
5.867586 18.135071 11.919646 22.480821 1.257877 1.011943 0.043124 -0.019903 -98315.900000 0 1 0
6.710786 17.200671 11.322946 21.658874 1.198813 1.020681 0.035155 -0.020575 -252742.000000 0 1 0
7.796986 16.843771 12.169146 22.194452 1.137266 0.990470 0.042197 -0.014780 -498235.000000 0 1 0
8.914286 16.154671 11.426546 21.702623 1.066566 1.016312 0.044186 -0.018689 -275425.000000 0 1 0
9.798486 17.161571 10.902846 22.569933 1.052007 1.066639 0.057846 -0.028275 175423.000000 0 1 0
10.934786 16.622071 10.257846 22.384954 0.988924 1.094774 0.061117 -0.030812 -108133.000000 0 1 0
11.944386 17.648671 9.736946 23.429726 0.975820 1.142215 0.063945 -0.019716 -111126.000000 0 1 0
12.978086 16.947971 9.055146 23.187499 0.917285 1.169602 0.073800 -0.021954 -236223.000000 0 1 0
13.603886 17.862471 8.208746 23.906423 0.919919 1.220294 0.084678 -0.019728 -809487.000000 0 1 0
14.722186 17.363571 7.372646 23.928900 0.867536 1.257594 0.093146 -0.024361 -948078.000000 0 1 0
15.921986 16.954371 7.951346 24.580159 0.816790 1.241385 0.102087 -0.022601 358347.000000 0 1 0
16.896786 16.561371 6.972046 24.665559 0.775374 1.284227 0.112046 -0.020655 292725.000000 0 1 0
18.359186 16.515271 7.429446 25.787798 0.732574 1.278555 0.105438 -0.018173 -290416.000000 0 0 1
18.623386 15.275571 8.077946 25.405251 0.686959 1.247215 0.111068 -0.019922 473744.000000 0 0 1
19.824086 15.353571 8.830746 26.583991 0.658992 1.232179 0.115874 -0.021186 17326.100000 0 0 1
20.206486 14.237871 9.828446 26.601079 0.613819 1.192352 0.098814 -0.026695 -72988.000000 0 0 1
20.834086 13.097771 9.305946 26.309910 0.561234 1.209267 0.104943 -0.036170 233312.000000 0 0 1
21.164386 12.286471 10.384746 26.584423 0.525977 1.169477 0.111632 -0.036346 -276278.000000 0 0 1
22.010486 11.030171 10.095046 26.608948 0.464553 1.181664 0.098313 -0.028295 -599223.000000 0 0 1
23.394786 11.278671 9.962146 27.816699 0.449227 1.204526 0.084943 -0.035250 736567.000000 0 0 1
24.089686 10.311771 9.154546 27.757004 0.404458 1.234694 0.092300 -0.032161 -24119.100000 0 0 1
24.258686 8.897871 9.667546 27.588356 0.351555 1.212776 0.098289 -0.039531 -584547.000000 0 0 1
23.124786 8.060471 9.476546 26.258938 0.335395 1.201576 0.114455 -0.038692 661856.000000 0 0 1
23.180286 6.726071 9.988046 26.121385 0.282408 1.178436 0.115163 -0.040522 6379.910000 0 0 1
24.242886 5.826071 9.217646 26.582430 0.235848 1.216685 0.121146 -0.041895 584084.000000 0 0 1
23.998786 5.730171 7.818546 25.882547 0.234381 1.263925 0.115019 -0.027501 19606.900000 0 0 1
25.056486 5.062371 7.213846 26.561149 0.199355 1.295748 0.118750 -0.023873 -639407.000000 0 0 1
24.825286 4.751171 5.726446 25.916416 0.189098 1.347999 0.123155 -0.027387 -1157480.000000 0 0 1
23.739786 3.921071 5.562446 24.696012 0.163691 1.343610 0.117812 -0.017550 -172606.000000 0 1 0
23.492686 3.599471 4.230246 24.140370 0.152034 1.394652 0.118549 -0.015563 -653335.000000 0 1 0
22.396686 2.564171 4.105146 22.913724 0.113993 1.390667 0.105661 -0.008924 -788170.000000 0 1 0
22.762686 1.280771 4.422746 23.223715 0.056207 1.379185 0.115727 -0.014305 -27627.000000 0 1 0
21.850086 0.330371 3.986946 22.213310 0.015119 1.390334 0.100599 -0.010900 -828680.000000 0 1 0
22.399586 -1.096229 4.126246 22.802830 -0.048901 1.388841 0.122319 -0.018410 -725465.000000 0 1 0
22.674986 -1.652029 5.425746 23.373551 -0.072728 1.336527 0.129618 -0.023827 676207.000000 0 1 0
22.881686 -3.071429 5.448146 23.721035 -0.133433 1.339052 0.127995 -0.024944 -258657.000000 0 1 0
23.244286 -3.550429 6.867446 24.496207 -0.151573 1.286640 0.180501 -0.028898 -328170.000000 0 1 0
23.047486 -4.962729 7.003946 24.594116 -0.212088 1.282018 0.158479 -0.027785 400875.000000 0 1 0
23.346286 -5.424629 8.296246 25.363425 -0.228304 1.237569 0.197676 -0.026047 -520487.000000 0 0 1
22.720886 -6.719729 8.679646 25.233503 -0.287554 1.219651 0.179798 -0.027840 648385.000000 0 0 1
21.284186 -6.778429 8.715446 23.977545 -0.308317 1.198792 0.163613 -0.028679 1160600.000000 0 1 0
20.764386 -8.013929 9.017246 24.014444 -0.368332 1.185868 0.140303 -0.034845 -184710.000000 0 1 0
-27.309134 -32.708038 5.313446 42.939926 0.875113 1.446737 0.059081 -0.017294 110230.000000 0 0 1
-27.935674 -33.916138 5.743946 44.313646 0.881789 1.440810 0.065521 -0.012966 138269.000000 0 0 1
-27.922364 34.016671 7.175046 44.590062 -0.883475 1.409182 0.052598 -0.002244 -24563.800000 0 0 1
-28.820424 32.872171 7.726546 44.394774 -0.850980 1.395864 0.065641 -0.004092 796721.000000 0 0 1
-30.227724 33.053071 7.530946 45.419555 -0.830016 1.404219 0.074633 -0.009356 354107.000000 0 0 1
-30.844764 31.842371 7.860946 45.023666 -0.801311 1.395301 0.091793 -0.015022 1018430.000000 0 0 1
-32.421864 31.906571 7.968946 46.181280 -0.777388 1.397370 0.098109 -0.017188 1205540.000000 0 0 1
-33.038224 31.954371 6.676246 46.445434 -0.768723 1.426553 0.079622 -0.018250 -95980.200000 0 0 1
-34.426606 32.133771 6.813746 47.583585 -0.750964 1.427107 0.075615 -0.019556 24572.800000 0 0 1
-35.259656 32.059971 5.488246 47.970886 -0.737904 1.456137 0.062678 -0.013378 -30682.800000 0 0 1
-35.366625 30.700571 5.082446 47.107903 -0.714889 1.462696 0.072357 -0.017534 396481.000000 0 0 1
-35.856545 30.598871 3.714046 47.284002 -0.706447 1.492168 0.077598 -0.004773 303493.000000 0 0 1
-35.227048 29.359871 3.042046 45.958688 -0.694805 1.504557 0.076623 -0.011438 467721.000000 0 0 1
-35.918391 28.222971 3.582546 45.820318 -0.665993 1.492530 0.090735 -0.019248 486109.000000 0 0 1
-35.158269 27.060871 3.400746 44.496738 -0.655982 1.494295 0.082473 -0.017394 -44831.300000 0 0 1
-35.765219 25.797071 4.147746 44.292703 -0.624872 1.477015 0.105657 -0.020857 82164.400000 0 0 1
-37.070964 25.458971 3.725946 45.125362 -0.601787 1.488133 0.105459 -0.015809 -48024.700000 0 0 1
36.591819 24.642971 4.684946 44.364241 0.592688 1.464997 0.116005 -0.017143 -648165.000000 0 0 1
35.154879 24.325771 4.326146 42.968874 0.605310 1.469945 0.124757 -0.021118 -924826.000000 0 0 1
34.916159 23.477571 3.220646 42.198424 0.591960 1.494401 0.096725 -0.021322 145720.000000 0 0 1
35.327589 22.136871 3.327646 41.822874 0.559761 1.491147 0.092999 -0.017864 -847118.000000 0 0 1
34.501569 21.251571 2.341546 40.589042 0.552072 1.513075 0.109377 -0.017903 753280.000000 0 0 1
33.160899 20.976171 2.778646 39.336571 0.564015 1.500100 0.102016 -0.028949 802032.000000 0 0 1
33.021619 20.194171 3.956546 38.908689 0.548864 1.468932 0.074149 -0.013434 -924222.000000 0 0 1
33.252909 18.682271 3.713946 38.322012 0.511876 1.473730 0.079312 -0.021338 -191648.000000 0 0 1
32.423379 18.168471 2.669746 37.262533 0.510755 1.499088 0.066305 -0.027523 568510.000000 0 0 1
32.731769 16.783171 2.365646 36.859731 0.473794 1.506573 0.071185 -0.026343 -215520.000000 0 0 1
32.044109 15.702971 3.250646 35.832595 0.455650 1.479954 0.078661 -0.026024 363243.000000 0 0 1
30.621799 15.798271 3.112746 34.597241 0.476299 1.480704 0.064143 -0.021113 442096.000000 0 0 1
30.060289 14.820571 3.945546 33.746668 0.458055 1.453612 0.080412 -0.023406 -1269450.000000 0 0 1
28.557629 14.897471 3.952746 32.451456 0.480828 1.448688 0.075380 -0.017573 -1129220.000000 0 0 1
28.004729 14.378371 2.757746 31.600752 0.474331 1.483417 0.073595 -0.028231 970629.000000 0 0 1
26.639429 14.815371 2.574346 30.590548 0.507548 1.486542 0.056142 -0.017196 1035700.000000 0 0 1
25.878129 14.132671 1.390246 29.518515 0.499863 1.523681 0.083545 -0.020899 203780.000000 0 0 1
26.316029 14.652271 0.107446 30.120325 0.508035 1.567229 0.099267 -0.022375 449092.000000 0 0 1
27.651029 14.412071 -0.281654 31.182792 0.480474 1.579829 0.110195 -0.022536 -574981.000000 0 0 1
28.106329 15.431471 -1.361954 32.092848 0.502105 1.613247 0.124014 -0.025855 -176686.000000 0 0 1
28.236129 16.807271 -1.027354 32.875808 0.536912 1.602051 0.095395 -0.032381 496490.000000 0 0 1
29.104529 17.005371 0.085946 33.708510 0.528785 1.568247 0.083568 -0.024973 -418616.000000 0 0 1
29.746369 18.381071 0.051846 34.967312 0.553497 1.569314 0.091952 -0.021940 -17636.900000 0 0 1
30.691899 18.638371 -0.974254 35.921173 0.545750 1.597922 0.089880 -0.011665 212650.000000 0 0 1
31.308429 19.899171 -0.870854 37.107319 0.566175 1.594267 0.082386 -0.000828 827406.000000 0 0 1
32.540789 20.119671 -1.846254 38.302908 0.553760 1.619016 0.084345 -0.003798 699537.000000 0 0 1
32.990309 21.483971 -1.969154 39.418258 0.577233 1.620773 0.026985 0.000805 423703.000000 0 0 1
32.115139 22.358571 -2.695754 39.224417 0.608171 1.639577 0.085142 -0.005369 -397854.000000 0 0 1
32.785209 23.684771 -3.084854 40.562971 0.625617 1.646921 0.084194 -0.007962 -191822.000000 0 0 1
33.135369 24.603971 -2.093354 41.324208 0.638702 1.621475 0.089702 -0.006823 196946.000000 0 0 1
33.979099 24.156671 -1.073954 41.704643 0.618022 1.596551 0.094229 0.005133 -946978.000000 0 0 1
33.798889 25.061571 0.168246 42.077019 0.638033 1.566798 0.090895 -0.015669 -293059.000000 0 0 1
34.495179 26.292371 0.090746 43.372968 0.651266 1.568704 0.103040 -0.009658 1269610.000000 0 0 1
35.837529 26.255271 0.648846 44.430718 0.632284 1.556192 0.099220 -0.010468 1207210.000000 0 0 1
36.773959 27.392671 0.201546 45.855458 0.640225 1.566401 0.075389 -0.015502 -436079.000000 0 0 1
37.135639 27.431071 -1.159154 46.182929 0.636212 1.595898 0.080848 -0.017095 -45258.700000 0 0 1
36.089349 27.742771 -2.043654 45.566204 0.655378 1.615662 0.071240 -0.016006 -454979.000000 0 0 1
36.304849 27.245771 -3.502554 45.526278 0.643803 1.647807 0.080035 -0.011210 472395.000000 0 0 1
-37.051684 28.004071 -4.283854 46.641255 -0.647210 1.662773 0.072861 -0.006777 652297.000000 0 0 1
-36.871854 27.568071 -5.622454 46.380429 -0.642010 1.692320 0.063256 -0.007383 115024.000000 0 0 1
36.296419 27.722771 -6.669754 46.156989 0.652267 1.715805 0.056477 0.000686 1114770.000000 0 0 1
35.111499 26.987171 -6.293254 44.729518 0.655308 1.711960 0.072066 0.000897 965641.000000 0 0 1
33.994749 27.108371 -7.196954 44.071565 0.673171 1.734833 0.062668 -0.002573 821045.000000 0 0 1
32.976589 25.956371 -6.885854 42.527680 0.666835 1.733427 0.077173 -0.001132 -246765.000000 0 0 1
33.238169 24.602271 -7.124254 41.961918 0.637187 1.741402 0.070318 -0.003475 127095.000000 0 0 1
34.435989 24.069671 -6.552154 42.521960 0.610033 1.725501 0.076126 -0.003582 304919.000000 0 0 1
34.623049 22.588371 -6.714754 41.881713 0.578066 1.731818 0.082089 -0.002178 -84585.800000 0 0 1
33.596159 21.793271 -6.156254 40.516021 0.575449 1.723333 0.081258 0.001250 49693.400000 0 0 1
33.890419 20.368271 -6.011354 39.994541 0.541157 1.721672 0.079700 -0.004849 -426196.000000 0 0 1
32.685409 19.650171 -5.424954 38.521361 0.541295 1.712096 0.103874 -0.008377 -508617.000000 0 0 1
31.647909 19.431371 -6.353454 37.676713 0.550640 1.740237 0.086736 -0.015619 369319.000000 0 0 1
30.470499 18.981571 -5.653654 36.341645 0.557123 1.727000 0.129357 -0.024446 454629.000000 0 0 1
29.215229 18.866571 -6.519754 35.383390 0.573402 1.756116 0.092917 -0.024540 -299967.000000 0 0 1
29.223029 17.756071 -7.421654 34.990633 0.545993 1.784524 0.082522 -0.017204 126733.000000 0 0 1
28.236029 17.872871 -8.444454 34.467690 0.564318 1.818312 0.102011 -0.025839 226599.000000 0 0 1
28.134029 16.560971 -9.248554 33.931181 0.532029 1.846857 0.100012 -0.018432 -131977.000000 0 0 1
27.466929 16.716671 -10.485954 33.820622 0.546727 1.886038 0.101843 -0.021269 221525.000000 0 0 1
27.846929 15.674471 -11.407054 33.930242 0.512678 1.913666 0.095394 -0.009944 -69713.900000 0 0 1
26.972929 15.697271 -12.681954 33.686424 0.527052 1.956780 0.096644 -0.004893 325399.000000 0 0 1
25.569829 15.605871 -12.388354 32.416518 0.547976 1.962931 0.078411 -0.007207 683554.000000 0 0 1
24.802729 15.512271 -13.571154 32.248754 0.558906 2.005153 0.075342 -0.012984 -253169.000000 0 0 1
24.682629 14.091671 -14.211754 31.777056 0.518759 2.034466 0.068009 -0.012710 -786291.000000 0 0 1
25.752829 13.543671 -14.945854 32.711126 0.484160 2.045308 0.084469 -0.010489 8736.820000 0 0 1
26.020629 14.088371 -16.208254 33.738151 0.496240 2.071922 0.099265 -0.015625 -54963.500000 0 0 1
27.442029 13.645471 -16.658054 34.882009 0.461443 2.068665 0.116964 -0.013457 236109.000000 0 0 1
27.590829 12.256671 -16.975954 34.636149 0.418045 2.083027 0.114807 -0.018747 864487.000000 0 0 1
28.945329 11.901071 -17.315954 35.767441 0.390087 2.076161 0.102846 -0.014075 970229.000000 0 0 1
29.018029 10.434171 -17.759054 35.585136 0.345180 2.093308 0.078616 -0.009325 -271596.000000 0 0 1
28.356729 10.232071 -18.982354 35.624838 0.346294 2.132750 0.080358 -0.014950 109827.000000 0 0 1
28.755729 9.028971 -19.588354 35.946041 0.304240 2.147111 0.058970 -0.008374 244131.000000 0 0 1
30.212269 8.909871 -20.120754 37.376620 0.286780 2.139244 0.064667 -0.007309 -608080.000000 0 0 1
30.379789 9.617271 -21.349854 38.356743 0.306587 2.161099 0.076059 -0.012010 686231.000000 0 0 1
31.130689 8.826671 -22.328654 39.314103 0.276285 2.174816 0.051698 -0.007001 132898.000000 0 0 1
32.616759 8.494571 -22.123854 40.317187 0.254776 2.151659 0.051603 -0.001307 -865861.000000 0 0 1
33.380949 9.650271 -22.053354 41.155387 0.281423 2.136317 0.048766 -0.001885 -383153.000000 0 0 1
34.718909 9.328871 -22.383354 42.349085 0.262497 2.127681 0.026445 0.005408 54248.500000 0 0 1
35.629849 10.574771 -22.268554 43.326671 0.288514 2.110601 0.041027 0.003164 -84150.100000 0 0 1
35.871219 10.988671 -20.933954 42.961909 0.297260 2.079755 0.040202 -0.001967 597427.000000 0 0 1
36.928499 11.943971 -20.849854 44.057790 0.312816 2.063760 0.018474 -0.003173 336456.000000 0 0 1
37.007329 12.426671 -19.400354 43.592869 0.323959 2.032010 0.017816 -0.005389 -49020.000000 0 0 1
-37.130894 11.439371 -18.406454 42.992558 -0.298855 2.013220 0.021408 -0.006630 373815.000000 0 0 1
37.098109 12.089571 -17.146454 42.619576 0.315029 1.984839 0.034226 -0.009838 -171277.000000 0 0 1
-37.005654 11.187771 -15.869154 41.790127 -0.293589 1.960306 0.031369 -0.016947 -594688.000000 0 0 1
36.179489 10.497471 -15.499054 40.735402 0.282396 1.961113 0.015010 -0.018613 59504.200000 0 0 1
36.734009 9.315371 -14.899254 40.720404 0.248354 1.945387 0.015037 -0.023712 13969.900000 0 0 1
35.688249 8.207771 -14.830854 39.509149 0.226054 1.955601 0.081885 -0.019416 -371179.000000 0 0 1
34.647359 8.360871 -13.881454 38.249685 0.236786 1.942193 0.099435 -0.017689 319433.000000 0 0 1
35.092979 8.164971 -12.546254 38.152227 0.228600 1.905879 0.096232 -0.018198 -557676.000000 0 0 1
34.089499 8.793071 -11.559854 37.054585 0.252438 1.888060 0.105244 -0.011489 -71385.600000 0 0 1
34.121659 10.223371 -11.546254 37.444905 0.291104 1.884258 0.101709 -0.020835 691611.000000 0 0 1
33.253019 10.788471 -10.511254 36.505353 0.313722 1.862869 0.074601 -0.003257 526325.000000 0 0 1
33.742889 10.514471 -9.036054 36.479952 0.302070 1.821101 0.098837 -0.007798 89534.000000 0 0 1
34.941859 11.143671 -8.645354 37.680990 0.308723 1.802294 0.088112 -0.005894 -121679.000000 0 0 1
34.843479 12.568171 -8.287754 37.956736 0.346178 1.790917 0.093259 -0.007300 -628957.000000 0 0 1
34.530289 12.895471 -6.804954 37.482548 0.357414 1.753359 0.084856 -0.015422 -190328.000000 0 0 1
35.654629 12.711771 -5.982754 38.322774 0.342476 1.727552 0.104261 -0.013313 100394.000000 0 0 1
35.303499 12.764871 -4.632054 37.825056 0.346949 1.693564 0.103534 -0.009710 -873138.000000 0 0 1
36.502479 12.457871 -3.772054 38.753811 0.328893 1.668284 0.133306 -0.006739 -996791.000000 0 0 1
37.141649 13.651271 -3.547954 39.729677 0.352220 1.660218 0.140572 0.003467 -1109840.000000 0 0 1
-36.045757 13.438471 -2.783654 38.569909 -0.356855 1.643031 0.142340 -0.016750 -1012420.000000 0 0 1
-35.154529 14.670471 -2.676854 38.186767 -0.395342 1.640953 0.129468 -0.014700 -482821.000000 0 0 1
-35.657643 15.792271 -2.029554 39.051023 -0.416922 1.622792 0.142139 -0.013028 -220521.000000 0 0 1
-34.695851 16.798171 -1.778154 38.589409 -0.450891 1.616891 0.163206 -0.015495 -17242.600000 0 0 1
-35.212388 17.989971 -0.941454 39.552973 -0.472329 1.594601 0.149201 -0.012859 88662.500000 0 0 1
-36.183364 18.801371 -1.576254 40.807009 -0.479215 1.609433 0.121947 -0.002778 656770.000000 0 0 1
-36.881544 19.719771 -0.723754 41.828716 -0.491004 1.588100 0.117520 -0.003368 464914.000000 0 0 1
36.581649 20.789571 -1.441254 42.101075 0.516789 1.605036 0.102569 -0.006427 332540.000000 0 0 1
-36.933074 21.903071 -1.869054 42.980110 -0.535292 1.614297 0.109558 0.003345 407951.000000 0 0 1
36.956179 22.555971 -3.064254 43.404154 0.547990 1.641453 0.080271 0.004044 -565415.000000 0 0 1
-36.359874 23.587671 -3.545854 43.485535 -0.575481 1.652428 0.077998 -0.002564 -604083.000000 0 0 1
-35.182179 22.936771 -3.924754 42.181571 -0.577740 1.663975 0.089410 -0.003978 -394554.000000 0 0 1
-34.201640 23.853471 -4.412154 41.930983 -0.609003 1.676216 0.097117 -0.010133 -367259.000000 0 0 1
-32.835304 23.247371 -4.596254 40.493493 -0.616074 1.684547 0.103447 -0.016131 -1009590.000000 0 0 1
-32.788384 22.308371 -5.660054 40.059678 -0.597432 1.712561 0.099785 -0.007994 548991.000000 0 0 1
-31.445624 22.316271 -6.181154 39.051887 -0.617192 1.729745 0.086282 0.004956 89364.300000 0 0 1
-31.330894 21.705971 -7.620354 38.869576 -0.605876 1.768124 0.076147 -0.008318 519724.000000 0 0 1
-32.214594 22.301371 -8.594254 40.112248 -0.605523 1.786725 0.071568 -0.016232 285809.000000 0 0 1
-31.712404 22.004071 -9.863154 39.838895 -0.606595 1.820974 0.034038 -0.011328 156372.000000 0 0 1
-32.714714 22.099471 -11.050654 40.997026 -0.594107 1.843720 0.032630 -0.005776 27823.300000 0 0 1
-33.153264 23.378771 -11.465054 42.156296 -0.614189 1.846231 0.050936 -0.003869 88069.300000 0 0 1
-33.653214 23.328471 -12.813754 42.906278 -0.606149 1.874069 0.032234 -0.003885 -616133.000000 0 0 1
-34.073709 24.700771 -13.328454 44.145141 -0.627257 1.877506 0.063540 -0.006942 -12077.500000 0 0 1
-33.131694 25.763471 -13.358354 44.044423 -0.660937 1.878943 0.057364 -0.005888 746305.000000 0 0 1
-31.972554 25.601971 -14.211754 43.355266 -0.675197 1.904768 0.050483 -0.012644 371635.000000 0 0 1
-30.643964 26.162071 -13.729654 42.567710 -0.706663 1.899205 0.060305 -0.012811 -519657.000000 0 0 1
-29.980084 25.460171 -12.699654 41.331670 -0.704050 1.883111 0.060418 -0.016909 129136.000000 0 0 1
-30.488714 25.569271 -11.353754 41.379428 -0.697866 1.848743 0.060978 -0.014573 -391003.000000 0 0 1
-30.605104 26.943071 -10.666954 42.147187 -0.721850 1.826667 0.070712 -0.001929 -847611.000000 0 0 1
-29.384244 27.545571 -10.475354 41.616407 -0.753112 1.825245 0.069325 -0.001734 -1090160.000000 0 0 1
-29.645954 28.706071 -9.719054 42.395532 -0.769292 1.802100 0.065094 -0.008383 -393225.000000 0 0 1
-28.529794 29.633771 -9.277054 42.168392 -0.804376 1.792611 0.087492 -0.018490 -387218.000000 0 0 1
-29.015934 30.780371 -8.618054 43.169741 -0.814897 1.771778 0.066197 -0.033893 -100358.000000 0 0 1
-27.986514 31.383171 -7.862954 42.778201 -0.842548 1.755655 0.113582 -0.029502 158572.000000 0 0 1
35.272529 -24.762829 33.447260 54.553352 -0.612096 0.910804 0.051205 -0.006189 -12699.300000 0 0 1
34.857209 -23.470829 33.785636 53.920071 -0.592610 0.893630 0.046947 -0.011589 663057.000000 0 0 1
33.701199 -23.419029 -33.232504 52.807396 -0.607296 2.251468 0.031343 -0.003644 784113.000000 0 0 1
33.186059 -21.977629 -32.824134 51.592194 -0.584942 2.260389 0.024314 -0.002009 40405.700000 0 0 1
32.631189 -21.298329 -33.891354 51.643365 -0.578270 2.286645 0.024496 -0.003664 -96385.000000 0 0 1
32.396419 -19.916529 -33.581914 50.734022 -0.551213 2.294175 0.022387 0.006217 -192107.000000 0 0 1
32.286769 -19.053829 32.993348 49.940413 -0.533141 0.849106 0.021303 0.001764 -632928.000000 0 0 1
33.478819 -19.032529 32.275495 50.247150 -0.516932 0.873256 0.040302 -0.010040 -407641.000000 0 0 1
33.281199 -18.552729 30.919081 49.069660 -0.508548 0.889107 0.050476 -0.008510 -594546.000000 0 0 1
34.549639 -18.448229 30.087451 49.388960 -0.490447 0.915753 0.045966 -0.009845 -414347.000000 0 0 1
35.258239 -17.247529 30.292331 49.580702 -0.454952 0.913511 0.040567 -0.017053 868985.000000 0 0 1
36.467079 -17.196129 29.513441 49.965967 -0.440631 0.938906 0.055977 -0.021847 675419.000000 0 0 1
-36.980604 -15.899229 29.721641 50.037251 0.406043 0.934786 0.041503 -0.020524 396978.000000 0 0 1
-35.628783 -16.273429 29.519211 49.047105 0.428453 0.924975 0.042610 -0.018797 143539.000000 0 0 1
-34.689856 -15.218329 29.598571 48.073476 0.413415 0.907529 0.042528 -0.022285 138621.000000 0 0 1
-33.409634 -15.804729 30.253091 47.762356 0.441863 0.884846 0.054514 -0.029107 -37440.500000 0 0 1
-32.409974 -14.813729 30.458281 46.878139 0.428720 0.863563 0.057688 -0.023462 146831.000000 0 0 1
-31.402494 -15.383129 31.262301 46.905104 0.455511 0.841291 0.062410 -0.031608 619176.000000 0 0 1
-30.209614 -14.518229 31.783011 46.190471 0.447994 0.811948 0.057994 -0.033340 -37243.900000 0 0 1
-30.644664 -13.802529 32.891812 47.026339 0.423191 0.796191 0.067621 -0.029280 143211.000000 0 0 1
-29.762714 -12.866729 33.500893 46.622760 0.408046 0.769078 0.061016 -0.027102 -275551.000000 0 0 1
-30.255374 -12.334529 -33.021724 46.453875 0.387110 2.361502 0.060845 -0.016070 -235878.000000 0 0 1
-30.122504 -13.285429 -32.009334 45.918029 0.415383 2.342137 0.078086 -0.018593 301578.000000 0 0 1
-30.374904 -12.710829 -30.740304 45.046268 0.396322 2.321859 0.083005 -0.015590 -442150.000000 0 0 1
-30.400414 -13.614029 -29.481754 44.482590 0.421043 2.295309 0.088171 -0.013476 -108138.000000 0 0 1
-31.497544 -14.485729 -29.571414 45.567534 0.431056 2.277010 0.095438 -0.009113 -157251.000000 0 0 1
-31.745554 -15.152729 -28.345424 45.175751 0.445338 2.249067 0.107360 -0.010033 195383.000000 0 0 1
-32.938784 -16.128829 -28.295514 46.322120 0.455342 2.227920 0.095791 -0.014364 -152750.000000 0 0 1
-32.782884 -17.307029 -29.016694 47.076738 0.485740 2.234921 0.095567 -0.011378 320225.000000 0 0 1
-33.972214 -18.049429 -29.297104 48.355078 0.488373 2.221661 0.085652 -0.017635 309022.000000 0 0 1
-33.712464 -19.360829 -30.027664 49.122628 0.521303 2.228473 0.084375 -0.020646 -276960.000000 0 0 1
-34.958583 -19.848429 -30.411534 50.407580 0.516384 2.218445 0.069210 -0.024419 -354700.000000 0 0 1
-34.763325 -21.171829 -30.988114 51.156606 0.547031 2.221504 0.068262 -0.023094 -44087.800000 0 0 1
-35.976621 -22.053129 -31.418634 52.609774 0.549913 2.210804 0.062763 -0.028529 264508.000000 0 0 1
-36.738154 -22.485029 -30.281834 52.652236 0.549222 2.183558 0.055491 -0.015793 -220123.000000 0 0 1
36.516129 -23.348529 -30.477614 52.985530 -0.568890 2.183653 0.052427 -0.021476 -257935.000000 0 0 1
36.945769 -24.822229 -30.570524 53.997128 -0.591586 2.172625 0.053446 -0.017652 167085.000000 0 0 1
-36.918014 -25.221859 -31.860594 54.901543 0.599352 2.189921 0.060488 -0.015486 -224688.000000 0 0 1
-36.386104 -26.529759 -31.886994 55.177505 0.630002 2.186948 0.053671 -0.014418 60110.400000 0 0 1
-36.394934 -27.322399 -33.186714 56.324619 0.643962 2.200870 0.050580 -0.016867 -568132.000000 0 0 1
36.664789 -27.726539 -33.612734 56.946322 -0.647468 2.202168 0.052138 -0.013281 -882714.000000 0 0 1
36.537489 -29.092669 33.805793 57.655903 -0.672445 0.944267 0.050209 -0.008044 200454.000000 0 0 1
37.065349 -30.219559 -33.081754 58.150359 -0.684004 2.175964 0.055939 -0.015446 85836.100000 0 0 1
36.340759 -30.388799 -31.897714 57.110367 -0.696438 2.163406 0.063519 -0.022931 -159094.000000 0 0 1
-37.142084 -31.093199 -30.995954 57.507135 0.696982 2.140038 0.047159 -0.026401 -331829.000000 0 0 1
36.517769 -31.563509 -29.702184 56.674706 -0.712756 2.122433 0.036541 -0.022798 -349776.000000 0 0 1
35.820399 -32.753359 -29.989084 57.054611 -0.740702 2.124241 0.064182 -0.023782 -209021.000000 0 0 1
35.285959 -33.246049 -28.841754 56.411395 -0.755641 2.107464 0.066285 -0.029899 -980355.000000 0 0 1
34.204319 33.776619 -28.858084 56.067677 0.779107 2.111455 0.073902 -0.032226 70944.600000 0 0 1
32.926159 -33.763829 -29.237054 55.488138 -0.797958 2.125753 0.073809 -0.025647 -569790.000000 0 0 1
31.894739 33.510262 -28.820564 54.505384 0.810093 2.127942 0.056316 -0.028287 -1026130.000000 0 0 1
30.583899 33.932780 -29.476054 54.365855 0.837259 2.143825 0.037222 -0.015975 -331824.000000 0 0 1
30.625499 33.623214 -30.867794 54.966011 0.832022 2.167090 0.033960 -0.006600 596804.000000 0 0 1
29.413109 -33.965699 -31.473094 54.857591 -0.857106 2.181841 0.035847 0.003203 693792.000000 0 0 1
29.329459 33.586557 -32.949554 55.443188 0.852958 2.207184 0.029262 -0.000716 152729.000000 0 0 1
29.507429 32.190467 -32.986734 54.726951 0.828857 2.217741 0.037712 0.006910 32282.500000 0 0 1
29.373509 31.673310 33.575689 54.711319 0.823053 0.910073 0.041811 0.005563 -72313.000000 0 0 1
29.234529 30.168530 33.532267 53.751380 0.801120 0.897150 0.038257 -0.002981 84447.200000 0 0 1
30.511089 29.614550 33.735356 54.277273 0.770488 0.900093 0.047637 -0.001941 -738388.000000 0 0 1
30.356749 28.282130 -33.823074 53.529538 0.750033 2.254745 0.043008 -0.000979 -224843.000000 0 0 1
31.673289 27.538500 -33.626714 53.780313 0.715681 2.246262 0.053344 -0.002617 -369188.000000 0 0 1
32.370099 27.925120 -32.485174 53.692850 0.711811 2.220586 0.065607 -0.010508 603460.000000 0 0 1
33.458089 27.009550 -32.141104 53.684356 0.679155 2.212680 0.070758 -0.008470 949535.000000 0 0 1
34.150019 27.246060 -30.783514 53.443393 0.673419 2.184626 0.074896 -0.016879 -634833.000000 0 0 1
34.896369 28.397590 -30.580754 54.400020 0.683081 2.167775 0.058623 -0.015869 -162310.000000 0 0 1
34.198479 29.626290 -30.582964 54.612917 0.713884 2.165176 0.055081 -0.012175 272499.000000 0 0 1
33.202209 29.838740 -29.376534 53.438917 0.732095 2.152827 0.056330 -0.011260 586444.000000 0 0 1
33.845649 30.026270 -28.118464 53.270563 0.725672 2.126855 0.062900 -0.012990 414952.000000 0 0 1
32.862059 30.227980 -27.107334 52.234598 0.743671 2.116423 0.068978 -0.012677 293137.000000 0 0 1
33.480039 30.622600 -25.716014 52.153332 0.740852 2.086428 0.086333 -0.018937 40255.000000 0 0 1
33.936689 31.967090 -25.828934 53.298476 0.755521 2.076713 0.086606 -0.025734 -5660.670000 0 0 1
34.411289 32.378017 -24.574154 53.257505 0.754964 2.050393 0.078811 -0.038899 1658.020000 0 0 1
34.815559 33.818085 -24.603554 54.416182 0.770866 2.039956 0.087555 -0.039709 224836.000000 0 0 1
33.639959 -33.469929 -24.420154 53.368782 -0.782865 2.046061 0.091851 -0.036308 455251.000000 0 0 1
33.838449 -32.046049 -24.364654 52.589222 -0.758200 2.052513 0.074782 -0.038199 -1271070.000000 0 0 1
34.150179 -31.261209 -25.712174 52.958605 -0.741261 2.077748 0.065178 -0.039239 74575.700000 0 0 1
35.468659 -31.435299 -26.177304 54.142913 -0.725185 2.075428 0.082893 -0.044426 20335.500000 0 0 1
36.434879 -30.729229 -25.400104 54.008807 -0.700651 2.060422 0.085124 -0.042920 571876.000000 0 0 1
-36.394984 -31.068479 -25.822684 54.375144 0.706608 2.065645 0.062504 -0.035258 563453.000000 0 0 1
-35.782344 -32.320289 -25.660304 54.620769 0.734606 2.059849 0.061098 -0.035058 -47450.400000 0 0 1
-35.569253 -32.753249 -24.314854 54.121708 0.744205 2.036736 0.065145 -0.029742 -216446.000000 0 0 1
-34.266655 -32.147869 -23.742154 52.643889 0.753507 2.038677 0.049261 -0.032468 -205420.000000 0 0 1
-34.290208 -30.716259 -23.636454 51.749289 0.730475 2.045134 0.032944 -0.030077 -330535.000000 0 0 1
-34.139122 -30.270579 -22.327754 50.796813 0.725409 2.025894 0.038493 -0.033341 -180239.000000 0 0 1
-34.099029 -28.742079 -22.023054 49.737972 0.700358 2.029495 0.036473 -0.017659 1039730.000000 0 0 1
-35.330107 -28.045899 -22.340754 50.337841 0.670964 2.030649 0.032484 -0.019728 535008.000000 0 0 1
-35.602531 -27.844049 -23.676054 51.023395 0.663719 2.053328 0.041515 -0.020785 -384482.000000 0 0 1
-36.846154 -27.028509 -24.041554 51.635024 0.632890 2.055115 0.044753 -0.017324 55127.200000 0 0 1
-36.668724 -25.685059 -23.617654 50.617301 0.611036 2.056231 0.040283 -0.017235 191854.000000 0 0 1
36.811139 -24.803329 -24.393854 50.649039 -0.592925 2.073305 0.052161 -0.013959 174743.000000 0 0 1
-36.980394 -24.330429 -25.767304 51.219853 0.581928 2.097947 0.059628 -0.017563 84757.300000 0 0 1
-35.809528 -23.532529 -25.680744 49.956009 0.581391 2.110716 0.057815 -0.021911 18857.800000 0 0 1
-35.469820 -22.906629 -26.899574 50.064048 0.573421 2.138033 0.068280 -0.025276 -306639.000000 0 0 1
-34.366402 -21.903829 -26.524784 48.625009 0.567439 2.147778 0.072107 -0.029400 -362522.000000 0 0 1
-34.690571 -20.794229 -25.699354 47.919646 0.539993 2.136845 0.072871 -0.022526 208255.000000 0 0 1
-35.623875 -19.815529 -26.232024 48.475094 0.507624 2.142594 0.084675 -0.019810 725531.000000 0 0 1
-36.815744 -19.572229 -25.265574 48.752645 0.488628 2.115588 0.086337 -0.022294 187261.000000 0 0 1
-36.424034 -19.089029 -23.961354 47.594619 0.482724 2.098380 0.084106 -0.030526 478926.000000 0 0 1
-35.669437 -20.046229 -23.109254 46.991464 0.512010 2.084924 0.066007 -0.025455 709974.000000 0 0 1
-36.515914 -21.237929 -22.545154 47.882623 0.526786 2.061041 0.072695 -0.014980 55873.300000 0 0 1
36.784099 -20.811929 -21.683454 47.501352 -0.514882 2.044832 0.067116 -0.010911 -181534.000000 0 0 1
36.161089 -21.955329 -21.101954 47.275292 -0.545663 2.033493 0.061802 -0.004470 314246.000000 0 0 1
35.012909 -21.725629 -20.061854 45.829954 -0.555359 2.023886 0.062192 -0.008410 -510487.000000 0 0 1
33.881759 -21.219529 -20.648754 44.995700 -0.559521 2.047559 0.086638 -0.005691 -1428880.000000 0 0 1
32.829349 -21.393929 -19.731654 43.872594 -0.577549 2.037281 0.075104 -0.012607 -448688.000000 0 0 1
31.520509 -20.802429 -20.247154 42.851263 -0.583349 2.062920 0.063456 -0.009478 -399130.000000 0 0 1
30.928629 -21.417529 -21.413954 43.287967 -0.605663 2.088270 0.063081 -0.003165 -56708.000000 0 0 1
29.680369 -21.009829 -21.877954 42.437979 -0.615988 2.112420 0.081551 -0.010218 -309785.000000 0 0 1
29.598229 -19.626329 -22.577254 42.083017 -0.585523 2.137073 0.087826 -0.018355 -329286.000000 0 0 1
29.820019 -18.565129 -21.694254 41.286053 -0.556852 2.124054 0.085581 -0.011528 3413.570000 0 0 1
29.867769 -17.332329 -22.397354 41.159868 -0.525810 2.146178 0.075339 -0.011222 79938.800000 0 0 1
30.800189 -16.323329 -21.661454 41.040484 -0.487339 2.126813 0.073853 -0.021624 -620592.000000 0 0 1
30.283269 -15.885329 -20.423054 39.831158 -0.483100 2.109170 0.051340 -0.018097 -74462.100000 0 0 1
31.178649 -15.443329 -19.426554 39.849662 -0.459895 2.080016 0.034630 -0.017862 -452426.000000 0 0 1
32.225459 -16.468629 -18.911554 40.833109 -0.472444 2.052334 0.051960 -0.024701 103613.000000 0 0 1
33.262919 -16.728729 -19.847954 42.192575 -0.465984 2.060556 0.060050 -0.028149 -402116.000000 0 0 1
34.159319 -17.627429 -19.279654 43.003376 -0.476394 2.035691 0.059254 -0.019698 8297.390000 0 0 1
35.378179 -17.900329 -20.215054 44.504895 -0.468413 2.042294 0.065715 -0.026965 593114.000000 0 0 1
36.363189 -16.872029 -20.326154 44.945516 -0.434424 2.040071 0.064016 -0.025086 -274965.000000 0 0 1
-36.931304 -17.338829 -21.113554 45.938420 0.438942 2.048347 0.066568 -0.024203 -807892.000000 0 0 1
-35.970665 -16.242429 -21.574654 44.979673 0.424139 2.071056 0.067665 -0.028159 -165799.000000 0 0 1
-35.179667 -15.698329 -20.535954 43.655148 0.419717 2.060555 0.085309 -0.028277 -139112.000000 0 0 1
-34.412400 -14.612429 -20.967254 42.864462 0.401555 2.081914 0.102820 -0.025826 615199.000000 0 0 1
-33.047724 -14.392629 -20.168654 41.304654 0.410739 2.080926 0.109321 -0.023774 1299480.000000 0 0 1
-31.963234 -15.272029 -20.359554 40.858226 0.445730 2.092430 0.119614 -0.032937 174957.000000 0 0 1
-32.199414 -16.548929 -19.810154 41.268772 0.474746 2.071483 0.096091 -0.029114 -602459.000000 0 0 1
-31.083384 -17.614329 -19.901154 40.896177 0.515559 2.079020 0.085501 -0.031786 -228387.000000 0 0 1
-31.460564 -18.861329 -19.468254 41.527458 0.540069 2.058733 0.077662 -0.031035 -799598.000000 0 0 1
-30.432214 -19.763129 -19.461354 41.175785 0.575964 2.063081 0.085246 -0.033040 -967219.000000 0 0 1
-30.851564 -21.138029 -18.981354 41.939565 0.600692 2.040462 0.070392 -0.015255 -168800.000000 0 0 1
-31.696784 -21.712229 -19.985754 43.307475 0.600586 2.050465 0.065340 -0.020802 282655.000000 0 0 1
-32.134434 -23.014229 -19.698854 44.162444 0.621507 2.033148 0.058880 -0.010919 172426.000000 0 0 1
-33.109654 -23.734129 -20.678154 45.685273 0.621935 2.040500 0.045286 -0.011787 10807.300000 0 0 1
-32.508744 -23.926029 -21.927554 45.935726 0.634473 2.068436 0.052228 -0.025745 -343518.000000 0 0 1
-33.330374 -24.518729 -22.884754 47.284182 0.634239 2.075997 0.052726 -0.025576 -283109.000000 0 0 1
-32.679554 -24.601829 -24.293154 47.574790 0.645304 2.106715 0.057458 -0.019035 66336.600000 0 0 1
-31.611454 -25.521189 -24.290254 47.335310 0.679201 2.109651 0.056965 -0.026058 -256165.000000 0 0 1
-31.097154 -25.652819 -25.629454 47.769960 0.689755 2.137102 0.061532 -0.022281 543197.000000 0 0 1
-29.566554 -25.926079 -25.790954 47.026759 0.719889 2.151284 0.067143 -0.027565 614684.000000 0 0 1
-28.817094 -24.720129 -25.721974 45.859892 0.709021 2.166247 0.094465 -0.038385 415891.000000 0 0 1
-27.439764 -24.975629 -26.038974 45.329360 0.738421 2.182716 0.081669 -0.032550 754254.000000 0 0 1
-26.734804 -23.643329 -26.354944 44.365976 0.724110 2.206862 0.094365 -0.028976 -147400.000000 0 0 1
-26.937614 -23.052629 -27.646644 44.959934 0.707839 2.233077 0.112993 -0.030131 -12768.900000 0 0 1
-26.109214 -21.927129 -27.777374 43.978092 0.698556 2.254435 0.114092 -0.035502 6334.400000 0 0 1
-25.936974 -21.514929 -29.302544 44.657115 0.692476 2.286525 0.111796 -0.030576 105603.000000 0 0 1
-24.878514 -22.236229 -29.906914 44.808636 0.729375 2.301557 0.117028 -0.022926 139173.000000 0 0 1
-24.698014 -22.060129 -31.308774 45.572805 0.729042 2.328157 0.121169 -0.028664 54710.800000 0 0 1
-24.159814 -23.271429 -32.098554 46.428151 0.766670 2.334166 0.114104 -0.036681 122580.000000 0 0 1
-25.078594 -24.340929 -32.147254 47.485394 0.770473 2.314465 0.118765 -0.033070 -26976.100000 0 0 1
-24.628314 -25.306739 -33.028384 48.351412 0.798983 2.322782 0.109250 -0.011149 85806.400000 0 0 1
-20.535614 -14.416929 -11.887454 27.764561 0.612097 2.013243 0.041918 0.014171 -274220.000000 0 0 1
-20.635414 -13.883529 -10.598154 27.035043 0.592237 1.973618 0.059112 0.001538 -378007.000000 0 0 1
-19.912414 -14.649229 -9.734554 26.568133 0.634275 1.945933 0.040246 -0.010230 -451628.000000 0 0 1
-19.784214 -14.228129 -8.253754 25.728957 0.623473 1.897366 0.067564 -0.025040 -350376.000000 0 0 1
-20.924914 -14.616429 -7.554854 26.618938 0.609731 1.858567 0.126133 -0.035623 -185657.000000 0 0 1
-20.981614 -14.070129 -6.233154 26.020163 0.590716 1.812700 0.091858 -0.048736 -651053.000000 0 0 1
-22.129814 -14.706629 -5.499254 27.134027 0.586544 1.774880 0.144571 -0.051986 -759752.000000 0 0 1
-21.987314 -16.080329 -5.195254 27.731023 0.631455 1.759254 0.113359 -0.053825 321920.000000 0 0 1
-21.184514 -16.276229 -4.036654 27.018398 0.655116 1.720762 0.127176 -0.053231 -171514.000000 0 0 1
-21.251514 -17.694329 -3.482154 27.871877 0.694314 1.696058 0.094341 -0.044294 -327492.000000 0 0 1
-22.578614 -18.045629 -3.192454 29.079723 0.674275 1.680801 0.107018 -0.046994 -57551.200000 0 0 1
-22.636414 -19.078129 -2.203154 29.685622 0.700303 1.645081 0.087598 -0.037611 870099.000000 0 0 1
-24.072114 -19.751629 -2.107454 31.209532 0.687128 1.638374 0.077157 -0.042944 969090.000000 0 0 1
-24.305614 -20.600929 -3.164854 32.018393 0.703087 1.669803 0.056504 -0.035828 434646.000000 0 0 1
-25.463114 -21.423629 -2.924854 33.405042 0.699456 1.658466 0.069046 -0.028480 431686.000000 0 0 1
-25.504714 -22.592929 -3.958154 34.301573 0.724933 1.686447 0.077766 -0.025132 370623.000000 0 0 1
-24.362014 -23.445529 -3.752154 34.018807 0.766230 1.681318 0.077192 -0.022915 278346.000000 0 0 1
-24.074614 -24.182229 -4.892954 34.471847 0.787628 1.713218 0.081609 -0.014713 -1392350.000000 0 0 1
-22.671614 -24.035729 -5.377354 33.475876 0.814595 1.732129 0.080527 -0.013188 -1231840.000000 0 0 1
-22.363014 -22.774429 -6.007754 32.478795 0.794513 1.756842 0.061897 -0.008400 174212.000000 0 0 1
-22.234814 -21.686629 -5.145054 31.482828 0.772918 1.734957 0.050567 -0.003354 -1217070.000000 0 0 1
-22.061214 -20.403329 -5.951154 30.633466 0.746376 1.766309 0.075062 -0.006655 -376079.000000 0 0 1
-20.819014 -20.247729 -6.575154 29.776409 0.771488 1.793449 0.049593 0.001265 -165766.000000 0 0 1
-20.736414 -18.905029 -7.041654 28.930674 0.739232 1.816664 0.041852 -0.001222 277906.000000 0 0 1
-19.509914 -18.665229 -7.963254 28.150328 0.763275 1.857595 0.041564 -0.000073 6894.250000 0 0 1
-19.592014 -19.329029 -9.217254 29.024406 0.778641 1.893961 0.024922 -0.001368 403640.000000 0 0 1
-18.515014 -19.167729 -10.164154 28.522230 0.802718 1.935165 0.086390 0.002970 -125031.000000 0 0 1
-18.067414 -17.786529 -10.705954 27.521074 0.777564 1.970352 0.080563 0.008382 38807.800000 0 0 1
-17.295414 -16.918529 -9.872254 26.131004 0.774383 1.958214 0.073452 -0.008600 345057.000000 0 0 1
-15.985514 -17.434229 -9.694554 25.563126 0.828720 1.959771 0.095982 -0.001514 -262049.000000 0 0 1
-15.022014 -16.521329 -8.846754 24.018332 0.832894 1.948012 0.048336 -0.000712 165939.000000 0 1 0
-15.293914 -16.334629 -7.462454 23.588390 0.818291 1.892688 0.001522 -0.010724 -228450.000000 0 1 0
-16.075714 -15.240729 -7.046354 23.245634 0.758742 1.878768 0.046639 -0.004735 121253.000000 0 1 0
-16.469714 -15.366229 -5.494154 23.185302 0.750750 1.810039 0.023578 -0.026877 224685.000000 0 1 0
-17.244014 -14.317929 -4.923954 22.947864 0.692953 1.787049 0.045094 -0.016751 414652.000000 0 1 0
-17.716014 -14.657129 -3.644254 23.280232 0.691190 1.727981 0.048041 -0.019962 -499864.000000 0 1 0
-18.462514 -13.613229 -2.906254 23.122084 0.635352 1.696821 0.059129 -0.021272 -910227.000000 0 1 0
-19.762114 -13.330329 -3.302954 24.065501 0.593433 1.708479 0.097068 -0.042837 -148942.000000 0 1 0
-20.408414 -12.360929 -2.495154 23.990034 0.544584 1.674993 0.110998 -0.029987 1049.080000 0 1 0
-21.950414 -12.436229 -2.462454 25.348455 0.515468 1.668094 0.124891 -0.030776 -33907.500000 0 0 1
-22.575414 -11.778129 -3.537054 25.707672 0.480875 1.708822 0.143040 -0.037512 -880526.000000 0 0 1
-23.949514 -11.887029 -3.474454 26.962057 0.460713 1.700020 0.141981 -0.036821 -905309.000000 0 0 1
-24.611914 -11.019229 -4.580454 27.352336 0.420956 1.739050 0.154707 -0.047479 -136975.000000 0 0 1
-24.339614 -11.573629 -5.817054 27.571794 0.443861 1.783372 0.165626 -0.052901 264215.000000 0 0 1
-25.016514 -10.943429 -6.888554 28.160909 0.412367 1.817918 0.170732 -0.048351 -139042.000000 0 0 1
-24.396714 -11.227629 -8.251454 28.095299 0.431313 1.868887 0.180456 -0.047310 871286.000000 0 0 1
-23.125014 -10.558329 -8.464954 26.793657 0.428309 1.892234 0.154512 -0.047651 1107500.000000 0 0 1
-22.517314 -10.999929 -9.670654 26.861672 0.454413 1.939082 0.111680 -0.032803 -1669930.000000 0 0 1
-21.131114 -10.508729 -9.788754 25.549503 0.461494 1.963978 0.094727 -0.031089 -1698000.000000 0 0 1
-21.052914 -9.163429 -10.178054 25.115462 0.410526 1.988049 0.085758 -0.032484 -83214.400000 0 0 1
-19.817714 -8.631429 -9.791054 23.729899 0.410765 1.996107 0.091297 -0.028394 -390778.000000 0 1 0
-19.565014 -7.239629 -10.403954 23.311891 0.354406 2.033416 0.086590 -0.033918 -140754.000000 0 1 0
-19.101214 -7.370529 -11.739654 23.600859 0.368264 2.091424 0.082389 -0.031641 395079.000000 0 1 0
-18.922614 -6.103129 -12.338254 23.399702 0.311997 2.126196 0.097365 -0.046300 -300750.000000 0 1 0
-18.358114 -6.163229 -13.773454 23.763707 0.323899 2.189035 0.101251 -0.036910 -10094.800000 0 1 0
-19.274514 -6.611829 -14.756554 25.159075 0.330456 2.197564 0.114101 -0.041847 453633.000000 0 0 1
-18.797614 -6.180729 -16.023154 25.461602 0.317669 2.251457 0.120996 -0.050262 -306658.000000 0 0 1
-19.279614 -7.003029 -17.228654 26.787543 0.348416 2.269413 0.103873 -0.037330 -491871.000000 0 0 1
-20.543514 -6.585229 -17.667954 27.884724 0.310202 2.257003 0.103320 -0.043860 -162021.000000 0 0 1
-20.998814 -7.550029 -18.588454 29.042792 0.345153 2.265342 0.114957 -0.042889 -756591.000000 0 0 1
-22.462614 -7.461929 -18.999754 30.351937 0.320724 2.247186 0.103841 -0.039769 -933911.000000 0 0 1
-22.759014 -6.368429 -19.924754 30.911575 0.272842 2.271260 0.111314 -0.038866 457727.000000 0 0 1
-24.031214 -6.386629 -20.552854 32.260008 0.259759 2.261526 0.092758 -0.036702 956684.000000 0 0 1
-25.291784 -6.033929 -19.689454 32.615292 0.234195 2.218915 0.136349 -0.037735 175053.000000 0 0 1
-25.318294 -4.639629 -19.351254 32.202690 0.181241 2.215448 0.136567 -0.028910 470224.000000 0 0 1
-26.401624 -4.249429 -18.492454 32.512679 0.159585 2.175814 0.148595 -0.024774 -68485.400000 0 0 1
-26.573364 -2.776929 -18.222554 32.340632 0.104123 2.169361 0.137968 -0.026354 -66498.300000 0 0 1
-27.094834 -1.929229 -19.208554 33.268912 0.071083 2.186303 0.140797 -0.023077 234726.000000 0 0 1
-28.452014 -2.113929 -19.559754 34.591470 0.074162 2.171775 0.152825 -0.017579 -50703.300000 0 0 1
-29.063024 -0.897729 -20.397254 35.517788 0.030879 2.182524 0.138405 -0.017473 -42479.200000 0 0 1
-28.606484 -0.605929 -21.697454 35.909297 0.021178 2.219595 0.126460 -0.010943 -7244.860000 0 0 1
-29.084394 -1.523829 -22.663254 36.903213 0.052345 2.232075 0.110347 -0.010194 -121072.000000 0 0 1
-28.194614 -1.439129 -23.908854 36.995144 0.050998 2.273483 0.098654 -0.010743 -533665.000000 0 0 1
-28.379484 -0.239029 -24.703554 37.626026 0.008422 2.287039 0.096291 -0.004463 418203.000000 0 0 1
-27.728854 0.999471 -24.271054 36.864242 -0.036029 2.289474 0.102711 0.000987 739922.000000 0 0 1
-26.217344 0.946971 -23.869454 35.468250 -0.036104 2.309028 0.110353 -0.005588 -403924.000000 0 0 1
-25.377284 0.574271 -24.896654 35.555305 -0.022625 2.346507 0.096401 -0.008155 -880933.000000 0 0 1
-24.088514 0.946571 -24.452254 34.337520 -0.039275 2.363302 0.091779 -0.010957 -327803.000000 0 0 1
-23.024314 0.227371 -25.311024 34.217228 -0.009875 2.403444 0.086055 -0.018443 -350256.000000 0 0 1
-22.926414 0.779171 -26.600194 35.125460 -0.033973 2.429951 0.059202 -0.011763 -134306.000000 0 0 1
-21.944614 0.173371 -27.371664 35.082818 -0.007900 2.465784 0.040641 -0.022215 -493641.000000 0 0 1
-21.790714 0.803371 -28.756584 36.089081 -0.036851 2.492814 0.040167 -0.008626 -504315.000000 0 0 1
-21.137314 2.041271 -28.572374 35.599626 -0.096273 2.502443 0.045751 -0.013654 193418.000000 0 0 1
-21.058114 2.870271 -29.743294 36.556069 -0.135468 2.521174 0.035789 -0.010523 130489.000000 0 0 1
-20.350214 2.199471 -30.993904 37.142846 -0.107663 2.557933 0.033204 -0.015750 -232239.000000 0 0 1
-18.945314 2.242971 -30.958394 36.364516 -0.117843 2.589322 0.025801 -0.015229 -455011.000000 0 0 1
-18.427814 1.925871 -32.198864 37.149161 -0.104131 2.619436 0.033500 -0.020005 487121.000000 0 0 1
-16.908014 1.570871 -32.075934 36.293445 -0.092641 2.654707 0.041162 -0.029994 495436.000000 0 0 1
-16.086714 2.717571 -32.023664 35.939987 -0.167353 2.670409 0.044084 -0.026525 -260819.000000 0 0 1
-14.730414 2.369471 -32.160954 35.453159 -0.159489 2.707232 0.054810 -0.021329 -36821.400000 0 0 1
-13.895314 3.539271 -32.766134 35.766265 -0.249406 2.729085 0.056675 -0.007056 -252692.000000 0 0 1
-13.689514 4.619371 -31.902384 35.021472 -0.325441 2.716348 0.069172 -0.031119 64988.800000 0 0 1
-13.128814 5.765471 -32.497404 35.520243 -0.413791 2.726052 0.075004 -0.012284 -291190.000000 0 0 1
-12.889814 6.793871 -31.381374 34.599055 -0.485071 2.706903 0.077305 -0.016902 -549646.000000 0 0 1
-11.787714 6.470071 -30.565294 33.392353 -0.501985 2.727143 0.106809 -0.031039 -41435.500000 0 0 1
-11.981214 5.479971 -29.567144 32.369671 -0.428974 2.722408 0.107295 -0.039435 -920168.000000 0 0 1
-10.644914 4.865671 -29.172234 31.432598 -0.428733 2.760043 0.131236 -0.055044 -816113.000000 0 0 1
-10.004214 4.107971 -30.137504 32.019196 -0.389631 2.797057 0.111031 -0.053304 -75312.000000 0 0 1
-10.704614 2.937471 -30.606184 32.556966 -0.267819 2.793664 0.110277 -0.046290 -580718.000000 0 0 1
-10.114514 2.211771 -31.811464 33.453917 -0.215284 2.826940 0.099423 -0.044503 -357471.000000 0 0 1
-10.748514 0.982871 -32.099914 33.865928 -0.091189 2.817226 0.104657 -0.046482 60712.800000 0 0 1
-10.331614 0.376471 -33.315014 34.882290 -0.036423 2.840691 0.086618 -0.030059 -302778.000000 0 0 1
-10.740814 1.116671 33.237239 34.947476 -0.103593 0.314139 0.086914 -0.024909 -230785.000000 0 0 1
-12.124214 1.117471 33.008744 35.182702 -0.091909 0.353377 0.074172 -0.025264 -561309.000000 0 0 1
-12.453014 1.471771 31.706951 34.096546 -0.117640 0.376610 0.056205 -0.014947 -365577.000000 0 0 1
-13.880714 1.053871 31.339321 34.291951 -0.075778 0.418013 0.052494 -0.013140 -699963.000000 0 0 1
-14.824814 1.891871 31.906505 35.233214 -0.126929 0.438050 0.049006 -0.001669 -982543.000000 0 0 1
-16.058414 1.506471 31.374331 35.277341 -0.093538 0.474848 0.040724 0.000612 -256381.000000 0 0 1
-17.187914 2.552271 31.217651 35.727863 -0.147415 0.507912 0.051651 0.002196 22811.400000 0 0 1
-17.626214 3.190171 32.357910 36.985064 -0.179052 0.505585 0.050979 -0.010508 117256.000000 0 0 1
-16.960114 4.414671 32.562872 36.979392 -0.254646 0.493737 0.051863 -0.003820 41972.300000 0 0 1
-17.635214 5.190471 33.750646 38.432381 -0.286242 0.498747 0.041389 -0.003220 -91552.200000 0 0 1
-18.979514 5.474371 33.515676 38.903615 -0.280814 0.532569 0.033055 0.001987 -645092.000000 0 0 1
-19.766714 5.221671 -33.194194 38.985168 -0.258265 2.589554 0.021945 0.002296 501314.000000 0 0 1
-21.250614 5.675971 -33.313984 39.920255 -0.261004 2.558045 0.015313 -0.003049 113730.000000 0 0 1
-21.475514 7.059971 -33.149444 40.123890 -0.317616 2.543085 0.017075 -0.008926 287981.000000 0 0 1
-20.991714 7.920771 33.653174 40.446592 -0.360810 0.588022 0.015204 -0.010197 -214408.000000 0 0 1
-21.086314 9.417771 -33.848964 40.976572 -0.420048 2.542871 0.021017 -0.003135 -753046.000000 0 0 1
-20.313214 9.715471 -32.719554 39.718840 -0.446124 2.538842 0.032150 -0.003293 56132.600000 0 0 1
-19.961714 11.105871 -32.519734 39.740955 -0.507712 2.529231 0.051832 -0.006607 275053.000000 0 0 1
-19.209714 11.870871 -33.621414 40.500990 -0.553522 2.550152 0.042040 -0.020393 -89176.200000 0 0 1
-20.036314 12.068471 33.101671 40.531747 -0.542131 0.615153 0.054052 -0.019225 456628.000000 0 0 1
-19.232014 12.351371 31.963744 39.295136 -0.570893 0.620776 0.037839 -0.013625 404696.000000 0 0 1
-19.857714 11.825371 30.599711 38.347236 -0.537108 0.646887 0.046843 -0.014792 28267.500000 0 0 1
-19.911514 10.365871 30.514131 37.881815 -0.479989 0.634263 0.043006 -0.009820 587441.000000 0 0 1
-18.634714 9.737671 30.348471 36.920245 -0.481529 0.605881 0.038381 -0.017240 699410.000000 0 0 1
-18.748314 8.202571 30.679711 36.878532 -0.412419 0.588251 0.050566 -0.002591 -98671.800000 0 0 1
-19.452314 7.489571 29.724691 36.304868 -0.367528 0.611562 0.042179 0.001358 -148491.000000 0 0 1
-19.603514 6.140171 30.107761 36.448275 -0.303539 0.598750 0.046922 -0.005307 -158283.000000 0 0 1
-20.197614 5.386871 28.888851 35.658487 -0.260641 0.626382 0.056128 -0.012949 -261341.000000 0 0 1
-21.548314 5.715471 28.697771 36.339490 -0.259270 0.660455 0.078233 -0.020924 -296937.000000 0 0 1
-22.220014 4.694471 27.952271 36.015227 -0.208210 0.682301 0.072481 -0.023150 -257908.000000 0 0 1
-23.660414 5.084571 27.639611 36.737123 -0.211678 0.719156 0.071004 -0.011381 -567198.000000 0 0 1
-23.889714 5.823571 26.456501 36.118955 -0.239106 0.748835 0.081292 -0.022625 420010.000000 0 0 1
-25.238584 6.276571 26.487031 37.120672 -0.243745 0.776260 0.097500 -0.021404 22865.300000 0 0 1
-25.605364 7.019971 25.191481 36.599527 -0.267585 0.811652 0.096550 -0.025610 -167061.000000 0 0 1
-25.735324 6.266471 24.022461 35.758275 -0.238849 0.834158 0.104557 -0.022132 341763.000000 0 0 1
-26.816664 5.355271 23.885171 36.308591 -0.197106 0.852852 0.105880 -0.017226 -112766.000000 0 0 1
-26.941034 4.747271 22.495111 35.417311 -0.174419 0.882601 0.116806 -0.012919 188420.000000 0 0 1
-27.558454 5.583371 21.490411 35.390397 -0.199895 0.918216 0.116875 -0.019572 140886.000000 0 0 1
-27.646924 4.842871 20.267811 34.620658 -0.173409 0.945392 0.125260 -0.014297 81312.800000 0 0 1
-28.596014 5.449371 19.173411 34.857530 -0.188306 0.988371 0.125318 -0.022384 -808096.000000 0 0 1
-29.919014 5.422671 19.515211 36.130268 -0.179299 1.000199 0.128057 -0.026554 -1157910.000000 0 0 1
-30.782304 5.636171 18.392011 36.298523 -0.181092 1.039458 0.128097 -0.025167 373444.000000 0 0 1
-32.266974 5.654371 18.827011 37.783408 -0.173476 1.049174 0.125086 -0.025976 91033.300000 0 0 1
-32.631494 6.734671 19.685611 38.700045 -0.203528 1.037155 0.121082 -0.033336 -308806.000000 0 0 1
-33.938454 6.550671 20.162211 40.015556 -0.190671 1.042735 0.111987 -0.026286 -125867.000000 0 0 1
-34.557232 7.696371 20.979211 41.152931 -0.219137 1.035860 0.104924 -0.023976 237904.000000 0 0 1
-34.282096 7.680371 22.418711 41.675518 -0.220395 1.002811 0.095852 -0.023124 165157.000000 0 0 1
-35.201875 8.587771 22.970391 42.901756 -0.239284 1.005793 0.088918 -0.020356 -37040.500000 0 0 1
-0.981614 32.464871 11.378746 34.415219 -1.540569 1.233824 0.096747 -0.020003 -464673.000000 0 0 1
-1.167414 32.690471 12.715946 35.095940 -1.535100 1.200041 0.080656 -0.016253 -33989.900000 0 0 1
-0.283314 33.703971 13.146546 36.178303 -1.562391 1.198901 0.084856 -0.026497 -57167.000000 0 0 1
-0.148414 33.863271 14.679946 36.908589 -1.566414 1.161746 0.080523 -0.020577 398706.000000 0 0 1
-1.284314 -33.651638 15.363146 37.014976 1.532650 1.142796 0.061165 -0.007991 168514.000000 0 0 1
-1.123414 -33.797038 16.757846 37.740260 1.537569 1.110704 0.049964 -0.013703 -301580.000000 0 0 1
-2.358914 -33.598638 17.631846 38.017298 1.500703 1.088534 0.046927 -0.000908 104935.000000 0 0 1
-3.270914 33.332871 17.684846 37.875229 -1.472981 1.084987 0.033947 -0.000054 892983.000000 0 0 1
-4.253214 33.688071 18.670846 38.750180 -1.445208 1.068059 0.028017 0.000164 427549.000000 0 0 1
-5.343914 32.642371 19.067946 38.179423 -1.408525 1.047856 0.027326 -0.009269 -73589.500000 0 0 1
-6.349014 32.569271 18.119846 37.807356 -1.378272 1.070976 0.036029 -0.018206 -842915.000000 0 0 1
-7.454114 31.867571 18.632146 37.659829 -1.341018 1.053251 0.054923 -0.032842 55411.300000 0 0 1
-8.606514 31.907471 17.581446 37.433488 -1.307333 1.081878 0.048381 -0.034844 -526392.000000 0 0 1
-9.327114 33.074771 17.518546 38.572464 -1.295933 1.099353 0.058532 -0.036766 -384410.000000 0 0 1
-10.114714 33.141371 16.345146 38.312161 -1.274577 1.130032 0.066480 -0.031904 599938.000000 0 0 1
-11.211514 -33.806438 16.376846 39.201714 1.250572 1.139820 0.098208 -0.037561 296802.000000 0 0 1
-12.287014 -33.930838 17.276346 40.009307 1.223366 1.124300 0.101325 -0.030989 282219.000000 0 0 1
-13.317814 -33.016938 16.887846 39.404083 1.187394 1.127875 0.076131 -0.032356 549955.000000 0 0 1
-14.706314 -33.273138 17.519946 40.377295 1.154625 1.121973 0.101005 -0.035498 209929.000000 0 0 1
-14.639014 -32.946038 18.895546 40.703610 1.152665 1.088039 0.109469 -0.027187 -384842.000000 0 0 1
-15.659814 -33.472738 19.680946 41.868767 1.133208 1.081435 0.103931 -0.030722 -333149.000000 0 0 1
-15.516214 -32.947638 21.146546 42.112660 1.130669 1.044722 0.110665 -0.040906 154645.000000 0 0 1
-15.774814 -31.546738 21.306746 41.207025 1.107112 1.027377 0.113369 -0.032125 67249.400000 0 0 1
-15.516514 -31.211638 22.674646 41.582065 1.109440 0.994051 0.100167 -0.028954 241771.000000 0 0 1
-15.851114 -29.700638 23.017946 40.782491 1.080557 0.971081 0.106900 -0.035271 42007.100000 0 0 1
-15.710114 -29.318538 24.362946 41.230298 1.078888 0.938623 0.107890 -0.041430 -7296.540000 0 0 1
-15.555114 -27.929638 24.688746 40.392579 1.062641 0.913195 0.089919 -0.025649 -449471.000000 0 0 1
-16.687914 -26.979338 24.318246 39.971843 1.016853 0.916773 0.114220 -0.027122 157885.000000 0 0 1
-17.913714 -27.212738 25.033846 41.086831 0.988619 0.915630 0.126016 -0.024951 189002.000000 0 0 1
-18.853214 -26.333438 24.538446 40.632856 0.949451 0.922403 0.131636 -0.025650 -1487100.000000 0 0 1
-20.018514 -25.890438 25.462546 41.465612 0.912611 0.909597 0.125013 -0.016561 630131.000000 0 0 1
-20.999614 -26.835838 25.851346 42.771931 0.906804 0.921784 0.127444 -0.019175 79528.400000 0 0 1
-21.620814 -27.507338 24.823746 42.899087 0.904649 0.953718 0.107442 -0.022441 -1757740.000000 0 0 1
-23.125814 -27.256738 24.692646 43.444906 0.867206 0.966277 0.073303 -0.004706 -500720.000000 0 0 1
-23.319014 -25.938338 24.235646 42.472819 0.838524 0.963541 0.085589 -0.008875 -296335.000000 0 0 1
-24.568314 -25.794338 23.621046 42.742295 0.809737 0.985269 0.056268 -0.006607 -412410.000000 0 0 1
-24.930514 -24.323438 23.186146 41.842055 0.773073 0.983473 0.056863 0.011563 -23283.300000 0 0 1
-25.217684 -23.561638 24.287246 42.201335 0.751461 0.957570 0.048459 0.009262 -73452.500000 0 0 1
-25.729644 -22.297838 23.911746 41.605045 0.714064 0.958520 0.035913 0.011519 29759.100000 0 0 1
-26.179024 -21.579038 25.172946 42.245395 0.689376 0.932442 0.041115 0.008389 -224750.000000 0 0 1
-27.305984 -22.146538 25.785246 43.600056 0.681443 0.937998 0.024337 0.014047 -284494.000000 0 0 1
-27.779374 -21.223038 26.727746 44.005493 0.652392 0.918047 0.020387 0.001904 -358266.000000 0 0 1
-28.870724 -21.839638 27.659846 45.558266 0.647625 0.918351 0.026079 0.000674 1406900.000000 0 0 1
-30.268384 -21.794238 27.286346 46.213727 0.624045 0.939195 0.030957 -0.005265 1066430.000000 0 0 1
-30.648634 -22.576538 26.206346 46.214840 0.634886 0.967871 0.017384 0.010239 -686060.000000 0 0 1
-32.171804 -22.696838 25.976646 47.169456 0.614400 0.987583 0.022984 -0.002438 276403.000000 0 0 1
-32.675534 -23.342138 24.769046 47.181051 0.620300 1.018106 0.016977 0.002243 242368.000000 0 0 1
-32.278584 -24.676038 24.575646 47.484484 0.652698 1.026810 0.005209 0.006430 -404023.000000 0 0 1
-32.709924 -25.252638 23.197446 47.389412 0.657444 1.059272 0.020788 0.004033 170093.000000 0 0 1
-34.108464 -25.420738 23.078446 48.396445 0.640481 1.073715 0.026815 -0.007633 -66368.400000 0 0 1
-34.336893 -25.937538 21.726346 48.205936 0.646938 1.103249 0.028755 -0.002611 571078.000000 0 0 1
-35.760318 -26.557538 21.486046 49.454559 0.638783 1.121357 0.044866 -0.010025 542388.000000 0 0 1
-36.104214 -27.645938 22.402946 50.692250 0.653490 1.113036 0.040060 -0.007331 33014.500000 0 0 1
-35.256470 -28.757938 22.368946 50.699186 0.684228 1.113851 0.012826 0.000672 -728654.000000 0 0 1
-35.577818 -29.717638 21.154746 50.955299 0.695889 1.142675 0.029972 -0.007046 -277168.000000 0 0 1
-35.361602 -29.261738 19.844446 50.004942 0.691286 1.162714 0.040917 -0.014700 494079.000000 0 0 1
-35.959171 -30.235738 18.999246 50.677739 0.699149 1.186504 0.063481 -0.011794 -197499.000000 0 0 1
-36.229864 -29.829338 17.516746 50.092204 0.688809 1.213556 0.081384 -0.012793 -665069.000000 0 0 1
-35.057899 -29.670838 16.755046 48.889124 0.702364 1.220991 0.096681 -0.017763 -117341.000000 0 0 1
-35.187890 -29.112038 15.443846 48.210069 0.691186 1.244703 0.122620 -0.017663 -279659.000000 0 0 1
-36.005722 -29.874038 14.405146 48.952818 0.692592 1.272109 0.128902 -0.027373 236453.000000 0 0 1
-35.189929 -30.895338 13.811746 48.822304 0.720504 1.283982 0.126974 -0.032717 594713.000000 0 0 1
-35.809331 -31.670738 12.756346 49.477957 0.724144 1.310032 0.133846 -0.031613 217765.000000 0 0 1
-36.157224 -30.970338 11.369846 48.946707 0.708282 1.336365 0.135109 -0.030520 467112.000000 0 0 1
37.007269 -30.155438 11.531946 49.110835 -0.683732 1.333768 0.141535 -0.036281 225245.000000 0 0 1
36.780579 -29.382738 10.415846 48.214584 -0.674049 1.353049 0.116726 -0.027906 403134.000000 0 0 1
35.590039 -28.355738 10.342246 46.665413 -0.672745 1.347315 0.147954 -0.017724 325460.000000 0 0 1
35.607949 -27.454438 9.261246 45.906893 -0.656819 1.367662 0.152424 -0.051624 -109109.000000 0 0 1
34.425719 -26.715338 9.310646 44.559259 -0.659952 1.360295 0.113799 -0.038629 -227202.000000 0 0 1
34.473999 -25.647238 8.235946 43.750065 -0.639624 1.381416 0.106685 -0.035010 -183225.000000 0 0 1
35.310129 -24.597538 8.555546 43.875294 -0.608450 1.374542 0.126851 -0.041765 -224169.000000 0 0 1
35.860089 -24.019738 7.388446 43.789073 -0.590181 1.401257 0.114402 -0.043849 73380.300000 0 0 1
36.372739 -22.589638 7.639946 43.492949 -0.555761 1.394221 0.128092 -0.053928 -720756.000000 0 0 1
35.358679 -21.754838 8.005146 42.279918 -0.551566 1.380310 0.119108 -0.049597 -766845.000000 0 0 1
35.840389 -20.471538 7.898246 42.023798 -0.518963 1.381725 0.126693 -0.045548 148831.000000 0 0 1
34.973409 -19.373938 8.659146 40.908063 -0.505880 1.357510 0.119397 -0.035794 215514.000000 0 0 1
35.156829 -19.470938 10.059246 41.428353 -0.505780 1.325534 0.108799 -0.048105 154492.000000 0 0 1
34.289949 -18.646238 10.793746 40.496762 -0.498056 1.301002 0.087832 -0.036653 1195.240000 0 0 1
34.757689 -18.709938 12.282546 41.340291 -0.493813 1.269133 0.080677 -0.048735 193084.000000 0 0 1
35.982939 -18.064538 12.551246 42.173845 -0.465271 1.268611 0.076558 -0.039236 -80155.400000 0 0 1
36.448629 -18.522538 13.747446 43.134432 -0.470172 1.246426 0.086077 -0.033096 -448706.000000 0 0 1
-36.642654 -17.738138 14.247946 43.131539 0.450834 1.234136 0.102480 -0.034532 -4717.910000 0 0 1
-35.447195 -17.987838 13.528646 41.989168 0.469593 1.242750 0.092851 -0.031391 22571.700000 0 0 1
-34.373792 -17.321938 14.152046 41.010822 0.466786 1.218471 0.077622 -0.022818 -365923.000000 0 0 1
-33.069714 -17.330938 13.363746 39.655480 0.482720 1.227072 0.084244 -0.025808 -635993.000000 0 0 1
-32.412534 -18.535538 13.306446 39.638366 0.519474 1.228452 0.081816 -0.029949 -1892.680000 0 0 1
-31.228444 -18.396038 12.531746 38.349376 0.532351 1.237904 0.066197 -0.024850 810166.000000 0 0 1
-30.262514 -19.653838 12.517746 38.194071 0.575985 1.236885 0.060943 -0.023914 660160.000000 0 0 1
-30.763404 -20.679338 11.680346 38.864541 0.591828 1.265538 0.078575 -0.025476 -418964.000000 0 0 1
-29.732414 -21.472738 11.168246 38.338292 0.625470 1.275203 0.071181 -0.024718 -603253.000000 0 0 1
-30.140474 -22.612838 10.108246 39.012373 0.643660 1.308702 0.091405 -0.031518 430916.000000 0 0 1
-31.008024 -23.678338 10.475046 40.396632 0.652161 1.308494 0.101176 -0.026989 -575551.000000 0 0 1
-32.352294 -23.307138 10.543046 41.243781 0.624298 1.312300 0.130771 -0.041608 -832930.000000 0 0 1
-33.186574 -24.589838 10.804846 42.693718 0.637689 1.314936 0.145773 -0.043979 -181626.000000 0 0 1
-33.278284 -25.275438 9.588646 42.874633 0.649565 1.345245 0.131067 -0.034527 -198701.000000 0 0 1
-34.103563 -26.377238 9.827946 44.219908 0.658338 1.346673 0.143338 -0.024941 53938.100000 0 0 1
-34.554645 -27.047338 8.502446 44.697579 0.664128 1.379408 0.130074 -0.026537 230015.000000 0 0 1
-33.464624 -27.706638 7.912146 44.160400 0.691546 1.390655 0.110815 -0.025509 10528.000000 0 0 1
-33.848124 -28.144438 6.642746 44.518884 0.693650 1.421025 0.088814 -0.019217 579228.000000 0 0 1
-32.602494 -28.558938 5.769246 43.724361 0.719381 1.438465 0.068727 -0.014313 1068210.000000 0 0 1
-31.830214 -27.412338 5.321446 42.342846 0.710963 1.444788 0.079837 -0.005639 1032250.000000 0 0 1
-30.582854 -27.858638 4.742046 41.640145 0.738817 1.456667 0.074838 -0.016877 1274690.000000 0 0 1
-29.656854 -26.805738 4.063546 40.181949 0.734945 1.469495 0.071323 -0.016070 391085.000000 0 0 1
-30.157574 -26.320938 2.833546 40.128544 0.717571 1.500126 0.091773 -0.018600 83177.300000 0 0 1
-29.479754 -25.105338 2.419946 38.796779 0.705430 1.508381 0.087516 -0.020827 33869.300000 0 0 1
-29.888284 -24.542638 1.062646 38.688239 0.687502 1.543326 0.089860 -0.018225 -147986.000000 0 0 1
-29.531014 -25.371938 -0.063154 38.933534 0.709789 1.572418 0.089913 -0.023761 -133238.000000 0 0 1
-29.616914 -24.834738 -1.356154 38.675121 0.697799 1.605869 0.095261 -0.027460 -221235.000000 0 0 1
-31.015614 -24.606738 -1.948254 39.639066 0.670683 1.619966 0.108469 -0.019832 -172238.000000 0 0 1
-31.769824 -23.600138 -1.323254 39.598475 0.638908 1.604219 0.104326 -0.014802 236230.000000 0 0 1
-33.100274 -23.635338 -1.849054 40.714572 0.620095 1.616227 0.117251 -0.014248 250219.000000 0 0 1
-33.906694 -22.343538 -1.610854 40.638559 0.582656 1.610445 0.112629 -0.010933 -196205.000000 0 0 1
-34.173991 -22.030538 -0.268654 40.660527 0.572611 1.577404 0.117839 -0.024152 189610.000000 0 0 1
-34.792172 -20.781438 -0.089954 40.526183 0.538433 1.573016 0.125891 -0.024966 -283558.000000 0 0 1
-34.935389 -20.285138 1.396346 40.421752 0.526068 1.536245 0.121044 -0.030102 -154859.000000 0 0 1
-35.929649 -21.045938 2.045946 41.690012 0.529879 1.521701 0.121402 -0.035974 112203.000000 0 0 1
-36.194424 -20.599438 3.358646 41.781021 0.517414 1.490323 0.126860 -0.047702 -879074.000000 0 0 1
36.981189 -21.449338 3.985746 42.936798 -0.525589 1.477834 0.147800 -0.037518 1209.140000 0 0 1
35.774639 -21.376138 3.291146 41.804255 -0.538596 1.491987 0.109639 -0.032271 -531512.000000 0 0 1
35.025689 -20.238738 3.650246 40.616865 -0.523955 1.480805 0.104299 -0.034031 -507831.000000 0 0 1
33.693279 -20.036838 2.865646 39.305519 -0.536501 1.497825 0.079960 -0.018985 117428.000000 0 0 1
32.694199 -20.921838 3.243146 38.950635 -0.569260 1.487437 0.066516 -0.012754 -1043270.000000 0 0 1
31.515579 -20.649238 2.555646 37.764455 -0.580027 1.503071 0.072523 -0.010152 -227197.000000 0 0 1
30.271029 -21.485638 2.865746 37.231443 -0.617257 1.493749 0.065791 0.009611 5049.550000 0 0 1
30.253559 -22.727838 2.129246 37.899421 -0.644298 1.514585 0.036014 0.006054 -1544920.000000 0 0 1
29.073629 -23.358738 2.302446 37.365864 -0.676831 1.509138 0.036461 0.010967 -1278030.000000 0 0 1
28.842829 -24.512638 1.264046 37.873157 -0.704418 1.537414 0.026986 0.010736 -165185.000000 0 0 1
28.573729 -23.974038 -0.047154 37.298991 -0.698087 1.572061 0.025794 0.002334 266097.000000 0 0 1
28.126129 -25.088438 -0.864954 37.699562 -0.728376 1.593742 0.021442 -0.002275 -395666.000000 0 0 1
27.210629 -24.717638 -2.007354 36.815885 -0.737427 1.625348 0.054333 -0.011804 -475783.000000 0 0 1
27.865829 -24.099338 -3.119054 36.973112 -0.713044 1.655257 0.025519 -0.028772 211291.000000 0 0 1
28.272629 -24.994638 -4.133054 37.962555 -0.723937 1.679884 0.027043 -0.030785 -682806.000000 0 0 1
27.180329 -25.697738 -4.984154 37.735736 -0.757368 1.703264 0.043147 -0.040956 88459.600000 0 0 1
26.511329 -24.848838 -5.906654 36.813094 -0.753040 1.731943 0.051774 -0.055737 1002810.000000 0 0 1
25.397429 -24.093638 -5.385954 35.419504 -0.759060 1.723450 0.067398 -0.049584 130499.000000 0 0 1
24.833729 -22.998938 -6.355554 34.439197 -0.747058 1.756404 0.082065 -0.059721 -186164.000000 0 0 1
24.182429 -23.533738 -7.488454 34.564485 -0.771804 1.789180 0.097640 -0.063404 440191.000000 0 0 1
23.093129 -22.801338 -8.020254 33.429300 -0.779040 1.813077 0.094008 -0.058037 -5113.880000 0 0 1
23.344429 -21.386838 -8.502654 32.781921 -0.741663 1.833166 0.099341 -0.051156 -554394.000000 0 0 1
24.124229 -21.414638 -9.696254 33.683564 -0.725968 1.862791 0.108120 -0.048988 243533.000000 0 0 1
23.944429 -20.250338 -10.471954 33.061665 -0.702005 1.893087 0.101424 -0.051279 7198.080000 0 0 1
24.761229 -20.183138 -11.800454 34.054783 -0.683887 1.924648 0.077865 -0.054910 747465.000000 0 0 1
26.161329 -20.081338 -11.555954 34.945892 -0.654668 1.907822 0.082442 -0.052689 766820.000000 0 0 1
26.978629 -19.914938 -12.758154 35.877871 -0.635890 1.934352 0.074368 -0.052151 -67660.000000 0 0 1
28.403329 -20.316238 -12.403554 37.058694 -0.620905 1.912083 0.052641 -0.049532 -781412.000000 0 0 1
28.588029 -21.660438 -12.929554 38.126413 -0.648395 1.916781 0.050060 -0.049253 18405.000000 0 0 1
29.353829 -22.391138 -12.021554 38.826899 -0.651644 1.885589 0.058861 -0.051562 -439606.000000 0 0 1
29.828079 -23.783738 -12.471254 40.136176 -0.673130 1.886750 0.045987 -0.045855 -342854.000000 0 0 1
30.778389 -23.925138 -13.490654 41.251899 -0.660768 1.903957 0.028499 -0.044577 -16111.900000 0 0 1
30.963079 -25.280538 -13.699754 42.255190 -0.684705 1.900978 0.044029 -0.029988 5668.670000 0 0 1
-4.538514 -8.739329 -27.682024 29.381430 1.091812 2.799816 0.054675 -0.012394 226826.000000 0 0 1
-4.088714 -7.491229 -27.150894 28.460625 1.071183 2.837039 0.035416 -0.009400 488525.000000 0 0 1
-4.894714 -6.416829 -27.675924 28.828644 0.919158 2.857851 0.031232 -0.013368 85560.700000 0 0 1
-4.708414 -5.160529 -26.822264 27.717036 0.831178 2.886808 0.029030 -0.023886 -78077.800000 0 0 1
-5.361814 -5.178329 -25.576014 26.640132 0.767992 2.857998 0.021133 -0.019360 101238.000000 0 0 1
-5.012614 -4.019129 -24.888654 25.704568 0.675839 2.888961 0.024555 -0.024734 123441.000000 0 0 1
-5.443914 -3.996229 -23.385454 24.341025 0.633229 2.860462 0.022270 -0.029420 -289194.000000 0 1 0
-4.851014 -5.007029 -22.636154 23.685400 0.801223 2.842828 0.011815 -0.027710 170153.000000 0 1 0
-5.412314 -5.110729 -21.350754 22.611223 0.756747 2.806120 0.017563 -0.021108 -60124.900000 0 1 0
-4.782314 -6.288229 -20.518354 21.986705 0.920597 2.774059 0.014236 -0.022514 -435535.000000 0 1 0
-5.035114 -7.562329 -21.053854 22.930459 0.983383 2.734210 0.007227 -0.006657 541608.000000 0 1 0
-4.323114 -8.587129 -20.316854 22.476714 1.104400 2.699613 0.013280 -0.014192 -411597.000000 0 1 0
-5.173114 -9.898329 -20.124454 23.015901 1.089213 2.634936 0.028921 -0.016393 635554.000000 0 1 0
-6.326114 -9.850229 -19.300054 22.572967 0.999903 2.596361 0.043614 -0.019880 807973.000000 0 1 0
-7.437414 -9.069729 -19.784154 22.999736 0.883963 2.606439 0.042774 -0.020141 -381549.000000 0 1 0
-8.633014 -9.083929 -18.828354 22.617551 0.810844 2.554341 0.050996 -0.014391 -382818.000000 0 1 0
-9.354914 -10.313629 -18.901354 23.476511 0.834103 2.506670 0.089075 -0.012334 393657.000000 0 1 0
-9.990114 -10.601829 -17.632654 22.871634 0.815096 2.451112 0.080742 -0.013315 -114236.000000 0 1 0
-10.613514 -12.007129 -17.539554 23.758236 0.846928 2.401271 0.100047 -0.006453 -256385.000000 0 1 0
-11.826814 -12.125829 -18.236454 24.889305 0.797881 2.393081 0.109422 -0.024343 -323030.000000 0 1 0
-11.725414 -12.224329 -19.664454 25.954004 0.806227 2.430525 0.110566 -0.026006 -905074.000000 0 0 1
-13.043714 -12.028829 -20.434654 27.063006 0.744942 2.426568 0.097227 -0.023999 514089.000000 0 0 1
-14.106014 -12.975829 -20.340954 27.948277 0.743690 2.385915 0.093731 -0.017049 88714.000000 0 0 1
-14.802014 -13.000829 -19.110654 27.447009 0.720704 2.340990 0.082837 -0.009241 -257550.000000 0 0 1
-16.136914 -13.783829 -19.338854 28.712109 0.706916 2.309789 0.087198 0.000279 537865.000000 0 0 1
-15.799614 -15.162129 -19.590454 29.382033 0.764812 2.300635 0.089774 -0.001910 -44343.200000 0 0 1
-16.544714 -15.704229 -20.665954 30.780384 0.759342 2.306893 0.094329 -0.010093 126863.000000 0 0 1
-16.071114 -17.094029 -21.177154 31.606303 0.816231 2.305045 0.077077 -0.008035 -73452.100000 0 0 1
-16.300214 -18.047129 -20.190054 31.607501 0.836215 2.263700 0.081227 0.001346 -46752.200000 0 0 1
-16.016614 -19.331229 -20.693354 32.533725 0.878896 2.260176 0.072326 0.001580 185537.000000 0 0 1
-16.672414 -20.492429 -19.837954 33.037153 0.887824 2.214890 0.076368 -0.009722 328323.000000 0 0 1
-16.273314 -21.776129 -20.277054 33.914296 0.929025 2.211664 0.075134 -0.009478 258480.000000 0 0 1
-17.161214 -22.738229 -19.745054 34.661239 0.924275 2.176886 0.091619 -0.009142 239791.000000 0 0 1
-16.629614 -24.178929 -19.954554 35.487306 0.968324 2.167962 0.098965 -0.009865 48511.200000 0 0 1
-16.629314 -24.609329 -21.331554 36.567586 0.976544 2.193638 0.074424 -0.013112 -6336.400000 0 0 1
-16.070214 -25.872889 -21.484854 37.272740 1.014991 2.185140 0.085660 -0.013847 -276524.000000 0 0 1
-16.327714 -26.453769 -22.862454 38.588703 1.017813 2.204912 0.085977 -0.021370 -589382.000000 0 0 1
-17.555514 -27.055369 -23.095154 39.668315 0.995213 2.192236 0.099326 -0.023638 -744944.000000 0 0 1
-17.488714 -28.435179 -23.107954 40.600395 1.019393 2.176275 0.098044 -0.017881 -310893.000000 0 0 1
-18.652314 -29.108019 -23.855054 42.002967 1.000918 2.174794 0.105571 -0.026866 -152435.000000 0 0 1
-18.747514 -28.975189 -25.293344 42.787663 0.996519 2.203263 0.112922 -0.016887 68873.700000 0 0 1
-18.635714 -27.655369 -25.888834 42.217781 0.977834 2.230928 0.131980 -0.028901 307438.000000 0 0 1
-17.400714 -27.625559 -26.856054 42.275336 1.008697 2.259148 0.143701 -0.035920 145399.000000 0 0 1
-17.512114 -28.254169 -28.114994 43.536480 1.015940 2.272841 0.140175 -0.016438 99541.600000 0 0 1
-16.315414 -28.037209 -28.832754 43.400525 1.043777 2.297408 0.111053 -0.005908 25826.500000 0 0 1
-16.515014 -28.104739 -30.344594 44.535564 1.039527 2.320411 0.119276 -0.013363 18880.200000 0 0 1
-16.663914 -29.342449 -30.964664 45.798207 1.054306 2.313268 0.124849 -0.010688 255045.000000 0 0 1
-17.268114 -29.242559 -32.250344 46.833746 1.037382 2.330371 0.117462 -0.009274 188484.000000 0 0 1
-17.360414 -30.602589 -32.961874 48.211903 1.054779 2.323600 0.126402 -0.015046 193439.000000 0 0 1
-16.090314 -31.015309 -33.421494 48.351255 1.092233 2.333976 0.132862 -0.016399 -39077.200000 0 0 1
-16.154514 -32.224269 33.717742 49.358464 1.106097 0.818770 0.122073 -0.017679 166337.000000 0 0 1
-14.782014 -32.619929 33.133109 48.789042 1.145318 0.824247 0.109925 -0.025419 379545.000000 0 0 1
-13.879614 -33.312599 -33.898524 49.512452 1.176021 2.324915 0.121244 -0.025023 287136.000000 0 0 1
-12.885514 33.995677 33.292507 49.296385 -1.208494 0.829352 0.117367 -0.028714 387784.000000 0 0 1
-12.015014 33.044889 -33.685554 48.693344 -1.222060 2.334761 0.121418 -0.031660 212761.000000 0 0 1
-11.117914 33.811550 -32.922764 48.484403 -1.253113 2.317248 0.129916 -0.033557 -211851.000000 0 0 1
-10.351614 33.088233 -31.982164 47.168272 -1.267594 2.315895 0.128425 -0.037975 302499.000000 0 0 1
-9.288914 33.940498 -31.263844 47.070896 -1.303656 2.297201 0.127213 -0.039096 -42535.900000 0 0 1
-9.837114 -33.372179 -30.243814 46.099452 1.284145 2.286377 0.138471 -0.038919 -168202.000000 0 0 1
-8.898614 -32.457039 -29.714044 44.895090 1.303206 2.294087 0.127243 -0.046271 -387484.000000 0 0 1
-9.531914 -31.508349 -28.676234 43.657300 1.277029 2.287428 0.151439 -0.040586 13903.800000 0 0 1
-9.731214 -31.876349 -27.324734 43.098019 1.274502 2.257529 0.160184 -0.042290 11871.100000 0 0 1
-10.409714 -33.124819 -27.145444 44.073699 1.266311 2.234337 0.166102 -0.045640 3391.630000 0 0 1
-10.889614 -33.282399 -25.687964 43.430097 1.254586 2.203687 0.151073 -0.045719 47153.300000 0 0 1
-9.790314 -33.425619 -24.828654 42.773641 1.285867 2.190097 0.160996 -0.052453 -260867.000000 0 0 1
-10.182114 -33.560109 -23.503854 42.218332 1.276224 2.161230 0.146656 -0.054331 -54816.700000 0 0 1
-8.982814 -33.773569 -22.570654 41.602636 1.310843 2.144242 0.144753 -0.056251 -213791.000000 0 0 1
-8.346514 33.037978 -22.670554 40.928307 -1.323340 2.157848 0.138674 -0.059140 -98653.400000 0 0 1
-7.621814 32.817501 -21.470754 39.950891 -1.342593 2.138181 0.142863 -0.057006 -225083.000000 0 0 1
-6.969814 31.404270 -21.513454 38.699292 -1.352398 2.160258 0.136944 -0.070447 -193413.000000 0 0 1
-5.935914 31.320640 -22.470054 39.001550 -1.383497 2.184785 0.105412 -0.070256 -166455.000000 0 0 1
-5.075714 30.251640 -22.150254 37.835940 -1.404562 2.196205 0.097805 -0.055112 -1138370.000000 0 0 1
-3.689614 30.513270 -22.648754 38.179038 -1.450462 2.205855 0.090365 -0.061099 -1358730.000000 0 0 1
-3.590514 30.556110 -24.088654 39.074684 -1.453827 2.235057 0.101274 -0.051747 827864.000000 0 0 1
-2.402914 31.305180 -24.457554 39.798998 -1.494189 2.232582 0.080482 -0.056120 809602.000000 0 0 1
-2.424914 31.864760 -25.923124 41.149137 -1.494843 2.252323 0.085188 -0.042576 518272.000000 0 0 1
-1.239314 32.635472 -26.162274 41.845842 -1.532840 2.246192 0.088855 -0.049158 335749.000000 0 0 1
-1.523214 34.011467 -26.112954 42.906718 -1.526041 2.225089 0.072244 -0.040078 91065.900000 0 0 1
-0.428914 -33.092249 -26.633564 42.480909 1.557836 2.248433 0.042105 -0.019903 -678989.000000 0 0 1
0.761686 -33.001899 -25.939774 41.983061 -1.547720 2.236818 0.044578 -0.027825 -389906.000000 0 0 1
1.638986 -32.022599 -26.537764 41.621942 -1.519659 2.262163 0.043154 -0.019175 1129400.000000 0 0 1
2.765186 -31.538249 -25.541964 40.677996 -1.483343 2.249656 0.026869 -0.028239 342531.000000 0 0 1
2.226986 -30.970129 -24.345454 39.456425 -1.499012 2.235748 0.034091 -0.022041 467315.000000 0 0 1
3.188886 -30.197189 -23.640954 38.482904 -1.465584 2.232325 0.018995 -0.019491 -153721.000000 0 0 1
2.822886 -29.826929 -22.197854 37.287519 -1.476435 2.208455 0.035968 -0.018272 -259577.000000 0 0 1
3.360386 -30.757369 -21.279854 37.551833 -1.461973 2.173267 0.041869 -0.019895 425515.000000 0 0 1
3.429286 -30.020109 -20.038654 36.256235 -1.457056 2.156391 0.052267 -0.024604 -649394.000000 0 0 1
3.345686 -30.829339 -18.709754 36.217353 -1.462697 2.113667 0.055457 -0.019022 -458093.000000 0 0 1
2.098686 -31.417749 -18.407754 36.473619 -1.504096 2.099815 0.062489 -0.028093 60368.900000 0 0 1
1.893386 -32.739169 -18.848854 37.824825 -1.513028 2.092456 0.061817 -0.020392 -332083.000000 0 0 1
2.672586 -33.879409 -18.094154 38.501370 -1.492074 2.060043 0.051660 -0.031788 939841.000000 0 0 1
4.078286 -33.905199 -18.375554 38.779581 -1.451086 2.064450 0.045813 -0.021541 757440.000000 0 0 1
4.717286 33.067766 -17.699054 37.801937 1.429097 2.058055 0.045981 -0.031582 649869.000000 0 0 1
5.883186 32.494334 -18.578654 37.890104 1.391684 2.083265 0.056143 -0.020453 115599.000000 0 0 1
7.042886 33.300673 -18.656954 38.815190 1.362374 2.072205 0.095566 -0.021674 -226051.000000 0 0 1
7.886586 32.601988 -19.569954 38.833889 1.333451 2.098951 0.062203 -0.013100 -450283.000000 0 0 1
9.304286 33.160264 -19.617154 39.635913 1.297245 2.088555 0.047842 -0.024529 -398302.000000 0 0 1
10.001886 33.092092 -18.399654 39.162118 1.277282 2.059898 0.043740 -0.018660 -673765.000000 0 0 1
11.317186 33.538113 -18.460154 39.920684 1.245352 2.051520 0.050893 -0.008155 -129510.000000 0 0 1
11.918686 33.586882 -16.970054 39.472984 1.229797 2.015196 0.031829 -0.000771 288106.000000 0 0 1
12.596686 32.395302 -16.539954 38.492885 1.199945 2.014944 0.028470 -0.001453 74944.100000 0 0 1
13.541786 32.677769 -15.534554 38.633391 1.177935 1.984608 0.021011 -0.009130 237888.000000 0 0 1
14.725086 31.689410 -15.496854 38.225637 1.135811 1.988218 0.039354 -0.009846 135225.000000 0 0 1
14.416386 30.531930 -14.749454 36.845316 1.129656 1.982649 0.054512 -0.013584 -289623.000000 0 0 1
15.442486 29.592570 -14.755554 36.495437 1.089832 1.987023 0.055735 -0.015345 -99509.600000 0 0 1
14.925086 28.376210 -13.903354 34.946684 1.086588 1.979963 0.056187 -0.020304 193812.000000 0 0 1
14.996086 28.587670 -12.492554 34.615045 1.087691 1.940029 0.059992 -0.027626 227530.000000 0 0 1
13.745686 28.338240 -11.855354 33.653367 1.119174 1.930801 0.073670 -0.025368 502362.000000 0 0 1
13.236186 26.865210 -11.688954 32.149149 1.113015 1.942910 0.062608 -0.030872 -761786.000000 0 0 1
12.484086 26.447860 -12.825554 31.934880 1.129777 1.984077 0.049279 -0.030731 131404.000000 0 0 1
11.821986 25.212310 -12.715554 30.612175 1.132339 1.999152 0.080901 -0.034534 249402.000000 0 0 1
10.928886 24.941750 -11.477254 29.550953 1.157818 1.969679 0.094860 -0.042532 -1098300.000000 0 0 1
9.814786 25.796710 -11.394554 29.860277 1.207242 1.962318 0.063893 -0.027761 -5056.050000 0 0 1
9.263586 25.820510 -10.088654 29.228303 1.226331 1.923213 0.049162 -0.014307 -152434.000000 0 0 1
8.183286 26.915820 -10.009154 29.859851 1.275644 1.912619 0.048076 -0.010281 -150703.000000 0 0 1
8.710986 28.216130 -10.149954 31.225836 1.271356 1.901861 0.051948 -0.019438 -114596.000000 0 0 1
7.737186 29.231340 -9.982154 31.843032 1.312042 1.889652 0.042853 -0.020886 -104903.000000 0 0 1
8.163286 30.630720 -10.463154 33.381999 1.310343 1.889607 0.065588 -0.019590 -302877.000000 0 0 1
9.059486 31.296830 -9.605654 33.968139 1.289028 1.857492 0.061295 -0.014386 -334538.000000 0 0 1
9.477486 32.515528 -10.206054 35.372953 1.287178 1.863484 0.067288 -0.018276 741767.000000 0 0 1
10.641886 32.488180 -11.284154 36.000885 1.254249 1.889611 0.047735 -0.014446 889852.000000 0 0 1
11.968286 32.315119 -10.758654 36.100629 1.216098 1.873412 0.038601 -0.006151 676962.000000 0 0 1
12.844386 32.700295 -11.840054 37.073905 1.196520 1.895854 0.036758 0.001061 105759.000000 0 0 1
14.322986 32.732373 -11.414254 37.507884 1.158320 1.880017 0.060788 -0.011121 -56646.200000 0 0 1
14.654386 33.656612 -10.373054 38.146019 1.160142 1.846195 0.053422 -0.006841 -1491050.000000 0 0 1
16.011386 33.817180 -10.363154 38.824749 1.128598 1.840993 0.067689 -0.018879 -1408540.000000 0 0 1
16.543886 -33.266169 -9.286254 38.295857 -1.109296 1.815725 0.067327 -0.022046 -57510.800000 0 0 1
16.647186 -33.760129 -7.972454 38.476423 -1.112682 1.779512 0.062202 -0.024274 40266.400000 0 0 1
17.220186 -32.839829 -7.074354 37.749644 -1.087844 1.759313 0.057350 -0.027298 -930271.000000 0 0 1
17.748186 -33.606749 -5.813254 38.447439 -1.084912 1.722578 0.067260 -0.026178 254221.000000 0 0 1
18.861486 33.614443 -6.048554 39.016297 1.059461 1.726450 0.057747 -0.031528 432405.000000 0 0 1
20.108086 -33.767259 -6.228754 39.791460 -1.033699 1.727978 0.068660 -0.031760 -364708.000000 0 0 1
21.118386 33.476512 -7.050854 40.204199 1.008007 1.747084 0.060778 -0.022039 35470.300000 0 0 1
21.421786 32.168558 -6.592354 39.206736 0.983309 1.739742 0.060205 -0.013395 45223.600000 0 0 1
22.216986 32.131540 -5.400154 39.435922 0.965839 1.708163 0.061313 -0.011703 -335740.000000 0 0 1
22.470786 30.693890 -4.957354 38.361784 0.938854 1.700385 0.043937 -0.012150 -284487.000000 0 0 1
23.346186 29.953090 -5.783254 38.414555 0.908728 1.721919 0.037124 -0.007769 -103811.000000 0 0 1
23.460186 28.603800 -5.411054 37.387661 0.883873 1.716035 0.022568 0.002377 -68501.000000 0 0 1
24.594586 27.878660 -6.220954 37.693681 0.847902 1.736595 0.023826 0.008636 -973437.000000 0 0 1
25.863286 28.143430 -5.806254 38.661024 0.827593 1.721550 0.044915 0.007289 -991309.000000 0 0 1
26.773886 27.203930 -6.428454 38.706844 0.793365 1.737650 0.031133 0.007825 357191.000000 0 0 1
27.588686 26.355570 -5.456954 38.542574 0.762543 1.712856 0.040551 0.010600 -172519.000000 0 0 1
28.746186 26.987430 -4.935154 39.736889 0.753852 1.695314 0.051565 0.006930 -72471.600000 0 0 1
29.494586 26.069500 -4.182954 39.585938 0.723834 1.676662 0.061656 0.000385 604248.000000 0 0 1
30.880786 26.677960 -3.738654 40.979434 0.712509 1.662156 0.062681 0.003563 548755.000000 0 0 1
30.859586 27.729220 -2.818454 41.583258 0.732020 1.638627 0.072901 -0.001583 -1106380.000000 0 0 1
32.116286 27.996790 -2.348654 42.670742 0.716976 1.625865 0.098653 -0.022784 -1049720.000000 0 0 1
31.986786 28.858990 -1.100354 43.095319 0.734038 1.596332 0.090849 -0.013795 288771.000000 0 0 1
31.621586 30.218140 -1.417154 43.761501 0.762707 1.603186 0.064958 -0.000611 -166837.000000 0 0 1
30.892986 30.834430 -0.420454 43.649919 0.784450 1.580429 0.082924 -0.008559 -120621.000000 0 0 1
33.768689 21.889971 19.152711 44.568167 0.575132 1.126592 0.096650 -0.027723 -290253.000000 0 0 1
34.031229 21.793171 20.536411 45.330023 0.569588 1.100621 0.087177 -0.037864 22357.800000 0 0 1
34.633519 22.987271 20.949311 46.548565 0.585966 1.103972 0.103452 -0.028678 -191558.000000 0 0 1
34.627849 23.355471 22.456911 47.422345 0.593386 1.077478 0.063396 -0.020627 -784541.000000 0 0 1
33.375949 23.688871 22.943381 46.920308 0.617245 1.059869 0.040362 -0.018214 -582782.000000 0 0 1
33.355029 24.049571 24.320481 47.774738 0.624693 1.036697 0.042423 -0.016544 261117.000000 0 0 1
32.005829 24.716871 24.710821 47.391154 0.657597 1.022279 0.015446 -0.011700 312172.000000 0 0 1
31.910219 26.118271 24.449161 47.939416 0.685916 1.035610 -0.000418 -0.009478 -218475.000000 0 0 1
30.754789 26.609171 25.064941 47.771919 0.713255 1.018458 0.003463 -0.011351 -262599.000000 0 0 1
30.842869 28.148871 25.424541 48.888125 0.739762 1.023880 -0.009419 -0.005743 -194473.000000 0 0 1
30.871729 28.901371 24.211271 48.729237 0.752446 1.050828 -0.001783 -0.009040 170761.000000 0 0 1
30.476379 30.219071 24.484291 49.411359 0.781159 1.052364 0.011024 -0.012712 -195893.000000 0 0 1
30.563919 31.148471 23.210561 49.427831 0.794870 1.081976 0.028183 -0.019322 518346.000000 0 0 1
31.911109 31.267471 22.739411 50.130374 0.775211 1.099990 0.017472 -0.014939 372228.000000 0 0 1
31.955689 32.154371 21.671911 50.246804 0.788497 1.124853 0.029235 -0.017359 299521.000000 0 0 1
33.391289 32.441371 21.149011 51.134151 0.770970 1.144393 0.018187 -0.024128 176581.000000 0 0 1
34.136139 33.197371 22.064711 52.480405 0.771457 1.136869 0.021989 -0.006151 -1572750.000000 0 0 1
35.410759 33.356671 21.626611 53.238141 0.755537 1.152478 0.020082 0.007190 -1455400.000000 0 0 1
36.197379 -33.677838 22.485211 54.314195 -0.749356 1.143970 0.016706 0.004787 -201187.000000 0 0 1
35.723219 -32.341138 22.222511 53.065408 -0.735750 1.138699 0.025168 -0.005409 296476.000000 0 0 1
36.232479 -31.409838 23.130651 53.239060 -0.714222 1.121349 0.026009 -0.010098 -1014450.000000 0 0 1
35.521909 -30.050038 23.002331 51.902967 -0.702143 1.111654 0.040603 -0.004683 97257.500000 0 0 1
34.134369 -30.066538 23.302731 51.109384 -0.722122 1.097370 0.040696 -0.004624 1015170.000000 0 0 1
33.237019 -30.299938 22.179711 50.147036 -0.739205 1.112642 0.059358 -0.006833 389661.000000 0 0 1
32.480959 -31.693138 22.268911 50.550688 -0.773122 1.114611 0.044893 -0.011029 475431.000000 0 0 1
31.289769 -31.597738 23.066851 50.095372 -0.790295 1.092284 0.065014 -0.011248 701876.000000 0 0 1
30.726609 -32.896138 23.318971 50.695708 -0.819485 1.092825 0.056993 -0.017640 163964.000000 0 0 1
29.664819 -32.975238 24.432501 50.639065 -0.838197 1.067309 0.054945 -0.020381 -49839.700000 0 0 1
29.474029 33.809471 24.901621 51.301944 0.853800 1.063983 0.054012 -0.032402 89200.500000 0 0 1
28.717229 33.789071 26.092511 51.450944 0.866362 1.038940 0.070064 -0.028308 -570147.000000 0 0 1
28.181829 32.379971 26.393001 50.391155 0.854607 1.019534 0.063048 -0.014147 -214449.000000 0 0 1
27.419629 31.721371 25.427951 49.037354 0.858007 1.025651 0.070432 -0.026818 411558.000000 0 0 1
26.034529 32.096371 25.592181 48.610014 0.889302 1.016342 0.083000 -0.038601 250822.000000 0 0 1
25.313729 31.652771 24.295221 47.254000 0.896219 1.030790 0.108142 -0.039482 -184359.000000 0 0 1
25.617729 32.371371 23.046081 47.278912 0.901340 1.061630 0.107562 -0.049058 1617340.000000 0 0 1
27.009229 32.379371 22.594111 47.837391 0.875577 1.078886 0.085031 -0.042582 1167230.000000 0 0 1
27.211229 33.117971 21.254411 47.843505 0.882996 1.110461 0.086105 -0.038618 -673964.000000 0 0 1
28.503429 33.256571 20.763711 48.472432 0.862208 1.128118 0.088841 -0.041535 -484772.000000 0 0 1
28.494029 33.893171 19.506011 48.385340 0.871726 1.155852 0.080796 -0.034266 -276157.000000 0 0 1
29.876579 -33.774138 18.955511 48.914351 -0.846555 1.172852 0.091167 -0.039010 -126622.000000 0 0 1
30.676879 33.281771 18.429611 48.871236 0.826103 1.184127 0.089322 -0.037118 -312315.000000 0 0 1
31.822909 33.832571 17.831611 49.752454 0.815998 1.204236 0.096305 -0.035261 243947.000000 0 0 1
32.786989 32.772071 17.161911 49.432039 0.785171 1.216232 0.084313 -0.029987 246013.000000 0 0 1
33.410919 31.916171 18.091111 49.620759 0.762521 1.197606 0.056733 -0.030798 19919.200000 0 0 1
34.305459 31.043771 17.441511 49.444782 0.735528 1.210291 0.074460 -0.034599 -95046.500000 0 0 1
35.290019 30.317971 18.362711 50.017536 0.709759 1.194880 0.060474 -0.033237 -228456.000000 0 0 1
36.287659 31.146471 18.892411 51.418090 0.709305 1.194555 0.074242 -0.034005 33725.100000 0 0 1
-37.051044 30.388171 19.597511 51.771452 -0.686920 1.182579 0.088111 -0.031940 540334.000000 0 0 1
-36.062702 31.350871 20.353011 51.938817 -0.715617 1.168138 0.089170 -0.034983 -323558.000000 0 0 1
-35.141078 31.944871 19.509211 51.341791 -0.737791 1.181014 0.096148 -0.040884 -143158.000000 0 0 1
-34.048944 32.615071 20.113011 51.260186 -0.763893 1.167588 0.080657 -0.022521 251834.000000 0 0 1
-34.365160 33.993171 20.835411 52.636625 -0.779956 1.163820 0.051898 -0.021884 -543525.000000 0 0 1
-34.752356 33.910871 22.173511 53.379191 -0.773144 1.142418 0.032748 -0.013563 174545.000000 0 0 1
-34.501997 -32.991238 22.870591 52.932727 0.763018 1.124011 0.005328 -0.001652 -326795.000000 0 0 1
-34.205675 -33.290038 24.330461 53.574492 0.771833 1.099387 0.012815 -0.001998 -268726.000000 0 0 1
-35.334329 -33.784438 25.004961 54.910392 0.762978 1.098000 0.013757 0.007852 -163964.000000 0 0 1
-35.030213 33.751571 26.251701 55.276000 -0.766810 1.075923 0.018291 0.001477 -178546.000000 0 0 1
-36.371284 33.473671 26.927381 56.288905 -0.743936 1.071989 0.002293 -0.005978 -101694.000000 0 0 1
-36.429034 32.731171 28.140241 56.482539 -0.731981 1.049262 0.015182 -0.013137 -1140160.000000 0 0 1
36.687309 32.732771 28.818061 56.990118 0.728494 1.040641 0.014562 -0.020019 -840083.000000 0 0 1
36.590649 31.683271 29.909911 56.897346 0.713644 1.017280 0.016053 -0.008543 -326380.000000 0 0 1
36.502669 30.294871 29.550001 55.887625 0.692730 1.013681 0.015117 -0.005068 521210.000000 0 0 1
-36.871744 29.691971 28.616611 55.317711 -0.677950 1.027087 0.026950 -0.009678 333840.000000 0 0 1
37.008969 28.242071 28.139561 54.397732 0.651842 1.027112 0.042152 -0.010457 -108407.000000 0 0 1
35.863369 28.188871 27.287101 53.154299 0.666150 1.031705 0.026257 -0.002374 389227.000000 0 0 1
35.491499 26.871871 26.807941 51.965466 0.648052 1.028762 0.044564 -0.007299 -5508.570000 0 0 1
34.955339 25.782171 27.765561 51.551163 0.635501 1.002019 0.030836 -0.012734 -650429.000000 0 0 1
35.869749 25.318471 28.718491 52.463469 0.614638 0.991542 0.030789 -0.005622 -296663.000000 0 0 1
35.604189 23.968271 29.018231 51.809208 0.592503 0.976292 0.046164 -0.009621 -243717.000000 0 0 1
36.329279 22.907871 28.248391 51.405823 0.562589 0.989010 0.043577 -0.007197 -616479.000000 0 0 1
35.999309 22.986371 26.881661 50.467288 0.568264 1.009062 0.046728 -0.006418 216218.000000 0 0 1
36.754279 22.130271 26.011561 50.171976 0.541973 1.025761 0.054437 -0.031409 60567.100000 0 0 1
36.573039 20.606971 26.202471 49.485391 0.513109 1.012786 0.058087 -0.032292 -1290460.000000 0 0 1
35.340839 20.159671 25.749191 48.149850 0.518397 1.006558 0.081892 -0.020012 -395042.000000 0 0 1
35.056239 18.811671 26.104161 47.584095 0.492508 0.990119 0.090735 -0.018184 -298966.000000 0 0 1
34.630989 18.623471 27.613451 48.048327 0.493404 0.958557 0.071957 -0.002920 -729933.000000 0 0 1
33.415299 19.136971 28.062651 47.647856 0.520105 0.941026 0.062935 -0.005629 -136668.000000 0 0 1
33.441109 20.552471 28.160501 48.308650 0.551076 0.948468 0.055373 -0.021862 -1067280.000000 0 0 1
32.436849 21.022671 29.287541 48.495999 0.575046 0.922390 0.055238 -0.017168 542379.000000 0 0 1
31.049179 21.126671 29.031391 47.467983 0.597468 0.912716 0.054149 -0.017215 348966.000000 0 0 1
30.629319 21.778271 27.811301 46.753788 0.618088 0.933722 0.046041 -0.010937 -1009330.000000 0 0 1
30.327429 23.313371 28.007791 47.409942 0.655376 0.938799 0.046020 -0.007064 272453.000000 0 0 1
31.495099 24.134371 28.037421 48.585040 0.653845 0.955648 0.037757 -0.018881 432919.000000 0 0 1
31.184179 25.309471 28.722861 49.376361 0.681782 0.949963 0.026181 -0.010187 78817.800000 0 0 1
31.443279 25.282271 30.251051 50.428158 0.677211 0.927440 0.025360 -0.013610 515502.000000 0 0 1
32.833069 25.128171 30.552661 51.409148 0.653241 0.934396 0.017129 0.005244 317056.000000 0 0 1
33.138879 25.173771 31.933965 52.456479 0.649645 0.916286 0.028349 -0.000963 38892.800000 0 0 1
32.833419 23.980171 32.888900 52.294950 0.630812 0.890644 0.041426 0.003420 -513413.000000 0 0 1
33.161109 24.189171 -33.625214 53.060627 0.630215 2.257140 0.034678 -0.009863 229150.000000 0 0 1
32.718089 23.061371 -32.862984 51.790693 0.613974 2.258202 0.038667 -0.014586 -331616.000000 0 0 1
33.237309 22.950471 -31.441414 51.185988 0.604324 2.232242 0.041495 -0.020140 -488402.000000 0 0 1
32.788459 23.859171 -30.437214 50.702732 0.629056 2.214681 0.032804 -0.024251 -19492.300000 0 0 1
33.234349 23.608071 -29.130554 50.104412 0.617640 2.191241 0.066837 -0.034568 -95764.700000 0 0 1
34.665609 24.123971 -28.790304 51.113129 0.607972 2.169130 0.071537 -0.015096 257208.000000 0 0 1
35.070459 23.461471 -27.641804 50.442512 0.589603 2.150751 0.072855 -0.019813 -208236.000000 0 0 1
36.213009 23.967171 -26.980854 51.125080 0.584653 2.126736 0.090476 -0.016846 91229.300000 0 0 1
36.904109 23.086571 -25.918764 50.662465 0.559018 2.107839 0.081128 -0.016479 -289044.000000 0 0 1
-36.762574 22.037071 -26.586294 50.437589 -0.540010 2.125996 0.062250 -0.013050 -162642.000000 0 0 1
-36.602004 20.911671 -25.728514 49.385839 -0.519069 2.118783 0.038328 -0.003144 -750568.000000 0 0 1
-35.540529 19.940071 -26.186574 48.440400 -0.511289 2.141939 0.043370 0.004595 144474.000000 0 0 1
-34.190685 20.380271 -26.002854 47.544788 -0.537530 2.149469 0.053567 0.001436 615036.000000 0 0 1
-33.324944 19.252671 -25.909944 46.395500 -0.523880 2.163322 0.023790 -0.001346 1562820.000000 0 0 1
-31.949974 19.568671 -25.156754 45.128661 -0.549544 2.162102 0.037873 -0.003098 1084170.000000 0 0 1
-32.189494 19.799971 -23.794554 44.658518 -0.551453 2.132715 0.041462 -0.002530 -575226.000000 0 0 1
-31.026324 19.980771 -23.064454 43.518192 -0.572142 2.129392 0.046134 -0.003371 -599363.000000 0 0 1
-31.163754 20.147171 -21.532454 42.903784 -0.573906 2.096565 0.032224 -0.004713 -115576.000000 0 0 1
-31.716474 19.025271 -20.879354 42.471674 -0.540313 2.084730 0.013155 0.006486 134627.000000 0 0 1
-32.177894 19.440971 -19.575354 42.385879 -0.543481 2.050861 0.021325 0.012179 -1322930.000000 0 0 1
-33.059984 18.457571 -18.849354 42.295894 -0.509197 2.032702 0.014746 0.011595 -261877.000000 0 0 1
-33.823454 18.910371 -17.750954 42.623052 -0.509796 2.000349 0.016212 0.003749 619614.000000 0 0 1
-34.808664 19.888371 -18.144654 44.004760 -0.519096 1.995811 0.012628 -0.001125 -72881.600000 0 0 1
-36.051863 20.002571 -17.174754 44.663317 -0.506542 1.965504 0.032749 -0.013238 564541.000000 0 0 1
-35.714607 20.501771 -15.858254 44.128676 -0.521116 1.938383 0.038644 -0.014390 748435.000000 0 0 1
-36.764254 20.261271 -14.895854 44.542294 -0.503698 1.911787 0.038320 -0.006797 -254183.000000 0 0 1
-36.587654 21.161971 -13.610254 44.404104 -0.524379 1.882320 0.045183 -0.005263 -135526.000000 0 0 1
-36.881434 22.516671 -13.861254 45.380337 -0.548115 1.881203 0.056004 -0.011640 1084590.000000 0 0 1
36.006319 22.652571 -13.934554 44.763442 0.561562 1.887350 0.064542 -0.014202 570701.000000 0 0 1
35.543689 24.066271 -14.356754 45.262077 0.595184 1.893563 0.076551 -0.017701 88412.800000 0 0 1
35.932489 25.063971 -13.459854 45.831365 0.609066 1.868873 0.072842 -0.013559 -96184.600000 0 0 1
35.507439 26.289771 -14.025854 46.353585 0.637330 1.878199 0.065936 -0.004970 109484.000000 0 0 1
36.611129 27.177571 -14.672654 47.898663 0.638575 1.882128 0.091938 -0.003266 177347.000000 0 0 1
37.030419 26.716671 -15.927654 48.360341 0.624996 1.906415 0.086047 -0.007996 -2755.180000 0 0 1
-36.466444 27.704771 -16.530754 48.689031 -0.649701 1.917200 0.100103 -0.011118 -694562.000000 0 0 1
-36.132444 27.469971 -18.051054 48.846631 -0.650034 1.949316 0.094415 -0.016710 397082.000000 0 0 1
-35.281857 26.315171 -18.339854 47.682784 -0.640843 1.965595 0.079663 -0.017083 629725.000000 0 0 1
-33.941534 26.548571 -17.949654 46.680236 -0.663784 1.965488 0.081364 -0.003939 -528325.000000 0 0 1
-33.103034 25.308671 -18.378554 45.542408 -0.652743 1.986188 0.065983 -0.010532 -271826.000000 0 0 1
-32.836244 25.254871 -19.791554 45.910054 -0.655623 2.016501 0.058724 -0.006298 195286.000000 0 0 1
-32.546784 23.926171 -20.110354 45.124064 -0.633917 2.032717 0.044034 -0.005059 -508497.000000 0 0 1
-32.201404 23.684571 -21.550754 45.412821 -0.634165 2.065252 0.040619 0.000408 77302.900000 0 0 1
-33.332604 23.789371 -22.411654 46.682748 -0.619859 2.071547 0.064830 -0.007531 181609.000000 0 0 1
-33.181774 23.356471 -23.724754 47.004455 -0.613335 2.099870 0.059897 -0.006277 -310915.000000 0 0 1
-34.002674 24.153271 -24.785354 48.516761 -0.617628 2.106983 0.052551 0.000656 -160905.000000 0 0 1
-33.815964 25.516371 -24.844654 49.110706 -0.646417 2.101211 0.052275 0.002076 -421754.000000 0 0 1
-34.484983 26.102471 -25.890044 50.406819 -0.647917 2.110197 0.054236 -0.004295 -256098.000000 0 0 1
-33.995464 27.547071 -26.209814 51.004775 -0.681000 2.110486 0.043254 -0.002425 -499083.000000 0 0 1
-32.739874 27.642871 -26.788194 50.533504 -0.701186 2.129524 0.044240 0.001361 -883129.000000 0 0 1
-32.289314 28.972071 -26.906744 51.048541 -0.731302 2.125959 0.043518 -0.003120 1378840.000000 0 0 1
-30.860904 29.103671 -27.599614 50.607883 -0.756102 2.147617 0.040532 0.003102 395824.000000 0 0 1
-29.858834 28.409471 -26.865194 49.197426 -0.760529 2.148461 0.021883 0.003969 763783.000000 0 0 1
-28.526764 28.598171 -27.394184 48.806485 -0.786648 2.166730 0.029160 0.009495 1363970.000000 0 0 1
-28.000424 30.099571 -27.190314 49.288144 -0.821512 2.155150 0.019608 0.003831 -1274800.000000 0 0 1
-27.476194 30.402971 -25.903824 48.479790 -0.835922 2.134502 0.017423 -0.001763 745655.000000 0 0 1
-28.391064 30.355371 -24.765254 48.382010 -0.818823 2.108155 0.022619 -0.003692 463612.000000 0 0 1
-27.703274 30.794471 -23.418854 47.583753 -0.838192 2.085366 0.006151 -0.007122 128665.000000 0 0 1
-27.202104 32.133671 -23.422854 48.178391 -0.868320 2.078497 0.012359 -0.008028 326187.000000 0 0 1
-26.276414 32.371971 -22.375354 47.318611 -0.888960 2.063337 0.014651 0.014314 -44283.700000 0 0 1
-25.669414 33.791271 -22.469754 48.017275 -0.921150 2.057768 0.007343 0.020701 -214986.000000 0 0 1
-26.512944 -33.185638 -22.149754 47.904430 0.896709 2.051467 0.002641 -0.001951 -235415.000000 0 0 1
-25.907784 -31.965038 -22.513054 46.902181 0.889683 2.071451 0.021488 -0.003599 -22353.700000 0 0 1
17.204086 8.778971 -25.040654 31.624125 0.471841 2.484582 0.051849 -0.019718 -796188.000000 0 0 1
16.081086 8.007671 -25.223884 30.967216 0.462011 2.522724 0.048400 -0.016652 -724661.000000 0 0 1
16.270986 6.682071 -24.770854 30.380755 0.389674 2.524124 0.031050 -0.022390 490960.000000 0 0 1
14.971586 5.814071 -24.690054 29.454211 0.370415 2.564866 0.081052 -0.027460 890935.000000 0 0 1
14.061586 6.201471 -23.636454 28.193410 0.415363 2.565079 0.083460 -0.046304 1269380.000000 0 0 1
12.769786 5.615871 -23.902154 27.675231 0.414321 2.613294 0.087489 -0.042559 492570.000000 0 0 1
11.820886 5.695071 -22.720054 26.236769 0.448966 2.617868 0.080979 -0.047738 -455268.000000 0 0 1
12.297086 4.989471 -21.571754 25.326936 0.385448 2.590078 0.089493 -0.034904 572254.000000 0 0 1
11.397986 4.903671 -20.440054 23.911417 0.406286 2.596008 0.100058 -0.034905 112746.000000 0 1 0
11.254786 6.223271 -19.719154 23.542395 0.505101 2.563675 0.088296 -0.044384 -134831.000000 0 1 0
10.926586 6.194971 -18.376254 22.258811 0.515773 2.542012 0.084228 -0.036639 -427912.000000 0 1 0
11.029486 7.523571 -17.797054 22.248344 0.598633 2.497970 0.081980 -0.039808 950558.000000 0 1 0
12.468086 8.063371 -17.410354 22.882123 0.574067 2.435451 0.066276 -0.035005 716894.000000 0 1 0
13.158586 7.408971 -16.372654 22.273415 0.512809 2.396575 0.091463 -0.033179 -372808.000000 0 1 0
14.332086 8.128771 -16.168654 23.084865 0.515932 2.346755 0.074266 -0.021410 -684564.000000 0 1 0
15.200686 7.537471 -14.998854 22.645970 0.460333 2.294706 0.089830 -0.026900 -315011.000000 0 1 0
16.236886 8.451371 -14.818154 23.550792 0.479916 2.251320 0.054722 -0.025231 539652.000000 0 1 0
16.984386 8.383671 -13.568054 23.299086 0.458523 2.192404 0.061072 -0.019591 549818.000000 0 1 0
17.803286 9.626871 -13.157954 24.140534 0.495703 2.147253 0.104307 -0.028080 55563.000000 0 1 0
17.002386 10.748871 -12.820754 23.853534 0.563759 2.138240 0.139701 -0.032616 402386.000000 0 1 0
17.780786 11.825271 -12.385854 24.686084 0.586889 2.096399 0.174255 -0.049846 -454773.000000 0 1 0
16.852886 12.942271 -11.917454 24.362837 0.654894 2.081929 0.183383 -0.051376 -430772.000000 0 1 0
15.893686 12.530671 -10.949254 23.011152 0.667631 2.066697 0.192245 -0.039156 1090400.000000 0 1 0
15.134986 13.589171 -10.296554 22.798079 0.731634 2.039400 0.098079 -0.031375 568239.000000 0 1 0
14.351386 14.636871 -11.151054 23.335515 0.795246 2.069011 0.074860 -0.029765 -257251.000000 0 1 0
13.438086 15.320971 -10.290254 22.829884 0.850776 2.038386 0.119732 -0.035422 111596.000000 0 1 0
13.018186 16.546371 -10.739654 23.634630 0.904175 2.042499 0.120511 -0.028521 132047.000000 0 1 0
11.956286 17.105471 -9.728354 23.025872 0.960759 2.006994 0.112598 -0.022207 309774.000000 0 1 0
12.455986 17.219171 -8.404254 22.853510 0.944552 1.947379 0.089356 -0.012222 416686.000000 0 1 0
11.400386 17.443071 -7.486954 22.142358 0.991911 1.915723 0.070816 -0.007835 201967.000000 0 1 0
11.840886 17.155071 -6.056154 21.706682 0.966660 1.853548 0.064037 -0.007294 -86964.000000 0 1 0
12.897686 17.964471 -5.641354 22.823177 0.948121 1.820562 0.073958 -0.013523 55937.600000 0 1 0
13.425586 17.639271 -4.352154 22.590517 0.920217 1.764662 0.085437 -0.011415 -63010.700000 0 1 0
14.424486 18.701171 -3.831254 23.926514 0.913793 1.731615 0.080907 -0.014212 -114688.000000 0 1 0
15.631086 18.646371 -4.578754 24.758493 0.873139 1.756804 0.093750 -0.028089 -53341.600000 0 1 0
16.367986 19.805271 -4.239654 26.041013 0.880137 1.734331 0.080072 -0.019205 -1069480.000000 0 0 1
17.733986 19.739471 -4.881554 26.980929 0.838865 1.752724 0.063375 -0.013953 -1150100.000000 0 0 1
18.648586 18.924471 -4.218154 26.901639 0.792741 1.728245 0.068780 -0.033641 -130052.000000 0 0 1
19.014986 17.849271 -5.077954 26.569753 0.753787 1.763097 0.084934 -0.033669 -463652.000000 0 0 1
20.206286 17.020671 -4.592654 26.815848 0.700033 1.742911 0.112590 -0.044229 241763.000000 0 0 1
21.484086 17.669671 -4.722054 28.214907 0.688283 1.738948 0.109147 -0.044822 747914.000000 0 0 1
22.387886 16.816171 -4.039154 28.289853 0.644223 1.714063 0.118133 -0.049959 1159310.000000 0 0 1
23.928486 16.831671 -4.411954 29.586195 0.613015 1.720477 0.114920 -0.039341 1294320.000000 0 0 1
24.670786 17.896271 -3.902954 30.727142 0.627573 1.698160 0.127181 -0.040010 609884.000000 0 0 1
26.084686 17.737471 -4.010654 31.798020 0.597174 1.697262 0.108440 -0.027230 691625.000000 0 0 1
26.947486 18.846771 -3.329654 33.052297 0.610316 1.671706 0.134013 -0.031203 76991.200000 0 0 1
26.788486 20.044571 -4.091554 33.706804 0.642382 1.692483 0.133245 -0.033603 277318.000000 0 0 1
27.084586 21.212371 -3.299054 34.560429 0.664406 1.666399 0.132975 -0.010432 1789.460000 0 0 1
27.035286 22.583571 -3.987254 35.451693 0.695920 1.683505 0.086128 -0.006442 -47044.600000 0 0 1
28.007486 22.835071 -4.990554 36.479657 0.684013 1.708030 0.083131 0.004600 68107.400000 0 0 1
27.970186 22.200271 -6.265554 36.255213 0.670895 1.744486 0.088756 -0.001971 -276822.000000 0 0 1
29.061786 22.751071 -7.197854 37.603294 0.664197 1.763400 0.073068 0.002533 -233159.000000 0 0 1
28.657586 23.869271 -7.976854 38.139606 0.694490 1.781501 0.064217 0.004926 463102.000000 0 0 1
29.746986 24.655671 -8.473854 39.554917 0.692084 1.786700 0.046593 0.004033 314617.000000 0 0 1
30.668986 24.038471 -9.549254 40.120107 0.664787 1.811120 0.054493 -0.005157 -247211.000000 0 0 1
30.062786 23.732871 -10.768854 39.786788 0.668271 1.844879 0.053575 0.000511 1247.580000 0 0 1
31.037386 23.305271 -11.712454 40.541788 0.644062 1.863872 0.044625 -0.005088 129761.000000 0 0 1
30.458286 22.787171 -13.029154 40.208472 0.642312 1.900793 0.066286 -0.007856 -3706.250000 0 0 1
30.467886 23.687171 -14.110254 41.091038 0.660837 1.921320 0.057543 -0.019517 81541.400000 0 0 1
30.423086 22.976571 -15.350454 41.098946 0.646843 1.953575 0.071520 -0.026725 7247.160000 0 0 1
30.546286 23.936571 -16.578554 42.200515 0.664671 1.974527 0.068920 -0.015183 -271616.000000 0 0 1
31.858586 24.417371 -16.781154 43.506145 0.653934 1.966784 0.059959 -0.011044 -73020.700000 0 0 1
32.120786 24.733171 -18.181954 44.430373 0.656182 1.992399 0.080012 -0.022287 61423.800000 0 0 1
33.599186 25.131771 -18.349354 45.795305 0.642212 1.983057 0.089880 -0.023502 -310540.000000 0 0 1
34.485386 24.091571 -18.182254 45.828375 0.609787 1.978766 0.094150 -0.018695 -361266.000000 0 0 1
35.834986 24.537271 -18.275654 47.119247 0.600404 1.969105 0.099809 -0.019449 656706.000000 0 0 1
36.878886 23.354871 -18.254554 47.315230 0.564535 1.966879 0.076984 -0.024986 311731.000000 0 0 1
37.015386 22.657971 -19.487254 47.573895 0.549286 1.992835 0.065782 -0.009716 629442.000000 0 0 1
-36.291057 23.228871 -20.326354 47.642229 -0.569364 2.011577 0.081091 -0.011526 -56248.800000 0 0 1
-35.968157 22.349171 -21.529354 47.504809 -0.555977 2.041152 0.084726 -0.012935 -519505.000000 0 0 1
-35.443757 21.114871 -21.153254 46.363325 -0.537273 2.044572 0.071474 -0.010598 208981.000000 0 0 1
-35.195757 20.340371 -22.299654 46.365360 -0.524027 2.072540 0.046277 -0.002223 -159065.000000 0 0 1
-35.182657 18.837171 -22.020254 45.580149 -0.491573 2.075000 0.021249 0.004309 -52106.100000 0 0 1
-36.429557 18.311671 -21.632854 46.156368 -0.465773 2.058599 0.030958 -0.008259 105553.000000 0 0 1
-36.264657 16.883571 -21.817454 45.565136 -0.435722 2.070105 0.018076 -0.005629 664576.000000 0 0 1
36.799486 15.918271 -21.812754 45.644164 0.408263 2.069044 0.026376 -0.006955 -1548.490000 0 0 1
35.866186 16.143071 -22.805054 45.464849 0.422930 2.096241 0.067913 -0.009447 -356919.000000 0 0 1
34.856986 15.154071 -22.817254 44.331506 0.410100 2.111450 0.085517 -0.006268 -401927.000000 0 0 1
35.069586 13.789671 -23.519654 44.420772 0.374638 2.128777 0.046852 -0.007853 -694058.000000 0 0 1
35.135886 13.937571 -24.941154 45.286284 0.377638 2.154052 0.042490 -0.003192 231342.000000 0 0 1
35.580386 12.745171 -25.514424 45.600319 0.343968 2.164606 0.034045 0.002790 -285114.000000 0 0 1
35.394286 12.694271 -27.058854 46.325820 0.344363 2.194566 0.036567 0.003521 -22805.400000 0 0 1
34.033886 12.620071 -27.442394 45.504467 0.355091 2.218141 0.023028 0.004208 428472.000000 0 0 1
33.496786 13.743171 -28.170524 45.874697 0.389340 2.232010 0.036717 0.004061 -85461.700000 0 0 1
33.876286 13.818071 -29.642844 47.087578 0.387296 2.251739 0.039903 -0.011033 -113878.000000 0 0 1
35.246386 14.144171 -29.835164 48.295986 0.381622 2.236683 0.036876 -0.004158 157972.000000 0 0 1
35.574686 13.965571 -31.188664 49.328777 0.374085 2.255264 0.047021 -0.013883 -1469750.000000 0 0 1
37.045786 14.189871 -31.409904 50.599652 0.365797 2.240500 0.064101 -0.019528 -595113.000000 0 0 1
-36.311757 13.235371 -30.939564 49.507327 -0.349527 2.245863 0.067038 -0.015884 417578.000000 0 0 1
-36.129257 13.274871 -29.538254 48.518593 -0.352115 2.225347 0.043284 -0.014991 -629362.000000 0 0 1
-35.024857 12.260871 -29.077514 47.144156 -0.336730 2.235440 0.052856 -0.019603 587102.000000 0 0 1
-35.419557 10.914071 -29.179124 47.170788 -0.298905 2.237736 0.065122 -0.023908 -287604.000000 0 0 1
-34.258957 10.171271 -29.095454 46.083363 -0.288605 2.254109 0.066240 -0.030223 -557067.000000 0 0 1
-34.393257 8.670271 -29.578964 46.184249 -0.246947 2.265888 0.090409 -0.029450 -440965.000000 0 0 1
-34.533557 8.435171 -30.993484 47.162641 -0.239569 2.287843 0.090696 -0.027487 159990.000000 0 0 1
-34.843357 7.123571 -31.448004 47.474011 -0.201666 2.294848 0.097627 -0.027503 -107943.000000 0 0 1
-36.132757 6.435871 -30.946544 48.007137 -0.176269 2.271327 0.110002 -0.011571 -219594.000000 0 0 1
-36.040657 5.993371 -29.597824 47.020003 -0.164787 2.251671 0.118341 -0.023522 403116.000000 0 0 1
37.027186 5.549371 -29.094384 47.416149 0.148766 2.231404 0.109575 -0.015395 145798.000000 0 0 1
37.147086 4.773971 -27.776354 46.628560 0.127815 2.208926 0.110639 -0.011279 -333259.000000 0 0 1
-36.549857 3.540771 -27.971614 46.161026 -0.096574 2.221765 0.137694 -0.005211 97837.900000 0 0 1
-36.929657 2.479171 -27.087994 45.866167 -0.067032 2.202583 0.139586 -0.000907 908912.000000 0 0 1
-35.820157 1.300271 -27.097454 44.933800 -0.036284 2.218119 0.154953 -0.006460 891092.000000 0 0 1
-34.670157 1.474271 -26.327494 43.558354 -0.042497 2.219833 0.138391 -0.007981 -66903.800000 0 0 1
-33.812357 0.319171 -26.334504 42.858879 -0.009439 2.232481 0.126861 -0.008896 -344210.000000 0 0 1
-32.731757 0.487071 -25.318704 41.384078 -0.014880 2.229128 0.110719 -0.004299 -689144.000000 0 0 1
-33.285657 0.482071 -24.002854 41.040277 -0.014482 2.195505 0.105884 -0.006139 557964.000000 0 0 1
-32.279257 0.802671 -23.044054 39.668919 -0.024861 2.190642 0.111581 -0.003820 220426.000000 0 0 1
-32.607757 0.569971 -21.524854 39.075696 -0.017478 2.154179 0.103843 0.001373 -510275.000000 0 0 1
-32.663757 -0.867229 -21.293654 39.001190 0.026544 2.148348 0.124559 -0.008290 231701.000000 0 0 1
-33.031257 -1.269829 -19.992454 38.631265 0.038424 2.114746 0.127989 -0.017487 624843.000000 0 0 1
-34.539557 -1.061129 -19.605254 39.730001 0.030712 2.086862 0.116667 -0.009777 769190.000000 0 0 1
-35.490857 -1.856129 -20.352754 40.954618 0.052251 2.090887 0.114245 -0.014814 871779.000000 0 0 1
-36.771257 -1.632229 -19.764454 41.778262 0.044360 2.063580 0.104358 -0.011257 370811.000000 0 0 1
36.629586 -2.858929 -19.670754 41.675396 -0.077892 2.062353 0.096668 -0.018606 -124809.000000 0 0 1
36.150786 -3.514829 -20.862654 41.886557 -0.096922 2.092174 0.093012 -0.014583 192191.000000 0 0 1
37.099886 -4.306829 -21.511554 43.101012 -0.115570 2.093352 0.099110 -0.008560 -479006.000000 0 0 1
36.492986 -5.173629 -22.617454 43.244117 -0.140832 2.121184 0.094148 -0.002444 -460988.000000 0 0 1
36.002986 -6.432729 -22.141154 42.753078 -0.176806 2.115172 0.086668 0.002570 338268.000000 0 0 1
35.590586 -7.372729 -23.114754 43.073644 -0.204265 2.137239 0.084531 0.002932 364022.000000 0 0 1
34.144586 -7.111129 -23.630054 42.128379 -0.205330 2.166276 0.054833 0.005476 -35238.900000 0 0 1
34.022186 -5.967129 -24.442354 42.314825 -0.173623 2.186620 0.071092 -0.003424 683536.000000 0 0 1
32.643886 -5.822629 -24.823754 41.421553 -0.176512 2.213417 0.041565 -0.005621 891380.000000 0 0 1
32.304486 -4.508829 -25.562814 41.441125 -0.138677 2.235526 0.071330 -0.028025 2481.180000 0 0 1
32.549986 -4.623929 -26.920124 42.492062 -0.141112 2.256907 0.069680 -0.025950 365413.000000 0 0 1
31.872986 -3.600529 -27.656424 42.352436 -0.112488 2.282344 0.080254 -0.035296 133497.000000 0 0 1
31.917486 -3.925729 -29.141534 43.397768 -0.122382 2.307025 0.080416 -0.032698 105461.000000 0 0 1
31.147486 -3.046729 -29.945374 43.314823 -0.097506 2.334142 0.067672 -0.035630 148670.000000 0 0 1
30.934186 -3.554629 -31.228244 44.099461 -0.114408 2.357646 0.076789 -0.038363 -579398.000000 0 0 1
30.443886 -2.492829 -32.227494 44.403330 -0.081700 2.382978 0.072496 -0.033490 886860.000000 0 0 1
29.268886 -1.687829 -31.849454 43.288615 -0.057603 2.397565 0.052386 -0.025239 1800920.000000 0 0 1
27.996386 -2.336029 -31.727614 42.378015 -0.083248 2.416866 0.061510 -0.024735 292003.000000 0 0 1
27.306186 -2.597529 -33.059784 42.957238 -0.094841 2.449007 0.068103 -0.038658 -746650.000000 0 0 1
27.996686 -3.556729 -33.868764 44.085802 -0.126364 2.446894 0.075696 -0.041313 512524.000000 0 0 1
27.289686 -3.831629 32.735078 42.790112 -0.139494 0.699732 0.069303 -0.034789 80098.200000 0 0 1
27.974386 -4.946129 31.869188 42.692805 -0.175001 0.728045 0.051681 -0.043690 921081.000000 0 0 1
29.352886 -4.873729 31.443211 43.289960 -0.164538 0.757815 0.062669 -0.036877 1027330.000000 0 0 1
29.639786 -3.874329 30.481411 42.692432 -0.129977 0.775634 0.095108 -0.033800 -449887.000000 0 0 1
30.053486 -2.498229 31.104281 43.323544 -0.082935 0.769939 0.070366 -0.041042 -224944.000000 0 0 1
31.416386 -2.541129 31.495991 44.558322 -0.080710 0.785763 0.067292 -0.034793 110679.000000 0 0 1
31.846486 -1.284829 31.944447 45.125349 -0.040323 0.784269 0.061729 -0.027895 601930.000000 0 0 1
33.354986 -1.251929 32.359800 46.489559 -0.037516 0.800893 0.052827 -0.027157 873517.000000 0 0 1
34.284886 -1.609029 31.352431 46.486743 -0.046897 0.830593 0.072513 -0.028777 294849.000000 0 0 1
35.626086 -1.582129 31.807931 47.785621 -0.044380 0.842448 0.079436 -0.022405 568004.000000 0 0 1
36.694886 -2.225629 30.870821 48.004955 -0.060578 0.872288 0.085055 -0.021267 97564.700000 0 0 1
36.890486 -1.531229 29.687161 47.377000 -0.041484 0.893594 0.079893 -0.014932 278184.000000 0 0 1
-36.350357 -2.091629 28.941121 46.511417 0.057477 0.899199 0.083805 -0.013826 316633.000000 0 0 1
-36.144857 -1.488229 27.511881 45.448533 0.041151 0.920602 0.094551 -0.010669 -33137.100000 0 0 1
-37.153657 -1.760529 26.576431 45.714335 0.047350 0.950399 0.099201 -0.034904 -497943.000000 0 0 1
-36.788257 -1.231429 25.363211 44.701060 0.033461 0.967456 0.108996 -0.034665 -190407.000000 0 0 1
-27.481444 14.905271 12.388646 33.628491 -0.496971 1.193512 0.097719 -0.011775 -10293.000000 0 0 1
-28.732914 14.295171 12.589946 34.473744 -0.461661 1.196944 0.079434 -0.001316 -253878.000000 0 0 1
-29.567634 15.141671 13.310746 35.786745 -0.473283 1.189692 0.093970 -0.010226 -318162.000000 0 0 1
-30.887944 14.485771 13.735846 36.777386 -0.438524 1.188032 0.099092 -0.008732 307172.000000 0 0 1
-31.800004 15.335971 14.454446 38.149224 -0.449358 1.182197 0.104127 -0.015956 59969.800000 0 0 1
-32.942034 14.588971 14.864446 38.973933 -0.416907 1.179492 0.112015 -0.013545 -355569.000000 0 0 1
-33.912084 15.399971 15.683746 40.412479 -0.426270 1.172236 0.106697 -0.016599 -239949.000000 0 0 1
-33.320744 15.749871 16.946746 40.565042 -0.441549 1.139810 0.088633 -0.011319 462222.000000 0 0 1
-34.273173 15.714271 18.030746 41.793498 -0.429901 1.124725 0.098539 -0.034661 504044.000000 0 0 1
-33.683194 16.020271 19.445746 42.063567 -0.443951 1.090216 0.096925 -0.024580 91136.700000 0 0 1
-32.845464 15.017771 19.976346 41.272417 -0.428846 1.065563 0.082412 -0.026813 -9010.950000 0 0 1
-31.752564 15.460171 20.766146 40.969196 -0.453109 1.039244 0.087522 -0.016600 304312.000000 0 0 1
-31.950594 16.135971 22.161446 42.099165 -0.467663 1.016423 0.088170 -0.031750 -1021690.000000 0 0 1
-32.681504 17.341571 22.067046 43.078595 -0.487845 1.032993 0.072157 -0.027038 184357.000000 0 0 1
-33.040704 17.969171 23.311446 44.249325 -0.498109 1.015941 0.075065 -0.031468 -1074670.000000 0 0 1
-33.891604 17.082071 24.215646 45.020390 -0.466859 1.002874 0.068379 -0.031577 723121.000000 0 0 1
-35.143362 16.577171 23.635346 45.480634 -0.440753 1.024321 0.108930 -0.037935 1719640.000000 0 0 1
-36.124604 17.451671 23.067046 46.277818 -0.450034 1.048990 0.099495 -0.047465 283821.000000 0 0 1
36.847989 16.689071 22.776746 46.422834 0.425277 1.057976 0.080083 -0.050142 740161.000000 0 0 1
36.503359 16.150971 24.077846 46.616432 0.416559 1.028026 0.084802 -0.049695 -613587.000000 0 0 1
35.557779 15.131771 24.069646 45.526629 0.402340 1.013735 0.106628 -0.048584 -190160.000000 0 0 1
35.179499 14.584971 25.453246 45.805963 0.393018 0.981621 0.129062 -0.036906 182677.000000 0 0 1
34.250909 15.511871 26.102546 45.772107 0.425254 0.963960 0.094259 -0.036040 612583.000000 0 0 1
33.775689 15.098671 27.355646 46.011937 0.420379 0.934111 0.091842 -0.031843 301951.000000 0 0 1
32.666339 14.002771 27.364846 44.855346 0.404967 0.914649 0.097957 -0.027936 -376634.000000 0 0 1
33.095639 12.770671 26.842946 44.485448 0.368268 0.923026 0.086248 -0.030071 83885.200000 0 0 1
32.151109 11.696771 26.887746 43.513896 0.348921 0.904712 0.087845 -0.014389 -74899.600000 0 0 1
32.817369 10.418871 26.521246 43.461581 0.307416 0.914455 0.089620 -0.011404 -192496.000000 0 0 1
33.610239 9.890071 27.607046 44.605052 0.286180 0.903427 0.082088 -0.006374 221699.000000 0 0 1
34.341899 8.802271 27.051046 44.593778 0.250911 0.919006 0.076850 -0.002429 70757.500000 0 0 1
35.284419 8.038571 28.043946 45.782876 0.223999 0.911523 0.071367 0.001492 913957.000000 0 0 1
36.507789 8.740171 28.319746 47.023582 0.234983 0.924485 0.075419 -0.005325 308818.000000 0 0 1
-36.843414 7.888171 28.873246 47.469198 -0.210916 0.916940 0.075571 -0.003295 74793.900000 0 0 1
-35.458966 8.569871 28.975446 46.587095 -0.237137 0.899549 0.079840 -0.008228 -16302.300000 0 0 1
-34.881443 8.819271 27.722446 45.420575 -0.247646 0.914294 0.069072 -0.012399 628562.000000 0 0 1
-33.535494 9.276971 27.969646 44.642946 -0.269882 0.893718 0.100506 -0.017582 1078250.000000 0 0 1
-32.853784 10.039871 26.770646 43.552699 -0.296580 0.908826 0.099195 -0.022363 311926.000000 0 0 1
-32.020684 9.162471 26.019646 42.264608 -0.278695 0.907603 0.094551 -0.024015 601583.000000 0 0 1
-31.274544 9.851371 24.967946 41.213407 -0.305158 0.919999 0.100657 -0.027695 578293.000000 0 0 1
-30.306014 8.901471 24.243046 39.817282 -0.285685 0.916177 0.104449 -0.028136 403169.000000 0 0 1
-29.361414 9.512671 23.362146 38.708829 -0.313314 0.922869 0.099895 -0.032758 171529.000000 0 0 1
-28.530274 8.509471 22.812046 37.507027 -0.289861 0.916996 0.097333 -0.017036 -105104.000000 0 0 1
-27.509404 9.080771 21.805846 36.259104 -0.318835 0.925557 0.093307 -0.015879 183013.000000 0 0 1
-26.320814 9.587671 22.474046 35.913666 -0.349323 0.894665 0.095721 -0.019109 1599100.000000 0 0 1
-25.304434 10.117071 21.586846 34.765808 -0.380346 0.900878 0.082647 -0.011449 979236.000000 0 0 1
-24.593614 9.187871 20.559546 33.346031 -0.357532 0.906441 0.079018 -0.012338 -599312.000000 0 0 1
-25.274044 9.108071 19.316146 33.088484 -0.345885 0.947429 0.077721 -0.016123 594536.000000 0 0 1
-24.531114 8.316271 18.353546 31.745686 -0.326850 0.954345 0.093118 -0.025654 292899.000000 0 0 1
-24.535114 6.753671 18.477346 31.448310 -0.268613 0.942773 0.094039 -0.019057 -476568.000000 0 0 1
-23.676614 6.283971 19.478246 31.296524 -0.259427 0.899020 0.083304 -0.007776 61694.500000 0 0 1
-23.827414 4.959271 19.877246 31.423637 -0.205203 0.885946 0.087680 -0.008028 -238134.000000 0 0 1
-23.668214 3.805471 18.831846 30.484494 -0.159420 0.904916 0.071729 -0.017548 -212742.000000 0 0 1
-24.771314 3.677471 17.959746 30.817110 -0.147380 0.948645 0.106569 -0.016955 264644.000000 0 0 1
-24.542014 2.707471 16.982146 29.967218 -0.109876 0.968312 0.098037 -0.024551 -65442.500000 0 0 1
-24.471614 1.200271 17.351146 30.022705 -0.049008 0.954601 0.083242 -0.023703 313825.000000 0 0 1
-23.159514 0.808771 17.766646 29.200529 -0.034908 0.916708 0.057010 -0.010494 602342.000000 0 0 1
-23.235614 -0.484029 18.218646 29.530444 0.020828 0.905942 0.075804 -0.011507 -82703.900000 0 0 1
-21.904814 -1.222229 18.462846 28.673880 0.055739 0.871224 0.075282 -0.001290 -490806.000000 0 0 1
-21.088814 -0.732229 19.470646 28.712024 0.034707 0.825573 0.046957 0.006736 -852381.000000 0 0 1
-20.055814 -1.662429 19.589646 28.084757 0.082701 0.798867 0.034383 0.002535 -760423.000000 0 0 1
-19.049114 -1.215829 20.664946 28.131601 0.063740 0.745747 0.036035 0.005364 -66077.500000 0 0 1
-19.546514 -1.061529 21.994346 29.443918 0.054255 0.727272 0.030494 0.002376 -515439.000000 0 0 1
-18.510114 -0.829129 22.917346 29.470605 0.044763 0.679902 0.029169 0.002003 -288447.000000 0 0 1
-18.873814 -0.913229 24.420946 30.877783 0.048348 0.658533 0.031664 -0.002023 264227.000000 0 0 1
-19.606914 0.207471 24.907746 31.699684 -0.010581 0.666903 0.027212 -0.011387 -319136.000000 0 0 1
-20.985014 0.010271 25.060846 32.686648 -0.000489 0.697112 0.088120 -0.015466 -473593.000000 0 0 1
-21.726914 1.052871 25.888446 33.813887 -0.048421 0.698798 0.070695 -0.021011 -618191.000000 0 0 1
-21.758514 2.378471 25.301846 33.455545 -0.108880 0.713184 0.063576 -0.016724 5125.210000 0 0 1
-22.869914 2.637371 24.465346 33.593777 -0.114813 0.755002 0.069738 -0.013136 -688145.000000 0 0 1
-22.585914 3.740371 23.391146 32.730102 -0.164117 0.774647 0.078985 -0.012828 189238.000000 0 0 1
-21.843314 3.363171 22.256346 31.365367 -0.152768 0.781889 0.080942 -0.004020 -169593.000000 0 0 1
-20.501314 3.019571 22.438646 30.543650 -0.146235 0.745658 0.043593 0.003994 -639956.000000 0 0 1
-19.786014 2.562571 21.115846 29.050509 -0.128797 0.757048 0.030273 0.005234 -34889.900000 0 0 1
-19.335914 3.478971 20.172046 28.158343 -0.178018 0.772198 0.031246 0.006612 -22607.700000 0 0 1
-18.907014 2.719671 19.077746 26.996892 -0.142865 0.786023 0.030503 0.004131 43548.300000 0 0 1
-18.463014 3.627571 17.866746 25.947308 -0.194006 0.811270 0.032907 -0.009151 730890.000000 0 0 1
-17.141314 4.195971 17.867346 25.113201 -0.240066 0.779205 0.053567 -0.016701 493036.000000 0 0 1
-16.941414 4.695871 16.510546 24.117646 -0.270395 0.816764 0.063913 -0.016996 510522.000000 0 1 0
-15.502914 5.217971 16.182746 23.009755 -0.324670 0.790768 0.068135 -0.018246 299930.000000 0 1 0
-15.034514 6.403271 16.786346 23.426906 -0.402637 0.771965 0.058049 -0.024025 43383.900000 0 1 0
-15.804614 7.602271 16.682846 24.205324 -0.448345 0.810381 0.067742 -0.028826 -247233.000000 0 1 0
-15.509814 8.344071 15.290546 23.323350 -0.493573 0.855833 0.047734 -0.035401 83593.700000 0 1 0
-15.949714 7.724771 14.137946 22.670399 -0.451025 0.897418 0.080321 -0.030801 1326850.000000 0 1 0
-17.389214 7.773071 13.914446 23.588497 -0.420361 0.939883 0.060468 -0.036518 1399470.000000 0 1 0
-17.883414 6.760771 12.900646 23.064067 -0.361439 0.977207 0.075777 -0.036753 -167330.000000 0 1 0
-17.697414 5.442271 13.392746 22.851311 -0.298340 0.944581 0.070996 -0.025527 276311.000000 0 1 0
-18.209614 4.426071 12.478946 22.514534 -0.238438 0.983321 0.073958 -0.028078 156394.000000 0 1 0
-17.897614 2.963671 12.892246 22.255740 -0.164101 0.952954 0.072673 -0.008651 -286301.000000 0 1 0
-18.654414 2.548771 13.995646 23.459785 -0.135790 0.931563 0.072224 -0.021508 -155027.000000 0 1 0
-18.473714 1.151671 14.324646 23.405126 -0.062260 0.912171 0.072252 -0.011503 -1089840.000000 0 1 0
-19.649514 0.474271 14.956346 24.698596 -0.024132 0.920334 0.105708 -0.019285 -1170120.000000 0 1 0
-20.722914 0.463571 14.067646 25.051003 -0.022366 0.974526 0.099186 -0.025537 692495.000000 0 0 1
-22.008514 0.249371 14.703946 26.469660 -0.011330 0.981830 0.085344 -0.025968 323184.000000 0 0 1
-23.072914 -0.101629 13.706146 26.837067 0.004405 1.034778 0.091696 -0.023467 -943911.000000 0 0 1
-23.051814 -1.423629 13.334246 26.668614 0.061679 1.047200 0.114321 -0.041926 -402219.000000 0 0 1
-24.033014 -1.782529 12.458846 27.129062 0.074034 1.093653 0.106753 -0.032723 -770383.000000 0 0 1
-23.706714 -3.147229 11.773046 26.655543 0.131985 1.113333 0.105843 -0.036778 -104211.000000 0 0 1
-23.877614 -4.294029 12.623346 27.348273 0.177933 1.091024 0.107397 -0.030372 269588.000000 0 0 1
-23.452814 -5.544929 12.055946 26.946736 0.232166 1.106941 0.120702 -0.043125 35878.000000 0 0 1
-23.899214 -6.703829 12.990046 28.015265 0.273476 1.088655 0.127485 -0.035388 98750.100000 0 0 1
-25.292174 -6.757829 13.226246 29.330801 0.261091 1.102985 0.108506 -0.030807 52808.700000 0 0 1
-25.535414 -7.951029 13.942946 30.160935 0.301857 1.090226 0.116354 -0.041811 -401136.000000 0 0 1
-26.400934 -7.758329 15.181246 31.427237 0.285820 1.066650 0.103903 -0.033494 577890.000000 0 0 1
-27.793494 -7.526629 14.913646 32.427539 0.264462 1.092906 0.107552 -0.037404 636887.000000 0 0 1
-28.539884 -7.766429 16.071146 33.661909 0.265692 1.073071 0.101825 -0.027033 -66827.800000 0 0 1
-30.074934 -7.646329 15.912046 34.873503 0.248968 1.096987 0.098914 -0.027420 349093.000000 0 0 1
-30.849204 -8.501429 15.062146 35.366876 0.268906 1.130859 0.096920 -0.031610 419681.000000 0 0 1
-30.719114 -9.925629 15.070946 35.627454 0.312521 1.134026 0.091457 -0.031448 -630560.000000 0 0 1
-31.176464 -10.658929 16.338646 36.776841 0.329432 1.110443 0.083014 -0.025107 343987.000000 0 0 1
-30.152754 -10.553029 17.355546 36.356155 0.336662 1.073131 0.089141 -0.017295 636012.000000 0 0 1
-30.286934 -11.496129 18.395346 37.253834 0.362775 1.054360 0.076969 -0.025477 -874247.000000 0 0 1
-29.015114 -11.521329 19.171346 36.635480 0.377987 1.020077 0.082954 -0.014373 -954443.000000 0 0 1
-27.977814 -12.346029 18.700846 35.845560 0.415578 1.021947 0.062700 -0.017815 -226855.000000 0 0 1
-26.850664 -12.133729 19.552146 35.362013 0.424430 0.984939 0.076694 -0.020160 -457505.000000 0 0 1
-25.666654 -12.887429 18.919846 34.392202 0.465332 0.988288 0.073682 -0.013315 -535575.000000 0 0 1
-25.250254 -12.320529 17.678346 33.194799 0.453951 1.009170 0.077637 -0.011395 32266.000000 0 0 1
-24.600414 -13.322529 16.933046 32.701655 0.496338 1.026514 0.075419 -0.020997 -329640.000000 0 0 1
-24.377314 -12.771329 15.529946 31.599676 0.482586 1.057032 0.065319 -0.026063 -464276.000000 0 0 1
-23.575714 -11.632829 15.369346 30.452484 0.458373 1.041763 0.074263 -0.030870 -149676.000000 0 0 1
-23.246814 -11.464729 13.991146 29.455162 0.458172 1.075834 0.073310 -0.030259 -1272950.000000 0 0 1
-21.908714 -10.831829 13.812146 28.073041 0.459163 1.056402 0.087744 -0.039899 -1826560.000000 0 0 1
-21.844314 -9.457429 14.143046 27.688315 0.408582 1.034687 0.099196 -0.041680 1776680.000000 0 0 1
-20.511314 -8.868329 13.890446 26.311704 0.408090 1.014648 0.110387 -0.039090 1708550.000000 0 0 1
-19.870914 -8.955929 12.515146 25.133459 0.423440 1.049566 0.126717 -0.023418 -700601.000000 0 0 1
-19.239314 -10.175329 12.140246 24.921358 0.486485 1.061982 0.116154 -0.028907 356727.000000 0 1 0
-19.121014 -10.156229 10.744046 24.170161 0.488260 1.110161 0.138247 -0.015771 -671989.000000 0 1 0
-18.493114 -11.420229 10.015646 23.931780 0.553216 1.138994 0.129422 -0.011594 699441.000000 0 1 0
-17.086114 -11.595529 10.026446 22.954765 0.596254 1.118767 0.130302 -0.021399 626766.000000 0 1 0
-16.457314 -11.682129 11.325346 23.142575 0.617302 1.059426 0.129230 -0.021656 -76975.100000 0 1 0
-14.936914 -12.010029 11.164746 22.181158 0.677206 1.043332 0.129434 -0.025059 449193.000000 0 1 0
-14.618414 -13.325729 10.845846 22.558933 0.739172 1.069254 0.116957 -0.032854 -432029.000000 0 1 0
-13.239414 -13.517129 10.891146 21.831444 0.795777 1.048497 0.123428 -0.035059 -298159.000000 0 1 0
-12.616514 -14.986029 10.790546 22.365004 0.871032 1.067319 0.113029 -0.032726 99031.800000 0 1 0
-12.621214 -15.579329 9.573646 22.218579 0.889912 1.125323 0.088898 -0.032826 117210.000000 0 1 0
-12.323814 -16.966729 9.719546 23.113110 0.942603 1.136777 0.089353 -0.023531 -118819.000000 0 1 0
-12.683914 -17.810229 8.467346 23.447428 0.951949 1.201327 0.089012 -0.013290 236767.000000 0 1 0
-11.855114 -17.644129 7.322446 22.482821 0.979178 1.239054 0.075257 -0.015640 -121915.000000 0 1 0
-12.380414 -18.378029 6.231746 23.018716 0.977973 1.296650 0.057316 -0.014279 -365763.000000 0 1 0
-11.495114 -18.379929 4.994146 22.246369 1.011897 1.344374 0.063404 -0.010563 -519406.000000 0 1 0
-11.912314 -19.136229 3.851746 22.867760 1.013996 1.401554 0.086148 -0.019119 98168.000000 0 1 0
-11.169814 -18.966429 2.652246 22.170354 1.038560 1.450879 0.093748 -0.031486 160088.000000 0 1 0
-11.722214 -19.967729 1.633646 23.211836 1.039947 1.500358 0.108878 -0.027767 -161043.000000 0 1 0
-11.341214 -21.256929 2.034546 24.178907 1.080686 1.486551 0.098263 -0.038680 -286375.000000 0 1 0
-11.485214 -22.242429 1.048946 25.054662 1.094143 1.528918 0.091894 -0.038397 -674380.000000 0 0 1
-10.494314 -22.247729 -0.104254 24.598840 1.130042 1.575035 0.093492 -0.035688 -425290.000000 0 1 0
-10.580314 -21.075029 -0.960754 23.601334 1.105525 1.611515 0.097135 -0.044071 -535362.000000 0 1 0
-11.502114 -21.211529 -2.004354 24.212498 1.073917 1.653673 0.110025 -0.040600 -171939.000000 0 1 0
-12.473114 -19.971229 -1.973854 23.628895 1.012518 1.654429 0.095612 -0.039374 130069.000000 0 1 0
-13.469814 -20.206329 -0.993854 24.304719 0.982830 1.611699 0.113596 -0.035212 24712.600000 0 1 0
-14.447614 -19.180129 -1.110954 24.038409 0.925212 1.617029 0.106313 -0.027688 200210.000000 0 1 0
27.153786 -20.344429 -3.922254 34.155643 -0.643008 1.685885 0.100281 -0.029013 -261602.000000 0 0 1
25.869386 -20.261629 -3.368454 33.031882 -0.664430 1.672950 0.101147 -0.030694 -114847.000000 0 0 1
25.635986 -21.386429 -2.533554 33.481368 -0.695270 1.646539 0.070654 -0.025269 175576.000000 0 0 1
24.205886 -21.585829 -1.978454 32.492879 -0.728244 1.631723 0.064403 -0.023587 6067.140000 0 0 1
23.193486 -22.033429 -2.839154 32.116516 -0.759754 1.659314 0.079446 -0.032837 -20775.500000 0 0 1
22.047786 -22.293829 -2.032754 31.420563 -0.790947 1.635537 0.072571 -0.030488 387910.000000 0 0 1
20.937786 -23.043229 -2.853554 31.265381 -0.833233 1.662192 0.094506 -0.040401 180077.000000 0 0 1
20.305286 -22.173629 -3.761354 30.300532 -0.829353 1.695252 0.098292 -0.043962 -275242.000000 0 0 1
19.389786 -22.882029 -4.579854 30.340173 -0.867825 1.722326 0.088019 -0.039731 -191362.000000 0 0 1
18.569586 -21.987829 -5.490654 29.299171 -0.869481 1.759311 0.083827 -0.021753 -946993.000000 0 0 1
17.548186 -21.176329 -4.989154 27.951161 -0.878817 1.750253 0.083848 -0.020144 -266179.000000 0 0 1
17.808486 -20.275829 -3.911854 27.268187 -0.850094 1.714752 0.081961 -0.029570 -883293.000000 0 0 1
16.589286 -19.819329 -3.102554 26.031443 -0.873883 1.690265 0.078644 -0.017917 -243361.000000 0 0 1
16.117486 -20.794429 -2.220354 26.402871 -0.911432 1.654991 0.077923 -0.025242 339479.000000 0 0 1
15.247986 -20.227429 -1.227054 25.360513 -0.924850 1.619200 0.074654 -0.016854 19011.600000 0 0 1
15.042486 -21.007829 0.104946 25.838271 -0.949385 1.566735 0.078565 -0.020771 361196.000000 0 0 1
14.028086 -22.010929 -0.037554 26.101142 -1.003384 1.572235 0.085595 -0.030580 -42706.500000 0 0 1
13.505886 -22.210629 1.204446 26.022523 -1.024455 1.524495 0.078534 -0.023044 -244733.000000 0 0 1
12.507686 -23.382629 1.374446 26.553317 -1.079610 1.519011 0.081685 -0.029908 178261.000000 0 0 1
13.140986 -24.668429 1.384846 27.984544 -1.081329 1.521290 0.084963 -0.023205 156316.000000 0 0 1
12.250386 -25.737289 1.171046 28.528080 -1.126550 1.529736 0.088957 -0.027004 -80472.400000 0 0 1
12.729586 -26.977269 1.895746 29.889952 -1.129910 1.507330 0.086627 -0.024949 -81210.400000 0 0 1
12.176486 -27.153609 3.147146 29.924736 -1.149249 1.465433 0.108068 -0.029953 -161285.000000 0 0 1
12.780286 -28.246549 3.730646 31.226927 -1.145903 1.451041 0.102159 -0.029256 -37174.000000 0 0 1
12.229786 -28.551209 5.154946 31.485118 -1.166095 1.406329 0.113363 -0.027463 -21822.300000 0 0 1
13.015886 -29.461919 5.843246 32.734714 -1.154793 1.391331 0.109421 -0.024659 -408050.000000 0 0 1
12.427386 -29.685939 7.082246 32.952285 -1.174335 1.354182 0.109252 -0.022815 -261486.000000 0 0 1
13.286586 -30.542859 8.001746 34.255329 -1.160474 1.335027 0.102693 -0.011713 37059.500000 0 0 1
12.722086 -30.832209 9.284046 34.621815 -1.179455 1.299318 0.088701 -0.008195 -155810.000000 0 0 1
11.921386 -31.984929 9.309346 35.381055 -1.214027 1.304545 0.074546 -0.011715 84543.500000 0 0 1
11.455086 -32.382859 10.718446 35.982685 -1.230794 1.268327 0.066533 -0.006848 -1072060.000000 0 0 1
12.410586 -32.989519 11.468046 37.065443 -1.210976 1.256234 0.067012 -0.014771 -1023400.000000 0 0 1
12.165586 -33.289759 12.818846 37.689950 -1.220429 1.223759 0.070199 -0.008455 -158619.000000 0 0 1
11.087886 33.697997 13.142446 37.831470 1.252918 1.216005 0.066427 -0.013217 27745.300000 0 0 1
11.430086 32.395185 12.639346 36.603933 1.231600 1.218238 0.080900 -0.017746 187525.000000 0 0 1
10.493886 31.345010 12.915346 35.488554 1.247739 1.198313 0.061135 -0.008585 167771.000000 0 0 1
10.308886 30.190900 11.910346 34.053192 1.241753 1.213485 0.061585 -0.012002 -24689.300000 0 0 1
9.818386 30.437780 10.576146 33.685516 1.258762 1.251428 0.053285 -0.013697 -253390.000000 0 0 1
10.654986 31.293310 9.887446 34.504515 1.242621 1.280167 0.053262 -0.009997 -479874.000000 0 0 1
10.310486 31.454810 8.397846 34.150183 1.254046 1.322339 0.050665 -0.012896 -649830.000000 0 0 1
9.102286 32.130287 8.339946 34.420367 1.294737 1.326064 0.054985 -0.004196 -976302.000000 0 0 1
8.651786 32.482631 7.077146 34.352012 1.310489 1.363292 0.045574 -0.011769 58765.400000 0 0 1
9.326286 33.747791 6.405446 35.593858 1.301173 1.389851 0.070140 -0.011680 250284.000000 0 0 1
8.879886 -33.072179 6.957946 34.943303 -1.308483 1.370335 0.072543 -0.008719 64554.400000 0 0 1
9.421886 -32.022759 6.194846 33.950039 -1.284646 1.387299 0.097171 -0.021688 -40227.600000 0 0 1
8.760686 -30.662179 6.432346 32.531430 -1.292495 1.371758 0.095657 -0.019409 21322.600000 0 0 1
8.992786 -30.226569 7.783046 32.482172 -1.281623 1.328832 0.105716 -0.015541 -117565.000000 0 0 1
8.207186 -29.136799 8.182346 31.357005 -1.296233 1.306799 0.120386 -0.015691 -92801.400000 0 0 1
8.712186 -27.783759 7.596346 30.092257 -1.266936 1.315600 0.127771 -0.018444 1010550.000000 0 0 1
9.855886 -27.243419 8.317146 30.141620 -1.223674 1.291233 0.130507 -0.019355 772435.000000 0 0 1
10.503886 -26.089839 7.787346 29.183113 -1.188047 1.300679 0.110435 -0.025045 -4428.790000 0 0 1
9.699486 -24.875729 7.275646 27.673398 -1.199012 1.304758 0.102184 -0.023708 -277270.000000 0 0 1
9.197786 -25.109809 5.999846 27.406202 -1.219673 1.350086 0.102162 -0.027139 -136309.000000 0 0 1
8.289986 -24.153929 5.445246 26.111049 -1.240179 1.360713 0.106333 -0.021973 635484.000000 0 0 1
7.641086 -24.608629 4.141646 26.098353 -1.269731 1.411429 0.103876 -0.015659 265522.000000 0 0 1
6.831986 -25.788269 4.103946 26.991725 -1.311820 1.418160 0.057101 -0.009960 -1399.640000 0 0 1
7.537886 -27.027389 4.110646 28.358365 -1.298810 1.425330 0.079118 -0.012573 -286279.000000 0 0 1
6.700986 -28.170399 3.595346 29.178778 -1.337263 1.447265 0.093304 -0.013796 152270.000000 0 0 1
5.694186 -28.661259 4.484046 29.563460 -1.374678 1.418533 0.075387 -0.011224 -255883.000000 0 0 1
4.644186 -29.311429 3.866946 29.927940 -1.413660 1.441226 0.070699 -0.005602 -172228.000000 0 0 1
4.806586 -30.838379 4.117346 31.481128 -1.416177 1.439633 0.069184 -0.006743 282894.000000 0 0 1
5.990186 -31.287599 3.474846 32.044824 -1.381630 1.462146 0.068834 -0.011371 128354.000000 0 0 1
6.116686 -32.637629 3.765046 33.418621 -1.385533 1.457894 0.062416 -0.013242 254795.000000 0 0 1
7.350286 -33.347879 3.132746 34.291717 -1.353853 1.479313 0.069113 -0.015206 114881.000000 0 0 1
7.246186 -33.616889 1.702646 34.431112 -1.358493 1.521325 0.072250 -0.018586 4764.130000 0 0 1
8.176886 33.494234 1.209546 34.499104 1.331352 1.535729 0.062991 -0.020629 -294527.000000 0 0 1
7.604186 33.009329 -0.156554 33.874238 1.344382 1.575418 0.072688 -0.016553 397584.000000 0 0 1
6.546886 32.111128 -0.000054 32.771729 1.369671 1.570798 0.050488 -0.013077 743963.000000 0 0 1
5.230286 32.657596 0.311146 33.075237 1.411990 1.561389 0.054818 -0.018851 994920.000000 0 0 1
4.158286 31.526850 0.341446 31.801733 1.439657 1.560059 0.045738 -0.020244 19251.800000 0 0 1
4.078686 30.766030 -0.826954 31.046226 1.438994 1.597436 0.057351 -0.018298 125503.000000 0 0 1
3.116686 29.731380 -0.665154 29.901691 1.466350 1.593043 0.067395 -0.028788 -294056.000000 0 0 1
2.913186 28.751860 -1.857354 28.958692 1.469819 1.634978 0.074411 -0.019250 -386553.000000 0 0 1
2.180586 29.218560 -2.975154 29.450480 1.496304 1.671991 0.085150 -0.028963 148561.000000 0 0 1
1.984786 28.232520 -3.955854 28.577322 1.500610 1.709669 0.085423 -0.037058 -119178.000000 0 0 1
1.712586 28.856100 -5.380454 29.403346 1.511517 1.754821 0.085609 -0.039274 -430970.000000 0 0 1
0.405086 29.363330 -5.409054 29.860126 1.557002 1.752948 0.100014 -0.042539 -232166.000000 0 0 1
0.116286 30.212660 -6.479854 30.899949 1.566947 1.782069 0.085662 -0.032535 -92784.200000 0 0 1
0.030586 29.602180 -7.845954 30.624320 1.569763 1.829885 0.087278 -0.028558 -735645.000000 0 0 1
-1.180514 28.963630 -8.169454 30.116863 -1.530060 1.845497 0.097700 -0.028881 -52110.100000 0 0 1
-1.224514 28.610120 -9.575354 30.194798 -1.528022 1.893487 0.093903 -0.029555 -26979.200000 0 0 1
-1.343714 29.760630 -10.582254 31.614629 -1.525676 1.912111 0.088903 -0.031236 -865354.000000 0 0 1
-0.137314 30.362920 -10.894354 32.258529 -1.566274 1.915290 0.077183 -0.033438 -785032.000000 0 0 1
-0.272214 31.647100 -11.341054 33.618931 -1.562195 1.914888 0.072162 -0.038424 26562.000000 0 0 1
-0.506514 32.747546 -10.293454 34.330941 -1.555330 1.875311 0.066363 -0.035207 78387.200000 0 0 1
0.621386 32.841574 -9.448654 34.179411 1.551878 1.850887 0.072024 -0.041064 -242541.000000 0 0 1
0.342586 33.759280 -8.427654 34.797007 1.560649 1.815424 0.075254 -0.034277 -275113.000000 0 0 1
1.512986 -34.009319 -7.452754 34.849196 -1.526338 1.786318 0.071959 -0.039587 247355.000000 0 0 1
2.345686 -32.967339 -7.988154 34.002328 -1.499764 1.807942 0.075500 -0.037307 -269622.000000 0 0 1
3.189286 -32.478519 -6.989654 33.374856 -1.472913 1.781787 0.082164 -0.035551 -2073200.000000 0 0 1
4.374586 -31.682679 -7.543454 32.860810 -1.433589 1.802420 0.078367 -0.037549 109549.000000 0 0 1
5.333686 -32.502109 -8.245854 33.953342 -1.408143 1.816108 0.074240 -0.030005 569927.000000 0 0 1
5.957286 -33.491299 -7.456754 34.824697 -1.394762 1.786590 0.082656 -0.012716 -1731220.000000 0 0 1
6.381986 33.266292 -8.206654 34.852907 1.381254 1.808494 0.078245 -0.008151 -159869.000000 0 0 1
5.342286 32.355035 -8.422354 33.857412 1.407158 1.822196 0.067002 -0.014948 -560293.000000 0 0 1
4.459986 32.708131 -9.462454 34.340229 1.435275 1.849958 0.069847 -0.024292 156223.000000 0 0 1
3.406086 31.593950 -9.639454 33.206899 1.463403 1.865321 0.067319 -0.037374 297340.000000 0 0 1
4.170686 30.491600 -10.173354 32.413414 1.434858 1.890055 0.055835 -0.019883 767310.000000 0 0 1
3.362886 29.338070 -10.248854 31.258125 1.456669 1.904853 0.056210 -0.025714 267102.000000 0 0 1
4.026786 28.317120 -11.209254 30.720053 1.429540 1.944304 0.054369 -0.027489 228438.000000 0 0 1
3.957186 28.722000 -12.575454 31.603080 1.433883 1.980043 0.053976 -0.018454 -141284.000000 0 0 1
5.100586 28.304190 -13.274054 31.675600 1.392504 2.003209 0.035300 -0.016520 -142765.000000 0 0 1
5.241386 28.956220 -14.674554 32.882782 1.391725 2.033388 0.041579 -0.010132 -66218.800000 0 0 1
4.371386 28.352110 -15.617554 32.662810 1.417819 2.069338 0.055941 -0.009414 50950.600000 0 0 1
4.366786 28.998320 -16.864254 33.828604 1.421332 2.092688 0.075541 -0.002504 270657.000000 0 0 1
3.388586 28.357610 -17.901754 33.706221 1.451866 2.130708 0.070046 -0.019158 361310.000000 0 0 1
3.718786 26.999620 -18.125354 32.731289 1.433923 2.157672 0.081639 -0.010475 512010.000000 0 0 1
2.835286 26.476600 -19.159454 32.804479 1.464116 2.194505 0.094770 -0.023346 840043.000000 0 0 1
3.430986 25.276380 -19.972954 32.397314 1.435882 2.235086 0.096690 -0.027429 210699.000000 0 0 1
3.410586 24.052570 -19.301354 31.027415 1.429938 2.242185 0.100604 -0.032438 -130091.000000 0 0 1
4.328586 23.123930 -19.835254 30.771579 1.385747 2.271292 0.094944 -0.027500 261108.000000 0 0 1
4.772086 22.141680 -18.735154 29.394435 1.358518 2.261878 0.097009 -0.028063 -108460.000000 0 0 1
3.864086 21.079180 -18.727554 28.460223 1.389496 2.288990 0.121060 -0.035143 -44191.000000 0 0 1
4.409986 19.995280 -18.014154 27.272128 1.353720 2.292325 0.103489 -0.032678 -391797.000000 0 0 1
3.301886 19.035280 -17.659054 26.174158 1.399044 2.311321 0.086976 -0.036954 -479801.000000 0 0 1
2.637086 19.375080 -16.455254 25.556278 1.435520 2.270359 0.084824 -0.040614 105355.000000 0 0 1
1.699486 18.342880 -16.068354 24.444662 1.478409 2.288074 0.055958 -0.020820 318155.000000 0 1 0
2.238286 17.068680 -15.277354 23.016240 1.440406 2.296637 0.043061 -0.015148 59122.000000 0 1 0
3.259086 16.303480 -15.917854 23.017454 1.373496 2.334437 0.059032 -0.028492 34828.400000 0 1 0
2.815586 15.180180 -16.628754 22.690986 1.387403 2.393276 0.061285 -0.036398 -299589.000000 0 1 0
2.749986 15.263980 -18.091954 23.830030 1.392547 2.432892 0.054799 -0.036009 -726503.000000 0 1 0
3.971686 15.300980 -18.762154 24.533909 1.316830 2.441440 0.085319 -0.037158 -650176.000000 0 1 0
3.980886 16.083980 -19.904454 25.898439 1.328166 2.447381 0.079869 -0.033330 -38617.600000 0 0 1
4.441086 15.282880 -21.192854 26.503334 1.287993 2.497475 0.080994 -0.036621 843921.000000 0 0 1
3.547686 14.204980 -21.602854 26.096951 1.326054 2.545957 0.070562 -0.032547 722855.000000 0 0 1
2.408686 14.634080 -22.342654 26.817014 1.407665 2.555579 0.081645 -0.036135 196460.000000 0 0 1
1.459686 13.560780 -22.866754 26.625437 1.463569 2.603780 0.079503 -0.026428 -46020.000000 0 0 1
0.678286 12.934780 -21.853954 25.404014 1.518405 2.606568 0.072003 -0.011170 15620.500000 0 0 1
-0.003514 11.899180 -22.539254 25.487418 -1.570501 2.655850 0.052235 -0.005204 -221245.000000 0 0 1
-0.560314 10.846280 -21.605954 24.182080 -1.519183 2.675808 0.035558 0.000487 -109421.000000 0 1 0
-1.618114 11.314380 -20.773354 23.710034 -1.428746 2.638596 0.030834 0.000080 63287.800000 0 1 0
-1.760614 10.384780 -19.683454 22.324466 -1.402855 2.650247 0.017274 0.001024 1065600.000000 0 1 0
-2.894814 9.260780 -19.805154 22.054163 -1.267831 2.686052 0.023304 -0.009160 738449.000000 0 1 0
-2.497614 8.207880 -20.626054 22.339236 -1.275404 2.747410 0.034308 -0.008029 197125.000000 0 1 0
-3.552014 7.243780 -20.796754 22.306818 -1.114895 2.771530 0.039500 -0.004998 365541.000000 0 1 0
-3.138614 5.912380 -21.519654 22.536696 -1.082771 2.840024 0.053290 -0.021831 -363101.000000 0 1 0
-2.319914 5.049380 -20.798154 21.527690 -1.140115 2.880512 0.048211 -0.017035 -70673.300000 0 1 0
-1.883414 3.919180 -21.561654 21.995730 -1.122819 2.942596 0.068160 -0.020339 -512820.000000 0 1 0
-0.964414 3.027780 -20.813654 21.054827 -1.262435 2.990090 0.055421 -0.018984 45336.100000 0 1 0
0.441286 3.182580 -21.024054 21.268155 1.433018 2.989940 0.047590 -0.010800 83938.600000 0 1 0
1.125586 2.313280 -20.227654 20.390591 1.117946 3.015090 0.042674 -0.007695 -76260.200000 0 1 0
2.668886 2.270780 -20.291854 20.592201 0.704978 2.970589 0.029298 -0.011914 176278.000000 0 1 0
3.338586 2.001880 -21.477154 21.827089 0.540139 2.962287 0.051631 -0.006105 -558106.000000 0 1 0
4.719586 1.928380 -21.249754 21.852807 0.387890 2.906119 0.076897 -0.013800 -639507.000000 0 1 0
5.443086 1.471280 -22.513554 23.208877 0.263994 2.896194 0.069370 -0.005863 -1500810.000000 0 1 0
6.782286 1.359080 -22.220254 23.272004 0.197767 2.839803 0.063412 -0.024494 -871725.000000 0 1 0
7.497786 0.666180 -23.251954 24.440007 0.088618 2.828511 0.073269 -0.028180 -404266.000000 0 1 0
9.013886 0.695980 -23.147454 24.850335 0.077059 2.769241 0.086554 -0.037001 -541419.000000 0 1 0
9.545686 1.970680 -23.369854 25.321015 0.203587 2.746454 0.070830 -0.034901 308105.000000 0 0 1
10.965286 1.989180 -23.295454 25.823875 0.179455 2.695384 0.076802 -0.042116 132826.000000 0 0 1
13.967186 -20.288429 22.701611 33.497250 -0.967877 0.826145 0.098386 0.004177 -568256.000000 0 0 1
13.054286 -21.258829 23.172511 34.048751 -1.020100 0.822258 0.083723 0.006306 414701.000000 0 0 1
11.705986 -20.866529 22.968261 33.165994 -1.059552 0.805814 0.074144 -0.009337 421705.000000 0 0 1
11.034486 -20.780729 21.559411 31.912486 -1.082660 0.829046 0.098174 -0.019653 -703706.000000 0 0 1
11.337186 -19.611629 20.822811 30.769096 -1.046647 0.827465 0.117942 -0.020352 13066.500000 0 0 1
10.915086 -19.752629 19.454811 29.795891 -1.065968 0.859342 0.126386 -0.020343 32789.800000 0 0 1
11.169286 -18.554029 18.583611 28.536915 -1.028917 0.861615 0.128040 -0.026223 -260469.000000 0 0 1
10.526586 -17.418329 19.080611 27.897615 -1.027192 0.817631 0.149909 -0.028898 -176785.000000 0 0 1
10.767686 -16.283229 18.236811 26.714563 -0.986536 0.819408 0.145612 -0.030477 -136872.000000 0 0 1
9.824186 -15.095229 18.422911 25.764010 -0.993849 0.774081 0.118639 -0.022960 426765.000000 0 0 1
8.447686 -15.395729 18.221211 25.306213 -1.068949 0.766952 0.095155 -0.023076 424857.000000 0 0 1
7.608486 -14.342429 18.760111 24.810000 -1.083057 0.713385 0.073304 -0.018763 1160510.000000 0 1 0
6.079586 -14.522729 18.486611 24.282212 -1.174337 0.705445 0.030904 -0.013658 422529.000000 0 1 0
5.809786 -14.511829 17.108611 23.174369 -1.189990 0.740316 0.020782 -0.013748 -337783.000000 0 1 0
4.425586 -14.594529 16.843811 22.722237 -1.276373 0.735803 0.003418 -0.013349 -116003.000000 0 1 0
3.734086 -15.981629 16.914211 23.567910 -1.341265 0.770332 0.003901 -0.015653 -611843.000000 0 1 0
2.410486 -15.955929 16.451111 23.044331 -1.420859 0.775759 -0.000190 -0.009799 -440046.000000 0 1 0
1.865386 -17.287829 16.545611 24.002207 -1.463311 0.810223 0.011404 -0.023843 146177.000000 0 1 0
0.400886 -17.188729 16.077211 23.539113 -1.547478 0.818934 0.021227 -0.024716 -320854.000000 0 1 0
0.193886 -17.057729 14.668411 22.498133 -1.559430 0.860599 0.016563 -0.025725 -641121.000000 0 1 0
-1.171514 -17.245229 14.439311 22.522524 1.502968 0.874859 0.016365 -0.024436 -542514.000000 0 1 0
-1.405814 -18.065429 13.158811 22.393980 1.493135 0.942701 0.013918 -0.020471 1001040.000000 0 1 0
-2.791714 -18.482029 13.060411 22.802487 1.420879 0.960924 0.020379 -0.022316 1152020.000000 0 1 0
-2.957914 -19.747929 12.454111 23.533696 1.422118 1.013135 0.025117 -0.026043 -427009.000000 0 1 0
-4.420714 -20.149729 12.289711 24.012316 1.354825 1.033508 0.025029 -0.025696 -137466.000000 0 1 0
-4.917614 -20.755029 13.475511 25.229815 1.338150 1.007341 0.020790 -0.027121 -10987.100000 0 0 1
-6.325414 -20.913829 13.433811 25.648906 1.277092 1.019540 0.028659 -0.027745 113755.000000 0 0 1
-6.908414 -21.923329 14.459811 27.155933 1.265529 1.009276 0.031494 -0.027385 488348.000000 0 0 1
-8.284614 -21.585529 14.642511 27.367372 1.204329 1.006247 0.051982 -0.027615 76534.300000 0 0 1
-9.004214 -22.561229 15.343411 28.731606 1.191065 1.007442 0.045839 -0.026934 183921.000000 0 0 1
-10.504214 -22.205429 15.457411 29.023287 1.128943 1.009143 0.075674 -0.025378 178340.000000 0 0 1
-10.781114 -20.984329 16.086611 28.554396 1.096194 0.972341 0.060989 -0.024870 538817.000000 0 0 1
-12.100614 -20.466229 15.808711 28.551826 1.036837 0.984014 0.063176 -0.017020 865976.000000 0 0 1
-12.403014 -19.228229 16.706111 28.331144 0.997914 0.940142 0.072559 -0.017970 -114483.000000 0 0 1
-12.688914 -19.517629 18.057811 29.462365 0.994333 0.911057 0.065922 -0.010933 14879.300000 0 0 1
-13.250514 -18.417729 18.781611 29.453994 0.947140 0.879341 0.076519 -0.015635 -226948.000000 0 0 1
-13.784214 -18.779529 20.139911 30.794339 0.937613 0.857919 0.062686 -0.013262 -336206.000000 0 0 1
-14.971914 -19.536429 20.147711 31.808184 0.916908 0.884841 0.068974 -0.010606 -81522.300000 0 0 1
-15.273214 -20.073129 21.405411 33.081614 0.920369 0.867089 0.066888 -0.003947 -112115.000000 0 0 1
-16.643714 -20.766529 21.308611 34.092798 0.895161 0.895642 0.078485 -0.012542 -961908.000000 0 0 1
-16.707314 -21.869029 20.425311 34.272177 0.918413 0.932319 0.077863 -0.009191 -178843.000000 0 0 1
-18.009614 -22.128829 19.978811 34.830794 0.887665 0.959907 0.074856 -0.004127 -266807.000000 0 0 1
-18.923914 -22.832029 20.987311 36.330198 0.878721 0.954910 0.081854 -0.012338 -937672.000000 0 0 1
-19.387314 -21.932729 21.951811 36.589542 0.846923 0.927361 0.080366 -0.012193 -84518.400000 0 0 1
-20.254914 -22.603429 22.875211 38.005945 0.840141 0.924937 0.076295 -0.006828 202211.000000 0 0 1
-20.868114 -21.692429 23.946411 38.463883 0.804764 0.898775 0.067591 -0.002121 321355.000000 0 0 1
-21.980614 -20.914329 23.490811 38.371536 0.760545 0.911964 0.065522 0.010164 518016.000000 0 0 1
-22.115214 -19.813329 24.371251 38.413651 0.730553 0.883509 0.075133 0.000543 112506.000000 0 0 1
-23.268914 -18.943429 23.837011 38.320999 0.683285 0.899457 0.071054 -0.003054 -168535.000000 0 0 1
-22.924714 -18.328129 22.640511 37.068256 0.674431 0.913752 0.076248 0.003884 202985.000000 0 0 1
-23.956414 -17.535129 22.055711 36.984388 0.631855 0.931848 0.066849 0.000208 194357.000000 0 0 1
-23.459914 -16.926429 20.726211 35.587180 0.625013 0.949110 0.068150 0.003977 -148523.000000 0 0 1
-22.381114 -16.036829 20.764411 34.485576 0.621737 0.924644 0.078073 -0.000699 -567207.000000 0 0 1
-22.244814 -15.503929 19.472211 33.382190 0.608688 0.947997 0.077060 -0.002088 360924.000000 0 0 1
-21.264114 -14.302529 19.275411 32.066593 0.592108 0.925912 0.084729 -0.017447 417466.000000 0 0 1
-21.052714 -14.084529 17.907611 31.020530 0.589625 0.955400 0.075944 -0.023881 182953.000000 0 0 1
-20.099014 -13.071029 17.607811 29.746549 0.576608 0.937348 0.096833 -0.033603 -233345.000000 0 0 1
-19.976414 -12.960529 16.044911 28.713614 0.575525 0.977869 0.103131 -0.037167 511695.000000 0 0 1
-19.106714 -11.975429 15.450911 27.335107 0.559868 0.970071 0.101335 -0.037262 959476.000000 0 0 1
-17.729314 -11.924829 15.826111 26.589395 0.592103 0.933277 0.125114 -0.044064 327445.000000 0 0 1
-17.034214 -10.738129 15.132611 25.188644 0.562463 0.926331 0.122192 -0.039416 -73768.900000 0 0 1
-17.261314 -9.510729 15.781811 25.248218 0.503599 0.895580 0.116227 -0.030075 41674.900000 0 0 1
-16.480314 -8.514829 15.165011 23.959980 0.476892 0.885463 0.086145 -0.012912 -444843.000000 0 1 0
-16.824114 -7.028029 15.542011 23.958258 0.395701 0.864905 0.097490 -0.016262 40085.000000 0 1 0
-16.089614 -6.456929 16.586011 23.992986 0.381635 0.807529 0.081375 -0.018890 -1832260.000000 0 1 0
-14.785014 -6.243129 16.303111 22.877166 0.399548 0.777547 0.088193 -0.021320 -1954440.000000 0 1 0
-13.921214 -6.039429 17.605211 23.242598 0.409325 0.711391 0.081014 -0.019522 163800.000000 0 1 0
-13.840714 -7.158429 18.510311 24.195869 0.477313 0.699725 0.077124 -0.019099 194287.000000 0 1 0
-13.302914 -8.371029 17.994311 23.892193 0.561659 0.717965 0.079267 -0.022396 -554519.000000 0 1 0
-13.535114 -9.538329 18.957111 25.170441 0.613880 0.717959 0.090992 -0.021817 1309760.000000 0 0 1
-14.857514 -10.106529 19.157411 26.265835 0.597334 0.753401 0.088287 -0.024570 839696.000000 0 0 1
-15.683414 -9.433029 20.027711 27.130439 0.541496 0.740397 0.087551 -0.019078 -1036920.000000 0 0 1
-17.040314 -10.079929 20.428611 28.448294 0.534171 0.769733 0.088708 -0.023426 729026.000000 0 0 1
-18.117714 -10.117229 19.516011 28.486569 0.509282 0.816062 0.100933 -0.024785 296757.000000 0 0 1
-18.513414 -8.870529 18.985411 27.962093 0.446821 0.824438 0.093664 -0.023323 -974258.000000 0 0 1
-19.699314 -8.778929 18.006411 28.095612 0.419228 0.875129 0.119520 -0.029391 -154410.000000 0 0 1
-20.948914 -9.049029 18.580511 29.427493 0.407748 0.887439 0.105200 -0.029572 -451091.000000 0 0 1
-21.915914 -9.168929 17.558611 29.541181 0.396240 0.934305 0.116919 -0.030187 -430717.000000 0 0 1
-23.307014 -9.482829 18.081811 30.985365 0.386411 0.947691 0.096882 -0.024401 -215020.000000 0 0 1
-23.966414 -8.419029 18.838211 31.625105 0.337819 0.932693 0.094646 -0.017951 793329.000000 0 0 1
-25.341644 -8.731329 19.031411 32.872932 0.331807 0.953370 0.081265 -0.006647 207712.000000 0 0 1
-26.164014 -7.641729 19.709011 33.636242 0.284166 0.944750 0.104012 -0.016242 -236080.000000 0 0 1
-26.104704 -7.708129 21.116511 34.449643 0.287119 0.910985 0.118610 -0.022020 56525.500000 0 0 1
-26.920424 -6.757829 21.756911 35.266708 0.245948 0.905967 0.104208 -0.025128 -477266.000000 0 0 1
-26.809384 -6.658929 23.309941 36.144678 0.243454 0.869895 0.098351 -0.016132 746625.000000 0 0 1
-25.567184 -6.136029 23.802901 35.467025 0.235541 0.835067 0.098726 -0.018624 1952180.000000 0 0 1
-24.412414 -7.046929 23.804851 34.818043 0.281023 0.817985 0.108374 -0.020269 1152470.000000 0 0 1
-23.313714 -6.784529 24.858091 34.748868 0.283189 0.773651 0.106061 -0.016204 270642.000000 0 0 1
-22.657114 -5.524029 24.694911 33.966136 0.239144 0.756788 0.080072 -0.010469 798905.000000 0 0 1
-21.764514 -5.240929 25.819841 34.173464 0.236303 0.714299 0.088679 -0.018504 608757.000000 0 0 1
-21.153614 -3.818229 25.661961 33.475223 0.178577 0.697274 0.067802 -0.014994 30909.700000 0 0 1
-20.138314 -3.432629 26.567961 33.514045 0.168830 0.655504 0.060395 -0.015107 -153106.000000 0 0 1
-20.471214 -3.390029 27.975041 34.830530 0.164110 0.638189 0.068196 -0.022796 98307.100000 0 0 1
-21.367014 -2.167729 28.371801 35.583809 0.101106 0.647949 0.074863 -0.032073 1396090.000000 0 0 1
-22.703114 -2.116529 27.824931 35.974128 0.092958 0.686498 0.076703 -0.032850 760209.000000 0 0 1
-23.476414 -1.128329 28.492351 36.935474 0.048025 0.689744 0.074502 -0.030063 191307.000000 0 0 1
-24.759114 -0.675929 27.788701 37.224757 0.027293 0.727993 0.079819 -0.029626 -907931.000000 0 0 1
-24.601814 0.119771 26.657231 36.274944 -0.004868 0.745327 0.066315 -0.030609 -204047.000000 0 0 1
-25.697784 0.258171 25.753911 36.382780 -0.010046 0.784333 0.104837 -0.026360 28201.300000 0 0 1
-26.395644 -1.043529 25.263251 36.552029 0.039514 0.807705 0.097265 -0.022042 -238986.000000 0 0 1
-27.311734 -1.561729 26.218261 37.891517 0.057119 0.806638 0.080141 -0.020862 128873.000000 0 0 1
-28.005464 -2.759729 25.926401 38.263565 0.098225 0.826337 0.062132 -0.028613 230259.000000 0 0 1
-27.152284 -4.076129 25.875411 37.727951 0.149008 0.815036 0.074076 -0.028122 152623.000000 0 0 1
-26.704034 -4.346829 27.174751 38.346675 0.161363 0.783199 0.069040 -0.028670 -115388.000000 0 0 1
-26.048204 -5.610129 27.239841 38.105005 0.212134 0.774369 0.081412 -0.031693 -158134.000000 0 0 1
-25.751504 -6.167129 28.647161 39.010682 0.235059 0.746100 0.064395 -0.023523 38261.700000 0 0 1
-26.897194 -6.384729 29.463031 40.401659 0.233062 0.753567 0.074037 -0.018590 -237058.000000 0 0 1
-26.630034 -7.215929 30.550711 41.165208 0.264615 0.734526 0.077824 -0.021492 -494052.000000 0 0 1
-27.846334 -7.687529 31.360011 42.637621 0.269360 0.744391 0.049177 -0.021423 -32673.100000 0 0 1
-28.741314 -8.494129 30.584281 42.820692 0.287358 0.775258 0.038020 -0.023343 70547.400000 0 0 1
-29.805304 -8.980029 31.357511 44.184733 0.292640 0.781737 0.053491 -0.017480 -200400.000000 0 0 1
-30.914044 -9.620429 30.508691 44.486077 0.301699 0.815090 0.035089 -0.019014 -206061.000000 0 0 1
-30.518504 -10.931129 30.138091 44.262549 0.343944 0.821814 0.044308 -0.023756 608132.000000 0 0 1
-31.505304 -11.525129 29.302591 44.542728 0.350694 0.852831 0.024466 -0.016349 6076.070000 0 0 1
-30.996984 -12.826829 28.649651 44.115112 0.392354 0.863962 0.039468 -0.026559 -258672.000000 0 0 1
-30.063984 -12.416529 27.668361 42.703063 0.391666 0.865940 0.055588 -0.025603 -351384.000000 0 0 1
-29.270084 -13.505929 27.286391 42.233815 0.432314 0.868360 0.052547 -0.033214 322205.000000 0 0 1
-27.912284 -12.965729 26.702141 40.745676 0.434860 0.856168 0.085802 -0.038213 537741.000000 0 0 1
-26.949584 -12.350129 27.568881 40.482700 0.429708 0.821663 0.071874 -0.039072 375547.000000 0 0 1
-27.270524 -11.028529 28.145461 40.712123 0.384304 0.807470 0.077056 -0.040423 -647714.000000 0 0 1
-27.298344 -9.807429 27.187791 39.756273 0.344908 0.817754 0.086548 -0.031812 108138.000000 0 0 1
-26.070814 -9.367629 26.631891 38.427821 0.344949 0.805103 0.093329 -0.032681 357003.000000 0 0 1
-25.417594 -10.211029 25.663781 37.535968 0.381998 0.817959 0.088729 -0.034543 215986.000000 0 0 1
-26.110314 -10.243929 24.237501 37.069436 0.373879 0.858147 0.095394 -0.024854 506344.000000 0 0 1
-27.429064 -10.784029 24.253171 38.168903 0.374597 0.882248 0.087629 -0.027346 85224.900000 0 0 1
-28.023744 -10.878729 23.007431 37.855236 0.370290 0.917542 0.105986 -0.022177 144756.000000 0 0 1
-29.330024 -11.742229 22.896631 39.017765 0.380807 0.943663 0.099635 -0.035409 534089.000000 0 0 1
-30.534704 -11.250629 23.405871 40.084656 0.353019 0.947258 0.086451 -0.032963 -287156.000000 0 0 1
-30.521054 -11.081629 24.843061 40.884165 0.348281 0.917704 0.091370 -0.032004 -1380070.000000 0 0 1
-31.895044 -10.772129 25.429711 42.190080 0.325708 0.923864 0.034365 -0.021089 -921807.000000 0 0 1
-32.453214 -9.526829 25.027691 42.075610 0.285534 0.933746 0.049195 -0.020072 -365270.000000 0 0 1
-33.763364 -9.309629 25.466111 43.303080 0.269046 0.942101 0.029060 -0.013073 -214769.000000 0 0 1
-34.162008 -9.285129 26.969611 44.504116 0.265386 0.919771 0.016393 -0.009194 -536665.000000 0 0 1
-34.643059 -10.554829 27.408861 45.417966 0.295739 0.922937 0.022538 -0.017260 328297.000000 0 0 1
-35.217765 -10.486629 28.706421 46.629594 0.289405 0.907615 0.031826 -0.019857 -883712.000000 0 0 1
-35.762701 -11.799929 29.276541 47.700367 0.318703 0.909983 0.032322 -0.014620 -235091.000000 0 0 1
-36.870754 -12.299529 28.592051 48.251801 0.321977 0.936564 0.020099 -0.014914 -98441.600000 0 0 1
36.207879 -11.722729 28.946891 47.815848 -0.313112 0.920550 0.030156 -0.010790 -211711.000000 0 0 1
35.022489 -12.289429 28.119581 46.565176 -0.337477 0.922442 0.044965 -0.011656 31710.900000 0 0 1
35.025469 -11.725029 26.760501 45.611229 -0.323032 0.943808 0.048280 -0.008827 -45475.800000 0 0 1
33.970079 -12.283329 26.002961 44.508431 -0.346965 0.946871 0.063772 -0.008210 81389.600000 0 0 1
33.953459 -11.638129 24.620071 43.525065 -0.330217 0.969572 0.062759 -0.015438 93463.900000 0 0 1
33.423769 -10.306629 24.616321 42.770763 -0.299111 0.957531 0.076071 -0.021736 32906.800000 0 0 1
33.524079 -9.704729 23.364761 41.999496 -0.281783 0.980857 0.070804 -0.017181 55205.600000 0 0 1
32.953529 -8.202229 23.433561 41.259464 -0.243946 0.966776 0.103205 -0.020068 -1382550.000000 0 0 1
31.599269 -8.181329 23.420511 40.174224 -0.253346 0.948413 0.121562 -0.023396 -1961340.000000 0 0 1
31.149429 -6.931229 22.929971 39.295196 -0.218948 0.947726 0.132344 -0.025070 -393403.000000 0 0 1
29.655109 -6.936229 22.635711 37.946175 -0.229766 0.931636 0.122659 -0.012590 -602112.000000 0 0 1
29.356409 -7.488129 21.376211 37.078474 -0.249751 0.956342 0.112871 -0.013797 1260630.000000 0 0 1
27.951929 -7.300929 21.045211 35.742339 -0.255488 0.941219 0.119593 -0.035558 1181310.000000 0 0 1
15.109886 -16.973729 26.360631 34.803721 -0.843426 0.711461 0.100341 -0.007277 477495.000000 0 0 1
14.425186 -18.245429 26.230931 35.057715 -0.901802 0.725419 0.087777 -0.001594 8264.600000 0 0 1
15.344786 -19.242829 26.310381 36.027560 -0.897625 0.752058 0.091777 0.003779 -978872.000000 0 0 1
14.627386 -20.634929 26.345461 36.521830 -0.954145 0.765029 0.067697 -0.001544 176662.000000 0 0 1
13.863186 -20.926629 27.487531 37.224670 -0.985707 0.740068 0.071575 -0.002269 988916.000000 0 0 1
12.602386 -20.247229 27.621271 36.492534 -1.014051 0.712237 0.074619 -0.004220 -71982.800000 0 0 1
11.731586 -20.747229 28.757171 37.350402 -1.056166 0.692066 0.079829 -0.013049 -506329.000000 0 0 1
12.205286 -20.428229 30.058691 38.338055 -1.032238 0.669643 0.083165 -0.016717 -82309.800000 0 0 1
11.676286 -19.339329 30.817391 38.210691 -1.027618 0.632567 0.102828 -0.023900 -160164.000000 0 0 1
11.559586 -17.891129 30.263941 37.008413 -0.997163 0.613291 0.099427 -0.018207 165177.000000 0 0 1
12.743586 -17.113129 30.342061 37.093110 -0.930717 0.612876 0.094827 -0.004329 -168808.000000 0 0 1
12.568886 -15.857829 29.780831 36.004799 -0.900585 0.596806 0.093417 -0.003985 505143.000000 0 0 1
13.618486 -14.717029 30.107501 36.173412 -0.824148 0.587534 0.094593 -0.004778 870648.000000 0 0 1
13.124686 -13.459729 29.636151 35.095913 -0.798000 0.565290 0.102778 -0.006326 -46877.700000 0 0 1
14.007686 -12.472929 30.067841 35.438176 -0.727505 0.557729 0.100729 -0.005727 -219950.000000 0 0 1
13.464086 -11.001129 29.836831 34.533215 -0.685064 0.527628 0.097286 -0.007905 310062.000000 0 0 1
13.766386 -10.418929 28.529591 33.346739 -0.647863 0.544196 0.109358 -0.013073 1066990.000000 0 0 1
15.172686 -10.299729 28.200051 33.638337 -0.596379 0.576582 0.097836 -0.015983 715081.000000 0 0 1
15.383786 -9.474429 26.873211 32.382019 -0.552008 0.591903 0.089616 -0.016544 152428.000000 0 0 1
15.426786 -8.081129 27.320301 32.398908 -0.482535 0.567500 0.083144 -0.014390 555545.000000 0 0 1
16.763886 -7.767029 27.731291 33.322352 -0.433875 0.587709 0.084015 -0.017049 -21641.100000 0 0 1
17.063086 -6.301829 27.921561 33.323798 -0.353786 0.577397 0.078891 -0.017309 1162260.000000 0 0 1
18.477486 -6.085929 28.177491 34.240722 -0.318179 0.604259 0.070911 -0.018540 1077650.000000 0 0 1
18.842986 -4.834529 27.623311 33.785768 -0.251152 0.613562 0.075663 -0.020192 1059610.000000 0 0 1
20.393686 -4.654829 27.368451 34.447089 -0.224404 0.652601 0.075062 -0.023740 590461.000000 0 0 1
20.835786 -5.529029 26.329631 34.028659 -0.259384 0.686059 0.070677 -0.022012 1868150.000000 0 0 1
22.203686 -5.296329 25.831111 34.471743 -0.234158 0.723729 0.070570 -0.016222 1801870.000000 0 0 1
23.394886 -5.587329 26.750601 35.974068 -0.234436 0.732346 0.084382 -0.027138 -716367.000000 0 0 1
23.790586 -4.479929 27.548871 36.674269 -0.186127 0.720953 0.081917 -0.022381 569373.000000 0 0 1
24.881786 -4.873829 28.411541 38.079826 -0.193430 0.728604 0.098897 -0.038242 746070.000000 0 0 1
25.633086 -3.718129 29.154661 38.998382 -0.144047 0.726376 0.102653 -0.031055 -115782.000000 0 0 1
26.261086 -2.915729 28.204431 38.647588 -0.110576 0.752789 0.086395 -0.023134 -298611.000000 0 0 1
26.669286 -1.682429 28.709951 39.221712 -0.063001 0.749556 0.074893 -0.028661 -242605.000000 0 0 1
27.661286 -0.935529 27.779901 39.214090 -0.033808 0.783544 0.085318 -0.031838 81747.000000 0 0 1
28.899886 -1.605129 27.714531 40.073371 -0.055484 0.807102 0.106917 -0.036833 -167315.000000 0 0 1
29.759386 -0.932029 26.783191 40.047834 -0.031309 0.838230 0.106959 -0.028586 560172.000000 0 0 1
31.279486 -1.057229 27.064791 41.376647 -0.033787 0.857794 0.101688 -0.021844 268714.000000 0 0 1
31.697886 -0.205829 28.112481 42.368738 -0.006493 0.845283 0.088233 -0.011378 -564530.000000 0 0 1
33.070686 -0.326929 28.349911 43.560241 -0.009885 0.862131 0.093986 -0.025353 -303174.000000 0 0 1
33.548386 0.786671 29.294241 44.545096 0.023445 0.853126 0.086908 -0.019264 -181914.000000 0 0 1
33.458286 2.054571 28.708221 44.134342 0.061330 0.862589 0.085409 -0.006006 185904.000000 0 0 1
33.834586 3.001271 29.671711 45.102076 0.088473 0.852797 0.074513 -0.000863 -32307.600000 0 0 1
34.156986 4.467571 29.160371 45.132982 0.130057 0.868334 0.072549 -0.002581 7869.490000 0 0 1
34.004286 5.563871 30.061321 45.726700 0.162185 0.853416 0.076698 0.005760 632633.000000 0 0 1
32.671886 6.029871 30.284241 44.954941 0.182505 0.831649 0.081426 0.002207 373656.000000 0 0 1
32.583086 7.076871 31.394251 45.796709 0.213873 0.815488 0.077751 -0.002166 112934.000000 0 0 1
32.992786 6.411171 32.631480 46.844856 0.191928 0.800168 0.076006 0.002075 367926.000000 0 0 1
32.999686 7.364371 33.665619 47.713595 0.219567 0.787559 0.074802 -0.000935 -48969.800000 0 0 1
33.226086 6.740871 -32.808534 47.178512 0.200162 2.339790 0.083514 0.003207 45173.400000 0 0 1
32.183386 5.915071 -32.308704 45.984897 0.181764 2.349832 0.080114 0.000320 223766.000000 0 0 1
32.328886 4.530371 -32.707184 46.210832 0.139227 2.357150 0.090988 -0.010340 -78579.900000 0 0 1
32.709086 3.493971 -31.633094 45.637099 0.106416 2.336639 0.099157 -0.021781 -84870.100000 0 0 1
32.706886 2.147371 -32.176274 45.931081 0.065561 2.346942 0.093405 -0.025118 194674.000000 0 0 1
33.001086 1.209271 -31.109524 45.368893 0.036627 2.326364 0.091714 -0.024785 -4737.450000 0 0 1
33.213086 -0.231029 -31.521594 45.790538 -0.006956 2.330059 0.083635 -0.031138 -595025.000000 0 0 1
34.353186 -0.354229 -32.369304 47.202105 -0.010311 2.326443 0.083279 -0.024458 455835.000000 0 0 1
35.081786 -1.579629 -32.180904 47.632316 -0.044997 2.312589 0.082181 -0.018550 767040.000000 0 0 1
36.034786 -1.537529 -30.936754 47.517918 -0.042642 2.279769 0.101774 -0.020299 -109719.000000 0 0 1
35.252786 -1.484229 -29.727594 46.137747 -0.042078 2.270934 0.099126 -0.025681 411125.000000 0 0 1
36.078786 -1.359829 -28.565844 46.038412 -0.037673 2.240149 0.120273 -0.027187 231952.000000 0 0 1
35.302686 -1.162229 -27.219194 44.592768 -0.032910 2.227355 0.126709 -0.030912 68544.100000 0 0 1
34.671986 0.106471 -27.152004 44.038497 0.003071 2.235151 0.118298 -0.032111 565772.000000 0 0 1
33.956686 0.318171 -25.913694 42.716241 0.009370 2.222633 0.114276 -0.031818 276757.000000 0 0 1
33.230686 1.680671 -25.906484 42.169290 0.050533 2.232352 0.099786 -0.025760 440107.000000 0 0 1
32.222786 1.833271 -26.911204 42.022395 0.056832 2.265817 0.097563 -0.034577 471099.000000 0 0 1
31.500486 3.038571 -26.780774 41.457489 0.096164 2.273105 0.091920 -0.019968 -168889.000000 0 0 1
30.520886 3.214071 -27.951534 41.510757 0.104921 2.309536 0.096989 -0.020454 -545812.000000 0 0 1
29.749086 4.353571 -27.726034 40.898590 0.145312 2.315728 0.079391 -0.018920 -171526.000000 0 0 1
28.964686 4.664271 -28.861754 41.154699 0.159662 2.348015 0.066228 -0.022023 221318.000000 0 0 1
27.715886 5.481671 -28.390824 40.053189 0.195261 2.358632 0.057866 -0.019311 -8245.550000 0 0 1
26.534786 4.758671 -28.102544 38.942172 0.177451 2.376976 0.072644 -0.019587 -237539.000000 0 0 1
25.646286 5.637671 -27.531054 38.045686 0.216382 2.379846 0.087317 -0.027888 -350529.000000 0 0 1
24.252186 4.994371 -27.239594 36.811788 0.203096 2.403821 0.105437 -0.020472 241615.000000 0 0 1
23.496386 4.851071 -28.422744 37.194965 0.203600 2.440528 0.107242 -0.021119 748549.000000 0 0 1
22.203286 4.294171 -28.173924 36.127494 0.191044 2.465218 0.089148 -0.015326 1227900.000000 0 0 1
21.132986 4.055771 -29.310134 36.361193 0.189611 2.508299 0.083338 -0.010976 566564.000000 0 0 1
21.479786 3.011571 -30.201694 37.183237 0.139297 2.518777 0.090907 -0.023559 -161438.000000 0 0 1
20.637186 2.811871 -31.311454 37.605946 0.135419 2.554617 0.078330 -0.030846 -268170.000000 0 0 1
21.071786 3.518971 -32.616874 38.990560 0.165472 2.561720 0.080767 -0.027194 -205362.000000 0 0 1
22.318386 3.057971 -33.092654 40.032303 0.136168 2.543922 0.088710 -0.023908 -166406.000000 0 0 1
22.752986 3.862471 33.712932 40.855585 0.168154 0.600288 0.073326 -0.036706 -340843.000000 0 0 1
24.248086 3.619171 33.433308 41.459066 0.148162 0.632728 0.090201 -0.030258 73050.500000 0 0 1
24.627586 2.252571 33.189548 41.390073 0.091212 0.640374 0.107734 -0.034816 31144.500000 0 0 1
26.003786 2.065271 32.905432 41.990829 0.079256 0.670302 0.105527 -0.032499 -222643.000000 0 0 1
26.300286 0.597071 32.558394 41.858220 0.022698 0.679598 0.084988 -0.031068 -950954.000000 0 0 1
25.917386 -0.032129 31.321281 40.653838 -0.001240 0.691268 0.088042 -0.029787 405837.000000 0 0 1
24.522686 -0.120929 31.056481 39.571224 -0.004931 0.668383 0.109822 -0.044183 59242.000000 0 0 1
23.694186 -1.058229 31.945228 39.787333 -0.044632 0.638653 0.101335 -0.052857 -815750.000000 0 0 1
23.547086 -2.368429 31.435111 39.347693 -0.100246 0.645322 0.099089 -0.060201 217600.000000 0 0 1
23.166786 -3.261129 32.503964 40.048004 -0.139849 0.623868 0.110748 -0.055303 -167639.000000 0 0 1
23.102986 -4.787929 32.166336 39.891671 -0.204350 0.632855 0.108911 -0.051844 221735.000000 0 0 1
24.349886 -5.465529 32.071724 40.637230 -0.220799 0.661258 0.085027 -0.035234 50435.700000 0 0 1
24.207286 -6.830129 31.830561 40.568805 -0.275003 0.668735 0.099616 -0.034521 69154.700000 0 0 1
25.560886 -7.587829 31.727951 41.443901 -0.288567 0.698879 0.085708 -0.029869 154241.000000 0 0 1
26.238586 -7.201629 30.559231 40.916909 -0.267871 0.727468 0.107036 -0.032272 -409378.000000 0 0 1
27.292486 -8.059729 30.180921 41.481647 -0.287148 0.756019 0.087848 -0.026933 -25376.500000 0 0 1
27.624186 -7.889129 28.689881 40.601026 -0.278183 0.786073 0.092864 -0.026984 -301809.000000 0 0 1
26.723186 -8.315329 27.704571 39.380409 -0.301668 0.790470 0.082364 -0.021695 -777548.000000 0 0 1
27.067386 -8.051929 26.381581 38.645372 -0.289141 0.819402 0.104129 -0.026564 392344.000000 0 0 1
26.123386 -8.737329 25.323581 37.417322 -0.322768 0.827406 0.078012 -0.026300 78339.700000 0 0 1
24.821286 -8.277329 25.142301 36.286991 -0.321880 0.805329 0.083583 -0.024164 -933024.000000 0 0 1
24.222886 -9.112129 24.195961 35.429135 -0.359803 0.819017 0.088238 -0.031644 -839332.000000 0 0 1
22.848286 -8.649529 23.792701 34.102069 -0.361891 0.798627 0.055296 -0.029821 -882203.000000 0 0 1
21.841786 -8.815729 24.759221 34.173085 -0.383621 0.760453 0.046246 -0.020264 -283037.000000 0 0 1
20.593786 -8.377529 24.258031 32.905001 -0.386354 0.741859 0.049858 -0.013508 797879.000000 0 0 1
19.506486 -8.253729 25.424361 33.091165 -0.400283 0.694595 0.044543 -0.010650 431520.000000 0 0 1
18.972786 -9.479829 25.994391 33.549100 -0.463371 0.684372 0.066598 -0.017359 71223.700000 0 0 1
19.851286 -10.328529 26.732971 34.862642 -0.479752 0.696942 0.057435 -0.012493 -260475.000000 0 0 1
19.174286 -11.470429 27.532651 35.458015 -0.539109 0.681726 0.057029 -0.008160 18574.000000 0 0 1
18.580386 -12.412029 26.660811 34.786320 -0.588937 0.697553 0.083336 -0.008569 163149.000000 0 0 1
17.721886 -13.373129 27.264741 35.160659 -0.646446 0.683396 0.081522 -0.004276 -170783.000000 0 0 1
18.367386 -14.483229 28.115271 36.573122 -0.667708 0.693926 0.090538 0.002724 -535421.000000 0 0 1
17.436586 -15.362729 28.686381 36.918240 -0.722254 0.680871 0.079448 0.002531 -37023.100000 0 0 1
18.008486 -16.378629 29.502611 38.248779 -0.738036 0.689861 0.083581 -0.001944 -45222.500000 0 0 1
18.484386 -17.683329 28.802551 38.522196 -0.763253 0.726224 0.089193 0.003255 624401.000000 0 0 1
19.675386 -17.469529 28.029051 38.443894 -0.726083 0.753805 0.083623 0.006882 802426.000000 0 0 1
19.998786 -18.642729 27.332961 38.659973 -0.750319 0.785536 0.077899 0.014032 -767347.000000 0 0 1
20.944386 -18.457129 26.192581 38.280337 -0.722356 0.817248 0.078514 0.002857 -531911.000000 0 0 1
22.265286 -18.189929 26.643871 39.198372 -0.684999 0.823417 0.062194 -0.002696 -177601.000000 0 0 1
23.010986 -17.788029 25.539261 38.706244 -0.658074 0.850213 0.044637 -0.005323 -849423.000000 0 0 1
24.486986 -17.644029 25.871871 39.752710 -0.624383 0.862132 0.041646 -0.006056 -808495.000000 0 0 1
25.177086 -18.801329 26.248741 40.943522 -0.641427 0.874870 0.044819 -0.002261 22686.300000 0 0 1
26.540786 -18.628829 25.909311 41.505891 -0.611996 0.896648 0.040410 -0.004371 -470923.000000 0 0 1
27.327686 -19.853229 26.307501 42.813990 -0.628283 0.909094 0.047542 -0.010478 -524837.000000 0 0 1
27.455486 -19.995529 27.732161 43.848576 -0.629461 0.886080 0.039435 -0.009275 194566.000000 0 0 1
28.073686 -21.236829 28.067111 45.021078 -0.647627 0.897685 0.050494 -0.008852 198066.000000 0 0 1
27.129586 -22.222629 28.814971 45.389010 -0.686297 0.882989 0.048549 -0.007683 -17896.000000 0 0 1
26.954586 -21.939329 30.195411 46.039621 -0.683181 0.855479 0.038192 -0.004700 110375.000000 0 0 1
26.384586 -23.080929 30.890261 46.723483 -0.718710 0.848473 0.030340 -0.005239 -193584.000000 0 0 1
26.111086 -22.962429 32.401874 47.528343 -0.721324 0.820661 0.025052 -0.000886 -65252.700000 0 0 1
25.801086 -24.202929 32.924992 48.327352 -0.753448 0.821271 0.021835 -0.006057 -78906.300000 0 0 1
25.411186 -24.026629 -33.603324 48.499388 -0.757399 2.336245 0.034979 -0.006455 -241175.000000 0 0 1
25.066086 -25.326709 -32.902694 48.500908 -0.790570 2.316370 0.031220 -0.013148 1240830.000000 0 0 1
23.895486 -26.143599 -33.267544 48.592299 -0.830295 2.324887 0.054019 -0.020146 852127.000000 0 0 1
23.826686 -26.612449 33.290435 48.828132 -0.840572 0.820592 0.036172 -0.014482 404012.000000 0 0 1
22.535386 -27.447389 32.980038 48.465304 -0.883358 0.822368 0.069765 -0.020645 629758.000000 0 0 1
22.474686 -28.773789 33.597903 49.617150 -0.907698 0.826923 0.082963 -0.029242 109510.000000 0 0 1
21.169586 -29.324819 33.639968 49.393763 -0.945523 0.821591 0.113810 -0.041116 120241.000000 0 0 1
21.249486 -30.876759 33.716134 50.415202 -0.968032 0.838244 0.100778 -0.042410 88190.800000 0 0 1
21.701186 -31.418379 -32.916174 50.413595 -0.966328 2.282233 0.090016 -0.040968 1390130.000000 0 0 1
23.132986 -31.653549 -32.810374 51.123408 -0.939685 2.267623 0.071089 -0.023807 833840.000000 0 0 1
23.586886 -32.381939 -31.548384 50.992467 -0.941266 2.237867 0.052326 -0.023361 -441706.000000 0 0 1
24.896386 -32.878169 -31.819564 52.089238 -0.922683 2.227951 0.046641 -0.009840 577547.000000 0 0 1
25.540086 -33.538499 -30.706264 52.153634 -0.919966 2.200327 0.038716 -0.008018 301322.000000 0 0 1
26.141986 -32.556679 -29.703844 51.241186 -0.894248 2.189141 0.031640 -0.014585 -484827.000000 0 0 1
26.661386 -33.152659 -28.498274 51.206249 -0.893499 2.161011 0.044380 -0.020883 193827.000000 0 0 1
27.119786 -32.248169 -27.494134 50.312569 -0.871567 2.148936 0.045937 -0.015332 -610874.000000 0 0 1
27.566486 -32.857429 -26.184054 50.250637 -0.872739 2.118899 0.051938 -0.020340 811069.000000 0 0 1
28.811786 -33.573039 -26.243204 51.439029 -0.861571 2.106191 0.056448 -0.004072 994166.000000 0 0 1
29.975386 -32.766199 -26.052914 51.486910 -0.829850 2.101349 0.065403 -0.023978 189097.000000 0 0 1
-27.391604 -30.538338 9.356446 42.076516 0.839664 1.346554 0.053186 -0.012303 -189470.000000 0 0 1
-27.373794 -31.661538 10.259246 43.093268 0.857901 1.330417 0.061046 -0.012491 197868.000000 0 0 1
-26.025054 -31.895938 10.658446 42.523603 0.886413 1.317447 0.038671 -0.004540 516592.000000 0 0 1
-25.775384 -32.961438 11.812646 43.478333 0.907136 1.295647 0.037324 -0.000211 -119367.000000 0 0 1
-25.979964 33.747171 11.492746 44.112507 -0.914717 1.307223 0.044860 0.012165 -779225.000000 0 0 1
-27.296804 33.299871 11.447446 44.553798 -0.884142 1.310947 0.033715 -0.007529 -714224.000000 0 0 1
-27.450454 31.824371 11.162446 43.484690 -0.859055 1.311192 0.045480 -0.004344 236951.000000 0 0 1
-26.803184 31.367371 9.962246 42.444894 -0.863700 1.333876 0.077909 -0.017330 219992.000000 0 0 1
-27.030874 29.985371 9.681146 41.515241 -0.837170 1.335434 0.097446 -0.020439 108311.000000 0 0 1
-26.397154 29.532171 8.335146 40.477568 -0.841393 1.363392 0.076142 -0.006756 -276999.000000 0 0 1
-25.014214 29.334571 8.323746 39.439989 -0.864725 1.358149 0.061314 0.002310 -355991.000000 0 0 1
-24.451314 29.250971 7.013746 38.764400 -0.874537 1.388862 0.049466 0.004588 963123.000000 0 0 1
-23.014014 28.597071 7.069546 37.382025 -0.893155 1.380534 0.078454 0.007359 759976.000000 0 0 1
-22.901414 27.171071 7.121646 36.241685 -0.870462 1.373005 0.074495 0.000398 173590.000000 0 0 1
-23.469214 26.484871 5.957746 35.885194 -0.845694 1.404002 0.060503 -0.003066 -206490.000000 0 0 1
-23.898014 25.059571 6.256046 35.188568 -0.809119 1.392060 0.076149 -0.004207 -49484.100000 0 0 1
-25.029814 24.929171 7.109746 36.034756 -0.783384 1.372191 0.100267 -0.009323 426524.000000 0 0 1
-25.301714 23.576971 7.444746 35.376186 -0.750127 1.358766 0.101781 -0.019867 -131249.000000 0 0 1
-25.949164 22.575571 6.458546 34.996119 -0.715987 1.385182 0.085122 -0.028649 -911658.000000 0 0 1
-27.306444 22.847771 6.268946 36.151932 -0.696732 1.396510 0.085792 -0.029784 -471287.000000 0 0 1
-27.872454 22.340271 5.073046 36.079041 -0.675666 1.429720 0.074944 -0.024044 6604.710000 0 0 1
-27.606924 23.099971 3.736346 36.189932 -0.696749 1.467369 0.062688 -0.021915 -1345280.000000 0 0 1
-26.279034 23.231871 3.401146 35.240251 -0.723930 1.474133 0.068326 -0.022734 -931158.000000 0 0 1
-26.056304 23.957171 2.234246 35.466447 -0.743451 1.507759 0.055414 -0.022382 1114880.000000 0 0 1
-24.602514 24.594171 2.216546 34.857855 -0.785229 1.507165 0.070891 -0.019407 1144100.000000 0 0 1
-24.311514 25.330571 1.030646 35.124774 -0.805923 1.541450 0.052678 -0.027403 -269774.000000 0 0 1
-23.016614 25.871771 1.145046 34.647138 -0.843733 1.537742 0.069916 -0.023359 -363256.000000 0 0 1
-22.413814 26.464971 -0.180254 34.681497 -0.868091 1.575994 0.086112 -0.026687 162823.000000 0 0 1
-21.904114 25.641271 -1.225654 33.745625 -0.863839 1.607125 0.078965 -0.036561 228865.000000 0 0 1
-20.758914 24.919171 -0.793454 32.442675 -0.876225 1.595256 0.078430 -0.044950 -185132.000000 0 0 1
-20.225614 24.000071 -1.871954 31.441741 -0.870537 1.630369 0.085520 -0.056681 89124.300000 0 0 1
-21.293914 23.163671 -2.246554 31.544151 -0.827430 1.642076 0.086260 -0.055005 533324.000000 0 0 1
-20.759014 22.190371 -3.126354 30.547067 -0.818712 1.673321 0.096746 -0.056757 583297.000000 0 0 1
-21.941014 21.501571 -3.896554 30.966252 -0.775283 1.696963 0.087440 -0.042941 498353.000000 0 0 1
-22.361614 22.251071 -5.031554 31.944772 -0.782920 1.728963 0.080116 -0.039121 196804.000000 0 0 1
-23.759214 22.079771 -5.221254 32.852367 -0.748777 1.730404 0.074194 -0.030355 416057.000000 0 0 1
-24.189314 22.781171 -6.516754 33.861080 -0.755428 1.764460 0.079897 -0.020711 197748.000000 0 0 1
-23.471614 22.295871 -7.660654 33.267223 -0.759714 1.803158 0.087838 -0.023013 201092.000000 0 0 1
-23.541214 23.195471 -8.739954 34.184871 -0.778001 1.829334 0.087656 -0.025409 21964.200000 0 0 1
-22.824714 22.837271 -10.059254 33.818591 -0.785673 1.872814 0.091598 -0.022816 376394.000000 0 0 1
-23.529914 21.828071 -10.816154 33.869023 -0.747895 1.895842 0.065887 -0.011428 506487.000000 0 0 1
-22.642614 21.280271 -11.768054 33.226872 -0.754391 1.932826 0.070123 -0.008847 -60279.000000 0 0 1
-23.273614 20.867771 -13.088854 33.888687 -0.730949 1.967338 0.070099 -0.011169 -161581.000000 0 0 1
-24.114714 19.739171 -13.052054 33.786246 -0.685952 1.967427 0.065247 -0.002684 24726.800000 0 0 1
-25.254264 19.849271 -13.851454 34.980483 -0.666132 1.977928 0.070649 -0.009517 -355792.000000 0 0 1
-26.099884 18.561471 -14.025954 34.963689 -0.618184 1.983577 0.091904 -0.015833 -543123.000000 0 0 1
-25.514964 17.479871 -14.725354 34.254859 -0.600644 2.015152 0.076048 -0.018412 -138542.000000 0 0 1
-26.418124 16.418771 -14.881354 34.481126 -0.556076 2.017040 0.093669 -0.021070 -455743.000000 0 0 1
-26.022794 15.446771 -16.038954 34.249622 -0.535690 2.058157 0.101018 -0.017941 -84437.200000 0 0 1
-24.871514 14.653971 -15.870954 32.942651 -0.532431 2.073476 0.103204 -0.019810 96103.400000 0 0 1
-24.561014 14.074671 -17.130354 33.087593 -0.520367 2.114989 0.102751 -0.030582 219808.000000 0 0 1
-23.609714 12.827671 -17.130154 31.865497 -0.497701 2.138357 0.099024 -0.022507 -200324.000000 0 0 1
-22.283514 13.174271 -16.836254 30.880024 -0.533932 2.147442 0.100336 -0.031283 -248870.000000 0 0 1
-21.582414 11.922971 -16.754854 29.810786 -0.504714 2.167646 0.107372 -0.028312 -216303.000000 0 0 1
-20.350314 12.069871 -15.845554 28.476282 -0.535334 2.160900 0.105584 -0.031976 -934935.000000 0 0 1
-19.399014 12.967471 -16.262454 28.441949 -0.589243 2.179467 0.091109 -0.024868 -241304.000000 0 0 1
-18.290714 12.946271 -15.365954 27.171101 -0.615945 2.171867 0.088073 -0.021047 -367587.000000 0 0 1
-17.366314 14.108371 -15.593654 27.272643 -0.682256 2.179457 0.074922 -0.021772 -566427.000000 0 0 1
-16.670214 13.968771 -16.816554 27.492164 -0.697455 2.228986 0.089652 -0.024426 -23691.200000 0 0 1
-15.862414 15.099771 -17.064654 27.763676 -0.760772 2.232725 0.080526 -0.017522 -56234.600000 0 0 1
-15.091214 15.055771 -18.424354 28.175837 -0.784222 2.283532 0.103873 -0.022695 1211580.000000 0 0 1
-13.801114 14.398571 -18.310554 27.075191 -0.806582 2.313504 0.103421 -0.019384 756857.000000 0 0 1
-13.255414 14.236571 -19.612954 27.623431 -0.821072 2.360311 0.126485 -0.026519 331799.000000 0 0 1
-12.092414 13.213971 -19.593554 26.546994 -0.829688 2.401003 0.116662 -0.026359 243127.000000 0 0 1
-12.525414 11.922571 -19.958954 26.408210 -0.760745 2.427650 0.126370 -0.024196 795998.000000 0 0 1
-11.504214 10.945571 -19.638054 25.254814 -0.760519 2.461630 0.105929 -0.015745 561567.000000 0 0 1
-11.702214 9.701171 -20.560154 25.569014 -0.692177 2.504964 0.106648 -0.015281 104917.000000 0 0 1
-11.381214 9.976271 -21.896654 26.618067 -0.719711 2.536807 0.108804 -0.016827 -111931.000000 0 0 1
-11.810914 8.881971 -22.701354 27.087609 -0.644789 2.564535 0.099866 -0.005212 55099.900000 0 0 1
-11.477814 9.127671 -24.159754 28.262136 -0.671835 2.596049 0.088240 -0.013448 -40734.800000 0 0 1
-10.122514 8.815371 -24.411954 27.858922 -0.716485 2.638863 0.089046 -0.011076 -157475.000000 0 0 1
-9.896014 8.387971 -25.774814 28.855332 -0.703106 2.675303 0.065675 -0.022710 -237610.000000 0 0 1
-9.793814 9.407671 -26.991264 30.215086 -0.765291 2.675440 0.105855 -0.030050 479066.000000 0 0 1
-8.561914 10.122671 -27.181004 30.242054 -0.868736 2.687779 0.094192 -0.039584 661176.000000 0 0 1
-8.298314 11.131371 -26.205784 29.656577 -0.930189 2.654381 0.073949 -0.027673 -449937.000000 0 0 1
-6.822814 11.542371 -26.310764 29.530212 -1.036939 2.670291 0.068884 -0.029033 -256794.000000 0 0 1
-6.469414 12.326771 -27.458534 30.785933 -1.087485 2.672366 0.075424 -0.044851 -200456.000000 0 0 1
-5.073914 12.460571 -27.464864 30.583152 -1.184101 2.686088 0.088784 -0.039865 -498835.000000 0 0 1
-4.565014 13.005471 -28.820764 31.947114 -1.233224 2.695500 0.088398 -0.034263 -204812.000000 0 0 1
-3.157814 13.066271 -28.769644 31.755183 -1.333666 2.704492 0.098594 -0.043425 -45738.700000 0 0 1
-2.538614 13.172771 -30.022374 32.883269 -1.380414 2.721371 0.097190 -0.038091 80487.400000 0 0 1
-1.062314 12.738071 -30.043544 32.649678 -1.487592 2.739333 0.114798 -0.050398 -304299.000000 0 0 1
-0.955614 11.303371 -29.880134 31.960942 -1.486454 2.778760 0.094541 -0.034859 554213.000000 0 0 1
0.322986 10.701071 -30.140404 31.985328 1.540623 2.800291 0.098522 -0.042813 703476.000000 0 0 1
0.809786 10.469671 -31.565544 33.266399 1.493604 2.820438 0.110322 -0.038730 97118.500000 0 0 1
1.332686 11.583371 -32.347094 34.384372 1.456248 2.795631 0.124717 -0.045557 305400.000000 0 0 1
1.637786 11.141871 -33.655344 35.489517 1.424848 2.818689 0.145197 -0.038554 90264.400000 0 0 1
2.308386 12.104571 33.206359 35.419085 1.382355 0.355343 0.152529 -0.046591 3059.840000 0 0 1
3.706286 12.004671 33.073256 35.379216 1.271343 0.363040 0.151039 -0.051623 -340314.000000 0 0 1
4.160886 12.774371 32.005497 34.710940 1.255912 0.397432 0.137930 -0.041541 -278342.000000 0 0 1
5.665486 12.636571 31.754601 34.642970 1.149323 0.411243 0.136416 -0.043261 -275248.000000 0 0 1
6.031686 11.415571 31.070841 33.646600 1.084708 0.393829 0.151590 -0.048272 -408653.000000 0 0 1
7.409286 11.198971 31.150551 33.921546 0.986307 0.407002 0.140567 -0.027780 -502739.000000 0 0 1
7.965086 10.204471 30.175341 32.834814 0.908029 0.405248 0.093196 -0.016635 -163477.000000 0 0 1
7.904286 10.675271 28.870661 31.779777 0.933449 0.431211 0.091353 -0.037740 -205440.000000 0 0 1
8.376486 9.777971 27.878491 30.708053 0.862443 0.432654 0.071132 -0.044019 10910.500000 0 0 1
7.376986 8.761171 27.316611 29.620521 0.870960 0.397015 0.068946 -0.028968 -76450.900000 0 0 1
6.903286 7.712871 28.153281 29.995849 0.840731 0.352326 0.087595 -0.030988 3681.780000 0 0 1
5.988786 6.856271 27.500231 28.967857 0.852830 0.319680 0.107030 -0.029859 -62139.100000 0 0 1
5.366286 5.714171 28.335561 29.399877 0.816784 0.269896 0.118678 -0.038303 -27121.300000 0 0 1
6.252186 4.671371 28.618391 29.663510 0.641680 0.266238 0.087987 -0.039624 -313627.000000 0 0 1
5.744286 3.982071 29.703331 30.514613 0.606163 0.231107 0.087099 -0.039442 -286781.000000 0 0 1
6.600286 2.845371 30.260031 31.101919 0.407024 0.233202 0.099919 -0.031424 -193590.000000 0 0 1
6.464886 1.662071 29.533161 30.278125 0.251642 0.222286 0.097877 -0.021560 -221017.000000 0 0 1
7.301386 1.540071 28.394771 29.358901 0.207881 0.256986 0.079535 -0.018528 -82869.900000 0 0 1
7.282486 0.111671 27.764231 28.703651 0.015333 0.256548 0.072333 -0.017573 -42301.100000 0 0 1
7.879086 -0.832229 28.586651 29.664275 -0.105235 0.270368 0.052389 -0.022585 -133381.000000 0 0 1
7.976886 -2.092329 28.020381 29.208737 -0.256520 0.286230 0.063810 -0.024180 34172.800000 0 0 1
8.703486 -3.176529 28.912361 30.360593 -0.349950 0.310113 0.050127 -0.018458 613391.000000 0 0 1
10.078386 -2.946729 29.170881 31.003183 -0.284452 0.345520 0.038101 -0.018031 379340.000000 0 0 1
10.939486 -3.833529 28.418291 30.691490 -0.337058 0.387295 0.061974 -0.017788 13034.400000 0 0 1
12.326086 -3.897029 29.081151 31.825031 -0.306217 0.418296 0.058439 -0.017757 296643.000000 0 0 1
13.230186 -4.850629 28.479541 31.775001 -0.351416 0.459470 0.069790 -0.017627 474438.000000 0 0 1
13.345186 -6.045329 29.271021 32.732746 -0.425343 0.464060 0.082396 -0.019415 -328131.000000 0 0 1
12.506786 -7.180929 28.672371 32.095020 -0.521205 0.466031 0.088726 -0.024124 4933.840000 0 0 1
11.115286 -6.959329 28.756791 31.605931 -0.559393 0.427864 0.084373 -0.026761 -438463.000000 0 0 1
10.408586 -8.127229 28.496591 31.407741 -0.662936 0.433952 0.099085 -0.036504 1291690.000000 0 0 1
8.843886 -7.935029 28.303391 30.696269 -0.731284 0.397461 0.109879 -0.041693 1225650.000000 0 0 1
8.152586 -7.656229 29.488281 31.537933 -0.754011 0.362509 0.129951 -0.048422 -867300.000000 0 0 1
6.783886 -7.637629 29.202041 30.937254 -0.844528 0.336513 0.124526 -0.050177 -407607.000000 0 0 1
5.981786 -7.069029 30.424421 31.802489 -0.868515 0.295461 0.111133 -0.050757 122758.000000 0 0 1
6.096386 -7.848529 31.601801 33.127619 -0.910391 0.304686 0.114195 -0.044733 267488.000000 0 0 1
5.168186 -7.392829 32.562804 33.789056 -0.960687 0.270233 0.114320 -0.043862 -115194.000000 0 0 1
5.760186 -6.130729 33.350331 34.394915 -0.816550 0.247084 0.114557 -0.031972 395872.000000 0 0 1
5.838086 -4.948829 32.561592 33.448938 -0.703146 0.230853 0.111059 -0.032335 -30552.400000 0 0 1
6.374086 -3.879329 33.388870 34.212495 -0.546726 0.219868 0.089229 -0.018339 337969.000000 0 0 1
6.723886 -2.660229 32.546730 33.340322 -0.376741 0.218622 0.082782 -0.024968 -847668.000000 0 0 1
5.591686 -2.255129 31.872760 32.438024 -0.383348 0.186959 0.097754 -0.031513 -654364.000000 0 0 1
5.793086 -1.041229 31.238891 31.788556 -0.177838 0.186233 0.082953 -0.022595 746664.000000 0 0 1
4.401086 -0.543229 30.705061 31.023627 -0.122810 0.143430 0.103363 -0.029881 735919.000000 0 0 1
3.525986 -0.105729 31.713571 31.909158 -0.029977 0.110777 0.099019 -0.030715 -1519310.000000 0 0 1
2.439286 0.515271 31.156991 31.256579 0.208178 0.079848 0.103388 -0.037100 -719342.000000 0 0 1
1.422486 0.783571 32.308282 32.349073 0.503493 0.050224 0.087629 -0.037282 393774.000000 0 0 1
1.945586 1.856771 33.121333 33.230342 0.762045 0.081021 0.076250 -0.032569 519194.000000 0 0 1
0.970586 2.225171 -33.767354 33.854507 1.159490 3.069823 0.062842 -0.037142 337960.000000 0 0 1
1.632286 3.255371 -32.793154 32.994738 1.106019 3.030996 0.059404 -0.032325 -187717.000000 0 0 1
2.634686 2.805471 -31.936104 32.167172 0.816781 3.021660 0.040621 -0.014813 -403045.000000 0 0 1
3.110386 3.873871 -31.129204 31.523146 0.894281 2.983333 0.038878 -0.020433 -688139.000000 0 0 1
4.135886 3.499971 -30.072394 30.556574 0.702310 2.963338 0.040634 -0.014763 -589237.000000 0 0 1
3.601986 2.801271 -28.938314 29.295860 0.660996 2.985198 0.044498 -0.020009 -432067.000000 0 0 1
4.437686 2.906071 -27.875554 28.375779 0.579785 2.953547 0.046701 -0.020608 -666551.000000 0 0 1
3.904886 2.117371 -26.635764 27.003617 0.496863 2.976345 0.036592 -0.018970 109772.000000 0 0 1
4.181586 0.722171 -26.603084 26.939400 0.171016 2.983414 0.058649 -0.020315 14648.500000 0 0 1
3.644886 0.134971 -25.446104 25.706179 0.037013 2.999225 0.069837 -0.018211 -318613.000000 0 0 1
4.126586 -1.283729 -25.176754 25.544972 -0.301597 2.971597 0.072330 -0.025273 310791.000000 0 0 1
5.528086 -1.465329 -25.006154 25.651796 -0.259111 2.916756 0.079078 -0.031851 269198.000000 0 0 1
5.715086 -2.840229 -24.792054 25.600294 -0.461221 2.889644 0.090493 -0.038284 -428343.000000 0 0 1
7.141786 -3.138629 -24.319454 25.540007 -0.414066 2.831188 0.100903 -0.047674 -308907.000000 0 0 1
8.092086 -2.947629 -25.346924 26.770075 -0.349322 2.814057 0.095117 -0.039464 -855794.000000 0 0 1
9.289386 -3.486529 -24.852254 26.759729 -0.359055 2.761738 0.089625 -0.042099 -339878.000000 0 0 1
-30.101464 -4.193029 17.575811 35.108244 0.138406 1.046484 0.121366 -0.021678 557115.000000 0 0 1
-31.502004 -4.046829 17.786711 36.402200 0.127763 1.060293 0.099097 -0.010239 208087.000000 0 0 1
-31.906914 -5.084729 18.672011 37.316882 0.158032 1.046778 0.104065 -0.017664 -73500.300000 0 0 1
-33.330184 -4.929329 19.243111 38.800732 0.146830 1.051871 0.097150 -0.012588 387646.000000 0 0 1
-34.265185 -4.900729 18.151111 39.084305 0.142060 1.087829 0.090988 -0.016610 183945.000000 0 0 1
-35.612536 -4.797029 18.539911 40.435041 0.133895 1.094477 0.098243 -0.014051 110656.000000 0 0 1
-36.635254 -4.747229 17.384111 40.827507 0.128863 1.130957 0.081545 -0.016150 369484.000000 0 0 1
36.337289 -4.732329 17.789611 40.734061 -0.129505 1.118841 0.100546 -0.023770 144723.000000 0 0 1
35.365519 -4.695229 16.762811 39.417723 -0.131991 1.131546 0.079484 -0.026017 636730.000000 0 0 1
33.964689 -5.288829 17.047311 38.369032 -0.154475 1.110405 0.076272 -0.023371 300341.000000 0 0 1
33.298929 -4.584329 18.083111 38.168490 -0.136812 1.077229 0.091355 -0.029573 -294063.000000 0 0 1
32.003529 -5.097229 18.220011 37.177633 -0.157944 1.058615 0.125312 -0.033918 -505276.000000 0 0 1
31.253589 -4.800429 19.502111 37.150549 -0.152405 1.018142 0.121528 -0.027986 58385.000000 0 0 1
30.283519 -3.755229 19.540311 36.235577 -0.123373 1.001241 0.119344 -0.028706 340745.000000 0 0 1
30.785749 -2.448829 19.301111 36.418292 -0.079377 1.012215 0.126044 -0.032022 -121629.000000 0 0 1
29.711179 -1.382629 19.580411 35.609806 -0.046502 0.988600 0.111182 -0.022956 181754.000000 0 0 1
30.240539 -0.070129 19.616311 36.045731 -0.002319 0.995354 0.123572 -0.026968 -145100.000000 0 0 1
29.241129 0.810271 20.048811 35.463431 0.027703 0.969954 0.105461 -0.024504 86216.600000 0 0 1
29.481759 2.248771 19.524011 35.431879 0.076129 0.987199 0.107795 -0.032097 120421.000000 0 0 1
29.332349 2.266971 18.106411 34.545158 0.077132 1.019094 0.108803 -0.032900 -41944.500000 0 0 1
29.275509 3.579171 17.546211 34.318150 0.121654 1.034122 0.105448 -0.033266 161434.000000 0 0 1
28.864029 3.592671 16.055711 33.223866 0.123832 1.066424 0.106510 -0.031588 164284.000000 0 0 1
28.618529 4.899471 15.457611 32.893202 0.169555 1.081581 0.105761 -0.029190 318559.000000 0 0 1
28.280529 4.785671 14.043211 31.935916 0.167633 1.115497 0.095964 -0.026541 -38502.300000 0 0 1
27.882929 6.135571 13.396011 31.536583 0.216596 1.132081 0.089945 -0.014740 133714.000000 0 0 1
26.665429 6.622871 13.955411 30.816570 0.243443 1.100832 0.096214 -0.020338 525756.000000 0 0 1
26.072929 7.522271 13.049811 30.111123 0.280881 1.122547 0.094558 -0.035444 320180.000000 0 0 1
24.778229 8.274871 13.560311 29.433249 0.322312 1.091997 0.101516 -0.036269 710431.000000 0 0 1
23.509829 7.682671 13.587311 28.219683 0.315846 1.068450 0.107651 -0.028617 334475.000000 0 0 1
23.404929 6.388571 14.267811 28.145603 0.266467 1.039178 0.126674 -0.035553 -478597.000000 0 0 1
22.005829 5.754771 13.998911 26.708489 0.255783 1.019095 0.140405 -0.027695 209987.000000 0 0 1
21.863729 5.369471 12.647511 25.822730 0.240822 1.058957 0.154082 -0.032221 139994.000000 0 0 1
20.788029 4.519571 12.406511 24.627021 0.214081 1.042831 0.153845 -0.029720 -633628.000000 0 1 0
20.424129 4.404771 10.918311 23.574490 0.212412 1.089260 0.153436 -0.031393 186287.000000 0 1 0
21.477529 3.848971 10.124511 24.054200 0.177327 1.136355 0.169157 -0.038135 1035330.000000 0 1 0
20.946929 3.527471 8.878311 23.022625 0.166835 1.174901 0.168586 -0.033587 -360664.000000 0 1 0
22.018129 2.958571 7.970411 23.602512 0.133570 1.226331 0.148630 -0.020701 -1268490.000000 0 1 0
22.342129 1.603571 8.300511 23.888086 0.071651 1.215919 0.144324 -0.025725 329110.000000 0 1 0
23.193829 0.934371 7.408711 24.366283 0.040264 1.261849 0.138595 -0.014149 65208.200000 0 1 0
24.710529 1.268371 7.641811 25.896260 0.051284 1.271243 0.143219 -0.013907 469682.000000 0 0 1
25.379529 0.636471 8.791411 26.866605 0.025073 1.237431 0.118892 -0.005363 971332.000000 0 0 1
24.899329 1.241571 9.992611 26.858338 0.049822 1.189581 0.106186 -0.014068 -660074.000000 0 0 1
25.676929 0.824271 11.256611 28.048091 0.032091 1.157825 0.087137 -0.009033 -259288.000000 0 0 1
27.004929 1.275571 11.398911 29.339878 0.047200 1.171780 0.084255 -0.007239 435411.000000 0 0 1
27.755529 0.464971 12.310911 30.366826 0.016751 1.153373 0.103874 -0.016243 6833.940000 0 0 1
29.278419 0.642671 12.200411 31.725209 0.021947 1.176060 0.146990 -0.015073 -185544.000000 0 0 1
29.832089 1.851171 12.688111 32.471041 0.061974 1.169348 0.138365 -0.013677 -294805.000000 0 0 1
31.215049 1.612571 12.734311 33.751183 0.051614 1.183918 0.133588 -0.017762 -183929.000000 0 0 1
32.053289 2.843171 13.248011 34.799522 0.088470 1.180248 0.133250 -0.025840 -17383.100000 0 0 1
32.131369 3.898771 12.341311 34.640052 0.120748 1.206520 0.127336 -0.022791 426834.000000 0 0 1
32.993509 4.961471 12.740511 35.714261 0.149259 1.206026 0.111638 -0.023142 -240699.000000 0 0 1
34.401209 4.904371 12.164511 36.816726 0.141610 1.234061 0.120996 -0.016833 -427706.000000 0 0 1
35.234489 3.888671 12.740411 37.668409 0.109921 1.225766 0.119099 -0.025854 1057060.000000 0 0 1
36.592749 4.176071 12.369811 38.852040 0.113631 1.246774 0.126080 -0.015409 706381.000000 0 0 1
-36.611584 3.291471 12.944211 38.971714 -0.089661 1.232221 0.171330 -0.017780 -411907.000000 0 0 1
-36.261394 1.997571 12.479711 38.400810 -0.055032 1.239800 0.164989 -0.016189 332509.000000 0 0 1
-37.158114 0.893671 12.596811 39.245430 -0.024046 1.244037 0.153799 -0.018064 -368720.000000 0 0 1
36.742969 0.452171 13.968411 39.311153 0.012306 1.207530 0.147309 -0.014338 -684326.000000 0 0 1
-36.645624 -0.197229 14.753211 39.504404 0.005382 1.188063 0.134800 -0.017117 -464092.000000 0 0 1
-37.051804 -0.347229 16.096611 40.398733 0.009371 1.160977 0.134837 -0.023938 19419.700000 0 0 1
-36.045628 -1.166129 16.954211 39.850878 0.032340 1.131347 0.115946 -0.021966 222175.000000 0 0 1
-34.877038 -0.427129 17.235711 38.905783 0.012246 1.111841 0.126161 -0.020143 164034.000000 0 0 1
-33.915824 -0.970229 18.156511 38.482248 0.028599 1.079448 0.129317 -0.021967 487089.000000 0 0 1
-34.159202 -0.893929 19.647211 39.416534 0.026164 1.048985 0.115794 -0.029553 -711942.000000 0 0 1
-34.874948 -1.955729 20.147211 40.323653 0.056020 1.047616 0.109539 -0.034425 -357005.000000 0 0 1
-35.135926 -1.765629 21.548811 41.255327 0.050209 1.021218 0.106015 -0.034353 87894.400000 0 0 1
-35.446708 -3.063929 22.284811 41.981777 0.086223 1.011227 0.094536 -0.026797 -404043.000000 0 0 1
-34.424488 -4.007329 22.254211 41.186818 0.115888 0.999975 0.100190 -0.027469 -398189.000000 0 0 1
-34.682075 -5.289929 22.899001 41.895035 0.151360 0.992521 0.093940 -0.031054 46127.700000 0 0 1
-34.964223 -5.293329 24.471231 43.004156 0.150252 0.965454 0.101555 -0.035975 869068.000000 0 0 1
-33.739864 -4.918529 25.103691 42.341064 0.144758 0.936151 0.099600 -0.034180 254678.000000 0 0 1
-33.905404 -4.794329 26.524921 43.314356 0.140472 0.911727 0.088508 -0.037272 1016870.000000 0 0 1
-32.820324 -3.798329 27.171521 42.777243 0.115218 0.882547 0.084531 -0.033980 735505.000000 0 0 1
-32.840564 -2.394829 26.937881 42.542770 0.072794 0.885122 0.089600 -0.027004 -133651.000000 0 0 1
-32.217894 -2.110329 25.686421 41.258192 0.065408 0.898764 0.098505 -0.029256 -51129.400000 0 0 1
-32.374124 -0.647429 25.237291 41.053915 0.019996 0.908746 0.097678 -0.024117 414645.000000 0 0 1
-33.679714 -0.197529 24.905881 41.888723 0.005865 0.934063 0.106428 -0.032512 299961.000000 0 0 1
-33.475104 1.162571 24.664661 41.596631 -0.034715 0.936081 0.100955 -0.023529 21668.600000 0 0 1
-34.708409 1.923471 24.142271 42.322839 -0.055361 0.963765 0.099350 -0.019614 -294680.000000 0 0 1
-35.320904 1.280071 23.057911 42.200381 -0.036225 0.992747 0.106468 -0.022769 -76060.200000 0 0 1
-36.497634 1.870271 22.532011 42.933283 -0.051199 1.018299 0.100383 -0.012822 474236.000000 0 0 1
-36.253104 3.303571 21.839111 42.451713 -0.090874 1.030435 0.096396 -0.014855 -501363.000000 0 0 1
-35.564506 3.398971 20.634911 41.257565 -0.095283 1.047026 0.093368 -0.015585 -507465.000000 0 0 1
-36.375574 3.130371 19.509611 41.395731 -0.085845 1.080038 0.111442 -0.028345 373143.000000 0 0 1
-35.568311 2.507871 18.312511 40.084190 -0.070392 1.096344 0.129584 -0.029484 193160.000000 0 0 1
-34.765190 3.396471 17.560811 39.096503 -0.097388 1.104965 0.122868 -0.036153 -20923.200000 0 0 1
-34.280310 2.671271 16.438111 38.111506 -0.077767 1.124845 0.143848 -0.024407 40957.300000 0 0 1
-33.269354 3.562471 15.683011 36.952645 -0.106673 1.132488 0.140422 -0.024344 -12006.500000 0 0 1
-33.975774 4.605771 15.111511 37.468976 -0.134739 1.155668 0.147753 -0.023878 -208624.000000 0 0 1
-33.140154 5.438271 14.387411 36.535493 -0.162650 1.166042 0.155793 -0.021013 -329073.000000 0 0 1
-33.827204 6.753871 13.892111 37.187165 -0.197067 1.187939 0.168696 -0.018722 308097.000000 0 0 1
-32.944964 7.449671 13.028111 36.202209 -0.222385 1.202667 0.190808 -0.010934 271970.000000 0 0 1
-33.356814 8.778271 12.781011 36.784363 -0.257328 1.215938 0.160526 -0.010105 -66231.800000 0 0 1
-32.565724 9.451171 11.617011 35.844190 -0.282459 1.240739 0.184419 -0.007577 218899.000000 0 0 1
-32.817194 10.845171 11.409611 36.397324 -0.319173 1.251947 0.148773 0.007339 113659.000000 0 0 1
-31.999434 11.345871 10.361811 35.497320 -0.340736 1.274579 0.158272 -0.004689 127679.000000 0 0 1
-32.047254 12.898171 10.233311 36.029293 -0.382637 1.282804 0.138872 -0.001043 10796.700000 0 0 1
-31.211854 13.474371 9.262911 35.235494 -0.407538 1.304784 0.146810 -0.006203 -119661.000000 0 0 1
-31.201694 14.854871 9.351111 35.800226 -0.444339 1.306529 0.130430 -0.007914 11692.200000 0 0 1
-30.289744 15.606571 8.354811 35.083280 -0.475767 1.330344 0.129992 -0.010758 943205.000000 0 0 1
-28.897124 15.573571 8.718311 33.964523 -0.494306 1.311202 0.150322 -0.006484 894424.000000 0 0 1
-28.155514 16.615871 8.079511 33.676381 -0.533143 1.328517 0.110488 -0.028153 383099.000000 0 0 1
-26.700354 16.679871 8.642611 32.646925 -0.558388 1.302873 0.105755 -0.021489 103487.000000 0 0 1
-26.504384 17.024171 10.047311 33.064380 -0.570954 1.262043 0.097896 -0.019687 184019.000000 0 0 1
-26.739814 18.428471 10.249511 34.054055 -0.603425 1.265079 0.090695 -0.025626 -437629.000000 0 0 1
-26.785184 18.930371 11.675911 34.815685 -0.615240 1.228805 0.114608 -0.018144 -50204.300000 0 0 1
-25.522244 18.764471 12.290711 33.978698 -0.633975 1.200686 0.098697 -0.012784 132411.000000 0 0 1
-25.374584 19.211871 13.626811 34.621604 -0.648049 1.166260 0.104371 -0.022684 68119.600000 0 0 1
-26.082034 18.353771 14.704311 35.119086 -0.613201 1.138785 0.099722 -0.018570 417081.000000 0 0 1
-25.380824 17.118571 14.846611 34.024309 -0.593385 1.119255 0.097560 -0.014533 521912.000000 0 0 1
-26.008394 16.424171 15.909711 34.631039 -0.563256 1.093470 0.094992 -0.007774 -113551.000000 0 0 1
-25.118484 15.287871 16.378211 33.658625 -0.546741 1.062605 0.087553 -0.004534 -162575.000000 0 0 1
-23.911314 15.689271 16.985411 33.262717 -0.580682 1.034863 0.075189 -0.002366 170930.000000 0 0 1
-22.844514 14.757871 17.074611 32.112442 -0.573568 1.010174 0.056893 -0.006509 364387.000000 0 0 1
-23.054614 13.548271 17.992811 32.230609 -0.531296 0.978519 0.077376 -0.007259 -569148.000000 0 0 1
-22.876414 13.935071 19.341811 33.039706 -0.547117 0.945409 0.082568 -0.009431 94385.500000 0 0 1
-23.286714 12.979171 20.289311 33.502031 -0.508479 0.920259 0.091005 -0.019594 -427183.000000 0 0 1
-23.020014 13.399071 21.799511 34.419106 -0.527125 0.884915 0.087196 -0.015000 903697.000000 0 0 1
-21.641614 13.589371 22.176111 33.835047 -0.560702 0.856060 0.080407 -0.012488 873790.000000 0 0 1
-21.229814 14.924171 21.859011 33.930108 -0.612724 0.870772 0.081071 0.002266 155965.000000 0 0 1
-19.789614 15.321871 22.326611 33.539024 -0.658834 0.842378 0.084349 -0.003209 1999520.000000 0 0 1
-18.668014 14.726971 21.585911 32.114327 -0.667928 0.833676 0.056681 -0.005937 1114770.000000 0 0 1
-18.248714 15.687671 20.610011 31.684241 -0.710075 0.862578 0.062284 -0.009431 -898492.000000 0 0 1
-17.125614 15.134971 19.656711 30.145320 -0.723771 0.860491 0.051590 -0.005452 991130.000000 0 0 1
-15.864814 14.811871 20.216411 29.661206 -0.751088 0.820880 0.047229 -0.002519 231083.000000 0 0 1
-15.178614 15.888671 20.804011 30.259661 -0.808250 0.812733 0.031230 -0.005358 -1417510.000000 0 0 1
-14.177914 15.498671 21.891411 30.339017 -0.829874 0.764744 0.000219 -0.002663 -215859.000000 0 0 1
-12.958214 14.989371 21.408911 29.170842 -0.857948 0.746729 0.025726 -0.003383 -38786.400000 0 0 1
-12.234214 14.321671 22.484811 29.331774 -0.863843 0.697316 0.039757 -0.002658 966136.000000 0 0 1
-10.867514 13.727371 22.007911 28.122797 -0.901157 0.672021 0.041772 -0.003804 -420778.000000 0 0 1
-10.486014 12.640871 22.813411 28.110493 -0.878305 0.623976 0.051480 -0.001647 540066.000000 0 0 1
-9.169714 12.108471 22.661411 27.280731 -0.922641 0.590478 0.056659 0.009353 939478.000000 0 0 1
-7.958514 13.023571 22.971981 27.580124 -1.022266 0.586437 0.057733 0.013366 -505578.000000 0 0 1
-7.512314 13.874571 21.953811 27.035318 -1.074545 0.623154 0.050383 0.011592 -99758.400000 0 0 1
-6.961314 15.132971 22.444911 27.950684 -1.139650 0.638454 0.040851 0.018489 -216520.000000 0 0 1
-7.937214 16.231871 22.810611 29.099776 -1.115996 0.669913 0.058970 -0.015010 -211736.000000 0 0 1
-8.793914 16.704671 21.779011 28.821941 -1.086225 0.714166 0.017948 -0.009351 -244611.000000 0 0 1
-8.217814 17.509071 20.723411 28.347130 -1.131971 0.750924 0.030082 -0.004243 -744143.000000 0 0 1
-9.218914 17.768571 19.574811 27.997924 -1.092196 0.796585 0.033321 -0.002892 -35262.400000 0 0 1
-10.325014 18.561271 19.838811 29.063811 -1.063155 0.819489 0.018260 0.003105 -1028120.000000 0 0 1
-11.365314 17.847171 20.438411 29.418031 -1.003747 0.802713 0.024436 -0.002747 -832085.000000 0 0 1
-12.687014 18.663271 20.491311 30.482320 -0.973767 0.833572 0.014963 -0.004314 168217.000000 0 0 1
-13.403014 18.842971 19.291311 30.114001 -0.952526 0.875505 0.023308 -0.006377 118320.000000 0 0 1
-14.502714 19.731371 19.481111 31.291683 -0.936959 0.898780 0.006608 -0.009217 -102868.000000 0 0 1
-15.490614 19.676971 18.326811 31.032472 -0.903881 0.939033 0.032669 -0.003509 -442111.000000 0 0 1
-16.287814 18.480371 18.278811 30.674614 -0.848377 0.932418 0.046988 -0.005875 438734.000000 0 0 1
-17.024714 18.440571 17.065211 30.349909 -0.825299 0.973653 0.053965 -0.015182 -112467.000000 0 0 1
-17.786114 17.090371 16.774011 29.829417 -0.765452 0.973594 0.053345 -0.021197 1560940.000000 0 0 1
-18.997714 16.780271 17.516711 30.811131 -0.723499 0.966092 0.052520 -0.009152 174717.000000 0 0 1
-20.140114 17.395071 17.050311 31.605788 -0.712396 1.000991 0.066624 -0.014694 -805988.000000 0 0 1
34.885499 -9.727529 11.749546 38.074593 -0.271934 1.257083 0.076154 -0.032939 255494.000000 0 0 1
33.500799 -10.045729 11.685346 36.875025 -0.291333 1.248347 0.075782 -0.030585 368676.000000 0 0 1
33.187229 -11.372829 12.004546 37.078869 -0.330145 1.241099 0.092291 -0.028154 -61312.400000 0 0 1
31.675879 -11.653429 12.052246 35.838810 -0.352528 1.227821 0.100725 -0.025721 -166185.000000 0 0 1
30.937649 -10.966929 13.040046 35.319321 -0.340665 1.192644 0.110384 -0.016211 1039490.000000 0 0 1
29.509489 -11.149329 13.017246 34.125740 -0.361242 1.179432 0.105091 -0.020570 1215300.000000 0 0 1
29.060429 -12.175829 14.099346 34.518848 -0.396763 1.150037 0.097477 -0.021292 -633122.000000 0 0 1
29.188429 -11.634729 15.418146 35.000722 -0.379305 1.114630 0.107110 -0.019357 -216536.000000 0 0 1
28.317829 -12.153129 16.389146 34.902752 -0.405396 1.081997 0.112565 -0.025673 955437.000000 0 0 1
26.812129 -11.685729 16.291146 33.479067 -0.411014 1.062595 0.103912 -0.038692 777635.000000 0 0 1
26.749129 -10.266929 16.403946 33.015378 -0.366483 1.050822 0.090039 -0.040361 -259628.000000 0 0 1
25.787529 -9.672529 15.544846 31.625886 -0.358846 1.056959 0.111370 -0.037929 433270.000000 0 0 1
25.465829 -8.214129 15.949446 31.150685 -0.312019 1.033274 0.130528 -0.035489 184186.000000 0 0 1
26.668229 -7.488029 15.806946 31.892390 -0.273736 1.052232 0.122482 -0.031242 221569.000000 0 0 1
26.526429 -6.244429 16.421746 31.816946 -0.231195 1.028467 0.113750 -0.034326 669937.000000 0 0 1
27.885429 -5.470129 16.337846 32.778723 -0.193705 1.049011 0.118273 -0.030712 565231.000000 0 0 1
28.146729 -5.063829 15.016746 32.301445 -0.178004 1.087282 0.129650 -0.031493 -124795.000000 0 0 1
29.336129 -4.330529 14.930546 33.200649 -0.146559 1.104360 0.136456 -0.029442 -212582.000000 0 0 1
29.641189 -3.732729 13.557746 32.807710 -0.125271 1.144777 0.152588 -0.029626 -54353.600000 0 0 1
30.092699 -4.646729 12.579046 32.945333 -0.153204 1.179036 0.133691 -0.028111 162889.000000 0 0 1
30.586389 -3.839629 11.538346 32.915093 -0.124881 1.212639 0.134995 -0.025174 -32822.700000 0 0 1
31.061039 -4.551629 10.211246 33.011740 -0.145503 1.256317 0.140215 -0.023216 -257808.000000 0 0 1
32.303049 -5.182329 10.343746 34.312338 -0.159073 1.264574 0.137421 -0.030327 -269635.000000 0 0 1
32.653459 -5.683529 9.085746 34.367159 -0.172330 1.303243 0.123523 -0.026922 919863.000000 0 0 1
34.104349 -6.316529 8.964946 35.824229 -0.183137 1.317860 0.116449 -0.029157 1373910.000000 0 0 1
35.174129 -5.402229 9.177646 36.750954 -0.152394 1.318400 0.120746 -0.029484 -304994.000000 0 0 1
36.404539 -5.923229 8.792346 37.916756 -0.161292 1.336781 0.113743 -0.030964 -150923.000000 0 0 1
-36.918944 -4.846029 8.298946 38.149246 0.130515 1.351504 0.110875 -0.033220 175436.000000 0 0 1
-37.089354 -4.395929 7.007246 38.000604 0.117972 1.385337 0.112181 -0.030595 47994.900000 0 0 1
-35.862358 -3.852029 6.581446 36.664183 0.107001 1.390312 0.137202 -0.020793 94631.300000 0 0 1
-35.947586 -3.262829 5.130946 36.458217 0.090518 1.429593 0.134804 -0.030846 -21427.700000 0 0 1
-35.771363 -4.266129 4.108346 36.258362 0.118700 1.457245 0.137923 -0.039894 -70987.800000 0 0 1
-35.741294 -3.576729 2.857246 36.033276 0.099741 1.491418 0.155258 -0.032520 -88660.600000 0 0 1
-34.979023 -4.209929 1.688546 35.271897 0.119780 1.522906 0.203927 -0.044203 -65569.800000 0 0 1
-35.547162 -5.432329 1.266646 35.982153 0.151647 1.535587 0.171727 -0.030666 -187240.000000 0 0 1
-36.622714 -5.353329 0.385146 37.013912 0.145147 1.560391 0.143476 -0.031892 -577444.000000 0 0 1
-36.053650 -5.367629 -1.041754 36.465907 0.147793 1.599368 0.193151 -0.040070 -1014570.000000 0 0 1
-35.423609 -6.578129 -1.296254 36.052519 0.183608 1.606759 0.173596 -0.047839 -106554.000000 0 0 1
-34.299560 -6.448429 -2.111754 34.964290 0.185834 1.631231 0.165217 -0.046636 563110.000000 0 0 1
-32.963944 -5.856529 -1.491354 33.513351 0.175830 1.615311 0.181084 -0.058275 170079.000000 0 0 1
-32.325394 -6.751429 -0.597154 33.028314 0.205899 1.588877 0.160689 -0.050390 -279244.000000 0 0 1
-31.062584 -6.176329 -0.301454 31.672102 0.196275 1.580314 0.190938 -0.062518 307247.000000 0 0 1
-30.225624 -7.248329 0.511846 31.086792 0.235363 1.554331 0.150867 -0.050298 -3397.970000 0 0 1
-29.904634 -8.437429 -0.170854 31.072601 0.274996 1.576295 0.159589 -0.042372 192742.000000 0 0 1
-29.597954 -9.406129 0.800646 31.066947 0.307703 1.545022 0.142089 -0.030843 -185546.000000 0 0 1
-29.140944 -10.772729 0.230346 31.069268 0.354096 1.563382 0.128867 -0.023197 -346235.000000 0 0 1
-28.098994 -10.511729 -0.682054 30.008584 0.357978 1.593527 0.134929 -0.032105 -49489.100000 0 0 1
-27.548374 -11.700629 -1.277454 29.957462 0.401642 1.613452 0.132049 -0.015791 -438504.000000 0 0 1
-28.342774 -12.656529 -2.152554 31.114853 0.419983 1.640033 0.129096 -0.019838 -848967.000000 0 0 1
-29.120674 -13.597729 -1.470454 32.172568 0.436855 1.616517 0.138126 -0.024872 72806.300000 0 0 1
-29.561444 -14.639429 -2.298454 33.067730 0.459817 1.640360 0.126320 -0.026128 -431470.000000 0 0 1
-30.404054 -15.647329 -1.522254 34.228098 0.475296 1.615285 0.118490 -0.023414 29027.000000 0 0 1
-29.634834 -16.287329 -0.514154 33.819593 0.502537 1.586000 0.099921 -0.014199 402025.000000 0 0 1
-30.486804 -16.929329 0.390446 34.874057 0.506903 1.559600 0.101164 -0.010927 -244877.000000 0 0 1
-30.864814 -18.382629 0.137046 35.924596 0.537167 1.566981 0.111346 -0.024250 -693926.000000 0 0 1
-29.947294 -19.399529 0.349646 35.683391 0.574819 1.560998 0.110727 -0.030596 -589028.000000 0 0 1
-30.381424 -20.732629 0.161346 36.781774 0.598824 1.566410 0.114466 -0.029323 225502.000000 0 0 1
-31.333074 -21.254329 1.315546 37.884545 0.596037 1.536064 0.116669 -0.022813 364345.000000 0 0 1
-30.638164 -21.509429 2.525146 37.519715 0.612098 1.503444 0.116533 -0.027692 271812.000000 0 0 1
-31.590714 -22.021529 3.428546 38.661039 0.608769 1.481997 0.105897 -0.030398 428836.000000 0 0 1
-30.885274 -22.288429 4.780346 38.386533 0.625110 1.445940 0.102027 -0.030835 205026.000000 0 0 1
-30.703104 -21.046829 5.432046 37.618569 0.600925 1.425892 0.082848 -0.033418 379367.000000 0 0 1
-29.728914 -21.200829 6.476546 37.084082 0.619489 1.395251 0.082308 -0.030387 522689.000000 0 0 1
-29.606994 -19.858829 7.285046 36.387073 0.590823 1.369224 0.079748 -0.019993 536534.000000 0 0 1
-28.487844 -19.972729 8.171146 35.738422 0.611462 1.340118 0.072709 -0.027875 268936.000000 0 0 1
-28.265804 -18.730929 8.784646 35.028180 0.585231 1.317302 0.085554 -0.029104 291561.000000 0 0 1
-26.943754 -18.705229 9.597946 34.175606 0.606845 1.286125 0.092347 -0.020929 5787.170000 0 0 1
-26.922434 -19.587429 10.629146 34.949443 0.628978 1.261772 0.096235 -0.025280 144568.000000 0 0 1
-25.670494 -19.577729 11.297746 34.203813 0.651551 1.234168 0.090125 -0.010991 177659.000000 0 0 1
-25.514534 -18.380229 12.312246 33.770041 0.624275 1.197603 0.085708 -0.018416 -569005.000000 0 0 1
-24.980114 -17.237129 11.720646 32.534570 0.604006 1.202258 0.090168 -0.020057 -28598.800000 0 0 1
-24.804914 -16.053529 12.560446 32.105519 0.574398 1.168835 0.076391 -0.012825 -84817.900000 0 0 1
-24.011114 -16.050629 13.838946 32.026126 0.589248 1.123960 0.073209 -0.007932 -211540.000000 0 0 1
-24.697914 -16.836829 14.797246 33.353025 0.598345 1.111123 0.057922 -0.022323 427375.000000 0 0 1
-23.783714 -17.283129 15.830046 33.391046 0.628408 1.076877 0.061957 -0.014515 516633.000000 0 0 1
-24.404614 -18.070629 17.010246 34.806340 0.637367 1.060184 0.054889 0.011626 205058.000000 0 0 1
-25.201954 -17.227529 17.834646 35.355351 0.599620 1.042063 0.057690 0.003353 533948.000000 0 0 1
-26.256014 -17.905729 18.537246 36.791615 0.598520 1.042753 0.047123 0.010215 349146.000000 0 0 1
-27.261314 -16.935429 19.226046 37.411614 0.555881 1.031065 0.042228 0.000482 -178246.000000 0 0 1
-26.837384 -16.388929 20.436246 37.503098 0.548232 0.994501 0.057166 -0.008021 617667.000000 0 0 1
-27.830264 -15.479329 20.958346 38.123293 0.507595 0.988729 0.061917 -0.015854 570365.000000 0 0 1
-27.320834 -14.818929 22.274146 38.238282 0.496993 0.948984 0.070141 -0.020191 -216587.000000 0 0 1
-26.324924 -13.889129 22.032846 37.031822 0.485486 0.933567 0.071925 -0.019490 -781965.000000 0 0 1
-25.348774 -13.825729 23.015546 36.924606 0.499320 0.897825 0.076087 -0.022895 -418541.000000 0 0 1
-24.057414 -13.193529 22.439146 35.444938 0.501628 0.885283 0.078757 -0.015099 -188323.000000 0 0 1
-24.024914 -11.762029 22.377046 34.875120 0.455274 0.874170 0.100482 -0.018101 -28168.100000 0 0 1
-22.989614 -11.270829 21.556146 33.469708 0.455823 0.871016 0.100789 -0.018374 -627315.000000 0 0 1
-22.596314 -9.792729 21.957146 32.994048 0.408945 0.842649 0.109423 -0.014930 319565.000000 0 0 1
-21.947314 -9.853729 23.253246 33.458841 0.421999 0.802403 0.112954 -0.023483 895166.000000 0 0 1
-20.542614 -10.117629 23.184546 32.586632 0.457645 0.779203 0.089317 -0.018151 336055.000000 0 0 1
-19.874814 -10.319929 24.553646 33.232374 0.478926 0.739438 0.085263 -0.022272 36652.200000 0 0 1
-20.305614 -11.478029 25.174946 34.319689 0.514486 0.747277 0.099912 -0.022308 -471494.000000 0 0 1
-19.411214 -11.855029 26.173146 34.675215 0.548273 0.715434 0.103642 -0.018738 -1171430.000000 0 0 1
-19.844514 -13.113329 26.976946 35.965536 0.583933 0.722617 0.098950 -0.045870 -21835.500000 0 0 1
-20.971814 -12.985929 27.809946 37.173168 0.554424 0.725574 0.112719 -0.037338 -263842.000000 0 0 1
-22.210814 -12.863029 27.101746 37.326699 0.524935 0.758209 0.098194 -0.030443 -602879.000000 0 0 1
-23.278814 -12.865729 28.199546 38.763960 0.504898 0.756172 0.089743 -0.029780 -380201.000000 0 0 1
-23.521014 -14.111029 28.833146 39.795849 0.540370 0.760449 0.083689 -0.027605 -88894.200000 0 0 1
-22.614314 -14.419629 29.899946 40.166400 0.567632 0.731158 0.083082 -0.025410 107249.000000 0 0 1
-22.964414 -15.589529 30.834946 41.487247 0.596394 0.732897 0.067504 -0.032806 -555356.000000 0 0 1
-22.749014 -16.919329 30.357046 41.537111 0.639482 0.751242 0.064631 -0.030992 -192763.000000 0 0 1
-23.057614 -17.832229 31.378746 42.828351 0.658295 0.748570 0.070962 -0.032706 911134.000000 0 0 1
-24.503814 -18.068929 31.975146 44.151252 0.635383 0.760896 0.069598 -0.029879 520806.000000 0 0 1
-24.895314 -17.035629 32.850546 44.599862 0.600105 0.742824 0.081318 -0.028558 141454.000000 0 0 1
-26.155864 -17.325329 33.458546 45.866879 0.585035 0.753248 0.097702 -0.038389 477393.000000 0 0 1
-26.901964 -16.130429 -33.726219 46.058271 0.540126 2.392418 0.098071 -0.035840 305845.000000 0 0 1
-26.366594 -15.790729 -32.445619 44.690744 0.539604 2.383288 0.099190 -0.037346 325201.000000 0 0 1
-27.158764 -14.737629 -31.877219 44.395420 0.497181 2.371763 0.087033 -0.028262 201176.000000 0 0 1
-26.590904 -14.190729 -30.505419 42.883955 0.490218 2.362211 0.088458 -0.020036 29527.900000 0 0 1
-26.897154 -15.126629 -29.502219 42.692538 0.512304 2.333722 0.097818 -0.011103 267934.000000 0 0 1
-26.126094 -14.854229 -28.357019 41.319989 0.516980 2.327156 0.110330 0.000928 -106676.000000 0 0 1
-26.506424 -15.838729 -27.200919 41.150284 0.538611 2.292966 0.102445 -0.001589 898184.000000 0 0 1
-27.716494 -15.622229 -26.439719 41.368066 0.513258 2.264168 0.104078 -0.004135 803741.000000 0 0 1
-27.770834 -14.442629 -25.675619 40.485136 0.479570 2.257768 0.107777 -0.003228 -345748.000000 0 0 1
-26.858114 -14.192029 -24.417319 38.974062 0.486114 2.247853 0.091886 -0.013465 166246.000000 0 0 1
-25.523354 -13.900129 -24.843719 38.234351 0.498691 2.278085 0.085653 -0.015037 953371.000000 0 0 1
-24.597214 -14.223629 -23.768819 37.044451 0.524282 2.267417 0.086532 -0.011518 449699.000000 0 0 1
-23.954214 -15.642229 -23.885219 37.269121 0.578485 2.266447 0.083045 -0.002063 157587.000000 0 0 1
-22.947014 -15.691629 -24.929019 37.339640 0.599784 2.301816 0.062043 -0.000757 562561.000000 0 0 1
-22.631214 -17.056029 -25.166219 37.900113 0.645833 2.296971 0.074758 -0.006795 292539.000000 0 0 1
-21.673414 -17.212129 -26.398219 38.247356 0.671169 2.332558 0.060394 -0.009480 423777.000000 0 0 1
-22.337214 -17.236129 -27.696319 39.536330 0.657203 2.346934 0.071117 -0.015143 403350.000000 0 0 1
-23.081714 -18.442529 -27.868819 40.614819 0.674137 2.327012 0.084908 -0.022341 -118123.000000 0 0 1
-23.747914 -18.536629 -29.247519 41.987944 0.662773 2.341401 0.094784 -0.024148 -37125.400000 0 0 1
-22.854314 -18.785129 -30.322019 42.363022 0.687983 2.368517 0.100590 -0.026569 72811.500000 0 0 1
-23.377314 -18.202229 -31.495819 43.241260 0.661573 2.386742 0.098806 -0.030258 -577086.000000 0 0 1
-22.602014 -18.549329 -32.814119 43.951053 0.687232 2.413742 0.090551 -0.033574 -536923.000000 0 0 1
-21.351814 -17.928029 -33.043419 43.234035 0.698454 2.440739 0.082840 -0.027442 88533.100000 0 0 1
-20.321214 -18.496229 -32.244219 42.364513 0.738418 2.435825 0.065361 -0.026228 -889804.000000 0 0 1
-19.735714 -19.748629 -32.966719 43.200826 0.785725 2.438899 0.061540 -0.027178 -1432410.000000 0 0 1
-19.152714 -19.431129 33.609546 43.289685 0.792614 0.681884 0.071506 -0.032850 370435.000000 0 0 1
-19.140314 -20.414329 32.618646 42.977582 0.817596 0.709068 0.076954 -0.029969 37097.300000 0 0 1
-20.561614 -20.827829 32.129646 43.461392 0.791830 0.738813 0.081193 -0.029544 508183.000000 0 0 1
-21.388214 -21.524229 33.077546 44.887328 0.788568 0.742321 0.085024 -0.035542 -195938.000000 0 0 1
-22.677614 -21.839829 32.631646 45.343981 0.766581 0.767503 0.101219 -0.023736 -61993.000000 0 0 1
-22.762014 -23.045829 31.651546 45.288408 0.791594 0.796954 0.103770 -0.004255 -584203.000000 0 0 1
-22.573514 -24.307929 32.284746 46.289781 0.822377 0.798965 0.114368 -0.006285 -38922.100000 0 0 1
-22.738714 -25.371759 31.363946 46.308448 0.840073 0.826732 0.114364 0.002736 -148487.000000 0 0 1
-22.402314 -26.792019 31.897146 47.298033 0.874394 0.830663 0.143175 -0.000015 4656.790000 0 0 1
-23.381114 -27.352239 32.747046 48.653782 0.863513 0.832454 0.106040 -0.000812 -17172.200000 0 0 1
-22.862014 -28.435709 33.485046 49.522818 0.893627 0.828267 0.114269 -0.008951 -36922.900000 0 0 1
-23.988314 -29.177019 -33.577219 50.538771 0.882686 2.297467 0.098380 0.001959 -92327.600000 0 0 1
-24.922214 -29.855489 33.466546 51.307667 0.875216 0.860219 0.081415 0.001109 976363.000000 0 0 1
-26.101004 -29.117909 33.086446 51.223315 0.839979 0.868561 0.068009 0.004633 152324.000000 0 0 1
-27.125234 -28.728149 -33.714919 51.940164 0.814089 2.277211 0.033998 0.006689 -1560910.000000 0 0 1
-28.173374 -28.073839 33.562346 52.041431 0.783629 0.869883 0.027484 0.007053 -503322.000000 0 0 1
-29.211674 -27.756419 -33.397719 52.336874 0.759859 2.262863 0.034915 0.006885 230468.000000 0 0 1
-30.299534 -26.807569 33.926546 52.798845 0.724327 0.872959 0.030653 -0.001519 98466.800000 0 0 1
-31.381824 -27.463519 33.305146 53.369434 0.718910 0.896882 0.012876 -0.002489 -242386.000000 0 0 1
-32.444614 -26.610519 32.956346 53.356288 0.686927 0.905025 0.027210 -0.006040 -66194.300000 0 0 1
